    1C
    1UUSER                                                              
    1UDATE              27.october.2022                                 
    1UTIME              01:09:16                                        
    1UHOST                                                              
    1UPGM               CalculiX                                        
    1UVERSION           Version 2.17                             
    1UCOMPILETIME       Thu Jul 23 21:43:50 CEST 2020                    
    1UDIR                                                               
    1UDBN                                                               
    1UMAT    1SOLIDMATERIAL                                             
    2C                          4269                                     1
 -1         1 8.34286E+01 3.82314E+01 0.00000E+00
 -1         2 9.64596E+01 3.46780E+01 0.00000E+00
 -1         3 1.50000E+02 0.00000E+00 0.00000E+00
 -1         4 1.50000E+02 5.00000E+01 0.00000E+00
 -1         5 0.00000E+00 0.00000E+00 0.00000E+00
 -1         6 0.00000E+00 5.00000E+01 0.00000E+00
 -1         7 0.00000E+00 4.70500E+01 0.00000E+00
 -1         8 0.00000E+00 4.41000E+01 0.00000E+00
 -1         9 0.00000E+00 4.11500E+01 0.00000E+00
 -1        10 0.00000E+00 3.82000E+01 0.00000E+00
 -1        11 0.00000E+00 3.52500E+01 0.00000E+00
 -1        12 0.00000E+00 3.23500E+01 0.00000E+00
 -1        13 0.00000E+00 2.94000E+01 0.00000E+00
 -1        14 0.00000E+00 2.64500E+01 0.00000E+00
 -1        15 0.00000E+00 2.35000E+01 0.00000E+00
 -1        16 0.00000E+00 2.05500E+01 0.00000E+00
 -1        17 0.00000E+00 1.76000E+01 0.00000E+00
 -1        18 0.00000E+00 1.47000E+01 0.00000E+00
 -1        19 0.00000E+00 1.17500E+01 0.00000E+00
 -1        20 0.00000E+00 8.80000E+00 0.00000E+00
 -1        21 0.00000E+00 5.85000E+00 0.00000E+00
 -1        22 0.00000E+00 2.90000E+00 0.00000E+00
 -1        23 3.15000E+00 5.00000E+01 0.00000E+00
 -1        24 6.15000E+00 5.00000E+01 0.00000E+00
 -1        25 9.15000E+00 5.00000E+01 0.00000E+00
 -1        26 1.21500E+01 5.00000E+01 0.00000E+00
 -1        27 1.51500E+01 5.00000E+01 0.00000E+00
 -1        28 1.81500E+01 5.00000E+01 0.00000E+00
 -1        29 2.11500E+01 5.00000E+01 0.00000E+00
 -1        30 2.43000E+01 5.00000E+01 0.00000E+00
 -1        31 2.73000E+01 5.00000E+01 0.00000E+00
 -1        32 3.03000E+01 5.00000E+01 0.00000E+00
 -1        33 3.33000E+01 5.00000E+01 0.00000E+00
 -1        34 3.63000E+01 5.00000E+01 0.00000E+00
 -1        35 3.93000E+01 5.00000E+01 0.00000E+00
 -1        36 4.23000E+01 5.00000E+01 0.00000E+00
 -1        37 4.54500E+01 5.00000E+01 0.00000E+00
 -1        38 4.84500E+01 5.00000E+01 0.00000E+00
 -1        39 5.14500E+01 5.00000E+01 0.00000E+00
 -1        40 5.44500E+01 5.00000E+01 0.00000E+00
 -1        41 5.74500E+01 5.00000E+01 0.00000E+00
 -1        42 6.04500E+01 5.00000E+01 0.00000E+00
 -1        43 6.34500E+01 5.00000E+01 0.00000E+00
 -1        44 6.66000E+01 5.00000E+01 0.00000E+00
 -1        45 6.96000E+01 5.00000E+01 0.00000E+00
 -1        46 7.26000E+01 5.00000E+01 0.00000E+00
 -1        47 7.56000E+01 5.00000E+01 0.00000E+00
 -1        48 7.86000E+01 5.00000E+01 0.00000E+00
 -1        49 8.16000E+01 5.00000E+01 0.00000E+00
 -1        50 8.44500E+01 5.00000E+01 0.00000E+00
 -1        51 8.74500E+01 5.00000E+01 0.00000E+00
 -1        52 9.01500E+01 5.00000E+01 0.00000E+00
 -1        53 9.27000E+01 5.00000E+01 0.00000E+00
 -1        54 9.57000E+01 5.00000E+01 0.00000E+00
 -1        55 9.87000E+01 5.00000E+01 0.00000E+00
 -1        56 1.01700E+02 5.00000E+01 0.00000E+00
 -1        57 1.04700E+02 5.00000E+01 0.00000E+00
 -1        58 1.07850E+02 5.00000E+01 0.00000E+00
 -1        59 1.10850E+02 5.00000E+01 0.00000E+00
 -1        60 1.13850E+02 5.00000E+01 0.00000E+00
 -1        61 1.16850E+02 5.00000E+01 0.00000E+00
 -1        62 1.19850E+02 5.00000E+01 0.00000E+00
 -1        63 1.22850E+02 5.00000E+01 0.00000E+00
 -1        64 1.25850E+02 5.00000E+01 0.00000E+00
 -1        65 1.29000E+02 5.00000E+01 0.00000E+00
 -1        66 1.32000E+02 5.00000E+01 0.00000E+00
 -1        67 1.35000E+02 5.00000E+01 0.00000E+00
 -1        68 1.38000E+02 5.00000E+01 0.00000E+00
 -1        69 1.41000E+02 5.00000E+01 0.00000E+00
 -1        70 1.44000E+02 5.00000E+01 0.00000E+00
 -1        71 1.47000E+02 5.00000E+01 0.00000E+00
 -1        72 3.15000E+00 0.00000E+00 0.00000E+00
 -1        73 6.15000E+00 0.00000E+00 0.00000E+00
 -1        74 9.15000E+00 0.00000E+00 0.00000E+00
 -1        75 1.21500E+01 0.00000E+00 0.00000E+00
 -1        76 1.51500E+01 0.00000E+00 0.00000E+00
 -1        77 1.81500E+01 0.00000E+00 0.00000E+00
 -1        78 2.11500E+01 0.00000E+00 0.00000E+00
 -1        79 2.41500E+01 0.00000E+00 0.00000E+00
 -1        80 2.71500E+01 0.00000E+00 0.00000E+00
 -1        81 3.01500E+01 0.00000E+00 0.00000E+00
 -1        82 3.31500E+01 0.00000E+00 0.00000E+00
 -1        83 3.61500E+01 0.00000E+00 0.00000E+00
 -1        84 3.91500E+01 0.00000E+00 0.00000E+00
 -1        85 4.21500E+01 0.00000E+00 0.00000E+00
 -1        86 4.51500E+01 0.00000E+00 0.00000E+00
 -1        87 4.81500E+01 0.00000E+00 0.00000E+00
 -1        88 5.11500E+01 0.00000E+00 0.00000E+00
 -1        89 5.41500E+01 0.00000E+00 0.00000E+00
 -1        90 5.71500E+01 0.00000E+00 0.00000E+00
 -1        91 6.01500E+01 0.00000E+00 0.00000E+00
 -1        92 6.31500E+01 0.00000E+00 0.00000E+00
 -1        93 6.61500E+01 0.00000E+00 0.00000E+00
 -1        94 6.91500E+01 0.00000E+00 0.00000E+00
 -1        95 7.21500E+01 0.00000E+00 0.00000E+00
 -1        96 7.51500E+01 0.00000E+00 0.00000E+00
 -1        97 7.81500E+01 0.00000E+00 0.00000E+00
 -1        98 8.11500E+01 0.00000E+00 0.00000E+00
 -1        99 8.41500E+01 0.00000E+00 0.00000E+00
 -1       100 8.71500E+01 0.00000E+00 0.00000E+00
 -1       101 9.01500E+01 0.00000E+00 0.00000E+00
 -1       102 9.31500E+01 0.00000E+00 0.00000E+00
 -1       103 9.61500E+01 0.00000E+00 0.00000E+00
 -1       104 9.91500E+01 0.00000E+00 0.00000E+00
 -1       105 1.02150E+02 0.00000E+00 0.00000E+00
 -1       106 1.05150E+02 0.00000E+00 0.00000E+00
 -1       107 1.08150E+02 0.00000E+00 0.00000E+00
 -1       108 1.11150E+02 0.00000E+00 0.00000E+00
 -1       109 1.14150E+02 0.00000E+00 0.00000E+00
 -1       110 1.17150E+02 0.00000E+00 0.00000E+00
 -1       111 1.20150E+02 0.00000E+00 0.00000E+00
 -1       112 1.23150E+02 0.00000E+00 0.00000E+00
 -1       113 1.26150E+02 0.00000E+00 0.00000E+00
 -1       114 1.29150E+02 0.00000E+00 0.00000E+00
 -1       115 1.32150E+02 0.00000E+00 0.00000E+00
 -1       116 1.35150E+02 0.00000E+00 0.00000E+00
 -1       117 1.38150E+02 0.00000E+00 0.00000E+00
 -1       118 1.41150E+02 0.00000E+00 0.00000E+00
 -1       119 1.44150E+02 0.00000E+00 0.00000E+00
 -1       120 1.47150E+02 0.00000E+00 0.00000E+00
 -1       121 1.50000E+02 2.95000E+00 0.00000E+00
 -1       122 1.50000E+02 5.90000E+00 0.00000E+00
 -1       123 1.50000E+02 8.85000E+00 0.00000E+00
 -1       124 1.50000E+02 1.18000E+01 0.00000E+00
 -1       125 1.50000E+02 1.47500E+01 0.00000E+00
 -1       126 1.50000E+02 1.76500E+01 0.00000E+00
 -1       127 1.50000E+02 2.06000E+01 0.00000E+00
 -1       128 1.50000E+02 2.35500E+01 0.00000E+00
 -1       129 1.50000E+02 2.65000E+01 0.00000E+00
 -1       130 1.50000E+02 2.94500E+01 0.00000E+00
 -1       131 1.50000E+02 3.24000E+01 0.00000E+00
 -1       132 1.50000E+02 3.53000E+01 0.00000E+00
 -1       133 1.50000E+02 3.82500E+01 0.00000E+00
 -1       134 1.50000E+02 4.12000E+01 0.00000E+00
 -1       135 1.50000E+02 4.41500E+01 0.00000E+00
 -1       136 1.50000E+02 4.71000E+01 0.00000E+00
 -1       137 9.63051E+01 3.32155E+01 0.00000E+00
 -1       138 9.58055E+01 3.17233E+01 0.00000E+00
 -1       139 9.50447E+01 3.04582E+01 0.00000E+00
 -1       140 9.40437E+01 2.93878E+01 0.00000E+00
 -1       141 9.27178E+01 2.84825E+01 0.00000E+00
 -1       142 9.13340E+01 2.79336E+01 0.00000E+00
 -1       143 8.98525E+01 2.76890E+01 0.00000E+00
 -1       144 8.83668E+01 2.77638E+01 0.00000E+00
 -1       145 8.68603E+01 2.81785E+01 0.00000E+00
 -1       146 8.55619E+01 2.88635E+01 0.00000E+00
 -1       147 8.44314E+01 2.98079E+01 0.00000E+00
 -1       148 8.34708E+01 3.10538E+01 0.00000E+00
 -1       149 8.28474E+01 3.23805E+01 0.00000E+00
 -1       150 8.25010E+01 3.39176E+01 0.00000E+00
 -1       151 8.24976E+01 3.54068E+01 0.00000E+00
 -1       152 8.27860E+01 3.67907E+01 0.00000E+00
 -1       153 8.42865E+01 3.93939E+01 0.00000E+00
 -1       154 8.54014E+01 4.03816E+01 0.00000E+00
 -1       155 8.67540E+01 4.11340E+01 0.00000E+00
 -1       156 8.82838E+01 4.15785E+01 0.00000E+00
 -1       157 8.97593E+01 4.16716E+01 0.00000E+00
 -1       158 9.12705E+01 4.14397E+01 0.00000E+00
 -1       159 9.26667E+01 4.09001E+01 0.00000E+00
 -1       160 9.38972E+01 4.00916E+01 0.00000E+00
 -1       161 9.50070E+01 3.89473E+01 0.00000E+00
 -1       162 9.57939E+01 3.76574E+01 0.00000E+00
 -1       163 9.62814E+01 3.62473E+01 0.00000E+00
 -1       164 2.59800E+00 4.55750E+01 0.00000E+00
 -1       165 2.59800E+00 4.26250E+01 0.00000E+00
 -1       166 2.59800E+00 3.96750E+01 0.00000E+00
 -1       167 2.59800E+00 3.67250E+01 0.00000E+00
 -1       168 2.59800E+00 3.38250E+01 0.00000E+00
 -1       169 2.59800E+00 3.08750E+01 0.00000E+00
 -1       170 2.59800E+00 2.79250E+01 0.00000E+00
 -1       171 2.59800E+00 2.49750E+01 0.00000E+00
 -1       172 2.59800E+00 2.20250E+01 0.00000E+00
 -1       173 2.59800E+00 1.90750E+01 0.00000E+00
 -1       174 2.59800E+00 1.61750E+01 0.00000E+00
 -1       175 2.59800E+00 1.32250E+01 0.00000E+00
 -1       176 2.59800E+00 1.02750E+01 0.00000E+00
 -1       177 2.59800E+00 7.32500E+00 0.00000E+00
 -1       178 2.59800E+00 4.37500E+00 0.00000E+00
 -1       179 2.87400E+00 2.18750E+00 0.00000E+00
 -1       180 4.65000E+00 4.74020E+01 0.00000E+00
 -1       181 7.65000E+00 4.74020E+01 0.00000E+00
 -1       182 1.06500E+01 4.74020E+01 0.00000E+00
 -1       183 1.36500E+01 4.74020E+01 0.00000E+00
 -1       184 1.66500E+01 4.74020E+01 0.00000E+00
 -1       185 1.96500E+01 4.74020E+01 0.00000E+00
 -1       186 2.28000E+01 4.74020E+01 0.00000E+00
 -1       187 2.58000E+01 4.74020E+01 0.00000E+00
 -1       188 2.88000E+01 4.74020E+01 0.00000E+00
 -1       189 3.18000E+01 4.74020E+01 0.00000E+00
 -1       190 3.48000E+01 4.74020E+01 0.00000E+00
 -1       191 3.78000E+01 4.74020E+01 0.00000E+00
 -1       192 4.08000E+01 4.74020E+01 0.00000E+00
 -1       193 4.39500E+01 4.74020E+01 0.00000E+00
 -1       194 4.69500E+01 4.74020E+01 0.00000E+00
 -1       195 4.99500E+01 4.74020E+01 0.00000E+00
 -1       196 5.29500E+01 4.74020E+01 0.00000E+00
 -1       197 5.59500E+01 4.74020E+01 0.00000E+00
 -1       198 5.89500E+01 4.74020E+01 0.00000E+00
 -1       199 6.19500E+01 4.74020E+01 0.00000E+00
 -1       200 6.51000E+01 4.74020E+01 0.00000E+00
 -1       201 6.81000E+01 4.74020E+01 0.00000E+00
 -1       202 7.11000E+01 4.74020E+01 0.00000E+00
 -1       203 7.41000E+01 4.74020E+01 0.00000E+00
 -1       204 7.71000E+01 4.74020E+01 0.00000E+00
 -1       205 8.01000E+01 4.74020E+01 0.00000E+00
 -1       206 8.29500E+01 4.74020E+01 0.00000E+00
 -1       207 8.59500E+01 4.74020E+01 0.00000E+00
 -1       208 8.86500E+01 4.74020E+01 0.00000E+00
 -1       209 9.12000E+01 4.74020E+01 0.00000E+00
 -1       210 9.42000E+01 4.74020E+01 0.00000E+00
 -1       211 9.72000E+01 4.74020E+01 0.00000E+00
 -1       212 1.00200E+02 4.74020E+01 0.00000E+00
 -1       213 1.03200E+02 4.74020E+01 0.00000E+00
 -1       214 1.06350E+02 4.74020E+01 0.00000E+00
 -1       215 1.09350E+02 4.74020E+01 0.00000E+00
 -1       216 1.12350E+02 4.74020E+01 0.00000E+00
 -1       217 1.15350E+02 4.74020E+01 0.00000E+00
 -1       218 1.18350E+02 4.74020E+01 0.00000E+00
 -1       219 1.21350E+02 4.74020E+01 0.00000E+00
 -1       220 1.24350E+02 4.74020E+01 0.00000E+00
 -1       221 1.27500E+02 4.74020E+01 0.00000E+00
 -1       222 1.30500E+02 4.74020E+01 0.00000E+00
 -1       223 1.33500E+02 4.74020E+01 0.00000E+00
 -1       224 1.36500E+02 4.74020E+01 0.00000E+00
 -1       225 1.39500E+02 4.74020E+01 0.00000E+00
 -1       226 1.42500E+02 4.74020E+01 0.00000E+00
 -1       227 1.45500E+02 4.74020E+01 0.00000E+00
 -1       228 1.47750E+02 4.72510E+01 0.00000E+00
 -1       229 5.87400E+00 2.18750E+00 0.00000E+00
 -1       230 8.87400E+00 2.18750E+00 0.00000E+00
 -1       231 1.18740E+01 2.18750E+00 0.00000E+00
 -1       232 1.48740E+01 2.18750E+00 0.00000E+00
 -1       233 1.78740E+01 2.18750E+00 0.00000E+00
 -1       234 2.08740E+01 2.18750E+00 0.00000E+00
 -1       235 2.38740E+01 2.18750E+00 0.00000E+00
 -1       236 2.68740E+01 2.18750E+00 0.00000E+00
 -1       237 2.98740E+01 2.18750E+00 0.00000E+00
 -1       238 3.28740E+01 2.18750E+00 0.00000E+00
 -1       239 3.58740E+01 2.18750E+00 0.00000E+00
 -1       240 3.88740E+01 2.18750E+00 0.00000E+00
 -1       241 4.18740E+01 2.18750E+00 0.00000E+00
 -1       242 4.48740E+01 2.18750E+00 0.00000E+00
 -1       243 4.78740E+01 2.18750E+00 0.00000E+00
 -1       244 5.08740E+01 2.18750E+00 0.00000E+00
 -1       245 5.38740E+01 2.18750E+00 0.00000E+00
 -1       246 5.68740E+01 2.18750E+00 0.00000E+00
 -1       247 5.98740E+01 2.18750E+00 0.00000E+00
 -1       248 6.28740E+01 2.18750E+00 0.00000E+00
 -1       249 6.58740E+01 2.18750E+00 0.00000E+00
 -1       250 6.88740E+01 2.18750E+00 0.00000E+00
 -1       251 7.18740E+01 2.18750E+00 0.00000E+00
 -1       252 7.48740E+01 2.18750E+00 0.00000E+00
 -1       253 7.78740E+01 2.18750E+00 0.00000E+00
 -1       254 8.08740E+01 2.18750E+00 0.00000E+00
 -1       255 8.38740E+01 2.18750E+00 0.00000E+00
 -1       256 8.68740E+01 2.18750E+00 0.00000E+00
 -1       257 8.98740E+01 2.18750E+00 0.00000E+00
 -1       258 9.28740E+01 2.18750E+00 0.00000E+00
 -1       259 9.58740E+01 2.18750E+00 0.00000E+00
 -1       260 9.88740E+01 2.18750E+00 0.00000E+00
 -1       261 1.01874E+02 2.18750E+00 0.00000E+00
 -1       262 1.04874E+02 2.18750E+00 0.00000E+00
 -1       263 1.07874E+02 2.18750E+00 0.00000E+00
 -1       264 1.10874E+02 2.18750E+00 0.00000E+00
 -1       265 1.13874E+02 2.18750E+00 0.00000E+00
 -1       266 1.16874E+02 2.18750E+00 0.00000E+00
 -1       267 1.19874E+02 2.18750E+00 0.00000E+00
 -1       268 1.22874E+02 2.18750E+00 0.00000E+00
 -1       269 1.25874E+02 2.18750E+00 0.00000E+00
 -1       270 1.28874E+02 2.18750E+00 0.00000E+00
 -1       271 1.31874E+02 2.18750E+00 0.00000E+00
 -1       272 1.34874E+02 2.18750E+00 0.00000E+00
 -1       273 1.37874E+02 2.18750E+00 0.00000E+00
 -1       274 1.40874E+02 2.18750E+00 0.00000E+00
 -1       275 1.43874E+02 2.18750E+00 0.00000E+00
 -1       276 1.46874E+02 2.18750E+00 0.00000E+00
 -1       277 1.47402E+02 4.42500E+00 0.00000E+00
 -1       278 1.47402E+02 7.37500E+00 0.00000E+00
 -1       279 1.47402E+02 1.03250E+01 0.00000E+00
 -1       280 1.47402E+02 1.32750E+01 0.00000E+00
 -1       281 1.47402E+02 1.61750E+01 0.00000E+00
 -1       282 1.47402E+02 1.91250E+01 0.00000E+00
 -1       283 1.47402E+02 2.20750E+01 0.00000E+00
 -1       284 1.47402E+02 2.50250E+01 0.00000E+00
 -1       285 1.47402E+02 2.79750E+01 0.00000E+00
 -1       286 1.47402E+02 3.09250E+01 0.00000E+00
 -1       287 1.47402E+02 3.38250E+01 0.00000E+00
 -1       288 1.47402E+02 3.67750E+01 0.00000E+00
 -1       289 1.47402E+02 3.97250E+01 0.00000E+00
 -1       290 1.47402E+02 4.26750E+01 0.00000E+00
 -1       291 1.47576E+02 4.49630E+01 0.00000E+00
 -1       292 9.75880E+01 3.38194E+01 0.00000E+00
 -1       293 9.73638E+01 3.20313E+01 0.00000E+00
 -1       294 9.64641E+01 3.04660E+01 0.00000E+00
 -1       295 9.54909E+01 2.90377E+01 0.00000E+00
 -1       296 9.41116E+01 2.78647E+01 0.00000E+00
 -1       297 9.25038E+01 2.70032E+01 0.00000E+00
 -1       298 9.08044E+01 2.65325E+01 0.00000E+00
 -1       299 8.90445E+01 2.64319E+01 0.00000E+00
 -1       300 8.72473E+01 2.66407E+01 0.00000E+00
 -1       301 8.56063E+01 2.73746E+01 0.00000E+00
 -1       302 8.42194E+01 2.84053E+01 0.00000E+00
 -1       303 8.28583E+01 2.95882E+01 0.00000E+00
 -1       304 8.20618E+01 3.12015E+01 0.00000E+00
 -1       305 8.13280E+01 3.28457E+01 0.00000E+00
 -1       306 8.12031E+01 3.46592E+01 0.00000E+00
 -1       307 8.14549E+01 3.63461E+01 0.00000E+00
 -1       308 8.19235E+01 3.80391E+01 0.00000E+00
 -1       309 8.28821E+01 3.95326E+01 0.00000E+00
 -1       310 8.40400E+01 4.07952E+01 0.00000E+00
 -1       311 8.54883E+01 4.18173E+01 0.00000E+00
 -1       312 8.71338E+01 4.26814E+01 0.00000E+00
 -1       313 8.89453E+01 4.28350E+01 0.00000E+00
 -1       314 9.06988E+01 4.27540E+01 0.00000E+00
 -1       315 9.24056E+01 4.23008E+01 0.00000E+00
 -1       316 9.39477E+01 4.15091E+01 0.00000E+00
 -1       317 9.54427E+01 4.04801E+01 0.00000E+00
 -1       318 9.64354E+01 3.89338E+01 0.00000E+00
 -1       319 9.71835E+01 3.73485E+01 0.00000E+00
 -1       320 9.77417E+01 3.56183E+01 0.00000E+00
 -1       321 5.19600E+00 4.11500E+01 0.00000E+00
 -1       322 5.19600E+00 4.41000E+01 0.00000E+00
 -1       323 5.19600E+00 3.52750E+01 0.00000E+00
 -1       324 5.19600E+00 3.23250E+01 0.00000E+00
 -1       325 5.19600E+00 2.93750E+01 0.00000E+00
 -1       326 5.19600E+00 2.64250E+01 0.00000E+00
 -1       327 5.19600E+00 2.34750E+01 0.00000E+00
 -1       328 5.19600E+00 2.05250E+01 0.00000E+00
 -1       329 5.19600E+00 1.76250E+01 0.00000E+00
 -1       330 5.19600E+00 1.46750E+01 0.00000E+00
 -1       331 5.19600E+00 1.17250E+01 0.00000E+00
 -1       332 5.19600E+00 8.77500E+00 0.00000E+00
 -1       333 5.19600E+00 5.82500E+00 0.00000E+00
 -1       334 5.53500E+00 4.00625E+00 0.00000E+00
 -1       335 8.53500E+00 4.00625E+00 0.00000E+00
 -1       336 9.15000E+00 4.48040E+01 0.00000E+00
 -1       337 1.21500E+01 4.48040E+01 0.00000E+00
 -1       338 1.51500E+01 4.48040E+01 0.00000E+00
 -1       339 1.81500E+01 4.48040E+01 0.00000E+00
 -1       340 2.13000E+01 4.48040E+01 0.00000E+00
 -1       341 2.43000E+01 4.48040E+01 0.00000E+00
 -1       342 2.73000E+01 4.48040E+01 0.00000E+00
 -1       343 3.03000E+01 4.48040E+01 0.00000E+00
 -1       344 3.33000E+01 4.48040E+01 0.00000E+00
 -1       345 3.63000E+01 4.48040E+01 0.00000E+00
 -1       346 3.93000E+01 4.48040E+01 0.00000E+00
 -1       347 4.24500E+01 4.48040E+01 0.00000E+00
 -1       348 4.54500E+01 4.48040E+01 0.00000E+00
 -1       349 4.84500E+01 4.48040E+01 0.00000E+00
 -1       350 5.14500E+01 4.48040E+01 0.00000E+00
 -1       351 5.44500E+01 4.48040E+01 0.00000E+00
 -1       352 5.74500E+01 4.48040E+01 0.00000E+00
 -1       353 6.04500E+01 4.48040E+01 0.00000E+00
 -1       354 6.36000E+01 4.48040E+01 0.00000E+00
 -1       355 6.66000E+01 4.48040E+01 0.00000E+00
 -1       356 6.96000E+01 4.48040E+01 0.00000E+00
 -1       357 7.26000E+01 4.48040E+01 0.00000E+00
 -1       358 7.56000E+01 4.48040E+01 0.00000E+00
 -1       359 7.86000E+01 4.48040E+01 0.00000E+00
 -1       360 8.14500E+01 4.48040E+01 0.00000E+00
 -1       361 8.44500E+01 4.48040E+01 0.00000E+00
 -1       362 8.99250E+01 4.51842E+01 0.00000E+00
 -1       363 9.57000E+01 4.51842E+01 0.00000E+00
 -1       364 9.87000E+01 4.51842E+01 0.00000E+00
 -1       365 1.01700E+02 4.51842E+01 0.00000E+00
 -1       366 1.04850E+02 4.51842E+01 0.00000E+00
 -1       367 1.07850E+02 4.51842E+01 0.00000E+00
 -1       368 1.10850E+02 4.51842E+01 0.00000E+00
 -1       369 1.13850E+02 4.51842E+01 0.00000E+00
 -1       370 1.16850E+02 4.51842E+01 0.00000E+00
 -1       371 1.19850E+02 4.51842E+01 0.00000E+00
 -1       372 1.22850E+02 4.51842E+01 0.00000E+00
 -1       373 1.26000E+02 4.51842E+01 0.00000E+00
 -1       374 1.29000E+02 4.51842E+01 0.00000E+00
 -1       375 1.32000E+02 4.51842E+01 0.00000E+00
 -1       376 1.35000E+02 4.51842E+01 0.00000E+00
 -1       377 1.38000E+02 4.51842E+01 0.00000E+00
 -1       378 1.41000E+02 4.51842E+01 0.00000E+00
 -1       379 1.44000E+02 4.51842E+01 0.00000E+00
 -1       380 1.33740E+01 4.78550E+00 0.00000E+00
 -1       381 1.63740E+01 4.78550E+00 0.00000E+00
 -1       382 1.93740E+01 4.78550E+00 0.00000E+00
 -1       383 2.23740E+01 4.78550E+00 0.00000E+00
 -1       384 2.53740E+01 4.78550E+00 0.00000E+00
 -1       385 2.83740E+01 4.78550E+00 0.00000E+00
 -1       386 3.13740E+01 4.78550E+00 0.00000E+00
 -1       387 3.43740E+01 4.78550E+00 0.00000E+00
 -1       388 3.73740E+01 4.78550E+00 0.00000E+00
 -1       389 4.03740E+01 4.78550E+00 0.00000E+00
 -1       390 4.33740E+01 4.78550E+00 0.00000E+00
 -1       391 4.63740E+01 4.78550E+00 0.00000E+00
 -1       392 4.93740E+01 4.78550E+00 0.00000E+00
 -1       393 5.23740E+01 4.78550E+00 0.00000E+00
 -1       394 5.53740E+01 4.78550E+00 0.00000E+00
 -1       395 5.83740E+01 4.78550E+00 0.00000E+00
 -1       396 6.13740E+01 4.78550E+00 0.00000E+00
 -1       397 6.43740E+01 4.78550E+00 0.00000E+00
 -1       398 6.73740E+01 4.78550E+00 0.00000E+00
 -1       399 7.03740E+01 4.78550E+00 0.00000E+00
 -1       400 7.33740E+01 4.78550E+00 0.00000E+00
 -1       401 7.63740E+01 4.78550E+00 0.00000E+00
 -1       402 7.93740E+01 4.78550E+00 0.00000E+00
 -1       403 8.23740E+01 4.78550E+00 0.00000E+00
 -1       404 8.53740E+01 4.78550E+00 0.00000E+00
 -1       405 8.83740E+01 4.78550E+00 0.00000E+00
 -1       406 9.13740E+01 4.78550E+00 0.00000E+00
 -1       407 9.43740E+01 4.78550E+00 0.00000E+00
 -1       408 9.73740E+01 4.78550E+00 0.00000E+00
 -1       409 1.00374E+02 4.78550E+00 0.00000E+00
 -1       410 1.03374E+02 4.78550E+00 0.00000E+00
 -1       411 1.06374E+02 4.78550E+00 0.00000E+00
 -1       412 1.09374E+02 4.78550E+00 0.00000E+00
 -1       413 1.12374E+02 4.78550E+00 0.00000E+00
 -1       414 1.15374E+02 4.78550E+00 0.00000E+00
 -1       415 1.18374E+02 4.78550E+00 0.00000E+00
 -1       416 1.21374E+02 4.78550E+00 0.00000E+00
 -1       417 1.24374E+02 4.78550E+00 0.00000E+00
 -1       418 1.27374E+02 4.78550E+00 0.00000E+00
 -1       419 1.30374E+02 4.78550E+00 0.00000E+00
 -1       420 1.33374E+02 4.78550E+00 0.00000E+00
 -1       421 1.36374E+02 4.78550E+00 0.00000E+00
 -1       422 1.39374E+02 4.78550E+00 0.00000E+00
 -1       423 1.42374E+02 4.78550E+00 0.00000E+00
 -1       424 1.44888E+02 4.60525E+00 0.00000E+00
 -1       425 1.44804E+02 1.18000E+01 0.00000E+00
 -1       426 1.44804E+02 8.85000E+00 0.00000E+00
 -1       427 1.44804E+02 1.47000E+01 0.00000E+00
 -1       428 1.44804E+02 1.76500E+01 0.00000E+00
 -1       429 1.44804E+02 2.06000E+01 0.00000E+00
 -1       430 1.44804E+02 2.35500E+01 0.00000E+00
 -1       431 1.44804E+02 2.65000E+01 0.00000E+00
 -1       432 1.44804E+02 2.94500E+01 0.00000E+00
 -1       433 1.44804E+02 3.23500E+01 0.00000E+00
 -1       434 1.44804E+02 3.53000E+01 0.00000E+00
 -1       435 1.44804E+02 3.82500E+01 0.00000E+00
 -1       436 1.44804E+02 4.12000E+01 0.00000E+00
 -1       437 1.09545E+01 4.39587E+00 0.00000E+00
 -1       438 9.82556E+01 3.04774E+01 0.00000E+00
 -1       439 9.58038E+01 2.72723E+01 0.00000E+00
 -1       440 9.89563E+01 3.46086E+01 0.00000E+00
 -1       441 9.72824E+01 2.90491E+01 0.00000E+00
 -1       442 5.19600E+00 3.82125E+01 0.00000E+00
 -1       443 9.39595E+01 2.62176E+01 0.00000E+00
 -1       444 9.20449E+01 2.53572E+01 0.00000E+00
 -1       445 9.00080E+01 2.50208E+01 0.00000E+00
 -1       446 8.79480E+01 2.48326E+01 0.00000E+00
 -1       447 8.58634E+01 2.57479E+01 0.00000E+00
 -1       448 8.39398E+01 2.65806E+01 0.00000E+00
 -1       449 8.25787E+01 2.77636E+01 0.00000E+00
 -1       450 8.11475E+01 2.97469E+01 0.00000E+00
 -1       451 8.04137E+01 3.13911E+01 0.00000E+00
 -1       452 7.97217E+01 3.36462E+01 0.00000E+00
 -1       453 7.99642E+01 3.57064E+01 0.00000E+00
 -1       454 8.03593E+01 3.75607E+01 0.00000E+00
 -1       455 8.13120E+01 3.94859E+01 0.00000E+00
 -1       456 8.25057E+01 4.10400E+01 0.00000E+00
 -1       457 8.40168E+01 4.23653E+01 0.00000E+00
 -1       458 8.55915E+01 4.36195E+01 0.00000E+00
 -1       459 8.79087E+01 4.43002E+01 0.00000E+00
 -1       460 8.98857E+01 4.41730E+01 0.00000E+00
 -1       461 9.19279E+01 4.39421E+01 0.00000E+00
 -1       462 9.39217E+01 4.33562E+01 0.00000E+00
 -1       463 9.55251E+01 4.22004E+01 0.00000E+00
 -1       464 9.73824E+01 4.06335E+01 0.00000E+00
 -1       465 9.79817E+01 3.86943E+01 0.00000E+00
 -1       466 9.89354E+01 3.69586E+01 0.00000E+00
 -1       467 9.90115E+01 3.27328E+01 0.00000E+00
 -1       468 9.20494E+01 4.54383E+01 0.00000E+00
 -1       469 8.78732E+01 4.54800E+01 0.00000E+00
 -1       470 1.44402E+02 4.31921E+01 0.00000E+00
 -1       471 7.79400E+00 3.08500E+01 0.00000E+00
 -1       472 7.79400E+00 3.38000E+01 0.00000E+00
 -1       473 7.79400E+00 2.49500E+01 0.00000E+00
 -1       474 7.79400E+00 2.20000E+01 0.00000E+00
 -1       475 7.79400E+00 1.91000E+01 0.00000E+00
 -1       476 7.79400E+00 1.61500E+01 0.00000E+00
 -1       477 7.79400E+00 1.32000E+01 0.00000E+00
 -1       478 7.79400E+00 1.02500E+01 0.00000E+00
 -1       479 7.79400E+00 7.30000E+00 0.00000E+00
 -1       480 8.16450E+00 5.65312E+00 0.00000E+00
 -1       481 9.72000E+01 4.31339E+01 0.00000E+00
 -1       482 1.06500E+01 4.22060E+01 0.00000E+00
 -1       483 9.56499E+01 2.54015E+01 0.00000E+00
 -1       484 1.00260E+02 3.10601E+01 0.00000E+00
 -1       485 1.36500E+01 4.22060E+01 0.00000E+00
 -1       486 1.66500E+01 4.22060E+01 0.00000E+00
 -1       487 1.98000E+01 4.22060E+01 0.00000E+00
 -1       488 2.28000E+01 4.22060E+01 0.00000E+00
 -1       489 2.58000E+01 4.22060E+01 0.00000E+00
 -1       490 2.88000E+01 4.22060E+01 0.00000E+00
 -1       491 3.18000E+01 4.22060E+01 0.00000E+00
 -1       492 3.48000E+01 4.22060E+01 0.00000E+00
 -1       493 3.78000E+01 4.22060E+01 0.00000E+00
 -1       494 4.09500E+01 4.22060E+01 0.00000E+00
 -1       495 4.39500E+01 4.22060E+01 0.00000E+00
 -1       496 4.69500E+01 4.22060E+01 0.00000E+00
 -1       497 4.99500E+01 4.22060E+01 0.00000E+00
 -1       498 5.29500E+01 4.22060E+01 0.00000E+00
 -1       499 5.59500E+01 4.22060E+01 0.00000E+00
 -1       500 5.89500E+01 4.22060E+01 0.00000E+00
 -1       501 6.21000E+01 4.22060E+01 0.00000E+00
 -1       502 6.51000E+01 4.22060E+01 0.00000E+00
 -1       503 6.81000E+01 4.22060E+01 0.00000E+00
 -1       504 7.11000E+01 4.22060E+01 0.00000E+00
 -1       505 7.41000E+01 4.22060E+01 0.00000E+00
 -1       506 7.71000E+01 4.22060E+01 0.00000E+00
 -1       507 7.99500E+01 4.22060E+01 0.00000E+00
 -1       508 1.00200E+02 4.25862E+01 0.00000E+00
 -1       509 1.03350E+02 4.25862E+01 0.00000E+00
 -1       510 1.06350E+02 4.25862E+01 0.00000E+00
 -1       511 1.09350E+02 4.25862E+01 0.00000E+00
 -1       512 1.12350E+02 4.25862E+01 0.00000E+00
 -1       513 1.15350E+02 4.25862E+01 0.00000E+00
 -1       514 1.18350E+02 4.25862E+01 0.00000E+00
 -1       515 1.21350E+02 4.25862E+01 0.00000E+00
 -1       516 1.24500E+02 4.25862E+01 0.00000E+00
 -1       517 1.27500E+02 4.25862E+01 0.00000E+00
 -1       518 1.30500E+02 4.25862E+01 0.00000E+00
 -1       519 1.33500E+02 4.25862E+01 0.00000E+00
 -1       520 1.36500E+02 4.25862E+01 0.00000E+00
 -1       521 1.39500E+02 4.25862E+01 0.00000E+00
 -1       522 1.41951E+02 4.28891E+01 0.00000E+00
 -1       523 2.08740E+01 7.38350E+00 0.00000E+00
 -1       524 1.78740E+01 7.38350E+00 0.00000E+00
 -1       525 1.48740E+01 7.38350E+00 0.00000E+00
 -1       526 2.38740E+01 7.38350E+00 0.00000E+00
 -1       527 2.68740E+01 7.38350E+00 0.00000E+00
 -1       528 2.98740E+01 7.38350E+00 0.00000E+00
 -1       529 3.28740E+01 7.38350E+00 0.00000E+00
 -1       530 3.58740E+01 7.38350E+00 0.00000E+00
 -1       531 3.88740E+01 7.38350E+00 0.00000E+00
 -1       532 4.18740E+01 7.38350E+00 0.00000E+00
 -1       533 4.48740E+01 7.38350E+00 0.00000E+00
 -1       534 4.78740E+01 7.38350E+00 0.00000E+00
 -1       535 5.08740E+01 7.38350E+00 0.00000E+00
 -1       536 5.38740E+01 7.38350E+00 0.00000E+00
 -1       537 5.68740E+01 7.38350E+00 0.00000E+00
 -1       538 5.98740E+01 7.38350E+00 0.00000E+00
 -1       539 6.28740E+01 7.38350E+00 0.00000E+00
 -1       540 6.58740E+01 7.38350E+00 0.00000E+00
 -1       541 6.88740E+01 7.38350E+00 0.00000E+00
 -1       542 7.18740E+01 7.38350E+00 0.00000E+00
 -1       543 7.48740E+01 7.38350E+00 0.00000E+00
 -1       544 7.78740E+01 7.38350E+00 0.00000E+00
 -1       545 8.08740E+01 7.38350E+00 0.00000E+00
 -1       546 8.38740E+01 7.38350E+00 0.00000E+00
 -1       547 8.68740E+01 7.38350E+00 0.00000E+00
 -1       548 8.98740E+01 7.38350E+00 0.00000E+00
 -1       549 9.28740E+01 7.38350E+00 0.00000E+00
 -1       550 9.58740E+01 7.38350E+00 0.00000E+00
 -1       551 9.88740E+01 7.38350E+00 0.00000E+00
 -1       552 1.01874E+02 7.38350E+00 0.00000E+00
 -1       553 1.04874E+02 7.38350E+00 0.00000E+00
 -1       554 1.07874E+02 7.38350E+00 0.00000E+00
 -1       555 1.10874E+02 7.38350E+00 0.00000E+00
 -1       556 1.13874E+02 7.38350E+00 0.00000E+00
 -1       557 1.16874E+02 7.38350E+00 0.00000E+00
 -1       558 1.19874E+02 7.38350E+00 0.00000E+00
 -1       559 1.22874E+02 7.38350E+00 0.00000E+00
 -1       560 1.25874E+02 7.38350E+00 0.00000E+00
 -1       561 1.28874E+02 7.38350E+00 0.00000E+00
 -1       562 1.31874E+02 7.38350E+00 0.00000E+00
 -1       563 1.34874E+02 7.38350E+00 0.00000E+00
 -1       564 1.37874E+02 7.38350E+00 0.00000E+00
 -1       565 1.40874E+02 7.38350E+00 0.00000E+00
 -1       566 1.42206E+02 1.61750E+01 0.00000E+00
 -1       567 1.42206E+02 1.32750E+01 0.00000E+00
 -1       568 1.42206E+02 1.03250E+01 0.00000E+00
 -1       569 1.00531E+02 3.37161E+01 0.00000E+00
 -1       570 1.42206E+02 1.91250E+01 0.00000E+00
 -1       571 1.42206E+02 2.20750E+01 0.00000E+00
 -1       572 1.42206E+02 2.50250E+01 0.00000E+00
 -1       573 1.42206E+02 2.79750E+01 0.00000E+00
 -1       574 1.42206E+02 3.08750E+01 0.00000E+00
 -1       575 1.42206E+02 3.38250E+01 0.00000E+00
 -1       576 1.42206E+02 3.67750E+01 0.00000E+00
 -1       577 1.42206E+02 3.97250E+01 0.00000E+00
 -1       578 7.92300E+00 4.16780E+01 0.00000E+00
 -1       579 9.91864E+01 2.87975E+01 0.00000E+00
 -1       580 9.78615E+01 2.70636E+01 0.00000E+00
 -1       581 9.97414E+01 3.85313E+01 0.00000E+00
 -1       582 8.42868E+01 2.47440E+01 0.00000E+00
 -1       583 1.00510E+02 3.60661E+01 0.00000E+00
 -1       584 7.79400E+00 2.79000E+01 0.00000E+00
 -1       585 9.13059E+01 2.34968E+01 0.00000E+00
 -1       586 7.81396E+01 3.48768E+01 0.00000E+00
 -1       587 9.37052E+01 2.42230E+01 0.00000E+00
 -1       588 8.92459E+01 2.33086E+01 0.00000E+00
 -1       589 8.63714E+01 2.38288E+01 0.00000E+00
 -1       590 8.20242E+01 2.57511E+01 0.00000E+00
 -1       591 8.05402E+01 2.78007E+01 0.00000E+00
 -1       592 7.92909E+01 2.99041E+01 0.00000E+00
 -1       593 7.85882E+01 3.20647E+01 0.00000E+00
 -1       594 7.86482E+01 3.69560E+01 0.00000E+00
 -1       595 7.92984E+01 3.92840E+01 0.00000E+00
 -1       596 8.05487E+01 4.13078E+01 0.00000E+00
 -1       597 8.21303E+01 4.29921E+01 0.00000E+00
 -1       598 9.91421E+01 4.04705E+01 0.00000E+00
 -1       599 7.79400E+00 3.67375E+01 0.00000E+00
 -1       600 1.05840E+01 6.04275E+00 0.00000E+00
 -1       601 7.85850E+00 3.92077E+01 0.00000E+00
 -1       602 8.76693E+01 2.23048E+01 0.00000E+00
 -1       603 1.27290E+01 6.71313E+00 0.00000E+00
 -1       604 7.70061E+01 3.32953E+01 0.00000E+00
 -1       605 1.01316E+02 3.76389E+01 0.00000E+00
 -1       606 8.38923E+01 4.41374E+01 0.00000E+00
 -1       607 9.77861E+01 2.48615E+01 0.00000E+00
 -1       608 1.03920E+01 2.05500E+01 0.00000E+00
 -1       609 1.03920E+01 2.35000E+01 0.00000E+00
 -1       610 1.03920E+01 1.46750E+01 0.00000E+00
 -1       611 1.03920E+01 1.17250E+01 0.00000E+00
 -1       612 1.02135E+01 7.68962E+00 0.00000E+00
 -1       613 1.51500E+01 3.96080E+01 0.00000E+00
 -1       614 1.83000E+01 3.96080E+01 0.00000E+00
 -1       615 2.13000E+01 3.96080E+01 0.00000E+00
 -1       616 2.43000E+01 3.96080E+01 0.00000E+00
 -1       617 2.73000E+01 3.96080E+01 0.00000E+00
 -1       618 3.03000E+01 3.96080E+01 0.00000E+00
 -1       619 3.33000E+01 3.96080E+01 0.00000E+00
 -1       620 3.63000E+01 3.96080E+01 0.00000E+00
 -1       621 3.94500E+01 3.96080E+01 0.00000E+00
 -1       622 4.24500E+01 3.96080E+01 0.00000E+00
 -1       623 4.54500E+01 3.96080E+01 0.00000E+00
 -1       624 4.84500E+01 3.96080E+01 0.00000E+00
 -1       625 5.14500E+01 3.96080E+01 0.00000E+00
 -1       626 5.44500E+01 3.96080E+01 0.00000E+00
 -1       627 5.74500E+01 3.96080E+01 0.00000E+00
 -1       628 6.06000E+01 3.96080E+01 0.00000E+00
 -1       629 6.36000E+01 3.96080E+01 0.00000E+00
 -1       630 6.66000E+01 3.96080E+01 0.00000E+00
 -1       631 6.96000E+01 3.96080E+01 0.00000E+00
 -1       632 7.26000E+01 3.96080E+01 0.00000E+00
 -1       633 7.56000E+01 3.96080E+01 0.00000E+00
 -1       634 1.39206E+02 1.03250E+01 0.00000E+00
 -1       635 1.04850E+02 4.00332E+01 0.00000E+00
 -1       636 1.07850E+02 4.00332E+01 0.00000E+00
 -1       637 1.10850E+02 4.00332E+01 0.00000E+00
 -1       638 1.13850E+02 4.00332E+01 0.00000E+00
 -1       639 1.16850E+02 4.00332E+01 0.00000E+00
 -1       640 1.19850E+02 4.00332E+01 0.00000E+00
 -1       641 1.23000E+02 4.00332E+01 0.00000E+00
 -1       642 1.26000E+02 4.00332E+01 0.00000E+00
 -1       643 1.29000E+02 4.00332E+01 0.00000E+00
 -1       644 1.32000E+02 4.00332E+01 0.00000E+00
 -1       645 1.35000E+02 4.00332E+01 0.00000E+00
 -1       646 1.38000E+02 4.00332E+01 0.00000E+00
 -1       647 1.93740E+01 9.98150E+00 0.00000E+00
 -1       648 2.23740E+01 9.98150E+00 0.00000E+00
 -1       649 1.63740E+01 9.98150E+00 0.00000E+00
 -1       650 2.83740E+01 9.98150E+00 0.00000E+00
 -1       651 3.13740E+01 9.98150E+00 0.00000E+00
 -1       652 3.43740E+01 9.98150E+00 0.00000E+00
 -1       653 3.73740E+01 9.98150E+00 0.00000E+00
 -1       654 4.03740E+01 9.98150E+00 0.00000E+00
 -1       655 4.33740E+01 9.98150E+00 0.00000E+00
 -1       656 4.63740E+01 9.98150E+00 0.00000E+00
 -1       657 4.93740E+01 9.98150E+00 0.00000E+00
 -1       658 5.23740E+01 9.98150E+00 0.00000E+00
 -1       659 5.53740E+01 9.98150E+00 0.00000E+00
 -1       660 5.83740E+01 9.98150E+00 0.00000E+00
 -1       661 6.13740E+01 9.98150E+00 0.00000E+00
 -1       662 6.43740E+01 9.98150E+00 0.00000E+00
 -1       663 6.73740E+01 9.98150E+00 0.00000E+00
 -1       664 7.03740E+01 9.98150E+00 0.00000E+00
 -1       665 7.33740E+01 9.98150E+00 0.00000E+00
 -1       666 7.63740E+01 9.98150E+00 0.00000E+00
 -1       667 7.93740E+01 9.98150E+00 0.00000E+00
 -1       668 8.23740E+01 9.98150E+00 0.00000E+00
 -1       669 8.53740E+01 9.98150E+00 0.00000E+00
 -1       670 8.83740E+01 9.98150E+00 0.00000E+00
 -1       671 9.13740E+01 9.98150E+00 0.00000E+00
 -1       672 9.43740E+01 9.98150E+00 0.00000E+00
 -1       673 9.73740E+01 9.98150E+00 0.00000E+00
 -1       674 1.00374E+02 9.98150E+00 0.00000E+00
 -1       675 1.03374E+02 9.98150E+00 0.00000E+00
 -1       676 1.06374E+02 9.98150E+00 0.00000E+00
 -1       677 1.09374E+02 9.98150E+00 0.00000E+00
 -1       678 1.12374E+02 9.98150E+00 0.00000E+00
 -1       679 1.15374E+02 9.98150E+00 0.00000E+00
 -1       680 1.18374E+02 9.98150E+00 0.00000E+00
 -1       681 1.21374E+02 9.98150E+00 0.00000E+00
 -1       682 1.24374E+02 9.98150E+00 0.00000E+00
 -1       683 1.27374E+02 9.98150E+00 0.00000E+00
 -1       684 1.30374E+02 9.98150E+00 0.00000E+00
 -1       685 1.33374E+02 9.98150E+00 0.00000E+00
 -1       686 1.36290E+02 1.01532E+01 0.00000E+00
 -1       687 1.39608E+02 1.47250E+01 0.00000E+00
 -1       688 1.39608E+02 2.06000E+01 0.00000E+00
 -1       689 9.30509E+01 2.20579E+01 0.00000E+00
 -1       690 1.39608E+02 1.76625E+01 0.00000E+00
 -1       691 2.53740E+01 9.98150E+00 0.00000E+00
 -1       692 1.39608E+02 2.65000E+01 0.00000E+00
 -1       693 1.39608E+02 2.94000E+01 0.00000E+00
 -1       694 1.39608E+02 3.23500E+01 0.00000E+00
 -1       695 1.39608E+02 3.53000E+01 0.00000E+00
 -1       696 1.05855E+01 3.97357E+01 0.00000E+00
 -1       697 1.02102E+02 3.22140E+01 0.00000E+00
 -1       698 1.01000E+02 3.99826E+01 0.00000E+00
 -1       699 1.00153E+02 2.66857E+01 0.00000E+00
 -1       700 8.23218E+01 2.33745E+01 0.00000E+00
 -1       701 1.02570E+02 3.49094E+01 0.00000E+00
 -1       702 1.39608E+02 2.35500E+01 0.00000E+00
 -1       703 1.01424E+02 2.91219E+01 0.00000E+00
 -1       704 1.28678E+01 3.96719E+01 0.00000E+00
 -1       705 9.57402E+01 2.30589E+01 0.00000E+00
 -1       706 1.03920E+01 1.76125E+01 0.00000E+00
 -1       707 7.73086E+01 3.04539E+01 0.00000E+00
 -1       708 7.67279E+01 3.63239E+01 0.00000E+00
 -1       709 9.04472E+01 2.15278E+01 0.00000E+00
 -1       710 8.44064E+01 2.24592E+01 0.00000E+00
 -1       711 7.82969E+01 2.78910E+01 0.00000E+00
 -1       712 1.03920E+01 3.23250E+01 0.00000E+00
 -1       713 7.97573E+01 2.56718E+01 0.00000E+00
 -1       714 7.71600E+01 3.86265E+01 0.00000E+00
 -1       715 1.03920E+01 2.64500E+01 0.00000E+00
 -1       716 8.57044E+01 2.09352E+01 0.00000E+00
 -1       717 7.85250E+01 4.01557E+01 0.00000E+00
 -1       718 1.33741E+01 9.98153E+00 0.00000E+00
 -1       719 1.03266E+02 3.02758E+01 0.00000E+00
 -1       720 1.03920E+01 2.93875E+01 0.00000E+00
 -1       721 1.39608E+02 3.82500E+01 0.00000E+00
 -1       722 7.55944E+01 3.47424E+01 0.00000E+00
 -1       723 1.03376E+02 3.64822E+01 0.00000E+00
 -1       724 8.88706E+01 2.05240E+01 0.00000E+00
 -1       725 8.00549E+01 2.32951E+01 0.00000E+00
 -1       726 1.03920E+01 3.52625E+01 0.00000E+00
 -1       727 1.29900E+01 1.32000E+01 0.00000E+00
 -1       728 1.37010E+02 3.08750E+01 0.00000E+00
 -1       729 1.67250E+01 3.70100E+01 0.00000E+00
 -1       730 1.04888E+01 3.74991E+01 0.00000E+00
 -1       731 1.48741E+01 1.25795E+01 0.00000E+00
 -1       732 1.97250E+01 3.70100E+01 0.00000E+00
 -1       733 2.27250E+01 3.70100E+01 0.00000E+00
 -1       734 2.57250E+01 3.70100E+01 0.00000E+00
 -1       735 2.87250E+01 3.70100E+01 0.00000E+00
 -1       736 3.17250E+01 3.70100E+01 0.00000E+00
 -1       737 3.47250E+01 3.70100E+01 0.00000E+00
 -1       738 3.78750E+01 3.70100E+01 0.00000E+00
 -1       739 4.08750E+01 3.70100E+01 0.00000E+00
 -1       740 4.38750E+01 3.70100E+01 0.00000E+00
 -1       741 4.68750E+01 3.70100E+01 0.00000E+00
 -1       742 4.98750E+01 3.70100E+01 0.00000E+00
 -1       743 5.28750E+01 3.70100E+01 0.00000E+00
 -1       744 5.58750E+01 3.70100E+01 0.00000E+00
 -1       745 5.90250E+01 3.70100E+01 0.00000E+00
 -1       746 6.20250E+01 3.70100E+01 0.00000E+00
 -1       747 6.50250E+01 3.70100E+01 0.00000E+00
 -1       748 6.80250E+01 3.70100E+01 0.00000E+00
 -1       749 7.10250E+01 3.70100E+01 0.00000E+00
 -1       750 1.04191E+02 3.32390E+01 0.00000E+00
 -1       751 1.09350E+02 3.74803E+01 0.00000E+00
 -1       752 1.12350E+02 3.74803E+01 0.00000E+00
 -1       753 1.15350E+02 3.74803E+01 0.00000E+00
 -1       754 1.18350E+02 3.74803E+01 0.00000E+00
 -1       755 1.21500E+02 3.74803E+01 0.00000E+00
 -1       756 1.24500E+02 3.74803E+01 0.00000E+00
 -1       757 1.27500E+02 3.74803E+01 0.00000E+00
 -1       758 1.30500E+02 3.74803E+01 0.00000E+00
 -1       759 1.33500E+02 3.74803E+01 0.00000E+00
 -1       760 1.36500E+02 3.74803E+01 0.00000E+00
 -1       761 2.08740E+01 1.25795E+01 0.00000E+00
 -1       762 1.78740E+01 1.25795E+01 0.00000E+00
 -1       763 3.28740E+01 1.25795E+01 0.00000E+00
 -1       764 2.98740E+01 1.25795E+01 0.00000E+00
 -1       765 3.88740E+01 1.25795E+01 0.00000E+00
 -1       766 4.18740E+01 1.25795E+01 0.00000E+00
 -1       767 4.48740E+01 1.25795E+01 0.00000E+00
 -1       768 4.78740E+01 1.25795E+01 0.00000E+00
 -1       769 5.08740E+01 1.25795E+01 0.00000E+00
 -1       770 5.38740E+01 1.25795E+01 0.00000E+00
 -1       771 5.68740E+01 1.25795E+01 0.00000E+00
 -1       772 5.98740E+01 1.25795E+01 0.00000E+00
 -1       773 6.28740E+01 1.25795E+01 0.00000E+00
 -1       774 6.58740E+01 1.25795E+01 0.00000E+00
 -1       775 6.88740E+01 1.25795E+01 0.00000E+00
 -1       776 7.18740E+01 1.25795E+01 0.00000E+00
 -1       777 7.48740E+01 1.25795E+01 0.00000E+00
 -1       778 7.78740E+01 1.25795E+01 0.00000E+00
 -1       779 8.08740E+01 1.25795E+01 0.00000E+00
 -1       780 8.38740E+01 1.25795E+01 0.00000E+00
 -1       781 8.68740E+01 1.25795E+01 0.00000E+00
 -1       782 8.98740E+01 1.25795E+01 0.00000E+00
 -1       783 9.28740E+01 1.25795E+01 0.00000E+00
 -1       784 9.58740E+01 1.25795E+01 0.00000E+00
 -1       785 9.88740E+01 1.25795E+01 0.00000E+00
 -1       786 1.01874E+02 1.25795E+01 0.00000E+00
 -1       787 1.04874E+02 1.25795E+01 0.00000E+00
 -1       788 1.07874E+02 1.25795E+01 0.00000E+00
 -1       789 1.10874E+02 1.25795E+01 0.00000E+00
 -1       790 1.13874E+02 1.25795E+01 0.00000E+00
 -1       791 1.16874E+02 1.25795E+01 0.00000E+00
 -1       792 1.19874E+02 1.25795E+01 0.00000E+00
 -1       793 1.22874E+02 1.25795E+01 0.00000E+00
 -1       794 1.25874E+02 1.25795E+01 0.00000E+00
 -1       795 1.28874E+02 1.25795E+01 0.00000E+00
 -1       796 1.31874E+02 1.25795E+01 0.00000E+00
 -1       797 9.51692E+01 2.04799E+01 0.00000E+00
 -1       798 1.37010E+02 3.38250E+01 0.00000E+00
 -1       799 1.37010E+02 2.79750E+01 0.00000E+00
 -1       800 1.02755E+02 2.68779E+01 0.00000E+00
 -1       801 7.58898E+01 2.84348E+01 0.00000E+00
 -1       802 1.00323E+02 2.40170E+01 0.00000E+00
 -1       803 1.37010E+02 2.50250E+01 0.00000E+00
 -1       804 7.73144E+01 2.56543E+01 0.00000E+00
 -1       805 1.37010E+02 2.20750E+01 0.00000E+00
 -1       806 8.24725E+01 2.08861E+01 0.00000E+00
 -1       807 1.06350E+02 3.74803E+01 0.00000E+00
 -1       808 1.36692E+02 1.45533E+01 0.00000E+00
 -1       809 9.21581E+01 1.97838E+01 0.00000E+00
 -1       810 9.82775E+01 2.22143E+01 0.00000E+00
 -1       811 7.52852E+01 3.16753E+01 0.00000E+00
 -1       812 3.58740E+01 1.25795E+01 0.00000E+00
 -1       813 1.29900E+01 2.20250E+01 0.00000E+00
 -1       814 7.51679E+01 3.73054E+01 0.00000E+00
 -1       815 1.29900E+01 2.49750E+01 0.00000E+00
 -1       816 1.44427E+01 3.70739E+01 0.00000E+00
 -1       817 8.37704E+01 1.93621E+01 0.00000E+00
 -1       818 1.04997E+02 3.48118E+01 0.00000E+00
 -1       819 1.29900E+01 3.08563E+01 0.00000E+00
 -1       820 2.38740E+01 1.25795E+01 0.00000E+00
 -1       821 2.68740E+01 1.25795E+01 0.00000E+00
 -1       822 1.34283E+02 1.35664E+01 0.00000E+00
 -1       823 1.04597E+02 2.80318E+01 0.00000E+00
 -1       824 1.36692E+02 1.74907E+01 0.00000E+00
 -1       825 1.02925E+02 2.42092E+01 0.00000E+00
 -1       826 1.29900E+01 3.37938E+01 0.00000E+00
 -1       827 1.29900E+01 1.61375E+01 0.00000E+00
 -1       828 9.05815E+01 1.87800E+01 0.00000E+00
 -1       829 7.76120E+01 2.32777E+01 0.00000E+00
 -1       830 1.36851E+02 1.97829E+01 0.00000E+00
 -1       831 8.02056E+01 2.08068E+01 0.00000E+00
 -1       832 1.29900E+01 1.90812E+01 0.00000E+00
 -1       833 1.82250E+01 3.44120E+01 0.00000E+00
 -1       834 2.12250E+01 3.44120E+01 0.00000E+00
 -1       835 2.42250E+01 3.44120E+01 0.00000E+00
 -1       836 2.72250E+01 3.44120E+01 0.00000E+00
 -1       837 3.02250E+01 3.44120E+01 0.00000E+00
 -1       838 3.32250E+01 3.44120E+01 0.00000E+00
 -1       839 3.63750E+01 3.44120E+01 0.00000E+00
 -1       840 3.93750E+01 3.44120E+01 0.00000E+00
 -1       841 4.23750E+01 3.44120E+01 0.00000E+00
 -1       842 4.53750E+01 3.44120E+01 0.00000E+00
 -1       843 4.83750E+01 3.44120E+01 0.00000E+00
 -1       844 5.13750E+01 3.44120E+01 0.00000E+00
 -1       845 5.43750E+01 3.44120E+01 0.00000E+00
 -1       846 5.75250E+01 3.44120E+01 0.00000E+00
 -1       847 6.05250E+01 3.44120E+01 0.00000E+00
 -1       848 6.35250E+01 3.44120E+01 0.00000E+00
 -1       849 6.65250E+01 3.44120E+01 0.00000E+00
 -1       850 6.95250E+01 3.44120E+01 0.00000E+00
 -1       851 1.29900E+01 2.79188E+01 0.00000E+00
 -1       852 1.10850E+02 3.48823E+01 0.00000E+00
 -1       853 1.13850E+02 3.48823E+01 0.00000E+00
 -1       854 1.16850E+02 3.48823E+01 0.00000E+00
 -1       855 1.20000E+02 3.48823E+01 0.00000E+00
 -1       856 1.23000E+02 3.48823E+01 0.00000E+00
 -1       857 1.26000E+02 3.48823E+01 0.00000E+00
 -1       858 1.29000E+02 3.48823E+01 0.00000E+00
 -1       859 1.32000E+02 3.48823E+01 0.00000E+00
 -1       860 1.34505E+02 3.43536E+01 0.00000E+00
 -1       861 3.13740E+01 1.51775E+01 0.00000E+00
 -1       862 4.33740E+01 1.51775E+01 0.00000E+00
 -1       863 4.03740E+01 1.51775E+01 0.00000E+00
 -1       864 4.93740E+01 1.51775E+01 0.00000E+00
 -1       865 5.23740E+01 1.51775E+01 0.00000E+00
 -1       866 5.53740E+01 1.51775E+01 0.00000E+00
 -1       867 5.83740E+01 1.51775E+01 0.00000E+00
 -1       868 6.13740E+01 1.51775E+01 0.00000E+00
 -1       869 6.43740E+01 1.51775E+01 0.00000E+00
 -1       870 6.73740E+01 1.51775E+01 0.00000E+00
 -1       871 7.03740E+01 1.51775E+01 0.00000E+00
 -1       872 7.33740E+01 1.51775E+01 0.00000E+00
 -1       873 7.63740E+01 1.51775E+01 0.00000E+00
 -1       874 7.93740E+01 1.51775E+01 0.00000E+00
 -1       875 8.23740E+01 1.51775E+01 0.00000E+00
 -1       876 8.53740E+01 1.51775E+01 0.00000E+00
 -1       877 8.83740E+01 1.51775E+01 0.00000E+00
 -1       878 9.13740E+01 1.51775E+01 0.00000E+00
 -1       879 9.43740E+01 1.51775E+01 0.00000E+00
 -1       880 9.73740E+01 1.51775E+01 0.00000E+00
 -1       881 1.00374E+02 1.51775E+01 0.00000E+00
 -1       882 1.03374E+02 1.51775E+01 0.00000E+00
 -1       883 1.06374E+02 1.51775E+01 0.00000E+00
 -1       884 1.09374E+02 1.51775E+01 0.00000E+00
 -1       885 1.12374E+02 1.51775E+01 0.00000E+00
 -1       886 1.15374E+02 1.51775E+01 0.00000E+00
 -1       887 1.18374E+02 1.51775E+01 0.00000E+00
 -1       888 1.21374E+02 1.51775E+01 0.00000E+00
 -1       889 1.24374E+02 1.51775E+01 0.00000E+00
 -1       890 1.27374E+02 1.51775E+01 0.00000E+00
 -1       891 1.30374E+02 1.51775E+01 0.00000E+00
 -1       892 1.48741E+01 1.55170E+01 0.00000E+00
 -1       893 1.34505E+02 3.14036E+01 0.00000E+00
 -1       894 1.34505E+02 2.85036E+01 0.00000E+00
 -1       895 9.79893E+01 1.90784E+01 0.00000E+00
 -1       896 1.34505E+02 2.55536E+01 0.00000E+00
 -1       897 1.05845E+02 3.10966E+01 0.00000E+00
 -1       898 1.34505E+02 2.26036E+01 0.00000E+00
 -1       899 7.35720E+01 2.96791E+01 0.00000E+00
 -1       900 7.32332E+01 3.34313E+01 0.00000E+00
 -1       901 1.00877E+02 2.13259E+01 0.00000E+00
 -1       902 4.63740E+01 1.51775E+01 0.00000E+00
 -1       903 9.41631E+01 1.79710E+01 0.00000E+00
 -1       904 8.70019E+01 1.85302E+01 0.00000E+00
 -1       905 7.46283E+01 2.60332E+01 0.00000E+00
 -1       906 7.77627E+01 2.07893E+01 0.00000E+00
 -1       907 8.15035E+01 1.92828E+01 0.00000E+00
 -1       908 1.06651E+02 3.26693E+01 0.00000E+00
 -1       909 1.93740E+01 1.51775E+01 0.00000E+00
 -1       910 2.83740E+01 1.51775E+01 0.00000E+00
 -1       911 2.23740E+01 1.51775E+01 0.00000E+00
 -1       912 1.59427E+01 3.44759E+01 0.00000E+00
 -1       913 1.71240E+01 1.53473E+01 0.00000E+00
 -1       914 3.73740E+01 1.51775E+01 0.00000E+00
 -1       915 1.32783E+02 1.61644E+01 0.00000E+00
 -1       916 1.04767E+02 2.53631E+01 0.00000E+00
 -1       917 1.34738E+02 1.68276E+01 0.00000E+00
 -1       918 1.55880E+01 2.93875E+01 0.00000E+00
 -1       919 7.23105E+01 2.72775E+01 0.00000E+00
 -1       920 1.55880E+01 2.35000E+01 0.00000E+00
 -1       921 1.34346E+02 2.03115E+01 0.00000E+00
 -1       922 7.49259E+01 2.36566E+01 0.00000E+00
 -1       923 1.07850E+02 3.49273E+01 0.00000E+00
 -1       924 1.55880E+01 2.05562E+01 0.00000E+00
 -1       925 3.43740E+01 1.51775E+01 0.00000E+00
 -1       926 6.98638E+01 3.06598E+01 0.00000E+00
 -1       927 2.27250E+01 3.18140E+01 0.00000E+00
 -1       928 2.57250E+01 3.18140E+01 0.00000E+00
 -1       929 2.87250E+01 3.18140E+01 0.00000E+00
 -1       930 3.17250E+01 3.18140E+01 0.00000E+00
 -1       931 3.48750E+01 3.18140E+01 0.00000E+00
 -1       932 3.78750E+01 3.18140E+01 0.00000E+00
 -1       933 4.08750E+01 3.18140E+01 0.00000E+00
 -1       934 4.38750E+01 3.18140E+01 0.00000E+00
 -1       935 4.68750E+01 3.18140E+01 0.00000E+00
 -1       936 4.98750E+01 3.18140E+01 0.00000E+00
 -1       937 5.28750E+01 3.18140E+01 0.00000E+00
 -1       938 5.60250E+01 3.18140E+01 0.00000E+00
 -1       939 5.90250E+01 3.18140E+01 0.00000E+00
 -1       940 6.20250E+01 3.18140E+01 0.00000E+00
 -1       941 6.50250E+01 3.18140E+01 0.00000E+00
 -1       942 6.74444E+01 3.12369E+01 0.00000E+00
 -1       943 2.53740E+01 1.51775E+01 0.00000E+00
 -1       944 1.15350E+02 3.22843E+01 0.00000E+00
 -1       945 1.18500E+02 3.22843E+01 0.00000E+00
 -1       946 1.21500E+02 3.22843E+01 0.00000E+00
 -1       947 1.24500E+02 3.22843E+01 0.00000E+00
 -1       948 1.27500E+02 3.22843E+01 0.00000E+00
 -1       949 1.30500E+02 3.22843E+01 0.00000E+00
 -1       950 1.32503E+02 3.18439E+01 0.00000E+00
 -1       951 9.16732E+01 1.72323E+01 0.00000E+00
 -1       952 5.38740E+01 1.77755E+01 0.00000E+00
 -1       953 5.08740E+01 1.77755E+01 0.00000E+00
 -1       954 5.98740E+01 1.77755E+01 0.00000E+00
 -1       955 6.28740E+01 1.77755E+01 0.00000E+00
 -1       956 6.58740E+01 1.77755E+01 0.00000E+00
 -1       957 6.88740E+01 1.77755E+01 0.00000E+00
 -1       958 7.18740E+01 1.77755E+01 0.00000E+00
 -1       959 7.48740E+01 1.77755E+01 0.00000E+00
 -1       960 7.78740E+01 1.77755E+01 0.00000E+00
 -1       961 9.88740E+01 1.77755E+01 0.00000E+00
 -1       962 1.01874E+02 1.77755E+01 0.00000E+00
 -1       963 1.04874E+02 1.77755E+01 0.00000E+00
 -1       964 1.07874E+02 1.77755E+01 0.00000E+00
 -1       965 1.10874E+02 1.77755E+01 0.00000E+00
 -1       966 1.13874E+02 1.77755E+01 0.00000E+00
 -1       967 1.16874E+02 1.77755E+01 0.00000E+00
 -1       968 1.19874E+02 1.77755E+01 0.00000E+00
 -1       969 1.22874E+02 1.77755E+01 0.00000E+00
 -1       970 1.25874E+02 1.77755E+01 0.00000E+00
 -1       971 1.28874E+02 1.77755E+01 0.00000E+00
 -1       972 1.50570E+01 1.72143E+01 0.00000E+00
 -1       973 1.55880E+01 2.64438E+01 0.00000E+00
 -1       974 1.32503E+02 2.89439E+01 0.00000E+00
 -1       975 1.04019E+02 2.12631E+01 0.00000E+00
 -1       976 1.31907E+02 2.40786E+01 0.00000E+00
 -1       977 1.32205E+02 2.65113E+01 0.00000E+00
 -1       978 5.68740E+01 1.77755E+01 0.00000E+00
 -1       979 4.18740E+01 1.77755E+01 0.00000E+00
 -1       980 1.34542E+02 1.85695E+01 0.00000E+00
 -1       981 1.12350E+02 3.22843E+01 0.00000E+00
 -1       982 1.07627E+02 2.85838E+01 0.00000E+00
 -1       983 1.97250E+01 3.18140E+01 0.00000E+00
 -1       984 1.05861E+02 2.24171E+01 0.00000E+00
 -1       985 2.98740E+01 1.77755E+01 0.00000E+00
 -1       986 1.08433E+02 3.01566E+01 0.00000E+00
 -1       987 3.88740E+01 1.77755E+01 0.00000E+00
 -1       988 2.08740E+01 1.77755E+01 0.00000E+00
 -1       989 1.79655E+01 1.74949E+01 0.00000E+00
 -1       990 4.78740E+01 1.77755E+01 0.00000E+00
 -1       991 1.31283E+02 1.87624E+01 0.00000E+00
 -1       992 1.07797E+02 2.59151E+01 0.00000E+00
 -1       993 7.50766E+01 2.11683E+01 0.00000E+00
 -1       994 7.26082E+01 2.49009E+01 0.00000E+00
 -1       995 3.28740E+01 1.77755E+01 0.00000E+00
 -1       996 1.83571E+01 3.17510E+01 0.00000E+00
 -1       997 1.31748E+02 2.17865E+01 0.00000E+00
 -1       998 1.81860E+01 2.49719E+01 0.00000E+00
 -1       999 1.81860E+01 2.20281E+01 0.00000E+00
 -1      1000 4.48740E+01 1.77755E+01 0.00000E+00
 -1      1001 1.81860E+01 2.79156E+01 0.00000E+00
 -1      1002 6.90187E+01 2.74723E+01 0.00000E+00
 -1      1003 2.72250E+01 2.92160E+01 0.00000E+00
 -1      1004 3.02250E+01 2.92160E+01 0.00000E+00
 -1      1005 3.33750E+01 2.92160E+01 0.00000E+00
 -1      1006 3.63750E+01 2.92160E+01 0.00000E+00
 -1      1007 3.93750E+01 2.92160E+01 0.00000E+00
 -1      1008 4.23750E+01 2.92160E+01 0.00000E+00
 -1      1009 4.53750E+01 2.92160E+01 0.00000E+00
 -1      1010 4.83750E+01 2.92160E+01 0.00000E+00
 -1      1011 5.13750E+01 2.92160E+01 0.00000E+00
 -1      1012 5.45250E+01 2.92160E+01 0.00000E+00
 -1      1013 5.75250E+01 2.92160E+01 0.00000E+00
 -1      1014 6.05250E+01 2.92160E+01 0.00000E+00
 -1      1015 6.35250E+01 2.92160E+01 0.00000E+00
 -1      1016 5.23740E+01 2.03735E+01 0.00000E+00
 -1      1017 1.16925E+02 2.96863E+01 0.00000E+00
 -1      1018 1.19925E+02 2.96863E+01 0.00000E+00
 -1      1019 1.22925E+02 2.96863E+01 0.00000E+00
 -1      1020 1.25925E+02 2.96863E+01 0.00000E+00
 -1      1021 1.28925E+02 2.96863E+01 0.00000E+00
 -1      1022 1.30714E+02 2.93151E+01 0.00000E+00
 -1      1023 2.38740E+01 1.77755E+01 0.00000E+00
 -1      1024 5.83740E+01 2.03735E+01 0.00000E+00
 -1      1025 6.43740E+01 2.03735E+01 0.00000E+00
 -1      1026 6.13740E+01 2.03735E+01 0.00000E+00
 -1      1027 7.03740E+01 2.03735E+01 0.00000E+00
 -1      1028 1.09374E+02 2.03735E+01 0.00000E+00
 -1      1029 1.12374E+02 2.03735E+01 0.00000E+00
 -1      1030 1.15374E+02 2.03735E+01 0.00000E+00
 -1      1031 1.18374E+02 2.03735E+01 0.00000E+00
 -1      1032 1.21374E+02 2.03735E+01 0.00000E+00
 -1      1033 1.24374E+02 2.03735E+01 0.00000E+00
 -1      1034 1.27374E+02 2.03735E+01 0.00000E+00
 -1      1035 2.68740E+01 1.77755E+01 0.00000E+00
 -1      1036 5.53740E+01 2.03735E+01 0.00000E+00
 -1      1037 6.73740E+01 2.03735E+01 0.00000E+00
 -1      1038 2.07840E+01 2.64438E+01 0.00000E+00
 -1      1039 3.58740E+01 1.77755E+01 0.00000E+00
 -1      1040 1.13925E+02 2.96863E+01 0.00000E+00
 -1      1041 1.10776E+02 2.91350E+01 0.00000E+00
 -1      1042 2.42250E+01 2.92160E+01 0.00000E+00
 -1      1043 1.06868E+02 2.00963E+01 0.00000E+00
 -1      1044 4.93740E+01 2.03735E+01 0.00000E+00
 -1      1045 6.59444E+01 2.86389E+01 0.00000E+00
 -1      1046 2.23740E+01 2.03735E+01 0.00000E+00
 -1      1047 1.31944E+02 2.00445E+01 0.00000E+00
 -1      1048 4.03740E+01 2.03735E+01 0.00000E+00
 -1      1049 1.30416E+02 2.68824E+01 0.00000E+00
 -1      1050 2.83740E+01 2.03735E+01 0.00000E+00
 -1      1051 1.10946E+02 2.64663E+01 0.00000E+00
 -1      1052 6.93163E+01 2.50957E+01 0.00000E+00
 -1      1053 1.29236E+02 2.31124E+01 0.00000E+00
 -1      1054 4.33740E+01 2.03735E+01 0.00000E+00
 -1      1055 3.13740E+01 2.03735E+01 0.00000E+00
 -1      1056 2.15790E+01 2.34086E+01 0.00000E+00
 -1      1057 2.08670E+01 2.97175E+01 0.00000E+00
 -1      1058 1.29826E+02 2.49974E+01 0.00000E+00
 -1      1059 1.29431E+02 2.13704E+01 0.00000E+00
 -1      1060 1.08368E+02 2.26943E+01 0.00000E+00
 -1      1061 3.18000E+01 2.66180E+01 0.00000E+00
 -1      1062 3.48000E+01 2.66180E+01 0.00000E+00
 -1      1063 3.78000E+01 2.66180E+01 0.00000E+00
 -1      1064 4.08000E+01 2.66180E+01 0.00000E+00
 -1      1065 4.38000E+01 2.66180E+01 0.00000E+00
 -1      1066 4.68000E+01 2.66180E+01 0.00000E+00
 -1      1067 4.98000E+01 2.66180E+01 0.00000E+00
 -1      1068 5.29500E+01 2.66180E+01 0.00000E+00
 -1      1069 5.59500E+01 2.66180E+01 0.00000E+00
 -1      1070 5.89500E+01 2.66180E+01 0.00000E+00
 -1      1071 6.19500E+01 2.66180E+01 0.00000E+00
 -1      1072 2.53739E+01 2.03735E+01 0.00000E+00
 -1      1073 1.18425E+02 2.70883E+01 0.00000E+00
 -1      1074 6.58740E+01 2.29715E+01 0.00000E+00
 -1      1075 1.21425E+02 2.70883E+01 0.00000E+00
 -1      1076 1.24425E+02 2.70883E+01 0.00000E+00
 -1      1077 1.27425E+02 2.70883E+01 0.00000E+00
 -1      1078 5.98740E+01 2.29715E+01 0.00000E+00
 -1      1079 1.16874E+02 2.29715E+01 0.00000E+00
 -1      1080 1.11368E+02 2.26943E+01 0.00000E+00
 -1      1081 1.19874E+02 2.29715E+01 0.00000E+00
 -1      1082 1.22874E+02 2.29715E+01 0.00000E+00
 -1      1083 1.25874E+02 2.29715E+01 0.00000E+00
 -1      1084 5.68740E+01 2.29715E+01 0.00000E+00
 -1      1085 7.25382E+01 2.19897E+01 0.00000E+00
 -1      1086 1.15425E+02 2.70883E+01 0.00000E+00
 -1      1087 4.63740E+01 2.03735E+01 0.00000E+00
 -1      1088 3.73740E+01 2.03735E+01 0.00000E+00
 -1      1089 3.43740E+01 2.03735E+01 0.00000E+00
 -1      1090 5.38740E+01 2.29715E+01 0.00000E+00
 -1      1091 6.28740E+01 2.29715E+01 0.00000E+00
 -1      1092 1.13186E+02 2.67773E+01 0.00000E+00
 -1      1093 1.14121E+02 2.28329E+01 0.00000E+00
 -1      1094 2.57250E+01 2.66180E+01 0.00000E+00
 -1      1095 2.87250E+01 2.66180E+01 0.00000E+00
 -1      1096 5.08740E+01 2.29715E+01 0.00000E+00
 -1      1097 6.62421E+01 2.62623E+01 0.00000E+00
 -1      1098 6.40960E+01 2.64401E+01 0.00000E+00
 -1      1099 2.45789E+01 2.34086E+01 0.00000E+00
 -1      1100 2.98740E+01 2.29715E+01 0.00000E+00
 -1      1101 2.72265E+01 2.31901E+01 0.00000E+00
 -1      1102 3.88740E+01 2.29715E+01 0.00000E+00
 -1      1103 4.18740E+01 2.29715E+01 0.00000E+00
 -1      1104 3.63000E+01 2.40200E+01 0.00000E+00
 -1      1105 4.83000E+01 2.40200E+01 0.00000E+00
 -1      1106 3.28740E+01 2.29715E+01 0.00000E+00
 -1      1107 4.50870E+01 2.34958E+01 0.00000E+00
 -1      1108 1.13653E+02 2.48051E+01 0.00000E+00
 -1      1109 0.00000E+00 4.85250E+01 0.00000E+00
 -1      1110 0.00000E+00 4.55750E+01 0.00000E+00
 -1      1111 0.00000E+00 4.26250E+01 0.00000E+00
 -1      1112 0.00000E+00 3.96750E+01 0.00000E+00
 -1      1113 0.00000E+00 3.67250E+01 0.00000E+00
 -1      1114 0.00000E+00 3.38000E+01 0.00000E+00
 -1      1115 0.00000E+00 3.08750E+01 0.00000E+00
 -1      1116 0.00000E+00 2.79250E+01 0.00000E+00
 -1      1117 0.00000E+00 2.49750E+01 0.00000E+00
 -1      1118 0.00000E+00 2.20250E+01 0.00000E+00
 -1      1119 0.00000E+00 1.90750E+01 0.00000E+00
 -1      1120 0.00000E+00 1.61500E+01 0.00000E+00
 -1      1121 0.00000E+00 1.32250E+01 0.00000E+00
 -1      1122 0.00000E+00 1.02750E+01 0.00000E+00
 -1      1123 0.00000E+00 7.32500E+00 0.00000E+00
 -1      1124 0.00000E+00 4.37500E+00 0.00000E+00
 -1      1125 0.00000E+00 1.45000E+00 0.00000E+00
 -1      1126 1.57500E+00 5.00000E+01 0.00000E+00
 -1      1127 4.65000E+00 5.00000E+01 0.00000E+00
 -1      1128 7.65000E+00 5.00000E+01 0.00000E+00
 -1      1129 1.06500E+01 5.00000E+01 0.00000E+00
 -1      1130 1.36500E+01 5.00000E+01 0.00000E+00
 -1      1131 1.66500E+01 5.00000E+01 0.00000E+00
 -1      1132 1.96500E+01 5.00000E+01 0.00000E+00
 -1      1133 2.27250E+01 5.00000E+01 0.00000E+00
 -1      1134 2.58000E+01 5.00000E+01 0.00000E+00
 -1      1135 2.88000E+01 5.00000E+01 0.00000E+00
 -1      1136 3.18000E+01 5.00000E+01 0.00000E+00
 -1      1137 3.48000E+01 5.00000E+01 0.00000E+00
 -1      1138 3.78000E+01 5.00000E+01 0.00000E+00
 -1      1139 4.08000E+01 5.00000E+01 0.00000E+00
 -1      1140 4.38750E+01 5.00000E+01 0.00000E+00
 -1      1141 4.69500E+01 5.00000E+01 0.00000E+00
 -1      1142 4.99500E+01 5.00000E+01 0.00000E+00
 -1      1143 5.29500E+01 5.00000E+01 0.00000E+00
 -1      1144 5.59500E+01 5.00000E+01 0.00000E+00
 -1      1145 5.89500E+01 5.00000E+01 0.00000E+00
 -1      1146 6.19500E+01 5.00000E+01 0.00000E+00
 -1      1147 6.50250E+01 5.00000E+01 0.00000E+00
 -1      1148 6.81000E+01 5.00000E+01 0.00000E+00
 -1      1149 7.11000E+01 5.00000E+01 0.00000E+00
 -1      1150 7.41000E+01 5.00000E+01 0.00000E+00
 -1      1151 7.71000E+01 5.00000E+01 0.00000E+00
 -1      1152 8.01000E+01 5.00000E+01 0.00000E+00
 -1      1153 8.30250E+01 5.00000E+01 0.00000E+00
 -1      1154 8.59500E+01 5.00000E+01 0.00000E+00
 -1      1155 8.88000E+01 5.00000E+01 0.00000E+00
 -1      1156 9.14250E+01 5.00000E+01 0.00000E+00
 -1      1157 9.42000E+01 5.00000E+01 0.00000E+00
 -1      1158 9.72000E+01 5.00000E+01 0.00000E+00
 -1      1159 1.00200E+02 5.00000E+01 0.00000E+00
 -1      1160 1.03200E+02 5.00000E+01 0.00000E+00
 -1      1161 1.06275E+02 5.00000E+01 0.00000E+00
 -1      1162 1.09350E+02 5.00000E+01 0.00000E+00
 -1      1163 1.12350E+02 5.00000E+01 0.00000E+00
 -1      1164 1.15350E+02 5.00000E+01 0.00000E+00
 -1      1165 1.18350E+02 5.00000E+01 0.00000E+00
 -1      1166 1.21350E+02 5.00000E+01 0.00000E+00
 -1      1167 1.24350E+02 5.00000E+01 0.00000E+00
 -1      1168 1.27425E+02 5.00000E+01 0.00000E+00
 -1      1169 1.30500E+02 5.00000E+01 0.00000E+00
 -1      1170 1.33500E+02 5.00000E+01 0.00000E+00
 -1      1171 1.36500E+02 5.00000E+01 0.00000E+00
 -1      1172 1.39500E+02 5.00000E+01 0.00000E+00
 -1      1173 1.42500E+02 5.00000E+01 0.00000E+00
 -1      1174 1.45500E+02 5.00000E+01 0.00000E+00
 -1      1175 1.48500E+02 5.00000E+01 0.00000E+00
 -1      1176 1.57500E+00 0.00000E+00 0.00000E+00
 -1      1177 4.65000E+00 0.00000E+00 0.00000E+00
 -1      1178 7.65000E+00 0.00000E+00 0.00000E+00
 -1      1179 1.06500E+01 0.00000E+00 0.00000E+00
 -1      1180 1.36500E+01 0.00000E+00 0.00000E+00
 -1      1181 1.66500E+01 0.00000E+00 0.00000E+00
 -1      1182 1.96500E+01 0.00000E+00 0.00000E+00
 -1      1183 2.26500E+01 0.00000E+00 0.00000E+00
 -1      1184 2.56500E+01 0.00000E+00 0.00000E+00
 -1      1185 2.86500E+01 0.00000E+00 0.00000E+00
 -1      1186 3.16500E+01 0.00000E+00 0.00000E+00
 -1      1187 3.46500E+01 0.00000E+00 0.00000E+00
 -1      1188 3.76500E+01 0.00000E+00 0.00000E+00
 -1      1189 4.06500E+01 0.00000E+00 0.00000E+00
 -1      1190 4.36500E+01 0.00000E+00 0.00000E+00
 -1      1191 4.66500E+01 0.00000E+00 0.00000E+00
 -1      1192 4.96500E+01 0.00000E+00 0.00000E+00
 -1      1193 5.26500E+01 0.00000E+00 0.00000E+00
 -1      1194 5.56500E+01 0.00000E+00 0.00000E+00
 -1      1195 5.86500E+01 0.00000E+00 0.00000E+00
 -1      1196 6.16500E+01 0.00000E+00 0.00000E+00
 -1      1197 6.46500E+01 0.00000E+00 0.00000E+00
 -1      1198 6.76500E+01 0.00000E+00 0.00000E+00
 -1      1199 7.06500E+01 0.00000E+00 0.00000E+00
 -1      1200 7.36500E+01 0.00000E+00 0.00000E+00
 -1      1201 7.66500E+01 0.00000E+00 0.00000E+00
 -1      1202 7.96500E+01 0.00000E+00 0.00000E+00
 -1      1203 8.26500E+01 0.00000E+00 0.00000E+00
 -1      1204 8.56500E+01 0.00000E+00 0.00000E+00
 -1      1205 8.86500E+01 0.00000E+00 0.00000E+00
 -1      1206 9.16500E+01 0.00000E+00 0.00000E+00
 -1      1207 9.46500E+01 0.00000E+00 0.00000E+00
 -1      1208 9.76500E+01 0.00000E+00 0.00000E+00
 -1      1209 1.00650E+02 0.00000E+00 0.00000E+00
 -1      1210 1.03650E+02 0.00000E+00 0.00000E+00
 -1      1211 1.06650E+02 0.00000E+00 0.00000E+00
 -1      1212 1.09650E+02 0.00000E+00 0.00000E+00
 -1      1213 1.12650E+02 0.00000E+00 0.00000E+00
 -1      1214 1.15650E+02 0.00000E+00 0.00000E+00
 -1      1215 1.18650E+02 0.00000E+00 0.00000E+00
 -1      1216 1.21650E+02 0.00000E+00 0.00000E+00
 -1      1217 1.24650E+02 0.00000E+00 0.00000E+00
 -1      1218 1.27650E+02 0.00000E+00 0.00000E+00
 -1      1219 1.30650E+02 0.00000E+00 0.00000E+00
 -1      1220 1.33650E+02 0.00000E+00 0.00000E+00
 -1      1221 1.36650E+02 0.00000E+00 0.00000E+00
 -1      1222 1.39650E+02 0.00000E+00 0.00000E+00
 -1      1223 1.42650E+02 0.00000E+00 0.00000E+00
 -1      1224 1.45650E+02 0.00000E+00 0.00000E+00
 -1      1225 1.48575E+02 0.00000E+00 0.00000E+00
 -1      1226 1.50000E+02 1.47500E+00 0.00000E+00
 -1      1227 1.50000E+02 4.42500E+00 0.00000E+00
 -1      1228 1.50000E+02 7.37500E+00 0.00000E+00
 -1      1229 1.50000E+02 1.03250E+01 0.00000E+00
 -1      1230 1.50000E+02 1.32750E+01 0.00000E+00
 -1      1231 1.50000E+02 1.62000E+01 0.00000E+00
 -1      1232 1.50000E+02 1.91250E+01 0.00000E+00
 -1      1233 1.50000E+02 2.20750E+01 0.00000E+00
 -1      1234 1.50000E+02 2.50250E+01 0.00000E+00
 -1      1235 1.50000E+02 2.79750E+01 0.00000E+00
 -1      1236 1.50000E+02 3.09250E+01 0.00000E+00
 -1      1237 1.50000E+02 3.38500E+01 0.00000E+00
 -1      1238 1.50000E+02 3.67750E+01 0.00000E+00
 -1      1239 1.50000E+02 3.97250E+01 0.00000E+00
 -1      1240 1.50000E+02 4.26750E+01 0.00000E+00
 -1      1241 1.50000E+02 4.56250E+01 0.00000E+00
 -1      1242 1.50000E+02 4.85500E+01 0.00000E+00
 -1      1243 9.64209E+01 3.39427E+01 0.00000E+00
 -1      1244 9.60973E+01 3.24553E+01 0.00000E+00
 -1      1245 9.54585E+01 3.10707E+01 0.00000E+00
 -1      1246 9.45723E+01 2.98967E+01 0.00000E+00
 -1      1247 9.34068E+01 2.88970E+01 0.00000E+00
 -1      1248 9.20406E+01 2.81712E+01 0.00000E+00
 -1      1249 9.05999E+01 2.77715E+01 0.00000E+00
 -1      1250 8.91077E+01 2.76868E+01 0.00000E+00
 -1      1251 8.76019E+01 2.79290E+01 0.00000E+00
 -1      1252 8.61931E+01 2.84869E+01 0.00000E+00
 -1      1253 8.49718E+01 2.93059E+01 0.00000E+00
 -1      1254 8.39160E+01 3.04038E+01 0.00000E+00
 -1      1255 8.31243E+01 3.17008E+01 0.00000E+00
 -1      1256 8.26308E+01 3.31393E+01 0.00000E+00
 -1      1257 8.24596E+01 3.46621E+01 0.00000E+00
 -1      1258 8.26068E+01 3.61061E+01 0.00000E+00
 -1      1259 8.30666E+01 3.75293E+01 0.00000E+00
 -1      1260 8.38275E+01 3.88349E+01 0.00000E+00
 -1      1261 8.48176E+01 3.99175E+01 0.00000E+00
 -1      1262 8.60568E+01 4.07953E+01 0.00000E+00
 -1      1263 8.75062E+01 4.13999E+01 0.00000E+00
 -1      1264 8.90191E+01 4.16641E+01 0.00000E+00
 -1      1265 9.05212E+01 4.15970E+01 0.00000E+00
 -1      1266 9.19830E+01 4.12073E+01 0.00000E+00
 -1      1267 9.33033E+01 4.05283E+01 0.00000E+00
 -1      1268 9.44848E+01 3.95512E+01 0.00000E+00
 -1      1269 9.54353E+01 3.83236E+01 0.00000E+00
 -1      1270 9.60753E+01 3.69654E+01 0.00000E+00
 -1      1271 9.64149E+01 3.54677E+01 0.00000E+00
 -1      1272 1.57500E+00 4.85250E+01 0.00000E+00
 -1      1273 1.29900E+00 4.48375E+01 0.00000E+00
 -1      1274 1.29900E+00 4.63125E+01 0.00000E+00
 -1      1275 1.29900E+00 4.18875E+01 0.00000E+00
 -1      1276 1.29900E+00 4.33625E+01 0.00000E+00
 -1      1277 2.59800E+00 4.41000E+01 0.00000E+00
 -1      1278 1.29900E+00 3.89375E+01 0.00000E+00
 -1      1279 1.29900E+00 4.04125E+01 0.00000E+00
 -1      1280 2.59800E+00 4.11500E+01 0.00000E+00
 -1      1281 1.29900E+00 3.59875E+01 0.00000E+00
 -1      1282 1.29900E+00 3.74625E+01 0.00000E+00
 -1      1283 2.59800E+00 3.82000E+01 0.00000E+00
 -1      1284 1.29900E+00 3.30875E+01 0.00000E+00
 -1      1285 1.29900E+00 3.45375E+01 0.00000E+00
 -1      1286 2.59800E+00 3.52750E+01 0.00000E+00
 -1      1287 1.29900E+00 3.01375E+01 0.00000E+00
 -1      1288 1.29900E+00 3.16125E+01 0.00000E+00
 -1      1289 2.59800E+00 3.23500E+01 0.00000E+00
 -1      1290 1.29900E+00 2.71875E+01 0.00000E+00
 -1      1291 1.29900E+00 2.86625E+01 0.00000E+00
 -1      1292 2.59800E+00 2.94000E+01 0.00000E+00
 -1      1293 1.29900E+00 2.42375E+01 0.00000E+00
 -1      1294 1.29900E+00 2.57125E+01 0.00000E+00
 -1      1295 2.59800E+00 2.64500E+01 0.00000E+00
 -1      1296 1.29900E+00 2.12875E+01 0.00000E+00
 -1      1297 1.29900E+00 2.27625E+01 0.00000E+00
 -1      1298 2.59800E+00 2.35000E+01 0.00000E+00
 -1      1299 1.29900E+00 1.83375E+01 0.00000E+00
 -1      1300 1.29900E+00 1.98125E+01 0.00000E+00
 -1      1301 2.59800E+00 2.05500E+01 0.00000E+00
 -1      1302 1.29900E+00 1.54375E+01 0.00000E+00
 -1      1303 1.29900E+00 1.68875E+01 0.00000E+00
 -1      1304 2.59800E+00 1.76250E+01 0.00000E+00
 -1      1305 1.29900E+00 1.24875E+01 0.00000E+00
 -1      1306 1.29900E+00 1.39625E+01 0.00000E+00
 -1      1307 2.59800E+00 1.47000E+01 0.00000E+00
 -1      1308 1.29900E+00 9.53750E+00 0.00000E+00
 -1      1309 1.29900E+00 1.10125E+01 0.00000E+00
 -1      1310 2.59800E+00 1.17500E+01 0.00000E+00
 -1      1311 1.29900E+00 6.58750E+00 0.00000E+00
 -1      1312 1.29900E+00 8.06250E+00 0.00000E+00
 -1      1313 2.59800E+00 8.80000E+00 0.00000E+00
 -1      1314 1.29900E+00 3.63750E+00 0.00000E+00
 -1      1315 1.29900E+00 5.11250E+00 0.00000E+00
 -1      1316 2.59800E+00 5.85000E+00 0.00000E+00
 -1      1317 1.43700E+00 1.09375E+00 0.00000E+00
 -1      1318 1.43700E+00 2.54375E+00 0.00000E+00
 -1      1319 2.73600E+00 3.28125E+00 0.00000E+00
 -1      1320 3.01200E+00 1.09375E+00 0.00000E+00
 -1      1321 3.90000E+00 4.87010E+01 0.00000E+00
 -1      1322 5.40000E+00 4.87010E+01 0.00000E+00
 -1      1323 6.90000E+00 4.87010E+01 0.00000E+00
 -1      1324 8.40000E+00 4.87010E+01 0.00000E+00
 -1      1325 6.15000E+00 4.74020E+01 0.00000E+00
 -1      1326 9.90000E+00 4.87010E+01 0.00000E+00
 -1      1327 1.14000E+01 4.87010E+01 0.00000E+00
 -1      1328 9.15000E+00 4.74020E+01 0.00000E+00
 -1      1329 1.29000E+01 4.87010E+01 0.00000E+00
 -1      1330 1.44000E+01 4.87010E+01 0.00000E+00
 -1      1331 1.21500E+01 4.74020E+01 0.00000E+00
 -1      1332 1.59000E+01 4.87010E+01 0.00000E+00
 -1      1333 1.74000E+01 4.87010E+01 0.00000E+00
 -1      1334 1.51500E+01 4.74020E+01 0.00000E+00
 -1      1335 1.89000E+01 4.87010E+01 0.00000E+00
 -1      1336 2.04000E+01 4.87010E+01 0.00000E+00
 -1      1337 1.81500E+01 4.74020E+01 0.00000E+00
 -1      1338 2.19750E+01 4.87010E+01 0.00000E+00
 -1      1339 2.35500E+01 4.87010E+01 0.00000E+00
 -1      1340 2.12250E+01 4.74020E+01 0.00000E+00
 -1      1341 2.50500E+01 4.87010E+01 0.00000E+00
 -1      1342 2.65500E+01 4.87010E+01 0.00000E+00
 -1      1343 2.43000E+01 4.74020E+01 0.00000E+00
 -1      1344 2.80500E+01 4.87010E+01 0.00000E+00
 -1      1345 2.95500E+01 4.87010E+01 0.00000E+00
 -1      1346 2.73000E+01 4.74020E+01 0.00000E+00
 -1      1347 3.10500E+01 4.87010E+01 0.00000E+00
 -1      1348 3.25500E+01 4.87010E+01 0.00000E+00
 -1      1349 3.03000E+01 4.74020E+01 0.00000E+00
 -1      1350 3.40500E+01 4.87010E+01 0.00000E+00
 -1      1351 3.55500E+01 4.87010E+01 0.00000E+00
 -1      1352 3.33000E+01 4.74020E+01 0.00000E+00
 -1      1353 3.70500E+01 4.87010E+01 0.00000E+00
 -1      1354 3.85500E+01 4.87010E+01 0.00000E+00
 -1      1355 3.63000E+01 4.74020E+01 0.00000E+00
 -1      1356 4.00500E+01 4.87010E+01 0.00000E+00
 -1      1357 4.15500E+01 4.87010E+01 0.00000E+00
 -1      1358 3.93000E+01 4.74020E+01 0.00000E+00
 -1      1359 4.31250E+01 4.87010E+01 0.00000E+00
 -1      1360 4.47000E+01 4.87010E+01 0.00000E+00
 -1      1361 4.23750E+01 4.74020E+01 0.00000E+00
 -1      1362 4.62000E+01 4.87010E+01 0.00000E+00
 -1      1363 4.77000E+01 4.87010E+01 0.00000E+00
 -1      1364 4.54500E+01 4.74020E+01 0.00000E+00
 -1      1365 4.92000E+01 4.87010E+01 0.00000E+00
 -1      1366 5.07000E+01 4.87010E+01 0.00000E+00
 -1      1367 4.84500E+01 4.74020E+01 0.00000E+00
 -1      1368 5.22000E+01 4.87010E+01 0.00000E+00
 -1      1369 5.37000E+01 4.87010E+01 0.00000E+00
 -1      1370 5.14500E+01 4.74020E+01 0.00000E+00
 -1      1371 5.52000E+01 4.87010E+01 0.00000E+00
 -1      1372 5.67000E+01 4.87010E+01 0.00000E+00
 -1      1373 5.44500E+01 4.74020E+01 0.00000E+00
 -1      1374 5.82000E+01 4.87010E+01 0.00000E+00
 -1      1375 5.97000E+01 4.87010E+01 0.00000E+00
 -1      1376 5.74500E+01 4.74020E+01 0.00000E+00
 -1      1377 6.12000E+01 4.87010E+01 0.00000E+00
 -1      1378 6.27000E+01 4.87010E+01 0.00000E+00
 -1      1379 6.04500E+01 4.74020E+01 0.00000E+00
 -1      1380 6.42750E+01 4.87010E+01 0.00000E+00
 -1      1381 6.58500E+01 4.87010E+01 0.00000E+00
 -1      1382 6.35250E+01 4.74020E+01 0.00000E+00
 -1      1383 6.73500E+01 4.87010E+01 0.00000E+00
 -1      1384 6.88500E+01 4.87010E+01 0.00000E+00
 -1      1385 6.66000E+01 4.74020E+01 0.00000E+00
 -1      1386 7.03500E+01 4.87010E+01 0.00000E+00
 -1      1387 7.18500E+01 4.87010E+01 0.00000E+00
 -1      1388 6.96000E+01 4.74020E+01 0.00000E+00
 -1      1389 7.33500E+01 4.87010E+01 0.00000E+00
 -1      1390 7.48500E+01 4.87010E+01 0.00000E+00
 -1      1391 7.26000E+01 4.74020E+01 0.00000E+00
 -1      1392 7.63500E+01 4.87010E+01 0.00000E+00
 -1      1393 7.78500E+01 4.87010E+01 0.00000E+00
 -1      1394 7.56000E+01 4.74020E+01 0.00000E+00
 -1      1395 7.93500E+01 4.87010E+01 0.00000E+00
 -1      1396 8.08500E+01 4.87010E+01 0.00000E+00
 -1      1397 7.86000E+01 4.74020E+01 0.00000E+00
 -1      1398 8.22750E+01 4.87010E+01 0.00000E+00
 -1      1399 8.37000E+01 4.87010E+01 0.00000E+00
 -1      1400 8.15250E+01 4.74020E+01 0.00000E+00
 -1      1401 8.52000E+01 4.87010E+01 0.00000E+00
 -1      1402 8.67000E+01 4.87010E+01 0.00000E+00
 -1      1403 8.44500E+01 4.74020E+01 0.00000E+00
 -1      1404 8.80500E+01 4.87010E+01 0.00000E+00
 -1      1405 8.94000E+01 4.87010E+01 0.00000E+00
 -1      1406 8.73000E+01 4.74020E+01 0.00000E+00
 -1      1407 9.06750E+01 4.87010E+01 0.00000E+00
 -1      1408 9.19500E+01 4.87010E+01 0.00000E+00
 -1      1409 8.99250E+01 4.74020E+01 0.00000E+00
 -1      1410 9.34500E+01 4.87010E+01 0.00000E+00
 -1      1411 9.49500E+01 4.87010E+01 0.00000E+00
 -1      1412 9.27000E+01 4.74020E+01 0.00000E+00
 -1      1413 9.64500E+01 4.87010E+01 0.00000E+00
 -1      1414 9.79500E+01 4.87010E+01 0.00000E+00
 -1      1415 9.57000E+01 4.74020E+01 0.00000E+00
 -1      1416 9.94500E+01 4.87010E+01 0.00000E+00
 -1      1417 1.00950E+02 4.87010E+01 0.00000E+00
 -1      1418 9.87000E+01 4.74020E+01 0.00000E+00
 -1      1419 1.02450E+02 4.87010E+01 0.00000E+00
 -1      1420 1.03950E+02 4.87010E+01 0.00000E+00
 -1      1421 1.01700E+02 4.74020E+01 0.00000E+00
 -1      1422 1.05525E+02 4.87010E+01 0.00000E+00
 -1      1423 1.07100E+02 4.87010E+01 0.00000E+00
 -1      1424 1.04775E+02 4.74020E+01 0.00000E+00
 -1      1425 1.08600E+02 4.87010E+01 0.00000E+00
 -1      1426 1.10100E+02 4.87010E+01 0.00000E+00
 -1      1427 1.07850E+02 4.74020E+01 0.00000E+00
 -1      1428 1.11600E+02 4.87010E+01 0.00000E+00
 -1      1429 1.13100E+02 4.87010E+01 0.00000E+00
 -1      1430 1.10850E+02 4.74020E+01 0.00000E+00
 -1      1431 1.14600E+02 4.87010E+01 0.00000E+00
 -1      1432 1.16100E+02 4.87010E+01 0.00000E+00
 -1      1433 1.13850E+02 4.74020E+01 0.00000E+00
 -1      1434 1.17600E+02 4.87010E+01 0.00000E+00
 -1      1435 1.19100E+02 4.87010E+01 0.00000E+00
 -1      1436 1.16850E+02 4.74020E+01 0.00000E+00
 -1      1437 1.20600E+02 4.87010E+01 0.00000E+00
 -1      1438 1.22100E+02 4.87010E+01 0.00000E+00
 -1      1439 1.19850E+02 4.74020E+01 0.00000E+00
 -1      1440 1.23600E+02 4.87010E+01 0.00000E+00
 -1      1441 1.25100E+02 4.87010E+01 0.00000E+00
 -1      1442 1.22850E+02 4.74020E+01 0.00000E+00
 -1      1443 1.26675E+02 4.87010E+01 0.00000E+00
 -1      1444 1.28250E+02 4.87010E+01 0.00000E+00
 -1      1445 1.25925E+02 4.74020E+01 0.00000E+00
 -1      1446 1.29750E+02 4.87010E+01 0.00000E+00
 -1      1447 1.31250E+02 4.87010E+01 0.00000E+00
 -1      1448 1.29000E+02 4.74020E+01 0.00000E+00
 -1      1449 1.32750E+02 4.87010E+01 0.00000E+00
 -1      1450 1.34250E+02 4.87010E+01 0.00000E+00
 -1      1451 1.32000E+02 4.74020E+01 0.00000E+00
 -1      1452 1.35750E+02 4.87010E+01 0.00000E+00
 -1      1453 1.37250E+02 4.87010E+01 0.00000E+00
 -1      1454 1.35000E+02 4.74020E+01 0.00000E+00
 -1      1455 1.38750E+02 4.87010E+01 0.00000E+00
 -1      1456 1.40250E+02 4.87010E+01 0.00000E+00
 -1      1457 1.38000E+02 4.74020E+01 0.00000E+00
 -1      1458 1.41750E+02 4.87010E+01 0.00000E+00
 -1      1459 1.43250E+02 4.87010E+01 0.00000E+00
 -1      1460 1.41000E+02 4.74020E+01 0.00000E+00
 -1      1461 1.44750E+02 4.87010E+01 0.00000E+00
 -1      1462 1.46250E+02 4.87010E+01 0.00000E+00
 -1      1463 1.44000E+02 4.74020E+01 0.00000E+00
 -1      1464 1.47375E+02 4.86255E+01 0.00000E+00
 -1      1465 1.48875E+02 4.86255E+01 0.00000E+00
 -1      1466 1.48875E+02 4.71755E+01 0.00000E+00
 -1      1467 1.46625E+02 4.73265E+01 0.00000E+00
 -1      1468 6.01200E+00 1.09375E+00 0.00000E+00
 -1      1469 4.51200E+00 1.09375E+00 0.00000E+00
 -1      1470 4.37400E+00 2.18750E+00 0.00000E+00
 -1      1471 9.01200E+00 1.09375E+00 0.00000E+00
 -1      1472 7.51200E+00 1.09375E+00 0.00000E+00
 -1      1473 7.37400E+00 2.18750E+00 0.00000E+00
 -1      1474 1.20120E+01 1.09375E+00 0.00000E+00
 -1      1475 1.05120E+01 1.09375E+00 0.00000E+00
 -1      1476 1.03740E+01 2.18750E+00 0.00000E+00
 -1      1477 1.50120E+01 1.09375E+00 0.00000E+00
 -1      1478 1.35120E+01 1.09375E+00 0.00000E+00
 -1      1479 1.33740E+01 2.18750E+00 0.00000E+00
 -1      1480 1.80120E+01 1.09375E+00 0.00000E+00
 -1      1481 1.65120E+01 1.09375E+00 0.00000E+00
 -1      1482 1.63740E+01 2.18750E+00 0.00000E+00
 -1      1483 2.10120E+01 1.09375E+00 0.00000E+00
 -1      1484 1.95120E+01 1.09375E+00 0.00000E+00
 -1      1485 1.93740E+01 2.18750E+00 0.00000E+00
 -1      1486 2.40120E+01 1.09375E+00 0.00000E+00
 -1      1487 2.25120E+01 1.09375E+00 0.00000E+00
 -1      1488 2.23740E+01 2.18750E+00 0.00000E+00
 -1      1489 2.70120E+01 1.09375E+00 0.00000E+00
 -1      1490 2.55120E+01 1.09375E+00 0.00000E+00
 -1      1491 2.53740E+01 2.18750E+00 0.00000E+00
 -1      1492 3.00120E+01 1.09375E+00 0.00000E+00
 -1      1493 2.85120E+01 1.09375E+00 0.00000E+00
 -1      1494 2.83740E+01 2.18750E+00 0.00000E+00
 -1      1495 3.30120E+01 1.09375E+00 0.00000E+00
 -1      1496 3.15120E+01 1.09375E+00 0.00000E+00
 -1      1497 3.13740E+01 2.18750E+00 0.00000E+00
 -1      1498 3.60120E+01 1.09375E+00 0.00000E+00
 -1      1499 3.45120E+01 1.09375E+00 0.00000E+00
 -1      1500 3.43740E+01 2.18750E+00 0.00000E+00
 -1      1501 3.90120E+01 1.09375E+00 0.00000E+00
 -1      1502 3.75120E+01 1.09375E+00 0.00000E+00
 -1      1503 3.73740E+01 2.18750E+00 0.00000E+00
 -1      1504 4.20120E+01 1.09375E+00 0.00000E+00
 -1      1505 4.05120E+01 1.09375E+00 0.00000E+00
 -1      1506 4.03740E+01 2.18750E+00 0.00000E+00
 -1      1507 4.50120E+01 1.09375E+00 0.00000E+00
 -1      1508 4.35120E+01 1.09375E+00 0.00000E+00
 -1      1509 4.33740E+01 2.18750E+00 0.00000E+00
 -1      1510 4.80120E+01 1.09375E+00 0.00000E+00
 -1      1511 4.65120E+01 1.09375E+00 0.00000E+00
 -1      1512 4.63740E+01 2.18750E+00 0.00000E+00
 -1      1513 5.10120E+01 1.09375E+00 0.00000E+00
 -1      1514 4.95120E+01 1.09375E+00 0.00000E+00
 -1      1515 4.93740E+01 2.18750E+00 0.00000E+00
 -1      1516 5.40120E+01 1.09375E+00 0.00000E+00
 -1      1517 5.25120E+01 1.09375E+00 0.00000E+00
 -1      1518 5.23740E+01 2.18750E+00 0.00000E+00
 -1      1519 5.70120E+01 1.09375E+00 0.00000E+00
 -1      1520 5.55120E+01 1.09375E+00 0.00000E+00
 -1      1521 5.53740E+01 2.18750E+00 0.00000E+00
 -1      1522 6.00120E+01 1.09375E+00 0.00000E+00
 -1      1523 5.85120E+01 1.09375E+00 0.00000E+00
 -1      1524 5.83740E+01 2.18750E+00 0.00000E+00
 -1      1525 6.30120E+01 1.09375E+00 0.00000E+00
 -1      1526 6.15120E+01 1.09375E+00 0.00000E+00
 -1      1527 6.13740E+01 2.18750E+00 0.00000E+00
 -1      1528 6.60120E+01 1.09375E+00 0.00000E+00
 -1      1529 6.45120E+01 1.09375E+00 0.00000E+00
 -1      1530 6.43740E+01 2.18750E+00 0.00000E+00
 -1      1531 6.90120E+01 1.09375E+00 0.00000E+00
 -1      1532 6.75120E+01 1.09375E+00 0.00000E+00
 -1      1533 6.73740E+01 2.18750E+00 0.00000E+00
 -1      1534 7.20120E+01 1.09375E+00 0.00000E+00
 -1      1535 7.05120E+01 1.09375E+00 0.00000E+00
 -1      1536 7.03740E+01 2.18750E+00 0.00000E+00
 -1      1537 7.50120E+01 1.09375E+00 0.00000E+00
 -1      1538 7.35120E+01 1.09375E+00 0.00000E+00
 -1      1539 7.33740E+01 2.18750E+00 0.00000E+00
 -1      1540 7.80120E+01 1.09375E+00 0.00000E+00
 -1      1541 7.65120E+01 1.09375E+00 0.00000E+00
 -1      1542 7.63740E+01 2.18750E+00 0.00000E+00
 -1      1543 8.10120E+01 1.09375E+00 0.00000E+00
 -1      1544 7.95120E+01 1.09375E+00 0.00000E+00
 -1      1545 7.93740E+01 2.18750E+00 0.00000E+00
 -1      1546 8.40120E+01 1.09375E+00 0.00000E+00
 -1      1547 8.25120E+01 1.09375E+00 0.00000E+00
 -1      1548 8.23740E+01 2.18750E+00 0.00000E+00
 -1      1549 8.70120E+01 1.09375E+00 0.00000E+00
 -1      1550 8.55120E+01 1.09375E+00 0.00000E+00
 -1      1551 8.53740E+01 2.18750E+00 0.00000E+00
 -1      1552 9.00120E+01 1.09375E+00 0.00000E+00
 -1      1553 8.85120E+01 1.09375E+00 0.00000E+00
 -1      1554 8.83740E+01 2.18750E+00 0.00000E+00
 -1      1555 9.30120E+01 1.09375E+00 0.00000E+00
 -1      1556 9.15120E+01 1.09375E+00 0.00000E+00
 -1      1557 9.13740E+01 2.18750E+00 0.00000E+00
 -1      1558 9.60120E+01 1.09375E+00 0.00000E+00
 -1      1559 9.45120E+01 1.09375E+00 0.00000E+00
 -1      1560 9.43740E+01 2.18750E+00 0.00000E+00
 -1      1561 9.90120E+01 1.09375E+00 0.00000E+00
 -1      1562 9.75120E+01 1.09375E+00 0.00000E+00
 -1      1563 9.73740E+01 2.18750E+00 0.00000E+00
 -1      1564 1.02012E+02 1.09375E+00 0.00000E+00
 -1      1565 1.00512E+02 1.09375E+00 0.00000E+00
 -1      1566 1.00374E+02 2.18750E+00 0.00000E+00
 -1      1567 1.05012E+02 1.09375E+00 0.00000E+00
 -1      1568 1.03512E+02 1.09375E+00 0.00000E+00
 -1      1569 1.03374E+02 2.18750E+00 0.00000E+00
 -1      1570 1.08012E+02 1.09375E+00 0.00000E+00
 -1      1571 1.06512E+02 1.09375E+00 0.00000E+00
 -1      1572 1.06374E+02 2.18750E+00 0.00000E+00
 -1      1573 1.11012E+02 1.09375E+00 0.00000E+00
 -1      1574 1.09512E+02 1.09375E+00 0.00000E+00
 -1      1575 1.09374E+02 2.18750E+00 0.00000E+00
 -1      1576 1.14012E+02 1.09375E+00 0.00000E+00
 -1      1577 1.12512E+02 1.09375E+00 0.00000E+00
 -1      1578 1.12374E+02 2.18750E+00 0.00000E+00
 -1      1579 1.17012E+02 1.09375E+00 0.00000E+00
 -1      1580 1.15512E+02 1.09375E+00 0.00000E+00
 -1      1581 1.15374E+02 2.18750E+00 0.00000E+00
 -1      1582 1.20012E+02 1.09375E+00 0.00000E+00
 -1      1583 1.18512E+02 1.09375E+00 0.00000E+00
 -1      1584 1.18374E+02 2.18750E+00 0.00000E+00
 -1      1585 1.23012E+02 1.09375E+00 0.00000E+00
 -1      1586 1.21512E+02 1.09375E+00 0.00000E+00
 -1      1587 1.21374E+02 2.18750E+00 0.00000E+00
 -1      1588 1.26012E+02 1.09375E+00 0.00000E+00
 -1      1589 1.24512E+02 1.09375E+00 0.00000E+00
 -1      1590 1.24374E+02 2.18750E+00 0.00000E+00
 -1      1591 1.29012E+02 1.09375E+00 0.00000E+00
 -1      1592 1.27512E+02 1.09375E+00 0.00000E+00
 -1      1593 1.27374E+02 2.18750E+00 0.00000E+00
 -1      1594 1.32012E+02 1.09375E+00 0.00000E+00
 -1      1595 1.30512E+02 1.09375E+00 0.00000E+00
 -1      1596 1.30374E+02 2.18750E+00 0.00000E+00
 -1      1597 1.35012E+02 1.09375E+00 0.00000E+00
 -1      1598 1.33512E+02 1.09375E+00 0.00000E+00
 -1      1599 1.33374E+02 2.18750E+00 0.00000E+00
 -1      1600 1.38012E+02 1.09375E+00 0.00000E+00
 -1      1601 1.36512E+02 1.09375E+00 0.00000E+00
 -1      1602 1.36374E+02 2.18750E+00 0.00000E+00
 -1      1603 1.41012E+02 1.09375E+00 0.00000E+00
 -1      1604 1.39512E+02 1.09375E+00 0.00000E+00
 -1      1605 1.39374E+02 2.18750E+00 0.00000E+00
 -1      1606 1.44012E+02 1.09375E+00 0.00000E+00
 -1      1607 1.42512E+02 1.09375E+00 0.00000E+00
 -1      1608 1.42374E+02 2.18750E+00 0.00000E+00
 -1      1609 1.47012E+02 1.09375E+00 0.00000E+00
 -1      1610 1.45512E+02 1.09375E+00 0.00000E+00
 -1      1611 1.45374E+02 2.18750E+00 0.00000E+00
 -1      1612 1.48575E+02 1.47500E+00 0.00000E+00
 -1      1613 1.48701E+02 5.16250E+00 0.00000E+00
 -1      1614 1.48701E+02 3.68750E+00 0.00000E+00
 -1      1615 1.48701E+02 8.11250E+00 0.00000E+00
 -1      1616 1.48701E+02 6.63750E+00 0.00000E+00
 -1      1617 1.47402E+02 5.90000E+00 0.00000E+00
 -1      1618 1.48701E+02 1.10625E+01 0.00000E+00
 -1      1619 1.48701E+02 9.58750E+00 0.00000E+00
 -1      1620 1.47402E+02 8.85000E+00 0.00000E+00
 -1      1621 1.48701E+02 1.40125E+01 0.00000E+00
 -1      1622 1.48701E+02 1.25375E+01 0.00000E+00
 -1      1623 1.47402E+02 1.18000E+01 0.00000E+00
 -1      1624 1.48701E+02 1.69125E+01 0.00000E+00
 -1      1625 1.48701E+02 1.54625E+01 0.00000E+00
 -1      1626 1.47402E+02 1.47250E+01 0.00000E+00
 -1      1627 1.48701E+02 1.98625E+01 0.00000E+00
 -1      1628 1.48701E+02 1.83875E+01 0.00000E+00
 -1      1629 1.47402E+02 1.76500E+01 0.00000E+00
 -1      1630 1.48701E+02 2.28125E+01 0.00000E+00
 -1      1631 1.48701E+02 2.13375E+01 0.00000E+00
 -1      1632 1.47402E+02 2.06000E+01 0.00000E+00
 -1      1633 1.48701E+02 2.57625E+01 0.00000E+00
 -1      1634 1.48701E+02 2.42875E+01 0.00000E+00
 -1      1635 1.47402E+02 2.35500E+01 0.00000E+00
 -1      1636 1.48701E+02 2.87125E+01 0.00000E+00
 -1      1637 1.48701E+02 2.72375E+01 0.00000E+00
 -1      1638 1.47402E+02 2.65000E+01 0.00000E+00
 -1      1639 1.48701E+02 3.16625E+01 0.00000E+00
 -1      1640 1.48701E+02 3.01875E+01 0.00000E+00
 -1      1641 1.47402E+02 2.94500E+01 0.00000E+00
 -1      1642 1.48701E+02 3.45625E+01 0.00000E+00
 -1      1643 1.48701E+02 3.31125E+01 0.00000E+00
 -1      1644 1.47402E+02 3.23750E+01 0.00000E+00
 -1      1645 1.48701E+02 3.75125E+01 0.00000E+00
 -1      1646 1.48701E+02 3.60375E+01 0.00000E+00
 -1      1647 1.47402E+02 3.53000E+01 0.00000E+00
 -1      1648 1.48701E+02 4.04625E+01 0.00000E+00
 -1      1649 1.48701E+02 3.89875E+01 0.00000E+00
 -1      1650 1.47402E+02 3.82500E+01 0.00000E+00
 -1      1651 1.48701E+02 4.34125E+01 0.00000E+00
 -1      1652 1.48701E+02 4.19375E+01 0.00000E+00
 -1      1653 1.47402E+02 4.12000E+01 0.00000E+00
 -1      1654 1.48788E+02 4.60315E+01 0.00000E+00
 -1      1655 1.48788E+02 4.45565E+01 0.00000E+00
 -1      1656 1.47489E+02 4.38190E+01 0.00000E+00
 -1      1657 1.47663E+02 4.61070E+01 0.00000E+00
 -1      1658 9.69466E+01 3.35175E+01 0.00000E+00
 -1      1659 9.70238E+01 3.42487E+01 0.00000E+00
 -1      1660 9.65846E+01 3.18773E+01 0.00000E+00
 -1      1661 9.68345E+01 3.26234E+01 0.00000E+00
 -1      1662 9.57544E+01 3.04621E+01 0.00000E+00
 -1      1663 9.61348E+01 3.10947E+01 0.00000E+00
 -1      1664 9.47673E+01 2.92127E+01 0.00000E+00
 -1      1665 9.52678E+01 2.97479E+01 0.00000E+00
 -1      1666 9.34147E+01 2.81736E+01 0.00000E+00
 -1      1667 9.40776E+01 2.86262E+01 0.00000E+00
 -1      1668 9.19189E+01 2.74684E+01 0.00000E+00
 -1      1669 9.26108E+01 2.77428E+01 0.00000E+00
 -1      1670 9.03285E+01 2.71107E+01 0.00000E+00
 -1      1671 9.10692E+01 2.72330E+01 0.00000E+00
 -1      1672 8.87057E+01 2.70978E+01 0.00000E+00
 -1      1673 8.94485E+01 2.70605E+01 0.00000E+00
 -1      1674 8.70538E+01 2.74096E+01 0.00000E+00
 -1      1675 8.78071E+01 2.72022E+01 0.00000E+00
 -1      1676 8.55841E+01 2.81190E+01 0.00000E+00
 -1      1677 8.62333E+01 2.77765E+01 0.00000E+00
 -1      1678 8.43254E+01 2.91066E+01 0.00000E+00
 -1      1679 8.48907E+01 2.86344E+01 0.00000E+00
 -1      1680 8.31646E+01 3.03210E+01 0.00000E+00
 -1      1681 8.36449E+01 2.96981E+01 0.00000E+00
 -1      1682 8.24546E+01 3.17910E+01 0.00000E+00
 -1      1683 8.27663E+01 3.11276E+01 0.00000E+00
 -1      1684 8.19145E+01 3.33816E+01 0.00000E+00
 -1      1685 8.20877E+01 3.26131E+01 0.00000E+00
 -1      1686 8.18504E+01 3.50330E+01 0.00000E+00
 -1      1687 8.18521E+01 3.42884E+01 0.00000E+00
 -1      1688 8.21205E+01 3.65684E+01 0.00000E+00
 -1      1689 8.19763E+01 3.58764E+01 0.00000E+00
 -1      1690 8.26761E+01 3.81353E+01 0.00000E+00
 -1      1691 8.23548E+01 3.74149E+01 0.00000E+00
 -1      1692 8.35843E+01 3.94633E+01 0.00000E+00
 -1      1693 8.31553E+01 3.88820E+01 0.00000E+00
 -1      1694 8.47207E+01 4.05884E+01 0.00000E+00
 -1      1695 8.41633E+01 4.00945E+01 0.00000E+00
 -1      1696 8.61211E+01 4.14756E+01 0.00000E+00
 -1      1697 8.54448E+01 4.10994E+01 0.00000E+00
 -1      1698 8.77088E+01 4.21300E+01 0.00000E+00
 -1      1699 8.69439E+01 4.19077E+01 0.00000E+00
 -1      1700 8.93523E+01 4.22533E+01 0.00000E+00
 -1      1701 8.86145E+01 4.22068E+01 0.00000E+00
 -1      1702 9.09846E+01 4.20969E+01 0.00000E+00
 -1      1703 9.02290E+01 4.22128E+01 0.00000E+00
 -1      1704 9.25361E+01 4.16004E+01 0.00000E+00
 -1      1705 9.18380E+01 4.18702E+01 0.00000E+00
 -1      1706 9.39224E+01 4.08004E+01 0.00000E+00
 -1      1707 9.33072E+01 4.12046E+01 0.00000E+00
 -1      1708 9.52248E+01 3.97137E+01 0.00000E+00
 -1      1709 9.46700E+01 4.02859E+01 0.00000E+00
 -1      1710 9.61146E+01 3.82956E+01 0.00000E+00
 -1      1711 9.57212E+01 3.89405E+01 0.00000E+00
 -1      1712 9.67325E+01 3.67979E+01 0.00000E+00
 -1      1713 9.64887E+01 3.75030E+01 0.00000E+00
 -1      1714 9.71006E+01 3.51482E+01 0.00000E+00
 -1      1715 9.70115E+01 3.59328E+01 0.00000E+00
 -1      1716 9.59775E+01 2.97518E+01 0.00000E+00
 -1      1717 9.76648E+01 3.47189E+01 0.00000E+00
 -1      1718 1.48437E+02 2.56875E+00 0.00000E+00
 -1      1719 1.47138E+02 3.30625E+00 0.00000E+00
 -1      1720 9.74759E+01 3.29253E+01 0.00000E+00
 -1      1721 9.69140E+01 3.12486E+01 0.00000E+00
 -1      1722 9.48013E+01 2.84512E+01 0.00000E+00
 -1      1723 9.33077E+01 2.74339E+01 0.00000E+00
 -1      1724 9.16541E+01 2.67678E+01 0.00000E+00
 -1      1725 8.99245E+01 2.64822E+01 0.00000E+00
 -1      1726 8.81459E+01 2.65363E+01 0.00000E+00
 -1      1727 8.64268E+01 2.70076E+01 0.00000E+00
 -1      1728 8.49128E+01 2.78899E+01 0.00000E+00
 -1      1729 8.35388E+01 2.89967E+01 0.00000E+00
 -1      1730 8.24601E+01 3.03949E+01 0.00000E+00
 -1      1731 8.16949E+01 3.20236E+01 0.00000E+00
 -1      1732 8.12655E+01 3.37525E+01 0.00000E+00
 -1      1733 8.13290E+01 3.55027E+01 0.00000E+00
 -1      1734 8.16892E+01 3.71926E+01 0.00000E+00
 -1      1735 8.24028E+01 3.87858E+01 0.00000E+00
 -1      1736 8.34610E+01 4.01639E+01 0.00000E+00
 -1      1737 8.47641E+01 4.13062E+01 0.00000E+00
 -1      1738 8.63110E+01 4.22493E+01 0.00000E+00
 -1      1739 8.80395E+01 4.27582E+01 0.00000E+00
 -1      1740 8.98220E+01 4.27945E+01 0.00000E+00
 -1      1741 9.15522E+01 4.25274E+01 0.00000E+00
 -1      1742 9.31766E+01 4.19050E+01 0.00000E+00
 -1      1743 9.46952E+01 4.09946E+01 0.00000E+00
 -1      1744 9.59391E+01 3.97070E+01 0.00000E+00
 -1      1745 9.68094E+01 3.81412E+01 0.00000E+00
 -1      1746 9.74626E+01 3.64834E+01 0.00000E+00
 -1      1747 2.87400E+00 4.77875E+01 0.00000E+00
 -1      1748 3.89700E+00 4.04125E+01 0.00000E+00
 -1      1749 3.89700E+00 4.18875E+01 0.00000E+00
 -1      1750 3.89700E+00 4.33625E+01 0.00000E+00
 -1      1751 3.89700E+00 4.48375E+01 0.00000E+00
 -1      1752 5.19600E+00 4.26250E+01 0.00000E+00
 -1      1753 3.89700E+00 3.45500E+01 0.00000E+00
 -1      1754 3.89700E+00 3.60000E+01 0.00000E+00
 -1      1755 3.89700E+00 3.16000E+01 0.00000E+00
 -1      1756 3.89700E+00 3.30750E+01 0.00000E+00
 -1      1757 5.19600E+00 3.38000E+01 0.00000E+00
 -1      1758 3.89700E+00 2.86500E+01 0.00000E+00
 -1      1759 3.89700E+00 3.01250E+01 0.00000E+00
 -1      1760 5.19600E+00 3.08500E+01 0.00000E+00
 -1      1761 3.89700E+00 2.57000E+01 0.00000E+00
 -1      1762 3.89700E+00 2.71750E+01 0.00000E+00
 -1      1763 5.19600E+00 2.79000E+01 0.00000E+00
 -1      1764 3.89700E+00 2.27500E+01 0.00000E+00
 -1      1765 3.89700E+00 2.42250E+01 0.00000E+00
 -1      1766 5.19600E+00 2.49500E+01 0.00000E+00
 -1      1767 3.89700E+00 1.98000E+01 0.00000E+00
 -1      1768 3.89700E+00 2.12750E+01 0.00000E+00
 -1      1769 5.19600E+00 2.20000E+01 0.00000E+00
 -1      1770 3.89700E+00 1.69000E+01 0.00000E+00
 -1      1771 3.89700E+00 1.83500E+01 0.00000E+00
 -1      1772 5.19600E+00 1.90750E+01 0.00000E+00
 -1      1773 3.89700E+00 1.39500E+01 0.00000E+00
 -1      1774 3.89700E+00 1.54250E+01 0.00000E+00
 -1      1775 5.19600E+00 1.61500E+01 0.00000E+00
 -1      1776 3.89700E+00 1.10000E+01 0.00000E+00
 -1      1777 3.89700E+00 1.24750E+01 0.00000E+00
 -1      1778 5.19600E+00 1.32000E+01 0.00000E+00
 -1      1779 3.89700E+00 8.05000E+00 0.00000E+00
 -1      1780 3.89700E+00 9.52500E+00 0.00000E+00
 -1      1781 5.19600E+00 1.02500E+01 0.00000E+00
 -1      1782 3.89700E+00 5.10000E+00 0.00000E+00
 -1      1783 3.89700E+00 6.57500E+00 0.00000E+00
 -1      1784 5.19600E+00 7.30000E+00 0.00000E+00
 -1      1785 4.20450E+00 3.09687E+00 0.00000E+00
 -1      1786 4.06650E+00 4.19063E+00 0.00000E+00
 -1      1787 5.36550E+00 4.91563E+00 0.00000E+00
 -1      1788 5.70450E+00 3.09687E+00 0.00000E+00
 -1      1789 3.62400E+00 4.64885E+01 0.00000E+00
 -1      1790 8.70450E+00 3.09687E+00 0.00000E+00
 -1      1791 7.20450E+00 3.09687E+00 0.00000E+00
 -1      1792 7.03500E+00 4.00625E+00 0.00000E+00
 -1      1793 4.92300E+00 4.57510E+01 0.00000E+00
 -1      1794 8.40000E+00 4.61030E+01 0.00000E+00
 -1      1795 9.90000E+00 4.61030E+01 0.00000E+00
 -1      1796 1.14000E+01 4.61030E+01 0.00000E+00
 -1      1797 1.29000E+01 4.61030E+01 0.00000E+00
 -1      1798 1.06500E+01 4.48040E+01 0.00000E+00
 -1      1799 1.44000E+01 4.61030E+01 0.00000E+00
 -1      1800 1.59000E+01 4.61030E+01 0.00000E+00
 -1      1801 1.36500E+01 4.48040E+01 0.00000E+00
 -1      1802 1.74000E+01 4.61030E+01 0.00000E+00
 -1      1803 1.89000E+01 4.61030E+01 0.00000E+00
 -1      1804 1.66500E+01 4.48040E+01 0.00000E+00
 -1      1805 2.04750E+01 4.61030E+01 0.00000E+00
 -1      1806 2.20500E+01 4.61030E+01 0.00000E+00
 -1      1807 1.97250E+01 4.48040E+01 0.00000E+00
 -1      1808 2.35500E+01 4.61030E+01 0.00000E+00
 -1      1809 2.50500E+01 4.61030E+01 0.00000E+00
 -1      1810 2.28000E+01 4.48040E+01 0.00000E+00
 -1      1811 2.65500E+01 4.61030E+01 0.00000E+00
 -1      1812 2.80500E+01 4.61030E+01 0.00000E+00
 -1      1813 2.58000E+01 4.48040E+01 0.00000E+00
 -1      1814 2.95500E+01 4.61030E+01 0.00000E+00
 -1      1815 3.10500E+01 4.61030E+01 0.00000E+00
 -1      1816 2.88000E+01 4.48040E+01 0.00000E+00
 -1      1817 3.25500E+01 4.61030E+01 0.00000E+00
 -1      1818 3.40500E+01 4.61030E+01 0.00000E+00
 -1      1819 3.18000E+01 4.48040E+01 0.00000E+00
 -1      1820 3.55500E+01 4.61030E+01 0.00000E+00
 -1      1821 3.70500E+01 4.61030E+01 0.00000E+00
 -1      1822 3.48000E+01 4.48040E+01 0.00000E+00
 -1      1823 3.85500E+01 4.61030E+01 0.00000E+00
 -1      1824 4.00500E+01 4.61030E+01 0.00000E+00
 -1      1825 3.78000E+01 4.48040E+01 0.00000E+00
 -1      1826 4.16250E+01 4.61030E+01 0.00000E+00
 -1      1827 4.32000E+01 4.61030E+01 0.00000E+00
 -1      1828 4.08750E+01 4.48040E+01 0.00000E+00
 -1      1829 4.47000E+01 4.61030E+01 0.00000E+00
 -1      1830 4.62000E+01 4.61030E+01 0.00000E+00
 -1      1831 4.39500E+01 4.48040E+01 0.00000E+00
 -1      1832 4.77000E+01 4.61030E+01 0.00000E+00
 -1      1833 4.92000E+01 4.61030E+01 0.00000E+00
 -1      1834 4.69500E+01 4.48040E+01 0.00000E+00
 -1      1835 5.07000E+01 4.61030E+01 0.00000E+00
 -1      1836 5.22000E+01 4.61030E+01 0.00000E+00
 -1      1837 4.99500E+01 4.48040E+01 0.00000E+00
 -1      1838 5.37000E+01 4.61030E+01 0.00000E+00
 -1      1839 5.52000E+01 4.61030E+01 0.00000E+00
 -1      1840 5.29500E+01 4.48040E+01 0.00000E+00
 -1      1841 5.67000E+01 4.61030E+01 0.00000E+00
 -1      1842 5.82000E+01 4.61030E+01 0.00000E+00
 -1      1843 5.59500E+01 4.48040E+01 0.00000E+00
 -1      1844 5.97000E+01 4.61030E+01 0.00000E+00
 -1      1845 6.12000E+01 4.61030E+01 0.00000E+00
 -1      1846 5.89500E+01 4.48040E+01 0.00000E+00
 -1      1847 6.27750E+01 4.61030E+01 0.00000E+00
 -1      1848 6.43500E+01 4.61030E+01 0.00000E+00
 -1      1849 6.20250E+01 4.48040E+01 0.00000E+00
 -1      1850 6.58500E+01 4.61030E+01 0.00000E+00
 -1      1851 6.73500E+01 4.61030E+01 0.00000E+00
 -1      1852 6.51000E+01 4.48040E+01 0.00000E+00
 -1      1853 6.88500E+01 4.61030E+01 0.00000E+00
 -1      1854 7.03500E+01 4.61030E+01 0.00000E+00
 -1      1855 6.81000E+01 4.48040E+01 0.00000E+00
 -1      1856 7.18500E+01 4.61030E+01 0.00000E+00
 -1      1857 7.33500E+01 4.61030E+01 0.00000E+00
 -1      1858 7.11000E+01 4.48040E+01 0.00000E+00
 -1      1859 7.48500E+01 4.61030E+01 0.00000E+00
 -1      1860 7.63500E+01 4.61030E+01 0.00000E+00
 -1      1861 7.41000E+01 4.48040E+01 0.00000E+00
 -1      1862 7.78500E+01 4.61030E+01 0.00000E+00
 -1      1863 7.93500E+01 4.61030E+01 0.00000E+00
 -1      1864 7.71000E+01 4.48040E+01 0.00000E+00
 -1      1865 8.07750E+01 4.61030E+01 0.00000E+00
 -1      1866 8.22000E+01 4.61030E+01 0.00000E+00
 -1      1867 8.00250E+01 4.48040E+01 0.00000E+00
 -1      1868 8.37000E+01 4.61030E+01 0.00000E+00
 -1      1869 8.52000E+01 4.61030E+01 0.00000E+00
 -1      1870 8.29500E+01 4.48040E+01 0.00000E+00
 -1      1871 8.92875E+01 4.62931E+01 0.00000E+00
 -1      1872 9.05625E+01 4.62931E+01 0.00000E+00
 -1      1873 9.49500E+01 4.62931E+01 0.00000E+00
 -1      1874 9.64500E+01 4.62931E+01 0.00000E+00
 -1      1875 9.79500E+01 4.62931E+01 0.00000E+00
 -1      1876 9.94500E+01 4.62931E+01 0.00000E+00
 -1      1877 9.72000E+01 4.51842E+01 0.00000E+00
 -1      1878 1.00950E+02 4.62931E+01 0.00000E+00
 -1      1879 1.02450E+02 4.62931E+01 0.00000E+00
 -1      1880 1.00200E+02 4.51842E+01 0.00000E+00
 -1      1881 1.04025E+02 4.62931E+01 0.00000E+00
 -1      1882 1.05600E+02 4.62931E+01 0.00000E+00
 -1      1883 1.03275E+02 4.51842E+01 0.00000E+00
 -1      1884 1.07100E+02 4.62931E+01 0.00000E+00
 -1      1885 1.08600E+02 4.62931E+01 0.00000E+00
 -1      1886 1.06350E+02 4.51842E+01 0.00000E+00
 -1      1887 1.10100E+02 4.62931E+01 0.00000E+00
 -1      1888 1.11600E+02 4.62931E+01 0.00000E+00
 -1      1889 1.09350E+02 4.51842E+01 0.00000E+00
 -1      1890 1.13100E+02 4.62931E+01 0.00000E+00
 -1      1891 1.14600E+02 4.62931E+01 0.00000E+00
 -1      1892 1.12350E+02 4.51842E+01 0.00000E+00
 -1      1893 1.16100E+02 4.62931E+01 0.00000E+00
 -1      1894 1.17600E+02 4.62931E+01 0.00000E+00
 -1      1895 1.15350E+02 4.51842E+01 0.00000E+00
 -1      1896 1.19100E+02 4.62931E+01 0.00000E+00
 -1      1897 1.20600E+02 4.62931E+01 0.00000E+00
 -1      1898 1.18350E+02 4.51842E+01 0.00000E+00
 -1      1899 1.22100E+02 4.62931E+01 0.00000E+00
 -1      1900 1.23600E+02 4.62931E+01 0.00000E+00
 -1      1901 1.21350E+02 4.51842E+01 0.00000E+00
 -1      1902 1.25175E+02 4.62931E+01 0.00000E+00
 -1      1903 1.26750E+02 4.62931E+01 0.00000E+00
 -1      1904 1.24425E+02 4.51842E+01 0.00000E+00
 -1      1905 1.28250E+02 4.62931E+01 0.00000E+00
 -1      1906 1.29750E+02 4.62931E+01 0.00000E+00
 -1      1907 1.27500E+02 4.51842E+01 0.00000E+00
 -1      1908 1.31250E+02 4.62931E+01 0.00000E+00
 -1      1909 1.32750E+02 4.62931E+01 0.00000E+00
 -1      1910 1.30500E+02 4.51842E+01 0.00000E+00
 -1      1911 1.34250E+02 4.62931E+01 0.00000E+00
 -1      1912 1.35750E+02 4.62931E+01 0.00000E+00
 -1      1913 1.33500E+02 4.51842E+01 0.00000E+00
 -1      1914 1.37250E+02 4.62931E+01 0.00000E+00
 -1      1915 1.38750E+02 4.62931E+01 0.00000E+00
 -1      1916 1.36500E+02 4.51842E+01 0.00000E+00
 -1      1917 1.40250E+02 4.62931E+01 0.00000E+00
 -1      1918 1.41750E+02 4.62931E+01 0.00000E+00
 -1      1919 1.39500E+02 4.51842E+01 0.00000E+00
 -1      1920 1.43250E+02 4.62931E+01 0.00000E+00
 -1      1921 1.44750E+02 4.62931E+01 0.00000E+00
 -1      1922 1.42500E+02 4.51842E+01 0.00000E+00
 -1      1923 1.46538E+02 4.61825E+01 0.00000E+00
 -1      1924 1.41240E+01 3.48650E+00 0.00000E+00
 -1      1925 1.26240E+01 3.48650E+00 0.00000E+00
 -1      1926 1.71240E+01 3.48650E+00 0.00000E+00
 -1      1927 1.56240E+01 3.48650E+00 0.00000E+00
 -1      1928 1.48740E+01 4.78550E+00 0.00000E+00
 -1      1929 2.01240E+01 3.48650E+00 0.00000E+00
 -1      1930 1.86240E+01 3.48650E+00 0.00000E+00
 -1      1931 1.78740E+01 4.78550E+00 0.00000E+00
 -1      1932 2.31240E+01 3.48650E+00 0.00000E+00
 -1      1933 2.16240E+01 3.48650E+00 0.00000E+00
 -1      1934 2.08740E+01 4.78550E+00 0.00000E+00
 -1      1935 2.61240E+01 3.48650E+00 0.00000E+00
 -1      1936 2.46240E+01 3.48650E+00 0.00000E+00
 -1      1937 2.38740E+01 4.78550E+00 0.00000E+00
 -1      1938 2.91240E+01 3.48650E+00 0.00000E+00
 -1      1939 2.76240E+01 3.48650E+00 0.00000E+00
 -1      1940 2.68740E+01 4.78550E+00 0.00000E+00
 -1      1941 3.21240E+01 3.48650E+00 0.00000E+00
 -1      1942 3.06240E+01 3.48650E+00 0.00000E+00
 -1      1943 2.98740E+01 4.78550E+00 0.00000E+00
 -1      1944 3.51240E+01 3.48650E+00 0.00000E+00
 -1      1945 3.36240E+01 3.48650E+00 0.00000E+00
 -1      1946 3.28740E+01 4.78550E+00 0.00000E+00
 -1      1947 3.81240E+01 3.48650E+00 0.00000E+00
 -1      1948 3.66240E+01 3.48650E+00 0.00000E+00
 -1      1949 3.58740E+01 4.78550E+00 0.00000E+00
 -1      1950 4.11240E+01 3.48650E+00 0.00000E+00
 -1      1951 3.96240E+01 3.48650E+00 0.00000E+00
 -1      1952 3.88740E+01 4.78550E+00 0.00000E+00
 -1      1953 4.41240E+01 3.48650E+00 0.00000E+00
 -1      1954 4.26240E+01 3.48650E+00 0.00000E+00
 -1      1955 4.18740E+01 4.78550E+00 0.00000E+00
 -1      1956 4.71240E+01 3.48650E+00 0.00000E+00
 -1      1957 4.56240E+01 3.48650E+00 0.00000E+00
 -1      1958 4.48740E+01 4.78550E+00 0.00000E+00
 -1      1959 5.01240E+01 3.48650E+00 0.00000E+00
 -1      1960 4.86240E+01 3.48650E+00 0.00000E+00
 -1      1961 4.78740E+01 4.78550E+00 0.00000E+00
 -1      1962 5.31240E+01 3.48650E+00 0.00000E+00
 -1      1963 5.16240E+01 3.48650E+00 0.00000E+00
 -1      1964 5.08740E+01 4.78550E+00 0.00000E+00
 -1      1965 5.61240E+01 3.48650E+00 0.00000E+00
 -1      1966 5.46240E+01 3.48650E+00 0.00000E+00
 -1      1967 5.38740E+01 4.78550E+00 0.00000E+00
 -1      1968 5.91240E+01 3.48650E+00 0.00000E+00
 -1      1969 5.76240E+01 3.48650E+00 0.00000E+00
 -1      1970 5.68740E+01 4.78550E+00 0.00000E+00
 -1      1971 6.21240E+01 3.48650E+00 0.00000E+00
 -1      1972 6.06240E+01 3.48650E+00 0.00000E+00
 -1      1973 5.98740E+01 4.78550E+00 0.00000E+00
 -1      1974 6.51240E+01 3.48650E+00 0.00000E+00
 -1      1975 6.36240E+01 3.48650E+00 0.00000E+00
 -1      1976 6.28740E+01 4.78550E+00 0.00000E+00
 -1      1977 6.81240E+01 3.48650E+00 0.00000E+00
 -1      1978 6.66240E+01 3.48650E+00 0.00000E+00
 -1      1979 6.58740E+01 4.78550E+00 0.00000E+00
 -1      1980 7.11240E+01 3.48650E+00 0.00000E+00
 -1      1981 6.96240E+01 3.48650E+00 0.00000E+00
 -1      1982 6.88740E+01 4.78550E+00 0.00000E+00
 -1      1983 7.41240E+01 3.48650E+00 0.00000E+00
 -1      1984 7.26240E+01 3.48650E+00 0.00000E+00
 -1      1985 7.18740E+01 4.78550E+00 0.00000E+00
 -1      1986 7.71240E+01 3.48650E+00 0.00000E+00
 -1      1987 7.56240E+01 3.48650E+00 0.00000E+00
 -1      1988 7.48740E+01 4.78550E+00 0.00000E+00
 -1      1989 8.01240E+01 3.48650E+00 0.00000E+00
 -1      1990 7.86240E+01 3.48650E+00 0.00000E+00
 -1      1991 7.78740E+01 4.78550E+00 0.00000E+00
 -1      1992 8.31240E+01 3.48650E+00 0.00000E+00
 -1      1993 8.16240E+01 3.48650E+00 0.00000E+00
 -1      1994 8.08740E+01 4.78550E+00 0.00000E+00
 -1      1995 8.61240E+01 3.48650E+00 0.00000E+00
 -1      1996 8.46240E+01 3.48650E+00 0.00000E+00
 -1      1997 8.38740E+01 4.78550E+00 0.00000E+00
 -1      1998 8.91240E+01 3.48650E+00 0.00000E+00
 -1      1999 8.76240E+01 3.48650E+00 0.00000E+00
 -1      2000 8.68740E+01 4.78550E+00 0.00000E+00
 -1      2001 9.21240E+01 3.48650E+00 0.00000E+00
 -1      2002 9.06240E+01 3.48650E+00 0.00000E+00
 -1      2003 8.98740E+01 4.78550E+00 0.00000E+00
 -1      2004 9.51240E+01 3.48650E+00 0.00000E+00
 -1      2005 9.36240E+01 3.48650E+00 0.00000E+00
 -1      2006 9.28740E+01 4.78550E+00 0.00000E+00
 -1      2007 9.81240E+01 3.48650E+00 0.00000E+00
 -1      2008 9.66240E+01 3.48650E+00 0.00000E+00
 -1      2009 9.58740E+01 4.78550E+00 0.00000E+00
 -1      2010 1.01124E+02 3.48650E+00 0.00000E+00
 -1      2011 9.96240E+01 3.48650E+00 0.00000E+00
 -1      2012 9.88740E+01 4.78550E+00 0.00000E+00
 -1      2013 1.04124E+02 3.48650E+00 0.00000E+00
 -1      2014 1.02624E+02 3.48650E+00 0.00000E+00
 -1      2015 1.01874E+02 4.78550E+00 0.00000E+00
 -1      2016 1.07124E+02 3.48650E+00 0.00000E+00
 -1      2017 1.05624E+02 3.48650E+00 0.00000E+00
 -1      2018 1.04874E+02 4.78550E+00 0.00000E+00
 -1      2019 1.10124E+02 3.48650E+00 0.00000E+00
 -1      2020 1.08624E+02 3.48650E+00 0.00000E+00
 -1      2021 1.07874E+02 4.78550E+00 0.00000E+00
 -1      2022 1.13124E+02 3.48650E+00 0.00000E+00
 -1      2023 1.11624E+02 3.48650E+00 0.00000E+00
 -1      2024 1.10874E+02 4.78550E+00 0.00000E+00
 -1      2025 1.16124E+02 3.48650E+00 0.00000E+00
 -1      2026 1.14624E+02 3.48650E+00 0.00000E+00
 -1      2027 1.13874E+02 4.78550E+00 0.00000E+00
 -1      2028 1.19124E+02 3.48650E+00 0.00000E+00
 -1      2029 1.17624E+02 3.48650E+00 0.00000E+00
 -1      2030 1.16874E+02 4.78550E+00 0.00000E+00
 -1      2031 1.22124E+02 3.48650E+00 0.00000E+00
 -1      2032 1.20624E+02 3.48650E+00 0.00000E+00
 -1      2033 1.19874E+02 4.78550E+00 0.00000E+00
 -1      2034 1.25124E+02 3.48650E+00 0.00000E+00
 -1      2035 1.23624E+02 3.48650E+00 0.00000E+00
 -1      2036 1.22874E+02 4.78550E+00 0.00000E+00
 -1      2037 1.28124E+02 3.48650E+00 0.00000E+00
 -1      2038 1.26624E+02 3.48650E+00 0.00000E+00
 -1      2039 1.25874E+02 4.78550E+00 0.00000E+00
 -1      2040 1.31124E+02 3.48650E+00 0.00000E+00
 -1      2041 1.29624E+02 3.48650E+00 0.00000E+00
 -1      2042 1.28874E+02 4.78550E+00 0.00000E+00
 -1      2043 1.34124E+02 3.48650E+00 0.00000E+00
 -1      2044 1.32624E+02 3.48650E+00 0.00000E+00
 -1      2045 1.31874E+02 4.78550E+00 0.00000E+00
 -1      2046 1.37124E+02 3.48650E+00 0.00000E+00
 -1      2047 1.35624E+02 3.48650E+00 0.00000E+00
 -1      2048 1.34874E+02 4.78550E+00 0.00000E+00
 -1      2049 1.40124E+02 3.48650E+00 0.00000E+00
 -1      2050 1.38624E+02 3.48650E+00 0.00000E+00
 -1      2051 1.37874E+02 4.78550E+00 0.00000E+00
 -1      2052 1.43124E+02 3.48650E+00 0.00000E+00
 -1      2053 1.41624E+02 3.48650E+00 0.00000E+00
 -1      2054 1.40874E+02 4.78550E+00 0.00000E+00
 -1      2055 1.45881E+02 3.39637E+00 0.00000E+00
 -1      2056 1.44381E+02 3.39637E+00 0.00000E+00
 -1      2057 1.43631E+02 4.69537E+00 0.00000E+00
 -1      2058 1.46145E+02 4.51512E+00 0.00000E+00
 -1      2059 1.46103E+02 1.25375E+01 0.00000E+00
 -1      2060 1.46103E+02 1.10625E+01 0.00000E+00
 -1      2061 1.46103E+02 9.58750E+00 0.00000E+00
 -1      2062 1.46103E+02 8.11250E+00 0.00000E+00
 -1      2063 1.44804E+02 1.03250E+01 0.00000E+00
 -1      2064 1.46145E+02 5.99013E+00 0.00000E+00
 -1      2065 1.46103E+02 1.54375E+01 0.00000E+00
 -1      2066 1.46103E+02 1.39875E+01 0.00000E+00
 -1      2067 1.44804E+02 1.32500E+01 0.00000E+00
 -1      2068 1.46103E+02 1.83875E+01 0.00000E+00
 -1      2069 1.46103E+02 1.69125E+01 0.00000E+00
 -1      2070 1.44804E+02 1.61750E+01 0.00000E+00
 -1      2071 1.46103E+02 2.13375E+01 0.00000E+00
 -1      2072 1.46103E+02 1.98625E+01 0.00000E+00
 -1      2073 1.44804E+02 1.91250E+01 0.00000E+00
 -1      2074 1.46103E+02 2.42875E+01 0.00000E+00
 -1      2075 1.46103E+02 2.28125E+01 0.00000E+00
 -1      2076 1.44804E+02 2.20750E+01 0.00000E+00
 -1      2077 1.46103E+02 2.72375E+01 0.00000E+00
 -1      2078 1.46103E+02 2.57625E+01 0.00000E+00
 -1      2079 1.44804E+02 2.50250E+01 0.00000E+00
 -1      2080 1.46103E+02 3.01875E+01 0.00000E+00
 -1      2081 1.46103E+02 2.87125E+01 0.00000E+00
 -1      2082 1.44804E+02 2.79750E+01 0.00000E+00
 -1      2083 1.46103E+02 3.30875E+01 0.00000E+00
 -1      2084 1.46103E+02 3.16375E+01 0.00000E+00
 -1      2085 1.44804E+02 3.09000E+01 0.00000E+00
 -1      2086 1.46103E+02 3.60375E+01 0.00000E+00
 -1      2087 1.46103E+02 3.45625E+01 0.00000E+00
 -1      2088 1.44804E+02 3.38250E+01 0.00000E+00
 -1      2089 1.46103E+02 3.89875E+01 0.00000E+00
 -1      2090 1.46103E+02 3.75125E+01 0.00000E+00
 -1      2091 1.44804E+02 3.67750E+01 0.00000E+00
 -1      2092 1.46103E+02 4.19375E+01 0.00000E+00
 -1      2093 1.46103E+02 4.04625E+01 0.00000E+00
 -1      2094 1.44804E+02 3.97250E+01 0.00000E+00
 -1      2095 1.14143E+01 3.29169E+00 0.00000E+00
 -1      2096 9.91425E+00 3.29169E+00 0.00000E+00
 -1      2097 9.74475E+00 4.20106E+00 0.00000E+00
 -1      2098 1.21643E+01 4.59069E+00 0.00000E+00
 -1      2099 9.73599E+01 3.04717E+01 0.00000E+00
 -1      2100 9.78097E+01 3.12543E+01 0.00000E+00
 -1      2101 9.49577E+01 2.75685E+01 0.00000E+00
 -1      2102 9.56474E+01 2.81550E+01 0.00000E+00
 -1      2103 9.82722E+01 3.42140E+01 0.00000E+00
 -1      2104 9.83490E+01 3.51134E+01 0.00000E+00
 -1      2105 9.63867E+01 2.90434E+01 0.00000E+00
 -1      2106 9.68733E+01 2.97575E+01 0.00000E+00
 -1      2107 9.77690E+01 2.97632E+01 0.00000E+00
 -1      2108 3.89700E+00 3.74688E+01 0.00000E+00
 -1      2109 3.89700E+00 3.89437E+01 0.00000E+00
 -1      2110 5.19600E+00 3.96813E+01 0.00000E+00
 -1      2111 5.19600E+00 3.67438E+01 0.00000E+00
 -1      2112 9.32317E+01 2.66104E+01 0.00000E+00
 -1      2113 9.40356E+01 2.70411E+01 0.00000E+00
 -1      2114 9.14247E+01 2.59448E+01 0.00000E+00
 -1      2115 9.22744E+01 2.61802E+01 0.00000E+00
 -1      2116 8.95263E+01 2.57263E+01 0.00000E+00
 -1      2117 9.04062E+01 2.57766E+01 0.00000E+00
 -1      2118 8.75977E+01 2.57366E+01 0.00000E+00
 -1      2119 8.84963E+01 2.56322E+01 0.00000E+00
 -1      2120 8.57348E+01 2.65612E+01 0.00000E+00
 -1      2121 8.65554E+01 2.61943E+01 0.00000E+00
 -1      2122 8.40796E+01 2.74929E+01 0.00000E+00
 -1      2123 8.47730E+01 2.69776E+01 0.00000E+00
 -1      2124 8.27185E+01 2.86759E+01 0.00000E+00
 -1      2125 8.33990E+01 2.80844E+01 0.00000E+00
 -1      2126 8.32592E+01 2.71721E+01 0.00000E+00
 -1      2127 8.16047E+01 3.04742E+01 0.00000E+00
 -1      2128 8.20029E+01 2.96676E+01 0.00000E+00
 -1      2129 8.08708E+01 3.21184E+01 0.00000E+00
 -1      2130 8.12378E+01 3.12963E+01 0.00000E+00
 -1      2131 8.07806E+01 3.05690E+01 0.00000E+00
 -1      2132 8.04624E+01 3.41527E+01 0.00000E+00
 -1      2133 8.05248E+01 3.32460E+01 0.00000E+00
 -1      2134 8.07096E+01 3.60263E+01 0.00000E+00
 -1      2135 8.05837E+01 3.51828E+01 0.00000E+00
 -1      2136 8.11414E+01 3.77999E+01 0.00000E+00
 -1      2137 8.09071E+01 3.69534E+01 0.00000E+00
 -1      2138 8.20970E+01 3.95093E+01 0.00000E+00
 -1      2139 8.16177E+01 3.87625E+01 0.00000E+00
 -1      2140 8.32729E+01 4.09176E+01 0.00000E+00
 -1      2141 8.26939E+01 4.02863E+01 0.00000E+00
 -1      2142 8.47525E+01 4.20913E+01 0.00000E+00
 -1      2143 8.40284E+01 4.15802E+01 0.00000E+00
 -1      2144 8.63627E+01 4.31504E+01 0.00000E+00
 -1      2145 8.55399E+01 4.27184E+01 0.00000E+00
 -1      2146 8.84270E+01 4.35676E+01 0.00000E+00
 -1      2147 8.75213E+01 4.34908E+01 0.00000E+00
 -1      2148 9.02922E+01 4.34635E+01 0.00000E+00
 -1      2149 8.94155E+01 4.35040E+01 0.00000E+00
 -1      2150 9.21667E+01 4.31214E+01 0.00000E+00
 -1      2151 9.13133E+01 4.33481E+01 0.00000E+00
 -1      2152 9.39347E+01 4.24327E+01 0.00000E+00
 -1      2153 9.31636E+01 4.28285E+01 0.00000E+00
 -1      2154 9.54839E+01 4.13403E+01 0.00000E+00
 -1      2155 9.47364E+01 4.18548E+01 0.00000E+00
 -1      2156 9.69089E+01 3.97836E+01 0.00000E+00
 -1      2157 9.64126E+01 4.05568E+01 0.00000E+00
 -1      2158 9.75826E+01 3.80214E+01 0.00000E+00
 -1      2159 9.72085E+01 3.88141E+01 0.00000E+00
 -1      2160 9.83385E+01 3.62884E+01 0.00000E+00
 -1      2161 9.80594E+01 3.71536E+01 0.00000E+00
 -1      2162 9.81876E+01 3.23820E+01 0.00000E+00
 -1      2163 9.82997E+01 3.32761E+01 0.00000E+00
 -1      2164 9.09872E+01 4.53112E+01 0.00000E+00
 -1      2165 9.16247E+01 4.64201E+01 0.00000E+00
 -1      2166 9.31247E+01 4.64201E+01 0.00000E+00
 -1      2167 9.38747E+01 4.53112E+01 0.00000E+00
 -1      2168 6.42300E+00 4.57510E+01 0.00000E+00
 -1      2169 9.48816E+01 2.67449E+01 0.00000E+00
 -1      2170 7.17300E+00 4.44520E+01 0.00000E+00
 -1      2171 8.82616E+01 4.64410E+01 0.00000E+00
 -1      2172 8.88991E+01 4.53321E+01 0.00000E+00
 -1      2173 8.69116E+01 4.64410E+01 0.00000E+00
 -1      2174 1.45788E+02 4.50736E+01 0.00000E+00
 -1      2175 1.44846E+02 6.72762E+00 0.00000E+00
 -1      2176 9.89839E+01 3.36707E+01 0.00000E+00
 -1      2177 1.45989E+02 4.40775E+01 0.00000E+00
 -1      2178 1.45902E+02 4.29335E+01 0.00000E+00
 -1      2179 1.44603E+02 4.21960E+01 0.00000E+00
 -1      2180 1.44201E+02 4.41881E+01 0.00000E+00
 -1      2181 9.86335E+01 3.16051E+01 0.00000E+00
 -1      2182 9.65431E+01 2.81607E+01 0.00000E+00
 -1      2183 9.89458E+01 3.57836E+01 0.00000E+00
 -1      2184 9.84585E+01 3.78265E+01 0.00000E+00
 -1      2185 9.76820E+01 3.96639E+01 0.00000E+00
 -1      2186 9.64537E+01 4.14169E+01 0.00000E+00
 -1      2187 9.47234E+01 4.27783E+01 0.00000E+00
 -1      2188 9.29248E+01 4.36492E+01 0.00000E+00
 -1      2189 9.09068E+01 4.40576E+01 0.00000E+00
 -1      2190 8.88972E+01 4.42366E+01 0.00000E+00
 -1      2191 8.67501E+01 4.39599E+01 0.00000E+00
 -1      2192 8.48042E+01 4.29924E+01 0.00000E+00
 -1      2193 8.32613E+01 4.17026E+01 0.00000E+00
 -1      2194 8.19088E+01 4.02630E+01 0.00000E+00
 -1      2195 8.08356E+01 3.85233E+01 0.00000E+00
 -1      2196 8.01617E+01 3.66336E+01 0.00000E+00
 -1      2197 8.00677E+01 3.25187E+01 0.00000E+00
 -1      2198 8.18631E+01 2.87552E+01 0.00000E+00
 -1      2199 8.49016E+01 2.61642E+01 0.00000E+00
 -1      2200 8.69057E+01 2.52903E+01 0.00000E+00
 -1      2201 8.89780E+01 2.49267E+01 0.00000E+00
 -1      2202 9.30022E+01 2.57874E+01 0.00000E+00
 -1      2203 9.10264E+01 2.51890E+01 0.00000E+00
 -1      2204 7.98429E+01 3.46763E+01 0.00000E+00
 -1      2205 8.61616E+01 4.51420E+01 0.00000E+00
 -1      2206 6.49500E+00 3.01125E+01 0.00000E+00
 -1      2207 6.49500E+00 3.15875E+01 0.00000E+00
 -1      2208 6.49500E+00 3.30625E+01 0.00000E+00
 -1      2209 6.49500E+00 3.45375E+01 0.00000E+00
 -1      2210 7.79400E+00 3.23250E+01 0.00000E+00
 -1      2211 6.49500E+00 2.42125E+01 0.00000E+00
 -1      2212 6.49500E+00 2.56875E+01 0.00000E+00
 -1      2213 6.49500E+00 2.12625E+01 0.00000E+00
 -1      2214 6.49500E+00 2.27375E+01 0.00000E+00
 -1      2215 7.79400E+00 2.34750E+01 0.00000E+00
 -1      2216 6.49500E+00 1.83625E+01 0.00000E+00
 -1      2217 6.49500E+00 1.98125E+01 0.00000E+00
 -1      2218 7.79400E+00 2.05500E+01 0.00000E+00
 -1      2219 6.49500E+00 1.54125E+01 0.00000E+00
 -1      2220 6.49500E+00 1.68875E+01 0.00000E+00
 -1      2221 7.79400E+00 1.76250E+01 0.00000E+00
 -1      2222 6.49500E+00 1.24625E+01 0.00000E+00
 -1      2223 6.49500E+00 1.39375E+01 0.00000E+00
 -1      2224 7.79400E+00 1.46750E+01 0.00000E+00
 -1      2225 6.49500E+00 9.51250E+00 0.00000E+00
 -1      2226 6.49500E+00 1.09875E+01 0.00000E+00
 -1      2227 7.79400E+00 1.17250E+01 0.00000E+00
 -1      2228 6.49500E+00 6.56250E+00 0.00000E+00
 -1      2229 6.49500E+00 8.03750E+00 0.00000E+00
 -1      2230 7.79400E+00 8.77500E+00 0.00000E+00
 -1      2231 6.84975E+00 4.82969E+00 0.00000E+00
 -1      2232 6.68025E+00 5.73906E+00 0.00000E+00
 -1      2233 7.97925E+00 6.47656E+00 0.00000E+00
 -1      2234 8.34975E+00 4.82969E+00 0.00000E+00
 -1      2235 8.78910E+01 4.48901E+01 0.00000E+00
 -1      2236 8.89169E+01 4.47422E+01 0.00000E+00
 -1      2237 9.64500E+01 4.41591E+01 0.00000E+00
 -1      2238 9.79500E+01 4.41591E+01 0.00000E+00
 -1      2239 9.90000E+00 4.35050E+01 0.00000E+00
 -1      2240 1.14000E+01 4.35050E+01 0.00000E+00
 -1      2241 9.48047E+01 2.58096E+01 0.00000E+00
 -1      2242 9.57269E+01 2.63369E+01 0.00000E+00
 -1      2243 9.92577E+01 3.07688E+01 0.00000E+00
 -1      2244 9.96356E+01 3.18965E+01 0.00000E+00
 -1      2245 1.29000E+01 4.35050E+01 0.00000E+00
 -1      2246 1.44000E+01 4.35050E+01 0.00000E+00
 -1      2247 1.21500E+01 4.22060E+01 0.00000E+00
 -1      2248 1.59000E+01 4.35050E+01 0.00000E+00
 -1      2249 1.74000E+01 4.35050E+01 0.00000E+00
 -1      2250 1.51500E+01 4.22060E+01 0.00000E+00
 -1      2251 1.89750E+01 4.35050E+01 0.00000E+00
 -1      2252 2.05500E+01 4.35050E+01 0.00000E+00
 -1      2253 1.82250E+01 4.22060E+01 0.00000E+00
 -1      2254 2.20500E+01 4.35050E+01 0.00000E+00
 -1      2255 2.35500E+01 4.35050E+01 0.00000E+00
 -1      2256 2.13000E+01 4.22060E+01 0.00000E+00
 -1      2257 2.50500E+01 4.35050E+01 0.00000E+00
 -1      2258 2.65500E+01 4.35050E+01 0.00000E+00
 -1      2259 2.43000E+01 4.22060E+01 0.00000E+00
 -1      2260 2.80500E+01 4.35050E+01 0.00000E+00
 -1      2261 2.95500E+01 4.35050E+01 0.00000E+00
 -1      2262 2.73000E+01 4.22060E+01 0.00000E+00
 -1      2263 3.10500E+01 4.35050E+01 0.00000E+00
 -1      2264 3.25500E+01 4.35050E+01 0.00000E+00
 -1      2265 3.03000E+01 4.22060E+01 0.00000E+00
 -1      2266 3.40500E+01 4.35050E+01 0.00000E+00
 -1      2267 3.55500E+01 4.35050E+01 0.00000E+00
 -1      2268 3.33000E+01 4.22060E+01 0.00000E+00
 -1      2269 3.70500E+01 4.35050E+01 0.00000E+00
 -1      2270 3.85500E+01 4.35050E+01 0.00000E+00
 -1      2271 3.63000E+01 4.22060E+01 0.00000E+00
 -1      2272 4.01250E+01 4.35050E+01 0.00000E+00
 -1      2273 4.17000E+01 4.35050E+01 0.00000E+00
 -1      2274 3.93750E+01 4.22060E+01 0.00000E+00
 -1      2275 4.32000E+01 4.35050E+01 0.00000E+00
 -1      2276 4.47000E+01 4.35050E+01 0.00000E+00
 -1      2277 4.24500E+01 4.22060E+01 0.00000E+00
 -1      2278 4.62000E+01 4.35050E+01 0.00000E+00
 -1      2279 4.77000E+01 4.35050E+01 0.00000E+00
 -1      2280 4.54500E+01 4.22060E+01 0.00000E+00
 -1      2281 4.92000E+01 4.35050E+01 0.00000E+00
 -1      2282 5.07000E+01 4.35050E+01 0.00000E+00
 -1      2283 4.84500E+01 4.22060E+01 0.00000E+00
 -1      2284 5.22000E+01 4.35050E+01 0.00000E+00
 -1      2285 5.37000E+01 4.35050E+01 0.00000E+00
 -1      2286 5.14500E+01 4.22060E+01 0.00000E+00
 -1      2287 5.52000E+01 4.35050E+01 0.00000E+00
 -1      2288 5.67000E+01 4.35050E+01 0.00000E+00
 -1      2289 5.44500E+01 4.22060E+01 0.00000E+00
 -1      2290 5.82000E+01 4.35050E+01 0.00000E+00
 -1      2291 5.97000E+01 4.35050E+01 0.00000E+00
 -1      2292 5.74500E+01 4.22060E+01 0.00000E+00
 -1      2293 6.12750E+01 4.35050E+01 0.00000E+00
 -1      2294 6.28500E+01 4.35050E+01 0.00000E+00
 -1      2295 6.05250E+01 4.22060E+01 0.00000E+00
 -1      2296 6.43500E+01 4.35050E+01 0.00000E+00
 -1      2297 6.58500E+01 4.35050E+01 0.00000E+00
 -1      2298 6.36000E+01 4.22060E+01 0.00000E+00
 -1      2299 6.73500E+01 4.35050E+01 0.00000E+00
 -1      2300 6.88500E+01 4.35050E+01 0.00000E+00
 -1      2301 6.66000E+01 4.22060E+01 0.00000E+00
 -1      2302 7.03500E+01 4.35050E+01 0.00000E+00
 -1      2303 7.18500E+01 4.35050E+01 0.00000E+00
 -1      2304 6.96000E+01 4.22060E+01 0.00000E+00
 -1      2305 7.33500E+01 4.35050E+01 0.00000E+00
 -1      2306 7.48500E+01 4.35050E+01 0.00000E+00
 -1      2307 7.26000E+01 4.22060E+01 0.00000E+00
 -1      2308 7.63500E+01 4.35050E+01 0.00000E+00
 -1      2309 7.78500E+01 4.35050E+01 0.00000E+00
 -1      2310 7.56000E+01 4.22060E+01 0.00000E+00
 -1      2311 7.92750E+01 4.35050E+01 0.00000E+00
 -1      2312 8.07000E+01 4.35050E+01 0.00000E+00
 -1      2313 7.85250E+01 4.22060E+01 0.00000E+00
 -1      2314 9.94500E+01 4.38852E+01 0.00000E+00
 -1      2315 1.00950E+02 4.38852E+01 0.00000E+00
 -1      2316 1.02525E+02 4.38852E+01 0.00000E+00
 -1      2317 1.04100E+02 4.38852E+01 0.00000E+00
 -1      2318 1.01775E+02 4.25862E+01 0.00000E+00
 -1      2319 1.05600E+02 4.38852E+01 0.00000E+00
 -1      2320 1.07100E+02 4.38852E+01 0.00000E+00
 -1      2321 1.04850E+02 4.25862E+01 0.00000E+00
 -1      2322 1.08600E+02 4.38852E+01 0.00000E+00
 -1      2323 1.10100E+02 4.38852E+01 0.00000E+00
 -1      2324 1.07850E+02 4.25862E+01 0.00000E+00
 -1      2325 1.11600E+02 4.38852E+01 0.00000E+00
 -1      2326 1.13100E+02 4.38852E+01 0.00000E+00
 -1      2327 1.10850E+02 4.25862E+01 0.00000E+00
 -1      2328 1.14600E+02 4.38852E+01 0.00000E+00
 -1      2329 1.16100E+02 4.38852E+01 0.00000E+00
 -1      2330 1.13850E+02 4.25862E+01 0.00000E+00
 -1      2331 1.17600E+02 4.38852E+01 0.00000E+00
 -1      2332 1.19100E+02 4.38852E+01 0.00000E+00
 -1      2333 1.16850E+02 4.25862E+01 0.00000E+00
 -1      2334 1.20600E+02 4.38852E+01 0.00000E+00
 -1      2335 1.22100E+02 4.38852E+01 0.00000E+00
 -1      2336 1.19850E+02 4.25862E+01 0.00000E+00
 -1      2337 1.23675E+02 4.38852E+01 0.00000E+00
 -1      2338 1.25250E+02 4.38852E+01 0.00000E+00
 -1      2339 1.22925E+02 4.25862E+01 0.00000E+00
 -1      2340 1.26750E+02 4.38852E+01 0.00000E+00
 -1      2341 1.28250E+02 4.38852E+01 0.00000E+00
 -1      2342 1.26000E+02 4.25862E+01 0.00000E+00
 -1      2343 1.29750E+02 4.38852E+01 0.00000E+00
 -1      2344 1.31250E+02 4.38852E+01 0.00000E+00
 -1      2345 1.29000E+02 4.25862E+01 0.00000E+00
 -1      2346 1.32750E+02 4.38852E+01 0.00000E+00
 -1      2347 1.34250E+02 4.38852E+01 0.00000E+00
 -1      2348 1.32000E+02 4.25862E+01 0.00000E+00
 -1      2349 1.35750E+02 4.38852E+01 0.00000E+00
 -1      2350 1.37250E+02 4.38852E+01 0.00000E+00
 -1      2351 1.35000E+02 4.25862E+01 0.00000E+00
 -1      2352 1.38750E+02 4.38852E+01 0.00000E+00
 -1      2353 1.40250E+02 4.38852E+01 0.00000E+00
 -1      2354 1.38000E+02 4.25862E+01 0.00000E+00
 -1      2355 1.41475E+02 4.40367E+01 0.00000E+00
 -1      2356 1.42975E+02 4.40367E+01 0.00000E+00
 -1      2357 1.43176E+02 4.30406E+01 0.00000E+00
 -1      2358 1.40725E+02 4.27377E+01 0.00000E+00
 -1      2359 2.16240E+01 6.08450E+00 0.00000E+00
 -1      2360 2.01240E+01 6.08450E+00 0.00000E+00
 -1      2361 1.86240E+01 6.08450E+00 0.00000E+00
 -1      2362 1.71240E+01 6.08450E+00 0.00000E+00
 -1      2363 1.93740E+01 7.38350E+00 0.00000E+00
 -1      2364 1.56240E+01 6.08450E+00 0.00000E+00
 -1      2365 1.41240E+01 6.08450E+00 0.00000E+00
 -1      2366 1.63740E+01 7.38350E+00 0.00000E+00
 -1      2367 2.46240E+01 6.08450E+00 0.00000E+00
 -1      2368 2.31240E+01 6.08450E+00 0.00000E+00
 -1      2369 2.23740E+01 7.38350E+00 0.00000E+00
 -1      2370 2.76240E+01 6.08450E+00 0.00000E+00
 -1      2371 2.61240E+01 6.08450E+00 0.00000E+00
 -1      2372 2.53740E+01 7.38350E+00 0.00000E+00
 -1      2373 3.06240E+01 6.08450E+00 0.00000E+00
 -1      2374 2.91240E+01 6.08450E+00 0.00000E+00
 -1      2375 2.83740E+01 7.38350E+00 0.00000E+00
 -1      2376 3.36240E+01 6.08450E+00 0.00000E+00
 -1      2377 3.21240E+01 6.08450E+00 0.00000E+00
 -1      2378 3.13740E+01 7.38350E+00 0.00000E+00
 -1      2379 3.66240E+01 6.08450E+00 0.00000E+00
 -1      2380 3.51240E+01 6.08450E+00 0.00000E+00
 -1      2381 3.43740E+01 7.38350E+00 0.00000E+00
 -1      2382 3.96240E+01 6.08450E+00 0.00000E+00
 -1      2383 3.81240E+01 6.08450E+00 0.00000E+00
 -1      2384 3.73740E+01 7.38350E+00 0.00000E+00
 -1      2385 4.26240E+01 6.08450E+00 0.00000E+00
 -1      2386 4.11240E+01 6.08450E+00 0.00000E+00
 -1      2387 4.03740E+01 7.38350E+00 0.00000E+00
 -1      2388 4.56240E+01 6.08450E+00 0.00000E+00
 -1      2389 4.41240E+01 6.08450E+00 0.00000E+00
 -1      2390 4.33740E+01 7.38350E+00 0.00000E+00
 -1      2391 4.86240E+01 6.08450E+00 0.00000E+00
 -1      2392 4.71240E+01 6.08450E+00 0.00000E+00
 -1      2393 4.63740E+01 7.38350E+00 0.00000E+00
 -1      2394 5.16240E+01 6.08450E+00 0.00000E+00
 -1      2395 5.01240E+01 6.08450E+00 0.00000E+00
 -1      2396 4.93740E+01 7.38350E+00 0.00000E+00
 -1      2397 5.46240E+01 6.08450E+00 0.00000E+00
 -1      2398 5.31240E+01 6.08450E+00 0.00000E+00
 -1      2399 5.23740E+01 7.38350E+00 0.00000E+00
 -1      2400 5.76240E+01 6.08450E+00 0.00000E+00
 -1      2401 5.61240E+01 6.08450E+00 0.00000E+00
 -1      2402 5.53740E+01 7.38350E+00 0.00000E+00
 -1      2403 6.06240E+01 6.08450E+00 0.00000E+00
 -1      2404 5.91240E+01 6.08450E+00 0.00000E+00
 -1      2405 5.83740E+01 7.38350E+00 0.00000E+00
 -1      2406 6.36240E+01 6.08450E+00 0.00000E+00
 -1      2407 6.21240E+01 6.08450E+00 0.00000E+00
 -1      2408 6.13740E+01 7.38350E+00 0.00000E+00
 -1      2409 6.66240E+01 6.08450E+00 0.00000E+00
 -1      2410 6.51240E+01 6.08450E+00 0.00000E+00
 -1      2411 6.43740E+01 7.38350E+00 0.00000E+00
 -1      2412 6.96240E+01 6.08450E+00 0.00000E+00
 -1      2413 6.81240E+01 6.08450E+00 0.00000E+00
 -1      2414 6.73740E+01 7.38350E+00 0.00000E+00
 -1      2415 7.26240E+01 6.08450E+00 0.00000E+00
 -1      2416 7.11240E+01 6.08450E+00 0.00000E+00
 -1      2417 7.03740E+01 7.38350E+00 0.00000E+00
 -1      2418 7.56240E+01 6.08450E+00 0.00000E+00
 -1      2419 7.41240E+01 6.08450E+00 0.00000E+00
 -1      2420 7.33740E+01 7.38350E+00 0.00000E+00
 -1      2421 7.86240E+01 6.08450E+00 0.00000E+00
 -1      2422 7.71240E+01 6.08450E+00 0.00000E+00
 -1      2423 7.63740E+01 7.38350E+00 0.00000E+00
 -1      2424 8.16240E+01 6.08450E+00 0.00000E+00
 -1      2425 8.01240E+01 6.08450E+00 0.00000E+00
 -1      2426 7.93740E+01 7.38350E+00 0.00000E+00
 -1      2427 8.46240E+01 6.08450E+00 0.00000E+00
 -1      2428 8.31240E+01 6.08450E+00 0.00000E+00
 -1      2429 8.23740E+01 7.38350E+00 0.00000E+00
 -1      2430 8.76240E+01 6.08450E+00 0.00000E+00
 -1      2431 8.61240E+01 6.08450E+00 0.00000E+00
 -1      2432 8.53740E+01 7.38350E+00 0.00000E+00
 -1      2433 9.06240E+01 6.08450E+00 0.00000E+00
 -1      2434 8.91240E+01 6.08450E+00 0.00000E+00
 -1      2435 8.83740E+01 7.38350E+00 0.00000E+00
 -1      2436 9.36240E+01 6.08450E+00 0.00000E+00
 -1      2437 9.21240E+01 6.08450E+00 0.00000E+00
 -1      2438 9.13740E+01 7.38350E+00 0.00000E+00
 -1      2439 9.66240E+01 6.08450E+00 0.00000E+00
 -1      2440 9.51240E+01 6.08450E+00 0.00000E+00
 -1      2441 9.43740E+01 7.38350E+00 0.00000E+00
 -1      2442 9.96240E+01 6.08450E+00 0.00000E+00
 -1      2443 9.81240E+01 6.08450E+00 0.00000E+00
 -1      2444 9.73740E+01 7.38350E+00 0.00000E+00
 -1      2445 1.02624E+02 6.08450E+00 0.00000E+00
 -1      2446 1.01124E+02 6.08450E+00 0.00000E+00
 -1      2447 1.00374E+02 7.38350E+00 0.00000E+00
 -1      2448 1.05624E+02 6.08450E+00 0.00000E+00
 -1      2449 1.04124E+02 6.08450E+00 0.00000E+00
 -1      2450 1.03374E+02 7.38350E+00 0.00000E+00
 -1      2451 1.08624E+02 6.08450E+00 0.00000E+00
 -1      2452 1.07124E+02 6.08450E+00 0.00000E+00
 -1      2453 1.06374E+02 7.38350E+00 0.00000E+00
 -1      2454 1.11624E+02 6.08450E+00 0.00000E+00
 -1      2455 1.10124E+02 6.08450E+00 0.00000E+00
 -1      2456 1.09374E+02 7.38350E+00 0.00000E+00
 -1      2457 1.14624E+02 6.08450E+00 0.00000E+00
 -1      2458 1.13124E+02 6.08450E+00 0.00000E+00
 -1      2459 1.12374E+02 7.38350E+00 0.00000E+00
 -1      2460 1.17624E+02 6.08450E+00 0.00000E+00
 -1      2461 1.16124E+02 6.08450E+00 0.00000E+00
 -1      2462 1.15374E+02 7.38350E+00 0.00000E+00
 -1      2463 1.20624E+02 6.08450E+00 0.00000E+00
 -1      2464 1.19124E+02 6.08450E+00 0.00000E+00
 -1      2465 1.18374E+02 7.38350E+00 0.00000E+00
 -1      2466 1.23624E+02 6.08450E+00 0.00000E+00
 -1      2467 1.22124E+02 6.08450E+00 0.00000E+00
 -1      2468 1.21374E+02 7.38350E+00 0.00000E+00
 -1      2469 1.26624E+02 6.08450E+00 0.00000E+00
 -1      2470 1.25124E+02 6.08450E+00 0.00000E+00
 -1      2471 1.24374E+02 7.38350E+00 0.00000E+00
 -1      2472 1.29624E+02 6.08450E+00 0.00000E+00
 -1      2473 1.28124E+02 6.08450E+00 0.00000E+00
 -1      2474 1.27374E+02 7.38350E+00 0.00000E+00
 -1      2475 1.32624E+02 6.08450E+00 0.00000E+00
 -1      2476 1.31124E+02 6.08450E+00 0.00000E+00
 -1      2477 1.30374E+02 7.38350E+00 0.00000E+00
 -1      2478 1.35624E+02 6.08450E+00 0.00000E+00
 -1      2479 1.34124E+02 6.08450E+00 0.00000E+00
 -1      2480 1.33374E+02 7.38350E+00 0.00000E+00
 -1      2481 1.38624E+02 6.08450E+00 0.00000E+00
 -1      2482 1.37124E+02 6.08450E+00 0.00000E+00
 -1      2483 1.36374E+02 7.38350E+00 0.00000E+00
 -1      2484 1.41624E+02 6.08450E+00 0.00000E+00
 -1      2485 1.40124E+02 6.08450E+00 0.00000E+00
 -1      2486 1.39374E+02 7.38350E+00 0.00000E+00
 -1      2487 1.43589E+02 6.81775E+00 0.00000E+00
 -1      2488 1.43505E+02 1.69125E+01 0.00000E+00
 -1      2489 1.43505E+02 1.54375E+01 0.00000E+00
 -1      2490 1.43505E+02 1.39875E+01 0.00000E+00
 -1      2491 1.43505E+02 1.25375E+01 0.00000E+00
 -1      2492 1.42206E+02 1.47250E+01 0.00000E+00
 -1      2493 1.43505E+02 1.10625E+01 0.00000E+00
 -1      2494 1.43505E+02 9.58750E+00 0.00000E+00
 -1      2495 1.42206E+02 1.18000E+01 0.00000E+00
 -1      2496 9.97711E+01 3.32245E+01 0.00000E+00
 -1      2497 9.97435E+01 3.41623E+01 0.00000E+00
 -1      2498 1.43505E+02 1.98625E+01 0.00000E+00
 -1      2499 1.43505E+02 1.83875E+01 0.00000E+00
 -1      2500 1.42206E+02 1.76500E+01 0.00000E+00
 -1      2501 1.43505E+02 2.28125E+01 0.00000E+00
 -1      2502 1.43505E+02 2.13375E+01 0.00000E+00
 -1      2503 1.42206E+02 2.06000E+01 0.00000E+00
 -1      2504 1.43505E+02 2.57625E+01 0.00000E+00
 -1      2505 1.43505E+02 2.42875E+01 0.00000E+00
 -1      2506 1.42206E+02 2.35500E+01 0.00000E+00
 -1      2507 1.43505E+02 2.87125E+01 0.00000E+00
 -1      2508 1.43505E+02 2.72375E+01 0.00000E+00
 -1      2509 1.42206E+02 2.65000E+01 0.00000E+00
 -1      2510 1.43505E+02 3.16125E+01 0.00000E+00
 -1      2511 1.43505E+02 3.01625E+01 0.00000E+00
 -1      2512 1.42206E+02 2.94250E+01 0.00000E+00
 -1      2513 1.43505E+02 3.45625E+01 0.00000E+00
 -1      2514 1.43505E+02 3.30875E+01 0.00000E+00
 -1      2515 1.42206E+02 3.23500E+01 0.00000E+00
 -1      2516 1.43505E+02 3.75125E+01 0.00000E+00
 -1      2517 1.43505E+02 3.60375E+01 0.00000E+00
 -1      2518 1.42206E+02 3.53000E+01 0.00000E+00
 -1      2519 1.43505E+02 4.04625E+01 0.00000E+00
 -1      2520 1.43505E+02 3.89875E+01 0.00000E+00
 -1      2521 1.42206E+02 3.82500E+01 0.00000E+00
 -1      2522 6.55950E+00 4.28890E+01 0.00000E+00
 -1      2523 8.53650E+00 4.32410E+01 0.00000E+00
 -1      2524 9.28650E+00 4.19420E+01 0.00000E+00
 -1      2525 6.55950E+00 4.14140E+01 0.00000E+00
 -1      2526 9.82344E+01 2.89233E+01 0.00000E+00
 -1      2527 9.87210E+01 2.96375E+01 0.00000E+00
 -1      2528 9.68326E+01 2.71679E+01 0.00000E+00
 -1      2529 9.75719E+01 2.80563E+01 0.00000E+00
 -1      2530 9.93384E+01 3.77449E+01 0.00000E+00
 -1      2531 9.88615E+01 3.86128E+01 0.00000E+00
 -1      2532 8.41133E+01 2.56623E+01 0.00000E+00
 -1      2533 8.50751E+01 2.52460E+01 0.00000E+00
 -1      2534 9.97331E+01 3.53373E+01 0.00000E+00
 -1      2535 9.97226E+01 3.65124E+01 0.00000E+00
 -1      2536 1.00520E+02 3.48911E+01 0.00000E+00
 -1      2537 6.49500E+00 2.71625E+01 0.00000E+00
 -1      2538 6.49500E+00 2.86375E+01 0.00000E+00
 -1      2539 7.79400E+00 2.93750E+01 0.00000E+00
 -1      2540 7.79400E+00 2.64250E+01 0.00000E+00
 -1      2541 9.06570E+01 2.42588E+01 0.00000E+00
 -1      2542 9.16754E+01 2.44270E+01 0.00000E+00
 -1      2543 7.90519E+01 3.52916E+01 0.00000E+00
 -1      2544 7.89306E+01 3.42615E+01 0.00000E+00
 -1      2545 9.28750E+01 2.47901E+01 0.00000E+00
 -1      2546 9.38323E+01 2.52203E+01 0.00000E+00
 -1      2547 8.85970E+01 2.40706E+01 0.00000E+00
 -1      2548 8.96270E+01 2.41647E+01 0.00000E+00
 -1      2549 9.02759E+01 2.34027E+01 0.00000E+00
 -1      2550 8.61174E+01 2.47883E+01 0.00000E+00
 -1      2551 8.71597E+01 2.43307E+01 0.00000E+00
 -1      2552 8.53291E+01 2.42864E+01 0.00000E+00
 -1      2553 8.23014E+01 2.67573E+01 0.00000E+00
 -1      2554 8.29820E+01 2.61658E+01 0.00000E+00
 -1      2555 8.08439E+01 2.87738E+01 0.00000E+00
 -1      2556 8.15594E+01 2.77821E+01 0.00000E+00
 -1      2557 7.98523E+01 3.06476E+01 0.00000E+00
 -1      2558 8.02192E+01 2.98255E+01 0.00000E+00
 -1      2559 7.91549E+01 3.28554E+01 0.00000E+00
 -1      2560 7.95010E+01 3.17279E+01 0.00000E+00
 -1      2561 7.95037E+01 3.72584E+01 0.00000E+00
 -1      2562 7.93062E+01 3.63312E+01 0.00000E+00
 -1      2563 8.03052E+01 3.93850E+01 0.00000E+00
 -1      2564 7.98288E+01 3.84224E+01 0.00000E+00
 -1      2565 8.15272E+01 4.11739E+01 0.00000E+00
 -1      2566 8.09303E+01 4.03969E+01 0.00000E+00
 -1      2567 8.30736E+01 4.26787E+01 0.00000E+00
 -1      2568 8.23180E+01 4.20160E+01 0.00000E+00
 -1      2569 9.72912E+01 4.18837E+01 0.00000E+00
 -1      2570 9.63625E+01 4.26672E+01 0.00000E+00
 -1      2571 9.85619E+01 3.95824E+01 0.00000E+00
 -1      2572 9.82622E+01 4.05520E+01 0.00000E+00
 -1      2573 9.94417E+01 3.95009E+01 0.00000E+00
 -1      2574 1.42839E+02 8.11675E+00 0.00000E+00
 -1      2575 9.29855E+01 4.43973E+01 0.00000E+00
 -1      2576 9.48108E+01 4.42702E+01 0.00000E+00
 -1      2577 7.79400E+00 3.52687E+01 0.00000E+00
 -1      2578 6.49500E+00 3.60062E+01 0.00000E+00
 -1      2579 6.49500E+00 3.74750E+01 0.00000E+00
 -1      2580 9.55950E+00 5.02450E+00 0.00000E+00
 -1      2581 9.37425E+00 5.84794E+00 0.00000E+00
 -1      2582 1.07692E+01 5.21931E+00 0.00000E+00
 -1      2583 9.55608E+01 4.32451E+01 0.00000E+00
 -1      2584 9.87000E+01 4.28601E+01 0.00000E+00
 -1      2585 6.52725E+00 3.87101E+01 0.00000E+00
 -1      2586 6.52725E+00 4.01789E+01 0.00000E+00
 -1      2587 7.89075E+00 4.04429E+01 0.00000E+00
 -1      2588 7.82625E+00 3.79726E+01 0.00000E+00
 -1      2589 9.67557E+01 2.62326E+01 0.00000E+00
 -1      2590 1.00395E+02 3.23881E+01 0.00000E+00
 -1      2591 9.25056E+01 2.38599E+01 0.00000E+00
 -1      2592 8.70204E+01 2.30668E+01 0.00000E+00
 -1      2593 8.78087E+01 2.35687E+01 0.00000E+00
 -1      2594 8.84576E+01 2.28067E+01 0.00000E+00
 -1      2595 9.19886E+01 4.46902E+01 0.00000E+00
 -1      2596 1.30515E+01 5.74931E+00 0.00000E+00
 -1      2597 1.18418E+01 5.55450E+00 0.00000E+00
 -1      2598 1.16565E+01 6.37794E+00 0.00000E+00
 -1      2599 1.38015E+01 7.04831E+00 0.00000E+00
 -1      2600 1.41540E+02 8.85425E+00 0.00000E+00
 -1      2601 9.85239E+01 2.79305E+01 0.00000E+00
 -1      2602 9.09264E+01 4.45631E+01 0.00000E+00
 -1      2603 8.31555E+01 2.52476E+01 0.00000E+00
 -1      2604 9.87912E+01 4.16098E+01 0.00000E+00
 -1      2605 8.13395E+01 4.21499E+01 0.00000E+00
 -1      2606 7.99236E+01 4.02959E+01 0.00000E+00
 -1      2607 7.89733E+01 3.81200E+01 0.00000E+00
 -1      2608 7.83639E+01 3.34707E+01 0.00000E+00
 -1      2609 7.77972E+01 3.26800E+01 0.00000E+00
 -1      2610 7.75728E+01 3.40860E+01 0.00000E+00
 -1      2611 7.89396E+01 3.09844E+01 0.00000E+00
 -1      2612 7.99156E+01 2.88524E+01 0.00000E+00
 -1      2613 1.00126E+02 3.72987E+01 0.00000E+00
 -1      2614 1.00529E+02 3.80851E+01 0.00000E+00
 -1      2615 1.00913E+02 3.68525E+01 0.00000E+00
 -1      2616 9.97231E+01 2.99288E+01 0.00000E+00
 -1      2617 9.46775E+01 2.48123E+01 0.00000E+00
 -1      2618 7.83939E+01 3.59164E+01 0.00000E+00
 -1      2619 8.12822E+01 2.67759E+01 0.00000E+00
 -1      2620 8.50208E+01 4.42117E+01 0.00000E+00
 -1      2621 8.67324E+01 4.45497E+01 0.00000E+00
 -1      2622 8.47419E+01 4.38784E+01 0.00000E+00
 -1      2623 8.39545E+01 4.32513E+01 0.00000E+00
 -1      2624 8.99054E+01 4.46786E+01 0.00000E+00
 -1      2625 1.43378E+02 4.20446E+01 0.00000E+00
 -1      2626 1.42079E+02 4.13071E+01 0.00000E+00
 -1      2627 8.41711E+01 4.44707E+01 0.00000E+00
 -1      2628 8.30113E+01 4.35647E+01 0.00000E+00
 -1      2629 9.67180E+01 2.51315E+01 0.00000E+00
 -1      2630 9.78238E+01 2.59625E+01 0.00000E+00
 -1      2631 9.09300E+00 1.98250E+01 0.00000E+00
 -1      2632 9.09300E+00 2.12750E+01 0.00000E+00
 -1      2633 9.09300E+00 2.27500E+01 0.00000E+00
 -1      2634 9.09300E+00 2.42250E+01 0.00000E+00
 -1      2635 1.03920E+01 2.20250E+01 0.00000E+00
 -1      2636 9.09300E+00 1.39375E+01 0.00000E+00
 -1      2637 9.09300E+00 1.54125E+01 0.00000E+00
 -1      2638 9.09300E+00 1.09875E+01 0.00000E+00
 -1      2639 9.09300E+00 1.24625E+01 0.00000E+00
 -1      2640 1.03920E+01 1.32000E+01 0.00000E+00
 -1      2641 9.18900E+00 6.67137E+00 0.00000E+00
 -1      2642 9.00375E+00 7.49481E+00 0.00000E+00
 -1      2643 1.03988E+01 6.86619E+00 0.00000E+00
 -1      2644 1.40853E+02 4.11556E+01 0.00000E+00
 -1      2645 8.10402E+01 4.25990E+01 0.00000E+00
 -1      2646 8.17902E+01 4.38980E+01 0.00000E+00
 -1      2647 1.44000E+01 4.09070E+01 0.00000E+00
 -1      2648 1.59000E+01 4.09070E+01 0.00000E+00
 -1      2649 1.74750E+01 4.09070E+01 0.00000E+00
 -1      2650 1.90500E+01 4.09070E+01 0.00000E+00
 -1      2651 1.67250E+01 3.96080E+01 0.00000E+00
 -1      2652 2.05500E+01 4.09070E+01 0.00000E+00
 -1      2653 2.20500E+01 4.09070E+01 0.00000E+00
 -1      2654 1.98000E+01 3.96080E+01 0.00000E+00
 -1      2655 2.35500E+01 4.09070E+01 0.00000E+00
 -1      2656 2.50500E+01 4.09070E+01 0.00000E+00
 -1      2657 2.28000E+01 3.96080E+01 0.00000E+00
 -1      2658 2.65500E+01 4.09070E+01 0.00000E+00
 -1      2659 2.80500E+01 4.09070E+01 0.00000E+00
 -1      2660 2.58000E+01 3.96080E+01 0.00000E+00
 -1      2661 2.95500E+01 4.09070E+01 0.00000E+00
 -1      2662 3.10500E+01 4.09070E+01 0.00000E+00
 -1      2663 2.88000E+01 3.96080E+01 0.00000E+00
 -1      2664 3.25500E+01 4.09070E+01 0.00000E+00
 -1      2665 3.40500E+01 4.09070E+01 0.00000E+00
 -1      2666 3.18000E+01 3.96080E+01 0.00000E+00
 -1      2667 3.55500E+01 4.09070E+01 0.00000E+00
 -1      2668 3.70500E+01 4.09070E+01 0.00000E+00
 -1      2669 3.48000E+01 3.96080E+01 0.00000E+00
 -1      2670 3.86250E+01 4.09070E+01 0.00000E+00
 -1      2671 4.02000E+01 4.09070E+01 0.00000E+00
 -1      2672 3.78750E+01 3.96080E+01 0.00000E+00
 -1      2673 4.17000E+01 4.09070E+01 0.00000E+00
 -1      2674 4.32000E+01 4.09070E+01 0.00000E+00
 -1      2675 4.09500E+01 3.96080E+01 0.00000E+00
 -1      2676 4.47000E+01 4.09070E+01 0.00000E+00
 -1      2677 4.62000E+01 4.09070E+01 0.00000E+00
 -1      2678 4.39500E+01 3.96080E+01 0.00000E+00
 -1      2679 4.77000E+01 4.09070E+01 0.00000E+00
 -1      2680 4.92000E+01 4.09070E+01 0.00000E+00
 -1      2681 4.69500E+01 3.96080E+01 0.00000E+00
 -1      2682 5.07000E+01 4.09070E+01 0.00000E+00
 -1      2683 5.22000E+01 4.09070E+01 0.00000E+00
 -1      2684 4.99500E+01 3.96080E+01 0.00000E+00
 -1      2685 5.37000E+01 4.09070E+01 0.00000E+00
 -1      2686 5.52000E+01 4.09070E+01 0.00000E+00
 -1      2687 5.29500E+01 3.96080E+01 0.00000E+00
 -1      2688 5.67000E+01 4.09070E+01 0.00000E+00
 -1      2689 5.82000E+01 4.09070E+01 0.00000E+00
 -1      2690 5.59500E+01 3.96080E+01 0.00000E+00
 -1      2691 5.97750E+01 4.09070E+01 0.00000E+00
 -1      2692 6.13500E+01 4.09070E+01 0.00000E+00
 -1      2693 5.90250E+01 3.96080E+01 0.00000E+00
 -1      2694 6.28500E+01 4.09070E+01 0.00000E+00
 -1      2695 6.43500E+01 4.09070E+01 0.00000E+00
 -1      2696 6.21000E+01 3.96080E+01 0.00000E+00
 -1      2697 6.58500E+01 4.09070E+01 0.00000E+00
 -1      2698 6.73500E+01 4.09070E+01 0.00000E+00
 -1      2699 6.51000E+01 3.96080E+01 0.00000E+00
 -1      2700 6.88500E+01 4.09070E+01 0.00000E+00
 -1      2701 7.03500E+01 4.09070E+01 0.00000E+00
 -1      2702 6.81000E+01 3.96080E+01 0.00000E+00
 -1      2703 7.18500E+01 4.09070E+01 0.00000E+00
 -1      2704 7.33500E+01 4.09070E+01 0.00000E+00
 -1      2705 7.11000E+01 3.96080E+01 0.00000E+00
 -1      2706 7.48500E+01 4.09070E+01 0.00000E+00
 -1      2707 7.63500E+01 4.09070E+01 0.00000E+00
 -1      2708 7.41000E+01 3.96080E+01 0.00000E+00
 -1      2709 1.40706E+02 1.03250E+01 0.00000E+00
 -1      2710 1.40040E+02 8.85425E+00 0.00000E+00
 -1      2711 1.38540E+02 8.85425E+00 0.00000E+00
 -1      2712 1.04100E+02 4.13097E+01 0.00000E+00
 -1      2713 1.05600E+02 4.13097E+01 0.00000E+00
 -1      2714 1.07100E+02 4.13097E+01 0.00000E+00
 -1      2715 1.08600E+02 4.13097E+01 0.00000E+00
 -1      2716 1.06350E+02 4.00332E+01 0.00000E+00
 -1      2717 1.10100E+02 4.13097E+01 0.00000E+00
 -1      2718 1.11600E+02 4.13097E+01 0.00000E+00
 -1      2719 1.09350E+02 4.00332E+01 0.00000E+00
 -1      2720 1.13100E+02 4.13097E+01 0.00000E+00
 -1      2721 1.14600E+02 4.13097E+01 0.00000E+00
 -1      2722 1.12350E+02 4.00332E+01 0.00000E+00
 -1      2723 1.16100E+02 4.13097E+01 0.00000E+00
 -1      2724 1.17600E+02 4.13097E+01 0.00000E+00
 -1      2725 1.15350E+02 4.00332E+01 0.00000E+00
 -1      2726 1.19100E+02 4.13097E+01 0.00000E+00
 -1      2727 1.20600E+02 4.13097E+01 0.00000E+00
 -1      2728 1.18350E+02 4.00332E+01 0.00000E+00
 -1      2729 1.22175E+02 4.13097E+01 0.00000E+00
 -1      2730 1.23750E+02 4.13097E+01 0.00000E+00
 -1      2731 1.21425E+02 4.00332E+01 0.00000E+00
 -1      2732 1.25250E+02 4.13097E+01 0.00000E+00
 -1      2733 1.26750E+02 4.13097E+01 0.00000E+00
 -1      2734 1.24500E+02 4.00332E+01 0.00000E+00
 -1      2735 1.28250E+02 4.13097E+01 0.00000E+00
 -1      2736 1.29750E+02 4.13097E+01 0.00000E+00
 -1      2737 1.27500E+02 4.00332E+01 0.00000E+00
 -1      2738 1.31250E+02 4.13097E+01 0.00000E+00
 -1      2739 1.32750E+02 4.13097E+01 0.00000E+00
 -1      2740 1.30500E+02 4.00332E+01 0.00000E+00
 -1      2741 1.34250E+02 4.13097E+01 0.00000E+00
 -1      2742 1.35750E+02 4.13097E+01 0.00000E+00
 -1      2743 1.33500E+02 4.00332E+01 0.00000E+00
 -1      2744 1.37250E+02 4.13097E+01 0.00000E+00
 -1      2745 1.38750E+02 4.13097E+01 0.00000E+00
 -1      2746 1.36500E+02 4.00332E+01 0.00000E+00
 -1      2747 2.01240E+01 8.68250E+00 0.00000E+00
 -1      2748 1.86240E+01 8.68250E+00 0.00000E+00
 -1      2749 2.31240E+01 8.68250E+00 0.00000E+00
 -1      2750 2.16240E+01 8.68250E+00 0.00000E+00
 -1      2751 2.08740E+01 9.98150E+00 0.00000E+00
 -1      2752 1.71240E+01 8.68250E+00 0.00000E+00
 -1      2753 1.56240E+01 8.68250E+00 0.00000E+00
 -1      2754 1.78740E+01 9.98150E+00 0.00000E+00
 -1      2755 2.91240E+01 8.68250E+00 0.00000E+00
 -1      2756 2.76240E+01 8.68250E+00 0.00000E+00
 -1      2757 3.21240E+01 8.68250E+00 0.00000E+00
 -1      2758 3.06240E+01 8.68250E+00 0.00000E+00
 -1      2759 2.98740E+01 9.98150E+00 0.00000E+00
 -1      2760 3.51240E+01 8.68250E+00 0.00000E+00
 -1      2761 3.36240E+01 8.68250E+00 0.00000E+00
 -1      2762 3.28740E+01 9.98150E+00 0.00000E+00
 -1      2763 3.81240E+01 8.68250E+00 0.00000E+00
 -1      2764 3.66240E+01 8.68250E+00 0.00000E+00
 -1      2765 3.58740E+01 9.98150E+00 0.00000E+00
 -1      2766 4.11240E+01 8.68250E+00 0.00000E+00
 -1      2767 3.96240E+01 8.68250E+00 0.00000E+00
 -1      2768 3.88740E+01 9.98150E+00 0.00000E+00
 -1      2769 4.41240E+01 8.68250E+00 0.00000E+00
 -1      2770 4.26240E+01 8.68250E+00 0.00000E+00
 -1      2771 4.18740E+01 9.98150E+00 0.00000E+00
 -1      2772 4.71240E+01 8.68250E+00 0.00000E+00
 -1      2773 4.56240E+01 8.68250E+00 0.00000E+00
 -1      2774 4.48740E+01 9.98150E+00 0.00000E+00
 -1      2775 5.01240E+01 8.68250E+00 0.00000E+00
 -1      2776 4.86240E+01 8.68250E+00 0.00000E+00
 -1      2777 4.78740E+01 9.98150E+00 0.00000E+00
 -1      2778 5.31240E+01 8.68250E+00 0.00000E+00
 -1      2779 5.16240E+01 8.68250E+00 0.00000E+00
 -1      2780 5.08740E+01 9.98150E+00 0.00000E+00
 -1      2781 5.61240E+01 8.68250E+00 0.00000E+00
 -1      2782 5.46240E+01 8.68250E+00 0.00000E+00
 -1      2783 5.38740E+01 9.98150E+00 0.00000E+00
 -1      2784 5.91240E+01 8.68250E+00 0.00000E+00
 -1      2785 5.76240E+01 8.68250E+00 0.00000E+00
 -1      2786 5.68740E+01 9.98150E+00 0.00000E+00
 -1      2787 6.21240E+01 8.68250E+00 0.00000E+00
 -1      2788 6.06240E+01 8.68250E+00 0.00000E+00
 -1      2789 5.98740E+01 9.98150E+00 0.00000E+00
 -1      2790 6.51240E+01 8.68250E+00 0.00000E+00
 -1      2791 6.36240E+01 8.68250E+00 0.00000E+00
 -1      2792 6.28740E+01 9.98150E+00 0.00000E+00
 -1      2793 6.81240E+01 8.68250E+00 0.00000E+00
 -1      2794 6.66240E+01 8.68250E+00 0.00000E+00
 -1      2795 6.58740E+01 9.98150E+00 0.00000E+00
 -1      2796 7.11240E+01 8.68250E+00 0.00000E+00
 -1      2797 6.96240E+01 8.68250E+00 0.00000E+00
 -1      2798 6.88740E+01 9.98150E+00 0.00000E+00
 -1      2799 7.41240E+01 8.68250E+00 0.00000E+00
 -1      2800 7.26240E+01 8.68250E+00 0.00000E+00
 -1      2801 7.18740E+01 9.98150E+00 0.00000E+00
 -1      2802 7.71240E+01 8.68250E+00 0.00000E+00
 -1      2803 7.56240E+01 8.68250E+00 0.00000E+00
 -1      2804 7.48740E+01 9.98150E+00 0.00000E+00
 -1      2805 8.01240E+01 8.68250E+00 0.00000E+00
 -1      2806 7.86240E+01 8.68250E+00 0.00000E+00
 -1      2807 7.78740E+01 9.98150E+00 0.00000E+00
 -1      2808 8.31240E+01 8.68250E+00 0.00000E+00
 -1      2809 8.16240E+01 8.68250E+00 0.00000E+00
 -1      2810 8.08740E+01 9.98150E+00 0.00000E+00
 -1      2811 8.61240E+01 8.68250E+00 0.00000E+00
 -1      2812 8.46240E+01 8.68250E+00 0.00000E+00
 -1      2813 8.38740E+01 9.98150E+00 0.00000E+00
 -1      2814 8.91240E+01 8.68250E+00 0.00000E+00
 -1      2815 8.76240E+01 8.68250E+00 0.00000E+00
 -1      2816 8.68740E+01 9.98150E+00 0.00000E+00
 -1      2817 9.21240E+01 8.68250E+00 0.00000E+00
 -1      2818 9.06240E+01 8.68250E+00 0.00000E+00
 -1      2819 8.98740E+01 9.98150E+00 0.00000E+00
 -1      2820 9.51240E+01 8.68250E+00 0.00000E+00
 -1      2821 9.36240E+01 8.68250E+00 0.00000E+00
 -1      2822 9.28740E+01 9.98150E+00 0.00000E+00
 -1      2823 9.81240E+01 8.68250E+00 0.00000E+00
 -1      2824 9.66240E+01 8.68250E+00 0.00000E+00
 -1      2825 9.58740E+01 9.98150E+00 0.00000E+00
 -1      2826 1.01124E+02 8.68250E+00 0.00000E+00
 -1      2827 9.96240E+01 8.68250E+00 0.00000E+00
 -1      2828 9.88740E+01 9.98150E+00 0.00000E+00
 -1      2829 1.04124E+02 8.68250E+00 0.00000E+00
 -1      2830 1.02624E+02 8.68250E+00 0.00000E+00
 -1      2831 1.01874E+02 9.98150E+00 0.00000E+00
 -1      2832 1.07124E+02 8.68250E+00 0.00000E+00
 -1      2833 1.05624E+02 8.68250E+00 0.00000E+00
 -1      2834 1.04874E+02 9.98150E+00 0.00000E+00
 -1      2835 1.10124E+02 8.68250E+00 0.00000E+00
 -1      2836 1.08624E+02 8.68250E+00 0.00000E+00
 -1      2837 1.07874E+02 9.98150E+00 0.00000E+00
 -1      2838 1.13124E+02 8.68250E+00 0.00000E+00
 -1      2839 1.11624E+02 8.68250E+00 0.00000E+00
 -1      2840 1.10874E+02 9.98150E+00 0.00000E+00
 -1      2841 1.16124E+02 8.68250E+00 0.00000E+00
 -1      2842 1.14624E+02 8.68250E+00 0.00000E+00
 -1      2843 1.13874E+02 9.98150E+00 0.00000E+00
 -1      2844 1.19124E+02 8.68250E+00 0.00000E+00
 -1      2845 1.17624E+02 8.68250E+00 0.00000E+00
 -1      2846 1.16874E+02 9.98150E+00 0.00000E+00
 -1      2847 1.22124E+02 8.68250E+00 0.00000E+00
 -1      2848 1.20624E+02 8.68250E+00 0.00000E+00
 -1      2849 1.19874E+02 9.98150E+00 0.00000E+00
 -1      2850 1.25124E+02 8.68250E+00 0.00000E+00
 -1      2851 1.23624E+02 8.68250E+00 0.00000E+00
 -1      2852 1.22874E+02 9.98150E+00 0.00000E+00
 -1      2853 1.28124E+02 8.68250E+00 0.00000E+00
 -1      2854 1.26624E+02 8.68250E+00 0.00000E+00
 -1      2855 1.25874E+02 9.98150E+00 0.00000E+00
 -1      2856 1.31124E+02 8.68250E+00 0.00000E+00
 -1      2857 1.29624E+02 8.68250E+00 0.00000E+00
 -1      2858 1.28874E+02 9.98150E+00 0.00000E+00
 -1      2859 1.34124E+02 8.68250E+00 0.00000E+00
 -1      2860 1.32624E+02 8.68250E+00 0.00000E+00
 -1      2861 1.31874E+02 9.98150E+00 0.00000E+00
 -1      2862 1.37082E+02 8.76838E+00 0.00000E+00
 -1      2863 1.35582E+02 8.76838E+00 0.00000E+00
 -1      2864 1.34832E+02 1.00674E+01 0.00000E+00
 -1      2865 1.37748E+02 1.02391E+01 0.00000E+00
 -1      2866 1.40907E+02 1.54500E+01 0.00000E+00
 -1      2867 1.40907E+02 1.40000E+01 0.00000E+00
 -1      2868 1.40907E+02 2.13375E+01 0.00000E+00
 -1      2869 1.40907E+02 1.98625E+01 0.00000E+00
 -1      2870 1.40706E+02 1.18000E+01 0.00000E+00
 -1      2871 9.21784E+01 2.27774E+01 0.00000E+00
 -1      2872 9.33781E+01 2.31404E+01 0.00000E+00
 -1      2873 1.40907E+02 1.83937E+01 0.00000E+00
 -1      2874 1.40907E+02 1.69188E+01 0.00000E+00
 -1      2875 1.39608E+02 1.61938E+01 0.00000E+00
 -1      2876 1.39608E+02 1.91313E+01 0.00000E+00
 -1      2877 2.61240E+01 8.68250E+00 0.00000E+00
 -1      2878 2.46240E+01 8.68250E+00 0.00000E+00
 -1      2879 2.38740E+01 9.98150E+00 0.00000E+00
 -1      2880 2.68740E+01 9.98150E+00 0.00000E+00
 -1      2881 1.40907E+02 2.72375E+01 0.00000E+00
 -1      2882 1.40907E+02 2.57625E+01 0.00000E+00
 -1      2883 1.40907E+02 3.01375E+01 0.00000E+00
 -1      2884 1.40907E+02 2.86875E+01 0.00000E+00
 -1      2885 1.39608E+02 2.79500E+01 0.00000E+00
 -1      2886 1.40907E+02 3.30875E+01 0.00000E+00
 -1      2887 1.40907E+02 3.16125E+01 0.00000E+00
 -1      2888 1.39608E+02 3.08750E+01 0.00000E+00
 -1      2889 1.40907E+02 3.60375E+01 0.00000E+00
 -1      2890 1.40907E+02 3.45625E+01 0.00000E+00
 -1      2891 1.39608E+02 3.38250E+01 0.00000E+00
 -1      2892 9.25425E+00 4.07069E+01 0.00000E+00
 -1      2893 1.06178E+01 4.09709E+01 0.00000E+00
 -1      2894 9.22200E+00 3.94717E+01 0.00000E+00
 -1      2895 1.01181E+02 3.16371E+01 0.00000E+00
 -1      2896 1.01316E+02 3.29651E+01 0.00000E+00
 -1      2897 1.00371E+02 3.92569E+01 0.00000E+00
 -1      2898 1.00071E+02 4.02265E+01 0.00000E+00
 -1      2899 9.90072E+01 2.68746E+01 0.00000E+00
 -1      2900 9.96697E+01 2.77416E+01 0.00000E+00
 -1      2901 8.21730E+01 2.45628E+01 0.00000E+00
 -1      2902 8.33043E+01 2.40592E+01 0.00000E+00
 -1      2903 1.01551E+02 3.43128E+01 0.00000E+00
 -1      2904 1.01540E+02 3.54878E+01 0.00000E+00
 -1      2905 1.40907E+02 2.42875E+01 0.00000E+00
 -1      2906 1.40907E+02 2.28125E+01 0.00000E+00
 -1      2907 1.39608E+02 2.50250E+01 0.00000E+00
 -1      2908 1.00305E+02 2.89597E+01 0.00000E+00
 -1      2909 1.00842E+02 3.00910E+01 0.00000E+00
 -1      2910 1.17589E+01 4.09389E+01 0.00000E+00
 -1      2911 1.32589E+01 4.09389E+01 0.00000E+00
 -1      2912 1.40089E+01 3.96399E+01 0.00000E+00
 -1      2913 1.17266E+01 3.97038E+01 0.00000E+00
 -1      2914 9.47227E+01 2.36409E+01 0.00000E+00
 -1      2915 9.56950E+01 2.42302E+01 0.00000E+00
 -1      2916 9.09300E+00 1.68813E+01 0.00000E+00
 -1      2917 9.09300E+00 1.83563E+01 0.00000E+00
 -1      2918 1.03920E+01 1.90812E+01 0.00000E+00
 -1      2919 1.03920E+01 1.61437E+01 0.00000E+00
 -1      2920 7.79484E+01 3.12593E+01 0.00000E+00
 -1      2921 7.82997E+01 3.01790E+01 0.00000E+00
 -1      2922 7.76880E+01 3.66400E+01 0.00000E+00
 -1      2923 7.74337E+01 3.56004E+01 0.00000E+00
 -1      2924 8.98466E+01 2.24182E+01 0.00000E+00
 -1      2925 9.08766E+01 2.25123E+01 0.00000E+00
 -1      2926 8.43466E+01 2.36016E+01 0.00000E+00
 -1      2927 8.53889E+01 2.31440E+01 0.00000E+00
 -1      2928 8.33641E+01 2.29168E+01 0.00000E+00
 -1      2929 7.87939E+01 2.88975E+01 0.00000E+00
 -1      2930 7.94185E+01 2.78458E+01 0.00000E+00
 -1      2931 9.09300E+00 3.15875E+01 0.00000E+00
 -1      2932 9.09300E+00 3.30625E+01 0.00000E+00
 -1      2933 8.01487E+01 2.67362E+01 0.00000E+00
 -1      2934 8.08907E+01 2.57114E+01 0.00000E+00
 -1      2935 7.82292E+01 3.89553E+01 0.00000E+00
 -1      2936 7.79041E+01 3.77913E+01 0.00000E+00
 -1      2937 1.40103E+02 3.98791E+01 0.00000E+00
 -1      2938 7.78027E+01 2.91724E+01 0.00000E+00
 -1      2939 1.03920E+01 2.49750E+01 0.00000E+00
 -1      2940 9.09300E+00 2.57000E+01 0.00000E+00
 -1      2941 9.09300E+00 2.71750E+01 0.00000E+00
 -1      2942 9.00375E+00 8.96981E+00 0.00000E+00
 -1      2943 8.02494E+01 4.17569E+01 0.00000E+00
 -1      2944 8.60379E+01 2.23820E+01 0.00000E+00
 -1      2945 8.66868E+01 2.16200E+01 0.00000E+00
 -1      2946 8.50554E+01 2.16972E+01 0.00000E+00
 -1      2947 1.39407E+02 1.25250E+01 0.00000E+00
 -1      2948 9.43956E+01 2.25584E+01 0.00000E+00
 -1      2949 7.78125E+01 4.11809E+01 0.00000E+00
 -1      2950 7.92375E+01 4.11809E+01 0.00000E+00
 -1      2951 1.02336E+02 3.35617E+01 0.00000E+00
 -1      2952 1.02175E+02 4.12844E+01 0.00000E+00
 -1      2953 1.02925E+02 4.00079E+01 0.00000E+00
 -1      2954 1.48740E+01 9.98151E+00 0.00000E+00
 -1      2955 1.41240E+01 8.68251E+00 0.00000E+00
 -1      2956 8.26711E+01 4.44707E+01 0.00000E+00
 -1      2957 1.39608E+02 2.20750E+01 0.00000E+00
 -1      2958 1.02345E+02 2.96989E+01 0.00000E+00
 -1      2959 1.01763E+02 3.06680E+01 0.00000E+00
 -1      2960 1.02684E+02 3.12449E+01 0.00000E+00
 -1      2961 1.30515E+01 8.34733E+00 0.00000E+00
 -1      2962 9.09300E+00 2.86437E+01 0.00000E+00
 -1      2963 9.09300E+00 3.01187E+01 0.00000E+00
 -1      2964 1.03920E+01 3.08563E+01 0.00000E+00
 -1      2965 1.03920E+01 2.79188E+01 0.00000E+00
 -1      2966 9.17491E+01 2.17929E+01 0.00000E+00
 -1      2967 1.01158E+02 3.88107E+01 0.00000E+00
 -1      2968 9.67631E+01 2.39602E+01 0.00000E+00
 -1      2969 1.40907E+02 3.89875E+01 0.00000E+00
 -1      2970 1.40907E+02 3.75125E+01 0.00000E+00
 -1      2971 1.00789E+02 2.79038E+01 0.00000E+00
 -1      2972 7.90271E+01 2.67814E+01 0.00000E+00
 -1      2973 9.89695E+01 2.57736E+01 0.00000E+00
 -1      2974 7.68670E+01 3.48096E+01 0.00000E+00
 -1      2975 7.63003E+01 3.40188E+01 0.00000E+00
 -1      2976 7.61611E+01 3.55332E+01 0.00000E+00
 -1      2977 1.01943E+02 3.62742E+01 0.00000E+00
 -1      2978 1.02346E+02 3.70605E+01 0.00000E+00
 -1      2979 1.02973E+02 3.56958E+01 0.00000E+00
 -1      2980 8.82700E+01 2.14144E+01 0.00000E+00
 -1      2981 8.90583E+01 2.19163E+01 0.00000E+00
 -1      2982 8.96589E+01 2.10259E+01 0.00000E+00
 -1      2983 9.96711E+01 4.15283E+01 0.00000E+00
 -1      2984 8.10396E+01 2.45231E+01 0.00000E+00
 -1      2985 8.11884E+01 2.33348E+01 0.00000E+00
 -1      2986 7.99061E+01 2.44834E+01 0.00000E+00
 -1      2987 1.00600E+02 4.12844E+01 0.00000E+00
 -1      2988 1.03027E+01 9.70731E+00 0.00000E+00
 -1      2989 7.70625E+01 3.98819E+01 0.00000E+00
 -1      2990 7.69439E+01 3.74752E+01 0.00000E+00
 -1      2991 7.71573E+01 3.18746E+01 0.00000E+00
 -1      2992 1.03920E+01 3.37938E+01 0.00000E+00
 -1      2993 9.09300E+00 3.45313E+01 0.00000E+00
 -1      2994 9.09300E+00 3.60000E+01 0.00000E+00
 -1      2995 1.39608E+02 3.67750E+01 0.00000E+00
 -1      2996 7.95368E+01 4.07318E+01 0.00000E+00
 -1      2997 7.89117E+01 3.97199E+01 0.00000E+00
 -1      2998 7.78425E+01 3.93911E+01 0.00000E+00
 -1      2999 1.16910E+01 1.24625E+01 0.00000E+00
 -1      3000 1.16910E+01 1.39375E+01 0.00000E+00
 -1      3001 1.14712E+01 7.20138E+00 0.00000E+00
 -1      3002 1.38309E+02 3.16125E+01 0.00000E+00
 -1      3003 1.38309E+02 3.01375E+01 0.00000E+00
 -1      3004 1.59375E+01 3.83090E+01 0.00000E+00
 -1      3005 1.75125E+01 3.83090E+01 0.00000E+00
 -1      3006 9.14137E+00 3.71183E+01 0.00000E+00
 -1      3007 9.17362E+00 3.83534E+01 0.00000E+00
 -1      3008 1.05371E+01 3.86174E+01 0.00000E+00
 -1      3009 1.04404E+01 3.63808E+01 0.00000E+00
 -1      3010 1.56240E+01 1.12805E+01 0.00000E+00
 -1      3011 1.41241E+01 1.12805E+01 0.00000E+00
 -1      3012 1.90125E+01 3.83090E+01 0.00000E+00
 -1      3013 2.05125E+01 3.83090E+01 0.00000E+00
 -1      3014 1.82250E+01 3.70100E+01 0.00000E+00
 -1      3015 2.20125E+01 3.83090E+01 0.00000E+00
 -1      3016 2.35125E+01 3.83090E+01 0.00000E+00
 -1      3017 2.12250E+01 3.70100E+01 0.00000E+00
 -1      3018 2.50125E+01 3.83090E+01 0.00000E+00
 -1      3019 2.65125E+01 3.83090E+01 0.00000E+00
 -1      3020 2.42250E+01 3.70100E+01 0.00000E+00
 -1      3021 2.80125E+01 3.83090E+01 0.00000E+00
 -1      3022 2.95125E+01 3.83090E+01 0.00000E+00
 -1      3023 2.72250E+01 3.70100E+01 0.00000E+00
 -1      3024 3.10125E+01 3.83090E+01 0.00000E+00
 -1      3025 3.25125E+01 3.83090E+01 0.00000E+00
 -1      3026 3.02250E+01 3.70100E+01 0.00000E+00
 -1      3027 3.40125E+01 3.83090E+01 0.00000E+00
 -1      3028 3.55125E+01 3.83090E+01 0.00000E+00
 -1      3029 3.32250E+01 3.70100E+01 0.00000E+00
 -1      3030 3.70875E+01 3.83090E+01 0.00000E+00
 -1      3031 3.86625E+01 3.83090E+01 0.00000E+00
 -1      3032 3.63000E+01 3.70100E+01 0.00000E+00
 -1      3033 4.01625E+01 3.83090E+01 0.00000E+00
 -1      3034 4.16625E+01 3.83090E+01 0.00000E+00
 -1      3035 3.93750E+01 3.70100E+01 0.00000E+00
 -1      3036 4.31625E+01 3.83090E+01 0.00000E+00
 -1      3037 4.46625E+01 3.83090E+01 0.00000E+00
 -1      3038 4.23750E+01 3.70100E+01 0.00000E+00
 -1      3039 4.61625E+01 3.83090E+01 0.00000E+00
 -1      3040 4.76625E+01 3.83090E+01 0.00000E+00
 -1      3041 4.53750E+01 3.70100E+01 0.00000E+00
 -1      3042 4.91625E+01 3.83090E+01 0.00000E+00
 -1      3043 5.06625E+01 3.83090E+01 0.00000E+00
 -1      3044 4.83750E+01 3.70100E+01 0.00000E+00
 -1      3045 5.21625E+01 3.83090E+01 0.00000E+00
 -1      3046 5.36625E+01 3.83090E+01 0.00000E+00
 -1      3047 5.13750E+01 3.70100E+01 0.00000E+00
 -1      3048 5.51625E+01 3.83090E+01 0.00000E+00
 -1      3049 5.66625E+01 3.83090E+01 0.00000E+00
 -1      3050 5.43750E+01 3.70100E+01 0.00000E+00
 -1      3051 5.82375E+01 3.83090E+01 0.00000E+00
 -1      3052 5.98125E+01 3.83090E+01 0.00000E+00
 -1      3053 5.74500E+01 3.70100E+01 0.00000E+00
 -1      3054 6.13125E+01 3.83090E+01 0.00000E+00
 -1      3055 6.28125E+01 3.83090E+01 0.00000E+00
 -1      3056 6.05250E+01 3.70100E+01 0.00000E+00
 -1      3057 6.43125E+01 3.83090E+01 0.00000E+00
 -1      3058 6.58125E+01 3.83090E+01 0.00000E+00
 -1      3059 6.35250E+01 3.70100E+01 0.00000E+00
 -1      3060 6.73125E+01 3.83090E+01 0.00000E+00
 -1      3061 6.88125E+01 3.83090E+01 0.00000E+00
 -1      3062 6.65250E+01 3.70100E+01 0.00000E+00
 -1      3063 7.03125E+01 3.83090E+01 0.00000E+00
 -1      3064 7.18125E+01 3.83090E+01 0.00000E+00
 -1      3065 6.95250E+01 3.70100E+01 0.00000E+00
 -1      3066 1.03146E+02 3.27265E+01 0.00000E+00
 -1      3067 1.03381E+02 3.40742E+01 0.00000E+00
 -1      3068 1.17938E+01 8.83558E+00 0.00000E+00
 -1      3069 1.18830E+01 1.08533E+01 0.00000E+00
 -1      3070 1.08600E+02 3.87567E+01 0.00000E+00
 -1      3071 1.10100E+02 3.87567E+01 0.00000E+00
 -1      3072 1.11600E+02 3.87567E+01 0.00000E+00
 -1      3073 1.13100E+02 3.87567E+01 0.00000E+00
 -1      3074 1.10850E+02 3.74803E+01 0.00000E+00
 -1      3075 1.14600E+02 3.87567E+01 0.00000E+00
 -1      3076 1.16100E+02 3.87567E+01 0.00000E+00
 -1      3077 1.13850E+02 3.74803E+01 0.00000E+00
 -1      3078 1.17600E+02 3.87567E+01 0.00000E+00
 -1      3079 1.19100E+02 3.87567E+01 0.00000E+00
 -1      3080 1.16850E+02 3.74803E+01 0.00000E+00
 -1      3081 1.20675E+02 3.87567E+01 0.00000E+00
 -1      3082 1.22250E+02 3.87567E+01 0.00000E+00
 -1      3083 1.19925E+02 3.74803E+01 0.00000E+00
 -1      3084 1.23750E+02 3.87567E+01 0.00000E+00
 -1      3085 1.25250E+02 3.87567E+01 0.00000E+00
 -1      3086 1.23000E+02 3.74803E+01 0.00000E+00
 -1      3087 1.26750E+02 3.87567E+01 0.00000E+00
 -1      3088 1.28250E+02 3.87567E+01 0.00000E+00
 -1      3089 1.26000E+02 3.74803E+01 0.00000E+00
 -1      3090 1.29750E+02 3.87567E+01 0.00000E+00
 -1      3091 1.31250E+02 3.87567E+01 0.00000E+00
 -1      3092 1.29000E+02 3.74803E+01 0.00000E+00
 -1      3093 1.32750E+02 3.87567E+01 0.00000E+00
 -1      3094 1.34250E+02 3.87567E+01 0.00000E+00
 -1      3095 1.32000E+02 3.74803E+01 0.00000E+00
 -1      3096 1.35750E+02 3.87567E+01 0.00000E+00
 -1      3097 1.37250E+02 3.87567E+01 0.00000E+00
 -1      3098 1.35000E+02 3.74803E+01 0.00000E+00
 -1      3099 2.16240E+01 1.12805E+01 0.00000E+00
 -1      3100 2.01240E+01 1.12805E+01 0.00000E+00
 -1      3101 1.86240E+01 1.12805E+01 0.00000E+00
 -1      3102 1.71240E+01 1.12805E+01 0.00000E+00
 -1      3103 1.63741E+01 1.25795E+01 0.00000E+00
 -1      3104 1.93740E+01 1.25795E+01 0.00000E+00
 -1      3105 3.36240E+01 1.12805E+01 0.00000E+00
 -1      3106 3.21240E+01 1.12805E+01 0.00000E+00
 -1      3107 3.06240E+01 1.12805E+01 0.00000E+00
 -1      3108 2.91240E+01 1.12805E+01 0.00000E+00
 -1      3109 3.13740E+01 1.25795E+01 0.00000E+00
 -1      3110 3.96240E+01 1.12805E+01 0.00000E+00
 -1      3111 3.81240E+01 1.12805E+01 0.00000E+00
 -1      3112 4.26240E+01 1.12805E+01 0.00000E+00
 -1      3113 4.11240E+01 1.12805E+01 0.00000E+00
 -1      3114 4.03740E+01 1.25795E+01 0.00000E+00
 -1      3115 4.56240E+01 1.12805E+01 0.00000E+00
 -1      3116 4.41240E+01 1.12805E+01 0.00000E+00
 -1      3117 4.33740E+01 1.25795E+01 0.00000E+00
 -1      3118 4.86240E+01 1.12805E+01 0.00000E+00
 -1      3119 4.71240E+01 1.12805E+01 0.00000E+00
 -1      3120 4.63740E+01 1.25795E+01 0.00000E+00
 -1      3121 5.16240E+01 1.12805E+01 0.00000E+00
 -1      3122 5.01240E+01 1.12805E+01 0.00000E+00
 -1      3123 4.93740E+01 1.25795E+01 0.00000E+00
 -1      3124 5.46240E+01 1.12805E+01 0.00000E+00
 -1      3125 5.31240E+01 1.12805E+01 0.00000E+00
 -1      3126 5.23740E+01 1.25795E+01 0.00000E+00
 -1      3127 5.76240E+01 1.12805E+01 0.00000E+00
 -1      3128 5.61240E+01 1.12805E+01 0.00000E+00
 -1      3129 5.53740E+01 1.25795E+01 0.00000E+00
 -1      3130 6.06240E+01 1.12805E+01 0.00000E+00
 -1      3131 5.91240E+01 1.12805E+01 0.00000E+00
 -1      3132 5.83740E+01 1.25795E+01 0.00000E+00
 -1      3133 6.36240E+01 1.12805E+01 0.00000E+00
 -1      3134 6.21240E+01 1.12805E+01 0.00000E+00
 -1      3135 6.13740E+01 1.25795E+01 0.00000E+00
 -1      3136 6.66240E+01 1.12805E+01 0.00000E+00
 -1      3137 6.51240E+01 1.12805E+01 0.00000E+00
 -1      3138 6.43740E+01 1.25795E+01 0.00000E+00
 -1      3139 6.96240E+01 1.12805E+01 0.00000E+00
 -1      3140 6.81240E+01 1.12805E+01 0.00000E+00
 -1      3141 6.73740E+01 1.25795E+01 0.00000E+00
 -1      3142 7.26240E+01 1.12805E+01 0.00000E+00
 -1      3143 7.11240E+01 1.12805E+01 0.00000E+00
 -1      3144 7.03740E+01 1.25795E+01 0.00000E+00
 -1      3145 7.56240E+01 1.12805E+01 0.00000E+00
 -1      3146 7.41240E+01 1.12805E+01 0.00000E+00
 -1      3147 7.33740E+01 1.25795E+01 0.00000E+00
 -1      3148 7.86240E+01 1.12805E+01 0.00000E+00
 -1      3149 7.71240E+01 1.12805E+01 0.00000E+00
 -1      3150 7.63740E+01 1.25795E+01 0.00000E+00
 -1      3151 8.16240E+01 1.12805E+01 0.00000E+00
 -1      3152 8.01240E+01 1.12805E+01 0.00000E+00
 -1      3153 7.93740E+01 1.25795E+01 0.00000E+00
 -1      3154 8.46240E+01 1.12805E+01 0.00000E+00
 -1      3155 8.31240E+01 1.12805E+01 0.00000E+00
 -1      3156 8.23740E+01 1.25795E+01 0.00000E+00
 -1      3157 8.76240E+01 1.12805E+01 0.00000E+00
 -1      3158 8.61240E+01 1.12805E+01 0.00000E+00
 -1      3159 8.53740E+01 1.25795E+01 0.00000E+00
 -1      3160 9.06240E+01 1.12805E+01 0.00000E+00
 -1      3161 8.91240E+01 1.12805E+01 0.00000E+00
 -1      3162 8.83740E+01 1.25795E+01 0.00000E+00
 -1      3163 9.36240E+01 1.12805E+01 0.00000E+00
 -1      3164 9.21240E+01 1.12805E+01 0.00000E+00
 -1      3165 9.13740E+01 1.25795E+01 0.00000E+00
 -1      3166 9.66240E+01 1.12805E+01 0.00000E+00
 -1      3167 9.51240E+01 1.12805E+01 0.00000E+00
 -1      3168 9.43740E+01 1.25795E+01 0.00000E+00
 -1      3169 9.96240E+01 1.12805E+01 0.00000E+00
 -1      3170 9.81240E+01 1.12805E+01 0.00000E+00
 -1      3171 9.73740E+01 1.25795E+01 0.00000E+00
 -1      3172 1.02624E+02 1.12805E+01 0.00000E+00
 -1      3173 1.01124E+02 1.12805E+01 0.00000E+00
 -1      3174 1.00374E+02 1.25795E+01 0.00000E+00
 -1      3175 1.05624E+02 1.12805E+01 0.00000E+00
 -1      3176 1.04124E+02 1.12805E+01 0.00000E+00
 -1      3177 1.03374E+02 1.25795E+01 0.00000E+00
 -1      3178 1.08624E+02 1.12805E+01 0.00000E+00
 -1      3179 1.07124E+02 1.12805E+01 0.00000E+00
 -1      3180 1.06374E+02 1.25795E+01 0.00000E+00
 -1      3181 1.11624E+02 1.12805E+01 0.00000E+00
 -1      3182 1.10124E+02 1.12805E+01 0.00000E+00
 -1      3183 1.09374E+02 1.25795E+01 0.00000E+00
 -1      3184 1.14624E+02 1.12805E+01 0.00000E+00
 -1      3185 1.13124E+02 1.12805E+01 0.00000E+00
 -1      3186 1.12374E+02 1.25795E+01 0.00000E+00
 -1      3187 1.17624E+02 1.12805E+01 0.00000E+00
 -1      3188 1.16124E+02 1.12805E+01 0.00000E+00
 -1      3189 1.15374E+02 1.25795E+01 0.00000E+00
 -1      3190 1.20624E+02 1.12805E+01 0.00000E+00
 -1      3191 1.19124E+02 1.12805E+01 0.00000E+00
 -1      3192 1.18374E+02 1.25795E+01 0.00000E+00
 -1      3193 1.23624E+02 1.12805E+01 0.00000E+00
 -1      3194 1.22124E+02 1.12805E+01 0.00000E+00
 -1      3195 1.21374E+02 1.25795E+01 0.00000E+00
 -1      3196 1.26624E+02 1.12805E+01 0.00000E+00
 -1      3197 1.25124E+02 1.12805E+01 0.00000E+00
 -1      3198 1.24374E+02 1.25795E+01 0.00000E+00
 -1      3199 1.29624E+02 1.12805E+01 0.00000E+00
 -1      3200 1.28124E+02 1.12805E+01 0.00000E+00
 -1      3201 1.27374E+02 1.25795E+01 0.00000E+00
 -1      3202 1.32624E+02 1.12805E+01 0.00000E+00
 -1      3203 1.31124E+02 1.12805E+01 0.00000E+00
 -1      3204 1.30374E+02 1.25795E+01 0.00000E+00
 -1      3205 9.41101E+01 2.12689E+01 0.00000E+00
 -1      3206 9.54547E+01 2.17694E+01 0.00000E+00
 -1      3207 1.38309E+02 3.45625E+01 0.00000E+00
 -1      3208 1.38309E+02 3.30875E+01 0.00000E+00
 -1      3209 1.37010E+02 3.23500E+01 0.00000E+00
 -1      3210 1.38309E+02 2.86875E+01 0.00000E+00
 -1      3211 1.38309E+02 2.72375E+01 0.00000E+00
 -1      3212 1.37010E+02 2.94250E+01 0.00000E+00
 -1      3213 1.38804E+02 3.91416E+01 0.00000E+00
 -1      3214 1.01454E+02 2.67818E+01 0.00000E+00
 -1      3215 1.02089E+02 2.79999E+01 0.00000E+00
 -1      3216 7.65992E+01 2.94443E+01 0.00000E+00
 -1      3217 7.70933E+01 2.81629E+01 0.00000E+00
 -1      3218 9.90547E+01 2.44392E+01 0.00000E+00
 -1      3219 1.00238E+02 2.53513E+01 0.00000E+00
 -1      3220 1.38309E+02 2.57625E+01 0.00000E+00
 -1      3221 1.38309E+02 2.42875E+01 0.00000E+00
 -1      3222 1.37010E+02 2.65000E+01 0.00000E+00
 -1      3223 1.03083E+02 3.88361E+01 0.00000E+00
 -1      3224 7.78056E+01 2.67727E+01 0.00000E+00
 -1      3225 7.85358E+01 2.56630E+01 0.00000E+00
 -1      3226 1.38309E+02 2.28125E+01 0.00000E+00
 -1      3227 1.38309E+02 2.13375E+01 0.00000E+00
 -1      3228 1.37010E+02 2.35500E+01 0.00000E+00
 -1      3229 8.23972E+01 2.21303E+01 0.00000E+00
 -1      3230 8.34395E+01 2.16726E+01 0.00000E+00
 -1      3231 1.05600E+02 3.87567E+01 0.00000E+00
 -1      3232 1.07100E+02 3.87567E+01 0.00000E+00
 -1      3233 1.07850E+02 3.74803E+01 0.00000E+00
 -1      3234 1.38150E+02 1.46391E+01 0.00000E+00
 -1      3235 1.37949E+02 1.24391E+01 0.00000E+00
 -1      3236 1.36491E+02 1.23532E+01 0.00000E+00
 -1      3237 9.13026E+01 2.06558E+01 0.00000E+00
 -1      3238 9.26045E+01 2.09209E+01 0.00000E+00
 -1      3239 9.70088E+01 2.26366E+01 0.00000E+00
 -1      3240 9.80318E+01 2.35379E+01 0.00000E+00
 -1      3241 9.93004E+01 2.31157E+01 0.00000E+00
 -1      3242 7.63800E+01 3.91173E+01 0.00000E+00
 -1      3243 1.38054E+02 3.78651E+01 0.00000E+00
 -1      3244 7.61457E+01 3.24853E+01 0.00000E+00
 -1      3245 7.62969E+01 3.10646E+01 0.00000E+00
 -1      3246 3.66240E+01 1.12805E+01 0.00000E+00
 -1      3247 3.51240E+01 1.12805E+01 0.00000E+00
 -1      3248 3.43740E+01 1.25795E+01 0.00000E+00
 -1      3249 3.73740E+01 1.25795E+01 0.00000E+00
 -1      3250 1.38054E+02 3.63901E+01 0.00000E+00
 -1      3251 1.16910E+01 2.12875E+01 0.00000E+00
 -1      3252 1.16910E+01 2.27625E+01 0.00000E+00
 -1      3253 7.53839E+01 3.84567E+01 0.00000E+00
 -1      3254 7.61639E+01 3.79660E+01 0.00000E+00
 -1      3255 7.59479E+01 3.68147E+01 0.00000E+00
 -1      3256 1.16910E+01 2.42375E+01 0.00000E+00
 -1      3257 1.16910E+01 2.57125E+01 0.00000E+00
 -1      3258 1.29900E+01 2.35000E+01 0.00000E+00
 -1      3259 7.66021E+01 2.70445E+01 0.00000E+00
 -1      3260 7.55875E+01 3.00550E+01 0.00000E+00
 -1      3261 1.47964E+01 3.83409E+01 0.00000E+00
 -1      3262 1.55839E+01 3.70419E+01 0.00000E+00
 -1      3263 1.36552E+01 3.83729E+01 0.00000E+00
 -1      3264 1.16783E+01 3.85855E+01 0.00000E+00
 -1      3265 8.40884E+01 2.09106E+01 0.00000E+00
 -1      3266 8.47374E+01 2.01486E+01 0.00000E+00
 -1      3267 8.31215E+01 2.01241E+01 0.00000E+00
 -1      3268 1.04594E+02 3.40254E+01 0.00000E+00
 -1      3269 1.03784E+02 3.48606E+01 0.00000E+00
 -1      3270 1.04187E+02 3.56470E+01 0.00000E+00
 -1      3271 1.03728E+02 3.17574E+01 0.00000E+00
 -1      3272 7.38839E+01 3.84567E+01 0.00000E+00
 -1      3273 9.67233E+01 2.13471E+01 0.00000E+00
 -1      3274 1.31820E+01 1.15908E+01 0.00000E+00
 -1      3275 1.16910E+01 3.01219E+01 0.00000E+00
 -1      3276 1.16910E+01 3.15906E+01 0.00000E+00
 -1      3277 2.31240E+01 1.12805E+01 0.00000E+00
 -1      3278 2.23740E+01 1.25795E+01 0.00000E+00
 -1      3279 2.46240E+01 1.12805E+01 0.00000E+00
 -1      3280 2.83740E+01 1.25795E+01 0.00000E+00
 -1      3281 2.76240E+01 1.12805E+01 0.00000E+00
 -1      3282 2.61240E+01 1.12805E+01 0.00000E+00
 -1      3283 1.39320E+01 1.28898E+01 0.00000E+00
 -1      3284 9.36636E+01 2.01319E+01 0.00000E+00
 -1      3285 1.35286E+02 1.18598E+01 0.00000E+00
 -1      3286 1.33829E+02 1.17739E+01 0.00000E+00
 -1      3287 1.33079E+02 1.30729E+01 0.00000E+00
 -1      3288 1.35488E+02 1.40598E+01 0.00000E+00
 -1      3289 1.03010E+02 2.85769E+01 0.00000E+00
 -1      3290 1.03931E+02 2.91538E+01 0.00000E+00
 -1      3291 1.03676E+02 2.74549E+01 0.00000E+00
 -1      3292 8.72875E+01 2.07296E+01 0.00000E+00
 -1      3293 1.38150E+02 1.75766E+01 0.00000E+00
 -1      3294 1.38150E+02 1.61079E+01 0.00000E+00
 -1      3295 1.36692E+02 1.60220E+01 0.00000E+00
 -1      3296 1.01539E+02 2.54474E+01 0.00000E+00
 -1      3297 1.02840E+02 2.55435E+01 0.00000E+00
 -1      3298 1.01624E+02 2.41131E+01 0.00000E+00
 -1      3299 1.29900E+01 3.23250E+01 0.00000E+00
 -1      3300 1.16910E+01 3.30594E+01 0.00000E+00
 -1      3301 1.16910E+01 3.45281E+01 0.00000E+00
 -1      3302 1.36755E+02 3.56526E+01 0.00000E+00
 -1      3303 1.29900E+01 1.46687E+01 0.00000E+00
 -1      3304 1.16910E+01 1.54063E+01 0.00000E+00
 -1      3305 1.16910E+01 1.68750E+01 0.00000E+00
 -1      3306 7.53811E+01 3.60239E+01 0.00000E+00
 -1      3307 8.97261E+01 1.96520E+01 0.00000E+00
 -1      3308 9.05144E+01 2.01539E+01 0.00000E+00
 -1      3309 9.13698E+01 1.92819E+01 0.00000E+00
 -1      3310 7.30964E+01 3.71577E+01 0.00000E+00
 -1      3311 7.86847E+01 2.44747E+01 0.00000E+00
 -1      3312 7.88335E+01 2.32864E+01 0.00000E+00
 -1      3313 7.74632E+01 2.44660E+01 0.00000E+00
 -1      3314 7.54398E+01 3.32089E+01 0.00000E+00
 -1      3315 1.38230E+02 2.01914E+01 0.00000E+00
 -1      3316 1.38230E+02 1.87227E+01 0.00000E+00
 -1      3317 1.36771E+02 1.86368E+01 0.00000E+00
 -1      3318 1.36930E+02 2.09289E+01 0.00000E+00
 -1      3319 8.12637E+01 2.20906E+01 0.00000E+00
 -1      3320 8.13391E+01 2.08464E+01 0.00000E+00
 -1      3321 8.01303E+01 2.20510E+01 0.00000E+00
 -1      3322 1.04113E+02 3.82577E+01 0.00000E+00
 -1      3323 1.16910E+01 1.83469E+01 0.00000E+00
 -1      3324 1.16910E+01 1.98156E+01 0.00000E+00
 -1      3325 1.29900E+01 2.05531E+01 0.00000E+00
 -1      3326 1.29900E+01 1.76094E+01 0.00000E+00
 -1      3327 1.04863E+02 3.69812E+01 0.00000E+00
 -1      3328 1.74750E+01 3.57110E+01 0.00000E+00
 -1      3329 1.89750E+01 3.57110E+01 0.00000E+00
 -1      3330 2.04750E+01 3.57110E+01 0.00000E+00
 -1      3331 2.19750E+01 3.57110E+01 0.00000E+00
 -1      3332 1.97250E+01 3.44120E+01 0.00000E+00
 -1      3333 2.34750E+01 3.57110E+01 0.00000E+00
 -1      3334 2.49750E+01 3.57110E+01 0.00000E+00
 -1      3335 2.27250E+01 3.44120E+01 0.00000E+00
 -1      3336 2.64750E+01 3.57110E+01 0.00000E+00
 -1      3337 2.79750E+01 3.57110E+01 0.00000E+00
 -1      3338 2.57250E+01 3.44120E+01 0.00000E+00
 -1      3339 2.94750E+01 3.57110E+01 0.00000E+00
 -1      3340 3.09750E+01 3.57110E+01 0.00000E+00
 -1      3341 2.87250E+01 3.44120E+01 0.00000E+00
 -1      3342 3.24750E+01 3.57110E+01 0.00000E+00
 -1      3343 3.39750E+01 3.57110E+01 0.00000E+00
 -1      3344 3.17250E+01 3.44120E+01 0.00000E+00
 -1      3345 3.55500E+01 3.57110E+01 0.00000E+00
 -1      3346 3.71250E+01 3.57110E+01 0.00000E+00
 -1      3347 3.48000E+01 3.44120E+01 0.00000E+00
 -1      3348 3.86250E+01 3.57110E+01 0.00000E+00
 -1      3349 4.01250E+01 3.57110E+01 0.00000E+00
 -1      3350 3.78750E+01 3.44120E+01 0.00000E+00
 -1      3351 4.16250E+01 3.57110E+01 0.00000E+00
 -1      3352 4.31250E+01 3.57110E+01 0.00000E+00
 -1      3353 4.08750E+01 3.44120E+01 0.00000E+00
 -1      3354 4.46250E+01 3.57110E+01 0.00000E+00
 -1      3355 4.61250E+01 3.57110E+01 0.00000E+00
 -1      3356 4.38750E+01 3.44120E+01 0.00000E+00
 -1      3357 4.76250E+01 3.57110E+01 0.00000E+00
 -1      3358 4.91250E+01 3.57110E+01 0.00000E+00
 -1      3359 4.68750E+01 3.44120E+01 0.00000E+00
 -1      3360 5.06250E+01 3.57110E+01 0.00000E+00
 -1      3361 5.21250E+01 3.57110E+01 0.00000E+00
 -1      3362 4.98750E+01 3.44120E+01 0.00000E+00
 -1      3363 5.36250E+01 3.57110E+01 0.00000E+00
 -1      3364 5.51250E+01 3.57110E+01 0.00000E+00
 -1      3365 5.28750E+01 3.44120E+01 0.00000E+00
 -1      3366 5.67000E+01 3.57110E+01 0.00000E+00
 -1      3367 5.82750E+01 3.57110E+01 0.00000E+00
 -1      3368 5.59500E+01 3.44120E+01 0.00000E+00
 -1      3369 5.97750E+01 3.57110E+01 0.00000E+00
 -1      3370 6.12750E+01 3.57110E+01 0.00000E+00
 -1      3371 5.90250E+01 3.44120E+01 0.00000E+00
 -1      3372 6.27750E+01 3.57110E+01 0.00000E+00
 -1      3373 6.42750E+01 3.57110E+01 0.00000E+00
 -1      3374 6.20250E+01 3.44120E+01 0.00000E+00
 -1      3375 6.57750E+01 3.57110E+01 0.00000E+00
 -1      3376 6.72750E+01 3.57110E+01 0.00000E+00
 -1      3377 6.50250E+01 3.44120E+01 0.00000E+00
 -1      3378 6.87750E+01 3.57110E+01 0.00000E+00
 -1      3379 7.02750E+01 3.57110E+01 0.00000E+00
 -1      3380 6.80250E+01 3.44120E+01 0.00000E+00
 -1      3381 1.16910E+01 2.86531E+01 0.00000E+00
 -1      3382 1.29900E+01 2.93875E+01 0.00000E+00
 -1      3383 1.16910E+01 2.71844E+01 0.00000E+00
 -1      3384 1.10100E+02 3.61813E+01 0.00000E+00
 -1      3385 1.11600E+02 3.61813E+01 0.00000E+00
 -1      3386 1.13100E+02 3.61813E+01 0.00000E+00
 -1      3387 1.14600E+02 3.61813E+01 0.00000E+00
 -1      3388 1.12350E+02 3.48823E+01 0.00000E+00
 -1      3389 1.16100E+02 3.61813E+01 0.00000E+00
 -1      3390 1.17600E+02 3.61813E+01 0.00000E+00
 -1      3391 1.15350E+02 3.48823E+01 0.00000E+00
 -1      3392 1.19175E+02 3.61813E+01 0.00000E+00
 -1      3393 1.20750E+02 3.61813E+01 0.00000E+00
 -1      3394 1.18425E+02 3.48823E+01 0.00000E+00
 -1      3395 1.22250E+02 3.61813E+01 0.00000E+00
 -1      3396 1.23750E+02 3.61813E+01 0.00000E+00
 -1      3397 1.21500E+02 3.48823E+01 0.00000E+00
 -1      3398 1.25250E+02 3.61813E+01 0.00000E+00
 -1      3399 1.26750E+02 3.61813E+01 0.00000E+00
 -1      3400 1.24500E+02 3.48823E+01 0.00000E+00
 -1      3401 1.28250E+02 3.61813E+01 0.00000E+00
 -1      3402 1.29750E+02 3.61813E+01 0.00000E+00
 -1      3403 1.27500E+02 3.48823E+01 0.00000E+00
 -1      3404 1.31250E+02 3.61813E+01 0.00000E+00
 -1      3405 1.32750E+02 3.61813E+01 0.00000E+00
 -1      3406 1.30500E+02 3.48823E+01 0.00000E+00
 -1      3407 1.34003E+02 3.59169E+01 0.00000E+00
 -1      3408 1.35503E+02 3.59169E+01 0.00000E+00
 -1      3409 1.35758E+02 3.40893E+01 0.00000E+00
 -1      3410 1.33253E+02 3.46179E+01 0.00000E+00
 -1      3411 3.21240E+01 1.38785E+01 0.00000E+00
 -1      3412 3.06240E+01 1.38785E+01 0.00000E+00
 -1      3413 4.41240E+01 1.38785E+01 0.00000E+00
 -1      3414 4.26240E+01 1.38785E+01 0.00000E+00
 -1      3415 4.11240E+01 1.38785E+01 0.00000E+00
 -1      3416 3.96240E+01 1.38785E+01 0.00000E+00
 -1      3417 4.18740E+01 1.51775E+01 0.00000E+00
 -1      3418 5.01240E+01 1.38785E+01 0.00000E+00
 -1      3419 4.86240E+01 1.38785E+01 0.00000E+00
 -1      3420 5.31240E+01 1.38785E+01 0.00000E+00
 -1      3421 5.16240E+01 1.38785E+01 0.00000E+00
 -1      3422 5.08740E+01 1.51775E+01 0.00000E+00
 -1      3423 5.61240E+01 1.38785E+01 0.00000E+00
 -1      3424 5.46240E+01 1.38785E+01 0.00000E+00
 -1      3425 5.38740E+01 1.51775E+01 0.00000E+00
 -1      3426 5.91240E+01 1.38785E+01 0.00000E+00
 -1      3427 5.76240E+01 1.38785E+01 0.00000E+00
 -1      3428 5.68740E+01 1.51775E+01 0.00000E+00
 -1      3429 6.21240E+01 1.38785E+01 0.00000E+00
 -1      3430 6.06240E+01 1.38785E+01 0.00000E+00
 -1      3431 5.98740E+01 1.51775E+01 0.00000E+00
 -1      3432 6.51240E+01 1.38785E+01 0.00000E+00
 -1      3433 6.36240E+01 1.38785E+01 0.00000E+00
 -1      3434 6.28740E+01 1.51775E+01 0.00000E+00
 -1      3435 6.81240E+01 1.38785E+01 0.00000E+00
 -1      3436 6.66240E+01 1.38785E+01 0.00000E+00
 -1      3437 6.58740E+01 1.51775E+01 0.00000E+00
 -1      3438 7.11240E+01 1.38785E+01 0.00000E+00
 -1      3439 6.96240E+01 1.38785E+01 0.00000E+00
 -1      3440 6.88740E+01 1.51775E+01 0.00000E+00
 -1      3441 7.41240E+01 1.38785E+01 0.00000E+00
 -1      3442 7.26240E+01 1.38785E+01 0.00000E+00
 -1      3443 7.18740E+01 1.51775E+01 0.00000E+00
 -1      3444 7.71240E+01 1.38785E+01 0.00000E+00
 -1      3445 7.56240E+01 1.38785E+01 0.00000E+00
 -1      3446 7.48740E+01 1.51775E+01 0.00000E+00
 -1      3447 8.01240E+01 1.38785E+01 0.00000E+00
 -1      3448 7.86240E+01 1.38785E+01 0.00000E+00
 -1      3449 7.78740E+01 1.51775E+01 0.00000E+00
 -1      3450 8.31240E+01 1.38785E+01 0.00000E+00
 -1      3451 8.16240E+01 1.38785E+01 0.00000E+00
 -1      3452 8.08740E+01 1.51775E+01 0.00000E+00
 -1      3453 8.61240E+01 1.38785E+01 0.00000E+00
 -1      3454 8.46240E+01 1.38785E+01 0.00000E+00
 -1      3455 8.38740E+01 1.51775E+01 0.00000E+00
 -1      3456 8.91240E+01 1.38785E+01 0.00000E+00
 -1      3457 8.76240E+01 1.38785E+01 0.00000E+00
 -1      3458 8.68740E+01 1.51775E+01 0.00000E+00
 -1      3459 9.21240E+01 1.38785E+01 0.00000E+00
 -1      3460 9.06240E+01 1.38785E+01 0.00000E+00
 -1      3461 8.98740E+01 1.51775E+01 0.00000E+00
 -1      3462 9.51240E+01 1.38785E+01 0.00000E+00
 -1      3463 9.36240E+01 1.38785E+01 0.00000E+00
 -1      3464 9.28740E+01 1.51775E+01 0.00000E+00
 -1      3465 9.81240E+01 1.38785E+01 0.00000E+00
 -1      3466 9.66240E+01 1.38785E+01 0.00000E+00
 -1      3467 9.58740E+01 1.51775E+01 0.00000E+00
 -1      3468 1.01124E+02 1.38785E+01 0.00000E+00
 -1      3469 9.96240E+01 1.38785E+01 0.00000E+00
 -1      3470 9.88740E+01 1.51775E+01 0.00000E+00
 -1      3471 1.04124E+02 1.38785E+01 0.00000E+00
 -1      3472 1.02624E+02 1.38785E+01 0.00000E+00
 -1      3473 1.01874E+02 1.51775E+01 0.00000E+00
 -1      3474 1.07124E+02 1.38785E+01 0.00000E+00
 -1      3475 1.05624E+02 1.38785E+01 0.00000E+00
 -1      3476 1.04874E+02 1.51775E+01 0.00000E+00
 -1      3477 1.10124E+02 1.38785E+01 0.00000E+00
 -1      3478 1.08624E+02 1.38785E+01 0.00000E+00
 -1      3479 1.07874E+02 1.51775E+01 0.00000E+00
 -1      3480 1.13124E+02 1.38785E+01 0.00000E+00
 -1      3481 1.11624E+02 1.38785E+01 0.00000E+00
 -1      3482 1.10874E+02 1.51775E+01 0.00000E+00
 -1      3483 1.16124E+02 1.38785E+01 0.00000E+00
 -1      3484 1.14624E+02 1.38785E+01 0.00000E+00
 -1      3485 1.13874E+02 1.51775E+01 0.00000E+00
 -1      3486 1.19124E+02 1.38785E+01 0.00000E+00
 -1      3487 1.17624E+02 1.38785E+01 0.00000E+00
 -1      3488 1.16874E+02 1.51775E+01 0.00000E+00
 -1      3489 1.22124E+02 1.38785E+01 0.00000E+00
 -1      3490 1.20624E+02 1.38785E+01 0.00000E+00
 -1      3491 1.19874E+02 1.51775E+01 0.00000E+00
 -1      3492 1.25124E+02 1.38785E+01 0.00000E+00
 -1      3493 1.23624E+02 1.38785E+01 0.00000E+00
 -1      3494 1.22874E+02 1.51775E+01 0.00000E+00
 -1      3495 1.28124E+02 1.38785E+01 0.00000E+00
 -1      3496 1.26624E+02 1.38785E+01 0.00000E+00
 -1      3497 1.25874E+02 1.51775E+01 0.00000E+00
 -1      3498 1.31124E+02 1.38785E+01 0.00000E+00
 -1      3499 1.29624E+02 1.38785E+01 0.00000E+00
 -1      3500 1.28874E+02 1.51775E+01 0.00000E+00
 -1      3501 1.48741E+01 1.40483E+01 0.00000E+00
 -1      3502 1.39320E+01 1.43585E+01 0.00000E+00
 -1      3503 1.39320E+01 1.58273E+01 0.00000E+00
 -1      3504 1.35758E+02 3.26143E+01 0.00000E+00
 -1      3505 1.35758E+02 3.11393E+01 0.00000E+00
 -1      3506 1.34505E+02 3.28786E+01 0.00000E+00
 -1      3507 1.35758E+02 2.96893E+01 0.00000E+00
 -1      3508 1.35758E+02 2.82393E+01 0.00000E+00
 -1      3509 1.34505E+02 2.99536E+01 0.00000E+00
 -1      3510 9.65792E+01 1.97792E+01 0.00000E+00
 -1      3511 9.81334E+01 2.06464E+01 0.00000E+00
 -1      3512 1.35758E+02 2.67643E+01 0.00000E+00
 -1      3513 1.35758E+02 2.52893E+01 0.00000E+00
 -1      3514 1.34505E+02 2.70286E+01 0.00000E+00
 -1      3515 1.04556E+02 3.06862E+01 0.00000E+00
 -1      3516 1.05018E+02 3.21678E+01 0.00000E+00
 -1      3517 1.35758E+02 2.38143E+01 0.00000E+00
 -1      3518 1.35758E+02 2.23393E+01 0.00000E+00
 -1      3519 1.34505E+02 2.40786E+01 0.00000E+00
 -1      3520 7.44286E+01 3.06772E+01 0.00000E+00
 -1      3521 7.47309E+01 2.90569E+01 0.00000E+00
 -1      3522 1.24657E+01 3.72865E+01 0.00000E+00
 -1      3523 1.05673E+02 3.61460E+01 0.00000E+00
 -1      3524 7.44138E+01 3.40868E+01 0.00000E+00
 -1      3525 7.42592E+01 3.25533E+01 0.00000E+00
 -1      3526 9.95774E+01 2.17701E+01 0.00000E+00
 -1      3527 1.00600E+02 2.26714E+01 0.00000E+00
 -1      3528 4.71240E+01 1.38785E+01 0.00000E+00
 -1      3529 4.56240E+01 1.38785E+01 0.00000E+00
 -1      3530 4.48740E+01 1.51775E+01 0.00000E+00
 -1      3531 4.78740E+01 1.51775E+01 0.00000E+00
 -1      3532 9.31606E+01 1.88774E+01 0.00000E+00
 -1      3533 9.46662E+01 1.92255E+01 0.00000E+00
 -1      3534 8.63531E+01 1.97327E+01 0.00000E+00
 -1      3535 8.79362E+01 1.95271E+01 0.00000E+00
 -1      3536 7.52590E+01 2.72340E+01 0.00000E+00
 -1      3537 7.59713E+01 2.58438E+01 0.00000E+00
 -1      3538 7.76874E+01 2.20335E+01 0.00000E+00
 -1      3539 7.89088E+01 2.20422E+01 0.00000E+00
 -1      3540 7.89842E+01 2.07981E+01 0.00000E+00
 -1      3541 8.19880E+01 2.00845E+01 0.00000E+00
 -1      3542 8.26370E+01 1.93225E+01 0.00000E+00
 -1      3543 8.08546E+01 2.00448E+01 0.00000E+00
 -1      3544 7.13791E+01 3.39216E+01 0.00000E+00
 -1      3545 7.21291E+01 3.52206E+01 0.00000E+00
 -1      3546 1.05421E+02 3.29542E+01 0.00000E+00
 -1      3547 1.05824E+02 3.37406E+01 0.00000E+00
 -1      3548 1.06248E+02 3.18830E+01 0.00000E+00
 -1      3549 1.29900E+01 2.64469E+01 0.00000E+00
 -1      3550 2.53740E+01 1.25795E+01 0.00000E+00
 -1      3551 2.01240E+01 1.38785E+01 0.00000E+00
 -1      3552 1.86240E+01 1.38785E+01 0.00000E+00
 -1      3553 2.98740E+01 1.51775E+01 0.00000E+00
 -1      3554 2.91240E+01 1.38785E+01 0.00000E+00
 -1      3555 2.76240E+01 1.38785E+01 0.00000E+00
 -1      3556 2.31240E+01 1.38785E+01 0.00000E+00
 -1      3557 2.16240E+01 1.38785E+01 0.00000E+00
 -1      3558 2.08740E+01 1.51775E+01 0.00000E+00
 -1      3559 1.51927E+01 3.57749E+01 0.00000E+00
 -1      3560 1.63339E+01 3.57429E+01 0.00000E+00
 -1      3561 1.70839E+01 3.44439E+01 0.00000E+00
 -1      3562 1.05221E+02 2.95642E+01 0.00000E+00
 -1      3563 1.74990E+01 1.39634E+01 0.00000E+00
 -1      3564 1.59991E+01 1.39634E+01 0.00000E+00
 -1      3565 1.59991E+01 1.54321E+01 0.00000E+00
 -1      3566 1.82490E+01 1.52624E+01 0.00000E+00
 -1      3567 9.60762E+01 1.85247E+01 0.00000E+00
 -1      3568 3.88740E+01 1.51775E+01 0.00000E+00
 -1      3569 3.81240E+01 1.38785E+01 0.00000E+00
 -1      3570 3.66240E+01 1.38785E+01 0.00000E+00
 -1      3571 1.32329E+02 1.43719E+01 0.00000E+00
 -1      3572 1.31579E+02 1.56709E+01 0.00000E+00
 -1      3573 1.33533E+02 1.48654E+01 0.00000E+00
 -1      3574 1.03761E+02 2.61205E+01 0.00000E+00
 -1      3575 1.04682E+02 2.66974E+01 0.00000E+00
 -1      3576 1.03846E+02 2.47861E+01 0.00000E+00
 -1      3577 1.35715E+02 1.56904E+01 0.00000E+00
 -1      3578 1.34510E+02 1.51970E+01 0.00000E+00
 -1      3579 1.33760E+02 1.64960E+01 0.00000E+00
 -1      3580 1.35715E+02 1.71592E+01 0.00000E+00
 -1      3581 1.01901E+02 2.27675E+01 0.00000E+00
 -1      3582 1.42890E+01 2.86531E+01 0.00000E+00
 -1      3583 1.42890E+01 3.01219E+01 0.00000E+00
 -1      3584 7.41001E+01 2.78561E+01 0.00000E+00
 -1      3585 7.34694E+01 2.66554E+01 0.00000E+00
 -1      3586 7.29413E+01 2.84783E+01 0.00000E+00
 -1      3587 1.42890E+01 2.27625E+01 0.00000E+00
 -1      3588 1.42890E+01 2.42375E+01 0.00000E+00
 -1      3589 9.94333E+01 2.02021E+01 0.00000E+00
 -1      3590 8.87917E+01 1.86551E+01 0.00000E+00
 -1      3591 7.34026E+01 3.15552E+01 0.00000E+00
 -1      3592 8.53861E+01 1.89462E+01 0.00000E+00
 -1      3593 1.34426E+02 2.14576E+01 0.00000E+00
 -1      3594 1.35678E+02 2.11933E+01 0.00000E+00
 -1      3595 1.35598E+02 2.00472E+01 0.00000E+00
 -1      3596 7.61201E+01 2.46555E+01 0.00000E+00
 -1      3597 7.62690E+01 2.34671E+01 0.00000E+00
 -1      3598 7.47771E+01 2.48449E+01 0.00000E+00
 -1      3599 1.07100E+02 3.62038E+01 0.00000E+00
 -1      3600 1.08600E+02 3.62038E+01 0.00000E+00
 -1      3601 1.57654E+01 3.19317E+01 0.00000E+00
 -1      3602 1.44664E+01 3.26661E+01 0.00000E+00
 -1      3603 7.42005E+01 3.53684E+01 0.00000E+00
 -1      3604 1.42890E+01 1.98188E+01 0.00000E+00
 -1      3605 1.42890E+01 2.12906E+01 0.00000E+00
 -1      3606 1.55880E+01 2.20281E+01 0.00000E+00
 -1      3607 3.51240E+01 1.38785E+01 0.00000E+00
 -1      3608 3.36240E+01 1.38785E+01 0.00000E+00
 -1      3609 3.28740E+01 1.51775E+01 0.00000E+00
 -1      3610 3.58740E+01 1.51775E+01 0.00000E+00
 -1      3611 1.09350E+02 3.49048E+01 0.00000E+00
 -1      3612 1.24174E+01 3.61682E+01 0.00000E+00
 -1      3613 1.06423E+02 3.48695E+01 0.00000E+00
 -1      3614 6.96944E+01 3.25359E+01 0.00000E+00
 -1      3615 7.15485E+01 3.20455E+01 0.00000E+00
 -1      3616 7.17179E+01 3.01694E+01 0.00000E+00
 -1      3617 2.19750E+01 3.31130E+01 0.00000E+00
 -1      3618 2.34750E+01 3.31130E+01 0.00000E+00
 -1      3619 2.49750E+01 3.31130E+01 0.00000E+00
 -1      3620 2.64750E+01 3.31130E+01 0.00000E+00
 -1      3621 2.42250E+01 3.18140E+01 0.00000E+00
 -1      3622 2.79750E+01 3.31130E+01 0.00000E+00
 -1      3623 2.94750E+01 3.31130E+01 0.00000E+00
 -1      3624 2.72250E+01 3.18140E+01 0.00000E+00
 -1      3625 3.09750E+01 3.31130E+01 0.00000E+00
 -1      3626 3.24750E+01 3.31130E+01 0.00000E+00
 -1      3627 3.02250E+01 3.18140E+01 0.00000E+00
 -1      3628 3.40500E+01 3.31130E+01 0.00000E+00
 -1      3629 3.56250E+01 3.31130E+01 0.00000E+00
 -1      3630 3.33000E+01 3.18140E+01 0.00000E+00
 -1      3631 3.71250E+01 3.31130E+01 0.00000E+00
 -1      3632 3.86250E+01 3.31130E+01 0.00000E+00
 -1      3633 3.63750E+01 3.18140E+01 0.00000E+00
 -1      3634 4.01250E+01 3.31130E+01 0.00000E+00
 -1      3635 4.16250E+01 3.31130E+01 0.00000E+00
 -1      3636 3.93750E+01 3.18140E+01 0.00000E+00
 -1      3637 4.31250E+01 3.31130E+01 0.00000E+00
 -1      3638 4.46250E+01 3.31130E+01 0.00000E+00
 -1      3639 4.23750E+01 3.18140E+01 0.00000E+00
 -1      3640 4.61250E+01 3.31130E+01 0.00000E+00
 -1      3641 4.76250E+01 3.31130E+01 0.00000E+00
 -1      3642 4.53750E+01 3.18140E+01 0.00000E+00
 -1      3643 4.91250E+01 3.31130E+01 0.00000E+00
 -1      3644 5.06250E+01 3.31130E+01 0.00000E+00
 -1      3645 4.83750E+01 3.18140E+01 0.00000E+00
 -1      3646 5.21250E+01 3.31130E+01 0.00000E+00
 -1      3647 5.36250E+01 3.31130E+01 0.00000E+00
 -1      3648 5.13750E+01 3.18140E+01 0.00000E+00
 -1      3649 5.52000E+01 3.31130E+01 0.00000E+00
 -1      3650 5.67750E+01 3.31130E+01 0.00000E+00
 -1      3651 5.44500E+01 3.18140E+01 0.00000E+00
 -1      3652 5.82750E+01 3.31130E+01 0.00000E+00
 -1      3653 5.97750E+01 3.31130E+01 0.00000E+00
 -1      3654 5.75250E+01 3.18140E+01 0.00000E+00
 -1      3655 6.12750E+01 3.31130E+01 0.00000E+00
 -1      3656 6.27750E+01 3.31130E+01 0.00000E+00
 -1      3657 6.05250E+01 3.18140E+01 0.00000E+00
 -1      3658 6.42750E+01 3.31130E+01 0.00000E+00
 -1      3659 6.57750E+01 3.31130E+01 0.00000E+00
 -1      3660 6.35250E+01 3.18140E+01 0.00000E+00
 -1      3661 6.69847E+01 3.28244E+01 0.00000E+00
 -1      3662 6.84847E+01 3.28244E+01 0.00000E+00
 -1      3663 6.86541E+01 3.09483E+01 0.00000E+00
 -1      3664 6.62347E+01 3.15254E+01 0.00000E+00
 -1      3665 2.61240E+01 1.38785E+01 0.00000E+00
 -1      3666 2.46240E+01 1.38785E+01 0.00000E+00
 -1      3667 2.38740E+01 1.51775E+01 0.00000E+00
 -1      3668 2.68740E+01 1.51775E+01 0.00000E+00
 -1      3669 1.14600E+02 3.35833E+01 0.00000E+00
 -1      3670 1.16100E+02 3.35833E+01 0.00000E+00
 -1      3671 1.17675E+02 3.35833E+01 0.00000E+00
 -1      3672 1.19250E+02 3.35833E+01 0.00000E+00
 -1      3673 1.16925E+02 3.22843E+01 0.00000E+00
 -1      3674 1.20750E+02 3.35833E+01 0.00000E+00
 -1      3675 1.22250E+02 3.35833E+01 0.00000E+00
 -1      3676 1.20000E+02 3.22843E+01 0.00000E+00
 -1      3677 1.23750E+02 3.35833E+01 0.00000E+00
 -1      3678 1.25250E+02 3.35833E+01 0.00000E+00
 -1      3679 1.23000E+02 3.22843E+01 0.00000E+00
 -1      3680 1.26750E+02 3.35833E+01 0.00000E+00
 -1      3681 1.28250E+02 3.35833E+01 0.00000E+00
 -1      3682 1.26000E+02 3.22843E+01 0.00000E+00
 -1      3683 1.29750E+02 3.35833E+01 0.00000E+00
 -1      3684 1.31250E+02 3.35833E+01 0.00000E+00
 -1      3685 1.29000E+02 3.22843E+01 0.00000E+00
 -1      3686 1.32251E+02 3.33631E+01 0.00000E+00
 -1      3687 1.33504E+02 3.30988E+01 0.00000E+00
 -1      3688 1.33504E+02 3.16238E+01 0.00000E+00
 -1      3689 1.31501E+02 3.20641E+01 0.00000E+00
 -1      3690 9.19156E+01 1.85081E+01 0.00000E+00
 -1      3691 9.29182E+01 1.76017E+01 0.00000E+00
 -1      3692 5.46240E+01 1.64765E+01 0.00000E+00
 -1      3693 5.31240E+01 1.64765E+01 0.00000E+00
 -1      3694 5.16240E+01 1.64765E+01 0.00000E+00
 -1      3695 5.01240E+01 1.64765E+01 0.00000E+00
 -1      3696 5.23740E+01 1.77755E+01 0.00000E+00
 -1      3697 6.06240E+01 1.64765E+01 0.00000E+00
 -1      3698 5.91240E+01 1.64765E+01 0.00000E+00
 -1      3699 6.36240E+01 1.64765E+01 0.00000E+00
 -1      3700 6.21240E+01 1.64765E+01 0.00000E+00
 -1      3701 6.13740E+01 1.77755E+01 0.00000E+00
 -1      3702 6.66240E+01 1.64765E+01 0.00000E+00
 -1      3703 6.51240E+01 1.64765E+01 0.00000E+00
 -1      3704 6.43740E+01 1.77755E+01 0.00000E+00
 -1      3705 6.96240E+01 1.64765E+01 0.00000E+00
 -1      3706 6.81240E+01 1.64765E+01 0.00000E+00
 -1      3707 6.73740E+01 1.77755E+01 0.00000E+00
 -1      3708 7.26240E+01 1.64765E+01 0.00000E+00
 -1      3709 7.11240E+01 1.64765E+01 0.00000E+00
 -1      3710 7.03740E+01 1.77755E+01 0.00000E+00
 -1      3711 7.56240E+01 1.64765E+01 0.00000E+00
 -1      3712 7.41240E+01 1.64765E+01 0.00000E+00
 -1      3713 7.33740E+01 1.77755E+01 0.00000E+00
 -1      3714 7.86240E+01 1.64765E+01 0.00000E+00
 -1      3715 7.71240E+01 1.64765E+01 0.00000E+00
 -1      3716 7.63740E+01 1.77755E+01 0.00000E+00
 -1      3717 8.19388E+01 1.72301E+01 0.00000E+00
 -1      3718 8.04388E+01 1.72301E+01 0.00000E+00
 -1      3719 8.45722E+01 1.72698E+01 0.00000E+00
 -1      3720 8.30722E+01 1.72698E+01 0.00000E+00
 -1      3721 8.76879E+01 1.68539E+01 0.00000E+00
 -1      3722 8.61879E+01 1.68539E+01 0.00000E+00
 -1      3723 9.30236E+01 1.62049E+01 0.00000E+00
 -1      3724 9.15236E+01 1.62049E+01 0.00000E+00
 -1      3725 9.57686E+01 1.65743E+01 0.00000E+00
 -1      3726 9.42686E+01 1.65743E+01 0.00000E+00
 -1      3727 9.96240E+01 1.64765E+01 0.00000E+00
 -1      3728 9.81240E+01 1.64765E+01 0.00000E+00
 -1      3729 1.02624E+02 1.64765E+01 0.00000E+00
 -1      3730 1.01124E+02 1.64765E+01 0.00000E+00
 -1      3731 1.00374E+02 1.77755E+01 0.00000E+00
 -1      3732 1.05624E+02 1.64765E+01 0.00000E+00
 -1      3733 1.04124E+02 1.64765E+01 0.00000E+00
 -1      3734 1.03374E+02 1.77755E+01 0.00000E+00
 -1      3735 1.08624E+02 1.64765E+01 0.00000E+00
 -1      3736 1.07124E+02 1.64765E+01 0.00000E+00
 -1      3737 1.06374E+02 1.77755E+01 0.00000E+00
 -1      3738 1.11624E+02 1.64765E+01 0.00000E+00
 -1      3739 1.10124E+02 1.64765E+01 0.00000E+00
 -1      3740 1.09374E+02 1.77755E+01 0.00000E+00
 -1      3741 1.14624E+02 1.64765E+01 0.00000E+00
 -1      3742 1.13124E+02 1.64765E+01 0.00000E+00
 -1      3743 1.12374E+02 1.77755E+01 0.00000E+00
 -1      3744 1.17624E+02 1.64765E+01 0.00000E+00
 -1      3745 1.16124E+02 1.64765E+01 0.00000E+00
 -1      3746 1.15374E+02 1.77755E+01 0.00000E+00
 -1      3747 1.20624E+02 1.64765E+01 0.00000E+00
 -1      3748 1.19124E+02 1.64765E+01 0.00000E+00
 -1      3749 1.18374E+02 1.77755E+01 0.00000E+00
 -1      3750 1.23624E+02 1.64765E+01 0.00000E+00
 -1      3751 1.22124E+02 1.64765E+01 0.00000E+00
 -1      3752 1.21374E+02 1.77755E+01 0.00000E+00
 -1      3753 1.26624E+02 1.64765E+01 0.00000E+00
 -1      3754 1.25124E+02 1.64765E+01 0.00000E+00
 -1      3755 1.24374E+02 1.77755E+01 0.00000E+00
 -1      3756 1.29624E+02 1.64765E+01 0.00000E+00
 -1      3757 1.28124E+02 1.64765E+01 0.00000E+00
 -1      3758 1.27374E+02 1.77755E+01 0.00000E+00
 -1      3759 1.49655E+01 1.63656E+01 0.00000E+00
 -1      3760 1.40235E+01 1.66759E+01 0.00000E+00
 -1      3761 1.40235E+01 1.81478E+01 0.00000E+00
 -1      3762 1.60905E+01 1.62808E+01 0.00000E+00
 -1      3763 9.11274E+01 1.80061E+01 0.00000E+00
 -1      3764 8.94778E+01 1.69787E+01 0.00000E+00
 -1      3765 1.42890E+01 2.57094E+01 0.00000E+00
 -1      3766 1.42890E+01 2.71812E+01 0.00000E+00
 -1      3767 1.55880E+01 2.79156E+01 0.00000E+00
 -1      3768 1.55880E+01 2.49719E+01 0.00000E+00
 -1      3769 1.33504E+02 3.01738E+01 0.00000E+00
 -1      3770 1.33504E+02 2.87238E+01 0.00000E+00
 -1      3771 1.32503E+02 3.03939E+01 0.00000E+00
 -1      3772 1.44664E+01 3.41348E+01 0.00000E+00
 -1      3773 1.37164E+01 3.54338E+01 0.00000E+00
 -1      3774 1.07251E+02 3.37983E+01 0.00000E+00
 -1      3775 1.02448E+02 2.12945E+01 0.00000E+00
 -1      3776 1.03472E+02 2.27362E+01 0.00000E+00
 -1      3777 1.33206E+02 2.48161E+01 0.00000E+00
 -1      3778 1.33206E+02 2.33411E+01 0.00000E+00
 -1      3779 1.33355E+02 2.75075E+01 0.00000E+00
 -1      3780 1.33355E+02 2.60325E+01 0.00000E+00
 -1      3781 1.32056E+02 2.52950E+01 0.00000E+00
 -1      3782 1.32354E+02 2.77276E+01 0.00000E+00
 -1      3783 5.76240E+01 1.64765E+01 0.00000E+00
 -1      3784 5.61240E+01 1.64765E+01 0.00000E+00
 -1      3785 5.53740E+01 1.77755E+01 0.00000E+00
 -1      3786 4.26240E+01 1.64765E+01 0.00000E+00
 -1      3787 4.11240E+01 1.64765E+01 0.00000E+00
 -1      3788 1.35696E+02 1.91762E+01 0.00000E+00
 -1      3789 1.35617E+02 1.80301E+01 0.00000E+00
 -1      3790 1.34640E+02 1.76985E+01 0.00000E+00
 -1      3791 1.34444E+02 1.94405E+01 0.00000E+00
 -1      3792 1.11600E+02 3.35833E+01 0.00000E+00
 -1      3793 1.13100E+02 3.35833E+01 0.00000E+00
 -1      3794 1.13850E+02 3.22843E+01 0.00000E+00
 -1      3795 1.06112E+02 2.83078E+01 0.00000E+00
 -1      3796 1.06736E+02 2.98402E+01 0.00000E+00
 -1      3797 1.89750E+01 3.31130E+01 0.00000E+00
 -1      3798 2.04750E+01 3.31130E+01 0.00000E+00
 -1      3799 2.12250E+01 3.18140E+01 0.00000E+00
 -1      3800 7.10872E+01 2.89686E+01 0.00000E+00
 -1      3801 1.04940E+02 2.18401E+01 0.00000E+00
 -1      3802 1.04393E+02 2.33131E+01 0.00000E+00
 -1      3803 1.05314E+02 2.38901E+01 0.00000E+00
 -1      3804 3.06240E+01 1.64765E+01 0.00000E+00
 -1      3805 2.91240E+01 1.64765E+01 0.00000E+00
 -1      3806 1.08030E+02 2.93702E+01 0.00000E+00
 -1      3807 1.07139E+02 3.06266E+01 0.00000E+00
 -1      3808 1.07542E+02 3.14130E+01 0.00000E+00
 -1      3809 4.03740E+01 1.77755E+01 0.00000E+00
 -1      3810 3.96240E+01 1.64765E+01 0.00000E+00
 -1      3811 3.81240E+01 1.64765E+01 0.00000E+00
 -1      3812 5.83740E+01 1.77755E+01 0.00000E+00
 -1      3813 2.16240E+01 1.64765E+01 0.00000E+00
 -1      3814 2.01240E+01 1.64765E+01 0.00000E+00
 -1      3815 1.86698E+01 1.63362E+01 0.00000E+00
 -1      3816 1.75448E+01 1.64211E+01 0.00000E+00
 -1      3817 1.65113E+01 1.73546E+01 0.00000E+00
 -1      3818 1.94198E+01 1.76352E+01 0.00000E+00
 -1      3819 4.93740E+01 1.77755E+01 0.00000E+00
 -1      3820 4.86240E+01 1.64765E+01 0.00000E+00
 -1      3821 4.71240E+01 1.64765E+01 0.00000E+00
 -1      3822 7.96888E+01 1.85291E+01 0.00000E+00
 -1      3823 9.00236E+01 1.62049E+01 0.00000E+00
 -1      3824 1.53225E+01 1.88853E+01 0.00000E+00
 -1      3825 1.30829E+02 1.69699E+01 0.00000E+00
 -1      3826 1.30079E+02 1.82689E+01 0.00000E+00
 -1      3827 1.32033E+02 1.74634E+01 0.00000E+00
 -1      3828 1.09641E+02 3.25194E+01 0.00000E+00
 -1      3829 1.10391E+02 3.12204E+01 0.00000E+00
 -1      3830 1.06282E+02 2.56391E+01 0.00000E+00
 -1      3831 1.06197E+02 2.69735E+01 0.00000E+00
 -1      3832 1.07712E+02 2.72495E+01 0.00000E+00
 -1      3833 7.63443E+01 2.22230E+01 0.00000E+00
 -1      3834 7.64197E+01 2.09788E+01 0.00000E+00
 -1      3835 7.50013E+01 2.24124E+01 0.00000E+00
 -1      3836 1.08141E+02 3.25419E+01 0.00000E+00
 -1      3837 7.24593E+01 2.60892E+01 0.00000E+00
 -1      3838 7.36182E+01 2.54671E+01 0.00000E+00
 -1      3839 7.37670E+01 2.42787E+01 0.00000E+00
 -1      3840 3.36240E+01 1.64765E+01 0.00000E+00
 -1      3841 3.21240E+01 1.64765E+01 0.00000E+00
 -1      3842 3.13740E+01 1.77755E+01 0.00000E+00
 -1      3843 1.69725E+01 3.05693E+01 0.00000E+00
 -1      3844 1.71499E+01 3.31134E+01 0.00000E+00
 -1      3845 1.33126E+02 2.21951E+01 0.00000E+00
 -1      3846 1.33047E+02 2.10490E+01 0.00000E+00
 -1      3847 1.31827E+02 2.29326E+01 0.00000E+00
 -1      3848 1.68870E+01 2.42359E+01 0.00000E+00
 -1      3849 1.68870E+01 2.57078E+01 0.00000E+00
 -1      3850 1.01376E+02 1.95507E+01 0.00000E+00
 -1      3851 1.02947E+02 1.95193E+01 0.00000E+00
 -1      3852 1.68870E+01 2.12922E+01 0.00000E+00
 -1      3853 1.68870E+01 2.27641E+01 0.00000E+00
 -1      3854 1.81860E+01 2.35000E+01 0.00000E+00
 -1      3855 4.41240E+01 1.64765E+01 0.00000E+00
 -1      3856 4.33740E+01 1.77755E+01 0.00000E+00
 -1      3857 4.56240E+01 1.64765E+01 0.00000E+00
 -1      3858 9.65186E+01 1.78733E+01 0.00000E+00
 -1      3859 1.68870E+01 2.71797E+01 0.00000E+00
 -1      3860 1.68870E+01 2.86516E+01 0.00000E+00
 -1      3861 1.81860E+01 2.64438E+01 0.00000E+00
 -1      3862 1.82715E+01 2.98333E+01 0.00000E+00
 -1      3863 7.90398E+01 1.92911E+01 0.00000E+00
 -1      3864 6.94413E+01 2.90660E+01 0.00000E+00
 -1      3865 7.06646E+01 2.73749E+01 0.00000E+00
 -1      3866 9.98757E+01 1.95507E+01 0.00000E+00
 -1      3867 2.64750E+01 3.05150E+01 0.00000E+00
 -1      3868 2.79750E+01 3.05150E+01 0.00000E+00
 -1      3869 2.94750E+01 3.05150E+01 0.00000E+00
 -1      3870 3.09750E+01 3.05150E+01 0.00000E+00
 -1      3871 2.87250E+01 2.92160E+01 0.00000E+00
 -1      3872 3.25500E+01 3.05150E+01 0.00000E+00
 -1      3873 3.41250E+01 3.05150E+01 0.00000E+00
 -1      3874 3.18000E+01 2.92160E+01 0.00000E+00
 -1      3875 3.56250E+01 3.05150E+01 0.00000E+00
 -1      3876 3.71250E+01 3.05150E+01 0.00000E+00
 -1      3877 3.48750E+01 2.92160E+01 0.00000E+00
 -1      3878 3.86250E+01 3.05150E+01 0.00000E+00
 -1      3879 4.01250E+01 3.05150E+01 0.00000E+00
 -1      3880 3.78750E+01 2.92160E+01 0.00000E+00
 -1      3881 4.16250E+01 3.05150E+01 0.00000E+00
 -1      3882 4.31250E+01 3.05150E+01 0.00000E+00
 -1      3883 4.08750E+01 2.92160E+01 0.00000E+00
 -1      3884 4.46250E+01 3.05150E+01 0.00000E+00
 -1      3885 4.61250E+01 3.05150E+01 0.00000E+00
 -1      3886 4.38750E+01 2.92160E+01 0.00000E+00
 -1      3887 4.76250E+01 3.05150E+01 0.00000E+00
 -1      3888 4.91250E+01 3.05150E+01 0.00000E+00
 -1      3889 4.68750E+01 2.92160E+01 0.00000E+00
 -1      3890 5.06250E+01 3.05150E+01 0.00000E+00
 -1      3891 5.21250E+01 3.05150E+01 0.00000E+00
 -1      3892 4.98750E+01 2.92160E+01 0.00000E+00
 -1      3893 5.37000E+01 3.05150E+01 0.00000E+00
 -1      3894 5.52750E+01 3.05150E+01 0.00000E+00
 -1      3895 5.29500E+01 2.92160E+01 0.00000E+00
 -1      3896 5.67750E+01 3.05150E+01 0.00000E+00
 -1      3897 5.82750E+01 3.05150E+01 0.00000E+00
 -1      3898 5.60250E+01 2.92160E+01 0.00000E+00
 -1      3899 5.97750E+01 3.05150E+01 0.00000E+00
 -1      3900 6.12750E+01 3.05150E+01 0.00000E+00
 -1      3901 5.90250E+01 2.92160E+01 0.00000E+00
 -1      3902 6.27750E+01 3.05150E+01 0.00000E+00
 -1      3903 6.42750E+01 3.05150E+01 0.00000E+00
 -1      3904 6.20250E+01 2.92160E+01 0.00000E+00
 -1      3905 5.31240E+01 1.90745E+01 0.00000E+00
 -1      3906 5.16240E+01 1.90745E+01 0.00000E+00
 -1      3907 1.16137E+02 3.09853E+01 0.00000E+00
 -1      3908 1.17713E+02 3.09853E+01 0.00000E+00
 -1      3909 1.82910E+01 3.30815E+01 0.00000E+00
 -1      3910 1.19213E+02 3.09853E+01 0.00000E+00
 -1      3911 1.20713E+02 3.09853E+01 0.00000E+00
 -1      3912 1.18425E+02 2.96863E+01 0.00000E+00
 -1      3913 1.22213E+02 3.09853E+01 0.00000E+00
 -1      3914 1.23713E+02 3.09853E+01 0.00000E+00
 -1      3915 1.21425E+02 2.96863E+01 0.00000E+00
 -1      3916 1.25213E+02 3.09853E+01 0.00000E+00
 -1      3917 1.26713E+02 3.09853E+01 0.00000E+00
 -1      3918 1.24425E+02 2.96863E+01 0.00000E+00
 -1      3919 1.28212E+02 3.09853E+01 0.00000E+00
 -1      3920 1.29712E+02 3.09853E+01 0.00000E+00
 -1      3921 1.27425E+02 2.96863E+01 0.00000E+00
 -1      3922 1.30607E+02 3.07997E+01 0.00000E+00
 -1      3923 1.31608E+02 3.05795E+01 0.00000E+00
 -1      3924 1.31608E+02 2.91295E+01 0.00000E+00
 -1      3925 1.29819E+02 2.95007E+01 0.00000E+00
 -1      3926 2.31240E+01 1.64765E+01 0.00000E+00
 -1      3927 2.23740E+01 1.77755E+01 0.00000E+00
 -1      3928 2.46240E+01 1.64765E+01 0.00000E+00
 -1      3929 5.91240E+01 1.90745E+01 0.00000E+00
 -1      3930 5.76240E+01 1.90745E+01 0.00000E+00
 -1      3931 6.51240E+01 1.90745E+01 0.00000E+00
 -1      3932 6.36240E+01 1.90745E+01 0.00000E+00
 -1      3933 6.21240E+01 1.90745E+01 0.00000E+00
 -1      3934 6.06240E+01 1.90745E+01 0.00000E+00
 -1      3935 6.28740E+01 2.03735E+01 0.00000E+00
 -1      3936 7.11240E+01 1.90745E+01 0.00000E+00
 -1      3937 6.96240E+01 1.90745E+01 0.00000E+00
 -1      3938 7.49753E+01 1.94719E+01 0.00000E+00
 -1      3939 7.34753E+01 1.94719E+01 0.00000E+00
 -1      3940 7.78184E+01 1.92824E+01 0.00000E+00
 -1      3941 7.63184E+01 1.92824E+01 0.00000E+00
 -1      3942 1.67768E+01 1.90256E+01 0.00000E+00
 -1      3943 1.90410E+01 3.17825E+01 0.00000E+00
 -1      3944 1.10124E+02 1.90745E+01 0.00000E+00
 -1      3945 1.08624E+02 1.90745E+01 0.00000E+00
 -1      3946 1.13124E+02 1.90745E+01 0.00000E+00
 -1      3947 1.11624E+02 1.90745E+01 0.00000E+00
 -1      3948 1.10874E+02 2.03735E+01 0.00000E+00
 -1      3949 1.16124E+02 1.90745E+01 0.00000E+00
 -1      3950 1.14624E+02 1.90745E+01 0.00000E+00
 -1      3951 1.13874E+02 2.03735E+01 0.00000E+00
 -1      3952 1.19124E+02 1.90745E+01 0.00000E+00
 -1      3953 1.17624E+02 1.90745E+01 0.00000E+00
 -1      3954 1.16874E+02 2.03735E+01 0.00000E+00
 -1      3955 1.22124E+02 1.90745E+01 0.00000E+00
 -1      3956 1.20624E+02 1.90745E+01 0.00000E+00
 -1      3957 1.19874E+02 2.03735E+01 0.00000E+00
 -1      3958 1.25124E+02 1.90745E+01 0.00000E+00
 -1      3959 1.23624E+02 1.90745E+01 0.00000E+00
 -1      3960 1.22874E+02 2.03735E+01 0.00000E+00
 -1      3961 1.28124E+02 1.90745E+01 0.00000E+00
 -1      3962 1.26624E+02 1.90745E+01 0.00000E+00
 -1      3963 1.25874E+02 2.03735E+01 0.00000E+00
 -1      3964 2.83740E+01 1.77755E+01 0.00000E+00
 -1      3965 2.76240E+01 1.64765E+01 0.00000E+00
 -1      3966 2.61240E+01 1.64765E+01 0.00000E+00
 -1      3967 5.61240E+01 1.90745E+01 0.00000E+00
 -1      3968 5.46240E+01 1.90745E+01 0.00000E+00
 -1      3969 5.38740E+01 2.03735E+01 0.00000E+00
 -1      3970 9.84316E+01 1.84270E+01 0.00000E+00
 -1      3971 1.04447E+02 1.95193E+01 0.00000E+00
 -1      3972 6.81240E+01 1.90745E+01 0.00000E+00
 -1      3973 6.66240E+01 1.90745E+01 0.00000E+00
 -1      3974 6.88740E+01 2.03735E+01 0.00000E+00
 -1      3975 1.94850E+01 2.57078E+01 0.00000E+00
 -1      3976 1.94850E+01 2.71797E+01 0.00000E+00
 -1      3977 3.66240E+01 1.64765E+01 0.00000E+00
 -1      3978 3.51240E+01 1.64765E+01 0.00000E+00
 -1      3979 3.73740E+01 1.77755E+01 0.00000E+00
 -1      3980 1.13137E+02 3.09853E+01 0.00000E+00
 -1      3981 1.14637E+02 3.09853E+01 0.00000E+00
 -1      3982 1.15425E+02 2.96863E+01 0.00000E+00
 -1      3983 1.09604E+02 2.96458E+01 0.00000E+00
 -1      3984 1.11563E+02 3.07097E+01 0.00000E+00
 -1      3985 1.12350E+02 2.94107E+01 0.00000E+00
 -1      3986 1.09201E+02 2.88594E+01 0.00000E+00
 -1      3987 2.34750E+01 3.05150E+01 0.00000E+00
 -1      3988 2.49750E+01 3.05150E+01 0.00000E+00
 -1      3989 2.57250E+01 2.92160E+01 0.00000E+00
 -1      3990 1.05871E+02 1.89359E+01 0.00000E+00
 -1      3991 1.05444E+02 2.06797E+01 0.00000E+00
 -1      3992 1.06364E+02 2.12567E+01 0.00000E+00
 -1      3993 1.07371E+02 1.89359E+01 0.00000E+00
 -1      3994 6.82315E+01 2.93546E+01 0.00000E+00
 -1      3995 5.08740E+01 2.03735E+01 0.00000E+00
 -1      3996 5.01240E+01 1.90745E+01 0.00000E+00
 -1      3997 4.86240E+01 1.90745E+01 0.00000E+00
 -1      3998 6.54847E+01 3.02264E+01 0.00000E+00
 -1      3999 6.66944E+01 2.99379E+01 0.00000E+00
 -1      4000 6.47347E+01 2.89274E+01 0.00000E+00
 -1      4001 2.31240E+01 1.90745E+01 0.00000E+00
 -1      4002 2.16240E+01 1.90745E+01 0.00000E+00
 -1      4003 1.33145E+02 2.01780E+01 0.00000E+00
 -1      4004 1.33243E+02 1.93070E+01 0.00000E+00
 -1      4005 1.31846E+02 2.09155E+01 0.00000E+00
 -1      4006 4.11240E+01 1.90745E+01 0.00000E+00
 -1      4007 3.96240E+01 1.90745E+01 0.00000E+00
 -1      4008 6.58740E+01 2.03735E+01 0.00000E+00
 -1      4009 1.95300E+01 1.99018E+01 0.00000E+00
 -1      4010 1.80758E+01 1.97615E+01 0.00000E+00
 -1      4011 5.98740E+01 2.03735E+01 0.00000E+00
 -1      4012 1.06829E+02 2.41661E+01 0.00000E+00
 -1      4013 7.27253E+01 2.07709E+01 0.00000E+00
 -1      4014 1.30565E+02 2.80988E+01 0.00000E+00
 -1      4015 1.31459E+02 2.79132E+01 0.00000E+00
 -1      4016 1.31310E+02 2.66969E+01 0.00000E+00
 -1      4017 2.02800E+01 2.12008E+01 0.00000E+00
 -1      4018 1.29329E+02 1.95679E+01 0.00000E+00
 -1      4019 2.91240E+01 1.90745E+01 0.00000E+00
 -1      4020 2.76240E+01 1.90745E+01 0.00000E+00
 -1      4021 5.68740E+01 2.03735E+01 0.00000E+00
 -1      4022 1.09372E+02 2.61907E+01 0.00000E+00
 -1      4023 1.09287E+02 2.75251E+01 0.00000E+00
 -1      4024 1.10861E+02 2.78007E+01 0.00000E+00
 -1      4025 1.08121E+02 2.02349E+01 0.00000E+00
 -1      4026 7.08134E+01 2.61866E+01 0.00000E+00
 -1      4027 7.09622E+01 2.49983E+01 0.00000E+00
 -1      4028 6.91675E+01 2.62840E+01 0.00000E+00
 -1      4029 3.43740E+01 1.77755E+01 0.00000E+00
 -1      4030 1.30571E+02 2.35955E+01 0.00000E+00
 -1      4031 1.30492E+02 2.24494E+01 0.00000E+00
 -1      4032 4.63740E+01 1.77755E+01 0.00000E+00
 -1      4033 4.41240E+01 1.90745E+01 0.00000E+00
 -1      4034 4.26240E+01 1.90745E+01 0.00000E+00
 -1      4035 4.18740E+01 2.03735E+01 0.00000E+00
 -1      4036 3.21240E+01 1.90745E+01 0.00000E+00
 -1      4037 3.06240E+01 1.90745E+01 0.00000E+00
 -1      4038 2.98740E+01 2.03735E+01 0.00000E+00
 -1      4039 1.98825E+01 2.27184E+01 0.00000E+00
 -1      4040 1.98825E+01 2.41903E+01 0.00000E+00
 -1      4041 2.11815E+01 2.49262E+01 0.00000E+00
 -1      4042 2.19765E+01 2.18911E+01 0.00000E+00
 -1      4043 1.95265E+01 2.88166E+01 0.00000E+00
 -1      4044 1.96120E+01 3.07343E+01 0.00000E+00
 -1      4045 1.31015E+02 2.57543E+01 0.00000E+00
 -1      4046 1.30866E+02 2.45380E+01 0.00000E+00
 -1      4047 1.29531E+02 2.40549E+01 0.00000E+00
 -1      4048 1.30121E+02 2.59399E+01 0.00000E+00
 -1      4049 1.33341E+02 1.84360E+01 0.00000E+00
 -1      4050 1.32363E+02 1.81045E+01 0.00000E+00
 -1      4051 2.08255E+01 2.80806E+01 0.00000E+00
 -1      4052 2.17960E+01 3.07658E+01 0.00000E+00
 -1      4053 2.25460E+01 2.94668E+01 0.00000E+00
 -1      4054 1.30590E+02 2.15784E+01 0.00000E+00
 -1      4055 1.30688E+02 2.07075E+01 0.00000E+00
 -1      4056 1.29334E+02 2.22414E+01 0.00000E+00
 -1      4057 1.07618E+02 2.13953E+01 0.00000E+00
 -1      4058 1.07114E+02 2.25557E+01 0.00000E+00
 -1      4059 1.08871E+02 2.15339E+01 0.00000E+00
 -1      4060 3.10125E+01 2.79170E+01 0.00000E+00
 -1      4061 3.25875E+01 2.79170E+01 0.00000E+00
 -1      4062 3.40875E+01 2.79170E+01 0.00000E+00
 -1      4063 3.55875E+01 2.79170E+01 0.00000E+00
 -1      4064 3.33000E+01 2.66180E+01 0.00000E+00
 -1      4065 3.70875E+01 2.79170E+01 0.00000E+00
 -1      4066 3.85875E+01 2.79170E+01 0.00000E+00
 -1      4067 3.63000E+01 2.66180E+01 0.00000E+00
 -1      4068 4.00875E+01 2.79170E+01 0.00000E+00
 -1      4069 4.15875E+01 2.79170E+01 0.00000E+00
 -1      4070 3.93000E+01 2.66180E+01 0.00000E+00
 -1      4071 4.30875E+01 2.79170E+01 0.00000E+00
 -1      4072 4.45875E+01 2.79170E+01 0.00000E+00
 -1      4073 4.23000E+01 2.66180E+01 0.00000E+00
 -1      4074 4.60875E+01 2.79170E+01 0.00000E+00
 -1      4075 4.75875E+01 2.79170E+01 0.00000E+00
 -1      4076 4.53000E+01 2.66180E+01 0.00000E+00
 -1      4077 4.90875E+01 2.79170E+01 0.00000E+00
 -1      4078 5.05875E+01 2.79170E+01 0.00000E+00
 -1      4079 4.83000E+01 2.66180E+01 0.00000E+00
 -1      4080 5.21625E+01 2.79170E+01 0.00000E+00
 -1      4081 5.37375E+01 2.79170E+01 0.00000E+00
 -1      4082 5.13750E+01 2.66180E+01 0.00000E+00
 -1      4083 5.52375E+01 2.79170E+01 0.00000E+00
 -1      4084 5.67375E+01 2.79170E+01 0.00000E+00
 -1      4085 5.44500E+01 2.66180E+01 0.00000E+00
 -1      4086 5.82375E+01 2.79170E+01 0.00000E+00
 -1      4087 5.97375E+01 2.79170E+01 0.00000E+00
 -1      4088 5.74500E+01 2.66180E+01 0.00000E+00
 -1      4089 6.12375E+01 2.79170E+01 0.00000E+00
 -1      4090 6.27375E+01 2.79170E+01 0.00000E+00
 -1      4091 6.04500E+01 2.66180E+01 0.00000E+00
 -1      4092 2.46240E+01 1.90745E+01 0.00000E+00
 -1      4093 2.38740E+01 2.03735E+01 0.00000E+00
 -1      4094 1.17675E+02 2.83873E+01 0.00000E+00
 -1      4095 1.19175E+02 2.83873E+01 0.00000E+00
 -1      4096 6.66240E+01 2.16725E+01 0.00000E+00
 -1      4097 6.51240E+01 2.16725E+01 0.00000E+00
 -1      4098 1.20675E+02 2.83873E+01 0.00000E+00
 -1      4099 1.22175E+02 2.83873E+01 0.00000E+00
 -1      4100 1.19925E+02 2.70883E+01 0.00000E+00
 -1      4101 1.23675E+02 2.83873E+01 0.00000E+00
 -1      4102 1.25175E+02 2.83873E+01 0.00000E+00
 -1      4103 1.22925E+02 2.70883E+01 0.00000E+00
 -1      4104 1.26675E+02 2.83873E+01 0.00000E+00
 -1      4105 1.28175E+02 2.83873E+01 0.00000E+00
 -1      4106 1.25925E+02 2.70883E+01 0.00000E+00
 -1      4107 1.29671E+02 2.82843E+01 0.00000E+00
 -1      4108 6.06240E+01 2.16725E+01 0.00000E+00
 -1      4109 5.91240E+01 2.16725E+01 0.00000E+00
 -1      4110 2.25045E+01 2.78299E+01 0.00000E+00
 -1      4111 1.08082E+02 2.43047E+01 0.00000E+00
 -1      4112 1.17624E+02 2.16725E+01 0.00000E+00
 -1      4113 1.16124E+02 2.16725E+01 0.00000E+00
 -1      4114 1.11871E+02 2.15339E+01 0.00000E+00
 -1      4115 1.10371E+02 2.15339E+01 0.00000E+00
 -1      4116 1.09868E+02 2.26943E+01 0.00000E+00
 -1      4117 1.20624E+02 2.16725E+01 0.00000E+00
 -1      4118 1.19124E+02 2.16725E+01 0.00000E+00
 -1      4119 1.18374E+02 2.29715E+01 0.00000E+00
 -1      4120 1.23624E+02 2.16725E+01 0.00000E+00
 -1      4121 1.22124E+02 2.16725E+01 0.00000E+00
 -1      4122 1.21374E+02 2.29715E+01 0.00000E+00
 -1      4123 1.26624E+02 2.16725E+01 0.00000E+00
 -1      4124 1.25124E+02 2.16725E+01 0.00000E+00
 -1      4125 1.24374E+02 2.29715E+01 0.00000E+00
 -1      4126 2.53740E+01 1.77755E+01 0.00000E+00
 -1      4127 5.76240E+01 2.16725E+01 0.00000E+00
 -1      4128 5.61240E+01 2.16725E+01 0.00000E+00
 -1      4129 5.83740E+01 2.29715E+01 0.00000E+00
 -1      4130 7.25732E+01 2.34453E+01 0.00000E+00
 -1      4131 7.37320E+01 2.28232E+01 0.00000E+00
 -1      4132 1.14675E+02 2.83873E+01 0.00000E+00
 -1      4133 1.16175E+02 2.83873E+01 0.00000E+00
 -1      4134 1.16925E+02 2.70883E+01 0.00000E+00
 -1      4135 7.38074E+01 2.15790E+01 0.00000E+00
 -1      4136 4.71240E+01 1.90745E+01 0.00000E+00
 -1      4137 4.56240E+01 1.90745E+01 0.00000E+00
 -1      4138 4.78740E+01 2.03735E+01 0.00000E+00
 -1      4139 3.81240E+01 1.90745E+01 0.00000E+00
 -1      4140 3.66240E+01 1.90745E+01 0.00000E+00
 -1      4141 3.88740E+01 2.03735E+01 0.00000E+00
 -1      4142 3.51240E+01 1.90745E+01 0.00000E+00
 -1      4143 3.36240E+01 1.90745E+01 0.00000E+00
 -1      4144 3.28740E+01 2.03735E+01 0.00000E+00
 -1      4145 3.58740E+01 2.03735E+01 0.00000E+00
 -1      4146 6.74815E+01 2.80556E+01 0.00000E+00
 -1      4147 6.98452E+01 2.27346E+01 0.00000E+00
 -1      4148 6.83452E+01 2.27346E+01 0.00000E+00
 -1      4149 5.46240E+01 2.16725E+01 0.00000E+00
 -1      4150 5.31240E+01 2.16725E+01 0.00000E+00
 -1      4151 5.53740E+01 2.29715E+01 0.00000E+00
 -1      4152 6.36240E+01 2.16725E+01 0.00000E+00
 -1      4153 6.21240E+01 2.16725E+01 0.00000E+00
 -1      4154 6.13740E+01 2.29715E+01 0.00000E+00
 -1      4155 6.43740E+01 2.29715E+01 0.00000E+00
 -1      4156 2.68740E+01 2.03735E+01 0.00000E+00
 -1      4157 2.61240E+01 1.90745E+01 0.00000E+00
 -1      4158 1.11981E+02 2.79562E+01 0.00000E+00
 -1      4159 1.13555E+02 2.82318E+01 0.00000E+00
 -1      4160 1.14305E+02 2.69328E+01 0.00000E+00
 -1      4161 1.12066E+02 2.66218E+01 0.00000E+00
 -1      4162 1.14747E+02 2.16032E+01 0.00000E+00
 -1      4163 1.13247E+02 2.16032E+01 0.00000E+00
 -1      4164 1.12744E+02 2.27636E+01 0.00000E+00
 -1      4165 1.15497E+02 2.29022E+01 0.00000E+00
 -1      4166 2.02960E+01 3.07658E+01 0.00000E+00
 -1      4167 2.49750E+01 2.79170E+01 0.00000E+00
 -1      4168 2.64750E+01 2.79170E+01 0.00000E+00
 -1      4169 2.79750E+01 2.79170E+01 0.00000E+00
 -1      4170 2.94750E+01 2.79170E+01 0.00000E+00
 -1      4171 2.72250E+01 2.66180E+01 0.00000E+00
 -1      4172 2.32545E+01 2.65309E+01 0.00000E+00
 -1      4173 7.09273E+01 2.35427E+01 0.00000E+00
 -1      4174 5.16240E+01 2.16725E+01 0.00000E+00
 -1      4175 5.01240E+01 2.16725E+01 0.00000E+00
 -1      4176 5.23740E+01 2.29715E+01 0.00000E+00
 -1      4177 3.02625E+01 2.66180E+01 0.00000E+00
 -1      4178 6.60932E+01 2.74506E+01 0.00000E+00
 -1      4179 6.76304E+01 2.68673E+01 0.00000E+00
 -1      4180 6.77792E+01 2.56790E+01 0.00000E+00
 -1      4181 6.38105E+01 2.78281E+01 0.00000E+00
 -1      4182 6.50202E+01 2.75395E+01 0.00000E+00
 -1      4183 6.51691E+01 2.63512E+01 0.00000E+00
 -1      4184 6.30230E+01 2.65291E+01 0.00000E+00
 -1      4185 2.49764E+01 2.18911E+01 0.00000E+00
 -1      4186 2.34765E+01 2.18911E+01 0.00000E+00
 -1      4187 2.30790E+01 2.34086E+01 0.00000E+00
 -1      4188 1.28921E+02 2.69853E+01 0.00000E+00
 -1      4189 3.06240E+01 2.16725E+01 0.00000E+00
 -1      4190 2.91240E+01 2.16725E+01 0.00000E+00
 -1      4191 2.78002E+01 2.17818E+01 0.00000E+00
 -1      4192 2.63002E+01 2.17818E+01 0.00000E+00
 -1      4193 2.59027E+01 2.32994E+01 0.00000E+00
 -1      4194 2.85502E+01 2.30808E+01 0.00000E+00
 -1      4195 1.30357E+02 2.00664E+01 0.00000E+00
 -1      4196 1.28403E+02 2.08719E+01 0.00000E+00
 -1      4197 1.27653E+02 2.21709E+01 0.00000E+00
 -1      4198 2.36520E+01 2.50133E+01 0.00000E+00
 -1      4199 1.09582E+02 2.43047E+01 0.00000E+00
 -1      4200 1.11157E+02 2.45803E+01 0.00000E+00
 -1      4201 3.96240E+01 2.16725E+01 0.00000E+00
 -1      4202 3.81240E+01 2.16725E+01 0.00000E+00
 -1      4203 4.48740E+01 2.03735E+01 0.00000E+00
 -1      4204 4.26240E+01 2.16725E+01 0.00000E+00
 -1      4205 4.11240E+01 2.16725E+01 0.00000E+00
 -1      4206 4.03740E+01 2.29715E+01 0.00000E+00
 -1      4207 1.19149E+02 2.50299E+01 0.00000E+00
 -1      4208 1.17649E+02 2.50299E+01 0.00000E+00
 -1      4209 1.31613E+02 1.94035E+01 0.00000E+00
 -1      4210 3.55500E+01 2.53190E+01 0.00000E+00
 -1      4211 3.70500E+01 2.53190E+01 0.00000E+00
 -1      4212 3.83370E+01 2.47948E+01 0.00000E+00
 -1      4213 3.98370E+01 2.47948E+01 0.00000E+00
 -1      4214 4.13370E+01 2.47948E+01 0.00000E+00
 -1      4215 4.28370E+01 2.47948E+01 0.00000E+00
 -1      4216 4.75500E+01 2.53190E+01 0.00000E+00
 -1      4217 4.90500E+01 2.53190E+01 0.00000E+00
 -1      4218 5.03370E+01 2.47948E+01 0.00000E+00
 -1      4219 5.19120E+01 2.47948E+01 0.00000E+00
 -1      4220 5.34120E+01 2.47948E+01 0.00000E+00
 -1      4221 5.49120E+01 2.47948E+01 0.00000E+00
 -1      4222 5.64120E+01 2.47948E+01 0.00000E+00
 -1      4223 5.79120E+01 2.47948E+01 0.00000E+00
 -1      4224 5.94120E+01 2.47948E+01 0.00000E+00
 -1      4225 6.09120E+01 2.47948E+01 0.00000E+00
 -1      4226 3.21240E+01 2.16725E+01 0.00000E+00
 -1      4227 3.13740E+01 2.29715E+01 0.00000E+00
 -1      4228 3.36240E+01 2.16725E+01 0.00000E+00
 -1      4229 1.22149E+02 2.50299E+01 0.00000E+00
 -1      4230 1.23649E+02 2.50299E+01 0.00000E+00
 -1      4231 1.25149E+02 2.50299E+01 0.00000E+00
 -1      4232 1.26649E+02 2.50299E+01 0.00000E+00
 -1      4233 2.64757E+01 2.49040E+01 0.00000E+00
 -1      4234 2.79757E+01 2.49040E+01 0.00000E+00
 -1      4235 1.20649E+02 2.50299E+01 0.00000E+00
 -1      4236 1.16149E+02 2.50299E+01 0.00000E+00
 -1      4237 6.75952E+01 2.40336E+01 0.00000E+00
 -1      4238 4.88370E+01 2.21968E+01 0.00000E+00
 -1      4239 4.73370E+01 2.21968E+01 0.00000E+00
 -1      4240 3.23370E+01 2.47948E+01 0.00000E+00
 -1      4241 3.38370E+01 2.47948E+01 0.00000E+00
 -1      4242 4.57305E+01 2.19346E+01 0.00000E+00
 -1      4243 4.42305E+01 2.19346E+01 0.00000E+00
 -1      4244 4.34805E+01 2.32336E+01 0.00000E+00
 -1      4245 4.66935E+01 2.37579E+01 0.00000E+00
 -1      4246 1.28625E+02 2.60428E+01 0.00000E+00
 -1      4247 2.92995E+01 2.47948E+01 0.00000E+00
 -1      4248 3.08370E+01 2.47948E+01 0.00000E+00
 -1      4249 1.27555E+02 2.30419E+01 0.00000E+00
 -1      4250 1.12510E+02 2.37497E+01 0.00000E+00
 -1      4251 1.12300E+02 2.56357E+01 0.00000E+00
 -1      4252 1.13419E+02 2.57912E+01 0.00000E+00
 -1      4253 1.13887E+02 2.38190E+01 0.00000E+00
 -1      4254 3.75870E+01 2.34958E+01 0.00000E+00
 -1      4255 3.68370E+01 2.21968E+01 0.00000E+00
 -1      4256 1.28330E+02 2.51003E+01 0.00000E+00
 -1      4257 1.14773E+02 2.49606E+01 0.00000E+00
 -1      4258 6.24120E+01 2.47948E+01 0.00000E+00
 -1      4259 6.60580E+01 2.46169E+01 0.00000E+00
 -1      4260 3.45870E+01 2.34958E+01 0.00000E+00
 -1      4261 4.59435E+01 2.50569E+01 0.00000E+00
 -1      4262 6.34850E+01 2.47058E+01 0.00000E+00
 -1      4263 4.44435E+01 2.50569E+01 0.00000E+00
 -1      4264 4.95870E+01 2.34958E+01 0.00000E+00
 -1      4265 2.51520E+01 2.50133E+01 0.00000E+00
 -1      4266 7.14561E+01 2.11816E+01 0.00000E+00
 -1      4267 6.49850E+01 2.47058E+01 0.00000E+00
 -1      4268 3.53370E+01 2.21968E+01 0.00000E+00
 -1      4269 1.14539E+02 2.59467E+01 0.00000E+00
 -3
    3C                          2053                                     1
 -1       164    8    0    1
 -2         6         7        23      1109      1272      1126
 -1       165    8    0    1
 -2         7         8       164      1110      1273      1274
 -1       166    8    0    1
 -2         8         9       165      1111      1275      1276
 -1       167    8    0    1
 -2         8       165       164      1276      1277      1273
 -1       168    8    0    1
 -2         9        10       166      1112      1278      1279
 -1       169    8    0    1
 -2         9       166       165      1279      1280      1275
 -1       170    8    0    1
 -2        10        11       167      1113      1281      1282
 -1       171    8    0    1
 -2        10       167       166      1282      1283      1278
 -1       172    8    0    1
 -2        11        12       168      1114      1284      1285
 -1       173    8    0    1
 -2        11       168       167      1285      1286      1281
 -1       174    8    0    1
 -2        12        13       169      1115      1287      1288
 -1       175    8    0    1
 -2        12       169       168      1288      1289      1284
 -1       176    8    0    1
 -2        13        14       170      1116      1290      1291
 -1       177    8    0    1
 -2        13       170       169      1291      1292      1287
 -1       178    8    0    1
 -2        14        15       171      1117      1293      1294
 -1       179    8    0    1
 -2        14       171       170      1294      1295      1290
 -1       180    8    0    1
 -2        15        16       172      1118      1296      1297
 -1       181    8    0    1
 -2        15       172       171      1297      1298      1293
 -1       182    8    0    1
 -2        16        17       173      1119      1299      1300
 -1       183    8    0    1
 -2        16       173       172      1300      1301      1296
 -1       184    8    0    1
 -2        17        18       174      1120      1302      1303
 -1       185    8    0    1
 -2        17       174       173      1303      1304      1299
 -1       186    8    0    1
 -2        18        19       175      1121      1305      1306
 -1       187    8    0    1
 -2        18       175       174      1306      1307      1302
 -1       188    8    0    1
 -2        19        20       176      1122      1308      1309
 -1       189    8    0    1
 -2        19       176       175      1309      1310      1305
 -1       190    8    0    1
 -2        20        21       177      1123      1311      1312
 -1       191    8    0    1
 -2        20       177       176      1312      1313      1308
 -1       192    8    0    1
 -2        21        22       178      1124      1314      1315
 -1       193    8    0    1
 -2        21       178       177      1315      1316      1311
 -1       194    8    0    1
 -2        22         5       179      1125      1317      1318
 -1       195    8    0    1
 -2       178        22       179      1314      1318      1319
 -1       196    8    0    1
 -2         5        72       179      1176      1320      1317
 -1       197    8    0    1
 -2        24        23       180      1127      1321      1322
 -1       198    8    0    1
 -2        25        24       181      1128      1323      1324
 -1       199    8    0    1
 -2        24       180       181      1322      1325      1323
 -1       200    8    0    1
 -2        26        25       182      1129      1326      1327
 -1       201    8    0    1
 -2        25       181       182      1324      1328      1326
 -1       202    8    0    1
 -2        27        26       183      1130      1329      1330
 -1       203    8    0    1
 -2        26       182       183      1327      1331      1329
 -1       204    8    0    1
 -2        28        27       184      1131      1332      1333
 -1       205    8    0    1
 -2        27       183       184      1330      1334      1332
 -1       206    8    0    1
 -2        29        28       185      1132      1335      1336
 -1       207    8    0    1
 -2        28       184       185      1333      1337      1335
 -1       208    8    0    1
 -2        30        29       186      1133      1338      1339
 -1       209    8    0    1
 -2        29       185       186      1336      1340      1338
 -1       210    8    0    1
 -2        31        30       187      1134      1341      1342
 -1       211    8    0    1
 -2        30       186       187      1339      1343      1341
 -1       212    8    0    1
 -2        32        31       188      1135      1344      1345
 -1       213    8    0    1
 -2        31       187       188      1342      1346      1344
 -1       214    8    0    1
 -2        33        32       189      1136      1347      1348
 -1       215    8    0    1
 -2        32       188       189      1345      1349      1347
 -1       216    8    0    1
 -2        34        33       190      1137      1350      1351
 -1       217    8    0    1
 -2        33       189       190      1348      1352      1350
 -1       218    8    0    1
 -2        35        34       191      1138      1353      1354
 -1       219    8    0    1
 -2        34       190       191      1351      1355      1353
 -1       220    8    0    1
 -2        36        35       192      1139      1356      1357
 -1       221    8    0    1
 -2        35       191       192      1354      1358      1356
 -1       222    8    0    1
 -2        37        36       193      1140      1359      1360
 -1       223    8    0    1
 -2        36       192       193      1357      1361      1359
 -1       224    8    0    1
 -2        38        37       194      1141      1362      1363
 -1       225    8    0    1
 -2        37       193       194      1360      1364      1362
 -1       226    8    0    1
 -2        39        38       195      1142      1365      1366
 -1       227    8    0    1
 -2        38       194       195      1363      1367      1365
 -1       228    8    0    1
 -2        40        39       196      1143      1368      1369
 -1       229    8    0    1
 -2        39       195       196      1366      1370      1368
 -1       230    8    0    1
 -2        41        40       197      1144      1371      1372
 -1       231    8    0    1
 -2        40       196       197      1369      1373      1371
 -1       232    8    0    1
 -2        42        41       198      1145      1374      1375
 -1       233    8    0    1
 -2        41       197       198      1372      1376      1374
 -1       234    8    0    1
 -2        43        42       199      1146      1377      1378
 -1       235    8    0    1
 -2        42       198       199      1375      1379      1377
 -1       236    8    0    1
 -2        44        43       200      1147      1380      1381
 -1       237    8    0    1
 -2        43       199       200      1378      1382      1380
 -1       238    8    0    1
 -2        45        44       201      1148      1383      1384
 -1       239    8    0    1
 -2        44       200       201      1381      1385      1383
 -1       240    8    0    1
 -2        46        45       202      1149      1386      1387
 -1       241    8    0    1
 -2        45       201       202      1384      1388      1386
 -1       242    8    0    1
 -2        47        46       203      1150      1389      1390
 -1       243    8    0    1
 -2        46       202       203      1387      1391      1389
 -1       244    8    0    1
 -2        48        47       204      1151      1392      1393
 -1       245    8    0    1
 -2        47       203       204      1390      1394      1392
 -1       246    8    0    1
 -2        49        48       205      1152      1395      1396
 -1       247    8    0    1
 -2        48       204       205      1393      1397      1395
 -1       248    8    0    1
 -2        50        49       206      1153      1398      1399
 -1       249    8    0    1
 -2        49       205       206      1396      1400      1398
 -1       250    8    0    1
 -2        51        50       207      1154      1401      1402
 -1       251    8    0    1
 -2        50       206       207      1399      1403      1401
 -1       252    8    0    1
 -2        52        51       208      1155      1404      1405
 -1       253    8    0    1
 -2        51       207       208      1402      1406      1404
 -1       254    8    0    1
 -2        53        52       209      1156      1407      1408
 -1       255    8    0    1
 -2        52       208       209      1405      1409      1407
 -1       256    8    0    1
 -2        54        53       210      1157      1410      1411
 -1       257    8    0    1
 -2        53       209       210      1408      1412      1410
 -1       258    8    0    1
 -2        55        54       211      1158      1413      1414
 -1       259    8    0    1
 -2        54       210       211      1411      1415      1413
 -1       260    8    0    1
 -2        56        55       212      1159      1416      1417
 -1       261    8    0    1
 -2        55       211       212      1414      1418      1416
 -1       262    8    0    1
 -2        57        56       213      1160      1419      1420
 -1       263    8    0    1
 -2        56       212       213      1417      1421      1419
 -1       264    8    0    1
 -2        58        57       214      1161      1422      1423
 -1       265    8    0    1
 -2        57       213       214      1420      1424      1422
 -1       266    8    0    1
 -2        59        58       215      1162      1425      1426
 -1       267    8    0    1
 -2        58       214       215      1423      1427      1425
 -1       268    8    0    1
 -2        60        59       216      1163      1428      1429
 -1       269    8    0    1
 -2        59       215       216      1426      1430      1428
 -1       270    8    0    1
 -2        61        60       217      1164      1431      1432
 -1       271    8    0    1
 -2        60       216       217      1429      1433      1431
 -1       272    8    0    1
 -2        62        61       218      1165      1434      1435
 -1       273    8    0    1
 -2        61       217       218      1432      1436      1434
 -1       274    8    0    1
 -2        63        62       219      1166      1437      1438
 -1       275    8    0    1
 -2        62       218       219      1435      1439      1437
 -1       276    8    0    1
 -2        64        63       220      1167      1440      1441
 -1       277    8    0    1
 -2        63       219       220      1438      1442      1440
 -1       278    8    0    1
 -2        65        64       221      1168      1443      1444
 -1       279    8    0    1
 -2        64       220       221      1441      1445      1443
 -1       280    8    0    1
 -2        66        65       222      1169      1446      1447
 -1       281    8    0    1
 -2        65       221       222      1444      1448      1446
 -1       282    8    0    1
 -2        67        66       223      1170      1449      1450
 -1       283    8    0    1
 -2        66       222       223      1447      1451      1449
 -1       284    8    0    1
 -2        68        67       224      1171      1452      1453
 -1       285    8    0    1
 -2        67       223       224      1450      1454      1452
 -1       286    8    0    1
 -2        69        68       225      1172      1455      1456
 -1       287    8    0    1
 -2        68       224       225      1453      1457      1455
 -1       288    8    0    1
 -2        70        69       226      1173      1458      1459
 -1       289    8    0    1
 -2        69       225       226      1456      1460      1458
 -1       290    8    0    1
 -2        71        70       227      1174      1461      1462
 -1       291    8    0    1
 -2        70       226       227      1459      1463      1461
 -1       292    8    0    1
 -2         4        71       228      1175      1464      1465
 -1       293    8    0    1
 -2       136         4       228      1242      1465      1466
 -1       294    8    0    1
 -2        71       227       228      1462      1467      1464
 -1       295    8    0    1
 -2        72        73       229      1177      1468      1469
 -1       296    8    0    1
 -2        72       229       179      1469      1470      1320
 -1       297    8    0    1
 -2        73        74       230      1178      1471      1472
 -1       298    8    0    1
 -2        73       230       229      1472      1473      1468
 -1       299    8    0    1
 -2        74        75       231      1179      1474      1475
 -1       300    8    0    1
 -2        74       231       230      1475      1476      1471
 -1       301    8    0    1
 -2        75        76       232      1180      1477      1478
 -1       302    8    0    1
 -2        75       232       231      1478      1479      1474
 -1       303    8    0    1
 -2        76        77       233      1181      1480      1481
 -1       304    8    0    1
 -2        76       233       232      1481      1482      1477
 -1       305    8    0    1
 -2        77        78       234      1182      1483      1484
 -1       306    8    0    1
 -2        77       234       233      1484      1485      1480
 -1       307    8    0    1
 -2        78        79       235      1183      1486      1487
 -1       308    8    0    1
 -2        78       235       234      1487      1488      1483
 -1       309    8    0    1
 -2        79        80       236      1184      1489      1490
 -1       310    8    0    1
 -2        79       236       235      1490      1491      1486
 -1       311    8    0    1
 -2        80        81       237      1185      1492      1493
 -1       312    8    0    1
 -2        80       237       236      1493      1494      1489
 -1       313    8    0    1
 -2        81        82       238      1186      1495      1496
 -1       314    8    0    1
 -2        81       238       237      1496      1497      1492
 -1       315    8    0    1
 -2        82        83       239      1187      1498      1499
 -1       316    8    0    1
 -2        82       239       238      1499      1500      1495
 -1       317    8    0    1
 -2        83        84       240      1188      1501      1502
 -1       318    8    0    1
 -2        83       240       239      1502      1503      1498
 -1       319    8    0    1
 -2        84        85       241      1189      1504      1505
 -1       320    8    0    1
 -2        84       241       240      1505      1506      1501
 -1       321    8    0    1
 -2        85        86       242      1190      1507      1508
 -1       322    8    0    1
 -2        85       242       241      1508      1509      1504
 -1       323    8    0    1
 -2        86        87       243      1191      1510      1511
 -1       324    8    0    1
 -2        86       243       242      1511      1512      1507
 -1       325    8    0    1
 -2        87        88       244      1192      1513      1514
 -1       326    8    0    1
 -2        87       244       243      1514      1515      1510
 -1       327    8    0    1
 -2        88        89       245      1193      1516      1517
 -1       328    8    0    1
 -2        88       245       244      1517      1518      1513
 -1       329    8    0    1
 -2        89        90       246      1194      1519      1520
 -1       330    8    0    1
 -2        89       246       245      1520      1521      1516
 -1       331    8    0    1
 -2        90        91       247      1195      1522      1523
 -1       332    8    0    1
 -2        90       247       246      1523      1524      1519
 -1       333    8    0    1
 -2        91        92       248      1196      1525      1526
 -1       334    8    0    1
 -2        91       248       247      1526      1527      1522
 -1       335    8    0    1
 -2        92        93       249      1197      1528      1529
 -1       336    8    0    1
 -2        92       249       248      1529      1530      1525
 -1       337    8    0    1
 -2        93        94       250      1198      1531      1532
 -1       338    8    0    1
 -2        93       250       249      1532      1533      1528
 -1       339    8    0    1
 -2        94        95       251      1199      1534      1535
 -1       340    8    0    1
 -2        94       251       250      1535      1536      1531
 -1       341    8    0    1
 -2        95        96       252      1200      1537      1538
 -1       342    8    0    1
 -2        95       252       251      1538      1539      1534
 -1       343    8    0    1
 -2        96        97       253      1201      1540      1541
 -1       344    8    0    1
 -2        96       253       252      1541      1542      1537
 -1       345    8    0    1
 -2        97        98       254      1202      1543      1544
 -1       346    8    0    1
 -2        97       254       253      1544      1545      1540
 -1       347    8    0    1
 -2        98        99       255      1203      1546      1547
 -1       348    8    0    1
 -2        98       255       254      1547      1548      1543
 -1       349    8    0    1
 -2        99       100       256      1204      1549      1550
 -1       350    8    0    1
 -2        99       256       255      1550      1551      1546
 -1       351    8    0    1
 -2       100       101       257      1205      1552      1553
 -1       352    8    0    1
 -2       100       257       256      1553      1554      1549
 -1       353    8    0    1
 -2       101       102       258      1206      1555      1556
 -1       354    8    0    1
 -2       101       258       257      1556      1557      1552
 -1       355    8    0    1
 -2       102       103       259      1207      1558      1559
 -1       356    8    0    1
 -2       102       259       258      1559      1560      1555
 -1       357    8    0    1
 -2       103       104       260      1208      1561      1562
 -1       358    8    0    1
 -2       103       260       259      1562      1563      1558
 -1       359    8    0    1
 -2       104       105       261      1209      1564      1565
 -1       360    8    0    1
 -2       104       261       260      1565      1566      1561
 -1       361    8    0    1
 -2       105       106       262      1210      1567      1568
 -1       362    8    0    1
 -2       105       262       261      1568      1569      1564
 -1       363    8    0    1
 -2       106       107       263      1211      1570      1571
 -1       364    8    0    1
 -2       106       263       262      1571      1572      1567
 -1       365    8    0    1
 -2       107       108       264      1212      1573      1574
 -1       366    8    0    1
 -2       107       264       263      1574      1575      1570
 -1       367    8    0    1
 -2       108       109       265      1213      1576      1577
 -1       368    8    0    1
 -2       108       265       264      1577      1578      1573
 -1       369    8    0    1
 -2       109       110       266      1214      1579      1580
 -1       370    8    0    1
 -2       109       266       265      1580      1581      1576
 -1       371    8    0    1
 -2       110       111       267      1215      1582      1583
 -1       372    8    0    1
 -2       110       267       266      1583      1584      1579
 -1       373    8    0    1
 -2       111       112       268      1216      1585      1586
 -1       374    8    0    1
 -2       111       268       267      1586      1587      1582
 -1       375    8    0    1
 -2       112       113       269      1217      1588      1589
 -1       376    8    0    1
 -2       112       269       268      1589      1590      1585
 -1       377    8    0    1
 -2       113       114       270      1218      1591      1592
 -1       378    8    0    1
 -2       113       270       269      1592      1593      1588
 -1       379    8    0    1
 -2       114       115       271      1219      1594      1595
 -1       380    8    0    1
 -2       114       271       270      1595      1596      1591
 -1       381    8    0    1
 -2       115       116       272      1220      1597      1598
 -1       382    8    0    1
 -2       115       272       271      1598      1599      1594
 -1       383    8    0    1
 -2       116       117       273      1221      1600      1601
 -1       384    8    0    1
 -2       116       273       272      1601      1602      1597
 -1       385    8    0    1
 -2       117       118       274      1222      1603      1604
 -1       386    8    0    1
 -2       117       274       273      1604      1605      1600
 -1       387    8    0    1
 -2       118       119       275      1223      1606      1607
 -1       388    8    0    1
 -2       118       275       274      1607      1608      1603
 -1       389    8    0    1
 -2       119       120       276      1224      1609      1610
 -1       390    8    0    1
 -2       119       276       275      1610      1611      1606
 -1       391    8    0    1
 -2       120         3       121      1225      1226      1612
 -1       392    8    0    1
 -2       121       122       277      1227      1613      1614
 -1       393    8    0    1
 -2       122       123       278      1228      1615      1616
 -1       394    8    0    1
 -2       122       278       277      1616      1617      1613
 -1       395    8    0    1
 -2       123       124       279      1229      1618      1619
 -1       396    8    0    1
 -2       123       279       278      1619      1620      1615
 -1       397    8    0    1
 -2       124       125       280      1230      1621      1622
 -1       398    8    0    1
 -2       124       280       279      1622      1623      1618
 -1       399    8    0    1
 -2       125       126       281      1231      1624      1625
 -1       400    8    0    1
 -2       125       281       280      1625      1626      1621
 -1       401    8    0    1
 -2       126       127       282      1232      1627      1628
 -1       402    8    0    1
 -2       126       282       281      1628      1629      1624
 -1       403    8    0    1
 -2       127       128       283      1233      1630      1631
 -1       404    8    0    1
 -2       127       283       282      1631      1632      1627
 -1       405    8    0    1
 -2       128       129       284      1234      1633      1634
 -1       406    8    0    1
 -2       128       284       283      1634      1635      1630
 -1       407    8    0    1
 -2       129       130       285      1235      1636      1637
 -1       408    8    0    1
 -2       129       285       284      1637      1638      1633
 -1       409    8    0    1
 -2       130       131       286      1236      1639      1640
 -1       410    8    0    1
 -2       130       286       285      1640      1641      1636
 -1       411    8    0    1
 -2       131       132       287      1237      1642      1643
 -1       412    8    0    1
 -2       131       287       286      1643      1644      1639
 -1       413    8    0    1
 -2       132       133       288      1238      1645      1646
 -1       414    8    0    1
 -2       132       288       287      1646      1647      1642
 -1       415    8    0    1
 -2       133       134       289      1239      1648      1649
 -1       416    8    0    1
 -2       133       289       288      1649      1650      1645
 -1       417    8    0    1
 -2       134       135       290      1240      1651      1652
 -1       418    8    0    1
 -2       134       290       289      1652      1653      1648
 -1       419    8    0    1
 -2       135       136       291      1241      1654      1655
 -1       420    8    0    1
 -2       290       135       291      1651      1655      1656
 -1       421    8    0    1
 -2       136       228       291      1466      1657      1654
 -1       422    8    0    1
 -2         2       137       292      1243      1658      1659
 -1       423    8    0    1
 -2       137       138       293      1244      1660      1661
 -1       424    8    0    1
 -2       138       139       294      1245      1662      1663
 -1       425    8    0    1
 -2       139       140       295      1246      1664      1665
 -1       426    8    0    1
 -2       140       141       296      1247      1666      1667
 -1       427    8    0    1
 -2       141       142       297      1248      1668      1669
 -1       428    8    0    1
 -2       142       143       298      1249      1670      1671
 -1       429    8    0    1
 -2       143       144       299      1250      1672      1673
 -1       430    8    0    1
 -2       144       145       300      1251      1674      1675
 -1       431    8    0    1
 -2       145       146       301      1252      1676      1677
 -1       432    8    0    1
 -2       146       147       302      1253      1678      1679
 -1       433    8    0    1
 -2       147       148       303      1254      1680      1681
 -1       434    8    0    1
 -2       148       149       304      1255      1682      1683
 -1       435    8    0    1
 -2       149       150       305      1256      1684      1685
 -1       436    8    0    1
 -2       150       151       306      1257      1686      1687
 -1       437    8    0    1
 -2       151       152       307      1258      1688      1689
 -1       438    8    0    1
 -2       152         1       308      1259      1690      1691
 -1       439    8    0    1
 -2         1       153       309      1260      1692      1693
 -1       440    8    0    1
 -2       153       154       310      1261      1694      1695
 -1       441    8    0    1
 -2       154       155       311      1262      1696      1697
 -1       442    8    0    1
 -2       155       156       312      1263      1698      1699
 -1       443    8    0    1
 -2       156       157       313      1264      1700      1701
 -1       444    8    0    1
 -2       157       158       314      1265      1702      1703
 -1       445    8    0    1
 -2       158       159       315      1266      1704      1705
 -1       446    8    0    1
 -2       159       160       316      1267      1706      1707
 -1       447    8    0    1
 -2       160       161       317      1268      1708      1709
 -1       448    8    0    1
 -2       161       162       318      1269      1710      1711
 -1       449    8    0    1
 -2       162       163       319      1270      1712      1713
 -1       450    8    0    1
 -2       163         2       320      1271      1714      1715
 -1       451    8    0    1
 -2       294       139       295      1662      1665      1716
 -1       452    8    0    1
 -2         2       292       320      1659      1717      1714
 -1       453    8    0    1
 -2       120       121       276      1612      1718      1609
 -1       454    8    0    1
 -2       121       277       276      1614      1719      1718
 -1       455    8    0    1
 -2       292       137       293      1658      1661      1720
 -1       456    8    0    1
 -2       293       138       294      1660      1663      1721
 -1       457    8    0    1
 -2       140       296       295      1667      1722      1664
 -1       458    8    0    1
 -2       141       297       296      1669      1723      1666
 -1       459    8    0    1
 -2       142       298       297      1671      1724      1668
 -1       460    8    0    1
 -2       143       299       298      1673      1725      1670
 -1       461    8    0    1
 -2       144       300       299      1675      1726      1672
 -1       462    8    0    1
 -2       145       301       300      1677      1727      1674
 -1       463    8    0    1
 -2       146       302       301      1679      1728      1676
 -1       464    8    0    1
 -2       147       303       302      1681      1729      1678
 -1       465    8    0    1
 -2       148       304       303      1683      1730      1680
 -1       466    8    0    1
 -2       149       305       304      1685      1731      1682
 -1       467    8    0    1
 -2       150       306       305      1687      1732      1684
 -1       468    8    0    1
 -2       151       307       306      1689      1733      1686
 -1       469    8    0    1
 -2       152       308       307      1691      1734      1688
 -1       470    8    0    1
 -2         1       309       308      1693      1735      1690
 -1       471    8    0    1
 -2       153       310       309      1695      1736      1692
 -1       472    8    0    1
 -2       154       311       310      1697      1737      1694
 -1       473    8    0    1
 -2       155       312       311      1699      1738      1696
 -1       474    8    0    1
 -2       156       313       312      1701      1739      1698
 -1       475    8    0    1
 -2       157       314       313      1703      1740      1700
 -1       476    8    0    1
 -2       158       315       314      1705      1741      1702
 -1       477    8    0    1
 -2       159       316       315      1707      1742      1704
 -1       478    8    0    1
 -2       160       317       316      1709      1743      1706
 -1       479    8    0    1
 -2       161       318       317      1711      1744      1708
 -1       480    8    0    1
 -2       162       319       318      1713      1745      1710
 -1       481    8    0    1
 -2       163       320       319      1715      1746      1712
 -1       482    8    0    1
 -2        23         7       164      1272      1274      1747
 -1       483    8    0    1
 -2       165       166       321      1280      1748      1749
 -1       484    8    0    1
 -2       164       165       322      1277      1750      1751
 -1       485    8    0    1
 -2       165       321       322      1749      1752      1750
 -1       486    8    0    1
 -2       167       168       323      1286      1753      1754
 -1       487    8    0    1
 -2       168       169       324      1289      1755      1756
 -1       488    8    0    1
 -2       168       324       323      1756      1757      1753
 -1       489    8    0    1
 -2       169       170       325      1292      1758      1759
 -1       490    8    0    1
 -2       169       325       324      1759      1760      1755
 -1       491    8    0    1
 -2       170       171       326      1295      1761      1762
 -1       492    8    0    1
 -2       170       326       325      1762      1763      1758
 -1       493    8    0    1
 -2       171       172       327      1298      1764      1765
 -1       494    8    0    1
 -2       171       327       326      1765      1766      1761
 -1       495    8    0    1
 -2       172       173       328      1301      1767      1768
 -1       496    8    0    1
 -2       172       328       327      1768      1769      1764
 -1       497    8    0    1
 -2       173       174       329      1304      1770      1771
 -1       498    8    0    1
 -2       173       329       328      1771      1772      1767
 -1       499    8    0    1
 -2       174       175       330      1307      1773      1774
 -1       500    8    0    1
 -2       174       330       329      1774      1775      1770
 -1       501    8    0    1
 -2       175       176       331      1310      1776      1777
 -1       502    8    0    1
 -2       175       331       330      1777      1778      1773
 -1       503    8    0    1
 -2       176       177       332      1313      1779      1780
 -1       504    8    0    1
 -2       176       332       331      1780      1781      1776
 -1       505    8    0    1
 -2       177       178       333      1316      1782      1783
 -1       506    8    0    1
 -2       177       333       332      1783      1784      1779
 -1       507    8    0    1
 -2       178       179       334      1319      1785      1786
 -1       508    8    0    1
 -2       333       178       334      1782      1786      1787
 -1       509    8    0    1
 -2       179       229       334      1470      1788      1785
 -1       510    8    0    1
 -2       180        23       164      1321      1747      1789
 -1       511    8    0    1
 -2       229       230       335      1473      1790      1791
 -1       512    8    0    1
 -2       229       335       334      1791      1792      1788
 -1       513    8    0    1
 -2       180       164       322      1789      1751      1793
 -1       514    8    0    1
 -2       182       181       336      1328      1794      1795
 -1       515    8    0    1
 -2       183       182       337      1331      1796      1797
 -1       516    8    0    1
 -2       182       336       337      1795      1798      1796
 -1       517    8    0    1
 -2       184       183       338      1334      1799      1800
 -1       518    8    0    1
 -2       183       337       338      1797      1801      1799
 -1       519    8    0    1
 -2       185       184       339      1337      1802      1803
 -1       520    8    0    1
 -2       184       338       339      1800      1804      1802
 -1       521    8    0    1
 -2       186       185       340      1340      1805      1806
 -1       522    8    0    1
 -2       185       339       340      1803      1807      1805
 -1       523    8    0    1
 -2       187       186       341      1343      1808      1809
 -1       524    8    0    1
 -2       186       340       341      1806      1810      1808
 -1       525    8    0    1
 -2       188       187       342      1346      1811      1812
 -1       526    8    0    1
 -2       187       341       342      1809      1813      1811
 -1       527    8    0    1
 -2       189       188       343      1349      1814      1815
 -1       528    8    0    1
 -2       188       342       343      1812      1816      1814
 -1       529    8    0    1
 -2       190       189       344      1352      1817      1818
 -1       530    8    0    1
 -2       189       343       344      1815      1819      1817
 -1       531    8    0    1
 -2       191       190       345      1355      1820      1821
 -1       532    8    0    1
 -2       190       344       345      1818      1822      1820
 -1       533    8    0    1
 -2       192       191       346      1358      1823      1824
 -1       534    8    0    1
 -2       191       345       346      1821      1825      1823
 -1       535    8    0    1
 -2       193       192       347      1361      1826      1827
 -1       536    8    0    1
 -2       192       346       347      1824      1828      1826
 -1       537    8    0    1
 -2       194       193       348      1364      1829      1830
 -1       538    8    0    1
 -2       193       347       348      1827      1831      1829
 -1       539    8    0    1
 -2       195       194       349      1367      1832      1833
 -1       540    8    0    1
 -2       194       348       349      1830      1834      1832
 -1       541    8    0    1
 -2       196       195       350      1370      1835      1836
 -1       542    8    0    1
 -2       195       349       350      1833      1837      1835
 -1       543    8    0    1
 -2       197       196       351      1373      1838      1839
 -1       544    8    0    1
 -2       196       350       351      1836      1840      1838
 -1       545    8    0    1
 -2       198       197       352      1376      1841      1842
 -1       546    8    0    1
 -2       197       351       352      1839      1843      1841
 -1       547    8    0    1
 -2       199       198       353      1379      1844      1845
 -1       548    8    0    1
 -2       198       352       353      1842      1846      1844
 -1       549    8    0    1
 -2       200       199       354      1382      1847      1848
 -1       550    8    0    1
 -2       199       353       354      1845      1849      1847
 -1       551    8    0    1
 -2       201       200       355      1385      1850      1851
 -1       552    8    0    1
 -2       200       354       355      1848      1852      1850
 -1       553    8    0    1
 -2       202       201       356      1388      1853      1854
 -1       554    8    0    1
 -2       201       355       356      1851      1855      1853
 -1       555    8    0    1
 -2       203       202       357      1391      1856      1857
 -1       556    8    0    1
 -2       202       356       357      1854      1858      1856
 -1       557    8    0    1
 -2       204       203       358      1394      1859      1860
 -1       558    8    0    1
 -2       203       357       358      1857      1861      1859
 -1       559    8    0    1
 -2       205       204       359      1397      1862      1863
 -1       560    8    0    1
 -2       204       358       359      1860      1864      1862
 -1       561    8    0    1
 -2       206       205       360      1400      1865      1866
 -1       562    8    0    1
 -2       205       359       360      1863      1867      1865
 -1       563    8    0    1
 -2       207       206       361      1403      1868      1869
 -1       564    8    0    1
 -2       206       360       361      1866      1870      1868
 -1       565    8    0    1
 -2       209       208       362      1409      1871      1872
 -1       566    8    0    1
 -2       211       210       363      1415      1873      1874
 -1       567    8    0    1
 -2       212       211       364      1418      1875      1876
 -1       568    8    0    1
 -2       211       363       364      1874      1877      1875
 -1       569    8    0    1
 -2       213       212       365      1421      1878      1879
 -1       570    8    0    1
 -2       212       364       365      1876      1880      1878
 -1       571    8    0    1
 -2       214       213       366      1424      1881      1882
 -1       572    8    0    1
 -2       213       365       366      1879      1883      1881
 -1       573    8    0    1
 -2       215       214       367      1427      1884      1885
 -1       574    8    0    1
 -2       214       366       367      1882      1886      1884
 -1       575    8    0    1
 -2       216       215       368      1430      1887      1888
 -1       576    8    0    1
 -2       215       367       368      1885      1889      1887
 -1       577    8    0    1
 -2       217       216       369      1433      1890      1891
 -1       578    8    0    1
 -2       216       368       369      1888      1892      1890
 -1       579    8    0    1
 -2       218       217       370      1436      1893      1894
 -1       580    8    0    1
 -2       217       369       370      1891      1895      1893
 -1       581    8    0    1
 -2       219       218       371      1439      1896      1897
 -1       582    8    0    1
 -2       218       370       371      1894      1898      1896
 -1       583    8    0    1
 -2       220       219       372      1442      1899      1900
 -1       584    8    0    1
 -2       219       371       372      1897      1901      1899
 -1       585    8    0    1
 -2       221       220       373      1445      1902      1903
 -1       586    8    0    1
 -2       220       372       373      1900      1904      1902
 -1       587    8    0    1
 -2       222       221       374      1448      1905      1906
 -1       588    8    0    1
 -2       221       373       374      1903      1907      1905
 -1       589    8    0    1
 -2       223       222       375      1451      1908      1909
 -1       590    8    0    1
 -2       222       374       375      1906      1910      1908
 -1       591    8    0    1
 -2       224       223       376      1454      1911      1912
 -1       592    8    0    1
 -2       223       375       376      1909      1913      1911
 -1       593    8    0    1
 -2       225       224       377      1457      1914      1915
 -1       594    8    0    1
 -2       224       376       377      1912      1916      1914
 -1       595    8    0    1
 -2       226       225       378      1460      1917      1918
 -1       596    8    0    1
 -2       225       377       378      1915      1919      1917
 -1       597    8    0    1
 -2       227       226       379      1463      1920      1921
 -1       598    8    0    1
 -2       226       378       379      1918      1922      1920
 -1       599    8    0    1
 -2       228       227       291      1467      1923      1657
 -1       600    8    0    1
 -2       231       232       380      1479      1924      1925
 -1       601    8    0    1
 -2       232       233       381      1482      1926      1927
 -1       602    8    0    1
 -2       232       381       380      1927      1928      1924
 -1       603    8    0    1
 -2       233       234       382      1485      1929      1930
 -1       604    8    0    1
 -2       233       382       381      1930      1931      1926
 -1       605    8    0    1
 -2       234       235       383      1488      1932      1933
 -1       606    8    0    1
 -2       234       383       382      1933      1934      1929
 -1       607    8    0    1
 -2       235       236       384      1491      1935      1936
 -1       608    8    0    1
 -2       235       384       383      1936      1937      1932
 -1       609    8    0    1
 -2       236       237       385      1494      1938      1939
 -1       610    8    0    1
 -2       236       385       384      1939      1940      1935
 -1       611    8    0    1
 -2       237       238       386      1497      1941      1942
 -1       612    8    0    1
 -2       237       386       385      1942      1943      1938
 -1       613    8    0    1
 -2       238       239       387      1500      1944      1945
 -1       614    8    0    1
 -2       238       387       386      1945      1946      1941
 -1       615    8    0    1
 -2       239       240       388      1503      1947      1948
 -1       616    8    0    1
 -2       239       388       387      1948      1949      1944
 -1       617    8    0    1
 -2       240       241       389      1506      1950      1951
 -1       618    8    0    1
 -2       240       389       388      1951      1952      1947
 -1       619    8    0    1
 -2       241       242       390      1509      1953      1954
 -1       620    8    0    1
 -2       241       390       389      1954      1955      1950
 -1       621    8    0    1
 -2       242       243       391      1512      1956      1957
 -1       622    8    0    1
 -2       242       391       390      1957      1958      1953
 -1       623    8    0    1
 -2       243       244       392      1515      1959      1960
 -1       624    8    0    1
 -2       243       392       391      1960      1961      1956
 -1       625    8    0    1
 -2       244       245       393      1518      1962      1963
 -1       626    8    0    1
 -2       244       393       392      1963      1964      1959
 -1       627    8    0    1
 -2       245       246       394      1521      1965      1966
 -1       628    8    0    1
 -2       245       394       393      1966      1967      1962
 -1       629    8    0    1
 -2       246       247       395      1524      1968      1969
 -1       630    8    0    1
 -2       246       395       394      1969      1970      1965
 -1       631    8    0    1
 -2       247       248       396      1527      1971      1972
 -1       632    8    0    1
 -2       247       396       395      1972      1973      1968
 -1       633    8    0    1
 -2       248       249       397      1530      1974      1975
 -1       634    8    0    1
 -2       248       397       396      1975      1976      1971
 -1       635    8    0    1
 -2       249       250       398      1533      1977      1978
 -1       636    8    0    1
 -2       249       398       397      1978      1979      1974
 -1       637    8    0    1
 -2       250       251       399      1536      1980      1981
 -1       638    8    0    1
 -2       250       399       398      1981      1982      1977
 -1       639    8    0    1
 -2       251       252       400      1539      1983      1984
 -1       640    8    0    1
 -2       251       400       399      1984      1985      1980
 -1       641    8    0    1
 -2       252       253       401      1542      1986      1987
 -1       642    8    0    1
 -2       252       401       400      1987      1988      1983
 -1       643    8    0    1
 -2       253       254       402      1545      1989      1990
 -1       644    8    0    1
 -2       253       402       401      1990      1991      1986
 -1       645    8    0    1
 -2       254       255       403      1548      1992      1993
 -1       646    8    0    1
 -2       254       403       402      1993      1994      1989
 -1       647    8    0    1
 -2       255       256       404      1551      1995      1996
 -1       648    8    0    1
 -2       255       404       403      1996      1997      1992
 -1       649    8    0    1
 -2       256       257       405      1554      1998      1999
 -1       650    8    0    1
 -2       256       405       404      1999      2000      1995
 -1       651    8    0    1
 -2       257       258       406      1557      2001      2002
 -1       652    8    0    1
 -2       257       406       405      2002      2003      1998
 -1       653    8    0    1
 -2       258       259       407      1560      2004      2005
 -1       654    8    0    1
 -2       258       407       406      2005      2006      2001
 -1       655    8    0    1
 -2       259       260       408      1563      2007      2008
 -1       656    8    0    1
 -2       259       408       407      2008      2009      2004
 -1       657    8    0    1
 -2       260       261       409      1566      2010      2011
 -1       658    8    0    1
 -2       260       409       408      2011      2012      2007
 -1       659    8    0    1
 -2       261       262       410      1569      2013      2014
 -1       660    8    0    1
 -2       261       410       409      2014      2015      2010
 -1       661    8    0    1
 -2       262       263       411      1572      2016      2017
 -1       662    8    0    1
 -2       262       411       410      2017      2018      2013
 -1       663    8    0    1
 -2       263       264       412      1575      2019      2020
 -1       664    8    0    1
 -2       263       412       411      2020      2021      2016
 -1       665    8    0    1
 -2       264       265       413      1578      2022      2023
 -1       666    8    0    1
 -2       264       413       412      2023      2024      2019
 -1       667    8    0    1
 -2       265       266       414      1581      2025      2026
 -1       668    8    0    1
 -2       265       414       413      2026      2027      2022
 -1       669    8    0    1
 -2       266       267       415      1584      2028      2029
 -1       670    8    0    1
 -2       266       415       414      2029      2030      2025
 -1       671    8    0    1
 -2       267       268       416      1587      2031      2032
 -1       672    8    0    1
 -2       267       416       415      2032      2033      2028
 -1       673    8    0    1
 -2       268       269       417      1590      2034      2035
 -1       674    8    0    1
 -2       268       417       416      2035      2036      2031
 -1       675    8    0    1
 -2       269       270       418      1593      2037      2038
 -1       676    8    0    1
 -2       269       418       417      2038      2039      2034
 -1       677    8    0    1
 -2       270       271       419      1596      2040      2041
 -1       678    8    0    1
 -2       270       419       418      2041      2042      2037
 -1       679    8    0    1
 -2       271       272       420      1599      2043      2044
 -1       680    8    0    1
 -2       271       420       419      2044      2045      2040
 -1       681    8    0    1
 -2       272       273       421      1602      2046      2047
 -1       682    8    0    1
 -2       272       421       420      2047      2048      2043
 -1       683    8    0    1
 -2       273       274       422      1605      2049      2050
 -1       684    8    0    1
 -2       273       422       421      2050      2051      2046
 -1       685    8    0    1
 -2       274       275       423      1608      2052      2053
 -1       686    8    0    1
 -2       274       423       422      2053      2054      2049
 -1       687    8    0    1
 -2       275       276       424      1611      2055      2056
 -1       688    8    0    1
 -2       423       275       424      2052      2056      2057
 -1       689    8    0    1
 -2       276       277       424      1719      2058      2055
 -1       690    8    0    1
 -2       279       280       425      1623      2059      2060
 -1       691    8    0    1
 -2       278       279       426      1620      2061      2062
 -1       692    8    0    1
 -2       279       425       426      2060      2063      2061
 -1       693    8    0    1
 -2       277       278       424      1617      2064      2058
 -1       694    8    0    1
 -2       280       281       427      1626      2065      2066
 -1       695    8    0    1
 -2       280       427       425      2066      2067      2059
 -1       696    8    0    1
 -2       281       282       428      1629      2068      2069
 -1       697    8    0    1
 -2       281       428       427      2069      2070      2065
 -1       698    8    0    1
 -2       282       283       429      1632      2071      2072
 -1       699    8    0    1
 -2       282       429       428      2072      2073      2068
 -1       700    8    0    1
 -2       283       284       430      1635      2074      2075
 -1       701    8    0    1
 -2       283       430       429      2075      2076      2071
 -1       702    8    0    1
 -2       284       285       431      1638      2077      2078
 -1       703    8    0    1
 -2       284       431       430      2078      2079      2074
 -1       704    8    0    1
 -2       285       286       432      1641      2080      2081
 -1       705    8    0    1
 -2       285       432       431      2081      2082      2077
 -1       706    8    0    1
 -2       286       287       433      1644      2083      2084
 -1       707    8    0    1
 -2       286       433       432      2084      2085      2080
 -1       708    8    0    1
 -2       287       288       434      1647      2086      2087
 -1       709    8    0    1
 -2       287       434       433      2087      2088      2083
 -1       710    8    0    1
 -2       288       289       435      1650      2089      2090
 -1       711    8    0    1
 -2       288       435       434      2090      2091      2086
 -1       712    8    0    1
 -2       289       290       436      1653      2092      2093
 -1       713    8    0    1
 -2       289       436       435      2093      2094      2089
 -1       714    8    0    1
 -2       230       231       437      1476      2095      2096
 -1       715    8    0    1
 -2       335       230       437      1790      2096      2097
 -1       716    8    0    1
 -2       231       380       437      1925      2098      2095
 -1       717    8    0    1
 -2       293       294       438      1721      2099      2100
 -1       718    8    0    1
 -2       295       296       439      1722      2101      2102
 -1       719    8    0    1
 -2       320       292       440      1717      2103      2104
 -1       720    8    0    1
 -2       294       295       441      1716      2105      2106
 -1       721    8    0    1
 -2       294       441       438      2106      2107      2099
 -1       722    8    0    1
 -2       166       167       442      1283      2108      2109
 -1       723    8    0    1
 -2       321       166       442      1748      2109      2110
 -1       724    8    0    1
 -2       167       323       442      1754      2111      2108
 -1       725    8    0    1
 -2       296       297       443      1723      2112      2113
 -1       726    8    0    1
 -2       297       298       444      1724      2114      2115
 -1       727    8    0    1
 -2       298       299       445      1725      2116      2117
 -1       728    8    0    1
 -2       299       300       446      1726      2118      2119
 -1       729    8    0    1
 -2       300       301       447      1727      2120      2121
 -1       730    8    0    1
 -2       301       302       448      1728      2122      2123
 -1       731    8    0    1
 -2       302       303       449      1729      2124      2125
 -1       732    8    0    1
 -2       302       449       448      2125      2126      2122
 -1       733    8    0    1
 -2       303       304       450      1730      2127      2128
 -1       734    8    0    1
 -2       304       305       451      1731      2129      2130
 -1       735    8    0    1
 -2       304       451       450      2130      2131      2127
 -1       736    8    0    1
 -2       305       306       452      1732      2132      2133
 -1       737    8    0    1
 -2       306       307       453      1733      2134      2135
 -1       738    8    0    1
 -2       307       308       454      1734      2136      2137
 -1       739    8    0    1
 -2       308       309       455      1735      2138      2139
 -1       740    8    0    1
 -2       309       310       456      1736      2140      2141
 -1       741    8    0    1
 -2       310       311       457      1737      2142      2143
 -1       742    8    0    1
 -2       311       312       458      1738      2144      2145
 -1       743    8    0    1
 -2       312       313       459      1739      2146      2147
 -1       744    8    0    1
 -2       313       314       460      1740      2148      2149
 -1       745    8    0    1
 -2       314       315       461      1741      2150      2151
 -1       746    8    0    1
 -2       315       316       462      1742      2152      2153
 -1       747    8    0    1
 -2       316       317       463      1743      2154      2155
 -1       748    8    0    1
 -2       317       318       464      1744      2156      2157
 -1       749    8    0    1
 -2       318       319       465      1745      2158      2159
 -1       750    8    0    1
 -2       319       320       466      1746      2160      2161
 -1       751    8    0    1
 -2       292       293       467      1720      2162      2163
 -1       752    8    0    1
 -2       209       362       468      1872      2164      2165
 -1       753    8    0    1
 -2       363       210       468      1873      2166      2167
 -1       754    8    0    1
 -2       180       322       181      1793      2168      1325
 -1       755    8    0    1
 -2       296       443       439      2113      2169      2101
 -1       756    8    0    1
 -2       336       181       322      1794      2168      2170
 -1       757    8    0    1
 -2       362       208       469      1871      2171      2172
 -1       758    8    0    1
 -2       208       207       469      1406      2173      2171
 -1       759    8    0    1
 -2       227       379       291      1921      2174      1923
 -1       760    8    0    1
 -2       210       209       468      1412      2165      2166
 -1       761    8    0    1
 -2       424       278       426      2064      2062      2175
 -1       762    8    0    1
 -2       440       292       467      2103      2163      2176
 -1       763    8    0    1
 -2       290       291       470      1656      2177      2178
 -1       764    8    0    1
 -2       436       290       470      2092      2178      2179
 -1       765    8    0    1
 -2       291       379       470      2174      2180      2177
 -1       766    8    0    1
 -2       293       438       467      2100      2181      2162
 -1       767    8    0    1
 -2       295       439       441      2102      2182      2105
 -1       768    8    0    1
 -2       320       440       466      2104      2183      2160
 -1       769    8    0    1
 -2       465       319       466      2158      2161      2184
 -1       770    8    0    1
 -2       464       318       465      2156      2159      2185
 -1       771    8    0    1
 -2       463       317       464      2154      2157      2186
 -1       772    8    0    1
 -2       462       316       463      2152      2155      2187
 -1       773    8    0    1
 -2       461       315       462      2150      2153      2188
 -1       774    8    0    1
 -2       460       314       461      2148      2151      2189
 -1       775    8    0    1
 -2       459       313       460      2146      2149      2190
 -1       776    8    0    1
 -2       458       312       459      2144      2147      2191
 -1       777    8    0    1
 -2       457       311       458      2142      2145      2192
 -1       778    8    0    1
 -2       456       310       457      2140      2143      2193
 -1       779    8    0    1
 -2       455       309       456      2138      2141      2194
 -1       780    8    0    1
 -2       454       308       455      2136      2139      2195
 -1       781    8    0    1
 -2       453       307       454      2134      2137      2196
 -1       782    8    0    1
 -2       451       305       452      2129      2133      2197
 -1       783    8    0    1
 -2       449       303       450      2124      2128      2198
 -1       784    8    0    1
 -2       447       301       448      2120      2123      2199
 -1       785    8    0    1
 -2       446       300       447      2118      2121      2200
 -1       786    8    0    1
 -2       445       299       446      2116      2119      2201
 -1       787    8    0    1
 -2       443       297       444      2112      2115      2202
 -1       788    8    0    1
 -2       444       298       445      2114      2117      2203
 -1       789    8    0    1
 -2       452       306       453      2132      2135      2204
 -1       790    8    0    1
 -2       469       207       361      2173      1869      2205
 -1       791    8    0    1
 -2       324       325       471      1760      2206      2207
 -1       792    8    0    1
 -2       323       324       472      1757      2208      2209
 -1       793    8    0    1
 -2       324       471       472      2207      2210      2208
 -1       794    8    0    1
 -2       326       327       473      1766      2211      2212
 -1       795    8    0    1
 -2       327       328       474      1769      2213      2214
 -1       796    8    0    1
 -2       327       474       473      2214      2215      2211
 -1       797    8    0    1
 -2       328       329       475      1772      2216      2217
 -1       798    8    0    1
 -2       328       475       474      2217      2218      2213
 -1       799    8    0    1
 -2       329       330       476      1775      2219      2220
 -1       800    8    0    1
 -2       329       476       475      2220      2221      2216
 -1       801    8    0    1
 -2       330       331       477      1778      2222      2223
 -1       802    8    0    1
 -2       330       477       476      2223      2224      2219
 -1       803    8    0    1
 -2       331       332       478      1781      2225      2226
 -1       804    8    0    1
 -2       331       478       477      2226      2227      2222
 -1       805    8    0    1
 -2       332       333       479      1784      2228      2229
 -1       806    8    0    1
 -2       332       479       478      2229      2230      2225
 -1       807    8    0    1
 -2       333       334       480      1787      2231      2232
 -1       808    8    0    1
 -2       479       333       480      2228      2232      2233
 -1       809    8    0    1
 -2       334       335       480      1792      2234      2231
 -1       810    8    0    1
 -2       362       469       459      2172      2235      2236
 -1       811    8    0    1
 -2       364       363       481      1877      2237      2238
 -1       812    8    0    1
 -2       337       336       482      1798      2239      2240
 -1       813    8    0    1
 -2       439       443       483      2169      2241      2242
 -1       814    8    0    1
 -2       467       438       484      2181      2243      2244
 -1       815    8    0    1
 -2       338       337       485      1801      2245      2246
 -1       816    8    0    1
 -2       337       482       485      2240      2247      2245
 -1       817    8    0    1
 -2       339       338       486      1804      2248      2249
 -1       818    8    0    1
 -2       338       485       486      2246      2250      2248
 -1       819    8    0    1
 -2       340       339       487      1807      2251      2252
 -1       820    8    0    1
 -2       339       486       487      2249      2253      2251
 -1       821    8    0    1
 -2       341       340       488      1810      2254      2255
 -1       822    8    0    1
 -2       340       487       488      2252      2256      2254
 -1       823    8    0    1
 -2       342       341       489      1813      2257      2258
 -1       824    8    0    1
 -2       341       488       489      2255      2259      2257
 -1       825    8    0    1
 -2       343       342       490      1816      2260      2261
 -1       826    8    0    1
 -2       342       489       490      2258      2262      2260
 -1       827    8    0    1
 -2       344       343       491      1819      2263      2264
 -1       828    8    0    1
 -2       343       490       491      2261      2265      2263
 -1       829    8    0    1
 -2       345       344       492      1822      2266      2267
 -1       830    8    0    1
 -2       344       491       492      2264      2268      2266
 -1       831    8    0    1
 -2       346       345       493      1825      2269      2270
 -1       832    8    0    1
 -2       345       492       493      2267      2271      2269
 -1       833    8    0    1
 -2       347       346       494      1828      2272      2273
 -1       834    8    0    1
 -2       346       493       494      2270      2274      2272
 -1       835    8    0    1
 -2       348       347       495      1831      2275      2276
 -1       836    8    0    1
 -2       347       494       495      2273      2277      2275
 -1       837    8    0    1
 -2       349       348       496      1834      2278      2279
 -1       838    8    0    1
 -2       348       495       496      2276      2280      2278
 -1       839    8    0    1
 -2       350       349       497      1837      2281      2282
 -1       840    8    0    1
 -2       349       496       497      2279      2283      2281
 -1       841    8    0    1
 -2       351       350       498      1840      2284      2285
 -1       842    8    0    1
 -2       350       497       498      2282      2286      2284
 -1       843    8    0    1
 -2       352       351       499      1843      2287      2288
 -1       844    8    0    1
 -2       351       498       499      2285      2289      2287
 -1       845    8    0    1
 -2       353       352       500      1846      2290      2291
 -1       846    8    0    1
 -2       352       499       500      2288      2292      2290
 -1       847    8    0    1
 -2       354       353       501      1849      2293      2294
 -1       848    8    0    1
 -2       353       500       501      2291      2295      2293
 -1       849    8    0    1
 -2       355       354       502      1852      2296      2297
 -1       850    8    0    1
 -2       354       501       502      2294      2298      2296
 -1       851    8    0    1
 -2       356       355       503      1855      2299      2300
 -1       852    8    0    1
 -2       355       502       503      2297      2301      2299
 -1       853    8    0    1
 -2       357       356       504      1858      2302      2303
 -1       854    8    0    1
 -2       356       503       504      2300      2304      2302
 -1       855    8    0    1
 -2       358       357       505      1861      2305      2306
 -1       856    8    0    1
 -2       357       504       505      2303      2307      2305
 -1       857    8    0    1
 -2       359       358       506      1864      2308      2309
 -1       858    8    0    1
 -2       358       505       506      2306      2310      2308
 -1       859    8    0    1
 -2       360       359       507      1867      2311      2312
 -1       860    8    0    1
 -2       359       506       507      2309      2313      2311
 -1       861    8    0    1
 -2       365       364       508      1880      2314      2315
 -1       862    8    0    1
 -2       366       365       509      1883      2316      2317
 -1       863    8    0    1
 -2       365       508       509      2315      2318      2316
 -1       864    8    0    1
 -2       367       366       510      1886      2319      2320
 -1       865    8    0    1
 -2       366       509       510      2317      2321      2319
 -1       866    8    0    1
 -2       368       367       511      1889      2322      2323
 -1       867    8    0    1
 -2       367       510       511      2320      2324      2322
 -1       868    8    0    1
 -2       369       368       512      1892      2325      2326
 -1       869    8    0    1
 -2       368       511       512      2323      2327      2325
 -1       870    8    0    1
 -2       370       369       513      1895      2328      2329
 -1       871    8    0    1
 -2       369       512       513      2326      2330      2328
 -1       872    8    0    1
 -2       371       370       514      1898      2331      2332
 -1       873    8    0    1
 -2       370       513       514      2329      2333      2331
 -1       874    8    0    1
 -2       372       371       515      1901      2334      2335
 -1       875    8    0    1
 -2       371       514       515      2332      2336      2334
 -1       876    8    0    1
 -2       373       372       516      1904      2337      2338
 -1       877    8    0    1
 -2       372       515       516      2335      2339      2337
 -1       878    8    0    1
 -2       374       373       517      1907      2340      2341
 -1       879    8    0    1
 -2       373       516       517      2338      2342      2340
 -1       880    8    0    1
 -2       375       374       518      1910      2343      2344
 -1       881    8    0    1
 -2       374       517       518      2341      2345      2343
 -1       882    8    0    1
 -2       376       375       519      1913      2346      2347
 -1       883    8    0    1
 -2       375       518       519      2344      2348      2346
 -1       884    8    0    1
 -2       377       376       520      1916      2349      2350
 -1       885    8    0    1
 -2       376       519       520      2347      2351      2349
 -1       886    8    0    1
 -2       378       377       521      1919      2352      2353
 -1       887    8    0    1
 -2       377       520       521      2350      2354      2352
 -1       888    8    0    1
 -2       379       378       522      1922      2355      2356
 -1       889    8    0    1
 -2       470       379       522      2180      2356      2357
 -1       890    8    0    1
 -2       378       521       522      2353      2358      2355
 -1       891    8    0    1
 -2       382       383       523      1934      2359      2360
 -1       892    8    0    1
 -2       381       382       524      1931      2361      2362
 -1       893    8    0    1
 -2       382       523       524      2360      2363      2361
 -1       894    8    0    1
 -2       380       381       525      1928      2364      2365
 -1       895    8    0    1
 -2       381       524       525      2362      2366      2364
 -1       896    8    0    1
 -2       383       384       526      1937      2367      2368
 -1       897    8    0    1
 -2       383       526       523      2368      2369      2359
 -1       898    8    0    1
 -2       384       385       527      1940      2370      2371
 -1       899    8    0    1
 -2       384       527       526      2371      2372      2367
 -1       900    8    0    1
 -2       385       386       528      1943      2373      2374
 -1       901    8    0    1
 -2       385       528       527      2374      2375      2370
 -1       902    8    0    1
 -2       386       387       529      1946      2376      2377
 -1       903    8    0    1
 -2       386       529       528      2377      2378      2373
 -1       904    8    0    1
 -2       387       388       530      1949      2379      2380
 -1       905    8    0    1
 -2       387       530       529      2380      2381      2376
 -1       906    8    0    1
 -2       388       389       531      1952      2382      2383
 -1       907    8    0    1
 -2       388       531       530      2383      2384      2379
 -1       908    8    0    1
 -2       389       390       532      1955      2385      2386
 -1       909    8    0    1
 -2       389       532       531      2386      2387      2382
 -1       910    8    0    1
 -2       390       391       533      1958      2388      2389
 -1       911    8    0    1
 -2       390       533       532      2389      2390      2385
 -1       912    8    0    1
 -2       391       392       534      1961      2391      2392
 -1       913    8    0    1
 -2       391       534       533      2392      2393      2388
 -1       914    8    0    1
 -2       392       393       535      1964      2394      2395
 -1       915    8    0    1
 -2       392       535       534      2395      2396      2391
 -1       916    8    0    1
 -2       393       394       536      1967      2397      2398
 -1       917    8    0    1
 -2       393       536       535      2398      2399      2394
 -1       918    8    0    1
 -2       394       395       537      1970      2400      2401
 -1       919    8    0    1
 -2       394       537       536      2401      2402      2397
 -1       920    8    0    1
 -2       395       396       538      1973      2403      2404
 -1       921    8    0    1
 -2       395       538       537      2404      2405      2400
 -1       922    8    0    1
 -2       396       397       539      1976      2406      2407
 -1       923    8    0    1
 -2       396       539       538      2407      2408      2403
 -1       924    8    0    1
 -2       397       398       540      1979      2409      2410
 -1       925    8    0    1
 -2       397       540       539      2410      2411      2406
 -1       926    8    0    1
 -2       398       399       541      1982      2412      2413
 -1       927    8    0    1
 -2       398       541       540      2413      2414      2409
 -1       928    8    0    1
 -2       399       400       542      1985      2415      2416
 -1       929    8    0    1
 -2       399       542       541      2416      2417      2412
 -1       930    8    0    1
 -2       400       401       543      1988      2418      2419
 -1       931    8    0    1
 -2       400       543       542      2419      2420      2415
 -1       932    8    0    1
 -2       401       402       544      1991      2421      2422
 -1       933    8    0    1
 -2       401       544       543      2422      2423      2418
 -1       934    8    0    1
 -2       402       403       545      1994      2424      2425
 -1       935    8    0    1
 -2       402       545       544      2425      2426      2421
 -1       936    8    0    1
 -2       403       404       546      1997      2427      2428
 -1       937    8    0    1
 -2       403       546       545      2428      2429      2424
 -1       938    8    0    1
 -2       404       405       547      2000      2430      2431
 -1       939    8    0    1
 -2       404       547       546      2431      2432      2427
 -1       940    8    0    1
 -2       405       406       548      2003      2433      2434
 -1       941    8    0    1
 -2       405       548       547      2434      2435      2430
 -1       942    8    0    1
 -2       406       407       549      2006      2436      2437
 -1       943    8    0    1
 -2       406       549       548      2437      2438      2433
 -1       944    8    0    1
 -2       407       408       550      2009      2439      2440
 -1       945    8    0    1
 -2       407       550       549      2440      2441      2436
 -1       946    8    0    1
 -2       408       409       551      2012      2442      2443
 -1       947    8    0    1
 -2       408       551       550      2443      2444      2439
 -1       948    8    0    1
 -2       409       410       552      2015      2445      2446
 -1       949    8    0    1
 -2       409       552       551      2446      2447      2442
 -1       950    8    0    1
 -2       410       411       553      2018      2448      2449
 -1       951    8    0    1
 -2       410       553       552      2449      2450      2445
 -1       952    8    0    1
 -2       411       412       554      2021      2451      2452
 -1       953    8    0    1
 -2       411       554       553      2452      2453      2448
 -1       954    8    0    1
 -2       412       413       555      2024      2454      2455
 -1       955    8    0    1
 -2       412       555       554      2455      2456      2451
 -1       956    8    0    1
 -2       413       414       556      2027      2457      2458
 -1       957    8    0    1
 -2       413       556       555      2458      2459      2454
 -1       958    8    0    1
 -2       414       415       557      2030      2460      2461
 -1       959    8    0    1
 -2       414       557       556      2461      2462      2457
 -1       960    8    0    1
 -2       415       416       558      2033      2463      2464
 -1       961    8    0    1
 -2       415       558       557      2464      2465      2460
 -1       962    8    0    1
 -2       416       417       559      2036      2466      2467
 -1       963    8    0    1
 -2       416       559       558      2467      2468      2463
 -1       964    8    0    1
 -2       417       418       560      2039      2469      2470
 -1       965    8    0    1
 -2       417       560       559      2470      2471      2466
 -1       966    8    0    1
 -2       418       419       561      2042      2472      2473
 -1       967    8    0    1
 -2       418       561       560      2473      2474      2469
 -1       968    8    0    1
 -2       419       420       562      2045      2475      2476
 -1       969    8    0    1
 -2       419       562       561      2476      2477      2472
 -1       970    8    0    1
 -2       420       421       563      2048      2478      2479
 -1       971    8    0    1
 -2       420       563       562      2479      2480      2475
 -1       972    8    0    1
 -2       421       422       564      2051      2481      2482
 -1       973    8    0    1
 -2       421       564       563      2482      2483      2478
 -1       974    8    0    1
 -2       422       423       565      2054      2484      2485
 -1       975    8    0    1
 -2       422       565       564      2485      2486      2481
 -1       976    8    0    1
 -2       423       424       426      2057      2175      2487
 -1       977    8    0    1
 -2       427       428       566      2070      2488      2489
 -1       978    8    0    1
 -2       425       427       567      2067      2490      2491
 -1       979    8    0    1
 -2       427       566       567      2489      2492      2490
 -1       980    8    0    1
 -2       426       425       568      2063      2493      2494
 -1       981    8    0    1
 -2       425       567       568      2491      2495      2493
 -1       982    8    0    1
 -2       440       467       569      2176      2496      2497
 -1       983    8    0    1
 -2       428       429       570      2073      2498      2499
 -1       984    8    0    1
 -2       428       570       566      2499      2500      2488
 -1       985    8    0    1
 -2       429       430       571      2076      2501      2502
 -1       986    8    0    1
 -2       429       571       570      2502      2503      2498
 -1       987    8    0    1
 -2       430       431       572      2079      2504      2505
 -1       988    8    0    1
 -2       430       572       571      2505      2506      2501
 -1       989    8    0    1
 -2       431       432       573      2082      2507      2508
 -1       990    8    0    1
 -2       431       573       572      2508      2509      2504
 -1       991    8    0    1
 -2       432       433       574      2085      2510      2511
 -1       992    8    0    1
 -2       432       574       573      2511      2512      2507
 -1       993    8    0    1
 -2       433       434       575      2088      2513      2514
 -1       994    8    0    1
 -2       433       575       574      2514      2515      2510
 -1       995    8    0    1
 -2       434       435       576      2091      2516      2517
 -1       996    8    0    1
 -2       434       576       575      2517      2518      2513
 -1       997    8    0    1
 -2       435       436       577      2094      2519      2520
 -1       998    8    0    1
 -2       435       577       576      2520      2521      2516
 -1       999    8    0    1
 -2       336       322       578      2170      2522      2523
 -1      1000    8    0    1
 -2       482       336       578      2239      2523      2524
 -1      1001    8    0    1
 -2       322       321       578      1752      2525      2522
 -1      1002    8    0    1
 -2       438       441       579      2107      2526      2527
 -1      1003    8    0    1
 -2       441       439       580      2182      2528      2529
 -1      1004    8    0    1
 -2       465       466       581      2184      2530      2531
 -1      1005    8    0    1
 -2       447       448       582      2199      2532      2533
 -1      1006    8    0    1
 -2       466       440       583      2183      2534      2535
 -1      1007    8    0    1
 -2       440       569       583      2497      2536      2534
 -1      1008    8    0    1
 -2       325       326       584      1763      2537      2538
 -1      1009    8    0    1
 -2       471       325       584      2206      2538      2539
 -1      1010    8    0    1
 -2       326       473       584      2212      2540      2537
 -1      1011    8    0    1
 -2       444       445       585      2203      2541      2542
 -1      1012    8    0    1
 -2       452       453       586      2204      2543      2544
 -1      1013    8    0    1
 -2       443       444       587      2202      2545      2546
 -1      1014    8    0    1
 -2       445       446       588      2201      2547      2548
 -1      1015    8    0    1
 -2       445       588       585      2548      2549      2541
 -1      1016    8    0    1
 -2       446       447       589      2200      2550      2551
 -1      1017    8    0    1
 -2       447       582       589      2533      2552      2550
 -1      1018    8    0    1
 -2       448       449       590      2126      2553      2554
 -1      1019    8    0    1
 -2       449       450       591      2198      2555      2556
 -1      1020    8    0    1
 -2       450       451       592      2131      2557      2558
 -1      1021    8    0    1
 -2       451       452       593      2197      2559      2560
 -1      1022    8    0    1
 -2       453       454       594      2196      2561      2562
 -1      1023    8    0    1
 -2       454       455       595      2195      2563      2564
 -1      1024    8    0    1
 -2       455       456       596      2194      2565      2566
 -1      1025    8    0    1
 -2       456       457       597      2193      2567      2568
 -1      1026    8    0    1
 -2       463       464       481      2186      2569      2570
 -1      1027    8    0    1
 -2       464       465       598      2185      2571      2572
 -1      1028    8    0    1
 -2       465       581       598      2531      2573      2571
 -1      1029    8    0    1
 -2       423       426       565      2487      2574      2484
 -1      1030    8    0    1
 -2       363       468       462      2167      2575      2576
 -1      1031    8    0    1
 -2       323       472       599      2209      2577      2578
 -1      1032    8    0    1
 -2       323       599       442      2578      2579      2111
 -1      1033    8    0    1
 -2       480       335       600      2234      2580      2581
 -1      1034    8    0    1
 -2       335       437       600      2097      2582      2580
 -1      1035    8    0    1
 -2       481       363       462      2237      2576      2583
 -1      1036    8    0    1
 -2       364       481       508      2238      2584      2314
 -1      1037    8    0    1
 -2       321       442       601      2110      2585      2586
 -1      1038    8    0    1
 -2       578       321       601      2525      2586      2587
 -1      1039    8    0    1
 -2       442       599       601      2579      2588      2585
 -1      1040    8    0    1
 -2       439       483       580      2242      2589      2528
 -1      1041    8    0    1
 -2       467       484       569      2244      2590      2496
 -1      1042    8    0    1
 -2       444       585       587      2542      2591      2545
 -1      1043    8    0    1
 -2       446       589       602      2551      2592      2593
 -1      1044    8    0    1
 -2       446       602       588      2593      2594      2547
 -1      1045    8    0    1
 -2       462       468       461      2575      2595      2188
 -1      1046    8    0    1
 -2       437       380       603      2098      2596      2597
 -1      1047    8    0    1
 -2       600       437       603      2582      2597      2598
 -1      1048    8    0    1
 -2       380       525       603      2365      2599      2596
 -1      1049    8    0    1
 -2       426       568       565      2494      2600      2574
 -1      1050    8    0    1
 -2       441       580       579      2529      2601      2526
 -1      1051    8    0    1
 -2       468       362       461      2164      2602      2595
 -1      1052    8    0    1
 -2       448       590       582      2554      2603      2532
 -1      1053    8    0    1
 -2       481       464       508      2569      2604      2584
 -1      1054    8    0    1
 -2       596       456       597      2565      2568      2605
 -1      1055    8    0    1
 -2       595       455       596      2563      2566      2606
 -1      1056    8    0    1
 -2       594       454       595      2561      2564      2607
 -1      1057    8    0    1
 -2       593       452       604      2559      2608      2609
 -1      1058    8    0    1
 -2       452       586       604      2544      2610      2608
 -1      1059    8    0    1
 -2       592       451       593      2557      2560      2611
 -1      1060    8    0    1
 -2       591       450       592      2555      2558      2612
 -1      1061    8    0    1
 -2       581       466       605      2530      2613      2614
 -1      1062    8    0    1
 -2       466       583       605      2535      2615      2613
 -1      1063    8    0    1
 -2       484       438       579      2243      2527      2616
 -1      1064    8    0    1
 -2       483       443       587      2241      2546      2617
 -1      1065    8    0    1
 -2       586       453       594      2543      2562      2618
 -1      1066    8    0    1
 -2       590       449       591      2553      2556      2619
 -1      1067    8    0    1
 -2       469       361       458      2205      2620      2621
 -1      1068    8    0    1
 -2       457       458       606      2192      2622      2623
 -1      1069    8    0    1
 -2       459       460       362      2190      2624      2236
 -1      1070    8    0    1
 -2       436       470       522      2179      2357      2625
 -1      1071    8    0    1
 -2       436       522       577      2625      2626      2519
 -1      1072    8    0    1
 -2       458       361       606      2620      2627      2622
 -1      1073    8    0    1
 -2       457       606       597      2623      2628      2567
 -1      1074    8    0    1
 -2       580       483       607      2589      2629      2630
 -1      1075    8    0    1
 -2       474       475       608      2218      2631      2632
 -1      1076    8    0    1
 -2       473       474       609      2215      2633      2634
 -1      1077    8    0    1
 -2       474       608       609      2632      2635      2633
 -1      1078    8    0    1
 -2       476       477       610      2224      2636      2637
 -1      1079    8    0    1
 -2       477       478       611      2227      2638      2639
 -1      1080    8    0    1
 -2       477       611       610      2639      2640      2636
 -1      1081    8    0    1
 -2       479       480       612      2233      2641      2642
 -1      1082    8    0    1
 -2       480       600       612      2581      2643      2641
 -1      1083    8    0    1
 -2       459       469       458      2235      2621      2191
 -1      1084    8    0    1
 -2       577       522       521      2626      2358      2644
 -1      1085    8    0    1
 -2       360       507       597      2312      2645      2646
 -1      1086    8    0    1
 -2       486       485       613      2250      2647      2648
 -1      1087    8    0    1
 -2       487       486       614      2253      2649      2650
 -1      1088    8    0    1
 -2       486       613       614      2648      2651      2649
 -1      1089    8    0    1
 -2       488       487       615      2256      2652      2653
 -1      1090    8    0    1
 -2       487       614       615      2650      2654      2652
 -1      1091    8    0    1
 -2       489       488       616      2259      2655      2656
 -1      1092    8    0    1
 -2       488       615       616      2653      2657      2655
 -1      1093    8    0    1
 -2       490       489       617      2262      2658      2659
 -1      1094    8    0    1
 -2       489       616       617      2656      2660      2658
 -1      1095    8    0    1
 -2       491       490       618      2265      2661      2662
 -1      1096    8    0    1
 -2       490       617       618      2659      2663      2661
 -1      1097    8    0    1
 -2       492       491       619      2268      2664      2665
 -1      1098    8    0    1
 -2       491       618       619      2662      2666      2664
 -1      1099    8    0    1
 -2       493       492       620      2271      2667      2668
 -1      1100    8    0    1
 -2       492       619       620      2665      2669      2667
 -1      1101    8    0    1
 -2       494       493       621      2274      2670      2671
 -1      1102    8    0    1
 -2       493       620       621      2668      2672      2670
 -1      1103    8    0    1
 -2       495       494       622      2277      2673      2674
 -1      1104    8    0    1
 -2       494       621       622      2671      2675      2673
 -1      1105    8    0    1
 -2       496       495       623      2280      2676      2677
 -1      1106    8    0    1
 -2       495       622       623      2674      2678      2676
 -1      1107    8    0    1
 -2       497       496       624      2283      2679      2680
 -1      1108    8    0    1
 -2       496       623       624      2677      2681      2679
 -1      1109    8    0    1
 -2       498       497       625      2286      2682      2683
 -1      1110    8    0    1
 -2       497       624       625      2680      2684      2682
 -1      1111    8    0    1
 -2       499       498       626      2289      2685      2686
 -1      1112    8    0    1
 -2       498       625       626      2683      2687      2685
 -1      1113    8    0    1
 -2       500       499       627      2292      2688      2689
 -1      1114    8    0    1
 -2       499       626       627      2686      2690      2688
 -1      1115    8    0    1
 -2       501       500       628      2295      2691      2692
 -1      1116    8    0    1
 -2       500       627       628      2689      2693      2691
 -1      1117    8    0    1
 -2       502       501       629      2298      2694      2695
 -1      1118    8    0    1
 -2       501       628       629      2692      2696      2694
 -1      1119    8    0    1
 -2       503       502       630      2301      2697      2698
 -1      1120    8    0    1
 -2       502       629       630      2695      2699      2697
 -1      1121    8    0    1
 -2       504       503       631      2304      2700      2701
 -1      1122    8    0    1
 -2       503       630       631      2698      2702      2700
 -1      1123    8    0    1
 -2       505       504       632      2307      2703      2704
 -1      1124    8    0    1
 -2       504       631       632      2701      2705      2703
 -1      1125    8    0    1
 -2       506       505       633      2310      2706      2707
 -1      1126    8    0    1
 -2       505       632       633      2704      2708      2706
 -1      1127    8    0    1
 -2       565       568       634      2600      2709      2710
 -1      1128    8    0    1
 -2       565       634       564      2710      2711      2486
 -1      1129    8    0    1
 -2       510       509       635      2321      2712      2713
 -1      1130    8    0    1
 -2       511       510       636      2324      2714      2715
 -1      1131    8    0    1
 -2       510       635       636      2713      2716      2714
 -1      1132    8    0    1
 -2       512       511       637      2327      2717      2718
 -1      1133    8    0    1
 -2       511       636       637      2715      2719      2717
 -1      1134    8    0    1
 -2       513       512       638      2330      2720      2721
 -1      1135    8    0    1
 -2       512       637       638      2718      2722      2720
 -1      1136    8    0    1
 -2       514       513       639      2333      2723      2724
 -1      1137    8    0    1
 -2       513       638       639      2721      2725      2723
 -1      1138    8    0    1
 -2       515       514       640      2336      2726      2727
 -1      1139    8    0    1
 -2       514       639       640      2724      2728      2726
 -1      1140    8    0    1
 -2       516       515       641      2339      2729      2730
 -1      1141    8    0    1
 -2       515       640       641      2727      2731      2729
 -1      1142    8    0    1
 -2       517       516       642      2342      2732      2733
 -1      1143    8    0    1
 -2       516       641       642      2730      2734      2732
 -1      1144    8    0    1
 -2       518       517       643      2345      2735      2736
 -1      1145    8    0    1
 -2       517       642       643      2733      2737      2735
 -1      1146    8    0    1
 -2       519       518       644      2348      2738      2739
 -1      1147    8    0    1
 -2       518       643       644      2736      2740      2738
 -1      1148    8    0    1
 -2       520       519       645      2351      2741      2742
 -1      1149    8    0    1
 -2       519       644       645      2739      2743      2741
 -1      1150    8    0    1
 -2       521       520       646      2354      2744      2745
 -1      1151    8    0    1
 -2       520       645       646      2742      2746      2744
 -1      1152    8    0    1
 -2       524       523       647      2363      2747      2748
 -1      1153    8    0    1
 -2       523       526       648      2369      2749      2750
 -1      1154    8    0    1
 -2       523       648       647      2750      2751      2747
 -1      1155    8    0    1
 -2       525       524       649      2366      2752      2753
 -1      1156    8    0    1
 -2       524       647       649      2748      2754      2752
 -1      1157    8    0    1
 -2       527       528       650      2375      2755      2756
 -1      1158    8    0    1
 -2       528       529       651      2378      2757      2758
 -1      1159    8    0    1
 -2       528       651       650      2758      2759      2755
 -1      1160    8    0    1
 -2       529       530       652      2381      2760      2761
 -1      1161    8    0    1
 -2       529       652       651      2761      2762      2757
 -1      1162    8    0    1
 -2       530       531       653      2384      2763      2764
 -1      1163    8    0    1
 -2       530       653       652      2764      2765      2760
 -1      1164    8    0    1
 -2       531       532       654      2387      2766      2767
 -1      1165    8    0    1
 -2       531       654       653      2767      2768      2763
 -1      1166    8    0    1
 -2       532       533       655      2390      2769      2770
 -1      1167    8    0    1
 -2       532       655       654      2770      2771      2766
 -1      1168    8    0    1
 -2       533       534       656      2393      2772      2773
 -1      1169    8    0    1
 -2       533       656       655      2773      2774      2769
 -1      1170    8    0    1
 -2       534       535       657      2396      2775      2776
 -1      1171    8    0    1
 -2       534       657       656      2776      2777      2772
 -1      1172    8    0    1
 -2       535       536       658      2399      2778      2779
 -1      1173    8    0    1
 -2       535       658       657      2779      2780      2775
 -1      1174    8    0    1
 -2       536       537       659      2402      2781      2782
 -1      1175    8    0    1
 -2       536       659       658      2782      2783      2778
 -1      1176    8    0    1
 -2       537       538       660      2405      2784      2785
 -1      1177    8    0    1
 -2       537       660       659      2785      2786      2781
 -1      1178    8    0    1
 -2       538       539       661      2408      2787      2788
 -1      1179    8    0    1
 -2       538       661       660      2788      2789      2784
 -1      1180    8    0    1
 -2       539       540       662      2411      2790      2791
 -1      1181    8    0    1
 -2       539       662       661      2791      2792      2787
 -1      1182    8    0    1
 -2       540       541       663      2414      2793      2794
 -1      1183    8    0    1
 -2       540       663       662      2794      2795      2790
 -1      1184    8    0    1
 -2       541       542       664      2417      2796      2797
 -1      1185    8    0    1
 -2       541       664       663      2797      2798      2793
 -1      1186    8    0    1
 -2       542       543       665      2420      2799      2800
 -1      1187    8    0    1
 -2       542       665       664      2800      2801      2796
 -1      1188    8    0    1
 -2       543       544       666      2423      2802      2803
 -1      1189    8    0    1
 -2       543       666       665      2803      2804      2799
 -1      1190    8    0    1
 -2       544       545       667      2426      2805      2806
 -1      1191    8    0    1
 -2       544       667       666      2806      2807      2802
 -1      1192    8    0    1
 -2       545       546       668      2429      2808      2809
 -1      1193    8    0    1
 -2       545       668       667      2809      2810      2805
 -1      1194    8    0    1
 -2       546       547       669      2432      2811      2812
 -1      1195    8    0    1
 -2       546       669       668      2812      2813      2808
 -1      1196    8    0    1
 -2       547       548       670      2435      2814      2815
 -1      1197    8    0    1
 -2       547       670       669      2815      2816      2811
 -1      1198    8    0    1
 -2       548       549       671      2438      2817      2818
 -1      1199    8    0    1
 -2       548       671       670      2818      2819      2814
 -1      1200    8    0    1
 -2       549       550       672      2441      2820      2821
 -1      1201    8    0    1
 -2       549       672       671      2821      2822      2817
 -1      1202    8    0    1
 -2       550       551       673      2444      2823      2824
 -1      1203    8    0    1
 -2       550       673       672      2824      2825      2820
 -1      1204    8    0    1
 -2       551       552       674      2447      2826      2827
 -1      1205    8    0    1
 -2       551       674       673      2827      2828      2823
 -1      1206    8    0    1
 -2       552       553       675      2450      2829      2830
 -1      1207    8    0    1
 -2       552       675       674      2830      2831      2826
 -1      1208    8    0    1
 -2       553       554       676      2453      2832      2833
 -1      1209    8    0    1
 -2       553       676       675      2833      2834      2829
 -1      1210    8    0    1
 -2       554       555       677      2456      2835      2836
 -1      1211    8    0    1
 -2       554       677       676      2836      2837      2832
 -1      1212    8    0    1
 -2       555       556       678      2459      2838      2839
 -1      1213    8    0    1
 -2       555       678       677      2839      2840      2835
 -1      1214    8    0    1
 -2       556       557       679      2462      2841      2842
 -1      1215    8    0    1
 -2       556       679       678      2842      2843      2838
 -1      1216    8    0    1
 -2       557       558       680      2465      2844      2845
 -1      1217    8    0    1
 -2       557       680       679      2845      2846      2841
 -1      1218    8    0    1
 -2       558       559       681      2468      2847      2848
 -1      1219    8    0    1
 -2       558       681       680      2848      2849      2844
 -1      1220    8    0    1
 -2       559       560       682      2471      2850      2851
 -1      1221    8    0    1
 -2       559       682       681      2851      2852      2847
 -1      1222    8    0    1
 -2       560       561       683      2474      2853      2854
 -1      1223    8    0    1
 -2       560       683       682      2854      2855      2850
 -1      1224    8    0    1
 -2       561       562       684      2477      2856      2857
 -1      1225    8    0    1
 -2       561       684       683      2857      2858      2853
 -1      1226    8    0    1
 -2       562       563       685      2480      2859      2860
 -1      1227    8    0    1
 -2       562       685       684      2860      2861      2856
 -1      1228    8    0    1
 -2       563       564       686      2483      2862      2863
 -1      1229    8    0    1
 -2       685       563       686      2859      2863      2864
 -1      1230    8    0    1
 -2       564       634       686      2711      2865      2862
 -1      1231    8    0    1
 -2       567       566       687      2492      2866      2867
 -1      1232    8    0    1
 -2       570       571       688      2503      2868      2869
 -1      1233    8    0    1
 -2       568       567       634      2495      2870      2709
 -1      1234    8    0    1
 -2       587       585       689      2591      2871      2872
 -1      1235    8    0    1
 -2       566       570       690      2500      2873      2874
 -1      1236    8    0    1
 -2       687       566       690      2866      2874      2875
 -1      1237    8    0    1
 -2       570       688       690      2869      2876      2873
 -1      1238    8    0    1
 -2       526       527       691      2372      2877      2878
 -1      1239    8    0    1
 -2       648       526       691      2749      2878      2879
 -1      1240    8    0    1
 -2       527       650       691      2756      2880      2877
 -1      1241    8    0    1
 -2       572       573       692      2509      2881      2882
 -1      1242    8    0    1
 -2       573       574       693      2512      2883      2884
 -1      1243    8    0    1
 -2       573       693       692      2884      2885      2881
 -1      1244    8    0    1
 -2       574       575       694      2515      2886      2887
 -1      1245    8    0    1
 -2       574       694       693      2887      2888      2883
 -1      1246    8    0    1
 -2       575       576       695      2518      2889      2890
 -1      1247    8    0    1
 -2       575       695       694      2890      2891      2886
 -1      1248    8    0    1
 -2       482       578       696      2524      2892      2893
 -1      1249    8    0    1
 -2       578       601       696      2587      2894      2892
 -1      1250    8    0    1
 -2       569       484       697      2590      2895      2896
 -1      1251    8    0    1
 -2       598       581       698      2573      2897      2898
 -1      1252    8    0    1
 -2       579       580       699      2601      2899      2900
 -1      1253    8    0    1
 -2       582       590       700      2603      2901      2902
 -1      1254    8    0    1
 -2       583       569       701      2536      2903      2904
 -1      1255    8    0    1
 -2       571       572       702      2506      2905      2906
 -1      1256    8    0    1
 -2       572       692       702      2882      2907      2905
 -1      1257    8    0    1
 -2       484       579       703      2616      2908      2909
 -1      1258    8    0    1
 -2       485       482       704      2247      2910      2911
 -1      1259    8    0    1
 -2       613       485       704      2647      2911      2912
 -1      1260    8    0    1
 -2       482       696       704      2893      2913      2910
 -1      1261    8    0    1
 -2       483       587       705      2617      2914      2915
 -1      1262    8    0    1
 -2       461       362       460      2602      2624      2189
 -1      1263    8    0    1
 -2       475       476       706      2221      2916      2917
 -1      1264    8    0    1
 -2       608       475       706      2631      2917      2918
 -1      1265    8    0    1
 -2       476       610       706      2637      2919      2916
 -1      1266    8    0    1
 -2       592       593       707      2611      2920      2921
 -1      1267    8    0    1
 -2       586       594       708      2618      2922      2923
 -1      1268    8    0    1
 -2       585       588       709      2549      2924      2925
 -1      1269    8    0    1
 -2       589       582       710      2552      2926      2927
 -1      1270    8    0    1
 -2       582       700       710      2902      2928      2926
 -1      1271    8    0    1
 -2       591       592       711      2612      2929      2930
 -1      1272    8    0    1
 -2       472       471       712      2210      2931      2932
 -1      1273    8    0    1
 -2       590       591       713      2619      2933      2934
 -1      1274    8    0    1
 -2       594       595       714      2607      2935      2936
 -1      1275    8    0    1
 -2       577       521       646      2644      2745      2937
 -1      1276    8    0    1
 -2       462       463       481      2187      2570      2583
 -1      1277    8    0    1
 -2       592       707       711      2921      2938      2929
 -1      1278    8    0    1
 -2       473       609       715      2634      2939      2940
 -1      1279    8    0    1
 -2       473       715       584      2940      2941      2540
 -1      1280    8    0    1
 -2       479       612       478      2642      2942      2230
 -1      1281    8    0    1
 -2       597       507       596      2645      2943      2605
 -1      1282    8    0    1
 -2       602       589       716      2592      2944      2945
 -1      1283    8    0    1
 -2       589       710       716      2927      2946      2944
 -1      1284    8    0    1
 -2       567       687       634      2867      2947      2870
 -1      1285    8    0    1
 -2       587       689       705      2872      2948      2914
 -1      1286    8    0    1
 -2       507       506       717      2313      2949      2950
 -1      1287    8    0    1
 -2       569       697       701      2896      2951      2903
 -1      1288    8    0    1
 -2       635       509       698      2712      2952      2953
 -1      1289    8    0    1
 -2       525       649       718      2753      2954      2955
 -1      1290    8    0    1
 -2       360       597       606      2646      2628      2956
 -1      1291    8    0    1
 -2       688       571       702      2868      2906      2957
 -1      1292    8    0    1
 -2       484       703       719      2909      2958      2959
 -1      1293    8    0    1
 -2       484       719       697      2959      2960      2895
 -1      1294    8    0    1
 -2       603       525       718      2599      2955      2961
 -1      1295    8    0    1
 -2       471       584       720      2539      2962      2963
 -1      1296    8    0    1
 -2       712       471       720      2931      2963      2964
 -1      1297    8    0    1
 -2       584       715       720      2941      2965      2962
 -1      1298    8    0    1
 -2       689       585       709      2871      2925      2966
 -1      1299    8    0    1
 -2       698       581       605      2897      2614      2967
 -1      1300    8    0    1
 -2       483       705       607      2915      2968      2629
 -1      1301    8    0    1
 -2       576       577       721      2521      2969      2970
 -1      1302    8    0    1
 -2       579       699       703      2900      2971      2908
 -1      1303    8    0    1
 -2       591       711       713      2930      2972      2933
 -1      1304    8    0    1
 -2       580       607       699      2630      2973      2899
 -1      1305    8    0    1
 -2       604       586       722      2610      2974      2975
 -1      1306    8    0    1
 -2       586       708       722      2923      2976      2974
 -1      1307    8    0    1
 -2       605       583       723      2615      2977      2978
 -1      1308    8    0    1
 -2       583       701       723      2904      2979      2977
 -1      1309    8    0    1
 -2       588       602       724      2594      2980      2981
 -1      1310    8    0    1
 -2       588       724       709      2981      2982      2924
 -1      1311    8    0    1
 -2       508       464       598      2604      2572      2983
 -1      1312    8    0    1
 -2       700       590       725      2901      2984      2985
 -1      1313    8    0    1
 -2       590       713       725      2934      2986      2984
 -1      1314    8    0    1
 -2       509       508       698      2318      2987      2952
 -1      1315    8    0    1
 -2       478       612       611      2942      2988      2638
 -1      1316    8    0    1
 -2       508       598       698      2983      2898      2987
 -1      1317    8    0    1
 -2       717       506       633      2949      2707      2989
 -1      1318    8    0    1
 -2       708       594       714      2922      2936      2990
 -1      1319    8    0    1
 -2       707       593       604      2920      2609      2991
 -1      1320    8    0    1
 -2       472       712       726      2932      2992      2993
 -1      1321    8    0    1
 -2       472       726       599      2993      2994      2577
 -1      1322    8    0    1
 -2       576       721       695      2970      2995      2889
 -1      1323    8    0    1
 -2       595       596       717      2606      2996      2997
 -1      1324    8    0    1
 -2       595       717       714      2997      2998      2935
 -1      1325    8    0    1
 -2       610       611       727      2640      2999      3000
 -1      1326    8    0    1
 -2       612       600       603      2643      2598      3001
 -1      1327    8    0    1
 -2       596       507       717      2943      2950      2996
 -1      1328    8    0    1
 -2       693       694       728      2888      3002      3003
 -1      1329    8    0    1
 -2       614       613       729      2651      3004      3005
 -1      1330    8    0    1
 -2       601       599       730      2588      3006      3007
 -1      1331    8    0    1
 -2       696       601       730      2894      3007      3008
 -1      1332    8    0    1
 -2       599       726       730      2994      3009      3006
 -1      1333    8    0    1
 -2       718       649       731      2954      3010      3011
 -1      1334    8    0    1
 -2       615       614       732      2654      3012      3013
 -1      1335    8    0    1
 -2       614       729       732      3005      3014      3012
 -1      1336    8    0    1
 -2       616       615       733      2657      3015      3016
 -1      1337    8    0    1
 -2       615       732       733      3013      3017      3015
 -1      1338    8    0    1
 -2       617       616       734      2660      3018      3019
 -1      1339    8    0    1
 -2       616       733       734      3016      3020      3018
 -1      1340    8    0    1
 -2       618       617       735      2663      3021      3022
 -1      1341    8    0    1
 -2       617       734       735      3019      3023      3021
 -1      1342    8    0    1
 -2       619       618       736      2666      3024      3025
 -1      1343    8    0    1
 -2       618       735       736      3022      3026      3024
 -1      1344    8    0    1
 -2       620       619       737      2669      3027      3028
 -1      1345    8    0    1
 -2       619       736       737      3025      3029      3027
 -1      1346    8    0    1
 -2       621       620       738      2672      3030      3031
 -1      1347    8    0    1
 -2       620       737       738      3028      3032      3030
 -1      1348    8    0    1
 -2       622       621       739      2675      3033      3034
 -1      1349    8    0    1
 -2       621       738       739      3031      3035      3033
 -1      1350    8    0    1
 -2       623       622       740      2678      3036      3037
 -1      1351    8    0    1
 -2       622       739       740      3034      3038      3036
 -1      1352    8    0    1
 -2       624       623       741      2681      3039      3040
 -1      1353    8    0    1
 -2       623       740       741      3037      3041      3039
 -1      1354    8    0    1
 -2       625       624       742      2684      3042      3043
 -1      1355    8    0    1
 -2       624       741       742      3040      3044      3042
 -1      1356    8    0    1
 -2       626       625       743      2687      3045      3046
 -1      1357    8    0    1
 -2       625       742       743      3043      3047      3045
 -1      1358    8    0    1
 -2       627       626       744      2690      3048      3049
 -1      1359    8    0    1
 -2       626       743       744      3046      3050      3048
 -1      1360    8    0    1
 -2       628       627       745      2693      3051      3052
 -1      1361    8    0    1
 -2       627       744       745      3049      3053      3051
 -1      1362    8    0    1
 -2       629       628       746      2696      3054      3055
 -1      1363    8    0    1
 -2       628       745       746      3052      3056      3054
 -1      1364    8    0    1
 -2       630       629       747      2699      3057      3058
 -1      1365    8    0    1
 -2       629       746       747      3055      3059      3057
 -1      1366    8    0    1
 -2       631       630       748      2702      3060      3061
 -1      1367    8    0    1
 -2       630       747       748      3058      3062      3060
 -1      1368    8    0    1
 -2       632       631       749      2705      3063      3064
 -1      1369    8    0    1
 -2       631       748       749      3061      3065      3063
 -1      1370    8    0    1
 -2       701       697       750      2951      3066      3067
 -1      1371    8    0    1
 -2       611       612       718      2988      3068      3069
 -1      1372    8    0    1
 -2       361       360       606      1870      2956      2627
 -1      1373    8    0    1
 -2       637       636       751      2719      3070      3071
 -1      1374    8    0    1
 -2       638       637       752      2722      3072      3073
 -1      1375    8    0    1
 -2       637       751       752      3071      3074      3072
 -1      1376    8    0    1
 -2       639       638       753      2725      3075      3076
 -1      1377    8    0    1
 -2       638       752       753      3073      3077      3075
 -1      1378    8    0    1
 -2       640       639       754      2728      3078      3079
 -1      1379    8    0    1
 -2       639       753       754      3076      3080      3078
 -1      1380    8    0    1
 -2       641       640       755      2731      3081      3082
 -1      1381    8    0    1
 -2       640       754       755      3079      3083      3081
 -1      1382    8    0    1
 -2       642       641       756      2734      3084      3085
 -1      1383    8    0    1
 -2       641       755       756      3082      3086      3084
 -1      1384    8    0    1
 -2       643       642       757      2737      3087      3088
 -1      1385    8    0    1
 -2       642       756       757      3085      3089      3087
 -1      1386    8    0    1
 -2       644       643       758      2740      3090      3091
 -1      1387    8    0    1
 -2       643       757       758      3088      3092      3090
 -1      1388    8    0    1
 -2       645       644       759      2743      3093      3094
 -1      1389    8    0    1
 -2       644       758       759      3091      3095      3093
 -1      1390    8    0    1
 -2       646       645       760      2746      3096      3097
 -1      1391    8    0    1
 -2       645       759       760      3094      3098      3096
 -1      1392    8    0    1
 -2       647       648       761      2751      3099      3100
 -1      1393    8    0    1
 -2       649       647       762      2754      3101      3102
 -1      1394    8    0    1
 -2       731       649       762      3010      3102      3103
 -1      1395    8    0    1
 -2       647       761       762      3100      3104      3101
 -1      1396    8    0    1
 -2       651       652       763      2762      3105      3106
 -1      1397    8    0    1
 -2       650       651       764      2759      3107      3108
 -1      1398    8    0    1
 -2       651       763       764      3106      3109      3107
 -1      1399    8    0    1
 -2       653       654       765      2768      3110      3111
 -1      1400    8    0    1
 -2       654       655       766      2771      3112      3113
 -1      1401    8    0    1
 -2       654       766       765      3113      3114      3110
 -1      1402    8    0    1
 -2       655       656       767      2774      3115      3116
 -1      1403    8    0    1
 -2       655       767       766      3116      3117      3112
 -1      1404    8    0    1
 -2       656       657       768      2777      3118      3119
 -1      1405    8    0    1
 -2       656       768       767      3119      3120      3115
 -1      1406    8    0    1
 -2       657       658       769      2780      3121      3122
 -1      1407    8    0    1
 -2       657       769       768      3122      3123      3118
 -1      1408    8    0    1
 -2       658       659       770      2783      3124      3125
 -1      1409    8    0    1
 -2       658       770       769      3125      3126      3121
 -1      1410    8    0    1
 -2       659       660       771      2786      3127      3128
 -1      1411    8    0    1
 -2       659       771       770      3128      3129      3124
 -1      1412    8    0    1
 -2       660       661       772      2789      3130      3131
 -1      1413    8    0    1
 -2       660       772       771      3131      3132      3127
 -1      1414    8    0    1
 -2       661       662       773      2792      3133      3134
 -1      1415    8    0    1
 -2       661       773       772      3134      3135      3130
 -1      1416    8    0    1
 -2       662       663       774      2795      3136      3137
 -1      1417    8    0    1
 -2       662       774       773      3137      3138      3133
 -1      1418    8    0    1
 -2       663       664       775      2798      3139      3140
 -1      1419    8    0    1
 -2       663       775       774      3140      3141      3136
 -1      1420    8    0    1
 -2       664       665       776      2801      3142      3143
 -1      1421    8    0    1
 -2       664       776       775      3143      3144      3139
 -1      1422    8    0    1
 -2       665       666       777      2804      3145      3146
 -1      1423    8    0    1
 -2       665       777       776      3146      3147      3142
 -1      1424    8    0    1
 -2       666       667       778      2807      3148      3149
 -1      1425    8    0    1
 -2       666       778       777      3149      3150      3145
 -1      1426    8    0    1
 -2       667       668       779      2810      3151      3152
 -1      1427    8    0    1
 -2       667       779       778      3152      3153      3148
 -1      1428    8    0    1
 -2       668       669       780      2813      3154      3155
 -1      1429    8    0    1
 -2       668       780       779      3155      3156      3151
 -1      1430    8    0    1
 -2       669       670       781      2816      3157      3158
 -1      1431    8    0    1
 -2       669       781       780      3158      3159      3154
 -1      1432    8    0    1
 -2       670       671       782      2819      3160      3161
 -1      1433    8    0    1
 -2       670       782       781      3161      3162      3157
 -1      1434    8    0    1
 -2       671       672       783      2822      3163      3164
 -1      1435    8    0    1
 -2       671       783       782      3164      3165      3160
 -1      1436    8    0    1
 -2       672       673       784      2825      3166      3167
 -1      1437    8    0    1
 -2       672       784       783      3167      3168      3163
 -1      1438    8    0    1
 -2       673       674       785      2828      3169      3170
 -1      1439    8    0    1
 -2       673       785       784      3170      3171      3166
 -1      1440    8    0    1
 -2       674       675       786      2831      3172      3173
 -1      1441    8    0    1
 -2       674       786       785      3173      3174      3169
 -1      1442    8    0    1
 -2       675       676       787      2834      3175      3176
 -1      1443    8    0    1
 -2       675       787       786      3176      3177      3172
 -1      1444    8    0    1
 -2       676       677       788      2837      3178      3179
 -1      1445    8    0    1
 -2       676       788       787      3179      3180      3175
 -1      1446    8    0    1
 -2       677       678       789      2840      3181      3182
 -1      1447    8    0    1
 -2       677       789       788      3182      3183      3178
 -1      1448    8    0    1
 -2       678       679       790      2843      3184      3185
 -1      1449    8    0    1
 -2       678       790       789      3185      3186      3181
 -1      1450    8    0    1
 -2       679       680       791      2846      3187      3188
 -1      1451    8    0    1
 -2       679       791       790      3188      3189      3184
 -1      1452    8    0    1
 -2       680       681       792      2849      3190      3191
 -1      1453    8    0    1
 -2       680       792       791      3191      3192      3187
 -1      1454    8    0    1
 -2       681       682       793      2852      3193      3194
 -1      1455    8    0    1
 -2       681       793       792      3194      3195      3190
 -1      1456    8    0    1
 -2       682       683       794      2855      3196      3197
 -1      1457    8    0    1
 -2       682       794       793      3197      3198      3193
 -1      1458    8    0    1
 -2       683       684       795      2858      3199      3200
 -1      1459    8    0    1
 -2       683       795       794      3200      3201      3196
 -1      1460    8    0    1
 -2       684       685       796      2861      3202      3203
 -1      1461    8    0    1
 -2       684       796       795      3203      3204      3199
 -1      1462    8    0    1
 -2       705       689       797      2948      3205      3206
 -1      1463    8    0    1
 -2       694       695       798      2891      3207      3208
 -1      1464    8    0    1
 -2       694       798       728      3208      3209      3002
 -1      1465    8    0    1
 -2       692       693       799      2885      3210      3211
 -1      1466    8    0    1
 -2       693       728       799      3003      3212      3210
 -1      1467    8    0    1
 -2       721       577       646      2969      2937      3213
 -1      1468    8    0    1
 -2       703       699       800      2971      3214      3215
 -1      1469    8    0    1
 -2       603       718       612      2961      3068      3001
 -1      1470    8    0    1
 -2       711       707       801      2938      3216      3217
 -1      1471    8    0    1
 -2       699       607       802      2973      3218      3219
 -1      1472    8    0    1
 -2       702       692       803      2907      3220      3221
 -1      1473    8    0    1
 -2       692       799       803      3211      3222      3220
 -1      1474    8    0    1
 -2       635       698       605      2953      2967      3223
 -1      1475    8    0    1
 -2       713       711       804      2972      3224      3225
 -1      1476    8    0    1
 -2       688       702       805      2957      3226      3227
 -1      1477    8    0    1
 -2       702       803       805      3221      3228      3226
 -1      1478    8    0    1
 -2       710       700       806      2928      3229      3230
 -1      1479    8    0    1
 -2       636       635       807      2716      3231      3232
 -1      1480    8    0    1
 -2       636       807       751      3232      3233      3070
 -1      1481    8    0    1
 -2       634       687       808      2947      3234      3235
 -1      1482    8    0    1
 -2       634       808       686      3235      3236      2865
 -1      1483    8    0    1
 -2       689       709       809      2966      3237      3238
 -1      1484    8    0    1
 -2       607       705       810      2968      3239      3240
 -1      1485    8    0    1
 -2       607       810       802      3240      3241      3218
 -1      1486    8    0    1
 -2       717       633       714      2989      3242      2998
 -1      1487    8    0    1
 -2       721       646       760      3213      3097      3243
 -1      1488    8    0    1
 -2       707       604       811      2991      3244      3245
 -1      1489    8    0    1
 -2       652       653       812      2765      3246      3247
 -1      1490    8    0    1
 -2       763       652       812      3105      3247      3248
 -1      1491    8    0    1
 -2       653       765       812      3111      3249      3246
 -1      1492    8    0    1
 -2       695       721       760      2995      3243      3250
 -1      1493    8    0    1
 -2       609       608       813      2635      3251      3252
 -1      1494    8    0    1
 -2       714       633       814      3242      3253      3254
 -1      1495    8    0    1
 -2       714       814       708      3254      3255      2990
 -1      1496    8    0    1
 -2       715       609       815      2939      3256      3257
 -1      1497    8    0    1
 -2       609       813       815      3252      3258      3256
 -1      1498    8    0    1
 -2       711       801       804      3217      3259      3224
 -1      1499    8    0    1
 -2       801       707       811      3216      3245      3260
 -1      1500    8    0    1
 -2       729       613       816      3004      3261      3262
 -1      1501    8    0    1
 -2       613       704       816      2912      3263      3261
 -1      1502    8    0    1
 -2       696       730       704      3008      3264      2913
 -1      1503    8    0    1
 -2       716       710       817      2946      3265      3266
 -1      1504    8    0    1
 -2       710       806       817      3230      3267      3265
 -1      1505    8    0    1
 -2       701       750       818      3067      3268      3269
 -1      1506    8    0    1
 -2       701       818       723      3269      3270      2979
 -1      1507    8    0    1
 -2       750       697       719      3066      2960      3271
 -1      1508    8    0    1
 -2       633       632       814      2708      3272      3253
 -1      1509    8    0    1
 -2       810       705       797      3239      3206      3273
 -1      1510    8    0    1
 -2       611       718       727      3069      3274      2999
 -1      1511    8    0    1
 -2       712       720       819      2964      3275      3276
 -1      1512    8    0    1
 -2       761       648       820      3099      3277      3278
 -1      1513    8    0    1
 -2       648       691       820      2879      3279      3277
 -1      1514    8    0    1
 -2       650       764       821      3108      3280      3281
 -1      1515    8    0    1
 -2       650       821       691      3281      3282      2880
 -1      1516    8    0    1
 -2       727       718       731      3274      3011      3283
 -1      1517    8    0    1
 -2       797       689       809      3205      3238      3284
 -1      1518    8    0    1
 -2       685       686       822      2864      3285      3286
 -1      1519    8    0    1
 -2       796       685       822      3202      3286      3287
 -1      1520    8    0    1
 -2       686       808       822      3236      3288      3285
 -1      1521    8    0    1
 -2       719       703       823      2958      3289      3290
 -1      1522    8    0    1
 -2       703       800       823      3215      3291      3289
 -1      1523    8    0    1
 -2       602       716       724      2945      3292      2980
 -1      1524    8    0    1
 -2       687       690       824      2875      3293      3294
 -1      1525    8    0    1
 -2       687       824       808      3294      3295      3234
 -1      1526    8    0    1
 -2       800       699       825      3214      3296      3297
 -1      1527    8    0    1
 -2       699       802       825      3219      3298      3296
 -1      1528    8    0    1
 -2       712       819       826      3276      3299      3300
 -1      1529    8    0    1
 -2       712       826       726      3300      3301      2992
 -1      1530    8    0    1
 -2       695       760       798      3250      3302      3207
 -1      1531    8    0    1
 -2       610       727       827      3000      3303      3304
 -1      1532    8    0    1
 -2       610       827       706      3304      3305      2919
 -1      1533    8    0    1
 -2       722       708       814      2976      3255      3306
 -1      1534    8    0    1
 -2       709       724       828      2982      3307      3308
 -1      1535    8    0    1
 -2       709       828       809      3308      3309      3237
 -1      1536    8    0    1
 -2       814       632       749      3272      3064      3310
 -1      1537    8    0    1
 -2       725       713       829      2986      3311      3312
 -1      1538    8    0    1
 -2       713       804       829      3225      3313      3311
 -1      1539    8    0    1
 -2       604       722       811      2975      3314      3244
 -1      1540    8    0    1
 -2       690       688       830      2876      3315      3316
 -1      1541    8    0    1
 -2       824       690       830      3293      3316      3317
 -1      1542    8    0    1
 -2       688       805       830      3227      3318      3315
 -1      1543    8    0    1
 -2       806       700       831      3229      3319      3320
 -1      1544    8    0    1
 -2       700       725       831      2985      3321      3319
 -1      1545    8    0    1
 -2       605       723       635      2978      3322      3223
 -1      1546    8    0    1
 -2       608       706       832      2918      3323      3324
 -1      1547    8    0    1
 -2       813       608       832      3251      3324      3325
 -1      1548    8    0    1
 -2       706       827       832      3305      3326      3323
 -1      1549    8    0    1
 -2       635       723       807      3322      3327      3231
 -1      1550    8    0    1
 -2       732       729       833      3014      3328      3329
 -1      1551    8    0    1
 -2       733       732       834      3017      3330      3331
 -1      1552    8    0    1
 -2       732       833       834      3329      3332      3330
 -1      1553    8    0    1
 -2       734       733       835      3020      3333      3334
 -1      1554    8    0    1
 -2       733       834       835      3331      3335      3333
 -1      1555    8    0    1
 -2       735       734       836      3023      3336      3337
 -1      1556    8    0    1
 -2       734       835       836      3334      3338      3336
 -1      1557    8    0    1
 -2       736       735       837      3026      3339      3340
 -1      1558    8    0    1
 -2       735       836       837      3337      3341      3339
 -1      1559    8    0    1
 -2       737       736       838      3029      3342      3343
 -1      1560    8    0    1
 -2       736       837       838      3340      3344      3342
 -1      1561    8    0    1
 -2       738       737       839      3032      3345      3346
 -1      1562    8    0    1
 -2       737       838       839      3343      3347      3345
 -1      1563    8    0    1
 -2       739       738       840      3035      3348      3349
 -1      1564    8    0    1
 -2       738       839       840      3346      3350      3348
 -1      1565    8    0    1
 -2       740       739       841      3038      3351      3352
 -1      1566    8    0    1
 -2       739       840       841      3349      3353      3351
 -1      1567    8    0    1
 -2       741       740       842      3041      3354      3355
 -1      1568    8    0    1
 -2       740       841       842      3352      3356      3354
 -1      1569    8    0    1
 -2       742       741       843      3044      3357      3358
 -1      1570    8    0    1
 -2       741       842       843      3355      3359      3357
 -1      1571    8    0    1
 -2       743       742       844      3047      3360      3361
 -1      1572    8    0    1
 -2       742       843       844      3358      3362      3360
 -1      1573    8    0    1
 -2       744       743       845      3050      3363      3364
 -1      1574    8    0    1
 -2       743       844       845      3361      3365      3363
 -1      1575    8    0    1
 -2       745       744       846      3053      3366      3367
 -1      1576    8    0    1
 -2       744       845       846      3364      3368      3366
 -1      1577    8    0    1
 -2       746       745       847      3056      3369      3370
 -1      1578    8    0    1
 -2       745       846       847      3367      3371      3369
 -1      1579    8    0    1
 -2       747       746       848      3059      3372      3373
 -1      1580    8    0    1
 -2       746       847       848      3370      3374      3372
 -1      1581    8    0    1
 -2       748       747       849      3062      3375      3376
 -1      1582    8    0    1
 -2       747       848       849      3373      3377      3375
 -1      1583    8    0    1
 -2       749       748       850      3065      3378      3379
 -1      1584    8    0    1
 -2       748       849       850      3376      3380      3378
 -1      1585    8    0    1
 -2       819       720       851      3275      3381      3382
 -1      1586    8    0    1
 -2       720       715       851      2965      3383      3381
 -1      1587    8    0    1
 -2       752       751       852      3074      3384      3385
 -1      1588    8    0    1
 -2       753       752       853      3077      3386      3387
 -1      1589    8    0    1
 -2       752       852       853      3385      3388      3386
 -1      1590    8    0    1
 -2       754       753       854      3080      3389      3390
 -1      1591    8    0    1
 -2       753       853       854      3387      3391      3389
 -1      1592    8    0    1
 -2       755       754       855      3083      3392      3393
 -1      1593    8    0    1
 -2       754       854       855      3390      3394      3392
 -1      1594    8    0    1
 -2       756       755       856      3086      3395      3396
 -1      1595    8    0    1
 -2       755       855       856      3393      3397      3395
 -1      1596    8    0    1
 -2       757       756       857      3089      3398      3399
 -1      1597    8    0    1
 -2       756       856       857      3396      3400      3398
 -1      1598    8    0    1
 -2       758       757       858      3092      3401      3402
 -1      1599    8    0    1
 -2       757       857       858      3399      3403      3401
 -1      1600    8    0    1
 -2       759       758       859      3095      3404      3405
 -1      1601    8    0    1
 -2       758       858       859      3402      3406      3404
 -1      1602    8    0    1
 -2       760       759       860      3098      3407      3408
 -1      1603    8    0    1
 -2       798       760       860      3302      3408      3409
 -1      1604    8    0    1
 -2       759       859       860      3405      3410      3407
 -1      1605    8    0    1
 -2       764       763       861      3109      3411      3412
 -1      1606    8    0    1
 -2       766       767       862      3117      3413      3414
 -1      1607    8    0    1
 -2       765       766       863      3114      3415      3416
 -1      1608    8    0    1
 -2       766       862       863      3414      3417      3415
 -1      1609    8    0    1
 -2       768       769       864      3123      3418      3419
 -1      1610    8    0    1
 -2       769       770       865      3126      3420      3421
 -1      1611    8    0    1
 -2       769       865       864      3421      3422      3418
 -1      1612    8    0    1
 -2       770       771       866      3129      3423      3424
 -1      1613    8    0    1
 -2       770       866       865      3424      3425      3420
 -1      1614    8    0    1
 -2       771       772       867      3132      3426      3427
 -1      1615    8    0    1
 -2       771       867       866      3427      3428      3423
 -1      1616    8    0    1
 -2       772       773       868      3135      3429      3430
 -1      1617    8    0    1
 -2       772       868       867      3430      3431      3426
 -1      1618    8    0    1
 -2       773       774       869      3138      3432      3433
 -1      1619    8    0    1
 -2       773       869       868      3433      3434      3429
 -1      1620    8    0    1
 -2       774       775       870      3141      3435      3436
 -1      1621    8    0    1
 -2       774       870       869      3436      3437      3432
 -1      1622    8    0    1
 -2       775       776       871      3144      3438      3439
 -1      1623    8    0    1
 -2       775       871       870      3439      3440      3435
 -1      1624    8    0    1
 -2       776       777       872      3147      3441      3442
 -1      1625    8    0    1
 -2       776       872       871      3442      3443      3438
 -1      1626    8    0    1
 -2       777       778       873      3150      3444      3445
 -1      1627    8    0    1
 -2       777       873       872      3445      3446      3441
 -1      1628    8    0    1
 -2       778       779       874      3153      3447      3448
 -1      1629    8    0    1
 -2       778       874       873      3448      3449      3444
 -1      1630    8    0    1
 -2       779       780       875      3156      3450      3451
 -1      1631    8    0    1
 -2       779       875       874      3451      3452      3447
 -1      1632    8    0    1
 -2       780       781       876      3159      3453      3454
 -1      1633    8    0    1
 -2       780       876       875      3454      3455      3450
 -1      1634    8    0    1
 -2       781       782       877      3162      3456      3457
 -1      1635    8    0    1
 -2       781       877       876      3457      3458      3453
 -1      1636    8    0    1
 -2       782       783       878      3165      3459      3460
 -1      1637    8    0    1
 -2       782       878       877      3460      3461      3456
 -1      1638    8    0    1
 -2       783       784       879      3168      3462      3463
 -1      1639    8    0    1
 -2       783       879       878      3463      3464      3459
 -1      1640    8    0    1
 -2       784       785       880      3171      3465      3466
 -1      1641    8    0    1
 -2       784       880       879      3466      3467      3462
 -1      1642    8    0    1
 -2       785       786       881      3174      3468      3469
 -1      1643    8    0    1
 -2       785       881       880      3469      3470      3465
 -1      1644    8    0    1
 -2       786       787       882      3177      3471      3472
 -1      1645    8    0    1
 -2       786       882       881      3472      3473      3468
 -1      1646    8    0    1
 -2       787       788       883      3180      3474      3475
 -1      1647    8    0    1
 -2       787       883       882      3475      3476      3471
 -1      1648    8    0    1
 -2       788       789       884      3183      3477      3478
 -1      1649    8    0    1
 -2       788       884       883      3478      3479      3474
 -1      1650    8    0    1
 -2       789       790       885      3186      3480      3481
 -1      1651    8    0    1
 -2       789       885       884      3481      3482      3477
 -1      1652    8    0    1
 -2       790       791       886      3189      3483      3484
 -1      1653    8    0    1
 -2       790       886       885      3484      3485      3480
 -1      1654    8    0    1
 -2       791       792       887      3192      3486      3487
 -1      1655    8    0    1
 -2       791       887       886      3487      3488      3483
 -1      1656    8    0    1
 -2       792       793       888      3195      3489      3490
 -1      1657    8    0    1
 -2       792       888       887      3490      3491      3486
 -1      1658    8    0    1
 -2       793       794       889      3198      3492      3493
 -1      1659    8    0    1
 -2       793       889       888      3493      3494      3489
 -1      1660    8    0    1
 -2       794       795       890      3201      3495      3496
 -1      1661    8    0    1
 -2       794       890       889      3496      3497      3492
 -1      1662    8    0    1
 -2       795       796       891      3204      3498      3499
 -1      1663    8    0    1
 -2       795       891       890      3499      3500      3495
 -1      1664    8    0    1
 -2       727       731       892      3283      3501      3502
 -1      1665    8    0    1
 -2       727       892       827      3502      3503      3303
 -1      1666    8    0    1
 -2       728       798       893      3209      3504      3505
 -1      1667    8    0    1
 -2       798       860       893      3409      3506      3504
 -1      1668    8    0    1
 -2       799       728       894      3212      3507      3508
 -1      1669    8    0    1
 -2       728       893       894      3505      3509      3507
 -1      1670    8    0    1
 -2       810       797       895      3273      3510      3511
 -1      1671    8    0    1
 -2       803       799       896      3222      3512      3513
 -1      1672    8    0    1
 -2       799       894       896      3508      3514      3512
 -1      1673    8    0    1
 -2       750       719       897      3271      3515      3516
 -1      1674    8    0    1
 -2       805       803       898      3228      3517      3518
 -1      1675    8    0    1
 -2       803       896       898      3513      3519      3517
 -1      1676    8    0    1
 -2       801       811       899      3260      3520      3521
 -1      1677    8    0    1
 -2       704       730       816      3264      3522      3263
 -1      1678    8    0    1
 -2       807       723       818      3327      3270      3523
 -1      1679    8    0    1
 -2       811       722       900      3314      3524      3525
 -1      1680    8    0    1
 -2       802       810       901      3241      3526      3527
 -1      1681    8    0    1
 -2       767       768       902      3120      3528      3529
 -1      1682    8    0    1
 -2       862       767       902      3413      3529      3530
 -1      1683    8    0    1
 -2       768       864       902      3419      3531      3528
 -1      1684    8    0    1
 -2       797       809       903      3284      3532      3533
 -1      1685    8    0    1
 -2       724       716       904      3292      3534      3535
 -1      1686    8    0    1
 -2       804       801       905      3259      3536      3537
 -1      1687    8    0    1
 -2       725       829       906      3312      3538      3539
 -1      1688    8    0    1
 -2       725       906       831      3539      3540      3321
 -1      1689    8    0    1
 -2       817       806       907      3267      3541      3542
 -1      1690    8    0    1
 -2       806       831       907      3320      3543      3541
 -1      1691    8    0    1
 -2       749       850       900      3379      3544      3545
 -1      1692    8    0    1
 -2       818       750       908      3268      3546      3547
 -1      1693    8    0    1
 -2       750       897       908      3516      3548      3546
 -1      1694    8    0    1
 -2       715       815       851      3257      3549      3383
 -1      1695    8    0    1
 -2       820       691       821      3279      3282      3550
 -1      1696    8    0    1
 -2       762       761       909      3104      3551      3552
 -1      1697    8    0    1
 -2       764       861       910      3412      3553      3554
 -1      1698    8    0    1
 -2       764       910       821      3554      3555      3280
 -1      1699    8    0    1
 -2       761       820       911      3278      3556      3557
 -1      1700    8    0    1
 -2       761       911       909      3557      3558      3551
 -1      1701    8    0    1
 -2       729       816       912      3262      3559      3560
 -1      1702    8    0    1
 -2       729       912       833      3560      3561      3328
 -1      1703    8    0    1
 -2       719       823       897      3290      3562      3515
 -1      1704    8    0    1
 -2       731       762       913      3103      3563      3564
 -1      1705    8    0    1
 -2       892       731       913      3501      3564      3565
 -1      1706    8    0    1
 -2       762       909       913      3552      3566      3563
 -1      1707    8    0    1
 -2       797       903       895      3533      3567      3510
 -1      1708    8    0    1
 -2       765       863       914      3416      3568      3569
 -1      1709    8    0    1
 -2       765       914       812      3569      3570      3249
 -1      1710    8    0    1
 -2       891       796       915      3498      3571      3572
 -1      1711    8    0    1
 -2       796       822       915      3287      3573      3571
 -1      1712    8    0    1
 -2       823       800       916      3291      3574      3575
 -1      1713    8    0    1
 -2       800       825       916      3297      3576      3574
 -1      1714    8    0    1
 -2       822       808       917      3288      3577      3578
 -1      1715    8    0    1
 -2       915       822       917      3573      3578      3579
 -1      1716    8    0    1
 -2       808       824       917      3295      3580      3577
 -1      1717    8    0    1
 -2       825       802       901      3298      3527      3581
 -1      1718    8    0    1
 -2       819       851       918      3382      3582      3583
 -1      1719    8    0    1
 -2       905       801       919      3536      3584      3585
 -1      1720    8    0    1
 -2       801       899       919      3521      3586      3584
 -1      1721    8    0    1
 -2       815       813       920      3258      3587      3588
 -1      1722    8    0    1
 -2       810       895       901      3511      3589      3526
 -1      1723    8    0    1
 -2       828       724       904      3307      3535      3590
 -1      1724    8    0    1
 -2       811       900       899      3525      3591      3520
 -1      1725    8    0    1
 -2       716       817       904      3266      3592      3534
 -1      1726    8    0    1
 -2       805       898       921      3518      3593      3594
 -1      1727    8    0    1
 -2       805       921       830      3594      3595      3318
 -1      1728    8    0    1
 -2       829       804       922      3313      3596      3597
 -1      1729    8    0    1
 -2       804       905       922      3537      3598      3596
 -1      1730    8    0    1
 -2       751       807       923      3233      3599      3600
 -1      1731    8    0    1
 -2       819       918       912      3583      3601      3602
 -1      1732    8    0    1
 -2       814       749       900      3310      3545      3603
 -1      1733    8    0    1
 -2       813       832       924      3325      3604      3605
 -1      1734    8    0    1
 -2       813       924       920      3605      3606      3587
 -1      1735    8    0    1
 -2       763       812       925      3248      3607      3608
 -1      1736    8    0    1
 -2       861       763       925      3411      3608      3609
 -1      1737    8    0    1
 -2       812       914       925      3570      3610      3607
 -1      1738    8    0    1
 -2       751       923       852      3600      3611      3384
 -1      1739    8    0    1
 -2       722       814       900      3306      3603      3524
 -1      1740    8    0    1
 -2       730       726       816      3009      3612      3522
 -1      1741    8    0    1
 -2       923       807       818      3599      3523      3613
 -1      1742    8    0    1
 -2       900       850       926      3544      3614      3615
 -1      1743    8    0    1
 -2       900       926       899      3615      3616      3591
 -1      1744    8    0    1
 -2       835       834       927      3335      3617      3618
 -1      1745    8    0    1
 -2       836       835       928      3338      3619      3620
 -1      1746    8    0    1
 -2       835       927       928      3618      3621      3619
 -1      1747    8    0    1
 -2       837       836       929      3341      3622      3623
 -1      1748    8    0    1
 -2       836       928       929      3620      3624      3622
 -1      1749    8    0    1
 -2       838       837       930      3344      3625      3626
 -1      1750    8    0    1
 -2       837       929       930      3623      3627      3625
 -1      1751    8    0    1
 -2       839       838       931      3347      3628      3629
 -1      1752    8    0    1
 -2       838       930       931      3626      3630      3628
 -1      1753    8    0    1
 -2       840       839       932      3350      3631      3632
 -1      1754    8    0    1
 -2       839       931       932      3629      3633      3631
 -1      1755    8    0    1
 -2       841       840       933      3353      3634      3635
 -1      1756    8    0    1
 -2       840       932       933      3632      3636      3634
 -1      1757    8    0    1
 -2       842       841       934      3356      3637      3638
 -1      1758    8    0    1
 -2       841       933       934      3635      3639      3637
 -1      1759    8    0    1
 -2       843       842       935      3359      3640      3641
 -1      1760    8    0    1
 -2       842       934       935      3638      3642      3640
 -1      1761    8    0    1
 -2       844       843       936      3362      3643      3644
 -1      1762    8    0    1
 -2       843       935       936      3641      3645      3643
 -1      1763    8    0    1
 -2       845       844       937      3365      3646      3647
 -1      1764    8    0    1
 -2       844       936       937      3644      3648      3646
 -1      1765    8    0    1
 -2       846       845       938      3368      3649      3650
 -1      1766    8    0    1
 -2       845       937       938      3647      3651      3649
 -1      1767    8    0    1
 -2       847       846       939      3371      3652      3653
 -1      1768    8    0    1
 -2       846       938       939      3650      3654      3652
 -1      1769    8    0    1
 -2       848       847       940      3374      3655      3656
 -1      1770    8    0    1
 -2       847       939       940      3653      3657      3655
 -1      1771    8    0    1
 -2       849       848       941      3377      3658      3659
 -1      1772    8    0    1
 -2       848       940       941      3656      3660      3658
 -1      1773    8    0    1
 -2       850       849       942      3380      3661      3662
 -1      1774    8    0    1
 -2       926       850       942      3614      3662      3663
 -1      1775    8    0    1
 -2       849       941       942      3659      3664      3661
 -1      1776    8    0    1
 -2       820       821       943      3550      3665      3666
 -1      1777    8    0    1
 -2       911       820       943      3556      3666      3667
 -1      1778    8    0    1
 -2       821       910       943      3555      3668      3665
 -1      1779    8    0    1
 -2       854       853       944      3391      3669      3670
 -1      1780    8    0    1
 -2       855       854       945      3394      3671      3672
 -1      1781    8    0    1
 -2       854       944       945      3670      3673      3671
 -1      1782    8    0    1
 -2       856       855       946      3397      3674      3675
 -1      1783    8    0    1
 -2       855       945       946      3672      3676      3674
 -1      1784    8    0    1
 -2       857       856       947      3400      3677      3678
 -1      1785    8    0    1
 -2       856       946       947      3675      3679      3677
 -1      1786    8    0    1
 -2       858       857       948      3403      3680      3681
 -1      1787    8    0    1
 -2       857       947       948      3678      3682      3680
 -1      1788    8    0    1
 -2       859       858       949      3406      3683      3684
 -1      1789    8    0    1
 -2       858       948       949      3681      3685      3683
 -1      1790    8    0    1
 -2       860       859       950      3410      3686      3687
 -1      1791    8    0    1
 -2       893       860       950      3506      3687      3688
 -1      1792    8    0    1
 -2       859       949       950      3684      3689      3686
 -1      1793    8    0    1
 -2       903       809       951      3532      3690      3691
 -1      1794    8    0    1
 -2       865       866       952      3425      3692      3693
 -1      1795    8    0    1
 -2       864       865       953      3422      3694      3695
 -1      1796    8    0    1
 -2       865       952       953      3693      3696      3694
 -1      1797    8    0    1
 -2       867       868       954      3431      3697      3698
 -1      1798    8    0    1
 -2       868       869       955      3434      3699      3700
 -1      1799    8    0    1
 -2       868       955       954      3700      3701      3697
 -1      1800    8    0    1
 -2       869       870       956      3437      3702      3703
 -1      1801    8    0    1
 -2       869       956       955      3703      3704      3699
 -1      1802    8    0    1
 -2       870       871       957      3440      3705      3706
 -1      1803    8    0    1
 -2       870       957       956      3706      3707      3702
 -1      1804    8    0    1
 -2       871       872       958      3443      3708      3709
 -1      1805    8    0    1
 -2       871       958       957      3709      3710      3705
 -1      1806    8    0    1
 -2       872       873       959      3446      3711      3712
 -1      1807    8    0    1
 -2       872       959       958      3712      3713      3708
 -1      1808    8    0    1
 -2       873       874       960      3449      3714      3715
 -1      1809    8    0    1
 -2       873       960       959      3715      3716      3711
 -1      1810    8    0    1
 -2       874       875       907      3452      3717      3718
 -1      1811    8    0    1
 -2       875       876       817      3455      3719      3720
 -1      1812    8    0    1
 -2       876       877       904      3458      3721      3722
 -1      1813    8    0    1
 -2       878       879       951      3464      3723      3724
 -1      1814    8    0    1
 -2       879       880       903      3467      3725      3726
 -1      1815    8    0    1
 -2       880       881       961      3470      3727      3728
 -1      1816    8    0    1
 -2       881       882       962      3473      3729      3730
 -1      1817    8    0    1
 -2       881       962       961      3730      3731      3727
 -1      1818    8    0    1
 -2       882       883       963      3476      3732      3733
 -1      1819    8    0    1
 -2       882       963       962      3733      3734      3729
 -1      1820    8    0    1
 -2       883       884       964      3479      3735      3736
 -1      1821    8    0    1
 -2       883       964       963      3736      3737      3732
 -1      1822    8    0    1
 -2       884       885       965      3482      3738      3739
 -1      1823    8    0    1
 -2       884       965       964      3739      3740      3735
 -1      1824    8    0    1
 -2       885       886       966      3485      3741      3742
 -1      1825    8    0    1
 -2       885       966       965      3742      3743      3738
 -1      1826    8    0    1
 -2       886       887       967      3488      3744      3745
 -1      1827    8    0    1
 -2       886       967       966      3745      3746      3741
 -1      1828    8    0    1
 -2       887       888       968      3491      3747      3748
 -1      1829    8    0    1
 -2       887       968       967      3748      3749      3744
 -1      1830    8    0    1
 -2       888       889       969      3494      3750      3751
 -1      1831    8    0    1
 -2       888       969       968      3751      3752      3747
 -1      1832    8    0    1
 -2       889       890       970      3497      3753      3754
 -1      1833    8    0    1
 -2       889       970       969      3754      3755      3750
 -1      1834    8    0    1
 -2       890       891       971      3500      3756      3757
 -1      1835    8    0    1
 -2       890       971       970      3757      3758      3753
 -1      1836    8    0    1
 -2       827       892       972      3503      3759      3760
 -1      1837    8    0    1
 -2       832       827       972      3326      3760      3761
 -1      1838    8    0    1
 -2       892       913       972      3565      3762      3759
 -1      1839    8    0    1
 -2       951       809       828      3690      3309      3763
 -1      1840    8    0    1
 -2       904       877       828      3721      3764      3590
 -1      1841    8    0    1
 -2       903       951       879      3691      3723      3726
 -1      1842    8    0    1
 -2       876       904       817      3722      3592      3719
 -1      1843    8    0    1
 -2       851       815       973      3549      3765      3766
 -1      1844    8    0    1
 -2       918       851       973      3582      3766      3767
 -1      1845    8    0    1
 -2       815       920       973      3588      3768      3765
 -1      1846    8    0    1
 -2       894       893       974      3509      3769      3770
 -1      1847    8    0    1
 -2       893       950       974      3688      3771      3769
 -1      1848    8    0    1
 -2       826       819       912      3299      3602      3772
 -1      1849    8    0    1
 -2       726       826       816      3301      3773      3612
 -1      1850    8    0    1
 -2       923       818       908      3613      3547      3774
 -1      1851    8    0    1
 -2       825       901       975      3581      3775      3776
 -1      1852    8    0    1
 -2       898       896       976      3519      3777      3778
 -1      1853    8    0    1
 -2       896       894       977      3514      3779      3780
 -1      1854    8    0    1
 -2       976       896       977      3777      3780      3781
 -1      1855    8    0    1
 -2       894       974       977      3770      3782      3779
 -1      1856    8    0    1
 -2       866       867       978      3428      3783      3784
 -1      1857    8    0    1
 -2       866       978       952      3784      3785      3692
 -1      1858    8    0    1
 -2       863       862       979      3417      3786      3787
 -1      1859    8    0    1
 -2       816       826       912      3773      3772      3559
 -1      1860    8    0    1
 -2       824       830       980      3317      3788      3789
 -1      1861    8    0    1
 -2       917       824       980      3580      3789      3790
 -1      1862    8    0    1
 -2       830       921       980      3595      3791      3788
 -1      1863    8    0    1
 -2       853       852       981      3388      3792      3793
 -1      1864    8    0    1
 -2       853       981       944      3793      3794      3669
 -1      1865    8    0    1
 -2       897       823       982      3562      3795      3796
 -1      1866    8    0    1
 -2       834       833       983      3332      3797      3798
 -1      1867    8    0    1
 -2       834       983       927      3798      3799      3617
 -1      1868    8    0    1
 -2       899       926       919      3616      3800      3586
 -1      1869    8    0    1
 -2       825       975       984      3776      3801      3802
 -1      1870    8    0    1
 -2       825       984       916      3802      3803      3576
 -1      1871    8    0    1
 -2       910       861       985      3553      3804      3805
 -1      1872    8    0    1
 -2       897       982       986      3796      3806      3807
 -1      1873    8    0    1
 -2       897       986       908      3807      3808      3548
 -1      1874    8    0    1
 -2       863       979       987      3787      3809      3810
 -1      1875    8    0    1
 -2       863       987       914      3810      3811      3568
 -1      1876    8    0    1
 -2       867       954       978      3698      3812      3783
 -1      1877    8    0    1
 -2       909       911       988      3558      3813      3814
 -1      1878    8    0    1
 -2       913       909       989      3566      3815      3816
 -1      1879    8    0    1
 -2       972       913       989      3762      3816      3817
 -1      1880    8    0    1
 -2       909       988       989      3814      3818      3815
 -1      1881    8    0    1
 -2       864       953       990      3695      3819      3820
 -1      1882    8    0    1
 -2       864       990       902      3820      3821      3531
 -1      1883    8    0    1
 -2       874       907       960      3718      3822      3714
 -1      1884    8    0    1
 -2       875       817       907      3720      3542      3717
 -1      1885    8    0    1
 -2       878       951       877      3724      3823      3461
 -1      1886    8    0    1
 -2       832       972       924      3761      3824      3604
 -1      1887    8    0    1
 -2       971       891       991      3756      3825      3826
 -1      1888    8    0    1
 -2       891       915       991      3572      3827      3825
 -1      1889    8    0    1
 -2       981       852       986      3792      3828      3829
 -1      1890    8    0    1
 -2       823       916       992      3575      3830      3831
 -1      1891    8    0    1
 -2       823       992       982      3831      3832      3795
 -1      1892    8    0    1
 -2       906       829       993      3538      3833      3834
 -1      1893    8    0    1
 -2       829       922       993      3597      3835      3833
 -1      1894    8    0    1
 -2       852       923       986      3611      3836      3828
 -1      1895    8    0    1
 -2       905       919       994      3585      3837      3838
 -1      1896    8    0    1
 -2       905       994       922      3838      3839      3598
 -1      1897    8    0    1
 -2       861       925       995      3609      3840      3841
 -1      1898    8    0    1
 -2       861       995       985      3841      3842      3804
 -1      1899    8    0    1
 -2       951       828       877      3763      3764      3823
 -1      1900    8    0    1
 -2       912       918       996      3601      3843      3844
 -1      1901    8    0    1
 -2       921       898       997      3593      3845      3846
 -1      1902    8    0    1
 -2       898       976       997      3778      3847      3845
 -1      1903    8    0    1
 -2       973       920       998      3768      3848      3849
 -1      1904    8    0    1
 -2       975       901       962      3775      3850      3851
 -1      1905    8    0    1
 -2       920       924       999      3606      3852      3853
 -1      1906    8    0    1
 -2       920       999       998      3853      3854      3848
 -1      1907    8    0    1
 -2       979       862      1000      3786      3855      3856
 -1      1908    8    0    1
 -2       862       902      1000      3530      3857      3855
 -1      1909    8    0    1
 -2       903       880       961      3725      3728      3858
 -1      1910    8    0    1
 -2       918       973      1001      3767      3859      3860
 -1      1911    8    0    1
 -2       973       998      1001      3849      3861      3859
 -1      1912    8    0    1
 -2       996       918      1001      3843      3860      3862
 -1      1913    8    0    1
 -2       907       831       960      3543      3863      3822
 -1      1914    8    0    1
 -2       919       926      1002      3800      3864      3865
 -1      1915    8    0    1
 -2       962       901       961      3850      3866      3731
 -1      1916    8    0    1
 -2       929       928      1003      3624      3867      3868
 -1      1917    8    0    1
 -2       930       929      1004      3627      3869      3870
 -1      1918    8    0    1
 -2       929      1003      1004      3868      3871      3869
 -1      1919    8    0    1
 -2       931       930      1005      3630      3872      3873
 -1      1920    8    0    1
 -2       930      1004      1005      3870      3874      3872
 -1      1921    8    0    1
 -2       932       931      1006      3633      3875      3876
 -1      1922    8    0    1
 -2       931      1005      1006      3873      3877      3875
 -1      1923    8    0    1
 -2       933       932      1007      3636      3878      3879
 -1      1924    8    0    1
 -2       932      1006      1007      3876      3880      3878
 -1      1925    8    0    1
 -2       934       933      1008      3639      3881      3882
 -1      1926    8    0    1
 -2       933      1007      1008      3879      3883      3881
 -1      1927    8    0    1
 -2       935       934      1009      3642      3884      3885
 -1      1928    8    0    1
 -2       934      1008      1009      3882      3886      3884
 -1      1929    8    0    1
 -2       936       935      1010      3645      3887      3888
 -1      1930    8    0    1
 -2       935      1009      1010      3885      3889      3887
 -1      1931    8    0    1
 -2       937       936      1011      3648      3890      3891
 -1      1932    8    0    1
 -2       936      1010      1011      3888      3892      3890
 -1      1933    8    0    1
 -2       938       937      1012      3651      3893      3894
 -1      1934    8    0    1
 -2       937      1011      1012      3891      3895      3893
 -1      1935    8    0    1
 -2       939       938      1013      3654      3896      3897
 -1      1936    8    0    1
 -2       938      1012      1013      3894      3898      3896
 -1      1937    8    0    1
 -2       940       939      1014      3657      3899      3900
 -1      1938    8    0    1
 -2       939      1013      1014      3897      3901      3899
 -1      1939    8    0    1
 -2       941       940      1015      3660      3902      3903
 -1      1940    8    0    1
 -2       940      1014      1015      3900      3904      3902
 -1      1941    8    0    1
 -2       953       952      1016      3696      3905      3906
 -1      1942    8    0    1
 -2       945       944      1017      3673      3907      3908
 -1      1943    8    0    1
 -2       833       912       996      3561      3844      3909
 -1      1944    8    0    1
 -2       946       945      1018      3676      3910      3911
 -1      1945    8    0    1
 -2       945      1017      1018      3908      3912      3910
 -1      1946    8    0    1
 -2       947       946      1019      3679      3913      3914
 -1      1947    8    0    1
 -2       946      1018      1019      3911      3915      3913
 -1      1948    8    0    1
 -2       948       947      1020      3682      3916      3917
 -1      1949    8    0    1
 -2       947      1019      1020      3914      3918      3916
 -1      1950    8    0    1
 -2       949       948      1021      3685      3919      3920
 -1      1951    8    0    1
 -2       948      1020      1021      3917      3921      3919
 -1      1952    8    0    1
 -2       950       949      1022      3689      3922      3923
 -1      1953    8    0    1
 -2       974       950      1022      3771      3923      3924
 -1      1954    8    0    1
 -2       949      1021      1022      3920      3925      3922
 -1      1955    8    0    1
 -2       988       911      1023      3813      3926      3927
 -1      1956    8    0    1
 -2       911       943      1023      3667      3928      3926
 -1      1957    8    0    1
 -2       978       954      1024      3812      3929      3930
 -1      1958    8    0    1
 -2       955       956      1025      3704      3931      3932
 -1      1959    8    0    1
 -2       954       955      1026      3701      3933      3934
 -1      1960    8    0    1
 -2       955      1025      1026      3932      3935      3933
 -1      1961    8    0    1
 -2       957       958      1027      3710      3936      3937
 -1      1962    8    0    1
 -2       958       959       993      3713      3938      3939
 -1      1963    8    0    1
 -2       959       960       906      3716      3940      3941
 -1      1964    8    0    1
 -2       924       972       989      3824      3817      3942
 -1      1965    8    0    1
 -2       960       831       906      3863      3540      3940
 -1      1966    8    0    1
 -2       833       996       983      3909      3943      3797
 -1      1967    8    0    1
 -2       959       906       993      3941      3834      3938
 -1      1968    8    0    1
 -2       964       965      1028      3740      3944      3945
 -1      1969    8    0    1
 -2       965       966      1029      3743      3946      3947
 -1      1970    8    0    1
 -2       965      1029      1028      3947      3948      3944
 -1      1971    8    0    1
 -2       966       967      1030      3746      3949      3950
 -1      1972    8    0    1
 -2       966      1030      1029      3950      3951      3946
 -1      1973    8    0    1
 -2       967       968      1031      3749      3952      3953
 -1      1974    8    0    1
 -2       967      1031      1030      3953      3954      3949
 -1      1975    8    0    1
 -2       968       969      1032      3752      3955      3956
 -1      1976    8    0    1
 -2       968      1032      1031      3956      3957      3952
 -1      1977    8    0    1
 -2       969       970      1033      3755      3958      3959
 -1      1978    8    0    1
 -2       969      1033      1032      3959      3960      3955
 -1      1979    8    0    1
 -2       970       971      1034      3758      3961      3962
 -1      1980    8    0    1
 -2       970      1034      1033      3962      3963      3958
 -1      1981    8    0    1
 -2       910       985      1035      3805      3964      3965
 -1      1982    8    0    1
 -2       910      1035       943      3965      3966      3668
 -1      1983    8    0    1
 -2       952       978      1036      3785      3967      3968
 -1      1984    8    0    1
 -2       952      1036      1016      3968      3969      3905
 -1      1985    8    0    1
 -2       901       895       961      3589      3970      3866
 -1      1986    8    0    1
 -2       975       962       963      3851      3734      3971
 -1      1987    8    0    1
 -2       956       957      1037      3707      3972      3973
 -1      1988    8    0    1
 -2       957      1027      1037      3937      3974      3972
 -1      1989    8    0    1
 -2      1001       998      1038      3861      3975      3976
 -1      1990    8    0    1
 -2       925       914      1039      3610      3977      3978
 -1      1991    8    0    1
 -2       914       987      1039      3811      3979      3977
 -1      1992    8    0    1
 -2       944       981      1040      3794      3980      3981
 -1      1993    8    0    1
 -2       944      1040      1017      3981      3982      3907
 -1      1994    8    0    1
 -2       981       986      1041      3829      3983      3984
 -1      1995    8    0    1
 -2      1040       981      1041      3980      3984      3985
 -1      1996    8    0    1
 -2       986       982      1041      3806      3986      3983
 -1      1997    8    0    1
 -2       928       927      1042      3621      3987      3988
 -1      1998    8    0    1
 -2       928      1042      1003      3988      3989      3867
 -1      1999    8    0    1
 -2       975       963      1043      3971      3990      3991
 -1      2000    8    0    1
 -2       984       975      1043      3801      3991      3992
 -1      2001    8    0    1
 -2       963       964      1043      3737      3993      3990
 -1      2002    8    0    1
 -2      1002       926       942      3864      3663      3994
 -1      2003    8    0    1
 -2       953      1016      1044      3906      3995      3996
 -1      2004    8    0    1
 -2       953      1044       990      3996      3997      3819
 -1      2005    8    0    1
 -2       942       941      1045      3664      3998      3999
 -1      2006    8    0    1
 -2       941      1015      1045      3903      4000      3998
 -1      2007    8    0    1
 -2       988      1023      1046      3927      4001      4002
 -1      2008    8    0    1
 -2       980       921      1047      3791      4003      4004
 -1      2009    8    0    1
 -2       921       997      1047      3846      4005      4003
 -1      2010    8    0    1
 -2       987       979      1048      3809      4006      4007
 -1      2011    8    0    1
 -2      1025       956      1037      3931      3973      4008
 -1      2012    8    0    1
 -2       989       988       999      3818      4009      4010
 -1      2013    8    0    1
 -2      1024       954      1026      3929      3934      4011
 -1      2014    8    0    1
 -2       916       984       992      3803      4012      3830
 -1      2015    8    0    1
 -2      1027       958       993      3936      3939      4013
 -1      2016    8    0    1
 -2       924       989       999      3942      4010      3852
 -1      2017    8    0    1
 -2       974      1022      1049      3924      4014      4015
 -1      2018    8    0    1
 -2       974      1049       977      4015      4016      3782
 -1      2019    8    0    1
 -2       988      1046       999      4002      4017      4009
 -1      2020    8    0    1
 -2      1034       971       991      3961      3826      4018
 -1      2021    8    0    1
 -2      1035       985      1050      3964      4019      4020
 -1      2022    8    0    1
 -2      1036       978      1024      3967      3930      4021
 -1      2023    8    0    1
 -2       982       992      1051      3832      4022      4023
 -1      2024    8    0    1
 -2       982      1051      1041      4023      4024      3986
 -1      2025    8    0    1
 -2       964      1028      1043      3945      4025      3993
 -1      2026    8    0    1
 -2       895       903       961      3567      3858      3970
 -1      2027    8    0    1
 -2       994       919      1052      3837      4026      4027
 -1      2028    8    0    1
 -2       919      1002      1052      3865      4028      4026
 -1      2029    8    0    1
 -2       995       925      1039      3840      3978      4029
 -1      2030    8    0    1
 -2       997       976      1053      3847      4030      4031
 -1      2031    8    0    1
 -2       902       990      1000      3821      4032      3857
 -1      2032    8    0    1
 -2       979      1000      1054      3856      4033      4034
 -1      2033    8    0    1
 -2       979      1054      1048      4034      4035      4006
 -1      2034    8    0    1
 -2       985       995      1055      3842      4036      4037
 -1      2035    8    0    1
 -2       985      1055      1050      4037      4038      4019
 -1      2036    8    0    1
 -2       998       999      1056      3854      4039      4040
 -1      2037    8    0    1
 -2      1038       998      1056      3975      4040      4041
 -1      2038    8    0    1
 -2       999      1046      1056      4017      4042      4039
 -1      2039    8    0    1
 -2       996      1001      1057      3862      4043      4044
 -1      2040    8    0    1
 -2       976       977      1058      3781      4045      4046
 -1      2041    8    0    1
 -2      1053       976      1058      4030      4046      4047
 -1      2042    8    0    1
 -2       977      1049      1058      4016      4048      4045
 -1      2043    8    0    1
 -2       986       923       908      3836      3774      3808
 -1      2044    8    0    1
 -2       915       917      1047      3579      4049      4050
 -1      2045    8    0    1
 -2      1057      1001      1038      4043      3976      4051
 -1      2046    8    0    1
 -2      1042       927      1057      3987      4052      4053
 -1      2047    8    0    1
 -2      1047       997      1059      4005      4054      4055
 -1      2048    8    0    1
 -2       997      1053      1059      4031      4056      4054
 -1      2049    8    0    1
 -2       984      1043      1060      3992      4057      4058
 -1      2050    8    0    1
 -2      1043      1028      1060      4025      4059      4057
 -1      2051    8    0    1
 -2      1005      1004      1061      3874      4060      4061
 -1      2052    8    0    1
 -2      1006      1005      1062      3877      4062      4063
 -1      2053    8    0    1
 -2      1005      1061      1062      4061      4064      4062
 -1      2054    8    0    1
 -2      1007      1006      1063      3880      4065      4066
 -1      2055    8    0    1
 -2      1006      1062      1063      4063      4067      4065
 -1      2056    8    0    1
 -2      1008      1007      1064      3883      4068      4069
 -1      2057    8    0    1
 -2      1007      1063      1064      4066      4070      4068
 -1      2058    8    0    1
 -2      1009      1008      1065      3886      4071      4072
 -1      2059    8    0    1
 -2      1008      1064      1065      4069      4073      4071
 -1      2060    8    0    1
 -2      1010      1009      1066      3889      4074      4075
 -1      2061    8    0    1
 -2      1009      1065      1066      4072      4076      4074
 -1      2062    8    0    1
 -2      1011      1010      1067      3892      4077      4078
 -1      2063    8    0    1
 -2      1010      1066      1067      4075      4079      4077
 -1      2064    8    0    1
 -2      1012      1011      1068      3895      4080      4081
 -1      2065    8    0    1
 -2      1011      1067      1068      4078      4082      4080
 -1      2066    8    0    1
 -2      1013      1012      1069      3898      4083      4084
 -1      2067    8    0    1
 -2      1012      1068      1069      4081      4085      4083
 -1      2068    8    0    1
 -2      1014      1013      1070      3901      4086      4087
 -1      2069    8    0    1
 -2      1013      1069      1070      4084      4088      4086
 -1      2070    8    0    1
 -2      1015      1014      1071      3904      4089      4090
 -1      2071    8    0    1
 -2      1014      1070      1071      4087      4091      4089
 -1      2072    8    0    1
 -2      1046      1023      1072      4001      4092      4093
 -1      2073    8    0    1
 -2      1018      1017      1073      3912      4094      4095
 -1      2074    8    0    1
 -2      1025      1037      1074      4008      4096      4097
 -1      2075    8    0    1
 -2      1019      1018      1075      3915      4098      4099
 -1      2076    8    0    1
 -2      1018      1073      1075      4095      4100      4098
 -1      2077    8    0    1
 -2      1020      1019      1076      3918      4101      4102
 -1      2078    8    0    1
 -2      1019      1075      1076      4099      4103      4101
 -1      2079    8    0    1
 -2      1021      1020      1077      3921      4104      4105
 -1      2080    8    0    1
 -2      1020      1076      1077      4102      4106      4104
 -1      2081    8    0    1
 -2      1022      1021      1049      3925      4107      4014
 -1      2082    8    0    1
 -2      1024      1026      1078      4011      4108      4109
 -1      2083    8    0    1
 -2      1042      1057      1038      4053      4051      4110
 -1      2084    8    0    1
 -2       992       984      1060      4012      4058      4111
 -1      2085    8    0    1
 -2      1030      1031      1079      3954      4112      4113
 -1      2086    8    0    1
 -2      1028      1029      1080      3948      4114      4115
 -1      2087    8    0    1
 -2      1028      1080      1060      4115      4116      4059
 -1      2088    8    0    1
 -2      1031      1032      1081      3957      4117      4118
 -1      2089    8    0    1
 -2      1031      1081      1079      4118      4119      4112
 -1      2090    8    0    1
 -2      1032      1033      1082      3960      4120      4121
 -1      2091    8    0    1
 -2      1032      1082      1081      4121      4122      4117
 -1      2092    8    0    1
 -2      1033      1034      1083      3963      4123      4124
 -1      2093    8    0    1
 -2      1033      1083      1082      4124      4125      4120
 -1      2094    8    0    1
 -2       943      1035      1023      3966      4126      3928
 -1      2095    8    0    1
 -2      1036      1024      1084      4021      4127      4128
 -1      2096    8    0    1
 -2      1024      1078      1084      4109      4129      4127
 -1      2097    8    0    1
 -2       922       994      1085      3839      4130      4131
 -1      2098    8    0    1
 -2      1017      1040      1086      3982      4132      4133
 -1      2099    8    0    1
 -2      1017      1086      1073      4133      4134      4094
 -1      2100    8    0    1
 -2       993       922      1085      3835      4131      4135
 -1      2101    8    0    1
 -2      1000       990      1087      4032      4136      4137
 -1      2102    8    0    1
 -2       990      1044      1087      3997      4138      4136
 -1      2103    8    0    1
 -2      1039       987      1088      3979      4139      4140
 -1      2104    8    0    1
 -2       987      1048      1088      4007      4141      4139
 -1      2105    8    0    1
 -2       995      1039      1089      4029      4142      4143
 -1      2106    8    0    1
 -2      1055       995      1089      4036      4143      4144
 -1      2107    8    0    1
 -2      1039      1088      1089      4140      4145      4142
 -1      2108    8    0    1
 -2      1002       942      1045      3994      3999      4146
 -1      2109    8    0    1
 -2      1037      1027      1052      3974      4147      4148
 -1      2110    8    0    1
 -2      1016      1036      1090      3969      4149      4150
 -1      2111    8    0    1
 -2      1036      1084      1090      4128      4151      4149
 -1      2112    8    0    1
 -2      1026      1025      1091      3935      4152      4153
 -1      2113    8    0    1
 -2      1078      1026      1091      4108      4153      4154
 -1      2114    8    0    1
 -2      1025      1074      1091      4097      4155      4152
 -1      2115    8    0    1
 -2      1035      1050      1072      4020      4156      4157
 -1      2116    8    0    1
 -2      1040      1041      1092      3985      4158      4159
 -1      2117    8    0    1
 -2      1086      1040      1092      4132      4159      4160
 -1      2118    8    0    1
 -2      1041      1051      1092      4024      4161      4158
 -1      2119    8    0    1
 -2      1029      1030      1093      3951      4162      4163
 -1      2120    8    0    1
 -2      1080      1029      1093      4114      4163      4164
 -1      2121    8    0    1
 -2      1030      1079      1093      4113      4165      4162
 -1      2122    8    0    1
 -2       927       983      1057      3799      4166      4052
 -1      2123    8    0    1
 -2      1003      1042      1094      3989      4167      4168
 -1      2124    8    0    1
 -2      1004      1003      1095      3871      4169      4170
 -1      2125    8    0    1
 -2      1003      1094      1095      4168      4171      4169
 -1      2126    8    0    1
 -2      1042      1038      1094      4110      4172      4167
 -1      2127    8    0    1
 -2      1023      1035      1072      4126      4157      4092
 -1      2128    8    0    1
 -2      1085       994      1052      4130      4027      4173
 -1      2129    8    0    1
 -2      1044      1016      1096      3995      4174      4175
 -1      2130    8    0    1
 -2      1016      1090      1096      4150      4176      4174
 -1      2131    8    0    1
 -2      1061      1004      1095      4060      4170      4177
 -1      2132    8    0    1
 -2      1002      1045      1097      4146      4178      4179
 -1      2133    8    0    1
 -2      1002      1097      1052      4179      4180      4028
 -1      2134    8    0    1
 -2      1045      1015      1098      4000      4181      4182
 -1      2135    8    0    1
 -2      1097      1045      1098      4178      4182      4183
 -1      2136    8    0    1
 -2      1015      1071      1098      4090      4184      4181
 -1      2137    8    0    1
 -2      1046      1072      1099      4093      4185      4186
 -1      2138    8    0    1
 -2      1046      1099      1056      4186      4187      4042
 -1      2139    8    0    1
 -2      1049      1021      1077      4107      4105      4188
 -1      2140    8    0    1
 -2      1050      1055      1100      4038      4189      4190
 -1      2141    8    0    1
 -2      1072      1050      1101      4156      4191      4192
 -1      2142    8    0    1
 -2      1099      1072      1101      4185      4192      4193
 -1      2143    8    0    1
 -2      1050      1100      1101      4190      4194      4191
 -1      2144    8    0    1
 -2      1034       991      1059      4018      4195      4196
 -1      2145    8    0    1
 -2      1083      1034      1059      4123      4196      4197
 -1      2146    8    0    1
 -2      1038      1056      1094      4041      4198      4172
 -1      2147    8    0    1
 -2      1051       992      1080      4022      4199      4200
 -1      2148    8    0    1
 -2       983       996      1057      3943      4044      4166
 -1      2149    8    0    1
 -2      1088      1048      1102      4141      4201      4202
 -1      2150    8    0    1
 -2      1054      1000      1087      4033      4137      4203
 -1      2151    8    0    1
 -2      1048      1054      1103      4035      4204      4205
 -1      2152    8    0    1
 -2      1048      1103      1102      4205      4206      4201
 -1      2153    8    0    1
 -2       992      1060      1080      4111      4116      4199
 -1      2154    8    0    1
 -2      1079      1081      1073      4119      4207      4208
 -1      2155    8    0    1
 -2      1059       991      1047      4195      4209      4055
 -1      2156    8    0    1
 -2       915      1047       991      4050      4209      3827
 -1      2157    8    0    1
 -2      1063      1062      1104      4067      4210      4211
 -1      2158    8    0    1
 -2      1064      1063      1102      4070      4212      4213
 -1      2159    8    0    1
 -2      1065      1064      1103      4073      4214      4215
 -1      2160    8    0    1
 -2      1067      1066      1105      4079      4216      4217
 -1      2161    8    0    1
 -2      1068      1067      1096      4082      4218      4219
 -1      2162    8    0    1
 -2      1069      1068      1090      4085      4220      4221
 -1      2163    8    0    1
 -2      1070      1069      1084      4088      4222      4223
 -1      2164    8    0    1
 -2      1071      1070      1078      4091      4224      4225
 -1      2165    8    0    1
 -2      1100      1055      1106      4189      4226      4227
 -1      2166    8    0    1
 -2      1055      1089      1106      4144      4228      4226
 -1      2167    8    0    1
 -2       917       980      1047      3790      4004      4049
 -1      2168    8    0    1
 -2      1076      1075      1082      4103      4229      4230
 -1      2169    8    0    1
 -2      1077      1076      1083      4106      4231      4232
 -1      2170    8    0    1
 -2      1095      1094      1101      4171      4233      4234
 -1      2171    8    0    1
 -2      1081      1082      1075      4122      4229      4235
 -1      2172    8    0    1
 -2      1073      1081      1075      4207      4235      4100
 -1      2173    8    0    1
 -2      1082      1083      1076      4125      4231      4230
 -1      2174    8    0    1
 -2      1084      1078      1070      4129      4224      4223
 -1      2175    8    0    1
 -2      1079      1073      1086      4208      4134      4236
 -1      2176    8    0    1
 -2      1037      1052      1074      4148      4237      4096
 -1      2177    8    0    1
 -2      1087      1044      1105      4138      4238      4239
 -1      2178    8    0    1
 -2      1090      1068      1096      4220      4219      4176
 -1      2179    8    0    1
 -2      1062      1061      1106      4064      4240      4241
 -1      2180    8    0    1
 -2      1054      1087      1107      4203      4242      4243
 -1      2181    8    0    1
 -2      1103      1054      1107      4204      4243      4244
 -1      2182    8    0    1
 -2      1087      1105      1107      4239      4245      4242
 -1      2183    8    0    1
 -2      1090      1084      1069      4151      4222      4221
 -1      2184    8    0    1
 -2      1049      1077      1058      4188      4246      4048
 -1      2185    8    0    1
 -2      1061      1095      1100      4177      4247      4248
 -1      2186    8    0    1
 -2      1061      1100      1106      4248      4227      4240
 -1      2187    8    0    1
 -2      1059      1053      1083      4056      4249      4197
 -1      2188    8    0    1
 -2      1051      1080      1108      4200      4250      4251
 -1      2189    8    0    1
 -2      1092      1051      1108      4161      4251      4252
 -1      2190    8    0    1
 -2      1080      1093      1108      4164      4253      4250
 -1      2191    8    0    1
 -2      1088      1102      1104      4202      4254      4255
 -1      2192    8    0    1
 -2      1102      1063      1104      4212      4211      4254
 -1      2193    8    0    1
 -2      1064      1102      1103      4213      4206      4214
 -1      2194    8    0    1
 -2      1083      1053      1077      4249      4256      4232
 -1      2195    8    0    1
 -2      1079      1086      1093      4236      4257      4165
 -1      2196    8    0    1
 -2      1071      1078      1091      4225      4154      4258
 -1      2197    8    0    1
 -2      1074      1052      1097      4237      4180      4259
 -1      2198    8    0    1
 -2      1100      1095      1101      4247      4234      4194
 -1      2199    8    0    1
 -2      1104      1062      1106      4210      4241      4260
 -1      2200    8    0    1
 -2      1105      1066      1107      4216      4261      4245
 -1      2201    8    0    1
 -2      1098      1071      1091      4184      4258      4262
 -1      2202    8    0    1
 -2      1065      1103      1107      4215      4244      4263
 -1      2203    8    0    1
 -2      1067      1105      1096      4217      4264      4218
 -1      2204    8    0    1
 -2      1066      1065      1107      4076      4263      4261
 -1      2205    8    0    1
 -2      1044      1096      1105      4175      4264      4238
 -1      2206    8    0    1
 -2      1094      1056      1099      4198      4187      4265
 -1      2207    8    0    1
 -2      1027       993      1085      4013      4135      4266
 -1      2208    8    0    1
 -2      1094      1099      1101      4265      4193      4233
 -1      2209    8    0    1
 -2      1074      1097      1098      4259      4183      4267
 -1      2210    8    0    1
 -2      1089      1088      1104      4145      4255      4268
 -1      2211    8    0    1
 -2      1052      1027      1085      4147      4266      4173
 -1      2212    8    0    1
 -2      1074      1098      1091      4267      4262      4155
 -1      2213    8    0    1
 -2      1053      1058      1077      4047      4246      4256
 -1      2214    8    0    1
 -2      1104      1106      1089      4260      4228      4268
 -1      2215    8    0    1
 -2      1086      1092      1108      4160      4252      4269
 -1      2216    8    0    1
 -2      1093      1086      1108      4257      4269      4253
 -3
    1PSTEP                         1           1           1          
  100CL  101 1.000000000        4269                     0    1           1
 -4  DISP        4    1
 -5  D1          1    2    1    0
 -5  D2          1    2    2    0
 -5  D3          1    2    3    0
 -5  ALL         1    2    0    0    1ALL
 -1         1 7.19483E-03-1.07530E-03-3.03907E-14
 -1         2 1.15916E-02-9.09293E-04-3.95601E-14
 -1         3 1.40393E-02-2.27649E-03-8.33591E-14
 -1         4 1.65001E-02-3.67569E-03-8.41362E-14
 -1         5 0.00000E+00 0.00000E+00 0.00000E+00
 -1         6 0.00000E+00 0.00000E+00 0.00000E+00
 -1         7 0.00000E+00 0.00000E+00 0.00000E+00
 -1         8 0.00000E+00 0.00000E+00 0.00000E+00
 -1         9 0.00000E+00 0.00000E+00 0.00000E+00
 -1        10 0.00000E+00 0.00000E+00 0.00000E+00
 -1        11 0.00000E+00 0.00000E+00 0.00000E+00
 -1        12 0.00000E+00 0.00000E+00 0.00000E+00
 -1        13 0.00000E+00 0.00000E+00 0.00000E+00
 -1        14 0.00000E+00 0.00000E+00 0.00000E+00
 -1        15 0.00000E+00 0.00000E+00 0.00000E+00
 -1        16 0.00000E+00 0.00000E+00 0.00000E+00
 -1        17 0.00000E+00 0.00000E+00 0.00000E+00
 -1        18 0.00000E+00 0.00000E+00 0.00000E+00
 -1        19 0.00000E+00 0.00000E+00 0.00000E+00
 -1        20 0.00000E+00 0.00000E+00 0.00000E+00
 -1        21 0.00000E+00 0.00000E+00 0.00000E+00
 -1        22 0.00000E+00 0.00000E+00 0.00000E+00
 -1        23 4.11130E-04-2.60617E-04 2.58074E-17
 -1        24 7.02887E-04-4.00732E-04-4.89551E-17
 -1        25 9.72720E-04-4.97897E-04-2.20872E-16
 -1        26 1.23697E-03-5.66329E-04-4.86515E-16
 -1        27 1.50026E-03-6.15146E-04-8.44949E-16
 -1        28 1.76469E-03-6.49703E-04-1.29589E-15
 -1        29 2.03124E-03-6.73673E-04-1.83991E-15
 -1        30 2.31383E-03-6.90330E-04-2.51184E-15
 -1        31 2.58565E-03-7.00128E-04-3.24364E-15
 -1        32 2.86003E-03-7.05481E-04-4.06050E-15
 -1        33 3.13684E-03-7.07458E-04-4.96430E-15
 -1        34 3.41599E-03-7.06835E-04-5.95065E-15
 -1        35 3.69744E-03-7.04167E-04-7.01519E-15
 -1        36 3.98126E-03-6.99843E-04-8.16057E-15
 -1        37 4.28212E-03-6.93826E-04-9.44999E-15
 -1        38 4.57189E-03-6.86935E-04-1.07580E-14
 -1        39 4.86572E-03-6.79192E-04-1.21364E-14
 -1        40 5.16498E-03-6.71044E-04-1.35841E-14
 -1        41 5.47176E-03-6.63314E-04-1.51009E-14
 -1        42 5.78911E-03-6.57566E-04-1.66763E-14
 -1        43 6.12141E-03-6.56745E-04-1.83073E-14
 -1        44 6.49297E-03-6.67037E-04-2.00862E-14
 -1        45 6.87620E-03-6.97482E-04-2.18240E-14
 -1        46 7.29575E-03-7.64280E-04-2.36000E-14
 -1        47 7.75473E-03-8.91106E-04-2.54130E-14
 -1        48 8.24252E-03-1.10507E-03-2.72567E-14
 -1        49 8.72308E-03-1.41807E-03-2.91278E-14
 -1        50 9.11884E-03-1.76946E-03-3.09478E-14
 -1        51 9.43301E-03-2.08136E-03-3.29109E-14
 -1        52 9.65442E-03-2.19550E-03-3.47355E-14
 -1        53 9.88215E-03-2.12958E-03-3.65072E-14
 -1        54 1.02402E-02-1.92320E-03-3.86429E-14
 -1        55 1.06924E-02-1.71668E-03-4.08392E-14
 -1        56 1.11826E-02-1.59581E-03-4.30959E-14
 -1        57 1.16597E-02-1.57234E-03-4.54236E-14
 -1        58 1.21217E-02-1.62786E-03-4.79201E-14
 -1        59 1.25219E-02-1.72929E-03-5.03395E-14
 -1        60 1.28894E-02-1.85786E-03-5.27991E-14
 -1        61 1.32322E-02-2.00103E-03-5.52821E-14
 -1        62 1.35572E-02-2.15149E-03-5.77968E-14
 -1        63 1.38695E-02-2.30514E-03-6.03430E-14
 -1        64 1.41731E-02-2.45981E-03-6.29151E-14
 -1        65 1.44853E-02-2.62203E-03-6.56512E-14
 -1        66 1.47783E-02-2.77576E-03-6.82901E-14
 -1        67 1.50683E-02-2.92847E-03-7.09315E-14
 -1        68 1.53564E-02-3.08003E-03-7.35673E-14
 -1        69 1.56431E-02-3.23041E-03-7.62034E-14
 -1        70 1.59289E-02-3.37965E-03-7.88480E-14
 -1        71 1.62145E-02-3.52792E-03-8.15041E-14
 -1        72 4.13581E-04 2.61316E-04 4.66444E-17
 -1        73 7.02725E-04 4.03431E-04 8.73799E-18
 -1        74 9.73273E-04 4.99661E-04-1.12811E-16
 -1        75 1.23783E-03 5.68024E-04-3.18335E-16
 -1        76 1.50128E-03 6.16902E-04-6.08420E-16
 -1        77 1.76582E-03 6.51568E-04-9.85215E-16
 -1        78 2.03247E-03 6.75683E-04-1.44839E-15
 -1        79 2.30165E-03 6.91908E-04-1.99655E-15
 -1        80 2.57347E-03 7.02226E-04-2.63162E-15
 -1        81 2.84788E-03 7.08142E-04-3.35591E-15
 -1        82 3.12476E-03 7.10799E-04-4.16905E-15
 -1        83 3.40398E-03 7.11079E-04-5.06420E-15
 -1        84 3.68542E-03 7.09676E-04-6.04776E-15
 -1        85 3.96904E-03 7.07166E-04-7.11771E-15
 -1        86 4.25482E-03 7.04071E-04-8.27313E-15
 -1        87 4.54279E-03 7.00915E-04-9.51746E-15
 -1        88 4.83300E-03 6.98272E-04-1.08440E-14
 -1        89 5.12541E-03 6.96799E-04-1.22519E-14
 -1        90 5.41986E-03 6.97237E-04-1.37359E-14
 -1        91 5.71592E-03 7.00368E-04-1.52965E-14
 -1        92 6.01277E-03 7.06895E-04-1.69305E-14
 -1        93 6.30905E-03 7.17225E-04-1.86336E-14
 -1        94 6.60279E-03 7.31146E-04-2.04052E-14
 -1        95 6.89151E-03 7.47415E-04-2.22347E-14
 -1        96 7.17246E-03 7.63363E-04-2.41306E-14
 -1        97 7.44318E-03 7.74669E-04-2.60810E-14
 -1        98 7.70225E-03 7.75534E-04-2.80894E-14
 -1        99 7.95003E-03 7.59410E-04-3.01472E-14
 -1       100 8.18905E-03 7.20272E-04-3.22544E-14
 -1       101 8.42383E-03 6.54079E-04-3.44269E-14
 -1       102 8.65989E-03 5.59897E-04-3.66492E-14
 -1       103 8.90244E-03 4.40169E-04-3.89231E-14
 -1       104 9.15517E-03 3.00005E-04-4.12359E-14
 -1       105 9.41961E-03 1.45841E-04-4.35779E-14
 -1       106 9.69523E-03-1.60038E-05-4.59448E-14
 -1       107 9.98004E-03-1.80364E-04-4.83512E-14
 -1       108 1.02714E-02-3.43698E-04-5.07842E-14
 -1       109 1.05666E-02-5.04050E-04-5.32349E-14
 -1       110 1.08634E-02-6.60718E-04-5.57028E-14
 -1       111 1.11602E-02-8.13835E-04-5.81803E-14
 -1       112 1.14560E-02-9.63987E-04-6.06784E-14
 -1       113 1.17501E-02-1.11194E-03-6.31896E-14
 -1       114 1.20424E-02-1.25844E-03-6.57092E-14
 -1       115 1.23330E-02-1.40418E-03-6.82348E-14
 -1       116 1.26220E-02-1.54969E-03-7.07574E-14
 -1       117 1.29097E-02-1.69538E-03-7.32843E-14
 -1       118 1.31963E-02-1.84157E-03-7.58130E-14
 -1       119 1.34823E-02-1.98843E-03-7.83623E-14
 -1       120 1.37679E-02-2.13597E-03-8.09245E-14
 -1       121 1.41848E-02-2.36084E-03-8.34258E-14
 -1       122 1.43307E-02-2.44519E-03-8.35084E-14
 -1       123 1.44772E-02-2.52921E-03-8.35797E-14
 -1       124 1.46242E-02-2.61262E-03-8.36397E-14
 -1       125 1.47715E-02-2.69522E-03-8.37076E-14
 -1       126 1.49162E-02-2.77560E-03-8.37726E-14
 -1       127 1.50629E-02-2.85660E-03-8.38443E-14
 -1       128 1.52090E-02-2.93705E-03-8.39320E-14
 -1       129 1.53541E-02-3.01725E-03-8.40212E-14
 -1       130 1.54984E-02-3.09754E-03-8.40790E-14
 -1       131 1.56418E-02-3.17830E-03-8.41477E-14
 -1       132 1.57824E-02-3.25843E-03-8.42169E-14
 -1       133 1.59253E-02-3.34086E-03-8.42474E-14
 -1       134 1.60686E-02-3.42424E-03-8.42440E-14
 -1       135 1.62125E-02-3.50833E-03-8.42185E-14
 -1       136 1.63573E-02-3.59275E-03-8.41736E-14
 -1       137 1.14781E-02-7.24662E-04-3.94533E-14
 -1       138 1.12537E-02-5.34755E-04-3.90865E-14
 -1       139 1.09572E-02-3.65873E-04-3.85259E-14
 -1       140 1.05933E-02-2.14618E-04-3.77977E-14
 -1       141 1.01325E-02-7.42989E-05-3.68475E-14
 -1       142 9.66661E-03 2.54223E-05-3.58624E-14
 -1       143 9.17871E-03 9.13415E-05-3.48216E-14
 -1       144 8.69752E-03 1.18977E-04-3.37935E-14
 -1       145 8.21747E-03 1.06101E-04-3.27672E-14
 -1       146 7.80750E-03 5.62096E-05-3.18851E-14
 -1       147 7.45380E-03-2.81173E-05-3.11178E-14
 -1       148 7.15643E-03-1.51596E-04-3.04673E-14
 -1       149 6.96574E-03-2.94470E-04-3.00433E-14
 -1       150 6.86350E-03-4.71008E-04-2.98076E-14
 -1       151 6.87055E-03-6.57733E-04-2.97945E-14
 -1       152 6.97234E-03-8.49706E-04-2.99758E-14
 -1       153 7.49502E-03-1.28796E-03-3.09603E-14
 -1       154 7.89336E-03-1.50172E-03-3.17138E-14
 -1       155 8.38889E-03-1.69775E-03-3.26388E-14
 -1       156 8.95566E-03-1.84309E-03-3.37000E-14
 -1       157 9.50597E-03-1.90326E-03-3.47332E-14
 -1       158 1.00583E-02-1.88163E-03-3.57964E-14
 -1       159 1.05483E-02-1.78975E-03-3.67850E-14
 -1       160 1.09550E-02-1.65250E-03-3.76649E-14
 -1       161 1.12919E-02-1.47522E-03-3.84748E-14
 -1       162 1.15024E-02-1.29289E-03-3.90563E-14
 -1       163 1.16021E-02-1.10664E-03-3.94205E-14
 -1       164 2.40309E-04-1.25483E-04-1.77775E-17
 -1       165 2.25227E-04-9.45958E-05-3.11064E-17
 -1       166 2.19530E-04-7.27633E-05-3.83130E-17
 -1       167 2.16751E-04-5.50839E-05-4.21653E-17
 -1       168 2.15281E-04-3.99441E-05-4.39542E-17
 -1       169 2.14461E-04-2.58950E-05-4.43778E-17
 -1       170 2.14051E-04-1.26303E-05-4.40389E-17
 -1       171 2.13930E-04 2.77462E-07-4.34697E-17
 -1       172 2.14067E-04 1.31969E-05-4.23821E-17
 -1       173 2.14498E-04 2.64994E-05-4.05492E-17
 -1       174 2.15326E-04 4.03743E-05-3.79098E-17
 -1       175 2.16850E-04 5.58910E-05-3.40338E-17
 -1       176 2.19679E-04 7.37916E-05-2.81859E-17
 -1       177 2.25399E-04 9.59940E-05-1.89871E-17
 -1       178 2.39240E-04 1.27552E-04-3.30682E-18
 -1       179 2.97551E-04 1.85428E-04 1.39117E-17
 -1       180 4.68377E-04-2.63426E-04-4.95616E-17
 -1       181 7.66354E-04-3.81850E-04-1.90816E-16
 -1       182 1.05004E-03-4.64469E-04-4.22649E-16
 -1       183 1.32729E-03-5.22867E-04-7.45030E-16
 -1       184 1.60176E-03-5.64035E-04-1.15714E-15
 -1       185 1.87557E-03-5.92626E-04-1.66042E-15
 -1       186 2.16360E-03-6.12653E-04-2.28624E-15
 -1       187 2.43909E-03-6.24671E-04-2.97386E-15
 -1       188 2.71604E-03-6.31556E-04-3.74736E-15
 -1       189 2.99461E-03-6.34576E-04-4.60565E-15
 -1       190 3.27486E-03-6.34648E-04-5.54742E-15
 -1       191 3.55688E-03-6.32418E-04-6.57082E-15
 -1       192 3.84077E-03-6.28328E-04-7.67247E-15
 -1       193 4.14109E-03-6.22345E-04-8.91512E-15
 -1       194 4.42961E-03-6.15244E-04-1.01789E-14
 -1       195 4.72113E-03-6.06945E-04-1.15174E-14
 -1       196 5.01650E-03-5.97686E-04-1.29267E-14
 -1       197 5.31692E-03-5.87927E-04-1.44049E-14
 -1       198 5.62409E-03-5.78610E-04-1.59461E-14
 -1       199 5.94032E-03-5.71632E-04-1.75445E-14
 -1       200 6.28540E-03-5.70838E-04-1.92864E-14
 -1       201 6.63038E-03-5.83572E-04-2.10002E-14
 -1       202 6.99546E-03-6.21974E-04-2.27532E-14
 -1       203 7.38434E-03-7.06333E-04-2.45440E-14
 -1       204 7.79834E-03-8.65164E-04-2.63711E-14
 -1       205 8.23302E-03-1.12655E-03-2.82333E-14
 -1       206 8.65153E-03-1.46853E-03-3.00404E-14
 -1       207 9.07503E-03-1.85163E-03-3.19969E-14
 -1       208 9.43178E-03-2.08294E-03-3.38067E-14
 -1       209 9.75992E-03-2.10978E-03-3.55572E-14
 -1       210 1.01665E-02-1.93368E-03-3.76708E-14
 -1       211 1.05997E-02-1.69240E-03-3.98383E-14
 -1       212 1.10400E-02-1.52014E-03-4.20678E-14
 -1       213 1.14662E-02-1.45598E-03-4.43549E-14
 -1       214 1.18882E-02-1.48584E-03-4.68210E-14
 -1       215 1.22645E-02-1.57524E-03-4.92180E-14
 -1       216 1.26189E-02-1.69906E-03-5.16514E-14
 -1       217 1.29553E-02-1.84129E-03-5.41212E-14
 -1       218 1.32778E-02-1.99256E-03-5.66230E-14
 -1       219 1.35898E-02-2.14771E-03-5.91487E-14
 -1       220 1.38941E-02-2.30401E-03-6.17078E-14
 -1       221 1.42076E-02-2.46786E-03-6.44207E-14
 -1       222 1.45019E-02-2.62298E-03-6.70349E-14
 -1       223 1.47934E-02-2.77691E-03-6.96617E-14
 -1       224 1.50827E-02-2.92953E-03-7.22913E-14
 -1       225 1.53705E-02-3.08084E-03-7.49189E-14
 -1       226 1.56574E-02-3.23085E-03-7.75572E-14
 -1       227 1.59435E-02-3.37967E-03-8.02053E-14
 -1       228 1.61505E-02-3.48635E-03-8.21941E-14
 -1       229 6.04243E-04 3.30842E-04-3.83333E-17
 -1       230 8.93179E-04 4.32270E-04-1.68919E-16
 -1       231 1.17190E-03 5.03696E-04-3.81073E-16
 -1       232 1.44612E-03 5.54356E-04-6.77223E-16
 -1       233 1.71882E-03 5.90018E-04-1.05768E-15
 -1       234 1.99167E-03 6.14644E-04-1.52379E-15
 -1       235 2.26555E-03 6.31073E-04-2.07474E-15
 -1       236 2.54091E-03 6.41401E-04-2.71121E-15
 -1       237 2.81795E-03 6.47203E-04-3.43441E-15
 -1       238 3.09674E-03 6.49666E-04-4.24476E-15
 -1       239 3.37730E-03 6.49695E-04-5.13935E-15
 -1       240 3.65962E-03 6.47993E-04-6.11902E-15
 -1       241 3.94368E-03 6.45138E-04-7.18363E-15
 -1       242 4.22952E-03 6.41645E-04-8.33361E-15
 -1       243 4.51716E-03 6.38032E-04-9.56971E-15
 -1       244 4.80661E-03 6.34870E-04-1.08869E-14
 -1       245 5.09785E-03 6.32825E-04-1.22858E-14
 -1       246 5.39073E-03 6.32667E-04-1.37599E-14
 -1       247 5.68493E-03 6.35240E-04-1.53102E-14
 -1       248 5.97984E-03 6.41346E-04-1.69353E-14
 -1       249 6.27448E-03 6.51542E-04-1.86294E-14
 -1       250 6.56750E-03 6.65802E-04-2.03898E-14
 -1       251 6.85717E-03 6.83088E-04-2.22096E-14
 -1       252 7.14161E-03 7.00897E-04-2.40897E-14
 -1       253 7.41913E-03 7.14958E-04-2.60295E-14
 -1       254 7.68870E-03 7.19325E-04-2.80250E-14
 -1       255 7.95048E-03 7.07079E-04-3.00730E-14
 -1       256 8.20608E-03 6.71645E-04-3.21717E-14
 -1       257 8.45849E-03 6.08408E-04-3.43291E-14
 -1       258 8.71143E-03 5.16022E-04-3.65411E-14
 -1       259 8.96849E-03 3.96819E-04-3.88017E-14
 -1       260 9.23230E-03 2.56102E-04-4.11038E-14
 -1       261 9.50409E-03 1.00689E-04-4.34395E-14
 -1       262 9.78364E-03-6.26775E-05-4.58028E-14
 -1       263 1.00697E-02-2.28491E-04-4.81975E-14
 -1       264 1.03605E-02-3.92999E-04-5.06185E-14
 -1       265 1.06542E-02-5.54165E-04-5.30624E-14
 -1       266 1.09491E-02-7.11296E-04-5.55264E-14
 -1       267 1.12442E-02-8.64584E-04-5.80035E-14
 -1       268 1.15384E-02-1.01469E-03-6.04990E-14
 -1       269 1.18315E-02-1.16246E-03-6.30079E-14
 -1       270 1.21232E-02-1.30871E-03-6.55299E-14
 -1       271 1.24134E-02-1.45415E-03-6.80536E-14
 -1       272 1.27024E-02-1.59937E-03-7.05781E-14
 -1       273 1.29902E-02-1.74479E-03-7.31001E-14
 -1       274 1.32772E-02-1.89074E-03-7.56313E-14
 -1       275 1.35635E-02-2.03742E-03-7.81776E-14
 -1       276 1.38494E-02-2.18486E-03-8.07363E-14
 -1       277 1.40103E-02-2.27473E-03-8.12403E-14
 -1       278 1.41565E-02-2.35865E-03-8.13125E-14
 -1       279 1.43035E-02-2.44212E-03-8.13816E-14
 -1       280 1.44509E-02-2.52500E-03-8.14582E-14
 -1       281 1.45958E-02-2.60585E-03-8.15323E-14
 -1       282 1.47430E-02-2.68748E-03-8.16011E-14
 -1       283 1.48896E-02-2.76860E-03-8.16731E-14
 -1       284 1.50353E-02-2.84940E-03-8.17454E-14
 -1       285 1.51799E-02-2.93011E-03-8.18126E-14
 -1       286 1.53236E-02-3.01101E-03-8.18684E-14
 -1       287 1.54642E-02-3.09097E-03-8.19093E-14
 -1       288 1.56069E-02-3.17292E-03-8.19393E-14
 -1       289 1.57497E-02-3.25558E-03-8.19402E-14
 -1       290 1.58931E-02-3.33894E-03-8.19268E-14
 -1       291 1.60215E-02-3.41253E-03-8.20645E-14
 -1       292 1.15643E-02-9.00916E-04-4.04328E-14
 -1       293 1.13414E-02-7.92718E-04-4.02805E-14
 -1       294 1.10101E-02-6.19412E-04-3.96127E-14
 -1       295 1.06094E-02-4.38679E-04-3.88952E-14
 -1       296 1.01688E-02-2.21995E-04-3.78823E-14
 -1       297 9.72660E-03-1.97552E-05-3.67150E-14
 -1       298 9.31945E-03 1.24047E-04-3.54976E-14
 -1       299 8.92889E-03 1.90125E-04-3.42626E-14
 -1       300 8.54074E-03 1.71858E-04-3.30268E-14
 -1       301 8.14705E-03 7.58116E-05-3.19155E-14
 -1       302 7.76453E-03-5.49941E-05-3.09843E-14
 -1       303 7.40783E-03-2.10393E-04-3.00840E-14
 -1       304 7.09650E-03-3.35133E-04-2.95595E-14
 -1       305 6.89317E-03-4.51671E-04-2.90841E-14
 -1       306 6.82453E-03-5.47479E-04-2.89986E-14
 -1       307 6.90252E-03-6.55733E-04-2.91530E-14
 -1       308 7.12507E-03-7.94102E-04-2.94499E-14
 -1       309 7.46675E-03-1.00367E-03-3.00633E-14
 -1       310 7.88215E-03-1.25340E-03-3.08177E-14
 -1       311 8.35232E-03-1.54044E-03-3.17771E-14
 -1       312 8.85493E-03-1.80964E-03-3.28844E-14
 -1       313 9.29583E-03-1.96719E-03-3.41308E-14
 -1       314 9.72991E-03-1.97983E-03-3.53537E-14
 -1       315 1.01657E-02-1.85873E-03-3.65621E-14
 -1       316 1.05901E-02-1.66286E-03-3.76727E-14
 -1       317 1.09889E-02-1.43725E-03-3.87697E-14
 -1       318 1.13408E-02-1.25762E-03-3.95218E-14
 -1       319 1.15598E-02-1.11665E-03-4.00936E-14
 -1       320 1.16423E-02-1.00583E-03-4.05319E-14
 -1       321 4.55262E-04-1.64640E-04-1.31805E-16
 -1       322 4.74122E-04-2.12863E-04-1.10223E-16
 -1       323 4.40548E-04-9.39243E-05-1.51582E-16
 -1       324 4.37621E-04-6.48349E-05-1.54326E-16
 -1       325 4.36020E-04-3.78517E-05-1.54875E-16
 -1       326 4.35317E-04-1.19930E-05-1.53865E-16
 -1       327 4.35345E-04 1.35277E-05-1.51321E-16
 -1       328 4.36110E-04 3.94417E-05-1.47089E-16
 -1       329 4.37753E-04 6.60723E-05-1.40743E-16
 -1       330 4.40770E-04 9.53300E-05-1.31812E-16
 -1       331 4.46098E-04 1.28230E-04-1.19330E-16
 -1       332 4.55949E-04 1.67204E-04-1.01007E-16
 -1       333 4.75741E-04 2.16851E-04-7.36241E-17
 -1       334 5.31763E-04 2.69797E-04-6.08237E-17
 -1       335 8.24134E-04 3.73114E-04-1.96532E-16
 -1       336 8.62986E-04-3.57022E-04-3.49496E-16
 -1       337 1.14926E-03-4.25458E-04-6.37734E-16
 -1       338 1.43199E-03-4.74180E-04-1.01374E-15
 -1       339 1.71269E-03-5.08301E-04-1.47809E-15
 -1       340 2.00648E-03-5.32501E-04-2.06136E-15
 -1       341 2.28622E-03-5.47353E-04-2.70611E-15
 -1       342 2.56640E-03-5.56264E-04-3.43723E-15
 -1       343 2.84733E-03-5.60730E-04-4.25210E-15
 -1       344 3.12920E-03-5.61839E-04-5.15010E-15
 -1       345 3.41215E-03-5.60362E-04-6.12974E-15
 -1       346 3.69630E-03-5.56830E-04-7.18788E-15
 -1       347 3.99610E-03-5.51285E-04-8.38556E-15
 -1       348 4.28319E-03-5.44482E-04-9.60671E-15
 -1       349 4.57206E-03-5.36347E-04-1.09050E-14
 -1       350 4.86308E-03-5.27042E-04-1.22752E-14
 -1       351 5.15670E-03-5.16858E-04-1.37159E-14
 -1       352 5.45350E-03-5.06400E-04-1.52216E-14
 -1       353 5.75421E-03-4.96914E-04-1.67896E-14
 -1       354 6.07514E-03-4.90677E-04-1.84966E-14
 -1       355 6.38697E-03-4.93127E-04-2.01802E-14
 -1       356 6.70670E-03-5.12194E-04-2.19089E-14
 -1       357 7.03784E-03-5.62021E-04-2.36804E-14
 -1       358 7.38740E-03-6.64901E-04-2.54882E-14
 -1       359 7.76748E-03-8.51815E-04-2.73350E-14
 -1       360 8.16971E-03-1.13564E-03-2.91249E-14
 -1       361 8.63692E-03-1.53903E-03-3.10590E-14
 -1       362 9.55608E-03-2.06449E-03-3.47460E-14
 -1       363 1.04810E-02-1.69360E-03-3.88252E-14
 -1       364 1.09304E-02-1.47510E-03-4.10268E-14
 -1       365 1.13389E-02-1.37236E-03-4.32848E-14
 -1       366 1.17288E-02-1.37438E-03-4.57169E-14
 -1       367 1.20752E-02-1.44733E-03-4.80900E-14
 -1       368 1.24060E-02-1.56177E-03-5.05037E-14
 -1       369 1.27260E-02-1.69931E-03-5.29522E-14
 -1       370 1.30379E-02-1.84870E-03-5.54361E-14
 -1       371 1.33434E-02-2.00355E-03-5.79483E-14
 -1       372 1.36440E-02-2.16034E-03-6.04881E-14
 -1       373 1.39555E-02-2.32509E-03-6.31870E-14
 -1       374 1.42490E-02-2.48119E-03-6.57832E-14
 -1       375 1.45402E-02-2.63608E-03-6.83945E-14
 -1       376 1.48297E-02-2.78964E-03-7.10122E-14
 -1       377 1.51179E-02-2.94181E-03-7.36323E-14
 -1       378 1.54050E-02-3.09262E-03-7.62587E-14
 -1       379 1.56915E-02-3.24213E-03-7.89026E-14
 -1       380 1.27124E-03 4.60296E-04-6.10067E-16
 -1       381 1.55212E-03 5.02678E-04-9.63446E-16
 -1       382 1.83149E-03 5.32166E-04-1.40003E-15
 -1       383 2.11043E-03 5.52073E-04-1.92033E-15
 -1       384 2.38963E-03 5.64863E-04-2.52556E-15
 -1       385 2.66950E-03 5.72379E-04-3.21538E-15
 -1       386 2.95029E-03 5.76005E-04-3.99083E-15
 -1       387 3.23214E-03 5.76780E-04-4.85109E-15
 -1       388 3.51513E-03 5.75499E-04-5.79359E-15
 -1       389 3.79932E-03 5.72784E-04-6.82058E-15
 -1       390 4.08477E-03 5.69164E-04-7.93138E-15
 -1       391 4.37153E-03 5.65136E-04-9.12621E-15
 -1       392 4.65968E-03 5.61229E-04-1.04030E-14
 -1       393 4.94927E-03 5.58052E-04-1.17596E-14
 -1       394 5.24031E-03 5.56335E-04-1.31946E-14
 -1       395 5.53275E-03 5.56920E-04-1.47040E-14
 -1       396 5.82641E-03 5.60709E-04-1.62894E-14
 -1       397 6.12090E-03 5.68515E-04-1.79458E-14
 -1       398 6.41557E-03 5.80798E-04-1.96698E-14
 -1       399 6.70944E-03 5.97265E-04-2.14552E-14
 -1       400 7.00122E-03 6.16368E-04-2.32990E-14
 -1       401 7.28943E-03 6.34820E-04-2.52001E-14
 -1       402 7.57272E-03 6.47355E-04-2.71579E-14
 -1       403 7.85032E-03 6.47020E-04-2.91736E-14
 -1       404 8.12252E-03 6.26246E-04-3.12399E-14
 -1       405 8.39093E-03 5.78573E-04-3.33597E-14
 -1       406 8.65824E-03 5.00499E-04-3.55358E-14
 -1       407 8.92746E-03 3.92603E-04-3.77656E-14
 -1       408 9.20104E-03 2.59352E-04-4.00414E-14
 -1       409 9.48023E-03 1.07696E-04-4.23569E-14
 -1       410 9.76500E-03-5.48293E-05-4.47021E-14
 -1       411 1.00543E-02-2.21681E-04-4.70750E-14
 -1       412 1.03469E-02-3.88154E-04-4.94763E-14
 -1       413 1.06411E-02-5.51499E-04-5.19005E-14
 -1       414 1.09360E-02-7.10588E-04-5.43496E-14
 -1       415 1.12305E-02-8.65403E-04-5.68195E-14
 -1       416 1.15241E-02-1.01655E-03-5.93075E-14
 -1       417 1.18166E-02-1.16490E-03-6.18108E-14
 -1       418 1.21079E-02-1.31136E-03-6.43286E-14
 -1       419 1.23979E-02-1.45673E-03-6.68531E-14
 -1       420 1.26869E-02-1.60165E-03-6.93776E-14
 -1       421 1.29749E-02-1.74665E-03-7.18996E-14
 -1       422 1.32622E-02-1.89208E-03-7.44252E-14
 -1       423 1.35488E-02-2.03821E-03-7.69596E-14
 -1       424 1.37796E-02-2.15618E-03-7.90974E-14
 -1       425 1.41300E-02-2.35575E-03-7.92038E-14
 -1       426 1.39826E-02-2.27260E-03-7.91255E-14
 -1       427 1.42752E-02-2.43691E-03-7.92818E-14
 -1       428 1.44229E-02-2.51889E-03-7.93529E-14
 -1       429 1.45700E-02-2.60033E-03-7.94196E-14
 -1       430 1.47162E-02-2.68136E-03-7.94817E-14
 -1       431 1.48614E-02-2.76216E-03-7.95421E-14
 -1       432 1.50056E-02-2.84295E-03-7.95927E-14
 -1       433 1.51463E-02-2.92261E-03-7.96286E-14
 -1       434 1.52888E-02-3.00410E-03-7.96470E-14
 -1       435 1.54312E-02-3.08623E-03-7.96478E-14
 -1       436 1.55740E-02-3.16906E-03-7.96387E-14
 -1       437 1.04854E-03 4.24142E-04-3.75063E-16
 -1       438 1.11235E-02-8.08714E-04-4.09827E-14
 -1       439 1.02834E-02-4.05543E-04-3.91557E-14
 -1       440 1.16336E-02-9.87627E-04-4.14671E-14
 -1       441 1.07856E-02-6.56099E-04-4.02559E-14
 -1       442 4.45727E-04-1.26390E-04-1.44534E-16
 -1       443 9.84484E-03-1.47214E-04-3.77904E-14
 -1       444 9.43534E-03 6.74291E-05-3.63958E-14
 -1       445 9.07640E-03 1.97824E-04-3.49409E-14
 -1       446 8.73866E-03 2.28016E-04-3.35054E-14
 -1       447 8.36625E-03 1.41108E-04-3.20846E-14
 -1       448 7.99419E-03-6.39251E-06-3.07961E-14
 -1       449 7.66589E-03-1.52424E-04-2.99018E-14
 -1       450 7.24420E-03-3.27255E-04-2.89784E-14
 -1       451 6.99817E-03-4.18699E-04-2.85129E-14
 -1       452 6.81861E-03-4.91894E-04-2.80781E-14
 -1       453 6.83718E-03-5.50718E-04-2.82291E-14
 -1       454 7.00210E-03-6.29122E-04-2.84747E-14
 -1       455 7.34281E-03-7.93427E-04-2.90713E-14
 -1       456 7.75588E-03-1.02515E-03-2.98289E-14
 -1       457 8.22560E-03-1.33116E-03-3.08016E-14
 -1       458 8.69337E-03-1.64458E-03-3.18301E-14
 -1       459 9.17784E-03-1.94902E-03-3.33830E-14
 -1       460 9.53550E-03-2.03909E-03-3.47469E-14
 -1       461 9.91939E-03-1.96484E-03-3.61765E-14
 -1       462 1.03185E-02-1.76120E-03-3.76044E-14
 -1       463 1.07157E-02-1.52405E-03-3.87897E-14
 -1       464 1.11681E-02-1.26932E-03-4.01891E-14
 -1       465 1.14577E-02-1.13830E-03-4.06736E-14
 -1       466 1.16310E-02-1.05327E-03-4.14178E-14
 -1       467 1.14840E-02-9.37885E-04-4.15341E-14
 -1       468 9.89360E-03-2.01161E-03-3.62166E-14
 -1       469 9.24076E-03-1.98068E-03-3.33327E-14
 -1       470 1.56325E-02-3.20546E-03-7.92712E-14
 -1       471 6.66056E-04-7.49944E-05-3.30543E-16
 -1       472 6.69979E-04-1.15707E-04-3.27070E-16
 -1       473 6.63406E-04 1.11611E-06-3.26972E-16
 -1       474 6.64114E-04 3.87088E-05-3.20344E-16
 -1       475 6.66228E-04 7.66992E-05-3.10485E-16
 -1       476 6.70277E-04 1.17557E-04-2.96516E-16
 -1       477 6.77214E-04 1.62136E-04-2.77458E-16
 -1       478 6.88961E-04 2.12481E-04-2.50979E-16
 -1       479 7.09651E-04 2.71500E-04-2.14106E-16
 -1       480 7.63281E-04 3.20195E-04-2.08966E-16
 -1       481 1.08607E-02-1.44132E-03-3.99862E-14
 -1       482 9.76173E-04-3.28131E-04-5.26197E-16
 -1       483 9.99115E-03-2.94597E-04-3.90555E-14
 -1       484 1.13319E-02-9.45622E-04-4.25121E-14
 -1       485 1.26206E-03-3.82634E-04-8.67053E-16
 -1       486 1.54710E-03-4.21864E-04-1.29425E-15
 -1       487 1.84547E-03-4.50321E-04-1.83598E-15
 -1       488 2.12909E-03-4.68261E-04-2.44023E-15
 -1       489 2.41253E-03-4.79505E-04-3.12937E-15
 -1       490 2.69606E-03-4.85730E-04-3.90230E-15
 -1       491 2.97988E-03-4.88183E-04-4.75735E-15
 -1       492 3.26412E-03-4.87771E-04-5.69403E-15
 -1       493 3.54888E-03-4.85128E-04-6.70992E-15
 -1       494 3.84851E-03-4.80422E-04-7.86105E-15
 -1       495 4.13453E-03-4.74397E-04-9.03959E-15
 -1       496 4.42121E-03-4.67063E-04-1.02962E-14
 -1       497 4.70856E-03-4.58601E-04-1.16271E-14
 -1       498 4.99650E-03-4.49270E-04-1.30314E-14
 -1       499 5.28486E-03-4.39543E-04-1.45047E-14
 -1       500 5.57326E-03-4.30326E-04-1.60386E-14
 -1       501 5.87551E-03-4.23043E-04-1.77124E-14
 -1       502 6.16201E-03-4.21508E-04-1.93649E-14
 -1       503 6.44655E-03-4.30401E-04-2.10681E-14
 -1       504 6.72960E-03-4.57964E-04-2.28171E-14
 -1       505 7.01521E-03-5.17205E-04-2.46071E-14
 -1       506 7.31536E-03-6.29688E-04-2.64348E-14
 -1       507 7.63536E-03-8.19392E-04-2.82054E-14
 -1       508 1.12974E-02-1.27218E-03-4.22361E-14
 -1       509 1.16414E-02-1.26012E-03-4.46355E-14
 -1       510 1.19413E-02-1.32232E-03-4.69780E-14
 -1       511 1.22318E-02-1.42738E-03-4.93712E-14
 -1       512 1.25206E-02-1.55765E-03-5.17978E-14
 -1       513 1.28101E-02-1.70217E-03-5.42631E-14
 -1       514 1.31002E-02-1.85413E-03-5.67563E-14
 -1       515 1.33904E-02-2.00948E-03-5.92803E-14
 -1       516 1.36949E-02-2.17371E-03-6.19619E-14
 -1       517 1.39843E-02-2.32987E-03-6.45406E-14
 -1       518 1.42731E-02-2.48516E-03-6.71386E-14
 -1       519 1.45611E-02-2.63926E-03-6.97422E-14
 -1       520 1.48485E-02-2.79208E-03-7.23523E-14
 -1       521 1.51353E-02-2.94357E-03-7.49676E-14
 -1       522 1.53840E-02-3.07494E-03-7.71143E-14
 -1       523 1.95083E-03 4.71016E-04-1.75730E-15
 -1       524 1.66747E-03 4.47357E-04-1.26651E-15
 -1       525 1.38330E-03 4.13016E-04-8.57980E-16
 -1       526 2.23380E-03 4.86618E-04-2.33107E-15
 -1       527 2.51674E-03 4.96205E-04-2.98897E-15
 -1       528 2.79991E-03 5.01332E-04-3.73118E-15
 -1       529 3.08349E-03 5.03173E-04-4.55698E-15
 -1       530 3.36761E-03 5.02616E-04-5.46561E-15
 -1       531 3.65236E-03 5.00339E-04-6.45572E-15
 -1       532 3.93783E-03 4.96885E-04-7.52928E-15
 -1       533 4.22412E-03 4.92731E-04-8.68473E-15
 -1       534 4.51133E-03 4.88349E-04-9.92140E-15
 -1       535 4.79963E-03 4.84269E-04-1.12388E-14
 -1       536 5.08917E-03 4.81123E-04-1.26338E-14
 -1       537 5.38015E-03 4.79678E-04-1.41052E-14
 -1       538 5.67274E-03 4.80830E-04-1.56518E-14
 -1       539 5.96708E-03 4.85532E-04-1.72704E-14
 -1       540 6.26314E-03 4.94621E-04-1.89565E-14
 -1       541 6.56061E-03 5.08519E-04-2.07079E-14
 -1       542 6.85878E-03 5.26755E-04-2.25181E-14
 -1       543 7.15639E-03 5.47362E-04-2.43824E-14
 -1       544 7.45176E-03 5.66278E-04-2.63017E-14
 -1       545 7.74315E-03 5.77077E-04-2.82799E-14
 -1       546 8.02949E-03 5.71479E-04-3.03140E-14
 -1       547 8.31110E-03 5.40963E-04-3.24001E-14
 -1       548 8.59005E-03 4.79202E-04-3.45415E-14
 -1       549 8.86944E-03 3.84295E-04-3.67370E-14
 -1       550 9.15224E-03 2.59514E-04-3.89835E-14
 -1       551 9.44001E-03 1.12044E-04-4.12769E-14
 -1       552 9.73266E-03-4.94591E-05-4.36045E-14
 -1       553 1.00288E-02-2.17130E-04-4.59566E-14
 -1       554 1.03268E-02-3.85198E-04-4.83367E-14
 -1       555 1.06249E-02-5.50247E-04-5.07436E-14
 -1       556 1.09221E-02-7.10809E-04-5.31743E-14
 -1       557 1.12178E-02-8.66735E-04-5.56307E-14
 -1       558 1.15118E-02-1.01862E-03-5.81102E-14
 -1       559 1.18042E-02-1.16738E-03-6.06130E-14
 -1       560 1.20951E-02-1.31396E-03-6.31270E-14
 -1       561 1.23848E-02-1.45923E-03-6.56518E-14
 -1       562 1.26734E-02-1.60390E-03-6.81776E-14
 -1       563 1.29612E-02-1.74851E-03-7.07010E-14
 -1       564 1.32483E-02-1.89347E-03-7.32219E-14
 -1       565 1.35348E-02-2.03906E-03-7.57522E-14
 -1       566 1.41024E-02-2.35093E-03-7.71023E-14
 -1       567 1.39569E-02-2.27008E-03-7.70286E-14
 -1       568 1.38089E-02-2.18720E-03-7.69520E-14
 -1       569 1.16120E-02-1.01517E-03-4.26801E-14
 -1       570 1.42501E-02-2.43255E-03-7.71716E-14
 -1       571 1.43971E-02-2.51363E-03-7.72282E-14
 -1       572 1.45431E-02-2.59431E-03-7.72792E-14
 -1       573 1.46877E-02-2.67480E-03-7.73258E-14
 -1       574 1.48288E-02-2.75397E-03-7.73547E-14
 -1       575 1.49713E-02-2.83484E-03-7.73669E-14
 -1       576 1.51133E-02-2.91630E-03-7.73664E-14
 -1       577 1.52553E-02-2.99853E-03-7.73582E-14
 -1       578 7.12604E-04-2.51619E-04-2.95926E-16
 -1       579 1.09264E-02-7.95696E-04-4.17133E-14
 -1       580 1.05170E-02-6.00389E-04-4.07146E-14
 -1       581 1.15701E-02-1.09877E-03-4.19963E-14
 -1       582 8.18535E-03 9.32980E-05-3.10176E-14
 -1       583 1.16915E-02-1.04859E-03-4.26254E-14
 -1       584 6.64012E-04-3.64427E-05-3.30414E-16
 -1       585 9.20308E-03 1.50716E-04-3.58696E-14
 -1       586 6.77769E-03-4.81747E-04-2.70977E-14
 -1       587 9.59023E-03-5.25820E-05-3.76148E-14
 -1       588 8.91447E-03 2.35497E-04-3.44064E-14
 -1       589 8.51659E-03 2.10436E-04-3.24209E-14
 -1       590 7.79744E-03-7.14463E-05-2.95272E-14
 -1       591 7.41805E-03-2.46377E-04-2.85815E-14
 -1       592 7.08036E-03-3.72859E-04-2.78004E-14
 -1       593 6.86184E-03-4.41712E-04-2.73696E-14
 -1       594 6.88630E-03-5.29224E-04-2.74129E-14
 -1       595 7.16633E-03-6.26750E-04-2.78123E-14
 -1       596 7.57457E-03-8.19765E-04-2.85870E-14
 -1       597 8.03995E-03-1.10280E-03-2.95786E-14
 -1       598 1.13609E-02-1.18690E-03-4.15037E-14
 -1       599 6.76704E-04-1.59849E-04-3.19010E-16
 -1       600 9.90189E-04 3.72385E-04-3.86555E-16
 -1       601 6.91851E-04-2.02659E-04-3.11054E-16
 -1       602 8.69215E-03 2.55088E-04-3.33034E-14
 -1       603 1.18657E-03 3.97592E-04-5.98907E-16
 -1       604 6.75012E-03-4.36382E-04-2.63943E-14
 -1       605 1.16929E-02-1.08883E-03-4.32063E-14
 -1       606 8.47120E-03-1.42043E-03-3.07036E-14
 -1       607 1.02272E-02-4.67574E-04-4.06710E-14
 -1       608 9.00042E-04 7.39462E-05-5.46252E-16
 -1       609 8.97975E-04 2.51324E-05-5.59364E-16
 -1       610 9.12004E-04 1.77869E-04-5.03487E-16
 -1       611 9.24274E-04 2.36311E-04-4.70052E-16
 -1       612 9.36520E-04 3.23072E-04-3.90591E-16
 -1       613 1.38335E-03-3.36023E-04-1.11104E-15
 -1       614 1.68391E-03-3.67598E-04-1.61215E-15
 -1       615 1.97016E-03-3.88188E-04-2.17670E-15
 -1       616 2.25626E-03-4.01643E-04-2.82523E-15
 -1       617 2.54220E-03-4.09673E-04-3.55737E-15
 -1       618 2.82801E-03-4.13610E-04-4.37067E-15
 -1       619 3.11376E-03-4.14458E-04-5.26415E-15
 -1       620 3.39945E-03-4.12947E-04-6.23699E-15
 -1       621 3.69938E-03-4.09386E-04-7.34459E-15
 -1       622 3.98491E-03-4.04493E-04-8.48003E-15
 -1       623 4.27022E-03-3.98408E-04-9.69428E-15
 -1       624 4.55508E-03-3.91376E-04-1.09844E-14
 -1       625 4.83911E-03-3.83697E-04-1.23504E-14
 -1       626 5.12172E-03-3.75842E-04-1.37882E-14
 -1       627 5.40195E-03-3.68595E-04-1.52898E-14
 -1       628 5.69210E-03-3.63091E-04-1.69306E-14
 -1       629 5.96249E-03-3.62051E-04-1.85533E-14
 -1       630 6.22451E-03-3.68387E-04-2.02295E-14
 -1       631 6.47536E-03-3.86706E-04-2.19536E-14
 -1       632 6.71286E-03-4.23619E-04-2.37237E-14
 -1       633 6.93753E-03-4.88255E-04-2.55332E-14
 -1       634 1.35231E-02-2.04138E-03-7.44137E-14
 -1       635 1.18555E-02-1.21603E-03-4.58721E-14
 -1       636 1.20953E-02-1.31329E-03-4.82395E-14
 -1       637 1.23456E-02-1.43430E-03-5.06469E-14
 -1       638 1.26066E-02-1.57057E-03-5.30912E-14
 -1       639 1.28762E-02-1.71624E-03-5.55694E-14
 -1       640 1.31521E-02-1.86725E-03-5.80730E-14
 -1       641 1.34462E-02-2.02864E-03-6.07362E-14
 -1       642 1.37289E-02-2.18326E-03-6.32994E-14
 -1       643 1.40132E-02-2.33777E-03-6.58816E-14
 -1       644 1.42983E-02-2.49163E-03-6.84767E-14
 -1       645 1.45839E-02-2.64452E-03-7.10737E-14
 -1       646 1.48696E-02-2.79632E-03-7.36809E-14
 -1       647 1.78979E-03 3.89005E-04-1.58691E-15
 -1       648 2.07564E-03 4.07212E-04-2.13053E-15
 -1       649 1.50376E-03 3.62239E-04-1.12536E-15
 -1       650 2.64680E-03 4.25646E-04-3.46692E-15
 -1       651 2.93227E-03 4.28751E-04-4.25925E-15
 -1       652 3.21779E-03 4.29155E-04-5.13474E-15
 -1       653 3.50342E-03 4.27582E-04-6.08975E-15
 -1       654 3.78927E-03 4.24586E-04-7.12722E-15
 -1       655 4.07542E-03 4.20619E-04-8.24462E-15
 -1       656 4.36202E-03 4.16089E-04-9.44309E-15
 -1       657 4.64926E-03 4.11424E-04-1.07218E-14
 -1       658 4.93741E-03 4.07121E-04-1.20786E-14
 -1       659 5.22683E-03 4.03802E-04-1.35117E-14
 -1       660 5.51798E-03 4.02248E-04-1.50211E-14
 -1       661 5.81140E-03 4.03400E-04-1.66020E-14
 -1       662 6.10765E-03 4.08303E-04-1.82524E-14
 -1       663 6.40714E-03 4.17945E-04-1.99679E-14
 -1       664 6.70988E-03 4.32914E-04-2.17438E-14
 -1       665 7.01520E-03 4.52820E-04-2.35738E-14
 -1       666 7.32145E-03 4.75447E-04-2.54570E-14
 -1       667 7.62615E-03 4.95832E-04-2.73954E-14
 -1       668 7.92661E-03 5.05807E-04-2.93938E-14
 -1       669 8.22133E-03 4.94842E-04-3.14487E-14
 -1       670 8.51121E-03 4.52811E-04-3.35584E-14
 -1       671 8.79954E-03 3.73783E-04-3.57177E-14
 -1       672 9.09052E-03 2.58752E-04-3.79329E-14
 -1       673 9.38687E-03 1.15199E-04-4.01972E-14
 -1       674 9.68874E-03-4.62982E-05-4.25040E-14
 -1       675 9.99415E-03-2.15697E-04-4.48395E-14
 -1       676 1.03004E-02-3.85701E-04-4.72016E-14
 -1       677 1.06051E-02-5.52201E-04-4.95889E-14
 -1       678 1.09070E-02-7.13604E-04-5.20002E-14
 -1       679 1.12056E-02-8.69884E-04-5.44425E-14
 -1       680 1.15011E-02-1.02180E-03-5.69111E-14
 -1       681 1.17939E-02-1.17041E-03-5.94046E-14
 -1       682 1.20846E-02-1.31674E-03-6.19190E-14
 -1       683 1.23738E-02-1.46170E-03-6.44422E-14
 -1       684 1.26618E-02-1.60601E-03-6.69703E-14
 -1       685 1.29490E-02-1.75023E-03-6.94982E-14
 -1       686 1.32362E-02-1.89554E-03-7.19553E-14
 -1       687 1.37829E-02-2.18428E-03-7.48597E-14
 -1       688 1.40779E-02-2.34653E-03-7.49856E-14
 -1       689 9.36380E-03 5.61503E-05-3.71363E-14
 -1       690 1.39307E-02-2.26576E-03-7.49274E-14
 -1       691 2.36129E-03 4.18885E-04-2.75673E-15
 -1       692 1.43702E-02-2.50708E-03-7.50668E-14
 -1       693 1.45118E-02-2.58561E-03-7.50908E-14
 -1       694 1.46545E-02-2.66564E-03-7.50994E-14
 -1       695 1.47961E-02-2.74618E-03-7.51034E-14
 -1       696 9.50414E-04-2.69585E-04-5.48840E-16
 -1       697 1.15497E-02-1.03692E-03-4.39114E-14
 -1       698 1.15581E-02-1.14897E-03-4.29131E-14
 -1       699 1.07379E-02-7.45327E-04-4.24716E-14
 -1       700 7.96658E-03 6.37538E-05-2.96987E-14
 -1       701 1.17355E-02-1.08328E-03-4.42234E-14
 -1       702 1.42248E-02-2.42702E-03-7.50312E-14
 -1       703 1.11694E-02-9.26133E-04-4.34322E-14
 -1       704 1.16646E-03-3.06783E-04-8.05406E-16
 -1       705 9.78200E-03-1.97704E-04-3.91301E-14
 -1       706 9.04454E-04 1.24345E-04-5.28203E-16
 -1       707 6.89624E-03-3.82173E-04-2.65652E-14
 -1       708 6.77911E-03-4.61637E-04-2.62298E-14
 -1       709 9.01897E-03 2.11353E-04-3.52526E-14
 -1       710 8.26855E-03 1.79264E-04-3.10764E-14
 -1       711 7.17157E-03-2.85080E-04-2.71597E-14
 -1       712 9.04112E-04-1.21915E-04-5.67722E-16
 -1       713 7.50551E-03-1.45016E-04-2.80615E-14
 -1       714 6.95820E-03-5.12582E-04-2.64915E-14
 -1       715 8.97921E-04-2.30808E-05-5.67166E-16
 -1       716 8.43755E-03 2.52559E-04-3.19381E-14
 -1       717 7.21817E-03-6.18336E-04-2.73284E-14
 -1       718 1.21785E-03 3.24573E-04-7.44291E-16
 -1       719 1.14350E-02-1.02991E-03-4.48433E-14
 -1       720 8.99855E-04-7.16355E-05-5.70067E-16
 -1       721 1.49373E-02-2.82754E-03-7.50914E-14
 -1       722 6.68892E-03-4.20760E-04-2.55340E-14
 -1       723 1.18007E-02-1.11956E-03-4.48120E-14
 -1       724 8.80687E-03 2.63271E-04-3.41299E-14
 -1       725 7.66882E-03-6.55766E-06-2.82195E-14
 -1       726 9.11436E-04-1.75208E-04-5.59231E-16
 -1       727 1.16172E-03 2.42992E-04-7.57586E-16
 -1       728 1.43386E-02-2.49704E-03-7.28508E-14
 -1       729 1.51759E-03-2.85995E-04-1.38085E-15
 -1       730 9.29024E-04-2.20515E-04-5.57283E-16
 -1       731 1.34378E-03 2.79814E-04-9.78953E-16
 -1       732 1.80471E-03-3.08140E-04-1.90366E-15
 -1       733 2.09236E-03-3.23250E-04-2.50990E-15
 -1       734 2.38009E-03-3.32844E-04-3.19917E-15
 -1       735 2.66765E-03-3.38213E-04-3.96949E-15
 -1       736 2.95490E-03-3.40382E-04-4.81956E-15
 -1       737 3.24174E-03-3.40133E-04-5.74798E-15
 -1       738 3.54237E-03-3.37907E-04-6.80816E-15
 -1       739 3.82803E-03-3.34365E-04-7.89993E-15
 -1       740 4.11284E-03-3.29780E-04-9.07135E-15
 -1       741 4.39648E-03-3.24468E-04-1.03186E-14
 -1       742 4.67846E-03-3.18791E-04-1.16418E-14
 -1       743 4.95804E-03-3.13255E-04-1.30392E-14
 -1       744 5.23409E-03-3.08624E-04-1.45053E-14
 -1       745 5.51840E-03-3.06026E-04-1.61107E-14
 -1       746 5.78149E-03-3.07507E-04-1.77016E-14
 -1       747 6.03389E-03-3.15323E-04-1.93494E-14
 -1       748 6.27133E-03-3.32550E-04-2.10491E-14
 -1       749 6.48848E-03-3.62456E-04-2.27936E-14
 -1       750 1.17263E-02-1.11100E-03-4.55120E-14
 -1       751 1.21844E-02-1.33007E-03-4.94999E-14
 -1       752 1.24153E-02-1.45494E-03-5.19231E-14
 -1       753 1.26630E-02-1.59100E-03-5.43857E-14
 -1       754 1.29228E-02-1.73465E-03-5.68758E-14
 -1       755 1.32048E-02-1.89056E-03-5.95170E-14
 -1       756 1.34794E-02-2.04168E-03-6.20650E-14
 -1       757 1.37579E-02-2.19394E-03-6.46327E-14
 -1       758 1.40390E-02-2.34644E-03-6.72129E-14
 -1       759 1.43218E-02-2.49862E-03-6.98004E-14
 -1       760 1.46056E-02-2.65013E-03-7.23937E-14
 -1       761 1.91745E-03 3.27818E-04-1.92524E-15
 -1       762 1.63020E-03 3.07965E-04-1.41160E-15
 -1       763 3.06654E-03 3.55064E-04-4.79937E-15
 -1       764 2.77958E-03 3.53610E-04-3.95834E-15
 -1       765 3.63972E-03 3.52073E-04-6.72453E-15
 -1       766 3.92602E-03 3.48598E-04-7.80478E-15
 -1       767 4.21228E-03 3.44284E-04-8.96579E-15
 -1       768 4.49868E-03 3.39445E-04-1.02086E-14
 -1       769 4.78551E-03 3.34423E-04-1.15279E-14
 -1       770 5.07319E-03 3.29645E-04-1.29234E-14
 -1       771 5.36235E-03 3.25681E-04-1.43952E-14
 -1       772 5.65379E-03 3.23300E-04-1.59399E-14
 -1       773 5.94851E-03 3.23519E-04-1.75530E-14
 -1       774 6.24761E-03 3.27597E-04-1.92340E-14
 -1       775 6.55201E-03 3.36915E-04-2.09747E-14
 -1       776 6.86206E-03 3.52619E-04-2.27715E-14
 -1       777 7.17697E-03 3.74831E-04-2.46202E-14
 -1       778 7.49425E-03 4.01267E-04-2.65236E-14
 -1       779 7.80994E-03 4.25576E-04-2.84843E-14
 -1       780 8.11995E-03 4.36466E-04-3.05019E-14
 -1       781 8.42263E-03 4.19345E-04-3.25782E-14
 -1       782 8.72048E-03 3.61778E-04-3.47062E-14
 -1       783 9.01916E-03 2.59671E-04-3.68862E-14
 -1       784 9.32385E-03 1.19940E-04-3.91208E-14
 -1       785 9.63577E-03-4.36223E-05-4.14035E-14
 -1       786 9.95233E-03-2.17131E-04-4.37214E-14
 -1       787 1.02693E-02-3.90557E-04-4.60665E-14
 -1       788 1.05830E-02-5.58834E-04-4.84354E-14
 -1       789 1.08915E-02-7.20544E-04-5.08316E-14
 -1       790 1.11944E-02-8.76217E-04-5.32561E-14
 -1       791 1.14921E-02-1.02714E-03-5.57118E-14
 -1       792 1.17857E-02-1.17469E-03-5.81918E-14
 -1       793 1.20763E-02-1.32009E-03-6.06992E-14
 -1       794 1.23648E-02-1.46429E-03-6.32243E-14
 -1       795 1.26520E-02-1.60798E-03-6.57590E-14
 -1       796 1.29383E-02-1.75168E-03-6.82886E-14
 -1       797 9.55046E-03-5.92936E-05-3.86962E-14
 -1       798 1.44801E-02-2.57637E-03-7.28498E-14
 -1       799 1.41979E-02-2.41936E-03-7.28423E-14
 -1       800 1.10363E-02-8.89391E-04-4.44841E-14
 -1       801 6.91159E-03-2.96479E-04-2.56682E-14
 -1       802 1.04680E-02-6.11410E-04-4.26136E-14
 -1       803 1.40530E-02-2.34021E-03-7.28236E-14
 -1       804 7.21762E-03-1.77209E-04-2.65154E-14
 -1       805 1.39064E-02-2.26056E-03-7.27889E-14
 -1       806 8.03617E-03 1.73834E-04-2.97623E-14
 -1       807 1.19760E-02-1.22054E-03-4.71133E-14
 -1       808 1.34972E-02-2.03849E-03-7.23894E-14
 -1       809 9.16297E-03 1.52178E-04-3.64749E-14
 -1       810 1.00536E-02-3.70005E-04-4.10484E-14
 -1       811 6.71296E-03-3.75384E-04-2.53285E-14
 -1       812 3.35324E-03 3.54368E-04-5.72244E-15
 -1       813 1.13857E-03 5.88721E-05-8.47091E-16
 -1       814 6.75355E-03-4.36428E-04-2.52761E-14
 -1       815 1.13722E-03 1.21404E-06-8.61805E-16
 -1       816 1.30037E-03-2.64934E-04-1.03856E-15
 -1       817 8.19681E-03 2.55403E-04-3.06025E-14
 -1       818 1.18420E-02-1.15002E-03-4.61090E-14
 -1       819 1.14231E-03-1.14792E-04-8.70621E-16
 -1       820 2.20493E-03 3.41086E-04-2.52051E-15
 -1       821 2.49235E-03 3.49272E-04-3.19842E-15
 -1       822 1.32182E-02-1.89499E-03-7.03363E-14
 -1       823 1.13226E-02-1.00725E-03-4.59084E-14
 -1       824 1.36459E-02-2.11990E-03-7.24475E-14
 -1       825 1.07923E-02-7.73808E-04-4.46278E-14
 -1       826 1.14955E-03-1.75628E-04-8.64336E-16
 -1       827 1.15005E-03 1.78595E-04-7.96509E-16
 -1       828 8.95495E-03 2.35697E-04-3.53265E-14
 -1       829 7.36449E-03-5.24539E-05-2.66609E-14
 -1       830 1.37765E-02-2.19047E-03-7.26205E-14
 -1       831 7.75305E-03 1.18541E-04-2.82731E-14
 -1       832 1.14266E-03 1.17575E-04-8.25515E-16
 -1       833 1.64905E-03-2.30951E-04-1.65289E-15
 -1       834 1.93695E-03-2.46213E-04-2.21844E-15
 -1       835 2.22560E-03-2.56411E-04-2.86643E-15
 -1       836 2.51438E-03-2.62613E-04-3.59671E-15
 -1       837 2.80290E-03-2.65749E-04-4.40565E-15
 -1       838 3.09089E-03-2.66574E-04-5.29267E-15
 -1       839 3.39247E-03-2.65594E-04-6.30756E-15
 -1       840 3.67870E-03-2.63379E-04-7.35691E-15
 -1       841 3.96370E-03-2.60300E-04-8.48743E-15
 -1       842 4.24714E-03-2.56714E-04-9.69481E-15
 -1       843 4.52852E-03-2.53028E-04-1.09769E-14
 -1       844 4.80713E-03-2.49780E-04-1.23349E-14
 -1       845 5.08195E-03-2.47731E-04-1.37628E-14
 -1       846 5.36488E-03-2.48087E-04-1.53330E-14
 -1       847 5.62688E-03-2.52434E-04-1.68921E-14
 -1       848 5.87884E-03-2.62834E-04-1.85106E-14
 -1       849 6.11709E-03-2.81957E-04-2.01850E-14
 -1       850 6.33609E-03-3.12800E-04-2.19100E-14
 -1       851 1.13843E-03-5.62997E-05-8.69747E-16
 -1       852 1.22175E-02-1.35354E-03-5.07622E-14
 -1       853 1.24476E-02-1.47751E-03-5.32066E-14
 -1       854 1.26936E-02-1.61127E-03-5.56795E-14
 -1       855 1.29644E-02-1.75930E-03-5.83044E-14
 -1       856 1.32309E-02-1.90498E-03-6.08318E-14
 -1       857 1.35033E-02-2.05342E-03-6.33835E-14
 -1       858 1.37799E-02-2.20332E-03-6.59497E-14
 -1       859 1.40594E-02-2.35382E-03-6.85238E-14
 -1       860 1.42695E-02-2.46539E-03-7.06849E-14
 -1       861 2.91481E-03 2.80469E-04-4.46348E-15
 -1       862 4.06272E-03 2.72722E-04-8.49056E-15
 -1       863 3.77654E-03 2.76473E-04-7.36621E-15
 -1       864 4.63417E-03 2.62986E-04-1.09795E-14
 -1       865 4.92007E-03 2.57397E-04-1.23403E-14
 -1       866 5.20683E-03 2.51699E-04-1.37742E-14
 -1       867 5.49533E-03 2.46362E-04-1.52812E-14
 -1       868 5.78679E-03 2.42133E-04-1.68581E-14
 -1       869 6.08277E-03 2.40162E-04-1.85043E-14
 -1       870 6.38506E-03 2.42117E-04-2.02129E-14
 -1       871 6.69531E-03 2.50161E-04-2.19764E-14
 -1       872 7.01436E-03 2.66653E-04-2.37924E-14
 -1       873 7.34122E-03 2.92853E-04-2.56613E-14
 -1       874 7.67213E-03 3.26625E-04-2.75862E-14
 -1       875 8.00071E-03 3.59109E-04-2.95687E-14
 -1       876 8.32082E-03 3.72527E-04-3.16051E-14
 -1       877 8.63218E-03 3.45803E-04-3.36974E-14
 -1       878 8.93983E-03 2.64057E-04-3.58451E-14
 -1       879 9.25306E-03 1.30197E-04-3.80468E-14
 -1       880 9.57632E-03-3.82123E-05-4.03009E-14
 -1       881 9.90610E-03-2.20176E-04-4.26019E-14
 -1       882 1.02364E-02-4.00080E-04-4.49318E-14
 -1       883 1.05613E-02-5.71311E-04-4.72866E-14
 -1       884 1.08779E-02-7.33021E-04-4.96638E-14
 -1       885 1.11857E-02-8.86990E-04-5.20721E-14
 -1       886 1.14860E-02-1.03558E-03-5.45117E-14
 -1       887 1.17804E-02-1.18087E-03-5.69811E-14
 -1       888 1.20706E-02-1.32438E-03-5.94747E-14
 -1       889 1.23582E-02-1.46714E-03-6.19911E-14
 -1       890 1.26441E-02-1.60981E-03-6.45283E-14
 -1       891 1.29292E-02-1.75279E-03-6.70636E-14
 -1       892 1.33017E-03 2.09787E-04-1.02719E-15
 -1       893 1.41291E-02-2.38710E-03-7.06927E-14
 -1       894 1.39890E-02-2.31052E-03-7.06928E-14
 -1       895 9.82143E-03-2.12441E-04-4.08139E-14
 -1       896 1.38442E-02-2.23240E-03-7.06786E-14
 -1       897 1.16795E-02-1.12736E-03-4.68443E-14
 -1       898 1.36973E-02-2.15359E-03-7.06579E-14
 -1       899 6.66880E-03-2.99587E-04-2.42710E-14
 -1       900 6.56663E-03-3.59647E-04-2.40979E-14
 -1       901 1.03131E-02-5.10578E-04-4.30424E-14
 -1       902 4.34852E-03 2.68166E-04-9.69569E-15
 -1       903 9.32623E-03 7.51995E-05-3.79287E-14
 -1       904 8.55684E-03 3.05156E-04-3.27978E-14
 -1       905 6.91483E-03-1.90667E-04-2.48572E-14
 -1       906 7.45401E-03 7.25523E-05-2.67031E-14
 -1       907 7.92590E-03 2.10874E-04-2.90920E-14
 -1       908 1.18331E-02-1.17696E-03-4.74506E-14
 -1       909 1.76121E-03 2.50091E-04-1.71708E-15
 -1       910 2.62655E-03 2.78100E-04-3.65514E-15
 -1       911 2.04939E-03 2.63894E-04-2.28149E-15
 -1       912 1.43132E-03-2.16730E-04-1.27686E-15
 -1       913 1.54510E-03 2.31623E-04-1.35007E-15
 -1       914 3.48985E-03 2.79211E-04-6.32055E-15
 -1       915 1.32084E-02-1.89539E-03-6.91174E-14
 -1       916 1.10923E-02-9.13105E-04-4.60611E-14
 -1       917 1.34273E-02-2.00748E-03-7.07819E-14
 -1       918 1.38423E-03-9.66297E-05-1.23361E-15
 -1       919 6.64905E-03-2.12309E-04-2.34752E-14
 -1       920 1.38132E-03 3.39723E-05-1.21185E-15
 -1       921 1.35670E-02-2.08403E-03-7.04997E-14
 -1       922 7.04155E-03-8.75148E-05-2.49938E-14
 -1       923 1.20135E-02-1.24325E-03-4.83573E-14
 -1       924 1.38444E-03 9.95506E-05-1.18800E-15
 -1       925 3.20260E-03 2.80668E-04-5.35226E-15
 -1       926 6.36993E-03-2.59550E-04-2.20762E-14
 -1       927 2.07281E-03-1.81302E-04-2.54239E-15
 -1       928 2.36215E-03-1.87472E-04-3.23101E-15
 -1       929 2.65155E-03-1.90996E-04-3.99982E-15
 -1       930 2.94053E-03-1.92520E-04-4.84580E-15
 -1       931 3.24310E-03-1.92537E-04-5.81706E-15
 -1       932 3.53015E-03-1.91490E-04-6.82193E-15
 -1       933 3.81583E-03-1.89782E-04-7.90956E-15
 -1       934 4.09979E-03-1.87773E-04-9.07737E-15
 -1       935 4.38161E-03-1.85872E-04-1.03191E-14
 -1       936 4.66071E-03-1.84601E-04-1.16365E-14
 -1       937 4.93630E-03-1.84681E-04-1.30258E-14
 -1       938 5.22073E-03-1.87326E-04-1.45590E-14
 -1       939 5.48548E-03-1.93720E-04-1.60851E-14
 -1       940 5.74237E-03-2.05749E-04-1.76733E-14
 -1       941 5.98904E-03-2.25652E-04-1.93217E-14
 -1       942 6.18098E-03-2.38852E-04-2.06829E-14
 -1       943 2.33798E-03 2.72871E-04-2.92732E-15
 -1       944 1.24561E-02-1.49595E-03-5.44855E-14
 -1       945 1.27201E-02-1.63496E-03-5.70905E-14
 -1       946 1.29810E-02-1.77401E-03-5.95956E-14
 -1       947 1.32486E-02-1.91748E-03-6.21337E-14
 -1       948 1.35214E-02-2.06377E-03-6.46855E-14
 -1       949 1.37979E-02-2.21172E-03-6.72509E-14
 -1       950 1.39631E-02-2.29948E-03-6.89708E-14
 -1       951 9.02927E-03 2.16134E-04-3.60949E-14
 -1       952 5.05277E-03 1.80469E-04-1.31579E-14
 -1       953 4.76846E-03 1.86941E-04-1.17601E-14
 -1       954 5.62481E-03 1.65628E-04-1.61718E-14
 -1       955 5.91535E-03 1.58267E-04-1.77815E-14
 -1       956 6.21171E-03 1.52531E-04-1.94556E-14
 -1       957 6.51662E-03 1.50764E-04-2.11876E-14
 -1       958 6.83282E-03 1.56412E-04-2.29729E-14
 -1       959 7.16209E-03 1.74165E-04-2.48075E-14
 -1       960 7.50344E-03 2.07543E-04-2.66981E-14
 -1       961 9.85916E-03-2.22754E-04-4.14782E-14
 -1       962 1.02061E-02-4.13929E-04-4.37956E-14
 -1       963 1.05448E-02-5.90557E-04-4.61332E-14
 -1       964 1.08702E-02-7.52272E-04-4.84970E-14
 -1       965 1.11830E-02-9.03253E-04-5.08875E-14
 -1       966 1.14851E-02-1.04788E-03-5.33119E-14
 -1       967 1.17793E-02-1.18939E-03-5.57660E-14
 -1       968 1.20684E-02-1.32982E-03-5.82495E-14
 -1       969 1.23542E-02-1.47030E-03-6.07560E-14
 -1       970 1.26383E-02-1.61142E-03-6.32850E-14
 -1       971 1.29217E-02-1.75341E-03-6.58228E-14
 -1       972 1.34180E-03 1.72171E-04-1.07521E-15
 -1       973 1.38124E-03-3.10848E-05-1.22710E-15
 -1       974 1.38237E-02-2.22399E-03-6.89709E-14
 -1       975 1.06773E-02-6.94409E-04-4.54830E-14
 -1       976 1.35281E-02-2.06769E-03-6.84474E-14
 -1       977 1.36768E-02-2.14602E-03-6.87116E-14
 -1       978 5.33783E-03 1.73260E-04-1.46291E-14
 -1       979 3.91390E-03 2.01157E-04-8.01599E-15
 -1       980 1.34972E-02-2.04596E-03-7.06426E-14
 -1       981 1.22175E-02-1.37284E-03-5.20276E-14
 -1       982 1.16231E-02-1.12884E-03-4.82826E-14
 -1       983 1.78419E-03-1.71790E-04-1.93534E-15
 -1       984 1.09656E-02-8.39499E-04-4.69244E-14
 -1       985 2.76351E-03 2.05685E-04-4.12619E-15
 -1       986 1.17987E-02-1.19249E-03-4.89017E-14
 -1       987 3.62755E-03 2.04073E-04-6.92633E-15
 -1       988 1.89601E-03 1.88652E-04-2.04214E-15
 -1       989 1.61787E-03 1.83303E-04-1.51992E-15
 -1       990 4.48416E-03 1.92562E-04-1.04343E-14
 -1       991 1.31997E-02-1.89511E-03-6.78729E-14
 -1       992 1.14316E-02-1.05628E-03-4.84414E-14
 -1       993 7.13121E-03 2.69887E-05-2.50298E-14
 -1       994 6.75704E-03-1.31514E-04-2.36088E-14
 -1       995 3.05226E-03 2.06587E-04-4.98095E-15
 -1       996 1.65290E-03-1.64549E-04-1.68599E-15
 -1       997 1.33977E-02-1.99908E-03-6.82974E-14
 -1       998 1.62772E-03 1.56861E-06-1.63952E-15
 -1       999 1.62946E-03 7.28369E-05-1.61476E-15
 -1      1000 4.19939E-03 1.97305E-04-9.18599E-15
 -1      1001 1.62931E-03-6.96579E-05-1.65362E-15
 -1      1002 6.35777E-03-1.76238E-04-2.15337E-14
 -1      1003 2.50167E-03-1.16718E-04-3.60173E-15
 -1      1004 2.79134E-03-1.18334E-04-4.40682E-15
 -1      1005 3.09478E-03-1.18900E-04-5.33452E-15
 -1      1006 3.38272E-03-1.18707E-04-6.29730E-15
 -1      1007 3.66930E-03-1.18107E-04-7.34043E-15
 -1      1008 3.95419E-03-1.17411E-04-8.46553E-15
 -1      1009 4.23706E-03-1.16979E-04-9.66770E-15
 -1      1010 4.51748E-03-1.17274E-04-1.09442E-14
 -1      1011 4.79491E-03-1.18915E-04-1.22939E-14
 -1      1012 5.08229E-03-1.23025E-04-1.37883E-14
 -1      1013 5.35144E-03-1.30397E-04-1.52812E-14
 -1      1014 5.61524E-03-1.42627E-04-1.68368E-14
 -1      1015 5.87273E-03-1.61421E-04-1.84558E-14
 -1      1016 4.90146E-03 1.11648E-04-1.25457E-14
 -1      1017 1.24587E-02-1.51105E-03-5.58140E-14
 -1      1018 1.27182E-02-1.64349E-03-5.83012E-14
 -1      1019 1.29837E-02-1.78161E-03-6.08186E-14
 -1      1020 1.32542E-02-1.92373E-03-6.33573E-14
 -1      1021 1.35285E-02-2.06853E-03-6.59111E-14
 -1      1022 1.36757E-02-2.14619E-03-6.74374E-14
 -1      1023 2.18493E-03 1.97367E-04-2.65593E-15
 -1      1024 5.46543E-03 9.45797E-05-1.54884E-14
 -1      1025 6.03706E-03 7.16578E-05-1.87036E-14
 -1      1026 5.74935E-03 8.36191E-05-1.70645E-14
 -1      1027 6.63715E-03 5.27069E-05-2.21600E-14
 -1      1028 1.11909E-02-9.25764E-04-4.97014E-14
 -1      1029 1.14926E-02-1.06434E-03-5.21085E-14
 -1      1030 1.17847E-02-1.20028E-03-5.45504E-14
 -1      1031 1.20707E-02-1.33627E-03-5.70208E-14
 -1      1032 1.23535E-02-1.47357E-03-5.95190E-14
 -1      1033 1.26348E-02-1.61258E-03-6.20371E-14
 -1      1034 1.29157E-02-1.75329E-03-6.45726E-14
 -1      1035 2.47428E-03 2.02805E-04-3.35054E-15
 -1      1036 5.18325E-03 1.03947E-04-1.39805E-14
 -1      1037 6.33137E-03 6.02485E-05-2.04037E-14
 -1      1038 1.87712E-03-3.62017E-05-2.12959E-15
 -1      1039 3.34032E-03 2.05947E-04-5.91521E-15
 -1      1040 1.22066E-02-1.38615E-03-5.33490E-14
 -1      1041 1.19163E-02-1.25301E-03-5.07939E-14
 -1      1042 2.21189E-03-1.13657E-04-2.87490E-15
 -1      1043 1.09095E-02-7.93152E-04-4.77140E-14
 -1      1044 4.61923E-03 1.17834E-04-1.11810E-14
 -1      1045 6.08068E-03-1.69867E-04-1.97935E-14
 -1      1046 2.03413E-03 1.23838E-04-2.38552E-15
 -1      1047 1.33275E-02-1.96154E-03-6.84495E-14
 -1      1048 3.76630E-03 1.29340E-04-7.54157E-15
 -1      1049 1.35291E-02-2.06916E-03-6.71848E-14
 -1      1050 2.61346E-03 1.31187E-04-3.78923E-15
 -1      1051 1.17561E-02-1.19360E-03-5.09538E-14
 -1      1052 6.43542E-03-1.10141E-04-2.16583E-14
 -1      1053 1.32304E-02-1.91442E-03-6.61662E-14
 -1      1054 4.05181E-03 1.26506E-04-8.67776E-15
 -1      1055 2.90294E-03 1.32369E-04-4.61000E-15
 -1      1056 1.95374E-03 4.25913E-05-2.26336E-15
 -1      1057 1.88905E-03-1.21043E-04-2.15752E-15
 -1      1058 1.33805E-02-1.99192E-03-6.66767E-14
 -1      1059 1.31597E-02-1.87744E-03-6.63228E-14
 -1      1060 1.12466E-02-9.66119E-04-4.89017E-14
 -1      1061 2.94074E-03-4.50000E-05-4.83848E-15
 -1      1062 3.22947E-03-4.52098E-05-5.75768E-15
 -1      1063 3.51700E-03-4.53517E-05-6.75502E-15
 -1      1064 3.80300E-03-4.56270E-05-7.83348E-15
 -1      1065 4.08721E-03-4.62969E-05-8.99239E-15
 -1      1066 4.36933E-03-4.77150E-05-1.02258E-14
 -1      1067 4.64907E-03-5.03665E-05-1.15335E-14
 -1      1068 4.93987E-03-5.51796E-05-1.29861E-14
 -1      1069 5.21373E-03-6.25849E-05-1.44410E-14
 -1      1070 5.48438E-03-7.38119E-05-1.59630E-14
 -1      1071 5.75188E-03-9.00178E-05-1.75496E-14
 -1      1072 2.32367E-03 1.28473E-04-3.04700E-15
 -1      1073 1.24514E-02-1.51694E-03-5.70678E-14
 -1      1074 6.14910E-03-1.71276E-05-1.96250E-14
 -1      1075 1.27187E-02-1.65081E-03-5.95706E-14
 -1      1076 1.29895E-02-1.78920E-03-6.20940E-14
 -1      1077 1.32635E-02-1.93090E-03-6.46366E-14
 -1      1078 5.58884E-03 1.63500E-05-1.63518E-14
 -1      1079 1.20791E-02-1.34307E-03-5.57906E-14
 -1      1080 1.15425E-02-1.09655E-03-5.12999E-14
 -1      1081 1.23566E-02-1.47634E-03-5.82764E-14
 -1      1082 1.26336E-02-1.61278E-03-6.07912E-14
 -1      1083 1.29111E-02-1.75201E-03-6.33186E-14
 -1      1084 5.31123E-03 2.84405E-05-1.48087E-14
 -1      1085 6.83186E-03-1.44643E-05-2.35001E-14
 -1      1086 1.21874E-02-1.38883E-03-5.45956E-14
 -1      1087 4.33609E-03 1.22719E-04-9.89091E-15
 -1      1088 3.47957E-03 1.31291E-04-6.48657E-15
 -1      1089 3.19173E-03 1.32335E-04-5.50954E-15
 -1      1090 5.03313E-03 3.76329E-05-1.33349E-14
 -1      1091 5.86731E-03 1.02996E-06-1.79576E-14
 -1      1092 1.19729E-02-1.28975E-03-5.27683E-14
 -1      1093 1.18136E-02-1.21939E-03-5.35332E-14
 -1      1094 2.35390E-03-4.36090E-05-3.21419E-15
 -1      1095 2.64389E-03-4.45166E-05-3.97692E-15
 -1      1096 4.75381E-03 4.44324E-05-1.19338E-14
 -1      1097 6.13556E-03-1.14433E-04-1.99156E-14
 -1      1098 5.94342E-03-1.00791E-04-1.87184E-14
 -1      1099 2.24318E-03 4.44483E-05-2.91075E-15
 -1      1100 2.75522E-03 5.83769E-05-4.24068E-15
 -1      1101 2.49922E-03 5.15824E-05-3.54545E-15
 -1      1102 3.62026E-03 5.70729E-05-7.06697E-15
 -1      1103 3.90608E-03 5.53980E-05-8.16776E-15
 -1      1104 3.37334E-03 2.82623E-05-6.20681E-15
 -1      1105 4.51140E-03 2.04750E-05-1.08155E-14
 -1      1106 3.04459E-03 5.85346E-05-5.10457E-15
 -1      1107 4.20990E-03 3.83110E-05-9.44794E-15
 -1      1108 1.18923E-02-1.25645E-03-5.31542E-14
 -1      1109 0.00000E+00 0.00000E+00 0.00000E+00
 -1      1110 0.00000E+00 0.00000E+00 0.00000E+00
 -1      1111 0.00000E+00 0.00000E+00 0.00000E+00
 -1      1112 0.00000E+00 0.00000E+00 0.00000E+00
 -1      1113 0.00000E+00 0.00000E+00 0.00000E+00
 -1      1114 0.00000E+00 0.00000E+00 0.00000E+00
 -1      1115 0.00000E+00 0.00000E+00 0.00000E+00
 -1      1116 0.00000E+00 0.00000E+00 0.00000E+00
 -1      1117 0.00000E+00 0.00000E+00 0.00000E+00
 -1      1118 0.00000E+00 0.00000E+00 0.00000E+00
 -1      1119 0.00000E+00 0.00000E+00 0.00000E+00
 -1      1120 0.00000E+00 0.00000E+00 0.00000E+00
 -1      1121 0.00000E+00 0.00000E+00 0.00000E+00
 -1      1122 0.00000E+00 0.00000E+00 0.00000E+00
 -1      1123 0.00000E+00 0.00000E+00 0.00000E+00
 -1      1124 0.00000E+00 0.00000E+00 0.00000E+00
 -1      1125 0.00000E+00 0.00000E+00 0.00000E+00
 -1      1126 2.11540E-04-1.48276E-04 1.12215E-17
 -1      1127 5.51266E-04-3.37351E-04-2.48282E-17
 -1      1128 8.32848E-04-4.58672E-04-1.46557E-16
 -1      1129 1.10218E-03-5.40091E-04-3.65607E-16
 -1      1130 1.36735E-03-5.96965E-04-6.78494E-16
 -1      1131 1.63193E-03-6.37161E-04-1.08389E-15
 -1      1132 1.89778E-03-6.65293E-04-1.58113E-15
 -1      1133 2.17251E-03-6.84823E-04-2.18643E-15
 -1      1134 2.44985E-03-6.97304E-04-2.89035E-15
 -1      1135 2.72301E-03-7.04391E-04-3.66455E-15
 -1      1136 2.99865E-03-7.07685E-04-4.52531E-15
 -1      1137 3.27667E-03-7.08081E-04-5.46984E-15
 -1      1138 3.55700E-03-7.06220E-04-6.49426E-15
 -1      1139 3.83969E-03-7.02551E-04-7.59851E-15
 -1      1140 4.13206E-03-6.97233E-04-8.81398E-15
 -1      1141 4.42752E-03-6.90579E-04-1.01147E-14
 -1      1142 4.71946E-03-6.83008E-04-1.14589E-14
 -1      1143 5.01621E-03-6.74657E-04-1.28705E-14
 -1      1144 5.31948E-03-6.66032E-04-1.43515E-14
 -1      1145 5.63185E-03-6.58123E-04-1.59007E-14
 -1      1146 5.95698E-03-6.52855E-04-1.75026E-14
 -1      1147 6.30879E-03-6.54068E-04-1.92037E-14
 -1      1148 6.68631E-03-6.69509E-04-2.09623E-14
 -1      1149 7.08698E-03-7.11209E-04-2.27160E-14
 -1      1150 7.52520E-03-8.00521E-04-2.45118E-14
 -1      1151 7.99859E-03-9.67203E-04-2.63426E-14
 -1      1152 8.48607E-03-1.23878E-03-2.81991E-14
 -1      1153 8.92914E-03-1.59700E-03-3.00468E-14
 -1      1154 9.28715E-03-1.96620E-03-3.19380E-14
 -1      1155 9.54624E-03-2.19850E-03-3.38309E-14
 -1      1156 9.76259E-03-2.21327E-03-3.56282E-14
 -1      1157 1.00496E-02-2.05114E-03-3.75829E-14
 -1      1158 1.04597E-02-1.80948E-03-3.97493E-14
 -1      1159 1.09362E-02-1.62773E-03-4.19759E-14
 -1      1160 1.14215E-02-1.55400E-03-4.42668E-14
 -1      1161 1.18908E-02-1.57572E-03-4.66764E-14
 -1      1162 1.23204E-02-1.66266E-03-4.91368E-14
 -1      1163 1.27038E-02-1.78367E-03-5.15766E-14
 -1      1164 1.30590E-02-1.92365E-03-5.40434E-14
 -1      1165 1.33931E-02-2.07304E-03-5.65399E-14
 -1      1166 1.37121E-02-2.22665E-03-5.90683E-14
 -1      1167 1.40204E-02-2.38172E-03-6.16316E-14
 -1      1168 1.43286E-02-2.54070E-03-6.42802E-14
 -1      1169 1.46313E-02-2.69897E-03-6.69726E-14
 -1      1170 1.49229E-02-2.85235E-03-6.96131E-14
 -1      1171 1.52121E-02-3.00456E-03-7.22473E-14
 -1      1172 1.54995E-02-3.15557E-03-7.48851E-14
 -1      1173 1.57859E-02-3.30536E-03-7.75253E-14
 -1      1174 1.60716E-02-3.45403E-03-8.01695E-14
 -1      1175 1.63572E-02-3.60193E-03-8.28184E-14
 -1      1176 2.28292E-04 1.60644E-04 2.36763E-17
 -1      1177 5.53450E-04 3.41979E-04 1.83366E-17
 -1      1178 8.33799E-04 4.60851E-04-6.19350E-17
 -1      1179 1.10311E-03 5.41775E-04-2.27127E-16
 -1      1180 1.36831E-03 5.98632E-04-4.75531E-16
 -1      1181 1.63298E-03 6.38928E-04-8.08625E-16
 -1      1182 1.89893E-03 6.67190E-04-1.22901E-15
 -1      1183 2.16704E-03 6.86502E-04-1.73405E-15
 -1      1184 2.43765E-03 6.99115E-04-2.32610E-15
 -1      1185 2.71083E-03 7.06722E-04-3.00583E-15
 -1      1186 2.98651E-03 7.10609E-04-3.77538E-15
 -1      1187 3.26458E-03 7.11761E-04-4.62873E-15
 -1      1188 3.54492E-03 7.10938E-04-5.56783E-15
 -1      1189 3.82746E-03 7.08753E-04-6.59619E-15
 -1      1190 4.11216E-03 7.05735E-04-7.70875E-15
 -1      1191 4.39903E-03 7.02390E-04-8.90816E-15
 -1      1192 4.68810E-03 6.99256E-04-1.01923E-14
 -1      1193 4.97938E-03 6.96947E-04-1.15593E-14
 -1      1194 5.27276E-03 6.96176E-04-1.30055E-14
 -1      1195 5.56794E-03 6.97743E-04-1.45285E-14
 -1      1196 5.86429E-03 7.02453E-04-1.61236E-14
 -1      1197 6.16072E-03 7.10961E-04-1.77907E-14
 -1      1198 6.45560E-03 7.23482E-04-1.95268E-14
 -1      1199 6.74672E-03 7.39412E-04-2.13281E-14
 -1      1200 7.03148E-03 7.56874E-04-2.31920E-14
 -1      1201 7.30731E-03 7.72348E-04-2.51153E-14
 -1      1202 7.57226E-03 7.80596E-04-2.70919E-14
 -1      1203 7.82580E-03 7.75104E-04-2.91255E-14
 -1      1204 8.06934E-03 7.49145E-04-3.12079E-14
 -1      1205 8.30640E-03 6.97283E-04-3.33470E-14
 -1      1206 8.54197E-03 6.16820E-04-3.55440E-14
 -1      1207 8.78143E-03 5.08580E-04-3.77923E-14
 -1      1208 9.02920E-03 3.76664E-04-4.00845E-14
 -1      1209 9.28787E-03 2.27292E-04-4.24129E-14
 -1      1210 9.55793E-03 6.72478E-05-4.47654E-14
 -1      1211 9.83812E-03-9.74608E-05-4.71484E-14
 -1      1212 1.01261E-02-2.62386E-04-4.95684E-14
 -1      1213 1.04193E-02-4.24816E-04-5.20122E-14
 -1      1214 1.07151E-02-5.83533E-04-5.44721E-14
 -1      1215 1.10119E-02-7.38381E-04-5.69448E-14
 -1      1216 1.13081E-02-8.89832E-04-5.94321E-14
 -1      1217 1.16029E-02-1.03864E-03-6.19375E-14
 -1      1218 1.18961E-02-1.18563E-03-6.44523E-14
 -1      1219 1.21876E-02-1.33154E-03-6.69703E-14
 -1      1220 1.24774E-02-1.47698E-03-6.94967E-14
 -1      1221 1.27657E-02-1.62245E-03-7.20218E-14
 -1      1222 1.30529E-02-1.76831E-03-7.45527E-14
 -1      1223 1.33392E-02-1.91480E-03-7.70903E-14
 -1      1224 1.36250E-02-2.06202E-03-7.96423E-14
 -1      1225 1.39035E-02-2.20613E-03-8.21453E-14
 -1      1226 1.41120E-02-2.31858E-03-8.33912E-14
 -1      1227 1.42576E-02-2.40294E-03-8.34680E-14
 -1      1228 1.44038E-02-2.48714E-03-8.35489E-14
 -1      1229 1.45506E-02-2.57086E-03-8.36094E-14
 -1      1230 1.46979E-02-2.65386E-03-8.36790E-14
 -1      1231 1.48439E-02-2.73535E-03-8.37416E-14
 -1      1232 1.49897E-02-2.81605E-03-8.38061E-14
 -1      1233 1.51362E-02-2.89680E-03-8.38842E-14
 -1      1234 1.52818E-02-2.97714E-03-8.39802E-14
 -1      1235 1.54265E-02-3.05741E-03-8.40488E-14
 -1      1236 1.55703E-02-3.13796E-03-8.41039E-14
 -1      1237 1.57122E-02-3.21842E-03-8.41823E-14
 -1      1238 1.58538E-02-3.29971E-03-8.42385E-14
 -1      1239 1.59967E-02-3.38261E-03-8.42471E-14
 -1      1240 1.61403E-02-3.46635E-03-8.42356E-14
 -1      1241 1.62847E-02-3.55063E-03-8.41970E-14
 -1      1242 1.64286E-02-3.63432E-03-8.41457E-14
 -1      1243 1.15892E-02-8.32159E-04-3.95309E-14
 -1      1244 1.14010E-02-6.65918E-04-3.92967E-14
 -1      1245 1.11107E-02-4.92249E-04-3.88279E-14
 -1      1246 1.07539E-02-3.21073E-04-3.81866E-14
 -1      1247 1.03267E-02-1.50007E-04-3.73574E-14
 -1      1248 9.86361E-03-2.11819E-06-3.63908E-14
 -1      1249 9.40336E-03 1.00913E-04-3.53763E-14
 -1      1250 8.94323E-03 1.52416E-04-3.43326E-14
 -1      1251 8.48429E-03 1.47304E-04-3.32916E-14
 -1      1252 8.04975E-03 9.11323E-05-3.23305E-14
 -1      1253 7.66141E-03-2.51353E-06-3.14971E-14
 -1      1254 7.31305E-03-1.25649E-04-3.07783E-14
 -1      1255 7.04108E-03-2.62881E-04-3.02346E-14
 -1      1256 6.86788E-03-4.08563E-04-2.98969E-14
 -1      1257 6.80847E-03-5.64641E-04-2.97745E-14
 -1      1258 6.86851E-03-7.27116E-04-2.98601E-14
 -1      1259 7.04948E-03-9.16515E-04-3.01539E-14
 -1      1260 7.34233E-03-1.13398E-03-3.06567E-14
 -1      1261 7.71739E-03-1.36587E-03-3.13280E-14
 -1      1262 8.17734E-03-1.60570E-03-3.21765E-14
 -1      1263 8.70285E-03-1.81357E-03-3.31769E-14
 -1      1264 9.24012E-03-1.93723E-03-3.42318E-14
 -1      1265 9.76547E-03-1.95167E-03-3.52877E-14
 -1      1266 1.02694E-02-1.86606E-03-3.63203E-14
 -1      1267 1.07183E-02-1.71466E-03-3.72578E-14
 -1      1268 1.11111E-02-1.52786E-03-3.81055E-14
 -1      1269 1.14142E-02-1.33663E-03-3.87985E-14
 -1      1270 1.15961E-02-1.16186E-03-3.92659E-14
 -1      1271 1.16560E-02-9.94735E-04-3.95204E-14
 -1      1272 1.66602E-04-1.10312E-04-2.52077E-18
 -1      1273 1.12501E-04-5.69765E-05-1.89058E-17
 -1      1274 1.17568E-04-6.75781E-05-1.44334E-17
 -1      1275 1.08402E-04-4.34994E-05-2.61293E-17
 -1      1276 1.10252E-04-4.96099E-05-2.39609E-17
 -1      1277 2.26256E-04-1.07612E-04-5.65411E-17
 -1      1278 1.06855E-04-3.36263E-05-3.01002E-17
 -1      1279 1.07688E-04-3.83523E-05-2.89753E-17
 -1      1280 2.19082E-04-8.24686E-05-6.95109E-17
 -1      1281 1.06091E-04-2.53514E-05-3.23770E-17
 -1      1282 1.06516E-04-2.93851E-05-3.17942E-17
 -1      1283 2.15906E-04-6.32783E-05-7.70190E-17
 -1      1284 1.05694E-04-1.80903E-05-3.34205E-17
 -1      1285 1.05919E-04-2.16589E-05-3.32443E-17
 -1      1286 2.14267E-04-4.71774E-05-8.10848E-17
 -1      1287 1.05481E-04-1.12364E-05-3.38000E-17
 -1      1288 1.05601E-04-1.46215E-05-3.38136E-17
 -1      1289 2.13368E-04-3.27411E-05-8.29821E-17
 -1      1290 1.05385E-04-4.68621E-06-3.37051E-17
 -1      1291 1.05436E-04-7.93853E-06-3.38136E-17
 -1      1292 2.12883E-04-1.91786E-05-8.34429E-17
 -1      1293 1.05374E-04 1.74485E-06-3.33528E-17
 -1      1294 1.05372E-04-1.46712E-06-3.35290E-17
 -1      1295 2.12674E-04-6.15269E-06-8.31719E-17
 -1      1296 1.05443E-04 8.22543E-06-3.24854E-17
 -1      1297 1.05389E-04 4.96697E-06-3.27836E-17
 -1      1298 2.12681E-04 6.71057E-06-8.17624E-17
 -1      1299 1.05615E-04 1.49325E-05-3.12386E-17
 -1      1300 1.05491E-04 1.15333E-05-3.16452E-17
 -1      1301 2.12905E-04 1.97611E-05-7.94178E-17
 -1      1302 1.05939E-04 2.19524E-05-2.91379E-17
 -1      1303 1.05709E-04 1.83613E-05-2.97749E-17
 -1      1304 2.13404E-04 3.32605E-05-7.57993E-17
 -1      1305 1.06549E-04 2.98204E-05-2.62919E-17
 -1      1306 1.06117E-04 2.57436E-05-2.72677E-17
 -1      1307 2.14323E-04 4.77879E-05-7.05680E-17
 -1      1308 1.07729E-04 3.89198E-05-2.23752E-17
 -1      1309 1.06886E-04 3.41246E-05-2.38389E-17
 -1      1310 2.16004E-04 6.41983E-05-6.35478E-17
 -1      1311 1.10242E-04 5.03548E-05-1.60868E-17
 -1      1312 1.08420E-04 4.41740E-05-1.88380E-17
 -1      1313 2.19206E-04 8.37057E-05-5.34241E-17
 -1      1314 1.16877E-04 6.76094E-05-5.92245E-18
 -1      1315 1.12140E-04 5.77714E-05-1.08285E-17
 -1      1316 2.26243E-04 1.09434E-04-3.80962E-17
 -1      1317 1.57486E-04 1.09822E-04 9.94755E-18
 -1      1318 1.35589E-04 8.60699E-05 1.89735E-19
 -1      1319 2.55907E-04 1.52049E-04-1.96376E-17
 -1      1320 3.34883E-04 2.20649E-04 6.81692E-18
 -1      1321 4.21281E-04-2.61634E-04-3.51688E-17
 -1      1322 5.74276E-04-3.36627E-04-7.57993E-17
 -1      1323 7.21362E-04-3.97143E-04-1.42193E-16
 -1      1324 8.64428E-04-4.46331E-04-2.32223E-16
 -1      1325 6.11738E-04-3.30705E-04-1.34021E-16
 -1      1326 1.00435E-03-4.87272E-04-3.44573E-16
 -1      1327 1.14210E-03-5.21103E-04-4.80031E-16
 -1      1328 9.04805E-04-4.31187E-04-3.20409E-16
 -1      1329 1.27850E-03-5.49688E-04-6.38663E-16
 -1      1330 1.41405E-03-5.73504E-04-8.20809E-16
 -1      1331 1.18708E-03-5.00289E-04-5.97382E-16
 -1      1332 1.54920E-03-5.93610E-04-1.02536E-15
 -1      1333 1.68422E-03-6.10338E-04-1.25262E-15
 -1      1334 1.46388E-03-5.48616E-04-9.65075E-16
 -1      1335 1.81933E-03-6.24308E-04-1.50250E-15
 -1      1336 1.95467E-03-6.35808E-04-1.77514E-15
 -1      1337 1.73847E-03-5.82314E-04-1.42257E-15
 -1      1338 2.09714E-03-6.45658E-04-2.08645E-15
 -1      1339 2.24005E-03-6.53503E-04-2.42260E-15
 -1      1340 2.01960E-03-6.05787E-04-1.98574E-15
 -1      1341 2.37662E-03-6.59390E-04-2.76613E-15
 -1      1342 2.51367E-03-6.63933E-04-3.13195E-15
 -1      1343 2.30149E-03-6.20984E-04-2.64310E-15
 -1      1344 2.65122E-03-6.67312E-04-3.51894E-15
 -1      1345 2.78927E-03-6.69684E-04-3.92718E-15
 -1      1346 2.57777E-03-6.29892E-04-3.37354E-15
 -1      1347 2.92783E-03-6.71171E-04-4.35647E-15
 -1      1348 3.06689E-03-6.71898E-04-4.80775E-15
 -1      1349 2.85556E-03-6.34429E-04-4.18940E-15
 -1      1350 3.20647E-03-6.71941E-04-5.27913E-15
 -1      1351 3.34656E-03-6.71399E-04-5.77063E-15
 -1      1352 3.13500E-03-6.35657E-04-5.08920E-15
 -1      1353 3.48717E-03-6.70315E-04-6.28227E-15
 -1      1354 3.62830E-03-6.68768E-04-6.81349E-15
 -1      1355 3.41616E-03-6.34335E-04-6.07104E-15
 -1      1356 3.76998E-03-6.66773E-04-7.36557E-15
 -1      1357 3.91222E-03-6.64397E-04-7.93747E-15
 -1      1358 3.69915E-03-6.30983E-04-7.13299E-15
 -1      1359 4.06224E-03-6.61485E-04-8.55907E-15
 -1      1360 4.21298E-03-6.58218E-04-9.20259E-15
 -1      1361 3.99129E-03-6.25795E-04-8.30430E-15
 -1      1362 4.35728E-03-6.54747E-04-9.83507E-15
 -1      1363 4.50240E-03-6.51003E-04-1.04878E-14
 -1      1364 4.28583E-03-6.19062E-04-9.55850E-15
 -1      1365 4.64842E-03-6.46942E-04-1.11579E-14
 -1      1366 4.79548E-03-6.42665E-04-1.18459E-14
 -1      1367 4.57598E-03-6.11145E-04-1.08590E-14
 -1      1368 4.94374E-03-6.38122E-04-1.25520E-14
 -1      1369 5.09337E-03-6.33464E-04-1.32735E-14
 -1      1370 4.86961E-03-6.02042E-04-1.22329E-14
 -1      1371 5.24462E-03-6.28648E-04-1.40126E-14
 -1      1372 5.39775E-03-6.23914E-04-1.47697E-14
 -1      1373 5.16776E-03-5.92005E-04-1.36762E-14
 -1      1374 5.55308E-03-6.19260E-04-1.55413E-14
 -1      1375 5.71099E-03-6.15073E-04-1.63281E-14
 -1      1376 5.47190E-03-5.81582E-04-1.51858E-14
 -1      1377 5.87190E-03-6.11467E-04-1.71284E-14
 -1      1378 6.03633E-03-6.09061E-04-1.79424E-14
 -1      1379 5.78401E-03-5.71948E-04-1.67556E-14
 -1      1380 6.21337E-03-6.08265E-04-1.88139E-14
 -1      1381 6.39561E-03-6.10409E-04-1.97000E-14
 -1      1382 6.11492E-03-5.65425E-04-1.84246E-14
 -1      1383 6.57468E-03-6.16166E-04-2.05561E-14
 -1      1384 6.75982E-03-6.27239E-04-2.14228E-14
 -1      1385 6.46038E-03-5.67494E-04-2.01522E-14
 -1      1386 6.95161E-03-6.45654E-04-2.22987E-14
 -1      1387 7.15051E-03-6.73942E-04-2.31852E-14
 -1      1388 6.81520E-03-5.87196E-04-2.18825E-14
 -1      1389 7.35682E-03-7.15615E-04-2.40823E-14
 -1      1390 7.57027E-03-7.74316E-04-2.49888E-14
 -1      1391 7.19121E-03-6.40939E-04-2.36549E-14
 -1      1392 7.79039E-03-8.54743E-04-2.59029E-14
 -1      1393 8.01526E-03-9.60829E-04-2.68251E-14
 -1      1394 7.59117E-03-7.55097E-04-2.54644E-14
 -1      1395 8.24313E-03-1.09585E-03-2.77556E-14
 -1      1396 8.46941E-03-1.26009E-03-2.86937E-14
 -1      1397 8.01509E-03-9.63856E-04-2.73099E-14
 -1      1398 8.68029E-03-1.43936E-03-2.95970E-14
 -1      1399 8.88118E-03-1.63176E-03-3.05125E-14
 -1      1400 8.44464E-03-1.28094E-03-2.91463E-14
 -1      1401 9.07945E-03-1.83190E-03-3.14854E-14
 -1      1402 9.26254E-03-2.00695E-03-3.24712E-14
 -1      1403 8.87069E-03-1.67875E-03-3.10267E-14
 -1      1404 9.41486E-03-2.12556E-03-3.33725E-14
 -1      1405 9.56169E-03-2.18981E-03-3.42860E-14
 -1      1406 9.25926E-03-2.02248E-03-3.29095E-14
 -1      1407 9.69797E-03-2.19765E-03-3.51614E-14
 -1      1408 9.84136E-03-2.15688E-03-3.60472E-14
 -1      1409 9.59442E-03-2.16117E-03-3.46912E-14
 -1      1410 1.00213E-02-2.06167E-03-3.71021E-14
 -1      1411 1.02168E-02-1.93835E-03-3.81720E-14
 -1      1412 9.95519E-03-2.06697E-03-3.66211E-14
 -1      1413 1.04270E-02-1.80876E-03-3.92567E-14
 -1      1414 1.06471E-02-1.69169E-03-4.03556E-14
 -1      1415 1.03773E-02-1.81441E-03-3.87625E-14
 -1      1416 1.08738E-02-1.59890E-03-4.14706E-14
 -1      1417 1.11013E-02-1.53512E-03-4.26002E-14
 -1      1418 1.08190E-02-1.57992E-03-4.09634E-14
 -1      1419 1.13268E-02-1.50046E-03-4.37443E-14
 -1      1420 1.15471E-02-1.49198E-03-4.49037E-14
 -1      1421 1.12537E-02-1.45538E-03-4.32231E-14
 -1      1422 1.17717E-02-1.50635E-03-4.61363E-14
 -1      1423 1.19883E-02-1.53999E-03-4.73820E-14
 -1      1424 1.16769E-02-1.44263E-03-4.55971E-14
 -1      1425 1.21871E-02-1.58547E-03-4.85790E-14
 -1      1426 1.23788E-02-1.64089E-03-4.97894E-14
 -1      1427 1.20744E-02-1.51139E-03-4.80283E-14
 -1      1428 1.25638E-02-1.70351E-03-5.10097E-14
 -1      1429 1.27428E-02-1.77135E-03-5.22353E-14
 -1      1430 1.24393E-02-1.62485E-03-5.04417E-14
 -1      1431 1.29164E-02-1.84291E-03-5.34692E-14
 -1      1432 1.30853E-02-1.91695E-03-5.47091E-14
 -1      1433 1.27847E-02-1.76273E-03-5.28944E-14
 -1      1434 1.32501E-02-1.99280E-03-5.59582E-14
 -1      1435 1.34114E-02-2.06967E-03-5.72146E-14
 -1      1436 1.31145E-02-1.91263E-03-5.53758E-14
 -1      1437 1.35697E-02-2.14729E-03-5.84794E-14
 -1      1438 1.37254E-02-2.22520E-03-5.97517E-14
 -1      1439 1.34322E-02-2.06779E-03-5.78895E-14
 -1      1440 1.38789E-02-2.30331E-03-6.10296E-14
 -1      1441 1.40306E-02-2.38135E-03-6.23167E-14
 -1      1442 1.37408E-02-2.22467E-03-6.04300E-14
 -1      1443 1.41882E-02-2.46320E-03-6.36754E-14
 -1      1444 1.43444E-02-2.54479E-03-6.50401E-14
 -1      1445 1.40501E-02-2.38545E-03-6.30658E-14
 -1      1446 1.44920E-02-2.62227E-03-6.63476E-14
 -1      1447 1.46387E-02-2.69944E-03-6.76633E-14
 -1      1448 1.43541E-02-2.54533E-03-6.57295E-14
 -1      1449 1.47846E-02-2.77632E-03-6.89809E-14
 -1      1450 1.49299E-02-2.85287E-03-7.02951E-14
 -1      1451 1.46472E-02-2.70008E-03-6.83477E-14
 -1      1452 1.50746E-02-2.92912E-03-7.16087E-14
 -1      1453 1.52189E-02-3.00503E-03-7.29240E-14
 -1      1454 1.49377E-02-2.85348E-03-7.09749E-14
 -1      1455 1.53628E-02-3.08063E-03-7.42438E-14
 -1      1456 1.55064E-02-3.15589E-03-7.55649E-14
 -1      1457 1.52264E-02-3.00550E-03-7.36029E-14
 -1      1458 1.56498E-02-3.23084E-03-7.68837E-14
 -1      1459 1.57929E-02-3.30548E-03-7.82037E-14
 -1      1460 1.55138E-02-3.15618E-03-7.62393E-14
 -1      1461 1.59360E-02-3.37985E-03-7.95272E-14
 -1      1462 1.60789E-02-3.45396E-03-8.08497E-14
 -1      1463 1.58003E-02-3.30556E-03-7.88813E-14
 -1      1464 1.61823E-02-3.50726E-03-8.18425E-14
 -1      1465 1.63252E-02-3.58111E-03-8.31630E-14
 -1      1466 1.62538E-02-3.53967E-03-8.31813E-14
 -1      1467 1.60469E-02-3.43319E-03-8.11987E-14
 -1      1468 6.42674E-04 3.71806E-04-3.72423E-17
 -1      1469 4.92647E-04 3.03547E-04-4.82470E-18
 -1      1470 4.44630E-04 2.65774E-04-2.43539E-17
 -1      1471 9.28066E-04 4.71579E-04-1.64690E-16
 -1      1472 7.87310E-04 4.26197E-04-9.06122E-17
 -1      1473 7.44331E-04 3.90446E-04-1.14844E-16
 -1      1474 1.20276E-03 5.40657E-04-3.74727E-16
 -1      1475 1.06619E-03 5.09149E-04-2.59070E-16
 -1      1476 1.03020E-03 4.75617E-04-2.87205E-16
 -1      1477 1.47314E-03 5.89416E-04-6.67787E-16
 -1      1478 1.33817E-03 5.67181E-04-5.10754E-16
 -1      1479 1.30797E-03 5.35050E-04-5.41654E-16
 -1      1480 1.74253E-03 6.23731E-04-1.04642E-15
 -1      1481 1.60779E-03 6.08135E-04-8.46437E-16
 -1      1482 1.58209E-03 5.76849E-04-8.80020E-16
 -1      1483 2.01266E-03 6.47431E-04-1.51109E-15
 -1      1484 1.87742E-03 6.36735E-04-1.26811E-15
 -1      1485 1.85519E-03 6.05919E-04-1.30335E-15
 -1      1486 2.28436E-03 6.63231E-04-2.05994E-15
 -1      1487 2.14827E-03 6.56189E-04-1.77491E-15
 -1      1488 2.12871E-03 6.25608E-04-1.81134E-15
 -1      1489 2.55802E-03 6.73139E-04-2.69691E-15
 -1      1490 2.42093E-03 6.68822E-04-2.36734E-15
 -1      1491 2.40341E-03 6.38333E-04-2.40509E-15
 -1      1492 2.83376E-03 6.78669E-04-3.42089E-15
 -1      1493 2.69562E-03 6.76376E-04-3.04804E-15
 -1      1494 2.67965E-03 6.45886E-04-3.08535E-15
 -1      1495 3.11158E-03 6.80966E-04-4.23157E-15
 -1      1496 2.97241E-03 6.80163E-04-3.81544E-15
 -1      1497 2.95759E-03 6.49615E-04-3.85254E-15
 -1      1498 3.39145E-03 6.80905E-04-5.12665E-15
 -1      1499 3.25127E-03 6.81184E-04-4.66855E-15
 -1      1500 3.23728E-03 6.50540E-04-4.70441E-15
 -1      1501 3.67332E-03 6.79169E-04-6.10848E-15
 -1      1502 3.53214E-03 6.80208E-04-5.60637E-15
 -1      1503 3.51872E-03 6.49438E-04-5.64148E-15
 -1      1504 3.95716E-03 6.76320E-04-7.17629E-15
 -1      1505 3.81499E-03 6.77849E-04-6.63166E-15
 -1      1506 3.80191E-03 6.46930E-04-6.66413E-15
 -1      1507 4.24296E-03 6.72866E-04-8.32963E-15
 -1      1508 4.09981E-03 6.74634E-04-7.74198E-15
 -1      1509 4.08686E-03 6.43541E-04-7.77144E-15
 -1      1510 4.53076E-03 6.69318E-04-9.56653E-15
 -1      1511 4.38661E-03 6.71067E-04-8.93778E-15
 -1      1512 4.37359E-03 6.39772E-04-8.96414E-15
 -1      1513 4.82055E-03 6.66246E-04-1.08893E-14
 -1      1514 4.67540E-03 6.67682E-04-1.02180E-14
 -1      1515 4.66212E-03 6.36156E-04-1.02405E-14
 -1      1516 5.11228E-03 6.64318E-04-1.22906E-14
 -1      1517 4.96618E-03 6.65096E-04-1.15804E-14
 -1      1518 4.95244E-03 6.33310E-04-1.15981E-14
 -1      1519 5.40577E-03 6.64309E-04-1.37715E-14
 -1      1520 5.25882E-03 6.64031E-04-1.30213E-14
 -1      1521 5.24445E-03 6.31962E-04-1.30350E-14
 -1      1522 5.70060E-03 6.67068E-04-1.53258E-14
 -1      1523 5.55304E-03 6.65308E-04-1.45393E-14
 -1      1524 5.53790E-03 6.32952E-04-1.45476E-14
 -1      1525 5.99602E-03 6.73403E-04-1.69524E-14
 -1      1526 5.84829E-03 6.69775E-04-1.61301E-14
 -1      1527 5.83233E-03 6.37162E-04-1.61338E-14
 -1      1528 6.29088E-03 6.83868E-04-1.86505E-14
 -1      1529 6.14361E-03 6.78146E-04-1.77930E-14
 -1      1530 6.12694E-03 6.45361E-04-1.77924E-14
 -1      1531 6.58355E-03 6.98422E-04-2.04132E-14
 -1      1532 6.43760E-03 6.90726E-04-1.95238E-14
 -1      1533 6.42059E-03 6.57932E-04-1.95186E-14
 -1      1534 6.87202E-03 7.15986E-04-2.22402E-14
 -1      1535 6.72845E-03 7.07007E-04-2.13194E-14
 -1      1536 6.71175E-03 6.74465E-04-2.13083E-14
 -1      1537 7.15413E-03 7.33983E-04-2.41275E-14
 -1      1538 7.01401E-03 7.25212E-04-2.31760E-14
 -1      1539 6.99867E-03 6.93277E-04-2.31589E-14
 -1      1540 7.42800E-03 7.48042E-04-2.60723E-14
 -1      1541 7.29220E-03 7.41878E-04-2.50929E-14
 -1      1542 7.27958E-03 7.10976E-04-2.50687E-14
 -1      1543 7.69256E-03 7.52116E-04-2.80713E-14
 -1      1544 7.56148E-03 7.51750E-04-2.70649E-14
 -1      1545 7.55317E-03 7.22304E-04-2.70354E-14
 -1      1546 7.94815E-03 7.39218E-04-3.01247E-14
 -1      1547 7.82141E-03 7.48183E-04-2.90914E-14
 -1      1548 7.81898E-03 7.20511E-04-2.90570E-14
 -1      1549 8.19675E-03 7.02774E-04-3.22295E-14
 -1      1550 8.07314E-03 7.24208E-04-3.11701E-14
 -1      1551 8.07790E-03 6.98416E-04-3.11298E-14
 -1      1552 8.44185E-03 6.38261E-04-3.43921E-14
 -1      1553 8.31947E-03 6.74093E-04-3.33038E-14
 -1      1554 8.33218E-03 6.50007E-04-3.32572E-14
 -1      1555 8.68775E-03 5.44491E-04-3.66085E-14
 -1      1556 8.56441E-03 5.94873E-04-3.54942E-14
 -1      1557 8.58514E-03 5.72063E-04-3.54419E-14
 -1      1558 8.93856E-03 4.23966E-04-3.88737E-14
 -1      1559 8.81230E-03 4.87227E-04-3.77356E-14
 -1      1560 8.84040E-03 4.65114E-04-3.76776E-14
 -1      1561 9.19727E-03 2.82134E-04-4.11793E-14
 -1      1562 9.06678E-03 3.55272E-04-4.00215E-14
 -1      1563 9.10105E-03 3.33275E-04-3.99578E-14
 -1      1564 9.46526E-03 1.25895E-04-4.35172E-14
 -1      1565 9.33007E-03 2.05381E-04-4.23442E-14
 -1      1566 9.36897E-03 1.83043E-04-4.22762E-14
 -1      1567 9.74231E-03-3.79899E-05-4.58833E-14
 -1      1568 9.60271E-03 4.45548E-05-4.46967E-14
 -1      1569 9.64465E-03 2.16097E-05-4.46252E-14
 -1      1570 1.00270E-02-2.04054E-04-4.82782E-14
 -1      1571 9.88380E-03-1.20989E-04-4.70771E-14
 -1      1572 9.92738E-03-1.44623E-04-4.70031E-14
 -1      1573 1.03172E-02-3.68615E-04-5.07078E-14
 -1      1574 1.01716E-02-2.86650E-04-4.94889E-14
 -1      1575 1.02157E-02-3.10915E-04-4.94108E-14
 -1      1576 1.06110E-02-5.29713E-04-5.31533E-14
 -1      1577 1.04638E-02-4.49638E-04-5.19283E-14
 -1      1578 1.05077E-02-4.74397E-04-5.18434E-14
 -1      1579 1.09063E-02-6.86723E-04-5.56191E-14
 -1      1580 1.07586E-02-6.08714E-04-5.43840E-14
 -1      1581 1.08019E-02-6.33804E-04-5.42960E-14
 -1      1582 1.12019E-02-8.39888E-04-5.80968E-14
 -1      1583 1.10542E-02-7.63742E-04-5.68565E-14
 -1      1584 1.10967E-02-7.89010E-04-5.67673E-14
 -1      1585 1.14967E-02-9.89900E-04-6.05942E-14
 -1      1586 1.13494E-02-9.15234E-04-5.93436E-14
 -1      1587 1.13912E-02-9.40555E-04-5.92543E-14
 -1      1588 1.17902E-02-1.13761E-03-6.31033E-14
 -1      1589 1.16436E-02-1.06399E-03-6.18469E-14
 -1      1590 1.16848E-02-1.08927E-03-6.17566E-14
 -1      1591 1.20822E-02-1.28383E-03-6.56198E-14
 -1      1592 1.19364E-02-1.21086E-03-6.43615E-14
 -1      1593 1.19772E-02-1.23605E-03-6.42708E-14
 -1      1594 1.23727E-02-1.42929E-03-6.81427E-14
 -1      1595 1.22276E-02-1.35662E-03-6.68817E-14
 -1      1596 1.22681E-02-1.38169E-03-6.67920E-14
 -1      1597 1.26617E-02-1.57454E-03-7.06702E-14
 -1      1598 1.25173E-02-1.50191E-03-6.94068E-14
 -1      1599 1.25577E-02-1.52684E-03-6.93172E-14
 -1      1600 1.29496E-02-1.72002E-03-7.31958E-14
 -1      1601 1.28058E-02-1.64723E-03-7.19317E-14
 -1      1602 1.28462E-02-1.67202E-03-7.18410E-14
 -1      1603 1.32365E-02-1.86604E-03-7.57299E-14
 -1      1604 1.30931E-02-1.79295E-03-7.44608E-14
 -1      1605 1.31336E-02-1.81761E-03-7.43711E-14
 -1      1606 1.35227E-02-2.01280E-03-7.82728E-14
 -1      1607 1.33797E-02-1.93933E-03-7.69997E-14
 -1      1608 1.34203E-02-1.96388E-03-7.69068E-14
 -1      1609 1.38086E-02-2.16032E-03-8.08318E-14
 -1      1610 1.36657E-02-2.08648E-03-7.95510E-14
 -1      1611 1.37064E-02-2.11095E-03-7.94594E-14
 -1      1612 1.39762E-02-2.24827E-03-8.21751E-14
 -1      1613 1.41704E-02-2.35977E-03-8.23753E-14
 -1      1614 1.40974E-02-2.31769E-03-8.23362E-14
 -1      1615 1.43168E-02-2.44367E-03-8.24485E-14
 -1      1616 1.42435E-02-2.40177E-03-8.24132E-14
 -1      1617 1.40832E-02-2.31663E-03-8.12799E-14
 -1      1618 1.44638E-02-2.52707E-03-8.25134E-14
 -1      1619 1.43902E-02-2.48544E-03-8.24797E-14
 -1      1620 1.42299E-02-2.40032E-03-8.13501E-14
 -1      1621 1.46112E-02-2.60981E-03-8.25868E-14
 -1      1622 1.45375E-02-2.56853E-03-8.25505E-14
 -1      1623 1.43771E-02-2.48349E-03-8.14218E-14
 -1      1624 1.47561E-02-2.69047E-03-8.26517E-14
 -1      1625 1.46837E-02-2.65023E-03-8.26196E-14
 -1      1626 1.45234E-02-2.56535E-03-8.14959E-14
 -1      1627 1.49032E-02-2.77187E-03-8.27201E-14
 -1      1628 1.48297E-02-2.73125E-03-8.26858E-14
 -1      1629 1.46696E-02-2.64660E-03-8.15638E-14
 -1      1630 1.50495E-02-2.85277E-03-8.27990E-14
 -1      1631 1.49764E-02-2.81237E-03-8.27567E-14
 -1      1632 1.48165E-02-2.72799E-03-8.16324E-14
 -1      1633 1.51949E-02-2.93339E-03-8.28786E-14
 -1      1634 1.51223E-02-2.89310E-03-8.28411E-14
 -1      1635 1.49627E-02-2.80898E-03-8.17058E-14
 -1      1636 1.53393E-02-3.01401E-03-8.29382E-14
 -1      1637 1.52672E-02-2.97368E-03-8.29124E-14
 -1      1638 1.51079E-02-2.88976E-03-8.17746E-14
 -1      1639 1.54828E-02-3.09492E-03-8.29976E-14
 -1      1640 1.54112E-02-3.05441E-03-8.29678E-14
 -1      1641 1.52520E-02-2.97060E-03-8.18324E-14
 -1      1642 1.56233E-02-3.17501E-03-8.30544E-14
 -1      1643 1.55531E-02-3.13489E-03-8.30266E-14
 -1      1644 1.53941E-02-3.05105E-03-8.18814E-14
 -1      1645 1.57660E-02-3.25719E-03-8.30897E-14
 -1      1646 1.56946E-02-3.21600E-03-8.30763E-14
 -1      1647 1.55356E-02-3.13201E-03-8.19217E-14
 -1      1648 1.59089E-02-3.34015E-03-8.30887E-14
 -1      1649 1.58374E-02-3.29858E-03-8.30947E-14
 -1      1650 1.56782E-02-3.21432E-03-8.19403E-14
 -1      1651 1.60526E-02-3.42379E-03-8.30769E-14
 -1      1652 1.59807E-02-3.38190E-03-8.30828E-14
 -1      1653 1.58212E-02-3.29733E-03-8.19361E-14
 -1      1654 1.61892E-02-3.50272E-03-8.31187E-14
 -1      1655 1.61169E-02-3.46064E-03-8.31410E-14
 -1      1656 1.59571E-02-3.37582E-03-8.19961E-14
 -1      1657 1.60858E-02-3.44953E-03-8.21278E-14
 -1      1658 1.15636E-02-8.54333E-04-3.99397E-14
 -1      1659 1.16304E-02-9.05126E-04-3.99928E-14
 -1      1660 1.13087E-02-7.28574E-04-3.96801E-14
 -1      1661 1.14440E-02-7.94441E-04-3.98630E-14
 -1      1662 1.09633E-02-5.50826E-04-3.90685E-14
 -1      1663 1.11324E-02-6.31019E-04-3.93470E-14
 -1      1664 1.05548E-02-3.63347E-04-3.83535E-14
 -1      1665 1.07457E-02-4.55337E-04-3.87142E-14
 -1      1666 1.01001E-02-1.46315E-04-3.73807E-14
 -1      1667 1.03157E-02-2.47794E-04-3.78568E-14
 -1      1668 9.66314E-03 3.79622E-05-3.63148E-14
 -1      1669 9.85750E-03-4.01940E-05-3.68057E-14
 -1      1670 9.25006E-03 1.61223E-04-3.51887E-14
 -1      1671 9.43787E-03 1.13123E-04-3.57128E-14
 -1      1672 8.85212E-03 2.04080E-04-3.40532E-14
 -1      1673 9.03299E-03 1.95129E-04-3.45712E-14
 -1      1674 8.44774E-03 1.62894E-04-3.29145E-14
 -1      1675 8.63523E-03 1.93410E-04-3.34309E-14
 -1      1676 8.04948E-03 5.53411E-05-3.19155E-14
 -1      1677 8.22775E-03 1.10481E-04-3.23560E-14
 -1      1678 7.66259E-03-8.15488E-05-3.10648E-14
 -1      1679 7.83682E-03-1.50049E-05-3.14470E-14
 -1      1680 7.30403E-03-2.39378E-04-3.02857E-14
 -1      1681 7.46974E-03-1.69272E-04-3.06083E-14
 -1      1682 7.01343E-03-3.62501E-04-2.98069E-14
 -1      1683 7.13140E-03-3.05832E-04-3.00175E-14
 -1      1684 6.83276E-03-4.80771E-04-2.94484E-14
 -1      1685 6.90244E-03-4.31143E-04-2.95644E-14
 -1      1686 6.79423E-03-5.83877E-04-2.93975E-14
 -1      1687 6.79344E-03-5.36614E-04-2.94019E-14
 -1      1688 6.89836E-03-7.01919E-04-2.95629E-14
 -1      1689 6.83418E-03-6.45706E-04-2.94735E-14
 -1      1690 7.15325E-03-8.63193E-04-2.99185E-14
 -1      1691 7.01551E-03-7.78745E-04-2.97124E-14
 -1      1692 7.50826E-03-1.08306E-03-3.05150E-14
 -1      1693 7.33506E-03-9.79073E-04-3.02296E-14
 -1      1694 7.93943E-03-1.34599E-03-3.12749E-14
 -1      1695 7.73147E-03-1.21837E-03-3.09012E-14
 -1      1696 8.42142E-03-1.63480E-03-3.22211E-14
 -1      1697 8.19418E-03-1.50077E-03-3.17622E-14
 -1      1698 8.92809E-03-1.88422E-03-3.33078E-14
 -1      1699 8.70266E-03-1.77792E-03-3.27821E-14
 -1      1700 9.37969E-03-2.00514E-03-3.44476E-14
 -1      1701 9.17342E-03-1.96696E-03-3.39350E-14
 -1      1702 9.83226E-03-1.97988E-03-3.55919E-14
 -1      1703 9.62177E-03-2.00996E-03-3.50590E-14
 -1      1704 1.02796E-02-1.83200E-03-3.66946E-14
 -1      1705 1.00744E-02-1.91240E-03-3.61984E-14
 -1      1706 1.07081E-02-1.62459E-03-3.76883E-14
 -1      1707 1.05138E-02-1.72420E-03-3.72450E-14
 -1      1708 1.11082E-02-1.39586E-03-3.86354E-14
 -1      1709 1.09231E-02-1.49829E-03-3.82295E-14
 -1      1710 1.14346E-02-1.21937E-03-3.92962E-14
 -1      1711 1.13027E-02-1.29815E-03-3.90042E-14
 -1      1712 1.16244E-02-1.08084E-03-3.97567E-14
 -1      1713 1.15534E-02-1.14005E-03-3.95740E-14
 -1      1714 1.16716E-02-9.65731E-04-4.00446E-14
 -1      1715 1.16692E-02-1.01484E-03-3.99721E-14
 -1      1716 1.07974E-02-5.71699E-04-3.92537E-14
 -1      1717 1.16624E-02-9.57111E-04-4.04787E-14
 -1      1718 1.40170E-02-2.27271E-03-8.20836E-14
 -1      1719 1.39297E-02-2.22971E-03-8.09912E-14
 -1      1720 1.14987E-02-8.74783E-04-4.03528E-14
 -1      1721 1.11943E-02-7.52799E-04-3.99431E-14
 -1      1722 1.03542E-02-3.53522E-04-3.83962E-14
 -1      1723 9.90524E-03-1.14302E-04-3.73162E-14
 -1      1724 9.49164E-03 8.50617E-05-3.61313E-14
 -1      1725 9.11701E-03 2.03950E-04-3.49061E-14
 -1      1726 8.75299E-03 2.23617E-04-3.36647E-14
 -1      1727 8.38435E-03 1.44581E-04-3.24863E-14
 -1      1728 7.99885E-03 2.13199E-06-3.14623E-14
 -1      1729 7.61165E-03-1.66150E-04-3.05431E-14
 -1      1730 7.25050E-03-3.18450E-04-2.98283E-14
 -1      1731 6.96248E-03-4.35293E-04-2.93248E-14
 -1      1732 6.80468E-03-5.15973E-04-2.90418E-14
 -1      1733 6.80614E-03-5.87596E-04-2.90746E-14
 -1      1734 6.96915E-03-6.85980E-04-2.92991E-14
 -1      1735 7.27893E-03-8.44503E-04-2.97549E-14
 -1      1736 7.68917E-03-1.08198E-03-3.04453E-14
 -1      1737 8.15428E-03-1.37875E-03-3.13082E-14
 -1      1738 8.64931E-03-1.69735E-03-3.23461E-14
 -1      1739 9.09559E-03-1.94684E-03-3.35240E-14
 -1      1740 9.50641E-03-2.04043E-03-3.47577E-14
 -1      1741 9.91409E-03-1.96490E-03-3.59745E-14
 -1      1742 1.03343E-02-1.76774E-03-3.71349E-14
 -1      1743 1.07596E-02-1.51998E-03-3.82338E-14
 -1      1744 1.11623E-02-1.29624E-03-3.91544E-14
 -1      1745 1.14802E-02-1.13695E-03-3.98092E-14
 -1      1746 1.16538E-02-1.02901E-03-4.03095E-14
 -1      1747 2.85080E-04-1.76179E-04-3.24176E-17
 -1      1748 3.32142E-04-1.16751E-04-1.10873E-16
 -1      1749 3.36209E-04-1.32953E-04-1.03758E-16
 -1      1750 3.42122E-04-1.51951E-04-9.51930E-17
 -1      1751 3.51642E-04-1.73952E-04-8.30363E-17
 -1      1752 4.58218E-04-1.87968E-04-1.51002E-16
 -1      1753 3.24650E-04-6.53384E-05-1.25144E-16
 -1      1754 3.25779E-04-7.66316E-05-1.23152E-16
 -1      1755 3.23190E-04-4.38495E-05-1.27231E-16
 -1      1756 3.23829E-04-5.43352E-05-1.26445E-16
 -1      1757 4.36635E-04-7.92081E-05-1.85914E-16
 -1      1758 3.22422E-04-2.37432E-05-1.27489E-16
 -1      1759 3.22747E-04-3.36497E-05-1.27434E-16
 -1      1760 4.34673E-04-5.12516E-05-1.88028E-16
 -1      1761 3.22134E-04-4.32568E-06-1.26472E-16
 -1      1762 3.22229E-04-1.39690E-05-1.27136E-16
 -1      1763 4.33669E-04-2.48838E-05-1.87892E-16
 -1      1764 3.22252E-04 1.49735E-05-1.23938E-16
 -1      1765 3.22141E-04 5.32057E-06-1.25456E-16
 -1      1766 4.33376E-04 7.65865E-07-1.85927E-16
 -1      1767 3.22804E-04 3.47052E-05-1.20184E-16
 -1      1768 3.22460E-04 2.47676E-05-1.22352E-16
 -1      1769 4.33723E-04 2.64430E-05-1.81983E-16
 -1      1770 3.23909E-04 5.51299E-05-1.14316E-16
 -1      1771 3.23259E-04 4.47731E-05-1.17622E-16
 -1      1772 4.34778E-04 5.26690E-05-1.75898E-16
 -1      1773 3.25927E-04 7.77734E-05-1.06184E-16
 -1      1774 3.24751E-04 6.61961E-05-1.10697E-16
 -1      1775 4.36799E-04 8.05266E-05-1.67157E-16
 -1      1776 3.29570E-04 1.03602E-04-9.48812E-17
 -1      1777 3.27441E-04 9.02598E-05-1.01183E-16
 -1      1778 4.40389E-04 1.11485E-04-1.55082E-16
 -1      1779 3.36588E-04 1.35081E-04-7.83065E-17
 -1      1780 3.32451E-04 1.18557E-04-8.75629E-17
 -1      1781 4.46825E-04 1.47249E-04-1.37951E-16
 -1      1782 3.52136E-04 1.77508E-04-5.35731E-17
 -1      1783 3.42707E-04 1.54679E-04-6.74374E-17
 -1      1784 4.59203E-04 1.91329E-04-1.13218E-16
 -1      1785 4.07471E-04 2.33578E-04-3.59549E-17
 -1      1786 3.77908E-04 2.02583E-04-4.75287E-17
 -1      1787 4.95662E-04 2.43880E-04-9.10459E-17
 -1      1788 5.58247E-04 3.02335E-04-7.23569E-17
 -1      1789 3.39860E-04-1.90846E-04-5.91297E-17
 -1      1790 8.53178E-04 4.06737E-04-2.06608E-16
 -1      1791 7.06816E-04 3.59091E-04-1.29345E-16
 -1      1792 6.73133E-04 3.28555E-04-1.41570E-16
 -1      1793 4.58765E-04-2.36611E-04-1.07688E-16
 -1      1794 8.06872E-04-3.73784E-04-2.93751E-16
 -1      1795 9.52079E-04-4.14832E-04-4.12647E-16
 -1      1796 1.09486E-03-4.49354E-04-5.53865E-16
 -1      1797 1.23648E-03-4.78056E-04-7.17525E-16
 -1      1798 1.00360E-03-3.97385E-04-5.08924E-16
 -1      1799 1.37684E-03-5.02312E-04-9.03127E-16
 -1      1800 1.51649E-03-5.22418E-04-1.11165E-15
 -1      1801 1.28922E-03-4.54957E-04-8.40623E-16
 -1      1802 1.65563E-03-5.39286E-04-1.34207E-15
 -1      1803 1.79446E-03-5.53150E-04-1.59470E-15
 -1      1804 1.57160E-03-4.95367E-04-1.26043E-15
 -1      1805 1.94013E-03-5.65129E-04-1.88418E-15
 -1      1806 2.08575E-03-5.74697E-04-2.19834E-15
 -1      1807 1.85923E-03-5.23754E-04-1.78252E-15
 -1      1808 2.22457E-03-5.81988E-04-2.52017E-15
 -1      1809 2.36352E-03-5.87676E-04-2.86358E-15
 -1      1810 2.14623E-03-5.42434E-04-2.39732E-15
 -1      1811 2.50272E-03-5.92036E-04-3.22894E-15
 -1      1812 2.64214E-03-5.95204E-04-3.61572E-15
 -1      1813 2.42632E-03-5.53750E-04-3.08512E-15
 -1      1814 2.78188E-03-5.97372E-04-4.02335E-15
 -1      1815 2.92190E-03-5.98646E-04-4.45168E-15
 -1      1816 2.70696E-03-5.59994E-04-3.85811E-15
 -1      1817 3.06226E-03-5.99158E-04-4.90078E-15
 -1      1818 3.20296E-03-5.98990E-04-5.37099E-15
 -1      1819 2.98842E-03-5.62434E-04-4.71380E-15
 -1      1820 3.34402E-03-5.98225E-04-5.86091E-15
 -1      1821 3.48544E-03-5.96929E-04-6.37073E-15
 -1      1822 3.27088E-03-5.61978E-04-5.65188E-15
 -1      1823 3.62727E-03-5.95145E-04-6.90169E-15
 -1      1824 3.76949E-03-5.92927E-04-7.45184E-15
 -1      1825 3.55448E-03-5.59255E-04-6.67111E-15
 -1      1826 3.91930E-03-5.90149E-04-8.05063E-15
 -1      1827 4.06963E-03-5.86960E-04-8.67135E-15
 -1      1828 3.84650E-03-5.54545E-04-7.79825E-15
 -1      1829 4.21331E-03-5.83534E-04-9.28271E-15
 -1      1830 4.35756E-03-5.79776E-04-9.91309E-15
 -1      1831 4.14003E-03-5.48164E-04-9.00807E-15
 -1      1832 4.50239E-03-5.75661E-04-1.05619E-14
 -1      1833 4.64795E-03-5.71246E-04-1.12299E-14
 -1      1834 4.42811E-03-5.40481E-04-1.02666E-14
 -1      1835 4.79421E-03-5.66502E-04-1.19163E-14
 -1      1836 4.94139E-03-5.61505E-04-1.26200E-14
 -1      1837 4.71819E-03-5.31467E-04-1.16008E-14
 -1      1838 5.08946E-03-5.56243E-04-1.33407E-14
 -1      1839 5.23873E-03-5.50831E-04-1.40782E-14
 -1      1840 5.01067E-03-5.21275E-04-1.30067E-14
 -1      1841 5.38910E-03-5.45306E-04-1.48314E-14
 -1      1842 5.54106E-03-5.39850E-04-1.56008E-14
 -1      1843 5.30608E-03-5.10241E-04-1.44793E-14
 -1      1844 5.69440E-03-5.34623E-04-1.63838E-14
 -1      1845 5.84981E-03-5.29915E-04-1.71824E-14
 -1      1846 5.60505E-03-4.99117E-04-1.60149E-14
 -1      1847 6.01488E-03-5.25983E-04-1.80375E-14
 -1      1848 6.18287E-03-5.23678E-04-1.89073E-14
 -1      1849 5.91598E-03-4.89279E-04-1.76512E-14
 -1      1850 6.34515E-03-5.23905E-04-1.97485E-14
 -1      1851 6.51078E-03-5.27429E-04-2.06018E-14
 -1      1852 6.23240E-03-4.84451E-04-1.93465E-14
 -1      1853 6.67931E-03-5.35910E-04-2.14670E-14
 -1      1854 6.85190E-03-5.51021E-04-2.23414E-14
 -1      1855 6.54772E-03-4.90754E-04-2.10510E-14
 -1      1856 7.02856E-03-5.75456E-04-2.32268E-14
 -1      1857 7.21000E-03-6.12289E-04-2.41227E-14
 -1      1858 6.87204E-03-5.18894E-04-2.28007E-14
 -1      1859 7.39775E-03-6.65018E-04-2.50266E-14
 -1      1860 7.59096E-03-7.39041E-04-2.59403E-14
 -1      1861 7.21078E-03-5.87221E-04-2.45898E-14
 -1      1862 7.79417E-03-8.37165E-04-2.68627E-14
 -1      1863 8.00277E-03-9.66493E-04-2.77948E-14
 -1      1864 7.57521E-03-7.24359E-04-2.64169E-14
 -1      1865 8.21360E-03-1.11644E-03-2.86909E-14
 -1      1866 8.42613E-03-1.29626E-03-2.95976E-14
 -1      1867 7.97181E-03-9.59861E-04-2.82350E-14
 -1      1868 8.65822E-03-1.50653E-03-3.05658E-14
 -1      1869 8.88691E-03-1.72151E-03-3.15460E-14
 -1      1870 8.41762E-03-1.32239E-03-3.00988E-14
 -1      1871 9.48222E-03-2.12195E-03-3.42881E-14
 -1      1872 9.66296E-03-2.13136E-03-3.51672E-14
 -1      1873 1.03024E-02-1.82572E-03-3.82627E-14
 -1      1874 1.05298E-02-1.68705E-03-3.93487E-14
 -1      1875 1.07583E-02-1.56905E-03-4.04481E-14
 -1      1876 1.09763E-02-1.47839E-03-4.15647E-14
 -1      1877 1.06976E-02-1.56010E-03-3.99361E-14
 -1      1878 1.11903E-02-1.42115E-03-4.26926E-14
 -1      1879 1.13930E-02-1.39231E-03-4.38356E-14
 -1      1880 1.11353E-02-1.38859E-03-4.21651E-14
 -1      1881 1.15998E-02-1.39067E-03-4.50542E-14
 -1      1882 1.17980E-02-1.41150E-03-4.62857E-14
 -1      1883 1.15363E-02-1.34175E-03-4.45107E-14
 -1      1884 1.19814E-02-1.44828E-03-4.74684E-14
 -1      1885 1.21597E-02-1.49744E-03-4.86639E-14
 -1      1886 1.19027E-02-1.38865E-03-4.69118E-14
 -1      1887 1.23335E-02-1.55576E-03-4.98696E-14
 -1      1888 1.25036E-02-1.62093E-03-5.10878E-14
 -1      1889 1.22399E-02-1.48965E-03-4.93021E-14
 -1      1890 1.26700E-02-1.69082E-03-5.23140E-14
 -1      1891 1.28336E-02-1.76415E-03-5.35455E-14
 -1      1892 1.25646E-02-1.62106E-03-5.17331E-14
 -1      1893 1.29941E-02-1.83972E-03-5.47874E-14
 -1      1894 1.31524E-02-1.91681E-03-5.60356E-14
 -1      1895 1.28804E-02-1.76822E-03-5.41980E-14
 -1      1896 1.33083E-02-1.99483E-03-5.72912E-14
 -1      1897 1.34626E-02-2.07335E-03-5.85546E-14
 -1      1898 1.31893E-02-1.92273E-03-5.66953E-14
 -1      1899 1.36150E-02-2.15211E-03-5.98255E-14
 -1      1900 1.37662E-02-2.23088E-03-6.11025E-14
 -1      1901 1.34926E-02-2.08005E-03-5.92200E-14
 -1      1902 1.39234E-02-2.31348E-03-6.24517E-14
 -1      1903 1.40795E-02-2.39582E-03-6.38102E-14
 -1      1904 1.37989E-02-2.24176E-03-6.18399E-14
 -1      1905 1.42271E-02-2.47398E-03-6.51058E-14
 -1      1906 1.43740E-02-2.55180E-03-6.64080E-14
 -1      1907 1.41016E-02-2.40273E-03-6.44836E-14
 -1      1908 1.45202E-02-2.62930E-03-6.77163E-14
 -1      1909 1.46658E-02-2.70644E-03-6.90271E-14
 -1      1910 1.43941E-02-2.55855E-03-6.70868E-14
 -1      1911 1.48108E-02-2.78324E-03-7.03378E-14
 -1      1912 1.49555E-02-2.85967E-03-7.16471E-14
 -1      1913 1.46846E-02-2.71297E-03-6.97004E-14
 -1      1914 1.50998E-02-2.93575E-03-7.29600E-14
 -1      1915 1.52437E-02-3.01148E-03-7.42752E-14
 -1      1916 1.49735E-02-2.86595E-03-7.23207E-14
 -1      1917 1.53874E-02-3.08687E-03-7.55924E-14
 -1      1918 1.55309E-02-3.16191E-03-7.69116E-14
 -1      1919 1.52613E-02-3.01750E-03-7.49447E-14
 -1      1920 1.56742E-02-3.23664E-03-7.82308E-14
 -1      1921 1.58173E-02-3.31106E-03-7.95541E-14
 -1      1922 1.55481E-02-3.16767E-03-7.75803E-14
 -1      1923 1.59823E-02-3.39626E-03-8.11341E-14
 -1      1924 1.35781E-03 5.11125E-04-6.68736E-16
 -1      1925 1.21782E-03 4.86278E-04-5.16717E-16
 -1      1926 1.63561E-03 5.49467E-04-1.03567E-15
 -1      1927 1.49696E-03 5.32095E-04-8.41720E-16
 -1      1928 1.41068E-03 4.86265E-04-8.00141E-16
 -1      1929 1.91222E-03 5.75896E-04-1.48648E-15
 -1      1930 1.77399E-03 5.63994E-04-1.25023E-15
 -1      1931 1.69130E-03 5.21209E-04-1.19475E-15
 -1      1932 2.18886E-03 5.93528E-04-2.02189E-15
 -1      1933 2.05050E-03 5.85676E-04-1.74374E-15
 -1      1934 1.97075E-03 5.45077E-04-1.67313E-15
 -1      1935 2.46622E-03 6.04645E-04-2.64250E-15
 -1      1936 2.32744E-03 5.99797E-04-2.32130E-15
 -1      1937 2.24998E-03 5.60754E-04-2.23571E-15
 -1      1938 2.74468E-03 6.10943E-04-3.34952E-15
 -1      1939 2.60531E-03 6.08317E-04-2.98531E-15
 -1      1940 2.52962E-03 5.70371E-04-2.88321E-15
 -1      1941 3.02444E-03 6.13690E-04-4.14187E-15
 -1      1942 2.88440E-03 6.12699E-04-3.73535E-15
 -1      1943 2.81002E-03 5.75514E-04-3.61603E-15
 -1      1944 3.30560E-03 6.13845E-04-5.01858E-15
 -1      1945 3.16485E-03 6.14044E-04-4.56953E-15
 -1      1946 3.09137E-03 5.77372E-04-4.43364E-15
 -1      1947 3.58820E-03 6.12140E-04-5.97969E-15
 -1      1948 3.44672E-03 6.13187E-04-5.48865E-15
 -1      1949 3.37382E-03 5.76839E-04-5.33456E-15
 -1      1950 3.87228E-03 6.09163E-04-7.02578E-15
 -1      1951 3.73006E-03 6.10778E-04-6.49208E-15
 -1      1952 3.65742E-03 5.74603E-04-6.31979E-15
 -1      1953 4.15788E-03 6.05424E-04-8.15656E-15
 -1      1954 4.01489E-03 6.07358E-04-7.58067E-15
 -1      1955 3.94225E-03 5.71222E-04-7.38924E-15
 -1      1956 4.44503E-03 6.01423E-04-9.36981E-15
 -1      1957 4.30126E-03 6.03425E-04-8.75314E-15
 -1      1958 4.22835E-03 5.67191E-04-8.54162E-15
 -1      1959 4.73375E-03 5.97708E-04-1.06669E-14
 -1      1960 4.58919E-03 5.99495E-04-1.00080E-14
 -1      1961 4.51580E-03 5.63011E-04-9.77728E-15
 -1      1962 5.02406E-03 5.94925E-04-1.20432E-14
 -1      1963 4.87871E-03 5.96161E-04-1.13455E-14
 -1      1964 4.80464E-03 5.59244E-04-1.10932E-14
 -1      1965 5.31587E-03 5.93845E-04-1.34990E-14
 -1      1966 5.16979E-03 5.94128E-04-1.27615E-14
 -1      1967 5.09490E-03 5.56565E-04-1.24898E-14
 -1      1968 5.60898E-03 5.95347E-04-1.50285E-14
 -1      1969 5.46230E-03 5.94226E-04-1.42542E-14
 -1      1970 5.38658E-03 5.55779E-04-1.39627E-14
 -1      1971 5.90298E-03 6.00340E-04-1.66313E-14
 -1      1972 5.75593E-03 5.97365E-04-1.58212E-14
 -1      1973 5.67954E-03 5.57801E-04-1.55097E-14
 -1      1974 6.19722E-03 6.09580E-04-1.83058E-14
 -1      1975 6.05016E-03 6.04407E-04-1.74596E-14
 -1      1976 5.97351E-03 5.63558E-04-1.71294E-14
 -1      1977 6.49071E-03 6.23363E-04-2.00448E-14
 -1      1978 6.34418E-03 6.15922E-04-1.91678E-14
 -1      1979 6.26799E-03 5.73785E-04-1.88178E-14
 -1      1980 6.78218E-03 6.41080E-04-2.18477E-14
 -1      1981 6.63684E-03 6.31816E-04-2.09381E-14
 -1      1982 6.56219E-03 5.88683E-04-2.05715E-14
 -1      1983 7.07012E-03 6.60710E-04-2.37098E-14
 -1      1984 6.92674E-03 6.50838E-04-2.27714E-14
 -1      1985 6.85500E-03 6.07443E-04-2.23858E-14
 -1      1986 7.35304E-03 6.78396E-04-2.56294E-14
 -1      1987 7.21233E-03 6.70091E-04-2.46626E-14
 -1      1988 7.14505E-03 6.27707E-04-2.42592E-14
 -1      1989 7.62984E-03 6.88345E-04-2.76053E-14
 -1      1990 7.49226E-03 6.84732E-04-2.66100E-14
 -1      1991 7.43092E-03 6.45140E-04-2.61872E-14
 -1      1992 7.90021E-03 6.83364E-04-2.96358E-14
 -1      1993 7.76577E-03 6.88159E-04-2.86137E-14
 -1      1994 7.71150E-03 6.53411E-04-2.81730E-14
 -1      1995 8.16506E-03 6.56114E-04-3.17201E-14
 -1      1996 8.03315E-03 6.72911E-04-3.06716E-14
 -1      1997 7.98647E-03 6.44871E-04-3.02142E-14
 -1      1998 8.42654E-03 6.00878E-04-3.38583E-14
 -1      1999 8.29594E-03 6.32225E-04-3.27828E-14
 -1      2000 8.25678E-03 6.12041E-04-3.23089E-14
 -1      2001 8.68764E-03 5.15202E-04-3.60524E-14
 -1      2002 8.55682E-03 5.61848E-04-3.49487E-14
 -1      2003 8.52457E-03 5.49570E-04-3.44575E-14
 -1      2004 8.95148E-03 4.00661E-04-3.82942E-14
 -1      2005 8.81895E-03 4.61313E-04-3.71663E-14
 -1      2006 8.79279E-03 4.55885E-04-3.66591E-14
 -1      2007 9.22045E-03 2.62355E-04-4.05817E-14
 -1      2008 9.08516E-03 3.34093E-04-3.94321E-14
 -1      2009 9.06421E-03 3.33705E-04-3.89087E-14
 -1      2010 9.49575E-03 1.07410E-04-4.29048E-14
 -1      2011 9.35727E-03 1.86524E-04-4.17387E-14
 -1      2012 9.34070E-03 1.89153E-04-4.12033E-14
 -1      2013 9.77734E-03-5.68302E-05-4.52598E-14
 -1      2014 9.63582E-03 2.60553E-05-4.40780E-14
 -1      2015 9.62281E-03 2.99262E-05-4.35328E-14
 -1      2016 1.00643E-02-2.24209E-04-4.76410E-14
 -1      2017 9.92027E-03-1.40425E-04-4.64477E-14
 -1      2018 9.90997E-03-1.36587E-04-4.58912E-14
 -1      2019 1.03551E-02-3.90445E-04-5.00520E-14
 -1      2020 1.02094E-02-3.07655E-04-4.88426E-14
 -1      2021 1.02010E-02-3.04588E-04-4.82771E-14
 -1      2022 1.06484E-02-5.53157E-04-5.24852E-14
 -1      2023 1.05016E-02-4.72330E-04-5.12663E-14
 -1      2024 1.04943E-02-4.70333E-04-5.06900E-14
 -1      2025 1.09427E-02-7.11488E-04-5.49422E-14
 -1      2026 1.07955E-02-6.32889E-04-5.37111E-14
 -1      2027 1.07888E-02-6.31963E-04-5.31263E-14
 -1      2028 1.12370E-02-8.65589E-04-5.74152E-14
 -1      2029 1.10899E-02-7.89043E-04-5.61759E-14
 -1      2030 1.10833E-02-7.89023E-04-5.55856E-14
 -1      2031 1.15307E-02-1.01616E-03-5.99072E-14
 -1      2032 1.13840E-02-9.41272E-04-5.86587E-14
 -1      2033 1.13773E-02-9.41922E-04-5.80636E-14
 -1      2034 1.18234E-02-1.16411E-03-6.24140E-14
 -1      2035 1.16772E-02-1.09041E-03-6.11605E-14
 -1      2036 1.16703E-02-1.09149E-03-6.05618E-14
 -1      2037 1.21149E-02-1.31033E-03-6.49303E-14
 -1      2038 1.19693E-02-1.23739E-03-6.36714E-14
 -1      2039 1.19622E-02-1.23868E-03-6.30716E-14
 -1      2040 1.24051E-02-1.45560E-03-6.74537E-14
 -1      2041 1.22601E-02-1.38305E-03-6.61917E-14
 -1      2042 1.22528E-02-1.38439E-03-6.55919E-14
 -1      2043 1.26941E-02-1.60056E-03-6.99785E-14
 -1      2044 1.25497E-02-1.52809E-03-6.87153E-14
 -1      2045 1.25423E-02-1.52935E-03-6.81149E-14
 -1      2046 1.29822E-02-1.74568E-03-7.25034E-14
 -1      2047 1.28383E-02-1.67308E-03-7.12411E-14
 -1      2048 1.28308E-02-1.67417E-03-7.06407E-14
 -1      2049 1.32694E-02-1.89132E-03-7.50325E-14
 -1      2050 1.31259E-02-1.81842E-03-7.37669E-14
 -1      2051 1.31185E-02-1.81927E-03-7.31650E-14
 -1      2052 1.35559E-02-2.03770E-03-7.75751E-14
 -1      2053 1.34127E-02-1.96441E-03-7.63040E-14
 -1      2054 1.34054E-02-1.96498E-03-7.56971E-14
 -1      2055 1.38144E-02-2.17040E-03-7.99212E-14
 -1      2056 1.36714E-02-2.09671E-03-7.86422E-14
 -1      2057 1.36641E-02-2.09703E-03-7.80353E-14
 -1      2058 1.38949E-02-2.21528E-03-8.01728E-14
 -1      2059 1.42905E-02-2.44014E-03-8.03337E-14
 -1      2060 1.42167E-02-2.39871E-03-8.02931E-14
 -1      2061 1.41430E-02-2.35714E-03-8.02578E-14
 -1      2062 1.40695E-02-2.31544E-03-8.02230E-14
 -1      2063 1.40562E-02-2.31414E-03-7.91682E-14
 -1      2064 1.39679E-02-2.25726E-03-8.02084E-14
 -1      2065 1.44356E-02-2.52116E-03-8.04059E-14
 -1      2066 1.43630E-02-2.48072E-03-8.03701E-14
 -1      2067 1.42026E-02-2.39629E-03-7.92434E-14
 -1      2068 1.45831E-02-2.60300E-03-8.04744E-14
 -1      2069 1.45094E-02-2.56215E-03-8.04406E-14
 -1      2070 1.43491E-02-2.47787E-03-7.93159E-14
 -1      2071 1.47299E-02-2.68434E-03-8.05420E-14
 -1      2072 1.46566E-02-2.64372E-03-8.05086E-14
 -1      2073 1.44966E-02-2.55958E-03-7.93839E-14
 -1      2074 1.48759E-02-2.76534E-03-8.06097E-14
 -1      2075 1.48030E-02-2.72487E-03-8.05753E-14
 -1      2076 1.46433E-02-2.64083E-03-7.94477E-14
 -1      2077 1.50208E-02-2.84618E-03-8.06711E-14
 -1      2078 1.49485E-02-2.80576E-03-8.06420E-14
 -1      2079 1.47891E-02-2.72175E-03-7.95093E-14
 -1      2080 1.51647E-02-2.92711E-03-8.07230E-14
 -1      2081 1.50929E-02-2.88661E-03-8.06985E-14
 -1      2082 1.49338E-02-2.80256E-03-7.95649E-14
 -1      2083 1.53053E-02-3.00697E-03-8.07596E-14
 -1      2084 1.52351E-02-2.96698E-03-8.07408E-14
 -1      2085 1.50761E-02-2.88280E-03-7.96051E-14
 -1      2086 1.54478E-02-3.08873E-03-8.07861E-14
 -1      2087 1.53766E-02-3.04778E-03-8.07745E-14
 -1      2088 1.52176E-02-2.96338E-03-7.96312E-14
 -1      2089 1.55903E-02-3.17113E-03-8.07922E-14
 -1      2090 1.55190E-02-3.12985E-03-8.07915E-14
 -1      2091 1.53600E-02-3.04519E-03-7.96450E-14
 -1      2092 1.57334E-02-3.25421E-03-8.07842E-14
 -1      2093 1.56617E-02-3.21259E-03-8.07893E-14
 -1      2094 1.55024E-02-3.12767E-03-7.96437E-14
 -1      2095 1.10749E-03 4.68007E-04-4.02998E-16
 -1      2096 9.65177E-04 4.33789E-04-2.88750E-16
 -1      2097 9.33024E-04 4.04369E-04-3.01896E-16
 -1      2098 1.15780E-03 4.47224E-04-5.08952E-16
 -1      2099 1.10616E-02-7.72324E-04-4.02975E-14
 -1      2100 1.12415E-02-8.44328E-04-4.06310E-14
 -1      2101 1.01803E-02-3.36091E-04-3.85294E-14
 -1      2102 1.03950E-02-4.58729E-04-3.90334E-14
 -1      2103 1.16410E-02-9.63058E-04-4.09483E-14
 -1      2104 1.16819E-02-9.83660E-04-4.09966E-14
 -1      2105 1.06708E-02-5.95458E-04-3.95782E-14
 -1      2106 1.08756E-02-6.88696E-04-3.99362E-14
 -1      2107 1.09545E-02-7.75732E-04-4.06215E-14
 -1      2108 3.27256E-04-8.89358E-05-1.20116E-16
 -1      2109 3.29337E-04-1.02114E-04-1.16023E-16
 -1      2110 4.46352E-04-1.45040E-04-1.69163E-16
 -1      2111 4.40121E-04-1.09867E-04-1.80249E-16
 -1      2112 9.74504E-03-7.32044E-05-3.72718E-14
 -1      2113 9.94452E-03-1.93028E-04-3.78547E-14
 -1      2114 9.35791E-03 1.30460E-04-3.59726E-14
 -1      2115 9.52596E-03 4.47936E-05-3.65807E-14
 -1      2116 9.01558E-03 2.37973E-04-3.46270E-14
 -1      2117 9.16779E-03 2.01370E-04-3.52480E-14
 -1      2118 8.68501E-03 2.33439E-04-3.32840E-14
 -1      2119 8.83619E-03 2.51883E-04-3.39071E-14
 -1      2120 8.31766E-03 1.15461E-04-3.20132E-14
 -1      2121 8.48455E-03 1.80349E-04-3.25702E-14
 -1      2122 7.94270E-03-5.42227E-05-3.09047E-14
 -1      2123 8.11703E-03 2.87887E-05-3.13675E-14
 -1      2124 7.57704E-03-2.24459E-04-3.00057E-14
 -1      2125 7.75922E-03-1.38338E-04-3.04549E-14
 -1      2126 7.86589E-03-9.93500E-05-3.03606E-14
 -1      2127 7.17817E-03-3.81723E-04-2.92800E-14
 -1      2128 7.34213E-03-3.21998E-04-2.95389E-14
 -1      2129 6.92240E-03-4.69505E-04-2.88053E-14
 -1      2130 7.03872E-03-4.31693E-04-2.90420E-14
 -1      2131 7.10935E-03-4.15462E-04-2.87556E-14
 -1      2132 6.78073E-03-5.23861E-04-2.85422E-14
 -1      2133 6.82031E-03-5.05923E-04-2.85837E-14
 -1      2134 6.82973E-03-5.74173E-04-2.86921E-14
 -1      2135 6.78650E-03-5.51220E-04-2.86148E-14
 -1      2136 7.04110E-03-6.57272E-04-2.89624E-14
 -1      2137 6.91856E-03-6.13046E-04-2.88154E-14
 -1      2138 7.41265E-03-8.35859E-04-2.95696E-14
 -1      2139 7.22643E-03-7.43145E-04-2.92635E-14
 -1      2140 7.85365E-03-1.09118E-03-3.03313E-14
 -1      2141 7.63798E-03-9.61121E-04-2.99536E-14
 -1      2142 8.33618E-03-1.42231E-03-3.13019E-14
 -1      2143 8.10876E-03-1.25945E-03-3.08249E-14
 -1      2144 8.80988E-03-1.75306E-03-3.23720E-14
 -1      2145 8.59260E-03-1.59482E-03-3.18224E-14
 -1      2146 9.24228E-03-2.01376E-03-3.37727E-14
 -1      2147 9.06731E-03-1.92100E-03-3.31532E-14
 -1      2148 9.60037E-03-2.06418E-03-3.50630E-14
 -1      2149 9.43291E-03-2.06219E-03-3.44553E-14
 -1      2150 9.98104E-03-1.93945E-03-3.63882E-14
 -1      2151 9.80473E-03-2.01905E-03-3.57802E-14
 -1      2152 1.03850E-02-1.70072E-03-3.76572E-14
 -1      2153 1.01963E-02-1.82108E-03-3.70997E-14
 -1      2154 1.08054E-02-1.44121E-03-3.87949E-14
 -1      2155 1.06057E-02-1.56661E-03-3.82450E-14
 -1      2156 1.12367E-02-1.20617E-03-3.98643E-14
 -1      2157 1.10544E-02-1.29522E-03-3.94865E-14
 -1      2158 1.15291E-02-1.08353E-03-4.03851E-14
 -1      2159 1.14049E-02-1.13620E-03-4.00996E-14
 -1      2160 1.16773E-02-1.01304E-03-4.09750E-14
 -1      2161 1.16255E-02-1.03726E-03-4.07531E-14
 -1      2162 1.14390E-02-9.10682E-04-4.09057E-14
 -1      2163 1.15586E-02-9.39553E-04-4.09805E-14
 -1      2164 9.71610E-03-2.09236E-03-3.54938E-14
 -1      2165 9.80942E-03-2.09839E-03-3.59031E-14
 -1      2166 1.00267E-02-1.99740E-03-3.69559E-14
 -1      2167 1.01691E-02-1.87910E-03-3.75275E-14
 -1      2168 6.07627E-04-2.97944E-04-1.76739E-16
 -1      2169 1.00262E-02-2.84990E-04-3.84837E-14
 -1      2170 6.63400E-04-2.92199E-04-2.39419E-16
 -1      2171 9.34911E-03-2.07477E-03-3.35850E-14
 -1      2172 9.39971E-03-2.08287E-03-3.40502E-14
 -1      2173 9.15752E-03-1.95318E-03-3.26751E-14
 -1      2174 1.58564E-02-3.32764E-03-8.04815E-14
 -1      2175 1.38808E-02-2.21440E-03-7.91169E-14
 -1      2176 1.16053E-02-9.76344E-04-4.14991E-14
 -1      2177 1.58268E-02-3.30924E-03-8.06671E-14
 -1      2178 1.57627E-02-3.27249E-03-8.05999E-14
 -1      2179 1.56031E-02-3.18735E-03-7.94554E-14
 -1      2180 1.56618E-02-3.22390E-03-7.90867E-14
 -1      2181 1.13383E-02-9.11734E-04-4.12585E-14
 -1      2182 1.05110E-02-5.64284E-04-3.97100E-14
 -1      2183 1.16916E-02-1.00759E-03-4.14420E-14
 -1      2184 1.15822E-02-1.05265E-03-4.10455E-14
 -1      2185 1.13219E-02-1.15483E-03-4.04372E-14
 -1      2186 1.09297E-02-1.35256E-03-3.94981E-14
 -1      2187 1.04794E-02-1.62990E-03-3.82109E-14
 -1      2188 1.00835E-02-1.88834E-03-3.69050E-14
 -1      2189 9.70885E-03-2.06095E-03-3.54749E-14
 -1      2190 9.36053E-03-2.05814E-03-3.40781E-14
 -1      2191 8.96888E-03-1.84108E-03-3.26203E-14
 -1      2192 8.50405E-03-1.48745E-03-3.13310E-14
 -1      2193 8.01801E-03-1.14321E-03-3.03256E-14
 -1      2194 7.55020E-03-8.57284E-04-2.94558E-14
 -1      2195 7.14119E-03-6.62125E-04-2.87760E-14
 -1      2196 6.87253E-03-5.63396E-04-2.83543E-14
 -1      2197 6.86262E-03-4.86644E-04-2.83019E-14
 -1      2198 7.46714E-03-2.79903E-04-2.94509E-14
 -1      2199 8.21935E-03 7.31926E-05-3.14498E-14
 -1      2200 8.58685E-03 2.17882E-04-3.28065E-14
 -1      2201 8.90923E-03 2.57024E-04-3.42414E-14
 -1      2202 9.60127E-03-2.01734E-05-3.71108E-14
 -1      2203 9.23602E-03 1.72280E-04-3.56888E-14
 -1      2204 6.77388E-03-5.20861E-04-2.81580E-14
 -1      2205 8.96350E-03-1.81129E-03-3.22024E-14
 -1      2206 5.47986E-04-5.52144E-05-2.67513E-16
 -1      2207 5.49010E-04-7.19137E-05-2.66876E-16
 -1      2208 5.50411E-04-8.92232E-05-2.65426E-16
 -1      2209 5.52252E-04-1.07190E-04-2.63027E-16
 -1      2210 6.65500E-04-9.53319E-05-3.61107E-16
 -1      2211 5.46617E-04 8.85491E-06-2.63285E-16
 -1      2212 5.46599E-04-6.95919E-06-2.65345E-16
 -1      2213 5.47359E-04 4.08197E-05-2.57119E-16
 -1      2214 5.46866E-04 2.47680E-05-2.60534E-16
 -1      2215 6.61584E-04 1.99081E-05-3.55605E-16
 -1      2216 5.49161E-04 7.34010E-05-2.48269E-16
 -1      2217 5.48112E-04 5.69279E-05-2.53202E-16
 -1      2218 6.62892E-04 5.76979E-05-3.46863E-16
 -1      2219 5.52512E-04 1.08843E-04-2.35529E-16
 -1      2220 5.50611E-04 9.07815E-05-2.42455E-16
 -1      2221 6.65722E-04 9.71083E-05-3.34314E-16
 -1      2222 5.58321E-04 1.48161E-04-2.18128E-16
 -1      2223 5.55044E-04 1.27941E-04-2.27615E-16
 -1      2224 6.70763E-04 1.39832E-04-3.16790E-16
 -1      2225 5.68589E-04 1.93727E-04-1.93598E-16
 -1      2226 5.62744E-04 1.70038E-04-2.06961E-16
 -1      2227 6.79312E-04 1.87350E-04-2.92721E-16
 -1      2228 5.87897E-04 2.49322E-04-1.59202E-16
 -1      2229 5.76825E-04 2.20074E-04-1.78040E-16
 -1      2230 6.94187E-04 2.42251E-04-2.59788E-16
 -1      2231 6.41926E-04 3.01083E-04-1.48563E-16
 -1      2232 6.14255E-04 2.73604E-04-1.55773E-16
 -1      2233 7.31364E-04 2.97524E-04-2.36681E-16
 -1      2234 7.88320E-04 3.49368E-04-2.27154E-16
 -1      2235 9.22708E-03-2.00512E-03-3.33742E-14
 -1      2236 9.38497E-03-2.07010E-03-3.40795E-14
 -1      2237 1.06439E-02-1.55147E-03-3.94214E-14
 -1      2238 1.08737E-02-1.43452E-03-4.05232E-14
 -1      2239 9.14983E-04-3.45937E-04-4.62331E-16
 -1      2240 1.05905E-03-3.79100E-04-6.08847E-16
 -1      2241 9.88182E-03-2.27002E-04-3.84361E-14
 -1      2242 1.00911E-02-3.64723E-04-3.91171E-14
 -1      2243 1.12410E-02-9.18649E-04-4.17493E-14
 -1      2244 1.14263E-02-9.67739E-04-4.20228E-14
 -1      2245 1.20229E-03-4.07285E-04-7.76912E-16
 -1      2246 1.34508E-03-4.30933E-04-9.66851E-16
 -1      2247 1.11686E-03-3.59841E-04-7.12646E-16
 -1      2248 1.48725E-03-4.50879E-04-1.17841E-15
 -1      2249 1.62903E-03-4.67401E-04-1.41212E-15
 -1      2250 1.40317E-03-4.06143E-04-1.09624E-15
 -1      2251 1.77754E-03-4.81790E-04-1.68107E-15
 -1      2252 1.92580E-03-4.93392E-04-1.97380E-15
 -1      2253 1.69544E-03-4.39424E-04-1.57898E-15
 -1      2254 2.06687E-03-5.02349E-04-2.27486E-15
 -1      2255 2.20786E-03-5.09444E-04-2.59757E-15
 -1      2256 1.98679E-03-4.61847E-04-2.15278E-15
 -1      2257 2.34886E-03-5.15018E-04-2.94167E-15
 -1      2258 2.48988E-03-5.19208E-04-3.30709E-15
 -1      2259 2.27055E-03-4.75902E-04-2.79892E-15
 -1      2260 2.63101E-03-5.22259E-04-3.69351E-15
 -1      2261 2.77224E-03-5.24278E-04-4.10075E-15
 -1      2262 2.55419E-03-4.84195E-04-3.52985E-15
 -1      2263 2.91362E-03-5.25437E-04-4.52803E-15
 -1      2264 3.05515E-03-5.25820E-04-4.97612E-15
 -1      2265 2.83798E-03-4.88176E-04-4.34334E-15
 -1      2266 3.19687E-03-5.25541E-04-5.44454E-15
 -1      2267 3.33878E-03-5.24664E-04-5.93313E-15
 -1      2268 3.12210E-03-4.88909E-04-5.23827E-15
 -1      2269 3.48091E-03-5.23261E-04-6.44210E-15
 -1      2270 3.62326E-03-5.21381E-04-6.97107E-15
 -1      2271 3.40667E-03-4.87146E-04-6.21473E-15
 -1      2272 3.77299E-03-5.18935E-04-7.54752E-15
 -1      2273 3.92300E-03-5.16048E-04-8.14557E-15
 -1      2274 3.69892E-03-4.83286E-04-7.29790E-15
 -1      2275 4.06614E-03-5.12905E-04-8.73519E-15
 -1      2276 4.20959E-03-5.09409E-04-9.34463E-15
 -1      2277 3.99183E-03-4.77704E-04-8.46393E-15
 -1      2278 4.35332E-03-5.05560E-04-9.97324E-15
 -1      2279 4.49740E-03-5.01390E-04-1.06202E-14
 -1      2280 4.27826E-03-4.70814E-04-9.68054E-15
 -1      2281 4.64179E-03-4.96896E-04-1.12870E-14
 -1      2282 4.78661E-03-4.92115E-04-1.19718E-14
 -1      2283 4.56537E-03-4.62649E-04-1.09744E-14
 -1      2284 4.93174E-03-4.87063E-04-1.26729E-14
 -1      2285 5.07736E-03-4.81788E-04-1.33930E-14
 -1      2286 4.85313E-03-4.53375E-04-1.23409E-14
 -1      2287 5.22330E-03-4.76358E-04-1.41286E-14
 -1      2288 5.36982E-03-4.70846E-04-1.48798E-14
 -1      2289 5.14139E-03-4.43279E-04-1.37781E-14
 -1      2290 5.51661E-03-4.65424E-04-1.56469E-14
 -1      2291 5.66405E-03-4.60211E-04-1.64285E-14
 -1      2292 5.42986E-03-4.32939E-04-1.52800E-14
 -1      2293 5.81908E-03-4.55360E-04-1.72663E-14
 -1      2294 5.97489E-03-4.51403E-04-1.81208E-14
 -1      2295 5.72521E-03-4.23264E-04-1.68834E-14
 -1      2296 6.12340E-03-4.49193E-04-1.89466E-14
 -1      2297 6.27274E-03-4.48931E-04-1.97855E-14
 -1      2298 6.01935E-03-4.16792E-04-1.85467E-14
 -1      2299 6.42219E-03-4.51823E-04-2.06377E-14
 -1      2300 6.57278E-03-4.58675E-04-2.15001E-14
 -1      2301 6.30420E-03-4.17400E-04-2.02239E-14
 -1      2302 6.72394E-03-4.71277E-04-2.23746E-14
 -1      2303 6.87725E-03-4.91480E-04-2.32595E-14
 -1      2304 6.58659E-03-4.31112E-04-2.19491E-14
 -1      2305 7.03296E-03-5.21457E-04-2.41535E-14
 -1      2306 7.19334E-03-5.65224E-04-2.50578E-14
 -1      2307 6.86866E-03-4.67961E-04-2.37179E-14
 -1      2308 7.36055E-03-6.24695E-04-2.59711E-14
 -1      2309 7.53747E-03-7.08458E-04-2.68937E-14
 -1      2310 7.15923E-03-5.44200E-04-2.55253E-14
 -1      2311 7.71978E-03-8.09995E-04-2.77792E-14
 -1      2312 7.91524E-03-9.46624E-04-2.86756E-14
 -1      2313 7.47142E-03-6.83900E-04-2.73242E-14
 -1      2314 1.11099E-02-1.34258E-03-4.16457E-14
 -1      2315 1.13051E-02-1.29836E-03-4.27737E-14
 -1      2316 1.14971E-02-1.28617E-03-4.39751E-14
 -1      2317 1.16771E-02-1.29682E-03-4.51927E-14
 -1      2318 1.14755E-02-1.22928E-03-4.34420E-14
 -1      2319 1.18415E-02-1.32634E-03-4.63648E-14
 -1      2320 1.20014E-02-1.36883E-03-4.75468E-14
 -1      2321 1.17960E-02-1.26671E-03-4.58155E-14
 -1      2322 1.21578E-02-1.42191E-03-4.87410E-14
 -1      2323 1.23125E-02-1.48277E-03-4.99462E-14
 -1      2324 1.20888E-02-1.35852E-03-4.81826E-14
 -1      2325 1.24654E-02-1.54930E-03-5.11604E-14
 -1      2326 1.26176E-02-1.62017E-03-5.23838E-14
 -1      2327 1.23767E-02-1.48175E-03-5.05897E-14
 -1      2328 1.27686E-02-1.69390E-03-5.36147E-14
 -1      2329 1.29192E-02-1.76982E-03-5.48554E-14
 -1      2330 1.26649E-02-1.62298E-03-5.30331E-14
 -1      2331 1.30687E-02-1.84702E-03-5.61037E-14
 -1      2332 1.32179E-02-1.92516E-03-5.73570E-14
 -1      2333 1.29543E-02-1.77381E-03-5.55120E-14
 -1      2334 1.33663E-02-2.00374E-03-5.86226E-14
 -1      2335 1.35142E-02-2.08257E-03-5.98927E-14
 -1      2336 1.32445E-02-1.92918E-03-5.80222E-14
 -1      2337 1.36688E-02-2.16535E-03-6.12314E-14
 -1      2338 1.38230E-02-2.24800E-03-6.25798E-14
 -1      2339 1.35419E-02-2.09009E-03-6.06242E-14
 -1      2340 1.39692E-02-2.32649E-03-6.38692E-14
 -1      2341 1.41150E-02-2.40471E-03-6.51630E-14
 -1      2342 1.38390E-02-2.25100E-03-6.32530E-14
 -1      2343 1.42604E-02-2.48262E-03-6.64605E-14
 -1      2344 1.44054E-02-2.56018E-03-6.77640E-14
 -1      2345 1.41282E-02-2.40716E-03-6.58374E-14
 -1      2346 1.45501E-02-2.63740E-03-6.90700E-14
 -1      2347 1.46945E-02-2.71426E-03-7.03740E-14
 -1      2348 1.44167E-02-2.56212E-03-6.84375E-14
 -1      2349 1.48386E-02-2.79077E-03-7.16818E-14
 -1      2350 1.49826E-02-2.86691E-03-7.29915E-14
 -1      2351 1.47045E-02-2.71575E-03-7.10435E-14
 -1      2352 1.51262E-02-2.94271E-03-7.43023E-14
 -1      2353 1.52698E-02-3.01815E-03-7.56167E-14
 -1      2354 1.49917E-02-2.86801E-03-7.36608E-14
 -1      2355 1.53942E-02-3.08386E-03-7.66935E-14
 -1      2356 1.55375E-02-3.15869E-03-7.80107E-14
 -1      2357 1.55081E-02-3.14042E-03-7.81947E-14
 -1      2358 1.52595E-02-3.00944E-03-7.60451E-14
 -1      2359 2.03070E-03 5.13441E-04-1.86385E-15
 -1      2360 1.88995E-03 5.03864E-04-1.60049E-15
 -1      2361 1.74904E-03 4.92034E-04-1.35827E-15
 -1      2362 1.60789E-03 4.77753E-04-1.13704E-15
 -1      2363 1.80849E-03 4.62183E-04-1.52597E-15
 -1      2364 1.46640E-03 4.60429E-04-9.36073E-16
 -1      2365 1.32439E-03 4.39821E-04-7.55675E-16
 -1      2366 1.52428E-03 4.33871E-04-1.07652E-15
 -1      2367 2.31208E-03 5.27279E-04-2.45316E-15
 -1      2368 2.17140E-03 5.21193E-04-2.14827E-15
 -1      2369 2.09195E-03 4.81194E-04-2.05828E-15
 -1      2370 2.59364E-03 5.35511E-04-3.12712E-15
 -1      2371 2.45282E-03 5.32008E-04-2.77920E-15
 -1      2372 2.37509E-03 4.93268E-04-2.67405E-15
 -1      2373 2.87569E-03 5.39608E-04-3.88527E-15
 -1      2374 2.73459E-03 5.38009E-04-3.49551E-15
 -1      2375 2.65827E-03 5.00197E-04-3.37377E-15
 -1      2376 3.15842E-03 5.40676E-04-4.72737E-15
 -1      2377 3.01697E-03 5.40470E-04-4.29604E-15
 -1      2378 2.94173E-03 5.03332E-04-4.15703E-15
 -1      2379 3.44197E-03 5.39544E-04-5.65338E-15
 -1      2380 3.30009E-03 5.40345E-04-5.18001E-15
 -1      2381 3.22563E-03 5.03688E-04-5.02431E-15
 -1      2382 3.72642E-03 5.36855E-04-6.66174E-15
 -1      2383 3.58408E-03 5.38362E-04-6.14713E-15
 -1      2384 3.51010E-03 5.02030E-04-5.97401E-15
 -1      2385 4.01184E-03 5.33137E-04-7.75435E-15
 -1      2386 3.86901E-03 5.35097E-04-7.19735E-15
 -1      2387 3.79523E-03 4.98953E-04-7.00578E-15
 -1      2388 4.29833E-03 5.28869E-04-8.92780E-15
 -1      2389 4.15495E-03 5.31044E-04-8.33060E-15
 -1      2390 4.08111E-03 4.94953E-04-8.11970E-15
 -1      2391 4.58597E-03 5.24550E-04-1.01849E-14
 -1      2392 4.44200E-03 5.26685E-04-9.54671E-15
 -1      2393 4.36785E-03 4.90490E-04-9.31568E-15
 -1      2394 4.87485E-03 5.20754E-04-1.15212E-14
 -1      2395 4.73025E-03 5.22550E-04-1.08429E-14
 -1      2396 4.65558E-03 4.86056E-04-1.05933E-14
 -1      2397 5.16507E-03 5.18175E-04-1.29363E-14
 -1      2398 5.01979E-03 5.19268E-04-1.22191E-14
 -1      2399 4.94445E-03 4.82231E-04-1.19498E-14
 -1      2400 5.45670E-03 5.17649E-04-1.44268E-14
 -1      2401 5.31071E-03 5.17604E-04-1.36717E-14
 -1      2402 5.23465E-03 4.79724E-04-1.33827E-14
 -1      2403 5.74974E-03 5.20118E-04-1.59912E-14
 -1      2404 5.60307E-03 5.18453E-04-1.51996E-14
 -1      2405 5.52636E-03 4.79390E-04-1.48913E-14
 -1      2406 6.04409E-03 5.26528E-04-1.76263E-14
 -1      2407 5.89680E-03 5.22779E-04-1.68004E-14
 -1      2408 5.81975E-03 4.82201E-04-1.64727E-14
 -1      2409 6.33942E-03 5.37602E-04-1.93298E-14
 -1      2410 6.19170E-03 5.31454E-04-1.84698E-14
 -1      2411 6.11491E-03 4.89126E-04-1.81243E-14
 -1      2412 6.63511E-03 5.53470E-04-2.10971E-14
 -1      2413 6.48733E-03 5.44960E-04-2.02054E-14
 -1      2414 6.41170E-03 5.00901E-04-1.98421E-14
 -1      2415 6.93018E-03 5.73158E-04-2.29223E-14
 -1      2416 6.78286E-03 5.62949E-04-2.20026E-14
 -1      2417 6.70964E-03 5.17624E-04-2.16215E-14
 -1      2418 7.22326E-03 5.93997E-04-2.48056E-14
 -1      2419 7.07712E-03 5.83671E-04-2.38573E-14
 -1      2420 7.00778E-03 5.38195E-04-2.34580E-14
 -1      2421 7.51281E-03 6.11178E-04-2.67434E-14
 -1      2422 7.36860E-03 6.03425E-04-2.57678E-14
 -1      2423 7.30461E-03 5.59651E-04-2.53500E-14
 -1      2424 7.79755E-03 6.17764E-04-2.87386E-14
 -1      2425 7.65582E-03 6.16290E-04-2.77346E-14
 -1      2426 7.59829E-03 5.76658E-04-2.72982E-14
 -1      2427 8.07706E-03 6.05551E-04-3.07906E-14
 -1      2428 7.93786E-03 6.14526E-04-2.97575E-14
 -1      2429 7.88726E-03 5.81559E-04-2.93043E-14
 -1      2430 8.35234E-03 5.66841E-04-3.28950E-14
 -1      2431 8.21500E-03 5.89909E-04-3.18356E-14
 -1      2432 8.17103E-03 5.65451E-04-3.13648E-14
 -1      2433 8.62575E-03 4.96672E-04-3.50525E-14
 -1      2434 8.48896E-03 5.35837E-04-3.39670E-14
 -1      2435 8.45080E-03 5.20367E-04-3.34789E-14
 -1      2436 8.90034E-03 3.94499E-04-3.72634E-14
 -1      2437 8.76259E-03 4.49428E-04-3.61525E-14
 -1      2438 8.72936E-03 4.41857E-04-3.56466E-14
 -1      2439 9.17872E-03 2.64391E-04-3.95226E-14
 -1      2440 9.03886E-03 3.32533E-04-3.83867E-14
 -1      2441 9.01002E-03 3.30667E-04-3.78670E-14
 -1      2442 9.46223E-03 1.13613E-04-4.18233E-14
 -1      2443 9.31979E-03 1.91069E-04-4.06684E-14
 -1      2444 9.29519E-03 1.92443E-04-4.01345E-14
 -1      2445 9.75077E-03-4.95722E-05-4.41584E-14
 -1      2446 9.60594E-03 3.30823E-05-4.29868E-14
 -1      2447 9.58558E-03 3.56583E-05-4.24425E-14
 -1      2448 1.00432E-02-2.17850E-04-4.65215E-14
 -1      2449 9.89663E-03-1.33449E-04-4.53364E-14
 -1      2450 9.88032E-03-1.30969E-04-4.47824E-14
 -1      2451 1.03380E-02-3.85924E-04-4.89099E-14
 -1      2452 1.01904E-02-3.02146E-04-4.77123E-14
 -1      2453 1.01777E-02-3.00380E-04-4.71481E-14
 -1      2454 1.06337E-02-5.50694E-04-5.13269E-14
 -1      2455 1.04858E-02-4.68832E-04-5.01161E-14
 -1      2456 1.04760E-02-4.67939E-04-4.95423E-14
 -1      2457 1.09293E-02-7.10881E-04-5.37674E-14
 -1      2458 1.07816E-02-6.31384E-04-5.25440E-14
 -1      2459 1.07737E-02-6.31281E-04-5.19618E-14
 -1      2460 1.12240E-02-8.66437E-04-5.62290E-14
 -1      2461 1.10768E-02-7.89210E-04-5.49959E-14
 -1      2462 1.10702E-02-7.89724E-04-5.44060E-14
 -1      2463 1.15177E-02-1.01801E-03-5.87132E-14
 -1      2464 1.13710E-02-9.42671E-04-5.74679E-14
 -1      2465 1.13650E-02-9.43612E-04-5.68727E-14
 -1      2466 1.18100E-02-1.16654E-03-6.12175E-14
 -1      2467 1.16640E-02-1.09260E-03-5.99627E-14
 -1      2468 1.16581E-02-1.09380E-03-5.93635E-14
 -1      2469 1.21010E-02-1.31299E-03-6.37299E-14
 -1      2470 1.19556E-02-1.23997E-03-6.24730E-14
 -1      2471 1.19497E-02-1.24128E-03-6.18707E-14
 -1      2472 1.23909E-02-1.45821E-03-6.62514E-14
 -1      2473 1.22461E-02-1.38571E-03-6.49900E-14
 -1      2474 1.22399E-02-1.38701E-03-6.43884E-14
 -1      2475 1.26797E-02-1.60291E-03-6.87774E-14
 -1      2476 1.25354E-02-1.53059E-03-6.75153E-14
 -1      2477 1.25290E-02-1.53180E-03-6.69125E-14
 -1      2478 1.29677E-02-1.74763E-03-7.13005E-14
 -1      2479 1.28238E-02-1.67524E-03-7.00379E-14
 -1      2480 1.28172E-02-1.67629E-03-6.94377E-14
 -1      2481 1.32549E-02-1.89276E-03-7.38275E-14
 -1      2482 1.31114E-02-1.82012E-03-7.25647E-14
 -1      2483 1.31046E-02-1.82096E-03-7.19617E-14
 -1      2484 1.35415E-02-2.03857E-03-7.63638E-14
 -1      2485 1.33983E-02-1.96556E-03-7.50929E-14
 -1      2486 1.33915E-02-1.96614E-03-7.44918E-14
 -1      2487 1.37655E-02-2.15538E-03-7.80491E-14
 -1      2488 1.42627E-02-2.43475E-03-7.82281E-14
 -1      2489 1.41888E-02-2.39376E-03-7.81917E-14
 -1      2490 1.41161E-02-2.35333E-03-7.81567E-14
 -1      2491 1.40434E-02-2.31274E-03-7.81192E-14
 -1      2492 1.40297E-02-2.31052E-03-7.70689E-14
 -1      2493 1.39695E-02-2.27131E-03-7.80824E-14
 -1      2494 1.38957E-02-2.22973E-03-7.80450E-14
 -1      2495 1.38828E-02-2.22865E-03-7.69971E-14
 -1      2496 1.15799E-02-9.98192E-04-4.21089E-14
 -1      2497 1.16543E-02-1.00532E-03-4.20751E-14
 -1      2498 1.44102E-02-2.51630E-03-7.82902E-14
 -1      2499 1.43365E-02-2.47559E-03-7.82577E-14
 -1      2500 1.41764E-02-2.39176E-03-7.71359E-14
 -1      2501 1.45568E-02-2.59740E-03-7.83514E-14
 -1      2502 1.44836E-02-2.55689E-03-7.83230E-14
 -1      2503 1.43238E-02-2.47311E-03-7.71986E-14
 -1      2504 1.47024E-02-2.67818E-03-7.84087E-14
 -1      2505 1.46297E-02-2.63781E-03-7.83804E-14
 -1      2506 1.44703E-02-2.55398E-03-7.72546E-14
 -1      2507 1.48467E-02-2.75887E-03-7.84530E-14
 -1      2508 1.47747E-02-2.71852E-03-7.84302E-14
 -1      2509 1.46157E-02-2.63455E-03-7.73006E-14
 -1      2510 1.49875E-02-2.83834E-03-7.84799E-14
 -1      2511 1.49173E-02-2.79857E-03-7.84689E-14
 -1      2512 1.47585E-02-2.71437E-03-7.73347E-14
 -1      2513 1.51300E-02-2.91957E-03-7.85015E-14
 -1      2514 1.50588E-02-2.87889E-03-7.84930E-14
 -1      2515 1.49002E-02-2.79437E-03-7.73573E-14
 -1      2516 1.52721E-02-3.00140E-03-7.85063E-14
 -1      2517 1.52010E-02-2.96040E-03-7.85050E-14
 -1      2518 1.50423E-02-2.87553E-03-7.73684E-14
 -1      2519 1.54144E-02-3.08397E-03-7.84990E-14
 -1      2520 1.53432E-02-3.04259E-03-7.85028E-14
 -1      2521 1.51841E-02-2.95737E-03-7.73665E-14
 -1      2522 5.88410E-04-2.37827E-04-2.20825E-16
 -1      2523 7.81142E-04-3.04539E-04-3.52000E-16
 -1      2524 8.40682E-04-2.93237E-04-4.30455E-16
 -1      2525 5.78912E-04-2.10010E-04-2.34513E-16
 -1      2526 1.08442E-02-7.68548E-04-4.09885E-14
 -1      2527 1.10170E-02-8.40052E-04-4.13525E-14
 -1      2528 1.03735E-02-5.33623E-04-3.99411E-14
 -1      2529 1.06197E-02-6.62782E-04-4.04915E-14
 -1      2530 1.16253E-02-1.04665E-03-4.17102E-14
 -1      2531 1.15284E-02-1.07235E-03-4.13370E-14
 -1      2532 8.13826E-03 4.10605E-05-3.09206E-14
 -1      2533 8.30917E-03 1.23613E-04-3.15623E-14
 -1      2534 1.16999E-02-1.01718E-03-4.20489E-14
 -1      2535 1.16947E-02-1.02643E-03-4.20221E-14
 -1      2536 1.16999E-02-1.03053E-03-4.26588E-14
 -1      2537 5.46811E-04-2.28565E-05-2.66714E-16
 -1      2538 5.47264E-04-3.88760E-05-2.67446E-16
 -1      2539 6.62756E-04-5.57075E-05-3.62855E-16
 -1      2540 6.61536E-04-1.76599E-05-3.60958E-16
 -1      2541 9.13480E-03 2.06912E-04-3.54277E-14
 -1      2542 9.28541E-03 1.36646E-04-3.61558E-14
 -1      2543 6.77448E-03-5.05425E-04-2.76666E-14
 -1      2544 6.76216E-03-4.97345E-04-2.75920E-14
 -1      2545 9.48668E-03 2.47301E-05-3.70240E-14
 -1      2546 9.66771E-03-9.21324E-05-3.77222E-14
 -1      2547 8.84487E-03 2.66502E-04-3.39728E-14
 -1      2548 8.98628E-03 2.50089E-04-3.46974E-14
 -1      2549 9.05128E-03 2.28945E-04-3.51550E-14
 -1      2550 8.48512E-03 1.94403E-04-3.22659E-14
 -1      2551 8.64324E-03 2.46008E-04-3.29789E-14
 -1      2552 8.38278E-03 1.69795E-04-3.17296E-14
 -1      2553 7.77450E-03-1.35538E-04-2.97304E-14
 -1      2554 7.92997E-03-5.70231E-05-3.01738E-14
 -1      2555 7.35235E-03-3.24478E-04-2.87953E-14
 -1      2556 7.56212E-03-2.36331E-04-2.92529E-14
 -1      2557 7.03581E-03-4.31776E-04-2.81678E-14
 -1      2558 7.16245E-03-3.93600E-04-2.83992E-14
 -1      2559 6.81246E-03-4.84138E-04-2.77311E-14
 -1      2560 6.90949E-03-4.66875E-04-2.79469E-14
 -1      2561 6.91601E-03-5.44835E-04-2.79468E-14
 -1      2562 6.82972E-03-5.25043E-04-2.78241E-14
 -1      2563 7.24602E-03-6.57929E-04-2.84449E-14
 -1      2564 7.06853E-03-5.92010E-04-2.81488E-14
 -1      2565 7.68074E-03-8.72256E-04-2.92150E-14
 -1      2566 7.47103E-03-7.61405E-04-2.88377E-14
 -1      2567 8.16432E-03-1.18683E-03-3.01995E-14
 -1      2568 7.93496E-03-1.02779E-03-2.97152E-14
 -1      2569 1.09869E-02-1.31818E-03-4.01024E-14
 -1      2570 1.07575E-02-1.45122E-03-3.94022E-14
 -1      2571 1.14067E-02-1.11825E-03-4.10933E-14
 -1      2572 1.12626E-02-1.17948E-03-4.08510E-14
 -1      2573 1.14830E-02-1.10253E-03-4.17558E-14
 -1      2574 1.37587E-02-2.15558E-03-7.74408E-14
 -1      2575 1.00543E-02-1.91586E-03-3.69252E-14
 -1      2576 1.03660E-02-1.72211E-03-3.82309E-14
 -1      2577 6.70368E-04-1.37775E-04-3.54805E-16
 -1      2578 5.54700E-04-1.26084E-04-2.59355E-16
 -1      2579 5.57872E-04-1.46052E-04-2.53988E-16
 -1      2580 9.02317E-04 3.77516E-04-3.09296E-16
 -1      2581 8.73246E-04 3.51156E-04-3.14757E-16
 -1      2582 1.01593E-03 4.01241E-04-4.05465E-16
 -1      2583 1.05715E-02-1.57475E-03-3.88031E-14
 -1      2584 1.10797E-02-1.30949E-03-4.11192E-14
 -1      2585 5.64332E-04-1.64813E-04-2.50356E-16
 -1      2586 5.69715E-04-1.87877E-04-2.41628E-16
 -1      2587 6.97823E-04-2.27535E-04-3.33379E-16
 -1      2588 6.80788E-04-1.81455E-04-3.45671E-16
 -1      2589 1.02277E-02-4.66066E-04-3.98921E-14
 -1      2590 1.15130E-02-1.00261E-03-4.26015E-14
 -1      2591 9.37042E-03 7.82146E-05-3.67564E-14
 -1      2592 8.62787E-03 2.58098E-04-3.28760E-14
 -1      2593 8.73358E-03 2.67239E-04-3.34239E-14
 -1      2594 8.80623E-03 2.73368E-04-3.38719E-14
 -1      2595 9.87793E-03-2.01900E-03-3.62137E-14
 -1      2596 1.22660E-03 4.31696E-04-6.29786E-16
 -1      2597 1.11383E-03 4.14777E-04-5.06797E-16
 -1      2598 1.08582E-03 3.89081E-04-5.11188E-16
 -1      2599 1.28305E-03 4.08839E-04-7.47191E-16
 -1      2600 1.36717E-02-2.11313E-03-7.63587E-14
 -1      2601 1.07127E-02-7.30331E-04-4.12207E-14
 -1      2602 9.70514E-03-2.07342E-03-3.54742E-14
 -1      2603 8.02093E-03 5.67261E-06-3.02826E-14
 -1      2604 1.12075E-02-1.22326E-03-4.12197E-14
 -1      2605 7.81720E-03-9.21754E-04-2.90915E-14
 -1      2606 7.35591E-03-6.77845E-04-2.82065E-14
 -1      2607 6.98902E-03-5.44037E-04-2.76181E-14
 -1      2608 6.76486E-03-4.77581E-04-2.72402E-14
 -1      2609 6.77910E-03-4.57181E-04-2.68875E-14
 -1      2610 6.73404E-03-4.62067E-04-2.67522E-14
 -1      2611 6.94696E-03-4.39062E-04-2.75946E-14
 -1      2612 7.24719E-03-3.46201E-04-2.82036E-14
 -1      2613 1.16797E-02-1.04342E-03-4.23154E-14
 -1      2614 1.16554E-02-1.06289E-03-4.26077E-14
 -1      2615 1.17200E-02-1.05232E-03-4.29239E-14
 -1      2616 1.11456E-02-9.06280E-04-4.21183E-14
 -1      2617 9.75553E-03-1.66903E-04-3.83473E-14
 -1      2618 6.78816E-03-4.92116E-04-2.72604E-14
 -1      2619 7.63087E-03-1.82889E-04-2.90684E-14
 -1      2620 8.69771E-03-1.59928E-03-3.14609E-14
 -1      2621 9.01623E-03-1.86019E-03-3.25960E-14
 -1      2622 8.61288E-03-1.53533E-03-3.12808E-14
 -1      2623 8.39666E-03-1.36408E-03-3.07699E-14
 -1      2624 9.54024E-03-2.09808E-03-3.47601E-14
 -1      2625 1.54789E-02-3.12223E-03-7.83803E-14
 -1      2626 1.53194E-02-3.03670E-03-7.72436E-14
 -1      2627 8.58182E-03-1.48037E-03-3.08981E-14
 -1      2628 8.28082E-03-1.24396E-03-3.01520E-14
 -1      2629 1.00851E-02-3.95536E-04-3.98716E-14
 -1      2630 1.03408E-02-5.50914E-04-4.07028E-14
 -1      2631 7.80447E-04 7.71898E-05-4.50472E-16
 -1      2632 7.79200E-04 5.53708E-05-4.56910E-16
 -1      2633 7.78363E-04 3.35041E-05-4.62534E-16
 -1      2634 7.77948E-04 1.18865E-05-4.67061E-16
 -1      2635 8.96791E-04 4.95732E-05-5.83477E-16
 -1      2636 7.91683E-04 1.72846E-04-4.10059E-16
 -1      2637 7.87712E-04 1.47464E-04-4.22690E-16
 -1      2638 8.03419E-04 2.28010E-04-3.78631E-16
 -1      2639 7.96886E-04 1.99629E-04-3.95815E-16
 -1      2640 9.14977E-04 2.07417E-04-5.15565E-16
 -1      2641 8.45591E-04 3.25748E-04-3.18390E-16
 -1      2642 8.19471E-04 3.01190E-04-3.20422E-16
 -1      2643 9.59763E-04 3.49918E-04-4.13908E-16
 -1      2644 1.51952E-02-2.97117E-03-7.61667E-14
 -1      2645 7.84414E-03-9.20837E-04-2.88981E-14
 -1      2646 8.12985E-03-1.09859E-03-2.93632E-14
 -1      2647 1.32011E-03-3.61799E-04-1.01418E-15
 -1      2648 1.46334E-03-3.80527E-04-1.22878E-15
 -1      2649 1.61355E-03-3.97015E-04-1.47746E-15
 -1      2650 1.76365E-03-4.10531E-04-1.74990E-15
 -1      2651 1.53223E-03-3.54834E-04-1.37681E-15
 -1      2652 1.90644E-03-4.21110E-04-2.03109E-15
 -1      2653 2.04913E-03-4.29643E-04-2.33353E-15
 -1      2654 1.82612E-03-3.80323E-04-1.91034E-15
 -1      2655 2.19173E-03-4.36489E-04-2.65682E-15
 -1      2656 2.33426E-03-4.41794E-04-3.00156E-15
 -1      2657 2.11263E-03-3.96895E-04-2.51609E-15
 -1      2658 2.47676E-03-4.45831E-04-3.36710E-15
 -1      2659 2.61923E-03-4.48715E-04-3.75358E-15
 -1      2660 2.39889E-03-4.07237E-04-3.20561E-15
 -1      2661 2.76171E-03-4.50646E-04-4.16007E-15
 -1      2662 2.90419E-03-4.51712E-04-4.58679E-15
 -1      2663 2.68494E-03-4.12880E-04-3.97794E-15
 -1      2664 3.04672E-03-4.52055E-04-5.03383E-15
 -1      2665 3.18927E-03-4.51742E-04-5.50079E-15
 -1      2666 2.97085E-03-4.14988E-04-4.83087E-15
 -1      2667 3.33189E-03-4.50870E-04-5.98844E-15
 -1      2668 3.47455E-03-4.49486E-04-6.49593E-15
 -1      2669 3.25667E-03-4.14419E-04-5.76415E-15
 -1      2670 3.62441E-03-4.47552E-04-7.04944E-15
 -1      2671 3.77435E-03-4.45163E-04-7.62534E-15
 -1      2672 3.54956E-03-4.11693E-04-6.80325E-15
 -1      2673 3.91720E-03-4.42508E-04-8.19431E-15
 -1      2674 4.06011E-03-4.39505E-04-8.78215E-15
 -1      2675 3.84237E-03-4.07249E-04-7.92588E-15
 -1      2676 4.20306E-03-4.36183E-04-9.38972E-15
 -1      2677 4.34607E-03-4.32558E-04-1.00162E-14
 -1      2678 4.12787E-03-4.01560E-04-9.10097E-15
 -1      2679 4.48906E-03-4.28660E-04-1.06626E-14
 -1      2680 4.63208E-03-4.24503E-04-1.13278E-14
 -1      2681 4.41303E-03-3.94763E-04-1.03532E-14
 -1      2682 4.77500E-03-4.20137E-04-1.20098E-14
 -1      2683 4.91788E-03-4.15575E-04-1.27100E-14
 -1      2684 4.69756E-03-3.87093E-04-1.16801E-14
 -1      2685 5.06053E-03-4.10918E-04-1.34279E-14
 -1      2686 5.20302E-03-4.06182E-04-1.41629E-14
 -1      2687 4.98094E-03-3.78884E-04-1.30794E-14
 -1      2688 5.34505E-03-4.01561E-04-1.49139E-14
 -1      2689 5.48673E-03-3.97077E-04-1.56794E-14
 -1      2690 5.26239E-03-3.70693E-04-1.45478E-14
 -1      2691 5.63464E-03-3.92894E-04-1.64997E-14
 -1      2692 5.78182E-03-3.89307E-04-1.73367E-14
 -1      2693 5.54756E-03-3.63317E-04-1.61174E-14
 -1      2694 5.92068E-03-3.87075E-04-1.81478E-14
 -1      2695 6.05850E-03-3.86061E-04-1.89724E-14
 -1      2696 5.82749E-03-3.58684E-04-1.77489E-14
 -1      2697 6.19444E-03-3.87236E-04-1.98103E-14
 -1      2698 6.32899E-03-3.90731E-04-2.06604E-14
 -1      2699 6.09300E-03-3.59388E-04-1.93977E-14
 -1      2700 6.46113E-03-3.97964E-04-2.15234E-14
 -1      2701 6.59187E-03-4.09171E-04-2.23974E-14
 -1      2702 6.34804E-03-3.69004E-04-2.10974E-14
 -1      2703 6.72006E-03-4.26073E-04-2.32809E-14
 -1      2704 6.84813E-03-4.49822E-04-2.41750E-14
 -1      2705 6.58970E-03-3.92361E-04-2.28437E-14
 -1      2706 6.97512E-03-4.82765E-04-2.50793E-14
 -1      2707 7.10594E-03-5.27488E-04-2.59923E-14
 -1      2708 6.81681E-03-4.36217E-04-2.46324E-14
 -1      2709 1.36659E-02-2.11414E-03-7.56864E-14
 -1      2710 1.35287E-02-2.04021E-03-7.50875E-14
 -1      2711 1.33855E-02-1.96750E-03-7.38216E-14
 -1      2712 1.17652E-02-1.21219E-03-4.52696E-14
 -1      2713 1.18987E-02-1.25199E-03-4.64415E-14
 -1      2714 1.20303E-02-1.30117E-03-4.76227E-14
 -1      2715 1.21631E-02-1.35774E-03-4.88143E-14
 -1      2716 1.19813E-02-1.24841E-03-4.70639E-14
 -1      2717 1.22964E-02-1.41989E-03-5.00197E-14
 -1      2718 1.24317E-02-1.48680E-03-5.12323E-14
 -1      2719 1.22232E-02-1.36300E-03-4.94493E-14
 -1      2720 1.25681E-02-1.55688E-03-5.24556E-14
 -1      2721 1.27064E-02-1.62982E-03-5.36860E-14
 -1      2722 1.24770E-02-1.49513E-03-5.18769E-14
 -1      2723 1.28456E-02-1.70445E-03-5.49213E-14
 -1      2724 1.29861E-02-1.78063E-03-5.61677E-14
 -1      2725 1.27414E-02-1.63853E-03-5.43359E-14
 -1      2726 1.31273E-02-1.85759E-03-5.74231E-14
 -1      2727 1.32694E-02-1.93527E-03-5.86868E-14
 -1      2728 1.30137E-02-1.78858E-03-5.68263E-14
 -1      2729 1.34189E-02-2.01710E-03-6.00181E-14
 -1      2730 1.35689E-02-2.09915E-03-6.13564E-14
 -1      2731 1.32985E-02-1.94595E-03-5.94109E-14
 -1      2732 1.37120E-02-2.17725E-03-6.26352E-14
 -1      2733 1.38553E-02-2.25526E-03-6.39216E-14
 -1      2734 1.35870E-02-2.10478E-03-6.20208E-14
 -1      2735 1.39986E-02-2.33307E-03-6.52151E-14
 -1      2736 1.41421E-02-2.41066E-03-6.65088E-14
 -1      2737 1.38706E-02-2.25987E-03-6.45902E-14
 -1      2738 1.42855E-02-2.48796E-03-6.78065E-14
 -1      2739 1.44289E-02-2.56497E-03-6.91083E-14
 -1      2740 1.41554E-02-2.41439E-03-6.71778E-14
 -1      2741 1.45723E-02-2.64168E-03-7.04096E-14
 -1      2742 1.47156E-02-2.71806E-03-7.17112E-14
 -1      2743 1.44408E-02-2.56799E-03-6.97738E-14
 -1      2744 1.48588E-02-2.79413E-03-7.30168E-14
 -1      2745 1.50020E-02-2.86986E-03-7.43268E-14
 -1      2746 1.47265E-02-2.72048E-03-7.23765E-14
 -1      2747 1.86956E-03 4.31607E-04-1.69732E-15
 -1      2748 1.72694E-03 4.20295E-04-1.44923E-15
 -1      2749 2.15443E-03 4.48308E-04-2.25652E-15
 -1      2750 2.01205E-03 4.40888E-04-1.96662E-15
 -1      2751 1.93197E-03 4.00425E-04-1.87350E-15
 -1      2752 1.58417E-03 4.06515E-04-1.22138E-15
 -1      2753 1.44118E-03 3.90054E-04-1.01392E-15
 -1      2754 1.64562E-03 3.78431E-04-1.37084E-15
 -1      2755 2.72354E-03 4.64435E-04-3.62369E-15
 -1      2756 2.58128E-03 4.62087E-04-3.25057E-15
 -1      2757 3.00817E-03 4.66700E-04-4.43196E-15
 -1      2758 2.86584E-03 4.65945E-04-4.01736E-15
 -1      2759 2.78941E-03 4.28329E-04-3.87698E-15
 -1      2760 3.29303E-03 4.66432E-04-5.32373E-15
 -1      2761 3.15057E-03 4.66841E-04-4.86743E-15
 -1      2762 3.07500E-03 4.29805E-04-4.71000E-15
 -1      2763 3.57824E-03 4.64326E-04-6.29638E-15
 -1      2764 3.43559E-03 4.65576E-04-5.79971E-15
 -1      2765 3.36063E-03 4.28987E-04-5.62540E-15
 -1      2766 3.86389E-03 4.60929E-04-7.35170E-15
 -1      2767 3.72101E-03 4.62763E-04-6.81405E-15
 -1      2768 3.64641E-03 4.26501E-04-6.62158E-15
 -1      2769 4.15009E-03 4.56698E-04-8.48712E-15
 -1      2770 4.00692E-03 4.58894E-04-7.90947E-15
 -1      2771 3.93242E-03 4.22837E-04-7.69891E-15
 -1      2772 4.43697E-03 4.52072E-04-9.70551E-15
 -1      2773 4.29343E-03 4.54409E-04-9.08622E-15
 -1      2774 4.21880E-03 4.18413E-04-8.85673E-15
 -1      2775 4.72470E-03 4.47528E-04-1.10024E-14
 -1      2776 4.58071E-03 4.49759E-04-1.03438E-14
 -1      2777 4.50569E-03 4.13638E-04-1.00958E-14
 -1      2778 5.01351E-03 4.43641E-04-1.23790E-14
 -1      2779 4.86895E-03 4.45463E-04-1.16815E-14
 -1      2780 4.79333E-03 4.08966E-04-1.14137E-14
 -1      2781 5.30369E-03 4.41124E-04-1.38302E-14
 -1      2782 5.15842E-03 4.42161E-04-1.30949E-14
 -1      2783 5.08205E-03 4.04957E-04-1.28090E-14
 -1      2784 5.59559E-03 4.40851E-04-1.53569E-14
 -1      2785 5.44942E-03 4.40646E-04-1.45843E-14
 -1      2786 5.37225E-03 4.02322E-04-1.42790E-14
 -1      2787 5.88957E-03 4.43821E-04-1.69548E-14
 -1      2788 5.74232E-03 4.41861E-04-1.61473E-14
 -1      2789 5.66446E-03 4.01946E-04-1.58230E-14
 -1      2790 6.18591E-03 4.51051E-04-1.86223E-14
 -1      2791 6.03747E-03 4.46837E-04-1.77799E-14
 -1      2792 5.95926E-03 4.04868E-04-1.74376E-14
 -1      2793 6.48470E-03 4.63328E-04-2.03531E-14
 -1      2794 6.33506E-03 4.56516E-04-1.94800E-14
 -1      2795 6.25718E-03 4.12185E-04-1.91199E-14
 -1      2796 6.78558E-03 4.80788E-04-2.21444E-14
 -1      2797 6.63498E-03 4.71431E-04-2.12415E-14
 -1      2798 6.55850E-03 4.24801E-04-2.08633E-14
 -1      2799 7.08752E-03 5.02276E-04-2.39912E-14
 -1      2800 6.93657E-03 4.91165E-04-2.30610E-14
 -1      2801 6.86293E-03 4.42974E-04-2.26658E-14
 -1      2802 7.38875E-03 5.24573E-04-2.58935E-14
 -1      2803 7.23841E-03 5.13634E-04-2.49359E-14
 -1      2804 7.16931E-03 4.65571E-04-2.45233E-14
 -1      2805 7.68701E-03 5.41750E-04-2.78515E-14
 -1      2806 7.53841E-03 5.34312E-04-2.68653E-14
 -1      2807 7.47544E-03 4.89096E-04-2.64347E-14
 -1      2808 7.98030E-03 5.45230E-04-2.98680E-14
 -1      2809 7.83432E-03 5.45860E-04-2.88531E-14
 -1      2810 7.77845E-03 5.06863E-04-2.84038E-14
 -1      2811 8.26808E-03 5.25145E-04-3.19385E-14
 -1      2812 8.12473E-03 5.38767E-04-3.08959E-14
 -1      2813 8.07592E-03 5.09043E-04-3.04295E-14
 -1      2814 8.55196E-03 4.73146E-04-3.40621E-14
 -1      2815 8.41018E-03 5.03533E-04-3.29937E-14
 -1      2816 8.36739E-03 4.84548E-04-3.25104E-14
 -1      2817 8.83537E-03 3.85427E-04-3.62389E-14
 -1      2818 8.69332E-03 4.33732E-04-3.51438E-14
 -1      2819 8.65519E-03 4.24629E-04-3.46433E-14
 -1      2820 9.12201E-03 2.64419E-04-3.84687E-14
 -1      2821 8.97799E-03 3.28660E-04-3.73489E-14
 -1      2822 8.94361E-03 3.26549E-04-3.68298E-14
 -1      2823 9.41400E-03 1.17710E-04-4.07451E-14
 -1      2824 9.26725E-03 1.93635E-04-3.96014E-14
 -1      2825 9.23665E-03 1.94981E-04-3.90696E-14
 -1      2826 9.71125E-03-4.49162E-05-4.30588E-14
 -1      2827 9.56206E-03 3.77457E-05-4.18973E-14
 -1      2828 9.53582E-03 3.97469E-05-4.13534E-14
 -1      2829 1.00120E-02-2.14428E-04-4.54026E-14
 -1      2830 9.86137E-03-1.29301E-04-4.42273E-14
 -1      2831 9.83999E-03-1.28154E-04-4.36727E-14
 -1      2832 1.03140E-02-3.84264E-04-4.77720E-14
 -1      2833 1.01630E-02-2.99599E-04-4.65844E-14
 -1      2834 1.01465E-02-2.99682E-04-4.60202E-14
 -1      2835 1.06152E-02-5.50652E-04-5.01729E-14
 -1      2836 1.04649E-02-4.68016E-04-4.89702E-14
 -1      2837 1.04525E-02-4.69082E-04-4.83969E-14
 -1      2838 1.09146E-02-7.12068E-04-5.25945E-14
 -1      2839 1.07653E-02-6.31998E-04-5.13797E-14
 -1      2840 1.07562E-02-6.33633E-04-5.07992E-14
 -1      2841 1.12116E-02-8.68447E-04-5.50428E-14
 -1      2842 1.10635E-02-7.90845E-04-5.38159E-14
 -1      2843 1.10566E-02-7.92696E-04-5.32259E-14
 -1      2844 1.15062E-02-1.02050E-03-5.75160E-14
 -1      2845 1.13592E-02-9.44947E-04-5.62764E-14
 -1      2846 1.13536E-02-9.46790E-04-5.56794E-14
 -1      2847 1.17987E-02-1.16923E-03-6.00119E-14
 -1      2848 1.16527E-02-1.09521E-03-5.87607E-14
 -1      2849 1.16477E-02-1.09693E-03-5.81592E-14
 -1      2850 1.20895E-02-1.31567E-03-6.25249E-14
 -1      2851 1.19443E-02-1.24268E-03-6.12670E-14
 -1      2852 1.19394E-02-1.24422E-03-6.06605E-14
 -1      2853 1.23789E-02-1.46073E-03-6.50453E-14
 -1      2854 1.22343E-02-1.38833E-03-6.37844E-14
 -1      2855 1.22293E-02-1.38968E-03-6.31786E-14
 -1      2856 1.26672E-02-1.60515E-03-6.75742E-14
 -1      2857 1.25232E-02-1.53299E-03-6.63098E-14
 -1      2858 1.25178E-02-1.53415E-03-6.57050E-14
 -1      2859 1.29547E-02-1.74948E-03-7.00950E-14
 -1      2860 1.28111E-02-1.67730E-03-6.88348E-14
 -1      2861 1.28053E-02-1.67826E-03-6.82316E-14
 -1      2862 1.32420E-02-1.89455E-03-7.25913E-14
 -1      2863 1.30986E-02-1.82217E-03-7.13265E-14
 -1      2864 1.30926E-02-1.82291E-03-7.07242E-14
 -1      2865 1.33796E-02-1.96840E-03-7.31856E-14
 -1      2866 1.39427E-02-2.26749E-03-7.59803E-14
 -1      2867 1.38698E-02-2.22707E-03-7.59473E-14
 -1      2868 1.42376E-02-2.42996E-03-7.61036E-14
 -1      2869 1.41640E-02-2.38948E-03-7.60744E-14
 -1      2870 1.37400E-02-2.15567E-03-7.57215E-14
 -1      2871 9.27078E-03 1.23875E-04-3.65195E-14
 -1      2872 9.44486E-03 1.85834E-05-3.73938E-14
 -1      2873 1.40905E-02-2.34904E-03-7.60459E-14
 -1      2874 1.40165E-02-2.30826E-03-7.60134E-14
 -1      2875 1.38569E-02-2.22509E-03-7.48942E-14
 -1      2876 1.40045E-02-2.30620E-03-7.49540E-14
 -1      2877 2.43902E-03 4.58713E-04-2.89828E-15
 -1      2878 2.29675E-03 4.54205E-04-2.56705E-15
 -1      2879 2.21800E-03 4.14909E-04-2.45852E-15
 -1      2880 2.50378E-03 4.23730E-04-3.12641E-15
 -1      2881 1.45291E-02-2.59084E-03-7.61901E-14
 -1      2882 1.44567E-02-2.55072E-03-7.61738E-14
 -1      2883 1.46703E-02-2.66971E-03-7.62147E-14
 -1      2884 1.45998E-02-2.63026E-03-7.62060E-14
 -1      2885 1.44413E-02-2.54632E-03-7.50780E-14
 -1      2886 1.48128E-02-2.75020E-03-7.62310E-14
 -1      2887 1.47417E-02-2.70990E-03-7.62233E-14
 -1      2888 1.45834E-02-2.62555E-03-7.50946E-14
 -1      2889 1.49545E-02-2.83125E-03-7.62338E-14
 -1      2890 1.48837E-02-2.79063E-03-7.62329E-14
 -1      2891 1.47254E-02-2.70580E-03-7.51033E-14
 -1      2892 8.27996E-04-2.64953E-04-4.41704E-16
 -1      2893 9.59592E-04-3.00073E-04-5.66577E-16
 -1      2894 8.17469E-04-2.38339E-04-4.50513E-16
 -1      2895 1.14640E-02-1.01482E-03-4.32187E-14
 -1      2896 1.16023E-02-1.03724E-03-4.33022E-14
 -1      2897 1.15719E-02-1.09319E-03-4.24636E-14
 -1      2898 1.14695E-02-1.12841E-03-4.22146E-14
 -1      2899 1.06150E-02-7.00922E-04-4.15977E-14
 -1      2900 1.08160E-02-7.96207E-04-4.20993E-14
 -1      2901 7.91805E-03-8.37763E-06-2.96295E-14
 -1      2902 8.10217E-03 7.45598E-05-3.03704E-14
 -1      2903 1.17007E-02-1.05419E-03-4.34622E-14
 -1      2904 1.17404E-02-1.05628E-03-4.34322E-14
 -1      2905 1.43840E-02-2.51056E-03-7.61510E-14
 -1      2906 1.43110E-02-2.47031E-03-7.61283E-14
 -1      2907 1.42978E-02-2.46707E-03-7.50459E-14
 -1      2908 1.10519E-02-8.92448E-04-4.25753E-14
 -1      2909 1.12539E-02-9.60024E-04-4.29744E-14
 -1      2910 1.06811E-03-3.21004E-04-6.87262E-16
 -1      2911 1.21143E-03-3.46045E-04-8.64597E-16
 -1      2912 1.27295E-03-3.23993E-04-9.79482E-16
 -1      2913 1.05584E-03-2.90786E-04-6.98904E-16
 -1      2914 9.66244E-03-1.21469E-04-3.83850E-14
 -1      2915 9.84794E-03-2.46453E-04-3.91063E-14
 -1      2916 7.84596E-04 1.23240E-04-4.33166E-16
 -1      2917 7.82233E-04 9.98402E-05-4.42382E-16
 -1      2918 8.99873E-04 9.92277E-05-5.67065E-16
 -1      2919 9.05562E-04 1.51272E-04-5.44961E-16
 -1      2920 6.86723E-03-4.33232E-04-2.69764E-14
 -1      2921 6.97676E-03-4.07177E-04-2.71914E-14
 -1      2922 6.80788E-03-4.77268E-04-2.68260E-14
 -1      2923 6.75039E-03-4.66410E-04-2.66696E-14
 -1      2924 8.96916E-03 2.49808E-04-3.48475E-14
 -1      2925 9.09574E-03 2.06480E-04-3.55818E-14
 -1      2926 8.26289E-03 1.44456E-04-3.10628E-14
 -1      2927 8.41162E-03 2.06781E-04-3.17627E-14
 -1      2928 8.14129E-03 1.27741E-04-3.03998E-14
 -1      2929 7.13310E-03-3.56659E-04-2.74937E-14
 -1      2930 7.29995E-03-2.97544E-04-2.78814E-14
 -1      2931 7.81986E-04-9.77656E-05-4.72915E-16
 -1      2932 7.84278E-04-1.21087E-04-4.70530E-16
 -1      2933 7.48728E-03-2.18522E-04-2.83378E-14
 -1      2934 7.66802E-03-1.29667E-04-2.88053E-14
 -1      2935 7.04316E-03-5.34149E-04-2.71564E-14
 -1      2936 6.90402E-03-4.98543E-04-2.69578E-14
 -1      2937 1.50623E-02-2.89775E-03-7.55186E-14
 -1      2938 7.02148E-03-3.61614E-04-2.68739E-14
 -1      2939 8.95781E-04 1.02603E-06-5.94278E-16
 -1      2940 7.77922E-04-9.68413E-06-4.70246E-16
 -1      2941 7.78285E-04-3.12865E-05-4.72590E-16
 -1      2942 8.07472E-04 2.67991E-04-3.44234E-16
 -1      2943 7.61449E-03-7.85185E-04-2.84056E-14
 -1      2944 8.50033E-03 2.45770E-04-3.21971E-14
 -1      2945 8.57424E-03 2.72764E-04-3.26356E-14
 -1      2946 8.37434E-03 2.31708E-04-3.15218E-14
 -1      2947 1.36529E-02-2.11301E-03-7.46399E-14
 -1      2948 9.54826E-03-5.41836E-05-3.81419E-14
 -1      2949 7.27000E-03-5.95467E-04-2.68892E-14
 -1      2950 7.41534E-03-6.77220E-04-2.77742E-14
 -1      2951 1.16811E-02-1.06884E-03-4.40818E-14
 -1      2952 1.15909E-02-1.17831E-03-4.37859E-14
 -1      2953 1.17157E-02-1.15041E-03-4.43960E-14
 -1      2954 1.35906E-03 3.46642E-04-9.50019E-16
 -1      2955 1.29808E-03 3.70378E-04-8.27016E-16
 -1      2956 8.33811E-03-1.26007E-03-2.99232E-14
 -1      2957 1.41516E-02-2.38682E-03-7.50038E-14
 -1      2958 1.13159E-02-9.98738E-04-4.41402E-14
 -1      2959 1.13876E-02-1.00982E-03-4.36779E-14
 -1      2960 1.15053E-02-1.04824E-03-4.43838E-14
 -1      2961 1.19868E-03 3.62868E-04-6.97779E-16
 -1      2962 7.79057E-04-5.30290E-05-4.73796E-16
 -1      2963 7.80264E-04-7.51775E-05-4.73823E-16
 -1      2964 8.99612E-04-9.68554E-05-6.00147E-16
 -1      2965 8.96677E-04-4.73924E-05-5.99686E-16
 -1      2966 9.17745E-03 1.63363E-04-3.62053E-14
 -1      2967 1.16511E-02-1.09039E-03-4.30720E-14
 -1      2968 9.97647E-03-3.34484E-04-3.99101E-14
 -1      2969 1.50960E-02-2.91311E-03-7.62268E-14
 -1      2970 1.50252E-02-2.87206E-03-7.62316E-14
 -1      2971 1.09565E-02-8.62655E-04-4.29571E-14
 -1      2972 7.34583E-03-2.39730E-04-2.76231E-14
 -1      2973 1.04709E-02-6.28784E-04-4.15765E-14
 -1      2974 6.71520E-03-4.48878E-04-2.63198E-14
 -1      2975 6.69391E-03-4.32572E-04-2.59706E-14
 -1      2976 6.70751E-03-4.34852E-04-2.58895E-14
 -1      2977 1.17611E-02-1.07080E-03-4.37253E-14
 -1      2978 1.17711E-02-1.08606E-03-4.40198E-14
 -1      2979 1.17923E-02-1.09544E-03-4.45342E-14
 -1      2980 8.75999E-03 2.82278E-04-3.37311E-14
 -1      2981 8.86173E-03 2.71364E-04-3.42882E-14
 -1      2982 8.90956E-03 2.61460E-04-3.47057E-14
 -1      2983 1.13185E-02-1.19518E-03-4.18786E-14
 -1      2984 7.76263E-03-5.27931E-05-2.88891E-14
 -1      2985 7.83363E-03 2.09841E-05-2.89706E-14
 -1      2986 7.61012E-03-8.57424E-05-2.81563E-14
 -1      2987 1.14374E-02-1.17568E-03-4.25877E-14
 -1      2988 9.25316E-04 2.79876E-04-4.58997E-16
 -1      2989 7.06177E-03-5.18618E-04-2.64340E-14
 -1      2990 6.83609E-03-4.67432E-04-2.63685E-14
 -1      2991 6.78999E-03-4.28814E-04-2.64893E-14
 -1      2992 9.05125E-04-1.48731E-04-5.94536E-16
 -1      2993 7.87298E-04-1.45214E-04-4.66600E-16
 -1      2994 7.91118E-04-1.70371E-04-4.61016E-16
 -1      2995 1.48666E-02-2.78672E-03-7.51004E-14
 -1      2996 7.38417E-03-6.72877E-04-2.79635E-14
 -1      2997 7.18496E-03-5.89601E-04-2.75765E-14
 -1      2998 7.06629E-03-5.32699E-04-2.69164E-14
 -1      2999 1.04040E-03 2.42771E-04-6.32388E-16
 -1      3000 1.03382E-03 2.11061E-04-6.52270E-16
 -1      3001 1.05890E-03 3.63895E-04-5.13871E-16
 -1      3002 1.44965E-02-2.58118E-03-7.39758E-14
 -1      3003 1.44253E-02-2.54138E-03-7.39707E-14
 -1      3004 1.44832E-03-3.12993E-04-1.27119E-15
 -1      3005 1.59902E-03-3.27773E-04-1.52261E-15
 -1      3006 7.99330E-04-1.91290E-04-4.59878E-16
 -1      3007 8.07294E-04-2.15148E-04-4.54918E-16
 -1      3008 9.36578E-04-2.45846E-04-5.82704E-16
 -1      3009 9.17465E-04-1.98369E-04-5.88546E-16
 -1      3010 1.42160E-03 3.21973E-04-1.07791E-15
 -1      3011 1.27834E-03 3.04278E-04-8.84750E-16
 -1      3012 1.74264E-03-3.39528E-04-1.78336E-15
 -1      3013 1.88632E-03-3.49209E-04-2.06531E-15
 -1      3014 1.65979E-03-2.99202E-04-1.65852E-15
 -1      3015 2.03000E-03-3.57130E-04-2.36866E-15
 -1      3016 2.17365E-03-3.63441E-04-2.69241E-15
 -1      3017 1.94760E-03-3.17516E-04-2.22264E-15
 -1      3018 2.31726E-03-3.68407E-04-3.03658E-15
 -1      3019 2.46081E-03-3.72147E-04-3.40162E-15
 -1      3020 2.23561E-03-3.29542E-04-2.86982E-15
 -1      3021 2.60429E-03-3.74871E-04-3.78736E-15
 -1      3022 2.74771E-03-3.76670E-04-4.19315E-15
 -1      3023 2.52349E-03-3.36724E-04-3.59889E-15
 -1      3024 2.89107E-03-3.77703E-04-4.61867E-15
 -1      3025 3.03435E-03-3.78038E-04-5.06404E-15
 -1      3026 2.81107E-03-3.40231E-04-4.40850E-15
 -1      3027 3.17757E-03-3.77793E-04-5.52974E-15
 -1      3028 3.32071E-03-3.77015E-04-6.01515E-15
 -1      3029 3.09826E-03-3.40965E-04-5.29759E-15
 -1      3030 3.47091E-03-3.75718E-04-6.54599E-15
 -1      3031 3.62102E-03-3.73966E-04-7.09865E-15
 -1      3032 3.39211E-03-3.39546E-04-6.29093E-15
 -1      3033 3.76387E-03-3.71942E-04-7.64567E-15
 -1      3034 3.90661E-03-3.69589E-04-8.21321E-15
 -1      3035 3.68534E-03-3.36455E-04-7.36822E-15
 -1      3036 4.04919E-03-3.66963E-04-8.79941E-15
 -1      3037 4.19160E-03-3.64073E-04-9.40476E-15
 -1      3038 3.97066E-03-3.32208E-04-8.49989E-15
 -1      3039 4.33379E-03-3.60976E-04-1.00299E-14
 -1      3040 4.47572E-03-3.57679E-04-1.06739E-14
 -1      3041 4.25495E-03-3.27053E-04-9.70926E-15
 -1      3042 4.61730E-03-3.54258E-04-1.13358E-14
 -1      3043 4.75850E-03-3.50715E-04-1.20159E-14
 -1      3044 4.53782E-03-3.21302E-04-1.09939E-14
 -1      3045 4.89914E-03-3.47176E-04-1.27150E-14
 -1      3046 5.03919E-03-3.43637E-04-1.34310E-14
 -1      3047 4.81864E-03-3.15357E-04-1.23522E-14
 -1      3048 5.17839E-03-3.40306E-04-1.41640E-14
 -1      3049 5.31669E-03-3.37174E-04-1.49132E-14
 -1      3050 5.09645E-03-3.09813E-04-1.37821E-14
 -1      3051 5.46051E-03-3.34463E-04-1.57168E-14
 -1      3052 5.60279E-03-3.32327E-04-1.65362E-14
 -1      3053 5.37662E-03-3.05509E-04-1.53163E-14
 -1      3054 5.73633E-03-3.31400E-04-1.73314E-14
 -1      3055 5.86780E-03-3.31468E-04-1.81419E-14
 -1      3056 5.64997E-03-3.04103E-04-1.69147E-14
 -1      3057 5.99647E-03-3.33384E-04-1.89651E-14
 -1      3058 6.12223E-03-3.36938E-04-1.98013E-14
 -1      3059 5.90712E-03-3.07619E-04-1.85322E-14
 -1      3060 6.24406E-03-3.43362E-04-2.06512E-14
 -1      3061 6.36198E-03-3.52260E-04-2.15129E-14
 -1      3062 6.15085E-03-3.18700E-04-2.02050E-14
 -1      3063 6.47465E-03-3.65347E-04-2.23863E-14
 -1      3064 6.58244E-03-3.81528E-04-2.32693E-14
 -1      3065 6.37602E-03-3.40659E-04-2.19271E-14
 -1      3066 1.16572E-02-1.08326E-03-4.47207E-14
 -1      3067 1.17519E-02-1.09800E-03-4.48798E-14
 -1      3068 1.07410E-03 3.28906E-04-5.79411E-16
 -1      3069 1.06774E-03 2.82106E-04-6.26371E-16
 -1      3070 1.21536E-02-1.31184E-03-4.88794E-14
 -1      3071 1.22693E-02-1.37350E-03-5.00831E-14
 -1      3072 1.23889E-02-1.43814E-03-5.12969E-14
 -1      3073 1.25129E-02-1.50628E-03-5.25197E-14
 -1      3074 1.23025E-02-1.38594E-03-5.07176E-14
 -1      3075 1.26399E-02-1.57644E-03-5.37492E-14
 -1      3076 1.27701E-02-1.64886E-03-5.49842E-14
 -1      3077 1.25402E-02-1.51825E-03-5.31613E-14
 -1      3078 1.29025E-02-1.72252E-03-5.62291E-14
 -1      3079 1.30372E-02-1.79752E-03-5.74832E-14
 -1      3080 1.27931E-02-1.65950E-03-5.56367E-14
 -1      3081 1.31802E-02-1.87699E-03-5.88055E-14
 -1      3082 1.33249E-02-1.95721E-03-6.01358E-14
 -1      3083 1.30635E-02-1.81032E-03-5.82010E-14
 -1      3084 1.34637E-02-2.03388E-03-6.14065E-14
 -1      3085 1.36034E-02-2.11082E-03-6.26832E-14
 -1      3086 1.33417E-02-1.96466E-03-6.07936E-14
 -1      3087 1.37438E-02-2.18778E-03-6.39682E-14
 -1      3088 1.38849E-02-2.26475E-03-6.52576E-14
 -1      3089 1.36182E-02-2.11691E-03-6.33483E-14
 -1      3090 1.40263E-02-2.34160E-03-6.65485E-14
 -1      3091 1.41681E-02-2.41832E-03-6.78417E-14
 -1      3092 1.38981E-02-2.26967E-03-6.59194E-14
 -1      3093 1.43101E-02-2.49483E-03-6.91377E-14
 -1      3094 1.44523E-02-2.57113E-03-7.04349E-14
 -1      3095 1.41801E-02-2.42227E-03-6.85024E-14
 -1      3096 1.45947E-02-2.64719E-03-7.17359E-14
 -1      3097 1.47372E-02-2.72300E-03-7.30383E-14
 -1      3098 1.44635E-02-2.57430E-03-7.10935E-14
 -1      3099 1.99565E-03 3.68600E-04-2.05376E-15
 -1      3100 1.85210E-03 3.60056E-04-1.77901E-15
 -1      3101 1.70856E-03 3.49584E-04-1.52505E-15
 -1      3102 1.56501E-03 3.37005E-04-1.29141E-15
 -1      3103 1.48535E-03 2.96287E-04-1.21097E-15
 -1      3104 1.77268E-03 3.19982E-04-1.68387E-15
 -1      3105 3.14222E-03 3.92666E-04-4.99134E-15
 -1      3106 2.99907E-03 3.92584E-04-4.55213E-15
 -1      3107 2.85587E-03 3.91888E-04-4.13324E-15
 -1      3108 2.71263E-03 3.90516E-04-3.73546E-15
 -1      3109 2.92288E-03 3.55199E-04-4.39324E-15
 -1      3110 3.71463E-03 3.88583E-04-6.94845E-15
 -1      3111 3.57154E-03 3.90146E-04-6.42856E-15
 -1      3112 4.00085E-03 3.84707E-04-8.04746E-15
 -1      3113 3.85773E-03 3.86760E-04-7.48854E-15
 -1      3114 3.78290E-03 3.50636E-04-7.27742E-15
 -1      3115 4.28726E-03 3.80124E-04-9.22874E-15
 -1      3116 4.14403E-03 3.82485E-04-8.62823E-15
 -1      3117 4.06919E-03 3.46590E-04-8.39914E-15
 -1      3118 4.57405E-03 3.75200E-04-1.04876E-14
 -1      3119 4.43059E-03 3.77682E-04-9.84808E-15
 -1      3120 4.35549E-03 3.41864E-04-9.60111E-15
 -1      3121 4.86151E-03 3.70360E-04-1.18257E-14
 -1      3122 4.71768E-03 3.72741E-04-1.11463E-14
 -1      3123 4.64206E-03 3.36776E-04-1.08811E-14
 -1      3124 5.15007E-03 3.66136E-04-1.32398E-14
 -1      3125 5.00563E-03 3.68130E-04-1.25237E-14
 -1      3126 4.92924E-03 3.31703E-04-1.22386E-14
 -1      3127 5.44028E-03 3.63224E-04-1.47288E-14
 -1      3128 5.29493E-03 3.64460E-04-1.39751E-14
 -1      3129 5.21756E-03 3.27141E-04-1.36718E-14
 -1      3130 5.73287E-03 3.62521E-04-1.62894E-14
 -1      3131 5.58624E-03 3.62522E-04-1.54999E-14
 -1      3132 5.50776E-03 3.23762E-04-1.51786E-14
 -1      3133 6.02865E-03 3.65123E-04-1.79202E-14
 -1      3134 5.88033E-03 3.63317E-04-1.70961E-14
 -1      3135 5.80077E-03 3.22476E-04-1.67558E-14
 -1      3136 6.32844E-03 3.72246E-04-1.96173E-14
 -1      3137 6.17804E-03 3.68020E-04-1.87613E-14
 -1      3138 6.09770E-03 3.24462E-04-1.84028E-14
 -1      3139 6.63272E-03 3.84996E-04-2.13727E-14
 -1      3140 6.48006E-03 3.77840E-04-2.04876E-14
 -1      3141 6.39963E-03 3.31125E-04-2.01132E-14
 -1      3142 6.94129E-03 4.03868E-04-2.31852E-14
 -1      3143 6.78659E-03 3.93663E-04-2.22722E-14
 -1      3144 6.70730E-03 3.43882E-04-2.18804E-14
 -1      3145 7.25277E-03 4.27857E-04-2.50526E-14
 -1      3146 7.09688E-03 4.15381E-04-2.41125E-14
 -1      3147 7.02056E-03 3.63611E-04-2.37034E-14
 -1      3148 7.56440E-03 4.53203E-04-2.69737E-14
 -1      3149 7.40885E-03 4.40782E-04-2.60063E-14
 -1      3150 7.33771E-03 3.89537E-04-2.55801E-14
 -1      3151 7.87253E-03 4.72280E-04-2.89529E-14
 -1      3152 7.71915E-03 4.64266E-04-2.79561E-14
 -1      3153 7.65525E-03 4.17564E-04-2.75118E-14
 -1      3154 8.17418E-03 4.73533E-04-3.09900E-14
 -1      3155 8.02420E-03 4.76062E-04-2.99652E-14
 -1      3156 7.96856E-03 4.38664E-04-2.95023E-14
 -1      3157 8.46910E-03 4.44221E-04-3.30805E-14
 -1      3158 8.32219E-03 4.63495E-04-3.20278E-14
 -1      3159 8.27417E-03 4.38939E-04-3.15483E-14
 -1      3160 8.76070E-03 3.75182E-04-3.52236E-14
 -1      3161 8.61479E-03 4.14993E-04-3.41455E-14
 -1      3162 8.57246E-03 4.03655E-04-3.36480E-14
 -1      3163 9.05437E-03 2.65230E-04-3.74209E-14
 -1      3164 8.90675E-03 3.24936E-04-3.63156E-14
 -1      3165 8.86829E-03 3.23512E-04-3.58021E-14
 -1      3166 9.35435E-03 1.22071E-04-3.96688E-14
 -1      3167 9.20336E-03 1.96927E-04-3.85392E-14
 -1      3168 9.16827E-03 1.99966E-04-3.80086E-14
 -1      3169 9.66117E-03-4.17485E-05-4.19586E-14
 -1      3170 9.50702E-03 4.18569E-05-4.08080E-14
 -1      3171 9.47623E-03 4.47543E-05-4.02646E-14
 -1      3172 9.97230E-03-2.14242E-04-4.42841E-14
 -1      3173 9.81647E-03-1.27607E-04-4.31184E-14
 -1      3174 9.79116E-03-1.27065E-04-4.25637E-14
 -1      3175 1.02841E-02-3.86768E-04-4.66370E-14
 -1      3176 1.01284E-02-3.00888E-04-4.54567E-14
 -1      3177 1.01090E-02-3.02888E-04-4.48944E-14
 -1      3178 1.05935E-02-5.54768E-04-4.90181E-14
 -1      3179 1.04393E-02-4.71467E-04-4.78235E-14
 -1      3180 1.04254E-02-4.75085E-04-4.72529E-14
 -1      3181 1.08988E-02-7.16766E-04-5.14240E-14
 -1      3182 1.07468E-02-6.36502E-04-5.02185E-14
 -1      3183 1.07372E-02-6.40670E-04-4.96364E-14
 -1      3184 1.11996E-02-8.73047E-04-5.38554E-14
 -1      3185 1.10498E-02-7.95542E-04-5.26354E-14
 -1      3186 1.10432E-02-7.99505E-04-5.20475E-14
 -1      3187 1.14962E-02-1.02465E-03-5.63175E-14
 -1      3188 1.13484E-02-9.49339E-04-5.50845E-14
 -1      3189 1.13436E-02-9.52720E-04-5.44874E-14
 -1      3190 1.17895E-02-1.17283E-03-5.88016E-14
 -1      3191 1.16432E-02-1.09908E-03-5.75561E-14
 -1      3192 1.16393E-02-1.10178E-03-5.69542E-14
 -1      3193 1.20801E-02-1.31872E-03-6.13119E-14
 -1      3194 1.19351E-02-1.24599E-03-6.00546E-14
 -1      3195 1.19313E-02-1.24806E-03-5.94469E-14
 -1      3196 1.23690E-02-1.46328E-03-6.38323E-14
 -1      3197 1.22248E-02-1.39111E-03-6.25698E-14
 -1      3198 1.22208E-02-1.39266E-03-6.19598E-14
 -1      3199 1.26566E-02-1.60723E-03-6.63613E-14
 -1      3200 1.25129E-02-1.53529E-03-6.50952E-14
 -1      3201 1.25085E-02-1.53644E-03-6.44860E-14
 -1      3202 1.29434E-02-1.75112E-03-6.88885E-14
 -1      3203 1.28001E-02-1.67916E-03-6.76283E-14
 -1      3204 1.27952E-02-1.68000E-03-6.70178E-14
 -1      3205 9.44368E-03 7.85053E-06-3.79279E-14
 -1      3206 9.63975E-03-1.19239E-04-3.89273E-14
 -1      3207 1.46379E-02-2.66114E-03-7.39769E-14
 -1      3208 1.45673E-02-2.62107E-03-7.39765E-14
 -1      3209 1.44096E-02-2.53655E-03-7.28554E-14
 -1      3210 1.43549E-02-2.50232E-03-7.39608E-14
 -1      3211 1.42841E-02-2.46325E-03-7.39518E-14
 -1      3212 1.42686E-02-2.45813E-03-7.28479E-14
 -1      3213 1.49033E-02-2.81194E-03-7.43897E-14
 -1      3214 1.08874E-02-8.39179E-04-4.34792E-14
 -1      3215 1.10963E-02-9.25445E-04-4.39604E-14
 -1      3216 6.90211E-03-3.56941E-04-2.61276E-14
 -1      3217 7.03560E-03-3.13487E-04-2.64220E-14
 -1      3218 1.03339E-02-5.55510E-04-4.16486E-14
 -1      3219 1.05836E-02-6.91794E-04-4.25504E-14
 -1      3220 1.42117E-02-2.42349E-03-7.39400E-14
 -1      3221 1.41389E-02-2.38363E-03-7.39242E-14
 -1      3222 1.41259E-02-2.37979E-03-7.28297E-14
 -1      3223 1.17719E-02-1.12953E-03-4.45461E-14
 -1      3224 7.20684E-03-2.48794E-04-2.68504E-14
 -1      3225 7.36755E-03-1.81452E-04-2.72972E-14
 -1      3226 1.40657E-02-2.34366E-03-7.39047E-14
 -1      3227 1.39922E-02-2.30353E-03-7.38816E-14
 -1      3228 1.39801E-02-2.30045E-03-7.28039E-14
 -1      3229 8.02713E-03 1.22838E-04-2.97476E-14
 -1      3230 8.16846E-03 1.79552E-04-3.04344E-14
 -1      3231 1.19380E-02-1.20229E-03-4.65055E-14
 -1      3232 1.20436E-02-1.25508E-03-4.76859E-14
 -1      3233 1.20857E-02-1.26620E-03-4.83117E-14
 -1      3234 1.36401E-02-2.11129E-03-7.36236E-14
 -1      3235 1.35098E-02-2.04006E-03-7.34048E-14
 -1      3236 1.33667E-02-1.96729E-03-7.21735E-14
 -1      3237 9.08693E-03 2.00639E-04-3.58782E-14
 -1      3238 9.24599E-03 1.22139E-04-3.68224E-14
 -1      3239 9.90171E-03-2.88073E-04-4.00961E-14
 -1      3240 1.01125E-02-4.23605E-04-4.08700E-14
 -1      3241 1.02450E-02-4.98291E-04-4.18374E-14
 -1      3242 6.93794E-03-4.79161E-04-2.60188E-14
 -1      3243 1.47712E-02-2.73885E-03-7.37434E-14
 -1      3244 6.71549E-03-4.14940E-04-2.58702E-14
 -1      3245 6.78574E-03-3.96137E-04-2.59554E-14
 -1      3246 3.42845E-03 3.91380E-04-5.92961E-15
 -1      3247 3.28535E-03 3.92249E-04-5.45030E-15
 -1      3248 3.20982E-03 3.55363E-04-5.27487E-15
 -1      3249 3.49647E-03 3.53683E-04-6.23617E-15
 -1      3250 1.47009E-02-2.69829E-03-7.37484E-14
 -1      3251 1.01687E-03 6.80253E-05-7.18067E-16
 -1      3252 1.01571E-03 4.11209E-05-7.26104E-16
 -1      3253 6.82269E-03-4.44017E-04-2.54136E-14
 -1      3254 6.83263E-03-4.53496E-04-2.58900E-14
 -1      3255 6.74941E-03-4.37564E-04-2.57598E-14
 -1      3256 1.01512E-03 1.44253E-05-7.32473E-16
 -1      3257 1.01509E-03-1.21711E-05-7.37325E-16
 -1      3258 1.13580E-03 3.00813E-05-8.84546E-16
 -1      3259 7.06115E-03-2.58311E-04-2.61014E-14
 -1      3260 6.79154E-03-3.55688E-04-2.55115E-14
 -1      3261 1.33952E-03-3.01335E-04-1.10312E-15
 -1      3262 1.40724E-03-2.77364E-04-1.23102E-15
 -1      3263 1.23086E-03-2.88042E-04-9.47281E-16
 -1      3264 1.04430E-03-2.64250E-04-7.05030E-16
 -1      3265 8.25326E-03 2.25289E-04-3.08594E-14
 -1      3266 8.32751E-03 2.63572E-04-3.12858E-14
 -1      3267 8.13260E-03 2.23495E-04-3.01982E-14
 -1      3268 1.18036E-02-1.13151E-03-4.58224E-14
 -1      3269 1.18028E-02-1.11351E-03-4.51766E-14
 -1      3270 1.18428E-02-1.12828E-03-4.54735E-14
 -1      3271 1.16099E-02-1.08462E-03-4.51866E-14
 -1      3272 6.72778E-03-4.14763E-04-2.45062E-14
 -1      3273 9.78026E-03-2.06964E-04-3.98775E-14
 -1      3274 1.18663E-03 2.84213E-04-7.79528E-16
 -1      3275 1.01840E-03-9.27121E-05-7.42773E-16
 -1      3276 1.02077E-03-1.20353E-04-7.41689E-16
 -1      3277 2.13915E-03 3.75527E-04-2.34894E-15
 -1      3278 2.06041E-03 3.36196E-04-2.23819E-15
 -1      3279 2.28261E-03 3.80976E-04-2.66459E-15
 -1      3280 2.63565E-03 3.52556E-04-3.59291E-15
 -1      3281 2.56934E-03 3.88315E-04-3.35788E-15
 -1      3282 2.42600E-03 3.85202E-04-3.00072E-15
 -1      3283 1.25067E-03 2.62831E-04-8.91201E-16
 -1      3284 9.34193E-03 6.64331E-05-3.75926E-14
 -1      3285 1.32269E-02-1.89541E-03-7.11489E-14
 -1      3286 1.30835E-02-1.82289E-03-6.99146E-14
 -1      3287 1.30783E-02-1.82345E-03-6.93104E-14
 -1      3288 1.33578E-02-1.96676E-03-7.13620E-14
 -1      3289 1.12447E-02-9.83192E-04-4.46689E-14
 -1      3290 1.13820E-02-1.03155E-03-4.53791E-14
 -1      3291 1.11855E-02-9.63593E-04-4.51979E-14
 -1      3292 8.63287E-03 2.88646E-04-3.30407E-14
 -1      3293 1.37883E-02-2.19273E-03-7.36855E-14
 -1      3294 1.37142E-02-2.15211E-03-7.36572E-14
 -1      3295 1.35716E-02-2.07934E-03-7.24192E-14
 -1      3296 1.07492E-02-7.74059E-04-4.35531E-14
 -1      3297 1.09059E-02-8.43881E-04-4.45600E-14
 -1      3298 1.06260E-02-7.05862E-04-4.36236E-14
 -1      3299 1.14361E-03-1.45440E-04-8.97692E-16
 -1      3300 1.02396E-03-1.48719E-04-7.38518E-16
 -1      3301 1.02798E-03-1.77927E-04-7.33178E-16
 -1      3302 1.45430E-02-2.61301E-03-7.26252E-14
 -1      3303 1.15326E-03 2.11220E-04-8.05359E-16
 -1      3304 1.02853E-03 1.80733E-04-6.69197E-16
 -1      3305 1.02439E-03 1.51455E-04-6.84023E-16
 -1      3306 6.69232E-03-4.21276E-04-2.54140E-14
 -1      3307 8.88333E-03 2.69433E-04-3.47401E-14
 -1      3308 8.98260E-03 2.39935E-04-3.53083E-14
 -1      3309 9.05218E-03 2.12324E-04-3.59145E-14
 -1      3310 6.61562E-03-3.86886E-04-2.40360E-14
 -1      3311 7.45369E-03-1.11747E-04-2.73752E-14
 -1      3312 7.52496E-03-4.06903E-05-2.74506E-14
 -1      3313 7.30306E-03-1.25682E-04-2.66009E-14
 -1      3314 6.66743E-03-4.05089E-04-2.54430E-14
 -1      3315 1.39273E-02-2.26839E-03-7.37971E-14
 -1      3316 1.38535E-02-2.22812E-03-7.37740E-14
 -1      3317 1.37114E-02-2.15527E-03-7.25340E-14
 -1      3318 1.38417E-02-2.22558E-03-7.27025E-14
 -1      3319 7.87877E-03 8.66680E-05-2.90016E-14
 -1      3320 7.90676E-03 1.46347E-04-2.90301E-14
 -1      3321 7.73066E-03 5.51080E-05-2.82632E-14
 -1      3322 1.18473E-02-1.15004E-03-4.53604E-14
 -1      3323 1.02111E-03 1.22974E-04-6.97250E-16
 -1      3324 1.01866E-03 9.52718E-05-7.08607E-16
 -1      3325 1.13844E-03 8.83431E-05-8.66006E-16
 -1      3326 1.14401E-03 1.48322E-04-8.39864E-16
 -1      3327 1.18959E-02-1.15812E-03-4.59707E-14
 -1      3328 1.58146E-03-2.59999E-04-1.54229E-15
 -1      3329 1.72528E-03-2.70094E-04-1.80383E-15
 -1      3330 1.86932E-03-2.78502E-04-2.08630E-15
 -1      3331 2.01353E-03-2.85378E-04-2.38974E-15
 -1      3332 1.79172E-03-2.40098E-04-1.95204E-15
 -1      3333 2.15779E-03-2.90933E-04-2.71354E-15
 -1      3334 2.30208E-03-2.95281E-04-3.05761E-15
 -1      3335 2.08036E-03-2.52610E-04-2.55855E-15
 -1      3336 2.44633E-03-2.98614E-04-3.42162E-15
 -1      3337 2.59052E-03-3.01021E-04-3.80655E-15
 -1      3338 2.36937E-03-2.60577E-04-3.24683E-15
 -1      3339 2.73462E-03-3.02659E-04-4.21088E-15
 -1      3340 2.87861E-03-3.03598E-04-4.63502E-15
 -1      3341 2.65825E-03-2.65028E-04-4.01507E-15
 -1      3342 3.02246E-03-3.03960E-04-5.07923E-15
 -1      3343 3.16615E-03-3.03794E-04-5.54315E-15
 -1      3344 2.94668E-03-2.66813E-04-4.86301E-15
 -1      3345 3.31685E-03-3.03156E-04-6.05161E-15
 -1      3346 3.46734E-03-3.02082E-04-6.58120E-15
 -1      3347 3.24162E-03-2.66576E-04-5.81375E-15
 -1      3348 3.61044E-03-3.00733E-04-7.10653E-15
 -1      3349 3.75330E-03-2.99088E-04-7.65224E-15
 -1      3350 3.53563E-03-2.64794E-04-6.84705E-15
 -1      3351 3.89588E-03-2.97216E-04-8.21673E-15
 -1      3352 4.03817E-03-2.95128E-04-8.80174E-15
 -1      3353 3.82133E-03-2.61987E-04-7.93599E-15
 -1      3354 4.18008E-03-2.92897E-04-9.40596E-15
 -1      3355 4.32160E-03-2.90530E-04-1.00292E-14
 -1      3356 4.10562E-03-2.58481E-04-9.10443E-15
 -1      3357 4.46261E-03-2.88120E-04-1.06704E-14
 -1      3358 4.60308E-03-2.85670E-04-1.13307E-14
 -1      3359 4.38808E-03-2.54642E-04-1.03488E-14
 -1      3360 4.74284E-03-2.83316E-04-1.20094E-14
 -1      3361 4.88183E-03-2.81059E-04-1.27061E-14
 -1      3362 4.66810E-03-2.50920E-04-1.16677E-14
 -1      3363 5.01983E-03-2.79102E-04-1.34198E-14
 -1      3364 5.15673E-03-2.77447E-04-1.41504E-14
 -1      3365 4.94480E-03-2.47944E-04-1.30596E-14
 -1      3366 5.29897E-03-2.76365E-04-1.49359E-14
 -1      3367 5.43944E-03-2.75951E-04-1.57384E-14
 -1      3368 5.22365E-03-2.46623E-04-1.45562E-14
 -1      3369 5.57118E-03-2.76677E-04-1.65183E-14
 -1      3370 5.70063E-03-2.78426E-04-1.73124E-14
 -1      3371 5.49580E-03-2.48471E-04-1.61218E-14
 -1      3372 5.82727E-03-2.81924E-04-1.81204E-14
 -1      3373 5.95066E-03-2.86973E-04-1.89430E-14
 -1      3374 5.75229E-03-2.55232E-04-1.77093E-14
 -1      3375 6.07011E-03-2.94647E-04-1.97794E-14
 -1      3376 6.18500E-03-3.04386E-04-2.06293E-14
 -1      3377 5.99643E-03-2.69321E-04-1.93546E-14
 -1      3378 6.29437E-03-3.17782E-04-2.14904E-14
 -1      3379 6.39725E-03-3.33685E-04-2.23632E-14
 -1      3380 6.22343E-03-2.93601E-04-2.10535E-14
 -1      3381 1.01670E-03-6.55637E-05-7.42584E-16
 -1      3382 1.13822E-03-8.56617E-05-9.00701E-16
 -1      3383 1.01562E-03-3.87979E-05-7.40781E-16
 -1      3384 1.22131E-02-1.33774E-03-5.01410E-14
 -1      3385 1.23233E-02-1.39942E-03-5.13555E-14
 -1      3386 1.24388E-02-1.46333E-03-5.25760E-14
 -1      3387 1.25590E-02-1.53028E-03-5.38051E-14
 -1      3388 1.23349E-02-1.41191E-03-5.19905E-14
 -1      3389 1.26829E-02-1.59903E-03-5.50412E-14
 -1      3390 1.28100E-02-1.66985E-03-5.62841E-14
 -1      3391 1.25716E-02-1.54146E-03-5.44471E-14
 -1      3392 1.29464E-02-1.74550E-03-5.75967E-14
 -1      3393 1.30854E-02-1.82258E-03-5.89173E-14
 -1      3394 1.28291E-02-1.68303E-03-5.69926E-14
 -1      3395 1.32195E-02-1.89672E-03-6.01839E-14
 -1      3396 1.33553E-02-1.97159E-03-6.14523E-14
 -1      3397 1.30975E-02-1.83059E-03-5.95691E-14
 -1      3398 1.34923E-02-2.04683E-03-6.27266E-14
 -1      3399 1.36305E-02-2.12243E-03-6.40079E-14
 -1      3400 1.33669E-02-1.97815E-03-6.21084E-14
 -1      3401 1.37695E-02-2.19816E-03-6.52921E-14
 -1      3402 1.39092E-02-2.27401E-03-6.65785E-14
 -1      3403 1.36413E-02-2.12769E-03-6.46635E-14
 -1      3404 1.40495E-02-2.34983E-03-6.78679E-14
 -1      3405 1.41904E-02-2.42562E-03-6.91598E-14
 -1      3406 1.39194E-02-2.27817E-03-6.72342E-14
 -1      3407 1.42958E-02-2.48174E-03-7.02421E-14
 -1      3408 1.44373E-02-2.55725E-03-7.15386E-14
 -1      3409 1.43747E-02-2.52082E-03-7.17673E-14
 -1      3410 1.41644E-02-2.40943E-03-6.96032E-14
 -1      3411 2.99045E-03 3.18276E-04-4.65638E-15
 -1      3412 2.84661E-03 3.17688E-04-4.23369E-15
 -1      3413 4.13744E-03 3.08518E-04-8.75322E-15
 -1      3414 3.99437E-03 3.10709E-04-8.17056E-15
 -1      3415 3.85123E-03 3.12691E-04-7.60882E-15
 -1      3416 3.70802E-03 3.14448E-04-7.06733E-15
 -1      3417 3.91962E-03 2.74807E-04-7.94288E-15
 -1      3418 4.70971E-03 2.98379E-04-1.12758E-14
 -1      3419 4.56657E-03 3.01056E-04-1.06158E-14
 -1      3420 4.99649E-03 2.92993E-04-1.26538E-14
 -1      3421 4.85299E-03 2.95674E-04-1.19556E-14
 -1      3422 4.77700E-03 2.60027E-04-1.16731E-14
 -1      3423 5.28447E-03 2.87943E-04-1.41055E-14
 -1      3424 5.14028E-03 2.90385E-04-1.33702E-14
 -1      3425 5.06323E-03 2.54221E-04-1.30699E-14
 -1      3426 5.57456E-03 2.83870E-04-1.56292E-14
 -1      3427 5.42919E-03 2.85722E-04-1.48586E-14
 -1      3428 5.35073E-03 2.48503E-04-1.45397E-14
 -1      3429 5.86794E-03 2.81698E-04-1.72233E-14
 -1      3430 5.72077E-03 2.82453E-04-1.64180E-14
 -1      3431 5.64058E-03 2.43472E-04-1.60808E-14
 -1      3432 6.16601E-03 2.82715E-04-1.88854E-14
 -1      3433 6.01632E-03 2.81680E-04-1.80460E-14
 -1      3434 5.93424E-03 2.40072E-04-1.76913E-14
 -1      3435 6.47022E-03 2.88577E-04-2.06080E-14
 -1      3436 6.31731E-03 2.84881E-04-1.97395E-14
 -1      3437 6.23344E-03 2.39740E-04-1.93674E-14
 -1      3438 6.78161E-03 3.01145E-04-2.23867E-14
 -1      3439 6.62505E-03 2.93868E-04-2.14908E-14
 -1      3440 6.54005E-03 2.44488E-04-2.11026E-14
 -1      3441 7.10009E-03 3.21873E-04-2.42201E-14
 -1      3442 6.94013E-03 3.10429E-04-2.32963E-14
 -1      3443 6.85546E-03 2.56808E-04-2.28927E-14
 -1      3444 7.42366E-03 3.50327E-04-2.61067E-14
 -1      3445 7.26158E-03 3.35293E-04-2.51571E-14
 -1      3446 7.17971E-03 2.78914E-04-2.47352E-14
 -1      3447 7.74783E-03 3.82120E-04-2.80486E-14
 -1      3448 7.58612E-03 3.66445E-04-2.70700E-14
 -1      3449 7.51032E-03 3.11014E-04-2.66317E-14
 -1      3450 8.06687E-03 4.06337E-04-3.00486E-14
 -1      3451 7.90842E-03 3.96313E-04-2.90414E-14
 -1      3452 7.84169E-03 3.47955E-04-2.85846E-14
 -1      3453 8.37648E-03 4.05904E-04-3.21047E-14
 -1      3454 8.22275E-03 4.10557E-04-3.10718E-14
 -1      3455 8.16641E-03 3.76316E-04-3.05936E-14
 -1      3456 8.67807E-03 3.63287E-04-3.42137E-14
 -1      3457 8.52762E-03 3.90826E-04-3.31519E-14
 -1      3458 8.47991E-03 3.74297E-04-3.26592E-14
 -1      3459 8.97862E-03 2.69743E-04-3.63783E-14
 -1      3460 8.82759E-03 3.22930E-04-3.52891E-14
 -1      3461 8.78534E-03 3.21879E-04-3.47770E-14
 -1      3462 9.28590E-03 1.30450E-04-3.85958E-14
 -1      3463 9.13089E-03 2.04611E-04-3.74810E-14
 -1      3464 9.09251E-03 2.11309E-04-3.69529E-14
 -1      3465 9.60282E-03-3.75065E-05-4.08607E-14
 -1      3466 9.44323E-03 4.86308E-05-3.97229E-14
 -1      3467 9.40902E-03 5.45665E-05-3.91805E-14
 -1      3468 9.92632E-03-2.16468E-04-4.31675E-14
 -1      3469 9.76421E-03-1.26648E-04-4.20085E-14
 -1      3470 9.73612E-03-1.25346E-04-4.14562E-14
 -1      3471 1.02505E-02-3.94074E-04-4.55021E-14
 -1      3472 1.00888E-02-3.06002E-04-4.43311E-14
 -1      3473 1.00680E-02-3.09586E-04-4.37682E-14
 -1      3474 1.05704E-02-5.64445E-04-4.78647E-14
 -1      3475 1.04113E-02-4.80290E-04-4.66805E-14
 -1      3476 1.03974E-02-4.86868E-04-4.61082E-14
 -1      3477 1.08835E-02-7.26546E-04-5.02553E-14
 -1      3478 1.07280E-02-6.46431E-04-4.90563E-14
 -1      3479 1.07193E-02-6.53837E-04-4.84763E-14
 -1      3480 1.11892E-02-8.81634E-04-5.26715E-14
 -1      3481 1.10373E-02-8.04811E-04-5.14606E-14
 -1      3482 1.10321E-02-8.11591E-04-5.08715E-14
 -1      3483 1.14884E-02-1.03156E-03-5.51185E-14
 -1      3484 1.13396E-02-9.57089E-04-5.38907E-14
 -1      3485 1.13364E-02-9.62585E-04-5.32957E-14
 -1      3486 1.17826E-02-1.17807E-03-5.75930E-14
 -1      3487 1.16361E-02-1.10512E-03-5.63537E-14
 -1      3488 1.16338E-02-1.10921E-03-5.57488E-14
 -1      3489 1.20732E-02-1.32255E-03-6.00923E-14
 -1      3490 1.19283E-02-1.25047E-03-5.88395E-14
 -1      3491 1.19260E-02-1.25332E-03-5.82325E-14
 -1      3492 1.23612E-02-1.46602E-03-6.26093E-14
 -1      3493 1.22174E-02-1.39435E-03-6.13483E-14
 -1      3494 1.22148E-02-1.39623E-03-6.07345E-14
 -1      3495 1.26478E-02-1.60916E-03-6.51383E-14
 -1      3496 1.25047E-02-1.53759E-03-6.38727E-14
 -1      3497 1.25014E-02-1.53877E-03-6.32578E-14
 -1      3498 1.29336E-02-1.75244E-03-6.76738E-14
 -1      3499 1.27908E-02-1.68076E-03-6.64052E-14
 -1      3500 1.27868E-02-1.68145E-03-6.57896E-14
 -1      3501 1.33462E-03 2.45421E-04-1.03132E-15
 -1      3502 1.24369E-03 2.28475E-04-9.15324E-16
 -1      3503 1.23803E-03 1.95066E-04-9.35748E-16
 -1      3504 1.43045E-02-2.48134E-03-7.17706E-14
 -1      3505 1.42338E-02-2.44200E-03-7.17726E-14
 -1      3506 1.41995E-02-2.42600E-03-7.06900E-14
 -1      3507 1.41639E-02-2.40344E-03-7.17719E-14
 -1      3508 1.40935E-02-2.36487E-03-7.17638E-14
 -1      3509 1.40594E-02-2.34869E-03-7.06922E-14
 -1      3510 9.67607E-03-1.33793E-04-3.97620E-14
 -1      3511 9.91645E-03-2.87207E-04-4.09431E-14
 -1      3512 1.40213E-02-2.32562E-03-7.17562E-14
 -1      3513 1.39486E-02-2.28625E-03-7.17470E-14
 -1      3514 1.39170E-02-2.27146E-03-7.06828E-14
 -1      3515 1.15699E-02-1.08893E-03-4.58460E-14
 -1      3516 1.17152E-02-1.12502E-03-4.61858E-14
 -1      3517 1.38755E-02-2.24674E-03-7.17356E-14
 -1      3518 1.38019E-02-2.20703E-03-7.17196E-14
 -1      3519 1.37712E-02-2.19309E-03-7.06657E-14
 -1      3520 6.68359E-03-3.47146E-04-2.48100E-14
 -1      3521 6.77765E-03-3.12732E-04-2.49763E-14
 -1      3522 1.11187E-03-2.46559E-04-8.07825E-16
 -1      3523 1.19286E-02-1.17806E-03-4.66219E-14
 -1      3524 6.61255E-03-3.88969E-04-2.48219E-14
 -1      3525 6.61993E-03-3.73517E-04-2.47217E-14
 -1      3526 1.01740E-02-4.46957E-04-4.20478E-14
 -1      3527 1.03736E-02-5.65829E-04-4.28345E-14
 -1      3528 4.42351E-03 3.03661E-04-9.97484E-15
 -1      3529 4.28048E-03 3.06162E-04-9.35427E-15
 -1      3530 4.20561E-03 2.70537E-04-9.10757E-15
 -1      3531 4.49130E-03 2.65547E-04-1.03514E-14
 -1      3532 9.23817E-03 1.24630E-04-3.72139E-14
 -1      3533 9.42263E-03 2.00742E-05-3.83267E-14
 -1      3534 8.51122E-03 2.96640E-04-3.23821E-14
 -1      3535 8.68353E-03 3.01793E-04-3.34772E-14
 -1      3536 6.91779E-03-2.55919E-04-2.52757E-14
 -1      3537 7.06448E-03-2.00050E-04-2.56927E-14
 -1      3538 7.42242E-03 6.08691E-06-2.66976E-14
 -1      3539 7.57526E-03 2.68651E-05-2.74769E-14
 -1      3540 7.61133E-03 9.14816E-05-2.74995E-14
 -1      3541 7.99356E-03 1.95085E-04-2.94422E-14
 -1      3542 8.07168E-03 2.39276E-04-2.98588E-14
 -1      3543 7.85288E-03 1.67886E-04-2.86959E-14
 -1      3544 6.44545E-03-3.31867E-04-2.30058E-14
 -1      3545 6.50449E-03-3.56436E-04-2.34563E-14
 -1      3546 1.17888E-02-1.14587E-03-4.64897E-14
 -1      3547 1.18534E-02-1.16411E-03-4.67911E-14
 -1      3548 1.17698E-02-1.15683E-03-4.71558E-14
 -1      3549 1.13574E-03-2.75773E-05-8.96080E-16
 -1      3550 2.34813E-03 3.46591E-04-2.87450E-15
 -1      3551 1.83795E-03 2.89617E-04-1.84747E-15
 -1      3552 1.69398E-03 2.80519E-04-1.58817E-15
 -1      3553 2.77035E-03 2.80096E-04-4.07416E-15
 -1      3554 2.70267E-03 3.16459E-04-3.83190E-15
 -1      3555 2.55864E-03 3.14529E-04-3.45000E-15
 -1      3556 2.12620E-03 3.03196E-04-2.42714E-15
 -1      3557 1.98203E-03 2.97132E-04-2.12692E-15
 -1      3558 1.90418E-03 2.58498E-04-2.01560E-15
 -1      3559 1.36371E-03-2.42528E-04-1.18345E-15
 -1      3560 1.47246E-03-2.51865E-04-1.35704E-15
 -1      3561 1.53861E-03-2.25194E-04-1.48617E-15
 -1      3562 1.15187E-02-1.08159E-03-4.63815E-14
 -1      3563 1.58576E-03 2.70335E-04-1.40851E-15
 -1      3564 1.44228E-03 2.58033E-04-1.18427E-15
 -1      3565 1.43587E-03 2.21998E-04-1.21019E-15
 -1      3566 1.65174E-03 2.42127E-04-1.55468E-15
 -1      3567 9.55942E-03-5.62543E-05-3.93740E-14
 -1      3568 3.63316E-03 2.78174E-04-6.85690E-15
 -1      3569 3.56471E-03 3.15926E-04-6.54517E-15
 -1      3570 3.42131E-03 3.17106E-04-6.04329E-15
 -1      3571 1.30735E-02-1.82389E-03-6.86985E-14
 -1      3572 1.30690E-02-1.82421E-03-6.80839E-14
 -1      3573 1.32132E-02-1.89535E-03-6.97263E-14
 -1      3574 1.10600E-02-9.11891E-04-4.52733E-14
 -1      3575 1.12073E-02-9.71429E-04-4.59883E-14
 -1      3576 1.09426E-02-8.54556E-04-4.53466E-14
 -1      3577 1.34622E-02-2.02307E-03-7.15833E-14
 -1      3578 1.33228E-02-1.95147E-03-7.05567E-14
 -1      3579 1.33180E-02-1.95148E-03-6.99440E-14
 -1      3580 1.35367E-02-2.06369E-03-7.16115E-14
 -1      3581 1.05419E-02-6.51274E-04-4.38387E-14
 -1      3582 1.25905E-03-7.60085E-05-1.07325E-15
 -1      3583 1.26115E-03-1.07351E-04-1.07390E-15
 -1      3584 6.78093E-03-2.64507E-04-2.45776E-14
 -1      3585 6.77571E-03-2.12855E-04-2.41758E-14
 -1      3586 6.65622E-03-2.64715E-04-2.38855E-14
 -1      3587 1.25778E-03 4.76805E-05-1.05029E-15
 -1      3588 1.25705E-03 1.67400E-05-1.05897E-15
 -1      3589 1.00520E-02-3.61058E-04-4.19334E-14
 -1      3590 8.75740E-03 2.98979E-04-3.40662E-14
 -1      3591 6.59155E-03-3.40842E-04-2.41968E-14
 -1      3592 8.38873E-03 3.00667E-04-3.17070E-14
 -1      3593 1.36324E-02-2.11891E-03-7.05731E-14
 -1      3594 1.37369E-02-2.17219E-03-7.16367E-14
 -1      3595 1.36718E-02-2.13722E-03-7.15570E-14
 -1      3596 7.13844E-03-1.42590E-04-2.57650E-14
 -1      3597 7.20476E-03-8.14342E-05-2.58355E-14
 -1      3598 6.98231E-03-1.49149E-04-2.49399E-14
 -1      3599 1.20135E-02-1.22582E-03-4.77452E-14
 -1      3600 1.21100E-02-1.28068E-03-4.89376E-14
 -1      3601 1.40472E-03-1.56085E-04-1.28711E-15
 -1      3602 1.28361E-03-1.64171E-04-1.09476E-15
 -1      3603 6.62012E-03-3.91619E-04-2.46971E-14
 -1      3604 1.26143E-03 1.10202E-04-1.02705E-15
 -1      3605 1.25923E-03 7.87737E-05-1.03978E-15
 -1      3606 1.38092E-03 6.68740E-05-1.22923E-15
 -1      3607 3.27780E-03 3.17920E-04-5.56079E-15
 -1      3608 3.13418E-03 3.18339E-04-5.09860E-15
 -1      3609 3.05851E-03 2.81195E-04-4.92172E-15
 -1      3610 3.34613E-03 2.80408E-04-5.84972E-15
 -1      3611 1.21200E-02-1.29444E-03-4.95646E-14
 -1      3612 1.10224E-03-2.21165E-04-8.09967E-16
 -1      3613 1.19355E-02-1.19213E-03-4.72397E-14
 -1      3614 6.33557E-03-2.89147E-04-2.20071E-14
 -1      3615 6.46320E-03-3.12301E-04-2.30936E-14
 -1      3616 6.50995E-03-2.84811E-04-2.31748E-14
 -1      3617 2.00350E-03-2.14769E-04-2.40614E-15
 -1      3618 2.14809E-03-2.19218E-04-2.72991E-15
 -1      3619 2.29276E-03-2.22751E-04-3.07373E-15
 -1      3620 2.43746E-03-2.25441E-04-3.43752E-15
 -1      3621 2.21662E-03-1.85245E-04-2.90272E-15
 -1      3622 2.58210E-03-2.27426E-04-3.82138E-15
 -1      3623 2.72665E-03-2.28767E-04-4.22534E-15
 -1      3624 2.50627E-03-1.89929E-04-3.62991E-15
 -1      3625 2.87106E-03-2.29579E-04-4.64902E-15
 -1      3626 3.01530E-03-2.29907E-04-5.09179E-15
 -1      3627 2.79567E-03-1.92301E-04-4.43687E-15
 -1      3628 3.16653E-03-2.29834E-04-5.57777E-15
 -1      3629 3.31750E-03-2.29369E-04-6.08563E-15
 -1      3630 3.09163E-03-1.92944E-04-5.34463E-15
 -1      3631 3.46099E-03-2.28647E-04-6.58981E-15
 -1      3632 3.60419E-03-2.27671E-04-7.11359E-15
 -1      3633 3.38657E-03-1.92279E-04-6.33413E-15
 -1      3634 3.74705E-03-2.26518E-04-7.65716E-15
 -1      3635 3.88953E-03-2.25200E-04-8.22108E-15
 -1      3636 3.67304E-03-1.90773E-04-7.38057E-15
 -1      3637 4.03158E-03-2.23796E-04-8.80467E-15
 -1      3638 4.17316E-03-2.22316E-04-9.40778E-15
 -1      3639 3.95793E-03-1.88778E-04-8.50717E-15
 -1      3640 4.31420E-03-2.20855E-04-1.00293E-14
 -1      3641 4.45462E-03-2.19425E-04-1.06691E-14
 -1      3642 4.24087E-03-1.86668E-04-9.71090E-15
 -1      3643 4.59432E-03-2.18155E-04-1.13283E-14
 -1      3644 4.73322E-03-2.17059E-04-1.20053E-14
 -1      3645 4.52134E-03-1.84896E-04-1.09899E-14
 -1      3646 4.87117E-03-2.16323E-04-1.27001E-14
 -1      3647 5.00804E-03-2.15965E-04-1.34120E-14
 -1      3648 4.79866E-03-1.84075E-04-1.23421E-14
 -1      3649 5.15038E-03-2.16285E-04-1.41782E-14
 -1      3650 5.29109E-03-2.17348E-04-1.49629E-14
 -1      3651 5.07864E-03-1.85118E-04-1.38019E-14
 -1      3652 5.42334E-03-2.19464E-04-1.57268E-14
 -1      3653 5.55355E-03-2.22650E-04-1.65055E-14
 -1      3654 5.35296E-03-1.89358E-04-1.53319E-14
 -1      3655 5.68146E-03-2.27482E-04-1.72995E-14
 -1      3656 5.80659E-03-2.33879E-04-1.81076E-14
 -1      3657 5.61340E-03-1.98270E-04-1.68891E-14
 -1      3658 5.92867E-03-2.42654E-04-1.89295E-14
 -1      3659 6.04690E-03-2.53531E-04-1.97661E-14
 -1      3660 5.86453E-03-2.14038E-04-1.85054E-14
 -1      3661 6.13872E-03-2.60302E-04-2.04481E-14
 -1      3662 6.24915E-03-2.76738E-04-2.13077E-14
 -1      3663 6.27046E-03-2.49968E-04-2.13865E-14
 -1      3664 6.08175E-03-2.31314E-04-2.00102E-14
 -1      3665 2.41454E-03 3.11747E-04-3.08830E-15
 -1      3666 2.27038E-03 3.08032E-04-2.74764E-15
 -1      3667 2.19290E-03 2.69644E-04-2.62012E-15
 -1      3668 2.48174E-03 2.76509E-04-3.30642E-15
 -1      3669 1.24571E-02-1.48604E-03-5.38531E-14
 -1      3670 1.25788E-02-1.55168E-03-5.50863E-14
 -1      3671 1.27102E-02-1.62248E-03-5.63906E-14
 -1      3672 1.28445E-02-1.69540E-03-5.77012E-14
 -1      3673 1.25888E-02-1.56363E-03-5.57881E-14
 -1      3674 1.29748E-02-1.76610E-03-5.89561E-14
 -1      3675 1.31071E-02-1.83806E-03-6.02206E-14
 -1      3676 1.28508E-02-1.70309E-03-5.83446E-14
 -1      3677 1.32411E-02-1.91080E-03-6.14881E-14
 -1      3678 1.33766E-02-1.98432E-03-6.27587E-14
 -1      3679 1.31148E-02-1.84470E-03-6.08652E-14
 -1      3680 1.35132E-02-2.05828E-03-6.40374E-14
 -1      3681 1.36509E-02-2.13269E-03-6.53179E-14
 -1      3682 1.33849E-02-1.98989E-03-6.34097E-14
 -1      3683 1.37895E-02-2.20731E-03-6.65986E-14
 -1      3684 1.39288E-02-2.28213E-03-6.78842E-14
 -1      3685 1.36595E-02-2.13725E-03-6.59654E-14
 -1      3686 1.40117E-02-2.32637E-03-6.87451E-14
 -1      3687 1.41162E-02-2.38192E-03-6.98257E-14
 -1      3688 1.40461E-02-2.34314E-03-6.98290E-14
 -1      3689 1.38805E-02-2.25537E-03-6.81054E-14
 -1      3690 9.08830E-03 1.97424E-04-3.63027E-14
 -1      3691 9.16975E-03 1.61706E-04-3.70224E-14
 -1      3692 5.12940E-03 2.15414E-04-1.34870E-14
 -1      3693 4.98655E-03 2.18630E-04-1.27701E-14
 -1      3694 4.84391E-03 2.21750E-04-1.20713E-14
 -1      3695 4.70138E-03 2.24732E-04-1.13906E-14
 -1      3696 4.91041E-03 1.83572E-04-1.24708E-14
 -1      3697 5.70558E-03 2.02570E-04-1.65335E-14
 -1      3698 5.56048E-03 2.05598E-04-1.57456E-14
 -1      3699 5.99925E-03 1.97567E-04-1.81599E-14
 -1      3700 5.85176E-03 1.99791E-04-1.73383E-14
 -1      3701 5.76940E-03 1.61087E-04-1.69866E-14
 -1      3702 6.29936E-03 1.95451E-04-1.98488E-14
 -1      3703 6.14837E-03 1.95961E-04-1.89966E-14
 -1      3704 6.06276E-03 1.54052E-04-1.86279E-14
 -1      3705 6.60825E-03 1.98650E-04-2.15953E-14
 -1      3706 6.45261E-03 1.96120E-04-2.07148E-14
 -1      3707 6.36349E-03 1.49661E-04-2.03289E-14
 -1      3708 6.92783E-03 2.10545E-04-2.33958E-14
 -1      3709 6.76670E-03 2.03218E-04-2.24895E-14
 -1      3710 6.67452E-03 1.50960E-04-2.20877E-14
 -1      3711 7.25850E-03 2.34250E-04-2.52493E-14
 -1      3712 7.09206E-03 2.20683E-04-2.43158E-14
 -1      3713 6.99854E-03 1.62352E-04-2.38984E-14
 -1      3714 7.59729E-03 2.70984E-04-2.71560E-14
 -1      3715 7.42750E-03 2.51102E-04-2.61963E-14
 -1      3716 7.33624E-03 1.88403E-04-2.57611E-14
 -1      3717 7.97891E-03 2.94734E-04-2.93458E-14
 -1      3718 7.80705E-03 2.70494E-04-2.83565E-14
 -1      3719 8.27522E-03 3.29443E-04-3.11208E-14
 -1      3720 8.10785E-03 3.11782E-04-3.01047E-14
 -1      3721 8.60099E-03 3.38463E-04-3.32614E-14
 -1      3722 8.44248E-03 3.46929E-04-3.22188E-14
 -1      3723 9.13860E-03 1.83992E-04-3.70812E-14
 -1      3724 8.98136E-03 2.50319E-04-3.59856E-14
 -1      3725 9.44720E-03 2.21964E-05-3.91209E-14
 -1      3726 9.28280E-03 1.10431E-04-3.80038E-14
 -1      3727 9.87671E-03-2.19476E-04-4.20480E-14
 -1      3728 9.70673E-03-1.23409E-04-4.09006E-14
 -1      3729 1.02166E-02-4.06308E-04-4.43663E-14
 -1      3730 1.00474E-02-3.14233E-04-4.32036E-14
 -1      3731 1.00271E-02-3.18948E-04-4.26391E-14
 -1      3732 1.05496E-02-5.80901E-04-4.67130E-14
 -1      3733 1.03845E-02-4.95311E-04-4.55363E-14
 -1      3734 1.03730E-02-5.05316E-04-4.49639E-14
 -1      3735 1.08717E-02-7.42836E-04-4.90859E-14
 -1      3736 1.07121E-02-6.63176E-04-4.78956E-14
 -1      3737 1.07068E-02-6.74517E-04-4.73143E-14
 -1      3738 1.11828E-02-8.95454E-04-5.14872E-14
 -1      3739 1.10286E-02-8.20012E-04-5.02836E-14
 -1      3740 1.10270E-02-8.30255E-04-4.96943E-14
 -1      3741 1.14845E-02-1.04212E-03-5.39197E-14
 -1      3742 1.13347E-02-9.69282E-04-5.27003E-14
 -1      3743 1.13348E-02-9.77352E-04-5.21033E-14
 -1      3744 1.17793E-02-1.18554E-03-5.63812E-14
 -1      3745 1.16326E-02-1.11407E-03-5.51460E-14
 -1      3746 1.16330E-02-1.11982E-03-5.45438E-14
 -1      3747 1.20691E-02-1.32749E-03-5.88679E-14
 -1      3748 1.19247E-02-1.25659E-03-5.76214E-14
 -1      3749 1.19245E-02-1.26035E-03-5.70110E-14
 -1      3750 1.23560E-02-1.46908E-03-6.13784E-14
 -1      3751 1.22128E-02-1.39827E-03-6.01217E-14
 -1      3752 1.22118E-02-1.40051E-03-5.95054E-14
 -1      3753 1.26411E-02-1.61092E-03-6.39056E-14
 -1      3754 1.24987E-02-1.53994E-03-6.26402E-14
 -1      3755 1.24966E-02-1.54111E-03-6.20216E-14
 -1      3756 1.29254E-02-1.75335E-03-6.64412E-14
 -1      3757 1.27833E-02-1.68205E-03-6.51723E-14
 -1      3758 1.27802E-02-1.68253E-03-6.45547E-14
 -1      3759 1.33413E-03 1.91695E-04-1.07928E-15
 -1      3760 1.24391E-03 1.76951E-04-9.58082E-16
 -1      3761 1.23991E-03 1.44673E-04-9.75416E-16
 -1      3762 1.44143E-03 2.02194E-04-1.23665E-15
 -1      3763 8.98969E-03 2.39253E-04-3.57253E-14
 -1      3764 8.78899E-03 3.05418E-04-3.45275E-14
 -1      3765 1.25702E-03-1.40696E-05-1.06539E-15
 -1      3766 1.25767E-03-4.49341E-05-1.07028E-15
 -1      3767 1.38077E-03-6.39642E-05-1.25980E-15
 -1      3768 1.37934E-03 1.44667E-06-1.24882E-15
 -1      3769 1.39765E-02-2.30515E-03-6.98317E-14
 -1      3770 1.39064E-02-2.26714E-03-6.98294E-14
 -1      3771 1.38939E-02-2.26157E-03-6.89685E-14
 -1      3772 1.28813E-03-1.97321E-04-1.08916E-15
 -1      3773 1.22196E-03-2.19753E-04-9.79495E-16
 -1      3774 1.19383E-02-1.20960E-03-4.79137E-14
 -1      3775 1.04920E-02-6.10382E-04-4.42621E-14
 -1      3776 1.07234E-02-7.38923E-04-4.50598E-14
 -1      3777 1.36864E-02-2.14984E-03-6.95610E-14
 -1      3778 1.36127E-02-2.11066E-03-6.95513E-14
 -1      3779 1.38331E-02-2.22797E-03-6.96994E-14
 -1      3780 1.37606E-02-2.18917E-03-6.96940E-14
 -1      3781 1.36029E-02-2.10689E-03-6.85819E-14
 -1      3782 1.37507E-02-2.18493E-03-6.88417E-14
 -1      3783 5.41621E-03 2.08840E-04-1.49748E-14
 -1      3784 5.27257E-03 2.12120E-04-1.42222E-14
 -1      3785 5.19495E-03 1.76572E-04-1.39055E-14
 -1      3786 3.98809E-03 2.37019E-04-8.27818E-15
 -1      3787 3.84505E-03 2.38865E-04-7.71394E-15
 -1      3788 1.36370E-02-2.11818E-03-7.16267E-14
 -1      3789 1.35716E-02-2.08294E-03-7.15418E-14
 -1      3790 1.34624E-02-2.02683E-03-7.07055E-14
 -1      3791 1.35323E-02-2.06509E-03-7.05638E-14
 -1      3792 1.22256E-02-1.36264E-03-5.14023E-14
 -1      3793 1.23390E-02-1.42314E-03-5.26232E-14
 -1      3794 1.23383E-02-1.43240E-03-5.32569E-14
 -1      3795 1.14801E-02-1.07651E-03-4.70977E-14
 -1      3796 1.16553E-02-1.13441E-03-4.75715E-14
 -1      3797 1.71495E-03-2.02563E-04-1.81987E-15
 -1      3798 1.85909E-03-2.09251E-04-2.10266E-15
 -1      3799 1.92729E-03-1.77557E-04-2.25566E-15
 -1      3800 6.49209E-03-2.46652E-04-2.27853E-14
 -1      3801 1.08194E-02-7.73231E-04-4.62065E-14
 -1      3802 1.08743E-02-8.13212E-04-4.57780E-14
 -1      3803 1.10225E-02-8.82340E-04-4.64967E-14
 -1      3804 2.83866E-03 2.43482E-04-4.31933E-15
 -1      3805 2.69424E-03 2.42491E-04-3.91374E-15
 -1      3806 1.17185E-02-1.16571E-03-4.86054E-14
 -1      3807 1.17435E-02-1.16307E-03-4.78805E-14
 -1      3808 1.18252E-02-1.18862E-03-4.81893E-14
 -1      3809 3.77068E-03 2.02848E-04-7.48465E-15
 -1      3810 3.70182E-03 2.40461E-04-7.16933E-15
 -1      3811 3.55842E-03 2.41808E-04-6.64506E-15
 -1      3812 5.48081E-03 1.68921E-04-1.54117E-14
 -1      3813 1.97138E-03 2.26628E-04-2.18787E-15
 -1      3814 1.82704E-03 2.20538E-04-1.90374E-15
 -1      3815 1.68790E-03 2.17012E-04-1.64544E-15
 -1      3816 1.57981E-03 2.08422E-04-1.46144E-15
 -1      3817 1.47799E-03 1.79183E-04-1.31563E-15
 -1      3818 1.75550E-03 1.87216E-04-1.79819E-15
 -1      3819 4.62621E-03 1.89732E-04-1.11097E-14
 -1      3820 4.55887E-03 2.27558E-04-1.07296E-14
 -1      3821 4.41633E-03 2.30216E-04-1.00876E-14
 -1      3822 7.71970E-03 2.06898E-04-2.79013E-14
 -1      3823 8.82599E-03 3.01133E-04-3.49047E-14
 -1      3824 1.36095E-03 1.36439E-04-1.16037E-15
 -1      3825 1.30648E-02-1.82437E-03-6.74658E-14
 -1      3826 1.30610E-02-1.82435E-03-6.68460E-14
 -1      3827 1.32040E-02-1.89545E-03-6.84947E-14
 -1      3828 1.20333E-02-1.27509E-03-4.98446E-14
 -1      3829 1.20165E-02-1.28169E-03-5.04648E-14
 -1      3830 1.12666E-02-9.93301E-04-4.72520E-14
 -1      3831 1.13733E-02-1.03785E-03-4.71760E-14
 -1      3832 1.15307E-02-1.09974E-03-4.83728E-14
 -1      3833 7.25559E-03-1.88922E-05-2.58558E-14
 -1      3834 7.29630E-03 4.34311E-05-2.58760E-14
 -1      3835 7.09367E-03-3.57599E-05-2.50270E-14
 -1      3836 1.19313E-02-1.22317E-03-4.86457E-14
 -1      3837 6.70110E-03-1.80282E-04-2.35569E-14
 -1      3838 6.83766E-03-1.68669E-04-2.42445E-14
 -1      3839 6.89714E-03-1.19516E-04-2.43121E-14
 -1      3840 3.12708E-03 2.43978E-04-5.18991E-15
 -1      3841 2.98295E-03 2.43966E-04-4.74462E-15
 -1      3842 2.90757E-03 2.06686E-04-4.56736E-15
 -1      3843 1.51638E-03-1.30099E-04-1.47964E-15
 -1      3844 1.54015E-03-1.92678E-04-1.50331E-15
 -1      3845 1.35476E-02-2.07622E-03-6.94742E-14
 -1      3846 1.34823E-02-2.04159E-03-6.93948E-14
 -1      3847 1.34632E-02-2.03351E-03-6.83731E-14
 -1      3848 1.50264E-03 1.86428E-05-1.44616E-15
 -1      3849 1.50261E-03-1.56061E-05-1.45473E-15
 -1      3850 1.02465E-02-4.61678E-04-4.34240E-14
 -1      3851 1.04300E-02-5.56790E-04-4.46431E-14
 -1      3852 1.50513E-03 8.74463E-05-1.42136E-15
 -1      3853 1.50348E-03 5.29575E-05-1.43493E-15
 -1      3854 1.62683E-03 3.72792E-05-1.65654E-15
 -1      3855 4.13097E-03 2.34960E-04-8.86139E-15
 -1      3856 4.05662E-03 1.99382E-04-8.61511E-15
 -1      3857 4.27371E-03 2.32683E-04-9.46456E-15
 -1      3858 9.58340E-03-6.48166E-05-3.96995E-14
 -1      3859 1.50337E-03-4.99096E-05-1.46068E-15
 -1      3860 1.50493E-03-8.43860E-05-1.46472E-15
 -1      3861 1.62674E-03-3.41047E-05-1.67584E-15
 -1      3862 1.63898E-03-1.17119E-04-1.69932E-15
 -1      3863 7.63792E-03 1.61727E-04-2.75011E-14
 -1      3864 6.35809E-03-2.23482E-04-2.18192E-14
 -1      3865 6.49911E-03-1.98684E-04-2.25104E-14
 -1      3866 1.00666E-02-3.62526E-04-4.22696E-14
 -1      3867 2.43088E-03-1.52648E-04-3.44073E-15
 -1      3868 2.57580E-03-1.54063E-04-3.82378E-15
 -1      3869 2.72063E-03-1.55056E-04-4.22665E-15
 -1      3870 2.86531E-03-1.55657E-04-4.64884E-15
 -1      3871 2.64598E-03-1.17903E-04-4.01896E-15
 -1      3872 3.01702E-03-1.55958E-04-5.11253E-15
 -1      3873 3.16848E-03-1.55947E-04-5.59829E-15
 -1      3874 2.94275E-03-1.18909E-04-4.88308E-15
 -1      3875 3.31243E-03-1.55724E-04-6.08102E-15
 -1      3876 3.45606E-03-1.55307E-04-6.58355E-15
 -1      3877 3.23859E-03-1.18991E-04-5.83016E-15
 -1      3878 3.59934E-03-1.54771E-04-7.10566E-15
 -1      3879 3.74223E-03-1.54123E-04-7.64800E-15
 -1      3880 3.52596E-03-1.18503E-04-6.83279E-15
 -1      3881 3.88467E-03-1.53441E-04-8.21095E-15
 -1      3882 4.02664E-03-1.52733E-04-8.79342E-15
 -1      3883 3.81178E-03-1.17758E-04-7.91640E-15
 -1      3884 4.16807E-03-1.52092E-04-9.39423E-15
 -1      3885 4.30891E-03-1.51528E-04-1.00140E-14
 -1      3886 4.09572E-03-1.17086E-04-9.07961E-15
 -1      3887 4.44908E-03-1.51159E-04-1.06528E-14
 -1      3888 4.58851E-03-1.51005E-04-1.13105E-14
 -1      3889 4.37738E-03-1.16891E-04-1.03173E-14
 -1      3890 4.72711E-03-1.51225E-04-1.19861E-14
 -1      3891 4.86478E-03-1.51848E-04-1.26788E-14
 -1      3892 4.65628E-03-1.17711E-04-1.16304E-14
 -1      3893 5.00821E-03-1.53174E-04-1.34256E-14
 -1      3894 5.15031E-03-1.55241E-04-1.41916E-14
 -1      3895 4.93865E-03-1.20382E-04-1.30509E-14
 -1      3896 5.28429E-03-1.58216E-04-1.49370E-14
 -1      3897 5.41673E-03-1.62220E-04-1.56997E-14
 -1      3898 5.21668E-03-1.25987E-04-1.45438E-14
 -1      3899 5.54753E-03-1.67670E-04-1.64788E-14
 -1      3900 5.67635E-03-1.74593E-04-1.72724E-14
 -1      3901 5.48285E-03-1.35671E-04-1.60680E-14
 -1      3902 5.80321E-03-1.83526E-04-1.80800E-14
 -1      3903 5.92756E-03-1.94459E-04-1.89018E-14
 -1      3904 5.74304E-03-1.51232E-04-1.76544E-14
 -1      3905 4.97648E-03 1.45556E-04-1.28720E-14
 -1      3906 4.83492E-03 1.48988E-04-1.21725E-14
 -1      3907 1.24605E-02-1.50394E-03-5.51538E-14
 -1      3908 1.25929E-02-1.57241E-03-5.64549E-14
 -1      3909 1.64926E-03-1.98301E-04-1.69764E-15
 -1      3910 1.27214E-02-1.63934E-03-5.77006E-14
 -1      3911 1.28518E-02-1.70797E-03-5.89533E-14
 -1      3912 1.25892E-02-1.57631E-03-5.70571E-14
 -1      3913 1.29839E-02-1.77779E-03-6.02130E-14
 -1      3914 1.31175E-02-1.84877E-03-6.14778E-14
 -1      3915 1.28513E-02-1.71169E-03-5.95605E-14
 -1      3916 1.32524E-02-1.92054E-03-6.27490E-14
 -1      3917 1.33885E-02-1.99307E-03-6.40246E-14
 -1      3918 1.31190E-02-1.85199E-03-6.20887E-14
 -1      3919 1.35257E-02-2.06609E-03-6.53020E-14
 -1      3920 1.36636E-02-2.13955E-03-6.65799E-14
 -1      3921 1.33913E-02-1.99562E-03-6.46363E-14
 -1      3922 1.37374E-02-2.17876E-03-6.73450E-14
 -1      3923 1.38197E-02-2.22236E-03-6.82032E-14
 -1      3924 1.37498E-02-2.18493E-03-6.82046E-14
 -1      3925 1.36022E-02-2.10714E-03-6.66769E-14
 -1      3926 2.11588E-03 2.31600E-04-2.49280E-15
 -1      3927 2.03941E-03 1.94032E-04-2.36517E-15
 -1      3928 2.26049E-03 2.35543E-04-2.81760E-15
 -1      3929 5.54435E-03 1.28846E-04-1.58488E-14
 -1      3930 5.40183E-03 1.33426E-04-1.50781E-14
 -1      3931 6.12418E-03 1.09636E-04-1.90950E-14
 -1      3932 5.97712E-03 1.14212E-04-1.82600E-14
 -1      3933 5.83171E-03 1.19139E-04-1.74405E-14
 -1      3934 5.68754E-03 1.24015E-04-1.66369E-14
 -1      3935 5.89229E-03 7.66528E-05-1.78936E-14
 -1      3936 6.73770E-03 1.01149E-04-2.25784E-14
 -1      3937 6.57965E-03 1.00653E-04-2.16866E-14
 -1      3938 7.15623E-03 9.98408E-05-2.49360E-14
 -1      3939 6.98758E-03 9.08034E-05-2.40128E-14
 -1      3940 7.49103E-03 1.41037E-04-2.67183E-14
 -1      3941 7.31456E-03 1.21205E-04-2.57695E-14
 -1      3942 1.49885E-03 1.40659E-04-1.37858E-15
 -1      3943 1.71724E-03-1.68824E-04-1.83554E-15
 -1      3944 1.11845E-02-9.15542E-04-5.03018E-14
 -1      3945 1.10285E-02-8.42367E-04-4.91041E-14
 -1      3946 1.14874E-02-1.05696E-03-5.27201E-14
 -1      3947 1.13374E-02-9.86709E-04-5.15076E-14
 -1      3948 1.13429E-02-9.97597E-04-5.09090E-14
 -1      3949 1.17812E-02-1.19554E-03-5.51658E-14
 -1      3950 1.16352E-02-1.12636E-03-5.39385E-14
 -1      3951 1.16397E-02-1.13381E-03-5.33339E-14
 -1      3952 1.20692E-02-1.33362E-03-5.76411E-14
 -1      3953 1.19258E-02-1.26450E-03-5.64013E-14
 -1      3954 1.19286E-02-1.26910E-03-5.57890E-14
 -1      3955 1.23537E-02-1.47240E-03-6.01432E-14
 -1      3956 1.22117E-02-1.40286E-03-5.88880E-14
 -1      3957 1.22128E-02-1.40533E-03-5.82721E-14
 -1      3958 1.26365E-02-1.61237E-03-6.26623E-14
 -1      3959 1.24952E-02-1.54222E-03-6.14015E-14
 -1      3960 1.24946E-02-1.54324E-03-6.07794E-14
 -1      3961 1.29187E-02-1.75364E-03-6.51988E-14
 -1      3962 1.27776E-02-1.68285E-03-6.39306E-14
 -1      3963 1.27755E-02-1.68297E-03-6.33047E-14
 -1      3964 2.61839E-03 2.04937E-04-3.75370E-15
 -1      3965 2.54972E-03 2.40886E-04-3.52844E-15
 -1      3966 2.40511E-03 2.38614E-04-3.16263E-15
 -1      3967 5.25980E-03 1.37777E-04-1.43253E-14
 -1      3968 5.11806E-03 1.41813E-04-1.35902E-14
 -1      3969 5.04207E-03 1.07740E-04-1.32746E-14
 -1      3970 9.83178E-03-2.15454E-04-4.11558E-14
 -1      3971 1.06016E-02-6.43330E-04-4.58133E-14
 -1      3972 6.42493E-03 1.02445E-04-2.08093E-14
 -1      3973 6.27331E-03 1.05453E-04-1.99449E-14
 -1      3974 6.48327E-03 5.34532E-05-2.12885E-14
 -1      3975 1.75083E-03-1.67997E-05-1.90440E-15
 -1      3976 1.75166E-03-5.37787E-05-1.91200E-15
 -1      3977 3.41482E-03 2.42857E-04-6.14066E-15
 -1      3978 3.27104E-03 2.43602E-04-5.65555E-15
 -1      3979 3.48384E-03 2.05333E-04-6.43364E-15
 -1      3980 1.22161E-02-1.38052E-03-5.26912E-14
 -1      3981 1.23368E-02-1.44111E-03-5.39191E-14
 -1      3982 1.23340E-02-1.44775E-03-5.45799E-14
 -1      3983 1.18605E-02-1.22465E-03-4.98578E-14
 -1      3984 1.20769E-02-1.31529E-03-5.14180E-14
 -1      3985 1.20646E-02-1.31964E-03-5.20724E-14
 -1      3986 1.17750E-02-1.19383E-03-4.95421E-14
 -1      3987 2.14106E-03-1.48211E-04-2.73430E-15
 -1      3988 2.28595E-03-1.50710E-04-3.07747E-15
 -1      3989 2.35600E-03-1.15672E-04-3.25387E-15
 -1      3990 1.07232E-02-6.95447E-04-4.69282E-14
 -1      3991 1.07915E-02-7.47888E-04-4.66009E-14
 -1      3992 1.09332E-02-8.19212E-04-4.73239E-14
 -1      3993 1.08864E-02-7.74038E-04-4.81108E-14
 -1      3994 6.25699E-03-2.13053E-04-2.11225E-14
 -1      3995 4.76019E-03 1.14776E-04-1.18752E-14
 -1      3996 4.69332E-03 1.52123E-04-1.14918E-14
 -1      3997 4.55159E-03 1.54973E-04-1.08291E-14
 -1      3998 6.02769E-03-1.99539E-04-1.95724E-14
 -1      3999 6.12711E-03-2.06428E-04-2.02506E-14
 -1      4000 5.97425E-03-1.65711E-04-1.91335E-14
 -1      4001 2.10830E-03 1.60730E-04-2.54675E-15
 -1      4002 1.96364E-03 1.57128E-04-2.23781E-15
 -1      4003 1.34473E-02-2.02275E-03-6.94674E-14
 -1      4004 1.34123E-02-2.00379E-03-6.95409E-14
 -1      4005 1.33628E-02-1.98044E-03-6.83705E-14
 -1      4006 3.83976E-03 1.65371E-04-7.80334E-15
 -1      4007 3.69661E-03 1.66744E-04-7.25601E-15
 -1      4008 6.18319E-03 6.41787E-05-1.95619E-14
 -1      4009 1.76032E-03 1.29590E-04-1.85328E-15
 -1      4010 1.62124E-03 1.28269E-04-1.59811E-15
 -1      4011 5.60670E-03 8.85973E-05-1.62869E-14
 -1      4012 1.12012E-02-9.59096E-04-4.76891E-14
 -1      4013 6.88168E-03 3.32444E-05-2.35932E-14
 -1      4014 1.36029E-02-2.10757E-03-6.73130E-14
 -1      4015 1.36767E-02-2.14624E-03-6.80756E-14
 -1      4016 1.36031E-02-2.10748E-03-6.79489E-14
 -1      4017 1.83004E-03 9.82217E-05-2.00964E-15
 -1      4018 1.30575E-02-1.82413E-03-6.62222E-14
 -1      4019 2.68775E-03 1.68685E-04-3.98241E-15
 -1      4020 2.54292E-03 1.67526E-04-3.59359E-15
 -1      4021 5.32387E-03 9.90449E-05-1.47458E-14
 -1      4022 1.15982E-02-1.12911E-03-4.97010E-14
 -1      4023 1.16876E-02-1.16370E-03-4.96247E-14
 -1      4024 1.18405E-02-1.22761E-03-5.08868E-14
 -1      4025 1.10504E-02-8.63103E-04-4.87116E-14
 -1      4026 6.54482E-03-1.64934E-04-2.25764E-14
 -1      4027 6.59272E-03-1.26588E-04-2.26407E-14
 -1      4028 6.39370E-03-1.48192E-04-2.16110E-14
 -1      4029 3.19611E-03 2.06694E-04-5.46125E-15
 -1      4030 1.33795E-02-1.99089E-03-6.73083E-14
 -1      4031 1.33140E-02-1.95677E-03-6.72325E-14
 -1      4032 4.34173E-03 1.95005E-04-9.82386E-15
 -1      4033 4.12524E-03 1.61938E-04-8.95513E-15
 -1      4034 3.98263E-03 1.63776E-04-8.36909E-15
 -1      4035 3.90902E-03 1.28091E-04-8.12288E-15
 -1      4036 2.97705E-03 1.69730E-04-4.81870E-15
 -1      4037 2.83248E-03 1.69411E-04-4.39086E-15
 -1      4038 2.75774E-03 1.32188E-04-4.21421E-15
 -1      4039 1.78997E-03 5.87835E-05-1.95270E-15
 -1      4040 1.78905E-03 2.14732E-05-1.96705E-15
 -1      4041 1.91384E-03 2.91159E-06-2.22461E-15
 -1      4042 1.99241E-03 8.31133E-05-2.35237E-15
 -1      4043 1.75754E-03-9.51313E-05-1.92497E-15
 -1      4044 1.76940E-03-1.44179E-04-1.94229E-15
 -1      4045 1.35290E-02-2.06873E-03-6.76947E-14
 -1      4046 1.34544E-02-2.02979E-03-6.75629E-14
 -1      4047 1.33059E-02-1.95324E-03-6.64226E-14
 -1      4048 1.34553E-02-2.03051E-03-6.69311E-14
 -1      4049 1.33772E-02-1.98470E-03-6.96146E-14
 -1      4050 1.32680E-02-1.92883E-03-6.87808E-14
 -1      4051 1.88141E-03-7.87272E-05-2.17239E-15
 -1      4052 1.97964E-03-1.51293E-04-2.37364E-15
 -1      4053 2.04930E-03-1.18161E-04-2.53034E-15
 -1      4054 1.32788E-02-1.93824E-03-6.73099E-14
 -1      4055 1.32435E-02-1.91954E-03-6.73845E-14
 -1      4056 1.31953E-02-1.89610E-03-6.62479E-14
 -1      4057 1.10765E-02-8.84983E-04-4.83159E-14
 -1      4058 1.11070E-02-9.08250E-04-4.79154E-14
 -1      4059 1.12161E-02-9.48496E-04-4.93095E-14
 -1      4060 2.86528E-03-8.18599E-05-4.64582E-15
 -1      4061 3.01714E-03-8.20574E-05-5.10826E-15
 -1      4062 3.16152E-03-8.21313E-05-5.56956E-15
 -1      4063 3.30561E-03-8.20961E-05-6.05061E-15
 -1      4064 3.08483E-03-4.51675E-05-5.31213E-15
 -1      4065 3.44936E-03-8.20128E-05-6.55059E-15
 -1      4066 3.59273E-03-8.18802E-05-7.07018E-15
 -1      4067 3.37310E-03-4.53005E-05-6.27063E-15
 -1      4068 3.73570E-03-8.17680E-05-7.61144E-15
 -1      4069 3.87822E-03-8.16755E-05-8.17207E-15
 -1      4070 3.65996E-03-4.54535E-05-7.30859E-15
 -1      4071 4.02025E-03-8.16839E-05-8.75142E-15
 -1      4072 4.16174E-03-8.17994E-05-9.35031E-15
 -1      4073 3.94513E-03-4.58659E-05-8.42641E-15
 -1      4074 4.30267E-03-8.21213E-05-9.96815E-15
 -1      4075 4.44295E-03-8.26667E-05-1.06047E-14
 -1      4076 4.22832E-03-4.68395E-05-9.62110E-15
 -1      4077 4.58256E-03-8.35620E-05-1.12601E-14
 -1      4078 4.72141E-03-8.48358E-05-1.19332E-14
 -1      4079 4.50923E-03-4.87917E-05-1.08917E-14
 -1      4080 4.86636E-03-8.67710E-05-1.26601E-14
 -1      4081 5.01032E-03-8.93636E-05-1.34057E-14
 -1      4082 4.79445E-03-5.23985E-05-1.22701E-14
 -1      4083 5.14648E-03-9.26846E-05-1.41342E-14
 -1      4084 5.28158E-03-9.68859E-05-1.48783E-14
 -1      4085 5.07659E-03-5.84625E-05-1.37248E-14
 -1      4086 5.41567E-03-1.02264E-04-1.56386E-14
 -1      4087 5.54853E-03-1.08872E-04-1.64171E-14
 -1      4088 5.34860E-03-6.77612E-05-1.52121E-14
 -1      4089 5.68033E-03-1.17069E-04-1.72112E-14
 -1      4090 5.81080E-03-1.26903E-04-1.80184E-14
 -1      4091 5.61730E-03-8.16158E-05-1.67659E-14
 -1      4092 2.25311E-03 1.63614E-04-2.87579E-15
 -1      4093 2.17795E-03 1.26745E-04-2.73241E-15
 -1      4094 1.24567E-02-1.51479E-03-5.64461E-14
 -1      4095 1.25876E-02-1.58048E-03-5.76913E-14
 -1      4096 6.23913E-03 1.80410E-05-2.00292E-14
 -1      4097 6.09395E-03 2.59831E-05-1.91806E-14
 -1      4098 1.27198E-02-1.64759E-03-5.89400E-14
 -1      4099 1.28531E-02-1.71610E-03-6.01970E-14
 -1      4100 1.25857E-02-1.58343E-03-5.83213E-14
 -1      4101 1.29876E-02-1.78565E-03-6.14613E-14
 -1      4102 1.31231E-02-1.85620E-03-6.27298E-14
 -1      4103 1.28545E-02-1.71953E-03-6.08335E-14
 -1      4104 1.32595E-02-1.92746E-03-6.39998E-14
 -1      4105 1.33968E-02-1.99940E-03-6.52754E-14
 -1      4106 1.31266E-02-1.85964E-03-6.33660E-14
 -1      4107 1.35294E-02-2.06897E-03-6.65496E-14
 -1      4108 5.66768E-03 4.84017E-05-1.67250E-14
 -1      4109 5.52719E-03 5.47609E-05-1.59375E-14
 -1      4110 2.04293E-03-7.43361E-05-2.51628E-15
 -1      4111 1.13366E-02-1.01638E-03-4.86814E-14
 -1      4112 1.20746E-02-1.34054E-03-5.64123E-14
 -1      4113 1.19334E-02-1.27386E-03-5.51761E-14
 -1      4114 1.15164E-02-1.08229E-03-5.17166E-14
 -1      4115 1.13679E-02-1.01575E-03-5.05081E-14
 -1      4116 1.13961E-02-1.03464E-03-5.01067E-14
 -1      4117 1.23551E-02-1.47558E-03-5.89039E-14
 -1      4118 1.22151E-02-1.40771E-03-5.76553E-14
 -1      4119 1.22187E-02-1.41000E-03-5.70356E-14
 -1      4120 1.26343E-02-1.61314E-03-6.14159E-14
 -1      4121 1.24947E-02-1.54404E-03-6.01566E-14
 -1      4122 1.24956E-02-1.54457E-03-5.95338E-14
 -1      4123 1.29135E-02-1.75299E-03-6.39463E-14
 -1      4124 1.27738E-02-1.68279E-03-6.26802E-14
 -1      4125 1.27726E-02-1.68228E-03-6.20527E-14
 -1      4126 2.32886E-03 2.00938E-04-3.01919E-15
 -1      4127 5.38711E-03 6.05405E-05-1.51680E-14
 -1      4128 5.24714E-03 6.56745E-05-1.44146E-14
 -1      4129 5.44944E-03 2.22933E-05-1.55907E-14
 -1      4130 6.79825E-03-7.92052E-05-2.35701E-14
 -1      4131 6.94040E-03-5.61436E-05-2.42578E-14
 -1      4132 1.21990E-02-1.38897E-03-5.39762E-14
 -1      4133 1.23271E-02-1.45097E-03-5.52087E-14
 -1      4134 1.23205E-02-1.45269E-03-5.58341E-14
 -1      4135 6.98218E-03-1.17180E-07-2.42733E-14
 -1      4136 4.40970E-03 1.57549E-04-1.01855E-14
 -1      4137 4.26759E-03 1.59870E-04-9.56120E-15
 -1      4138 4.47760E-03 1.20363E-04-1.05491E-14
 -1      4139 3.55320E-03 1.67868E-04-6.72934E-15
 -1      4140 3.40952E-03 1.68757E-04-6.22293E-15
 -1      4141 3.62286E-03 1.30526E-04-7.02792E-15
 -1      4142 3.26559E-03 1.69372E-04-5.73557E-15
 -1      4143 3.12143E-03 1.69715E-04-5.26739E-15
 -1      4144 3.04705E-03 1.32683E-04-5.07366E-15
 -1      4145 3.33549E-03 1.32074E-04-6.01224E-15
 -1      4146 6.21435E-03-1.74853E-04-2.06707E-14
 -1      4147 6.53773E-03-3.66282E-05-2.19257E-14
 -1      4148 6.38966E-03-2.76363E-05-2.10498E-14
 -1      4149 5.10720E-03 7.02400E-05-1.36790E-14
 -1      4150 4.96712E-03 7.42508E-05-1.29602E-14
 -1      4151 5.17184E-03 3.31034E-05-1.40838E-14
 -1      4152 5.95075E-03 3.39321E-05-1.83468E-14
 -1      4153 5.80870E-03 4.13712E-05-1.75287E-14
 -1      4154 5.72715E-03 8.25098E-06-1.71641E-14
 -1      4155 6.00683E-03-9.09834E-06-1.88006E-14
 -1      4156 2.46788E-03 1.30332E-04-3.43382E-15
 -1      4157 2.39802E-03 1.65851E-04-3.22461E-15
 -1      4158 1.19452E-02-1.27341E-03-5.17875E-14
 -1      4159 1.20949E-02-1.34062E-03-5.30609E-14
 -1      4160 1.20821E-02-1.34019E-03-5.36848E-14
 -1      4161 1.18670E-02-1.24363E-03-5.18663E-14
 -1      4162 1.17986E-02-1.21110E-03-5.40479E-14
 -1      4163 1.16547E-02-1.14506E-03-5.28287E-14
 -1      4164 1.16796E-02-1.15982E-03-5.24230E-14
 -1      4165 1.19476E-02-1.28219E-03-5.46644E-14
 -1      4166 1.83520E-03-1.47167E-04-2.07276E-15
 -1      4167 2.28171E-03-7.91237E-05-3.06944E-15
 -1      4168 2.42677E-03-8.01472E-05-3.43145E-15
 -1      4169 2.57183E-03-8.09342E-05-3.81332E-15
 -1      4170 2.71681E-03-8.14829E-05-4.21444E-15
 -1      4171 2.49822E-03-4.42104E-05-3.61027E-15
 -1      4172 2.11421E-03-4.01566E-05-2.67058E-15
 -1      4173 6.62799E-03-7.32357E-05-2.25866E-14
 -1      4174 4.82685E-03 7.77685E-05-1.22600E-14
 -1      4175 4.68630E-03 8.08468E-05-1.15784E-14
 -1      4176 4.89330E-03 4.11656E-05-1.26469E-14
 -1      4177 2.79187E-03-4.48647E-05-4.42142E-15
 -1      4178 6.10444E-03-1.44966E-04-1.98691E-14
 -1      4179 6.24617E-03-1.46882E-04-2.07335E-14
 -1      4180 6.28097E-03-1.15761E-04-2.07939E-14
 -1      4181 5.90421E-03-1.33064E-04-1.86036E-14
 -1      4182 6.01095E-03-1.36793E-04-1.92693E-14
 -1      4183 6.03754E-03-1.08864E-04-1.93281E-14
 -1      4184 5.84612E-03-9.59189E-05-1.81470E-14
 -1      4185 2.28216E-03 8.64705E-05-3.00641E-15
 -1      4186 2.13720E-03 8.49796E-05-2.66899E-15
 -1      4187 2.09737E-03 4.36895E-05-2.60312E-15
 -1      4188 1.33963E-02-1.99973E-03-6.59087E-14
 -1      4189 2.82835E-03 9.54829E-05-4.44878E-15
 -1      4190 2.68346E-03 9.50903E-05-4.03783E-15
 -1      4191 2.55536E-03 9.14391E-05-3.69304E-15
 -1      4192 2.41030E-03 9.05459E-05-3.31858E-15
 -1      4193 2.37039E-03 4.81686E-05-3.24537E-15
 -1      4194 2.62663E-03 5.51339E-05-3.90965E-15
 -1      4195 1.31797E-02-1.88651E-03-6.71006E-14
 -1      4196 1.30380E-02-1.81545E-03-6.54487E-14
 -1      4197 1.30351E-02-1.81465E-03-6.48210E-14
 -1      4198 2.15219E-03 6.63981E-07-2.74555E-15
 -1      4199 1.14818E-02-1.07792E-03-4.98765E-14
 -1      4200 1.16493E-02-1.14998E-03-5.11412E-14
 -1      4201 3.69284E-03 9.33401E-05-7.32865E-15
 -1      4202 3.54949E-03 9.41926E-05-6.79956E-15
 -1      4203 4.19392E-03 1.24741E-04-9.29783E-15
 -1      4204 3.97850E-03 9.10473E-05-8.44629E-15
 -1      4205 3.83585E-03 9.23035E-05-7.87746E-15
 -1      4206 3.76313E-03 5.63702E-05-7.63152E-15
 -1      4207 1.24049E-02-1.49831E-03-5.76805E-14
 -1      4208 1.22691E-02-1.43269E-03-5.64366E-14
 -1      4209 1.32638E-02-1.92844E-03-6.81579E-14
 -1      4210 3.30084E-03-8.42926E-06-6.00540E-15
 -1      4211 3.44469E-03-8.61357E-06-6.50344E-15
 -1      4212 3.56787E-03 5.92934E-06-6.93841E-15
 -1      4213 3.71104E-03 5.51743E-06-7.47322E-15
 -1      4214 3.85379E-03 4.95599E-06-8.02793E-15
 -1      4215 3.99611E-03 4.25967E-06-8.60163E-15
 -1      4216 4.43974E-03-1.35048E-05-1.05416E-14
 -1      4217 4.57984E-03-1.51832E-05-1.11947E-14
 -1      4218 4.70024E-03-3.15814E-06-1.17578E-14
 -1      4219 4.84636E-03-5.97056E-06-1.24791E-14
 -1      4220 4.98498E-03-9.27278E-06-1.31845E-14
 -1      4221 5.12299E-03-1.32366E-05-1.39075E-14
 -1      4222 5.26053E-03-1.80152E-05-1.46474E-14
 -1      4223 5.39750E-03-2.36798E-05-1.54042E-14
 -1      4224 5.53416E-03-3.03706E-05-1.61771E-14
 -1      4225 5.67038E-03-3.81952E-05-1.69676E-14
 -1      4226 2.97307E-03 9.56449E-05-4.87995E-15
 -1      4227 2.89952E-03 5.86286E-05-4.68663E-15
 -1      4228 3.11758E-03 9.55759E-05-5.33059E-15
 -1      4229 1.26771E-02-1.63298E-03-6.01839E-14
 -1      4230 1.28139E-02-1.70181E-03-6.14453E-14
 -1      4231 1.29512E-02-1.77144E-03-6.27126E-14
 -1      4232 1.30890E-02-1.84183E-03-6.39786E-14
 -1      4233 2.42526E-03 3.72072E-06-3.40541E-15
 -1      4234 2.57038E-03 3.74747E-06-3.78503E-15
 -1      4235 1.25407E-02-1.56512E-03-5.89298E-14
 -1      4236 1.21337E-02-1.36836E-03-5.52006E-14
 -1      4237 6.29374E-03-6.46332E-05-2.06508E-14
 -1      4238 4.56442E-03 6.89014E-05-1.10222E-14
 -1      4239 4.42342E-03 7.12015E-05-1.03742E-14
 -1      4240 2.99169E-03 6.74901E-06-4.99789E-15
 -1      4241 3.13619E-03 6.65281E-06-5.45366E-15
 -1      4242 4.27237E-03 8.04920E-05-9.69365E-15
 -1      4243 4.13052E-03 8.22020E-05-9.08406E-15
 -1      4244 4.05804E-03 4.69558E-05-8.81998E-15
 -1      4245 4.36072E-03 2.95175E-05-1.01420E-14
 -1      4246 1.33221E-02-1.96151E-03-6.56558E-14
 -1      4247 2.69840E-03 6.82630E-06-4.13474E-15
 -1      4248 2.84695E-03 6.81825E-06-4.56170E-15
 -1      4249 1.30709E-02-1.83299E-03-6.47423E-14
 -1      4250 1.17210E-02-1.18017E-03-5.22321E-14
 -1      4251 1.18239E-02-1.22643E-03-5.20589E-14
 -1      4252 1.19341E-02-1.27533E-03-5.29645E-14
 -1      4253 1.18539E-02-1.23983E-03-5.33486E-14
 -1      4254 3.49660E-03 4.28158E-05-6.65430E-15
 -1      4255 3.42572E-03 7.98755E-05-6.37291E-15
 -1      4256 1.32475E-02-1.92322E-03-6.54048E-14
 -1      4257 1.20050E-02-1.30853E-03-5.40726E-14
 -1      4258 5.80662E-03-4.71723E-05-1.77737E-14
 -1      4259 6.14118E-03-6.92519E-05-1.97879E-14
 -1      4260 3.20875E-03 4.35194E-05-5.66634E-15
 -1      4261 4.28918E-03-4.97573E-06-9.85751E-15
 -1      4262 5.90490E-03-5.20325E-05-1.83561E-14
 -1      4263 4.14790E-03-3.89849E-06-9.24349E-15
 -1      4264 4.63229E-03 3.26199E-05-1.13898E-14
 -1      4265 2.29719E-03 7.05546E-07-3.08779E-15
 -1      4266 6.73665E-03 1.63413E-05-2.28404E-14
 -1      4267 6.04172E-03-6.31119E-05-1.91871E-14
 -1      4268 3.28178E-03 8.03399E-05-5.88017E-15
 -1      4269 1.20434E-02-1.32491E-03-5.38780E-14
 -3
    1PSTEP                         2           1           1          
  100CL  101 1.000000000        4269                     0    1           1
 -4  STRESS      6    1
 -5  SXX         1    4    1    1
 -5  SYY         1    4    2    2
 -5  SZZ         1    4    3    3
 -5  SXY         1    4    1    2
 -5  SYZ         1    4    2    3
 -5  SZX         1    4    3    1
 -1         1-1.75174E+00-6.52335E+00-2.52556E+00-2.85532E+00-1.53333E-12-1.03562E-12
 -1         2-7.50153E-01-2.63721E+01-3.47296E+00 2.64577E-01-1.23968E-12 6.09443E-14
 -1         3 1.99987E+01-1.19216E-03 5.14321E-03-1.21850E-03-4.34115E-13-4.23778E-13
 -1         4 1.99979E+01-2.32631E-03 6.29675E-03 1.85818E-03 4.40782E-13-4.82363E-13
 -1         5 3.27483E+01 6.13881E+00 2.74059E+00 6.22161E+00-3.15165E-14 2.05810E-12
 -1         6 3.57312E+01 1.22562E+01 5.12265E+00-8.64286E+00-1.18572E-13 1.85812E-12
 -1         7 2.08076E+01 6.09653E+00-1.28767E-01-4.72468E+00-1.67227E-14 3.55962E-13
 -1         8 1.96655E+01 5.93304E+00 5.07622E-02-3.27494E+00-2.10942E-14-1.09534E-13
 -1         9 1.91353E+01 5.77139E+00 4.90837E-02-2.52728E+00-2.00239E-14-3.55241E-13
 -1        10 1.88979E+01 5.69281E+00 5.13629E-02-1.95157E+00-1.10233E-14-4.77759E-13
 -1        11 1.87785E+01 5.65271E+00 5.05221E-02-1.45607E+00-8.86617E-15-5.36091E-13
 -1        12 1.87168E+01 5.63155E+00 4.88766E-02-1.01499E+00-3.17996E-15-5.51296E-13
 -1        13 1.86845E+01 5.62047E+00 4.74868E-02-5.95115E-01-4.34364E-15-5.42375E-13
 -1        14 1.86709E+01 5.61579E+00 4.67442E-02-1.90998E-01 2.59200E-15-5.28589E-13
 -1        15 1.86713E+01 5.61592E+00 4.67805E-02 2.08315E-01 8.90499E-15-5.17593E-13
 -1        16 1.86858E+01 5.62089E+00 4.76105E-02 6.13211E-01 9.34853E-15-4.96412E-13
 -1        17 1.87193E+01 5.63220E+00 4.91450E-02 1.03497E+00 9.83632E-15-4.54264E-13
 -1        18 1.87821E+01 5.65365E+00 5.08918E-02 1.47910E+00 1.49195E-14-3.86697E-13
 -1        19 1.89028E+01 5.69433E+00 5.17460E-02 1.98026E+00 2.24369E-14-2.89841E-13
 -1        20 1.91415E+01 5.77406E+00 4.92016E-02 2.56422E+00 2.29886E-14-1.39236E-13
 -1        21 1.96609E+01 5.94768E+00 4.58012E-02 3.30894E+00 2.87964E-14 1.66823E-13
 -1        22 2.11904E+01 6.37826E+00 1.39300E-01 4.52210E+00 2.90046E-15 7.62545E-13
 -1        23 2.30123E+01-1.37837E+00-9.37932E-01-7.11229E-01-8.03732E-14 1.44511E-12
 -1        24 1.93496E+01-9.94579E-02-3.09754E-01 6.30716E-02-1.30234E-14 1.06867E-12
 -1        25 1.86607E+01-5.63463E-02-6.87522E-02 6.06269E-02 3.93826E-15 7.70476E-13
 -1        26 1.84581E+01-2.21478E-02-6.44793E-03 3.28363E-02-2.55471E-15 5.22046E-13
 -1        27 1.84697E+01-1.19065E-02 1.55133E-03 2.24166E-02 8.33567E-15 3.51778E-13
 -1        28 1.85850E+01-6.35854E-03 1.68797E-03 1.60888E-02-1.31087E-14 2.75274E-13
 -1        29 1.87486E+01-3.37378E-03 1.57404E-03 1.17412E-02 2.19608E-15 1.52938E-13
 -1        30 1.89374E+01-1.59254E-03 1.60554E-03 8.83295E-03-3.31071E-15-7.58000E-14
 -1        31 1.91189E+01-6.35161E-04 1.65200E-03 6.53575E-03 3.02716E-14-1.39975E-13
 -1        32 1.92936E+01-2.59893E-04 1.46237E-03 4.82293E-03-2.42460E-14-1.95980E-13
 -1        33 1.94602E+01-2.61601E-04 1.06393E-03 3.48981E-03 3.62635E-15-2.25782E-13
 -1        34 1.96213E+01-5.74669E-04 4.51068E-04 2.48185E-03 1.65623E-14-1.35854E-13
 -1        35 1.97836E+01-1.16132E-03-3.98950E-04 1.77992E-03 2.97739E-14-2.19315E-13
 -1        36 1.99574E+01-2.23991E-03-1.58250E-03 1.21317E-03-3.41407E-14-4.55212E-13
 -1        37 2.01682E+01-3.42724E-03-3.28299E-03 1.42486E-03-2.09501E-14-6.57290E-13
 -1        38 2.04182E+01-5.30753E-03-5.63853E-03 1.92516E-03-2.40236E-14-7.29088E-13
 -1        39 2.07457E+01-7.77913E-03-9.06196E-03 3.33421E-03 5.78131E-14-5.30473E-13
 -1        40 2.11921E+01-1.10548E-02-1.41138E-02 6.18674E-03-1.04485E-13-5.56628E-13
 -1        41 2.18155E+01-1.52092E-02-2.15366E-02 1.15130E-02 4.22303E-14-7.64371E-13
 -1        42 2.26949E+01-1.96331E-02-3.19485E-02 2.12060E-02 1.99634E-14-3.51303E-13
 -1        43 2.39338E+01-2.53652E-02-4.55014E-02 3.54372E-02-5.44296E-14-2.64538E-13
 -1        44 2.57390E+01-2.48162E-02-5.63037E-02 6.62184E-02 7.44266E-14-1.92388E-13
 -1        45 2.80231E+01-1.58338E-02-4.82956E-02 1.03130E-01-5.43032E-14 6.18464E-14
 -1        46 3.07437E+01 1.23191E-02 1.20608E-02 1.38941E-01 8.91651E-15-6.11039E-14
 -1        47 3.33349E+01 6.33032E-02 1.63241E-01 1.25364E-01 2.87747E-14 1.92100E-13
 -1        48 3.44229E+01 1.16868E-01 3.66436E-01-3.60865E-02 3.01347E-14 5.85879E-13
 -1        49 3.20188E+01 9.85865E-02 3.64064E-01-4.33865E-01 1.30070E-14 8.02580E-13
 -1        50 2.57436E+01-2.24075E-02-1.39149E-01-7.72908E-01 5.54374E-14 8.68444E-13
 -1        51 1.86033E+01-1.25033E-01-9.08320E-01-5.31532E-01 2.25583E-14 1.03058E-12
 -1        52 1.69122E+01-1.82817E-01-1.11462E+00 2.51112E-01-7.35315E-14 6.13919E-13
 -1        53 2.12180E+01-1.07339E-01-6.11310E-01 7.31177E-01-8.73329E-14 1.70891E-13
 -1        54 2.88257E+01 4.38406E-02 1.51017E-01 6.59555E-01 2.84391E-14 7.67997E-14
 -1        55 3.36649E+01 1.19883E-01 4.19589E-01 2.21156E-01-4.73076E-14 1.39638E-13
 -1        56 3.42313E+01 9.31059E-02 2.75870E-01-6.50213E-02-3.98110E-14-3.79387E-13
 -1        57 3.22168E+01 3.54861E-02 8.07373E-02-1.41793E-01-1.08082E-13-2.12497E-13
 -1        58 2.93191E+01-3.89205E-03-2.82880E-02-1.23153E-01 8.39588E-14-2.00881E-13
 -1        59 2.67881E+01-2.23677E-02-5.65427E-02-8.27267E-02-2.34947E-14-2.62013E-14
 -1        60 2.47914E+01-2.54576E-02-5.18976E-02-5.03482E-02-4.03948E-14 5.09218E-13
 -1        61 2.33189E+01-2.24810E-02-3.90398E-02-2.89126E-02-5.88119E-14 2.35702E-13
 -1        62 2.22692E+01-1.78289E-02-2.70971E-02-1.60239E-02 8.76350E-15 6.21690E-14
 -1        63 2.15325E+01-1.33562E-02-1.82023E-02-8.61807E-03-1.18252E-13-4.67959E-13
 -1        64 2.10172E+01-1.01301E-02-1.23487E-02-5.01448E-03 1.47332E-14-5.10227E-13
 -1        65 2.06449E+01-6.74948E-03-7.81182E-03-2.11152E-03-1.36422E-13-6.97267E-13
 -1        66 2.03992E+01-5.08576E-03-5.40482E-03-1.06332E-03-2.17869E-14-8.85430E-13
 -1        67 2.02282E+01-3.75592E-03-3.85528E-03-4.56805E-04 1.02036E-13-3.27612E-13
 -1        68 2.01112E+01-2.88416E-03-3.04248E-03-6.21918E-05 5.67453E-14-3.75079E-13
 -1        69 2.00358E+01-2.31250E-03-2.76930E-03 4.19859E-04 8.12332E-14-2.33222E-13
 -1        70 1.99962E+01-1.89099E-03-2.43597E-03 1.33955E-03-1.06730E-13-2.99965E-14
 -1        71 1.99895E+01-6.10268E-04 4.17101E-04 3.56482E-03-8.59199E-14-9.63180E-13
 -1        72 2.10263E+01-4.04898E-01-9.80232E-01-3.11277E-01 2.64233E-14 1.90031E-12
 -1        73 1.93148E+01-6.65902E-02-2.90741E-01-5.37660E-02 1.41133E-14 1.45862E-12
 -1        74 1.86709E+01-2.12719E-02-6.37176E-02-2.09205E-02 1.10655E-14 1.16961E-12
 -1        75 1.84690E+01-1.05439E-02-9.12067E-03-1.59242E-02-4.07096E-15 1.07844E-12
 -1        76 1.84810E+01-5.48031E-03 5.07123E-04-1.25299E-02-5.17782E-15 9.76740E-13
 -1        77 1.85966E+01-2.76331E-03 1.55080E-03-9.96228E-03-9.12738E-15 8.05142E-13
 -1        78 1.87600E+01-1.26782E-03 1.67875E-03-8.04747E-03-1.15015E-14 7.67015E-13
 -1        79 1.89412E+01-4.42314E-04 1.77194E-03-6.50857E-03 2.05091E-14 6.16487E-13
 -1        80 1.91240E+01-1.72707E-05 1.75809E-03-5.21596E-03-1.54496E-14 4.37279E-13
 -1        81 1.93004E+01 1.57395E-04 1.57901E-03-4.12714E-03 2.53478E-14 3.53178E-13
 -1        82 1.94676E+01 1.77708E-04 1.25324E-03-3.23693E-03-2.50632E-14 2.60721E-13
 -1        83 1.96264E+01 1.14423E-04 8.31898E-04-2.55817E-03 2.66059E-14 2.20902E-13
 -1        84 1.97795E+01 2.83437E-05 3.78526E-04-2.11500E-03 7.25313E-15 2.03749E-14
 -1        85 1.99304E+01-2.02688E-05-2.96657E-05-1.93918E-03 7.76092E-15 8.92826E-14
 -1        86 2.00826E+01 3.40240E-05-2.92395E-04-2.06450E-03 2.45679E-14 3.49724E-14
 -1        87 2.02376E+01 2.63617E-04-2.75962E-04-2.51513E-03-5.04559E-14-5.37983E-14
 -1        88 2.03939E+01 7.43548E-04 1.92019E-04-3.28362E-03 4.91436E-15-8.12002E-15
 -1        89 2.05447E+01 1.53736E-03 1.31362E-03-4.29461E-03 4.36462E-14-2.91571E-13
 -1        90 2.06758E+01 2.66872E-03 3.28272E-03-5.35349E-03-6.43967E-14-3.99323E-13
 -1        91 2.07640E+01 4.07656E-03 6.20014E-03-6.08821E-03-1.11845E-14-1.52316E-13
 -1        92 2.07762E+01 5.55865E-03 9.92886E-03-5.91096E-03 1.70116E-14-1.92617E-13
 -1        93 2.06717E+01 6.72463E-03 1.39037E-02-4.05282E-03-3.08851E-14-2.73258E-13
 -1        94 2.04089E+01 7.00333E-03 1.69728E-02 2.50365E-04 1.27733E-14-4.11777E-13
 -1        95 1.99575E+01 5.76693E-03 1.74379E-02 7.35754E-03-2.71142E-14-4.82674E-13
 -1        96 1.93167E+01 2.60877E-03 1.35053E-02 1.66613E-02 2.69787E-14-2.28605E-13
 -1        97 1.85322E+01-2.28802E-03 4.22937E-03 2.61500E-02 1.62579E-14-2.10375E-13
 -1        98 1.77056E+01-7.90633E-03-9.36655E-03 3.25811E-02 2.18696E-14-3.95635E-13
 -1        99 1.69825E+01-1.25698E-02-2.38107E-02 3.26331E-02-8.19104E-14-3.85306E-13
 -1       100 1.65164E+01-1.46175E-02-3.41437E-02 2.47310E-02 3.13366E-14-3.20625E-13
 -1       101 1.64172E+01-1.32549E-02-3.62576E-02 1.03973E-02-2.13901E-14-7.10782E-13
 -1       102 1.67094E+01-9.00103E-03-2.92375E-02-6.08373E-03 3.46142E-15-8.48891E-13
 -1       103 1.73217E+01-3.37547E-03-1.59351E-02-1.97384E-02-1.28650E-14-1.07078E-12
 -1       104 1.81158E+01 1.89901E-03-1.26635E-03-2.72821E-02-2.65196E-15-8.36983E-13
 -1       105 1.89364E+01 5.61082E-03 1.03616E-02-2.81846E-02-3.84477E-14-4.98735E-13
 -1       106 1.96576E+01 7.35286E-03 1.67568E-02-2.41213E-02-1.91692E-15-2.57202E-13
 -1       107 2.02061E+01 7.38483E-03 1.80600E-02-1.76226E-02 7.06833E-14-8.34950E-13
 -1       108 2.05622E+01 6.29825E-03 1.58235E-02-1.08943E-02-2.65602E-14-7.67388E-13
 -1       109 2.07445E+01 4.70879E-03 1.19063E-02-5.27615E-03 7.91621E-14-4.99856E-13
 -1       110 2.07916E+01 3.08228E-03 7.76573E-03-1.26526E-03-8.22595E-14-4.04251E-13
 -1       111 2.07464E+01 1.68900E-03 4.24015E-03 1.20345E-03 3.26511E-14-4.28124E-13
 -1       112 2.06476E+01 6.34083E-04 1.64135E-03 2.46064E-03-1.17774E-14-5.58901E-13
 -1       113 2.05246E+01-8.60809E-05-5.35364E-05 2.89589E-03-7.69174E-14-1.60164E-13
 -1       114 2.03980E+01-5.31363E-04-1.02885E-03 2.84899E-03-6.15416E-14-1.07138E-13
 -1       115 2.02803E+01-7.81099E-04-1.51993E-03 2.57103E-03 1.28256E-13-4.81058E-13
 -1       116 2.01786E+01-9.11077E-04-1.76234E-03 2.21914E-03-2.23115E-14-3.22521E-13
 -1       117 2.00966E+01-9.75693E-04-1.96913E-03 1.84853E-03-8.42632E-14-4.16515E-13
 -1       118 2.00368E+01-9.70612E-04-2.25862E-03 1.40078E-03 2.42662E-14-9.05702E-15
 -1       119 2.00018E+01-7.53756E-04-2.18533E-03 4.93339E-04 7.72278E-14-5.87714E-13
 -1       120 1.99941E+01 8.65280E-04 3.67535E-04-1.51641E-03 1.77007E-13-7.24642E-13
 -1       121 1.99999E+01-4.96288E-03 2.27936E-04-2.21840E-03-7.12894E-13 1.17228E-13
 -1       122 1.99987E+01 3.59948E-03-2.14468E-03-2.45048E-04-4.04136E-13 9.20814E-14
 -1       123 1.99989E+01 3.81954E-02-1.78796E-03 1.16591E-03 4.04890E-13 1.00021E-13
 -1       124 1.99994E+01 9.02564E-02-8.19440E-04 1.73022E-03 1.39104E-13-5.44386E-14
 -1       125 1.99999E+01 1.50152E-01 9.05185E-05 1.90119E-03 5.40516E-13 5.62320E-14
 -1       126 2.00005E+01 2.07545E-01 9.05333E-04 1.73970E-03 2.09065E-13 4.38960E-14
 -1       127 2.00009E+01 2.55375E-01 1.59092E-03 1.27849E-03-3.53221E-13 6.10305E-14
 -1       128 2.00013E+01 2.84942E-01 2.08404E-03 5.75242E-04-1.32914E-12-1.30757E-13
 -1       129 2.00014E+01 2.90738E-01 2.29295E-03-2.91206E-04-3.49874E-13 3.95719E-13
 -1       130 2.00013E+01 2.70506E-01 2.12796E-03-1.19763E-03-5.13087E-13-1.95691E-13
 -1       131 2.00009E+01 2.26189E-01 1.51904E-03-1.99678E-03-1.95264E-12 3.80637E-14
 -1       132 2.00003E+01 1.65471E-01 4.95587E-04-2.40806E-03-1.66290E-12 3.84269E-13
 -1       133 1.99995E+01 9.72116E-02-8.97158E-04-2.30290E-03-7.71482E-13-1.77077E-13
 -1       134 1.99987E+01 3.64434E-02-2.30245E-03-1.42282E-03-9.54931E-14 1.60049E-13
 -1       135 1.99990E+01-2.53204E-03-2.60816E-03 8.32689E-04 7.45607E-13 2.29723E-13
 -1       136 1.99989E+01-1.08404E-02 6.43171E-05 3.58623E-03 1.31411E-12 1.17605E-13
 -1       137-1.37537E+00-1.97548E+01-2.99569E+00-3.77281E+00-5.02209E-13-1.33005E-13
 -1       138-1.04065E+00-6.55100E+00-2.03954E+00-2.06660E+00-6.51701E-14-3.55549E-14
 -1       139 4.47386E+00 5.73653E+00-7.56297E-01 5.22810E+00 9.11549E-13 7.85039E-13
 -1       140 1.77342E+01 1.18405E+01 6.24861E-01 1.43733E+01 1.46244E-12 1.79229E-12
 -1       141 3.87181E+01 1.03926E+01 2.04387E+00 1.94027E+01 1.04383E-12 1.90875E-12
 -1       142 5.76084E+01 4.86870E+00 3.02287E+00 1.53385E+01 5.12881E-13 1.63985E-12
 -1       143 6.77288E+01 1.06237E+00 3.48387E+00 3.66260E+00 8.09908E-14 5.75484E-13
 -1       144 6.44322E+01 2.39727E+00 3.34116E+00-9.86660E+00 5.20359E-14-1.97065E-14
 -1       145 4.86748E+01 7.76413E+00 2.57631E+00-1.84307E+01 3.19689E-13-5.41289E-13
 -1       146 2.85887E+01 1.19370E+01 1.41188E+00-1.81000E+01 1.00320E-12-1.44795E-12
 -1       147 1.11700E+01 1.01598E+01 1.81570E-02-1.06590E+01 1.63469E-12-1.47632E-12
 -1       148 8.84523E-01 3.68864E-01-1.39264E+00-1.15155E+00 2.14428E-12-1.27665E-12
 -1       149-1.56223E+00-1.29989E+01-2.52913E+00 3.62364E+00 1.74999E-12-6.65412E-13
 -1       150-9.80927E-01-2.39435E+01-3.27768E+00 2.30913E+00 1.24767E-12-6.96795E-14
 -1       151-9.56224E-01-2.62332E+01-3.51427E+00-2.53996E+00 3.86538E-13-7.39894E-14
 -1       152-2.41993E+00-1.95604E+01-3.29863E+00-5.72964E+00-6.88449E-13-1.47257E-13
 -1       153 5.61936E+00 4.96714E+00-1.26283E+00 5.58959E+00-2.16116E-12-1.91452E-12
 -1       154 2.33011E+01 1.04601E+01 5.72393E-01 1.55214E+01-1.93667E-12-2.77856E-12
 -1       155 4.94470E+01 8.28102E+00 2.84478E+00 1.92483E+01-1.21356E-12-2.76967E-12
 -1       156 7.19688E+01 3.01421E+00 4.66078E+00 1.17569E+01-4.10057E-13-2.32575E-12
 -1       157 7.79741E+01 1.19903E+00 5.14768E+00-3.19621E+00-1.66499E-14-1.37508E-12
 -1       158 6.43095E+01 5.00530E+00 4.05419E+00-1.62687E+01-7.01522E-14-8.06022E-14
 -1       159 3.96655E+01 9.80399E+00 2.02208E+00-1.92373E+01-5.46119E-13 1.05826E-12
 -1       160 1.65685E+01 9.41463E+00-9.13201E-02-1.25303E+01-1.19010E-12 1.44051E-12
 -1       161 1.63053E+00 9.11938E-01-1.83235E+00-1.78168E+00-1.47382E-12 1.18999E-12
 -1       162-2.66383E+00-1.21764E+01-2.91767E+00 4.97797E+00-2.11503E-12 9.04277E-13
 -1       163-1.75721E+00-2.32135E+01-3.45263E+00 4.79957E+00-1.62140E-12 4.99066E-13
 -1       164 2.10044E+01 3.69256E+00-5.73770E-02-3.60966E+00-2.62505E-13 1.11623E-13
 -1       165 1.99861E+01 4.20763E+00-4.59275E-02-2.80816E+00-2.40441E-13-1.75669E-13
 -1       166 1.95106E+01 4.47649E+00-3.13224E-02-2.19557E+00-1.84278E-13-3.36689E-13
 -1       167 1.92713E+01 4.61607E+00-2.34711E-02-1.67416E+00-1.31218E-13-4.16705E-13
 -1       168 1.91430E+01 4.69862E+00-1.95104E-02-1.21846E+00-8.42979E-14-4.48423E-13
 -1       169 1.90707E+01 4.75032E+00-1.74142E-02-7.91458E-01-5.11653E-14-4.57179E-13
 -1       170 1.90343E+01 4.77867E+00-1.64000E-02-3.86442E-01 4.35491E-15-4.42694E-13
 -1       171 1.90236E+01 4.78739E+00-1.61067E-02 8.43027E-03 4.43899E-14-4.26895E-13
 -1       172 1.90358E+01 4.77743E+00-1.64391E-02 4.03613E-01 8.93516E-14-4.10935E-13
 -1       173 1.90740E+01 4.74743E+00-1.74926E-02 8.09619E-01 1.24087E-13-3.86097E-13
 -1       174 1.91470E+01 4.69432E+00-1.96588E-02 1.23102E+00 1.60550E-13-3.36751E-13
 -1       175 1.92801E+01 4.60650E+00-2.39596E-02 1.69767E+00 2.23346E-13-2.63780E-13
 -1       176 1.95243E+01 4.45976E+00-3.25901E-02 2.22519E+00 2.70415E-13-1.52335E-13
 -1       177 2.00087E+01 4.18337E+00-4.71415E-02 2.84738E+00 2.91159E-13 5.32942E-14
 -1       178 2.11259E+01 3.46252E+00-6.00435E-02 3.53559E+00 2.77603E-13 4.16611E-13
 -1       179 2.24062E+01 1.14341E+00-3.36436E-01 3.01422E+00 1.98763E-13 8.84529E-13
 -1       180 2.19591E+01 8.58053E-01 6.86386E-04-1.95911E+00-2.28751E-13 4.71127E-13
 -1       181 2.04350E+01 1.90381E-01-9.91072E-03-7.64280E-01-1.79828E-13 3.53019E-13
 -1       182 1.96602E+01 1.01764E-01 1.36299E-02-2.85545E-01-1.45397E-13 2.55218E-13
 -1       183 1.93216E+01 4.74255E-02 1.00399E-02-6.72894E-02-1.29943E-13 1.49418E-13
 -1       184 1.91942E+01 2.30293E-02 5.19207E-03 4.10586E-02-5.44232E-14 8.38329E-14
 -1       185 1.91848E+01 1.02982E-02 2.47611E-03 9.53517E-02-8.62452E-14 3.84789E-14
 -1       186 1.92441E+01 3.07784E-03 1.21478E-03 1.21229E-01-8.40632E-14-1.50028E-14
 -1       187 1.93348E+01-4.95306E-04 6.10924E-04 1.29636E-01-4.90720E-14-3.64849E-14
 -1       188 1.94424E+01-1.91729E-03 3.47869E-04 1.30076E-01-3.67049E-14-8.68695E-14
 -1       189 1.95582E+01-1.82644E-03 2.45669E-04 1.27883E-01-5.81454E-14-1.01248E-13
 -1       190 1.96793E+01-5.15096E-04 2.57368E-04 1.26889E-01 1.39573E-14-1.94765E-13
 -1       191 1.98068E+01 1.91943E-03 3.61414E-04 1.30361E-01-3.31150E-14-2.31900E-13
 -1       192 1.99456E+01 5.52966E-03 5.74876E-04 1.41385E-01-1.53167E-13-2.98699E-13
 -1       193 2.01125E+01 1.10522E-02 8.73538E-04 1.65184E-01-1.37996E-13-3.37990E-13
 -1       194 2.03046E+01 1.83562E-02 1.31113E-03 2.04370E-01-5.34958E-14-4.42647E-13
 -1       195 2.05462E+01 2.85895E-02 1.88126E-03 2.65687E-01 8.22091E-14-4.70513E-13
 -1       196 2.08604E+01 4.28891E-02 2.58509E-03 3.57816E-01-4.74513E-14-5.22898E-13
 -1       197 2.12773E+01 6.26510E-02 3.35379E-03 4.92093E-01-2.87331E-14-3.36794E-13
 -1       198 2.18352E+01 8.89555E-02 3.91982E-03 6.82482E-01 2.20127E-13-1.92178E-13
 -1       199 2.25796E+01 1.21168E-01 3.87834E-03 9.41885E-01 1.60107E-13-1.05986E-13
 -1       200 2.36115E+01 1.53687E-01 2.19830E-03 1.29239E+00 2.07816E-14 7.67309E-14
 -1       201 2.48655E+01 1.59364E-01-1.64277E-03 1.67034E+00 5.72970E-14 1.40912E-14
 -1       202 2.63701E+01 8.55259E-02-5.80120E-03 1.96637E+00-7.06900E-14 4.81039E-14
 -1       203 2.80150E+01-1.65167E-01-5.51572E-03 1.89881E+00 1.38548E-13 8.52686E-14
 -1       204 2.95397E+01-6.74345E-01 3.89575E-03 9.93957E-01 2.07090E-13 2.12825E-13
 -1       205 3.04830E+01-1.24242E+00 3.88264E-03-1.12208E+00 1.12146E-13 2.22829E-13
 -1       206 3.02900E+01-1.09127E+00-5.02121E-02-3.64334E+00 6.02417E-14 3.74659E-13
 -1       207 2.87326E+01 6.28179E-01-1.92968E-01-4.22106E+00-6.92640E-14 3.20447E-13
 -1       208 2.75972E+01 2.18112E+00-2.29081E-01-1.29962E+00-1.69531E-13 1.00747E-13
 -1       209 2.78371E+01 1.79261E+00-2.20917E-01 2.70254E+00-1.31853E-13 2.01452E-13
 -1       210 2.94362E+01-2.60560E-01-1.26502E-01 4.37274E+00-2.41730E-13 4.93355E-15
 -1       211 3.05164E+01-1.31941E+00-1.49582E-02 2.57141E+00-2.19599E-14-4.06656E-13
 -1       212 3.01517E+01-1.01378E+00 1.06374E-02-1.56110E-02-1.65173E-13-3.61650E-13
 -1       213 2.88767E+01-4.07024E-01 3.58828E-04-1.55256E+00-2.02963E-16-2.25757E-14
 -1       214 2.71671E+01-5.93560E-03-7.08012E-03-1.99885E+00-2.36625E-14-9.77361E-14
 -1       215 2.55761E+01 1.40176E-01-3.64256E-03-1.82879E+00 1.77104E-13-3.54569E-14
 -1       216 2.41944E+01 1.63808E-01 4.60541E-04-1.46737E+00 3.45733E-13 1.59999E-13
 -1       217 2.30819E+01 1.41015E-01 3.11621E-03-1.10332E+00-1.39483E-13 1.87358E-13
 -1       218 2.22254E+01 1.08064E-01 3.94809E-03-8.01961E-01-1.11035E-13 1.97307E-13
 -1       219 2.15840E+01 7.84637E-02 3.70968E-03-5.73129E-01-2.89841E-13 1.26666E-13
 -1       220 2.11109E+01 5.56157E-02 3.01243E-03-4.06610E-01-1.68848E-13 2.59260E-14
 -1       221 2.07519E+01 3.83189E-02 2.40072E-03-2.82966E-01-1.06510E-13-1.22976E-13
 -1       222 2.05063E+01 2.68580E-02 1.74361E-03-1.99898E-01-5.29973E-14-7.63631E-16
 -1       223 2.03289E+01 1.91974E-02 1.30247E-03-1.40735E-01 2.27843E-13 1.61390E-13
 -1       224 2.02023E+01 1.42808E-02 9.61711E-04-9.74503E-02 5.22279E-14 1.07747E-13
 -1       225 2.01140E+01 1.14915E-02 6.84813E-04-6.41956E-02-7.29395E-14-1.40847E-13
 -1       226 2.00553E+01 1.02522E-02 4.56173E-04-3.66418E-02-8.59848E-14-5.29278E-13
 -1       227 2.00200E+01 9.16372E-03 4.12410E-04-1.32776E-02-3.31744E-13-2.76488E-13
 -1       228 2.00047E+01 4.54008E-03 2.61097E-05-2.94339E-04 3.04955E-14-6.79091E-14
 -1       229 2.09516E+01 2.77998E-01-5.07952E-02 1.16516E+00 2.09957E-13 7.81111E-13
 -1       230 1.98624E+01 1.30650E-01 1.00280E-02 4.46871E-01 1.36245E-13 6.36364E-13
 -1       231 1.93584E+01 5.64999E-02 1.34384E-02 1.48380E-01 4.84821E-14 5.09696E-13
 -1       232 1.91479E+01 2.29170E-02 7.36355E-03 5.60186E-03 7.31494E-14 4.61058E-13
 -1       233 1.90987E+01 1.03528E-02 3.62158E-03-6.42276E-02 7.30167E-14 3.95881E-13
 -1       234 1.91384E+01 3.90294E-03 1.78071E-03-9.77795E-02 4.92944E-14 2.94495E-13
 -1       235 1.92253E+01 4.36092E-04 9.32632E-04-1.11706E-01 9.20770E-14 2.30653E-13
 -1       236 1.93355E+01-1.29584E-03 5.11547E-04-1.14915E-01 6.01530E-14 1.79721E-13
 -1       237 1.94555E+01-1.91983E-03 2.80684E-04-1.12807E-01 6.03835E-14 1.83526E-13
 -1       238 1.95784E+01-1.82252E-03 1.45526E-04-1.08821E-01 3.83685E-14 1.35396E-13
 -1       239 1.97014E+01-1.28104E-03 6.32527E-05-1.05145E-01 5.74915E-14 8.16496E-14
 -1       240 1.98240E+01-5.29281E-04 8.54158E-06-1.03023E-01 8.55020E-14 4.50938E-14
 -1       241 1.99472E+01 1.99135E-04-3.71460E-05-1.02874E-01-7.33478E-15-5.11242E-16
 -1       242 2.00720E+01 6.37174E-04-8.84520E-05-1.04262E-01 8.24070E-17 6.33795E-14
 -1       243 2.01986E+01 4.58947E-04-1.56025E-04-1.05777E-01 5.75419E-15 1.62939E-13
 -1       244 2.03248E+01-7.30335E-04-2.44576E-04-1.04857E-01 1.86916E-14 6.37123E-15
 -1       245 2.04450E+01-3.37235E-03-3.49545E-04-9.76372E-02 9.11725E-14 5.74540E-15
 -1       246 2.05487E+01-7.87444E-03-4.53511E-04-7.89692E-02-3.51132E-14 1.10309E-13
 -1       247 2.06195E+01-1.44355E-02-5.24989E-04-4.28393E-02-2.26394E-14 6.60750E-14
 -1       248 2.06349E+01-2.27558E-02-5.23533E-04 1.65036E-02 2.84361E-14-4.23639E-14
 -1       249 2.05683E+01-3.16560E-02-4.16099E-04 1.02414E-01-1.14177E-14-1.22572E-15
 -1       250 2.03933E+01-3.87411E-02-2.03384E-04 2.12670E-01 8.15363E-14-2.83488E-14
 -1       251 2.00917E+01-4.04223E-02 5.66112E-05 3.35869E-01 4.45141E-14-2.02952E-14
 -1       252 1.96642E+01-3.27428E-02 2.50868E-04 4.49150E-01-1.24115E-13-7.72386E-14
 -1       253 1.91412E+01-1.32651E-02 2.63363E-04 5.20009E-01 8.67460E-14-4.97193E-14
 -1       254 1.85879E+01 1.64739E-02 7.16300E-05 5.14653E-01 3.04932E-15-6.57295E-14
 -1       255 1.80978E+01 4.95170E-02-1.78986E-04 4.12270E-01-3.79989E-14 4.71988E-14
 -1       256 1.77707E+01 7.50129E-02-2.40885E-04 2.19271E-01 2.80696E-14-7.14241E-14
 -1       257 1.76807E+01 8.30852E-02 6.02791E-05-2.60870E-02 1.58822E-13-1.07518E-13
 -1       258 1.78494E+01 7.03850E-02 6.51300E-04-2.64990E-01 6.91808E-14-1.51416E-13
 -1       259 1.82364E+01 4.21770E-02 1.21080E-03-4.41243E-01 1.57718E-13-2.56991E-13
 -1       260 1.87561E+01 9.11396E-03 1.41226E-03-5.22934E-01-1.38939E-13-4.49323E-13
 -1       261 1.93080E+01-1.85706E-02 1.14373E-03-5.10261E-01-1.31993E-13-3.76482E-13
 -1       262 1.98064E+01-3.51935E-02 5.47545E-04-4.28089E-01-2.79910E-14-3.71697E-13
 -1       263 2.01974E+01-4.03261E-02-1.20527E-04-3.11020E-01 1.90765E-13-2.76865E-13
 -1       264 2.04612E+01-3.69577E-02-6.39333E-04-1.90069E-01-1.31309E-13-1.59408E-13
 -1       265 2.06046E+01-2.90725E-02-9.06925E-04-8.57554E-02-2.47861E-14-3.29694E-13
 -1       266 2.06499E+01-2.00015E-02-9.36142E-04-7.40274E-03-7.33900E-14-3.69074E-13
 -1       267 2.06245E+01-1.18229E-02-8.01906E-04 4.40865E-02 2.52120E-15-3.62903E-13
 -1       268 2.05551E+01-5.46137E-03-5.89237E-04 7.26072E-02-3.14762E-14-3.68219E-14
 -1       269 2.04634E+01-1.05288E-03-3.64793E-04 8.38641E-02-1.77381E-13-1.86081E-13
 -1       270 2.03651E+01 1.69034E-03-1.68389E-04 8.34626E-02 5.69474E-14-2.30033E-13
 -1       271 2.02710E+01 3.21903E-03-1.89359E-05 7.59496E-02 1.76845E-13-4.06321E-13
 -1       272 2.01875E+01 4.00524E-03 7.37499E-05 6.44932E-02-3.65732E-14-3.89148E-13
 -1       273 2.01182E+01 4.47889E-03 9.72884E-05 5.09067E-02-1.09565E-13-7.04990E-14
 -1       274 2.00650E+01 4.91276E-03 4.00770E-05 3.59337E-02 9.03176E-15-1.15453E-13
 -1       275 2.00284E+01 5.58174E-03 2.97598E-05 1.96499E-02 1.84430E-13-7.30109E-14
 -1       276 2.00076E+01 4.70271E-03 3.73077E-04 4.10576E-03 1.16668E-13 3.95259E-14
 -1       277 2.00073E+01 1.67420E-02 2.08472E-04 1.32059E-02 4.97751E-14 2.27947E-13
 -1       278 2.00064E+01 4.27675E-02 6.86350E-05 2.96364E-02 4.01464E-14 4.00815E-13
 -1       279 2.00036E+01 7.95820E-02 6.56880E-05 4.17381E-02 2.23226E-14-3.94899E-14
 -1       280 2.00007E+01 1.22920E-01 7.46246E-06 4.74051E-02-1.18045E-13 2.77978E-13
 -1       281 1.99979E+01 1.66732E-01-8.92286E-05 4.59962E-02 6.00325E-14-2.70360E-13
 -1       282 1.99952E+01 2.06587E-01-1.81978E-04 3.77133E-02 6.51649E-14-4.85084E-13
 -1       283 1.99931E+01 2.35940E-01-2.56513E-04 2.34725E-02-1.02090E-13-2.83105E-13
 -1       284 1.99919E+01 2.50162E-01-2.93397E-04 4.97477E-03 4.34954E-14 3.00997E-13
 -1       285 1.99918E+01 2.46453E-01-2.84682E-04-1.52726E-02-3.47969E-13-2.41381E-13
 -1       286 1.99931E+01 2.24558E-01-2.29430E-04-3.40735E-02-4.30799E-13-7.88869E-13
 -1       287 1.99957E+01 1.87957E-01-1.38578E-04-4.77023E-02-4.43679E-13 1.00615E-14
 -1       288 1.99997E+01 1.40901E-01-5.23057E-05-5.33801E-02-3.89775E-13 4.04522E-13
 -1       289 2.00043E+01 9.16629E-02 1.00005E-05-4.86903E-02-2.93993E-13 2.80110E-13
 -1       290 2.00081E+01 4.86342E-02 3.80689E-05-3.35188E-02-1.30801E-13 5.69331E-13
 -1       291 2.00082E+01 2.22521E-02 5.65380E-05-1.55272E-02-4.29817E-14 4.75007E-15
 -1       292-7.98144E-01-1.13937E+01-9.73822E-01 2.05210E+00-5.94524E-13 3.25379E-13
 -1       293 3.72023E+00-7.94793E+00-6.37356E-01 4.76987E+00-4.51333E-13 1.30382E-13
 -1       294 1.05058E+01-4.08755E+00-4.21339E-01 6.38533E+00-9.19265E-14 7.14040E-13
 -1       295 2.03553E+01-2.28769E-01-2.29643E-02 7.97447E+00 2.47580E-13 1.01327E-12
 -1       296 3.09750E+01 3.33277E+00 3.72706E-01 8.08893E+00 6.53810E-13 9.26259E-13
 -1       297 4.04598E+01 5.68448E+00 6.99322E-01 6.31354E+00 5.42698E-13 8.34860E-13
 -1       298 4.63210E+01 6.92647E+00 8.96186E-01 3.04816E+00 5.88349E-13 4.29934E-13
 -1       299 4.75468E+01 7.19558E+00 9.24324E-01-9.63393E-01 4.06619E-13 1.53183E-13
 -1       300 4.33667E+01 6.48058E+00 7.37443E-01-4.36715E+00 4.57953E-13-2.49606E-13
 -1       301 3.61403E+01 4.65641E+00 5.41059E-01-7.36567E+00 7.57470E-13-3.44086E-13
 -1       302 2.60951E+01 2.21277E+00 2.14445E-01-8.47987E+00 7.72882E-13-4.97491E-13
 -1       303 1.63018E+01-2.26143E+00-1.76759E-01-7.49894E+00 8.30475E-13-4.35235E-13
 -1       304 6.73456E+00-6.15620E+00-5.87944E-01-5.37691E+00 8.53650E-13-7.11056E-13
 -1       305 1.23553E+00-9.26656E+00-7.32666E-01-3.68242E+00 6.32494E-13-4.04177E-13
 -1       306-1.45781E+00-1.14028E+01-9.34162E-01-1.15010E+00 3.09815E-13-5.44148E-13
 -1       307-5.00686E-01-1.15868E+01-1.04384E+00 8.52660E-01-1.76248E-14-5.69933E-13
 -1       308 4.44274E+00-8.85128E+00-8.61009E-01 3.36824E+00-3.85247E-13-8.25281E-13
 -1       309 1.27835E+01-5.26176E+00-6.25329E-01 5.33705E+00-8.14016E-13-1.13923E-12
 -1       310 2.43455E+01-1.49008E+00-1.50058E-01 6.65884E+00-8.95561E-13-1.26388E-12
 -1       311 3.74887E+01 2.02838E+00 5.27010E-01 6.15552E+00-7.98570E-13-1.14619E-12
 -1       312 4.69341E+01 5.17932E+00 1.02353E+00 2.71398E+00-6.30010E-13-9.70890E-13
 -1       313 5.33484E+01 6.97586E+00 1.57738E+00 8.26148E-01-5.37265E-13-8.36289E-13
 -1       314 5.21750E+01 6.49721E+00 1.51110E+00-2.06854E+00-5.41206E-13-4.30822E-13
 -1       315 4.46172E+01 4.12297E+00 9.73739E-01-4.80327E+00-5.47454E-13-1.90070E-13
 -1       316 3.31134E+01 8.17370E-01 2.90240E-01-6.41007E+00-7.57838E-13 3.53439E-13
 -1       317 2.09737E+01-3.60537E+00-3.05923E-01-6.20910E+00-5.12146E-13 5.90417E-13
 -1       318 8.86147E+00-6.83069E+00-7.65623E-01-4.54214E+00-7.43960E-13 4.16153E-13
 -1       319 1.77899E+00-1.03178E+01-1.00171E+00-2.14361E+00-6.86562E-13 3.59879E-13
 -1       320-1.23399E+00-1.09420E+01-8.88219E-01-1.55503E-01-6.92918E-13 3.50497E-13
 -1       321 2.01352E+01 3.00098E+00-2.19724E-02-2.09625E+00-2.42544E-13-1.69352E-13
 -1       322 2.07503E+01 2.20799E+00-1.76656E-02-2.36378E+00-2.61846E-13 5.57714E-15
 -1       323 1.95884E+01 3.69372E+00-1.55985E-02-1.31567E+00-1.43713E-13-3.26487E-13
 -1       324 1.94670E+01 3.85176E+00-1.37082E-02-9.22204E-01-9.19176E-14-3.45790E-13
 -1       325 1.93989E+01 3.94352E+00-1.27127E-02-5.42787E-01-2.33820E-14-3.30971E-13
 -1       326 1.93687E+01 3.98532E+00-1.22872E-02-1.72738E-01 3.68576E-14-3.20501E-13
 -1       327 1.93699E+01 3.98376E+00-1.23026E-02 1.94252E-01 7.88950E-14-3.13806E-13
 -1       328 1.94027E+01 3.93845E+00-1.27510E-02 5.64585E-01 1.27345E-13-2.99381E-13
 -1       329 1.94725E+01 3.84434E+00-1.37637E-02 9.38064E-01 1.71812E-13-2.63225E-13
 -1       330 1.95977E+01 3.68083E+00-1.56783E-02 1.33209E+00 2.36829E-13-1.97627E-13
 -1       331 1.98100E+01 3.41121E+00-1.90478E-02 1.73825E+00 2.86935E-13-1.25063E-13
 -1       332 2.01737E+01 2.95139E+00-2.32645E-02 2.12267E+00 3.21915E-13 3.42695E-15
 -1       333 2.07533E+01 2.10597E+00-2.94745E-02 2.30639E+00 3.13542E-13 2.27351E-13
 -1       334 2.10837E+01 1.18615E+00-2.41130E-02 1.91421E+00 2.79129E-13 4.50172E-13
 -1       335 2.03732E+01 4.93979E-01 7.82050E-03 9.24691E-01 1.97577E-13 3.72486E-13
 -1       336 2.04521E+01 6.75465E-01 1.25986E-02-1.02407E+00-1.99687E-13 3.81310E-14
 -1       337 2.00315E+01 3.38094E-01 7.20078E-03-4.56119E-01-1.94646E-13 1.45578E-14
 -1       338 1.97796E+01 1.78321E-01 4.12155E-03-1.45381E-01-1.28969E-13 2.47259E-14
 -1       339 1.96478E+01 9.33575E-02 1.88942E-03 2.86952E-02-1.11174E-13-6.03087E-14
 -1       340 1.95974E+01 4.39704E-02 8.37172E-04 1.27543E-01-1.12228E-13-9.54576E-14
 -1       341 1.96025E+01 1.78709E-02 3.28190E-04 1.75417E-01-6.98280E-14-1.00952E-13
 -1       342 1.96401E+01 4.31889E-03 1.27369E-04 1.97829E-01-5.11449E-14-8.56412E-14
 -1       343 1.96979E+01-7.80742E-04 4.82932E-05 2.07343E-01-9.27883E-14-1.25498E-13
 -1       344 1.97691E+01 4.07309E-04 5.54430E-05 2.12790E-01-7.57684E-14-1.20160E-13
 -1       345 1.98508E+01 6.82655E-03 1.29823E-04 2.21002E-01-2.54345E-14-1.84337E-13
 -1       346 1.99429E+01 1.82052E-02 2.80428E-04 2.37804E-01-8.14027E-14-1.53932E-13
 -1       347 2.00536E+01 3.61836E-02 5.04373E-04 2.71235E-01-1.31288E-13-5.16008E-14
 -1       348 2.01770E+01 6.04295E-02 8.20689E-04 3.25000E-01-1.55211E-13 1.56416E-14
 -1       349 2.03247E+01 9.38534E-02 1.26450E-03 4.08223E-01-6.38147E-14-1.07810E-13
 -1       350 2.05047E+01 1.39704E-01 1.86043E-03 5.31437E-01 2.28266E-14-2.09298E-13
 -1       351 2.07261E+01 2.01910E-01 2.63428E-03 7.07996E-01 5.65177E-14-1.40890E-13
 -1       352 2.09988E+01 2.83964E-01 3.53437E-03 9.54067E-01 1.76619E-13 4.80502E-15
 -1       353 2.13324E+01 3.85707E-01 4.38953E-03 1.28618E+00 2.13558E-13-1.11172E-13
 -1       354 2.17572E+01 4.99104E-01 4.90659E-03 1.73945E+00 1.33053E-13-1.48948E-13
 -1       355 2.22456E+01 5.68118E-01 3.98150E-03 2.26025E+00 3.37295E-14-5.31562E-14
 -1       356 2.28566E+01 4.85770E-01 1.47650E-03 2.79913E+00-6.79025E-14 2.56631E-14
 -1       357 2.37038E+01 3.42316E-02-3.46859E-04 3.17715E+00 4.63750E-14 9.46018E-15
 -1       358 2.50517E+01-1.07753E+00 2.23840E-03 3.02221E+00 2.36522E-13 7.52978E-14
 -1       359 2.73088E+01-2.86140E+00 5.26051E-03 1.75943E+00 2.40776E-13 1.91561E-14
 -1       360 3.03144E+01-4.09778E+00-5.03977E-02-8.19386E-01 2.70454E-13 9.78852E-14
 -1       361 3.37374E+01-1.42189E+00-7.06329E-02-3.80666E+00-1.58033E-13 2.24376E-13
 -1       362 3.52316E+01 5.98636E+00-7.91375E-02 8.12290E-01-4.53942E-13-9.95211E-15
 -1       363 3.21293E+01-2.89582E+00-1.06961E-01 3.19866E+00-2.52426E-13-6.91530E-13
 -1       364 2.92664E+01-3.40683E+00-1.00694E-02-6.30393E-02 4.84179E-14-4.19295E-13
 -1       365 2.66677E+01-1.82784E+00-1.33756E-04-2.25258E+00 8.00757E-14-1.42670E-13
 -1       366 2.48283E+01-3.90029E-01-3.74970E-03-3.02511E+00-1.36276E-14 1.03409E-13
 -1       367 2.36946E+01 2.84463E-01-1.01950E-03-2.89804E+00 7.95409E-14 2.63024E-13
 -1       368 2.28780E+01 4.93208E-01 2.48659E-03-2.43276E+00 2.12853E-13 1.70604E-13
 -1       369 2.22385E+01 4.82028E-01 4.51666E-03-1.90515E+00 6.70601E-14-1.68911E-13
 -1       370 2.17205E+01 3.96148E-01 4.84755E-03-1.43448E+00-7.47436E-14-2.95434E-14
 -1       371 2.13020E+01 3.01024E-01 4.24816E-03-1.05632E+00-3.19722E-13-1.25094E-13
 -1       372 2.09682E+01 2.20148E-01 3.30045E-03-7.68347E-01-2.45810E-13-1.45547E-13
 -1       373 2.06964E+01 1.55100E-01 2.47539E-03-5.46601E-01-7.49278E-14 9.38252E-14
 -1       374 2.04982E+01 1.10709E-01 1.76922E-03-3.93867E-01-2.98799E-14 3.25749E-13
 -1       375 2.03472E+01 7.94563E-02 1.27796E-03-2.82697E-01 2.97460E-13 4.99373E-13
 -1       376 2.02336E+01 5.83064E-02 9.34470E-04-2.01065E-01-9.59449E-14 3.49230E-13
 -1       377 2.01492E+01 4.47744E-02 6.79285E-04-1.39560E-01-1.61228E-13-3.35108E-14
 -1       378 2.00876E+01 3.70810E-02 5.59764E-04-9.11764E-02-2.55795E-13-5.04228E-14
 -1       379 2.00430E+01 3.21011E-02 3.96564E-04-5.12676E-02-1.34517E-13 5.22499E-14
 -1       380 1.98363E+01 2.26486E-01 6.89379E-03 2.72780E-01 1.08949E-13 1.64989E-13
 -1       381 1.96449E+01 1.14695E-01 3.33558E-03 4.30718E-02 1.21003E-13 1.46086E-13
 -1       382 1.95589E+01 5.83057E-02 1.53732E-03-8.22499E-02 1.44733E-13 1.03206E-13
 -1       383 1.95428E+01 2.63979E-02 6.70399E-04-1.48697E-01 8.49296E-14 5.03094E-14
 -1       384 1.95699E+01 8.56322E-03 2.61051E-04-1.80878E-01 8.28258E-14 2.47231E-14
 -1       385 1.96230E+01-6.07294E-04 6.58905E-05-1.93639E-01 1.79787E-14-1.22707E-14
 -1       386 1.96911E+01-4.20935E-03-2.01552E-05-1.96418E-01 9.39529E-14 7.89947E-14
 -1       387 1.97681E+01-4.25813E-03-4.50871E-05-1.95330E-01 7.18804E-14 4.20173E-14
 -1       388 1.98505E+01-2.26284E-03-3.78391E-05-1.94186E-01 6.06900E-14 1.65981E-14
 -1       389 1.99371E+01 4.56102E-04-2.14862E-05-1.94971E-01 4.49129E-14 1.24112E-14
 -1       390 2.00275E+01 2.55636E-03-1.81272E-05-1.97995E-01-7.77913E-14 4.78808E-14
 -1       391 2.01217E+01 2.52419E-03-5.08689E-05-2.01821E-01-5.98439E-14 9.21226E-14
 -1       392 2.02189E+01-1.40596E-03-1.43867E-04-2.03059E-01 5.13768E-14 9.12690E-14
 -1       393 2.03172E+01-1.12125E-02-3.19912E-04-1.96129E-01 3.72510E-14 8.02863E-14
 -1       394 2.04121E+01-2.88330E-02-5.94547E-04-1.73182E-01 4.69257E-14 3.90818E-14
 -1       395 2.04963E+01-5.55660E-02-9.65929E-04-1.24488E-01-5.88223E-14-2.15459E-14
 -1       396 2.05588E+01-9.10087E-02-1.40122E-03-3.97387E-02-2.32121E-14 1.46019E-13
 -1       397 2.05842E+01-1.31544E-01-1.82171E-03 8.92250E-02 4.14858E-14 1.45494E-13
 -1       398 2.05546E+01-1.68736E-01-2.09914E-03 2.63896E-01 4.60719E-14 9.77928E-14
 -1       399 2.04512E+01-1.88601E-01-2.07201E-03 4.73121E-01-7.65935E-14 2.52685E-13
 -1       400 2.02606E+01-1.73474E-01-1.58965E-03 6.87421E-01-8.84395E-14 4.00349E-13
 -1       401 1.99826E+01-1.08204E-01-5.94801E-04 8.57509E-01-6.39136E-14 4.23276E-13
 -1       402 1.96403E+01 9.61651E-03 7.88072E-04 9.22230E-01 8.93750E-14 5.61214E-13
 -1       403 1.92857E+01 1.59976E-01 2.25158E-03 8.28934E-01 5.11753E-14 2.75429E-13
 -1       404 1.89932E+01 2.99987E-01 3.44457E-03 5.61587E-01 7.32886E-14 2.72339E-13
 -1       405 1.88377E+01 3.79239E-01 4.03375E-03 1.61159E-01 7.49333E-14 1.62927E-13
 -1       406 1.88636E+01 3.65653E-01 3.88938E-03-2.79569E-01 1.18054E-13 3.18707E-13
 -1       407 1.90632E+01 2.64835E-01 3.05700E-03-6.50809E-01 2.17559E-13 1.64483E-13
 -1       408 1.93809E+01 1.16739E-01 1.71916E-03-8.71744E-01 2.12969E-14 1.68807E-13
 -1       409 1.97390E+01-2.79186E-02 2.16922E-04-9.18194E-01-1.09729E-13 1.42597E-13
 -1       410 2.00680E+01-1.31835E-01-1.06339E-03-8.19063E-01-1.38933E-14-1.49940E-14
 -1       411 2.03242E+01-1.81760E-01-1.88981E-03-6.32068E-01-1.95786E-14-1.39532E-13
 -1       412 2.04919E+01-1.84742E-01-2.20033E-03-4.16768E-01-1.10294E-13 1.14784E-13
 -1       413 2.05762E+01-1.57559E-01-2.08281E-03-2.17461E-01 7.58578E-14-1.28170E-14
 -1       414 2.05932E+01-1.17280E-01-1.70356E-03-5.83329E-02 5.11086E-14-1.45270E-13
 -1       415 2.05624E+01-7.63622E-02-1.22582E-03 5.33547E-02 1.54131E-13-5.29348E-13
 -1       416 2.05017E+01-4.17179E-02-7.64135E-04 1.21198E-01-1.22106E-13-7.07852E-13
 -1       417 2.04258E+01-1.58327E-02-3.81025E-04 1.53970E-01-5.82500E-14-5.52339E-13
 -1       418 2.03456E+01 1.57736E-03-9.63273E-05 1.61604E-01-8.73033E-14-4.84855E-13
 -1       419 2.02685E+01 1.21558E-02 9.73576E-05 1.52917E-01 2.14445E-13-5.38347E-13
 -1       420 2.01988E+01 1.79627E-02 2.17217E-04 1.34646E-01-1.15054E-13-1.96680E-14
 -1       421 2.01390E+01 2.09935E-02 2.81760E-04 1.11291E-01-6.15537E-14 4.25175E-14
 -1       422 2.00898E+01 2.28444E-02 3.20338E-04 8.54178E-02-8.79159E-14-9.88400E-14
 -1       423 2.00512E+01 2.40528E-02 3.33418E-04 5.86478E-02-1.89756E-14 2.27803E-14
 -1       424 2.00257E+01 2.23497E-02 2.50110E-04 3.46056E-02 1.25628E-13 6.30259E-14
 -1       425 2.00083E+01 1.04263E-01 7.90681E-05 8.13568E-02-1.94081E-13-2.15908E-13
 -1       426 2.00185E+01 6.66925E-02 1.94892E-04 6.86468E-02-7.86997E-14 2.99841E-13
 -1       427 1.99974E+01 1.42719E-01-2.88591E-05 8.40699E-02-3.88842E-13 4.20410E-14
 -1       428 1.99865E+01 1.80022E-01-1.30239E-04 7.53081E-02 2.74482E-14-1.85245E-13
 -1       429 1.99771E+01 2.11267E-01-2.19965E-04 5.57165E-02-5.63592E-14-7.07519E-13
 -1       430 1.99702E+01 2.32388E-01-2.79752E-04 2.72396E-02-3.20977E-13-2.37683E-15
 -1       431 1.99673E+01 2.40057E-01-2.98674E-04-6.72397E-03-4.94835E-13 7.69147E-14
 -1       432 1.99694E+01 2.32378E-01-2.68018E-04-4.14249E-02-4.76134E-13-7.06814E-13
 -1       433 1.99770E+01 2.10001E-01-1.88258E-04-7.07240E-02-4.12831E-13-2.25809E-13
 -1       434 1.99899E+01 1.74538E-01-7.69146E-05-8.99232E-02-1.48901E-13 6.73469E-13
 -1       435 2.00062E+01 1.30772E-01 4.25654E-05-9.39165E-02-9.86982E-14 1.44399E-13
 -1       436 2.00222E+01 8.50027E-02 1.66333E-04-8.06320E-02-3.05786E-13 5.10871E-13
 -1       437 2.00331E+01 3.29510E-01 1.05091E-02 5.35807E-01 1.56096E-13 2.80255E-13
 -1       438 1.22898E+01-5.32164E+00 2.34098E-02 7.99313E+00-3.35357E-13 7.69131E-13
 -1       439 2.80804E+01-2.57066E+00 7.22963E-03 4.65413E+00-8.61047E-14 5.59205E-13
 -1       440 6.74193E-01-4.87151E+00-9.60107E-02 1.50852E+00-2.25132E-13 4.56912E-13
 -1       441 1.93587E+01-5.12163E+00-2.72290E-02 7.45613E+00-3.63293E-13 7.96065E-13
 -1       442 1.97930E+01 3.43417E+00-1.87024E-02-1.71862E+00-1.86127E-13-2.67225E-13
 -1       443 3.34796E+01 1.95790E+00 3.48725E-02 2.13291E+00 3.65249E-13 5.10814E-13
 -1       444 3.59456E+01 6.25821E+00 3.33437E-02 2.43019E-01 5.33323E-13 3.66873E-13
 -1       445 3.67197E+01 8.58720E+00 1.82750E-02-3.00659E-02 8.15098E-13 7.09675E-14
 -1       446 3.51438E+01 7.87413E+00-5.32571E-02 3.99566E-01 5.68948E-13-1.79794E-13
 -1       447 3.49976E+01 4.14332E+00 2.46522E-02-1.01499E+00 5.30125E-13-2.88936E-14
 -1       448 3.09599E+01-6.65428E-01-1.41478E-02-2.94743E+00 3.09117E-13 5.35960E-14
 -1       449 2.57814E+01-3.67637E+00 2.76191E-02-5.71939E+00 3.87773E-13 2.43541E-13
 -1       450 1.57747E+01-5.41795E+00-3.13501E-02-7.92470E+00 2.97068E-13-2.00489E-13
 -1       451 8.31124E+00-5.22509E+00-1.70789E-02-7.31346E+00 2.23016E-13-5.74152E-13
 -1       452 2.31731E+00-4.00371E+00 2.69909E-02-3.74336E+00 9.01501E-14-5.10120E-13
 -1       453 1.16647E+00-4.80420E+00-7.01731E-02 9.80181E-01 5.61599E-14-6.60055E-13
 -1       454 5.23052E+00-5.64168E+00-1.03238E-01 4.68661E+00 1.26052E-13-6.98927E-13
 -1       455 1.39227E+01-6.64039E+00-1.24535E-01 6.39590E+00 1.01585E-14-8.34749E-13
 -1       456 2.37601E+01-6.17723E+00-1.00985E-01 5.18429E+00-1.95954E-14-4.60215E-13
 -1       457 3.27916E+01-3.43341E+00 2.77549E-05 1.95809E+00-2.44263E-13-1.96204E-13
 -1       458 3.75711E+01 6.71769E-01 1.02001E-02-1.86830E+00-3.05846E-13 6.69742E-14
 -1       459 3.92488E+01 5.98061E+00 1.49544E-01-1.96299E+00-3.37758E-13 1.18933E-14
 -1       460 4.07182E+01 7.11840E+00 2.16170E-01 4.79075E-01-6.05294E-13-3.11966E-13
 -1       461 3.96903E+01 4.39679E+00 1.92093E-01 2.23699E+00-5.58859E-13-4.91079E-13
 -1       462 3.63575E+01-1.02491E+00 1.21968E-02 1.26191E+00-5.88116E-13-5.50587E-13
 -1       463 3.07336E+01-4.92696E+00-2.40139E-02-2.65826E+00-1.24623E-13-2.80082E-13
 -1       464 2.06959E+01-6.77897E+00-3.57429E-02-5.92161E+00-4.79339E-14 1.48923E-13
 -1       465 9.82378E+00-6.40660E+00-1.37760E-01-6.03629E+00-1.10911E-13 5.20486E-14
 -1       466 3.85273E+00-4.69625E+00-4.05030E-03-3.71980E+00 3.34593E-14 4.70041E-14
 -1       467 4.05440E+00-4.48081E+00-8.46750E-03 5.51622E+00-4.01665E-13 1.09371E-13
 -1       468 3.38992E+01 2.91805E+00-1.56445E-01 4.01695E+00-3.37244E-13-4.46920E-13
 -1       469 3.41255E+01 4.50409E+00-1.19238E-01-2.89808E+00-2.70978E-13 1.51226E-13
 -1       470 2.00343E+01 5.78380E-02 3.75867E-04-6.89179E-02-2.42334E-13 9.01279E-13
 -1       471 1.97395E+01 3.11004E+00-5.42064E-03-6.31681E-01-4.64166E-14-3.00820E-13
 -1       472 1.98353E+01 2.93463E+00-6.03513E-03-9.48205E-01-1.06342E-13-2.92260E-13
 -1       473 1.96724E+01 3.23385E+00-5.02168E-03 9.06311E-03 4.98556E-14-2.93392E-13
 -1       474 1.96905E+01 3.20062E+00-5.10243E-03 3.29563E-01 8.96311E-14-2.70931E-13
 -1       475 1.97437E+01 3.10303E+00-5.42222E-03 6.43988E-01 1.39900E-13-2.63050E-13
 -1       476 1.98412E+01 2.92399E+00-5.94074E-03 9.58843E-01 1.90002E-13-1.88904E-13
 -1       477 1.99955E+01 2.63645E+00-6.55957E-03 1.25362E+00 2.37705E-13-1.33848E-13
 -1       478 2.02230E+01 2.19574E+00-5.81040E-03 1.48773E+00 2.79769E-13-5.02352E-14
 -1       479 2.04749E+01 1.54683E+00-3.24989E-03 1.54081E+00 2.67083E-13 7.11445E-14
 -1       480 2.05277E+01 9.91101E-01 3.20556E-03 1.29680E+00 2.41866E-13 2.13093E-13
 -1       481 2.90082E+01-5.68047E+00-4.21814E-02-1.42093E+00 7.93185E-14-4.78270E-13
 -1       482 2.03395E+01 9.74804E-01 2.73698E-03-9.35718E-01-1.92235E-13-1.02128E-13
 -1       483 3.00728E+01-1.61812E+00-6.42785E-02 1.03108E+00-3.33067E-15 2.48065E-13
 -1       484 1.09486E+01-3.10139E+00 1.59535E-01 7.25072E+00-1.66603E-13 6.61859E-13
 -1       485 2.01710E+01 5.50479E-01 2.35103E-03-4.63623E-01-1.60985E-13-9.18103E-14
 -1       486 2.00272E+01 3.08823E-01 9.68137E-04-1.58425E-01-1.70122E-13-8.65082E-14
 -1       487 1.99271E+01 1.64361E-01 4.56807E-04 3.49225E-02-1.34266E-13-8.41514E-14
 -1       488 1.98758E+01 8.42438E-02 1.61453E-04 1.41760E-01-1.00665E-13-8.18784E-14
 -1       489 1.98577E+01 3.82796E-02 5.60034E-05 2.01825E-01-6.59493E-14-9.44525E-14
 -1       490 1.98633E+01 1.50504E-02 1.04257E-05 2.34361E-01-7.58652E-14-7.95160E-14
 -1       491 1.98857E+01 8.03060E-03 3.26338E-06 2.53126E-01-9.33045E-14-8.74250E-15
 -1       492 1.99202E+01 1.36048E-02 2.39311E-05 2.68437E-01-7.29473E-14-5.47496E-14
 -1       493 1.99639E+01 3.00552E-02 7.59598E-05 2.88495E-01-8.36611E-14-8.56903E-14
 -1       494 2.00180E+01 5.90427E-02 1.59801E-04 3.22732E-01-5.03395E-14-7.85767E-14
 -1       495 2.00763E+01 9.92905E-02 2.71102E-04 3.75353E-01-8.50558E-14-1.75692E-14
 -1       496 2.01404E+01 1.54698E-01 4.36453E-04 4.55277E-01-1.65222E-13 8.27302E-14
 -1       497 2.02081E+01 2.29827E-01 6.62325E-04 5.71666E-01-5.92868E-14 7.49362E-14
 -1       498 2.02749E+01 3.30476E-01 9.67760E-04 7.35406E-01 3.28611E-14 1.65343E-13
 -1       499 2.03323E+01 4.62629E-01 1.35266E-03 9.59280E-01 5.67376E-14 3.55259E-14
 -1       500 2.03665E+01 6.29160E-01 1.72736E-03 1.25726E+00 1.33875E-13-8.55044E-14
 -1       501 2.03547E+01 8.31282E-01 2.26229E-03 1.66423E+00 1.43772E-13-1.57077E-13
 -1       502 2.02762E+01 1.01094E+00 2.41625E-03 2.15158E+00 1.10347E-13-4.39955E-14
 -1       503 2.01376E+01 1.07355E+00 3.26113E-03 2.73417E+00-6.19495E-15-5.77173E-14
 -1       504 2.00175E+01 7.98507E-01 5.61066E-03 3.39449E+00 3.57452E-14-6.18698E-14
 -1       505 2.02074E+01-2.12198E-01 2.13086E-02 4.07610E+00 1.84013E-13 4.81646E-15
 -1       506 2.13556E+01-2.39568E+00 6.05639E-02 4.54696E+00 2.56805E-13 2.42983E-14
 -1       507 2.42342E+01-5.29918E+00 5.67248E-02 4.18378E+00 3.77538E-13 1.79963E-13
 -1       508 2.38273E+01-4.03845E+00 9.79498E-02-4.11964E+00 4.11417E-13-2.08869E-13
 -1       509 2.13336E+01-1.16619E+00 2.61651E-02-4.18552E+00 1.78524E-13-1.58768E-13
 -1       510 2.05845E+01 3.52124E-01 8.93105E-03-3.70176E+00 1.63768E-13-2.05022E-13
 -1       511 2.04735E+01 9.21052E-01 3.79155E-03-3.05152E+00 3.70482E-14-8.23947E-14
 -1       512 2.05106E+01 9.97134E-01 2.72004E-03-2.42788E+00 1.69602E-15-2.57557E-13
 -1       513 2.05401E+01 8.70780E-01 2.61827E-03-1.88171E+00 2.63791E-14-2.28133E-13
 -1       514 2.05250E+01 6.91230E-01 2.34259E-03-1.43162E+00-1.89321E-13-3.17726E-13
 -1       515 2.04726E+01 5.22618E-01 1.84664E-03-1.07503E+00-2.45740E-13-4.86201E-14
 -1       516 2.03975E+01 3.78952E-01 1.38075E-03-7.88808E-01-6.38958E-15 1.11706E-13
 -1       517 2.03217E+01 2.75828E-01 9.91268E-04-5.83832E-01-3.27646E-14 2.04612E-13
 -1       518 2.02498E+01 2.00515E-01 7.06818E-04-4.29813E-01 2.31087E-13 1.54187E-13
 -1       519 2.01864E+01 1.47237E-01 5.11621E-04-3.14207E-01 1.13029E-13 5.71882E-14
 -1       520 2.01329E+01 1.10968E-01 4.05839E-04-2.26705E-01-3.38531E-13 1.78025E-13
 -1       521 2.00882E+01 8.73879E-02 2.32788E-04-1.59025E-01-5.98169E-15 2.80940E-13
 -1       522 2.00604E+01 7.05364E-02 3.67074E-04-1.10314E-01-6.53382E-14 6.16263E-13
 -1       523 1.98606E+01 1.15988E-01 4.23042E-04-8.84061E-02 1.51031E-13 3.99733E-14
 -1       524 1.99375E+01 2.17912E-01 9.97662E-04 5.56567E-02 1.45827E-13 3.35820E-14
 -1       525 2.00675E+01 3.91419E-01 1.14150E-03 2.99196E-01 1.21047E-13 3.65805E-14
 -1       526 1.98260E+01 5.58877E-02 1.66016E-04-1.70466E-01 1.08362E-13 2.23811E-14
 -1       527 1.98217E+01 2.16218E-02 5.01238E-05-2.14142E-01 7.71419E-14 4.53930E-14
 -1       528 1.98382E+01 4.06624E-03-2.53703E-06-2.35293E-01 1.58923E-14-6.95410E-14
 -1       529 1.98690E+01-2.54203E-03-2.13698E-05-2.44660E-01 6.73139E-14-6.18461E-14
 -1       530 1.99096E+01-2.26497E-03-2.09385E-05-2.49398E-01 4.01246E-14 2.37280E-14
 -1       531 1.99578E+01 1.64313E-03-1.16595E-05-2.53930E-01-1.23306E-14 1.00551E-13
 -1       532 2.00125E+01 6.17383E-03-3.15355E-06-2.60367E-01-1.17012E-14 1.81364E-13
 -1       533 2.00737E+01 8.17103E-03-5.45250E-06-2.68609E-01-6.92609E-14 6.40139E-14
 -1       534 2.01420E+01 4.07037E-03-2.95979E-05-2.76212E-01 1.93222E-14 3.00670E-14
 -1       535 2.02181E+01-1.01748E-02-8.72693E-05-2.78127E-01 1.74602E-14 9.12370E-14
 -1       536 2.03028E+01-3.88414E-02-1.89169E-04-2.66441E-01 1.08482E-13 7.97240E-14
 -1       537 2.03954E+01-8.56294E-02-3.41500E-04-2.30379E-01 5.01812E-14 1.70491E-13
 -1       538 2.04940E+01-1.52022E-01-5.40164E-04-1.56976E-01-1.06385E-13 7.27892E-14
 -1       539 2.05928E+01-2.34632E-01-7.62820E-04-3.30385E-02-3.39177E-14 5.31467E-15
 -1       540 2.06810E+01-3.21758E-01-9.55135E-04 1.50887E-01-1.17552E-13 1.97467E-13
 -1       541 2.07413E+01-3.90300E-01-1.03761E-03 3.93993E-01-1.13150E-13 3.58047E-13
 -1       542 2.07495E+01-4.05655E-01-9.22910E-04 6.76473E-01-1.66316E-13 3.29669E-13
 -1       543 2.06801E+01-3.28894E-01-5.28642E-04 9.51268E-01-8.27774E-14 3.53788E-13
 -1       544 2.05182E+01-1.34563E-01 1.41269E-04 1.14305E+00 8.68354E-15 3.22387E-13
 -1       545 2.02774E+01 1.64434E-01 8.80819E-04 1.16353E+00 1.80477E-13 1.86539E-13
 -1       546 2.00125E+01 4.99223E-01 1.43607E-03 9.47805E-01 1.04194E-13 1.29454E-13
 -1       547 1.98095E+01 7.57947E-01 1.76279E-03 5.00485E-01 4.71198E-14 5.03049E-14
 -1       548 1.97480E+01 8.36829E-01 1.83716E-03-8.24802E-02-2.40833E-14 2.59460E-13
 -1       549 1.98544E+01 7.01039E-01 1.65940E-03-6.42518E-01 1.72913E-13 2.18299E-13
 -1       550 2.00840E+01 4.09438E-01 1.26319E-03-1.03164E+00 2.14053E-13 2.22063E-13
 -1       551 2.03501E+01 7.52584E-02 6.04560E-04-1.17930E+00 2.94823E-14 1.01104E-13
 -1       552 2.05731E+01-1.98635E-01-7.67743E-05-1.10429E+00 5.04209E-14-4.18040E-14
 -1       553 2.07102E+01-3.59054E-01-6.43815E-04-8.82249E-01 1.35271E-13-1.32966E-13
 -1       554 2.07573E+01-4.05846E-01-9.74390E-04-6.00929E-01-1.59721E-13-1.30575E-13
 -1       555 2.07341E+01-3.70562E-01-1.03304E-03-3.28806E-01 7.81627E-14-2.58173E-13
 -1       556 2.06668E+01-2.92216E-01-9.00384E-04-1.05029E-01 9.59650E-14-2.97904E-13
 -1       557 2.05782E+01-2.02472E-01-6.84869E-04 5.65127E-02 2.48415E-13-1.74380E-13
 -1       558 2.04841E+01-1.20975E-01-4.56181E-04 1.58321E-01 1.01650E-13-1.57382E-13
 -1       559 2.03940E+01-5.66592E-02-2.56691E-04 2.11043E-01-4.41745E-14-3.12517E-13
 -1       560 2.03126E+01-1.11299E-02-1.02747E-04 2.27679E-01-1.41818E-13-3.03677E-13
 -1       561 2.02418E+01 1.80328E-02 4.44785E-06 2.20265E-01 3.56105E-14-3.44431E-13
 -1       562 2.01818E+01 3.48492E-02 7.75621E-05 1.98374E-01-1.68489E-13-1.97184E-13
 -1       563 2.01320E+01 4.35477E-02 1.23945E-04 1.68872E-01-2.35585E-13-1.37739E-13
 -1       564 2.00911E+01 4.78133E-02 1.43865E-04 1.36025E-01-8.03833E-14 2.37853E-13
 -1       565 2.00571E+01 5.03134E-02 1.68107E-04 1.02125E-01-6.70427E-14 3.09320E-13
 -1       566 1.99828E+01 1.62409E-01-3.26276E-05 1.13842E-01-4.43961E-13 3.37939E-13
 -1       567 2.00052E+01 1.24447E-01 1.06983E-04 1.18384E-01-3.69855E-13-2.60240E-13
 -1       568 2.00265E+01 8.60348E-02 5.23445E-05 1.09015E-01-2.72912E-13-2.39622E-13
 -1       569 4.80911E+00-1.37303E+00 1.71974E-01 3.37600E+00-4.56302E-14 3.49998E-14
 -1       570 1.99613E+01 1.98042E-01-8.24929E-05 9.48256E-02-3.40100E-13-5.12782E-13
 -1       571 1.99437E+01 2.27115E-01-1.17231E-04 6.22826E-02-2.68723E-13-5.11563E-13
 -1       572 1.99326E+01 2.45713E-01-1.32543E-04 1.92920E-02-4.58388E-13-7.11131E-14
 -1       573 1.99309E+01 2.50494E-01-1.31529E-04-2.90324E-02-4.90626E-13-1.04524E-13
 -1       574 1.99402E+01 2.39716E-01-1.08184E-04-7.50277E-02-1.46946E-13-4.96774E-13
 -1       575 1.99612E+01 2.12925E-01-5.93764E-05-1.12499E-01 1.19346E-13 4.94323E-13
 -1       576 1.99916E+01 1.72497E-01-2.51516E-05-1.33149E-01-1.56715E-13 5.56333E-13
 -1       577 2.00256E+01 1.23317E-01 4.68504E-05-1.31980E-01-3.62270E-14 2.55602E-13
 -1       578 2.03886E+01 1.75607E+00-5.21899E-03-1.52055E+00-2.19528E-13-1.24686E-13
 -1       579 1.87268E+01-5.09035E+00 8.89700E-02 7.38283E+00-3.02348E-13 8.87948E-13
 -1       580 2.50034E+01-5.10179E+00-1.15673E-04 4.98849E+00-2.45290E-13 7.33743E-13
 -1       581 1.04899E+01-3.47265E+00 1.36097E-01-5.70813E+00 6.26027E-14 3.36259E-14
 -1       582 3.09268E+01 7.33123E-01-1.02891E-01 4.32837E-01 1.94466E-13 3.30735E-13
 -1       583 4.95568E+00-1.18595E+00 1.98441E-01-1.62490E+00 2.66953E-13 1.41553E-15
 -1       584 1.96880E+01 3.20488E+00-5.11666E-03-3.11623E-01 7.97336E-15-2.88244E-13
 -1       585 3.07616E+01 7.00382E+00-1.77715E-01-1.22241E+00 7.41213E-13-3.66790E-14
 -1       586 4.67227E+00-7.24648E-01 2.04998E-01-8.19535E-01-1.71343E-14-6.75779E-13
 -1       587 3.11099E+01 2.89854E+00-1.35098E-01-1.27042E+00 1.57332E-13 2.16840E-14
 -1       588 3.03761E+01 7.97706E+00-2.00052E-01 1.20378E-01 8.27449E-13 1.29392E-13
 -1       589 3.10199E+01 5.12544E+00-1.61677E-01 1.56058E+00 2.97096E-13 2.08861E-15
 -1       590 2.81944E+01-3.69882E+00-4.36248E-02-2.33581E+00 2.93335E-13 3.59886E-13
 -1       591 2.25624E+01-5.36617E+00 3.92751E-02-6.26416E+00 2.07161E-13 2.77188E-13
 -1       592 1.47224E+01-4.41584E+00 1.05728E-01-7.81341E+00 1.52239E-14-3.08982E-13
 -1       593 7.95209E+00-2.41799E+00 1.52303E-01-6.15427E+00-3.12944E-15-4.88845E-13
 -1       594 6.17319E+00-1.93937E+00 1.67970E-01 3.46309E+00 1.27197E-13-4.94466E-13
 -1       595 1.32763E+01-4.03964E+00 1.42376E-01 6.27070E+00 3.14124E-13-7.36369E-13
 -1       596 2.21264E+01-6.01788E+00 5.57491E-02 5.31213E+00 2.92016E-13-1.49467E-13
 -1       597 2.96405E+01-5.67554E+00-3.46392E-02 1.44953E+00 2.81886E-13 2.25042E-13
 -1       598 1.80488E+01-4.97960E+00 8.19931E-02-5.99739E+00 2.51806E-13 5.28397E-14
 -1       599 1.99835E+01 2.65582E+00-6.43760E-03-1.24221E+00-1.62660E-13-2.59863E-13
 -1       600 2.02624E+01 6.55588E-01 6.24276E-03 7.94193E-01 1.96335E-13 1.45680E-13
 -1       601 2.01683E+01 2.28010E+00-5.82328E-03-1.43453E+00-1.97536E-13-2.16752E-13
 -1       602 2.82353E+01 6.43872E+00-1.55411E-01 1.31115E+00 4.76792E-13 2.95998E-13
 -1       603 2.01375E+01 5.03292E-01 3.55593E-03 5.14308E-01 1.62292E-13 8.43859E-14
 -1       604 7.83486E+00-1.14767E-01 1.59806E-01-3.58981E+00-1.51041E-13-5.21874E-13
 -1       605 9.47206E+00-8.90994E-01 1.59276E-01-4.01353E+00 2.75596E-13 1.03514E-13
 -1       606 3.34132E+01-2.69160E+00-4.85966E-02-2.18100E+00-3.65717E-14 2.24196E-13
 -1       607 2.73454E+01-3.80605E+00-2.86851E-02 1.78878E+00-2.75760E-14 2.93706E-13
 -1       608 1.99658E+01 2.45945E+00-1.59762E-03 3.91995E-01 1.09021E-13-2.20599E-13
 -1       609 1.99344E+01 2.53503E+00-1.51546E-03 1.35221E-01 5.28727E-14-2.48662E-13
 -1       610 2.01235E+01 2.05328E+00-1.78523E-03 8.46815E-01 1.86673E-13-1.31111E-13
 -1       611 2.02429E+01 1.68759E+00-2.00070E-03 9.97909E-01 1.97125E-13-6.57998E-14
 -1       612 2.03618E+01 1.02775E+00 3.46939E-03 1.00763E+00 2.10584E-13 2.63957E-14
 -1       613 2.02429E+01 6.84219E-01 5.98250E-04-3.85690E-01-1.28297E-13-1.26962E-13
 -1       614 2.01703E+01 3.91800E-01 1.46336E-04-1.16707E-01-1.23819E-13-8.35969E-14
 -1       615 2.01084E+01 2.22280E-01 4.69983E-05 4.84419E-02-1.19540E-13-5.60295E-14
 -1       616 2.00626E+01 1.18291E-01 8.34265E-06 1.51024E-01-9.67872E-14-6.26014E-14
 -1       617 2.00329E+01 5.87092E-02-5.87265E-06 2.12420E-01-6.89777E-14-3.77175E-14
 -1       618 2.00166E+01 3.05149E-02-8.38347E-06 2.49229E-01-4.93095E-14-4.85204E-14
 -1       619 2.00105E+01 2.58439E-02-5.03645E-06 2.74222E-01-8.91496E-14-2.26439E-14
 -1       620 2.00112E+01 4.01713E-02 6.01767E-06 2.97350E-01-8.56140E-14 1.83818E-14
 -1       621 2.00158E+01 7.36941E-02 3.19425E-05 3.28548E-01-8.87240E-14-2.69965E-15
 -1       622 2.00196E+01 1.23575E-01 5.38168E-05 3.72159E-01-3.39000E-14-2.50575E-14
 -1       623 2.00181E+01 1.93185E-01 9.55542E-05 4.35852E-01-2.07140E-14 4.28391E-14
 -1       624 2.00033E+01 2.86958E-01 1.51491E-04 5.26112E-01-3.24375E-14 2.24651E-13
 -1       625 1.99636E+01 4.11005E-01 2.28040E-04 6.49548E-01 1.45293E-14 2.92018E-13
 -1       626 1.98812E+01 5.72347E-01 3.26549E-04 8.12900E-01-1.36267E-14 2.45103E-13
 -1       627 1.97298E+01 7.76516E-01 3.55447E-04 1.02306E+00 3.02771E-14 2.79081E-13
 -1       628 1.94550E+01 1.03521E+00 5.60018E-04 1.30066E+00 4.43946E-14 1.69924E-13
 -1       629 1.90303E+01 1.30339E+00 4.95999E-04 1.62833E+00 1.65931E-13 8.52217E-14
 -1       630 1.83953E+01 1.52883E+00 1.31095E-03 2.03436E+00 1.12272E-14-6.85178E-14
 -1       631 1.75085E+01 1.57235E+00 6.80928E-03 2.56470E+00-6.27465E-14-1.43872E-13
 -1       632 1.64081E+01 1.18054E+00 2.40475E-02 3.30432E+00 7.73036E-15-2.35399E-13
 -1       633 1.52776E+01-2.34624E-01 9.61683E-02 4.46652E+00 1.33994E-13-4.41390E-13
 -1       634 2.00451E+01 8.49127E-02 4.45100E-05 1.48490E-01-3.00703E-13-2.77046E-13
 -1       635 1.65983E+01 5.46538E-01 5.81239E-02-4.02484E+00 3.34394E-14-1.81889E-13
 -1       636 1.74451E+01 1.34900E+00 1.07377E-02-3.04065E+00 5.43463E-14-4.46259E-13
 -1       637 1.83178E+01 1.51661E+00 2.49406E-03-2.38015E+00-6.36475E-15-4.48166E-13
 -1       638 1.89825E+01 1.37693E+00 7.96846E-04-1.88559E+00 9.62835E-14-3.24906E-13
 -1       639 1.94414E+01 1.13240E+00 6.85535E-04-1.48807E+00 1.62470E-13-2.08712E-13
 -1       640 1.97329E+01 8.83695E-01 6.27857E-04-1.16401E+00 8.16544E-14 8.41103E-14
 -1       641 1.99113E+01 6.59721E-01 4.72316E-04-8.90236E-01-2.70032E-14 6.39309E-13
 -1       642 2.00021E+01 4.91365E-01 3.72686E-04-6.83309E-01 8.26401E-14 4.42497E-13
 -1       643 2.00449E+01 3.63537E-01 2.62803E-04-5.19941E-01 1.82676E-14 3.99120E-13
 -1       644 2.00595E+01 2.69659E-01 1.85368E-04-3.92285E-01 1.83564E-13 4.41221E-13
 -1       645 2.00587E+01 2.02503E-01 1.19287E-04-2.92715E-01-3.53560E-14 3.39391E-13
 -1       646 2.00492E+01 1.56474E-01 6.74642E-05-2.14276E-01-1.80915E-13 4.57631E-13
 -1       647 2.01167E+01 2.97973E-01 1.93223E-04 3.85019E-02 1.43921E-13-5.97948E-14
 -1       648 2.00584E+01 1.63708E-01 6.32476E-05-9.80263E-02 1.16355E-13-3.85393E-14
 -1       649 2.01928E+01 5.13852E-01 5.27082E-04 2.55425E-01 1.31976E-13-4.30283E-14
 -1       650 1.99979E+01 3.51713E-02-2.87040E-06-2.26865E-01 8.99455E-14 2.64017E-14
 -1       651 1.99898E+01 1.18637E-02-1.00792E-05-2.52621E-01 4.04382E-14 1.55592E-14
 -1       652 1.99923E+01 4.14940E-03-1.05525E-05-2.67563E-01-9.26345E-15-1.01020E-14
 -1       653 2.00036E+01 5.99565E-03-7.08930E-06-2.78689E-01-2.70552E-14-2.21212E-14
 -1       654 2.00228E+01 1.22305E-02-2.47713E-06-2.90336E-01-8.04607E-14 3.00940E-14
 -1       655 2.00500E+01 1.78151E-02 2.30346E-07-3.04449E-01 8.99846E-15 5.59619E-14
 -1       656 2.00868E+01 1.73092E-02-2.20736E-06-3.20581E-01 3.67846E-14 2.54860E-16
 -1       657 2.01358E+01 4.54839E-03-1.38792E-05-3.35679E-01-5.47825E-14-3.57634E-14
 -1       658 2.02011E+01-2.73318E-02-3.93657E-05-3.43718E-01-2.43886E-14 1.08806E-13
 -1       659 2.02876E+01-8.52593E-02-8.29561E-05-3.35286E-01 6.13815E-14 2.27093E-13
 -1       660 2.04006E+01-1.74556E-01-1.47633E-04-2.97385E-01-1.62456E-14 1.41147E-13
 -1       661 2.05441E+01-2.95773E-01-2.32151E-04-2.13916E-01 2.30502E-14 1.45861E-13
 -1       662 2.07174E+01-4.39760E-01-3.27405E-04-6.76987E-02-1.57549E-13 9.27480E-14
 -1       663 2.09107E+01-5.81575E-01-3.81511E-04 1.54749E-01-2.30431E-13 7.21109E-14
 -1       664 2.10995E+01-6.75454E-01-3.51176E-04 4.54360E-01-1.30040E-13 9.91515E-14
 -1       665 2.12425E+01-6.56218E-01-2.23184E-04 8.05718E-01-5.51511E-14-8.55334E-15
 -1       666 2.12884E+01-4.56682E-01 7.40835E-05 1.14216E+00 5.98710E-15-1.07882E-13
 -1       667 2.11999E+01-4.63351E-02 5.02042E-04 1.35273E+00 1.04313E-13-1.18497E-13
 -1       668 2.09889E+01 5.19777E-01 7.01526E-04 1.30885E+00 2.13751E-13-6.49086E-14
 -1       669 2.07407E+01 1.07496E+00 2.47871E-04 9.32423E-01 6.52753E-14-1.59255E-14
 -1       670 2.05841E+01 1.40093E+00 2.99227E-04 2.74267E-01-1.19784E-14-8.42161E-14
 -1       671 2.06114E+01 1.34606E+00 4.76690E-04-4.74891E-01 7.24893E-14-2.11841E-13
 -1       672 2.08071E+01 9.35108E-01 3.70986E-04-1.06947E+00 1.98997E-13-2.42461E-13
 -1       673 2.10568E+01 3.56454E-01 2.93429E-04-1.35164E+00 1.80397E-13-3.31584E-13
 -1       674 2.12392E+01-1.77152E-01 2.30839E-04-1.31537E+00 2.39868E-14-3.27138E-13
 -1       675 2.12898E+01-5.29642E-01-4.98504E-06-1.05860E+00 1.14242E-13 5.48331E-15
 -1       676 2.12129E+01-6.72444E-01-3.07013E-04-7.10527E-01 1.03948E-14 2.84959E-14
 -1       677 2.10533E+01-6.51262E-01-4.28949E-04-3.71707E-01 1.30235E-13-1.61901E-13
 -1       678 2.08612E+01-5.35862E-01-3.85645E-04-9.62937E-02 5.29818E-14-1.35418E-13
 -1       679 2.06736E+01-3.86733E-01-2.99739E-04 9.89639E-02 5.02276E-14-1.92076E-14
 -1       680 2.05103E+01-2.43480E-01-2.03269E-04 2.19293E-01 1.84033E-13 7.80965E-14
 -1       681 2.03783E+01-1.25924E-01-1.19824E-04 2.79547E-01 1.49657E-13-1.57398E-13
 -1       682 2.02765E+01-3.97948E-02-5.54150E-05 2.96553E-01 4.61330E-14-2.91045E-13
 -1       683 2.02003E+01 1.72948E-02-1.16048E-05 2.85277E-01-8.02082E-14-1.88622E-13
 -1       684 2.01442E+01 5.13555E-02 3.88344E-05 2.57506E-01-2.90457E-13 9.93416E-14
 -1       685 2.01029E+01 6.93452E-02 1.07782E-04 2.21772E-01-1.02199E-13 1.66876E-13
 -1       686 2.00702E+01 7.94604E-02 9.74751E-05 1.85498E-01-2.00470E-13-1.09846E-13
 -1       687 1.99899E+01 1.45626E-01-7.93199E-05 1.53585E-01-2.69876E-13-4.05927E-14
 -1       688 1.99200E+01 2.25183E-01-7.74704E-05 1.08269E-01-4.51705E-13-4.62358E-13
 -1       689 2.79510E+01 4.11113E+00-1.31633E-01-2.08267E+00 2.32800E-13-1.92076E-13
 -1       690 1.99535E+01 1.86866E-01-5.77887E-05 1.39488E-01-6.93818E-13-1.69637E-13
 -1       691 2.00196E+01 8.19901E-02 1.58335E-05-1.80086E-01 8.55295E-14-6.45877E-15
 -1       692 1.98815E+01 2.75463E-01-6.88013E-05 2.40068E-03-6.52335E-14 2.82882E-14
 -1       693 1.98857E+01 2.78077E-01-6.91007E-05-5.99581E-02 6.24132E-14-3.29236E-13
 -1       694 1.99096E+01 2.61711E-01-4.81286E-05-1.18776E-01-6.78993E-14 2.72932E-13
 -1       695 1.99516E+01 2.26249E-01 2.01577E-05-1.62290E-01-5.49610E-14 3.80243E-13
 -1       696 2.02893E+01 1.43383E+00 1.24660E-03-9.91023E-01-1.89511E-13-1.71323E-13
 -1       697 9.60167E+00-5.41361E-01 1.40350E-01 4.85066E+00 2.07188E-13 3.54577E-13
 -1       698 1.59660E+01-2.56607E+00 1.46454E-01-5.66276E+00 2.53561E-13-3.31901E-13
 -1       699 2.27048E+01-4.80055E+00 3.44110E-02 5.12325E+00-2.11341E-13 9.26314E-13
 -1       700 2.80446E+01-1.58559E+00-7.27066E-02 5.08712E-01 3.40176E-13 1.29166E-13
 -1       701 7.95010E+00 8.60724E-01 1.73651E-01 6.78912E-01 3.72036E-13 2.51188E-15
 -1       702 1.98943E+01 2.56452E-01-6.49872E-05 6.11727E-02-1.85020E-13-3.51307E-13
 -1       703 1.65745E+01-3.27593E+00 8.15438E-02 6.68060E+00-4.72920E-14 8.70023E-13
 -1       704 2.02849E+01 9.84662E-01-1.16735E-03-6.57869E-01-1.54159E-13-1.35381E-13
 -1       705 2.84490E+01-2.75187E-01-8.64239E-02-1.27774E+00-8.00367E-14-3.00815E-13
 -1       706 2.00292E+01 2.30337E+00-1.70217E-03 6.34373E-01 1.61496E-13-1.97278E-13
 -1       707 1.31941E+01-2.24413E+00 1.27214E-01-6.64300E+00-1.38049E-13-2.98504E-13
 -1       708 8.19392E+00 4.44947E-01 1.64751E-01 1.69623E+00 9.17703E-14-3.94657E-13
 -1       709 2.70561E+01 6.45710E+00-1.60782E-01-7.66028E-01 5.56818E-13 2.61362E-14
 -1       710 2.81979E+01 1.80373E+00-1.13445E-01 1.95458E+00 1.37178E-13 3.73312E-14
 -1       711 1.98900E+01-4.39826E+00 7.32657E-02-6.35837E+00 3.48402E-14 1.31156E-13
 -1       712 2.00248E+01 2.31343E+00-1.64425E-03-6.25248E-01-7.19640E-14-2.43468E-13
 -1       713 2.51151E+01-4.65891E+00 1.37362E-02-3.60357E+00 6.76317E-14 3.26891E-13
 -1       714 1.21539E+01-9.98974E-01 1.49717E-01 4.70300E+00 1.86719E-13-6.36220E-13
 -1       715 1.99337E+01 2.53661E+00-1.50212E-03-1.25372E-01 2.31295E-14-2.56590E-13
 -1       716 2.65038E+01 3.70656E+00-1.03753E-01 2.08957E+00 2.70828E-13 3.48879E-13
 -1       717 1.63744E+01-3.47112E+00 9.90206E-02 5.82608E+00 3.70537E-13-4.34576E-13
 -1       718 2.02765E+01 8.60904E-01 1.73294E-03 5.79422E-01 1.45940E-13-3.97756E-14
 -1       719 1.41360E+01-1.15114E+00 8.20534E-02 5.50046E+00 2.85455E-13 6.68613E-13
 -1       720 1.99636E+01 2.46464E+00-1.56243E-03-3.82127E-01-2.46484E-14-2.41205E-13
 -1       721 2.00077E+01 1.74790E-01 2.02512E-04-1.81522E-01-1.88297E-13 4.17772E-13
 -1       722 9.10976E+00 1.08404E+00 1.06003E-01-8.05750E-01-1.50816E-13-4.92849E-13
 -1       723 1.01716E+01 1.10209E+00 1.15007E-01-1.69769E+00 2.64817E-13 5.94177E-14
 -1       724 2.58140E+01 5.97736E+00-1.03471E-01 4.39243E-01 4.45571E-13 3.32712E-14
 -1       725 2.63001E+01-3.30663E+00-1.97143E-02-8.89437E-01 1.28549E-13 1.92982E-13
 -1       726 2.01247E+01 2.06172E+00-5.81515E-04-8.40905E-01-1.40464E-13-2.13627E-13
 -1       727 2.02682E+01 1.31734E+00-6.79736E-04 6.24664E-01 1.52376E-13-7.81582E-14
 -1       728 1.98346E+01 3.20674E-01-1.35668E-05-1.04226E-01 1.05843E-13-4.48122E-13
 -1       729 2.02927E+01 7.36839E-01-3.06116E-05-2.74373E-01-1.05740E-13-1.52292E-13
 -1       730 2.02157E+01 1.77827E+00 8.33016E-04-9.49794E-01-1.60334E-13-2.07295E-13
 -1       731 2.02911E+01 9.39877E-01 5.18711E-04 4.36338E-01 1.70335E-13-5.59889E-14
 -1       732 2.02672E+01 4.47036E-01 2.71092E-05-7.22619E-02-1.00246E-13-1.30653E-13
 -1       733 2.02273E+01 2.59501E-01 7.83493E-06 6.45379E-02-1.26680E-13-1.16198E-13
 -1       734 2.01857E+01 1.42902E-01-3.35053E-06 1.52892E-01-5.51852E-14-1.19427E-13
 -1       735 2.01470E+01 7.73147E-02-3.61374E-06 2.08422E-01-6.36293E-14-1.17174E-13
 -1       736 2.01122E+01 4.96651E-02-3.14790E-06 2.44260E-01-8.56627E-14-8.15988E-14
 -1       737 2.00801E+01 5.14908E-02-4.90890E-06 2.71008E-01-6.07904E-14-1.12203E-13
 -1       738 2.00463E+01 7.99449E-02 5.94750E-06 2.98420E-01-7.00216E-14-7.10231E-14
 -1       739 2.00094E+01 1.30285E-01 2.08360E-06 3.30684E-01-3.64182E-14 6.70014E-15
 -1       740 1.99617E+01 2.03631E-01 7.77155E-06 3.74060E-01 1.27814E-14 1.53196E-13
 -1       741 1.98940E+01 3.02826E-01 1.51573E-05 4.32327E-01 3.05807E-14 2.12039E-13
 -1       742 1.97925E+01 4.32547E-01 2.60577E-05 5.07895E-01 9.66256E-14 2.49822E-13
 -1       743 1.96374E+01 5.98740E-01 4.15897E-05 6.01443E-01 3.05730E-14 2.93597E-13
 -1       744 1.94004E+01 8.06998E-01-2.55033E-05 7.11703E-01-7.37838E-14 1.80769E-13
 -1       745 1.90181E+01 1.07318E+00 3.60460E-05 8.40037E-01-2.78166E-14 1.05877E-13
 -1       746 1.84663E+01 1.36432E+00-1.83050E-04 9.67864E-01-2.11525E-14 2.43014E-14
 -1       747 1.76526E+01 1.66328E+00-3.38393E-04 1.09850E+00-1.07121E-13-2.00659E-13
 -1       748 1.64698E+01 1.89906E+00 2.16389E-03 1.24876E+00-5.22871E-14-3.13225E-13
 -1       749 1.47655E+01 1.95986E+00 2.03577E-02 1.50898E+00-1.34103E-13-2.75840E-13
 -1       750 1.08353E+01 1.03294E+00 9.54252E-02 2.61125E+00 3.91634E-13 1.45415E-13
 -1       751 1.59373E+01 1.92039E+00 6.25170E-03-1.59622E+00-9.18874E-14 5.41095E-14
 -1       752 1.72838E+01 1.78768E+00-3.40408E-04-1.34085E+00 2.44786E-13 3.37965E-14
 -1       753 1.82313E+01 1.51206E+00-3.15636E-04-1.14090E+00 2.97101E-13 3.58418E-13
 -1       754 1.88701E+01 1.21884E+00-6.07497E-05-9.65108E-01 2.44304E-13 4.08254E-13
 -1       755 1.93126E+01 9.39811E-01 3.95242E-06-7.94154E-01 2.43133E-13 5.91416E-13
 -1       756 1.95849E+01 7.19265E-01 8.81288E-05-6.47368E-01 5.75061E-14 6.65867E-13
 -1       757 1.97587E+01 5.44491E-01 6.18055E-05-5.18541E-01 7.72019E-14 5.13084E-13
 -1       758 1.98673E+01 4.10756E-01 3.88365E-05-4.09076E-01 2.00282E-13 7.26635E-13
 -1       759 1.99332E+01 3.11580E-01 3.22992E-05-3.18526E-01-7.25376E-14 5.09113E-13
 -1       760 1.99714E+01 2.40104E-01 5.00533E-05-2.43875E-01-9.94445E-14 3.57765E-13
 -1       761 2.02319E+01 3.44695E-01-2.82510E-05 7.19985E-03 1.19696E-13-5.89467E-14
 -1       762 2.02715E+01 5.81465E-01 1.88019E-04 1.83127E-01 1.33186E-13-9.45959E-14
 -1       763 2.00875E+01 2.24281E-02-4.97862E-06-2.51358E-01-1.07581E-14 1.42692E-13
 -1       764 2.01145E+01 4.69910E-02-6.07565E-06-2.24356E-01 1.94199E-14 4.48581E-14
 -1       765 2.00538E+01 2.18098E-02-9.50690E-07-2.88011E-01-5.13299E-14 5.40472E-14
 -1       766 2.00479E+01 3.10318E-02 8.55488E-07-3.07985E-01 2.54838E-14-1.06764E-13
 -1       767 2.00514E+01 3.71027E-02 1.45182E-06-3.32306E-01-2.10813E-14-4.06143E-14
 -1       768 2.00680E+01 3.20720E-02 1.15288E-06-3.60654E-01-4.07789E-14 9.59708E-14
 -1       769 2.01035E+01 6.85682E-03-1.85410E-06-3.90142E-01-8.56846E-14 9.22171E-14
 -1       770 2.01662E+01-4.86147E-02-1.01911E-05-4.14715E-01-1.89151E-14 5.51114E-14
 -1       771 2.02669E+01-1.44290E-01-2.67588E-05-4.24280E-01 5.02499E-14 1.77575E-13
 -1       772 2.04182E+01-2.87291E-01-5.30972E-05-4.03783E-01-2.77612E-14 1.95965E-13
 -1       773 2.06315E+01-4.76814E-01-9.62701E-05-3.32628E-01 3.09609E-14 1.03208E-13
 -1       774 2.09117E+01-6.95935E-01-1.61053E-04-1.85919E-01-1.15716E-13 1.51018E-14
 -1       775 2.12481E+01-9.01761E-01-1.21377E-04 6.04932E-02-1.61841E-13-1.02321E-13
 -1       776 2.16033E+01-1.01592E+00-5.29926E-06 4.17823E-01-7.66599E-15-9.09969E-14
 -1       777 2.19063E+01-9.27396E-01 9.11547E-06 8.58925E-01-2.11145E-14-1.41030E-13
 -1       778 2.20635E+01-5.27292E-01-4.55595E-05 1.28937E+00 2.14821E-14-5.40011E-15
 -1       779 2.20082E+01 2.10457E-01 3.44054E-05 1.53601E+00 2.59731E-14-4.42834E-14
 -1       780 2.17649E+01 1.14336E+00-1.01853E-03 1.39410E+00 4.94030E-14 6.20635E-14
 -1       781 2.14936E+01 1.92243E+00-2.03325E-03 7.86679E-01 1.25644E-13 1.65862E-13
 -1       782 2.14031E+01 2.16937E+00-4.73050E-04-1.32283E-01 1.68051E-13-1.09271E-14
 -1       783 2.15628E+01 1.74478E+00-2.93183E-04-9.98123E-01 1.16243E-13-1.48196E-13
 -1       784 2.18450E+01 8.80202E-01-2.09456E-03-1.47927E+00 2.60536E-13-1.99641E-13
 -1       785 2.20457E+01-1.83772E-02-3.95722E-04-1.49880E+00 2.74296E-14-2.39303E-13
 -1       786 2.20411E+01-6.69025E-01 2.92623E-04-1.18245E+00-1.35988E-13-2.67610E-13
 -1       787 2.18345E+01-9.73690E-01-9.11622E-05-7.35951E-01-2.71360E-14-1.12830E-13
 -1       788 2.15081E+01-9.91370E-01-2.88910E-04-3.14427E-01 1.25809E-13-1.01372E-13
 -1       789 2.11528E+01-8.38808E-01-2.00903E-04 8.95539E-03 9.75870E-14-1.10295E-13
 -1       790 2.08298E+01-6.19256E-01-1.41954E-04 2.21170E-01-7.06939E-14-1.94778E-13
 -1       791 2.05678E+01-4.00434E-01-8.78101E-05 3.38251E-01 6.86573E-14-2.04361E-13
 -1       792 2.03721E+01-2.16988E-01-5.07394E-05 3.85159E-01 3.88964E-14-2.66294E-13
 -1       793 2.02351E+01-8.01567E-02-2.26519E-05 3.85596E-01 1.11560E-13-2.16583E-13
 -1       794 2.01442E+01 1.22230E-02-8.00135E-06 3.58285E-01-1.62939E-13-1.53947E-13
 -1       795 2.00871E+01 6.84140E-02 2.58460E-05 3.16649E-01-2.64611E-13-4.15607E-13
 -1       796 2.00527E+01 9.80929E-02 1.90759E-05 2.69683E-01-2.00843E-13-5.63301E-13
 -1       797 2.62495E+01 1.37847E+00-4.98293E-02-2.12252E+00-1.52708E-13-1.07659E-13
 -1       798 1.98818E+01 2.95240E-01-4.66972E-06-1.76594E-01-1.75860E-13 4.85424E-13
 -1       799 1.98176E+01 3.21498E-01 1.17688E-05-2.40749E-02 1.69145E-13 1.46109E-13
 -1       800 2.00515E+01-3.21906E+00 2.85790E-02 4.97594E+00 5.38344E-14 8.69048E-13
 -1       801 1.74978E+01-2.49166E+00 6.41886E-02-5.72010E+00-8.85576E-14-1.34016E-14
 -1       802 2.48640E+01-3.91819E+00-1.13082E-02 2.31211E+00-1.12433E-13-9.36816E-14
 -1       803 1.98279E+01 3.00905E-01 3.75838E-05 5.38658E-02-1.16329E-13-4.77332E-14
 -1       804 2.25053E+01-4.01057E+00 2.98463E-02-4.21646E+00-8.09066E-14 4.29329E-13
 -1       805 1.98604E+01 2.64459E-01 4.36994E-05 1.18145E-01-4.45044E-13-7.77796E-14
 -1       806 2.63440E+01-1.16174E-01-5.12085E-02 1.63398E+00 1.48787E-13 2.56053E-13
 -1       807 1.40438E+01 1.73947E+00 4.04465E-02-2.04591E+00 5.20634E-16 1.84861E-13
 -1       808 1.99900E+01 1.44527E-01 1.12991E-04 1.98205E-01-2.19710E-13-1.58584E-13
 -1       809 2.53169E+01 4.36588E+00-7.80769E-02-1.60364E+00 3.81056E-13-2.19763E-13
 -1       810 2.65197E+01-2.38405E+00-3.84403E-02-2.83099E-01-3.96566E-14-4.34017E-13
 -1       811 1.19236E+01 8.98829E-03 9.53863E-02-4.52583E+00-1.80567E-13-4.18755E-13
 -1       812 2.00673E+01 1.66008E-02-3.25629E-06-2.70480E-01 4.81943E-15 1.29894E-13
 -1       813 2.01430E+01 1.90435E+00-2.86600E-04 1.96949E-01 7.54739E-14-1.77460E-13
 -1       814 1.14112E+01 1.07609E+00 9.54227E-02 2.49782E+00 5.40974E-15-4.61828E-13
 -1       815 2.01315E+01 1.94307E+00-3.00279E-04 3.68351E-03 4.83780E-14-2.28008E-13
 -1       816 2.02977E+01 1.03030E+00-3.60993E-04-4.79663E-01-1.17893E-13-1.87332E-13
 -1       817 2.52491E+01 1.53991E+00-4.31450E-02 2.10311E+00 8.25364E-14 3.01248E-13
 -1       818 1.13160E+01 1.64945E+00 6.78871E-02 5.44722E-01 3.41634E-13 2.87340E-13
 -1       819 2.01759E+01 1.79422E+00-4.25068E-04-3.73311E-01-4.68546E-14-2.01959E-13
 -1       820 2.01883E+01 1.93121E-01-8.62923E-06-1.08444E-01 8.43723E-14-1.43638E-14
 -1       821 2.01483E+01 9.97112E-02-7.72538E-06-1.80637E-01 5.12410E-14 8.82012E-15
 -1       822 2.00128E+01 1.25380E-01-4.46406E-05 2.36000E-01-2.63314E-13-4.00953E-13
 -1       823 1.77705E+01-1.73544E+00 3.59355E-02 4.80159E+00 1.92988E-13 9.03910E-13
 -1       824 1.99339E+01 1.92947E-01 1.18155E-05 1.84838E-01-4.62869E-13-3.17830E-13
 -1       825 2.27176E+01-3.43653E+00 1.12493E-04 3.09808E+00-6.87471E-15-1.34538E-14
 -1       826 2.02227E+01 1.60332E+00-3.05551E-05-5.26076E-01-1.11473E-13-1.79364E-13
 -1       827 2.02206E+01 1.59504E+00-8.46125E-04 5.28187E-01 1.64930E-13-1.90127E-13
 -1       828 2.43081E+01 4.74326E+00-5.64037E-02-6.38424E-01 3.86424E-13-3.65466E-13
 -1       829 2.43061E+01-3.58933E+00-3.75343E-03-2.04519E+00-1.91841E-13 2.44667E-13
 -1       830 1.98940E+01 2.30226E-01 2.22477E-05 1.57734E-01-3.83226E-13-1.65407E-13
 -1       831 2.56425E+01-1.87264E+00-1.32732E-02 6.71038E-01 1.06934E-13 2.74798E-13
 -1       832 2.01755E+01 1.79040E+00-1.89964E-04 3.76953E-01 1.33103E-13-1.59942E-13
 -1       833 2.03366E+01 7.42469E-01 2.66950E-04-1.70337E-01-8.72074E-14-1.54799E-13
 -1       834 2.03318E+01 4.56204E-01-9.84058E-07-2.32370E-02-8.98817E-14-1.61763E-13
 -1       835 2.03022E+01 2.68595E-01 4.43837E-07 7.90583E-02-8.35534E-14-8.74320E-14
 -1       836 2.02600E+01 1.52519E-01-8.83159E-06 1.46769E-01-5.10045E-14-8.00099E-14
 -1       837 2.02117E+01 9.04456E-02-4.39295E-06 1.90645E-01-3.51906E-14-1.06538E-13
 -1       838 2.01594E+01 6.99606E-02-5.43243E-06 2.20337E-01-6.57695E-14-7.56147E-14
 -1       839 2.00999E+01 8.42202E-02 5.15072E-06 2.44568E-01-4.31035E-14-2.23418E-14
 -1       840 2.00358E+01 1.26703E-01-9.66761E-07 2.66918E-01-5.10565E-15 3.06092E-14
 -1       841 1.99591E+01 1.94984E-01-6.31796E-07 2.92297E-01 4.51729E-14 1.39622E-14
 -1       842 1.98615E+01 2.89350E-01-2.97906E-06 3.22313E-01 6.92509E-14 5.10820E-14
 -1       843 1.97306E+01 4.11815E-01-4.54277E-06 3.56217E-01 6.87913E-14 1.45668E-13
 -1       844 1.95492E+01 5.65542E-01-4.77005E-06 3.90196E-01-9.45237E-15 1.89409E-14
 -1       845 1.92931E+01 7.53567E-01-6.85445E-05 4.16783E-01-8.41770E-14-5.51173E-14
 -1       846 1.89063E+01 9.88581E-01-2.85385E-05 4.21593E-01-7.32951E-14-6.84393E-15
 -1       847 1.83753E+01 1.24282E+00-2.23356E-04 3.83794E-01-7.36054E-14-1.10826E-13
 -1       848 1.76201E+01 1.50740E+00-7.07668E-04 2.79730E-01-1.60631E-13-2.08603E-13
 -1       849 1.65401E+01 1.74344E+00-1.45270E-04 7.20767E-02-1.80497E-13-2.82436E-13
 -1       850 1.49582E+01 1.89642E+00 5.61000E-04-2.93311E-01-3.49807E-15-3.65243E-13
 -1       851 2.01424E+01 1.90746E+00-2.09002E-04-1.89443E-01-1.02896E-14-2.16731E-13
 -1       852 1.58222E+01 1.93370E+00 1.07859E-02-1.62746E-01 4.53031E-14 4.35821E-13
 -1       853 1.71705E+01 1.67597E+00-9.46777E-04-3.46215E-01 3.71273E-13 3.68157E-13
 -1       854 1.80660E+01 1.41782E+00-4.82435E-04-4.40312E-01 1.59679E-13 4.22262E-13
 -1       855 1.87196E+01 1.14029E+00-2.05251E-04-4.65031E-01 2.40944E-13 2.62371E-13
 -1       856 1.91462E+01 9.04235E-01-1.50718E-05-4.44023E-01 9.77686E-14 1.84273E-13
 -1       857 1.94392E+01 7.05944E-01-8.96032E-06-3.98176E-01-5.06727E-14 3.31704E-13
 -1       858 1.96386E+01 5.46242E-01-3.19334E-05-3.41956E-01 1.53710E-13 2.38925E-13
 -1       859 1.97723E+01 4.22225E-01-1.58630E-04-2.84738E-01 1.23509E-13 1.57943E-13
 -1       860 1.98334E+01 3.51177E-01-4.41899E-05-2.25933E-01 1.39946E-13 4.44949E-13
 -1       861 2.01834E+01 5.68026E-02-3.63673E-06-2.07976E-01-2.28615E-14 5.68950E-15
 -1       862 2.00356E+01 6.00803E-02 1.48426E-06-3.10510E-01 1.01369E-14-9.46016E-15
 -1       863 2.00643E+01 4.65358E-02 1.08503E-06-2.80632E-01 4.01718E-14 1.48562E-14
 -1       864 2.00155E+01 5.72693E-02 1.59643E-06-3.95168E-01-3.10614E-14-1.47480E-13
 -1       865 2.00393E+01 1.82547E-02 4.37487E-06-4.48984E-01-4.40101E-14-1.05662E-13
 -1       866 2.01023E+01-6.36852E-02-6.38731E-07-5.05022E-01-9.19310E-14 8.67194E-15
 -1       867 2.02224E+01-2.02325E-01-5.19063E-06-5.53450E-01-6.78595E-14 6.82937E-14
 -1       868 2.04215E+01-4.07947E-01-1.23170E-05-5.77112E-01-3.75317E-14 1.28254E-13
 -1       869 2.07220E+01-6.79866E-01-3.89172E-05-5.48332E-01-7.61169E-14 1.59045E-13
 -1       870 2.11371E+01-9.92816E-01-1.64108E-04-4.28601E-01-6.07206E-14 8.81376E-15
 -1       871 2.16600E+01-1.28333E+00 7.69418E-05-1.72105E-01-1.44081E-13-4.63802E-15
 -1       872 2.22348E+01-1.42137E+00 6.08618E-04 2.58072E-01-3.03631E-16-1.81424E-14
 -1       873 2.27498E+01-1.23110E+00-6.95276E-04 8.39689E-01-8.14609E-14 7.15154E-14
 -1       874 2.30356E+01-5.26509E-01 2.33902E-03 1.42888E+00 2.16825E-14 1.12291E-15
 -1       875 2.29575E+01 7.27960E-01-3.35801E-03 1.73957E+00 2.40959E-15-1.19448E-13
 -1       876 2.26196E+01 2.15085E+00-9.90065E-03 1.42792E+00 7.69697E-14-1.45010E-13
 -1       877 2.23509E+01 3.07290E+00-8.58836E-03 4.58896E-01 1.72350E-13-6.47776E-14
 -1       878 2.24634E+01 2.84606E+00-9.94433E-03-7.60750E-01 3.43958E-13-2.68905E-13
 -1       879 2.27443E+01 1.75680E+00-6.35606E-03-1.59313E+00 1.00353E-13-2.74356E-13
 -1       880 2.30170E+01 3.34927E-01-1.42327E-03-1.68687E+00 1.03424E-13-2.43581E-14
 -1       881 2.29928E+01-7.74066E-01-2.20038E-04-1.27971E+00-1.34924E-13 1.44894E-13
 -1       882 2.26215E+01-1.32380E+00-6.34842E-04-6.72225E-01-8.52631E-14-3.75179E-14
 -1       883 2.20763E+01-1.40124E+00-6.84917E-04-1.26212E-01 7.09708E-14-1.86768E-13
 -1       884 2.15060E+01-1.19838E+00-1.56423E-04 2.51090E-01 1.05373E-14-1.71073E-13
 -1       885 2.10096E+01-8.88327E-01-6.26547E-05 4.62072E-01 8.34756E-14-5.47725E-14
 -1       886 2.06245E+01-5.76346E-01-3.98002E-05 5.47321E-01-1.34794E-14-2.40980E-13
 -1       887 2.03515E+01-3.14901E-01-3.55132E-05 5.51791E-01 9.99689E-14-1.25797E-13
 -1       888 2.01726E+01-1.20082E-01-1.69968E-05 5.11101E-01 5.29708E-14-2.41165E-13
 -1       889 2.00646E+01 1.15389E-02-5.47203E-06 4.49317E-01-1.32239E-13 1.10417E-14
 -1       890 2.00064E+01 9.17108E-02 3.29085E-05 3.81318E-01-2.59783E-14-4.12261E-14
 -1       891 1.99800E+01 1.34085E-01 5.41472E-05 3.15749E-01 7.26143E-14-3.02720E-13
 -1       892 2.02916E+01 1.20350E+00 1.14841E-03 3.98311E-01 1.60824E-13-1.35357E-13
 -1       893 1.97649E+01 3.80296E-01-1.04588E-05-1.31856E-01 5.39521E-14-7.39586E-13
 -1       894 1.97399E+01 3.77401E-01 1.33364E-05-2.91919E-02-3.04495E-13 1.35650E-15
 -1       895 2.50433E+01-7.85959E-01-2.84409E-02-1.50727E+00-1.55859E-13-2.50775E-13
 -1       896 1.97542E+01 3.47255E-01 1.80510E-06 6.86458E-02 1.79424E-13 1.36075E-13
 -1       897 1.42122E+01 4.25747E-01 4.38434E-02 3.57309E+00 3.39632E-13 3.22868E-13
 -1       898 1.97997E+01 2.98349E-01-2.19629E-05 1.47742E-01 1.79170E-13 6.30299E-14
 -1       899 1.55134E+01-4.61984E-01 4.66650E-02-4.38621E+00-2.03246E-13-3.58957E-13
 -1       900 1.21532E+01 1.57779E+00 6.63669E-02-1.85836E+00-1.32735E-13-4.87719E-13
 -1       901 2.48511E+01-2.85247E+00 3.29957E-03 5.24517E-01-5.70416E-14-4.11015E-13
 -1       902 2.00173E+01 6.71584E-02 8.44119E-07-3.48477E-01-5.23492E-14-3.29703E-14
 -1       903 2.42808E+01 2.25235E+00-2.47458E-02-1.95439E+00-3.39078E-14-2.77516E-13
 -1       904 2.42825E+01 4.03691E+00-5.06544E-02 1.33940E+00 1.62065E-13 1.63472E-14
 -1       905 2.01739E+01-2.60205E+00 1.32604E-02-4.15547E+00-2.08827E-13 5.85421E-13
 -1       906 2.45119E+01-2.64500E+00-1.51988E-03-3.88874E-01-8.69335E-14 1.62450E-13
 -1       907 2.51221E+01-3.96126E-01-2.03943E-02 1.59042E+00 1.64698E-13 2.20346E-13
 -1       908 1.34135E+01 1.32621E+00 7.33329E-03 2.11957E+00 3.08488E-13 2.17026E-13
 -1       909 2.03288E+01 5.95175E-01-2.26541E-04 1.08030E-01 8.98695E-14-8.56446E-14
 -1       910 2.02281E+01 1.08118E-01-4.83721E-06-1.70786E-01 1.77665E-14 3.84283E-14
 -1       911 2.03082E+01 3.57949E-01 1.60173E-05-2.44525E-02 6.31003E-14-9.42336E-15
 -1       912 2.03184E+01 1.03448E+00-1.18938E-04-3.24991E-01-8.66266E-14-1.44893E-13
 -1       913 2.03258E+01 8.55175E-01-5.14130E-04 2.40527E-01 1.44320E-13-1.20734E-13
 -1       914 2.00998E+01 3.56693E-02-5.56248E-07-2.56464E-01 5.50302E-14 2.31535E-14
 -1       915 1.99459E+01 1.68486E-01 1.86462E-04 2.66465E-01-1.68637E-13-1.29076E-13
 -1       916 2.06160E+01-2.51700E+00 1.00172E-02 3.72228E+00 1.09273E-13 4.47164E-13
 -1       917 1.99350E+01 1.83945E-01-1.66395E-04 2.24244E-01-1.74823E-13-3.62069E-13
 -1       918 2.02873E+01 1.36512E+00-2.83991E-04-1.89894E-01-2.80268E-14-1.68379E-13
 -1       919 1.82502E+01-1.15357E+00 1.21666E-02-3.80501E+00-3.04480E-13 3.31206E-13
 -1       920 2.02769E+01 1.42888E+00 3.69958E-05 6.80105E-02 3.25418E-14-1.82767E-13
 -1       921 1.98463E+01 2.54448E-01-1.30407E-04 1.94679E-01 2.21890E-13 1.26817E-14
 -1       922 2.22560E+01-2.99282E+00 1.13450E-03-2.81427E+00-2.41593E-13 4.79307E-13
 -1       923 1.39427E+01 1.96372E+00 2.22803E-02 1.08115E-01-1.17565E-13 4.18941E-13
 -1       924 2.02878E+01 1.36000E+00 3.57274E-05 1.93170E-01 6.76497E-14-1.20561E-13
 -1       925 2.01400E+01 3.61031E-02-2.34021E-06-2.34099E-01 2.90023E-15-1.46252E-14
 -1       926 1.58538E+01 9.18444E-01 7.52694E-03-2.35986E+00-2.25707E-13-2.34492E-13
 -1       927 2.03746E+01 4.30731E-01-2.07634E-04 1.27954E-02-3.35887E-14-6.66483E-14
 -1       928 2.03451E+01 2.56631E-01 3.80097E-05 8.08547E-02-5.43547E-14-4.95716E-14
 -1       929 2.02973E+01 1.50570E-01-5.70811E-06 1.26139E-01-3.41751E-14-4.12673E-14
 -1       930 2.02375E+01 9.88895E-02-4.91073E-06 1.55706E-01-5.05858E-14 2.46984E-14
 -1       931 2.01648E+01 9.04407E-02 3.40273E-06 1.76340E-01-1.94070E-14 4.73456E-14
 -1       932 2.00858E+01 1.17456E-01-1.65427E-06 1.90585E-01-3.26538E-14 3.09739E-14
 -1       933 1.99942E+01 1.73122E-01-2.59706E-07 2.01954E-01 1.44146E-14-2.19387E-14
 -1       934 1.98840E+01 2.54692E-01-3.81870E-06 2.10493E-01 3.17049E-14-3.12370E-14
 -1       935 1.97462E+01 3.60965E-01-1.33309E-05 2.13560E-01 6.76658E-14-9.48446E-14
 -1       936 1.95682E+01 4.91484E-01-1.38590E-05 2.04944E-01 9.25903E-15-1.23940E-13
 -1       937 1.93329E+01 6.45505E-01-4.25481E-05 1.74052E-01-6.32662E-14-7.99442E-14
 -1       938 1.89996E+01 8.28749E-01 1.85698E-05 9.81610E-02-6.35472E-14-1.12582E-13
 -1       939 1.85685E+01 1.01473E+00 5.10798E-05-4.23676E-02-1.16006E-13-8.46779E-14
 -1       940 1.79891E+01 1.19286E+00 3.60146E-04-2.86086E-01-1.30337E-13-2.25414E-14
 -1       941 1.71995E+01 1.32785E+00 7.44697E-04-6.91048E-01-1.79974E-13-5.87187E-14
 -1       942 1.65050E+01 1.23906E+00 4.23996E-03-1.39455E+00-2.65439E-13-1.26692E-13
 -1       943 2.02714E+01 2.02905E-01-6.22735E-06-1.13300E-01 3.71850E-14 7.06757E-15
 -1       944 1.75702E+01 1.36039E+00 1.11587E-03 3.53408E-01 2.53518E-13 3.78321E-13
 -1       945 1.82992E+01 1.17105E+00 9.08224E-05 6.72007E-02 1.71775E-13 4.16705E-13
 -1       946 1.87996E+01 9.79606E-01 4.38904E-05-8.50212E-02 1.59631E-13 2.90002E-13
 -1       947 1.91627E+01 7.99484E-01-1.87605E-06-1.59904E-01-1.68535E-14 1.41132E-13
 -1       948 1.94244E+01 6.41565E-01-4.36540E-05-1.86333E-01 9.54019E-14 2.98101E-13
 -1       949 1.96107E+01 5.10373E-01-1.87275E-04-1.85104E-01 6.06267E-14 2.97992E-13
 -1       950 1.96950E+01 4.40213E-01 3.27749E-05-1.57041E-01 2.57298E-13 7.97862E-15
 -1       951 2.34471E+01 3.59335E+00-2.35636E-02-1.06048E+00 4.17289E-13-2.73626E-13
 -1       952 1.99312E+01 5.05748E-02 3.54213E-06-5.17859E-01-1.70236E-13 9.84607E-14
 -1       953 1.99236E+01 1.00870E-01 7.90395E-06-4.27791E-01-5.04239E-14 6.60602E-14
 -1       954 2.01208E+01-2.38156E-01 1.19904E-05-7.37136E-01-1.73097E-13-6.03567E-15
 -1       955 2.03632E+01-5.12609E-01-1.53510E-05-8.40057E-01-1.01676E-13 5.06086E-14
 -1       956 2.07588E+01-8.85357E-01 1.49799E-04-8.94648E-01 4.56263E-14-5.79537E-15
 -1       957 2.13314E+01-1.31843E+00-6.36724E-05-8.40333E-01-4.59836E-14-6.86423E-14
 -1       958 2.20955E+01-1.74487E+00-2.27048E-03-5.85461E-01-1.11622E-13-1.29223E-13
 -1       959 2.29688E+01-1.92611E+00-1.42425E-03-6.52214E-02-1.04197E-13-3.11665E-15
 -1       960 2.37644E+01-1.59219E+00-1.07838E-03 7.31900E-01 1.56841E-14 1.29884E-13
 -1       961 2.42232E+01-8.35357E-01-1.65798E-02-1.41380E+00-6.94887E-15-1.01681E-13
 -1       962 2.36404E+01-1.75674E+00 1.51657E-03-5.22028E-01-1.22157E-13 7.95067E-15
 -1       963 2.27351E+01-1.90576E+00-2.25320E-03 2.36191E-01 1.43969E-13 2.71192E-14
 -1       964 2.18716E+01-1.61930E+00 1.81474E-03 6.83017E-01 1.73495E-13-1.81045E-13
 -1       965 2.11512E+01-1.18032E+00 2.35418E-04 8.64401E-01-3.74428E-14-3.64448E-13
 -1       966 2.06248E+01-7.48497E-01 1.25074E-04 8.75979E-01 5.03611E-14-1.69434E-13
 -1       967 2.02735E+01-3.96407E-01-3.21768E-05 7.98341E-01-4.00798E-15-2.02509E-13
 -1       968 2.00591E+01-1.39798E-01-3.85666E-05 6.84227E-01 1.54080E-13-1.14176E-13
 -1       969 1.99424E+01 3.02978E-02-1.56230E-05 5.64371E-01-2.87317E-13-4.29567E-14
 -1       970 1.98908E+01 1.31728E-01-4.40187E-07 4.53675E-01-1.13652E-13 1.76949E-13
 -1       971 1.98791E+01 1.83011E-01-2.67856E-04 3.58082E-01 4.25930E-15 2.00304E-13
 -1       972 2.02875E+01 1.28670E+00 1.30242E-04 3.40196E-01 1.27248E-13-1.59117E-13
 -1       973 2.02769E+01 1.42992E+00 2.67160E-05-6.29601E-02 9.84053E-15-1.83457E-13
 -1       974 1.96626E+01 4.32478E-01-7.33088E-05-3.18641E-02-3.23818E-13 3.03859E-14
 -1       975 2.30523E+01-2.68084E+00-2.43872E-04 1.44334E+00 7.33148E-14-4.07111E-13
 -1       976 1.96988E+01 3.61125E-01-7.63811E-05 1.62707E-01 1.45908E-13 2.60015E-14
 -1       977 1.96646E+01 4.07062E-01 4.33924E-05 7.14445E-02-8.93154E-14-3.30373E-13
 -1       978 1.99881E+01-5.59776E-02 2.18981E-06-6.23628E-01-1.00052E-13 2.14003E-14
 -1       979 2.00389E+01 8.20787E-02 4.40490E-06-2.58481E-01 4.79557E-14-6.57684E-14
 -1       980 1.98924E+01 2.18966E-01 4.11172E-04 2.13859E-01-7.58445E-15 6.37428E-14
 -1       981 1.65472E+01 1.48088E+00-8.11863E-03 8.18899E-01 1.95402E-13 7.18165E-13
 -1       982 1.70501E+01-2.55039E-01 3.52409E-03 3.38453E+00 3.52318E-13 7.05349E-13
 -1       983 2.03728E+01 7.00135E-01-1.05547E-04-8.59105E-02-8.88082E-14-1.32884E-13
 -1       984 2.18656E+01-2.35645E+00 9.85178E-03 2.23454E+00 1.49603E-13-4.14417E-13
 -1       985 2.02692E+01 1.09044E-01-4.63425E-06-1.48317E-01 1.86939E-14 3.97825E-14
 -1       986 1.59020E+01 6.97832E-01 2.44529E-02 2.76634E+00 2.88658E-13 6.08268E-13
 -1       987 2.00954E+01 6.27350E-02-1.61894E-06-2.27235E-01 8.87450E-14-4.56720E-14
 -1       988 2.03736E+01 5.66220E-01-1.73757E-04 4.61129E-02 3.19866E-14-6.03365E-14
 -1       989 2.03520E+01 8.74174E-01 4.19081E-04 1.71490E-01 8.34860E-14-7.16718E-14
 -1       990 1.99466E+01 1.12942E-01-1.10274E-05-3.55580E-01 5.53261E-14 9.02049E-14
 -1       991 1.98538E+01 2.25034E-01-5.07198E-05 2.85855E-01-1.72526E-13 4.07759E-13
 -1       992 1.92267E+01-1.19639E+00 7.88310E-03 3.17471E+00 2.92754E-14 3.74988E-13
 -1       993 2.31010E+01-2.68811E+00-4.34743E-03-1.39728E+00-2.10552E-13 1.53019E-15
 -1       994 2.02709E+01-1.98818E+00-2.78349E-03-3.26602E+00-1.62104E-13 5.20292E-13
 -1       995 2.02131E+01 6.59466E-02 8.71026E-07-1.77665E-01 1.79499E-14 4.01032E-14
 -1       996 2.03611E+01 8.61412E-01-3.44271E-04-1.39033E-01-9.44720E-14-1.16207E-13
 -1       997 1.97594E+01 3.04414E-01 9.36002E-05 2.26890E-01 9.81299E-14-3.50046E-13
 -1       998 2.03664E+01 1.02915E+00 4.90715E-05 2.66830E-03 2.18785E-14-1.61500E-13
 -1       999 2.03689E+01 9.97177E-01-1.01003E-04 7.79378E-02 6.35527E-14-1.13930E-13
 -1      1000 1.99878E+01 1.02378E-01 2.10743E-06-3.00017E-01-3.63343E-14 4.58491E-14
 -1      1001 2.03656E+01 1.00305E+00-1.45253E-04-7.22657E-02-2.25221E-14-1.25384E-13
 -1      1002 1.79485E+01-1.04384E-01 5.68104E-04-2.65373E+00-2.74815E-13 6.37324E-14
 -1      1003 2.03615E+01 2.28448E-01 1.32763E-05 6.46544E-02-2.57280E-14-9.29146E-15
 -1      1004 2.03046E+01 1.39608E-01-3.11906E-05 8.82692E-02-1.52982E-14-9.69872E-15
 -1      1005 2.02297E+01 1.02174E-01-1.17181E-05 1.03243E-01-2.38796E-14 2.66865E-14
 -1      1006 2.01459E+01 1.08232E-01-6.33662E-06 1.10416E-01-2.44357E-14 5.10258E-14
 -1      1007 2.00501E+01 1.45999E-01-1.00167E-05 1.11753E-01-3.73765E-14 3.66461E-14
 -1      1008 1.99392E+01 2.09954E-01-8.63220E-06 1.06133E-01-3.26595E-14-3.28971E-15
 -1      1009 1.98079E+01 2.95668E-01-7.33584E-06 8.99156E-02 3.35552E-15 1.35956E-14
 -1      1010 1.96485E+01 3.99333E-01-3.49790E-05 5.63328E-02 2.66387E-14 2.86196E-14
 -1      1011 1.94517E+01 5.15944E-01-4.69502E-05-5.63382E-03-6.04556E-14-2.78640E-14
 -1      1012 1.91919E+01 6.44583E-01 9.69859E-06-1.20182E-01-9.17252E-14-5.80781E-15
 -1      1013 1.88806E+01 7.59167E-01 9.24840E-05-3.02062E-01-1.03000E-13 1.98771E-14
 -1      1014 1.84952E+01 8.43631E-01 5.96708E-04-5.89232E-01-1.16798E-13-8.06266E-14
 -1      1015 1.80238E+01 8.57413E-01 8.21726E-04-1.02763E+00-1.14556E-13-6.52986E-14
 -1      1016 1.97841E+01 1.72956E-01 3.26865E-05-4.56903E-01-5.97899E-14 1.70320E-13
 -1      1017 1.81916E+01 9.65290E-01 1.01033E-03 7.17192E-01 3.61139E-14 2.39471E-13
 -1      1018 1.86418E+01 8.94760E-01 2.08471E-04 3.79572E-01 1.01462E-13-4.72534E-14
 -1      1019 1.89972E+01 7.86681E-01 2.69206E-05 1.68794E-01 3.38663E-15 1.74085E-14
 -1      1020 1.92722E+01 6.68228E-01-3.71664E-05 4.34123E-02-2.23742E-14-3.95253E-14
 -1      1021 1.94814E+01 5.55064E-01-5.61170E-05-2.49477E-02 8.61357E-14 3.39103E-14
 -1      1022 1.95821E+01 4.90070E-01 6.85311E-04-3.07123E-02 3.46590E-14-1.99192E-15
 -1      1023 2.03562E+01 3.42733E-01 1.72334E-05-4.54190E-02 1.50640E-14-3.92328E-14
 -1      1024 1.97923E+01-3.35860E-03-1.04688E-05-7.69920E-01-1.54109E-13 3.58294E-14
 -1      1025 2.01693E+01-5.63642E-01 1.24543E-04-1.20370E+00-3.71934E-14 2.53972E-14
 -1      1026 1.99132E+01-2.23115E-01 6.19349E-05-9.78695E-01-1.23301E-13 5.77956E-15
 -1      1027 2.13801E+01-1.67039E+00 2.40929E-03-1.50344E+00-6.86638E-14 2.20932E-14
 -1      1028 2.11447E+01-1.47581E+00-4.48050E-04 1.48008E+00 9.31727E-15-1.92043E-13
 -1      1029 2.04768E+01-8.80550E-01 1.10155E-03 1.35030E+00-1.33515E-13-5.03023E-14
 -1      1030 2.00710E+01-4.27398E-01 1.14430E-04 1.13415E+00 8.25933E-14-5.39936E-14
 -1      1031 1.98500E+01-1.11581E-01 1.20619E-05 9.05651E-01 7.29468E-14 4.20172E-14
 -1      1032 1.97495E+01 8.93008E-02 3.04737E-05 7.00868E-01-1.83696E-13 9.75592E-14
 -1      1033 1.97245E+01 2.02890E-01 2.16929E-05 5.30647E-01-2.75403E-13-2.75657E-13
 -1      1034 1.97442E+01 2.54805E-01-3.54229E-05 3.94576E-01 1.36041E-14-2.62836E-13
 -1      1035 2.03190E+01 1.96071E-01-3.58327E-06-1.06799E-01 1.08150E-14 4.56085E-14
 -1      1036 1.97611E+01 1.19502E-01-4.11129E-07-5.94818E-01-4.33223E-14 5.14911E-14
 -1      1037 2.06448E+01-1.06349E+00-4.49903E-03-1.40378E+00 4.57235E-14 1.04277E-13
 -1      1038 2.04123E+01 7.03074E-01-1.05908E-04-1.53512E-02-1.16169E-14-1.21425E-13
 -1      1039 2.01543E+01 5.40216E-02-1.15394E-05-2.01969E-01-6.41028E-15-1.60343E-14
 -1      1040 1.76345E+01 9.44765E-01 1.02335E-03 1.23701E+00 7.43418E-14 5.86053E-13
 -1      1041 1.71917E+01 6.21917E-01 9.90814E-03 2.12841E+00 1.99066E-13 7.42756E-13
 -1      1042 2.03989E+01 3.80000E-01-1.05060E-04 2.61974E-02-1.62616E-14-9.51974E-14
 -1      1043 2.19992E+01-1.98969E+00 3.20599E-03 1.32775E+00 2.60886E-13-3.49155E-13
 -1      1044 1.98368E+01 1.81051E-01 2.81791E-05-3.53201E-01-3.96612E-14 2.01623E-13
 -1      1045 1.77669E+01 6.40064E-01 6.80604E-04-1.63285E+00-2.25397E-13-8.28242E-14
 -1      1046 2.04037E+01 5.08476E-01 3.32516E-04 4.41726E-03-1.10753E-15-1.02821E-13
 -1      1047 1.98196E+01 2.56452E-01-1.55205E-04 2.54762E-01 1.96590E-13 1.49339E-13
 -1      1048 2.00595E+01 9.92990E-02-6.12054E-06-1.83438E-01 6.29540E-14-3.90638E-14
 -1      1049 1.95852E+01 4.54165E-01-4.69739E-05 9.34819E-02 2.79672E-13-3.42370E-13
 -1      1050 2.03373E+01 1.77942E-01 7.14575E-06-8.51338E-02-1.40565E-14 1.13555E-14
 -1      1051 1.85517E+01-1.89000E-01-3.82118E-03 2.32483E+00-3.93554E-14 2.78930E-13
 -1      1052 1.93925E+01-8.90056E-01-2.52654E-04-2.58229E+00-3.33585E-14 2.95728E-13
 -1      1053 1.96495E+01 3.59528E-01-3.30260E-04 2.72247E-01-2.94383E-13-4.09304E-14
 -1      1054 1.99818E+01 1.30651E-01 2.95823E-05-2.22056E-01-6.71854E-14-5.16188E-14
 -1      1055 2.02784E+01 1.05702E-01-2.72366E-05-1.11513E-01-7.77884E-15 2.24268E-15
 -1      1056 2.04173E+01 6.21057E-01-2.10792E-04 5.95580E-03-3.09389E-15-8.85319E-14
 -1      1057 2.03988E+01 6.47821E-01 6.32616E-04-3.61644E-02-2.58574E-14-9.79581E-14
 -1      1058 1.96040E+01 4.16478E-01 2.96582E-04 1.85054E-01-1.47068E-13-1.25348E-13
 -1      1059 1.97294E+01 3.00163E-01 3.27111E-04 3.03109E-01-3.49789E-13 1.43429E-13
 -1      1060 2.07272E+01-1.60757E+00-1.17872E-02 2.21283E+00-2.35456E-15-2.96234E-13
 -1      1061 2.02869E+01 1.22435E-01-1.70433E-05 3.32336E-02-2.31142E-15-1.24225E-13
 -1      1062 2.02064E+01 1.02539E-01-3.93259E-05 3.33585E-02 1.50745E-15-9.68919E-14
 -1      1063 2.01140E+01 1.19450E-01 2.83659E-05 2.74457E-02 5.56157E-15-3.57958E-14
 -1      1064 2.00102E+01 1.62995E-01-1.20541E-05 1.33941E-02-5.17216E-14-1.10603E-14
 -1      1065 1.98925E+01 2.26747E-01-2.93776E-05-1.21243E-02-1.01320E-14 4.14222E-14
 -1      1066 1.97586E+01 3.03777E-01 2.22697E-05-5.56059E-02-4.02292E-15 2.17262E-14
 -1      1067 1.96028E+01 3.87298E-01-8.21062E-05-1.27513E-01-4.25569E-14-8.46007E-14
 -1      1068 1.94154E+01 4.68707E-01-7.54248E-05-2.49408E-01-2.45893E-14-3.99652E-14
 -1      1069 1.92114E+01 5.25651E-01-1.66984E-04-4.28776E-01-1.21872E-13 1.99288E-14
 -1      1070 1.89878E+01 5.38117E-01-2.24798E-04-6.95557E-01-1.61662E-13-1.33548E-14
 -1      1071 1.87612E+01 4.65844E-01-5.48343E-04-1.08140E+00-1.56431E-13-6.47800E-15
 -1      1072 2.03809E+01 3.07223E-01 1.54866E-05-4.83838E-02-4.12170E-14-7.30129E-14
 -1      1073 1.87690E+01 6.18517E-01-2.90140E-04 8.49832E-01-2.54698E-13 1.60414E-13
 -1      1074 1.97715E+01-5.28021E-01 3.02347E-03-1.67492E+00-8.95505E-14 1.63595E-13
 -1      1075 1.90174E+01 6.35441E-01-3.14408E-04 5.27507E-01 1.55402E-13-4.64711E-14
 -1      1076 1.92387E+01 5.97221E-01-2.40879E-04 3.11614E-01 4.65647E-14-7.51908E-15
 -1      1077 1.94281E+01 5.31373E-01-1.62645E-04 1.71873E-01-1.05139E-13-2.14534E-14
 -1      1078 1.94791E+01 1.18952E-01 1.01601E-04-9.31238E-01-1.81081E-13 8.82242E-15
 -1      1079 1.94860E+01-4.98621E-03-2.24134E-04 1.16855E+00-3.75115E-14 9.14727E-14
 -1      1080 2.00773E+01-8.60943E-01 8.23458E-04 1.85469E+00-1.17983E-13-1.78685E-13
 -1      1081 1.94496E+01 2.11349E-01 1.43011E-04 8.48533E-01-1.17078E-14 2.20333E-13
 -1      1082 1.94868E+01 3.20927E-01 1.64894E-04 6.02550E-01 3.96977E-14 1.86045E-13
 -1      1083 1.95598E+01 3.61232E-01 7.76324E-05 4.18313E-01-1.36112E-13 3.81140E-14
 -1      1084 1.95094E+01 2.41926E-01 1.58858E-04-6.69291E-01-7.75438E-14 3.69219E-14
 -1      1085 2.17906E+01-2.21376E+00 1.48055E-02-2.04740E+00-9.09394E-14 6.29167E-14
 -1      1086 1.85122E+01 4.96371E-01-1.06837E-03 1.31777E+00-2.50530E-13 1.91797E-13
 -1      1087 1.99062E+01 1.61544E-01 4.00881E-05-2.76930E-01-8.22656E-14 2.40180E-14
 -1      1088 2.01364E+01 7.83950E-02 5.67775E-06-1.55827E-01 7.06615E-14-7.45183E-14
 -1      1089 2.02106E+01 7.65434E-02 1.03295E-05-1.33436E-01 5.05019E-14-3.29359E-14
 -1      1090 1.95873E+01 2.84936E-01 1.68929E-04-4.74336E-01-5.16197E-15 1.53787E-14
 -1      1091 1.95364E+01-1.23275E-01-6.42961E-05-1.27056E+00-1.33517E-13 8.39373E-15
 -1      1092 1.84436E+01 2.43308E-01-5.64268E-03 1.77452E+00-1.15624E-13 2.80553E-13
 -1      1093 1.96602E+01-3.45821E-01 2.15033E-04 1.51453E+00-2.14248E-13-1.32270E-13
 -1      1094 2.04044E+01 3.13944E-01 1.72799E-04 1.57883E-02-7.27412E-15-1.18888E-13
 -1      1095 2.03543E+01 1.91449E-01-2.49909E-05 2.81100E-02-4.01542E-14-1.12244E-13
 -1      1096 1.96855E+01 2.78055E-01 7.93865E-05-3.34484E-01-4.64378E-14 1.73456E-14
 -1      1097 1.86343E+01 3.28807E-02 5.83429E-05-1.89784E+00-1.71933E-13-4.91823E-14
 -1      1098 1.86594E+01 3.03824E-01-2.54465E-04-1.46298E+00-2.25872E-13 2.39453E-14
 -1      1099 2.04092E+01 3.89174E-01 1.31882E-04-1.06449E-02-5.14995E-14-9.85622E-14
 -1      1100 2.03307E+01 1.53824E-01-1.37514E-07-4.65535E-02-3.77413E-14-1.37539E-13
 -1      1101 2.03802E+01 2.44649E-01 8.99885E-05-2.98764E-02-4.00237E-14-1.68953E-13
 -1      1102 2.00929E+01 1.09740E-01 4.79541E-06-9.54465E-02 4.10685E-14-1.00827E-13
 -1      1103 1.99983E+01 1.46808E-01 2.23190E-05-1.25076E-01-1.19677E-14 7.30236E-15
 -1      1104 2.01688E+01 9.80576E-02-1.80407E-05-4.79013E-02 7.22896E-14-8.58904E-14
 -1      1105 1.97458E+01 2.77117E-01-1.26971E-04-2.08448E-01-1.07040E-13-2.27084E-14
 -1      1106 2.02615E+01 1.02487E-01 5.99060E-05-6.06014E-02 5.72214E-14-1.03828E-13
 -1      1107 1.98817E+01 2.07208E-01 4.40310E-05-1.55018E-01-4.22217E-14-2.40532E-14
 -1      1108 1.91413E+01-1.03108E-01 1.76309E-03 1.67952E+00-2.56238E-13 6.78838E-14
 -1      1109 2.79474E+01 9.08146E+00 2.32396E+00-6.69599E+00-3.39728E-14 1.08955E-12
 -1      1110 2.05386E+01 6.22443E+00 2.09447E-01-3.90393E+00-1.83464E-14 1.70690E-13
 -1      1111 1.94304E+01 5.85167E+00 7.51613E-02-2.88859E+00-1.40998E-14-2.22803E-13
 -1      1112 1.90262E+01 5.72601E+00 6.04603E-02-2.23585E+00-8.01442E-15-4.05684E-13
 -1      1113 1.88435E+01 5.67045E+00 5.79549E-02-1.70172E+00-5.23713E-15-4.97116E-13
 -1      1114 1.87517E+01 5.64223E+00 5.56922E-02-1.23417E+00-3.26909E-15-5.32499E-13
 -1      1115 1.87043E+01 5.62747E+00 5.38838E-02-8.04213E-01-1.99884E-15-5.39812E-13
 -1      1116 1.86812E+01 5.62015E+00 5.26178E-02-3.92657E-01-2.07950E-16-5.22207E-13
 -1      1117 1.86746E+01 5.61804E+00 5.22090E-02 8.64014E-03 1.06100E-15-5.11643E-13
 -1      1118 1.86821E+01 5.62045E+00 5.27233E-02 4.10319E-01 3.34498E-15-4.97937E-13
 -1      1119 1.87062E+01 5.62811E+00 5.41228E-02 8.23149E-01 4.76615E-15-4.67172E-13
 -1      1120 1.87552E+01 5.64348E+00 5.63346E-02 1.25563E+00 6.50868E-15-4.08567E-13
 -1      1121 1.88481E+01 5.67203E+00 5.85856E-02 1.72749E+00 9.03617E-15-3.24997E-13
 -1      1122 1.90320E+01 5.72782E+00 6.07621E-02 2.26870E+00 1.02453E-14-2.04678E-13
 -1      1123 1.94275E+01 5.84910E+00 6.94578E-02 2.92909E+00 1.40443E-14 2.68726E-14
 -1      1124 2.04445E+01 6.17920E+00 1.52779E-01 3.87838E+00 1.52933E-14 4.66509E-13
 -1      1125 2.52027E+01 7.98961E+00 1.42918E+00 5.84457E+00 2.76446E-14 1.36285E-12
 -1      1126 2.87941E+01 3.61442E+00 1.27052E+00-4.21550E+00-1.39444E-13 1.66644E-12
 -1      1127 2.02109E+01-1.77646E-01-6.16108E-01-1.10078E-01-3.99333E-14 1.33152E-12
 -1      1128 1.88160E+01-9.63985E-02-2.36321E-01 6.24104E-02-5.51122E-15 9.07054E-13
 -1      1129 1.84816E+01-4.81239E-02-5.95914E-02 4.03965E-02-5.09011E-15 6.59826E-13
 -1      1130 1.84264E+01-2.47487E-02-1.52685E-02 2.66334E-02-4.87457E-15 4.24209E-13
 -1      1131 1.85088E+01-1.32848E-02-5.16854E-03 1.88585E-02-5.36030E-16 3.19331E-13
 -1      1132 1.86577E+01-7.15362E-03-1.85821E-03 1.38926E-02-8.48713E-15 2.23540E-13
 -1      1133 1.88392E+01-3.13414E-03 4.07471E-05 1.03774E-02-1.37828E-14 5.18301E-14
 -1      1134 1.90277E+01-1.25276E-03 1.20325E-03 7.71102E-03 1.76103E-14-1.15377E-13
 -1      1135 1.92068E+01-3.44272E-04 1.53969E-03 5.79994E-03 3.93035E-15-1.53343E-13
 -1      1136 1.93776E+01-1.19341E-04 1.32820E-03 4.29205E-03-1.48573E-14-2.60001E-13
 -1      1137 1.95407E+01-4.41642E-04 6.16095E-04 3.13693E-03 7.95073E-15-1.69804E-13
 -1      1138 1.97009E+01-1.24955E-03-5.83322E-04 2.29880E-03 6.69534E-15-1.49067E-13
 -1      1139 1.98665E+01-2.62541E-03-2.35017E-03 1.76494E-03 7.64699E-15-3.52663E-13
 -1      1140 2.00550E+01-4.46126E-03-4.86559E-03 1.53457E-03-1.20917E-14-5.80076E-13
 -1      1141 2.02809E+01-7.17115E-03-8.39009E-03 2.00978E-03-3.00316E-14-7.26387E-13
 -1      1142 2.05628E+01-1.07943E-02-1.33163E-02 3.12288E-03 7.09502E-15-6.16392E-13
 -1      1143 2.09405E+01-1.57037E-02-2.03434E-02 5.44414E-03 3.21748E-15-4.80503E-13
 -1      1144 2.14628E+01-2.22104E-02-3.03193E-02 9.78738E-03-4.56727E-14-6.86350E-13
 -1      1145 2.21979E+01-3.04310E-02-4.40886E-02 1.74942E-02 2.78432E-14-5.66453E-13
 -1      1146 2.32373E+01-4.09043E-02-6.18408E-02 3.05381E-02-2.36131E-14-2.54720E-13
 -1      1147 2.47389E+01-4.66252E-02-7.89445E-02 5.19869E-02 2.46630E-14-3.36550E-13
 -1      1148 2.67917E+01-4.68047E-02-8.00032E-02 8.53063E-02 1.02995E-14-1.05471E-15
 -1      1149 2.93481E+01-2.32051E-02-3.24456E-02 1.20974E-01-1.32121E-14-3.75672E-14
 -1      1150 3.21632E+01 4.44201E-02 1.15143E-01 1.31346E-01 2.93238E-14 2.14273E-14
 -1      1151 3.42879E+01 1.68574E-01 3.73177E-01 4.47657E-02 1.86275E-14 3.53335E-13
 -1      1152 3.38798E+01 2.85378E-01 5.59433E-01-2.29451E-01 2.70686E-14 8.49265E-13
 -1      1153 2.93159E+01 2.52874E-01 2.66004E-01-6.12446E-01 3.62904E-14 7.96585E-13
 -1      1154 2.17585E+01-1.65594E-01-6.40010E-01-7.00809E-01 4.82357E-14 1.05554E-12
 -1      1155 1.66531E+01-5.12334E-01-1.37458E+00-1.37714E-01-2.87964E-14 8.47739E-13
 -1      1156 1.82653E+01-4.95942E-01-1.14683E+00 5.25885E-01-7.88189E-14 3.58324E-13
 -1      1157 2.50104E+01 2.76593E-02-2.17452E-01 7.40827E-01-5.46438E-15 2.17160E-13
 -1      1158 3.18877E+01 3.11469E-01 4.89425E-01 4.46811E-01 3.96731E-15 7.17204E-14
 -1      1159 3.45245E+01 2.49955E-01 5.10885E-01 7.75075E-02-7.93324E-14-1.12327E-13
 -1      1160 3.34900E+01 1.08187E-01 2.45816E-01-1.03150E-01-7.59115E-15-4.11247E-13
 -1      1161 3.08006E+01-3.38828E-04 2.76475E-02-1.32716E-01-5.72513E-14-1.38639E-13
 -1      1162 2.79780E+01-3.98583E-02-6.69461E-02-1.03179E-01-3.83808E-16-6.13676E-14
 -1      1163 2.56937E+01-4.92734E-02-8.31936E-02-6.83686E-02 1.93248E-14 1.65673E-13
 -1      1164 2.39688E+01-4.45943E-02-7.13031E-02-4.15121E-02-5.28739E-14 5.20431E-13
 -1      1165 2.27262E+01-3.56696E-02-5.34874E-02-2.40575E-02 1.46406E-14 1.42143E-13
 -1      1166 2.18507E+01-2.68692E-02-3.78874E-02-1.35464E-02-5.37404E-14-2.69409E-13
 -1      1167 2.12395E+01-1.98559E-02-2.62938E-02-7.51931E-03-4.88830E-14-5.42696E-13
 -1      1168 2.08057E+01-1.32515E-02-1.74906E-02-4.65698E-03-3.13378E-14-4.75488E-13
 -1      1169 2.05045E+01-1.00059E-02-1.21986E-02-2.04198E-03-4.15292E-14-9.41015E-13
 -1      1170 2.03010E+01-7.27953E-03-8.63363E-03-1.03353E-03 6.35952E-14-4.39874E-13
 -1      1171 2.01602E+01-5.45873E-03-6.44104E-03-4.33676E-04 6.61273E-14-3.56960E-13
 -1      1172 2.00659E+01-4.31593E-03-5.28156E-03 6.79442E-05 6.73522E-14-4.92859E-13
 -1      1173 2.00095E+01-3.61481E-03-4.62641E-03 8.20783E-04 5.36503E-14-1.03122E-13
 -1      1174 1.99875E+01-2.61750E-03-2.79309E-03 2.21130E-03-1.23324E-13-5.01387E-13
 -1      1175 1.99945E+01-1.79838E-03 3.20155E-03 2.75659E-03 1.66161E-13-8.39613E-13
 -1      1176 2.77748E+01 5.25413E-01 3.76638E-01 1.96589E+00-3.02328E-14 2.09360E-12
 -1      1177 2.00689E+01-6.66276E-02-5.73494E-01 1.29556E-01 1.31700E-14 1.69814E-12
 -1      1178 1.88903E+01-4.19841E-02-1.93180E-01 1.93959E-02 1.88374E-14 1.31118E-12
 -1      1179 1.85113E+01-2.27189E-02-5.04854E-02 1.28799E-03 5.63351E-16 1.12548E-12
 -1      1180 1.84410E+01-1.38333E-02-1.38335E-02-4.22232E-03-1.95764E-15 1.05574E-12
 -1      1181 1.85180E+01-8.09433E-03-5.10632E-03-5.41317E-03-1.20997E-14 8.98063E-13
 -1      1182 1.86652E+01-4.72643E-03-2.31612E-03-5.46468E-03-9.67672E-15 7.90274E-13
 -1      1183 1.88424E+01-2.68501E-03-7.90600E-04-5.06293E-03-5.82694E-15 7.26232E-13
 -1      1184 1.90273E+01-1.47914E-03 1.40628E-04-4.46432E-03-1.26426E-15 5.31856E-13
 -1      1185 1.92087E+01-8.28117E-04 5.80084E-04-3.78201E-03 2.19051E-15 4.17119E-13
 -1      1186 1.93815E+01-5.52072E-04 6.14157E-04-3.09382E-03 1.80993E-14 2.94409E-13
 -1      1187 1.95449E+01-5.19933E-04 3.52440E-04-2.46397E-03-8.61346E-15 2.54710E-13
 -1      1188 1.97008E+01-6.20773E-04-8.66895E-05-1.95247E-03 1.65433E-14 1.24503E-13
 -1      1189 1.98526E+01-7.44642E-04-5.73209E-04-1.62117E-03-8.67496E-15 4.35906E-14
 -1      1190 2.00039E+01-7.68072E-04-9.50448E-04-1.53662E-03 1.10109E-14 7.27526E-14
 -1      1191 2.01575E+01-5.44063E-04-1.01733E-03-1.76776E-03 1.46147E-14-3.97859E-15
 -1      1192 2.03137E+01 1.00137E-04-5.15715E-04-2.37488E-03-3.98745E-14-1.54772E-14
 -1      1193 2.04688E+01 1.35040E-03 8.65964E-04-3.38479E-03 2.92923E-14-1.28785E-13
 -1      1194 2.06127E+01 3.36754E-03 3.45457E-03-4.74748E-03 1.18027E-14-3.92148E-13
 -1      1195 2.07271E+01 6.21179E-03 7.49494E-03-6.27309E-03-3.23867E-14-2.45650E-13
 -1      1196 2.07841E+01 9.72542E-03 1.29709E-02-7.56002E-03-4.89843E-16-1.34611E-13
 -1      1197 2.07463E+01 1.33909E-02 1.93473E-02-7.94769E-03 1.51029E-16-2.37581E-13
 -1      1198 2.05713E+01 1.62280E-02 2.53038E-02-6.55946E-03 9.26559E-16-3.21215E-13
 -1      1199 2.02208E+01 1.68528E-02 2.86447E-02-2.52489E-03-2.12580E-14-4.30059E-13
 -1      1200 1.96761E+01 1.38460E-02 2.66677E-02 4.56455E-03 7.41096E-15-4.22065E-13
 -1      1201 1.89564E+01 6.47159E-03 1.72126E-02 1.40626E-02-7.30590E-15-2.50060E-13
 -1      1202 1.81343E+01-4.49770E-03 2.14856E-04 2.38761E-02 3.38698E-14-3.13478E-13
 -1      1203 1.73359E+01-1.64275E-02-2.10768E-02 3.07625E-02-2.01900E-14-4.46074E-13
 -1      1204 1.67167E+01-2.55495E-02-4.04382E-02 3.15616E-02-4.19083E-14-2.87957E-13
 -1      1205 1.64162E+01-2.86728E-02-5.10985E-02 2.49066E-02 9.88359E-15-5.83754E-13
 -1      1206 1.65071E+01-2.49054E-02-4.91961E-02 1.22860E-02 3.55185E-15-7.42160E-13
 -1      1207 1.69668E+01-1.60977E-02-3.59242E-02-2.46541E-03 1.57882E-14-1.00428E-12
 -1      1208 1.76862E+01-5.64692E-03-1.67011E-02-1.50285E-02-1.38604E-15-1.01055E-12
 -1      1209 1.85122E+01 3.29265E-03 1.89944E-03-2.25340E-02-3.87620E-14-6.75855E-13
 -1      1210 1.92988E+01 8.97850E-03 1.51607E-02-2.43785E-02-2.99644E-14-2.88727E-13
 -1      1211 1.99437E+01 1.12191E-02 2.14891E-02-2.17911E-02 4.81700E-14-4.24178E-13
 -1      1212 2.04003E+01 1.08228E-02 2.18716E-02-1.67766E-02-3.31343E-15-1.03057E-12
 -1      1213 2.06695E+01 8.91017E-03 1.85082E-02-1.11791E-02 8.72729E-15-5.97553E-13
 -1      1214 2.07816E+01 6.45156E-03 1.35949E-02-6.21473E-03 5.64197E-15-4.77878E-13
 -1      1215 2.07790E+01 4.08951E-03 8.69580E-03-2.43432E-03 1.20427E-14-3.95361E-13
 -1      1216 2.07036E+01 2.14798E-03 4.64042E-03 9.43780E-05 1.82953E-14-5.16996E-13
 -1      1217 2.05898E+01 7.19027E-04 1.68996E-03 1.56609E-03-5.01342E-14-3.55797E-13
 -1      1218 2.04629E+01-2.42347E-04-2.35757E-04 2.26800E-03-1.02783E-13-9.80240E-14
 -1      1219 2.03392E+01-8.45949E-04-1.37645E-03 2.47880E-03 7.27816E-14-2.95767E-13
 -1      1220 2.02285E+01-1.22201E-03-2.02343E-03 2.42199E-03-2.09721E-14-3.42128E-13
 -1      1221 2.01359E+01-1.49103E-03-2.46526E-03 2.24285E-03 4.00417E-14-4.27903E-13
 -1      1222 2.00642E+01-1.72957E-03-2.92317E-03 1.98922E-03-9.76952E-14-1.50403E-13
 -1      1223 2.00158E+01-1.85267E-03-3.27364E-03 1.49402E-03 7.89211E-14-2.65252E-13
 -1      1224 1.99939E+01-1.16974E-03-2.14840E-03 2.44241E-04 8.48391E-14-7.00189E-13
 -1      1225 1.99966E+01 1.15355E-03 3.00794E-03-1.17228E-03-4.57086E-15-5.98189E-13
 -1      1226 2.00009E+01-3.44946E-03 2.82076E-03-1.17930E-03-6.37807E-13-5.35431E-14
 -1      1227 1.99981E+01-5.34337E-03-2.34528E-03-1.28363E-03-7.17405E-13 3.81803E-14
 -1      1228 1.99977E+01 1.69847E-02-3.19926E-03 4.83643E-04-2.95969E-14-2.93111E-15
 -1      1229 1.99986E+01 6.18828E-02-2.00585E-03 1.42332E-03 4.52090E-13 1.40044E-14
 -1      1230 1.99995E+01 1.19665E-01-5.18647E-04 1.79721E-03 3.06209E-13 5.58112E-14
 -1      1231 2.00005E+01 1.80100E-01 9.07842E-04 1.78859E-03 3.70166E-13-8.72198E-14
 -1      1232 2.00015E+01 2.34341E-01 2.16853E-03 1.49063E-03 1.92463E-14 1.94057E-14
 -1      1233 2.00022E+01 2.74362E-01 3.18084E-03 9.08833E-04-8.94149E-13-1.51372E-13
 -1      1234 2.00027E+01 2.92820E-01 3.78290E-03 1.29236E-04-1.02523E-12 1.88416E-13
 -1      1235 2.00027E+01 2.85645E-01 3.82410E-03-7.50234E-04-8.80957E-14 7.22452E-14
 -1      1236 2.00022E+01 2.52537E-01 3.17825E-03-1.58276E-03-1.25647E-12-1.09133E-13
 -1      1237 2.00013E+01 1.98292E-01 1.84180E-03-2.18782E-03-2.07777E-12 1.93786E-13
 -1      1238 2.00000E+01 1.31446E-01-1.17260E-04-2.33401E-03-1.13679E-12 3.79060E-14
 -1      1239 1.99985E+01 6.41911E-02-2.35979E-03-1.81841E-03-3.72793E-13 2.44695E-14
 -1      1240 1.99976E+01 1.22846E-02-3.88718E-03-3.66070E-04 2.94873E-13 1.30196E-13
 -1      1241 1.99977E+01-1.12162E-02-2.78520E-03 2.44928E-03 1.11376E-12 3.13570E-14
 -1      1242 1.99982E+01-5.01465E-03 3.34342E-03 2.22436E-03 1.00133E-12-1.24206E-13
 -1      1243-1.02288E+00-2.49491E+01-3.73844E+00-2.12645E+00-8.18012E-13 2.79221E-14
 -1      1244-1.57654E+00-1.41110E+01-2.86590E+00-3.57610E+00-3.99458E-13-1.12688E-13
 -1      1245 1.14362E+00-4.64618E-01-1.56936E+00 1.05088E+00 3.82361E-13 2.91767E-13
 -1      1246 1.07477E+01 9.43908E+00 3.00064E-02 9.81514E+00 1.27032E-12 1.33427E-12
 -1      1247 2.85482E+01 1.19780E+01 1.66061E+00 1.76285E+01 1.29974E-12 1.94911E-12
 -1      1248 4.96432E+01 8.22040E+00 3.11083E+00 1.82410E+01 7.20368E-13 1.96887E-12
 -1      1249 6.49810E+01 3.18990E+00 3.95639E+00 1.00335E+01 3.34163E-13 1.07403E-12
 -1      1250 6.86844E+01 1.85176E+00 4.17226E+00-3.28467E+00 6.69742E-14 2.51854E-13
 -1      1251 5.85366E+01 5.52161E+00 3.62590E+00-1.49286E+01 1.10773E-13-2.40141E-13
 -1      1252 3.95674E+01 1.06549E+01 2.48927E+00-1.91176E+01 6.79790E-13-1.08269E-12
 -1      1253 1.98330E+01 1.18668E+01 9.29535E-01-1.48357E+01 1.35358E-12-1.53189E-12
 -1      1254 5.49059E+00 5.66752E+00-7.13656E-01-5.66966E+00 1.89870E-12-1.43552E-12
 -1      1255-8.09962E-01-6.86282E+00-2.23664E+00 1.95009E+00 2.09122E-12-1.02562E-12
 -1      1256-1.49446E+00-1.98891E+01-3.33852E+00 3.54341E+00 1.44140E-12-3.58269E-13
 -1      1257-9.75215E-01-2.70070E+01-3.91492E+00-6.19697E-02 8.84459E-13-9.25163E-14
 -1      1258-1.79440E+00-2.46328E+01-3.91201E+00-4.62310E+00-1.59539E-13-1.57638E-13
 -1      1259-2.56384E+00-1.40299E+01-3.28999E+00-5.09228E+00-1.04405E-12-5.36959E-13
 -1      1260 1.18463E+00-8.91255E-01-2.12701E+00 7.90721E-01-1.97686E-12-1.58185E-12
 -1      1261 1.38767E+01 8.28381E+00-3.35716E-01 1.05764E+01-2.09854E-12-2.45892E-12
 -1      1262 3.69072E+01 1.02086E+01 2.09925E+00 1.83061E+01-1.60671E-12-2.86460E-12
 -1      1263 6.28653E+01 6.22868E+00 4.49459E+00 1.64843E+01-8.34888E-13-2.63256E-12
 -1      1264 7.83926E+01 2.18822E+00 5.87139E+00 4.61250E+00-2.01623E-13-1.87306E-12
 -1      1265 7.40827E+01 3.26049E+00 5.44384E+00-1.04138E+01 4.08285E-14-8.32223E-13
 -1      1266 5.33694E+01 8.03200E+00 3.59355E+00-1.87852E+01-3.36287E-13 5.52003E-13
 -1      1267 2.80860E+01 1.03850E+01 1.16966E+00-1.64637E+01-8.84182E-13 1.31606E-12
 -1      1268 8.34309E+00 5.60189E+00-1.03784E+00-6.95859E+00-1.38400E-12 1.33138E-12
 -1      1269-1.15915E+00-6.06548E+00-2.64886E+00 2.38791E+00-1.79701E-12 9.98535E-13
 -1      1270-2.49877E+00-1.90973E+01-3.64204E+00 5.65520E+00-2.01494E-12 7.70550E-13
 -1      1271-1.33263E+00-2.65910E+01-3.95590E+00 2.78560E+00-1.42947E-12 2.09339E-13
 -1      1272 2.22526E+01 1.83748E+00-7.25576E-01-2.79025E+00-5.12090E-14 8.87956E-13
 -1      1273 2.03517E+01 4.68867E+00-4.86935E-02-3.30691E+00-1.33726E-13-1.23929E-14
 -1      1274 2.08567E+01 4.80850E+00-1.13435E-01-4.16070E+00-1.74083E-13 1.93817E-13
 -1      1275 1.95283E+01 4.99323E+00-1.96579E-02-2.65477E+00-1.33803E-13-3.01668E-13
 -1      1276 1.98242E+01 5.08895E+00 1.23001E-05-3.04552E+00-1.50310E-13-1.77774E-13
 -1      1277 2.05193E+01 3.95177E+00-2.59998E-02-3.07421E+00-2.32956E-13-9.60343E-15
 -1      1278 1.91862E+01 5.08434E+00-3.34072E-03-2.07093E+00-1.00003E-13-4.47042E-13
 -1      1279 1.93325E+01 5.13895E+00 1.05414E-02-2.36433E+00-1.18645E-13-3.80168E-13
 -1      1280 1.97531E+01 4.36673E+00-2.38522E-02-2.49025E+00-2.03259E-13-2.49731E-13
 -1      1281 1.90134E+01 5.13204E+00 3.51746E-03-1.56445E+00-7.03812E-14-5.14904E-13
 -1      1282 1.90901E+01 5.16132E+00 1.28575E-02-1.81453E+00-8.26110E-14-4.84359E-13
 -1      1283 1.93950E+01 4.55555E+00-1.94580E-02-1.93103E+00-1.50295E-13-3.73826E-13
 -1      1284 1.89218E+01 5.16243E+00 6.59765E-03-1.11676E+00-4.43760E-14-5.42181E-13
 -1      1285 1.89632E+01 5.17851E+00 1.28244E-02-1.33826E+00-5.36862E-14-5.29986E-13
 -1      1286 1.92105E+01 4.66280E+00-1.59942E-02-1.44421E+00-1.00688E-13-4.23803E-13
 -1      1287 1.88718E+01 5.18275E+00 8.21044E-03-6.93471E-01-2.69784E-14-5.38883E-13
 -1      1288 1.88941E+01 5.19144E+00 1.20466E-02-9.03681E-01-2.98503E-14-5.45213E-13
 -1      1289 1.91095E+01 4.72894E+00-1.39475E-02-1.00368E+00-6.44690E-14-4.56600E-13
 -1      1290 1.88485E+01 5.19500E+00 9.30329E-03-2.88886E-01 6.84701E-15-5.27686E-13
 -1      1291 1.88581E+01 5.19875E+00 1.11000E-02-4.90934E-01-4.29474E-15-5.30577E-13
 -1      1292 1.90550E+01 4.76850E+00-1.28706E-02-5.88268E-01-2.52040E-14-4.39201E-13
 -1      1293 1.88448E+01 5.20003E+00 1.02393E-02 1.08327E-01 3.23315E-14-5.11723E-13
 -1      1294 1.88445E+01 5.19991E+00 1.01723E-02-9.12431E-02 2.19538E-14-5.20093E-13
 -1      1295 1.90313E+01 4.78685E+00-1.24202E-02-1.88800E-01 2.36940E-14-4.32189E-13
 -1      1296 1.88596E+01 5.19838E+00 1.11874E-02 5.08566E-01 5.49131E-14-4.92974E-13
 -1      1297 1.88493E+01 5.19437E+00 9.24197E-03 3.06122E-01 4.90832E-14-5.04933E-13
 -1      1298 1.90320E+01 4.78623E+00-1.24362E-02 2.05782E-01 6.31163E-14-4.14713E-13
 -1      1299 1.88971E+01 5.19027E+00 1.21343E-02 9.22716E-01 7.56808E-14-4.57292E-13
 -1      1300 1.88739E+01 5.18143E+00 8.15088E-03 7.11589E-01 6.89203E-14-4.80860E-13
 -1      1301 1.90573E+01 4.76649E+00-1.29230E-02 6.05890E-01 1.01088E-13-3.97408E-13
 -1      1302 1.89671E+01 5.17665E+00 1.29365E-02 1.35594E+00 1.00291E-13-3.97935E-13
 -1      1303 1.89249E+01 5.16020E+00 6.47664E-03 1.13304E+00 8.83642E-14-4.33018E-13
 -1      1304 1.91135E+01 4.72548E+00-1.39495E-02 1.01904E+00 1.34979E-13-3.56035E-13
 -1      1305 1.90973E+01 5.15749E+00 1.29364E-02 1.84059E+00 1.38811E-13-3.11345E-13
 -1      1306 1.90191E+01 5.12749E+00 3.18521E-03 1.58780E+00 1.21654E-13-3.59874E-13
 -1      1307 1.92169E+01 4.65639E+00-1.61064E-02 1.46212E+00 1.81469E-13-2.93397E-13
 -1      1308 1.93435E+01 5.13299E+00 1.04654E-02 2.39764E+00 1.69854E-13-1.72848E-13
 -1      1309 1.91947E+01 5.07664E+00-4.13587E-03 2.10031E+00 1.51872E-13-2.54866E-13
 -1      1310 1.94068E+01 4.54313E+00-1.98777E-02 1.95752E+00 2.32534E-13-2.06342E-13
 -1      1311 1.98495E+01 5.09818E+00 6.01309E-03 3.08418E+00 1.81077E-13 7.77711E-14
 -1      1312 1.95407E+01 4.98393E+00-2.01968E-02 2.69708E+00 1.63522E-13-7.65464E-14
 -1      1313 1.97720E+01 4.34548E+00-2.47516E-02 2.52786E+00 2.73599E-13-4.02317E-14
 -1      1314 2.10927E+01 4.90459E+00 7.91238E-03 4.05318E+00 1.53794E-13 5.50601E-13
 -1      1315 2.03261E+01 4.73256E+00-4.80518E-02 3.41593E+00 1.53794E-13 2.64400E-13
 -1      1316 2.05563E+01 3.91502E+00-2.28643E-02 3.17835E+00 2.71956E-13 2.42723E-13
 -1      1317 2.71862E+01 3.20371E+00 9.28269E-01 4.58079E+00 6.96665E-14 1.41837E-12
 -1      1318 2.20076E+01 3.52084E+00-1.82053E-01 3.88429E+00 7.40241E-14 8.17429E-13
 -1      1319 2.21016E+01 2.56087E+00-3.25758E-02 3.45627E+00 2.50659E-13 6.63997E-13
 -1      1320 2.14120E+01 3.59604E-01-7.63433E-01 1.18385E+00 1.30625E-13 1.37690E-12
 -1      1321 2.19860E+01 1.31349E-01-4.00765E-01-1.28585E+00-1.43219E-13 9.38305E-13
 -1      1322 2.06631E+01 3.06704E-01-1.64759E-01-8.05974E-01-1.30111E-13 7.63618E-13
 -1      1323 2.00655E+01 1.53521E-01-7.34870E-02-4.02282E-01-9.26897E-14 6.89503E-13
 -1      1324 1.95955E+01 9.12562E-02-1.48675E-02-3.30091E-01-8.39606E-14 5.54883E-13
 -1      1325 2.09596E+01 3.69292E-01-1.04155E-01-1.27420E+00-2.22961E-13 4.18832E-13
 -1      1326 1.92383E+01 6.45485E-02 3.09361E-03-1.35365E-01-7.58551E-14 5.03177E-13
 -1      1327 1.90839E+01 4.13491E-02 1.32854E-02-1.17542E-01-7.75404E-14 3.90618E-13
 -1      1328 1.99093E+01 1.33982E-01-3.51037E-02-5.04041E-01-1.60514E-13 3.14793E-13
 -1      1329 1.89241E+01 3.16251E-02 1.32954E-02-2.78100E-02-6.05570E-14 3.27315E-13
 -1      1330 1.89048E+01 1.95478E-02 1.11089E-02-1.83785E-02-5.67584E-14 2.42646E-13
 -1      1331 1.94327E+01 5.55365E-02-8.54013E-03-1.69702E-01-1.41808E-13 2.03121E-13
 -1      1332 1.88498E+01 1.62095E-02 8.82825E-03 2.56899E-02-1.89193E-14 2.10592E-13
 -1      1333 1.88928E+01 9.31536E-03 6.46349E-03 3.04434E-02-3.26937E-14 1.72039E-13
 -1      1334 1.92254E+01 2.46334E-02-3.57814E-03-1.00965E-02-9.36569E-14 1.08202E-13
 -1      1335 1.88948E+01 8.37740E-03 4.79786E-03 5.22597E-02-4.97261E-14 1.52307E-13
 -1      1336 1.89670E+01 3.78031E-03 3.69742E-03 5.44143E-02-4.24697E-14 9.66701E-14
 -1      1337 1.91715E+01 1.04697E-02-2.36570E-03 6.99549E-02-6.73775E-14 6.29366E-14
 -1      1338 1.90021E+01 3.78198E-03 2.60156E-03 6.44742E-02-4.13728E-14 7.15625E-14
 -1      1339 1.90900E+01 6.66897E-04 2.25135E-03 6.51145E-02-5.16576E-14-3.02666E-14
 -1      1340 1.92042E+01 3.73785E-03-1.44915E-03 1.09407E-01-8.85056E-14 1.24115E-14
 -1      1341 1.91389E+01 1.20676E-03 1.42929E-03 6.82034E-02-2.15688E-14-5.32864E-14
 -1      1342 1.92253E+01-5.42405E-04 1.56873E-03 6.79012E-02-8.39807E-15-9.11224E-14
 -1      1343 1.92844E+01-4.58166E-04-7.68712E-04 1.26013E-01-7.00137E-14-2.43425E-14
 -1      1344 1.92820E+01-4.80861E-05 8.72507E-04 6.78139E-02-1.11479E-15-1.35325E-13
 -1      1345 1.93666E+01-1.02607E-03 1.17349E-03 6.72210E-02-3.18582E-14-1.44234E-13
 -1      1346 1.93861E+01-1.95104E-03-3.08683E-04 1.30167E-01-3.79992E-14-7.31246E-14
 -1      1347 1.94266E+01-3.59635E-04 5.83864E-04 6.60971E-02-4.21733E-14-1.53840E-13
 -1      1348 1.95082E+01-8.12411E-04 9.46369E-04 6.55489E-02-2.11219E-14-1.81793E-13
 -1      1349 1.94990E+01-2.22496E-03-1.01746E-04 1.29103E-01-5.99530E-14-8.68076E-14
 -1      1350 1.95703E+01-1.20480E-06 4.32288E-04 6.49770E-02 4.06190E-15-1.80119E-13
 -1      1351 1.96501E+01-2.69323E-05 8.39520E-04 6.47660E-02 1.13983E-14-1.61191E-13
 -1      1352 1.96176E+01-1.48765E-03-1.02879E-04 1.27346E-01-1.58440E-14-1.48711E-13
 -1      1353 1.97150E+01 9.46137E-04 3.66973E-04 6.60904E-02-1.17010E-15-1.79390E-13
 -1      1354 1.97961E+01 1.29033E-03 8.25872E-04 6.64879E-02-1.49530E-14-1.92001E-13
 -1      1355 1.97413E+01 1.26205E-04-2.82803E-04 1.28438E-01-3.84697E-15-2.32804E-13
 -1      1356 1.98664E+01 2.55689E-03 3.79370E-04 7.10230E-02-4.34431E-14-2.64193E-13
 -1      1357 1.99540E+01 3.17631E-03 9.33751E-04 7.23101E-02-9.82296E-14-3.71753E-13
 -1      1358 1.98731E+01 2.60962E-03-6.36654E-04 1.35571E-01-9.38472E-14-2.44744E-13
 -1      1359 2.00382E+01 4.87869E-03 4.05544E-04 8.20215E-02-8.75340E-14-4.06451E-13
 -1      1360 2.01449E+01 6.01568E-03 1.06157E-03 8.48842E-02-6.71585E-14-4.95959E-13
 -1      1361 2.00235E+01 6.31527E-03-1.20469E-03 1.52697E-01-1.60719E-13-3.25724E-13
 -1      1362 2.02419E+01 8.19203E-03 4.11617E-04 1.01173E-01-5.55177E-14-5.26457E-13
 -1      1363 2.03686E+01 9.80019E-03 1.30828E-03 1.05566E-01-4.26492E-14-5.93637E-13
 -1      1364 2.02002E+01 1.15092E-02-1.92880E-03 1.84090E-01-1.04634E-13-3.93987E-13
 -1      1365 2.04907E+01 1.27233E-02 3.44666E-04 1.31166E-01 2.59866E-14-5.57483E-13
 -1      1366 2.06567E+01 1.49674E-02 1.54356E-03 1.38078E-01 5.96545E-14-5.20682E-13
 -1      1367 2.04129E+01 1.87669E-02-2.91410E-03 2.34013E-01 2.83606E-14-4.43370E-13
 -1      1368 2.08159E+01 1.91292E-02 9.52359E-05 1.76635E-01 2.63500E-14-5.28863E-13
 -1      1369 2.10417E+01 2.20637E-02 1.66364E-03 1.87062E-01-7.86597E-14-5.41982E-13
 -1      1370 2.06854E+01 2.89124E-02-4.28760E-03 3.10353E-01 3.41008E-14-5.14796E-13
 -1      1371 2.12538E+01 2.80223E-02-5.90132E-04 2.43396E-01-6.28035E-14-4.69702E-13
 -1      1372 2.15678E+01 3.16197E-02 1.39349E-03 2.58746E-01 2.69784E-14-5.32314E-13
 -1      1373 2.10439E+01 4.31461E-02-6.17698E-03 4.23056E-01-6.91149E-14-4.39797E-13
 -1      1374 2.18531E+01 4.00075E-02-2.15049E-03 3.38786E-01 1.33413E-13-4.98681E-13
 -1      1375 2.22932E+01 4.36850E-02 1.23298E-04 3.60900E-01 1.30764E-13-2.84040E-13
 -1      1376 2.15226E+01 6.26098E-02-8.78959E-03 5.84778E-01 9.68409E-14-2.72025E-13
 -1      1377 2.26761E+01 5.60631E-02-4.94732E-03 4.70409E-01 1.05187E-13-2.37714E-13
 -1      1378 2.32908E+01 5.64030E-02-2.68468E-03 5.01060E-01 4.19612E-14-1.71432E-13
 -1      1379 2.21641E+01 8.71825E-02-1.24115E-02 8.09346E-01 2.08299E-13-1.26245E-13
 -1      1380 2.38254E+01 7.23733E-02-1.01670E-02 6.47429E-01-2.74381E-14-1.34733E-13
 -1      1381 2.47091E+01 6.74588E-02-7.35227E-03 6.91168E-01 6.66854E-14-1.28300E-13
 -1      1382 2.30408E+01 1.15652E-01-1.72124E-02 1.11439E+00 4.85653E-14-1.18698E-14
 -1      1383 2.53632E+01 8.03010E-02-1.66167E-02 8.50174E-01 9.07364E-14-4.07036E-14
 -1      1384 2.64583E+01 6.17540E-02-1.06622E-02 8.94539E-01 2.40381E-14 4.72608E-14
 -1      1385 2.41855E+01 1.30606E-01-2.11009E-02 1.48232E+00 6.41206E-14 2.78128E-14
 -1      1386 2.72469E+01 5.85910E-02-1.75790E-02 1.01778E+00-8.11503E-14 7.72646E-14
 -1      1387 2.85160E+01 1.01528E-02-4.49008E-03 1.04783E+00-3.69748E-14 8.18789E-16
 -1      1388 2.55794E+01 1.00227E-01-2.03343E-02 1.82781E+00-6.52473E-15 1.87402E-14
 -1      1389 2.93769E+01-3.26373E-02 2.06630E-03 1.01250E+00 7.01088E-14 4.65739E-14
 -1      1390 3.05326E+01-1.27099E-01 2.55070E-02 9.80767E-01 1.14733E-13 1.12729E-13
 -1      1391 2.71970E+01-4.70697E-02-6.60684E-03 1.96204E+00 1.48935E-14 6.07535E-14
 -1      1392 3.13118E+01-2.39206E-01 5.85626E-02 5.81858E-01 8.73017E-14 2.31599E-13
 -1      1393 3.17309E+01-3.60515E-01 7.66568E-02 4.11008E-01 8.39745E-14 3.50872E-13
 -1      1394 2.88574E+01-3.92275E-01 2.91994E-02 1.50604E+00 1.90539E-13 9.89070E-14
 -1      1395 3.21545E+01-5.08261E-01 1.28419E-01-5.06750E-01 1.00475E-13 4.05072E-13
 -1      1396 3.10335E+01-5.47769E-01 7.96437E-02-8.52729E-01 5.36793E-14 4.99184E-13
 -1      1397 3.01776E+01-8.83418E-01 7.49014E-02 4.53893E-03 1.81195E-13 2.35032E-13
 -1      1398 3.07960E+01-5.49730E-01 8.69436E-02-1.93249E+00 5.37062E-14 5.08593E-13
 -1      1399 2.81083E+01-3.02035E-01-7.00863E-02-2.22131E+00 2.84842E-14 5.61218E-13
 -1      1400 3.05537E+01-1.04887E+00 6.03004E-02-2.39362E+00 6.73420E-14 3.32036E-13
 -1      1401 2.71209E+01 4.77644E-02-1.74526E-01-2.45743E+00 4.88914E-14 5.38236E-13
 -1      1402 2.41573E+01 5.16387E-01-3.61819E-01-2.25478E+00-2.69229E-15 6.21725E-13
 -1      1403 2.95816E+01-1.66293E-01-8.07044E-02-4.19712E+00 2.55074E-14 3.70984E-13
 -1      1404 2.34597E+01 8.43114E-01-4.52350E-01-1.01167E+00-4.56857E-14 5.25135E-13
 -1      1405 2.27457E+01 1.04508E+00-4.83153E-01-3.97856E-01-1.17684E-13 3.87201E-13
 -1      1406 2.79891E+01 1.19711E+00-3.23831E-01-2.90420E+00-1.34448E-13 2.06564E-13
 -1      1407 2.29016E+01 9.13619E-01-4.80526E-01 1.34971E+00-1.35364E-13 4.04690E-13
 -1      1408 2.46601E+01 6.17700E-01-3.53132E-01 1.78552E+00-1.52628E-13 2.25819E-13
 -1      1409 2.74351E+01 1.88134E+00-3.71676E-01 7.33977E-01-1.66978E-13 1.09993E-13
 -1      1410 2.56832E+01 1.29259E-01-2.40692E-01 2.50207E+00-1.43940E-13 8.38218E-14
 -1      1411 2.88584E+01-2.87444E-01-4.45121E-02 2.44392E+00-8.80615E-14-1.94289E-15
 -1      1412 2.85517E+01 5.71717E-01-2.52346E-01 3.77637E+00-1.87322E-13 2.07503E-13
 -1      1413 2.96217E+01-4.66426E-01 3.17192E-02 1.69346E+00-2.48031E-14-1.53377E-13
 -1      1414 3.17174E+01-6.10606E-01 1.21224E-01 1.30853E+00-3.82368E-14-1.50463E-13
 -1      1415 3.01494E+01-6.43769E-01 1.79669E-02 3.64632E+00-1.69711E-13-1.81289E-13
 -1      1416 3.16618E+01-4.79293E-01 1.00914E-01 1.95867E-01-9.47853E-14-1.15019E-13
 -1      1417 3.19691E+01-3.98748E-01 9.59767E-02-8.11193E-02-9.39075E-14-3.31409E-13
 -1      1418 3.05437E+01-1.04099E+00 9.71772E-02 1.24019E+00-6.94583E-14-4.89775E-13
 -1      1419 3.13517E+01-2.43947E-01 5.44871E-02-7.54629E-01-1.55154E-14-1.58713E-13
 -1      1420 3.04876E+01-1.26308E-01 2.84271E-02-8.53287E-01-2.20067E-14-1.43996E-13
 -1      1421 2.96463E+01-6.43871E-01 6.20447E-02-8.51756E-01-1.25493E-13-1.77316E-13
 -1      1422 2.95986E+01-4.87833E-02 6.27848E-03-1.05672E+00-1.09351E-13-1.44613E-13
 -1      1423 2.82752E+01 3.08447E-02-1.07380E-02-1.05038E+00 4.31434E-14-1.55764E-13
 -1      1424 2.80632E+01-1.98011E-01 9.92169E-03-1.82225E+00-2.66107E-15-1.27634E-13
 -1      1425 2.74376E+01 4.25826E-02-1.12577E-02-9.82349E-01 1.34873E-13-9.74568E-14
 -1      1426 2.62449E+01 7.66177E-02-1.72330E-02-9.41116E-01 4.64281E-14-7.94503E-14
 -1      1427 2.63514E+01 5.27731E-02-1.49965E-02-1.92987E+00 9.21521E-14-1.30243E-14
 -1      1428 2.55165E+01 6.74755E-02-1.06953E-02-7.88975E-01 1.45784E-13 8.78672E-14
 -1      1429 2.45539E+01 7.89689E-02-1.26732E-02-7.45568E-01 1.10169E-13 3.17857E-13
 -1      1430 2.48388E+01 1.27962E-01-2.08740E-02-1.65189E+00 2.44589E-13 5.41060E-15
 -1      1431 2.39705E+01 6.34483E-02-5.83788E-03-5.91014E-01-8.30768E-14 3.86750E-13
 -1      1432 2.32496E+01 6.51212E-02-6.96210E-03-5.55432E-01-1.17126E-13 2.14301E-13
 -1      1433 2.35875E+01 1.29039E-01-1.82572E-02-1.28446E+00 8.26249E-14 2.63736E-13
 -1      1434 2.28034E+01 5.08691E-02-1.87137E-03-4.27364E-01-3.66989E-14 1.59766E-13
 -1      1435 2.22838E+01 4.89354E-02-3.04869E-03-4.00942E-01-9.67195E-15 1.45980E-13
 -1      1436 2.26087E+01 1.05074E-01-1.37924E-02-9.50422E-01-1.26858E-13 1.09401E-13
 -1      1437 2.19518E+01 3.79776E-02 3.03878E-04-3.03791E-01-1.56261E-13 2.32765E-14
 -1      1438 2.15842E+01 3.51641E-02-9.29628E-04-2.85005E-01-2.30617E-13-1.70563E-13
 -1      1439 2.18684E+01 7.82148E-02-9.87347E-03-6.85368E-01-2.00818E-13 1.50626E-13
 -1      1440 2.13411E+01 2.75583E-02 1.22239E-03-2.14401E-01-1.35772E-13-2.47340E-13
 -1      1441 2.10824E+01 2.45627E-02-1.37529E-04-2.01315E-01-5.09176E-14-3.63337E-13
 -1      1442 2.13200E+01 5.57057E-02-7.00538E-03-4.88148E-01-2.76723E-13 1.03570E-13
 -1      1443 2.08979E+01 1.89549E-02 1.23730E-03-1.49081E-01-2.07367E-14-2.95311E-13
 -1      1444 2.07106E+01 1.68627E-02 4.22061E-04-1.39504E-01-1.50357E-13-4.59381E-13
 -1      1445 2.09108E+01 3.94571E-02-4.50200E-03-3.43615E-01-3.47855E-14-8.42506E-14
 -1      1446 2.05857E+01 1.36482E-02 1.29801E-03-1.04502E-01-1.53600E-13-3.42927E-13
 -1      1447 2.04615E+01 1.19925E-02 5.67176E-04-9.83411E-02-5.30066E-14-4.84793E-13
 -1      1448 2.06144E+01 2.65466E-02-3.47784E-03-2.40505E-01-1.76327E-13-8.33214E-14
 -1      1449 2.03714E+01 9.70571E-03 1.03450E-03-7.34085E-02 1.24062E-13-2.67156E-13
 -1      1450 2.02848E+01 8.61987E-03 5.20664E-04-6.89982E-02 1.46378E-13-2.66808E-14
 -1      1451 2.04066E+01 1.87546E-02-2.47992E-03-1.69712E-01 1.80588E-13 6.99294E-14
 -1      1452 2.02207E+01 7.18500E-03 7.80952E-04-5.07903E-02 6.81256E-14-1.46286E-13
 -1      1453 2.01614E+01 6.47406E-03 3.89376E-04-4.75133E-02 7.34079E-14-1.10970E-13
 -1      1454 2.02574E+01 1.35608E-02-1.84312E-03-1.18697E-01 8.08459E-14 1.63604E-13
 -1      1455 2.01169E+01 5.68819E-03 4.87655E-04-3.35246E-02-4.30417E-14-2.75523E-13
 -1      1456 2.00786E+01 5.25572E-03 1.85349E-04-3.08535E-02-5.93091E-15-1.14516E-13
 -1      1457 2.01519E+01 1.04317E-02-1.45882E-03-8.06044E-02-2.19087E-14-9.62996E-14
 -1      1458 2.00493E+01 4.98326E-03 1.53255E-04-1.92347E-02 8.96041E-14-2.77037E-13
 -1      1459 2.00286E+01 4.61123E-03 5.68261E-05-1.67383E-02-2.63586E-14-2.50726E-13
 -1      1460 2.00798E+01 8.87205E-03-1.24879E-03-5.03318E-02-1.13507E-14-2.68254E-13
 -1      1461 2.00113E+01 4.30014E-03-3.98993E-05-6.79109E-03-2.91843E-13-2.10251E-13
 -1      1462 2.00058E+01 4.09735E-03 8.75634E-04-4.41532E-03-2.25324E-13-5.17226E-13
 -1      1463 2.00338E+01 7.94003E-03-1.05599E-03-2.47131E-02-2.37498E-13-5.95887E-13
 -1      1464 1.99989E+01 2.48261E-03 6.76132E-04 1.45608E-03-3.07860E-14-5.69114E-13
 -1      1465 2.00015E+01 1.00167E-03 3.19466E-03 8.10017E-04 2.76476E-13-3.08592E-13
 -1      1466 2.00017E+01-2.00123E-03 2.58768E-04 1.34868E-03 6.76960E-13 8.56961E-14
 -1      1467 2.00109E+01 6.81481E-03-2.45613E-04-6.55873E-03-1.68708E-13-1.05659E-13
 -1      1468 2.02443E+01 7.58345E-02-1.51736E-01 4.83740E-01 1.16421E-13 1.11126E-12
 -1      1469 2.15151E+01 2.16023E-01-2.29224E-01 7.21199E-01 1.10800E-13 1.29545E-12
 -1      1470 2.17158E+01 8.82084E-01-8.52301E-02 2.06510E+00 2.08125E-13 8.81670E-13
 -1      1471 1.93144E+01 3.41801E-02-2.07799E-02 1.85406E-01 7.08236E-14 8.91488E-13
 -1      1472 1.97376E+01 1.14138E-01-6.19530E-02 2.39107E-01 7.21749E-14 1.01281E-12
 -1      1473 2.02905E+01 1.86296E-01-5.54833E-02 7.88312E-01 1.74305E-13 7.18531E-13
 -1      1474 1.89342E+01 1.66977E-02 6.06780E-03 5.24979E-02 2.82942E-14 7.86510E-13
 -1      1475 1.90745E+01 5.14303E-02 1.68802E-03 7.99299E-02 3.22979E-14 8.33396E-13
 -1      1476 1.95422E+01 6.68884E-02-1.53532E-02 2.97243E-01 9.30731E-14 5.90656E-13
 -1      1477 1.88254E+01 8.66636E-03 7.16794E-03-9.39110E-03 4.03922E-14 7.15518E-13
 -1      1478 1.88416E+01 2.54883E-02 1.15319E-02 5.69117E-03 3.14215E-14 7.62328E-13
 -1      1479 1.92082E+01 2.12650E-02-6.95864E-03 7.59556E-02 5.55190E-14 4.89459E-13
 -1      1480 1.88543E+01 3.97455E-03 4.79707E-03-4.03581E-02 4.24600E-14 5.91433E-13
 -1      1481 1.88101E+01 1.36928E-02 8.54903E-03-3.19878E-02 3.97308E-14 6.71897E-13
 -1      1482 1.90942E+01 7.23736E-03-4.73063E-03-2.95524E-02 7.74545E-14 4.38385E-13
 -1      1483 1.89535E+01 1.43185E-03 3.24315E-03-5.47312E-02 2.43836E-14 5.22081E-13
 -1      1484 1.88808E+01 7.46243E-03 5.32441E-03-5.01262E-02 1.29383E-14 5.37560E-13
 -1      1485 1.91011E+01 1.34403E-03-3.31218E-03-8.09269E-02 5.53364E-14 3.47213E-13
 -1      1486 1.90860E+01 5.78972E-05 2.39843E-03-6.00865E-02 6.01256E-14 4.19280E-13
 -1      1487 1.90017E+01 3.93173E-03 3.40931E-03-5.77218E-02 3.72532E-14 4.77104E-13
 -1      1488 1.91713E+01-1.38797E-03-2.22801E-03-1.04583E-01 6.79104E-14 2.70007E-13
 -1      1489 1.92316E+01-6.21106E-04 1.87733E-03-6.05666E-02 2.82623E-14 2.91775E-13
 -1      1490 1.91446E+01 1.89092E-03 2.31587E-03-5.95095E-02 4.57609E-14 3.75993E-13
 -1      1491 1.92740E+01-2.60113E-03-1.41415E-03-1.13111E-01 8.76287E-14 2.21919E-13
 -1      1492 1.93792E+01-8.57385E-04 1.48320E-03-5.87211E-02 3.58248E-14 2.57105E-13
 -1      1493 1.92942E+01 7.94371E-04 1.64362E-03-5.83573E-02 2.16944E-14 2.95660E-13
 -1      1494 1.93916E+01-2.92625E-03-8.71346E-04-1.13637E-01 5.24556E-14 1.91530E-13
 -1      1495 1.95240E+01-8.09813E-04 1.14465E-03-5.61908E-02 2.17922E-14 2.09221E-13
 -1      1496 1.94426E+01 3.27176E-04 1.18904E-03-5.61001E-02 4.42864E-14 2.39744E-13
 -1      1497 1.95145E+01-2.69784E-03-5.58549E-04-1.10569E-01 5.41902E-14 1.47055E-13
 -1      1498 1.96648E+01-5.93598E-04 8.40710E-04-5.40192E-02 4.91993E-14 1.44863E-13
 -1      1499 1.95870E+01 2.78882E-04 8.60427E-04-5.39162E-02 8.69439E-15 1.64366E-13
 -1      1500 1.96382E+01-2.13538E-03-4.20340E-04-1.06718E-01 4.18209E-14 1.08037E-13
 -1      1501 1.98027E+01-3.05979E-04 5.68244E-04-5.27943E-02 4.52868E-14 3.54612E-14
 -1      1502 1.97274E+01 4.84554E-04 6.12901E-04-5.25001E-02 5.16699E-14 1.13226E-13
 -1      1503 1.97613E+01-1.41261E-03-4.03811E-04-1.03805E-01 7.37845E-14 6.79903E-14
 -1      1504 1.99399E+01-4.29247E-05 3.33126E-04-5.26940E-02 6.57481E-15 3.83452E-14
 -1      1505 1.98655E+01 7.90580E-04 4.20454E-04-5.21301E-02-4.16787E-15 2.49440E-14
 -1      1506 1.98842E+01-6.95098E-04-4.59604E-04-1.02670E-01 3.31336E-14 5.50383E-14
 -1      1507 2.00783E+01 8.82672E-05 1.50316E-04-5.34644E-02 1.29192E-14 4.35966E-14
 -1      1508 2.00035E+01 1.02967E-03 2.66538E-04-5.26634E-02 1.50591E-14 7.78433E-14
 -1      1509 2.00082E+01-1.67176E-04-5.36359E-04-1.03320E-01-9.32406E-15 1.82139E-14
 -1      1510 2.02189E+01-3.96512E-05 4.68862E-05-5.43485E-02-2.55845E-14 5.99447E-14
 -1      1511 2.01430E+01 1.00122E-03 1.41961E-04-5.34807E-02 1.62279E-14 1.01970E-13
 -1      1512 2.01340E+01-5.26346E-05-5.73679E-04-1.04854E-01 8.71282E-15 1.23347E-13
 -1      1513 2.03597E+01-5.75552E-04 6.53112E-05-5.39865E-02 1.50677E-16-1.69699E-14
 -1      1514 2.02837E+01 4.59327E-04 4.57843E-05-5.33965E-02-3.14826E-14-1.68019E-14
 -1      1515 2.02610E+01-6.25653E-04-4.95745E-04-1.05313E-01 1.30111E-14 9.10533E-14
 -1      1516 2.04941E+01-1.67821E-03 2.63989E-04-5.03283E-02 5.59677E-14-1.37287E-13
 -1      1517 2.04216E+01-8.83055E-04-1.26155E-05-5.05739E-02 6.41893E-14-1.63363E-14
 -1      1518 2.03854E+01-2.20153E-03-2.07835E-04-1.01513E-01 6.66636E-14-1.75842E-14
 -1      1519 2.06099E+01-3.48116E-03 7.09765E-04-4.06339E-02-5.53776E-14-1.62296E-13
 -1      1520 2.05480E+01-3.31915E-03-1.23354E-05-4.25068E-02 2.40448E-14-1.06777E-13
 -1      1521 2.04996E+01-5.08900E-03 3.99983E-04-8.89713E-02 4.24566E-14 6.26962E-14
 -1      1522 2.06869E+01-6.02257E-03 1.45469E-03-2.16877E-02-7.77080E-15-8.46413E-14
 -1      1523 2.06470E+01-7.06206E-03 7.58299E-05-2.61783E-02-5.52212E-14-1.48946E-13
 -1      1524 2.05901E+01-9.48028E-03 1.43489E-03-6.21033E-02-5.44820E-14 1.11973E-13
 -1      1525 2.06976E+01-9.13406E-03 2.48896E-03 9.60384E-03 2.80960E-14-1.48248E-13
 -1      1526 2.06957E+01-1.20891E-02 2.76642E-04 1.45149E-03-1.33791E-15-9.64613E-14
 -1      1527 2.06377E+01-1.52591E-02 2.96000E-03-1.49746E-02 5.82759E-15-5.32669E-15
 -1      1528 2.06088E+01-1.23027E-02 3.66894E-03 5.50651E-02-1.48998E-14-1.43293E-13
 -1      1529 2.06638E+01-1.79197E-02 5.82890E-04 4.24698E-02 4.21017E-15-1.12377E-13
 -1      1530 2.06175E+01-2.17344E-02 4.92320E-03 5.70999E-02 1.13217E-14-4.55677E-14
 -1      1531 2.03873E+01-1.45628E-02 4.64205E-03 1.13524E-01 3.66972E-14-2.06711E-13
 -1      1532 2.05182E+01-2.33852E-02 9.14872E-04 9.64876E-02 2.28463E-15-1.45949E-13
 -1      1533 2.05021E+01-2.73794E-02 7.06242E-03 1.54913E-01 3.41506E-14-1.97261E-14
 -1      1534 2.00099E+01-1.45402E-02 4.82781E-03 1.78844E-01 1.35703E-14-2.18794E-13
 -1      1535 2.02296E+01-2.65442E-02 1.08576E-03 1.58797E-01 2.95619E-14-2.13426E-13
 -1      1536 2.02676E+01-2.97683E-02 8.82574E-03 2.71938E-01 6.27263E-14-2.81047E-14
 -1      1537 1.94776E+01-1.08104E-02 3.54729E-03 2.38676E-01-2.42809E-14-1.66998E-13
 -1      1538 1.97851E+01-2.49917E-02 8.13920E-04 2.18972E-01-6.77050E-14-2.73821E-13
 -1      1539 1.99033E+01-2.60113E-02 9.38871E-03 3.91274E-01-3.77719E-14-2.63383E-14
 -1      1540 1.88292E+01-2.64422E-03 3.63632E-04 2.75483E-01 3.18105E-14-1.48506E-13
 -1      1541 1.92013E+01-1.67623E-02-1.68673E-04 2.61234E-01 1.45392E-14-1.41002E-13
 -1      1542 1.94229E+01-1.39111E-02 7.87438E-03 4.85208E-01-3.92338E-14-1.03155E-13
 -1      1543 1.81475E+01 9.08504E-03-4.44864E-03 2.71159E-01 3.52346E-14-2.23637E-13
 -1      1544 1.85359E+01-1.69904E-03-1.90521E-03 2.67958E-01 3.99630E-14-1.35985E-13
 -1      1545 1.88734E+01 6.35407E-03 3.81499E-03 5.20132E-01 5.50714E-14-9.12976E-14
 -1      1546 1.75499E+01 2.14603E-02-9.62193E-03 2.14858E-01-3.98037E-14-2.00827E-13
 -1      1547 1.78873E+01 1.74294E-02-4.00319E-03 2.26425E-01-1.35968E-14-1.85640E-13
 -1      1548 1.83356E+01 3.09260E-02-2.30700E-03 4.67895E-01-3.07046E-14-8.08641E-15
 -1      1549 1.71605E+01 3.02629E-02-1.31967E-02 1.10650E-01 5.35180E-14-1.72585E-13
 -1      1550 1.73767E+01 3.51502E-02-5.64480E-03 1.36450E-01-2.47701E-14-1.84274E-13
 -1      1551 1.79101E+01 5.26648E-02-8.85505E-03 3.20463E-01-1.74956E-14-2.40485E-14
 -1      1552 1.70691E+01 3.19386E-02-1.34662E-02-2.02739E-02 5.73144E-14-3.65467E-13
 -1      1553 1.71143E+01 4.54040E-02-5.93333E-03 1.42037E-02 1.10266E-13-1.95616E-13
 -1      1554 1.76890E+01 6.37881E-02-1.35916E-02 9.99255E-02 1.10751E-13-1.03315E-13
 -1      1555 1.72981E+01 2.56532E-02-1.00356E-02-1.46109E-01 2.98581E-14-4.45952E-13
 -1      1556 1.71612E+01 4.46145E-02-4.44945E-03-1.11675E-01 3.71378E-14-4.28736E-13
 -1      1557 1.77241E+01 5.97926E-02-1.47937E-02-1.44564E-01 9.05361E-14-2.00330E-13
 -1      1558 1.77928E+01 1.38670E-02-4.16581E-03-2.37154E-01 6.07916E-14-6.64691E-13
 -1      1559 1.75062E+01 3.36369E-02-1.60403E-03-2.10991E-01 7.81740E-14-5.72434E-13
 -1      1560 1.80070E+01 4.19909E-02-1.22619E-02-3.54371E-01 1.41160E-13-1.43351E-13
 -1      1561 1.84433E+01 8.76585E-04 1.96705E-03-2.77262E-01-8.05121E-14-6.46861E-13
 -1      1562 1.80702E+01 1.70769E-02 1.55551E-03-2.63922E-01-8.04569E-14-7.52367E-13
 -1      1563 1.84723E+01 1.68369E-02-7.34706E-03-4.84563E-01 4.08527E-16-4.17966E-13
 -1      1564 1.91237E+01-9.47209E-03 6.46547E-03-2.67570E-01-7.69634E-14-4.98511E-13
 -1      1565 1.87357E+01 6.24560E-04 3.94720E-03-2.66989E-01-8.52571E-14-5.86961E-13
 -1      1566 1.90223E+01-7.45966E-03-2.01078E-03-5.19104E-01-1.55332E-13-3.94201E-13
 -1      1567 1.97292E+01-1.52493E-02 8.49611E-03-2.22051E-01-1.50318E-14-3.77502E-13
 -1      1568 1.93855E+01-1.15389E-02 4.98501E-03-2.30811E-01-4.03351E-14-4.52815E-13
 -1      1569 1.95600E+01-2.47208E-02 2.19427E-03-4.70923E-01-6.75562E-14-3.75947E-13
 -1      1570 2.01967E+01-1.65524E-02 8.29790E-03-1.59338E-01 1.65259E-13-5.14325E-13
 -1      1571 1.99325E+01-1.78539E-02 4.72169E-03-1.72831E-01 1.17852E-13-3.19661E-13
 -1      1572 2.00132E+01-3.26878E-02 4.59746E-03-3.70320E-01 8.86595E-14-3.15778E-13
 -1      1573 2.05061E+01-1.46991E-02 6.70615E-03-9.56982E-02-3.96261E-14-5.08409E-13
 -1      1574 2.03321E+01-1.89748E-02 3.62714E-03-1.09909E-01-1.88760E-14-5.34086E-13
 -1      1575 2.03444E+01-3.25537E-02 5.31682E-03-2.50513E-01 3.28587E-14-1.89453E-13
 -1      1576 2.06695E+01-1.12811E-02 4.61357E-03-4.15871E-02 1.70558E-14-4.38822E-13
 -1      1577 2.05782E+01-1.66497E-02 2.26086E-03-5.39224E-02-2.90198E-14-4.82244E-13
 -1      1578 2.05482E+01-2.72640E-02 4.87606E-03-1.37419E-01-6.46488E-14-2.57980E-13
 -1      1579 2.07167E+01-7.56694E-03 2.65390E-03-1.49658E-03-8.36609E-14-3.67504E-13
 -1      1580 2.06906E+01-1.27108E-02 1.03764E-03-1.08023E-02 4.26308E-16-4.18731E-13
 -1      1581 2.06403E+01-1.98596E-02 3.84993E-03-4.59270E-02-6.06876E-14-4.21088E-13
 -1      1582 2.06827E+01-4.31406E-03 1.13758E-03 2.44353E-02 3.02109E-14-3.44679E-13
 -1      1583 2.07017E+01-8.53083E-03 1.56174E-04 1.82723E-02-2.46654E-14-3.87702E-13
 -1      1584 2.06470E+01-1.25522E-02 2.67718E-03 1.89584E-02-1.76196E-14-4.01104E-13
 -1      1585 2.05996E+01-1.83424E-03 1.29554E-04 3.84647E-02-2.18722E-14-2.75502E-13
 -1      1586 2.06455E+01-4.89969E-03-3.58620E-04 3.49831E-02-1.29223E-14-2.64240E-13
 -1      1587 2.05963E+01-6.52935E-03 1.61838E-03 5.88373E-02-4.19684E-15-1.36268E-13
 -1      1588 2.04931E+01-1.45719E-04-4.41574E-04 4.36800E-02-1.27620E-13-1.44429E-13
 -1      1589 2.05515E+01-2.12814E-03-5.76711E-04 4.22102E-02-1.13139E-13-3.14369E-13
 -1      1590 2.05129E+01-2.16661E-03 7.86107E-04 7.85817E-02-1.17272E-13-5.66148E-14
 -1      1591 2.03813E+01 8.84520E-04-6.97340E-04 4.30335E-02-1.78320E-15-1.48920E-13
 -1      1592 2.04422E+01-2.17953E-04-5.97482E-04 4.29243E-02-3.34795E-14-1.55561E-13
 -1      1593 2.04156E+01 6.54600E-04 1.96313E-04 8.38867E-02-8.54223E-14-2.13137E-13
 -1      1594 2.02759E+01 1.44213E-03-7.61985E-04 3.88750E-02 1.68505E-13-4.13717E-13
 -1      1595 2.03329E+01 9.89311E-04-5.12742E-04 3.96044E-02 1.11853E-13-2.09461E-13
 -1      1596 2.03179E+01 2.28025E-03-1.87447E-04 7.98454E-02 1.67257E-13-2.90969E-13
 -1      1597 2.01836E+01 1.71281E-03-7.46915E-04 3.28083E-02-4.60387E-14-3.16532E-13
 -1      1598 2.02332E+01 1.71496E-03-3.95783E-04 3.40237E-02 1.81801E-14-4.87788E-13
 -1      1599 2.02281E+01 3.11756E-03-4.25623E-04 7.03215E-02 3.31557E-14-5.23794E-13
 -1      1600 2.01083E+01 1.85680E-03-7.50819E-04 2.57121E-02-5.04713E-14-2.22441E-13
 -1      1601 2.01483E+01 2.19073E-03-3.06131E-04 2.72391E-02 1.05081E-14-2.40318E-13
 -1      1602 2.01510E+01 3.55140E-03-5.89298E-04 5.78092E-02-5.22646E-14-1.67047E-13
 -1      1603 2.00521E+01 1.98109E-03-8.24923E-04 1.78998E-02 1.99007E-14-7.23105E-14
 -1      1604 2.00814E+01 2.60352E-03-2.91109E-04 1.97067E-02-1.16557E-13-2.43076E-13
 -1      1605 2.00893E+01 3.87457E-03-7.48465E-04 4.35686E-02-1.06855E-13-5.70296E-14
 -1      1606 2.00165E+01 2.06390E-03-7.67056E-04 9.33042E-03 1.54082E-13-3.88294E-13
 -1      1607 2.00339E+01 3.05155E-03-3.21300E-04 1.15338E-02 1.74833E-13-9.47054E-14
 -1      1608 2.00442E+01 4.29974E-03-8.69564E-04 2.80568E-02 1.60049E-13-1.03866E-13
 -1      1609 2.00019E+01 1.84825E-03 4.21752E-04 1.11737E-03 9.40059E-14-3.47301E-13
 -1      1610 2.00067E+01 3.00473E-03-6.78430E-05 3.33239E-03 1.16518E-13-2.81608E-13
 -1      1611 2.00156E+01 4.43221E-03-6.56725E-04 1.19589E-02 1.61542E-13 9.81658E-15
 -1      1612 1.99989E+01-1.64841E-04 1.02923E-03-1.34363E-03-2.30401E-13-2.21911E-13
 -1      1613 2.00030E+01 1.20685E-02-4.26549E-04 7.03331E-03-2.13674E-13 2.31849E-13
 -1      1614 2.00031E+01 6.09611E-03 3.99421E-04 5.01764E-03-2.88876E-13 1.08074E-13
 -1      1615 2.00026E+01 4.19554E-02-3.35376E-04 1.58103E-02 1.76862E-13 1.73830E-13
 -1      1616 2.00031E+01 2.51354E-02-2.94547E-04 1.39506E-02-1.25906E-13 2.24445E-13
 -1      1617 2.00061E+01 2.76134E-02-6.61969E-04 2.13614E-02-4.22958E-14 3.44682E-13
 -1      1618 2.00012E+01 8.53712E-02-1.60853E-04 2.18842E-02 5.54283E-14-1.64601E-13
 -1      1619 2.00019E+01 6.06332E-02-2.63884E-04 2.09009E-02 2.56244E-13 8.91280E-14
 -1      1620 2.00040E+01 5.93361E-02-7.13154E-04 3.60102E-02 1.48121E-13 2.19120E-13
 -1      1621 1.99998E+01 1.36037E-01-4.90665E-05 2.45030E-02 2.59266E-13 2.84121E-13
 -1      1622 2.00006E+01 1.07618E-01-1.18508E-04 2.42756E-02-1.04248E-14 1.76433E-13
 -1      1623 2.00018E+01 1.00375E-01-3.10306E-04 4.49422E-02-1.58967E-13-5.67381E-14
 -1      1624 1.99985E+01 1.85783E-01-2.35813E-06 2.34423E-02 1.74744E-13-6.10413E-14
 -1      1625 1.99993E+01 1.58582E-01-4.62489E-05 2.39255E-02 2.39826E-13-9.88095E-14
 -1      1626 1.99994E+01 1.45200E-01 9.35653E-05 4.70471E-02-8.71793E-14-2.85841E-14
 -1      1627 1.99973E+01 2.28974E-01 2.19178E-05 1.88411E-02-1.05683E-13-2.31115E-13
 -1      1628 1.99980E+01 2.06340E-01 3.94964E-06 1.99980E-02 1.05057E-13-1.17991E-13
 -1      1629 1.99972E+01 1.88295E-01 4.84531E-04 4.21870E-02 1.09159E-13-2.25628E-13
 -1      1630 1.99964E+01 2.58034E-01 3.69701E-05 1.12203E-02-6.27947E-13-2.78136E-13
 -1      1631 1.99969E+01 2.44103E-01 4.11972E-05 1.29139E-02-2.89764E-13-1.37955E-13
 -1      1632 1.99954E+01 2.24016E-01 8.33208E-04 3.08551E-02-6.11504E-14-4.73661E-13
 -1      1633 1.99960E+01 2.67992E-01 5.02572E-05 1.50028E-03-1.84455E-13 3.83221E-13
 -1      1634 1.99961E+01 2.65344E-01 7.60977E-05 3.52526E-03-5.70050E-13 8.77021E-14
 -1      1635 1.99941E+01 2.46612E-01 1.09265E-03 1.43782E-02-3.92626E-14-3.74512E-14
 -1      1636 1.99961E+01 2.56378E-01 5.25267E-05-8.98052E-03-4.05584E-13-2.53050E-13
 -1      1637 1.99959E+01 2.66025E-01 1.01337E-04-6.91555E-03-3.31086E-13 1.79131E-13
 -1      1638 1.99935E+01 2.52203E-01 1.21433E-03-5.14236E-03-2.16796E-13 1.98036E-13
 -1      1639 1.99969E+01 2.24042E-01 2.59311E-05-1.85288E-02-1.04206E-12-3.40880E-13
 -1      1640 1.99963E+01 2.45006E-01 1.04917E-04-1.67836E-02-5.94286E-13-4.06301E-13
 -1      1641 1.99940E+01 2.39147E-01 1.15059E-03-2.48418E-02-4.36296E-13-5.91247E-13
 -1      1642 1.99983E+01 1.76493E-01-4.20974E-05-2.52142E-02-1.07609E-12 1.68678E-13
 -1      1643 1.99974E+01 2.05057E-01 4.78253E-05-2.41744E-02-1.15034E-12-1.02308E-13
 -1      1644 1.99957E+01 2.08967E-01 8.90213E-04-4.12252E-02-3.88430E-13-4.88260E-13
 -1      1645 2.00003E+01 1.20088E-01-1.92524E-04-2.75822E-02-5.77677E-13 8.40380E-14
 -1      1646 1.99991E+01 1.52131E-01-8.62796E-05-2.75228E-02-9.79803E-13 5.51969E-13
 -1      1647 1.99983E+01 1.65738E-01 4.14321E-04-5.10320E-02-5.54233E-13 4.72639E-13
 -1      1648 2.00024E+01 6.61834E-02-3.73460E-04-2.43990E-02-2.06063E-13 2.81957E-13
 -1      1649 2.00012E+01 9.47106E-02-3.24800E-04-2.55416E-02-5.21675E-13 8.81492E-14
 -1      1650 2.00018E+01 1.15843E-01-1.98850E-04-5.15895E-02-2.71828E-13 2.02850E-13
 -1      1651 2.00042E+01 2.54254E-02-3.71438E-04-1.57419E-02 3.02510E-13 3.77082E-13
 -1      1652 2.00030E+01 4.41297E-02-6.46230E-04-1.80581E-02-1.17757E-13 3.11805E-13
 -1      1653 2.00053E+01 6.80459E-02-7.78215E-04-4.16155E-02-2.38523E-13 3.97430E-13
 -1      1654 2.00037E+01 5.68840E-03 3.33776E-04-5.36372E-03 5.24658E-13 1.03190E-13
 -1      1655 2.00034E+01 1.18680E-02-7.78924E-04-7.94181E-03 3.22651E-13 1.60799E-13
 -1      1656 2.00069E+01 3.32581E-02-9.37291E-04-2.43865E-02-3.45394E-14 2.66578E-13
 -1      1657 2.00070E+01 1.21989E-02-1.01361E-04-8.03093E-03-3.30291E-14 7.49393E-14
 -1      1658-5.67476E-01-1.50648E+01-1.65395E+00-5.61342E-01-5.57665E-13 7.23588E-14
 -1      1659-6.43979E-01-1.80419E+01-1.94085E+00 8.62262E-01-8.55760E-13 1.97981E-13
 -1      1660 2.08820E+00-7.16095E+00-1.03747E+00 1.47545E+00-2.82219E-13 9.47298E-14
 -1      1661 1.04210E+00-1.29655E+01-1.62551E+00 5.79430E-01-5.01821E-13-2.91364E-14
 -1      1662 7.82764E+00 9.41635E-01-4.07956E-01 5.54134E+00 3.89466E-13 6.78457E-13
 -1      1663 4.42903E+00-4.77046E+00-1.20144E+00 2.41204E+00-3.33067E-14 3.11418E-13
 -1      1664 1.89453E+01 5.83300E+00 3.37139E-01 1.07071E+01 8.42326E-13 1.37057E-12
 -1      1665 1.23015E+01 2.60856E+00-5.22677E-01 7.03012E+00 6.11067E-13 9.41691E-13
 -1      1666 3.40798E+01 7.03481E+00 1.07608E+00 1.33895E+01 9.07496E-13 1.32405E-12
 -1      1667 2.42564E+01 6.95181E+00 2.21338E-01 1.14475E+01 1.02918E-12 1.36824E-12
 -1      1668 4.78373E+01 5.36296E+00 1.56094E+00 1.07925E+01 5.31096E-13 1.19549E-12
 -1      1669 3.93263E+01 7.11087E+00 9.71798E-01 1.26728E+01 7.44571E-13 1.36335E-12
 -1      1670 5.58244E+01 3.80309E+00 1.78145E+00 3.70133E+00 3.64819E-13 4.61076E-13
 -1      1671 5.13145E+01 5.13356E+00 1.50924E+00 8.73201E+00 5.47271E-13 9.08051E-13
 -1      1672 5.50514E+01 4.16559E+00 1.64760E+00-4.87699E+00 2.64122E-13 6.82232E-14
 -1      1673 5.66040E+01 3.73176E+00 1.77039E+00 9.06809E-01 2.20574E-13 3.98903E-13
 -1      1674 4.55863E+01 6.20135E+00 1.21114E+00-1.10414E+01 3.48735E-13-3.69482E-13
 -1      1675 5.25732E+01 4.43420E+00 1.66271E+00-7.31822E+00 2.44083E-13-1.25677E-13
 -1      1676 3.21903E+01 7.43527E+00 6.16965E-01-1.27180E+01 8.74190E-13-8.23341E-13
 -1      1677 4.13382E+01 6.30187E+00 1.30654E+00-1.26749E+01 5.64493E-13-4.43645E-13
 -1      1678 1.83909E+01 5.88679E+00-9.60116E-02-9.89679E+00 1.16596E-12-9.88543E-13
 -1      1679 2.68392E+01 7.31184E+00 7.78982E-01-1.29152E+01 8.75522E-13-9.82769E-13
 -1      1680 8.51723E+00-8.12918E-01-8.25980E-01-4.81333E+00 1.43086E-12-8.64309E-13
 -1      1681 1.39925E+01 3.84823E+00 3.37658E-02-8.65475E+00 1.21725E-12-9.23039E-13
 -1      1682 2.30823E+00-8.85174E+00-1.45867E+00-9.96202E-01 1.30573E-12-7.01716E-13
 -1      1683 4.30305E+00-2.76982E+00-7.60055E-01-3.12423E+00 1.50013E-12-9.28979E-13
 -1      1684 1.17250E-01-1.56132E+01-1.73607E+00-5.68486E-01 9.47908E-13-2.31704E-13
 -1      1685 5.40219E-01-1.08563E+01-1.29715E+00-2.88981E-01 1.16074E-12-5.01668E-13
 -1      1686-9.17068E-01-1.80430E+01-1.90298E+00-1.50594E+00 3.46136E-13-2.95042E-13
 -1      1687-7.97734E-01-1.69708E+01-1.75350E+00 2.06648E-01 7.68496E-13-2.73448E-13
 -1      1688-8.25597E-01-1.50847E+01-1.81571E+00-2.11860E+00-3.41394E-13-3.59143E-13
 -1      1689-6.54114E-01-1.80172E+01-1.99815E+00-1.04224E+00 1.49658E-13-3.41865E-13
 -1      1690 2.13341E+00-7.54492E+00-1.36566E+00 3.28736E-01-9.14380E-13-9.16212E-13
 -1      1691 8.56856E-01-1.33308E+01-1.89340E+00-1.03922E+00-5.58331E-13-4.72303E-13
 -1      1692 9.69573E+00-3.48378E-02-7.08622E-01 5.19473E+00-1.46461E-12-1.47726E-12
 -1      1693 5.33032E+00-5.37507E+00-1.52461E+00 1.65406E+00-1.18527E-12-1.11666E-12
 -1      1694 2.36534E+01 4.62345E+00 2.69025E-01 1.06159E+01-1.41043E-12-1.96843E-12
 -1      1695 1.49184E+01 1.63754E+00-8.12143E-01 6.60890E+00-1.44773E-12-1.56186E-12
 -1      1696 4.22407E+01 5.36347E+00 1.44223E+00 1.24816E+01-1.05826E-12-1.92202E-12
 -1      1697 3.02738E+01 5.60607E+00 2.65144E-01 1.11062E+01-1.34159E-12-1.96376E-12
 -1      1698 5.77785E+01 4.08800E+00 2.37604E+00 7.37119E+00-5.81951E-13-1.66211E-12
 -1      1699 4.79683E+01 5.63204E+00 1.47156E+00 1.05653E+01-9.31255E-13-1.83586E-12
 -1      1700 6.43861E+01 3.70114E+00 2.85843E+00-5.80872E-01-3.21410E-13-1.10591E-12
 -1      1701 6.16157E+01 4.24795E+00 2.55768E+00 5.64578E+00-4.12836E-13-1.59406E-12
 -1      1702 5.76085E+01 4.88422E+00 2.29152E+00-8.61073E+00-2.47427E-13-2.83995E-13
 -1      1703 6.36455E+01 3.62508E+00 2.84239E+00-3.13106E+00-2.25708E-13-9.05331E-13
 -1      1704 4.19662E+01 6.02627E+00 1.10505E+00-1.19413E+01-5.32185E-13 4.19220E-13
 -1      1705 5.31177E+01 4.71266E+00 2.19735E+00-1.05644E+01-3.51108E-13-1.45217E-13
 -1      1706 2.47219E+01 4.68689E+00-1.26425E-01-9.88142E+00-9.25815E-13 9.20597E-13
 -1      1707 3.56855E+01 5.61446E+00 1.09457E+00-1.25056E+01-6.77014E-13 6.72129E-13
 -1      1708 1.13095E+01-1.29034E+00-1.12092E+00-4.57015E+00-9.94316E-13 9.10494E-13
 -1      1709 1.89641E+01 2.91878E+00-6.10618E-02-8.86021E+00-8.76188E-13 9.94982E-13
 -1      1710 2.77995E+00-8.85643E+00-1.77612E+00-4.73277E-02-1.42109E-12 5.83922E-13
 -1      1711 5.78723E+00-2.80194E+00-1.03247E+00-2.97959E+00-1.12199E-12 7.75158E-13
 -1      1712-7.98126E-02-1.57982E+01-1.98620E+00 1.40854E+00-1.11611E-12 5.39797E-13
 -1      1713 2.85530E-01-1.09435E+01-1.61860E+00 1.26221E+00-1.40277E-12 6.19532E-13
 -1      1714-7.74651E-01-1.77801E+01-1.84996E+00 3.44878E-01-9.50611E-13 1.68976E-13
 -1      1715-9.59445E-01-1.64363E+01-1.80223E+00 1.88229E+00-1.11339E-12 4.03899E-13
 -1      1716 1.54133E+01-2.12561E+00-2.17586E-01 7.27230E+00 6.96110E-14 8.63587E-13
 -1      1717-1.51652E+00-1.21814E+01-1.33000E+00 9.63946E-01-6.12232E-13 3.62488E-13
 -1      1718 2.00026E+01 1.01024E-03 1.34738E-04 5.81818E-04-2.51557E-13 6.05990E-14
 -1      1719 2.00075E+01 1.05306E-02 1.73334E-04 8.23868E-03 8.75887E-14 6.09125E-14
 -1      1720 9.73560E-01-1.03341E+01-1.11981E+00 3.37427E+00-5.74651E-13 1.07803E-13
 -1      1721 6.78971E+00-6.65536E+00-7.70865E-01 5.40989E+00-2.51799E-13 4.39260E-13
 -1      1722 2.60206E+01 1.81276E+00 3.50014E-01 8.12250E+00 4.46587E-13 1.05815E-12
 -1      1723 3.65704E+01 5.05599E+00 9.22558E-01 7.41591E+00 6.28497E-13 9.21374E-13
 -1      1724 4.46005E+01 6.98320E+00 1.32272E+00 4.82145E+00 5.77566E-13 6.13509E-13
 -1      1725 4.84460E+01 7.76499E+00 1.52333E+00 1.07480E+00 4.76397E-13 3.59102E-13
 -1      1726 4.67507E+01 7.63429E+00 1.41375E+00-2.75978E+00 4.87055E-13-4.66849E-14
 -1      1727 4.09430E+01 6.15652E+00 1.12783E+00-6.09536E+00 5.76109E-13-3.50386E-13
 -1      1728 3.18076E+01 3.92406E+00 7.01963E-01-8.15535E+00 8.09686E-13-4.51528E-13
 -1      1729 2.12422E+01 1.68242E-02 6.72208E-02-7.89458E+00 8.15681E-13-4.83169E-13
 -1      1730 1.13691E+01-4.31181E+00-4.58195E-01-6.53394E+00 8.96283E-13-5.42233E-13
 -1      1731 3.58058E+00-8.51439E+00-9.68414E-01-4.36850E+00 7.49178E-13-6.52645E-13
 -1      1732-6.23905E-01-1.12003E+01-1.20375E+00-2.38951E+00 4.92051E-13-4.28324E-13
 -1      1733-1.50282E+00-1.24978E+01-1.39996E+00-1.96484E-01 1.69420E-13-6.02352E-13
 -1      1734 1.44061E+00-1.09639E+01-1.29550E+00 2.00346E+00-2.07501E-13-6.60666E-13
 -1      1735 8.22467E+00-7.59629E+00-9.78153E-01 4.20769E+00-5.84865E-13-1.04636E-12
 -1      1736 1.84404E+01-3.48085E+00-4.43665E-01 6.01173E+00-8.74190E-13-1.26232E-12
 -1      1737 3.13323E+01 5.17758E-01 3.83324E-01 6.56694E+00-8.76965E-13-1.29818E-12
 -1      1738 4.36268E+01 4.17379E+00 1.30673E+00 4.61360E+00-7.49803E-13-1.06937E-12
 -1      1739 5.15529E+01 7.01024E+00 1.95389E+00 1.82179E+00-5.52891E-13-1.00842E-12
 -1      1740 5.45547E+01 7.63487E+00 2.27984E+00-6.38451E-01-5.70488E-13-6.41764E-13
 -1      1741 4.98540E+01 6.04517E+00 1.84084E+00-3.55728E+00-5.70433E-13-3.41505E-13
 -1      1742 3.97436E+01 2.93090E+00 1.00268E+00-5.77619E+00-6.61943E-13 1.11022E-13
 -1      1743 2.70888E+01-1.31413E+00 5.16089E-02-6.26011E+00-6.32494E-13 5.38569E-13
 -1      1744 1.48267E+01-5.33470E+00-5.96934E-01-5.49734E+00-6.15286E-13 5.44231E-13
 -1      1745 4.82464E+00-9.21223E+00-1.17714E+00-3.17438E+00-8.48543E-13 3.02945E-13
 -1      1746-2.57494E-01-1.15719E+01-1.33207E+00-1.05737E+00-6.33549E-13 4.49751E-13
 -1      1747 2.28462E+01 1.98416E+00-2.36146E-02-2.72204E+00-1.74003E-13 7.26169E-13
 -1      1748 1.98216E+01 3.71857E+00-3.48994E-02-2.15443E+00-2.08777E-13-2.16903E-13
 -1      1749 2.00486E+01 3.56026E+00-4.29310E-02-2.44103E+00-2.48497E-13-1.42455E-13
 -1      1750 2.03600E+01 3.18184E+00-4.51860E-02-2.58466E+00-2.43466E-13-4.42008E-14
 -1      1751 2.05764E+01 2.80852E+00-1.42593E-01-2.85286E+00-2.61891E-13 8.79297E-14
 -1      1752 2.04263E+01 2.69117E+00-2.97707E-03-2.22074E+00-2.50997E-13-7.64805E-14
 -1      1753 1.93601E+01 4.19087E+00-2.01978E-02-1.26942E+00-1.16163E-13-3.50889E-13
 -1      1754 1.94323E+01 4.15073E+00-1.71662E-02-1.49385E+00-1.35724E-13-3.36748E-13
 -1      1755 1.92651E+01 4.29744E+00-1.68254E-02-8.58618E-01-7.05265E-14-3.63262E-13
 -1      1756 1.93071E+01 4.27316E+00-1.43498E-02-1.06934E+00-8.99732E-14-3.56892E-13
 -1      1757 1.95324E+01 3.78571E+00-9.28162E-03-1.11806E+00-1.23144E-13-3.42122E-13
 -1      1758 1.92144E+01 4.35855E+00-1.48219E-02-4.66027E-01-8.54471E-15-3.45501E-13
 -1      1759 1.92360E+01 4.34549E+00-1.33180E-02-6.66163E-01-4.02627E-14-3.52956E-13
 -1      1760 1.94367E+01 3.90705E+00-9.17660E-03-7.31880E-01-5.68986E-14-3.39119E-13
 -1      1761 1.91953E+01 4.38449E+00-1.36774E-02-8.33169E-02 4.22858E-14-3.30768E-13
 -1      1762 1.92016E+01 4.38049E+00-1.32181E-02-2.78548E-01 1.77850E-14-3.41293E-13
 -1      1763 1.93870E+01 3.97222E+00-9.11915E-03-3.57471E-01 5.84553E-15-3.28380E-13
 -1      1764 1.92031E+01 4.37916E+00-1.31706E-02 2.97933E-01 8.90783E-14-3.19715E-13
 -1      1765 1.91957E+01 4.38369E+00-1.37558E-02 1.02556E-01 6.18194E-14-3.29615E-13
 -1      1766 1.93723E+01 3.99190E+00-9.09539E-03 1.07477E-02 5.73102E-14-3.19810E-13
 -1      1767 1.92397E+01 4.34155E+00-1.33214E-02 6.86207E-01 1.26313E-13-3.06933E-13
 -1      1768 1.92169E+01 4.35545E+00-1.49260E-02 4.85600E-01 1.11302E-13-3.18042E-13
 -1      1769 1.93894E+01 3.96901E+00-9.13739E-03 3.79120E-01 1.04246E-13-3.07449E-13
 -1      1770 1.93120E+01 4.26743E+00-1.43874E-02 1.08357E+00 1.68186E-13-2.61895E-13
 -1      1771 1.92693E+01 4.29219E+00-1.69879E-02 8.75721E-01 1.47296E-13-2.86266E-13
 -1      1772 1.94415E+01 3.90089E+00-9.14938E-03 7.50706E-01 1.44227E-13-2.82524E-13
 -1      1773 1.94416E+01 4.13932E+00-1.74000E-02 1.51358E+00 2.33043E-13-1.94750E-13
 -1      1774 1.93663E+01 4.18221E+00-2.05133E-02 1.28408E+00 1.95640E-13-2.30200E-13
 -1      1775 1.95399E+01 3.77596E+00-9.21224E-03 1.13417E+00 1.98421E-13-2.29407E-13
 -1      1776 1.96672E+01 3.92218E+00-2.53054E-02 1.97871E+00 2.80593E-13-1.09465E-13
 -1      1777 1.95365E+01 3.99926E+00-2.69072E-02 1.72141E+00 2.51500E-13-1.64355E-13
 -1      1778 1.97108E+01 3.56768E+00-8.81826E-03 1.53409E+00 2.55531E-13-1.63869E-13
 -1      1779 2.00762E+01 3.52234E+00-4.42838E-02 2.47514E+00 3.11220E-13 5.59969E-14
 -1      1780 1.98403E+01 3.68409E+00-3.79340E-02 2.18024E+00 2.91154E-13-4.81074E-14
 -1      1781 2.00029E+01 3.22252E+00-6.24843E-03 1.93054E+00 3.01078E-13-5.87863E-14
 -1      1782 2.09113E+01 2.66908E+00-6.20899E-02 2.85461E+00 3.02745E-13 3.41491E-13
 -1      1783 2.04076E+01 3.09995E+00-4.96285E-02 2.61264E+00 2.98845E-13 1.71432E-13
 -1      1784 2.04944E+01 2.60885E+00-6.82780E-04 2.23761E+00 3.16342E-13 1.17545E-13
 -1      1785 2.17183E+01 1.21128E+00-1.23335E-01 2.32825E+00 2.43160E-13 6.86784E-13
 -1      1786 2.12680E+01 2.27199E+00 3.30645E-03 2.74103E+00 2.77823E-13 4.62963E-13
 -1      1787 2.09509E+01 1.68893E+00-1.37118E-02 2.14481E+00 3.09022E-13 3.42764E-13
 -1      1788 2.09486E+01 7.78630E-01-6.06016E-02 1.52321E+00 2.42209E-13 6.22082E-13
 -1      1789 2.17869E+01 2.45733E+00 9.08918E-02-3.04780E+00-2.28996E-13 3.33872E-13
 -1      1790 2.01093E+01 2.99736E-01-4.91891E-03 6.62373E-01 1.69087E-13 5.11867E-13
 -1      1791 2.06397E+01 4.38433E-01-1.42809E-02 1.03279E+00 1.93033E-13 5.75370E-13
 -1      1792 2.07391E+01 8.47124E-01 5.41182E-03 1.40823E+00 2.34309E-13 4.18200E-13
 -1      1793 2.14988E+01 1.74202E+00 7.95086E-02-2.33701E+00-2.40103E-13 2.33064E-13
 -1      1794 2.05123E+01 5.00920E-01 3.25110E-02-9.21136E-01-1.84054E-13 1.96016E-13
 -1      1795 2.00813E+01 3.52352E-01 7.76600E-03-6.29143E-01-1.62722E-13 1.43486E-13
 -1      1796 1.98872E+01 2.57813E-01 2.74350E-02-3.90400E-01-1.67051E-13 1.34395E-13
 -1      1797 1.96970E+01 1.78822E-01 1.05109E-02-2.52146E-01-1.64647E-13 8.36093E-14
 -1      1798 2.01938E+01 4.84030E-01-5.91179E-03-7.21537E-01-1.99463E-13 2.55815E-14
 -1      1799 1.95761E+01 1.33620E-01 1.66868E-02-1.17920E-01-1.38262E-13 9.65963E-14
 -1      1800 1.94992E+01 9.42681E-02 7.04576E-03-4.64595E-02-9.41833E-14 5.42743E-14
 -1      1801 1.98696E+01 2.45102E-01-5.86731E-03-2.93170E-01-1.67695E-13 1.91579E-14
 -1      1802 1.94362E+01 7.01465E-02 8.82351E-03 2.81967E-02-8.46346E-14 3.32993E-14
 -1      1803 1.94236E+01 4.83630E-02 4.14499E-03 6.55806E-02-9.21036E-14-8.24948E-15
 -1      1804 1.96899E+01 1.27166E-01-4.77046E-03-5.41180E-02-1.18891E-13-1.82948E-15
 -1      1805 1.94002E+01 3.40918E-02 4.37108E-03 1.07490E-01-1.05258E-13-1.88363E-14
 -1      1806 1.94250E+01 2.16313E-02 2.54253E-03 1.26491E-01-9.22305E-14-5.09773E-14
 -1      1807 1.96070E+01 6.39094E-02-3.39106E-03 8.06896E-02-1.18297E-13-8.77435E-14
 -1      1808 1.94282E+01 1.43275E-02 1.98309E-03 1.46201E-01-7.58670E-14-6.31894E-14
 -1      1809 1.94712E+01 7.97599E-03 1.76691E-03 1.53688E-01-5.41910E-14-6.49500E-14
 -1      1810 1.95905E+01 2.75409E-02-2.49547E-03 1.52834E-01-9.42790E-14-9.60403E-14
 -1      1811 1.94902E+01 3.80356E-03 7.15417E-04 1.62595E-01-4.22224E-14-6.91195E-14
 -1      1812 1.95429E+01 1.14106E-03 1.35439E-03 1.64680E-01-2.45311E-14-7.08872E-14
 -1      1813 1.96154E+01 9.10470E-03-1.65425E-03 1.87389E-01-5.86613E-14-1.07894E-13
 -1      1814 1.95717E+01-6.10133E-04 8.45872E-05 1.68118E-01-6.11114E-14-1.04650E-13
 -1      1815 1.96294E+01-8.38396E-04 1.19236E-03 1.68165E-01-7.13826E-14-1.11940E-13
 -1      1816 1.96652E+01 5.22617E-04-1.10345E-03 2.02932E-01-7.38955E-14-1.07256E-13
 -1      1817 1.96646E+01-7.34918E-04-1.98925E-04 1.69988E-01-7.06968E-14-1.19362E-13
 -1      1818 1.97256E+01 9.49384E-04 1.26097E-03 1.70424E-01-2.42599E-14-1.63780E-13
 -1      1819 1.97308E+01-1.06441E-03-7.89957E-04 2.10091E-01-8.77757E-14-1.24485E-13
 -1      1820 1.97658E+01 2.59660E-03-2.58911E-04 1.73625E-01-6.32911E-15-1.99890E-13
 -1      1821 1.98306E+01 5.99297E-03 1.54863E-03 1.76477E-01-2.53131E-14-2.28106E-13
 -1      1822 1.98076E+01 2.82146E-03-6.60668E-04 2.16656E-01-4.08640E-14-1.38937E-13
 -1      1823 1.98758E+01 9.14724E-03-1.54354E-04 1.83660E-01-6.73596E-14-2.09617E-13
 -1      1824 1.99470E+01 1.43390E-02 2.14584E-03 1.90843E-01-1.26266E-13-2.18724E-13
 -1      1825 1.98941E+01 1.15770E-02-6.79106E-04 2.28951E-01-4.80009E-14-1.99615E-13
 -1      1826 2.00012E+01 1.93851E-02 4.54881E-05 2.05357E-01-1.44854E-13-1.98178E-13
 -1      1827 2.00870E+01 2.71530E-02 3.00263E-03 2.20092E-01-1.21517E-13-1.81105E-13
 -1      1828 1.99944E+01 2.57355E-02-8.84071E-04 2.53672E-01-1.16145E-13-1.12804E-13
 -1      1829 2.01471E+01 3.39544E-02 3.45273E-04 2.43918E-01-1.49464E-13-1.77654E-13
 -1      1830 2.02463E+01 4.42158E-02 4.18053E-03 2.67294E-01-1.05202E-13-2.14792E-13
 -1      1831 2.01103E+01 4.64253E-02-1.01892E-03 2.97090E-01-1.32217E-13-3.63732E-14
 -1      1832 2.03181E+01 5.36587E-02 6.47762E-04 3.04487E-01-3.35665E-14-2.90918E-13
 -1      1833 2.04431E+01 6.78924E-02 5.89010E-03 3.40639E-01 2.12443E-14-3.00161E-13
 -1      1834 2.02442E+01 7.45423E-02-1.25533E-03 3.65147E-01-1.08499E-13-3.35364E-14
 -1      1835 2.05303E+01 8.08532E-02 9.65229E-04 3.96001E-01 6.17850E-14-3.70840E-13
 -1      1836 2.06929E+01 1.00361E-01 8.17629E-03 4.49695E-01 2.29619E-14-3.77655E-13
 -1      1837 2.04058E+01 1.13271E-01-1.50999E-03 4.67848E-01-3.29077E-14-1.48661E-13
 -1      1838 2.07998E+01 1.17978E-01 1.20008E-03 5.29427E-01 2.48499E-15-3.25291E-13
 -1      1839 2.10153E+01 1.44302E-01 1.10992E-02 6.06812E-01 3.98466E-15-2.34518E-13
 -1      1840 2.06041E+01 1.66233E-01-1.71608E-03 6.17070E-01 5.00580E-14-2.09969E-13
 -1      1841 2.11464E+01 1.67574E-01 1.19880E-03 7.18530E-01 4.20185E-14-1.40089E-13
 -1      1842 2.14341E+01 2.01664E-01 1.44716E-02 8.26912E-01 1.69593E-13-8.43342E-14
 -1      1843 2.08488E+01 2.37227E-01-1.81565E-03 8.27583E-01 1.17279E-13-1.52581E-14
 -1      1844 2.15938E+01 2.30978E-01 8.27648E-04 9.78796E-01 2.20107E-13-1.14116E-13
 -1      1845 2.19772E+01 2.70872E-01 1.79763E-02 1.12477E+00 2.06174E-13-1.13485E-13
 -1      1846 2.11499E+01 3.27960E-01-1.82981E-03 1.11597E+00 1.86169E-13-2.54635E-14
 -1      1847 2.21823E+01 3.04277E-01-2.03058E-04 1.33229E+00 1.54824E-13-1.40986E-13
 -1      1848 2.27062E+01 3.43216E-01 1.99507E-02 1.52832E+00 8.97312E-14 8.70354E-15
 -1      1849 2.15263E+01 4.34160E-01-2.62276E-03 1.50803E+00 1.71079E-13-1.55012E-13
 -1      1850 2.29418E+01 3.61890E-01-1.91485E-03 1.76898E+00 1.79258E-14 3.84089E-14
 -1      1851 2.35745E+01 3.69315E-01 1.70430E-02 1.97532E+00 1.70714E-14 2.70851E-14
 -1      1852 2.19849E+01 5.26139E-01-2.68682E-03 1.99692E+00 7.62437E-14-1.42865E-13
 -1      1853 2.38765E+01 3.40985E-01-2.08706E-03 2.22573E+00-5.13023E-14 4.00183E-14
 -1      1854 2.46251E+01 2.61795E-01 7.85462E-03 2.38796E+00-3.75906E-14 2.82916E-14
 -1      1855 2.25329E+01 5.21170E-01-5.42170E-03 2.53121E+00-9.71228E-15 5.92503E-14
 -1      1856 2.50600E+01 1.17875E-01 6.84055E-03 2.55868E+00-1.68034E-14 3.64968E-14
 -1      1857 2.58602E+01-1.48040E-01-9.69301E-03 2.53587E+00 7.15747E-14 9.48581E-14
 -1      1858 2.32471E+01 2.53607E-01-1.27821E-02 3.00175E+00 2.20700E-15-1.40239E-14
 -1      1859 2.65746E+01-5.01494E-01 3.30075E-02 2.43671E+00 1.53797E-13 8.05345E-14
 -1      1860 2.72899E+01-1.03335E+00-3.21760E-02 2.00057E+00 2.41567E-13 1.20799E-13
 -1      1861 2.42984E+01-5.37618E-01-2.61311E-02 3.13844E+00 1.43496E-13 3.19198E-14
 -1      1862 2.84818E+01-1.60467E+00 6.67297E-02 1.33584E+00 2.48131E-13 1.18211E-13
 -1      1863 2.89107E+01-2.21277E+00-5.27770E-02 3.02504E-01 1.57430E-13 1.32986E-13
 -1      1864 2.60075E+01-2.01610E+00-4.61382E-02 2.46945E+00 2.61659E-13 2.21628E-14
 -1      1865 3.05012E+01-2.57371E+00 4.10081E-02-1.04091E+00 1.73694E-13 1.78073E-13
 -1      1866 3.03915E+01-2.44941E+00-6.47553E-02-2.29875E+00 1.53535E-13 3.02860E-13
 -1      1867 2.86272E+01-3.53503E+00-6.86121E-02 5.61241E-01 2.31745E-13 6.72396E-14
 -1      1868 3.19109E+01-1.70231E+00-1.32758E-01-3.70621E+00-1.98036E-14 3.12500E-13
 -1      1869 3.13683E+01 1.47953E-01-9.17513E-02-4.19020E+00-1.67116E-13 3.12611E-13
 -1      1870 3.18556E+01-3.01094E+00-7.18347E-02-2.30083E+00 1.12068E-13 1.78663E-13
 -1      1871 3.11706E+01 4.05115E+00-1.94655E-01-2.25533E-01-2.81664E-13 8.86860E-14
 -1      1872 3.13134E+01 3.67386E+00-2.10651E-01 1.69210E+00-2.16660E-13 1.27563E-14
 -1      1873 3.09047E+01-1.08196E+00-4.11498E-02 3.87586E+00-2.84578E-13-2.90351E-13
 -1      1874 3.12944E+01-2.35909E+00-9.15345E-02 2.79786E+00-1.32777E-13-4.50487E-13
 -1      1875 2.98885E+01-2.37100E+00-5.24255E-02 1.26577E+00 2.87964E-15-4.57007E-13
 -1      1876 2.97616E+01-2.10465E+00 5.59918E-02-3.13181E-02-7.27682E-14-3.35936E-13
 -1      1877 3.05594E+01-3.19577E+00-6.63602E-02 1.51599E+00-1.31851E-13-5.81493E-13
 -1      1878 2.83731E+01-1.58925E+00-5.09870E-02-1.13523E+00-9.17530E-14-2.59114E-13
 -1      1879 2.78252E+01-9.58724E-01 5.59383E-02-1.88484E+00 1.29757E-14-7.72091E-14
 -1      1880 2.78138E+01-2.67131E+00-4.83495E-02-1.25122E+00 8.96921E-14-2.81757E-13
 -1      1881 2.68308E+01-5.29420E-01-3.05018E-02-2.28701E+00 4.40203E-14-2.95267E-14
 -1      1882 2.60306E+01-9.94173E-02 2.12313E-02-2.49551E+00 1.38492E-14 4.29882E-14
 -1      1883 2.56441E+01-1.13937E+00-3.73336E-02-2.70349E+00 4.93494E-14-5.39213E-14
 -1      1884 2.54332E+01 8.28411E-02-6.38790E-03-2.44224E+00-1.04886E-15 8.17089E-14
 -1      1885 2.46474E+01 2.54946E-01 2.29649E-03-2.34555E+00 1.43708E-13 1.44147E-13
 -1      1886 2.42205E+01-6.39856E-02-1.89553E-02-2.98566E+00 1.31700E-14 1.82561E-13
 -1      1887 2.42404E+01 3.06377E-01 9.67881E-03-2.13094E+00 2.07967E-13 5.18648E-14
 -1      1888 2.35421E+01 3.41629E-01-2.10260E-03-1.93365E+00 3.31141E-13 9.45030E-14
 -1      1889 2.32651E+01 3.82633E-01-8.29038E-03-2.67264E+00 1.52360E-13 2.04604E-13
 -1      1890 2.32349E+01 3.32514E-01 1.64126E-02-1.69063E+00 2.75013E-13-1.56940E-14
 -1      1891 2.26643E+01 3.12201E-01-1.38765E-03-1.49021E+00-8.65783E-14 1.05114E-13
 -1      1892 2.25413E+01 4.80836E-01-3.50706E-03-2.16840E+00 2.03817E-13-1.38544E-14
 -1      1893 2.24196E+01 2.84204E-01 1.71963E-02-1.27497E+00-7.76618E-14-4.13515E-16
 -1      1894 2.19766E+01 2.48690E-01-5.56336E-05-1.10695E+00-7.88822E-14 1.84350E-13
 -1      1895 2.19624E+01 4.31991E-01-1.76563E-03-1.66643E+00-1.03547E-13-1.71986E-13
 -1      1896 2.17797E+01 2.19884E-01 1.50302E-02-9.35277E-01-1.90010E-13 6.98421E-14
 -1      1897 2.14464E+01 1.85784E-01 7.95016E-04-8.06063E-01-2.26315E-13 5.67812E-14
 -1      1898 2.14946E+01 3.41884E-01-1.37870E-03-1.24157E+00-1.87275E-13 9.55876E-15
 -1      1899 2.12893E+01 1.62142E-01 1.19894E-02-6.76213E-01-2.38398E-13-1.41328E-14
 -1      1900 2.10424E+01 1.34309E-01 9.03978E-04-5.81016E-01-2.54448E-13 9.29568E-14
 -1      1901 2.11204E+01 2.54645E-01-1.41010E-03-9.09081E-01-2.60318E-13-2.00770E-13
 -1      1902 2.09126E+01 1.15087E-01 8.88127E-03-4.80978E-01-1.10197E-13 7.91011E-14
 -1      1903 2.07262E+01 9.42386E-02 1.04317E-03-4.09844E-01-3.26635E-14 4.26818E-15
 -1      1904 2.08198E+01 1.83428E-01-1.01111E-03-6.54877E-01-1.73521E-13 2.10801E-15
 -1      1905 2.06327E+01 8.19976E-02 6.60512E-03-3.41857E-01-7.96401E-14 2.01746E-13
 -1      1906 2.05043E+01 6.71737E-02 1.07254E-03-2.93404E-01 7.12321E-16 2.31941E-13
 -1      1907 2.05870E+01 1.28921E-01-1.45003E-03-4.68319E-01-1.32312E-14 2.00325E-13
 -1      1908 2.04322E+01 5.84834E-02 4.71467E-03-2.44003E-01 1.72963E-13 2.94739E-13
 -1      1909 2.03398E+01 4.83896E-02 9.80068E-04-2.09153E-01 2.87358E-13 3.62485E-13
 -1      1910 2.04144E+01 9.19691E-02-1.27995E-03-3.36899E-01 1.16627E-13 3.61004E-13
 -1      1911 2.02852E+01 4.25356E-02 3.37742E-03-1.72984E-01 6.40551E-14 2.64692E-13
 -1      1912 2.02194E+01 3.58573E-02 8.86939E-04-1.47343E-01-2.23649E-15 2.50108E-13
 -1      1913 2.02838E+01 6.64464E-02-1.09586E-03-2.40923E-01 1.10225E-13 4.98474E-13
 -1      1914 2.01787E+01 3.21536E-02 2.38324E-03-1.20144E-01-1.02582E-13-2.18890E-14
 -1      1915 2.01329E+01 2.80696E-02 8.03239E-04-1.00463E-01-9.06649E-14-2.21149E-13
 -1      1916 2.01863E+01 4.96448E-02-9.09225E-04-1.69685E-01-1.93938E-13 1.91238E-13
 -1      1917 2.01028E+01 2.60285E-02 1.63660E-03-7.90527E-02-1.26245E-13-1.90595E-13
 -1      1918 2.00725E+01 2.37394E-02 7.27585E-04-6.29754E-02-2.94276E-13-2.69194E-13
 -1      1919 2.01146E+01 3.95435E-02-6.59371E-04-1.15006E-01-7.44936E-14-1.42907E-13
 -1      1920 2.00506E+01 2.26028E-02 1.11577E-03-4.50807E-02-1.73922E-13-3.05654E-13
 -1      1921 2.00321E+01 2.05182E-02 5.81210E-04-3.17163E-02-1.03221E-13-9.57203E-14
 -1      1922 2.00624E+01 3.34991E-02-5.40939E-04-7.08980E-02-3.25885E-13 4.68657E-14
 -1      1923 2.00150E+01 1.71626E-02 5.93841E-04-1.57498E-02-1.44625E-13-6.53106E-14
 -1      1924 1.95070E+01 1.13330E-01 9.71364E-03 1.25432E-01 8.73928E-14 3.01016E-13
 -1      1925 1.96217E+01 1.59630E-01 1.71824E-02 2.19660E-01 7.11453E-14 3.31485E-13
 -1      1926 1.93800E+01 5.89362E-02 6.23253E-03-1.73783E-02 9.17391E-14 2.68435E-13
 -1      1927 1.94143E+01 8.35907E-02 1.20381E-02 3.00710E-02 9.79481E-14 2.97993E-13
 -1      1928 1.97123E+01 1.55727E-01-4.73802E-03 1.50726E-01 1.12642E-13 1.50770E-13
 -1      1929 1.93529E+01 2.94741E-02 3.84579E-03-9.42184E-02 1.05185E-13 1.87119E-13
 -1      1930 1.93389E+01 4.30963E-02 6.32980E-03-6.99436E-02 1.01965E-13 2.45588E-13
 -1      1931 1.95816E+01 7.95481E-02-4.16749E-03-2.27917E-02 1.33078E-13 1.33385E-13
 -1      1932 1.93861E+01 1.27469E-02 2.47599E-03-1.32816E-01 8.34090E-14 1.43759E-13
 -1      1933 1.93459E+01 2.03240E-02 3.08530E-03-1.21368E-01 6.79427E-14 1.66053E-13
 -1      1934 1.95382E+01 3.79815E-02-3.02502E-03-1.17330E-01 1.15107E-13 8.18536E-14
 -1      1935 1.94535E+01 3.49353E-03 1.68432E-03-1.49524E-01 6.79053E-14 1.23597E-13
 -1      1936 1.94001E+01 7.48440E-03 1.34602E-03-1.45267E-01 8.90839E-14 1.37804E-13
 -1      1937 1.95486E+01 1.48439E-02-2.04503E-03-1.65873E-01 9.48067E-14 3.14002E-14
 -1      1938 1.95394E+01-1.07151E-03 1.21765E-03-1.54261E-01 3.90588E-14 1.05615E-13
 -1      1939 1.94801E+01 6.66224E-04 4.06531E-04-1.53761E-01 3.62797E-14 1.01836E-13
 -1      1940 1.95918E+01 2.43603E-03-1.32176E-03-1.87861E-01 5.51691E-14 1.47234E-14
 -1      1941 1.96347E+01-2.60012E-03 9.49655E-04-1.53339E-01 5.95847E-14 9.98570E-14
 -1      1942 1.95733E+01-2.30495E-03-9.04412E-05-1.54392E-01 8.20953E-14 1.31789E-13
 -1      1943 1.96543E+01-3.29335E-03-8.42272E-04-1.95315E-01 4.81489E-14 3.65257E-14
 -1      1944 1.97346E+01-2.21151E-03 8.05875E-04-1.50816E-01 5.26623E-14 5.00995E-14
 -1      1945 1.96729E+01-2.79911E-03-3.27872E-04-1.52010E-01 3.77606E-14 6.85119E-14
 -1      1946 1.97279E+01-4.76128E-03-5.53944E-04-1.95955E-01 9.32583E-14 6.54831E-14
 -1      1947 1.98372E+01-7.82342E-04 7.27809E-04-1.49148E-01 8.90595E-14 2.68028E-14
 -1      1948 1.97755E+01-1.80455E-03-4.11183E-04-1.49665E-01 7.43557E-14 5.71860E-14
 -1      1949 1.98082E+01-3.62959E-03-4.01707E-04-1.94716E-01 5.94534E-14 4.74224E-14
 -1      1950 1.99421E+01 8.83380E-04 6.58218E-04-1.49470E-01 1.49234E-14-1.29431E-14
 -1      1951 1.98802E+01-1.51390E-04-4.10231E-04-1.49011E-01 7.05005E-14 2.55860E-14
 -1      1952 1.98929E+01-1.23331E-03-3.37917E-04-1.94486E-01 6.52170E-14 8.65882E-15
 -1      1953 2.00497E+01 1.93634E-03 5.34383E-04-1.51649E-01-4.38433E-14 4.24135E-14
 -1      1954 1.99871E+01 1.34558E-03-3.76956E-04-1.50440E-01-3.53928E-14 9.39635E-15
 -1      1955 1.99815E+01 1.16622E-03-3.21211E-04-1.96412E-01-1.65086E-14 1.75236E-14
 -1      1956 2.01597E+01 1.39920E-03 2.85584E-04-1.54184E-01-2.89458E-14 1.23706E-13
 -1      1957 2.00965E+01 1.78498E-03-3.53338E-04-1.53044E-01-3.13147E-14 9.81719E-14
 -1      1958 2.00740E+01 2.20882E-03-3.12994E-04-1.99939E-01-7.01214E-14 9.14431E-14
 -1      1959 2.02706E+01-1.86821E-03-1.64402E-04-1.54009E-01 3.31739E-14 7.46407E-14
 -1      1960 2.02082E+01 1.15421E-04-3.74736E-04-1.54449E-01 3.82552E-14 1.13321E-13
 -1      1961 2.01700E+01 3.25419E-04-2.74069E-04-2.02664E-01 6.71538E-15 6.19544E-14
 -1      1962 2.03786E+01-9.11670E-03-8.86822E-04-1.46308E-01 5.72523E-14 5.25054E-14
 -1      1963 2.03199E+01-4.86471E-03-4.70205E-04-1.50608E-01 3.91051E-14 6.89196E-14
 -1      1964 2.02685E+01-6.28091E-03-1.61979E-04-2.00113E-01 3.29652E-14 9.18135E-14
 -1      1965 2.04762E+01-2.15018E-02-1.92570E-03-1.24497E-01-2.04276E-14 7.19052E-14
 -1      1966 2.04265E+01-1.43923E-02-6.60338E-04-1.35688E-01 5.50555E-14 2.28575E-14
 -1      1967 2.03665E+01-1.94916E-02 7.03355E-05-1.85569E-01 5.60829E-14 6.80792E-14
 -1      1968 2.05515E+01-3.96401E-02-3.26135E-03-8.06657E-02-2.53103E-14 7.40122E-14
 -1      1969 2.05190E+01-2.94316E-02-9.53175E-04-1.02270E-01-3.97138E-14 8.55993E-14
 -1      1970 2.04580E+01-4.08569E-02 4.73096E-04-1.50212E-01-1.63134E-14 2.51200E-14
 -1      1971 2.05881E+01-6.28659E-02-4.76239E-03-6.84199E-03 5.07081E-15 7.26670E-14
 -1      1972 2.05837E+01-5.00930E-02-1.33909E-03-4.22030E-02 3.77302E-16 1.20003E-13
 -1      1973 2.05341E+01-7.07873E-02 1.09213E-03-8.39414E-02-2.77599E-14 4.84794E-14
 -1      1974 2.05656E+01-8.82387E-02-6.14049E-03 1.02508E-01-3.22225E-16 6.66232E-14
 -1      1975 2.06020E+01-7.47539E-02-1.78479E-03 5.14741E-02 2.45856E-14 7.61515E-14
 -1      1976 2.05813E+01-1.07303E-01 1.94984E-03 2.26384E-02-1.25273E-14 1.50883E-13
 -1      1977 2.04627E+01-1.09613E-01-6.94107E-03 2.46573E-01 6.35408E-14 4.85686E-14
 -1      1978 2.05520E+01-9.90340E-02-2.22792E-03 1.81224E-01 9.88359E-15 5.04981E-14
 -1      1979 2.05826E+01-1.44528E-01 3.00760E-03 1.74601E-01 5.66528E-14 1.03289E-13
 -1      1980 2.02619E+01-1.17507E-01-6.61890E-03 4.13401E-01-1.75168E-14 1.04119E-13
 -1      1981 2.04118E+01-1.15121E-01-2.56594E-03 3.40455E-01 3.62210E-14 7.61556E-14
 -1      1982 2.05188E+01-1.71587E-01 4.10250E-03 3.67419E-01-9.36794E-15 1.26994E-13
 -1      1983 1.99576E+01-1.00910E-01-4.74476E-03 5.76051E-01-1.13957E-13 1.90367E-13
 -1      1984 2.01664E+01-1.12412E-01-2.63216E-03 5.08915E-01-3.83994E-14 1.80341E-13
 -1      1985 2.03725E+01-1.73233E-01 4.87733E-03 5.81013E-01-9.49334E-14 3.41674E-13
 -1      1986 1.95648E+01-5.18875E-02-1.32044E-03 6.93101E-01 2.91700E-14 2.39548E-13
 -1      1987 1.98169E+01-8.06242E-02-2.17709E-03 6.50819E-01-1.33560E-13 1.83872E-13
 -1      1988 2.01354E+01-1.33848E-01 4.76979E-03 7.75930E-01-7.30815E-14 3.86316E-13
 -1      1989 1.91265E+01 2.78270E-02 2.96271E-03 7.17263E-01 3.99572E-14 2.37927E-13
 -1      1990 1.93906E+01-1.56462E-02-9.04967E-04 7.19662E-01 1.39585E-13 2.71927E-13
 -1      1991 1.98178E+01-4.53921E-02 3.17297E-03 8.96314E-01 1.53474E-14 5.20264E-13
 -1      1992 1.87125E+01 1.21887E-01 6.81014E-03 6.13063E-01-1.71213E-14 1.73935E-13
 -1      1993 1.89453E+01 7.39941E-02 1.38024E-03 6.72370E-01 9.97249E-16 1.52601E-13
 -1      1994 1.94576E+01 8.31684E-02-1.56677E-04 8.84004E-01 9.35055E-14 4.48957E-13
 -1      1995 1.84070E+01 2.01493E-01 8.90067E-03 3.77770E-01 4.07443E-14 8.36930E-14
 -1      1996 1.85631E+01 1.64963E-01 4.51373E-03 4.90181E-01 1.32915E-14 1.82854E-13
 -1      1997 1.91206E+01 2.21511E-01-4.52657E-03 7.03250E-01 3.29359E-14 2.08970E-13
 -1      1998 1.82825E+01 2.37100E-01 8.62092E-03 5.29344E-02 1.00966E-13-2.35497E-14
 -1      1999 1.83285E+01 2.26080E-01 7.69727E-03 1.95877E-01 5.18249E-14 2.31798E-14
 -1      2000 1.88859E+01 3.25476E-01-8.25792E-03 3.65959E-01 1.10982E-13 2.29013E-13
 -1      2001 1.83724E+01 2.14276E-01 6.45812E-03-2.85017E-01 6.99918E-14 7.02676E-14
 -1      2002 1.82979E+01 2.33332E-01 9.68174E-03-1.46111E-01 1.41703E-13 7.82809E-14
 -1      2003 1.88177E+01 3.56417E-01-9.54859E-03-5.99773E-02 7.36173E-14 2.17104E-13
 -1      2004 1.86557E+01 1.42497E-01 3.57509E-03-5.54187E-01 2.00788E-13-4.09898E-14
 -1      2005 1.84773E+01 1.83761E-01 9.37981E-03-4.52049E-01 1.23735E-13 3.24827E-16
 -1      2006 1.89358E+01 3.02116E-01-7.69180E-03-4.70982E-01 1.50038E-13 2.37897E-13
 -1      2007 1.90649E+01 4.93724E-02 1.02225E-03-7.00198E-01-6.55474E-14-1.57375E-13
 -1      2008 1.88203E+01 9.73464E-02 6.60782E-03-6.53019E-01 1.13153E-13-6.47954E-14
 -1      2009 1.92062E+01 1.83804E-01-3.74905E-03-7.69664E-01 1.64226E-13 1.51264E-13
 -1      2010 1.95132E+01-3.49277E-02-6.99127E-04-7.12714E-01-1.40306E-13-1.34904E-13
 -1      2011 1.92483E+01 5.01193E-03 2.30944E-03-7.19949E-01-1.06482E-13-1.44911E-13
 -1      2012 1.95573E+01 4.39969E-02 3.46019E-04-9.03003E-01-5.79794E-14 1.32123E-13
 -1      2013 1.99239E+01-9.09011E-02-1.57956E-03-6.19398E-01-2.58790E-14-1.83779E-13
 -1      2014 1.96797E+01-6.71313E-02-2.04514E-03-6.66438E-01-8.21712E-14-2.53769E-13
 -1      2015 1.99115E+01-7.53604E-02 3.21309E-03-8.74267E-01-8.52189E-14-1.01401E-14
 -1      2016 2.02475E+01-1.13885E-01-1.86394E-03-4.66364E-01 4.27601E-14-1.75669E-13
 -1      2017 2.00515E+01-1.06870E-01-5.25178E-03-5.33278E-01-3.02935E-14-2.32341E-13
 -1      2018 2.02102E+01-1.49791E-01 4.42193E-03-7.28193E-01-2.57433E-15-6.86373E-14
 -1      2019 2.04652E+01-1.10264E-01-1.79704E-03-2.98428E-01-1.29741E-13-4.74295E-15
 -1      2020 2.03291E+01-1.15684E-01-6.79727E-03-3.67536E-01 2.97418E-14-6.56860E-14
 -1      2021 2.04239E+01-1.75853E-01 4.31643E-03-5.24529E-01-5.62963E-14-4.11249E-14
 -1      2022 2.05819E+01-9.08101E-02-1.54327E-03-1.47468E-01 6.22037E-14-1.69449E-13
 -1      2023 2.05044E+01-1.02893E-01-6.82317E-03-2.07133E-01-3.43215E-14-7.90989E-14
 -1      2024 2.05486E+01-1.64675E-01 3.50556E-03-3.15666E-01-2.04214E-14 1.13348E-13
 -1      2025 2.06159E+01-6.54838E-02-1.20377E-03-2.98210E-02-2.30024E-14-2.64195E-13
 -1      2026 2.05876E+01-7.93637E-02-5.82823E-03-7.47462E-02 7.29733E-15-1.96755E-13
 -1      2027 2.05964E+01-1.32457E-01 2.48383E-03-1.35800E-01 4.89821E-14-1.07364E-13
 -1      2028 2.05903E+01-4.10952E-02-8.43785E-04 5.07005E-02 4.42708E-14-4.70491E-13
 -1      2029 2.05981E+01-5.36860E-02-4.36277E-03 2.10642E-02 3.09353E-14-3.95727E-13
 -1      2030 2.05861E+01-9.34641E-02 1.53175E-03-3.80468E-04 1.12259E-13-3.05279E-13
 -1      2031 2.05272E+01-2.11368E-02-5.05245E-04 9.79815E-02-7.11623E-14-3.75521E-13
 -1      2032 2.05583E+01-3.10218E-02-2.85159E-03 8.14720E-02-9.02160E-14-5.05262E-13
 -1      2033 2.05371E+01-5.71005E-02 7.66880E-04 8.90542E-02-6.70026E-15-6.03025E-13
 -1      2034 2.04447E+01-6.62411E-03-2.12951E-04 1.19308E-01-1.04539E-13-4.08972E-13
 -1      2035 2.04882E+01-1.35524E-02-1.54640E-03 1.12723E-01-1.52533E-14-3.35358E-13
 -1      2036 2.04662E+01-2.79482E-02 2.10626E-04 1.38912E-01-7.24144E-14-6.60444E-13
 -1      2037 2.03563E+01 2.89454E-03 2.46763E-05 1.22441E-01-2.77912E-14-4.31493E-13
 -1      2038 2.04040E+01-1.47239E-03-5.50501E-04 1.22612E-01-8.12666E-14-3.99200E-13
 -1      2039 2.03863E+01-7.09418E-03-1.60679E-04 1.58684E-01-7.82836E-14-4.60835E-13
 -1      2040 2.02712E+01 8.53665E-03 2.11140E-04 1.14022E-01 2.37231E-13-4.39872E-13
 -1      2041 2.03175E+01 6.07466E-03 1.31816E-04 1.18361E-01 1.56932E-13-4.03910E-13
 -1      2042 2.03063E+01 6.38410E-03-3.85589E-04 1.57810E-01 2.57658E-14-5.72806E-13
 -1      2043 2.01948E+01 1.15845E-02 3.54720E-04 9.89566E-02-4.63779E-14-2.45000E-13
 -1      2044 2.02364E+01 1.03341E-02 5.44943E-04 1.05641E-01 6.57206E-14-3.08808E-13
 -1      2045 2.02320E+01 1.42747E-02-5.04045E-04 1.44085E-01 5.53668E-14-2.25550E-13
 -1      2046 2.01303E+01 1.32266E-02 4.58059E-04 8.03571E-02-1.18252E-13-6.88424E-14
 -1      2047 2.01650E+01 1.25752E-02 7.44960E-04 8.83151E-02-7.54334E-14-1.89391E-13
 -1      2048 2.01668E+01 1.85378E-02-5.50860E-04 1.23125E-01-1.51127E-13 2.41787E-14
 -1      2049 2.00790E+01 1.43344E-02 5.15820E-04 5.98215E-02-3.81395E-15-1.58920E-13
 -1      2050 2.01059E+01 1.38925E-02 7.81568E-04 6.85918E-02-1.44391E-13-1.27934E-13
 -1      2051 2.01122E+01 2.09196E-02-5.47615E-04 9.84396E-02-4.40478E-14-1.79101E-14
 -1      2052 2.00409E+01 1.53135E-02 5.04560E-04 3.81034E-02 5.85891E-14 4.60102E-14
 -1      2053 2.00597E+01 1.48717E-02 6.50183E-04 4.75155E-02 3.66849E-14-2.62619E-14
 -1      2054 2.00681E+01 2.24280E-02-6.11268E-04 7.20742E-02-5.23667E-14-1.07362E-13
 -1      2055 2.00167E+01 1.35617E-02 4.61789E-04 1.83704E-02 8.66544E-14 4.98835E-14
 -1      2056 2.00285E+01 1.42414E-02 4.89465E-04 2.69157E-02 1.06642E-13-3.19113E-14
 -1      2057 2.00374E+01 2.23646E-02-2.49953E-04 4.63111E-02 8.75586E-14 8.25551E-15
 -1      2058 2.00161E+01 1.95433E-02 1.39227E-04 2.34390E-02 4.63554E-14 1.43692E-13
 -1      2059 2.00035E+01 1.13408E-01-1.38928E-04 6.43309E-02-1.46512E-13-9.11278E-14
 -1      2060 2.00072E+01 9.26105E-02 4.47315E-04 6.12062E-02-1.39728E-13-1.22109E-13
 -1      2061 2.00104E+01 7.35129E-02 7.42518E-05 5.50391E-02 5.66408E-14 7.02036E-14
 -1      2062 2.00135E+01 5.53065E-02 4.12034E-04 4.84063E-02-1.18269E-14 3.78156E-13
 -1      2063 2.00130E+01 8.48872E-02-1.83924E-04 7.51777E-02-1.71284E-13 1.83542E-14
 -1      2064 2.00160E+01 3.31068E-02 2.84212E-04 3.29834E-02 6.44721E-14 2.99693E-13
 -1      2065 1.99964E+01 1.54047E-01-4.04669E-04 6.46973E-02-1.96776E-13-1.70035E-13
 -1      2066 2.00001E+01 1.33058E-01 2.05385E-04 6.55879E-02-2.94791E-13 2.08416E-13
 -1      2067 2.00027E+01 1.23420E-01-3.15046E-05 8.32212E-02-2.84630E-13-6.99409E-14
 -1      2068 1.99896E+01 1.92137E-01-6.68686E-04 5.59155E-02 1.70195E-14-3.57468E-13
 -1      2069 1.99930E+01 1.73146E-01-6.17179E-05 6.08097E-02 4.90083E-14-1.47991E-13
 -1      2070 1.99923E+01 1.62171E-01 2.16387E-04 8.02154E-02-1.47527E-13-6.19815E-15
 -1      2071 1.99838E+01 2.22057E-01-8.71752E-04 3.87781E-02-6.07673E-14-4.44529E-13
 -1      2072 1.99867E+01 2.08160E-01-3.32539E-04 4.71591E-02 2.38842E-14-6.67892E-13
 -1      2073 1.99825E+01 1.97320E-01 4.60871E-04 6.59833E-02-5.75544E-14-5.62332E-13
 -1      2074 1.99800E+01 2.39538E-01-9.63976E-04 1.51648E-02-1.53670E-13 5.55947E-14
 -1      2075 1.99817E+01 2.32933E-01-5.71122E-04 2.60569E-02-1.63228E-13-1.14884E-13
 -1      2076 1.99747E+01 2.24266E-01 6.88107E-04 4.18265E-02-1.51640E-13-3.11407E-13
 -1      2077 1.99789E+01 2.41579E-01-9.07876E-04-1.19351E-02-4.01221E-13-1.25165E-13
 -1      2078 1.99791E+01 2.43546E-01-7.49069E-04 8.27503E-06-2.41277E-13 2.68252E-13
 -1      2079 1.99701E+01 2.39177E-01 8.57166E-04 1.04142E-02-4.41454E-13 1.49528E-13
 -1      2080 1.99812E+01 2.27127E-01-6.91831E-04-3.85173E-02-4.84146E-13-7.87869E-13
 -1      2081 1.99796E+01 2.37722E-01-8.34999E-04-2.73944E-02-4.29535E-13-4.72726E-13
 -1      2082 1.99697E+01 2.39328E-01 9.26761E-04-2.41680E-02-4.88759E-13-3.44860E-13
 -1      2083 1.99871E+01 1.98215E-01-3.25699E-04-5.96759E-02-3.98114E-13-8.03505E-14
 -1      2084 1.99836E+01 2.15680E-01-8.23918E-04-5.15263E-02-4.44715E-13-5.57318E-13
 -1      2085 1.99745E+01 2.23967E-01 8.82403E-04-5.64373E-02-4.44313E-13-5.72041E-13
 -1      2086 1.99961E+01 1.57689E-01 1.15767E-04-7.17177E-02-2.64980E-13 4.60934E-13
 -1      2087 1.99911E+01 1.79984E-01-7.01644E-04-6.81339E-02-3.23342E-13 4.09678E-13
 -1      2088 1.99844E+01 1.94353E-01 6.81837E-04-8.09524E-02-3.05568E-13 2.39068E-13
 -1      2089 2.00070E+01 1.11866E-01 5.08808E-04-7.09412E-02-1.78928E-13 1.08923E-13
 -1      2090 2.00012E+01 1.35130E-01-4.94868E-04-7.33013E-02-2.15687E-13 1.47654E-13
 -1      2091 1.99985E+01 1.53693E-01 3.70322E-04-9.27281E-02-1.02964E-13 5.15185E-13
 -1      2092 2.00166E+01 6.76893E-02 6.91446E-04-5.63985E-02-2.77569E-13 5.66956E-13
 -1      2093 2.00120E+01 8.81545E-02-2.07211E-04-6.48602E-02-3.34122E-13 4.27679E-13
 -1      2094 2.00142E+01 1.07714E-01 4.86377E-06-8.81673E-02-2.09110E-13 2.82975E-13
 -1      2095 1.97165E+01 1.79071E-01 1.26680E-02 3.26068E-01 9.67108E-14 3.92998E-13
 -1      2096 1.99708E+01 2.56452E-01 1.70054E-02 5.04428E-01 1.44312E-13 4.60226E-13
 -1      2097 2.01698E+01 4.15671E-01-4.18902E-04 7.31268E-01 1.77925E-13 3.29000E-13
 -1      2098 1.99016E+01 2.64651E-01-3.82479E-03 4.01208E-01 1.32686E-13 2.41057E-13
 -1      2099 1.17116E+01-4.74826E+00-8.76892E-02 7.33104E+00-2.23488E-13 7.32969E-13
 -1      2100 8.00698E+00-6.36100E+00-2.86782E-01 6.36162E+00-4.04510E-13 4.91579E-13
 -1      2101 2.93149E+01 3.17939E-01 1.78104E-01 6.30461E+00 2.64067E-13 7.52176E-13
 -1      2102 2.42935E+01-1.66576E+00-1.26315E-01 6.22940E+00 6.15619E-14 7.26863E-13
 -1      2103 8.07386E-02-7.90676E+00-4.44532E-01 2.03237E+00-3.87551E-13 4.58078E-13
 -1      2104-1.82038E-01-7.60571E+00-3.89152E-01 4.82761E-01-4.86819E-13 3.94407E-13
 -1      2105 1.97621E+01-2.70270E+00 9.05758E-03 7.68680E+00-7.32747E-15 8.14515E-13
 -1      2106 1.49439E+01-4.67154E+00-2.93189E-01 6.93156E+00-2.02505E-13 7.88647E-13
 -1      2107 1.58441E+01-5.36980E+00-2.91049E-02 7.68432E+00-3.42060E-13 7.93959E-13
 -1      2108 1.95258E+01 4.01686E+00-2.56551E-02-1.69988E+00-1.57819E-13-3.10082E-13
 -1      2109 1.96525E+01 3.94290E+00-2.43389E-02-1.95512E+00-1.89807E-13-2.65669E-13
 -1      2110 1.99737E+01 3.25366E+00-7.98836E-03-1.90806E+00-2.11164E-13-2.18792E-13
 -1      2111 1.96973E+01 3.58467E+00-9.23182E-03-1.51614E+00-1.52424E-13-2.96813E-13
 -1      2112 3.64977E+01 3.87024E+00 2.95108E-01 4.30051E+00 4.80019E-13 7.20479E-13
 -1      2113 3.21167E+01 2.28446E+00 2.73046E-02 4.91835E+00 4.82045E-13 7.49178E-13
 -1      2114 4.05270E+01 6.53992E+00 3.17474E-01 1.84631E+00 5.87919E-13 4.41869E-13
 -1      2115 3.79607E+01 5.59930E+00 1.68934E-01 2.92249E+00 5.34517E-13 6.03295E-13
 -1      2116 4.15123E+01 7.70985E+00 2.56270E-01-2.13428E-01 5.83755E-13 1.05863E-13
 -1      2117 4.10479E+01 7.54785E+00 2.62133E-01 1.13450E+00 6.61693E-13 3.18412E-13
 -1      2118 3.88952E+01 6.88568E+00 1.33321E-01-1.56015E+00 5.65492E-13-1.72695E-13
 -1      2119 4.07092E+01 7.48579E+00 2.72271E-01-5.76255E-01 5.08815E-13-6.11733E-14
 -1      2120 3.53598E+01 4.06286E+00 1.03848E-01-3.91202E+00 5.66922E-13-2.61124E-13
 -1      2121 3.85870E+01 5.27534E+00 2.39991E-01-2.80387E+00 4.82614E-13-1.96787E-13
 -1      2122 2.86095E+01 3.01298E-01-7.08018E-02-5.55032E+00 5.20223E-13-2.11275E-13
 -1      2123 3.31438E+01 1.95865E+00 2.04625E-01-5.08023E+00 5.46702E-13-1.22291E-13
 -1      2124 2.10474E+01-3.03755E+00-1.65302E-01-6.59845E+00 6.12788E-13-1.18572E-13
 -1      2125 2.59412E+01-8.36373E-01 1.46027E-01-7.01933E+00 6.06959E-13-7.76601E-14
 -1      2126 2.86941E+01-2.06539E+00 1.22659E-01-4.32517E+00 3.11640E-13 1.05527E-13
 -1      2127 1.12970E+01-5.72266E+00-3.43242E-01-6.68408E+00 5.39013E-13-3.98320E-13
 -1      2128 1.60159E+01-3.79395E+00-4.48257E-02-7.75424E+00 5.82756E-13-2.59182E-13
 -1      2129 4.72698E+00-6.91310E+00-3.37420E-01-5.42019E+00 4.36873E-13-5.45591E-13
 -1      2130 7.82238E+00-5.65208E+00-1.87775E-01-6.54533E+00 5.36793E-13-6.57127E-13
 -1      2131 1.20221E+01-5.48913E+00-7.51551E-02-7.64414E+00 2.31593E-13-3.73424E-13
 -1      2132 5.08657E-01-7.37384E+00-3.65005E-01-2.22154E+00 1.60164E-13-4.99656E-13
 -1      2133 1.89310E+00-6.39738E+00-2.28684E-01-3.94790E+00 3.42504E-13-3.78253E-13
 -1      2134 5.54278E-01-7.94340E+00-4.31272E-01 1.17987E+00 2.31204E-14-5.88973E-13
 -1      2135-1.01183E-01-7.73598E+00-3.98299E-01-2.60732E-01 1.64032E-13-6.18838E-13
 -1      2136 5.12184E+00-7.07656E+00-3.32120E-01 4.22712E+00-1.26288E-13-6.86173E-13
 -1      2137 2.32802E+00-8.27774E+00-5.30211E-01 2.66113E+00 4.39648E-14-5.69822E-13
 -1      2138 1.36375E+01-5.90724E+00-2.43601E-01 5.94847E+00-4.34763E-13-9.45244E-13
 -1      2139 9.07685E+00-7.52820E+00-5.12842E-01 4.84420E+00-1.73750E-13-8.55295E-13
 -1      2140 2.40835E+01-3.79537E+00-4.60621E-02 5.91895E+00-4.78173E-13-8.26617E-13
 -1      2141 1.81949E+01-5.74052E+00-4.55992E-01 5.27674E+00-4.37206E-13-8.09075E-13
 -1      2142 3.47212E+01-7.87341E-01 1.88556E-01 4.01994E+00-5.52836E-13-5.84977E-13
 -1      2143 2.84823E+01-2.68368E+00-2.27963E-01 4.18791E+00-5.42955E-13-7.06990E-13
 -1      2144 4.13934E+01 2.74201E+00 3.09687E-01 6.40402E-01-4.42424E-13-3.26406E-13
 -1      2145 3.75779E+01 8.84230E-01 1.08545E-01 1.69334E+00-4.69826E-13-4.57634E-13
 -1      2146 4.55026E+01 6.32251E+00 6.65211E-01-2.53533E-01-4.69069E-13-3.61045E-13
 -1      2147 4.25152E+01 5.39268E+00 3.55571E-01-1.29697E-01-4.03344E-13-3.78919E-13
 -1      2148 4.58010E+01 6.67654E+00 6.47754E-01-3.34350E-01-5.84088E-13-3.50164E-13
 -1      2149 4.62990E+01 6.89046E+00 6.66287E-01 2.79256E-01-5.38014E-13-4.57384E-13
 -1      2150 4.16693E+01 3.93732E+00 3.36214E-01-8.21603E-01-4.82892E-13-3.31957E-13
 -1      2151 4.50725E+01 5.29351E+00 6.43440E-01-1.55277E-01-5.61218E-13-4.19609E-13
 -1      2152 3.47567E+01-6.31967E-01-8.00524E-02-2.28003E+00-6.70186E-13-1.51212E-13
 -1      2153 3.98312E+01 1.41303E+00 3.45961E-01-1.81691E+00-6.01113E-13-3.75922E-13
 -1      2154 2.56506E+01-4.35738E+00-3.28631E-01-4.31021E+00-2.82052E-13 1.32783E-13
 -1      2155 3.18122E+01-1.98927E+00 1.78862E-01-4.44445E+00-4.44533E-13-1.18794E-14
 -1      2156 1.48776E+01-6.76769E+00-4.33965E-01-5.33216E+00-3.15303E-13 3.26073E-13
 -1      2157 2.07772E+01-5.23964E+00-1.09561E-01-6.09805E+00-2.85660E-13 3.42615E-13
 -1      2158 5.64775E+00-8.06328E+00-5.65050E-01-4.03913E+00-4.25993E-13 1.09135E-13
 -1      2159 9.54480E+00-6.56122E+00-3.43464E-01-5.37896E+00-4.16001E-13 2.43069E-13
 -1      2160 1.27722E+00-7.42285E+00-3.59816E-01-1.78549E+00-2.96541E-13 1.99674E-13
 -1      2161 3.14043E+00-7.35631E+00-3.57356E-01-3.24126E+00-2.81830E-13 1.74194E-13
 -1      2162 4.00920E+00-6.00845E+00-2.04227E-01 5.33928E+00-4.15334E-13 9.59788E-14
 -1      2163 1.69780E+00-7.59702E+00-4.30159E-01 3.66242E+00-4.90608E-13 1.71918E-13
 -1      2164 3.45272E+01 4.52898E+00-1.23847E-01 2.42128E+00-3.60434E-13-2.36311E-13
 -1      2165 3.06623E+01 2.80309E+00-1.19626E-01 3.27204E+00-1.52989E-13-8.51541E-14
 -1      2166 3.13815E+01 7.41397E-01-2.50379E-01 4.12894E+00-2.66981E-13-1.71613E-13
 -1      2167 3.31665E+01-1.84428E-01-1.48561E-01 3.99546E+00-3.31291E-13-5.76705E-13
 -1      2168 2.07272E+01 1.10874E+00-2.05281E-02-1.61580E+00-2.22111E-13 1.72562E-13
 -1      2169 3.11383E+01-1.69442E-01 1.64664E-01 3.36072E+00 1.59914E-13 5.92304E-13
 -1      2170 2.06199E+01 1.32954E+00-1.88346E-02-1.67688E+00-2.33424E-13 3.58377E-14
 -1      2171 3.05558E+01 3.60675E+00-1.46693E-01-2.00398E+00-1.85185E-13 1.20765E-13
 -1      2172 3.46584E+01 5.32122E+00-8.28253E-02-9.93215E-01-3.17080E-13 1.09093E-13
 -1      2173 3.10820E+01 2.13253E+00-2.78306E-01-3.46173E+00-2.05225E-13 2.45914E-13
 -1      2174 2.00239E+01 2.75457E-02-2.25733E-04-3.29874E-02-1.16929E-14-1.49421E-14
 -1      2175 2.00227E+01 4.34703E-02 4.19967E-05 5.21688E-02 6.59096E-14 3.22699E-13
 -1      2176 2.19096E+00-4.94263E+00-1.73055E-01 3.57049E+00-3.11251E-13 3.48499E-13
 -1      2177 2.00218E+01 4.05231E-02 5.81473E-04-4.10614E-02-1.36902E-13 2.47503E-13
 -1      2178 2.00208E+01 5.35655E-02 1.31847E-04-5.11824E-02-2.23634E-13 7.45025E-13
 -1      2179 2.00272E+01 7.09158E-02-1.74299E-04-7.49985E-02-2.36063E-13 7.69835E-13
 -1      2180 2.00395E+01 4.51309E-02 5.89893E-04-6.03098E-02-2.32006E-13 4.98314E-13
 -1      2181 8.01538E+00-5.23265E+00-7.55604E-02 6.85071E+00-3.75977E-13 4.90802E-13
 -1      2182 2.40039E+01-3.86583E+00 6.26324E-02 6.21711E+00-2.51688E-13 6.33105E-13
 -1      2183 1.84046E+00-5.13646E+00-1.85854E-01-1.10985E+00-9.34391E-14 2.26874E-13
 -1      2184 6.49819E+00-5.97533E+00-2.27107E-01-4.83723E+00-3.40838E-14 7.64389E-14
 -1      2185 1.53311E+01-6.47957E+00-4.14946E-02-6.20570E+00-1.44718E-13 1.42168E-13
 -1      2186 2.57123E+01-6.15061E+00-7.89197E-02-4.19585E+00-1.16795E-13-4.16889E-14
 -1      2187 3.39033E+01-2.72886E+00 1.66806E-01-8.07369E-01-3.51774E-13-3.80196E-13
 -1      2188 3.85298E+01 2.19101E+00 3.52269E-01 1.85439E+00-5.77455E-13-5.08427E-13
 -1      2189 4.08685E+01 6.24187E+00 5.04465E-01 1.40591E+00-6.29718E-13-3.84692E-13
 -1      2190 4.05054E+01 7.06502E+00 4.75625E-01-7.46121E-01-4.85723E-13-2.21309E-13
 -1      2191 3.91404E+01 3.93848E+00 3.99208E-01-2.11035E+00-3.02092E-13 9.79772E-14
 -1      2192 3.59641E+01-1.14446E+00 2.64573E-01 6.30249E-02-2.97790E-13-1.17795E-13
 -1      2193 2.85420E+01-4.80489E+00 3.00850E-02 3.61601E+00-1.05693E-13-3.77309E-13
 -1      2194 1.88562E+01-6.57694E+00-1.38590E-01 5.82195E+00-4.95715E-14-6.60472E-13
 -1      2195 9.38334E+00-6.46483E+00-2.09261E-01 5.56993E+00 9.10383E-14-8.02081E-13
 -1      2196 2.94884E+00-5.58181E+00-2.31824E-01 2.82971E+00 1.01807E-13-6.25944E-13
 -1      2197 4.95144E+00-5.04691E+00-1.36248E-01-5.58515E+00 2.15383E-13-5.86919E-13
 -1      2198 2.09343E+01-4.66004E+00 2.26176E-02-6.97463E+00 3.86413E-13-5.16254E-15
 -1      2199 3.34296E+01 1.98127E+00 2.02712E-01-1.99705E+00 4.46490E-13 2.28151E-14
 -1      2200 3.58493E+01 6.34948E+00 2.33205E-01-3.31256E-01 5.73819E-13-6.61138E-14
 -1      2201 3.65581E+01 8.65820E+00 2.49658E-01 1.78348E-01 6.67466E-13-1.23457E-13
 -1      2202 3.53452E+01 4.41855E+00 2.69809E-01 1.21981E+00 4.63352E-13 4.37483E-13
 -1      2203 3.70300E+01 7.84392E+00 3.11422E-01 1.09783E-01 6.74627E-13 2.78777E-13
 -1      2204 1.41006E+00-4.74839E+00-1.65778E-01-1.40592E+00 4.34236E-14-6.01186E-13
 -1      2205 3.43075E+01 1.69774E+00-7.58793E-02-3.72840E+00-2.71727E-13 1.86962E-13
 -1      2206 1.95669E+01 3.52108E+00-1.11723E-02-5.89936E-01-3.51751E-14-3.15772E-13
 -1      2207 1.96022E+01 3.47483E+00-1.05028E-02-7.74025E-01-7.28757E-14-3.24344E-13
 -1      2208 1.96483E+01 3.38590E+00-1.28494E-02-9.38486E-01-9.46698E-14-3.23177E-13
 -1      2209 1.97083E+01 3.30475E+00-1.29231E-02-1.12770E+00-1.35017E-13-3.08240E-13
 -1      2210 1.97932E+01 3.03865E+00 2.15300E-04-7.89817E-01-7.12173E-14-2.95462E-13
 -1      2211 1.95200E+01 3.60445E+00-9.63830E-03 9.94743E-02 6.70475E-14-3.05974E-13
 -1      2212 1.95194E+01 3.60526E+00-9.64114E-03-7.96446E-02 4.38605E-14-3.07135E-13
 -1      2213 1.95457E+01 3.56474E+00-9.73179E-03 4.44730E-01 1.12748E-13-2.85652E-13
 -1      2214 1.95285E+01 3.58750E+00-1.01619E-02 2.64248E-01 8.06706E-14-2.97760E-13
 -1      2215 1.96858E+01 3.22859E+00-8.44572E-04 1.69303E-01 6.84151E-14-2.87841E-13
 -1      2216 1.96068E+01 3.46741E+00-1.06187E-02 7.88063E-01 1.58689E-13-2.68327E-13
 -1      2217 1.95709E+01 3.51480E+00-1.12448E-02 6.06881E-01 1.30841E-13-2.84442E-13
 -1      2218 1.97221E+01 3.16456E+00-4.54155E-04 4.86759E-01 1.15507E-13-2.67009E-13
 -1      2219 1.97163E+01 3.29243E+00-1.29405E-02 1.14104E+00 2.17414E-13-1.96587E-13
 -1      2220 1.96542E+01 3.37632E+00-1.29230E-02 9.51864E-01 1.77746E-13-2.29867E-13
 -1      2221 1.97983E+01 3.02988E+00 2.99167E-04 8.01653E-01 1.62391E-13-2.27058E-13
 -1      2222 1.98936E+01 3.00538E+00-1.81306E-02 1.48802E+00 2.65919E-13-1.34421E-13
 -1      2223 1.97950E+01 3.14699E+00-1.52895E-02 1.29776E+00 2.37514E-13-1.74747E-13
 -1      2224 1.99265E+01 2.80328E+00 2.05138E-03 1.10735E+00 2.12862E-13-1.62381E-13
 -1      2225 2.01669E+01 2.53834E+00-2.86927E-02 1.78481E+00 3.04689E-13-2.86646E-14
 -1      2226 2.00158E+01 2.78505E+00-1.81066E-02 1.62023E+00 2.83016E-13-8.82489E-14
 -1      2227 2.01193E+01 2.45059E+00 5.84128E-03 1.37543E+00 2.57236E-13-8.65922E-14
 -1      2228 2.05801E+01 1.79527E+00-2.65540E-02 1.88972E+00 2.84489E-13 1.44513E-13
 -1      2229 2.03613E+01 2.22569E+00-1.08073E-02 1.85180E+00 2.91879E-13 4.16646E-14
 -1      2230 2.03868E+01 1.91313E+00 1.40317E-02 1.53047E+00 2.67804E-13 1.04985E-14
 -1      2231 2.07842E+01 1.06722E+00-1.78135E-02 1.59001E+00 2.56066E-13 3.32770E-13
 -1      2232 2.06723E+01 1.53592E+00 8.79286E-04 1.79109E+00 2.67661E-13 2.23231E-13
 -1      2233 2.04995E+01 1.28059E+00 4.69440E-04 1.41931E+00 2.59067E-13 1.36660E-13
 -1      2234 2.04421E+01 7.43856E-01-1.82233E-03 1.11071E+00 2.28147E-13 2.96463E-13
 -1      2235 3.66624E+01 4.80656E+00-1.11083E-01-2.31197E+00-2.89713E-13 8.14349E-14
 -1      2236 3.72765E+01 6.15862E+00 4.95065E-02-5.10633E-01-4.11449E-13-6.79387E-14
 -1      2237 3.07892E+01-4.06380E+00 5.40155E-03 7.67325E-01-4.88984E-14-5.86281E-13
 -1      2238 2.94238E+01-4.55358E+00 4.27890E-02-6.89148E-01 8.64656E-14-3.92769E-13
 -1      2239 2.03966E+01 8.54152E-01 1.24597E-02-9.99319E-01-1.89722E-13-3.08620E-14
 -1      2240 2.01879E+01 6.29559E-01-3.75930E-03-6.89659E-01-1.90357E-13-4.22964E-14
 -1      2241 3.14484E+01 2.39706E-03-1.09000E-01 1.68161E+00 1.65923E-13 3.06644E-13
 -1      2242 2.91606E+01-1.96560E+00-4.61302E-03 2.69467E+00-2.11636E-14 4.27658E-13
 -1      2243 1.13820E+01-4.29055E+00 3.86700E-02 7.69698E+00-2.35312E-13 7.45237E-13
 -1      2244 7.66555E+00-3.63355E+00 1.35062E-01 6.32389E+00-2.80387E-13 3.88634E-13
 -1      2245 2.01206E+01 4.71204E-01 1.55664E-02-4.71821E-01-1.84284E-13-3.03445E-14
 -1      2246 1.99826E+01 3.47314E-01 1.87613E-04-2.99344E-01-1.43217E-13-3.93693E-14
 -1      2247 2.02434E+01 7.50028E-01-1.33649E-03-6.89275E-01-1.89638E-13-9.81264E-14
 -1      2248 1.99201E+01 2.62947E-01 1.08008E-02-1.60628E-01-1.39988E-13-3.55879E-14
 -1      2249 1.98432E+01 1.91791E-01 6.11859E-04-6.16149E-02-1.43366E-13-7.74591E-14
 -1      2250 2.00822E+01 4.19623E-01-3.98137E-03-3.04527E-01-1.54213E-13-8.87706E-14
 -1      2251 1.97990E+01 1.41218E-01 6.36927E-03 2.61308E-02-1.22165E-13-8.70232E-14
 -1      2252 1.97663E+01 9.88239E-02 7.39347E-04 8.35820E-02-1.10476E-13-9.86291E-14
 -1      2253 1.99624E+01 2.31490E-01-3.45465E-03-5.75457E-02-1.66951E-13-9.27901E-14
 -1      2254 1.97442E+01 7.17555E-02 3.56717E-03 1.30918E-01-1.00895E-13-9.47733E-14
 -1      2255 1.97423E+01 4.83653E-02 9.06700E-04 1.60058E-01-7.74782E-14-9.56549E-14
 -1      2256 1.98907E+01 1.20231E-01-3.06785E-03 9.07483E-02-1.20269E-13-7.82050E-14
 -1      2257 1.97349E+01 3.24765E-02 1.81471E-03 1.86259E-01-6.68395E-14-8.69728E-14
 -1      2258 1.97513E+01 2.00968E-02 9.43336E-04 2.00865E-01-6.06955E-14-8.21639E-14
 -1      2259 1.98591E+01 5.84963E-02-2.27599E-03 1.73292E-01-8.55159E-14-8.67509E-14
 -1      2260 1.97547E+01 1.20341E-02 7.77954E-04 2.14600E-01-8.03239E-14-6.76778E-14
 -1      2261 1.97825E+01 6.98316E-03 1.00398E-03 2.21648E-01-9.34282E-14-8.70299E-14
 -1      2262 1.98551E+01 2.47519E-02-1.63857E-03 2.18930E-01-6.46816E-14-1.03915E-13
 -1      2263 1.97936E+01 4.53751E-03 1.35420E-04 2.29284E-01-9.86921E-14-6.23163E-14
 -1      2264 1.98292E+01 4.92369E-03 1.14571E-03 2.33669E-01-8.85449E-14-5.74573E-14
 -1      2265 1.98706E+01 1.01866E-02-1.18030E-03 2.44087E-01-8.63463E-14-3.89921E-14
 -1      2266 1.98458E+01 6.86073E-03-2.60274E-04 2.39983E-01-7.13136E-14-7.87921E-14
 -1      2267 1.98873E+01 1.17115E-02 1.39361E-03 2.45474E-01-4.11567E-14-9.87922E-14
 -1      2268 1.99000E+01 9.79492E-03-8.76223E-04 2.60743E-01-8.79710E-14-1.71132E-14
 -1      2269 1.99080E+01 1.74943E-02-5.02615E-04 2.54308E-01-4.74075E-14-1.27576E-13
 -1      2270 1.99557E+01 2.65435E-02 1.84642E-03 2.64109E-01-5.20061E-14-1.14209E-13
 -1      2271 1.99396E+01 2.09860E-02-6.88655E-04 2.78134E-01-7.94010E-14-7.40817E-14
 -1      2272 1.99811E+01 3.67280E-02-6.88922E-04 2.79675E-01-6.33274E-14-1.09075E-13
 -1      2273 2.00386E+01 5.10341E-02 2.43315E-03 2.98227E-01-9.51616E-14-4.89269E-14
 -1      2274 1.99885E+01 4.35351E-02-6.51582E-04 3.04870E-01-6.97741E-14-9.01866E-14
 -1      2275 2.00653E+01 6.51624E-02-8.53105E-04 3.22883E-01-1.13134E-13-2.29558E-14
 -1      2276 2.01301E+01 8.43462E-02 3.16935E-03 3.51684E-01-1.07756E-13 1.18036E-15
 -1      2277 2.00449E+01 7.83185E-02-4.60129E-04 3.48092E-01-7.99447E-14-5.81305E-14
 -1      2278 2.01590E+01 1.03934E-01-1.10004E-03 3.89635E-01-1.50742E-13 6.94665E-14
 -1      2279 2.02368E+01 1.30216E-01 4.24989E-03 4.33649E-01-1.10152E-13 1.85168E-16
 -1      2280 2.01061E+01 1.26084E-01-2.95746E-04 4.13976E-01-1.15856E-13 2.71463E-14
 -1      2281 2.02665E+01 1.56915E-01-1.47895E-03 4.89408E-01-7.68706E-14-4.66061E-15
 -1      2282 2.03616E+01 1.92489E-01 5.66185E-03 5.53855E-01-4.10387E-14-3.95667E-14
 -1      2283 2.01723E+01 1.91373E-01 4.31663E-06 5.11706E-01-1.15741E-13 8.24826E-14
 -1      2284 2.03893E+01 2.28475E-01-2.09243E-03 6.32948E-01 6.12357E-15-2.22412E-14
 -1      2285 2.05065E+01 2.76008E-01 7.44458E-03 7.24327E-01 4.83116E-14-9.70621E-15
 -1      2286 2.02404E+01 2.79470E-01 5.71227E-04 6.51253E-01-8.91328E-15 1.23461E-13
 -1      2287 2.05277E+01 3.23545E-01-3.04954E-03 8.33427E-01 7.78193E-14-2.08222E-14
 -1      2288 2.06720E+01 3.85338E-01 9.55519E-03 9.59348E-01 1.80288E-13 1.15100E-14
 -1      2289 2.03044E+01 3.96457E-01 1.56545E-03 8.44461E-01 2.56730E-14 1.08239E-13
 -1      2290 2.06790E+01 4.45562E-01-4.45832E-03 1.10609E+00 1.72089E-13-7.88512E-14
 -1      2291 2.08566E+01 5.21376E-01 1.20886E-02 1.27397E+00 1.66561E-13-8.95110E-14
 -1      2292 2.03534E+01 5.47116E-01 3.15040E-03 1.10477E+00 1.11009E-13-3.39520E-14
 -1      2293 2.08399E+01 5.95539E-01-6.06746E-03 1.47570E+00 1.77287E-13-1.58118E-13
 -1      2294 2.10617E+01 6.80075E-01 1.44742E-02 1.70336E+00 1.37788E-13-1.35751E-13
 -1      2295 2.03696E+01 7.32295E-01 4.56564E-03 1.45660E+00 1.34977E-13-1.26435E-13
 -1      2296 2.10091E+01 7.42777E-01-7.81120E-03 1.94844E+00 1.12395E-13-9.88271E-14
 -1      2297 2.12661E+01 8.00716E-01 1.54896E-02 2.20487E+00 8.22346E-14-1.05199E-13
 -1      2298 2.03323E+01 9.27814E-01 7.76592E-03 1.90381E+00 1.26159E-13-1.09938E-13
 -1      2299 2.11878E+01 8.13883E-01-7.25516E-03 2.50004E+00 2.64871E-14-6.04216E-14
 -1      2300 2.15071E+01 7.81770E-01 1.70402E-02 2.76442E+00-1.08620E-14-4.00161E-14
 -1      2301 2.02289E+01 1.05258E+00 9.24385E-03 2.43881E+00 4.31226E-14-2.81105E-14
 -1      2302 2.14526E+01 6.53042E-01 9.90297E-04 3.09489E+00-2.11851E-14-3.79334E-14
 -1      2303 2.18911E+01 3.97278E-01 2.09824E-02 3.28950E+00 4.88290E-14-2.70384E-14
 -1      2304 2.00897E+01 9.48926E-01 7.04151E-03 3.06101E+00 2.75722E-14-8.34200E-14
 -1      2305 2.20256E+01-3.41005E-02 3.15343E-02 3.60252E+00 1.17254E-13 2.04784E-15
 -1      2306 2.27062E+01-7.09169E-01 3.12695E-02 3.57607E+00 2.14148E-13 5.95930E-14
 -1      2307 2.00687E+01 2.91773E-01-5.09367E-03 3.73689E+00 1.05896E-13-2.39635E-14
 -1      2308 2.33826E+01-1.60808E+00 9.24445E-02 3.70103E+00 2.53731E-13 6.53522E-14
 -1      2309 2.44916E+01-2.75926E+00 4.39821E-02 3.22563E+00 2.60292E-13 3.88804E-14
 -1      2310 2.06060E+01-1.34786E+00-2.23672E-02 4.33472E+00 2.17125E-13 4.26048E-15
 -1      2311 2.60957E+01-3.92571E+00 1.28161E-01 2.80863E+00 3.08038E-13 1.34573E-13
 -1      2312 2.75858E+01-4.75619E+00 1.24348E-02 1.77046E+00 3.06921E-13 1.74763E-13
 -1      2313 2.24484E+01-3.95341E+00-4.29508E-02 4.45058E+00 3.20494E-13 1.01134E-13
 -1      2314 2.66244E+01-3.84156E+00 2.54104E-02-2.17366E+00 2.40252E-13-2.79356E-13
 -1      2315 2.53546E+01-2.72578E+00 1.12353E-01-3.03677E+00 2.51445E-13-1.28161E-13
 -1      2316 2.40805E+01-1.60841E+00 2.19419E-02-3.28504E+00 1.74090E-13-1.23671E-13
 -1      2317 2.31885E+01-6.67783E-01 6.09140E-02-3.56416E+00 6.15567E-14-1.71937E-14
 -1      2318 2.21551E+01-2.64020E+00-6.35402E-02-4.17830E+00 2.81747E-13-1.61378E-13
 -1      2319 2.27514E+01-7.32136E-02 1.55582E-02-3.37621E+00 2.91989E-14 3.58155E-14
 -1      2320 2.21835E+01 3.52143E-01 1.42382E-02-3.29081E+00 1.31960E-13 9.73354E-14
 -1      2321 2.08482E+01-4.44912E-01-2.31992E-02-3.96594E+00 1.50595E-13-1.54510E-13
 -1      2322 2.20992E+01 5.91032E-01 1.55708E-02-2.97861E+00 9.05076E-14 1.70117E-13
 -1      2323 2.16859E+01 7.11138E-01-2.01270E-03-2.74579E+00 1.65862E-13 1.05638E-13
 -1      2324 2.05161E+01 6.42199E-01-4.23281E-04-3.37426E+00 7.88198E-14-1.34929E-13
 -1      2325 2.17009E+01 7.49772E-01 1.50642E-02-2.43358E+00 6.34592E-14 5.73907E-14
 -1      2326 2.13757E+01 7.31094E-01-5.58170E-03-2.17148E+00 2.74637E-14-1.59730E-13
 -1      2327 2.05044E+01 9.67921E-01 6.01538E-03-2.73729E+00 5.32916E-14-1.56761E-13
 -1      2328 2.13955E+01 6.87952E-01 1.46035E-02-1.89774E+00 3.82220E-14-2.04443E-13
 -1      2329 2.11302E+01 6.21571E-01-4.99138E-03-1.66164E+00-1.74166E-15-1.46499E-13
 -1      2330 2.05397E+01 9.40063E-01 6.75307E-03-2.15099E+00-1.89039E-14-2.20919E-13
 -1      2331 2.11301E+01 5.56840E-01 1.30803E-02-1.43791E+00-1.32427E-13-1.42960E-13
 -1      2332 2.09142E+01 4.84946E-01-3.51356E-03-1.24585E+00-3.31130E-13-2.06231E-13
 -1      2333 2.05416E+01 7.84073E-01 5.26412E-03-1.65256E+00-2.79371E-14-2.51951E-13
 -1      2334 2.08953E+01 4.23840E-01 1.08727E-02-1.07056E+00-3.11644E-13-1.59693E-13
 -1      2335 2.07218E+01 3.61854E-01-2.51529E-03-9.22515E-01-2.20484E-13-4.86235E-14
 -1      2336 2.05025E+01 6.07805E-01 3.31425E-03-1.24978E+00-2.81659E-13-2.86156E-13
 -1      2337 2.06893E+01 3.09568E-01 8.46786E-03-7.82417E-01-1.28912E-13 1.83740E-14
 -1      2338 2.05486E+01 2.60033E-01-1.48050E-03-6.67555E-01-6.80699E-14 1.35958E-13
 -1      2339 2.04357E+01 4.50732E-01 2.06529E-03-9.28709E-01-7.94212E-14 9.30412E-14
 -1      2340 2.05158E+01 2.23476E-01 6.55775E-03-5.68755E-01-5.35401E-14 1.17904E-13
 -1      2341 2.04122E+01 1.88333E-01-6.79280E-04-4.88404E-01-3.40284E-14 8.52637E-14
 -1      2342 2.03574E+01 3.26174E-01 4.81225E-04-6.83968E-01-3.50750E-14 2.59233E-13
 -1      2343 2.03795E+01 1.61660E-01 4.89663E-03-4.14660E-01 4.40880E-14 1.68775E-13
 -1      2344 2.03006E+01 1.36551E-01-2.77185E-04-3.55678E-01 2.82486E-13 1.79619E-13
 -1      2345 2.02825E+01 2.36738E-01-1.45789E-04-5.04996E-01 6.33385E-14 1.94163E-13
 -1      2346 2.02713E+01 1.17826E-01 3.61736E-03-3.00666E-01 1.70388E-13 2.49388E-13
 -1      2347 2.02119E+01 1.00474E-01-1.44572E-05-2.57034E-01-4.06656E-14 1.82846E-13
 -1      2348 2.02147E+01 1.72472E-01-4.40960E-04-3.70666E-01 1.85366E-13 7.19387E-14
 -1      2349 2.01867E+01 8.78692E-02 2.64029E-03-2.15558E-01-2.62956E-13 2.16537E-13
 -1      2350 2.01426E+01 7.64649E-02 1.58893E-04-1.82556E-01-2.82717E-13 1.95621E-13
 -1      2351 2.01566E+01 1.27868E-01-5.15238E-04-2.69477E-01-5.88266E-14 1.59941E-13
 -1      2352 2.01213E+01 6.81022E-02 1.73794E-03-1.50516E-01-7.64488E-14 1.82243E-13
 -1      2353 2.00894E+01 6.14612E-02 2.73207E-04-1.24890E-01-8.16908E-14 1.56158E-13
 -1      2354 2.01082E+01 9.82772E-02-4.40751E-04-1.92139E-01-2.63738E-13 2.31651E-13
 -1      2355 2.00761E+01 5.49603E-02 1.23316E-03-1.01090E-01-1.80400E-13 3.45317E-13
 -1      2356 2.00532E+01 5.09302E-02 5.93570E-04-8.01851E-02-2.39198E-13 4.22637E-13
 -1      2357 2.00473E+01 6.35509E-02 2.34465E-04-8.91482E-02-1.60408E-13 9.35292E-13
 -1      2358 2.00736E+01 7.92165E-02 2.03513E-04-1.34475E-01 4.87612E-15 3.99617E-13
 -1      2359 1.97057E+01 6.75708E-02 1.21474E-03-1.20445E-01 1.17747E-13 5.00504E-14
 -1      2360 1.97195E+01 9.69305E-02 5.05222E-03-8.05936E-02 1.42518E-13 7.73204E-14
 -1      2361 1.97538E+01 1.31651E-01 1.45130E-03-1.62043E-02 1.40653E-13 7.33149E-14
 -1      2362 1.98058E+01 1.81845E-01 8.87148E-03 5.67001E-02 1.32913E-13 1.00978E-13
 -1      2363 1.98854E+01 1.61824E-01-3.54299E-03-1.97088E-02 1.48230E-13 3.83410E-14
 -1      2364 1.98628E+01 2.43052E-01 1.83231E-03 1.65758E-01 1.15909E-13 9.44121E-14
 -1      2365 1.99651E+01 3.27442E-01 1.09698E-02 2.96615E-01 1.10447E-13 1.07253E-13
 -1      2366 1.99836E+01 2.97232E-01-4.31442E-03 1.70318E-01 1.39357E-13 2.99754E-14
 -1      2367 1.97007E+01 3.02953E-02 1.03740E-03-1.76903E-01 9.59052E-14 1.14520E-14
 -1      2368 1.96906E+01 4.71425E-02 2.71698E-03-1.56563E-01 9.75219E-14 2.71844E-14
 -1      2369 1.98337E+01 8.24407E-02-2.72389E-03-1.31478E-01 1.36657E-13 1.11792E-14
 -1      2370 1.97243E+01 9.64545E-03 9.18240E-04-2.04696E-01 4.79939E-14-1.60861E-14
 -1      2371 1.96997E+01 1.86174E-02 1.30898E-03-1.95632E-01 8.73995E-14 1.56597E-14
 -1      2372 1.98172E+01 3.64063E-02-1.95807E-03-1.93538E-01 9.68108E-14 4.85353E-14
 -1      2373 1.97661E+01-2.28750E-04 8.49603E-04-2.16405E-01 3.91408E-14 4.31669E-15
 -1      2374 1.97329E+01 3.62679E-03 4.61086E-04-2.13327E-01-4.11672E-16-3.25539E-14
 -1      2375 1.98255E+01 1.12821E-02-1.36635E-03-2.25406E-01 4.95174E-14-8.63968E-15
 -1      2376 1.98196E+01-3.09460E-03 8.19819E-04-2.20405E-01 7.99364E-14 3.59445E-15
 -1      2377 1.97813E+01-2.53157E-03-3.31222E-05-2.19864E-01 9.07410E-14 8.82947E-15
 -1      2378 1.98506E+01-2.86638E-04-9.53892E-04-2.40297E-01 5.07651E-14-7.64941E-14
 -1      2379 1.98810E+01-1.68916E-03 8.07818E-04-2.22132E-01 3.87121E-14 2.84758E-14
 -1      2380 1.98395E+01-3.05694E-03-2.93987E-04-2.21961E-01 6.98011E-14 3.74082E-14
 -1      2381 1.98872E+01-3.14029E-03-6.89048E-04-2.47110E-01 4.79721E-14-9.64020E-15
 -1      2382 1.99483E+01 1.70431E-03 7.81963E-04-2.24751E-01 2.60840E-14 8.38198E-14
 -1      2383 1.99045E+01-4.22170E-04-3.96163E-04-2.23794E-01 2.63896E-14 5.03924E-14
 -1      2384 1.99321E+01-8.78305E-04-5.36590E-04-2.51608E-01 2.46511E-14 6.61315E-14
 -1      2385 2.00207E+01 4.88325E-03 6.99393E-04-2.29435E-01-5.93195E-14 1.08533E-13
 -1      2386 1.99750E+01 3.16364E-03-3.86991E-04-2.27456E-01 1.24027E-14 9.63759E-14
 -1      2387 1.99838E+01 3.41630E-03-4.66069E-04-2.57050E-01-5.61035E-15 1.36869E-13
 -1      2388 2.00981E+01 5.46289E-03 5.05678E-04-2.35378E-01-6.60705E-14 7.28714E-14
 -1      2389 2.00508E+01 5.43858E-03-2.95943E-04-2.33085E-01-8.05638E-14 8.01093E-14
 -1      2390 2.00419E+01 6.70214E-03-4.52651E-04-2.64443E-01-5.10137E-14 1.44235E-13
 -1      2391 2.01805E+01 7.16599E-04 1.36441E-04-2.39626E-01 5.88262E-14 5.93649E-14
 -1      2392 2.01321E+01 3.87023E-03-1.40792E-04-2.38771E-01 1.40029E-14 4.06327E-14
 -1      2393 2.01068E+01 5.65518E-03-4.75579E-04-2.72525E-01-1.43565E-14 1.63872E-14
 -1      2394 2.02670E+01-1.24220E-02-4.76082E-04-2.36831E-01 3.32675E-15 5.54761E-14
 -1      2395 2.02189E+01-4.43859E-03 6.66768E-05-2.40321E-01 2.84310E-14 8.58334E-14
 -1      2396 2.01791E+01-3.49605E-03-5.15249E-04-2.77565E-01 1.67415E-14 7.84106E-14
 -1      2397 2.03558E+01-3.70707E-02-1.38757E-03-2.19085E-01 9.25709E-14 4.61022E-14
 -1      2398 2.03104E+01-2.26317E-02 3.13070E-04-2.31017E-01 6.94321E-14 5.97218E-14
 -1      2399 2.02598E+01-2.48787E-02-5.48146E-04-2.73091E-01 5.12606E-14 8.22004E-14
 -1      2400 2.04430E+01-7.56377E-02-2.61269E-03-1.76130E-01-2.11681E-14 2.14808E-14
 -1      2401 2.04042E+01-5.36130E-02 5.71859E-04-2.01586E-01 7.36786E-14 7.76058E-14
 -1      2402 2.03489E+01-6.24416E-02-5.38612E-04-2.49750E-01 9.31492E-14 1.27017E-13
 -1      2403 2.05219E+01-1.28390E-01-4.07997E-03-9.63534E-02-7.66893E-14 7.30779E-14
 -1      2404 2.04954E+01-9.89887E-02 7.87150E-04-1.40730E-01-9.32206E-14-1.46402E-14
 -1      2405 2.04453E+01-1.18727E-01-4.28137E-04-1.95627E-01-3.84536E-14 1.29953E-13
 -1      2406 2.05824E+01-1.91284E-01-5.57295E-03 3.08391E-02-6.15827E-15 1.05049E-13
 -1      2407 2.05754E+01-1.57278E-01 8.55887E-04-3.67709E-02-2.69051E-14 1.04665E-13
 -1      2408 2.05452E+01-1.92715E-01-1.25467E-04-9.75200E-02-6.44171E-14 8.87109E-15
 -1      2409 2.06105E+01-2.53398E-01-6.67712E-03 2.10763E-01-2.04977E-14 1.72889E-13
 -1      2410 2.06313E+01-2.21474E-01 6.23541E-04 1.19010E-01-1.97769E-15 1.67870E-13
 -1      2411 2.06405E+01-2.76788E-01 4.88946E-04 5.61207E-02-8.16035E-14 9.03127E-14
 -1      2412 2.05887E+01-2.95127E-01-6.78172E-03 4.37179E-01-1.07393E-13 3.43043E-13
 -1      2413 2.06451E+01-2.76626E-01-9.34787E-05 3.26879E-01-2.79700E-14 2.52143E-13
 -1      2414 2.07173E+01-3.53486E-01 1.52333E-03 2.69972E-01-1.13726E-13 2.99444E-13
 -1      2415 2.04990E+01-2.89471E-01-5.21757E-03 6.85082E-01-1.53070E-13 3.99027E-13
 -1      2416 2.05953E+01-2.99136E-01-1.40933E-03 5.71387E-01-1.40239E-13 3.61848E-13
 -1      2417 2.07544E+01-3.94008E-01 2.94657E-03 5.34174E-01-1.27125E-13 3.37472E-13
 -1      2418 2.03292E+01-2.09553E-01-1.61816E-03 9.05902E-01-6.22691E-14 3.87196E-13
 -1      2419 2.04630E+01-2.60637E-01-3.16076E-03 8.14563E-01-7.16235E-14 3.70309E-13
 -1      2420 2.07261E+01-3.61972E-01 4.39412E-03 8.15640E-01-1.24895E-13 3.27546E-13
 -1      2421 2.00833E+01-4.35278E-02 3.54743E-03 1.03124E+00 1.96077E-14 4.39357E-13
 -1      2422 2.02417E+01-1.39209E-01-4.70948E-03 9.94795E-01-2.85888E-14 3.92546E-13
 -1      2423 2.06103E+01-2.26049E-01 5.05650E-03 1.05299E+00-5.85512E-14 3.84349E-13
 -1      2424 1.97923E+01 1.87939E-01 8.61574E-03 9.91086E-01 1.32279E-13 2.36612E-13
 -1      2425 1.99512E+01 6.33544E-02-4.98556E-03 1.03832E+00 1.43879E-13 3.46521E-13
 -1      2426 2.04045E+01 1.88704E-02 3.84412E-03 1.16328E+00 1.14431E-13 2.32658E-13
 -1      2427 1.95181E+01 4.24377E-01 1.13085E-02 7.46419E-01 6.19940E-14 2.23100E-13
 -1      2428 1.96460E+01 3.06822E-01-2.93040E-03 8.86974E-01 8.16003E-14 1.89031E-13
 -1      2429 2.01424E+01 3.31195E-01 1.95489E-04 1.06766E+00 1.33474E-13 1.50854E-13
 -1      2430 1.93386E+01 5.83027E-01 1.01269E-02 3.21788E-01 8.68298E-14 1.65399E-13
 -1      2431 1.94056E+01 5.15910E-01 1.61796E-03 5.34344E-01 1.07457E-13 1.47991E-13
 -1      2432 1.98975E+01 6.21947E-01-4.65159E-03 7.33847E-01 9.09390E-14 9.62513E-15
 -1      2433 1.93155E+01 5.99504E-01 5.59232E-03-1.87564E-01 1.98665E-14 2.83278E-13
 -1      2434 1.93045E+01 6.10902E-01 7.09764E-03 4.69139E-02 1.36401E-14 2.50989E-13
 -1      2435 1.97582E+01 7.86702E-01-7.90262E-03 2.12048E-01 1.12889E-14 2.13581E-13
 -1      2436 1.94608E+01 4.66572E-01 1.14797E-04-6.48513E-01 1.93715E-13 2.70855E-13
 -1      2437 1.93747E+01 5.51611E-01 1.08702E-02-4.51853E-01 1.52909E-13 2.92262E-13
 -1      2438 1.97819E+01 7.58927E-01-7.36434E-03-3.67717E-01 5.78686E-14 2.03136E-13
 -1      2439 1.97276E+01 2.39612E-01-3.78666E-03-9.49125E-01 1.16468E-13 2.53351E-13
 -1      2440 1.95880E+01 3.63417E-01 1.09137E-02-8.33673E-01 2.57801E-13 2.38308E-13
 -1      2441 1.99587E+01 5.50304E-01-3.33883E-03-8.47928E-01 2.18920E-13 2.08143E-13
 -1      2442 2.00362E+01 1.56612E-03-5.12306E-03-1.04368E+00-4.27184E-14 1.69013E-13
 -1      2443 1.98743E+01 1.20775E-01 7.31307E-03-1.02147E+00 1.33794E-14 1.57924E-13
 -1      2444 2.02174E+01 2.43180E-01 1.33490E-03-1.11722E+00 1.03282E-13 1.59643E-13
 -1      2445 2.03120E+01-1.80379E-01-4.32601E-03-9.56237E-01-2.66694E-14 7.27307E-14
 -1      2446 2.01581E+01-9.66138E-02 2.01680E-03-1.01081E+00-6.63700E-14 9.96837E-14
 -1      2447 2.04700E+01-5.70370E-02 4.34773E-03-1.15073E+00 3.10770E-14 3.04233E-14
 -1      2448 2.05104E+01-2.77183E-01-2.58620E-03-7.52738E-01 6.91975E-14-9.57941E-14
 -1      2449 2.03855E+01-2.38825E-01-2.81420E-03-8.52812E-01 8.37700E-14 1.83130E-14
 -1      2450 2.06531E+01-2.73113E-01 5.00810E-03-9.97884E-01 1.05687E-13-7.19561E-14
 -1      2451 2.06202E+01-2.95291E-01-8.97085E-04-5.05885E-01-1.50214E-13 2.16647E-14
 -1      2452 2.05339E+01-2.95427E-01-5.86415E-03-6.19917E-01-6.37058E-14-6.02626E-14
 -1      2453 2.07444E+01-3.77514E-01 4.00793E-03-7.42391E-01 7.17850E-16-9.70043E-14
 -1      2454 2.06529E+01-2.59970E-01 2.78958E-04-2.71473E-01 4.06153E-14-9.98177E-14
 -1      2455 2.06052E+01-2.84189E-01-6.91159E-03-3.76422E-01-6.29995E-14-3.84140E-14
 -1      2456 2.07537E+01-3.84717E-01 2.46874E-03-4.63240E-01-7.09052E-14-2.15625E-13
 -1      2457 2.06293E+01-1.99012E-01 8.87085E-04-8.09711E-02 6.29391E-14-2.53480E-13
 -1      2458 2.06144E+01-2.33220E-01-6.45204E-03-1.64461E-01 9.61121E-14-1.84027E-13
 -1      2459 2.07056E+01-3.29281E-01 1.12072E-03-2.14214E-01 1.10959E-13-2.78184E-13
 -1      2460 2.05705E+01-1.33696E-01 1.06777E-03 5.50314E-02 2.32127E-13-3.78263E-13
 -1      2461 2.05802E+01-1.67860E-01-5.17536E-03-3.41241E-03 1.79244E-13-2.29969E-13
 -1      2462 2.06253E+01-2.46304E-01 1.93997E-04-2.14231E-02 1.64121E-13-2.31293E-13
 -1      2463 2.04936E+01-7.65082E-02 1.00601E-03 1.39498E-01 4.89304E-14-4.87092E-13
 -1      2464 2.05194E+01-1.05189E-01-3.64777E-03 1.04113E-01 1.89735E-13-3.58021E-13
 -1      2465 2.05322E+01-1.61424E-01-3.39840E-04 1.09869E-01 1.78684E-13-3.98967E-14
 -1      2466 2.04108E+01-3.25768E-02 8.45164E-04 1.82053E-01-8.09668E-14-4.40833E-13
 -1      2467 2.04455E+01-5.39014E-02-2.22605E-03 1.65102E-01-8.25181E-14-5.35419E-13
 -1      2468 2.04389E+01-8.89991E-02-5.95371E-04 1.86557E-01 2.75878E-14-3.34090E-13
 -1      2469 2.03301E+01-2.21648E-03 6.73909E-04 1.94099E-01-1.72001E-13-3.85526E-13
 -1      2470 2.03681E+01-1.65054E-02-1.08211E-03 1.90375E-01-1.06213E-13-4.38509E-13
 -1      2471 2.03524E+01-3.43719E-02-6.84268E-04 2.20659E-01-7.61927E-14-3.00018E-13
 -1      2472 2.02561E+01 1.67663E-02 5.37388E-04 1.86019E-01 8.83920E-14-4.97900E-13
 -1      2473 2.02936E+01 8.13128E-03-2.60622E-04 1.90901E-01-3.87590E-14-4.41049E-13
 -1      2474 2.02758E+01 2.80617E-03-6.84267E-04 2.24786E-01-6.54882E-14-3.32659E-13
 -1      2475 2.01913E+01 2.74613E-02 4.50716E-04 1.65936E-01-1.76237E-13-7.80363E-14
 -1      2476 2.02256E+01 2.27981E-02 2.66289E-04 1.75885E-01 2.66401E-15-3.37059E-13
 -1      2477 2.02102E+01 2.57333E-02-6.38712E-04 2.09772E-01-5.89199E-14-2.70876E-13
 -1      2478 2.01364E+01 3.29423E-02 4.00620E-04 1.39497E-01-1.35183E-13 2.14774E-14
 -1      2479 2.01662E+01 3.06602E-02 5.52041E-04 1.52125E-01-1.89331E-13-2.94536E-14
 -1      2480 2.01552E+01 3.84467E-02-5.92785E-04 1.83845E-01-2.65005E-13-1.30623E-13
 -1      2481 2.00913E+01 3.58137E-02 4.08745E-04 1.10188E-01-3.67555E-14 2.19564E-13
 -1      2482 2.01159E+01 3.46325E-02 6.73838E-04 1.24060E-01 1.61470E-15 2.09694E-13
 -1      2483 2.01099E+01 4.48663E-02-5.48790E-04 1.52520E-01-1.49266E-13 6.69764E-15
 -1      2484 2.00552E+01 3.75894E-02 6.05574E-04 8.00472E-02-8.84078E-14 1.24752E-13
 -1      2485 2.00748E+01 3.68508E-02 7.48009E-04 9.40020E-02-1.28376E-13 1.46586E-13
 -1      2486 2.00728E+01 4.82945E-02-4.48913E-04 1.18940E-01-6.19102E-14 3.23388E-13
 -1      2487 2.00349E+01 4.52035E-02 4.16678E-04 6.50217E-02-3.83177E-14 2.29101E-13
 -1      2488 1.99829E+01 1.70228E-01-7.25896E-04 9.41344E-02-2.01263E-13 8.38293E-14
 -1      2489 1.99915E+01 1.52902E-01 3.54999E-04 9.88185E-02-4.19945E-13 1.45329E-13
 -1      2490 1.99999E+01 1.32906E-01-4.57257E-04 1.00930E-01-4.46335E-13-1.17968E-13
 -1      2491 2.00084E+01 1.14913E-01 5.59952E-04 9.93356E-02-3.12079E-13-1.87543E-13
 -1      2492 1.99942E+01 1.43649E-01 9.75798E-05 1.16898E-01-3.76946E-13-5.08088E-15
 -1      2493 2.00161E+01 9.50637E-02-2.47133E-04 9.50568E-02-2.94794E-13-2.23278E-13
 -1      2494 2.00240E+01 7.71814E-02 6.44855E-04 8.81064E-02-2.13877E-13 9.27857E-14
 -1      2495 2.00147E+01 1.05094E-01-2.63180E-04 1.13982E-01-3.13695E-13-3.39953E-13
 -1      2496 4.28023E+00-2.88875E+00 4.41143E-02 4.49338E+00-2.48884E-13 8.70415E-14
 -1      2497 2.92775E+00-3.00999E+00 7.71814E-02 2.31774E+00-1.72452E-13 3.24685E-13
 -1      2498 1.99675E+01 2.03375E-01-8.91641E-04 7.46418E-02-1.97089E-13-6.06666E-13
 -1      2499 1.99752E+01 1.88980E-01 1.46922E-04 8.51263E-02-1.09113E-13-3.96835E-13
 -1      2500 1.99724E+01 1.81118E-01 2.83945E-04 1.05002E-01-4.19636E-13-1.36597E-13
 -1      2501 1.99555E+01 2.28288E-01-9.59664E-04 4.40151E-02-3.31512E-13-2.02758E-13
 -1      2502 1.99612E+01 2.18715E-01-1.04806E-04 5.92917E-02-1.83039E-13-5.74185E-13
 -1      2503 1.99531E+01 2.14118E-01 5.01700E-04 7.91189E-02-2.83933E-13-5.11819E-13
 -1      2504 1.99490E+01 2.41419E-01-8.91785E-04 5.51566E-03-4.87954E-13-9.32118E-15
 -1      2505 1.99516E+01 2.38136E-01-3.81657E-04 2.37935E-02-4.18955E-13 3.85547E-14
 -1      2506 1.99391E+01 2.38565E-01 7.35301E-04 4.11633E-02-3.37931E-13-1.60521E-13
 -1      2507 1.99500E+01 2.40183E-01-6.73011E-04-3.58997E-02-4.65319E-13-3.96406E-13
 -1      2508 1.99485E+01 2.43981E-01-6.49355E-04-1.71411E-02-5.65737E-13-1.13016E-13
 -1      2509 1.99329E+01 2.50710E-01 9.17448E-04-4.76713E-03-5.04682E-13-1.71763E-13
 -1      2510 1.99593E+01 2.24031E-01-3.01504E-04-7.33525E-02-2.95745E-13-3.24927E-13
 -1      2511 1.99534E+01 2.34465E-01-8.81130E-04-5.73767E-02-3.16089E-13-7.22246E-13
 -1      2512 1.99368E+01 2.47828E-01 1.00794E-03-5.22646E-02-2.61975E-13-4.04418E-13
 -1      2513 1.99771E+01 1.93478E-01 1.63747E-04-1.01403E-01-4.23063E-14 5.65912E-13
 -1      2514 1.99670E+01 2.09780E-01-1.01599E-03-9.07107E-02-1.55336E-13 2.05621E-13
 -1      2515 1.99519E+01 2.28885E-01 9.57196E-04-9.43694E-02 1.35546E-14 1.33426E-13
 -1      2516 2.00011E+01 1.51942E-01 5.62617E-04-1.13409E-01-1.24443E-13 3.23466E-13
 -1      2517 1.99882E+01 1.71980E-01-1.02232E-03-1.10737E-01-1.34835E-13 6.91585E-13
 -1      2518 1.99773E+01 1.94697E-01 7.54309E-04-1.23761E-01-1.96686E-14 5.61519E-13
 -1      2519 2.00264E+01 1.04568E-01 7.74640E-04-1.06018E-01-2.03829E-13 3.71083E-13
 -1      2520 2.00138E+01 1.26029E-01-7.50712E-04-1.12550E-01-1.55592E-13 2.26742E-13
 -1      2521 2.00090E+01 1.49288E-01 3.91287E-04-1.33667E-01-1.56170E-13 3.51907E-13
 -1      2522 2.05425E+01 1.95579E+00-1.38752E-02-1.90056E+00-2.34819E-13-6.02886E-14
 -1      2523 2.04083E+01 1.21788E+00-5.65649E-03-1.28581E+00-2.17307E-13-4.71361E-14
 -1      2524 2.03707E+01 1.37364E+00 3.00232E-03-1.22742E+00-2.05075E-13-1.11447E-13
 -1      2525 2.02853E+01 2.36683E+00-7.50320E-03-1.82597E+00-2.21381E-13-1.36096E-13
 -1      2526 1.89038E+01-5.16517E+00-8.35932E-03 7.50645E+00-3.82028E-13 8.71150E-13
 -1      2527 1.56588E+01-5.07076E+00 8.45427E-02 7.58196E+00-3.37508E-13 8.69756E-13
 -1      2528 2.62166E+01-4.02749E+00-9.20948E-02 4.92864E+00-1.43718E-13 6.09207E-13
 -1      2529 2.23944E+01-4.98776E+00 2.19577E-02 6.15160E+00-3.55882E-13 7.52801E-13
 -1      2530 7.17577E+00-3.95791E+00 7.05792E-02-4.74891E+00 4.04121E-14 6.25611E-14
 -1      2531 1.01656E+01-5.02892E+00-1.06469E-02-5.94971E+00-1.40443E-14 4.30211E-14
 -1      2532 3.09325E+01 1.29736E-01-6.93648E-02-1.17777E+00 2.66814E-13 1.54321E-13
 -1      2533 3.26830E+01 2.29748E+00-1.13262E-01-4.15727E-01 3.88620E-13 2.04559E-13
 -1      2534 2.70045E+00-2.97287E+00 4.60561E-02-2.67259E-02 2.22981E-14 1.60982E-13
 -1      2535 4.36849E+00-2.90376E+00 1.00286E-01-2.68237E+00 1.14408E-13 5.32352E-14
 -1      2536 4.70930E+00-1.38435E+00 1.67937E-01 8.65356E-01 1.01766E-13 4.81837E-14
 -1      2537 1.95267E+01 3.59043E+00-1.01274E-02-2.44465E-01 2.42369E-14-3.09286E-13
 -1      2538 1.95426E+01 3.56953E+00-9.69181E-03-4.24874E-01-9.09201E-15-3.11138E-13
 -1      2539 1.97185E+01 3.17013E+00-5.64262E-04-4.71694E-01-1.70553E-14-2.92221E-13
 -1      2540 1.96846E+01 3.23063E+00-8.67649E-04-1.51260E-01 2.50111E-14-2.93106E-13
 -1      2541 3.34574E+01 7.67436E+00-1.61962E-01-4.89444E-01 8.09131E-13 2.39392E-14
 -1      2542 3.32154E+01 6.61898E+00-1.16925E-01-6.77240E-01 6.00409E-13 1.08191E-13
 -1      2543 3.00346E+00-2.67927E+00 1.00255E-01 1.53822E-01-1.36141E-14-7.09155E-13
 -1      2544 3.39906E+00-2.28171E+00 1.06702E-01-2.25138E+00 1.70350E-14-6.19615E-13
 -1      2545 3.31612E+01 4.43064E+00-1.54304E-01-4.20343E-01 3.26489E-13 1.69087E-13
 -1      2546 3.23175E+01 2.41555E+00-6.85515E-02 2.35970E-01 2.32286E-13 2.02338E-13
 -1      2547 3.26103E+01 7.93551E+00-1.75624E-01 3.21924E-01 6.77070E-13-4.78922E-14
 -1      2548 3.34799E+01 8.22855E+00-1.10678E-01-1.04198E-01 8.02025E-13 1.15220E-14
 -1      2549 3.08807E+01 7.67642E+00-7.88961E-02-5.21547E-01 7.78710E-13 2.35437E-14
 -1      2550 3.31278E+01 4.66813E+00-5.85136E-02 4.48989E-01 4.52666E-13 1.63758E-14
 -1      2551 3.28454E+01 6.41156E+00-1.84828E-01 9.00376E-01 4.29545E-13-1.03972E-13
 -1      2552 3.13301E+01 3.09030E+00-3.08790E-02 1.02108E+00 2.71561E-13 1.95038E-13
 -1      2553 2.71402E+01-3.62139E+00 1.35643E-02-3.84327E+00 3.30388E-13 2.63900E-13
 -1      2554 2.92794E+01-2.33572E+00-1.06445E-01-2.76085E+00 2.92190E-13 1.97287E-13
 -1      2555 1.93901E+01-5.26020E+00 5.31006E-02-7.01296E+00 2.62346E-13 1.77428E-14
 -1      2556 2.38166E+01-4.69552E+00-6.67734E-02-6.04677E+00 2.92100E-13 2.48440E-13
 -1      2557 1.17015E+01-4.68119E+00 8.05900E-02-7.46958E+00 6.95555E-14-4.04954E-13
 -1      2558 1.50557E+01-4.98132E+00-1.65381E-02-7.95616E+00 1.30562E-13-2.92613E-13
 -1      2559 5.18077E+00-3.06789E+00 1.08404E-01-4.97751E+00 6.93334E-14-5.33185E-13
 -1      2560 8.00490E+00-3.86901E+00 4.44095E-02-6.81601E+00 9.10105E-14-5.12701E-13
 -1      2561 5.70419E+00-3.73735E+00 4.10615E-02 4.17614E+00 1.03084E-13-6.55032E-13
 -1      2562 3.67779E+00-3.24024E+00 5.82446E-02 2.15043E+00 1.03778E-13-5.58054E-13
 -1      2563 1.35800E+01-5.42534E+00-6.89009E-03 6.43830E+00 1.66200E-13-7.42906E-13
 -1      2564 9.37966E+00-4.66299E+00 5.55180E-02 5.44454E+00 2.32231E-13-7.77128E-13
 -1      2565 2.28828E+01-6.24519E+00-5.41184E-02 5.29978E+00 1.21680E-13-2.44624E-13
 -1      2566 1.82253E+01-6.16178E+00-2.40466E-03 5.76691E+00 1.53766E-13-4.87159E-13
 -1      2567 3.09415E+01-4.78244E+00-9.37136E-02 1.74456E+00 1.82077E-14 5.12923E-14
 -1      2568 2.68851E+01-5.82201E+00-5.24078E-02 3.18351E+00 1.55820E-13-7.82707E-14
 -1      2569 2.51374E+01-6.01150E+00 8.86566E-03-3.78287E+00-4.88498E-15-2.34174E-13
 -1      2570 2.98863E+01-5.56344E+00-5.64652E-02-1.99913E+00-2.20379E-14-4.30794E-13
 -1      2571 1.42380E+01-5.70992E+00-1.40539E-02-6.01657E+00 2.83662E-14 6.70158E-14
 -1      2572 1.91643E+01-5.89699E+00-1.82784E-02-5.85941E+00 8.40994E-14 1.12757E-13
 -1      2573 1.44013E+01-4.35092E+00 1.31812E-01-5.96187E+00 1.13520E-13 1.71252E-14
 -1      2574 2.00356E+01 5.83562E-02-3.20258E-04 8.56280E-02-8.57381E-14 2.70087E-13
 -1      2575 3.55897E+01 1.60900E+00 5.57516E-02 2.78578E+00-4.82503E-13-5.21805E-13
 -1      2576 3.41169E+01-2.53590E+00-1.55837E-01 2.32611E+00-3.32409E-13-6.88893E-13
 -1      2577 1.99168E+01 2.81798E+00 1.48646E-03-1.09722E+00-1.43536E-13-2.80774E-13
 -1      2578 1.97861E+01 3.16447E+00-1.46535E-02-1.28449E+00-1.46863E-13-3.02070E-13
 -1      2579 1.98811E+01 3.02707E+00-1.73591E-02-1.47391E+00-1.72421E-13-2.70019E-13
 -1      2580 2.03254E+01 5.90638E-01 9.14267E-03 8.70203E-01 1.95058E-13 2.52674E-13
 -1      2581 2.03880E+01 8.36629E-01 6.80682E-03 1.04614E+00 2.22463E-13 1.77909E-13
 -1      2582 2.01561E+01 4.89576E-01 7.94727E-03 6.61077E-01 1.79105E-13 2.12642E-13
 -1      2583 3.23490E+01-3.84609E+00-7.62272E-02 3.01196E-02-1.90889E-13-5.14311E-13
 -1      2584 2.60823E+01-5.03107E+00-6.30509E-02-2.84094E+00 2.02366E-13-3.10175E-13
 -1      2585 1.99880E+01 2.84098E+00-1.49912E-02-1.58480E+00-1.85260E-13-2.42011E-13
 -1      2586 2.01318E+01 2.61300E+00-2.25122E-02-1.75104E+00-2.16781E-13-2.02664E-13
 -1      2587 2.02854E+01 2.05367E+00 4.21823E-03-1.48509E+00-2.09084E-13-1.69401E-13
 -1      2588 2.00882E+01 2.49680E+00 4.11498E-03-1.34069E+00-1.76510E-13-2.28609E-13
 -1      2589 2.78026E+01-3.45203E+00 2.34677E-02 3.03479E+00-1.29341E-13 5.55028E-13
 -1      2590 7.72550E+00-2.26149E+00 1.69954E-01 5.43595E+00-3.76643E-14 2.42029E-13
 -1      2591 3.12642E+01 5.12067E+00-5.71130E-02-1.28993E+00 4.21801E-13-3.63598E-15
 -1      2592 2.96884E+01 5.86450E+00-1.25398E-01 1.36135E+00 3.44863E-13 1.15172E-13
 -1      2593 3.15111E+01 7.06032E+00-1.03163E-01 9.02831E-01 4.89275E-13 6.55309E-14
 -1      2594 2.93123E+01 7.21324E+00-1.68773E-01 7.93667E-01 6.75598E-13 2.34396E-13
 -1      2595 3.68779E+01 3.32682E+00-6.66338E-02 3.00519E+00-4.83835E-13-5.48506E-13
 -1      2596 1.99994E+01 3.66723E-01 8.33104E-03 3.90448E-01 1.41222E-13 1.27955E-13
 -1      2597 2.00927E+01 4.34220E-01 1.17226E-02 5.33551E-01 1.63604E-13 1.84808E-13
 -1      2598 2.01819E+01 5.66954E-01-3.12784E-03 6.50673E-01 1.78873E-13 1.26557E-13
 -1      2599 2.00837E+01 4.39956E-01-5.42535E-03 4.03765E-01 1.41179E-13 5.89229E-14
 -1      2600 2.00420E+01 6.80336E-02 1.84472E-04 1.06061E-01-9.91345E-14 8.02812E-14
 -1      2601 2.20313E+01-5.13772E+00 8.36292E-02 6.20496E+00-2.96485E-13 7.94136E-13
 -1      2602 3.76652E+01 5.42072E+00 8.70810E-02 1.53818E+00-5.58775E-13-2.68396E-13
 -1      2603 2.97386E+01-1.51776E+00-2.78429E-02-8.97989E-01 2.22823E-13 3.29237E-13
 -1      2604 2.25511E+01-5.47711E+00 6.05331E-02-4.88866E+00 2.26930E-13-6.36036E-14
 -1      2605 2.59744E+01-5.97331E+00-9.67005E-03 3.48319E+00 2.82885E-13 6.16729E-14
 -1      2606 1.76301E+01-5.18253E+00 5.54590E-02 5.89314E+00 2.87909E-13-4.37900E-13
 -1      2607 9.61348E+00-3.07634E+00 1.34029E-01 4.95950E+00 2.12941E-13-6.69326E-13
 -1      2608 5.44197E+00-1.82970E+00 1.58593E-01-3.65846E+00-1.25039E-14-5.55694E-13
 -1      2609 7.65598E+00-1.35409E+00 6.12699E-02-4.81250E+00-5.92720E-14-5.08871E-13
 -1      2610 6.27128E+00-3.59005E-01 1.84013E-01-2.30326E+00-6.13468E-14-6.29968E-13
 -1      2611 1.13641E+01-3.49656E+00 1.48858E-01-7.08772E+00 1.50713E-14-4.00346E-13
 -1      2612 1.87857E+01-4.97451E+00 1.09729E-01-7.11502E+00 1.01974E-13 1.83742E-14
 -1      2613 6.95820E+00-2.62237E+00 1.32516E-01-3.83451E+00 1.13159E-13 1.04083E-13
 -1      2614 9.67759E+00-2.29627E+00 4.55764E-02-4.82130E+00 1.51004E-13 1.34920E-13
 -1      2615 7.25481E+00-1.02104E+00 1.88401E-01-2.95277E+00 2.78361E-13 9.08162E-14
 -1      2616 1.47945E+01-4.26059E+00 1.05989E-01 7.45024E+00-2.73087E-13 8.33125E-13
 -1      2617 3.08818E+01 7.20373E-01-1.69660E-02-1.45048E-01 6.66134E-14 7.35523E-14
 -1      2618 5.26547E+00-1.43960E+00 1.58899E-01 1.27629E+00 4.37428E-14-5.32574E-13
 -1      2619 2.56563E+01-4.55479E+00 5.00749E-02-4.39104E+00 2.63567E-13 2.37282E-13
 -1      2620 3.53410E+01-8.35644E-01-2.02037E-01-2.78682E+00-2.70825E-13 7.04992E-14
 -1      2621 3.63430E+01 3.30517E+00 1.00201E-01-2.62005E+00-3.07254E-13 5.12368E-14
 -1      2622 3.51203E+01-1.25850E+00-1.11892E-01-2.07813E+00-2.25556E-13 1.33005E-13
 -1      2623 3.32802E+01-3.05887E+00-3.05324E-02-3.75319E-01-1.00933E-13-3.49720E-15
 -1      2624 3.80494E+01 6.25912E+00 3.71827E-03 6.18881E-01-6.24056E-13-1.86386E-13
 -1      2625 2.00396E+01 7.72977E-02-2.02689E-04-9.56058E-02-1.43500E-13 6.05715E-13
 -1      2626 2.00422E+01 9.69924E-02-1.30527E-04-1.22198E-01-1.05041E-14 4.25585E-13
 -1      2627 3.35409E+01-1.71053E+00 8.77597E-02-2.80106E+00-1.16462E-13 2.38920E-13
 -1      2628 3.19024E+01-4.30875E+00 1.20479E-02-3.67869E-01 1.41803E-13 1.66339E-13
 -1      2629 2.84138E+01-2.94817E+00-1.61547E-01 1.50909E+00-7.19737E-15 3.23103E-13
 -1      2630 2.63425E+01-4.24925E+00 5.83993E-02 3.28262E+00-1.24872E-13 5.88848E-13
 -1      2631 1.98510E+01 2.77311E+00-6.30538E-03 5.14242E-01 1.25325E-13-2.36740E-13
 -1      2632 1.98264E+01 2.82318E+00-5.75032E-03 3.63930E-01 9.65104E-14-2.40918E-13
 -1      2633 1.98097E+01 2.86108E+00-5.63654E-03 2.29137E-01 7.00541E-14-2.63422E-13
 -1      2634 1.98013E+01 2.87808E+00-5.46327E-03 7.51426E-02 5.11080E-14-2.77628E-13
 -1      2635 1.99556E+01 2.51164E+00 3.70821E-03 2.63895E-01 7.54894E-14-2.37243E-13
 -1      2636 2.00473E+01 2.32871E+00-1.09323E-02 1.04256E+00 2.15591E-13-1.34662E-13
 -1      2637 1.99838E+01 2.47903E+00-6.39773E-03 9.07312E-01 1.85284E-13-1.58058E-13
 -1      2638 2.02077E+01 1.91735E+00-1.64837E-02 1.23121E+00 2.41798E-13-6.55359E-14
 -1      2639 2.01275E+01 2.15056E+00-4.81048E-03 1.12890E+00 2.18608E-13-1.01996E-13
 -1      2640 2.01932E+01 1.89688E+00 7.80966E-03 9.23793E-01 2.01342E-13-1.02484E-13
 -1      2641 2.04398E+01 1.01413E+00 2.22672E-03 1.15251E+00 2.26201E-13 1.12740E-13
 -1      2642 2.03979E+01 1.27612E+00-7.16928E-03 1.26476E+00 2.43891E-13 4.80106E-14
 -1      2643 2.03107E+01 8.47939E-01 6.16641E-03 8.96729E-01 2.05895E-13 8.73596E-14
 -1      2644 2.00558E+01 1.06369E-01 4.95731E-04-1.45935E-01 9.24172E-14 2.82073E-13
 -1      2645 2.65586E+01-5.64943E+00-1.07927E-01 2.91575E+00 3.44419E-13 2.46289E-13
 -1      2646 3.03228E+01-4.67246E+00 1.02178E-01 1.95130E-01 2.71679E-13 1.18572E-13
 -1      2647 2.02157E+01 6.33025E-01 7.06613E-03-4.31477E-01-1.36141E-13-1.16566E-13
 -1      2648 2.01361E+01 4.82823E-01-3.03838E-03-2.69864E-01-1.45229E-13-1.12472E-13
 -1      2649 2.01089E+01 3.64808E-01 6.39498E-03-1.42957E-01-1.43946E-13-7.75597E-14
 -1      2650 2.00501E+01 2.69489E-01-1.77218E-03-3.90788E-02-1.25062E-13-8.28353E-14
 -1      2651 2.01990E+01 5.31333E-01-1.75606E-03-2.45798E-01-1.32705E-13-1.09161E-13
 -1      2652 2.00260E+01 2.03797E-01 4.45771E-03 3.73399E-02-1.20626E-13-5.62166E-14
 -1      2653 1.99942E+01 1.48141E-01-5.80120E-04 9.64152E-02-1.12491E-13-6.07090E-14
 -1      2654 2.01308E+01 3.03577E-01-2.29796E-03-3.07990E-02-1.11043E-13-7.09681E-14
 -1      2655 1.99752E+01 1.08042E-01 2.75232E-03 1.43383E-01-1.01716E-13-6.25759E-14
 -1      2656 1.99621E+01 7.54059E-02 6.12513E-05 1.77482E-01-8.65292E-14-8.72259E-14
 -1      2657 2.00783E+01 1.67484E-01-2.05484E-03 1.01973E-01-1.18566E-13-4.38298E-14
 -1      2658 1.99494E+01 5.26577E-02 1.55535E-03 2.05049E-01-6.95069E-14-9.16833E-14
 -1      2659 1.99499E+01 3.55784E-02 4.66951E-04 2.24257E-01-6.01989E-14-8.12280E-14
 -1      2660 2.00421E+01 8.63696E-02-1.65288E-03 1.83139E-01-8.54216E-14-6.24787E-14
 -1      2661 1.99426E+01 2.49999E-02 6.94590E-04 2.40408E-01-5.46087E-14-6.14302E-14
 -1      2662 1.99529E+01 1.91591E-02 7.69879E-04 2.51926E-01-5.87185E-14-4.06291E-14
 -1      2663 2.00205E+01 4.30364E-02-1.25309E-03 2.31612E-01-6.24476E-14-4.00599E-14
 -1      2664 1.99497E+01 1.76754E-02 6.37974E-05 2.62784E-01-9.89244E-14-2.58039E-14
 -1      2665 1.99670E+01 2.05632E-02 1.03556E-03 2.72024E-01-8.89219E-14-5.45439E-14
 -1      2666 2.00104E+01 2.70384E-02-9.06928E-04 2.62029E-01-6.41121E-14-3.35276E-14
 -1      2667 1.99665E+01 2.64843E-02-4.23488E-04 2.82380E-01-8.65187E-14-4.36807E-14
 -1      2668 1.99894E+01 3.68543E-02 1.36324E-03 2.93653E-01-1.02559E-13-4.90901E-14
 -1      2669 2.00086E+01 3.22364E-02-6.08821E-04 2.85724E-01-8.45759E-14 1.53390E-14
 -1      2670 1.99902E+01 5.02880E-02-8.60424E-04 3.08153E-01-8.93616E-14-4.18660E-14
 -1      2671 2.00187E+01 6.89473E-02 1.69572E-03 3.26417E-01-4.73485E-14-3.27312E-14
 -1      2672 2.00119E+01 5.62447E-02-3.92642E-04 3.12489E-01-9.47044E-14 5.94230E-15
 -1      2673 2.00183E+01 8.88623E-02-1.30378E-03 3.47489E-01-4.25702E-14-4.84501E-14
 -1      2674 2.00498E+01 1.14728E-01 2.01924E-03 3.74490E-01-5.92101E-14-1.81492E-14
 -1      2675 2.00171E+01 9.84583E-02 2.51480E-06 3.49676E-01-5.90754E-14-2.46386E-14
 -1      2676 2.00460E+01 1.42663E-01-1.84026E-03 4.05906E-01-5.99490E-14 2.72352E-14
 -1      2677 2.00810E+01 1.78092E-01 2.47234E-03 4.46258E-01-1.00913E-13 5.40199E-14
 -1      2678 2.00194E+01 1.58545E-01 4.32122E-04 4.03031E-01-3.34379E-14 5.88535E-15
 -1      2679 2.00697E+01 2.15970E-01-2.55453E-03 4.91402E-01-1.22450E-13 1.53463E-13
 -1      2680 2.01072E+01 2.63436E-01 2.99006E-03 5.49407E-01-6.11627E-14 1.51772E-13
 -1      2681 2.00128E+01 2.40798E-01 1.07163E-03 4.79725E-01-2.13285E-14 1.28427E-13
 -1      2682 2.00822E+01 3.13963E-01-3.55418E-03 6.11946E-01-1.75841E-14 1.96527E-13
 -1      2683 2.01199E+01 3.76660E-01 3.55142E-03 6.92557E-01 4.70546E-14 2.32335E-13
 -1      2684 1.99882E+01 3.50608E-01 2.06307E-03 5.86275E-01-2.66463E-14 2.68285E-13
 -1      2685 2.00720E+01 4.42953E-01-4.96403E-03 7.76504E-01-4.00179E-15 1.83297E-13
 -1      2686 2.01057E+01 5.24178E-01 4.11567E-03 8.85269E-01-1.98166E-14 1.15972E-13
 -1      2687 1.99312E+01 4.94761E-01 3.59786E-03 7.29374E-01 1.54402E-14 2.36552E-13
 -1      2688 2.00211E+01 6.08502E-01-7.00324E-03 9.95041E-01 2.40933E-14 1.42620E-13
 -1      2689 2.00450E+01 7.10083E-01 4.78989E-03 1.13758E+00 8.05181E-14 7.50900E-14
 -1      2690 1.98205E+01 6.80037E-01 5.93952E-03 9.15773E-01 1.58376E-14 2.80651E-13
 -1      2691 1.98979E+01 8.18270E-01-9.45860E-03 1.28510E+00 6.72960E-14 1.41613E-14
 -1      2692 1.98972E+01 9.40955E-01 5.47494E-03 1.47759E+00 8.74329E-14-3.88190E-14
 -1      2693 1.96173E+01 9.13695E-01 8.65752E-03 1.15954E+00 1.49839E-14 2.11713E-13
 -1      2694 1.96713E+01 1.04980E+00-1.30227E-02 1.65626E+00 1.40418E-13-3.62115E-14
 -1      2695 1.96408E+01 1.16442E+00 5.98383E-03 1.88142E+00 1.39016E-13-1.32617E-14
 -1      2696 1.92811E+01 1.18394E+00 1.38326E-02 1.46163E+00 1.20679E-13 1.18882E-13
 -1      2697 1.93094E+01 1.24750E+00-1.64375E-02 2.10692E+00 4.65195E-14 2.28853E-15
 -1      2698 1.92524E+01 1.31047E+00 1.00086E-02 2.37203E+00-1.40159E-14-4.95544E-14
 -1      2699 1.87689E+01 1.43761E+00 1.94586E-02 1.82738E+00 9.35078E-14 1.45337E-14
 -1      2700 1.87977E+01 1.29357E+00-1.66270E-02 2.66498E+00-4.29890E-14-6.35451E-14
 -1      2701 1.87587E+01 1.19873E+00 2.18571E-02 2.96590E+00-2.60407E-14-1.16426E-13
 -1      2702 1.80270E+01 1.57987E+00 2.76284E-02 2.29074E+00-6.32090E-15-1.01908E-13
 -1      2703 1.81960E+01 9.58138E-01-2.59285E-03 3.36697E+00 8.93469E-15-1.16598E-13
 -1      2704 1.83080E+01 4.95526E-01 5.09605E-02 3.71007E+00 1.00233E-13-1.37685E-13
 -1      2705 1.70363E+01 1.40647E+00 4.15366E-02 2.91791E+00-4.84491E-14-1.89297E-13
 -1      2706 1.78031E+01-2.02943E-01 5.98923E-02 4.26030E+00 1.72674E-13-1.92492E-13
 -1      2707 1.82996E+01-1.32404E+00 1.04472E-01 4.60551E+00 1.96433E-13-2.36478E-13
 -1      2708 1.58378E+01 4.32601E-01 2.20204E-02 3.87777E+00 6.89171E-14-3.21364E-13
 -1      2709 2.00354E+01 8.56283E-02 6.14680E-05 1.28420E-01-2.39469E-13-3.49763E-13
 -1      2710 2.00519E+01 6.80817E-02 2.35372E-04 1.24843E-01-1.12170E-13 4.83265E-14
 -1      2711 2.00691E+01 6.67902E-02 6.38680E-04 1.42425E-01-2.16363E-13-7.64526E-14
 -1      2712 1.89879E+01-3.51830E-01 6.88869E-02-4.10847E+00 1.06724E-13-3.06854E-13
 -1      2713 1.85927E+01 4.29779E-01 3.04658E-02-3.82701E+00 1.20700E-13-3.54411E-13
 -1      2714 1.90298E+01 8.62361E-01 3.28046E-02-3.35937E+00 1.37754E-13-4.06454E-13
 -1      2715 1.89493E+01 1.10961E+00-1.03690E-02-3.05580E+00 2.70920E-15-3.29154E-13
 -1      2716 1.70679E+01 9.53609E-01 5.40346E-02-3.49930E+00 4.75141E-14-3.18898E-13
 -1      2717 1.93894E+01 1.23027E+00 1.55551E-02-2.70414E+00-4.00886E-14-3.41725E-13
 -1      2718 1.93913E+01 1.23531E+00-1.53963E-02-2.41673E+00 3.55033E-14-4.25788E-13
 -1      2719 1.79472E+01 1.46320E+00 2.68401E-02-2.69882E+00-3.28064E-14-4.46351E-13
 -1      2720 1.97364E+01 1.19516E+00 8.57054E-03-2.14738E+00 9.57034E-14-4.27006E-13
 -1      2721 1.97405E+01 1.10552E+00-1.34858E-02-1.89320E+00 4.66861E-14-3.32139E-13
 -1      2722 1.87058E+01 1.46845E+00 1.94519E-02-2.12864E+00 7.47260E-14-3.56335E-13
 -1      2723 1.99833E+01 1.00967E+00 6.69228E-03-1.67891E+00 6.26400E-14-3.17197E-13
 -1      2724 1.99675E+01 8.96904E-01-1.02683E-02-1.46626E+00 7.88557E-15-3.29558E-13
 -1      2725 1.92528E+01 1.27010E+00 1.44661E-02-1.68345E+00 8.76134E-14-1.89259E-13
 -1      2726 2.01250E+01 7.95163E-01 5.73731E-03-1.29494E+00-8.97607E-14-1.81551E-13
 -1      2727 2.00918E+01 6.91031E-01-7.67033E-03-1.12376E+00-1.45023E-13-3.08386E-14
 -1      2728 1.96143E+01 1.01812E+00 1.01411E-02-1.32357E+00 1.09010E-13-9.14990E-14
 -1      2729 2.01902E+01 5.98563E-01 4.95695E-03-9.80802E-01-1.13364E-13 3.40599E-13
 -1      2730 2.01473E+01 5.10249E-01-5.37864E-03-8.41739E-01-1.70218E-14 3.34219E-13
 -1      2731 1.98400E+01 7.77633E-01 6.82624E-03-1.02456E+00 5.29753E-14 4.58446E-13
 -1      2732 2.02009E+01 4.41641E-01 4.24037E-03-7.36208E-01-5.39033E-15 2.71807E-13
 -1      2733 2.01579E+01 3.76839E-01-3.58486E-03-6.34653E-01 3.27294E-15 3.78927E-13
 -1      2734 1.99662E+01 5.78898E-01 3.96466E-03-7.84869E-01-1.08832E-15 5.44649E-13
 -1      2735 2.01850E+01 3.25187E-01 3.47997E-03-5.52477E-01-1.90138E-14 3.33729E-13
 -1      2736 2.01451E+01 2.77078E-01-2.43451E-03-4.75348E-01 1.03619E-13 3.31888E-13
 -1      2737 2.00285E+01 4.29057E-01 2.25063E-03-5.99973E-01 4.22717E-14 3.77481E-13
 -1      2738 2.01566E+01 2.39504E-01 2.76366E-03-4.11830E-01 1.76376E-13 2.79459E-13
 -1      2739 2.01218E+01 2.04885E-01-1.62524E-03-3.53343E-01 1.65872E-13 2.15264E-13
 -1      2740 2.00545E+01 3.17249E-01 1.19144E-03-4.54814E-01 8.38321E-14 3.79065E-13
 -1      2741 2.01244E+01 1.78347E-01 2.13575E-03-3.04248E-01 6.82971E-14 2.24887E-13
 -1      2742 2.00953E+01 1.54357E-01-9.99420E-04-2.59670E-01-1.30612E-13 1.85157E-13
 -1      2743 2.00598E+01 2.36159E-01 5.20235E-04-3.41404E-01 8.40451E-14 4.68578E-13
 -1      2744 2.00926E+01 1.36434E-01 1.61800E-03-2.21210E-01-3.07225E-13 1.95287E-13
 -1      2745 2.00684E+01 1.20650E-01-5.26554E-04-1.86346E-01-9.30555E-14 2.91818E-13
 -1      2746 2.00537E+01 1.79877E-01 2.49571E-04-2.52938E-01-1.03255E-13 3.04135E-13
 -1      2747 1.99911E+01 2.00118E-01-8.25640E-04-2.64970E-02 1.40012E-13 3.79148E-15
 -1      2748 2.00371E+01 2.70801E-01 5.88516E-03 5.21412E-02 1.40752E-13 2.87980E-15
 -1      2749 1.99444E+01 1.05610E-01-1.50843E-04-1.35472E-01 1.05502E-13 1.95449E-14
 -1      2750 1.99669E+01 1.48604E-01 3.77263E-03-8.94901E-02 1.30245E-13 2.24481E-14
 -1      2751 2.00791E+01 2.27534E-01-2.28866E-03-3.25762E-02 1.33277E-13-6.17199E-14
 -1      2752 2.00675E+01 3.55344E-01-1.73286E-03 1.53406E-01 1.32279E-13-5.78144E-15
 -1      2753 2.01431E+01 4.67876E-01 7.95336E-03 2.82028E-01 1.29025E-13-3.70144E-15
 -1      2754 2.01451E+01 4.01707E-01-2.29992E-03 1.42527E-01 1.42190E-13-3.76354E-14
 -1      2755 1.99197E+01 1.85221E-02 5.16105E-04-2.31809E-01 6.09043E-14-3.01666E-14
 -1      2756 1.99132E+01 3.18581E-02 1.22801E-03-2.18753E-01 7.63625E-14 4.40386E-14
 -1      2757 1.99308E+01 4.42290E-03 6.76451E-04-2.49229E-01 4.31742E-14-4.16760E-14
 -1      2758 1.99162E+01 9.87196E-03 5.27341E-04-2.42801E-01 3.24810E-14-4.43253E-14
 -1      2759 1.99900E+01 2.21393E-02-1.14595E-03-2.40385E-01 6.69585E-14 3.43604E-14
 -1      2760 1.99522E+01 1.26384E-03 7.78122E-04-2.58977E-01-1.16120E-14-6.58812E-15
 -1      2761 1.99320E+01 1.66368E-03 7.85690E-05-2.55360E-01 1.31539E-14-4.99993E-14
 -1      2762 1.99882E+01 6.98452E-03-8.74218E-04-2.60376E-01 1.89255E-14 1.64324E-15
 -1      2763 1.99818E+01 4.44989E-03 8.31230E-04-2.66747E-01-1.93001E-14 1.58665E-14
 -1      2764 1.99575E+01 2.08084E-03-1.79277E-04-2.63547E-01 1.44575E-14-4.24414E-15
 -1      2765 1.99958E+01 4.28568E-03-6.94280E-04-2.73174E-01-1.50024E-14 1.45036E-15
 -1      2766 2.00187E+01 9.90000E-03 8.27978E-04-2.75745E-01-4.39526E-14 1.01953E-13
 -1      2767 1.99908E+01 6.85205E-03-2.83568E-04-2.71776E-01-6.33706E-14 3.85237E-14
 -1      2768 2.00114E+01 8.45916E-03-6.00605E-04-2.84429E-01-4.59201E-14-3.33375E-14
 -1      2769 2.00628E+01 1.34956E-02 7.46107E-04-2.86875E-01-3.97797E-14 8.81862E-14
 -1      2770 2.00317E+01 1.19343E-02-2.51829E-04-2.82092E-01-1.08540E-14 1.47089E-13
 -1      2771 2.00348E+01 1.44135E-02-5.89213E-04-2.97277E-01-4.25037E-14 7.36096E-14
 -1      2772 2.01151E+01 1.06907E-02 5.50527E-04-2.98677E-01-5.83948E-15 1.78748E-14
 -1      2773 2.00808E+01 1.30414E-02-8.49198E-05-2.94233E-01-6.34472E-15 3.52752E-14
 -1      2774 2.00668E+01 1.69149E-02-6.60981E-04-3.12471E-01 2.18544E-14 2.07923E-14
 -1      2775 2.01775E+01-3.67516E-03 1.95170E-04-3.07086E-01-1.03020E-14 2.23042E-14
 -1      2776 2.01398E+01 5.34088E-03 2.28030E-04-3.05454E-01-3.66447E-14 1.44504E-14
 -1      2777 2.01094E+01 1.01612E-02-8.20223E-04-3.28277E-01-9.12458E-15-5.69313E-15
 -1      2778 2.02520E+01-3.52198E-02-3.72320E-04-3.05122E-01 5.08625E-14 9.79920E-14
 -1      2779 2.02110E+01-1.65899E-02 7.01530E-04-3.10218E-01 5.76691E-15 9.40613E-14
 -1      2780 2.01661E+01-1.23668E-02-1.07059E-03-3.40173E-01-4.76928E-14-6.70933E-15
 -1      2781 2.03410E+01-8.92577E-02-1.19893E-03-2.82681E-01 3.76077E-14 1.80002E-13
 -1      2782 2.02972E+01-5.83543E-02 1.33849E-03-2.99870E-01 8.14894E-14 1.35014E-13
 -1      2783 2.02413E+01-5.75636E-02-1.40244E-03-3.40460E-01 3.56155E-14 1.93003E-13
 -1      2784 2.04459E+01-1.69082E-01-2.30284E-03-2.26768E-01-6.76333E-14 1.42861E-13
 -1      2785 2.04009E+01-1.24560E-01 2.10365E-03-2.62555E-01 1.01730E-14 1.80659E-13
 -1      2786 2.03402E+01-1.31531E-01-1.77301E-03-3.17935E-01 1.52572E-14 1.61330E-13
 -1      2787 2.05659E+01-2.72950E-01-3.62785E-03-1.22723E-01-2.09617E-14 3.19408E-14
 -1      2788 2.05226E+01-2.16509E-01 2.88416E-03-1.83828E-01-3.26125E-14 1.40998E-13
 -1      2789 2.04678E+01-2.37129E-01-2.07481E-03-2.58012E-01-1.10529E-15 1.44346E-13
 -1      2790 2.06954E+01-3.89775E-01-4.97048E-03 4.27751E-02-1.50894E-13 9.27517E-14
 -1      2791 2.06588E+01-3.28528E-01 3.44293E-03-4.86804E-02-6.69960E-14 4.06180E-14
 -1      2792 2.06261E+01-3.69876E-01-2.10083E-03-1.43923E-01-5.91888E-14 1.29058E-13
 -1      2793 2.08210E+01-4.94430E-01-5.88643E-03 2.76040E-01-1.59415E-13 1.66403E-13
 -1      2794 2.07989E+01-4.43292E-01 3.40625E-03 1.54075E-01-1.89114E-13 1.46304E-13
 -1      2795 2.08104E+01-5.12456E-01-1.53875E-03 3.99332E-02-2.19686E-13 6.47469E-14
 -1      2796 2.09191E+01-5.45218E-01-5.65307E-03 5.67494E-01-1.24869E-13 2.21062E-13
 -1      2797 2.09211E+01-5.27729E-01 2.27655E-03 4.24137E-01-1.12036E-13 2.18816E-13
 -1      2798 2.10046E+01-6.29084E-01-1.54431E-05 3.01262E-01-1.71911E-13 6.16983E-14
 -1      2799 2.09571E+01-4.88822E-01-3.42434E-03 8.80514E-01-8.73021E-14 1.80212E-13
 -1      2800 2.09924E+01-5.33234E-01-3.57215E-04 7.38674E-01-1.03136E-13 1.73751E-13
 -1      2801 2.11757E+01-6.63998E-01 2.56834E-03 6.28593E-01-8.56231E-14 8.20911E-14
 -1      2802 2.09032E+01-2.79363E-01 1.21791E-03 1.14346E+00-9.56906E-15 9.50197E-14
 -1      2803 2.09751E+01-4.06712E-01-4.28811E-03 1.04118E+00-6.34863E-14 1.01665E-13
 -1      2804 2.12765E+01-5.51342E-01 5.63957E-03 9.76567E-01-2.19099E-14-4.65650E-14
 -1      2805 2.07450E+01 8.81560E-02 7.27682E-03 1.25629E+00 1.38499E-13 5.47806E-14
 -1      2806 2.08454E+01-1.17339E-01-8.25115E-03 1.23982E+00 9.15686E-14 1.02983E-13
 -1      2807 2.12593E+01-2.43914E-01 7.59329E-03 1.25613E+00 5.17992E-14-8.27599E-14
 -1      2808 2.05132E+01 5.44273E-01 1.17641E-02 1.12267E+00 1.58455E-13 5.78428E-14
 -1      2809 2.06188E+01 3.07193E-01-1.00377E-02 1.22824E+00 1.69545E-13 1.09799E-13
 -1      2810 2.11072E+01 2.43901E-01 6.35635E-03 1.34555E+00 1.42158E-13-1.08336E-13
 -1      2811 2.02893E+01 9.43212E-01 1.14082E-02 7.08596E-01 1.17094E-14-1.62230E-14
 -1      2812 2.03678E+01 7.56479E-01-7.51386E-03 9.36132E-01 1.10062E-13 6.58219E-16
 -1      2813 2.08677E+01 7.98877E-01 6.00191E-04 1.13689E+00 1.73566E-13-8.35331E-14
 -1      2814 2.01747E+01 1.12444E+00 5.67391E-03 8.96407E-02-2.91843E-14 1.02591E-13
 -1      2815 2.01982E+01 1.06690E+00-3.90225E-04 3.89725E-01-4.14744E-14 7.27548E-15
 -1      2816 2.06537E+01 1.23216E+00-6.03948E-03 6.13646E-01 1.71738E-15-6.31565E-14
 -1      2817 2.02312E+01 1.00471E+00-2.64552E-03-5.59326E-01 1.27083E-13 4.65247E-15
 -1      2818 2.01905E+01 1.10359E+00 7.76169E-03-2.71466E-01 4.13699E-14 4.67834E-14
 -1      2819 2.05847E+01 1.36531E+00-8.11870E-03-1.02038E-01 2.18570E-14-1.13309E-13
 -1      2820 2.04347E+01 6.38997E-01-8.72693E-03-1.04503E+00 1.47273E-13-4.15054E-15
 -1      2821 2.03451E+01 8.48623E-01 1.20831E-02-8.48432E-01 1.88262E-13-3.72992E-14
 -1      2822 2.07035E+01 1.13703E+00-4.11973E-03-7.85028E-01 1.60924E-13-2.70110E-13
 -1      2823 2.06888E+01 1.82351E-01-1.00562E-02-1.25724E+00 1.06852E-13-1.42918E-13
 -1      2824 2.05815E+01 4.17154E-01 1.06623E-02-1.18711E+00 1.65521E-13-8.70654E-14
 -1      2825 2.09384E+01 6.49172E-01 2.32715E-03-1.22694E+00 1.55254E-13-2.95963E-13
 -1      2826 2.08936E+01-2.11340E-01-7.31776E-03-1.20230E+00 7.18340E-14-2.76737E-13
 -1      2827 2.07991E+01-2.50907E-02 5.46821E-03-1.24632E+00 4.72196E-14-2.08439E-13
 -1      2828 2.11621E+01 9.71648E-02 6.74102E-03-1.34680E+00 1.26921E-13-3.72485E-13
 -1      2829 2.09926E+01-4.54660E-01-3.06374E-03-9.65792E-01 1.12885E-13-1.38626E-13
 -1      2830 2.09300E+01-3.51632E-01-2.87591E-04-1.08276E+00 1.65521E-13-1.37444E-13
 -1      2831 2.12790E+01-3.46168E-01 7.25590E-03-1.19391E+00 6.58634E-14-1.26903E-13
 -1      2832 2.09830E+01-5.38784E-01 5.77537E-04-6.54125E-01-5.19961E-14-2.94287E-14
 -1      2833 2.09568E+01-5.14903E-01-4.30497E-03-7.98491E-01 5.38764E-14-3.75804E-14
 -1      2834 2.12607E+01-5.96917E-01 4.77809E-03-8.85778E-01 4.07003E-14 2.52125E-14
 -1      2835 2.08953E+01-5.04335E-01 2.78247E-03-3.50745E-01 9.02027E-14-1.69362E-13
 -1      2836 2.08998E+01-5.34801E-01-5.93392E-03-4.88282E-01-7.43405E-14-2.08842E-13
 -1      2837 2.11360E+01-6.60872E-01 1.66451E-03-5.38909E-01 7.16479E-14-9.53438E-14
 -1      2838 2.07675E+01-4.05148E-01 3.60833E-03-1.02184E-01 7.49809E-14-2.48015E-13
 -1      2839 2.07930E+01-4.62233E-01-5.75602E-03-2.14056E-01 1.44800E-13-2.10986E-13
 -1      2840 2.09555E+01-5.94618E-01-6.19004E-04-2.30464E-01 1.06562E-13-5.92321E-14
 -1      2841 2.06299E+01-2.85924E-01 3.47470E-03 7.59395E-02 1.61174E-13-7.95742E-14
 -1      2842 2.06668E+01-3.48415E-01-4.66180E-03-4.05808E-03 9.56636E-14-1.52618E-13
 -1      2843 2.07632E+01-4.63297E-01-1.82251E-03 4.90883E-03 3.43317E-14-9.61711E-14
 -1      2844 2.05009E+01-1.75010E-01 2.86309E-03 1.87145E-01 9.22298E-14 4.50406E-14
 -1      2845 2.05421E+01-2.30400E-01-3.30475E-03 1.37286E-01 1.91482E-13-1.73203E-14
 -1      2846 2.05870E+01-3.17278E-01-2.18747E-03 1.62125E-01 1.01787E-13 9.44745E-14
 -1      2847 2.03891E+01-8.59045E-02 2.11746E-03 2.43931E-01 7.63400E-14-2.06308E-13
 -1      2848 2.04301E+01-1.28905E-01-2.04631E-03 2.18638E-01 1.07826E-13-1.50560E-13
 -1      2849 2.04398E+01-1.86655E-01-2.05912E-03 2.51654E-01 2.00132E-13-6.68905E-14
 -1      2850 2.02968E+01-2.17825E-02 1.43438E-03 2.61063E-01-6.40133E-14-2.39781E-13
 -1      2851 2.03349E+01-5.18136E-02-1.04069E-03 2.53745E-01 4.46434E-16-2.50131E-13
 -1      2852 2.03236E+01-8.44609E-02-1.71936E-03 2.89566E-01 7.77172E-14-2.87676E-13
 -1      2853 2.02226E+01 1.99648E-02 8.91359E-04 2.51981E-01 1.56677E-14-2.49000E-13
 -1      2854 2.02566E+01 1.01706E-03-3.18673E-04 2.56603E-01-6.03874E-14-2.02896E-13
 -1      2855 2.02354E+01-1.25057E-02-1.34090E-03 2.91849E-01-2.55048E-14-2.70151E-13
 -1      2856 2.01641E+01 4.44885E-02 5.46656E-04 2.27341E-01-1.85363E-13-9.41208E-14
 -1      2857 2.01934E+01 3.37602E-02 1.49465E-04 2.39111E-01-8.45997E-14-7.81949E-14
 -1      2858 2.01698E+01 3.33488E-02-1.00576E-03 2.71866E-01-1.96898E-13-3.25443E-14
 -1      2859 2.01182E+01 5.72349E-02 3.66675E-04 1.94521E-01-1.93785E-13-6.88560E-14
 -1      2860 2.01428E+01 5.19049E-02 3.82431E-04 2.10054E-01-1.59791E-13 2.80982E-14
 -1      2861 2.01212E+01 5.96319E-02-8.27183E-04 2.39844E-01-2.18636E-13 2.12948E-13
 -1      2862 2.00811E+01 6.40156E-02 1.94988E-04 1.59941E-01-2.60636E-13-9.06215E-14
 -1      2863 2.01015E+01 6.17683E-02 5.36070E-04 1.77204E-01-2.39389E-13-2.35943E-13
 -1      2864 2.00839E+01 7.32824E-02-9.50103E-04 2.03691E-01-1.20875E-13-3.43435E-14
 -1      2865 2.00557E+01 8.08081E-02-9.08057E-04 1.66726E-01-3.00348E-13-2.07969E-13
 -1      2866 1.99837E+01 1.53328E-01-8.45185E-04 1.32966E-01-3.11275E-13 1.77441E-13
 -1      2867 1.99992E+01 1.35967E-01 7.02219E-04 1.36186E-01-2.61799E-13-1.33747E-13
 -1      2868 1.99298E+01 2.24891E-01-9.71784E-04 8.46998E-02-3.12443E-13-5.74789E-13
 -1      2869 1.99422E+01 2.11746E-01 3.33655E-04 1.01593E-01-4.03368E-13-4.70318E-13
 -1      2870 2.00224E+01 1.04201E-01-4.00495E-04 1.33538E-01-3.20742E-13-3.33962E-13
 -1      2871 2.91811E+01 5.43476E+00-2.14406E-01-1.58202E+00 5.00655E-13-5.84532E-14
 -1      2872 2.95554E+01 3.64319E+00-9.43095E-02-1.77521E+00 2.16133E-13-4.56302E-14
 -1      2873 1.99551E+01 1.91488E-01-8.80844E-04 1.16610E-01-5.80797E-13-3.58896E-13
 -1      2874 1.99698E+01 1.75094E-01 4.92500E-04 1.26584E-01-5.94831E-13 8.82723E-14
 -1      2875 1.99727E+01 1.67188E-01 5.19198E-04 1.46975E-01-4.92804E-13-1.26762E-13
 -1      2876 1.99373E+01 2.07203E-01 4.69462E-04 1.24610E-01-5.79731E-13-2.60833E-13
 -1      2877 1.99226E+01 4.94499E-02 2.62745E-04-1.98054E-01 7.23190E-14 5.16036E-14
 -1      2878 1.99280E+01 7.46186E-02 2.26907E-03-1.72684E-01 1.01453E-13 3.26377E-14
 -1      2879 2.00323E+01 1.20334E-01-1.92835E-03-1.40920E-01 1.03935E-13-2.19846E-14
 -1      2880 2.00036E+01 5.67070E-02-1.50794E-03-2.04629E-01 7.82238E-14 1.05273E-15
 -1      2881 1.99055E+01 2.61585E-01-7.66461E-04-1.40282E-02-2.72529E-13-5.86833E-14
 -1      2882 1.99073E+01 2.59743E-01-2.44229E-04 1.13456E-02-3.03985E-13-8.34167E-14
 -1      2883 1.99133E+01 2.57821E-01-4.19750E-04-6.80839E-02-3.15646E-14-3.92276E-13
 -1      2884 1.99075E+01 2.62893E-01-6.46276E-04-4.37649E-02-1.82896E-13-1.45021E-13
 -1      2885 1.98848E+01 2.79289E-01 1.02586E-03-2.87462E-02-8.33108E-15-1.54145E-13
 -1      2886 1.99369E+01 2.36787E-01 7.05268E-05-1.16025E-01 6.66654E-14 3.58522E-13
 -1      2887 1.99229E+01 2.48887E-01-1.02931E-03-9.59272E-02-1.37338E-16-6.73941E-14
 -1      2888 1.98989E+01 2.72760E-01 1.14953E-03-8.97835E-02 6.92557E-14-4.03406E-14
 -1      2889 1.99742E+01 1.99507E-01 5.94233E-04-1.47810E-01-8.45298E-14 4.96504E-13
 -1      2890 1.99537E+01 2.17393E-01-1.29822E-03-1.36406E-01 1.52701E-14 4.43479E-13
 -1      2891 1.99322E+01 2.46606E-01 1.17005E-03-1.41540E-01-1.87347E-13 3.47744E-13
 -1      2892 2.03206E+01 1.58211E+00-8.84511E-03-1.23972E+00-2.01828E-13-1.55133E-13
 -1      2893 2.03021E+01 1.21660E+00 5.30237E-05-9.65391E-01-1.94816E-13-1.39259E-13
 -1      2894 2.02413E+01 1.84664E+00-4.21978E-04-1.21781E+00-1.91863E-13-1.88299E-13
 -1      2895 1.00898E+01-1.83083E+00 1.06395E-01 5.98890E+00 7.61197E-14 4.27214E-13
 -1      2896 7.32263E+00-9.26563E-01 1.69782E-01 4.13101E+00 1.18586E-13 1.07386E-13
 -1      2897 1.34402E+01-2.93595E+00 2.18289E-01-5.58778E+00 1.76942E-13-1.59872E-13
 -1      2898 1.67186E+01-3.91543E+00 2.46721E-02-5.90072E+00 3.06005E-13-9.98368E-14
 -1      2899 2.35317E+01-5.11415E+00-8.95324E-02 5.18570E+00-2.11997E-13 8.67546E-13
 -1      2900 2.08997E+01-4.77765E+00 1.22324E-01 6.13501E+00-2.47774E-13 8.89457E-13
 -1      2901 2.81812E+01-2.47411E+00-3.72005E-02-8.48330E-01 2.97089E-13 2.99982E-13
 -1      2902 2.93339E+01-5.88904E-01-1.35117E-01 3.91471E-01 2.57690E-13 2.52520E-13
 -1      2903 6.27729E+00-2.08170E-01 1.47061E-01 2.00912E+00 1.81521E-13 1.75693E-14
 -1      2904 6.45338E+00-1.06406E-01 1.83068E-01-4.74821E-01 3.77951E-13-7.35523E-15
 -1      2905 1.99120E+01 2.49605E-01-9.45671E-04 3.95170E-02-3.13995E-13-1.80917E-13
 -1      2906 1.99200E+01 2.41467E-01 9.59039E-05 6.19391E-02-1.37612E-13-3.87543E-13
 -1      2907 1.98887E+01 2.67970E-01 7.86525E-04 3.22041E-02-1.71048E-13-2.18716E-13
 -1      2908 1.73721E+01-4.27087E+00 1.52396E-02 7.11320E+00-1.49936E-13 8.97837E-13
 -1      2909 1.39177E+01-3.09326E+00 1.48338E-01 6.92998E+00-1.56736E-13 8.34124E-13
 -1      2910 2.03107E+01 9.88668E-01 3.31543E-03-7.94780E-01-1.75589E-13-1.32913E-13
 -1      2911 2.02210E+01 7.65045E-01-3.63757E-03-5.60469E-01-1.56769E-13-1.25548E-13
 -1      2912 2.02569E+01 8.44563E-01 1.15874E-03-5.19597E-01-1.45175E-13-1.20935E-13
 -1      2913 2.02851E+01 1.20448E+00-1.70792E-03-8.21824E-01-1.71763E-13-1.55001E-13
 -1      2914 2.95011E+01 1.10021E+00-2.05056E-01-1.18004E+00 5.66075E-14-5.10286E-14
 -1      2915 2.93654E+01-7.54586E-01-7.34372E-03-2.79795E-01-3.31679E-14-1.70142E-14
 -1      2916 1.99288E+01 2.60274E+00-7.86871E-03 7.91535E-01 1.77912E-13-1.94081E-13
 -1      2917 1.98854E+01 2.69537E+00-6.19284E-03 6.42939E-01 1.48358E-13-2.22928E-13
 -1      2918 2.00039E+01 2.39795E+00 4.36384E-03 5.13907E-01 1.32951E-13-2.09007E-13
 -1      2919 2.00843E+01 2.19842E+00 5.50353E-03 7.42286E-01 1.72133E-13-1.61773E-13
 -1      2920 1.08221E+01-2.21932E+00 2.17796E-01-6.34968E+00-7.09433E-14-4.03344E-13
 -1      2921 1.36456E+01-3.45448E+00-1.08634E-03-7.25698E+00-2.97262E-14-3.13388E-13
 -1      2922 7.19816E+00-7.59219E-01 1.47310E-01 2.59690E+00 1.09288E-13-4.12392E-13
 -1      2923 6.35197E+00-1.40720E-01 1.54000E-01 4.69821E-01 2.00708E-14-4.90191E-13
 -1      2924 2.86027E+01 7.17789E+00-2.11564E-01-2.58193E-01 6.89115E-13 1.65139E-13
 -1      2925 2.88508E+01 6.77075E+00-1.67056E-01-1.05263E+00 6.59528E-13 2.12608E-14
 -1      2926 2.95641E+01 1.37873E+00-9.48001E-02 1.30135E+00 1.46966E-13 1.98827E-13
 -1      2927 2.93780E+01 3.35280E+00-2.03307E-01 1.72076E+00 1.66256E-13 2.32314E-14
 -1      2928 2.83400E+01 1.04984E-01-5.10595E-02 1.27724E+00 2.52152E-13 1.06443E-13
 -1      2929 1.75701E+01-4.27101E+00 1.63868E-01-6.99192E+00 2.88103E-14-1.02807E-13
 -1      2930 2.08614E+01-5.03519E+00-6.17277E-02-6.37842E+00 1.31312E-13 2.35392E-13
 -1      2931 1.98810E+01 2.70385E+00-6.20684E-03-6.32159E-01-5.57913E-14-2.73459E-13
 -1      2932 1.99240E+01 2.61284E+00-7.92267E-03-7.81435E-01-8.72464E-14-2.63226E-13
 -1      2933 2.40912E+01-4.88929E+00 9.52867E-02-4.80717E+00 1.73028E-13 2.61888E-13
 -1      2934 2.63671E+01-4.29184E+00-9.11175E-02-3.02018E+00 2.04628E-13 3.21021E-13
 -1      2935 1.25280E+01-2.55926E+00 8.37527E-02 5.50151E+00 2.78833E-13-6.88227E-13
 -1      2936 9.31789E+00-1.38645E+00 1.87969E-01 4.09684E+00 1.86628E-13-5.48894E-13
 -1      2937 2.00367E+01 1.39003E-01-3.64488E-05-1.72066E-01-4.55034E-15 4.26921E-13
 -1      2938 1.66728E+01-3.38012E+00 1.33153E-01-6.58732E+00-4.50334E-14-1.50886E-13
 -1      2939 1.99393E+01 2.54954E+00 3.51433E-03 4.93262E-03 4.09489E-14-2.54357E-13
 -1      2940 1.98008E+01 2.87886E+00-5.52178E-03-6.12311E-02 3.57149E-14-2.73346E-13
 -1      2941 1.98084E+01 2.86407E+00-5.55372E-03-2.15350E-01 1.05085E-14-2.73931E-13
 -1      2942 2.03228E+01 1.60537E+00 1.61980E-03 1.26814E+00 2.45436E-13-5.68382E-15
 -1      2943 2.34255E+01-5.46423E+00 1.86978E-01 4.65672E+00 3.36287E-13-2.87981E-14
 -1      2944 2.86852E+01 4.32103E+00-1.15699E-01 1.84243E+00 2.61027E-13 1.77289E-13
 -1      2945 2.72694E+01 4.99792E+00-1.76664E-01 1.72396E+00 3.71356E-13 3.31915E-13
 -1      2946 2.74550E+01 2.79750E+00-6.85687E-02 1.95210E+00 1.76290E-13 1.80536E-13
 -1      2947 2.00186E+01 1.15686E-01 4.69774E-04 1.52783E-01-2.80900E-13-1.23187E-13
 -1      2948 2.83709E+01 1.93837E+00-7.68844E-02-1.76236E+00 4.59077E-14-2.62707E-13
 -1      2949 1.90826E+01-2.77986E+00 1.49412E-01 5.11034E+00 2.94167E-13-1.87086E-13
 -1      2950 2.02962E+01-4.46029E+00 9.23075E-02 5.17529E+00 3.49776E-13-2.07681E-13
 -1      2951 8.70365E+00 1.59696E-01 1.90040E-01 2.81824E+00 2.42549E-13 1.59817E-13
 -1      2952 1.88419E+01-1.74734E+00 1.16929E-01-4.82032E+00 1.76165E-13-2.70631E-13
 -1      2953 1.60593E+01-9.38792E-01 2.57214E-02-4.79658E+00 1.37688E-13-3.01509E-13
 -1      2954 2.02220E+01 6.81924E-01-1.90717E-03 4.11194E-01 1.39660E-13-3.92919E-14
 -1      2955 2.01801E+01 6.21687E-01 1.58309E-03 4.40660E-01 1.35920E-13-8.09761E-15
 -1      2956 3.15834E+01-3.84723E+00-1.75519E-01-1.35720E+00 1.11917E-13 1.68185E-13
 -1      2957 1.99075E+01 2.42296E-01 4.96376E-04 8.53838E-02-2.52576E-13-3.86226E-13
 -1      2958 1.53042E+01-2.19262E+00 7.88990E-02 5.96743E+00 1.36176E-13 7.23768E-13
 -1      2959 1.27888E+01-2.11538E+00 1.22092E-01 6.31713E+00 7.20951E-14 6.76167E-13
 -1      2960 1.19184E+01-8.41598E-01 1.02860E-01 5.25306E+00 2.48107E-13 5.71210E-13
 -1      2961 2.02103E+01 7.01353E-01 6.56290E-03 5.54000E-01 1.51918E-13 1.47230E-14
 -1      2962 1.98239E+01 2.82806E+00-5.76375E-03-3.49962E-01-6.05153E-15-2.61437E-13
 -1      2963 1.98477E+01 2.77950E+00-6.24278E-03-5.03127E-01-3.49196E-14-2.73423E-13
 -1      2964 2.00008E+01 2.40560E+00 4.51875E-03-5.04535E-01-5.03921E-14-2.46821E-13
 -1      2965 1.99543E+01 2.51500E+00 3.74955E-03-2.53901E-01-2.02979E-15-2.48548E-13
 -1      2966 2.76293E+01 5.40967E+00-1.15227E-01-1.44120E+00 4.21857E-13-1.09045E-13
 -1      2967 1.27608E+01-1.76887E+00 1.87362E-01-4.93288E+00 2.40585E-13-1.52794E-13
 -1      2968 2.80998E+01-2.09562E+00-4.12534E-02 2.64400E-01-3.99403E-14-7.71883E-14
 -1      2969 2.00179E+01 1.48241E-01 1.10886E-04-1.55713E-01-1.15720E-13 2.33833E-13
 -1      2970 1.99964E+01 1.71481E-01-1.26649E-03-1.56882E-01-1.60077E-13 4.66008E-13
 -1      2971 1.97011E+01-4.10625E+00 7.88487E-02 6.05341E+00-1.68213E-13 8.76424E-13
 -1      2972 2.27032E+01-4.62482E+00 7.64229E-02-5.02342E+00 8.98309E-14 2.55324E-13
 -1      2973 2.51625E+01-4.42897E+00 3.42973E-02 3.50059E+00-1.03209E-13 7.52162E-13
 -1      2974 7.23522E+00 2.30420E-01 2.04115E-01-8.00807E-01-4.01554E-14-6.04822E-13
 -1      2975 8.24973E+00 3.73223E-01 3.48687E-02-2.13506E+00-1.61858E-13-5.16004E-13
 -1      2976 8.47124E+00 7.67839E-01 7.96279E-02 4.45224E-01-2.45672E-14-4.12809E-13
 -1      2977 7.90199E+00 4.16660E-02 2.09960E-01-1.59982E+00 3.28557E-13 2.75335E-14
 -1      2978 9.62476E+00 1.31991E-01 8.76081E-02-2.80791E+00 3.47618E-13 4.24105E-14
 -1      2979 9.06165E+00 9.05700E-01 1.22687E-01-5.68251E-01 3.26277E-13 4.72677E-14
 -1      2980 2.70165E+01 6.25984E+00-1.22976E-01 8.69404E-01 5.15449E-13 1.91337E-13
 -1      2981 2.79839E+01 6.83858E+00-1.56565E-01 2.81273E-01 6.74960E-13 1.38261E-13
 -1      2982 2.64740E+01 6.23495E+00-1.05413E-01-1.11585E-01 4.97227E-13 2.35636E-14
 -1      2983 2.13497E+01-4.28452E+00 2.33425E-01-5.08818E+00 4.14974E-13-1.61773E-13
 -1      2984 2.72644E+01-3.50637E+00-1.56027E-02-1.55480E+00 2.51292E-13 2.86174E-13
 -1      2985 2.71416E+01-2.48871E+00-4.95474E-02-1.52811E-01 2.57967E-13 1.71321E-13
 -1      2986 2.57807E+01-3.93756E+00 4.15264E-03-2.26514E+00 1.01689E-13 2.66915E-13
 -1      2987 1.99708E+01-3.41982E+00 1.16635E-01-5.03380E+00 3.52773E-13-2.68535E-13
 -1      2988 2.03171E+01 1.39340E+00 8.87570E-03 1.02058E+00 2.01814E-13-1.87514E-14
 -1      2989 1.56203E+01-1.82772E+00 4.53981E-02 5.16759E+00 2.43860E-13-4.22939E-13
 -1      2990 1.01705E+01-3.14429E-01 1.69831E-01 3.27099E+00 1.41241E-13-5.23637E-13
 -1      2991 1.04487E+01-1.15174E+00 1.86194E-01-5.25061E+00-1.57124E-13-3.80113E-13
 -1      2992 2.00802E+01 2.21416E+00 6.80483E-03-7.35932E-01-1.01576E-13-2.25843E-13
 -1      2993 1.99782E+01 2.49253E+00-6.09411E-03-8.98459E-01-1.20106E-13-2.56571E-13
 -1      2994 2.00405E+01 2.34247E+00-1.09928E-02-1.03161E+00-1.58411E-13-2.33395E-13
 -1      2995 1.99790E+01 2.02290E-01 4.25706E-04-1.73589E-01-6.53227E-14 4.26867E-13
 -1      2996 1.88423E+01-4.85001E+00-1.62006E-02 5.66009E+00 3.44114E-13-3.25351E-13
 -1      2997 1.50019E+01-3.61335E+00 1.94854E-01 5.91660E+00 3.65291E-13-5.94289E-13
 -1      2998 1.42799E+01-2.29705E+00 1.27732E-01 5.29247E+00 2.83995E-13-5.61426E-13
 -1      2999 2.02388E+01 1.48241E+00-9.93517E-03 8.02416E-01 1.72805E-13-6.90035E-14
 -1      3000 2.02043E+01 1.67399E+00-1.43832E-03 7.39661E-01 1.64906E-13-1.03807E-13
 -1      3001 2.02568E+01 7.57177E-01 6.69215E-03 7.52489E-01 1.77647E-13 6.10439E-14
 -1      3002 1.98730E+01 2.89615E-01-3.64650E-04-1.11657E-01-1.94801E-14 6.34076E-14
 -1      3003 1.98591E+01 2.97890E-01-6.53353E-04-8.11012E-02 7.75869E-14-3.16471E-13
 -1      3004 2.02726E+01 7.19225E-01 3.55722E-03-3.32529E-01-1.17251E-13-1.43405E-13
 -1      3005 2.02311E+01 5.54139E-01-3.09225E-03-1.95113E-01-1.19631E-13-1.18456E-13
 -1      3006 2.01022E+01 2.20478E+00-5.21562E-03-1.10144E+00-1.63244E-13-2.23374E-13
 -1      3007 2.01757E+01 2.01324E+00-1.02782E-02-1.18185E+00-1.82848E-13-2.09489E-13
 -1      3008 2.02637E+01 1.62992E+00 9.37694E-03-9.75391E-01-1.69126E-13-1.86644E-13
 -1      3009 2.01858E+01 1.93721E+00 9.19577E-03-8.98841E-01-1.58649E-13-2.04123E-13
 -1      3010 2.02414E+01 7.15856E-01-3.09264E-03 3.45438E-01 1.47638E-13-6.70038E-14
 -1      3011 2.02823E+01 9.04853E-01 1.03337E-03 5.10305E-01 1.51351E-13-4.79294E-14
 -1      3012 2.02254E+01 4.30147E-01 4.15678E-03-9.81172E-02-1.13979E-13-9.89986E-14
 -1      3013 2.01880E+01 3.27384E-01-2.04423E-03-1.14609E-02-1.11718E-13-1.06589E-13
 -1      3014 2.02769E+01 5.88080E-01-6.49272E-04-1.69519E-01-9.84639E-14-1.29084E-13
 -1      3015 2.01735E+01 2.48895E-01 3.11137E-03 5.36226E-02-1.23579E-13-9.66422E-14
 -1      3016 2.01458E+01 1.84121E-01-1.01873E-03 1.08370E-01-1.10028E-13-8.67861E-14
 -1      3017 2.02427E+01 3.51232E-01-9.54401E-04-1.28571E-03-1.09468E-13-1.34480E-13
 -1      3018 2.01284E+01 1.36107E-01 2.06218E-03 1.49772E-01-7.35833E-14-8.86038E-14
 -1      3019 2.01104E+01 9.79898E-02-3.01482E-04 1.83281E-01-5.33962E-14-6.52825E-14
 -1      3020 2.02021E+01 1.99433E-01-1.05246E-03 1.10480E-01-1.07318E-13-9.72758E-14
 -1      3021 2.00930E+01 7.14579E-02 1.18345E-03 2.08841E-01-6.73963E-14-6.39401E-14
 -1      3022 2.00830E+01 5.26015E-02 1.93089E-04 2.29429E-01-7.24440E-14-8.25130E-14
 -1      3023 2.01626E+01 1.08653E-01-9.46775E-04 1.81787E-01-4.11057E-14-1.30440E-13
 -1      3024 2.00663E+01 4.18782E-02 4.65745E-04 2.45672E-01-6.95764E-14-5.63253E-14
 -1      3025 2.00625E+01 3.75827E-02 5.37070E-04 2.59801E-01-7.52104E-14-5.55058E-14
 -1      3026 2.01267E+01 6.23824E-02-7.39070E-04 2.26955E-01-8.27717E-14-9.15550E-14
 -1      3027 2.00462E+01 3.91595E-02-1.32146E-04 2.71964E-01-7.43998E-14-5.89099E-14
 -1      3028 2.00468E+01 4.65790E-02 8.16075E-04 2.84701E-01-7.47823E-14-3.14978E-14
 -1      3029 2.00941E+01 4.98644E-02-4.76686E-04 2.57846E-01-7.33728E-14-1.04557E-13
 -1      3030 2.00289E+01 5.93013E-02-6.71370E-04 2.97542E-01-8.56947E-14-3.44368E-14
 -1      3031 2.00319E+01 7.82742E-02 1.00392E-03 3.13918E-01-9.39138E-14-3.03991E-14
 -1      3032 2.00621E+01 6.51888E-02-2.01786E-04 2.84568E-01-7.51098E-14-7.96781E-14
 -1      3033 2.00116E+01 1.00380E-01-1.19937E-03 3.29734E-01-8.21308E-14-1.30328E-14
 -1      3034 2.00149E+01 1.28818E-01 1.07514E-03 3.51628E-01-4.32061E-14-1.44220E-14
 -1      3035 2.00279E+01 1.05229E-01 2.48588E-04 3.14196E-01-4.70225E-14-2.89802E-14
 -1      3036 1.99887E+01 1.61023E-01-1.77871E-03 3.73628E-01-1.46836E-14 8.04760E-14
 -1      3037 1.99897E+01 2.00622E-01 1.11394E-03 4.04854E-01 9.58744E-15 9.30842E-14
 -1      3038 1.99872E+01 1.67590E-01 7.86129E-04 3.51819E-01-9.05834E-15 8.21234E-14
 -1      3039 1.99527E+01 2.44463E-01-2.48895E-03 4.35148E-01 2.67383E-15 1.19657E-13
 -1      3040 1.99473E+01 2.97210E-01 1.03537E-03 4.78590E-01 1.33311E-14 2.07149E-13
 -1      3041 1.99316E+01 2.54644E-01 1.55582E-03 4.02503E-01 1.73671E-14 1.76375E-13
 -1      3042 1.98927E+01 3.55139E-01-3.41322E-03 5.18830E-01 2.70132E-14 2.45543E-13
 -1      3043 1.98749E+01 4.23873E-01 7.70848E-04 5.77214E-01 2.82118E-14 2.63832E-13
 -1      3044 1.98501E+01 3.70245E-01 2.68047E-03 4.69344E-01 6.76765E-14 2.43084E-13
 -1      3045 1.97926E+01 4.99001E-01-4.65581E-03 6.28463E-01-8.03142E-15 2.91423E-13
 -1      3046 1.97532E+01 5.86973E-01 2.29056E-04 7.04244E-01 6.82505E-15 2.92627E-13
 -1      3047 1.97265E+01 5.19901E-01 4.33604E-03 5.53917E-01 5.10804E-14 2.46900E-13
 -1      3048 1.96285E+01 6.82050E-01-6.45577E-03 7.66836E-01-2.78527E-14 2.61908E-13
 -1      3049 1.95549E+01 7.91919E-01-6.73333E-04 8.61981E-01-1.13336E-14 2.59737E-13
 -1      3050 1.95371E+01 7.09850E-01 6.79511E-03 6.55840E-01-6.11902E-15 2.28768E-13
 -1      3051 1.93574E+01 9.15529E-01-8.67172E-03 9.39117E-01-1.33073E-14 1.93294E-13
 -1      3052 1.92192E+01 1.05256E+00-2.05759E-03 1.06166E+00-6.86712E-15 1.91826E-13
 -1      3053 1.92385E+01 9.49849E-01 9.93632E-03 7.75802E-01-5.61133E-14 1.05346E-13
 -1      3054 1.89337E+01 1.18688E+00-1.24145E-02 1.14554E+00 2.53488E-14 1.50263E-13
 -1      3055 1.87215E+01 1.33010E+00-4.21233E-03 1.28470E+00 6.89561E-14 5.37596E-14
 -1      3056 1.87861E+01 1.23517E+00 1.53792E-02 9.03809E-01-2.21744E-14 9.45982E-14
 -1      3057 1.83034E+01 1.46406E+00-1.75408E-02 1.38063E+00 7.48772E-15-2.42089E-14
 -1      3058 1.79851E+01 1.59287E+00-5.00788E-03 1.54690E+00-4.29964E-14-1.74115E-13
 -1      3059 1.81264E+01 1.53737E+00 2.22930E-02 1.03299E+00-8.42814E-14-9.26798E-14
 -1      3060 1.73767E+01 1.68255E+00-2.42029E-02 1.66794E+00-1.86808E-14-1.95086E-13
 -1      3061 1.69332E+01 1.74169E+00 3.93438E-04 1.87711E+00-3.65719E-14-2.19919E-13
 -1      3062 1.71600E+01 1.81710E+00 3.35666E-02 1.17336E+00-6.50359E-14-2.91625E-13
 -1      3063 1.60640E+01 1.68705E+00-2.86117E-02 2.06078E+00-1.18570E-13-2.28168E-13
 -1      3064 1.55883E+01 1.58317E+00 3.53165E-02 2.32146E+00-8.21079E-14-2.66580E-13
 -1      3065 1.57875E+01 1.97313E+00 6.49229E-02 1.37410E+00-9.05699E-14-3.13710E-13
 -1      3066 1.01624E+01 2.53913E-01 1.11843E-01 3.72784E+00 2.69142E-13 2.76751E-13
 -1      3067 9.36546E+00 9.33744E-01 1.18881E-01 1.68120E+00 3.78969E-13 5.93414E-14
 -1      3068 2.02901E+01 9.33043E-01-7.24351E-03 7.77638E-01 1.77392E-13-1.40356E-14
 -1      3069 2.02780E+01 1.26456E+00 3.47584E-03 7.94878E-01 1.64613E-13-4.12244E-14
 -1      3070 1.66331E+01 1.65096E+00 8.92783E-03-2.29013E+00-2.67607E-14-1.52407E-13
 -1      3071 1.70675E+01 1.68053E+00-2.61155E-02-2.01659E+00-2.73822E-14-1.78145E-13
 -1      3072 1.77650E+01 1.65031E+00-1.58268E-03-1.83916E+00 7.58963E-14-1.89283E-13
 -1      3073 1.80949E+01 1.55627E+00-2.02124E-02-1.63215E+00 1.01120E-13-1.21806E-13
 -1      3074 1.67217E+01 1.89463E+00 3.91513E-02-1.46834E+00 1.14978E-13 6.34558E-14
 -1      3075 1.85800E+01 1.44305E+00-2.64481E-03-1.49801E+00 1.38716E-13 4.59650E-14
 -1      3076 1.88080E+01 1.30635E+00-1.42890E-02-1.32773E+00 2.28663E-13 1.62940E-13
 -1      3077 1.78367E+01 1.67690E+00 2.56116E-02-1.23805E+00 2.47299E-13 2.26358E-13
 -1      3078 1.91374E+01 1.17395E+00-1.87325E-03-1.21698E+00 2.16847E-13 6.49165E-14
 -1      3079 1.92820E+01 1.03971E+00-1.01968E-02-1.07361E+00 2.12317E-13 1.74976E-13
 -1      3080 1.86016E+01 1.38422E+00 1.74214E-02-1.05306E+00 2.50433E-13 3.05974E-13
 -1      3081 1.95112E+01 9.12112E-01-4.53976E-04-9.72158E-01 2.14657E-13 3.10470E-13
 -1      3082 1.95989E+01 7.91153E-01-7.26369E-03-8.47899E-01 8.39803E-14 5.38184E-13
 -1      3083 1.91263E+01 1.09099E+00 1.18172E-02-8.78890E-01 3.32558E-13 5.48852E-13
 -1      3084 1.97420E+01 6.90912E-01 4.36345E-04-7.65551E-01 5.01395E-15 5.42335E-13
 -1      3085 1.97851E+01 5.98577E-01-5.12824E-03-6.68758E-01 1.31929E-13 5.60133E-13
 -1      3086 1.94701E+01 8.37623E-01 7.87233E-03-7.20164E-01 8.51965E-14 6.11864E-13
 -1      3087 1.98773E+01 5.20237E-01 9.81740E-04-5.99127E-01 1.30816E-13 4.26991E-13
 -1      3088 1.98964E+01 4.48785E-01-3.69110E-03-5.21359E-01 6.43815E-14 5.27219E-13
 -1      3089 1.96854E+01 6.36782E-01 5.07826E-03-5.82144E-01 8.18858E-14 4.98478E-13
 -1      3090 1.99548E+01 3.89627E-01 1.14810E-03-4.63685E-01 1.36248E-13 5.91287E-13
 -1      3091 1.99599E+01 3.36158E-01-2.67019E-03-4.01927E-01 2.17166E-13 6.02036E-13
 -1      3092 1.98214E+01 4.80614E-01 3.21022E-03-4.63027E-01 1.33714E-13 6.34953E-13
 -1      3093 1.99962E+01 2.93223E-01 1.26445E-03-3.55035E-01 8.39628E-14 5.08003E-13
 -1      3094 1.99932E+01 2.54047E-01-2.00246E-03-3.05964E-01-4.70079E-14 4.30861E-13
 -1      3095 1.99054E+01 3.62413E-01 1.88173E-03-3.62941E-01 7.03241E-14 6.34936E-13
 -1      3096 2.00155E+01 2.22965E-01 9.84216E-04-2.68095E-01-6.84363E-14 3.77784E-13
 -1      3097 2.00102E+01 1.96313E-01-9.55993E-04-2.29528E-01-1.00149E-13 4.22393E-13
 -1      3098 1.99545E+01 2.76127E-01 7.60005E-04-2.80591E-01-1.51268E-13 3.66397E-13
 -1      3099 2.01458E+01 2.48147E-01-1.53904E-03-4.61329E-02 1.15673E-13-6.33977E-14
 -1      3100 2.01808E+01 3.30901E-01 3.77732E-03 2.63014E-02 1.27512E-13-7.67814E-14
 -1      3101 2.01941E+01 4.30392E-01-2.61818E-03 1.10023E-01 1.43366E-13-7.71408E-14
 -1      3102 2.02384E+01 5.58909E-01 4.53732E-03 2.22872E-01 1.32180E-13-7.51819E-14
 -1      3103 2.02799E+01 7.56474E-01 4.25088E-04 3.05382E-01 1.45078E-13-7.92351E-14
 -1      3104 2.02474E+01 4.59711E-01-9.41519E-04 9.20045E-02 1.39765E-13-7.52461E-14
 -1      3105 2.00412E+01 1.31790E-02 5.79396E-04-2.60017E-01 9.92449E-15 6.04186E-14
 -1      3106 2.00405E+01 1.87386E-02 4.35639E-04-2.50999E-01 2.99192E-14 7.45473E-14
 -1      3107 2.00534E+01 2.84569E-02 3.16760E-04-2.39099E-01 3.41884E-14 2.81904E-14
 -1      3108 2.00590E+01 4.40054E-02 9.87586E-04-2.24181E-01 6.40728E-14 5.21293E-14
 -1      3109 2.00981E+01 3.36140E-02-8.37351E-04-2.38355E-01 1.89274E-15 9.00333E-14
 -1      3110 2.00395E+01 1.78091E-02 8.59148E-04-2.89662E-01-7.75311E-14 5.51153E-14
 -1      3111 2.00295E+01 1.39821E-02-1.63936E-04-2.82884E-01-6.13468E-14 5.11076E-14
 -1      3112 2.00502E+01 2.53019E-02 9.06208E-04-3.06695E-01 3.46571E-14-2.80831E-14
 -1      3113 2.00359E+01 2.14568E-02-2.40834E-04-2.98795E-01-3.20009E-14 1.26629E-14
 -1      3114 2.00491E+01 2.57633E-02-6.11933E-04-2.97837E-01-3.19178E-14-2.47179E-14
 -1      3115 2.00704E+01 2.79216E-02 8.87528E-04-3.26933E-01-3.31893E-15-4.13643E-14
 -1      3116 2.00514E+01 2.73681E-02-1.64629E-04-3.18002E-01 1.39773E-14-3.35179E-14
 -1      3117 2.00478E+01 3.33790E-02-6.97974E-04-3.19949E-01 2.58712E-14-9.85778E-14
 -1      3118 2.01033E+01 1.85691E-02 7.82700E-04-3.48695E-01-5.95819E-14 7.03330E-14
 -1      3119 2.00784E+01 2.50626E-02 8.94263E-05-3.40105E-01-4.23434E-15 4.45667E-14
 -1      3120 2.00575E+01 3.37365E-02-9.10876E-04-3.46346E-01-4.84672E-14 9.16217E-15
 -1      3121 2.01537E+01-1.07954E-02 5.53452E-04-3.67533E-01-7.66089E-14 7.85457E-14
 -1      3122 2.01213E+01 6.98416E-03 5.58414E-04-3.62110E-01-7.11280E-14 4.23671E-14
 -1      3123 2.00827E+01 1.82852E-02-1.28260E-03-3.75446E-01-4.73377E-14 1.31046E-13
 -1      3124 2.02283E+01-6.87513E-02 1.41628E-04-3.75713E-01 4.34101E-14 1.71075E-13
 -1      3125 2.01863E+01-3.52524E-02 1.28415E-03-3.77948E-01-1.27427E-14 1.02614E-13
 -1      3126 2.01304E+01-2.25980E-02-1.84555E-03-4.02808E-01-5.19599E-14 4.28872E-14
 -1      3127 2.03351E+01-1.63000E-01-5.30742E-04-3.61677E-01 2.57787E-14 1.73764E-13
 -1      3128 2.02813E+01-1.10027E-01 2.29246E-03-3.77851E-01 6.31735E-14 2.42189E-13
 -1      3129 2.02102E+01-9.89511E-02-2.60548E-03-4.20403E-01 2.16823E-15 9.42683E-14
 -1      3130 2.04822E+01-2.97365E-01-1.54851E-03-3.09798E-01-3.03757E-14 1.76921E-13
 -1      3131 2.04151E+01-2.23598E-01 3.55463E-03-3.47820E-01-2.48818E-14 1.64216E-13
 -1      3132 2.03339E+01-2.19300E-01-3.50965E-03-4.15699E-01 2.61737E-14 1.98488E-13
 -1      3133 2.06747E+01-4.66601E-01-2.94622E-03-2.01073E-01-6.41961E-14 1.05004E-13
 -1      3134 2.05952E+01-3.76125E-01 4.91608E-03-2.69646E-01 5.70174E-14 1.70044E-13
 -1      3135 2.05138E+01-3.86695E-01-4.38455E-03-3.70898E-01 1.14863E-15 1.88105E-13
 -1      3136 2.09099E+01-6.49078E-01-4.59271E-03-1.61791E-02-1.77191E-13 3.04719E-14
 -1      3137 2.08229E+01-5.55331E-01 6.00472E-03-1.22609E-01-1.41738E-13 6.06164E-14
 -1      3138 2.07589E+01-5.91892E-01-4.84888E-03-2.63136E-01-4.96141E-14 3.35475E-14
 -1      3139 2.11705E+01-7.98898E-01-5.95741E-03 2.57631E-01-1.49820E-13-3.71361E-14
 -1      3140 2.10870E+01-7.28749E-01 6.22062E-03 1.11561E-01-1.83701E-13 9.79138E-15
 -1      3141 2.10676E+01-8.04550E-01-4.31028E-03-6.76355E-02-1.33035E-13-6.21588E-14
 -1      3142 2.14177E+01-8.41656E-01-6.00775E-03 6.13149E-01-8.97400E-15-1.16762E-13
 -1      3143 2.13554E+01-8.36722E-01 4.57719E-03 4.38053E-01-6.38637E-14-6.77486E-14
 -1      3144 2.14181E+01-9.62836E-01-1.86907E-03 2.34070E-01-8.07047E-14-1.18825E-13
 -1      3145 2.15926E+01-6.85709E-01-3.28369E-03 1.00301E+00 1.12485E-14-1.29297E-13
 -1      3146 2.15708E+01-7.93722E-01 1.19925E-04 8.30144E-01-9.62533E-15-1.16459E-13
 -1      3147 2.17568E+01-9.71501E-01 2.60511E-03 6.35526E-01 1.16267E-14-7.39160E-14
 -1      3148 2.16315E+01-2.62210E-01 2.92478E-03 1.32285E+00 5.36498E-14-5.19117E-14
 -1      3149 2.16624E+01-5.12246E-01-6.87862E-03 1.20762E+00 2.76736E-14-5.04774E-14
 -1      3150 2.20002E+01-7.20570E-01 8.16441E-03 1.07759E+00-3.23122E-14-7.78099E-14
 -1      3151 2.15065E+01 4.08514E-01 1.09676E-02 1.42103E+00 1.19970E-13-5.70503E-14
 -1      3152 2.15817E+01 4.20264E-02-1.39096E-02 1.43107E+00 5.85070E-14-8.01429E-14
 -1      3153 2.20604E+01-1.45790E-01 1.16166E-02 1.42541E+00 4.95071E-14-1.91691E-14
 -1      3154 2.12674E+01 1.15399E+00 1.42039E-02 1.15710E+00 6.98515E-14 3.90929E-14
 -1      3155 2.13533E+01 7.81265E-01-1.69724E-02 1.33940E+00 1.58937E-13-2.42978E-14
 -1      3156 2.19079E+01 6.89923E-01 8.27477E-03 1.48852E+00 5.13115E-14 4.45520E-15
 -1      3157 2.10517E+01 1.68284E+00 9.02750E-03 5.22507E-01 7.89453E-14-5.48156E-15
 -1      3158 2.11052E+01 1.45884E+00-1.17806E-02 8.54584E-01 8.47374E-14 9.88631E-14
 -1      3159 2.16401E+01 1.53591E+00-7.47132E-04 1.11434E+00 4.64943E-14 1.17353E-13
 -1      3160 2.10052E+01 1.74220E+00-2.29944E-03-3.05607E-01 9.13235E-14-9.69761E-14
 -1      3161 2.09967E+01 1.77994E+00 1.34395E-03 7.56307E-02 9.54163E-14-1.94241E-14
 -1      3162 2.14467E+01 2.03847E+00-8.59244E-03 3.33911E-01 1.53189E-13 7.68539E-14
 -1      3163 2.11685E+01 1.29551E+00-1.32837E-02-1.02686E+00 1.80116E-13-1.27275E-13
 -1      3164 2.11001E+01 1.57680E+00 1.21213E-02-7.29199E-01 9.51916E-14-1.67036E-13
 -1      3165 2.14823E+01 1.95926E+00-4.32357E-03-5.78641E-01 1.30020E-13-1.09849E-13
 -1      3166 2.14278E+01 5.69808E-01-1.71540E-02-1.40182E+00 1.59996E-13-2.25611E-13
 -1      3167 2.13394E+01 9.54227E-01 1.33870E-02-1.26975E+00 2.41367E-13-2.12787E-13
 -1      3168 2.17169E+01 1.31577E+00 9.30473E-04-1.26244E+00 2.16858E-13-1.80456E-13
 -1      3169 2.16219E+01-1.32647E-01-1.24270E-02-1.39458E+00 1.54574E-14-2.50868E-13
 -1      3170 2.15565E+01 2.07880E-01 8.33606E-03-1.42421E+00 1.16450E-13-2.70946E-13
 -1      3171 2.19686E+01 4.41991E-01 8.10289E-03-1.50933E+00 1.17953E-13-2.44134E-13
 -1      3172 2.16548E+01-6.13963E-01-4.65082E-03-1.11412E+00-2.58548E-14-8.31512E-14
 -1      3173 2.16383E+01-4.03784E-01 9.79638E-04-1.25120E+00-3.57515E-14-1.87446E-13
 -1      3174 2.20662E+01-3.31069E-01 1.14784E-02-1.35086E+00-3.13180E-14-2.14971E-13
 -1      3175 2.15226E+01-8.21021E-01 1.65496E-03-7.22467E-01 1.38835E-14-9.89566E-14
 -1      3176 2.15569E+01-7.49545E-01-4.45812E-03-8.99527E-01 4.49081E-14-5.36400E-14
 -1      3177 2.19494E+01-8.16692E-01 6.76329E-03-9.60344E-01-1.29063E-13-2.48242E-13
 -1      3178 2.12861E+01-8.10505E-01 5.21012E-03-3.45853E-01 1.67160E-13-2.01045E-13
 -1      3179 2.13558E+01-8.39547E-01-6.36890E-03-5.13507E-01 6.58891E-14-1.22992E-13
 -1      3180 2.16701E+01-9.83979E-01 9.17519E-04-5.21311E-01 9.18561E-14-9.13801E-14
 -1      3181 2.10152E+01-6.74045E-01 6.34529E-03-4.78447E-02 4.02639E-14-1.54045E-13
 -1      3182 2.11003E+01-7.55782E-01-5.76454E-03-1.81300E-01 1.66292E-13-1.65657E-13
 -1      3183 2.13210E+01-9.19774E-01-2.91600E-03-1.47516E-01 8.99030E-14-7.57064E-14
 -1      3184 2.07600E+01-4.90793E-01 5.86348E-03 1.55915E-01 1.51897E-16-2.05633E-13
 -1      3185 2.08447E+01-5.87605E-01-4.20678E-03 6.31477E-02 1.79917E-14-2.00941E-13
 -1      3186 2.09786E+01-7.34786E-01-4.61606E-03 1.19787E-01 1.39350E-14-1.67964E-13
 -1      3187 2.05462E+01-3.12315E-01 4.66899E-03 2.75314E-01 8.87670E-14-7.44651E-14
 -1      3188 2.06212E+01-4.01423E-01-2.61720E-03 2.19543E-01-9.06035E-15-1.82650E-13
 -1      3189 2.06864E+01-5.15193E-01-4.79478E-03 2.83320E-01-2.61285E-14-2.46610E-13
 -1      3190 2.03806E+01-1.64587E-01 3.33688E-03 3.29767E-01 1.46822E-13-2.10222E-13
 -1      3191 2.04423E+01-2.35646E-01-1.34829E-03 3.03135E-01 2.16768E-13-1.72826E-13
 -1      3192 2.04595E+01-3.13034E-01-4.15423E-03 3.64165E-01 5.87235E-14-1.90669E-13
 -1      3193 2.02596E+01-5.55023E-02 2.16759E-03 3.39282E-01 9.44254E-14-2.37709E-13
 -1      3194 2.03080E+01-1.06377E-01-4.65940E-04 3.33350E-01 9.96138E-14-2.02158E-13
 -1      3195 2.02957E+01-1.51769E-01-3.22927E-03 3.86903E-01 7.16636E-14-2.48049E-13
 -1      3196 2.01747E+01 1.73945E-02 1.26186E-03 3.20612E-01-1.43437E-13-2.04684E-13
 -1      3197 2.02117E+01-1.55587E-02 8.78818E-05 3.28053E-01 9.71982E-16-2.29728E-13
 -1      3198 2.01841E+01-3.61894E-02-2.32892E-03 3.72787E-01 1.08840E-16-1.92707E-13
 -1      3199 2.01172E+01 6.13313E-02 7.02050E-04 2.86316E-01-3.58656E-13-1.58379E-13
 -1      3200 2.01448E+01 4.21888E-02 4.04762E-04 3.01440E-01-2.53382E-13-2.64021E-13
 -1      3201 2.01119E+01 3.88451E-02-1.58519E-03 3.37815E-01-2.24732E-13-2.94219E-13
 -1      3202 2.00802E+01 8.48070E-02 8.56330E-04 2.45061E-01-2.11119E-13-1.83320E-13
 -1      3203 2.00995E+01 7.46974E-02 5.41436E-04 2.63517E-01-3.22106E-13-2.62678E-13
 -1      3204 2.00669E+01 8.24447E-02-1.18210E-03 2.93162E-01-2.38830E-13-5.08505E-13
 -1      3205 2.69367E+01 2.56000E+00-1.59010E-01-2.03007E+00-1.74860E-15-1.54831E-13
 -1      3206 2.74515E+01 7.79165E-01 1.47526E-02-1.78330E+00-1.40138E-13-2.69160E-13
 -1      3207 1.99190E+01 2.59823E-01 2.93283E-04-1.69459E-01-1.38540E-13 4.75303E-13
 -1      3208 1.98929E+01 2.76332E-01-1.26125E-03-1.46275E-01-2.36446E-13 4.12097E-13
 -1      3209 1.98593E+01 3.10900E-01 1.23737E-03-1.40660E-01-6.33750E-14-7.09056E-14
 -1      3210 1.98514E+01 2.97867E-01-7.74969E-04-4.22672E-02 1.56237E-13-1.92233E-13
 -1      3211 1.98499E+01 2.97589E-01-1.11433E-04-1.03675E-02 1.04140E-13 1.24683E-13
 -1      3212 1.98263E+01 3.23311E-01 8.24337E-04-6.38710E-02 1.61342E-13-2.94313E-13
 -1      3213 2.00287E+01 1.66146E-01 4.51392E-04-1.97339E-01-2.00255E-13 4.89366E-13
 -1      3214 2.11518E+01-4.03385E+00-1.36986E-02 5.09054E+00-9.52016E-14 8.33521E-13
 -1      3215 1.84616E+01-3.21872E+00 7.87182E-02 5.80838E+00 2.79984E-15 8.25742E-13
 -1      3216 1.56560E+01-2.25782E+00 1.87129E-01-6.10769E+00-1.08927E-13-1.94754E-13
 -1      3217 1.83299E+01-3.57336E+00-5.36976E-02-6.09206E+00-5.90361E-14 7.07628E-14
 -1      3218 2.58973E+01-4.00386E+00-8.48312E-02 2.14932E+00-8.59729E-14 9.67282E-14
 -1      3219 2.39037E+01-4.27716E+00 3.65413E-02 3.67486E+00-1.50560E-13 5.18730E-13
 -1      3220 1.98535E+01 2.86292E-01-9.99243E-04 2.77561E-02-7.75251E-14 8.44038E-14
 -1      3221 1.98627E+01 2.78372E-01 3.44517E-04 5.75284E-02-1.93699E-13-2.20582E-13
 -1      3222 1.98224E+01 3.12552E-01 3.96110E-04 1.55379E-02 2.91514E-14 1.83299E-13
 -1      3223 1.33971E+01-1.71005E-02 1.69017E-01-3.98749E+00 1.76668E-13-3.23630E-14
 -1      3224 2.14337E+01-4.09006E+00 1.25751E-01-5.18479E+00-1.34615E-14 3.19155E-13
 -1      3225 2.35687E+01-4.43748E+00-5.25040E-02-3.95097E+00-1.08073E-14 3.76388E-13
 -1      3226 1.98754E+01 2.58802E-01-1.03843E-03 8.94699E-02-3.98737E-13-3.05364E-13
 -1      3227 1.98920E+01 2.44644E-01 3.64088E-04 1.12911E-01-4.23240E-13-2.67115E-13
 -1      3228 1.98434E+01 2.83248E-01 6.46157E-05 8.70305E-02-3.46335E-13-1.53007E-13
 -1      3229 2.72139E+01-7.55372E-01-4.65627E-02 1.12874E+00 2.33438E-13 9.61453E-14
 -1      3230 2.71751E+01 7.53569E-01-1.13252E-01 1.75143E+00 1.75533E-13 1.03542E-13
 -1      3231 1.50992E+01 1.08912E+00 8.83214E-03-3.01670E+00-2.58044E-14 9.28702E-14
 -1      3232 1.56264E+01 1.48639E+00-2.61270E-02-2.56795E+00 1.86465E-14-1.03596E-13
 -1      3233 1.51458E+01 1.88883E+00 7.20235E-02-1.79553E+00-7.76046E-14 7.85561E-14
 -1      3234 1.99880E+01 1.43378E-01-1.09934E-03 1.75556E-01-2.84949E-13-1.45631E-13
 -1      3235 2.00202E+01 1.14900E-01 3.28638E-04 1.73687E-01-2.05613E-13-6.04901E-14
 -1      3236 2.00317E+01 1.12494E-01 7.47662E-04 1.93369E-01-9.29036E-14 1.98947E-14
 -1      3237 2.61225E+01 5.35592E+00-1.43915E-01-1.17079E+00 4.85598E-13-1.02304E-13
 -1      3238 2.66340E+01 4.36310E+00-6.99950E-02-1.87578E+00 3.11876E-13-1.83506E-13
 -1      3239 2.72641E+01-1.54918E+00-1.59020E-01-6.87730E-01-5.32213E-14-3.86326E-13
 -1      3240 2.70455E+01-2.87811E+00 4.11163E-02 6.47494E-01-5.26489E-14-1.81480E-13
 -1      3241 2.58559E+01-3.22183E+00 3.36179E-03 1.03575E+00-7.62879E-14-3.44964E-13
 -1      3242 1.38433E+01-5.01296E-01 1.76175E-01 4.47825E+00 1.47736E-13-5.56513E-13
 -1      3243 1.99927E+01 2.07028E-01 8.38014E-04-2.11758E-01-9.64952E-14 3.81028E-13
 -1      3244 1.01176E+01 5.87009E-02 2.18192E-01-4.04398E+00-2.00104E-13-4.15029E-13
 -1      3245 1.21907E+01-1.25227E+00-2.59381E-02-5.57736E+00-1.78149E-13-3.47250E-13
 -1      3246 2.00367E+01 1.17618E-02 7.52648E-04-2.75099E-01-2.30166E-14 6.56587E-14
 -1      3247 2.00310E+01 1.10363E-02 5.87188E-05-2.68349E-01 1.57981E-14 7.88994E-14
 -1      3248 2.00750E+01 1.86377E-02-7.04482E-04-2.61099E-01 5.51641E-15 1.45675E-13
 -1      3249 2.00586E+01 1.84792E-02-6.22034E-04-2.79209E-01-1.16388E-14 9.00325E-14
 -1      3250 1.99568E+01 2.31991E-01-1.06903E-03-2.00785E-01-3.94625E-14 3.13350E-13
 -1      3251 2.00499E+01 2.17344E+00-4.25246E-03 2.90412E-01 9.61618E-14-2.01065E-13
 -1      3252 2.00368E+01 2.21242E+00-3.37471E-03 1.69575E-01 5.81718E-14-2.11531E-13
 -1      3253 1.34054E+01 3.42162E-01 1.03276E-01 3.55788E+00 6.49064E-14-5.04069E-13
 -1      3254 1.16798E+01 1.47568E-02 9.80813E-02 3.61441E+00 8.41133E-14-5.53863E-13
 -1      3255 1.00754E+01 8.47639E-01 2.31866E-01 2.05086E+00 9.24955E-14-4.63948E-13
 -1      3256 2.00298E+01 2.23150E+00-3.71167E-03 6.58666E-02 5.19576E-14-2.33371E-13
 -1      3257 2.00296E+01 2.23235E+00-3.65342E-03-5.72432E-02 3.05212E-14-2.36079E-13
 -1      3258 2.01430E+01 1.93849E+00 5.08135E-03 1.00588E-01 5.75290E-14-2.14692E-13
 -1      3259 2.00852E+01-3.35248E+00 5.56273E-02-5.05089E+00-8.83044E-14 2.93378E-13
 -1      3260 1.47742E+01-1.26449E+00 1.13468E-01-5.22674E+00-1.14429E-13-3.57409E-13
 -1      3261 2.02636E+01 8.58856E-01-3.18531E-03-4.33049E-01-1.24286E-13-1.48167E-13
 -1      3262 2.02898E+01 8.93561E-01 1.21455E-03-3.75719E-01-1.17849E-13-1.76885E-13
 -1      3263 2.02974E+01 1.02452E+00 5.52217E-03-5.69561E-01-1.34234E-13-1.56505E-13
 -1      3264 2.02526E+01 1.36750E+00-4.19896E-03-8.06216E-01-1.53169E-13-1.69351E-13
 -1      3265 2.67016E+01 1.65141E+00-6.86065E-02 2.03266E+00 1.46105E-13 2.07459E-13
 -1      3266 2.57630E+01 2.51924E+00-1.22810E-01 2.05442E+00 1.98452E-13 3.38507E-13
 -1      3267 2.58882E+01 7.27503E-01-2.57767E-02 1.84710E+00 1.05305E-13 3.34724E-13
 -1      3268 1.10293E+01 1.29591E+00 5.60267E-02 1.51280E+00 4.17043E-13 1.73549E-13
 -1      3269 9.88829E+00 1.26521E+00 1.65298E-01 6.45877E-01 3.69434E-13 1.46327E-13
 -1      3270 1.05452E+01 1.32892E+00 3.41075E-02-4.82896E-01 2.77759E-13 1.87281E-13
 -1      3271 1.23520E+01-4.93264E-02 1.05811E-01 4.14018E+00 3.00673E-13 4.43617E-13
 -1      3272 1.39609E+01 1.11570E+00 1.99857E-02 2.97691E+00 3.80078E-15-4.03538E-13
 -1      3273 2.65395E+01-5.56159E-01-3.51911E-02-1.26320E+00-9.71133E-14-2.96367E-13
 -1      3274 2.02833E+01 1.10165E+00 5.14349E-03 6.09599E-01 1.54033E-13-5.02880E-14
 -1      3275 2.00663E+01 2.12237E+00-3.66870E-03-3.80483E-01-3.09172E-14-2.18046E-13
 -1      3276 2.00909E+01 2.04310E+00-6.00139E-03-4.92059E-01-6.48716E-14-2.19811E-13
 -1      3277 2.01286E+01 1.85437E-01 2.70835E-03-1.00547E-01 1.05790E-13-4.00153E-14
 -1      3278 2.02052E+01 2.67017E-01-1.14274E-03-5.28941E-02 1.01488E-13-3.31920E-14
 -1      3279 2.01050E+01 1.33694E-01-6.70328E-04-1.44975E-01 8.50861E-14-1.21349E-14
 -1      3280 2.01277E+01 7.19829E-02-9.94252E-04-2.03429E-01 3.81985E-14 2.28344E-14
 -1      3281 2.00743E+01 6.52518E-02-7.80081E-05-2.04420E-01 6.57056E-14 1.56375E-14
 -1      3282 2.00879E+01 9.55714E-02 1.74007E-03-1.78363E-01 5.88428E-14-3.49600E-15
 -1      3283 2.02805E+01 1.13790E+00 2.81441E-03 5.34851E-01 1.63531E-13-5.65249E-14
 -1      3284 2.58280E+01 2.90742E+00-6.40837E-02-1.92179E+00 1.00607E-13-1.33928E-13
 -1      3285 2.00444E+01 1.03228E-01 7.57656E-04 2.10659E-01-1.15744E-13-1.35136E-13
 -1      3286 2.00593E+01 9.71252E-02 5.41103E-04 2.29747E-01-1.31892E-13-1.81467E-13
 -1      3287 2.00291E+01 1.10088E-01-1.41440E-03 2.53110E-01-2.30596E-13-5.45399E-13
 -1      3288 1.99975E+01 1.33553E-01-1.37818E-03 2.16877E-01-2.18222E-13-2.41168E-13
 -1      3289 1.72430E+01-2.49045E+00 5.71926E-02 5.71673E+00 1.42726E-13 7.90902E-13
 -1      3290 1.59757E+01-1.42800E+00 5.61192E-02 5.15372E+00 2.39173E-13 7.40380E-13
 -1      3291 1.88641E+01-2.50635E+00 2.14604E-02 4.85043E+00 1.48071E-13 8.72934E-13
 -1      3292 2.62839E+01 4.95336E+00-9.69663E-02 1.32111E+00 3.53509E-13 2.17767E-13
 -1      3293 1.99423E+01 1.88397E-01-9.19366E-04 1.61781E-01-5.98236E-13-2.07210E-13
 -1      3294 1.99637E+01 1.69093E-01 1.24938E-04 1.68790E-01-4.30705E-13-1.91396E-13
 -1      3295 1.99635E+01 1.69758E-01 8.94326E-04 1.91950E-01-4.06226E-13-3.75593E-13
 -1      3296 2.27865E+01-4.04571E+00 3.47432E-02 4.00171E+00-1.01391E-13 4.99558E-13
 -1      3297 2.14492E+01-3.34011E+00 1.49349E-02 4.08524E+00 4.02282E-14 4.80751E-13
 -1      3298 2.36609E+01-3.73940E+00-4.93932E-02 2.72398E+00-8.84197E-14-4.75835E-15
 -1      3299 2.02072E+01 1.71248E+00 5.22354E-03-4.51868E-01-8.31158E-14-1.85002E-13
 -1      3300 2.01276E+01 1.94786E+00-2.53437E-03-5.79796E-01-8.52928E-14-2.13574E-13
 -1      3301 2.01644E+01 1.81641E+00-6.67367E-03-6.80157E-01-1.18962E-13-2.03635E-13
 -1      3302 1.99256E+01 2.71103E-01 9.31357E-04-2.11968E-01-1.24001E-13 5.18989E-13
 -1      3303 2.02504E+01 1.46988E+00 3.91330E-03 5.78507E-01 1.53891E-13-1.37445E-13
 -1      3304 2.01631E+01 1.81091E+00-6.73116E-03 6.81927E-01 1.69447E-13-1.61361E-13
 -1      3305 2.01288E+01 1.94012E+00-2.58226E-03 5.85274E-01 1.65485E-13-1.97179E-13
 -1      3306 9.84473E+00 9.88807E-01-8.08924E-03 8.99147E-01-6.99336E-14-4.17569E-13
 -1      3307 2.50433E+01 5.42419E+00-6.63807E-02-1.23360E-01 3.86649E-13-1.38833E-13
 -1      3308 2.56745E+01 5.46878E+00-1.07746E-01-7.23001E-01 4.36984E-13-2.10261E-13
 -1      3309 2.48507E+01 4.52082E+00-6.51794E-02-1.07616E+00 3.74700E-13-3.20897E-13
 -1      3310 1.33162E+01 1.67071E+00 1.13201E-01 1.95583E+00-1.05947E-13-3.23408E-13
 -1      3311 2.47896E+01-4.06500E+00 3.49912E-02-2.75619E+00-8.10272E-14 2.70214E-13
 -1      3312 2.52182E+01-3.48213E+00-3.35651E-02-1.45783E+00-5.52470E-14 1.84701E-13
 -1      3313 2.34473E+01-3.81921E+00 2.05572E-03-3.14041E+00-1.26498E-13 3.48118E-13
 -1      3314 1.05316E+01 6.32947E-01 1.62589E-01-2.80963E+00-2.07605E-13-4.40814E-13
 -1      3315 1.99054E+01 2.26186E-01-9.39618E-04 1.32727E-01-4.65740E-13-3.24037E-13
 -1      3316 1.99252E+01 2.08180E-01 1.07490E-04 1.48366E-01-4.87552E-13-1.87506E-13
 -1      3317 1.99145E+01 2.12224E-01 4.56800E-04 1.71761E-01-4.09218E-13-1.74743E-13
 -1      3318 1.98771E+01 2.47752E-01 1.98493E-04 1.38671E-01-3.37637E-13-4.84193E-14
 -1      3319 2.67915E+01-1.79896E+00-4.95396E-02 5.67007E-01 2.21782E-13 1.96999E-13
 -1      3320 2.60354E+01-1.00089E+00-1.53337E-02 1.18719E+00 1.14624E-13 2.70839E-13
 -1      3321 2.59569E+01-2.51305E+00-1.43163E-02-1.14469E-01 1.17993E-13 2.68697E-13
 -1      3322 1.33865E+01 7.62432E-01 7.37602E-02-3.09026E+00 1.41102E-13 7.30666E-15
 -1      3323 2.00953E+01 2.03636E+00-5.30170E-03 5.00969E-01 1.53068E-13-1.81105E-13
 -1      3324 2.00699E+01 2.11654E+00-3.31058E-03 3.88356E-01 1.23285E-13-1.88712E-13
 -1      3325 2.01658E+01 1.86193E+00 5.30932E-03 2.87584E-01 1.02804E-13-1.65819E-13
 -1      3326 2.02049E+01 1.70790E+00 4.99165E-03 4.54511E-01 1.55206E-13-1.77191E-13
 -1      3327 1.23533E+01 1.52844E+00 1.53434E-01-1.90741E+00 1.17795E-13 1.40520E-13
 -1      3328 2.03165E+01 7.44603E-01 1.54784E-03-2.24242E-01-8.57633E-14-1.45551E-13
 -1      3329 2.03009E+01 5.87494E-01-2.38809E-03-1.21634E-01-8.94341E-14-1.42523E-13
 -1      3330 2.03033E+01 4.58592E-01 2.41146E-03-4.98856E-02-9.79266E-14-1.51514E-13
 -1      3331 2.02787E+01 3.52479E-01-1.94606E-03 2.07381E-02-1.09107E-13-1.43322E-13
 -1      3332 2.03339E+01 5.95987E-01 2.15855E-04-9.42508E-02-9.46336E-14-1.57124E-13
 -1      3333 2.02683E+01 2.69692E-01 1.96661E-03 6.99300E-02-1.15618E-13-1.02385E-13
 -1      3334 2.02439E+01 2.02086E-01-1.09068E-03 1.16291E-01-8.51104E-14-9.98494E-14
 -1      3335 2.03150E+01 3.61736E-01 2.64812E-05 2.97677E-02-7.99344E-14-1.24785E-13
 -1      3336 2.02257E+01 1.51691E-01 1.32758E-03 1.48302E-01-4.98882E-14-1.15417E-13
 -1      3337 2.02040E+01 1.12741E-01-4.36331E-04 1.77998E-01-4.13617E-14-1.06828E-13
 -1      3338 2.02787E+01 2.09668E-01-3.09056E-04 1.14170E-01-7.57870E-14-7.11548E-14
 -1      3339 2.01814E+01 8.63435E-02 7.26151E-04 1.98406E-01-5.53350E-14-1.10200E-13
 -1      3340 2.01627E+01 6.90540E-02 2.29218E-05 2.17868E-01-5.95758E-14-9.32120E-14
 -1      3341 2.02336E+01 1.20662E-01-3.73008E-04 1.69507E-01-4.42883E-14-1.05183E-13
 -1      3342 2.01371E+01 6.10163E-02 1.74605E-04 2.31549E-01-8.38228E-14-7.88013E-14
 -1      3343 2.01205E+01 6.06046E-02 3.29156E-04 2.46046E-01-5.02938E-14-9.34104E-14
 -1      3344 2.01838E+01 7.96278E-02-2.73927E-04 2.05905E-01-5.68368E-14-9.83436E-14
 -1      3345 2.00906E+01 6.78510E-02-3.32219E-04 2.57431E-01-5.10604E-14-7.28206E-14
 -1      3346 2.00736E+01 8.25620E-02 4.87717E-04 2.71739E-01-5.50895E-14-5.11117E-14
 -1      3347 2.01287E+01 7.66244E-02-6.57860E-05 2.32566E-01-5.56574E-14-4.81581E-14
 -1      3348 2.00405E+01 1.02552E-01-8.11143E-04 2.82743E-01-3.87780E-14-4.18292E-14
 -1      3349 2.00226E+01 1.29228E-01 4.72259E-04 2.98757E-01-1.42026E-14 1.41585E-14
 -1      3350 2.00680E+01 1.05595E-01 3.03542E-04 2.55671E-01-1.82176E-14 1.22290E-14
 -1      3351 1.99828E+01 1.61079E-01-1.29937E-03 3.12023E-01 2.05481E-14 2.24088E-14
 -1      3352 1.99596E+01 2.00030E-01 3.25055E-04 3.32740E-01 3.63697E-14 8.96301E-14
 -1      3353 1.99991E+01 1.61473E-01 8.03450E-04 2.79423E-01 2.37451E-14 8.12845E-15
 -1      3354 1.99089E+01 2.44292E-01-1.84952E-03 3.49289E-01 3.17033E-14 9.82367E-14
 -1      3355 1.98757E+01 2.96424E-01-2.88128E-05 3.76268E-01 6.36580E-14 1.56536E-13
 -1      3356 1.99140E+01 2.43558E-01 1.51889E-03 3.07095E-01 4.87815E-14 1.69203E-14
 -1      3357 1.98080E+01 3.54564E-01-2.50231E-03 3.96131E-01 3.91213E-14 1.88148E-13
 -1      3358 1.97575E+01 4.21621E-01-6.72835E-04 4.30060E-01 8.86648E-14 1.96340E-13
 -1      3359 1.98026E+01 3.53037E-01 2.52965E-03 3.39142E-01 8.07139E-14 1.30052E-13
 -1      3360 1.96644E+01 4.95808E-01-3.31245E-03 4.51963E-01 7.09388E-14 1.13473E-13
 -1      3361 1.95862E+01 5.79997E-01-1.72796E-03 4.92395E-01 5.23786E-14 1.46787E-13
 -1      3362 1.96506E+01 4.92649E-01 3.96569E-03 3.73326E-01 3.30703E-14 7.31497E-14
 -1      3363 1.94554E+01 6.72306E-01-4.43934E-03 5.13357E-01-1.12805E-14 1.07503E-13
 -1      3364 1.93352E+01 7.75484E-01-3.44103E-03 5.58439E-01-9.13148E-14 5.14974E-14
 -1      3365 1.94375E+01 6.65812E-01 6.03304E-03 4.03922E-01-4.69754E-14-1.69860E-14
 -1      3366 1.91399E+01 8.94096E-01-5.68782E-03 5.73877E-01-9.78493E-14 7.63672E-14
 -1      3367 1.89436E+01 1.02225E+00-5.93106E-03 6.21738E-01-3.94768E-14 3.92999E-14
 -1      3368 1.91254E+01 8.79996E-01 8.78529E-03 4.20895E-01-9.17671E-14-3.78691E-14
 -1      3369 1.86750E+01 1.15307E+00-8.01167E-03 6.21895E-01-5.70115E-14-1.42547E-14
 -1      3370 1.83925E+01 1.28989E+00-9.71798E-03 6.62371E-01-5.15656E-14-1.21547E-14
 -1      3371 1.86782E+01 1.12972E+00 1.30805E-02 4.04884E-01-5.89641E-14-6.35475E-14
 -1      3372 1.80116E+01 1.42940E+00-1.12849E-02 6.38696E-01-1.07212E-13-9.83026E-14
 -1      3373 1.75925E+01 1.56474E+00-1.54361E-02 6.69151E-01-1.54353E-13-1.80493E-13
 -1      3374 1.80534E+01 1.39540E+00 1.85797E-02 3.35166E-01-1.02339E-13-1.51145E-13
 -1      3375 1.70494E+01 1.69625E+00-1.55467E-02 6.07627E-01-1.55132E-13-2.47448E-13
 -1      3376 1.64341E+01 1.79814E+00-2.14267E-02 6.34038E-01-1.42384E-13-3.45877E-13
 -1      3377 1.71683E+01 1.65252E+00 2.71842E-02 1.81858E-01-1.73341E-13-2.09240E-13
 -1      3378 1.56285E+01 1.88579E+00-2.31577E-02 5.28394E-01-3.41952E-14-3.44209E-13
 -1      3379 1.46823E+01 1.89757E+00-3.55178E-02 6.07406E-01-1.08169E-14-3.11315E-13
 -1      3380 1.58764E+01 1.85245E+00 3.73560E-02-1.07247E-01-1.12066E-13-3.68580E-13
 -1      3381 2.00489E+01 2.17748E+00-4.12390E-03-2.81564E-01-1.62707E-14-2.31703E-13
 -1      3382 2.01658E+01 1.86842E+00 6.31860E-03-2.82182E-01-2.37599E-14-2.12186E-13
 -1      3383 2.00360E+01 2.21463E+00-3.39913E-03-1.60935E-01 1.27948E-14-2.35704E-13
 -1      3384 1.57930E+01 1.88281E+00-2.65459E-02-8.20561E-01-1.84080E-14 2.59128E-13
 -1      3385 1.65159E+01 1.81758E+00-2.15390E-02-7.69082E-01 2.48827E-13 2.10037E-13
 -1      3386 1.71695E+01 1.71384E+00-1.76319E-02-8.17121E-01 3.30939E-13 2.50601E-13
 -1      3387 1.76591E+01 1.58510E+00-1.48497E-02-7.62047E-01 3.31893E-13 4.06450E-13
 -1      3388 1.66543E+01 1.82323E+00 4.40174E-02-2.62008E-01 2.27266E-13 3.52334E-13
 -1      3389 1.81136E+01 1.44993E+00-1.13138E-02-7.74933E-01 2.03476E-13 3.98181E-13
 -1      3390 1.84417E+01 1.31195E+00-9.91300E-03-7.15385E-01 1.43906E-13 4.55629E-13
 -1      3391 1.76842E+01 1.57393E+00 2.27301E-02-3.98268E-01 2.40207E-13 4.19601E-13
 -1      3392 1.87723E+01 1.17008E+00-7.00351E-03-7.03545E-01 2.62095E-13 4.66801E-13
 -1      3393 1.89985E+01 1.03533E+00-7.01963E-03-6.38019E-01 2.98967E-13 4.83915E-13
 -1      3394 1.84402E+01 1.29471E+00 1.53326E-02-4.54833E-01 2.10164E-13 3.58777E-13
 -1      3395 1.92148E+01 9.16118E-01-4.25799E-03-6.12449E-01 1.79515E-13 5.08196E-13
 -1      3396 1.93537E+01 8.07552E-01-5.16760E-03-5.51037E-01 6.48973E-14 5.99695E-13
 -1      3397 1.89636E+01 1.03397E+00 1.09231E-02-4.56004E-01 2.08438E-13 9.74344E-14
 -1      3398 1.95029E+01 7.09874E-01-2.24529E-03-5.18517E-01-2.06222E-14 5.20038E-13
 -1      3399 1.95909E+01 6.21551E-01-3.89234E-03-4.61924E-01 4.67104E-15 4.68970E-13
 -1      3400 1.93134E+01 8.12722E-01 7.44128E-03-4.21757E-01-3.48157E-14 2.52701E-13
 -1      3401 1.96932E+01 5.44436E-01-1.05511E-03-4.27671E-01 1.34147E-13 3.66336E-13
 -1      3402 1.97475E+01 4.75291E-01-2.96133E-03-3.77824E-01 2.28633E-13 3.69295E-13
 -1      3403 1.95526E+01 6.31118E-01 5.01441E-03-3.70292E-01 6.43987E-14 3.03193E-13
 -1      3404 1.98174E+01 4.17105E-01-7.86924E-05-3.45132E-01 8.18784E-14 4.42423E-13
 -1      3405 1.98488E+01 3.63870E-01-2.41978E-03-3.02323E-01-6.34175E-14 3.24020E-13
 -1      3406 1.97146E+01 4.86550E-01 3.00879E-03-3.13211E-01 1.86820E-13 2.11651E-13
 -1      3407 1.98827E+01 3.33708E-01 8.75654E-04-2.72273E-01 2.75089E-15 4.53816E-13
 -1      3408 1.99015E+01 2.94096E-01-1.26455E-03-2.37205E-01-5.23386E-14 4.37017E-13
 -1      3409 1.98581E+01 3.21700E-01-3.23662E-04-2.00554E-01 3.25103E-15 5.53155E-13
 -1      3410 1.98054E+01 3.87957E-01 1.11660E-03-2.54220E-01 1.08305E-13 1.60104E-13
 -1      3411 2.01364E+01 3.89864E-02 2.50351E-04-2.30168E-01-3.91568E-14 7.16365E-14
 -1      3412 2.01509E+01 5.40246E-02 6.57617E-04-2.15097E-01-1.17224E-14 3.59075E-14
 -1      3413 2.00450E+01 4.98711E-02 1.07074E-03-3.21980E-01-1.27414E-14 2.25312E-15
 -1      3414 2.00422E+01 4.50666E-02-2.99151E-04-3.08939E-01-1.02307E-15-4.42469E-14
 -1      3415 2.00574E+01 3.98749E-02 9.33902E-04-2.94829E-01 2.28520E-14-4.64829E-14
 -1      3416 2.00596E+01 3.39201E-02-2.46046E-04-2.83956E-01 3.14024E-15 2.41453E-15
 -1      3417 2.00483E+01 5.27162E-02-5.77022E-04-2.95269E-01 1.42666E-14 1.12432E-14
 -1      3418 2.00617E+01 3.30904E-02 1.26077E-03-3.93546E-01-4.25820E-14 1.10137E-14
 -1      3419 2.00430E+01 4.47283E-02 1.14458E-04-3.77291E-01-9.57144E-15 4.54137E-15
 -1      3420 2.01055E+01-1.47501E-02 1.26216E-03-4.33058E-01-5.32047E-14 8.16785E-15
 -1      3421 2.00737E+01 1.35983E-02 6.98407E-04-4.18471E-01-7.43473E-14 3.43915E-15
 -1      3422 2.00232E+01 3.61660E-02-1.76756E-03-4.21834E-01-4.64650E-14-1.45521E-13
 -1      3423 2.01881E+01-1.04667E-01 1.10129E-03-4.66301E-01-3.04107E-14 4.71523E-14
 -1      3424 2.01381E+01-5.34274E-02 1.63687E-03-4.58015E-01-6.06846E-14 2.46701E-14
 -1      3425 2.00642E+01-2.52304E-02-2.70735E-03-4.77049E-01-5.86432E-14-2.81921E-14
 -1      3426 2.03245E+01-2.47346E-01 6.33506E-04-4.80813E-01-2.07689E-14 1.38752E-13
 -1      3427 2.02508E+01-1.68018E-01 3.01096E-03-4.85895E-01 6.63206E-15 1.35026E-13
 -1      3428 2.01524E+01-1.36880E-01-4.00872E-03-5.29813E-01-7.25473E-14 5.55124E-14
 -1      3429 2.05310E+01-4.47787E-01-3.78251E-04-4.57624E-01 7.80674E-15 9.73873E-14
 -1      3430 2.04289E+01-3.38709E-01 4.85250E-03-4.85997E-01 1.37224E-14 1.72661E-13
 -1      3431 2.03076E+01-3.10823E-01-5.62694E-03-5.66770E-01-6.48162E-14 1.15163E-13
 -1      3432 2.08206E+01-6.97002E-01-2.12340E-03-3.70144E-01-1.02210E-13 8.06807E-14
 -1      3433 2.06888E+01-5.64897E-01 7.01225E-03-4.34370E-01-2.39280E-14 9.17722E-14
 -1      3434 2.05525E+01-5.51857E-01-7.36722E-03-5.65713E-01-4.07944E-14 1.48744E-13
 -1      3435 2.11943E+01-9.60544E-01-4.67131E-03-1.86843E-01-1.42041E-13-3.73346E-14
 -1      3436 2.10388E+01-8.26461E-01 8.98022E-03-2.99770E-01-9.42091E-14 3.69393E-14
 -1      3437 2.09064E+01-8.46169E-01-8.57401E-03-4.93296E-01-5.66627E-14 6.21882E-14
 -1      3438 2.16296E+01-1.16466E+00-7.22083E-03 1.21769E-01-8.88908E-14 1.66865E-14
 -1      3439 2.14681E+01-1.07208E+00 9.94072E-03-4.80136E-02-1.46832E-13-3.83046E-14
 -1      3440 2.13745E+01-1.14932E+00-8.42984E-03-3.07704E-01-1.14807E-13-2.54339E-14
 -1      3441 2.20641E+01-1.18435E+00-8.25859E-03 5.59489E-01 1.96066E-14-6.25612E-14
 -1      3442 2.19274E+01-1.20280E+00 7.91337E-03 3.42961E-01-1.10695E-14-8.07297E-16
 -1      3443 2.19302E+01-1.36076E+00-4.18701E-03 3.48415E-02-8.02026E-14 2.83221E-16
 -1      3444 2.23985E+01-8.69670E-01-5.32196E-03 1.06845E+00-4.64866E-14 3.85889E-15
 -1      3445 2.23232E+01-1.07829E+00 4.41821E-04 8.46382E-01-6.98506E-14-4.94008E-14
 -1      3446 2.24904E+01-1.32745E+00 2.52564E-03 5.42101E-01-3.32986E-14 3.37696E-14
 -1      3447 2.25201E+01-1.16371E-01 4.13162E-03 1.48510E+00 2.90513E-14-2.55245E-14
 -1      3448 2.25268E+01-5.52201E-01-1.16669E-02 1.34623E+00 3.72202E-14-1.33656E-14
 -1      3449 2.29134E+01-8.66987E-01 1.01729E-02 1.14114E+00-2.17937E-14 2.55252E-14
 -1      3450 2.23849E+01 1.00544E+00 1.68653E-02 1.56452E+00-3.13638E-15-2.49551E-15
 -1      3451 2.24547E+01 4.03623E-01-2.49986E-02 1.61666E+00-3.89117E-14-6.00048E-14
 -1      3452 2.30448E+01 1.19050E-01 1.78837E-02 1.61566E+00 1.30894E-14-8.57734E-14
 -1      3453 2.20939E+01 2.08111E+00 1.39291E-02 1.09401E+00 8.57960E-14 2.09870E-14
 -1      3454 2.21636E+01 1.55732E+00-3.45105E-02 1.38120E+00 4.50624E-14-2.65890E-15
 -1      3455 2.28491E+01 1.48087E+00 1.74268E-02 1.63326E+00 5.75460E-14-1.21106E-13
 -1      3456 2.18798E+01 2.60575E+00-6.53689E-03 1.59848E-01 2.03395E-13-1.59881E-14
 -1      3457 2.19214E+01 2.43801E+00-1.77114E-02 6.12255E-01 1.67246E-13 8.35634E-14
 -1      3458 2.25541E+01 2.58968E+00 1.09595E-03 9.68533E-01 9.74459E-14-9.50459E-14
 -1      3459 2.19914E+01 2.25771E+00-1.45621E-02-8.70009E-01 1.99195E-13-2.26122E-13
 -1      3460 2.19339E+01 2.54754E+00 8.83672E-03-4.50332E-01 2.78945E-13-1.31319E-13
 -1      3461 2.24247E+01 3.03313E+00 1.68835E-05-1.70715E-01 3.03983E-13-1.50545E-13
 -1      3462 2.22678E+01 1.24713E+00-2.70692E-02-1.51775E+00 2.27694E-13-1.66115E-13
 -1      3463 2.21573E+01 1.81685E+00 1.14147E-02-1.28407E+00 1.37228E-13-2.45217E-13
 -1      3464 2.26032E+01 2.32018E+00-1.06636E-02-1.18386E+00 1.87306E-13-3.38907E-13
 -1      3465 2.24974E+01 1.13966E-01-2.17369E-02-1.57637E+00 4.46850E-14-1.29550E-13
 -1      3466 2.24438E+01 6.72596E-01 1.18153E-02-1.57758E+00 2.20206E-13-9.57316E-14
 -1      3467 2.29170E+01 9.89585E-01-6.53176E-03-1.65528E+00 1.36027E-13-1.39132E-13
 -1      3468 2.24988E+01-7.40035E-01-7.47268E-03-1.22191E+00-1.43924E-13-1.02563E-13
 -1      3469 2.25167E+01-3.63227E-01 2.25814E-03-1.39642E+00-1.24027E-14-8.44408E-14
 -1      3470 2.30407E+01-1.79079E-01 1.86087E-02-1.51328E+00-1.05497E-14 6.17798E-14
 -1      3471 2.22288E+01-1.14194E+00 3.28384E-03-7.03744E-01-8.50778E-14-9.91567E-14
 -1      3472 2.23228E+01-9.93897E-01-6.76681E-03-9.30794E-01-1.12614E-13-1.76663E-13
 -1      3473 2.28197E+01-1.04397E+00 7.83797E-03-9.74522E-01-1.15263E-13 9.17805E-14
 -1      3474 2.18026E+01-1.17719E+00 8.48093E-03-2.26082E-01 1.11288E-13-6.90387E-14
 -1      3475 2.19496E+01-1.19938E+00-8.80002E-03-4.31186E-01 2.43813E-14-1.05074E-13
 -1      3476 2.23410E+01-1.37028E+00-1.90730E-03-3.91467E-01-9.84868E-15-2.00550E-13
 -1      3477 2.13440E+01-9.98361E-01 9.82829E-03 1.22231E-01 1.09030E-13-6.10161E-14
 -1      3478 2.15061E+01-1.10992E+00-6.83307E-03-2.97844E-02 7.95107E-14-7.51033E-14
 -1      3479 2.17703E+01-1.30924E+00-6.62667E-03 7.11475E-02 2.14267E-14-1.62236E-13
 -1      3480 2.09336E+01-7.36799E-01 8.58508E-03 3.34407E-01-4.96077E-14-6.66072E-14
 -1      3481 2.10836E+01-8.75845E-01-3.98717E-03 2.38387E-01 7.23668E-14-4.56600E-14
 -1      3482 2.12336E+01-1.05425E+00-8.60918E-03 3.63184E-01 5.91357E-14-1.14831E-13
 -1      3483 2.06075E+01-4.76081E-01 6.47315E-03 4.37117E-01 7.10279E-14-2.17728E-13
 -1      3484 2.07312E+01-6.06050E-01-1.66731E-03 3.87220E-01-6.91315E-14-1.36477E-13
 -1      3485 2.07948E+01-7.41751E-01-8.31354E-03 5.09108E-01 3.71252E-14-1.62223E-13
 -1      3486 2.03700E+01-2.57924E-01 4.37867E-03 4.64457E-01-4.95018E-14-1.48722E-13
 -1      3487 2.04639E+01-3.62392E-01-1.66852E-04 4.47569E-01 1.01189E-13-1.35187E-13
 -1      3488 2.04703E+01-4.52830E-01-6.84369E-03 5.52105E-01 2.32608E-14-2.11884E-13
 -1      3489 2.02093E+01-9.53897E-02 2.68473E-03 4.45721E-01 7.70879E-14-1.62368E-13
 -1      3490 2.02761E+01-1.70757E-01 6.30889E-04 4.50098E-01-2.95318E-15-2.17226E-13
 -1      3491 2.02492E+01-2.22563E-01-5.09171E-03 5.32716E-01 9.53639E-14-1.80579E-13
 -1      3492 2.01078E+01 1.43071E-02 1.44114E-03 4.02211E-01-1.39412E-13-5.34153E-14
 -1      3493 2.01529E+01-3.49528E-02 9.63103E-04 4.18882E-01 2.57625E-14-1.21105E-13
 -1      3494 2.01100E+01-5.76132E-02-3.51031E-03 4.80697E-01-5.66738E-14-6.93760E-14
 -1      3495 2.00487E+01 8.11343E-02 7.05315E-04 3.48076E-01-7.38025E-14-2.17335E-13
 -1      3496 2.00776E+01 5.22386E-02 1.03063E-03 3.70747E-01-1.25805E-13-9.77409E-14
 -1      3497 2.00301E+01 4.95250E-02-2.26243E-03 4.15306E-01-1.00148E-13-6.34373E-14
 -1      3498 2.00189E+01 1.17186E-01 9.01158E-04 2.91872E-01-7.23822E-14-3.93458E-13
 -1      3499 2.00352E+01 1.01858E-01 9.19434E-04 3.16132E-01-8.54781E-14-3.66520E-13
 -1      3500 1.99893E+01 1.11888E-01-1.52464E-03 3.48138E-01 3.71573E-14-1.46927E-13
 -1      3501 2.02872E+01 1.07709E+00-9.76075E-05 4.17800E-01 1.74803E-13-8.90136E-14
 -1      3502 2.02723E+01 1.25665E+00-3.28463E-03 5.07678E-01 1.58094E-13-1.12482E-13
 -1      3503 2.02576E+01 1.39688E+00 2.64063E-04 4.65248E-01 1.58223E-13-1.63346E-13
 -1      3504 1.98229E+01 3.36114E-01-1.02591E-03-1.55367E-01-5.04653E-14-1.20844E-13
 -1      3505 1.98010E+01 3.49472E-01 4.01988E-05-1.17793E-01 1.03404E-13-7.05456E-13
 -1      3506 1.98004E+01 3.68117E-01 1.17562E-03-1.79044E-01 1.17051E-13 4.71053E-14
 -1      3507 1.97851E+01 3.47733E-01-1.22974E-03-6.80151E-02 4.86012E-14-3.51256E-13
 -1      3508 1.97810E+01 3.49693E-01 6.97226E-04-2.66889E-02-8.86967E-14 4.15795E-14
 -1      3509 1.97517E+01 3.80506E-01 4.86091E-04-8.01200E-02-2.02766E-16-5.12439E-13
 -1      3510 2.55084E+01 1.13051E-01-1.06070E-01-1.73522E+00-1.28510E-13-1.03490E-13
 -1      3511 2.58838E+01-1.37053E+00 4.29550E-02-9.80687E-01-7.29937E-14-2.80637E-13
 -1      3512 1.97830E+01 3.33771E-01-1.12031E-03 2.09378E-02 9.82008E-14 3.18985E-13
 -1      3513 1.97937E+01 3.25421E-01 1.10730E-03 6.09981E-02 4.69955E-14 6.06115E-14
 -1      3514 1.97463E+01 3.63187E-01 2.18516E-04 2.05434E-02-1.95779E-13 1.38843E-13
 -1      3515 1.40239E+01-3.56233E-01 3.82957E-02 4.51946E+00 2.89671E-13 5.27842E-13
 -1      3516 1.25426E+01 7.28868E-01 6.59429E-02 3.11514E+00 3.55181E-13 2.76432E-13
 -1      3517 1.98106E+01 2.99513E-01-8.79423E-04 9.99296E-02 1.68968E-14-4.46869E-14
 -1      3518 1.98322E+01 2.83070E-01 1.07128E-03 1.32509E-01-1.61029E-13 4.27017E-14
 -1      3519 1.97764E+01 3.23064E-01 5.92649E-05 1.09509E-01 1.91146E-13 2.63997E-14
 -1      3520 1.39708E+01-1.85115E-01 1.37280E-01-4.45384E+00-1.29730E-13-3.65832E-13
 -1      3521 1.62915E+01-1.50556E+00-1.80416E-03-5.01723E+00-1.66155E-13-2.35912E-13
 -1      3522 2.02500E+01 1.38110E+00-4.98378E-03-7.04501E-01-1.38266E-13-2.02160E-13
 -1      3523 1.25800E+01 1.67289E+00 2.76316E-02-8.81601E-01 1.81750E-13 2.55879E-13
 -1      3524 1.09102E+01 1.52290E+00 2.20037E-01-1.39736E+00-1.95471E-13-4.93258E-13
 -1      3525 1.16892E+01 6.48437E-01-5.85399E-02-3.13868E+00-1.60059E-13-4.65288E-13
 -1      3526 2.54494E+01-2.75390E+00-1.00442E-01 2.35045E-01-5.20434E-14-3.89830E-13
 -1      3527 2.49988E+01-3.25105E+00 6.82037E-02 1.36350E+00-4.37480E-14-3.23031E-13
 -1      3528 2.00444E+01 5.08872E-02 1.18292E-03-3.55254E-01-5.40066E-14 2.29772E-14
 -1      3529 2.00351E+01 5.17165E-02-1.95923E-04-3.40011E-01-3.57696E-14 2.19102E-14
 -1      3530 2.00245E+01 6.29133E-02-7.66809E-04-3.29120E-01-8.41951E-17-3.85050E-15
 -1      3531 2.00136E+01 6.11932E-02-1.14337E-03-3.71465E-01-5.02472E-14-9.84410E-14
 -1      3532 2.47275E+01 3.23286E+00-8.62311E-02-1.72572E+00 2.08514E-13-2.49755E-13
 -1      3533 2.52890E+01 2.01561E+00 1.69085E-02-2.06745E+00-4.33403E-14-1.44742E-13
 -1      3534 2.54630E+01 4.01684E+00-3.23718E-02 1.75052E+00 2.24029E-13 1.96732E-13
 -1      3535 2.50182E+01 4.95441E+00-1.05565E-01 8.70835E-01 2.62519E-13-2.41439E-14
 -1      3536 1.89787E+01-2.51624E+00 6.24145E-02-4.88391E+00-1.31600E-13 3.68754E-13
 -1      3537 2.11938E+01-3.37049E+00-1.91944E-02-4.22669E+00-1.38986E-13 4.97099E-13
 -1      3538 2.44006E+01-3.10172E+00-1.11975E-02-1.22949E+00-1.33167E-13 1.75782E-13
 -1      3539 2.53797E+01-2.97386E+00-9.61049E-03-6.47050E-01-2.15041E-14 1.97429E-13
 -1      3540 2.50847E+01-2.26043E+00-2.53941E-03 1.64906E-01 1.58697E-14 2.42221E-13
 -1      3541 2.57732E+01-3.17034E-01-4.58423E-02 1.58926E+00 1.77375E-13 2.94903E-13
 -1      3542 2.52535E+01 5.88548E-01-1.28164E-02 1.88176E+00 1.20064E-13 2.50470E-13
 -1      3543 2.54265E+01-1.13580E+00-1.61379E-02 1.09897E+00 1.29755E-13 2.10625E-13
 -1      3544 1.37421E+01 1.75801E+00 5.41794E-02-1.01602E+00-1.74435E-14-4.37678E-13
 -1      3545 1.32300E+01 1.77775E+00-3.71002E-04-3.02071E-02-1.18430E-13-3.10231E-13
 -1      3546 1.23208E+01 1.20267E+00 8.56592E-02 2.37971E+00 3.61461E-13 1.55008E-13
 -1      3547 1.22816E+01 1.46503E+00 6.92230E-03 1.42704E+00 3.43680E-13 2.28886E-13
 -1      3548 1.38215E+01 8.61306E-01 2.31846E-02 2.75615E+00 3.27714E-13 2.91926E-13
 -1      3549 2.01428E+01 1.94001E+00 5.13884E-03-9.32197E-02 1.73913E-14-2.14063E-13
 -1      3550 2.01639E+01 1.44756E-01-1.12489E-03-1.46046E-01 6.70495E-14 2.24873E-14
 -1      3551 2.02791E+01 4.63753E-01-2.40746E-03 5.75610E-02 1.13227E-13-7.63333E-14
 -1      3552 2.03031E+01 5.94783E-01 1.90108E-03 1.47848E-01 1.10811E-13-9.41058E-14
 -1      3553 2.02032E+01 8.15293E-02-5.65073E-04-1.90034E-01 3.01092E-15 4.58537E-14
 -1      3554 2.01721E+01 7.58521E-02-1.66843E-04-1.98044E-01 1.39817E-14 3.69973E-14
 -1      3555 2.01909E+01 1.07412E-01 1.18745E-03-1.74274E-01 4.49826E-14 1.83013E-15
 -1      3556 2.02479E+01 2.70726E-01-1.54865E-03-6.66692E-02 7.03011E-14-3.91354E-14
 -1      3557 2.02740E+01 3.58194E-01 2.40817E-03-6.51035E-03 9.31419E-14-3.90865E-14
 -1      3558 2.03168E+01 4.75666E-01 1.19536E-04 3.92146E-02 8.10260E-14-3.67568E-14
 -1      3559 2.03046E+01 1.03627E+00-8.68417E-04-4.01609E-01-9.68842E-14-1.72144E-13
 -1      3560 2.03012E+01 8.83344E-01-2.28073E-03-2.96904E-01-9.24187E-14-1.54182E-13
 -1      3561 2.03272E+01 8.90050E-01 1.67627E-03-2.44357E-01-7.87317E-14-1.46798E-13
 -1      3562 1.59060E+01-6.47651E-01 5.14917E-02 4.28952E+00 2.44079E-13 6.21744E-13
 -1      3563 2.02951E+01 7.17705E-01-2.31366E-03 2.11878E-01 1.35805E-13-1.12419E-13
 -1      3564 2.03077E+01 9.00829E-01 4.64313E-04 3.35877E-01 1.58045E-13-8.45639E-14
 -1      3565 2.03086E+01 1.02597E+00 5.61460E-06 3.18916E-01 1.55997E-13-1.17392E-13
 -1      3566 2.03257E+01 7.29082E-01 7.18242E-04 1.72644E-01 1.14401E-13-1.09071E-13
 -1      3567 2.47067E+01 7.47908E-01-2.45951E-02-1.78356E+00-1.71723E-13-2.19512E-13
 -1      3568 2.00804E+01 4.04994E-02-5.10520E-04-2.68378E-01 4.68543E-14 1.33778E-14
 -1      3569 2.00780E+01 2.94645E-02 7.66529E-04-2.72743E-01 1.43355E-14 9.45212E-15
 -1      3570 2.00844E+01 2.63968E-02-6.35154E-05-2.62953E-01 2.33746E-14 6.25096E-14
 -1      3571 1.99993E+01 1.33117E-01 3.20433E-04 2.69311E-01-1.56601E-13-4.50470E-13
 -1      3572 1.99579E+01 1.49616E-01-1.71803E-03 2.91338E-01-3.64853E-14-3.74283E-13
 -1      3573 1.99815E+01 1.48135E-01 9.37010E-04 2.50854E-01-3.26253E-13-3.21546E-13
 -1      3574 2.04418E+01-2.83679E+00 5.21741E-02 4.35317E+00 8.60111E-14 7.13733E-13
 -1      3575 1.92303E+01-2.17367E+00 1.55947E-02 4.30805E+00 1.22635E-13 7.67376E-13
 -1      3576 2.16080E+01-2.96296E+00 1.58504E-03 3.38494E+00 8.58046E-14 1.92444E-13
 -1      3577 1.99641E+01 1.65300E-01 7.37036E-04 2.10992E-01-3.18126E-13-3.30220E-13
 -1      3578 1.99749E+01 1.55522E-01 6.47223E-04 2.31342E-01-3.24741E-13-3.80262E-13
 -1      3579 1.99376E+01 1.74718E-01-1.28188E-03 2.45433E-01-1.87025E-13-1.35218E-13
 -1      3580 1.99314E+01 1.87588E-01-1.12800E-03 2.03826E-01-2.90717E-13-4.46512E-13
 -1      3581 2.38460E+01-3.21960E+00 2.55495E-03 1.87532E+00 1.02383E-14-2.97590E-13
 -1      3582 2.02136E+01 1.62720E+00-2.43076E-03-1.91712E-01-1.75335E-14-1.96811E-13
 -1      3583 2.02269E+01 1.57034E+00-4.16399E-03-2.76660E-01-3.98433E-14-1.95263E-13
 -1      3584 1.79540E+01-1.80734E+00 3.86432E-02-4.69045E+00-1.80231E-13 2.00163E-13
 -1      3585 1.92077E+01-1.88529E+00 1.64945E-02-3.95115E+00-2.74391E-13 5.16538E-13
 -1      3586 1.68574E+01-8.41304E-01-1.06739E-03-4.08433E+00-2.88884E-13-4.95628E-14
 -1      3587 2.02060E+01 1.65869E+00-3.23286E-03 1.28532E-01 5.68750E-14-1.79137E-13
 -1      3588 2.02017E+01 1.67865E+00-2.69190E-03 3.94654E-02 4.37969E-14-2.19211E-13
 -1      3589 2.50678E+01-1.81008E+00 1.18174E-02-5.46964E-01-1.30792E-13-3.55568E-13
 -1      3590 2.43068E+01 4.49168E+00-5.63822E-02 3.54655E-01 2.81108E-13-1.75936E-13
 -1      3591 1.38752E+01 5.09401E-01 7.92065E-02-3.23627E+00-1.24151E-13-4.47184E-13
 -1      3592 2.48872E+01 2.86089E+00-1.81721E-02 1.80010E+00 1.36963E-13 2.20213E-13
 -1      3593 1.98229E+01 2.76324E-01-3.41200E-05 1.72264E-01 2.18605E-13 1.35060E-14
 -1      3594 1.98510E+01 2.59570E-01-5.84509E-04 1.55621E-01-7.93599E-14-4.65998E-14
 -1      3595 1.98713E+01 2.43676E-01 6.56042E-04 1.75720E-01-1.30748E-13-9.46542E-14
 -1      3596 2.24540E+01-3.42969E+00 4.66352E-02-3.44187E+00-1.86762E-13 4.50299E-13
 -1      3597 2.32164E+01-3.29916E+00-8.86785E-03-2.43792E+00-2.20198E-13 4.11324E-13
 -1      3598 2.12284E+01-2.86485E+00-1.34540E-02-3.52988E+00-2.23733E-13 5.42309E-13
 -1      3599 1.38973E+01 1.82673E+00 7.08305E-03-9.54870E-01-1.34823E-14 2.26708E-13
 -1      3600 1.48296E+01 1.91447E+00-2.69725E-02-8.30583E-01-1.16081E-13 2.36207E-13
 -1      3601 2.03072E+01 1.22126E+00 4.01211E-03-2.64950E-01-6.75779E-14-1.43311E-13
 -1      3602 2.02550E+01 1.41048E+00-2.20213E-04-3.62401E-01-7.60121E-14-1.68334E-13
 -1      3603 1.14880E+01 1.41439E+00 7.45127E-02 1.99201E-01-1.20192E-13-3.20202E-13
 -1      3604 2.02252E+01 1.56874E+00-3.24505E-03 2.79316E-01 9.91490E-14-1.48533E-13
 -1      3605 2.02131E+01 1.62495E+00-2.39656E-03 1.98423E-01 7.79856E-14-1.54528E-13
 -1      3606 2.02886E+01 1.40837E+00 5.47938E-03 1.31225E-01 5.08279E-14-1.41202E-13
 -1      3607 2.01048E+01 2.65143E-02 5.48092E-04-2.52793E-01 8.31216E-15 7.58938E-14
 -1      3608 2.01152E+01 3.03168E-02 2.38529E-04-2.41969E-01-6.44570E-15 7.85006E-14
 -1      3609 2.01595E+01 4.56485E-02-5.46326E-04-2.21337E-01-1.80801E-14-3.11521E-14
 -1      3610 2.01181E+01 3.52073E-02-5.11368E-04-2.45311E-01 4.08870E-14 5.45508E-15
 -1      3611 1.50025E+01 2.05328E+00 7.38688E-02-3.30410E-02-5.43003E-14 5.22494E-13
 -1      3612 2.02216E+01 1.52347E+00-1.80002E-03-6.64075E-01-1.29817E-13-1.96990E-13
 -1      3613 1.28864E+01 1.89579E+00 1.23644E-01 3.20262E-01 9.10552E-14 3.45619E-13
 -1      3614 1.54608E+01 1.43436E+00 3.62455E-02-1.31776E+00-1.05312E-13-2.80984E-13
 -1      3615 1.41382E+01 1.20751E+00 1.85027E-02-2.16250E+00-1.45817E-13-3.85870E-13
 -1      3616 1.55860E+01 2.12512E-01-1.09470E-02-3.36193E+00-2.33602E-13-3.32012E-13
 -1      3617 2.03557E+01 4.48732E-01 1.49714E-03-6.19187E-03-5.94572E-14-1.20336E-13
 -1      3618 2.03371E+01 3.46214E-01-1.70894E-03 4.55126E-02-4.70806E-14-8.26514E-14
 -1      3619 2.03256E+01 2.66390E-01 1.13138E-03 7.88190E-02-6.11864E-14-7.30524E-14
 -1      3620 2.03021E+01 2.01911E-01-9.44569E-04 1.13862E-01-6.10246E-14-5.17258E-14
 -1      3621 2.03591E+01 3.44411E-01 5.09438E-04 4.78962E-02-3.96394E-14-5.29888E-14
 -1      3622 2.02803E+01 1.54164E-01 7.25642E-04 1.35507E-01-5.21722E-14-6.15381E-14
 -1      3623 2.02546E+01 1.18899E-01-4.39123E-04 1.58596E-01-2.57320E-14-7.21691E-14
 -1      3624 2.03200E+01 2.03293E-01 1.70412E-04 1.04300E-01-5.97999E-14-5.22323E-14
 -1      3625 2.02257E+01 9.62837E-02 3.22098E-04 1.72439E-01-3.13772E-14-3.18321E-14
 -1      3626 2.01987E+01 8.36269E-02-1.07425E-04 1.88243E-01-4.64016E-14-1.44371E-14
 -1      3627 2.02663E+01 1.24404E-01 3.29160E-05 1.41431E-01-2.99562E-14-1.10552E-14
 -1      3628 2.01627E+01 8.08001E-02-6.79002E-05 1.97960E-01-2.75574E-14-1.12584E-14
 -1      3629 2.01324E+01 8.70489E-02 5.41796E-05 2.10581E-01-1.96751E-14 2.09816E-14
 -1      3630 2.02006E+01 9.42932E-02 1.03859E-04 1.66305E-01-3.89549E-14 2.57366E-14
 -1      3631 2.00926E+01 1.00885E-01-4.25814E-04 2.17496E-01-3.57941E-14 1.40609E-14
 -1      3632 2.00604E+01 1.21931E-01 1.65961E-05 2.28602E-01-1.33139E-14 2.30523E-14
 -1      3633 2.01255E+01 1.04078E-01 3.19817E-04 1.83603E-01-3.21203E-14 6.66924E-14
 -1      3634 2.00140E+01 1.49416E-01-7.72042E-04 2.34759E-01 7.32547E-15 1.07574E-14
 -1      3635 1.99755E+01 1.83702E-01-2.00969E-04 2.46583E-01 1.80424E-14-2.61413E-14
 -1      3636 2.00414E+01 1.45809E-01 7.02440E-04 1.96363E-01 7.67046E-16-4.32743E-15
 -1      3637 1.99196E+01 2.24026E-01-1.12516E-03 2.52189E-01 3.78660E-14-7.79027E-15
 -1      3638 1.98703E+01 2.71030E-01-6.56116E-04 2.65263E-01 5.73385E-14-2.95482E-15
 -1      3639 1.99422E+01 2.15062E-01 1.27038E-03 2.06363E-01 1.15146E-14-4.24877E-14
 -1      3640 1.98006E+01 3.24256E-01-1.48699E-03 2.69323E-01 6.49755E-14-7.16640E-15
 -1      3641 1.97341E+01 3.84175E-01-1.42692E-03 2.82872E-01 7.99731E-14 3.81235E-14
 -1      3642 1.98205E+01 3.09861E-01 2.05831E-03 2.12337E-01 5.08675E-14-5.20168E-14
 -1      3643 1.96446E+01 4.50950E-01-1.84963E-03 2.82742E-01 5.44672E-14-3.52829E-15
 -1      3644 1.95517E+01 5.24305E-01-2.62205E-03 2.94281E-01-9.99727E-15-4.18426E-14
 -1      3645 1.96656E+01 4.29415E-01 3.12354E-03 2.09919E-01 4.29894E-14-1.33595E-13
 -1      3646 1.94341E+01 6.05233E-01-2.26950E-03 2.85148E-01-7.31243E-14-6.48353E-14
 -1      3647 1.93020E+01 6.92035E-01-4.55111E-03 2.90104E-01-6.65021E-14-7.33457E-14
 -1      3648 1.94632E+01 5.73338E-01 4.61220E-03 1.90618E-01-4.05638E-14-7.73237E-14
 -1      3649 1.91369E+01 7.92601E-01-2.48330E-03 2.62769E-01-4.78767E-14-5.74023E-14
 -1      3650 1.89361E+01 8.96491E-01-7.22628E-03 2.51792E-01-5.37147E-14-5.80920E-14
 -1      3651 1.91854E+01 7.44176E-01 6.61859E-03 1.38709E-01-5.28164E-14-7.22170E-14
 -1      3652 1.87229E+01 1.00416E+00-3.04811E-03 1.96229E-01-9.68948E-14-3.45495E-14
 -1      3653 1.84472E+01 1.11046E+00-1.10876E-02 1.59136E-01-9.14056E-14-7.25039E-14
 -1      3654 1.88105E+01 9.31829E-01 9.31285E-03 3.12632E-02-9.33099E-14-1.11190E-13
 -1      3655 1.81614E+01 1.22284E+00-3.49620E-03 5.87643E-02-1.07155E-13-7.22716E-14
 -1      3656 1.77682E+01 1.32363E+00-1.65031E-02-1.99744E-02-1.35516E-13-9.85338E-14
 -1      3657 1.83160E+01 1.11749E+00 1.27832E-02-1.58745E-01-1.22510E-13-4.91866E-14
 -1      3658 1.73814E+01 1.42872E+00-3.70446E-03-1.85146E-01-1.38584E-13-1.46764E-13
 -1      3659 1.68130E+01 1.49954E+00-2.35715E-02-3.25332E-01-1.52230E-13-1.34821E-13
 -1      3660 1.76466E+01 1.27737E+00 1.59595E-02-4.78943E-01-1.51573E-13-4.11602E-14
 -1      3661 1.64862E+01 1.50919E+00 3.13784E-03-6.41420E-01-2.07553E-13-2.03720E-13
 -1      3662 1.56857E+01 1.52733E+00-1.97794E-02-8.98889E-01-1.62454E-13-2.39442E-13
 -1      3663 1.62142E+01 1.07011E+00 1.32391E-02-1.84960E+00-2.28428E-13-1.60028E-13
 -1      3664 1.68930E+01 1.29470E+00 1.34525E-02-1.02993E+00-2.24684E-13-8.24215E-14
 -1      3665 2.02102E+01 1.48205E-01-7.53374E-04-1.47359E-01 4.58446E-14 1.37490E-14
 -1      3666 2.02333E+01 2.03153E-01 1.80826E-03-1.09053E-01 5.34243E-14 3.42318E-15
 -1      3667 2.02872E+01 2.79490E-01-2.95124E-04-7.04975E-02 4.70259E-14 1.05742E-14
 -1      3668 2.02470E+01 1.54495E-01-5.13709E-04-1.43131E-01 3.38742E-14 7.66634E-15
 -1      3669 1.73263E+01 1.48935E+00-1.81998E-02 2.12170E-02 3.06090E-13 3.15448E-13
 -1      3670 1.77911E+01 1.39375E+00-4.78024E-03-5.68186E-02 2.08349E-13 3.69849E-13
 -1      3671 1.81531E+01 1.27306E+00-1.32386E-02-1.71406E-01 2.49735E-13 3.36185E-13
 -1      3672 1.84920E+01 1.15817E+00-3.86774E-03-2.07817E-01 2.13409E-13 3.12184E-13
 -1      3673 1.79838E+01 1.28111E+00 1.59975E-02 2.04280E-01 1.94694E-13 4.27284E-13
 -1      3674 1.87391E+01 1.04528E+00-8.84196E-03-2.65328E-01 1.30875E-13 2.69107E-13
 -1      3675 1.89605E+01 9.42644E-01-3.29281E-03-2.70358E-01 1.02320E-13 1.27851E-13
 -1      3676 1.85828E+01 1.08832E+00 1.19034E-02-1.30316E-02 1.36266E-13 3.95445E-13
 -1      3677 1.91408E+01 8.42821E-01-5.55239E-03-2.95366E-01 6.16386E-14 1.54066E-13
 -1      3678 1.92922E+01 7.52386E-01-2.76864E-03-2.83100E-01 1.25966E-14 2.74443E-13
 -1      3679 1.90048E+01 8.98552E-01 8.43886E-03-1.25100E-01 1.00383E-13 1.37010E-13
 -1      3680 1.94229E+01 6.68319E-01-3.43144E-03-2.87932E-01 8.86059E-15 2.89971E-13
 -1      3681 1.95253E+01 5.92766E-01-2.37973E-03-2.66952E-01 7.08366E-14 4.16745E-13
 -1      3682 1.93102E+01 7.26845E-01 5.98478E-03-1.74792E-01 1.20325E-14 2.20318E-13
 -1      3683 1.96201E+01 5.26025E-01-1.59329E-03-2.60630E-01 6.97951E-14 3.16779E-13
 -1      3684 1.96871E+01 4.64487E-01-2.23047E-03-2.36510E-01 1.88464E-13 2.51975E-13
 -1      3685 1.95298E+01 5.79126E-01 3.91645E-03-1.86697E-01 7.51240E-14 2.77907E-13
 -1      3686 1.97327E+01 4.32508E-01 3.55697E-04-2.20721E-01 2.58197E-13 1.47377E-13
 -1      3687 1.97622E+01 3.93245E-01-1.65221E-03-1.92664E-01 2.61255E-13 2.00442E-13
 -1      3688 1.97330E+01 4.10628E-01 9.73608E-04-1.44031E-01 1.98399E-13-3.98439E-13
 -1      3689 1.96579E+01 4.78036E-01 2.20153E-03-1.70343E-01 1.38399E-13 2.33400E-13
 -1      3690 2.43820E+01 3.96765E+00-4.04858E-02-1.33418E+00 3.79557E-13-2.46806E-13
 -1      3691 2.38635E+01 2.93369E+00-3.30477E-02-1.47898E+00 2.30812E-13-2.94646E-13
 -1      3692 2.00212E+01-4.34016E-03 2.34231E-03-5.13342E-01-1.25574E-13 4.94068E-14
 -1      3693 1.99878E+01 3.44773E-02 4.88749E-04-4.82199E-01-8.02355E-14-3.60595E-14
 -1      3694 1.99847E+01 6.19593E-02 1.99725E-03-4.39681E-01-6.32569E-14-8.85153E-14
 -1      3695 1.99707E+01 7.82207E-02-1.33462E-04-4.10872E-01-6.45912E-14-9.99113E-14
 -1      3696 1.99224E+01 7.39318E-02-2.09120E-03-4.72066E-01-1.22073E-13 8.92144E-14
 -1      3697 2.02790E+01-3.23543E-01 2.45532E-03-6.60946E-01-1.44433E-13 7.30435E-14
 -1      3698 2.01797E+01-2.15267E-01 3.32277E-03-6.41356E-01-1.43964E-13 8.84985E-15
 -1      3699 2.05518E+01-6.00746E-01 1.43975E-03-6.99330E-01-1.05833E-13 1.33664E-13
 -1      3700 2.04052E+01-4.50247E-01 5.92206E-03-7.02277E-01-9.55894E-14 4.94206E-14
 -1      3701 2.02215E+01-3.83197E-01-7.93472E-03-7.89439E-01-1.43885E-13 6.83589E-16
 -1      3702 2.09564E+01-9.48593E-01-7.69304E-04-6.67525E-01-2.98627E-15 1.42337E-14
 -1      3703 2.07577E+01-7.64580E-01 9.39047E-03-7.12338E-01-3.17806E-14 5.04012E-14
 -1      3704 2.05306E+01-7.10539E-01-1.12017E-02-8.70938E-01-1.38930E-14 3.60686E-14
 -1      3705 2.15015E+01-1.32028E+00-5.08554E-03-5.12984E-01-9.31712E-14-5.32473E-14
 -1      3706 2.12578E+01-1.13042E+00 1.31306E-02-6.22717E-01-7.48099E-15-3.62111E-14
 -1      3707 2.10076E+01-1.11881E+00-1.39750E-02-8.72426E-01 4.36278E-15-1.93270E-14
 -1      3708 2.21663E+01-1.60404E+00-9.65693E-03-1.68745E-01-5.45748E-14-5.69171E-14
 -1      3709 2.19030E+01-1.48053E+00 1.49509E-02-3.69908E-01-1.24956E-13-6.27853E-14
 -1      3710 2.16695E+01-1.55522E+00-1.78715E-02-7.28951E-01-8.14028E-14-1.08225E-13
 -1      3711 2.28656E+01-1.59913E+00-1.09481E-02 3.85480E-01-6.52875E-14 4.48852E-14
 -1      3712 2.26242E+01-1.64737E+00 1.26885E-02 1.00662E-01-5.60306E-14 6.52424E-15
 -1      3713 2.25163E+01-1.81637E+00 1.07038E-03-3.25935E-01-1.05232E-13-8.37384E-14
 -1      3714 2.34026E+01-1.06329E+00-7.49308E-03 1.07033E+00-1.56103E-14 8.50934E-14
 -1      3715 2.32682E+01-1.40798E+00-7.30950E-04 7.80837E-01-4.42755E-14 5.27973E-14
 -1      3716 2.33833E+01-1.75837E+00 5.73936E-03 3.35157E-01-3.25506E-14 2.93494E-14
 -1      3717 2.39900E+01 2.57710E-01-1.30547E-02 1.68131E+00 1.07640E-13 4.00279E-14
 -1      3718 2.40089E+01-4.95744E-01-1.86903E-02 1.49836E+00 7.00230E-14 1.16690E-13
 -1      3719 2.38923E+01 1.99285E+00-1.00670E-02 1.76130E+00 8.58549E-14-1.76309E-14
 -1      3720 2.40059E+01 1.03889E+00-5.44609E-02 1.85279E+00 7.85648E-14 1.74106E-14
 -1      3721 2.32602E+01 3.58912E+00-1.85824E-02 8.79532E-01 1.60705E-13-5.81852E-14
 -1      3722 2.33549E+01 2.98171E+00-6.11478E-02 1.34816E+00 1.34841E-13-5.25734E-14
 -1      3723 2.30881E+01 2.66628E+00-1.29548E-02-1.35429E+00 1.96556E-13-2.98364E-13
 -1      3724 2.29519E+01 3.20166E+00-2.10519E-02-8.94066E-01 3.78978E-13-2.95988E-13
 -1      3725 2.35994E+01 1.14355E+00-3.70193E-02-1.79910E+00 7.34439E-15-1.84181E-13
 -1      3726 2.35017E+01 2.04325E+00 4.67419E-03-1.74731E+00 6.76750E-14-3.09563E-13
 -1      3727 2.35824E+01-8.56341E-01-2.08669E-02-1.31400E+00-6.02179E-14 6.90019E-14
 -1      3728 2.36304E+01-1.79760E-01 1.02822E-02-1.57799E+00 6.80948E-14-5.87811E-14
 -1      3729 2.31286E+01-1.51194E+00 1.33192E-02-5.96411E-01-1.27243E-13 8.75552E-14
 -1      3730 2.32763E+01-1.25431E+00-1.12613E-02-8.90218E-01-1.64395E-13 7.34848E-14
 -1      3731 2.39108E+01-1.29070E+00-5.95032E-03-9.36125E-01-9.96399E-14-7.68307E-14
 -1      3732 2.24200E+01-1.61695E+00 1.41261E-02 4.75912E-02 1.07485E-13-6.56482E-14
 -1      3733 2.26662E+01-1.64030E+00-1.52797E-02-2.04046E-01 2.62405E-14 4.94456E-14
 -1      3734 2.31503E+01-1.88825E+00-2.06911E-02-1.19215E-01 2.40457E-14 2.69793E-14
 -1      3735 2.17118E+01-1.37748E+00 1.54426E-02 4.52322E-01 1.50450E-14-2.07792E-13
 -1      3736 2.19758E+01-1.53359E+00-8.21716E-03 2.82352E-01 1.28638E-13-1.66069E-13
 -1      3737 2.22497E+01-1.78641E+00-1.66618E-02 4.75334E-01 1.78959E-13-6.41239E-14
 -1      3738 2.11021E+01-1.01063E+00 1.22158E-02 6.51538E-01 6.07764E-14-1.74150E-13
 -1      3739 2.13359E+01-1.20583E+00-3.65086E-03 5.63545E-01-5.79738E-14-2.38094E-13
 -1      3740 2.14698E+01-1.41813E+00-1.37387E-02 7.82822E-01 4.22459E-14-2.98478E-13
 -1      3741 2.06412E+01-6.47273E-01 8.40543E-03 7.03242E-01 7.50875E-15-1.97472E-13
 -1      3742 2.08264E+01-8.27139E-01-4.70001E-05 6.74755E-01 9.35345E-14-1.38143E-13
 -1      3743 2.08523E+01-9.78809E-01-1.28731E-02 8.75417E-01 1.69748E-15-3.36903E-13
 -1      3744 2.03238E+01-3.47099E-01 5.12190E-03 6.69487E-01 5.81496E-14-2.27591E-13
 -1      3745 2.04577E+01-4.89646E-01 1.73088E-03 6.77429E-01-2.27196E-14-2.64373E-13
 -1      3746 2.04227E+01-5.82873E-01-9.99629E-03 8.39454E-01 3.96216E-14-1.82097E-13
 -1      3747 2.01229E+01-1.25813E-01 2.78667E-03 5.94280E-01 8.76457E-14-2.26694E-13
 -1      3748 2.02124E+01-2.27421E-01 2.34662E-03 6.21427E-01 1.71507E-13-1.29979E-13
 -1      3749 2.01482E+01-2.75042E-01-7.11311E-03 7.41865E-01 8.41665E-14-1.33955E-13
 -1      3750 2.00075E+01 2.23260E-02 1.25249E-03 5.04965E-01-2.45906E-13-1.54548E-14
 -1      3751 2.00628E+01-4.34620E-02 2.32781E-03 5.40111E-01-1.26328E-13-2.02868E-13
 -1      3752 1.99892E+01-5.90851E-02-4.66457E-03 6.24054E-01-8.92574E-14-7.70234E-14
 -1      3753 1.99507E+01 1.11628E-01 3.78817E-04 4.16587E-01-9.87967E-14 1.64643E-14
 -1      3754 1.99815E+01 7.35920E-02 2.02093E-03 4.53045E-01-1.31020E-13 4.76475E-14
 -1      3755 1.99098E+01 7.85282E-02-2.82855E-03 5.08402E-01-1.86802E-13 1.08414E-13
 -1      3756 1.99325E+01 1.59244E-01 8.35951E-04 3.37215E-01 7.97788E-14 3.76897E-14
 -1      3757 1.99459E+01 1.39174E-01 1.63396E-03 3.70494E-01-2.32135E-14 8.52590E-14
 -1      3758 1.98814E+01 1.56532E-01-1.53215E-03 4.05036E-01-9.48891E-14 1.19620E-13
 -1      3759 2.02936E+01 1.25283E+00 4.28763E-03 3.70156E-01 1.42835E-13-1.62086E-13
 -1      3760 2.02477E+01 1.43526E+00-3.47936E-03 4.30242E-01 1.52208E-13-1.85546E-13
 -1      3761 2.02324E+01 1.53385E+00-1.58995E-03 3.62533E-01 1.26516E-13-1.56875E-13
 -1      3762 2.03051E+01 1.06233E+00-2.70142E-03 2.91787E-01 1.38536E-13-1.41873E-13
 -1      3763 2.38645E+01 4.17913E+00-3.43767E-02-8.25569E-01 4.32196E-13-3.18503E-13
 -1      3764 2.32619E+01 3.90552E+00-4.09360E-02-6.83405E-02 2.80408E-13-2.40351E-13
 -1      3765 2.02016E+01 1.67919E+00-2.73824E-03-3.32132E-02 2.96906E-14-2.02582E-13
 -1      3766 2.02055E+01 1.66071E+00-3.25555E-03-1.22517E-01-4.72104E-15-1.96049E-13
 -1      3767 2.02883E+01 1.41063E+00 5.37055E-03-1.25806E-01-4.15201E-15-1.78611E-13
 -1      3768 2.02826E+01 1.44372E+00 5.20183E-03 2.68693E-03 1.96583E-14-1.89089E-13
 -1      3769 1.97104E+01 4.04801E-01-1.61923E-03-8.24439E-02-1.63380E-13-5.13413E-13
 -1      3770 1.97050E+01 4.05963E-01 1.31109E-03-3.06035E-02-3.33269E-13-1.11684E-14
 -1      3771 1.96770E+01 4.37130E-01-6.78054E-05-9.37637E-02-5.88861E-14-1.46931E-13
 -1      3772 2.02708E+01 1.31547E+00 1.93376E-05-4.25071E-01-1.04760E-13-1.60987E-13
 -1      3773 2.02666E+01 1.32603E+00 2.63613E-03-5.08992E-01-1.17883E-13-1.79520E-13
 -1      3774 1.35126E+01 1.58383E+00-3.88694E-02 1.13245E+00 6.87703E-14 2.98615E-13
 -1      3775 2.38068E+01-2.85451E+00-4.49821E-02 1.05283E+00 5.04163E-14-4.26930E-13
 -1      3776 2.29604E+01-2.96869E+00 3.86145E-02 2.23000E+00 2.47111E-14-2.87619E-13
 -1      3777 1.97239E+01 3.52520E-01-1.35416E-03 1.15377E-01 2.18885E-13 4.85385E-14
 -1      3778 1.97524E+01 3.30184E-01 8.63195E-04 1.54814E-01 2.06192E-13 2.56560E-14
 -1      3779 1.96991E+01 3.90579E-01-1.47314E-03 2.07842E-02-3.32464E-13-8.65317E-15
 -1      3780 1.97127E+01 3.77704E-01 1.08544E-03 6.98089E-02 5.05892E-14-1.13264E-13
 -1      3781 1.96818E+01 3.84820E-01 4.27952E-04 1.18140E-01 3.36718E-14-2.60208E-13
 -1      3782 1.96623E+01 4.20055E-01-1.64044E-04 2.06810E-02-2.13988E-13-2.10881E-14
 -1      3783 2.01113E+01-1.27731E-01 2.56989E-03-5.91290E-01-9.31704E-14 4.76923E-14
 -1      3784 2.00500E+01-5.79862E-02 1.57049E-03-5.62030E-01-9.24520E-14 4.15467E-14
 -1      3785 1.99513E+01-5.82973E-03-3.44280E-03-5.70131E-01-1.26999E-13 7.11812E-14
 -1      3786 2.00386E+01 7.26453E-02 1.06511E-03-2.85030E-01 4.02560E-14-6.23734E-14
 -1      3787 2.00518E+01 6.35230E-02-4.26767E-04-2.69365E-01 6.01317E-14-3.00154E-14
 -1      3788 1.98910E+01 2.24368E-01-3.90658E-04 1.85244E-01-2.82811E-13-8.30210E-14
 -1      3789 1.99140E+01 2.06615E-01 6.60237E-04 1.98820E-01-2.37996E-13-1.63063E-13
 -1      3790 1.99149E+01 2.01684E-01 5.05284E-04 2.18747E-01 3.53085E-14-1.70933E-13
 -1      3791 1.98690E+01 2.36639E-01 3.84779E-05 2.05019E-01 2.22266E-14 9.22811E-14
 -1      3792 1.61024E+01 1.66999E+00-2.70436E-02 3.23035E-01 7.23731E-14 5.67626E-13
 -1      3793 1.68340E+01 1.58572E+00-8.85292E-03 1.99756E-01 3.24118E-13 5.03588E-13
 -1      3794 1.71340E+01 1.44130E+00 1.74124E-02 5.73831E-01 2.65404E-13 5.18104E-13
 -1      3795 1.72724E+01-9.86322E-01-4.54260E-03 4.07929E+00 2.34001E-13 7.98962E-13
 -1      3796 1.57007E+01 9.25766E-02 3.80083E-02 3.52551E+00 3.24581E-13 4.75224E-13
 -1      3797 2.03551E+01 7.23639E-01 2.34086E-04-1.28466E-01-9.67093E-14-1.41505E-13
 -1      3798 2.03509E+01 5.73365E-01-2.06758E-03-5.51308E-02-9.28907E-14-1.41411E-13
 -1      3799 2.03741E+01 5.63696E-01 3.78216E-04-3.38251E-02-6.38738E-14-1.05881E-13
 -1      3800 1.69647E+01-7.38804E-02 2.89117E-02-3.15145E+00-2.96550E-13-3.47968E-14
 -1      3801 2.24504E+01-2.49485E+00 1.38500E-02 1.81654E+00 1.56991E-13-4.01607E-13
 -1      3802 2.21928E+01-2.87046E+00-1.47519E-02 2.67424E+00 6.45751E-14-2.55083E-13
 -1      3803 2.13020E+01-2.42086E+00 2.39159E-02 2.95033E+00 6.78604E-14-6.73317E-14
 -1      3804 2.02268E+01 8.18616E-02-1.19586E-04-1.78492E-01 1.36854E-14 2.15402E-14
 -1      3805 2.02504E+01 1.10852E-01 6.68817E-04-1.58586E-01 1.70145E-14 4.67390E-14
 -1      3806 1.65306E+01 1.43055E-01-1.63296E-04 3.02976E+00 3.29990E-13 6.39545E-13
 -1      3807 1.52516E+01 5.05997E-01 4.37517E-02 3.16668E+00 3.08063E-13 4.10018E-13
 -1      3808 1.48139E+01 1.04918E+00 6.94209E-02 2.50592E+00 2.84533E-13 3.86498E-13
 -1      3809 2.00660E+01 7.20111E-02-3.41511E-04-2.42517E-01 7.89466E-14-8.62769E-14
 -1      3810 2.00810E+01 5.57392E-02 8.20774E-04-2.54404E-01 7.39649E-14-1.29196E-14
 -1      3811 2.00981E+01 4.89152E-02-2.62421E-04-2.41520E-01 7.88213E-14 1.70525E-14
 -1      3812 2.00410E+01-1.52189E-01-5.37566E-03-6.80253E-01-1.32208E-13-2.03272E-15
 -1      3813 2.03382E+01 4.58537E-01-1.98361E-03 1.10419E-02 4.90596E-14-3.72069E-14
 -1      3814 2.03546E+01 5.87289E-01 2.37430E-03 7.76156E-02 6.25329E-14-7.11299E-14
 -1      3815 2.03360E+01 7.28524E-01-2.93226E-03 1.38599E-01 8.64746E-14-8.26608E-14
 -1      3816 2.03427E+01 8.72008E-01 3.40535E-03 2.06311E-01 1.08689E-13-1.06878E-13
 -1      3817 2.03178E+01 1.07371E+00-1.05246E-03 2.52248E-01 1.10685E-13-1.12400E-13
 -1      3818 2.03610E+01 7.18613E-01-3.37237E-04 1.04218E-01 5.83299E-14-5.29598E-14
 -1      3819 1.99322E+01 1.05780E-01-1.26647E-03-3.90914E-01 1.41221E-15 9.32558E-14
 -1      3820 1.99834E+01 8.73554E-02 1.64463E-03-3.76268E-01 2.39250E-16-6.18526E-14
 -1      3821 1.99825E+01 8.88955E-02-4.33186E-04-3.51761E-01 1.27815E-14-2.41326E-14
 -1      3822 2.44408E+01-1.05333E+00-6.52122E-04 1.15084E+00 6.39866E-14 1.69293E-13
 -1      3823 2.29021E+01 3.39010E+00-1.28734E-02-2.64789E-01 3.23724E-13-1.87452E-13
 -1      3824 2.02932E+01 1.33685E+00 4.48003E-03 2.68702E-01 9.59684E-14-1.19783E-13
 -1      3825 1.99173E+01 1.79695E-01 6.73917E-04 3.03119E-01 8.68526E-14 1.95771E-13
 -1      3826 1.98640E+01 2.05054E-01-5.46787E-04 3.21123E-01-1.85121E-14 3.27715E-13
 -1      3827 1.99034E+01 1.98031E-01 1.53362E-03 2.76857E-01-6.31098E-14 3.10958E-13
 -1      3828 1.55738E+01 1.38507E+00-7.11475E-03 1.28244E+00 1.34993E-13 5.70138E-13
 -1      3829 1.62103E+01 1.16995E+00 2.73808E-02 1.72809E+00 2.00407E-13 7.12611E-13
 -1      3830 1.97639E+01-1.89389E+00-3.71313E-02 3.47157E+00 5.80755E-14 4.36172E-13
 -1      3831 1.85853E+01-1.39246E+00 4.73048E-02 3.89001E+00 1.10150E-13 7.20894E-13
 -1      3832 1.81721E+01-7.41047E-01 1.04642E-02 3.32203E+00 2.26773E-13 5.57588E-13
 -1      3833 2.37136E+01-3.11327E+00 8.46729E-03-1.71530E+00-2.23050E-13 1.23168E-13
 -1      3834 2.38320E+01-2.67145E+00 7.98661E-03-8.78442E-01-1.60630E-13 7.66132E-14
 -1      3835 2.26746E+01-2.85261E+00-1.45591E-02-2.11900E+00-1.99750E-13 1.81189E-13
 -1      3836 1.46582E+01 1.31578E+00-1.96019E-02 1.58596E+00 7.76670E-14 4.93064E-13
 -1      3837 1.92889E+01-1.63092E+00-4.66756E-03-3.56293E+00-2.26565E-13 4.87456E-13
 -1      3838 2.02930E+01-2.24436E+00 3.82341E-02-3.70106E+00-1.99380E-13 5.44329E-13
 -1      3839 2.12387E+01-2.47819E+00 4.26059E-03-3.03780E+00-2.14565E-13 5.03530E-13
 -1      3840 2.01774E+01 5.08656E-02 2.68589E-04-2.06301E-01-3.72357E-15-1.84173E-14
 -1      3841 2.01995E+01 6.26276E-02 3.04556E-04-1.92097E-01 1.94236E-15 1.65895E-14
 -1      3842 2.02395E+01 8.69067E-02-2.44392E-04-1.63353E-01 2.56464E-14 5.85407E-14
 -1      3843 2.03300E+01 1.11120E+00 6.53871E-04-1.72833E-01-5.57035E-14-1.28128E-13
 -1      3844 2.03330E+01 9.45555E-01-2.85079E-03-2.26300E-01-8.89316E-14-1.34942E-13
 -1      3845 1.97774E+01 2.99712E-01-1.12559E-03 1.86934E-01 1.88138E-13-1.44291E-13
 -1      3846 1.98048E+01 2.79540E-01 4.26612E-04 2.10099E-01 2.47966E-13-1.93431E-13
 -1      3847 1.97299E+01 3.33131E-01 5.19854E-04 1.96134E-01 1.63932E-13-1.13375E-13
 -1      3848 2.03180E+01 1.22178E+00-2.89478E-03 3.09301E-02 2.58457E-14-1.73150E-13
 -1      3849 2.03182E+01 1.22335E+00-2.53244E-03-2.72487E-02 1.34808E-14-1.81772E-13
 -1      3850 2.42911E+01-2.21901E+00 3.13952E-02-5.90847E-02-8.30794E-14-1.62688E-13
 -1      3851 2.34283E+01-2.29304E+00-8.81980E-03 4.61191E-01 4.62352E-14-2.31199E-13
 -1      3852 2.03227E+01 1.17390E+00-2.93179E-03 1.29620E-01 6.06464E-14-1.11072E-13
 -1      3853 2.03192E+01 1.20787E+00-2.17219E-03 7.48447E-02 3.77889E-14-1.39930E-13
 -1      3854 2.03737E+01 1.02807E+00 5.68703E-03 3.95293E-02 3.79801E-14-1.30808E-13
 -1      3855 2.00119E+01 8.01460E-02-4.99877E-04-3.05114E-01-1.92119E-15-3.92565E-15
 -1      3856 2.00121E+01 9.18251E-02-4.54339E-04-2.78745E-01-1.42602E-14-2.81136E-15
 -1      3857 2.00043E+01 8.67520E-02 1.33939E-03-3.24903E-01-4.11822E-14-1.52478E-14
 -1      3858 2.43113E+01 6.26073E-01-1.86111E-02-1.77796E+00-1.22805E-13-2.00076E-13
 -1      3859 2.03198E+01 1.20919E+00-2.10401E-03-7.02560E-02 1.75555E-15-1.62200E-13
 -1      3860 2.03197E+01 1.17405E+00-4.35813E-03-1.26277E-01-2.84333E-14-1.54648E-13
 -1      3861 2.03710E+01 1.03000E+00 4.89014E-03-3.43048E-02 3.46587E-15-1.54739E-13
 -1      3862 2.03710E+01 9.45578E-01 4.54010E-03-1.08970E-01-5.94997E-14-1.15766E-13
 -1      3863 2.46803E+01-1.74905E+00-8.52823E-03 6.98144E-01 7.31975E-14 2.17187E-13
 -1      3864 1.68595E+01 3.52353E-01-1.84771E-02-2.54628E+00-2.44509E-13-7.67407E-14
 -1      3865 1.80648E+01-6.07090E-01 4.37769E-03-3.20429E+00-2.87854E-13 1.71344E-13
 -1      3866 2.46444E+01-1.78841E+00 6.48549E-03-5.08100E-01-7.13830E-14-1.89703E-13
 -1      3867 2.03545E+01 2.45100E-01 6.63739E-04 7.22003E-02-4.77005E-14-5.09180E-14
 -1      3868 2.03289E+01 1.87766E-01-7.61255E-04 9.53384E-02-3.05469E-14-4.03943E-14
 -1      3869 2.03018E+01 1.46674E-01 2.63862E-04 1.06605E-01-2.18648E-14-2.71726E-14
 -1      3870 2.02709E+01 1.18165E-01-4.28845E-04 1.22087E-01-4.42928E-14 7.19178E-15
 -1      3871 2.03326E+01 1.83860E-01 3.03107E-04 7.67904E-02-1.36884E-14-1.00040E-14
 -1      3872 2.02342E+01 1.01421E-01 7.12468E-05 1.29140E-01-5.21575E-14 1.18259E-14
 -1      3873 2.01970E+01 9.56235E-02-2.60505E-04 1.39838E-01-3.34438E-14 2.60564E-14
 -1      3874 2.02668E+01 1.20524E-01 2.11153E-04 9.61072E-02-1.82318E-14 1.50749E-14
 -1      3875 2.01554E+01 9.99278E-02-1.28200E-04 1.43190E-01-3.10253E-14 3.35931E-14
 -1      3876 2.01153E+01 1.12159E-01-2.88268E-04 1.50356E-01-3.01480E-14 4.76406E-14
 -1      3877 2.01877E+01 1.05328E-01 3.01306E-04 1.07071E-01-2.01825E-14 3.38367E-14
 -1      3878 2.00675E+01 1.32039E-01-3.12137E-04 1.51297E-01-3.77289E-14 2.09809E-14
 -1      3879 2.00210E+01 1.58600E-01-5.02964E-04 1.56375E-01-5.55936E-15 6.29431E-15
 -1      3880 2.00988E+01 1.27395E-01 5.03581E-04 1.11367E-01-3.92036E-14 5.13894E-14
 -1      3881 1.99656E+01 1.91806E-01-4.77517E-04 1.54511E-01-1.26813E-14-1.89524E-14
 -1      3882 1.99094E+01 2.30651E-01-9.41682E-04 1.57336E-01-1.13401E-14-6.18270E-15
 -1      3883 1.99967E+01 1.78725E-01 8.71873E-04 1.09300E-01-2.21170E-14-5.24091E-15
 -1      3884 1.98441E+01 2.75670E-01-5.95490E-04 1.51088E-01 7.44394E-15 5.69729E-15
 -1      3885 1.97734E+01 3.25407E-01-1.65574E-03 1.50056E-01 3.91070E-14-3.90753E-14
 -1      3886 1.98772E+01 2.54184E-01 1.40501E-03 9.85746E-02-2.47845E-14 2.73057E-14
 -1      3887 1.96945E+01 3.81233E-01-6.33165E-04 1.36335E-01 4.40875E-14-1.03589E-14
 -1      3888 1.96026E+01 4.40491E-01-2.75625E-03 1.28029E-01 1.80613E-14-3.31078E-14
 -1      3889 1.97339E+01 3.49702E-01 2.09813E-03 7.39896E-02 2.70285E-14 2.86965E-14
 -1      3890 1.95060E+01 5.05896E-01-5.13680E-04 1.01500E-01-2.84590E-14-4.79947E-14
 -1      3891 1.93834E+01 5.72701E-01-4.47590E-03 8.01178E-02-5.56780E-14 2.84676E-15
 -1      3892 1.95583E+01 4.60581E-01 2.87486E-03 2.67720E-02-1.28856E-14-4.23222E-14
 -1      3893 1.92573E+01 6.49783E-01 2.22825E-06 3.02502E-02-7.97673E-14-4.07475E-14
 -1      3894 1.90828E+01 7.24308E-01-6.70960E-03-1.70416E-02-9.59142E-14-7.38651E-14
 -1      3895 1.93337E+01 5.84854E-01 4.03832E-03-6.01248E-02-8.40342E-14 1.07391E-14
 -1      3896 1.89330E+01 8.01004E-01 6.70154E-04-9.84202E-02-8.12845E-14-7.45689E-14
 -1      3897 1.87067E+01 8.69214E-01-9.59891E-03-1.80374E-01-8.19534E-14-5.10423E-14
 -1      3898 1.90513E+01 7.07575E-01 5.13075E-03-2.07597E-01-7.36226E-14 1.97210E-14
 -1      3899 1.85230E+01 9.40475E-01 2.22250E-03-3.10765E-01-1.22330E-13-7.76137E-14
 -1      3900 1.82190E+01 9.93471E-01-1.28218E-02-4.48961E-01-1.14326E-13-5.32960E-14
 -1      3901 1.87070E+01 8.08353E-01 6.42239E-03-4.40034E-01-1.35320E-13-3.40634E-14
 -1      3902 1.79989E+01 1.04359E+00 5.62577E-03-6.46601E-01-1.37731E-13-4.33322E-14
 -1      3903 1.75973E+01 1.06461E+00-1.16903E-02-8.74256E-01-1.75873E-13-3.32174E-14
 -1      3904 1.82799E+01 8.61193E-01 7.19227E-03-7.99811E-01-1.05973E-13-7.93197E-14
 -1      3905 1.98618E+01 1.16269E-01 2.96917E-03-4.88977E-01-1.51649E-13 1.55675E-13
 -1      3906 1.98544E+01 1.34556E-01-7.47416E-04-4.42082E-01-5.59073E-14 1.69564E-13
 -1      3907 1.78520E+01 1.13210E+00-1.56936E-02 5.50506E-01 1.95497E-13 3.50669E-13
 -1      3908 1.82335E+01 1.08111E+00 2.32486E-03 3.84607E-01 1.08829E-13 3.71742E-13
 -1      3909 2.03454E+01 8.06882E-01-1.19494E-04-1.53158E-01-1.00191E-13-1.40464E-13
 -1      3910 1.84472E+01 1.01076E+00-1.21063E-02 2.33567E-01 4.15433E-14 2.23244E-13
 -1      3911 1.87113E+01 9.44894E-01 3.64305E-04 1.42366E-01 1.31044E-13 1.61659E-13
 -1      3912 1.84424E+01 9.40087E-01 9.15922E-03 5.40996E-01 5.27525E-14 4.30828E-14
 -1      3913 1.88822E+01 8.68429E-01-8.23314E-03 4.91062E-02 1.48965E-13 1.28593E-13
 -1      3914 1.90728E+01 7.97541E-01-4.56589E-04 7.62279E-04-5.94647E-14 9.17541E-15
 -1      3915 1.88400E+01 8.48606E-01 7.09152E-03 2.69586E-01 8.59317E-14 1.25844E-14
 -1      3916 1.92062E+01 7.24089E-01-5.55178E-03-5.31889E-02-8.92220E-14 3.08195E-14
 -1      3917 1.93429E+01 6.57142E-01-8.86086E-04-7.42766E-02 6.80407E-14 1.50236E-13
 -1      3918 1.91503E+01 7.33440E-01 5.45231E-03 1.03006E-01-1.24953E-14 2.69408E-15
 -1      3919 1.94459E+01 5.92762E-01-3.31803E-03-1.02458E-01 1.28532E-13 1.31682E-13
 -1      3920 1.95412E+01 5.32397E-01-1.73331E-03-1.07361E-01 8.75437E-14 2.17193E-13
 -1      3921 1.93891E+01 6.15592E-01 4.06320E-03 6.89741E-03 2.72508E-14-3.55123E-14
 -1      3922 1.95917E+01 5.00094E-01-7.63348E-04-1.06995E-01 1.73120E-14 1.53721E-13
 -1      3923 1.96332E+01 4.63614E-01-1.77769E-03-9.47057E-02 6.39881E-14 5.41376E-15
 -1      3924 1.96262E+01 4.62061E-01 1.54781E-03-3.17460E-02-1.28097E-13 6.02782E-14
 -1      3925 1.95371E+01 5.24616E-01 2.45685E-03-2.73555E-02 5.98772E-14 9.69853E-14
 -1      3926 2.03346E+01 3.55082E-01 1.52224E-03-3.37290E-02 3.53224E-14-5.14730E-15
 -1      3927 2.03631E+01 4.56308E-01 8.38555E-04-1.41504E-03 2.26616E-14-6.05545E-14
 -1      3928 2.03132E+01 2.69333E-01-1.27907E-03-7.92937E-02 2.43608E-14-7.03144E-15
 -1      3929 1.99655E+01-1.15936E-01 4.63721E-03-7.57362E-01-1.53852E-13 6.71086E-15
 -1      3930 1.98951E+01-2.99372E-02 8.20937E-04-6.94457E-01-1.16089E-13 1.85703E-14
 -1      3931 2.04820E+01-7.26352E-01 5.53123E-03-1.05771E+00 1.87545E-15 3.95288E-15
 -1      3932 2.02832E+01-5.29296E-01 6.30487E-03-1.01385E+00-6.78681E-14 4.54388E-14
 -1      3933 2.01505E+01-3.64653E-01 5.20507E-03-9.14707E-01-1.31063E-13 1.79665E-14
 -1      3934 2.00262E+01-2.27365E-01 2.86922E-03-8.53277E-01-1.52295E-13 1.98944E-15
 -1      3935 2.00165E+01-4.03597E-01-9.85292E-03-1.09008E+00-8.46358E-14 2.39491E-14
 -1      3936 2.17420E+01-1.73731E+00-8.19854E-03-1.05206E+00-9.53100E-14-4.10868E-14
 -1      3937 2.14120E+01-1.44746E+00 2.59610E-02-1.13889E+00-8.19444E-14-2.67227E-14
 -1      3938 2.30430E+01-2.30732E+00-1.35709E-02-7.06363E-01-1.71885E-13 1.43889E-14
 -1      3939 2.26049E+01-2.16102E+00 1.19842E-02-9.57663E-01-1.70770E-13-5.05967E-14
 -1      3940 2.41310E+01-2.07913E+00-5.42727E-03 1.77592E-01 2.55178E-15 1.59765E-13
 -1      3941 2.37181E+01-2.28514E+00-1.43709E-03-2.37493E-01-1.18432E-13 6.94896E-14
 -1      3942 2.03214E+01 1.11053E+00-1.90256E-03 1.88817E-01 7.50931E-14-9.24159E-14
 -1      3943 2.03639E+01 7.79822E-01-1.09428E-03-1.12356E-01-9.27540E-14-1.20612E-13
 -1      3944 2.11810E+01-1.29647E+00 1.59099E-02 1.15386E+00 2.56665E-14-2.43772E-13
 -1      3945 2.15293E+01-1.56788E+00-4.91579E-04 1.08897E+00 9.10925E-14-1.59276E-13
 -1      3946 2.05745E+01-7.98539E-01 1.00909E-02 1.10082E+00-2.49325E-14-1.14329E-13
 -1      3947 2.08328E+01-1.03957E+00 3.33882E-03 1.11534E+00-5.25570E-14-2.44417E-13
 -1      3948 2.07616E+01-1.19254E+00-1.59531E-02 1.42251E+00-3.52923E-14-1.21799E-13
 -1      3949 2.01868E+01-4.05182E-01 5.03068E-03 9.58952E-01 7.75080E-15-1.33475E-13
 -1      3950 2.03634E+01-5.88841E-01 4.90207E-03 1.01125E+00 3.19557E-14-7.26433E-14
 -1      3951 2.02409E+01-6.65474E-01-1.16691E-02 1.24345E+00-1.49278E-14 3.80642E-15
 -1      3952 1.99623E+01-1.23771E-01 2.10073E-03 7.91173E-01 1.34029E-13-1.21448E-13
 -1      3953 2.00730E+01-2.50360E-01 4.98626E-03 8.56961E-01 4.93422E-14-7.04487E-14
 -1      3954 1.99388E+01-2.77438E-01-8.47484E-03 1.01869E+00 6.16923E-14-2.59542E-14
 -1      3955 1.98497E+01 5.87868E-02 3.74810E-04 6.30788E-01-2.40262E-13 7.37329E-14
 -1      3956 1.99123E+01-2.06443E-02 4.27459E-03 6.95879E-01-4.39073E-15 1.44508E-14
 -1      3957 1.97867E+01-1.56261E-02-5.19854E-03 8.01647E-01-6.35384E-14 5.23746E-14
 -1      3958 1.98090E+01 1.65122E-01-5.06824E-04 4.91551E-01-1.90837E-13 4.07323E-14
 -1      3959 1.98389E+01 1.21081E-01 3.37191E-03 5.49579E-01-2.71234E-13-1.39553E-14
 -1      3960 1.97302E+01 1.43914E-01-2.81483E-03 6.13943E-01-2.26368E-13-9.36259E-14
 -1      3961 1.98124E+01 2.16600E-01-7.50515E-04 3.76950E-01 1.72922E-14-1.00124E-13
 -1      3962 1.98198E+01 1.97110E-01 2.31953E-03 4.26047E-01-6.15796E-15-6.53473E-14
 -1      3963 1.97307E+01 2.29038E-01-1.09273E-03 4.61494E-01-1.05027E-13-3.18284E-13
 -1      3964 2.02925E+01 1.51958E-01-1.25745E-04-1.28230E-01 1.05468E-14 3.06035E-14
 -1      3965 2.02736E+01 1.49940E-01-6.24719E-04-1.39010E-01 4.19757E-15 4.03360E-14
 -1      3966 2.02973E+01 2.02885E-01 1.04637E-03-1.08874E-01 3.17062E-14 1.92395E-14
 -1      3967 1.98809E+01 3.67546E-02 3.81316E-03-6.11756E-01-6.57487E-14 1.83673E-14
 -1      3968 1.98482E+01 8.30895E-02-2.89540E-04-5.55342E-01-9.09556E-14 5.97112E-14
 -1      3969 1.97677E+01 1.44612E-01-2.08774E-03-5.24190E-01-5.96671E-14 8.20476E-14
 -1      3970 2.45885E+01-8.33317E-01-4.46226E-02-1.45011E+00-9.43202E-14-2.40568E-13
 -1      3971 2.29692E+01-2.23092E+00 2.68508E-02 8.04127E-01 9.29699E-14-2.13254E-13
 -1      3972 2.10110E+01-1.19906E+00 4.03288E-03-1.13806E+00-1.32793E-14 3.67198E-15
 -1      3973 2.07222E+01-9.50235E-01 1.09544E-02-1.14048E+00 7.99057E-14 4.43272E-14
 -1      3974 2.09785E+01-1.41306E+00-2.58608E-02-1.46020E+00-1.02331E-14 3.86574E-14
 -1      3975 2.03853E+01 8.57421E-01-3.66956E-03-7.50871E-03 9.14716E-15-1.49029E-13
 -1      3976 2.03851E+01 8.47654E-01-2.78362E-03-3.99065E-02-2.10274E-14-1.27412E-13
 -1      3977 2.01280E+01 4.54058E-02 5.69649E-04-2.29662E-01 3.09819E-14-1.08837E-16
 -1      3978 2.01480E+01 4.54748E-02-1.42579E-05-2.17542E-01 4.03802E-15-2.95869E-14
 -1      3979 2.01235E+01 5.78675E-02-3.38966E-04-2.14429E-01 3.04228E-14-8.82776E-15
 -1      3980 1.70829E+01 1.17732E+00-1.69822E-02 1.05528E+00 1.26786E-13 6.82639E-13
 -1      3981 1.75939E+01 1.17679E+00 8.79715E-03 7.82337E-01 1.82142E-13 4.62948E-13
 -1      3982 1.79389E+01 9.68960E-01 9.74675E-03 9.67183E-01 4.98690E-14 4.14274E-13
 -1      3983 1.65942E+01 6.18329E-01 4.59894E-03 2.37835E+00 2.47952E-13 6.98731E-13
 -1      3984 1.68649E+01 1.06730E+00 1.38756E-02 1.48498E+00 2.32363E-13 7.30689E-13
 -1      3985 1.74087E+01 7.72758E-01 9.38871E-05 1.66723E+00 1.31071E-13 7.30692E-13
 -1      3986 1.70605E+01 1.85849E-01-1.04083E-02 2.73871E+00 2.85350E-13 6.88817E-13
 -1      3987 2.03895E+01 4.11611E-01 1.88860E-03 1.86892E-02-2.33102E-14-7.99599E-14
 -1      3988 2.03697E+01 3.17630E-01-1.32548E-03 5.31784E-02-3.63106E-14-6.55711E-14
 -1      3989 2.03785E+01 3.07782E-01 8.56192E-04 4.66671E-02-3.40570E-14-4.91673E-14
 -1      3990 2.24156E+01-1.96950E+00 6.09372E-03 7.77254E-01 1.78683E-13-2.56566E-13
 -1      3991 2.24292E+01-2.35088E+00-2.49239E-02 1.41096E+00 1.76302E-13-4.06666E-13
 -1      3992 2.19462E+01-2.10689E+00 2.83621E-02 1.73559E+00 3.28067E-13-3.41322E-13
 -1      3993 2.19893E+01-1.76646E+00 2.69856E-02 9.86552E-01 1.95322E-13-2.32991E-13
 -1      3994 1.71957E+01 6.00404E-01 1.63086E-02-2.05716E+00-2.62493E-13-6.51328E-14
 -1      3995 1.98080E+01 1.76336E-01-1.11902E-03-4.03737E-01-4.48629E-14 1.91081E-13
 -1      3996 1.98830E+01 1.44722E-01 2.23186E-03-3.91131E-01-3.28374E-14 1.86712E-13
 -1      3997 1.98912E+01 1.44446E-01-1.08510E-03-3.53896E-01 2.02163E-15 1.61554E-13
 -1      3998 1.74880E+01 1.00817E+00 1.46233E-02-1.16713E+00-2.26315E-13-6.22165E-14
 -1      3999 1.71346E+01 9.09654E-01-8.44319E-03-1.52712E+00-2.46610E-13-9.76792E-14
 -1      4000 1.78900E+01 7.49728E-01-1.49152E-03-1.31931E+00-1.58286E-13-8.22363E-14
 -1      4001 2.03777E+01 4.23687E-01-1.28245E-03-2.14498E-02 7.84418E-15-8.11298E-14
 -1      4002 2.03875E+01 5.38765E-01-2.27611E-04 2.70133E-02 1.71700E-14-8.15497E-14
 -1      4003 1.98308E+01 2.55108E-01-8.90521E-04 2.23584E-01 2.45961E-13 9.58865E-14
 -1      4004 1.98562E+01 2.36753E-01-3.31681E-04 2.33424E-01 2.54599E-13 1.82990E-13
 -1      4005 1.97895E+01 2.81662E-01 4.91184E-04 2.40775E-01 4.97393E-14-1.53149E-13
 -1      4006 2.00503E+01 9.22734E-02 8.98427E-04-2.21358E-01 4.80646E-14-5.51022E-14
 -1      4007 2.00774E+01 8.00870E-02-5.20142E-04-2.05270E-01 6.77967E-14-7.33500E-14
 -1      4008 2.03518E+01-8.23971E-01-1.81137E-02-1.30569E+00 1.29461E-14 9.27296E-14
 -1      4009 2.03760E+01 7.79332E-01-6.81168E-04 6.94873E-02 4.57878E-14-8.04733E-14
 -1      4010 2.03637E+01 9.53225E-01 3.52243E-03 1.29987E-01 6.66459E-14-8.89918E-14
 -1      4011 1.98367E+01-1.19020E-01-6.40573E-03-8.72867E-01-1.39519E-13-1.23232E-14
 -1      4012 2.05529E+01-1.83612E+00 7.57842E-03 2.79453E+00-9.13158E-15-4.85289E-16
 -1      4013 2.21321E+01-2.15598E+00-7.48460E-03-1.47749E+00-1.22574E-13 2.41300E-14
 -1      4014 1.95795E+01 4.72348E-01-5.41074E-04 3.26705E-02 2.13480E-13-1.54619E-13
 -1      4015 1.96206E+01 4.43714E-01-9.89679E-04 2.97072E-02 4.92256E-14-2.14874E-14
 -1      4016 1.96283E+01 4.31262E-01 1.06792E-03 8.14034E-02 1.27699E-13-3.00997E-13
 -1      4017 2.03892E+01 7.42567E-01-1.49489E-04 4.37621E-02 4.60466E-14-1.10115E-13
 -1      4018 1.98030E+01 2.40635E-01 5.98226E-04 3.37288E-01-1.45774E-13-2.51159E-14
 -1      4019 2.03034E+01 1.42243E-01-3.72530E-04-1.16903E-01 2.24445E-15 2.39699E-14
 -1      4020 2.03291E+01 1.88750E-01 3.86930E-04-9.51805E-02 8.33277E-16 2.72457E-14
 -1      4021 1.97676E+01 5.48851E-02-3.79106E-03-6.80667E-01-9.47764E-14 7.02989E-14
 -1      4022 1.87703E+01-6.91423E-01-2.87884E-02 2.73203E+00 2.12720E-14 2.28641E-13
 -1      4023 1.79097E+01-1.86932E-01 2.86538E-02 2.82624E+00 1.80852E-13 4.90397E-13
 -1      4024 1.79090E+01 2.01387E-01 1.08106E-02 2.25718E+00 9.79132E-14 5.30651E-13
 -1      4025 2.15152E+01-1.77136E+00-2.39650E-02 1.41649E+00 7.85316E-14-2.61861E-13
 -1      4026 1.88569E+01-9.53051E-01 1.99978E-02-3.10926E+00-1.74024E-13 3.09220E-13
 -1      4027 1.97480E+01-1.42854E+00-1.75077E-02-2.93490E+00-9.16229E-14 3.92331E-13
 -1      4028 1.86960E+01-5.12297E-01-1.60976E-04-2.61013E+00-1.84235E-13 1.99849E-13
 -1      4029 2.01822E+01 5.94753E-02-2.95960E-04-1.89904E-01 9.36331E-15-8.38384E-15
 -1      4030 1.96715E+01 3.61272E-01-8.25339E-04 2.16134E-01-1.33386E-13-3.45021E-14
 -1      4031 1.97075E+01 3.33316E-01 9.34828E-04 2.47859E-01-1.95323E-13-1.97017E-13
 -1      4032 1.99654E+01 1.07088E-01-7.30598E-04-3.27103E-01 1.72437E-14 7.50056E-14
 -1      4033 1.99863E+01 1.18784E-01 1.30918E-03-2.61468E-01-6.98125E-14 5.89332E-15
 -1      4034 2.00100E+01 1.04861E-01-7.30198E-04-2.40251E-01-2.18691E-14-4.06319E-14
 -1      4035 2.00201E+01 1.14962E-01-7.60579E-05-2.02121E-01 9.39710E-15-7.63389E-14
 -1      4036 2.02462E+01 8.54835E-02 1.92536E-06-1.44871E-01 4.00659E-15 4.51882E-14
 -1      4037 2.02747E+01 1.08517E-01 2.01963E-04-1.29337E-01-3.07402E-15 3.87668E-14
 -1      4038 2.03070E+01 1.41210E-01 5.34418E-05-9.86700E-02-9.68731E-15 1.95358E-14
 -1      4039 2.03885E+01 7.98299E-01-3.36858E-03 3.79109E-02 3.89653E-14-1.07571E-13
 -1      4040 2.03909E+01 8.18397E-01-1.60767E-03 9.83344E-03 9.91690E-15-1.27626E-13
 -1      4041 2.04208E+01 6.73401E-01 4.24037E-03-3.56461E-03-4.86381E-15-1.12720E-13
 -1      4042 2.04149E+01 5.74981E-01 3.65719E-03 5.94097E-03-2.81029E-15-9.03255E-14
 -1      4043 2.03836E+01 8.21600E-01-4.24456E-04-5.98097E-02-2.85629E-14-9.58448E-14
 -1      4044 2.03760E+01 7.51361E-01-1.80795E-03-8.41556E-02-6.84283E-14-1.15941E-13
 -1      4045 1.96318E+01 4.11231E-01-8.50263E-04 1.27411E-01-3.54615E-14-3.73031E-13
 -1      4046 1.96523E+01 3.89005E-01 3.41832E-04 1.72954E-01-8.50901E-14-1.14701E-13
 -1      4047 1.96235E+01 3.88894E-01-3.53517E-04 2.30822E-01-2.16046E-13-6.30644E-14
 -1      4048 1.95971E+01 4.35730E-01 9.23918E-04 1.38753E-01 8.36981E-14-1.98691E-13
 -1      4049 1.98812E+01 2.19579E-01 4.56519E-04 2.39550E-01 1.88681E-13 3.25873E-14
 -1      4050 1.98846E+01 2.11806E-01 4.12794E-04 2.62091E-01 1.20187E-13 2.25453E-13
 -1      4051 2.04106E+01 6.88936E-01 4.46636E-03-2.81596E-02-2.13854E-14-1.00413E-13
 -1      4052 2.03833E+01 5.32158E-01-2.61196E-03-1.15298E-02-2.05978E-14-8.26311E-14
 -1      4053 2.03977E+01 5.06444E-01-1.38022E-03-1.62408E-03-1.45156E-14-1.00299E-13
 -1      4054 1.97415E+01 3.01014E-01-9.35143E-04 2.64636E-01-1.84664E-13-6.22396E-14
 -1      4055 1.97762E+01 2.78571E-01 6.46395E-04 2.78281E-01-2.60134E-13 1.46577E-13
 -1      4056 1.96934E+01 3.29422E-01 9.60876E-04 2.87110E-01-3.09630E-13 3.58700E-14
 -1      4057 2.13916E+01-1.82405E+00-2.04927E-03 1.78383E+00 1.40230E-13-2.84223E-13
 -1      4058 2.12252E+01-2.02344E+00-2.63305E-02 2.24630E+00 7.87634E-14-3.18532E-13
 -1      4059 2.09898E+01-1.51502E+00 1.50502E-02 1.82963E+00-2.81410E-15-2.64925E-13
 -1      4060 2.02961E+01 1.31821E-01 1.62750E-04 6.04280E-02-3.95505E-15-6.01464E-14
 -1      4061 2.02576E+01 1.11325E-01-4.42625E-04 6.85229E-02-8.27387E-15-4.21389E-14
 -1      4062 2.02183E+01 1.03317E-01 1.05257E-04 6.79381E-02-1.84786E-14-4.08265E-14
 -1      4063 2.01755E+01 1.04534E-01-4.30758E-04 7.17627E-02-1.70946E-14-8.94270E-15
 -1      4064 2.02460E+01 1.12479E-01 1.22537E-04 3.39316E-02 7.00526E-15-1.19272E-13
 -1      4065 2.01299E+01 1.14609E-01 6.03804E-05 6.88847E-02-1.20623E-14 2.71386E-14
 -1      4066 2.00810E+01 1.31254E-01-6.80477E-04 6.93891E-02-1.96933E-14 8.33107E-15
 -1      4067 2.01603E+01 1.11041E-01 3.60965E-04 3.07195E-02 2.66595E-15-7.00085E-14
 -1      4068 2.00300E+01 1.55522E-01 1.15607E-04 6.28112E-02-2.56072E-14 1.65750E-14
 -1      4069 1.99728E+01 1.84481E-01-1.04417E-03 5.93046E-02-2.39857E-14-1.72864E-14
 -1      4070 2.00630E+01 1.41152E-01 3.94700E-04 2.10147E-02-1.78393E-14-2.40541E-14
 -1      4071 1.99154E+01 2.19747E-01 1.66358E-04 4.75957E-02-2.07265E-14 2.76201E-15
 -1      4072 1.98474E+01 2.58132E-01-1.59857E-03 3.79343E-02-3.48669E-15 2.40923E-14
 -1      4073 1.99532E+01 1.95447E-01 7.27914E-04 1.50342E-03-3.48119E-14-1.39019E-14
 -1      4074 1.97822E+01 3.01855E-01 3.08868E-04 1.79842E-02-1.01946E-15-2.90789E-15
 -1      4075 1.96994E+01 3.46919E-01-2.39942E-03-1.46429E-03 2.02397E-14-2.06788E-14
 -1      4076 1.98286E+01 2.66589E-01 1.20828E-03-3.27134E-02-1.46632E-14 8.63640E-14
 -1      4077 1.96245E+01 3.96879E-01 7.10962E-04-3.43934E-02-2.81853E-14-3.81897E-14
 -1      4078 1.95207E+01 4.44106E-01-3.99127E-03-6.88020E-02-6.59778E-14-9.16298E-14
 -1      4079 1.96855E+01 3.47326E-01 1.58897E-03-9.01172E-02-1.89761E-14-5.06339E-14
 -1      4080 1.94328E+01 4.99202E-01 1.89155E-03-1.24935E-01-4.55055E-14-4.55227E-14
 -1      4081 1.92944E+01 5.46264E-01-5.60697E-03-1.87387E-01-4.41322E-14-2.16140E-14
 -1      4082 1.95145E+01 4.29017E-01 1.24439E-03-1.85717E-01-3.48625E-14-7.49368E-14
 -1      4083 1.92011E+01 5.94892E-01 3.21840E-03-2.71803E-01-8.43043E-14 1.36992E-14
 -1      4084 1.90340E+01 6.28551E-01-7.49353E-03-3.68295E-01-1.18134E-13 3.59324E-14
 -1      4085 1.93183E+01 4.97863E-01 7.87525E-04-3.35420E-01-5.31165E-14 5.43391E-15
 -1      4086 1.89346E+01 6.63325E-01 5.47018E-03-4.95286E-01-1.59604E-13-7.44242E-15
 -1      4087 1.87265E+01 6.72559E-01-9.58687E-03-6.45336E-01-1.24928E-13-6.70179E-14
 -1      4088 1.91027E+01 5.31627E-01-3.47223E-04-5.56850E-01-1.66859E-13-8.91523E-15
 -1      4089 1.86314E+01 6.75151E-01 8.78590E-03-8.30739E-01-1.26166E-13-4.68678E-14
 -1      4090 1.83853E+01 6.46620E-01-7.28508E-03-1.06020E+00-1.11898E-13-4.02837E-14
 -1      4091 1.88712E+01 5.00746E-01-3.03647E-03-8.80449E-01-1.48031E-13-2.38351E-14
 -1      4092 2.03690E+01 3.26908E-01 3.14575E-04-4.57648E-02-9.37187E-15-5.53580E-14
 -1      4093 2.03914E+01 4.07129E-01 3.39540E-04-2.34853E-02-3.45753E-14-9.20902E-14
 -1      4094 1.84601E+01 7.67181E-01-1.31772E-02 7.86012E-01-1.57656E-13 1.62316E-13
 -1      4095 1.87082E+01 7.73647E-01 6.74227E-03 6.06485E-01-3.54972E-14 2.20730E-14
 -1      4096 2.02402E+01-7.80015E-01 1.17442E-02-1.52506E+00-4.99733E-14 1.54810E-13
 -1      4097 1.99804E+01-5.41669E-01 4.11905E-03-1.42039E+00-5.23353E-14 9.54120E-14
 -1      4098 1.88137E+01 7.46020E-01-1.04839E-02 4.56823E-01 1.93539E-13-5.53648E-14
 -1      4099 1.90084E+01 7.21825E-01 3.73101E-03 3.42206E-01 1.10474E-13-9.39479E-14
 -1      4100 1.89041E+01 6.30672E-01 2.41260E-03 6.80324E-01-5.52097E-14 1.20639E-13
 -1      4101 1.91062E+01 6.77884E-01-7.69549E-03 2.43299E-01 4.05540E-15-2.02082E-15
 -1      4102 1.92556E+01 6.39229E-01 1.90102E-03 1.73171E-01-1.27350E-14-4.54729E-14
 -1      4103 1.91406E+01 6.20835E-01 3.54452E-03 4.13518E-01 1.29714E-13-1.18770E-13
 -1      4104 1.93407E+01 5.91035E-01-5.30142E-03 1.10273E-01-5.11613E-14-8.06070E-14
 -1      4105 1.94522E+01 5.46527E-01 7.67163E-05 7.06364E-02 9.40329E-15-1.00640E-13
 -1      4106 1.93442E+01 5.69127E-01 3.62392E-03 2.37238E-01-5.92735E-14 1.25906E-14
 -1      4107 1.95297E+01 5.00785E-01-1.83427E-03 3.77619E-02 1.35567E-13-1.80452E-13
 -1      4108 1.97081E+01-3.96025E-02 8.31576E-03-9.58295E-01-1.74218E-13-4.23937E-15
 -1      4109 1.96362E+01 5.47393E-02-1.28272E-03-8.46736E-01-1.82824E-13 1.06271E-14
 -1      4110 2.04049E+01 5.32343E-01-2.34537E-03 2.14257E-03-8.33887E-15-1.02197E-13
 -1      4111 2.00780E+01-1.39517E+00 2.51179E-02 2.69983E+00-5.03473E-14 7.92096E-15
 -1      4112 1.96712E+01-6.09294E-02-1.46298E-03 1.02939E+00-3.29684E-15 1.71331E-13
 -1      4113 1.97965E+01-2.04311E-01 9.50172E-03 1.15272E+00 3.49104E-14 1.53013E-14
 -1      4114 2.02866E+01-8.54027E-01 9.76928E-03 1.59501E+00-1.17961E-13-1.72693E-13
 -1      4115 2.06167E+01-1.16013E+00 1.00043E-02 1.68443E+00-1.29308E-14-2.16015E-13
 -1      4116 2.03458E+01-1.22352E+00-2.00811E-02 2.01594E+00-5.92560E-14-2.02637E-13
 -1      4117 1.95997E+01 1.44228E-01-2.68917E-03 7.70891E-01-1.03270E-13 1.42880E-13
 -1      4118 1.96645E+01 6.07507E-02 8.04199E-03 8.77104E-01 4.27460E-14 1.42426E-13
 -1      4119 1.94556E+01 1.01428E-01-4.59082E-03 1.00187E+00-5.40529E-16 1.51634E-13
 -1      4120 1.96042E+01 2.55194E-01-2.99512E-03 5.64827E-01-1.76893E-13-6.78692E-14
 -1      4121 1.96282E+01 2.13865E-01 5.91010E-03 6.51010E-01-1.15407E-13 5.37238E-14
 -1      4122 1.94659E+01 2.67189E-01-8.31122E-04 7.20252E-01-8.63502E-15 1.40281E-13
 -1      4123 1.96522E+01 3.01148E-01-2.20625E-03 4.06719E-01-1.44832E-13-1.76596E-13
 -1      4124 1.96479E+01 2.88130E-01 3.88764E-03 4.74888E-01-2.20801E-13-2.59565E-13
 -1      4125 1.95250E+01 3.43446E-01 9.41009E-04 5.07536E-01 1.83822E-14 7.44969E-14
 -1      4126 2.03364E+01 2.68851E-01 1.40785E-04-7.70508E-02 1.69844E-14 1.38478E-14
 -1      4127 1.96592E+01 1.29491E-01 6.21689E-03-7.21476E-01-1.20443E-13 3.21088E-14
 -1      4128 1.96340E+01 1.76129E-01-2.04879E-03-6.30146E-01-6.57404E-14 6.48812E-14
 -1      4129 1.94823E+01 1.74936E-01-5.27087E-03-7.96185E-01-1.24479E-13 2.85566E-14
 -1      4130 2.10248E+01-2.12928E+00-9.66957E-03-2.64547E+00-1.14919E-13 2.41648E-13
 -1      4131 2.20332E+01-2.59291E+00 9.32176E-03-2.40764E+00-1.56364E-13 2.46999E-13
 -1      4132 1.80735E+01 7.04019E-01-6.70926E-03 1.27947E+00-4.95391E-14 3.73838E-13
 -1      4133 1.83609E+01 7.54818E-01 1.11566E-02 1.00378E+00-1.43135E-13 2.57880E-13
 -1      4134 1.86441E+01 5.60017E-01-1.32434E-03 1.07013E+00-2.50570E-13 1.73200E-13
 -1      4135 2.24108E+01-2.48802E+00-1.04584E-02-1.75813E+00-1.48668E-13 5.96923E-14
 -1      4136 1.99287E+01 1.40506E-01 1.87363E-03-3.16692E-01-3.27614E-14 6.24534E-14
 -1      4137 1.99462E+01 1.30042E-01-9.47529E-04-2.88248E-01-5.27654E-14 1.62490E-14
 -1      4138 1.98704E+01 1.70108E-01-7.50110E-04-3.13895E-01-7.10608E-14 1.21336E-13
 -1      4139 2.01167E+01 7.15281E-02 6.45362E-04-1.91789E-01 7.73639E-14-6.15864E-14
 -1      4140 2.01454E+01 6.57478E-02-3.42594E-04-1.78367E-01 2.38463E-14-3.01436E-14
 -1      4141 2.00972E+01 8.84535E-02-1.27307E-04-1.69315E-01 6.55943E-14-6.02890E-14
 -1      4142 2.01832E+01 6.57058E-02 4.08973E-04-1.68086E-01 1.13424E-14-1.33003E-14
 -1      4143 2.02122E+01 7.17367E-02-2.29129E-05-1.55099E-01 2.67583E-14 9.15199E-15
 -1      4144 2.02432E+01 9.08971E-02-3.97337E-05-1.22513E-01 2.25910E-14-7.00777E-15
 -1      4145 2.01725E+01 7.69588E-02-2.10657E-04-1.44323E-01 6.04273E-14-5.28955E-14
 -1      4146 1.78168E+01 2.95163E-01-1.61273E-03-2.12235E+00-2.46437E-13-4.62833E-14
 -1      4147 2.04722E+01-1.36775E+00-2.08892E-03-2.10571E+00-3.41701E-14 1.76154E-13
 -1      4148 2.01336E+01-9.92039E-01 1.05095E-02-1.96887E+00-1.77809E-16 1.91448E-13
 -1      4149 1.96798E+01 2.10247E-01 4.56203E-03-5.35397E-01-3.39183E-14 2.28495E-14
 -1      4150 1.96838E+01 2.24304E-01-2.08583E-03-4.64672E-01 5.30969E-15 1.17327E-13
 -1      4151 1.95435E+01 2.60756E-01-2.42046E-03-5.68379E-01-5.31094E-14-4.19958E-15
 -1      4152 1.98702E+01-3.33479E-01 8.96396E-03-1.23812E+00-8.92041E-14 2.69867E-14
 -1      4153 1.97308E+01-1.75059E-01-1.36310E-04-1.11608E+00-1.10437E-13 1.55051E-14
 -1      4154 1.94861E+01-1.04041E-02-9.14390E-03-1.09641E+00-1.57300E-13-2.46126E-14
 -1      4155 1.96231E+01-3.31269E-01-7.90523E-03-1.46962E+00-1.14591E-13 9.04079E-14
 -1      4156 2.03586E+01 2.41875E-01 2.83204E-04-6.72508E-02-2.23763E-14-3.45302E-14
 -1      4157 2.03496E+01 2.49543E-01-7.62762E-04-7.75898E-02-1.28386E-14-1.04895E-14
 -1      4158 1.78645E+01 4.23907E-01 7.07360E-03 1.95071E+00 3.03225E-14 5.28911E-13
 -1      4159 1.80631E+01 6.04399E-01 1.10926E-02 1.51521E+00 4.26935E-14 4.18388E-13
 -1      4160 1.84784E+01 3.76800E-01-3.66481E-04 1.53696E+00-1.25757E-13 2.45028E-13
 -1      4161 1.84471E+01 8.07330E-03-2.33521E-02 2.03949E+00-1.12327E-13 3.44448E-13
 -1      4162 1.98789E+01-3.87254E-01 1.50225E-03 1.31011E+00 7.86578E-15-4.96951E-14
 -1      4163 2.00845E+01-6.07005E-01 8.01697E-03 1.43219E+00-1.81862E-13-1.10429E-13
 -1      4164 1.98220E+01-6.02699E-01-9.65146E-03 1.68990E+00-1.77191E-13-1.86773E-13
 -1      4165 1.95556E+01-1.89311E-01-9.94905E-03 1.33742E+00-1.31559E-13-8.11471E-15
 -1      4166 2.03872E+01 6.81029E-01 2.62320E-03-5.96562E-02-4.86059E-14-1.29285E-13
 -1      4167 2.04043E+01 3.52226E-01 2.11616E-03 2.16523E-02 2.49307E-15-9.55861E-14
 -1      4168 2.03802E+01 2.71104E-01-1.21277E-03 4.13743E-02-3.13348E-15-3.96838E-14
 -1      4169 2.03580E+01 2.10755E-01 9.22738E-05 4.57416E-02-2.46249E-14-4.54085E-14
 -1      4170 2.03288E+01 1.64311E-01-5.82879E-04 5.84911E-02-2.64226E-14-5.25879E-14
 -1      4171 2.03767E+01 2.54371E-01 6.41141E-05 2.33371E-02-2.09229E-14-1.09044E-13
 -1      4172 2.04102E+01 4.97449E-01-2.47333E-04 1.83736E-03-9.22481E-15-1.04983E-13
 -1      4173 2.05437E+01-1.58377E+00 2.46543E-03-2.40673E+00-3.49709E-14 1.81046E-13
 -1      4174 1.97394E+01 2.30949E-01 3.22933E-03-3.95339E-01-4.64603E-14 9.21799E-14
 -1      4175 1.97612E+01 2.26508E-01-1.04075E-03-3.43698E-01-4.88018E-14 8.94020E-14
 -1      4176 1.96348E+01 2.80023E-01-1.13988E-03-4.01463E-01-2.45968E-14 6.00132E-14
 -1      4177 2.03200E+01 1.56257E-01 1.64587E-04 3.12190E-02-3.02492E-14-1.10896E-13
 -1      4178 1.82292E+01 3.23722E-01 5.08092E-03-1.77541E+00-1.94043E-13-7.02184E-14
 -1      4179 1.83482E+01-6.48041E-03 1.78082E-02-2.24314E+00-2.27824E-13 5.74443E-15
 -1      4180 1.89439E+01-3.99016E-01-6.51047E-03-2.21859E+00-1.09941E-13 1.14697E-13
 -1      4181 1.83616E+01 5.94693E-01 1.22882E-02-1.24917E+00-1.26190E-13-6.50933E-14
 -1      4182 1.82281E+01 4.69026E-01-5.50134E-04-1.54139E+00-1.95648E-13-2.16087E-14
 -1      4183 1.86330E+01 1.58362E-01-7.18413E-03-1.67544E+00-2.12407E-13 1.12219E-14
 -1      4184 1.86994E+01 3.70077E-01-8.52713E-03-1.26585E+00-1.76644E-13-1.27909E-15
 -1      4185 2.03952E+01 3.49701E-01-3.40880E-05-3.02457E-02-4.96236E-14-9.45731E-14
 -1      4186 2.04054E+01 4.44292E-01-1.98839E-03-4.56652E-03-3.40009E-14-8.97056E-14
 -1      4187 2.04126E+01 5.00435E-01-1.06030E-03-1.46532E-03-3.31185E-14-7.02089E-14
 -1      4188 1.95136E+01 4.93184E-01 1.33390E-03 1.30149E-01 4.67371E-14-2.42682E-13
 -1      4189 2.03046E+01 1.29388E-01-4.31458E-05-7.93227E-02-2.26463E-14-6.71907E-14
 -1      4190 2.03339E+01 1.66035E-01-1.88976E-04-6.53451E-02-3.24739E-14-5.72910E-14
 -1      4191 2.03585E+01 2.11486E-01-1.40007E-04-5.79202E-02-3.05295E-14-9.55079E-14
 -1      4192 2.03808E+01 2.75762E-01-2.29194E-04-3.95409E-02-3.91877E-14-1.10632E-13
 -1      4193 2.03942E+01 3.18796E-01 8.95638E-04-2.08609E-02-4.08647E-14-1.33750E-13
 -1      4194 2.03542E+01 1.99701E-01 3.19838E-04-3.77476E-02-3.53874E-14-1.52859E-13
 -1      4195 1.97908E+01 2.59304E-01-1.21812E-03 2.95041E-01-3.78352E-13 1.43667E-13
 -1      4196 1.97355E+01 2.81590E-01 9.37772E-04 3.47414E-01-1.51296E-13-7.86453E-14
 -1      4197 1.96483E+01 3.30831E-01 2.38730E-04 3.55830E-01-2.63223E-13-1.12044E-14
 -1      4198 2.04098E+01 4.58373E-01-2.27204E-03 5.17861E-03-1.08154E-14-1.13698E-13
 -1      4199 1.97308E+01-1.01316E+00 1.50688E-02 2.45139E+00-8.79767E-14 1.06313E-13
 -1      4200 1.93516E+01-5.56557E-01-2.20367E-03 2.12191E+00-1.21663E-13-7.08656E-15
 -1      4201 2.00771E+01 1.05759E-01 7.26556E-04-1.39487E-01 5.82836E-14-5.97527E-14
 -1      4202 2.01147E+01 9.29806E-02-4.70340E-04-1.25591E-01 5.27254E-14-8.73122E-14
 -1      4203 1.99431E+01 1.46056E-01-2.56721E-04-2.48503E-01-7.29709E-14-2.44847E-14
 -1      4204 1.99909E+01 1.40757E-01 9.54761E-04-1.73500E-01-4.10791E-14-3.87554E-14
 -1      4205 2.00278E+01 1.21317E-01-9.43881E-04-1.54001E-01 2.55458E-14-4.17059E-15
 -1      4206 2.00457E+01 1.28232E-01 1.89548E-04-1.09538E-01 1.04423E-14-4.41330E-14
 -1      4207 1.91094E+01 3.96507E-01-5.33496E-03 8.63079E-01-1.37691E-13 2.02321E-13
 -1      4208 1.91326E+01 3.24664E-01 9.76644E-03 1.02654E+00-1.09020E-13 7.28351E-14
 -1      4209 1.98334E+01 2.40149E-01-1.07961E-03 2.71480E-01-9.69465E-14 2.02797E-13
 -1      4210 2.01878E+01 1.00599E-01 6.04297E-05-7.17832E-03 3.33258E-14-8.40564E-14
 -1      4211 2.01408E+01 1.07845E-01-4.14949E-04-1.00172E-02 3.66771E-14-6.25840E-14
 -1      4212 2.01037E+01 1.16492E-01 3.94261E-04-3.46316E-02 2.69792E-14-6.34366E-14
 -1      4213 2.00512E+01 1.34634E-01-7.35669E-04-4.23389E-02-2.07038E-14-5.36543E-14
 -1      4214 2.00042E+01 1.57089E-01 5.23844E-04-5.66799E-02-4.46717E-14 3.84173E-16
 -1      4215 1.99440E+01 1.83911E-01-1.27670E-03-7.03808E-02-7.07569E-15 1.51465E-14
 -1      4216 1.97526E+01 2.93918E-01 1.10941E-03-1.30509E-01-4.16556E-14-2.13807E-15
 -1      4217 1.96721E+01 3.28444E-01-1.74521E-03-1.68877E-01-3.32616E-14-3.84287E-14
 -1      4218 1.96438E+01 3.38046E-01 2.04864E-03-2.33177E-01-1.94769E-14-3.78434E-14
 -1      4219 1.95496E+01 3.66457E-01-2.20782E-03-2.96913E-01-3.14103E-14-9.64307E-15
 -1      4220 1.95037E+01 3.83909E-01 3.67964E-03-3.65315E-01-4.03153E-14-1.41777E-14
 -1      4221 1.94003E+01 3.96590E-01-2.38069E-03-4.57445E-01-8.08434E-14-9.28652E-15
 -1      4222 1.93663E+01 3.93253E-01 5.67551E-03-5.54229E-01-1.23187E-13 3.79589E-14
 -1      4223 1.92543E+01 3.79640E-01-2.06800E-03-6.89270E-01-1.32842E-13 3.05101E-14
 -1      4224 1.92459E+01 3.40432E-01 8.60435E-03-8.21921E-01-1.63177E-13 3.21934E-14
 -1      4225 1.91331E+01 2.81525E-01-1.53838E-03-1.01239E+00-1.45977E-13 1.01837E-14
 -1      4226 2.02697E+01 1.04099E-01-2.20235E-04-8.52808E-02 2.59796E-14-6.25546E-14
 -1      4227 2.02951E+01 1.27607E-01 1.14929E-04-5.32459E-02 3.12884E-16-1.13655E-13
 -1      4228 2.02364E+01 8.94591E-02 1.68597E-04-9.71933E-02 6.47444E-14-6.93766E-14
 -1      4229 1.92462E+01 4.63593E-01-5.42781E-03 5.75922E-01 9.45462E-14 1.11458E-13
 -1      4230 1.93567E+01 4.69117E-01 2.91756E-03 4.64132E-01 1.33998E-13 1.47518E-13
 -1      4231 1.93910E+01 4.68435E-01-4.70328E-03 3.74430E-01 3.90791E-14 7.43854E-14
 -1      4232 1.94859E+01 4.54297E-01 1.39052E-03 2.99998E-01-7.03321E-14 1.95066E-13
 -1      4233 2.03921E+01 2.81391E-01-3.95153E-04-5.87626E-03-3.30708E-14-1.53712E-13
 -1      4234 2.03683E+01 2.17899E-01-2.84121E-04-9.85809E-04-4.23130E-14-1.52240E-13
 -1      4235 1.92307E+01 4.37242E-01 5.62731E-03 6.99269E-01 1.77851E-14 2.27224E-13
 -1      4236 1.90139E+01 2.26675E-01-3.72603E-03 1.25723E+00-1.70547E-13 6.84783E-14
 -1      4237 1.95973E+01-7.09726E-01-3.46979E-03-2.08638E+00-3.53990E-14 2.24295E-13
 -1      4238 1.97925E+01 2.32898E-01 1.85814E-03-2.83685E-01-9.32893E-14 7.03136E-14
 -1      4239 1.98266E+01 2.15534E-01-1.14025E-03-2.45151E-01-1.10550E-13 2.82410E-14
 -1      4240 2.02755E+01 1.14153E-01 2.51679E-04-1.43484E-02 2.20798E-14-1.13306E-13
 -1      4241 2.02347E+01 1.01878E-01-3.75603E-04-1.41187E-02 3.44520E-14-9.33542E-14
 -1      4242 1.98951E+01 1.87451E-01 1.43304E-03-2.16786E-01-6.30269E-14 1.86311E-14
 -1      4243 1.99308E+01 1.66105E-01-1.18116E-03-1.89257E-01-5.33746E-14-6.58746E-15
 -1      4244 1.99420E+01 1.77053E-01 6.13021E-04-1.39137E-01-2.00420E-14-3.05443E-14
 -1      4245 1.98164E+01 2.42173E-01 4.67791E-04-1.79993E-01-9.37303E-14-1.19331E-14
 -1      4246 1.95222E+01 4.69803E-01 3.44244E-04 1.79804E-01-1.53567E-13-9.23185E-16
 -1      4247 2.03440E+01 1.74263E-01 1.32305E-04-9.64564E-03-3.82747E-14-1.31018E-13
 -1      4248 2.03101E+01 1.37446E-01-3.59730E-04-7.35376E-03-2.71487E-14-1.42476E-13
 -1      4249 1.96053E+01 3.64459E-01 8.10084E-04 3.40917E-01-1.82343E-13 9.39735E-14
 -1      4250 1.95865E+01-4.87009E-01-1.32703E-03 1.78372E+00-1.97538E-13-1.10427E-13
 -1      4251 1.88783E+01-1.27322E-01 1.03757E-02 1.99105E+00-1.58213E-13 2.72949E-13
 -1      4252 1.87797E+01 6.55565E-02-7.83057E-03 1.73511E+00-2.39035E-13 2.17767E-13
 -1      4253 1.94062E+01-2.19945E-01 5.69756E-03 1.60268E+00-2.35928E-13-7.70952E-14
 -1      4254 2.01295E+01 1.04276E-01-1.17937E-04-7.06442E-02 5.98814E-14-9.20539E-14
 -1      4255 2.01536E+01 8.99291E-02 4.78938E-04-1.02765E-01 7.32091E-14-8.68491E-14
 -1      4256 1.95362E+01 4.40417E-01-1.74127E-03 2.27654E-01-1.46060E-13 7.19610E-14
 -1      4257 1.90861E+01 7.92623E-02 5.14888E-03 1.44681E+00-2.96167E-13-1.26943E-14
 -1      4258 1.91646E+01 1.84724E-01 1.04509E-02-1.19208E+00-1.55026E-13 4.00580E-15
 -1      4259 1.91845E+01-2.70949E-01-1.03471E-02-1.80651E+00-1.29908E-13 6.26081E-14
 -1      4260 2.02152E+01 9.91128E-02 1.37875E-04-5.45769E-02 6.66100E-14-9.69609E-14
 -1      4261 1.98172E+01 2.51555E-01-1.90592E-03-1.06659E-01-2.36996E-14 3.91413E-14
 -1      4262 1.91044E+01 7.75520E-02-3.10345E-03-1.37447E+00-1.94965E-13 3.14913E-14
 -1      4263 1.98864E+01 2.19610E-01 6.44294E-04-8.37978E-02-1.94214E-14 1.31739E-14
 -1      4264 1.97126E+01 2.77999E-01-7.82886E-04-2.70139E-01-6.64283E-14-1.42893E-14
 -1      4265 2.04095E+01 3.58956E-01 2.35469E-03-1.74788E-04-3.62698E-14-1.33911E-13
 -1      4266 2.15898E+01-1.88832E+00 2.94342E-02-1.78127E+00-8.27229E-14 5.22781E-14
 -1      4267 1.92009E+01-1.03036E-01 6.24153E-03-1.60310E+00-1.89344E-13 9.30916E-14
 -1      4268 2.01909E+01 8.69825E-02-1.73645E-04-9.12464E-02 7.15056E-14-8.20451E-14
 -1      4269 1.87903E+01 1.89622E-01-8.86068E-03 1.51283E+00-2.72386E-13 1.37101E-13
 -3
    1PSTEP                         3           1           1          
  100CL  101 1.000000000        4269                     0    1           1
 -4  TOSTRAIN    6    1
 -5  EXX         1    4    1    1
 -5  EYY         1    4    2    2
 -5  EZZ         1    4    3    3
 -5  EXY         1    4    1    2
 -5  EYZ         1    4    2    3
 -5  EZX         1    4    3    1
 -1         1 4.58541E-06-2.49532E-05-2.04926E-07-1.76758E-05-9.49185E-18-6.41098E-18
 -1         2 3.90637E-05-1.19549E-04 2.22082E-05 1.63786E-06-7.67459E-18 3.77221E-19
 -1         3 9.52262E-05-2.85826E-05-2.85434E-05-7.54311E-09-2.68738E-18-2.62339E-18
 -1         4 9.52224E-05-2.85885E-05-2.85351E-05 1.15030E-08 2.72865E-18-2.98606E-18
 -1         5 1.43259E-04-2.14660E-05-4.25026E-05 3.85147E-05-1.95029E-19 1.27401E-17
 -1         6 1.45322E-04 2.57381E-10-4.41599E-05-5.35034E-05-7.34378E-19 1.15027E-17
 -1         7 9.05586E-05-5.10136E-07-3.90477E-05-2.92480E-05-1.03762E-19 2.20364E-18
 -1         8 8.50969E-05 8.64960E-08-3.63276E-05-2.02734E-05-1.30708E-19-6.78048E-19
 -1         9 8.28054E-05 7.65778E-08-3.53472E-05-1.56451E-05-1.23905E-19-2.19913E-18
 -1        10 8.17840E-05 3.82741E-08-3.48850E-05-1.20812E-05-6.82325E-20-2.95755E-18
 -1        11 8.12740E-05 1.90424E-08-3.46612E-05-9.01379E-06-5.48851E-20-3.31865E-18
 -1        12 8.10128E-05 8.77522E-09-3.45506E-05-6.28330E-06-1.96836E-20-3.41277E-18
 -1        13 8.08766E-05 4.18099E-09-3.44952E-05-3.68405E-06-2.68925E-20-3.35756E-18
 -1        14 8.08198E-05 2.34161E-09-3.44727E-05-1.18237E-06 1.60448E-20-3.27223E-18
 -1        15 8.08215E-05 2.33779E-09-3.44733E-05 1.28957E-06 5.51268E-20-3.20416E-18
 -1        16 8.08821E-05 4.12339E-09-3.44971E-05 3.79607E-06 5.78762E-20-3.07302E-18
 -1        17 8.10231E-05 8.01965E-09-3.45538E-05 6.40694E-06 6.09003E-20-2.81211E-18
 -1        18 8.12893E-05 1.78437E-08-3.46659E-05 9.15634E-06 9.23531E-20-2.39385E-18
 -1        19 8.18046E-05 3.79420E-08-3.48923E-05 1.22588E-05 1.38927E-19-1.79428E-18
 -1        20 8.28311E-05 8.02522E-08-3.53594E-05 1.58737E-05 1.42275E-19-8.61914E-19
 -1        21 8.50610E-05 1.69910E-07-3.63655E-05 2.04839E-05 1.78115E-19 1.03274E-18
 -1        22 9.15961E-05-9.83879E-08-3.87205E-05 2.79940E-05 1.76818E-20 4.72047E-18
 -1        23 1.12892E-04-3.80985E-05-3.53720E-05-4.40284E-06-4.97685E-19 8.94583E-18
 -1        24 9.27254E-05-2.76733E-05-2.89752E-05 3.90443E-07-8.06269E-20 6.61558E-18
 -1        25 8.90394E-05-2.68283E-05-2.69051E-05 3.75310E-07 2.43720E-20 4.76959E-18
 -1        26 8.79364E-05-2.64649E-05-2.63677E-05 2.03272E-07-1.58107E-20 3.23170E-18
 -1        27 8.79655E-05-2.64441E-05-2.63608E-05 1.38769E-07 5.16020E-20 2.17766E-18
 -1        28 8.85068E-05-2.65827E-05-2.65329E-05 9.95971E-08-8.11481E-20 1.70408E-18
 -1        29 8.92814E-05-2.68020E-05-2.67713E-05 7.26837E-08 1.35954E-20 9.46748E-19
 -1        30 9.01779E-05-2.70633E-05-2.70435E-05 5.46802E-08-2.04944E-20-4.69233E-19
 -1        31 9.10409E-05-2.73181E-05-2.73039E-05 4.04594E-08 1.87396E-19-8.66511E-19
 -1        32 9.18726E-05-2.75656E-05-2.75550E-05 2.98562E-08-1.50094E-19-1.21321E-18
 -1        33 9.26663E-05-2.78030E-05-2.77948E-05 2.16036E-08 2.24488E-20-1.39770E-18
 -1        34 9.34351E-05-2.80339E-05-2.80275E-05 1.53638E-08 1.02528E-19-8.40998E-19
 -1        35 9.42100E-05-2.82673E-05-2.82626E-05 1.10185E-08 1.84315E-19-1.35766E-18
 -1        36 9.50408E-05-2.85190E-05-2.85149E-05 7.51009E-09-2.11347E-19-2.81798E-18
 -1        37 9.60488E-05-2.88234E-05-2.88225E-05 8.82057E-09-1.29691E-19-4.06894E-18
 -1        38 9.72452E-05-2.91861E-05-2.91881E-05 1.19177E-08-1.48719E-19-4.51340E-18
 -1        39 9.88129E-05-2.96608E-05-2.96687E-05 2.06403E-08 3.57890E-19-3.28389E-18
 -1        40 1.00951E-04-3.03069E-05-3.03258E-05 3.82989E-08-6.46812E-19-3.44580E-18
 -1        41 1.03936E-04-3.12066E-05-3.12458E-05 7.12712E-08 2.61427E-19-4.73184E-18
 -1        42 1.08145E-04-3.24691E-05-3.25454E-05 1.31275E-07 1.23587E-19-2.17475E-18
 -1        43 1.14072E-04-3.42469E-05-3.43715E-05 2.19373E-07-3.36945E-19-1.63758E-18
 -1        44 1.22682E-04-3.68077E-05-3.70026E-05 4.09924E-07 4.60744E-19-1.19101E-18
 -1        45 1.33535E-04-4.00394E-05-4.02403E-05 6.38426E-07-3.36167E-19 3.82832E-19
 -1        46 1.46364E-04-4.38782E-05-4.38798E-05 8.60113E-07 5.51998E-20-3.78121E-19
 -1        47 1.58414E-04-4.75530E-05-4.69344E-05 7.76062E-07 1.78115E-19 1.18923E-18
 -1        48 1.63228E-04-4.91425E-05-4.75975E-05-2.23393E-07 1.86599E-19 3.62681E-18
 -1        49 1.51810E-04-4.57918E-05-4.41483E-05-2.68583E-06 8.05674E-20 4.96827E-18
 -1        50 1.22819E-04-3.66845E-05-3.74072E-05-4.78467E-06 3.43176E-19 5.37612E-18
 -1        51 9.00634E-05-2.58739E-05-3.07229E-05-3.29043E-06 1.39655E-19 6.38006E-18
 -1        52 8.23876E-05-2.34385E-05-2.92068E-05 1.55450E-06-4.55148E-19 3.80035E-18
 -1        53 1.02065E-04-2.99493E-05-3.30691E-05 4.52633E-06-5.40619E-19 1.05773E-18
 -1        54 1.36987E-04-4.11865E-05-4.05230E-05 4.08296E-06 1.76057E-19 4.75609E-19
 -1        55 1.59538E-04-4.81212E-05-4.62659E-05 1.36906E-06-2.92875E-19 8.64185E-19
 -1        56 1.62479E-04-4.88526E-05-4.77212E-05-4.02513E-07-2.46430E-19-2.34855E-18
 -1        57 1.53247E-04-4.59704E-05-4.56903E-05-8.77768E-07-6.69077E-19-1.31547E-18
 -1        58 1.39661E-04-4.18626E-05-4.20136E-05-7.62374E-07 5.19743E-19-1.24358E-18
 -1        59 1.27675E-04-3.82945E-05-3.85060E-05-5.12118E-07-1.45442E-19-1.62286E-19
 -1        60 1.18165E-04-3.54634E-05-3.56271E-05-3.11679E-07-2.50065E-19 3.15222E-18
 -1        61 1.11130E-04-3.33641E-05-3.34666E-05-1.78983E-07-3.64071E-19 1.45909E-18
 -1        62 1.06108E-04-3.18593E-05-3.19167E-05-9.91953E-08 5.42465E-20 3.84857E-19
 -1        63 1.02581E-04-3.07983E-05-3.08283E-05-5.33500E-08-7.32035E-19-2.89690E-18
 -1        64 1.00114E-04-3.00552E-05-3.00690E-05-3.10420E-08 9.12053E-20-3.15854E-18
 -1        65 9.83297E-05-2.95136E-05-2.95202E-05-1.30713E-08-8.44520E-19-4.31641E-18
 -1        66 9.71541E-05-2.91582E-05-2.91602E-05-6.58245E-09-1.34870E-19-5.48123E-18
 -1        67 9.63354E-05-2.89097E-05-2.89104E-05-2.82784E-09 6.31650E-19-2.02807E-18
 -1        68 9.57759E-05-2.87396E-05-2.87406E-05-3.84997E-10 3.51279E-19-2.32192E-18
 -1        69 9.54159E-05-2.86297E-05-2.86325E-05 2.59912E-09 5.02873E-19-1.44376E-18
 -1        70 9.52261E-05-2.85715E-05-2.85749E-05 8.29244E-09-6.60707E-19-1.85693E-19
 -1        71 9.51884E-05-2.85599E-05-2.85536E-05 2.20679E-08-5.31885E-19-5.96254E-18
 -1        72 1.02104E-04-3.05653E-05-3.41269E-05-1.92695E-06 1.63583E-19 1.17639E-17
 -1        73 9.24859E-05-2.74944E-05-2.88820E-05-3.32837E-07 8.73734E-20 9.02961E-18
 -1        74 8.90302E-05-2.66829E-05-2.69457E-05-1.29508E-07 6.85038E-20 7.24042E-18
 -1        75 8.79758E-05-2.64215E-05-2.64127E-05-9.85782E-08-2.52017E-20 6.67609E-18
 -1        76 8.80119E-05-2.64283E-05-2.63912E-05-7.75662E-08-3.20541E-20 6.04653E-18
 -1        77 8.85569E-05-2.65819E-05-2.65552E-05-6.16712E-08-5.65028E-20 4.98422E-18
 -1        78 8.93329E-05-2.68085E-05-2.67903E-05-4.98176E-08-7.11997E-20 4.74820E-18
 -1        79 9.01945E-05-2.70636E-05-2.70498E-05-4.02911E-08 1.26961E-19 3.81636E-18
 -1        80 9.10642E-05-2.73226E-05-2.73116E-05-3.22893E-08-9.56400E-20 2.70695E-18
 -1        81 9.19040E-05-2.75734E-05-2.75646E-05-2.55490E-08 1.56915E-19 2.18634E-18
 -1        82 9.27008E-05-2.78118E-05-2.78051E-05-2.00381E-08-1.55153E-19 1.61399E-18
 -1        83 9.34576E-05-2.80383E-05-2.80339E-05-1.58363E-08 1.64703E-19 1.36749E-18
 -1        84 9.41874E-05-2.82568E-05-2.82546E-05-1.30929E-08 4.49003E-20 1.26132E-19
 -1        85 9.49069E-05-2.84721E-05-2.84722E-05-1.20045E-08 4.80437E-20 5.52703E-19
 -1        86 9.56317E-05-2.86888E-05-2.86908E-05-1.27803E-08 1.52087E-19 2.16491E-19
 -1        87 9.63695E-05-2.89092E-05-2.89125E-05-1.55698E-08-3.12346E-19-3.33041E-19
 -1        88 9.71125E-05-2.91309E-05-2.91343E-05-2.03271E-08 3.04222E-20-5.02636E-20
 -1        89 9.78279E-05-2.93441E-05-2.93455E-05-2.65857E-08 2.70191E-19-1.80497E-18
 -1        90 9.84479E-05-2.95289E-05-2.95251E-05-3.31406E-08-3.98646E-19-2.47200E-18
 -1        91 9.88617E-05-2.96524E-05-2.96392E-05-3.76889E-08-6.92361E-20-9.42913E-19
 -1        92 9.89123E-05-2.96680E-05-2.96410E-05-3.65917E-08 1.05310E-19-1.19239E-18
 -1        93 9.84073E-05-2.95189E-05-2.94744E-05-2.50889E-08-1.91195E-19-1.69160E-18
 -1        94 9.71509E-05-2.91464E-05-2.90847E-05 1.54988E-09 7.90710E-20-2.54910E-18
 -1        95 9.50028E-05-2.85082E-05-2.84360E-05 4.55467E-08-1.67851E-19-2.98797E-18
 -1        96 9.19611E-05-2.76021E-05-2.75347E-05 1.03142E-07 1.67011E-19-1.41519E-18
 -1        97 8.82456E-05-2.64915E-05-2.64511E-05 1.61881E-07 1.00644E-19-1.30230E-18
 -1        98 8.43369E-05-2.53179E-05-2.53270E-05 2.01693E-07 1.35385E-19-2.44918E-18
 -1        99 8.09211E-05-2.42866E-05-2.43562E-05 2.02014E-07-5.07063E-19-2.38522E-18
 -1       100 7.87190E-05-2.36156E-05-2.37365E-05 1.53097E-07 1.93983E-19-1.98483E-18
 -1       101 7.82478E-05-2.34645E-05-2.36068E-05 6.43644E-08-1.32416E-19-4.40008E-18
 -1       102 7.96232E-05-2.38717E-05-2.39969E-05-3.76612E-08 2.14265E-20-5.25507E-18
 -1       103 8.25119E-05-2.47386E-05-2.48163E-05-1.22190E-07-7.96414E-20-6.62860E-18
 -1       104 8.62646E-05-2.58688E-05-2.58884E-05-1.68889E-07-1.64165E-20-5.18135E-18
 -1       105 9.01506E-05-2.70401E-05-2.70107E-05-1.74476E-07-2.38009E-19-3.08742E-18
 -1       106 9.35730E-05-2.80711E-05-2.80129E-05-1.49322E-07-1.18671E-20-1.59219E-18
 -1       107 9.61833E-05-2.88565E-05-2.87904E-05-1.09093E-07 4.37566E-19-5.16872E-18
 -1       108 9.78838E-05-2.93672E-05-2.93083E-05-6.74406E-08-1.64418E-19-4.75050E-18
 -1       109 9.87598E-05-2.96296E-05-2.95851E-05-3.26619E-08 4.90051E-19-3.09434E-18
 -1       110 9.89919E-05-2.96986E-05-2.96696E-05-7.83255E-09-5.09223E-19-2.50250E-18
 -1       111 9.87841E-05-2.96358E-05-2.96200E-05 7.44996E-09 2.02126E-19-2.65029E-18
 -1       112 9.83185E-05-2.94959E-05-2.94896E-05 1.52326E-08-7.29076E-20-3.45986E-18
 -1       113 9.77365E-05-2.93212E-05-2.93210E-05 1.79270E-08-4.76155E-19-9.91493E-19
 -1       114 9.71355E-05-2.91410E-05-2.91441E-05 1.76366E-08-3.80972E-19-6.63233E-19
 -1       115 9.65761E-05-2.89734E-05-2.89780E-05 1.59159E-08 7.93964E-19-2.97798E-18
 -1       116 9.60923E-05-2.88284E-05-2.88336E-05 1.37375E-08-1.38118E-19-1.99656E-18
 -1       117 9.57024E-05-2.87113E-05-2.87174E-05 1.14433E-08-5.21629E-19-2.57843E-18
 -1       118 9.54178E-05-2.86254E-05-2.86333E-05 8.67149E-09 1.50219E-19-5.60671E-20
 -1       119 9.52509E-05-2.85745E-05-2.85833E-05 3.05400E-09 4.78077E-19-3.63823E-18
 -1       120 9.52082E-05-2.85594E-05-2.85625E-05-9.38729E-09 1.09576E-18-4.48588E-18
 -1       121 9.52442E-05-2.85952E-05-2.85631E-05-1.37330E-08-4.41315E-18 7.25698E-19
 -1       122 9.52299E-05-2.85494E-05-2.85849E-05-1.51697E-09-2.50180E-18 5.70028E-19
 -1       123 9.51807E-05-2.83854E-05-2.86329E-05 7.21753E-09 2.50646E-18 6.19178E-19
 -1       124 9.51074E-05-2.81396E-05-2.87034E-05 1.07109E-08 8.61122E-19-3.37001E-19
 -1       125 9.50231E-05-2.78564E-05-2.87854E-05 1.17693E-08 3.34605E-18 3.48103E-19
 -1       126 9.49426E-05-2.75851E-05-2.88643E-05 1.07696E-08 1.29422E-18 2.71737E-19
 -1       127 9.48755E-05-2.73590E-05-2.89300E-05 7.91449E-09-2.18661E-18 3.77808E-19
 -1       128 9.48342E-05-2.72194E-05-2.89704E-05 3.56102E-09-8.22799E-18-8.09445E-19
 -1       129 9.48262E-05-2.71923E-05-2.89779E-05-1.80270E-09-2.16589E-18 2.44969E-18
 -1       130 9.48548E-05-2.72882E-05-2.89496E-05-7.41391E-09-3.17625E-18-1.21142E-18
 -1       131 9.49170E-05-2.74978E-05-2.88886E-05-1.23610E-08-1.20878E-17 2.35633E-19
 -1       132 9.50023E-05-2.77846E-05-2.88058E-05-1.49070E-08-1.02942E-17 2.37881E-18
 -1       133 9.50981E-05-2.81065E-05-2.87139E-05-1.42561E-08-4.77584E-18-1.09619E-18
 -1       134 9.51832E-05-2.83928E-05-2.86326E-05-8.80793E-09-5.91146E-19 9.90779E-19
 -1       135 9.52408E-05-2.85784E-05-2.85788E-05 5.15474E-09 4.61567E-18 1.42209E-18
 -1       136 9.52483E-05-2.86216E-05-2.85541E-05 2.22005E-08 8.13498E-18 7.28028E-19
 -1       137 2.59514E-05-8.78263E-05 1.59208E-05-2.33555E-05-3.10776E-18-8.23157E-19
 -1       138 7.31671E-06-2.67950E-05 1.13313E-06-1.27932E-05-4.03188E-19-2.20229E-19
 -1       139 1.41895E-05 2.20060E-05-1.81877E-05 3.23645E-05 5.64293E-18 4.85900E-18
 -1       140 6.66410E-05 3.01562E-05-3.92741E-05 8.89778E-05 9.05224E-18 1.10944E-17
 -1       141 1.66606E-04-8.74261E-06-6.04255E-05 1.20112E-04 6.46244E-18 1.18178E-17
 -1       142 2.63052E-04-6.34318E-05-7.48584E-05 9.49529E-05 3.17510E-18 1.01527E-17
 -1       143 3.16024E-04-9.66735E-05-8.16833E-05 2.26732E-05 5.01523E-19 3.56257E-18
 -1       144 2.98622E-04-8.54035E-05-7.95604E-05-6.10789E-05 3.22031E-19-1.21761E-19
 -1       145 2.17013E-04-3.62438E-05-6.83589E-05-1.14095E-04 1.97877E-18-3.35171E-18
 -1       146 1.17067E-04 1.39849E-05-5.11706E-05-1.12048E-04 6.21129E-18-8.96161E-18
 -1       147 3.86505E-05 3.23971E-05-3.03847E-05-6.59845E-05 1.01208E-17-9.14076E-18
 -1       148 5.67455E-06 2.48238E-06-8.42217E-06-7.12864E-06 1.32726E-17-7.90345E-18
 -1       149 1.47437E-05-5.60546E-05 8.75810E-06 2.24321E-05 1.08314E-17-4.11923E-18
 -1       150 3.42163E-05-1.07933E-04 1.99983E-05 1.42946E-05 7.72282E-18-4.31332E-19
 -1       151 3.79429E-05-1.18533E-04 2.21074E-05-1.57235E-05 2.39297E-18-4.58060E-19
 -1       152 2.11323E-05-8.49756E-05 1.56928E-05-3.54692E-05-4.26058E-18-9.11672E-19
 -1       153 2.14670E-05 1.74294E-05-2.11371E-05 3.46022E-05-1.33789E-17-1.18525E-17
 -1       154 9.51969E-05 1.57048E-05-4.55045E-05 9.60849E-05-1.19876E-17-1.72007E-17
 -1       155 2.19568E-04-3.52692E-05-6.89221E-05 1.19156E-04-7.51297E-18-1.71444E-17
 -1       156 3.31745E-04-9.51175E-05-8.49245E-05 7.27809E-05-2.53847E-18-1.43996E-17
 -1       157 3.62239E-04-1.13036E-04-8.85918E-05-1.97861E-05-1.03232E-19-8.51226E-18
 -1       158 2.93293E-04-7.38276E-05-7.97154E-05-1.00711E-04-4.34210E-19-5.01020E-19
 -1       159 1.71989E-04-1.28680E-05-6.10417E-05-1.19088E-04-3.38051E-18 6.55180E-18
 -1       160 6.55786E-05 2.12927E-05-3.75536E-05-7.75683E-05-7.36537E-18 8.91883E-18
 -1       161 9.07932E-06 4.63088E-06-1.23576E-05-1.10294E-05-9.12424E-18 7.36453E-18
 -1       162 8.87806E-06-5.00094E-05 7.30671E-06 3.08160E-05-1.30934E-17 5.59868E-18
 -1       163 2.97269E-05-1.03098E-04 1.92314E-05 2.97116E-05-1.00373E-17 3.08958E-18
 -1       164 9.48279E-05-1.23407E-05-3.55546E-05-2.23455E-05-1.62503E-18 6.90888E-19
 -1       165 8.92265E-05-8.44960E-06-3.47812E-05-1.73839E-05-1.48844E-18-1.08750E-18
 -1       166 8.65573E-05-6.51089E-06-3.44164E-05-1.35916E-05-1.14076E-18-2.08426E-18
 -1       167 8.52073E-05-5.51562E-06-3.42366E-05-1.03638E-05-8.12301E-19-2.57961E-18
 -1       168 8.44727E-05-4.94492E-06-3.41524E-05-7.54283E-06-5.21845E-19-2.77595E-18
 -1       169 8.40516E-05-4.59842E-06-3.41130E-05-4.89950E-06-3.16738E-19-2.83016E-18
 -1       170 8.38362E-05-4.41284E-06-3.40966E-05-2.39226E-06 2.69589E-20-2.74049E-18
 -1       171 8.37724E-05-4.35646E-06-3.40924E-05 5.21874E-08 2.74794E-19-2.64268E-18
 -1       172 8.38451E-05-4.42080E-06-3.40971E-05 2.49856E-06 5.53130E-19-2.54390E-18
 -1       173 8.40716E-05-4.61681E-06-3.41139E-05 5.01193E-06 7.68161E-19-2.39013E-18
 -1       174 8.44982E-05-4.97087E-06-3.41527E-05 7.62060E-06 9.93885E-19-2.08467E-18
 -1       175 8.52637E-05-5.57310E-06-3.42379E-05 1.05094E-05 1.38262E-18-1.63295E-18
 -1       176 8.66484E-05-6.60838E-06-3.44182E-05 1.37750E-05 1.67400E-18-9.43039E-19
 -1       177 8.93708E-05-8.59575E-06-3.47846E-05 1.76267E-05 1.80241E-18 3.29946E-19
 -1       178 9.57390E-05-1.36059E-05-3.54123E-05 2.18870E-05 1.71850E-18 2.57916E-18
 -1       179 1.05544E-04-2.60835E-05-3.52444E-05 1.86595E-05 1.23048E-18 5.47570E-18
 -1       180 1.03340E-04-2.72851E-05-3.25926E-05-1.21278E-05-1.41597E-18 2.91649E-18
 -1       181 9.70517E-05-2.82721E-05-2.95120E-05-4.73126E-06-1.11320E-18 2.18535E-18
 -1       182 9.34549E-05-2.76208E-05-2.81664E-05-1.76766E-06-9.00088E-19 1.57992E-18
 -1       183 9.19256E-05-2.73908E-05-2.76222E-05-4.16554E-07-8.04417E-19 9.24960E-19
 -1       184 9.13606E-05-2.73180E-05-2.74284E-05 2.54172E-07-3.36908E-19 5.18965E-19
 -1       185 9.13380E-05-2.73614E-05-2.74098E-05 5.90272E-07-5.33898E-19 2.38200E-19
 -1       186 9.16325E-05-2.74787E-05-2.74902E-05 7.50463E-07-5.20391E-19-9.28721E-20
 -1       187 9.20703E-05-2.76244E-05-2.76175E-05 8.02508E-07-3.03779E-19-2.25859E-19
 -1       188 9.25852E-05-2.77845E-05-2.77705E-05 8.05232E-07-2.27221E-19-5.37764E-19
 -1       189 9.31367E-05-2.79494E-05-2.79366E-05 7.91655E-07-3.59947E-19-6.26770E-19
 -1       190 9.37113E-05-2.81161E-05-2.81113E-05 7.85503E-07 8.64022E-20-1.20569E-18
 -1       191 9.43148E-05-2.82868E-05-2.82965E-05 8.06995E-07-2.04997E-19-1.43557E-18
 -1       192 9.49705E-05-2.84682E-05-2.84989E-05 8.75243E-07-9.48175E-19-1.84909E-18
 -1       193 9.57567E-05-2.86808E-05-2.87438E-05 1.02257E-06-8.54263E-19-2.09232E-18
 -1       194 9.66605E-05-2.89210E-05-2.90266E-05 1.26515E-06-3.31163E-19-2.74020E-18
 -1       195 9.77956E-05-2.92183E-05-2.93836E-05 1.64473E-06 5.08913E-19-2.91270E-18
 -1       196 9.92702E-05-2.96000E-05-2.98495E-05 2.21505E-06-2.93748E-19-3.23699E-18
 -1       197 1.01226E-04-3.01026E-05-3.04697E-05 3.04629E-06-1.77877E-19-2.08491E-18
 -1       198 1.03844E-04-3.07751E-05-3.13015E-05 4.22489E-06 1.36269E-18-1.18967E-18
 -1       199 1.07343E-04-3.16851E-05-3.24112E-05 5.83072E-06 9.91134E-19-6.56106E-19
 -1       200 1.12213E-04-3.30020E-05-3.39398E-05 8.00054E-06 1.28650E-19 4.75000E-19
 -1       201 1.18182E-04-3.47609E-05-3.57576E-05 1.03402E-05 3.54702E-19 8.72411E-20
 -1       202 1.25458E-04-3.72560E-05-3.78214E-05 1.21728E-05-4.37604E-19 2.97792E-19
 -1       203 1.33648E-04-4.08000E-05-3.98117E-05 1.17546E-05 8.57664E-19 5.27874E-19
 -1       204 1.41623E-04-4.54163E-05-4.12176E-05 6.15307E-06 1.28200E-18 1.31751E-18
 -1       205 1.46927E-04-4.94690E-05-4.17538E-05-6.94619E-06 6.94249E-19 1.37934E-18
 -1       206 1.45869E-04-4.83963E-05-4.19516E-05-2.25540E-05 3.72900E-19 2.31932E-18
 -1       207 1.36200E-04-3.77796E-05-4.28629E-05-2.61303E-05-4.28863E-19 1.98368E-18
 -1       208 1.28626E-04-2.87110E-05-4.36313E-05-8.04524E-06-1.04926E-18 6.23731E-19
 -1       209 1.30313E-04-3.09155E-05-4.33802E-05 1.67300E-05-8.16328E-19 1.24706E-18
 -1       210 1.40725E-04-4.31117E-05-4.22819E-05 2.70693E-05-1.49636E-18 3.05197E-20
 -1       211 1.47223E-04-4.98564E-05-4.17812E-05 1.59183E-05-1.35942E-19-2.51735E-18
 -1       212 1.45013E-04-4.79166E-05-4.15750E-05-9.66394E-08-1.02250E-18-2.23879E-18
 -1       213 1.38089E-04-4.31911E-05-4.06693E-05-9.61106E-06-1.27717E-21-1.39741E-19
 -1       214 1.29386E-04-3.88283E-05-3.88354E-05-1.23738E-05-1.46486E-19-6.04993E-19
 -1       215 1.21596E-04-3.58645E-05-3.67548E-05-1.13211E-05 1.09636E-18-2.19491E-19
 -1       216 1.14977E-04-3.37841E-05-3.47953E-05-9.08371E-06 2.14024E-18 9.90468E-19
 -1       217 1.09708E-04-3.23071E-05-3.31608E-05-6.83009E-06-8.63467E-19 1.15983E-18
 -1       218 1.05675E-04-3.12416E-05-3.18861E-05-4.96452E-06-6.87367E-19 1.22142E-18
 -1       219 1.02663E-04-3.04659E-05-3.09287E-05-3.54794E-06-1.79425E-18 7.84123E-19
 -1       220 1.00444E-04-2.98978E-05-3.02235E-05-2.51711E-06-1.04525E-18 1.60494E-19
 -1       221 9.87602E-05-2.94665E-05-2.96888E-05-1.75170E-06-6.59346E-19-7.61280E-19
 -1       222 9.76081E-05-2.91693E-05-2.93248E-05-1.23746E-06-3.28079E-19-4.72734E-21
 -1       223 9.67750E-05-2.89517E-05-2.90625E-05-8.71217E-07 1.41046E-18 9.99082E-19
 -1       224 9.61797E-05-2.87938E-05-2.88763E-05-6.03264E-07 3.23316E-19 6.67008E-19
 -1       225 9.57637E-05-2.86806E-05-2.87475E-05-3.97401E-07-4.51529E-19-8.71909E-19
 -1       226 9.54863E-05-2.86023E-05-2.86630E-05-2.26830E-07-5.32287E-19-3.27649E-18
 -1       227 9.53196E-05-2.85569E-05-2.86111E-05-8.21950E-08-2.05366E-18-1.71159E-18
 -1       228 9.52540E-05-2.85566E-05-2.85845E-05-1.82210E-09 1.88781E-19-4.20390E-19
 -1       229 9.94447E-05-2.85344E-05-3.05698E-05 7.21291E-06 1.29973E-18 4.83545E-18
 -1       230 9.43819E-05-2.77670E-05-2.85137E-05 2.76634E-06 8.43426E-19 3.93939E-18
 -1       231 9.20829E-05-2.74050E-05-2.76716E-05 9.18543E-07 3.00128E-19 3.15526E-18
 -1       232 9.11372E-05-2.72555E-05-2.73518E-05 3.46782E-08 4.52825E-19 2.85418E-18
 -1       233 9.09264E-05-2.72398E-05-2.72814E-05-3.97600E-07 4.52010E-19 2.45069E-18
 -1       234 9.11272E-05-2.73246E-05-2.73377E-05-6.05302E-07 3.05155E-19 1.82307E-18
 -1       235 9.15472E-05-2.74640E-05-2.74609E-05-6.91516E-07 5.70000E-19 1.42785E-18
 -1       236 9.20748E-05-2.76290E-05-2.76178E-05-7.11381E-07 3.72376E-19 1.11256E-18
 -1       237 9.26476E-05-2.78031E-05-2.77895E-05-6.98326E-07 3.73803E-19 1.13611E-18
 -1       238 9.32330E-05-2.79781E-05-2.79659E-05-6.73656E-07 2.37519E-19 8.38169E-19
 -1       239 9.38179E-05-2.81510E-05-2.81427E-05-6.50897E-07 3.55900E-19 5.05450E-19
 -1       240 9.44008E-05-2.83226E-05-2.83192E-05-6.37763E-07 5.29298E-19 2.79152E-19
 -1       241 9.49864E-05-2.84950E-05-2.84965E-05-6.36840E-07-4.54058E-20-3.16428E-21
 -1       242 9.55803E-05-2.86712E-05-2.86756E-05-6.45434E-07 5.10151E-22 3.92349E-19
 -1       243 9.61833E-05-2.88527E-05-2.88565E-05-6.54812E-07 3.56212E-20 1.00867E-18
 -1       244 9.67861E-05-2.90385E-05-2.90355E-05-6.49115E-07 1.15710E-19 3.94408E-20
 -1       245 9.73625E-05-2.92227E-05-2.92040E-05-6.04421E-07 5.64401E-19 3.55665E-20
 -1       246 9.78629E-05-2.93921E-05-2.93462E-05-4.88857E-07-2.17366E-19 6.82864E-19
 -1       247 9.82092E-05-2.95243E-05-2.94382E-05-2.65196E-07-1.40148E-19 4.09035E-19
 -1       248 9.82944E-05-2.95860E-05-2.94483E-05 1.02165E-07 1.76035E-19-2.62253E-19
 -1       249 9.79899E-05-2.95334E-05-2.93400E-05 6.33993E-07-7.06801E-20-7.58806E-21
 -1       250 9.71665E-05-2.93175E-05-2.90789E-05 1.31653E-06 5.04752E-19-1.75493E-19
 -1       251 9.57324E-05-2.88950E-05-2.86444E-05 2.07919E-06 2.75560E-19-1.25631E-19
 -1       252 9.36855E-05-2.82480E-05-2.80437E-05 2.78045E-06-7.68333E-19-4.78152E-19
 -1       253 9.11670E-05-2.74081E-05-2.73243E-05 3.21910E-06 5.36998E-19-3.07789E-19
 -1       254 8.84901E-05-2.64758E-05-2.65773E-05 3.18595E-06 1.88787E-20-4.06898E-19
 -1       255 8.61095E-05-2.56179E-05-2.59256E-05 2.55215E-06-2.35227E-19 2.92185E-19
 -1       256 8.45153E-05-2.50291E-05-2.54950E-05 1.35739E-06 1.73764E-19-4.42150E-19
 -1       257 8.40752E-05-2.48626E-05-2.53766E-05-1.61491E-07 9.83180E-19-6.65585E-19
 -1       258 8.48955E-05-2.51648E-05-2.55965E-05-1.64041E-06 4.28261E-19-9.37343E-19
 -1       259 8.67779E-05-2.58528E-05-2.61064E-05-2.73150E-06 9.76349E-19-1.59090E-18
 -1       260 8.92997E-05-2.67530E-05-2.68007E-05-3.23721E-06-8.60102E-19-2.78154E-18
 -1       261 9.19678E-05-2.76729E-05-2.75509E-05-3.15876E-06-8.17099E-19-2.33061E-18
 -1       262 9.43659E-05-2.84633E-05-2.82420E-05-2.65008E-06-1.73280E-19-2.30098E-18
 -1       263 9.62360E-05-2.90453E-05-2.87964E-05-1.92536E-06 1.18093E-18-1.71393E-18
 -1       264 9.74882E-05-2.94054E-05-2.91806E-05-1.17662E-06-8.12862E-19-9.86811E-19
 -1       265 9.81602E-05-2.95724E-05-2.93980E-05-5.30867E-07-1.53440E-19-2.04096E-18
 -1       266 9.83625E-05-2.95937E-05-2.94757E-05-4.58265E-08-4.54318E-19-2.28474E-18
 -1       267 9.82301E-05-2.95188E-05-2.94506E-05 2.72917E-07 1.56072E-20-2.24654E-18
 -1       268 9.78903E-05-2.93897E-05-2.93595E-05 4.49473E-07-1.94852E-19-2.27945E-19
 -1       269 9.74466E-05-2.92379E-05-2.92336E-05 5.19159E-07-1.09808E-18-1.15193E-18
 -1       270 9.69746E-05-2.90847E-05-2.90962E-05 5.16673E-07 3.52531E-19-1.42402E-18
 -1       271 9.65241E-05-2.89433E-05-2.89633E-05 4.70164E-07 1.09475E-18-2.51532E-18
 -1       272 9.61253E-05-2.88204E-05-2.88447E-05 3.99243E-07-2.26405E-19-2.40901E-18
 -1       273 9.57946E-05-2.87192E-05-2.87463E-05 3.15137E-07-6.78260E-19-4.36422E-19
 -1       274 9.55405E-05-2.86409E-05-2.86711E-05 2.22447E-07 5.59111E-20-7.14711E-19
 -1       275 9.53651E-05-2.85854E-05-2.86198E-05 1.21643E-07 1.14171E-18-4.51972E-19
 -1       276 9.52672E-05-2.85605E-05-2.85873E-05 2.54166E-08 7.22230E-19 2.44684E-19
 -1       277 9.52484E-05-2.85024E-05-2.86047E-05 8.17507E-08 3.08131E-19 1.41110E-18
 -1       278 9.52073E-05-2.83770E-05-2.86413E-05 1.83464E-07 2.48526E-19 2.48123E-18
 -1       279 9.51415E-05-2.81977E-05-2.86900E-05 2.58379E-07 1.38187E-19-2.44461E-19
 -1       280 9.50659E-05-2.79871E-05-2.87480E-05 2.93460E-07-7.30753E-19 1.72082E-18
 -1       281 9.49899E-05-2.77743E-05-2.88070E-05 2.84738E-07 3.71630E-19-1.67366E-18
 -1       282 9.49205E-05-2.75806E-05-2.88606E-05 2.33464E-07 4.03402E-19-3.00290E-18
 -1       283 9.48687E-05-2.74377E-05-2.88999E-05 1.45306E-07-6.31988E-19-1.75255E-18
 -1       284 9.48424E-05-2.73681E-05-2.89186E-05 3.07962E-08 2.69258E-19 1.86331E-18
 -1       285 9.48472E-05-2.73857E-05-2.89131E-05-9.45448E-08-2.15409E-18-1.49427E-18
 -1       286 9.48846E-05-2.74919E-05-2.88834E-05-2.10931E-07-2.66685E-18-4.88348E-18
 -1       287 9.49495E-05-2.76701E-05-2.88345E-05-2.95300E-07-2.74658E-18 6.22851E-20
 -1       288 9.50353E-05-2.78999E-05-2.87725E-05-3.30448E-07-2.41289E-18 2.50419E-18
 -1       289 9.51274E-05-2.81410E-05-2.87084E-05-3.01416E-07-1.81995E-18 1.73401E-18
 -1       290 9.52071E-05-2.83515E-05-2.86523E-05-2.07497E-07-8.09718E-19 3.52443E-18
 -1       291 9.52455E-05-2.84773E-05-2.86147E-05-9.61210E-08-2.66078E-19 2.94049E-20
 -1       292 1.38671E-05-5.17241E-05 1.27796E-05 1.27035E-05-3.68046E-18 2.01414E-18
 -1       293 2.99801E-05-4.22514E-05 3.00455E-06 2.95278E-05-2.79309E-18 8.07064E-19
 -1       294 5.64687E-05-3.38708E-05-1.11753E-05 3.95282E-05-5.68783E-19 4.42035E-18
 -1       295 9.72897E-05-3.01356E-05-2.88616E-05 4.93657E-05 1.53292E-18 6.27207E-18
 -1       296 1.42206E-04-2.89121E-05-4.72363E-05 5.00743E-05 4.04712E-18 5.73378E-18
 -1       297 1.83546E-04-3.17298E-05-6.25904E-05 3.90838E-05 3.35960E-18 5.16711E-18
 -1       298 2.09401E-04-3.44699E-05-7.18002E-05 1.88696E-05 3.64192E-18 2.66170E-18
 -1       299 2.14814E-04-3.49799E-05-7.38019E-05-5.96386E-06 2.51632E-18 9.48439E-19
 -1       300 1.96197E-04-3.21460E-05-6.76988E-05-2.70347E-05 2.83513E-18-1.54562E-18
 -1       301 1.64672E-04-3.02286E-05-5.57046E-05-4.55970E-05 4.68936E-18-2.13092E-18
 -1       302 1.20795E-04-2.70481E-05-3.94187E-05-5.24944E-05 4.78510E-18-3.07981E-18
 -1       303 8.11108E-05-3.38045E-05-2.08994E-05-4.64220E-05 5.14043E-18-2.69409E-18
 -1       304 4.17038E-05-3.80961E-05-3.62596E-06-3.32856E-05 5.28443E-18-4.40184E-18
 -1       305 2.01681E-05-4.48449E-05 7.98402E-06-2.27959E-05 3.91541E-18-2.50214E-18
 -1       306 1.06823E-05-5.08821E-05 1.39239E-05-7.11967E-06 1.91789E-18-3.36939E-18
 -1       307 1.56595E-05-5.29686E-05 1.22971E-05 5.27837E-06-1.08950E-19-3.52800E-18
 -1       308 3.50306E-05-4.72657E-05 2.19788E-06 2.08510E-05-2.38503E-18-5.10872E-18
 -1       309 6.92841E-05-4.24248E-05-1.37231E-05 3.30389E-05-5.04027E-18-7.05293E-18
 -1       310 1.18274E-04-4.16606E-05-3.33652E-05 4.12214E-05-5.54341E-18-7.82298E-18
 -1       311 1.74867E-04-4.46492E-05-5.39434E-05 3.81056E-05-4.94360E-18-7.09475E-18
 -1       312 2.14634E-04-4.38475E-05-6.95738E-05 1.68008E-05-3.90037E-18-6.00991E-18
 -1       313 2.41821E-04-4.52470E-05-7.86662E-05 5.11425E-06-3.32545E-18-5.17654E-18
 -1       314 2.37012E-04-4.57554E-05-7.66217E-05-1.28053E-05-3.35012E-18-2.66731E-18
 -1       315 2.05182E-04-4.54968E-05-6.49920E-05-2.97346E-05-3.38904E-18-1.17653E-18
 -1       316 1.56101E-04-4.38273E-05-4.70905E-05-3.96814E-05-4.69129E-18 2.18746E-18
 -1       317 1.05462E-04-4.66938E-05-2.62687E-05-3.84373E-05-3.17002E-18 3.65452E-18
 -1       318 5.30494E-05-4.40926E-05-6.54695E-06-2.81180E-05-4.60532E-18 2.57620E-18
 -1       319 2.46422E-05-5.02430E-05 7.42830E-06-1.32699E-05-4.25020E-18 2.22796E-18
 -1       320 1.10242E-05-4.90730E-05 1.31646E-05-9.62639E-07-4.28959E-18 2.16925E-18
 -1       321 9.16260E-05-1.44428E-05-3.31563E-05-1.29768E-05-1.50146E-18-1.04836E-18
 -1       322 9.56821E-05-1.91038E-05-3.28817E-05-1.46329E-05-1.62095E-18 3.45232E-20
 -1       323 8.80239E-05-1.03721E-05-3.33345E-05-8.14465E-06-8.89652E-19-2.02110E-18
 -1       324 8.72170E-05-9.44869E-06-3.33778E-05-5.70888E-06-5.69014E-19-2.14059E-18
 -1       325 8.67603E-05-8.91589E-06-3.34068E-05-3.36011E-06-1.44746E-19-2.04888E-18
 -1       326 8.65562E-05-8.67433E-06-3.34214E-05-1.06933E-06 2.28166E-19-1.98405E-18
 -1       327 8.65641E-05-8.68342E-06-3.34210E-05 1.20251E-06 4.88398E-19-1.94262E-18
 -1       328 8.67857E-05-8.94540E-06-3.34052E-05 3.49505E-06 7.88327E-19-1.85331E-18
 -1       329 8.72539E-05-9.49182E-06-3.33753E-05 5.80707E-06 1.06360E-18-1.62950E-18
 -1       330 8.80865E-05-1.04466E-05-3.33297E-05 8.24630E-06 1.46609E-18-1.22341E-18
 -1       331 8.94872E-05-1.20289E-05-3.32638E-05 1.07606E-05 1.77627E-18-7.74201E-19
 -1       332 9.18824E-05-1.47322E-05-3.31467E-05 1.31404E-05 1.99280E-18 2.12023E-20
 -1       333 9.58589E-05-1.95771E-05-3.27965E-05 1.42777E-05 1.94098E-18 1.40742E-18
 -1       334 9.87383E-05-2.44367E-05-3.19288E-05 1.18498E-05 1.72793E-18 2.78674E-18
 -1       335 9.62986E-05-2.67635E-05-2.97731E-05 5.72428E-06 1.22310E-18 2.30586E-18
 -1       336 9.64079E-05-2.60187E-05-3.01222E-05-6.33949E-06-1.23616E-18 2.36048E-19
 -1       337 9.48946E-05-2.70167E-05-2.90651E-05-2.82359E-06-1.20495E-18 9.01205E-20
 -1       338 9.39282E-05-2.74134E-05-2.84918E-05-8.99979E-07-7.98380E-19 1.53066E-19
 -1       339 9.34250E-05-2.76265E-05-2.81927E-05 1.77637E-07-6.88221E-19-3.73339E-19
 -1       340 9.32570E-05-2.77881E-05-2.80551E-05 7.89553E-07-6.94744E-19-5.90928E-19
 -1       341 9.33192E-05-2.79189E-05-2.80275E-05 1.08591E-06-4.32269E-19-6.24941E-19
 -1       342 9.35178E-05-2.80369E-05-2.80628E-05 1.22465E-06-3.16612E-19-5.30160E-19
 -1       343 9.38006E-05-2.81436E-05-2.81385E-05 1.28355E-06-5.74404E-19-7.76892E-19
 -1       344 9.41381E-05-2.82398E-05-2.82419E-05 1.31727E-06-4.69042E-19-7.43850E-19
 -1       345 9.45176E-05-2.83259E-05-2.83674E-05 1.36811E-06-1.57452E-19-1.14114E-18
 -1       346 9.49400E-05-2.84036E-05-2.85146E-05 1.47212E-06-5.03921E-19-9.52914E-19
 -1       347 9.54408E-05-2.84764E-05-2.86972E-05 1.67907E-06-8.12738E-19-3.19434E-19
 -1       348 9.59935E-05-2.85377E-05-2.89067E-05 2.01191E-06-9.60830E-19 9.68288E-20
 -1       349 9.66484E-05-2.85902E-05-2.91633E-05 2.52709E-06-3.95043E-19-6.67395E-19
 -1       350 9.74390E-05-2.86298E-05-2.94831E-05 3.28985E-06 1.41306E-19-1.29566E-18
 -1       351 9.84036E-05-2.86510E-05-2.98846E-05 4.38283E-06 3.49872E-19-8.72178E-19
 -1       352 9.95834E-05-2.86511E-05-3.03871E-05 5.90613E-06 1.09336E-18 2.97452E-20
 -1       353 1.01026E-04-2.86444E-05-3.10049E-05 7.96205E-06 1.32202E-18-6.88210E-19
 -1       354 1.02886E-04-2.87120E-05-3.17713E-05 1.07680E-05 8.23665E-19-9.22056E-19
 -1       355 1.05114E-04-2.90799E-05-3.25721E-05 1.39920E-05 2.08805E-19-3.29062E-19
 -1       356 1.08145E-04-3.03412E-05-3.33392E-05 1.73280E-05-4.20349E-19 1.58867E-19
 -1       357 1.12827E-04-3.36991E-05-3.39132E-05 1.96681E-05 2.87073E-19 5.85655E-20
 -1       358 1.20830E-04-4.09225E-05-3.42382E-05 1.87089E-05 1.46416E-18 4.66126E-19
 -1       359 1.34122E-04-5.26458E-05-3.48998E-05 1.08917E-05 1.49055E-18 1.18585E-19
 -1       360 1.50280E-04-6.27475E-05-3.76923E-05-5.07239E-06 1.67419E-18 6.06052E-19
 -1       361 1.62786E-04-5.48662E-05-4.65013E-05-2.35650E-05-9.78376E-19 1.38887E-18
 -1       362 1.59331E-04-2.17113E-05-5.92597E-05 5.02846E-06-2.81003E-18-6.16084E-20
 -1       363 1.57286E-04-5.95358E-05-4.22714E-05 1.98012E-05-1.56264E-18-4.28085E-18
 -1       364 1.44245E-04-5.80177E-05-3.69901E-05-3.90244E-07 2.99704E-19-2.59559E-18
 -1       365 1.29600E-04-4.68005E-05-3.54862E-05-1.39445E-05 4.95713E-19-8.83210E-19
 -1       366 1.18792E-04-3.73209E-05-3.49296E-05-1.87268E-05-8.43625E-20 6.40145E-19
 -1       367 1.12427E-04-3.24934E-05-3.42607E-05-1.79402E-05 4.92397E-19 1.62824E-18
 -1       368 1.08235E-04-3.03379E-05-3.33757E-05-1.50599E-05 1.31766E-18 1.05612E-18
 -1       369 1.05203E-04-2.94804E-05-3.24364E-05-1.17938E-05 4.15131E-19-1.04564E-18
 -1       370 1.02858E-04-2.91499E-05-3.15722E-05-8.88013E-06-4.62698E-19-1.82887E-19
 -1       371 1.01002E-04-2.90041E-05-3.08413E-05-6.53912E-06-1.97923E-18-7.74390E-19
 -1       372 9.95294E-05-2.89110E-05-3.02534E-05-4.75643E-06-1.52168E-18-9.01007E-19
 -1       373 9.83290E-05-2.88312E-05-2.97760E-05-3.38372E-06-4.63839E-19 5.80823E-19
 -1       374 9.74500E-05-2.87585E-05-2.94329E-05-2.43822E-06-1.84971E-19 2.01654E-18
 -1       375 9.67761E-05-2.86909E-05-2.91749E-05-1.75003E-06 1.84142E-18 3.09136E-18
 -1       376 9.62658E-05-2.86288E-05-2.89840E-05-1.24469E-06-5.93945E-19 2.16190E-18
 -1       377 9.58838E-05-2.85724E-05-2.88453E-05-8.63942E-07-9.98076E-19-2.07448E-19
 -1       378 9.56016E-05-2.85208E-05-2.87469E-05-5.64426E-07-1.58349E-18-3.12141E-19
 -1       379 9.53966E-05-2.84806E-05-2.86769E-05-3.17371E-07-8.32724E-19 3.23452E-19
 -1       380 9.41252E-05-2.72689E-05-2.86283E-05 1.68864E-06 6.74449E-19 1.02136E-18
 -1       381 9.33787E-05-2.75228E-05-2.82122E-05 2.66635E-07 7.49068E-19 9.04338E-19
 -1       382 9.30521E-05-2.76658E-05-2.80173E-05-5.09166E-07 8.95967E-19 6.38892E-19
 -1       383 9.30223E-05-2.77935E-05-2.79528E-05-9.20507E-07 5.25755E-19 3.11439E-19
 -1       384 9.31776E-05-2.79167E-05-2.79681E-05-1.11972E-06 5.12731E-19 1.53048E-19
 -1       385 9.34436E-05-2.80358E-05-2.80317E-05-1.19872E-06 1.11297E-19-7.59617E-20
 -1       386 9.37733E-05-2.81502E-05-2.81243E-05-1.21592E-06 5.81613E-19 4.89015E-19
 -1       387 9.41397E-05-2.82603E-05-2.82342E-05-1.20919E-06 4.44974E-19 2.60107E-19
 -1       388 9.45294E-05-2.83686E-05-2.83548E-05-1.20211E-06 3.75700E-19 1.02750E-19
 -1       389 9.49379E-05-2.84794E-05-2.84823E-05-1.20696E-06 2.78032E-19 7.68312E-20
 -1       390 9.53655E-05-2.85986E-05-2.86145E-05-1.22568E-06-4.81565E-19 2.96405E-19
 -1       391 9.58140E-05-2.87332E-05-2.87491E-05-1.24937E-06-3.70462E-19 5.70283E-19
 -1       392 9.62828E-05-2.88907E-05-2.88828E-05-1.25703E-06 3.18047E-19 5.64998E-19
 -1       393 9.67648E-05-2.90774E-05-2.90100E-05-1.21413E-06 2.30601E-19 4.97011E-19
 -1       394 9.72425E-05-2.92966E-05-2.91218E-05-1.07208E-06 2.90493E-19 2.41935E-19
 -1       395 9.76824E-05-2.95437E-05-2.92057E-05-7.70642E-07-3.64137E-19-1.33380E-19
 -1       396 9.80308E-05-2.98010E-05-2.92463E-05-2.46002E-07-1.43694E-19 9.03925E-19
 -1       397 9.82107E-05-3.00298E-05-2.92268E-05 5.52345E-07 2.56816E-19 9.00677E-19
 -1       398 9.81231E-05-3.01642E-05-2.91326E-05 1.63364E-06 2.85208E-19 6.05384E-19
 -1       399 9.76593E-05-3.01112E-05-2.89565E-05 2.92884E-06-4.74148E-19 1.56424E-18
 -1       400 9.67291E-05-2.97675E-05-2.87035E-05 4.25546E-06-5.47481E-19 2.47835E-18
 -1       401 9.53105E-05-2.90609E-05-2.83948E-05 5.30839E-06-3.95657E-19 2.62028E-18
 -1       402 9.35103E-05-2.80129E-05-2.80675E-05 5.70904E-06 5.53273E-19 3.47418E-18
 -1       403 9.16047E-05-2.67924E-05-2.77688E-05 5.13150E-06 3.16800E-19 1.70503E-18
 -1       404 9.00104E-05-2.57096E-05-2.75453E-05 3.47649E-06 4.53691E-19 1.68591E-18
 -1       405 8.91559E-05-2.51109E-05-2.74336E-05 9.97654E-07 4.63873E-19 1.00859E-18
 -1       406 8.92986E-05-2.52123E-05-2.74518E-05-1.73067E-06 7.30812E-19 1.97295E-18
 -1       407 9.03944E-05-2.59764E-05-2.75969E-05-4.02882E-06 1.34680E-18 1.01823E-18
 -1       408 9.21206E-05-2.71335E-05-2.78455E-05-5.39651E-06 1.31839E-19 1.04499E-18
 -1       409 9.40348E-05-2.83318E-05-2.81576E-05-5.68406E-06-6.79273E-19 8.82745E-19
 -1       410 9.57519E-05-2.92949E-05-2.84854E-05-5.07039E-06-8.60057E-20-9.28208E-20
 -1       411 9.70443E-05-2.98974E-05-2.87839E-05-3.91280E-06-1.21201E-19-8.63768E-19
 -1       412 9.78474E-05-3.01507E-05-2.90207E-05-2.57999E-06-6.82772E-19 7.10566E-19
 -1       413 9.82099E-05-3.01419E-05-2.91794E-05-1.34618E-06 4.69598E-19-7.93431E-20
 -1       414 9.82330E-05-2.99750E-05-2.92595E-05-3.61108E-07 3.16386E-19-8.99289E-19
 -1       415 9.80269E-05-2.97367E-05-2.92716E-05 3.30291E-07 9.54141E-19-3.27692E-18
 -1       416 9.76877E-05-2.94857E-05-2.92321E-05 7.50275E-07-7.55896E-19-4.38194E-18
 -1       417 9.72889E-05-2.92546E-05-2.91589E-05 9.53147E-07-3.60595E-19-3.41924E-18
 -1       418 9.68819E-05-2.90576E-05-2.90679E-05 1.00040E-06-5.40449E-19-3.00149E-18
 -1       419 9.64991E-05-2.88972E-05-2.89719E-05 9.46628E-07 1.32751E-18-3.33262E-18
 -1       420 9.61589E-05-2.87702E-05-2.88801E-05 8.33522E-07-7.12237E-19-1.21754E-19
 -1       421 9.58696E-05-2.86704E-05-2.87986E-05 6.88945E-07-3.81046E-19 2.63203E-19
 -1       422 9.56328E-05-2.85914E-05-2.87309E-05 5.28777E-07-5.44241E-19-6.11867E-19
 -1       423 9.54469E-05-2.85305E-05-2.86773E-05 3.63058E-07-1.17468E-19 1.41021E-19
 -1       424 9.53283E-05-2.85021E-05-2.86389E-05 2.14225E-07 7.77698E-19 3.90160E-19
 -1       425 9.51285E-05-2.80869E-05-2.87319E-05 5.03637E-07-1.20145E-18-1.33657E-18
 -1       426 9.52309E-05-2.82806E-05-2.86923E-05 4.24957E-07-4.87189E-19 1.85616E-18
 -1       427 9.50218E-05-2.78880E-05-2.87717E-05 5.20433E-07-2.40712E-18 2.60254E-19
 -1       428 9.49169E-05-2.76947E-05-2.88100E-05 4.66193E-07 1.69917E-19-1.14675E-18
 -1       429 9.48274E-05-2.75323E-05-2.88415E-05 3.44912E-07-3.48891E-19-4.37988E-18
 -1       430 9.47647E-05-2.74219E-05-2.88622E-05 1.68626E-07-1.98700E-18-1.47138E-20
 -1       431 9.47398E-05-2.73811E-05-2.88691E-05-4.16246E-08-3.06326E-18 4.76139E-19
 -1       432 9.47610E-05-2.74208E-05-2.88610E-05-2.56440E-07-2.94750E-18-4.37552E-18
 -1       433 9.48289E-05-2.75383E-05-2.88395E-05-4.37815E-07-2.55562E-18-1.39786E-18
 -1       434 9.49406E-05-2.77257E-05-2.88067E-05-5.56667E-07-9.21769E-19 4.16909E-18
 -1       435 9.50808E-05-2.79576E-05-2.87669E-05-5.81388E-07-6.10989E-19 8.93896E-19
 -1       436 9.52219E-05-2.81985E-05-2.87237E-05-4.99150E-07-1.89296E-18 3.16253E-18
 -1       437 9.49102E-05-2.70647E-05-2.90395E-05 3.31690E-06 9.66312E-19 1.73491E-18
 -1       438 6.60917E-05-4.29314E-05-9.84301E-06 4.94813E-05-2.07618E-18 4.76133E-18
 -1       439 1.37378E-04-5.23664E-05-3.64081E-05 2.88113E-05-5.33154E-19 3.46246E-18
 -1       440 1.03069E-05-2.40236E-05 5.53897E-06 9.33843E-06-1.39363E-18 2.82814E-18
 -1       441 9.95398E-05-5.20051E-05-2.04683E-05 4.61570E-05-2.24919E-18 4.92825E-18
 -1       442 8.93732E-05-1.18958E-05-3.32707E-05-1.06391E-05-1.15222E-18-1.65424E-18
 -1       443 1.56580E-04-3.85545E-05-5.04590E-05 1.32037E-05 2.26110E-18 3.16187E-18
 -1       444 1.62182E-04-2.15975E-05-6.01324E-05 1.50440E-06 3.30142E-18 2.27090E-18
 -1       445 1.62562E-04-1.15914E-05-6.46371E-05-1.86122E-07 5.04567E-18 4.39332E-19
 -1       446 1.56179E-04-1.26336E-05-6.17078E-05 2.47350E-06 3.52175E-18-1.11295E-18
 -1       447 1.60701E-04-3.03016E-05-5.57981E-05-6.28328E-06 3.28183E-18-1.78830E-19
 -1       448 1.48399E-04-4.73769E-05-4.33451E-05-1.82460E-05 1.91350E-18 3.31613E-19
 -1       449 1.27981E-04-5.43765E-05-3.14470E-05-3.54058E-05 2.40039E-18 1.50772E-18
 -1       450 8.29022E-05-4.82902E-05-1.49446E-05-4.90577E-05 1.83870E-18-1.24107E-18
 -1       451 4.70662E-05-3.67302E-05-4.49012E-06-4.52738E-05 1.38066E-18-3.55420E-18
 -1       452 1.67158E-05-2.24143E-05 2.53767E-06-2.31732E-05 5.57983E-19-3.15774E-18
 -1       453 1.25180E-05-2.44433E-05 4.86260E-06 6.06779E-06 3.47681E-19-4.08609E-18
 -1       454 3.31143E-05-3.41898E-05 9.57524E-08 2.90123E-05 7.79906E-19-4.32664E-18
 -1       455 7.59629E-05-5.13326E-05-1.09964E-05 3.95937E-05 6.34216E-20-5.16752E-18
 -1       456 1.22112E-04-6.32141E-05-2.55992E-05 3.20932E-05-1.20490E-19-2.84900E-18
 -1       457 1.61055E-04-6.31947E-05-4.19401E-05 1.21215E-05-1.51227E-18-1.21443E-18
 -1       458 1.77936E-04-5.04886E-05-5.45840E-05-1.15657E-05-1.89349E-18 4.14199E-19
 -1       459 1.78142E-04-2.78043E-05-6.39014E-05-1.21518E-05-2.09090E-18 7.36919E-20
 -1       460 1.83418E-04-2.45806E-05-6.73087E-05 2.96570E-06-3.74727E-18-1.93116E-18
 -1       461 1.82446E-04-3.60378E-05-6.20668E-05 1.38480E-05-3.45981E-18-3.03958E-18
 -1       462 1.74578E-04-5.68373E-05-5.04171E-05 7.81180E-06-3.64079E-18-3.40846E-18
 -1       463 1.53423E-04-6.73325E-05-3.69810E-05-1.64559E-05-7.71329E-19-1.73356E-18
 -1       464 1.08287E-04-6.17953E-05-2.00515E-05-3.66576E-05-2.96991E-19 9.22022E-19
 -1       465 5.61290E-05-4.43448E-05-5.53769E-06-3.73675E-05-6.86414E-19 3.22190E-19
 -1       466 2.50610E-05-2.78612E-05 1.18574E-06-2.30273E-05 2.07047E-19 2.90638E-19
 -1       467 2.57199E-05-2.71171E-05 5.68840E-07 3.41480E-05-2.48668E-18 6.77309E-19
 -1       468 1.57480E-04-3.43085E-05-5.33411E-05 2.48668E-05-2.08772E-18-2.76636E-18
 -1       469 1.56238E-04-2.71323E-05-5.57529E-05-1.79405E-05-1.67776E-18 9.36077E-19
 -1       470 9.53182E-05-2.83455E-05-2.87012E-05-4.26635E-07-1.50016E-18 5.57935E-18
 -1       471 8.95625E-05-1.33818E-05-3.26680E-05-3.91040E-06-2.87341E-19-1.86222E-18
 -1       472 9.02699E-05-1.43530E-05-3.25572E-05-5.86984E-06-6.58307E-19-1.80923E-18
 -1       473 8.90655E-05-1.26970E-05-3.27471E-05 5.61049E-08 3.08630E-19-1.81623E-18
 -1       474 8.91994E-05-1.28810E-05-3.27260E-05 2.04015E-06 5.54860E-19-1.67719E-18
 -1       475 8.95923E-05-1.34212E-05-3.26639E-05 3.98659E-06 8.66050E-19-1.62840E-18
 -1       476 9.03133E-05-1.44123E-05-3.25500E-05 5.93570E-06 1.17620E-18-1.16941E-18
 -1       477 9.14597E-05-1.60011E-05-3.23626E-05 7.76052E-06 1.47150E-18-8.28582E-19
 -1       478 9.31717E-05-1.84259E-05-3.20545E-05 9.20975E-06 1.73191E-18-3.10984E-19
 -1       479 9.52946E-05-2.18794E-05-3.14752E-05 9.53832E-06 1.65337E-18 4.40416E-19
 -1       480 9.63306E-05-2.46103E-05-3.07259E-05 8.02778E-06 1.49726E-18 1.31915E-18
 -1       481 1.46310E-04-6.84299E-05-3.35263E-05-8.79623E-06 4.91041E-19-2.96083E-18
 -1       482 9.54582E-05-2.44184E-05-3.04359E-05-5.79254E-06-1.19002E-18-6.32219E-19
 -1       483 1.45607E-04-5.05746E-05-4.09556E-05 6.38285E-06-2.06133E-20 1.53562E-18
 -1       484 5.63389E-05-3.06373E-05-1.04506E-05 4.48854E-05-1.03137E-18 4.09742E-18
 -1       485 9.52625E-05-2.61977E-05-2.95909E-05-2.87005E-06-9.96575E-19-5.68348E-19
 -1       486 9.49251E-05-2.71411E-05-2.90469E-05-9.80725E-07-1.05314E-18-5.35526E-19
 -1       487 9.46555E-05-2.76853E-05-2.86999E-05 2.16187E-07-8.31167E-19-5.20937E-19
 -1       488 9.45261E-05-2.79931E-05-2.85136E-05 8.77562E-07-6.23163E-19-5.06866E-19
 -1       489 9.45056E-05-2.81859E-05-2.84225E-05 1.24939E-06-4.08257E-19-5.84706E-19
 -1       490 9.45656E-05-2.83045E-05-2.83976E-05 1.45081E-06-4.69642E-19-4.92242E-19
 -1       491 9.46823E-05-2.83699E-05-2.84196E-05 1.56697E-06-5.77599E-19-5.41203E-20
 -1       492 9.48384E-05-2.83926E-05-2.84767E-05 1.66175E-06-4.51579E-19-3.38926E-19
 -1       493 9.50232E-05-2.83769E-05-2.85624E-05 1.78592E-06-5.17902E-19-5.30464E-19
 -1       494 9.52392E-05-2.83162E-05-2.86807E-05 1.99786E-06-3.11626E-19-4.86427E-19
 -1       495 9.54592E-05-2.82080E-05-2.88210E-05 2.32362E-06-5.26536E-19-1.08762E-19
 -1       496 9.56851E-05-2.80360E-05-2.89909E-05 2.81838E-06-1.02280E-18 5.12140E-19
 -1       497 9.58999E-05-2.77753E-05-2.91939E-05 3.53888E-06-3.67013E-19 4.63891E-19
 -1       498 9.60739E-05-2.73919E-05-2.94317E-05 4.55251E-06 2.03426E-19 1.02355E-18
 -1       499 9.61576E-05-2.68451E-05-2.97006E-05 5.93840E-06 3.51233E-19 2.19922E-19
 -1       500 9.60819E-05-2.61014E-05-2.99855E-05 7.78304E-06 8.28749E-19-5.29312E-19
 -1       501 9.57364E-05-2.51229E-05-3.02549E-05 1.03024E-05 8.90019E-19-9.72383E-19
 -1       502 9.51056E-05-2.41554E-05-3.03987E-05 1.33193E-05 6.83097E-19-2.72354E-19
 -1       503 9.43551E-05-2.36605E-05-3.02861E-05 1.69258E-05-3.83494E-20-3.57298E-19
 -1       504 9.41725E-05-2.48020E-05-2.97104E-05 2.10135E-05 2.21278E-19-3.83006E-19
 -1       505 9.64984E-05-2.99086E-05-2.84631E-05 2.52330E-05 1.13911E-18 2.98116E-20
 -1       506 1.05029E-04-4.20025E-05-2.67972E-05 2.81478E-05 1.58966E-18 1.50454E-19
 -1       507 1.22890E-04-5.99356E-05-2.67800E-05 2.58996E-05 2.33702E-18 1.11405E-18
 -1       508 1.19093E-04-5.34096E-05-2.78034E-05-2.55025E-05 2.54682E-18-1.29296E-18
 -1       509 1.03217E-04-3.60672E-05-2.86859E-05-2.59103E-05 1.10520E-18-9.82876E-19
 -1       510 9.75058E-05-2.77425E-05-2.98670E-05-2.29157E-05 1.01380E-18-1.26918E-18
 -1       511 9.61716E-05-2.48673E-05-3.05456E-05-1.88904E-05 2.29347E-19-5.10061E-19
 -1       512 9.62414E-05-2.45565E-05-3.07124E-05-1.50297E-05 1.04990E-20-1.59440E-18
 -1       513 9.65623E-05-2.52002E-05-3.05745E-05-1.16487E-05 1.63300E-19-1.41225E-18
 -1       514 9.67471E-05-2.60332E-05-3.02977E-05-8.86239E-06-1.17199E-18-1.96688E-18
 -1       515 9.67393E-05-2.67605E-05-2.99843E-05-6.65493E-06-1.52125E-18-3.00982E-19
 -1       516 9.65878E-05-2.73368E-05-2.96741E-05-4.88309E-06-3.95549E-20 6.91514E-19
 -1       517 9.63745E-05-2.77189E-05-2.94203E-05-3.61420E-06-2.02829E-19 1.26665E-18
 -1       518 9.61399E-05-2.79744E-05-2.92113E-05-2.66074E-06 1.43054E-18 9.54489E-19
 -1       519 9.59145E-05-2.81373E-05-2.90456E-05-1.94509E-06 6.99702E-19 3.54022E-19
 -1       520 9.57117E-05-2.82334E-05-2.89178E-05-1.40341E-06-2.09567E-18 1.10206E-18
 -1       521 9.55331E-05-2.82817E-05-2.88212E-05-9.84444E-07-3.70293E-20 1.73915E-18
 -1       522 9.54245E-05-2.83224E-05-2.87568E-05-6.82899E-07-4.04474E-19 3.81496E-18
 -1       523 9.44082E-05-2.78206E-05-2.85360E-05-5.47276E-07 9.34956E-19 2.47454E-19
 -1       524 9.46276E-05-2.74459E-05-2.87887E-05 3.44541E-07 9.02741E-19 2.07890E-19
 -1       525 9.49986E-05-2.68055E-05-2.92215E-05 1.85217E-06 7.49338E-19 2.26452E-19
 -1       526 9.43293E-05-2.80569E-05-2.84019E-05-1.05526E-06 6.70814E-19 1.38550E-19
 -1       527 9.43580E-05-2.82138E-05-2.83473E-05-1.32564E-06 4.77545E-19 2.81004E-19
 -1       528 9.44620E-05-2.83210E-05-2.83462E-05-1.45657E-06 9.83807E-20-4.30492E-19
 -1       529 9.46178E-05-2.83963E-05-2.83807E-05-1.51456E-06 4.16705E-19-3.82857E-19
 -1       530 9.48110E-05-2.84531E-05-2.84392E-05-1.54389E-06 2.48391E-19 1.46888E-19
 -1       531 9.50347E-05-2.85033E-05-2.85135E-05-1.57195E-06-7.63320E-20 6.22458E-19
 -1       532 9.52886E-05-2.85598E-05-2.85981E-05-1.61180E-06-7.24358E-20 1.12273E-18
 -1       533 9.55772E-05-2.86378E-05-2.86884E-05-1.66282E-06-4.28758E-19 3.96276E-19
 -1       534 9.59083E-05-2.87548E-05-2.87802E-05-1.70988E-06 1.19614E-19 1.86129E-19
 -1       535 9.62915E-05-2.89314E-05-2.88689E-05-1.72174E-06 1.08087E-19 5.64801E-19
 -1       536 9.67355E-05-2.91886E-05-2.89493E-05-1.64940E-06 6.71552E-19 4.93530E-19
 -1       537 9.72440E-05-2.95436E-05-2.90156E-05-1.42615E-06 3.10646E-19 1.05542E-18
 -1       538 9.78083E-05-3.00002E-05-2.90625E-05-9.71756E-07-6.58572E-19 4.50600E-19
 -1       539 9.83970E-05-3.05344E-05-2.90867E-05-2.04524E-07-2.09966E-19 3.29002E-20
 -1       540 9.89422E-05-3.10752E-05-2.90893E-05 9.34062E-07-7.27702E-19 1.22242E-18
 -1       541 9.93272E-05-3.14875E-05-2.90778E-05 2.43900E-06-7.00451E-19 2.21648E-18
 -1       542 9.93881E-05-3.15725E-05-2.90671E-05 4.18769E-06-1.02958E-18 2.04081E-18
 -1       543 9.89472E-05-3.11084E-05-2.90756E-05 5.88880E-06-5.12432E-19 2.19011E-18
 -1       544 9.78978E-05-2.99527E-05-2.91188E-05 7.07601E-06 5.37556E-20 1.99573E-18
 -1       545 9.63231E-05-2.81860E-05-2.91985E-05 7.20283E-06 1.11724E-18 1.15476E-18
 -1       546 9.45822E-05-2.62140E-05-2.92956E-05 5.86736E-06 6.45006E-19 8.01381E-19
 -1       547 9.32456E-05-2.46925E-05-2.93737E-05 3.09824E-06 2.91692E-19 3.11411E-19
 -1       548 9.28398E-05-2.42291E-05-2.93981E-05-5.10591E-07-1.49086E-19 1.60618E-18
 -1       549 9.35410E-05-2.50275E-05-2.93570E-05-3.97749E-06 1.07042E-18 1.35137E-18
 -1       550 9.50515E-05-2.67436E-05-2.92704E-05-6.38635E-06 1.32509E-18 1.37468E-18
 -1       551 9.67967E-05-2.87140E-05-2.91762E-05-7.30043E-06 1.82509E-19 6.25879E-19
 -1       552 9.82512E-05-3.03360E-05-2.91068E-05-6.83605E-06 3.12129E-19-2.58787E-19
 -1       553 9.91339E-05-3.12949E-05-2.90762E-05-5.46154E-06 8.37392E-19-8.23124E-19
 -1       554 9.94254E-05-3.15845E-05-2.90781E-05-3.72004E-06-9.88751E-19-8.08323E-19
 -1       555 9.92645E-05-3.13832E-05-2.90956E-05-2.03546E-06 4.83864E-19-1.59821E-18
 -1       556 9.88322E-05-3.09142E-05-2.91109E-05-6.50178E-07 5.94069E-19-1.84417E-18
 -1       557 9.82818E-05-3.03606E-05-2.91115E-05 3.49841E-07 1.53781E-18-1.07950E-18
 -1       558 9.77170E-05-2.98385E-05-2.90924E-05 9.80081E-07 6.29259E-19-9.74272E-19
 -1       559 9.71956E-05-2.94037E-05-2.90546E-05 1.30646E-06-2.73461E-19-1.93463E-18
 -1       560 9.67427E-05-2.90708E-05-2.90026E-05 1.40944E-06-8.77923E-19-1.87991E-18
 -1       561 9.63637E-05-2.88310E-05-2.89426E-05 1.36354E-06 2.20446E-19-2.13219E-18
 -1       562 9.60540E-05-2.86653E-05-2.88806E-05 1.22803E-06-1.04303E-18-1.22066E-18
 -1       563 9.58043E-05-2.85528E-05-2.88216E-05 1.04540E-06-1.45839E-18-8.52668E-19
 -1       564 9.56035E-05-2.84741E-05-2.87692E-05 8.42057E-07-4.97611E-19 1.47242E-18
 -1       565 9.54381E-05-2.84137E-05-2.87241E-05 6.32203E-07-4.15026E-19 1.91484E-18
 -1       566 9.49241E-05-2.77734E-05-2.87790E-05 7.04739E-07-2.74833E-18 2.09200E-18
 -1       567 9.50850E-05-2.79864E-05-2.87561E-05 7.32853E-07-2.28958E-18-1.61101E-18
 -1       568 9.52412E-05-2.81996E-05-2.87319E-05 6.74857E-07-1.68946E-18-1.48338E-18
 -1       569 2.46163E-05-1.36541E-05-4.08976E-06 2.08990E-05-2.82380E-19 2.16417E-19
 -1       570 9.47712E-05-2.75730E-05-2.87995E-05 5.87016E-07-2.10538E-18-3.17436E-18
 -1       571 9.46455E-05-2.74093E-05-2.88159E-05 3.85559E-07-1.66352E-18-3.16682E-18
 -1       572 9.45663E-05-2.73049E-05-2.88268E-05 1.19427E-07-2.83764E-18-4.40224E-19
 -1       573 9.45514E-05-2.72797E-05-2.88312E-05-1.79724E-07-3.03721E-18-6.47054E-19
 -1       574 9.46111E-05-2.73444E-05-2.88290E-05-4.64457E-07-9.09666E-19-3.07527E-18
 -1       575 9.47494E-05-2.75020E-05-2.88205E-05-6.96421E-07 7.38809E-19 3.06009E-18
 -1       576 9.49516E-05-2.77379E-05-2.88059E-05-8.24255E-07-9.70138E-19 3.44397E-18
 -1       577 9.51839E-05-2.80209E-05-2.87840E-05-8.17020E-07-2.24263E-19 1.58230E-18
 -1       578 9.45874E-05-2.07569E-05-3.16601E-05-9.41294E-06-1.35898E-18-7.71865E-19
 -1       579 9.63200E-05-5.11194E-05-1.90570E-05 4.57032E-05-1.87141E-18 5.49683E-18
 -1       580 1.26352E-04-6.00133E-05-2.84315E-05 3.08811E-05-1.51852E-18 4.54224E-18
 -1       581 5.47186E-05-3.17165E-05-9.37660E-06-3.53361E-05 3.87412E-19 2.07947E-19
 -1       582 1.46370E-04-4.05431E-05-4.57184E-05 2.67946E-06 1.20379E-18 2.04744E-18
 -1       583 2.50092E-05-1.30104E-05-4.44037E-06-1.00589E-05 1.65259E-18 8.47033E-21
 -1       584 8.91815E-05-1.28571E-05-3.27285E-05-1.92910E-06 4.93590E-20-1.78437E-18
 -1       585 1.36732E-04-1.03397E-05-5.47969E-05-7.56727E-06 4.58806E-18-2.27031E-19
 -1       586 2.29912E-05-1.04182E-05-4.66327E-06-5.07331E-06-1.06061E-19-4.18339E-18
 -1       587 1.44195E-04-3.04472E-05-4.92269E-05-7.86448E-06 9.74194E-19 1.34043E-19
 -1       588 1.33538E-04-5.12260E-06-5.57428E-05 7.45200E-07 5.12222E-18 8.01027E-19
 -1       589 1.40623E-04-1.96763E-05-5.24061E-05 9.66073E-06 1.83912E-18 1.29702E-20
 -1       590 1.39605E-04-5.78288E-05-3.52014E-05-1.44598E-05 1.81592E-18 2.22786E-18
 -1       591 1.15050E-04-5.78413E-05-2.43791E-05-3.87781E-05 1.28225E-18 1.71589E-18
 -1       592 7.62638E-05-4.22108E-05-1.42201E-05-4.83687E-05 9.42324E-20-1.91271E-18
 -1       593 4.11038E-05-2.30919E-05-7.18061E-06-3.80979E-05-1.91641E-20-3.02613E-18
 -1       594 3.19267E-05-1.82939E-05-5.24845E-06 2.14382E-05 7.87344E-19-3.06097E-18
 -1       595 6.87881E-05-3.84060E-05-1.25173E-05 3.88186E-05 1.94458E-18-4.55863E-18
 -1       596 1.13881E-04-6.03454E-05-2.27467E-05 3.28846E-05 1.80778E-18-9.25271E-19
 -1       597 1.49303E-04-6.93205E-05-3.44007E-05 8.97326E-06 1.74505E-18 1.39300E-18
 -1       598 9.29431E-05-4.96135E-05-1.82798E-05-3.71267E-05 1.55891E-18 3.27166E-19
 -1       599 9.13747E-05-1.58919E-05-3.23725E-05-7.68990E-06-1.00694E-18-1.60867E-18
 -1       600 9.55423E-05-2.58334E-05-2.98531E-05 4.91643E-06 1.21540E-18 9.01826E-19
 -1       601 9.27904E-05-1.79459E-05-3.20968E-05-8.88045E-06-1.22284E-18-1.34179E-18
 -1       602 1.25478E-04-9.45364E-06-5.02744E-05 8.11667E-06 2.95159E-18 1.83241E-18
 -1       603 9.51688E-05-2.63763E-05-2.94699E-05 3.18381E-06 1.00467E-18 5.22390E-19
 -1       604 3.72445E-05-1.19675E-05-1.02677E-05-2.22227E-05-9.34966E-19-3.23069E-18
 -1       605 4.61503E-05-1.80019E-05-1.15002E-05-2.48457E-05 1.70611E-18 6.40886E-19
 -1       606 1.63025E-04-6.04808E-05-4.41194E-05-1.35015E-05-2.26396E-19 1.38781E-18
 -1       607 1.35694E-04-5.71479E-05-3.37642E-05 1.10734E-05-1.70690E-19 1.81810E-18
 -1       608 9.15639E-05-1.68086E-05-3.20436E-05 2.42664E-06 6.74892E-19-1.36561E-18
 -1       609 9.13062E-05-1.64039E-05-3.21063E-05 8.37080E-07 3.27307E-19-1.53934E-18
 -1       610 9.28957E-05-1.89679E-05-3.16897E-05 5.24219E-06 1.15559E-18-8.11642E-19
 -1       611 9.39868E-05-2.08794E-05-3.13388E-05 6.17753E-06 1.22030E-18-4.07333E-19
 -1       612 9.54878E-05-2.41992E-05-3.05400E-05 6.23773E-06 1.30361E-18 1.63402E-19
 -1       613 9.54166E-05-2.56611E-05-2.98931E-05-2.38760E-06-7.94219E-19-7.85955E-19
 -1       614 9.54890E-05-2.69492E-05-2.93737E-05-7.22474E-07-7.66501E-19-5.17505E-19
 -1       615 9.54367E-05-2.76679E-05-2.90436E-05 2.99879E-07-7.40010E-19-3.46849E-19
 -1       616 9.53673E-05-2.80976E-05-2.88298E-05 9.34910E-07-5.99159E-19-3.87532E-19
 -1       617 9.53110E-05-2.83389E-05-2.87024E-05 1.31498E-06-4.27004E-19-2.33489E-19
 -1       618 9.52738E-05-2.84499E-05-2.86388E-05 1.54285E-06-3.05249E-19-3.00365E-19
 -1       619 9.52510E-05-2.84633E-05-2.86233E-05 1.69756E-06-5.51878E-19-1.40177E-19
 -1       620 9.52341E-05-2.83962E-05-2.86448E-05 1.84074E-06-5.29991E-19 1.13792E-19
 -1       621 9.52079E-05-2.82431E-05-2.86991E-05 2.03387E-06-5.49243E-19-1.67121E-20
 -1       622 9.51550E-05-2.80111E-05-2.87758E-05 2.30384E-06-2.09857E-19-1.55118E-19
 -1       623 9.50480E-05-2.76774E-05-2.88727E-05 2.69813E-06-1.28229E-19 2.65194E-19
 -1       624 9.48437E-05-2.72099E-05-2.89854E-05 3.25688E-06-2.00803E-19 1.39070E-18
 -1       625 9.44775E-05-2.65626E-05-2.91055E-05 4.02101E-06 8.99432E-20 1.80773E-18
 -1       626 9.38541E-05-2.56767E-05-2.92177E-05 5.03224E-06-8.43562E-20 1.51731E-18
 -1       627 9.28417E-05-2.44883E-05-2.92931E-05 6.33320E-06 1.87430E-19 1.72764E-18
 -1       628 9.11632E-05-2.28641E-05-2.92691E-05 8.05168E-06 2.74824E-19 1.05191E-18
 -1       629 8.87579E-05-2.09803E-05-2.90458E-05 1.00801E-05 1.02719E-18 5.27562E-19
 -1       630 8.54107E-05-1.90007E-05-2.84568E-05 1.25937E-05 6.95004E-20-4.24160E-19
 -1       631 8.11178E-05-1.75345E-05-2.72259E-05 1.58767E-05-3.88424E-19-8.90643E-19
 -1       632 7.64130E-05-1.78529E-05-2.50121E-05 2.04553E-05 4.78615E-20-1.45724E-18
 -1       633 7.29485E-05-2.30799E-05-2.10321E-05 2.76499E-05 8.29497E-19-2.73246E-18
 -1       634 9.53316E-05-2.82316E-05-2.87570E-05 9.19224E-07-1.86150E-18-1.71505E-18
 -1       635 7.81759E-05-2.11924E-05-2.42159E-05-2.49157E-05 2.06987E-19-1.12599E-18
 -1       636 8.11293E-05-1.85131E-05-2.67976E-05-1.88231E-05 3.36429E-19-2.76255E-18
 -1       637 8.50575E-05-1.89499E-05-2.83230E-05-1.47343E-05-3.93970E-20-2.77436E-18
 -1       638 8.84245E-05-2.05621E-05-2.90811E-05-1.16727E-05 5.96043E-19-2.01132E-18
 -1       639 9.09593E-05-2.23820E-05-2.93878E-05-9.21184E-06 1.00577E-18-1.29203E-18
 -1       640 9.27026E-05-2.39826E-05-2.94492E-05-7.20577E-06 5.05480E-19 5.20683E-19
 -1       641 9.38727E-05-2.53039E-05-2.93850E-05-5.51098E-06-1.67162E-19 3.95763E-18
 -1       642 9.45458E-05-2.62352E-05-2.92747E-05-4.23001E-06 5.11581E-19 2.73927E-18
 -1       643 9.49324E-05-2.69049E-05-2.91537E-05-3.21868E-06 1.13085E-19 2.47074E-18
 -1       644 9.51361E-05-2.73726E-05-2.90408E-05-2.42843E-06 1.13635E-18 2.73137E-18
 -1       645 9.52282E-05-2.76912E-05-2.89440E-05-1.81204E-06-2.18870E-19 2.10099E-18
 -1       646 9.52489E-05-2.78968E-05-2.88650E-05-1.32647E-06-1.11995E-18 2.83295E-18
 -1       647 9.53681E-05-2.73196E-05-2.91630E-05 2.38345E-07 8.90940E-19-3.70158E-19
 -1       648 9.52823E-05-2.78754E-05-2.88884E-05-6.06829E-07 7.20290E-19-2.38577E-19
 -1       649 9.54213E-05-2.64007E-05-2.95784E-05 1.58121E-06 8.16997E-19-2.66365E-19
 -1       650 9.51778E-05-2.84009E-05-2.86187E-05-1.40441E-06 5.56805E-19 1.63439E-19
 -1       651 9.51724E-05-2.85003E-05-2.85738E-05-1.56385E-06 2.50332E-19 9.63189E-20
 -1       652 9.51957E-05-2.85407E-05-2.85665E-05-1.65634E-06-5.73451E-20-6.25361E-20
 -1       653 9.52468E-05-2.85481E-05-2.85852E-05-1.72522E-06-1.67485E-19-1.36940E-19
 -1       654 9.53291E-05-2.85457E-05-2.86214E-05-1.79732E-06-4.98090E-19 1.86296E-19
 -1       655 9.54508E-05-2.85581E-05-2.86683E-05-1.88469E-06 5.57047E-20 3.46431E-19
 -1       656 9.56268E-05-2.86130E-05-2.87202E-05-1.98455E-06 2.27714E-19 1.57773E-21
 -1       657 9.58785E-05-2.87438E-05-2.87721E-05-2.07801E-06-3.39130E-19-2.21393E-19
 -1       658 9.62348E-05-2.89888E-05-2.88198E-05-2.12778E-06-1.50977E-19 6.73561E-19
 -1       659 9.67294E-05-2.93881E-05-2.88608E-05-2.07558E-06 3.79981E-19 1.40581E-18
 -1       660 9.73952E-05-2.99747E-05-2.88950E-05-1.84096E-06-1.00568E-19 8.73766E-19
 -1       661 9.82518E-05-3.07568E-05-2.89272E-05-1.32424E-06 1.42692E-19 9.02947E-19
 -1       662 9.92830E-05-3.16899E-05-2.89696E-05-4.19087E-07-9.75306E-19 5.74154E-19
 -1       663 1.00406E-04-3.26413E-05-2.90434E-05 9.57968E-07-1.42648E-18 4.46401E-19
 -1       664 1.01439E-04-3.33581E-05-2.91789E-05 2.81270E-06-8.05012E-19 6.13795E-19
 -1       665 1.02092E-04-3.34709E-05-2.94100E-05 4.98778E-06-3.41411E-19-5.29495E-20
 -1       666 1.02025E-04-3.25867E-05-2.97592E-05 7.07054E-06 3.70633E-20-6.67840E-19
 -1       667 1.01017E-04-3.05070E-05-3.02170E-05 8.37402E-06 6.45750E-19-7.33556E-19
 -1       668 9.92035E-05-2.75100E-05-3.07233E-05 8.10237E-06 1.32322E-18-4.01816E-19
 -1       669 9.72294E-05-2.45111E-05-3.11641E-05 5.77214E-06 4.04084E-19-9.85879E-20
 -1       670 9.60177E-05-2.27352E-05-3.14057E-05 1.69784E-06-7.41526E-20-5.21337E-19
 -1       671 9.62257E-05-2.30356E-05-3.13655E-05-2.93980E-06 4.48743E-19-1.31140E-18
 -1       672 9.77451E-05-2.52721E-05-3.10585E-05-6.62052E-06 1.23188E-18-1.50095E-18
 -1       673 9.97610E-05-2.83842E-05-3.05890E-05-8.36731E-06 1.11675E-18-2.05266E-18
 -1       674 1.01392E-04-3.11857E-05-3.00876E-05-8.14275E-06 1.48489E-19-2.02514E-18
 -1       675 1.02137E-04-3.29362E-05-2.96574E-05-6.55326E-06 7.07209E-19 3.39442E-20
 -1       676 1.01975E-04-3.35058E-05-2.93450E-05-4.39850E-06 6.43487E-20 1.76403E-19
 -1       677 1.01185E-04-3.31767E-05-2.91478E-05-2.30104E-06 8.06214E-19-1.00224E-18
 -1       678 1.00105E-04-3.23529E-05-2.90380E-05-5.96104E-07 3.27982E-19-8.38302E-19
 -1       679 9.89984E-05-3.13748E-05-2.89826E-05 6.12634E-07 3.10933E-19-1.18904E-19
 -1       680 9.80163E-05-3.04596E-05-2.89536E-05 1.35753E-06 1.13925E-18 4.83454E-19
 -1       681 9.72196E-05-2.97113E-05-2.89326E-05 1.73053E-06 9.26448E-19-9.74368E-19
 -1       682 9.66117E-05-2.91559E-05-2.89098E-05 1.83581E-06 2.85585E-19-1.80171E-18
 -1       683 9.61671E-05-2.87751E-05-2.88823E-05 1.76600E-06-4.96527E-19-1.16766E-18
 -1       684 9.58511E-05-2.85329E-05-2.88505E-05 1.59409E-06-1.79806E-18 6.14972E-19
 -1       685 9.56289E-05-2.83884E-05-2.88170E-05 1.37287E-06-6.32659E-19 1.03304E-18
 -1       686 9.54589E-05-2.82935E-05-2.87848E-05 1.14832E-06-1.24101E-18-6.80000E-19
 -1       687 9.49823E-05-2.78635E-05-2.87655E-05 9.50765E-07-1.67066E-18-2.51288E-19
 -1       688 9.45357E-05-2.73848E-05-2.87792E-05 6.70238E-07-2.79627E-18-2.86222E-18
 -1       689 1.27415E-04-2.01652E-05-4.64299E-05-1.28927E-05 1.44112E-18-1.18902E-18
 -1       690 9.47499E-05-2.76151E-05-2.87723E-05 8.63498E-07-4.29506E-18-1.05013E-18
 -1       691 9.52144E-05-2.82091E-05-2.87165E-05-1.11482E-06 5.29468E-19-3.99826E-20
 -1       692 9.42804E-05-2.70903E-05-2.87960E-05 1.48614E-08-4.03827E-19 1.75118E-19
 -1       693 9.42968E-05-2.70839E-05-2.88058E-05-3.71169E-07 3.86368E-19-2.03813E-18
 -1       694 9.44336E-05-2.71959E-05-2.88163E-05-7.35283E-07-4.20329E-19 1.68958E-18
 -1       695 9.46844E-05-2.74249E-05-2.88254E-05-1.00466E-06-3.40235E-19 2.35388E-18
 -1       696 9.45656E-05-2.21587E-05-3.10271E-05-6.13490E-06-1.17316E-18-1.06057E-18
 -1       697 4.62951E-05-1.64951E-05-1.22750E-05 3.00279E-05 1.28259E-18 2.19498E-18
 -1       698 7.94850E-05-3.52371E-05-1.84453E-05-3.50551E-05 1.56960E-18-2.05450E-18
 -1       699 1.14927E-04-5.53444E-05-2.54137E-05 3.17154E-05-1.30827E-18 5.73432E-18
 -1       700 1.35915E-04-4.75102E-05-3.81448E-05 3.14917E-06 2.10583E-18 7.99599E-19
 -1       701 3.63799E-05-7.50667E-06-1.17600E-05 4.20279E-06 2.30307E-18 1.55113E-20
 -1       702 9.43684E-05-2.71991E-05-2.87871E-05 3.78688E-07-1.14536E-18-2.17476E-18
 -1       703 8.34895E-05-3.93940E-05-1.86096E-05 4.13561E-05-2.92729E-19 5.38573E-18
 -1       704 9.51896E-05-2.42879E-05-3.03906E-05-4.07252E-06-9.54320E-19-8.38071E-19
 -1       705 1.35988E-04-4.18283E-05-4.06598E-05-7.90984E-06-4.95514E-19-1.86220E-18
 -1       706 9.20892E-05-1.76423E-05-3.19118E-05 3.92707E-06 9.99739E-19-1.22125E-18
 -1       707 6.58531E-05-2.97167E-05-1.50370E-05-4.11234E-05-8.54630E-19-1.84786E-18
 -1       708 3.81477E-05-9.82217E-06-1.15567E-05 1.05004E-05 5.68094E-19-2.44290E-18
 -1       709 1.19844E-04-7.67375E-06-4.86416E-05-4.74208E-06 3.44700E-18 1.61797E-19
 -1       710 1.31861E-04-3.15314E-05-4.33997E-05 1.20998E-05 8.49151E-19 2.31055E-19
 -1       711 1.00893E-04-4.94630E-05-2.17822E-05-3.93613E-05 2.15702E-19 8.11921E-19
 -1       712 9.20538E-05-1.75882E-05-3.19196E-05-3.87059E-06-4.45491E-19-1.50718E-18
 -1       713 1.26232E-04-5.80836E-05-2.91577E-05-2.23078E-05 4.18719E-19 2.02362E-18
 -1       714 5.90890E-05-2.23336E-05-1.52227E-05 2.91138E-05 1.15583E-18-3.93860E-18
 -1       715 9.13009E-05-1.63955E-05-3.21076E-05-7.76113E-07 1.43183E-19-1.58842E-18
 -1       716 1.21062E-04-2.00641E-05-4.36518E-05 1.29355E-05 1.67654E-18 2.15971E-18
 -1       717 8.27906E-05-4.00626E-05-1.79617E-05 3.60662E-05 2.29390E-18-2.69020E-18
 -1       718 9.53223E-05-2.48693E-05-3.01880E-05 3.58690E-06 9.03435E-19-2.46230E-19
 -1       719 6.88413E-05-2.57930E-05-1.81590E-05 3.40504E-05 1.76710E-18 4.13907E-18
 -1       720 9.15462E-05-1.67809E-05-3.20478E-05-2.36555E-06-1.52585E-19-1.49317E-18
 -1       721 9.50248E-05-2.77504E-05-2.88312E-05-1.12371E-06-1.16565E-18 2.58621E-18
 -1       722 4.16798E-05-8.00330E-06-1.40578E-05-4.98797E-06-9.33633E-19-3.05083E-18
 -1       723 4.66976E-05-9.44715E-06-1.55577E-05-1.05095E-05 1.63936E-18 3.67903E-19
 -1       724 1.14533E-04-8.26574E-06-4.59090E-05 2.71912E-06 2.75831E-18 2.05964E-19
 -1       725 1.29991E-04-5.32893E-05-3.29417E-05-5.50604E-06 7.95782E-19 1.19466E-18
 -1       726 9.28875E-05-1.89310E-05-3.16977E-05-5.20560E-06-8.69538E-19-1.32245E-18
 -1       727 9.46342E-05-2.26805E-05-3.08397E-05 3.86697E-06 9.43278E-19-4.83837E-19
 -1       728 9.39925E-05-2.68081E-05-2.87933E-05-6.45208E-07 6.55220E-19-2.77409E-18
 -1       729 9.55792E-05-2.54807E-05-3.00423E-05-1.69850E-06-6.54579E-19-9.42762E-19
 -1       730 9.37236E-05-2.04128E-05-3.14160E-05-5.87968E-06-9.92541E-19-1.28325E-18
 -1       731 9.52810E-05-2.45125E-05-3.03275E-05 2.70114E-06 1.05446E-18-3.46598E-19
 -1       732 9.58717E-05-2.68244E-05-2.95916E-05-4.47335E-07-6.20569E-19-8.08803E-19
 -1       733 9.59498E-05-2.76604E-05-2.92668E-05 3.99520E-07-7.84208E-19-7.19324E-19
 -1       734 9.59181E-05-2.81562E-05-2.90408E-05 9.46473E-07-3.41623E-19-7.39311E-19
 -1       735 9.58278E-05-2.84133E-05-2.88920E-05 1.29023E-06-3.93896E-19-7.25365E-19
 -1       736 9.57017E-05-2.84953E-05-2.88027E-05 1.51209E-06-5.30293E-19-5.05136E-19
 -1       737 9.55461E-05-2.84407E-05-2.87595E-05 1.67767E-06-3.76321E-19-6.94592E-19
 -1       738 9.53443E-05-2.82569E-05-2.87517E-05 1.84736E-06-4.33467E-19-4.39667E-19
 -1       739 9.50966E-05-2.79644E-05-2.87709E-05 2.04709E-06-2.25446E-19 4.14770E-20
 -1       740 9.47649E-05-2.75471E-05-2.88076E-05 2.31561E-06 7.91228E-20 9.48359E-19
 -1       741 9.43006E-05-2.69780E-05-2.88525E-05 2.67631E-06 1.89309E-19 1.31262E-18
 -1       742 9.36321E-05-2.62153E-05-2.88928E-05 3.14411E-06 5.98159E-19 1.54652E-18
 -1       743 9.26560E-05-2.52023E-05-2.89086E-05 3.72322E-06 1.89262E-19 1.81751E-18
 -1       744 9.12299E-05-2.38719E-05-2.88678E-05 4.40578E-06-4.56757E-19 1.11905E-18
 -1       745 8.90292E-05-2.20584E-05-2.87017E-05 5.20023E-06-1.72199E-19 6.55427E-19
 -1       746 8.59862E-05-1.98834E-05-2.83304E-05 5.99154E-06-1.30943E-19 1.50437E-19
 -1       747 8.16843E-05-1.72971E-05-2.75957E-05 6.80026E-06-6.63130E-19-1.24217E-18
 -1       748 7.57117E-05-1.44883E-05-2.62310E-05 7.73040E-06-3.23682E-19-1.93902E-18
 -1       749 6.74831E-05-1.17900E-05-2.37965E-05 9.34129E-06-8.30162E-19-1.70759E-18
 -1       750 4.99847E-05-1.06966E-05-1.65002E-05 1.61649E-05 2.42440E-18 9.00211E-19
 -1       751 7.31396E-05-1.36318E-05-2.54812E-05-9.88136E-06-5.68828E-19 3.34962E-19
 -1       752 7.97505E-05-1.61779E-05-2.72466E-05-8.30048E-06 1.51534E-18 2.09220E-19
 -1       753 8.46563E-05-1.88440E-05-2.82064E-05-7.06270E-06 1.83920E-18 2.21878E-18
 -1       754 8.81163E-05-2.11531E-05-2.86987E-05-5.97448E-06 1.51236E-18 2.52729E-18
 -1       755 9.06220E-05-2.31141E-05-2.89320E-05-4.91619E-06 1.50511E-18 3.66115E-18
 -1       756 9.22336E-05-2.45534E-05-2.90055E-05-4.00752E-06 3.55990E-19 4.12203E-18
 -1       757 9.33113E-05-2.56341E-05-2.90043E-05-3.21002E-06 4.77916E-19 3.17623E-18
 -1       758 9.40195E-05-2.64260E-05-2.89685E-05-2.53238E-06 1.23984E-18 4.49822E-18
 -1       759 9.44746E-05-2.69923E-05-2.89209E-05-1.97183E-06-4.49042E-19 3.15165E-18
 -1       760 9.47586E-05-2.73872E-05-2.88733E-05-1.50970E-06-6.15609E-19 2.21474E-18
 -1       761 9.58499E-05-2.72612E-05-2.93952E-05 4.45705E-08 7.40977E-19-3.64908E-19
 -1       762 9.56999E-05-2.61906E-05-2.97890E-05 1.13364E-06 8.24486E-19-5.85594E-19
 -1       763 9.56230E-05-2.85897E-05-2.87286E-05-1.55603E-06-6.65981E-20 8.83331E-19
 -1       764 9.57163E-05-2.85113E-05-2.88022E-05-1.38887E-06 1.20218E-19 2.77693E-19
 -1       765 9.54632E-05-2.85444E-05-2.86795E-05-1.78292E-06-3.17757E-19 3.34578E-19
 -1       766 9.54217E-05-2.84920E-05-2.86841E-05-1.90657E-06 1.57757E-19-6.60920E-19
 -1       767 9.54299E-05-2.84682E-05-2.86979E-05-2.05713E-06-1.30503E-19-2.51422E-19
 -1       768 9.55162E-05-2.85159E-05-2.87144E-05-2.23262E-06-2.52441E-19 5.94105E-19
 -1       769 9.57211E-05-2.86866E-05-2.87291E-05-2.41516E-06-5.30429E-19 5.70868E-19
 -1       770 9.60988E-05-2.90403E-05-2.87394E-05-2.56728E-06-1.17093E-19 3.41166E-19
 -1       771 9.67151E-05-2.96397E-05-2.87467E-05-2.62650E-06 3.11071E-19 1.09927E-18
 -1       772 9.76400E-05-3.05368E-05-2.87587E-05-2.49961E-06-1.71855E-19 1.21311E-18
 -1       773 9.89267E-05-3.17440E-05-2.87929E-05-2.05913E-06 1.91663E-19 6.38906E-19
 -1       774 1.00574E-04-3.31875E-05-2.88804E-05-1.15093E-06-7.16338E-19 9.34874E-20
 -1       775 1.02470E-04-3.46483E-05-2.90667E-05 3.74481E-07-1.00187E-18-6.33418E-19
 -1       776 1.04324E-04-3.56996E-05-2.94106E-05 2.58652E-06-4.74559E-20-5.63314E-19
 -1       777 1.05641E-04-3.57109E-05-2.99698E-05 5.31715E-06-1.30707E-19-8.73042E-19
 -1       778 1.05818E-04-3.40301E-05-3.07662E-05 7.98181E-06 1.32984E-19-3.34296E-20
 -1       779 1.04500E-04-3.04382E-05-3.17408E-05 9.50864E-06 1.60786E-19-2.74136E-19
 -1       780 1.02010E-04-2.56467E-05-3.27309E-05 8.63015E-06 3.05827E-19 3.84204E-19
 -1       781 9.96072E-05-2.15478E-05-3.34612E-05 4.86992E-06 7.77791E-19 1.02676E-18
 -1       782 9.88210E-05-2.02448E-05-3.36772E-05-8.18896E-07 1.04032E-18-6.76435E-20
 -1       783 1.00188E-04-2.24951E-05-3.32979E-05-6.17886E-06 7.19602E-19-9.17406E-19
 -1       784 1.02769E-04-2.70127E-05-3.24745E-05-9.15738E-06 1.61284E-18-1.23587E-18
 -1       785 1.05007E-04-3.15809E-05-3.14696E-05-9.27831E-06 1.69802E-19-1.48140E-18
 -1       786 1.05913E-04-3.46736E-05-3.05302E-05-7.31993E-06-8.41831E-19-1.65663E-18
 -1       787 1.05365E-04-3.58286E-05-2.98015E-05-4.55589E-06-1.67986E-19-6.98473E-19
 -1       788 1.03836E-04-3.54462E-05-2.93110E-05-1.94645E-06 7.78822E-19-6.27539E-19
 -1       789 1.01926E-04-3.42123E-05-2.90209E-05 5.54381E-08 6.04111E-19-6.82779E-19
 -1       790 1.00074E-04-3.27055E-05-2.88728E-05 1.36915E-06-4.37628E-19-1.20577E-18
 -1       791 9.85141E-05-3.12893E-05-2.88109E-05 2.09393E-06 4.25022E-19-1.26509E-18
 -1       792 9.73200E-05-3.01362E-05-2.87933E-05 2.38432E-06 2.40787E-19-1.64849E-18
 -1       793 9.64720E-05-2.92889E-05-2.87928E-05 2.38702E-06 6.90609E-19-1.34075E-18
 -1       794 9.59075E-05-2.87193E-05-2.87950E-05 2.21796E-06-1.00867E-18-9.53007E-19
 -1       795 9.55552E-05-2.83701E-05-2.87935E-05 1.96021E-06-1.63807E-18-2.57281E-18
 -1       796 9.53491E-05-2.81797E-05-2.87868E-05 1.66947E-06-1.24331E-18-3.48710E-18
 -1       797 1.23100E-04-3.08640E-05-3.97058E-05-1.31394E-05-9.45328E-19-6.66469E-19
 -1       798 9.42536E-05-2.69967E-05-2.88244E-05-1.09320E-06-1.08866E-18 3.00501E-18
 -1       799 9.39100E-05-2.67799E-05-2.87700E-05-1.49035E-07 1.04709E-18 9.04481E-19
 -1       800 1.00041E-04-4.40146E-05-2.39102E-05 3.08035E-05 3.33249E-19 5.37982E-18
 -1       801 8.67907E-05-3.69536E-05-2.11317E-05-3.54101E-05-5.48202E-19-8.29828E-20
 -1       802 1.24014E-04-5.41619E-05-2.99765E-05 1.43130E-05-6.96019E-19-5.79946E-19
 -1       803 9.39888E-05-2.68928E-05-2.87553E-05 3.33455E-07-7.20132E-19-2.95491E-19
 -1       804 1.12855E-04-5.12910E-05-2.62789E-05-2.61019E-05-5.00855E-19 2.65778E-18
 -1       805 9.41954E-05-2.71127E-05-2.87496E-05 7.31376E-07-2.75503E-18-4.81493E-19
 -1       806 1.25687E-04-3.81143E-05-3.77121E-05 1.01151E-05 9.21029E-19 1.58510E-18
 -1       807 6.43324E-05-1.18372E-05-2.23549E-05-1.26651E-05 3.21029E-21 1.14437E-18
 -1       808 9.49840E-05-2.78691E-05-2.87631E-05 1.22699E-06-1.36011E-18-9.81713E-19
 -1       809 1.14431E-04-1.52656E-05-4.27758E-05-9.92732E-06 2.35899E-18-1.36046E-18
 -1       810 1.29745E-04-4.91830E-05-3.46625E-05-1.75252E-06-2.45501E-19-2.68678E-18
 -1       811 5.66300E-05-1.71272E-05-1.65923E-05-2.80170E-05-1.11785E-18-2.59232E-18
 -1       812 9.55348E-05-2.85885E-05-2.86913E-05-1.67440E-06 2.98345E-20 8.04105E-19
 -1       813 9.31990E-05-1.97070E-05-3.14976E-05 1.21921E-06 4.67219E-19-1.09856E-18
 -1       814 5.26655E-05-1.13138E-05-1.73846E-05 1.54627E-05 3.34777E-20-2.85903E-18
 -1       815 9.30889E-05-1.95061E-05-3.15365E-05 2.28027E-08 2.99483E-19-1.41148E-18
 -1       816 9.51845E-05-2.40901E-05-3.04703E-05-2.96934E-06-7.29811E-19-1.15967E-18
 -1       817 1.18096E-04-2.86756E-05-3.84755E-05 1.30192E-05 5.10953E-19 1.86486E-18
 -1       818 5.14326E-05-8.40824E-06-1.81989E-05 3.37209E-06 2.11487E-18 1.77877E-18
 -1       819 9.35133E-05-2.02782E-05-3.13880E-05-2.31097E-06-2.90053E-19-1.25022E-18
 -1       820 9.58591E-05-2.79208E-05-2.91164E-05-6.71317E-07 5.22305E-19-8.89190E-20
 -1       821 9.58019E-05-2.83085E-05-2.89258E-05-1.11823E-06 3.17206E-19 5.46008E-20
 -1       822 9.51199E-05-2.79926E-05-2.87690E-05 1.46095E-06-1.63004E-18-2.48209E-18
 -1       823 8.70491E-05-3.37017E-05-2.27361E-05 2.97241E-05 1.19467E-18 5.59564E-18
 -1       824 9.46479E-05-2.75583E-05-2.87526E-05 1.14423E-06-2.86538E-18-1.96752E-18
 -1       825 1.13088E-04-4.88183E-05-2.75438E-05 1.91786E-05-4.25634E-20-8.32872E-20
 -1       826 9.40081E-05-2.12547E-05-3.11802E-05-3.25666E-06-6.90072E-19-1.11035E-18
 -1       827 9.40112E-05-2.12900E-05-3.11692E-05 3.26973E-06 1.02099E-18-1.17698E-18
 -1       828 1.09058E-04-1.20584E-05-4.17706E-05-3.95215E-06 2.39213E-18-2.26241E-18
 -1       829 1.20876E-04-5.18097E-05-2.96133E-05-1.26607E-05-1.18758E-18 1.51461E-18
 -1       830 9.44044E-05-2.73237E-05-2.87488E-05 9.76451E-07-2.37235E-18-1.02395E-18
 -1       831 1.24801E-04-4.55305E-05-3.40202E-05 4.15404E-06 6.61966E-19 1.70113E-18
 -1       832 9.35164E-05-2.02962E-05-3.13808E-05 2.33352E-06 8.23969E-19-9.90116E-19
 -1       833 9.57799E-05-2.55171E-05-3.01117E-05-1.05447E-06-5.39855E-19-9.58278E-19
 -1       834 9.61663E-05-2.68730E-05-2.96971E-05-1.43848E-07-5.56410E-19-1.00139E-18
 -1       835 9.62932E-05-2.77241E-05-2.93868E-05 4.89408E-07-5.17235E-19-5.41245E-19
 -1       836 9.62585E-05-2.82166E-05-2.91608E-05 9.08570E-07-3.15742E-19-4.95299E-19
 -1       837 9.61168E-05-2.84431E-05-2.90030E-05 1.18018E-06-2.17847E-19-6.59521E-19
 -1       838 9.58973E-05-2.84660E-05-2.88991E-05 1.36399E-06-4.07144E-19-4.68091E-19
 -1       839 9.55936E-05-2.83131E-05-2.88345E-05 1.51399E-06-2.66831E-19-1.38307E-19
 -1       840 9.52274E-05-2.80192E-05-2.88035E-05 1.65235E-06-3.16065E-20 1.89486E-19
 -1       841 9.47648E-05-2.75845E-05-2.87916E-05 1.80946E-06 2.79642E-19 8.64328E-20
 -1       842 9.41650E-05-2.69956E-05-2.87869E-05 1.99527E-06 4.28696E-19 3.16222E-19
 -1       843 9.33669E-05-2.62255E-05-2.87749E-05 2.20516E-06 4.25851E-19 9.01753E-19
 -1       844 9.22834E-05-2.52343E-05-2.87353E-05 2.41550E-06-5.85150E-20 1.17253E-19
 -1       845 9.07953E-05-2.39730E-05-2.86384E-05 2.58008E-06-5.21096E-19-3.41203E-19
 -1       846 8.86176E-05-2.23014E-05-2.84213E-05 2.60986E-06-4.53733E-19-4.23670E-20
 -1       847 8.57262E-05-2.03319E-05-2.80269E-05 2.37587E-06-4.55652E-19-6.86065E-19
 -1       848 8.17530E-05-1.79925E-05-2.73284E-05 1.73166E-06-9.94388E-19-1.29135E-18
 -1       849 7.62719E-05-1.53264E-05-2.61200E-05 4.46189E-07-1.11736E-18-1.74841E-18
 -1       850 6.85193E-05-1.23390E-05-2.40753E-05-1.81573E-06-2.16556E-20-2.26101E-18
 -1       851 9.31914E-05-1.96914E-05-3.15007E-05-1.17274E-06-6.36974E-20-1.34167E-18
 -1       852 7.25658E-05-1.34104E-05-2.53142E-05-1.00748E-06 2.80443E-19 2.69795E-18
 -1       853 7.93716E-05-1.65472E-05-2.69281E-05-2.14323E-06 2.29835E-18 2.27907E-18
 -1       854 8.40037E-05-1.90563E-05-2.78363E-05-2.72574E-06 9.88490E-19 2.61400E-18
 -1       855 8.75125E-05-2.13121E-05-2.83723E-05-2.87877E-06 1.49156E-18 1.62420E-18
 -1       856 8.98808E-05-2.30459E-05-2.86436E-05-2.74871E-06 6.05235E-19 1.14074E-18
 -1       857 9.15590E-05-2.44086E-05-2.87788E-05-2.46490E-06-3.13688E-19 2.05340E-18
 -1       858 9.27368E-05-2.54539E-05-2.88356E-05-2.11687E-06 9.51541E-19 1.47906E-18
 -1       859 9.35509E-05-2.62353E-05-2.88501E-05-1.76266E-06 7.64580E-19 9.77740E-19
 -1       860 9.39430E-05-2.66611E-05-2.88353E-05-1.39863E-06 8.66335E-19 2.75445E-18
 -1       861 9.60302E-05-2.85629E-05-2.89146E-05-1.28747E-06-1.41524E-19 3.52206E-20
 -1       862 9.53216E-05-2.83361E-05-2.87080E-05-1.92220E-06 6.27522E-20-5.85629E-20
 -1       863 9.54776E-05-2.84416E-05-2.87297E-05-1.73724E-06 2.48682E-19 9.19670E-20
 -1       864 9.52300E-05-2.83208E-05-2.86753E-05-2.44628E-06-1.92285E-19-9.12971E-19
 -1       865 9.53992E-05-2.85407E-05-2.86537E-05-2.77943E-06-2.72443E-19-6.54101E-19
 -1       866 9.58162E-05-2.90208E-05-2.86266E-05-3.12633E-06-5.69097E-19 5.36835E-20
 -1       867 9.65861E-05-2.98526E-05-2.86001E-05-3.42612E-06-4.20083E-19 4.22771E-19
 -1       868 9.78279E-05-3.11161E-05-2.85908E-05-3.57260E-06-2.32340E-19 7.93952E-19
 -1       869 9.96473E-05-3.28402E-05-2.86317E-05-3.39444E-06-4.71200E-19 9.84564E-19
 -1       870 1.02071E-04-3.49233E-05-2.87784E-05-2.65324E-06-3.75889E-19 5.45607E-20
 -1       871 1.04976E-04-3.70540E-05-2.91091E-05-1.06541E-06-8.91928E-19-2.87117E-20
 -1       872 1.07910E-04-3.85333E-05-2.97306E-05 1.59759E-06-1.87894E-21-1.12310E-19
 -1       873 1.10092E-04-3.83611E-05-3.07444E-05 5.19808E-06-5.04283E-19 4.42714E-19
 -1       874 1.10442E-04-3.54185E-05-3.21447E-05 8.84545E-06 1.34226E-19 6.95493E-21
 -1       875 1.08286E-04-2.93252E-05-3.38524E-05 1.07688E-05 1.49120E-20-7.39437E-19
 -1       876 1.04654E-04-2.20574E-05-3.54335E-05 8.83953E-06 4.76473E-19-8.97678E-19
 -1       877 1.02055E-04-1.72847E-05-3.63606E-05 2.84078E-06 1.06693E-18-4.01007E-19
 -1       878 1.02917E-04-1.85237E-05-3.62037E-05-4.70940E-06 2.12926E-18-1.66465E-18
 -1       879 1.05805E-04-2.41170E-05-3.50318E-05-9.86221E-06 6.21235E-19-1.69839E-18
 -1       880 1.09128E-04-3.12845E-05-3.33666E-05-1.04425E-05 6.40253E-19-1.50788E-19
 -1       881 1.10596E-04-3.65325E-05-3.17421E-05-7.92202E-06-8.35243E-19 8.96959E-19
 -1       882 1.09613E-04-3.86193E-05-3.04283E-05-4.16139E-06-5.27820E-19-2.32254E-19
 -1       883 1.07128E-04-3.82091E-05-2.95390E-05-7.81312E-07 4.39344E-19-1.15618E-18
 -1       884 1.04122E-04-3.64292E-05-2.90116E-05 1.55436E-06 6.52304E-20-1.05902E-18
 -1       885 1.01315E-04-3.42437E-05-2.87449E-05 2.86044E-06 5.16754E-19-3.39069E-19
 -1       886 9.90353E-05-3.22080E-05-2.86404E-05 3.38818E-06-8.34433E-20-1.49178E-18
 -1       887 9.73617E-05-3.05730E-05-2.86239E-05 3.41585E-06 6.18855E-19-7.78743E-19
 -1       888 9.62313E-05-2.93897E-05-2.86465E-05 3.16396E-06 3.27915E-19-1.49292E-18
 -1       889 9.55295E-05-2.86088E-05-2.86803E-05 2.78149E-06-8.18623E-19 6.83535E-20
 -1       890 9.51376E-05-2.81439E-05-2.87114E-05 2.36054E-06-1.60818E-19-2.55209E-19
 -1       891 9.49511E-05-2.79044E-05-2.87341E-05 1.95464E-06 4.49517E-19-1.87398E-18
 -1       892 9.49057E-05-2.32587E-05-3.07018E-05 2.46573E-06 9.95577E-19-8.37921E-19
 -1       893 9.35754E-05-2.64247E-05-2.87789E-05-8.16250E-07 3.33989E-19-4.57839E-18
 -1       894 9.34602E-05-2.64027E-05-2.87389E-05-1.80712E-07-1.88497E-18 8.39734E-21
 -1       895 1.20417E-04-3.94782E-05-3.47888E-05-9.33071E-06-9.64848E-19-1.55242E-18
 -1       896 9.35716E-05-2.65667E-05-2.87164E-05 4.24950E-07 1.11072E-18 8.42370E-19
 -1       897 6.70064E-05-1.83385E-05-2.07026E-05 2.21192E-05 2.10248E-18 1.99873E-18
 -1       898 9.38580E-05-2.68645E-05-2.87116E-05 9.14591E-07 1.10915E-18 3.90185E-19
 -1       899 7.44665E-05-2.44285E-05-2.12798E-05-2.71527E-05-1.25820E-18-2.22213E-18
 -1       900 5.55236E-05-9.94326E-06-1.92997E-05-1.15041E-05-8.21678E-19-3.01921E-18
 -1       901 1.22409E-04-4.90895E-05-3.14109E-05 3.24701E-06-3.53110E-19-2.54440E-18
 -1       902 9.52245E-05-2.82763E-05-2.86921E-05-2.15724E-06-3.24067E-19-2.04102E-19
 -1       903 1.12440E-04-2.39260E-05-3.80223E-05-1.20986E-05-2.09919E-19-1.71794E-18
 -1       904 1.09936E-04-1.53936E-05-4.06975E-05 8.29152E-06 1.00330E-18 1.01191E-19
 -1       905 9.97645E-05-4.12296E-05-2.50395E-05-2.57244E-05-1.29275E-18 3.62404E-18
 -1       906 1.20504E-04-4.76100E-05-3.12456E-05-2.40732E-06-5.38158E-19 1.00565E-18
 -1       907 1.20224E-04-3.77459E-05-3.54200E-05 9.84544E-06 1.01956E-18 1.36403E-18
 -1       908 6.19685E-05-1.28573E-05-2.10217E-05 1.31212E-05 1.90969E-18 1.34351E-18
 -1       909 9.59538E-05-2.62066E-05-2.98925E-05 6.68756E-07 5.56335E-19-5.30181E-19
 -1       910 9.61699E-05-2.83824E-05-2.90518E-05-1.05724E-06 1.09983E-19 2.37889E-19
 -1       911 9.61941E-05-2.73072E-05-2.95229E-05-1.51372E-07 3.90621E-19-5.83350E-20
 -1       912 9.52766E-05-2.41000E-05-3.05047E-05-2.01185E-06-5.36260E-19-8.96955E-19
 -1       913 9.55683E-05-2.49638E-05-3.02609E-05 1.48898E-06 8.93408E-19-7.47399E-19
 -1       914 9.56624E-05-2.85442E-05-2.87650E-05-1.58763E-06 3.40663E-19 1.43331E-19
 -1       915 9.47393E-05-2.76920E-05-2.87339E-05 1.64955E-06-1.04395E-18-7.99044E-19
 -1       916 1.01753E-04-4.14515E-05-2.58081E-05 2.30427E-05 6.76447E-19 2.76816E-18
 -1       917 9.46659E-05-2.76024E-05-2.87421E-05 1.38818E-06-1.08224E-18-2.24138E-18
 -1       918 9.46562E-05-2.24808E-05-3.09333E-05-1.17554E-06-1.73499E-19-1.04235E-18
 -1       919 8.85362E-05-3.15823E-05-2.43658E-05-2.35549E-05-1.88488E-18 2.05033E-18
 -1       920 9.45152E-05-2.21628E-05-3.10080E-05 4.21017E-07 2.01449E-19-1.13141E-18
 -1       921 9.41430E-05-2.71401E-05-2.87160E-05 1.20516E-06 1.37360E-18 7.85057E-20
 -1       922 1.10255E-04-4.60475E-05-2.75134E-05-1.74217E-05-1.49557E-18 2.96714E-18
 -1       923 6.35565E-05-1.05989E-05-2.26173E-05 6.69286E-07-7.27778E-19 2.59345E-18
 -1       924 9.46655E-05-2.25064E-05-3.09252E-05 1.19581E-06 4.18784E-19-7.46327E-19
 -1       925 9.58534E-05-2.85996E-05-2.88231E-05-1.44919E-06 1.79538E-20-9.05368E-20
 -1       926 7.41717E-05-1.82856E-05-2.39246E-05-1.46087E-05-1.39723E-18-1.45162E-18
 -1       927 9.64069E-05-2.70552E-05-2.97229E-05 7.92096E-08-2.07930E-19-4.12585E-19
 -1       928 9.65147E-05-2.78424E-05-2.94308E-05 5.00529E-07-3.36482E-19-3.06872E-19
 -1       929 9.64385E-05-2.82791E-05-2.92112E-05 7.80862E-07-2.11560E-19-2.55464E-19
 -1       930 9.62278E-05-2.84398E-05-2.90520E-05 9.63897E-07-3.13150E-19 1.52895E-19
 -1       931 9.58939E-05-2.83763E-05-2.89361E-05 1.09163E-06-1.20139E-19 2.93092E-19
 -1       932 9.54789E-05-2.81347E-05-2.88618E-05 1.17981E-06-2.02143E-19 1.91743E-19
 -1       933 9.49631E-05-2.77387E-05-2.88105E-05 1.25019E-06 8.92332E-20-1.35811E-19
 -1       934 9.43219E-05-2.71929E-05-2.87696E-05 1.30305E-06 1.96269E-19-1.93372E-19
 -1       935 9.35139E-05-2.64900E-05-2.87246E-05 1.32204E-06 4.18884E-19-5.87133E-19
 -1       936 9.24796E-05-2.56141E-05-2.86567E-05 1.26870E-06 5.73178E-20-7.67247E-19
 -1       937 9.11396E-05-2.45446E-05-2.85408E-05 1.07747E-06-3.91648E-19-4.94893E-19
 -1       938 8.92902E-05-2.31958E-05-2.83261E-05 6.07663E-07-3.93388E-19-6.96935E-19
 -1       939 8.69718E-05-2.16945E-05-2.79758E-05-2.62276E-07-7.18131E-19-5.24196E-19
 -1       940 8.39580E-05-2.00190E-05-2.74011E-05-1.77101E-06-8.06845E-19-1.39543E-19
 -1       941 8.00043E-05-1.82487E-05-2.64641E-05-4.27792E-06-1.11412E-18-3.63499E-19
 -1       942 7.68191E-05-1.76843E-05-2.53285E-05-8.63291E-06-1.64320E-18-7.84282E-19
 -1       943 9.62406E-05-2.79929E-05-2.92490E-05-7.01383E-07 2.30193E-19 4.37517E-20
 -1       944 8.17226E-05-1.86238E-05-2.70384E-05 2.18776E-06 1.56940E-18 2.34199E-18
 -1       945 8.54659E-05-2.05654E-05-2.78142E-05 4.16004E-07 1.06337E-18 2.57960E-18
 -1       946 8.81222E-05-2.21918E-05-2.82558E-05-5.26322E-07 9.88193E-19 1.79525E-18
 -1       947 9.01087E-05-2.35682E-05-2.85174E-05-9.89879E-07-1.04331E-19 8.73675E-19
 -1       948 9.15806E-05-2.46940E-05-2.86659E-05-1.15349E-06 5.90583E-19 1.84539E-18
 -1       949 9.26556E-05-2.55847E-05-2.87453E-05-1.14588E-06 3.75308E-19 1.84471E-18
 -1       950 9.31570E-05-2.60396E-05-2.87645E-05-9.72160E-07 1.59279E-18 4.93912E-20
 -1       951 1.06553E-04-1.63510E-05-3.87414E-05-6.56490E-06 2.58322E-18-1.69387E-18
 -1       952 9.48380E-05-2.82323E-05-2.85453E-05-3.20579E-06-1.05384E-18 6.09519E-19
 -1       953 9.47300E-05-2.79819E-05-2.86063E-05-2.64823E-06-3.12148E-19 4.08944E-19
 -1       954 9.61534E-05-2.98781E-05-2.84037E-05-4.56323E-06-1.07155E-18-3.73640E-20
 -1       955 9.77001E-05-3.15313E-05-2.83581E-05-5.20035E-06-6.29422E-19 3.13292E-19
 -1       956 1.00116E-04-3.38716E-05-2.83899E-05-5.53830E-06 2.82447E-19-3.58760E-20
 -1       957 1.03462E-04-3.67516E-05-2.85903E-05-5.20206E-06-2.84658E-19-4.24929E-19
 -1       958 1.07713E-04-3.98706E-05-2.90831E-05-3.62428E-06-6.90994E-19-7.99954E-19
 -1       959 1.12129E-04-4.19824E-05-3.00677E-05-4.03752E-07-6.45027E-19-1.92965E-20
 -1       960 1.15440E-04-4.15295E-05-3.16798E-05 4.53081E-06 9.70903E-20 8.04038E-19
 -1       961 1.16566E-04-3.85588E-05-3.34901E-05-8.75211E-06-4.30134E-20-6.29460E-19
 -1       962 1.15081E-04-4.21396E-05-3.12552E-05-3.23160E-06-7.56204E-19 4.92230E-20
 -1       963 1.10988E-04-4.15505E-05-2.97669E-05 1.46214E-06 8.91237E-19 1.67880E-19
 -1       964 1.06461E-04-3.89588E-05-2.89233E-05 4.22820E-06 1.07402E-18-1.12076E-18
 -1       965 1.02406E-04-3.58369E-05-2.85287E-05 5.35105E-06-2.31788E-19-2.25611E-18
 -1       966 9.92823E-05-3.30284E-05-2.83941E-05 5.42273E-06 3.11759E-19-1.04888E-18
 -1       967 9.71066E-05-3.08497E-05-2.83959E-05 4.94211E-06-2.48119E-20-1.25363E-18
 -1       968 9.57191E-05-2.93215E-05-2.84563E-05 4.23569E-06 9.53827E-19-7.06806E-19
 -1       969 9.49207E-05-2.83449E-05-2.85325E-05 3.49372E-06-1.77863E-18-2.65922E-19
 -1       970 9.45300E-05-2.77882E-05-2.86036E-05 2.80846E-06-7.03560E-19 1.09540E-18
 -1       971 9.44015E-05-2.75269E-05-2.86615E-05 2.21670E-06 2.63671E-20 1.23998E-18
 -1       972 9.47690E-05-2.28553E-05-3.08197E-05 2.10597E-06 7.87723E-19-9.85011E-19
 -1       973 9.45140E-05-2.21579E-05-3.10097E-05-3.89753E-07 6.09177E-20-1.13568E-18
 -1       974 9.30139E-05-2.60300E-05-2.87077E-05-1.97254E-07-2.00459E-18 1.88103E-19
 -1       975 1.13603E-04-4.56974E-05-2.91033E-05 8.93498E-06 4.53848E-19-2.52021E-18
 -1       976 9.32882E-05-2.64214E-05-2.86574E-05 1.00724E-06 9.03239E-19 1.60962E-19
 -1       977 9.30596E-05-2.61540E-05-2.86737E-05 4.42275E-07-5.52905E-19-2.04517E-18
 -1       978 9.52615E-05-2.88210E-05-2.84745E-05-3.86055E-06-6.19367E-19 1.32478E-19
 -1       979 9.53061E-05-2.82362E-05-2.87443E-05-1.60012E-06 2.96869E-19-4.07138E-19
 -1       980 9.44122E-05-2.73756E-05-2.87285E-05 1.32389E-06-4.69514E-20 3.94599E-19
 -1       981 7.66924E-05-1.65755E-05-2.57931E-05 5.06938E-06 1.20963E-18 4.44578E-18
 -1       982 8.15505E-05-2.55769E-05-2.39762E-05 2.09518E-05 2.18101E-18 4.36645E-18
 -1       983 9.60135E-05-2.57699E-05-3.01047E-05-5.31827E-07-5.49765E-19-8.22613E-19
 -1       984 1.07474E-04-4.24718E-05-2.78232E-05 1.38328E-05 9.26118E-19-2.56544E-18
 -1       985 9.63643E-05-2.84368E-05-2.91118E-05-9.18150E-07 1.15724E-19 2.46273E-19
 -1       986 7.46919E-05-1.94290E-05-2.35976E-05 1.71250E-05 1.78694E-18 3.76547E-18
 -1       987 9.56027E-05-2.84090E-05-2.87973E-05-1.40670E-06 5.49374E-19-2.82731E-19
 -1       988 9.62087E-05-2.64087E-05-2.99149E-05 2.85461E-07 1.98012E-19-3.73512E-19
 -1       989 9.56648E-05-2.49121E-05-3.03211E-05 1.06161E-06 5.16818E-19-4.43683E-19
 -1       990 9.48225E-05-2.79573E-05-2.86566E-05-2.20121E-06 3.42495E-19 5.58411E-19
 -1       991 9.42205E-05-2.72909E-05-2.86843E-05 1.76958E-06-1.06802E-18 2.52422E-18
 -1       992 9.32534E-05-3.31750E-05-2.57200E-05 1.96530E-05 1.81228E-19 2.32135E-18
 -1       993 1.13851E-04-4.57958E-05-2.91820E-05-8.64982E-06-1.30342E-18 9.47411E-21
 -1       994 9.93724E-05-3.84220E-05-2.61315E-05-2.02182E-05-1.00351E-18 3.22086E-18
 -1       995 9.61585E-05-2.85618E-05-2.89700E-05-1.09983E-06 1.11118E-19 2.48258E-19
 -1       996 9.57274E-05-2.49848E-05-3.03195E-05-8.60679E-07-5.84827E-19-7.19376E-19
 -1       997 9.36572E-05-2.67782E-05-2.86621E-05 1.40456E-06 6.07471E-19-2.16695E-18
 -1       998 9.55124E-05-2.41942E-05-3.05648E-05 1.65180E-08 1.35438E-19-9.99765E-19
 -1       999 9.55706E-05-2.43499E-05-3.05235E-05 4.82472E-07 3.93421E-19-7.05284E-19
 -1      1000 9.50336E-05-2.80664E-05-2.87002E-05-1.85725E-06-2.24927E-19 2.83828E-19
 -1      1001 9.55466E-05-2.43171E-05-3.05274E-05-4.47359E-07-1.39422E-19-7.76184E-19
 -1      1002 8.56175E-05-2.61386E-05-2.54889E-05-1.64279E-05-1.70124E-18 3.94535E-19
 -1      1003 9.66331E-05-2.80000E-05-2.94141E-05 4.00242E-07-1.59269E-19-5.75186E-20
 -1      1004 9.64894E-05-2.83418E-05-2.92062E-05 5.46428E-07-9.47033E-20-6.00397E-20
 -1      1005 9.61857E-05-2.84129E-05-2.90455E-05 6.39123E-07-1.47826E-19 1.65202E-19
 -1      1006 9.57782E-05-2.82644E-05-2.89345E-05 6.83526E-07-1.51268E-19 3.15874E-19
 -1      1007 9.52682E-05-2.79478E-05-2.88516E-05 6.91803E-07-2.31378E-19 2.26857E-19
 -1      1008 9.46488E-05-2.74848E-05-2.87846E-05 6.57012E-07-2.02178E-19-2.03649E-20
 -1      1009 9.39012E-05-2.68891E-05-2.87195E-05 5.56620E-07 2.07724E-20 8.41634E-20
 -1      1010 9.29939E-05-2.61677E-05-2.86399E-05 3.48727E-07 1.64906E-19 1.77169E-19
 -1      1011 9.18902E-05-2.53312E-05-2.85254E-05-3.48760E-08-3.74249E-19-1.72492E-19
 -1      1012 9.04692E-05-2.43476E-05-2.83378E-05-7.43985E-07-5.67822E-19-3.59532E-20
 -1      1013 8.88228E-05-2.33573E-05-2.80563E-05-1.86991E-06-6.37618E-19 1.23049E-19
 -1      1014 8.68664E-05-2.24053E-05-2.76241E-05-3.64763E-06-7.23038E-19-4.99117E-19
 -1      1015 8.46016E-05-2.16666E-05-2.69693E-05-6.36150E-06-7.09157E-19-4.04227E-19
 -1      1016 9.39629E-05-2.74395E-05-2.85099E-05-2.82845E-06-3.70128E-19 1.05436E-18
 -1      1017 8.52461E-05-2.13928E-05-2.73621E-05 4.43976E-06 2.23563E-19 1.48244E-18
 -1      1018 8.74918E-05-2.23706E-05-2.79083E-05 2.34973E-06 6.28101E-19-2.92522E-19
 -1      1019 8.93389E-05-2.33928E-05-2.82625E-05 1.04491E-06 2.09644E-20 1.07767E-19
 -1      1020 9.08177E-05-2.43496E-05-2.84865E-05 2.68743E-07-1.38507E-19-2.44681E-19
 -1      1021 9.19758E-05-2.51874E-05-2.86238E-05-1.54438E-07 5.33220E-19 2.09921E-19
 -1      1022 9.25468E-05-2.56417E-05-2.86712E-05-1.90124E-07 2.14556E-19-1.23309E-20
 -1      1023 9.64447E-05-2.74483E-05-2.95698E-05-2.81165E-07 9.32535E-20-2.42869E-19
 -1      1024 9.42539E-05-2.82907E-05-2.82700E-05-4.76617E-06-9.54007E-19 2.21801E-19
 -1      1025 9.68492E-05-3.14974E-05-2.80074E-05-7.45147E-06-2.30244E-19 1.57221E-19
 -1      1026 9.51433E-05-2.95099E-05-2.81284E-05-6.05859E-06-7.63291E-19 3.57782E-20
 -1      1027 1.04193E-04-3.85006E-05-2.81452E-05-9.30699E-06-4.25062E-19 1.36769E-19
 -1      1028 1.02798E-04-3.72338E-05-2.81006E-05 9.16239E-06 5.76789E-20-1.18884E-18
 -1      1029 9.87650E-05-3.34473E-05-2.79894E-05 8.35901E-06-8.26521E-19-3.11395E-19
 -1      1030 9.61864E-05-3.07082E-05-2.80617E-05 7.02092E-06 5.11292E-19-3.34246E-19
 -1      1031 9.46833E-05-2.88885E-05-2.81977E-05 5.60641E-06 4.51575E-19 2.60107E-19
 -1      1032 9.39175E-05-2.77883E-05-2.83410E-05 4.33870E-06-1.13717E-18 6.03938E-19
 -1      1033 9.36364E-05-2.72118E-05-2.84676E-05 3.28496E-06-1.70488E-18-1.70645E-18
 -1      1034 9.36563E-05-2.69927E-05-2.85702E-05 2.44262E-06 8.42157E-20-1.62708E-18
 -1      1035 9.64768E-05-2.80934E-05-2.93072E-05-6.61134E-07 6.69501E-20 2.82338E-19
 -1      1036 9.39296E-05-2.76610E-05-2.84008E-05-3.68221E-06-2.68186E-19 3.18754E-19
 -1      1037 9.98344E-05-3.45504E-05-2.79948E-05-8.69009E-06 2.83052E-19 6.45527E-19
 -1      1038 9.61973E-05-2.58123E-05-3.01654E-05-9.50311E-08-7.19140E-20-7.51679E-19
 -1      1039 9.58955E-05-2.85345E-05-2.88690E-05-1.25029E-06-3.96827E-20-9.92599E-20
 -1      1040 8.26227E-05-2.06947E-05-2.65369E-05 7.65770E-06 4.60211E-19 3.62795E-18
 -1      1041 8.09627E-05-2.16122E-05-2.54009E-05 1.31759E-05 1.23231E-18 4.59801E-18
 -1      1042 9.65951E-05-2.73317E-05-2.96847E-05 1.62175E-07-1.00667E-19-5.89317E-19
 -1      1043 1.07596E-04-4.09067E-05-2.85698E-05 8.21939E-06 1.61501E-18-2.16144E-18
 -1      1044 9.42022E-05-2.74762E-05-2.85968E-05-2.18648E-06-2.45522E-19 1.24814E-18
 -1      1045 8.36891E-05-2.23344E-05-2.62925E-05-1.01081E-05-1.39531E-18-5.12720E-19
 -1      1046 9.64337E-05-2.67273E-05-2.98730E-05 2.73449E-08-6.85603E-21-6.36509E-19
 -1      1047 9.40128E-05-2.70923E-05-2.86808E-05 1.57710E-06 1.21699E-18 9.24479E-19
 -1      1048 9.53796E-05-2.81836E-05-2.87983E-05-1.13557E-06 3.89715E-19-2.41824E-19
 -1      1049 9.26139E-05-2.58160E-05-2.86278E-05 5.78697E-07 1.73131E-18-2.11944E-18
 -1      1050 9.65901E-05-2.82060E-05-2.93075E-05-5.27019E-07-8.70166E-20 7.02961E-20
 -1      1051 8.86171E-05-2.73970E-05-2.62507E-05 1.43918E-05-2.43630E-19 1.72671E-18
 -1      1052 9.36169E-05-3.19415E-05-2.64332E-05-1.59856E-05-2.06508E-19 1.83070E-18
 -1      1053 9.30557E-05-2.63581E-05-2.85858E-05 1.68534E-06-1.82237E-18-2.53379E-19
 -1      1054 9.49648E-05-2.79233E-05-2.87319E-05-1.37463E-06-4.15909E-19-3.19545E-19
 -1      1055 9.64130E-05-2.84658E-05-2.91203E-05-6.90321E-07-4.81547E-20 1.38833E-20
 -1      1056 9.63382E-05-2.62098E-05-3.00558E-05 3.68692E-08-1.91529E-20-5.48055E-19
 -1      1057 9.62108E-05-2.60572E-05-3.00636E-05-2.23875E-07-1.60070E-19-6.06407E-19
 -1      1058 9.27571E-05-2.60229E-05-2.85993E-05 1.14557E-06-9.10421E-19-7.75965E-19
 -1      1059 9.35205E-05-2.67560E-05-2.86122E-05 1.87639E-06-2.16536E-18 8.87895E-19
 -1      1060 1.01014E-04-3.72485E-05-2.73698E-05 1.36985E-05-1.45720E-20-1.83383E-18
 -1      1061 9.64296E-05-2.83983E-05-2.91563E-05 2.05732E-07-1.43089E-20-7.69015E-19
 -1      1062 9.60746E-05-2.83780E-05-2.90130E-05 2.06505E-07 9.33186E-21-5.99807E-19
 -1      1063 9.56101E-05-2.81655E-05-2.89048E-05 1.69902E-07 3.44288E-20-2.21593E-19
 -1      1064 9.50537E-05-2.78098E-05-2.88189E-05 8.29158E-08-3.20182E-19-6.84683E-20
 -1      1065 9.44022E-05-2.73380E-05-2.87419E-05-7.50551E-08-6.27217E-20 2.56423E-19
 -1      1066 9.36546E-05-2.67800E-05-2.86604E-05-3.44227E-07-2.49038E-20 1.34496E-19
 -1      1067 9.27935E-05-2.61596E-05-2.85577E-05-7.89364E-07-2.63448E-19-5.23718E-19
 -1      1068 9.17849E-05-2.55043E-05-2.84063E-05-1.54395E-06-1.52219E-19-2.47404E-19
 -1      1069 9.07319E-05-2.49415E-05-2.81965E-05-2.65433E-06-7.54448E-19 1.23369E-19
 -1      1070 8.96496E-05-2.45626E-05-2.78952E-05-4.30583E-06-1.00077E-18-8.26724E-20
 -1      1071 8.86742E-05-2.45826E-05-2.74698E-05-6.69440E-06-9.68384E-19-4.01018E-20
 -1      1072 9.66131E-05-2.76527E-05-2.95544E-05-2.99519E-07-2.55153E-19-4.51985E-19
 -1      1073 8.84930E-05-2.38671E-05-2.76978E-05 5.26087E-06-1.57670E-18 9.93040E-19
 -1      1074 9.48998E-05-3.07637E-05-2.74762E-05-1.03685E-05-5.54362E-19 1.01273E-18
 -1      1075 8.96517E-05-2.41414E-05-2.80770E-05 3.26552E-06 9.62013E-19-2.87678E-19
 -1      1076 9.07599E-05-2.46396E-05-2.83381E-05 1.92904E-06 2.88258E-19-4.65468E-20
 -1      1077 9.17559E-05-2.52239E-05-2.85143E-05 1.06397E-06-6.50863E-19-1.32807E-19
 -1      1078 9.25876E-05-2.72610E-05-2.79967E-05-5.76480E-06-1.12098E-18 5.46151E-20
 -1      1079 9.27980E-05-2.78606E-05-2.78311E-05 7.23388E-06-2.32214E-19 5.66260E-19
 -1      1080 9.68351E-05-3.27828E-05-2.74481E-05 1.14814E-05-7.30369E-19-1.10615E-18
 -1      1081 9.23151E-05-2.67789E-05-2.80864E-05 5.25282E-06-7.24767E-20 1.36396E-18
 -1      1082 9.23354E-05-2.63102E-05-2.82959E-05 3.73007E-06 2.45748E-19 1.15171E-18
 -1      1083 9.26257E-05-2.62225E-05-2.84582E-05 2.58956E-06-8.42600E-19 2.35944E-19
 -1      1084 9.25562E-05-2.67188E-05-2.82155E-05-4.14323E-06-4.80033E-19 2.28564E-19
 -1      1085 1.06906E-04-4.16923E-05-2.78964E-05-1.26744E-05-5.62958E-19 3.89481E-19
 -1      1086 8.74459E-05-2.40809E-05-2.71602E-05 8.15759E-06-1.55090E-18 1.18731E-18
 -1      1087 9.45608E-05-2.76683E-05-2.86681E-05-1.71433E-06-5.09263E-19 1.48683E-19
 -1      1088 9.57757E-05-2.83930E-05-2.88783E-05-9.64641E-07 4.37428E-19-4.61304E-19
 -1      1089 9.61315E-05-2.85078E-05-2.89816E-05-8.26031E-07 3.12631E-19-2.03889E-19
 -1      1090 9.28654E-05-2.66252E-05-2.83880E-05-2.93637E-06-3.19550E-20 9.52016E-20
 -1      1091 9.32066E-05-2.84961E-05-2.77333E-05-7.86538E-06-8.26536E-19 5.19606E-20
 -1      1092 8.74870E-05-2.51813E-05-2.67224E-05 1.09851E-05-7.15769E-19 1.73676E-18
 -1      1093 9.41139E-05-2.97331E-05-2.75910E-05 9.37568E-06-1.32630E-18-8.18818E-19
 -1      1094 9.67149E-05-2.76544E-05-2.95967E-05 9.77371E-08-4.50302E-20-7.35972E-19
 -1      1095 9.66519E-05-2.81659E-05-2.93512E-05 1.74014E-07-2.48573E-19-6.94846E-19
 -1      1096 9.33433E-05-2.67982E-05-2.85190E-05-2.07061E-06-2.87472E-19 1.07378E-19
 -1      1097 8.86875E-05-2.64639E-05-2.66671E-05-1.17485E-05-1.06435E-18-3.04460E-19
 -1      1098 8.84205E-05-2.52091E-05-2.70915E-05-9.05655E-06-1.39826E-18 1.48232E-19
 -1      1099 9.66307E-05-2.73030E-05-2.97114E-05-6.58970E-08-3.18806E-19-6.10147E-19
 -1      1100 9.65931E-05-2.83114E-05-2.92636E-05-2.88188E-07-2.33637E-19-8.51431E-19
 -1      1101 9.66991E-05-2.79497E-05-2.94637E-05-1.84949E-07-2.47766E-19-1.04590E-18
 -1      1102 9.55235E-05-2.81815E-05-2.88608E-05-5.90859E-07 2.54233E-19-6.24166E-19
 -1      1103 9.50203E-05-2.78700E-05-2.87786E-05-7.74281E-07-7.40858E-20 4.52050E-20
 -1      1104 9.59017E-05-2.83456E-05-2.89527E-05-2.96532E-07 4.47507E-19-5.31702E-19
 -1      1105 9.36320E-05-2.68885E-05-2.86048E-05-1.29040E-06-6.62627E-19-1.40576E-19
 -1      1106 9.63370E-05-2.84571E-05-2.90912E-05-3.75151E-07 3.54227E-19-6.42746E-19
 -1      1107 9.43786E-05-2.74158E-05-2.86982E-05-9.59637E-07-2.61373E-19-1.48901E-19
 -1      1108 9.12941E-05-2.78383E-05-2.71891E-05 1.03970E-05-1.58623E-18 4.20235E-19
 -1      1109 1.16789E-04 2.57381E-10-4.18319E-05-4.14514E-05-2.10064E-19 6.74492E-18
 -1      1110 8.86117E-05 7.18757E-11-3.72356E-05-2.41672E-05-1.13714E-19 1.05678E-18
 -1      1111 8.40587E-05 4.14269E-11-3.57593E-05-1.78817E-05-8.71915E-20-1.37926E-18
 -1      1112 8.23346E-05 3.20413E-11-3.50724E-05-1.38410E-05-4.95514E-20-2.51137E-18
 -1      1113 8.15477E-05 2.73466E-11-3.47440E-05-1.05344E-05-3.24122E-20-3.07740E-18
 -1      1114 8.11540E-05 2.46110E-11-3.45833E-05-7.64011E-06-2.02295E-20-3.29641E-18
 -1      1115 8.09521E-05 2.29499E-11-3.45032E-05-4.97846E-06-1.23746E-20-3.34170E-18
 -1      1116 8.08542E-05 2.20497E-11-3.44657E-05-2.43073E-06-1.29206E-21-3.23271E-18
 -1      1117 8.08262E-05 2.17761E-11-3.44551E-05 5.34866E-08 6.56864E-21-3.16731E-18
 -1      1118 8.08578E-05 2.20912E-11-3.44669E-05 2.54007E-06 2.07093E-20-3.08245E-18
 -1      1119 8.09598E-05 2.30455E-11-3.45056E-05 5.09568E-06 2.95105E-20-2.89201E-18
 -1      1120 8.11681E-05 2.47660E-11-3.45870E-05 7.77292E-06 4.02804E-20-2.52924E-18
 -1      1121 8.15665E-05 2.76392E-11-3.47498E-05 1.06940E-05 5.59174E-20-2.01192E-18
 -1      1122 8.23590E-05 3.25097E-11-3.50818E-05 1.40443E-05 6.34216E-20-1.26707E-18
 -1      1123 8.40569E-05 4.19039E-11-3.57787E-05 1.81325E-05 8.69268E-20 1.66376E-19
 -1      1124 8.83091E-05 6.66988E-11-3.73063E-05 2.40090E-05 9.43383E-20 2.88785E-18
 -1      1125 1.06558E-04 1.63805E-10-4.06120E-05 3.61806E-05 1.71312E-19 8.43634E-18
 -1      1126 1.30136E-04-2.57380E-05-4.02479E-05-2.60960E-05-8.63338E-19 1.03152E-17
 -1      1127 9.73763E-05-2.88385E-05-3.15528E-05-6.81434E-07-2.47281E-19 8.24290E-18
 -1      1128 9.00751E-05-2.70014E-05-2.78676E-05 3.86350E-07-3.41195E-20 5.61509E-18
 -1      1129 8.81615E-05-2.65463E-05-2.66173E-05 2.50074E-07-3.15023E-20 4.08463E-18
 -1      1130 8.78019E-05-2.64195E-05-2.63608E-05 1.64874E-07-3.01755E-20 2.62604E-18
 -1      1131 8.81634E-05-2.64970E-05-2.64467E-05 1.16743E-07-3.31948E-21 1.97682E-18
 -1      1132 8.88591E-05-2.66853E-05-2.66525E-05 8.60021E-08-5.25384E-20 1.38383E-18
 -1      1133 8.97148E-05-2.69281E-05-2.69085E-05 6.42410E-08-8.53218E-20 3.20827E-19
 -1      1134 9.06082E-05-2.71901E-05-2.71749E-05 4.77349E-08 1.09017E-19-7.14234E-19
 -1      1135 9.14594E-05-2.74422E-05-2.74305E-05 3.59044E-08 2.43307E-20-9.49259E-19
 -1      1136 9.22724E-05-2.76847E-05-2.76757E-05 2.65698E-08-9.19736E-20-1.60953E-18
 -1      1137 9.30505E-05-2.79182E-05-2.79117E-05 1.94191E-08 4.92189E-20-1.05117E-18
 -1      1138 9.38162E-05-2.81492E-05-2.81451E-05 1.42307E-08 4.14473E-20-9.22794E-19
 -1      1139 9.46093E-05-2.83898E-05-2.83881E-05 1.09258E-08 4.73385E-20-2.18315E-18
 -1      1140 9.55134E-05-2.86643E-05-2.86668E-05 9.49973E-09-7.48532E-20-3.59095E-18
 -1      1141 9.65977E-05-2.89948E-05-2.90024E-05 1.24415E-08-1.85911E-19-4.49668E-18
 -1      1142 9.79526E-05-2.94078E-05-2.94234E-05 1.93321E-08 4.39200E-20-3.81576E-18
 -1      1143 9.97682E-05-2.99607E-05-2.99894E-05 3.37018E-08 1.99185E-20-2.97454E-18
 -1      1144 1.02279E-04-3.07236E-05-3.07738E-05 6.05886E-08-2.82730E-19-4.24886E-18
 -1      1145 1.05811E-04-3.17932E-05-3.18777E-05 1.08297E-07 1.72361E-19-3.50664E-18
 -1      1146 1.10801E-04-3.33026E-05-3.34322E-05 1.89045E-07-1.46173E-19-1.57678E-18
 -1      1147 1.17983E-04-3.54505E-05-3.56506E-05 3.21824E-07 1.52684E-19-2.08338E-18
 -1      1148 1.27761E-04-3.83825E-05-3.85880E-05 5.28087E-07 6.37591E-20-6.67038E-21
 -1      1149 1.39832E-04-4.19900E-05-4.20472E-05 7.48884E-07-8.17900E-20-2.32405E-19
 -1      1150 1.52930E-04-4.59005E-05-4.54626E-05 8.13094E-07 1.81536E-19 1.32878E-19
 -1      1151 1.62502E-04-4.87130E-05-4.74465E-05 2.77121E-07 1.15329E-19 2.18744E-18
 -1      1152 1.60125E-04-4.78399E-05-4.61434E-05-1.42041E-06 1.67580E-19 5.25711E-18
 -1      1153 1.38858E-04-4.10558E-05-4.09745E-05-3.79133E-06 2.24689E-19 4.93143E-18
 -1      1154 1.04763E-04-3.09578E-05-3.38947E-05-4.33834E-06 2.98698E-19 6.53444E-18
 -1      1155 8.19959E-05-2.42661E-05-2.96038E-05-8.52513E-07-1.78300E-19 5.24790E-18
 -1      1156 8.93245E-05-2.68166E-05-3.08459E-05 3.25548E-06-4.88050E-19 2.21796E-18
 -1      1157 1.19369E-04-3.52869E-05-3.68042E-05 4.58607E-06-3.37622E-20 1.34339E-18
 -1      1158 1.50702E-04-4.47699E-05-4.36683E-05 2.76597E-06 2.45375E-20 4.43845E-19
 -1      1159 1.63315E-04-4.88603E-05-4.72450E-05 4.79808E-07-4.91081E-19-6.95308E-19
 -1      1160 1.58971E-04-4.76789E-05-4.68269E-05-6.38549E-07-4.69905E-20-2.54570E-18
 -1      1161 1.46631E-04-4.40420E-05-4.38687E-05-8.21575E-07-3.54411E-19-8.58362E-19
 -1      1162 1.33381E-04-4.00627E-05-4.02304E-05-6.38728E-07-2.37235E-21-3.80106E-19
 -1      1163 1.22540E-04-3.68211E-05-3.70311E-05-4.23234E-07 1.19630E-19 1.02560E-18
 -1      1164 1.14303E-04-3.43516E-05-3.45169E-05-2.56980E-07-3.27305E-19 3.22174E-18
 -1      1165 1.08347E-04-3.25594E-05-3.26697E-05-1.48927E-07 9.06358E-20 8.79961E-19
 -1      1166 1.04144E-04-3.12891E-05-3.13574E-05-8.38584E-08-3.32680E-19-1.66777E-18
 -1      1167 1.01207E-04-3.03992E-05-3.04390E-05-4.65481E-08-3.02609E-19-3.35956E-18
 -1      1168 9.91186E-05-2.97605E-05-2.97868E-05-2.88289E-08-1.93995E-19-2.94350E-18
 -1      1169 9.76721E-05-2.93223E-05-2.93359E-05-1.26408E-08-2.57084E-19-5.82533E-18
 -1      1170 9.66943E-05-2.90238E-05-2.90322E-05-6.39806E-09 3.93684E-19-2.72303E-18
 -1      1171 9.60180E-05-2.88171E-05-2.88232E-05-2.68466E-09 4.09359E-19-2.20975E-18
 -1      1172 9.55658E-05-2.86786E-05-2.86846E-05 4.20607E-10 4.16942E-19-3.05103E-18
 -1      1173 9.52951E-05-2.85956E-05-2.86019E-05 5.08104E-09 3.32121E-19-6.38373E-19
 -1      1174 9.51864E-05-2.85621E-05-2.85632E-05 1.36890E-08-7.63437E-19-3.10382E-18
 -1      1175 9.52098E-05-2.85767E-05-2.85457E-05 1.70646E-08 1.02862E-18-5.19761E-18
 -1      1176 1.30972E-04-3.77143E-05-3.86353E-05 1.21698E-05-1.87062E-19 1.29596E-17
 -1      1177 9.64805E-05-2.81678E-05-3.13056E-05 8.02013E-07 8.15534E-20 1.05124E-17
 -1      1178 9.02900E-05-2.69102E-05-2.78461E-05 1.20070E-07 1.16619E-19 8.11683E-18
 -1      1179 8.82539E-05-2.64808E-05-2.66527E-05 7.97327E-09 3.48574E-21 6.96730E-18
 -1      1180 8.78538E-05-2.63904E-05-2.63904E-05-2.61382E-08-1.21182E-20 6.53560E-18
 -1      1181 8.81997E-05-2.64855E-05-2.64670E-05-3.35101E-08-7.49012E-20 5.55945E-18
 -1      1182 8.88922E-05-2.66838E-05-2.66689E-05-3.38290E-08-5.99032E-20 4.89214E-18
 -1      1183 8.97305E-05-2.69293E-05-2.69176E-05-3.13420E-08-3.60711E-20 4.49575E-18
 -1      1184 9.06083E-05-2.71892E-05-2.71791E-05-2.76362E-08-7.82647E-21 3.29245E-18
 -1      1185 9.14704E-05-2.74458E-05-2.74371E-05-2.34124E-08 1.35602E-20 2.58215E-18
 -1      1186 9.22927E-05-2.76913E-05-2.76841E-05-1.91522E-08 1.12043E-19 1.82254E-18
 -1      1187 9.30711E-05-2.79243E-05-2.79188E-05-1.52531E-08-5.33214E-20 1.57678E-18
 -1      1188 9.38144E-05-2.81469E-05-2.81436E-05-1.20867E-08 1.02411E-19 7.70730E-19
 -1      1189 9.45381E-05-2.83636E-05-2.83625E-05-1.00358E-08-5.37021E-20 2.69853E-19
 -1      1190 9.52591E-05-2.85793E-05-2.85804E-05-9.51241E-09 6.81627E-20 4.50370E-19
 -1      1191 9.59902E-05-2.87975E-05-2.88004E-05-1.09433E-08 9.04719E-20-2.46367E-20
 -1      1192 9.67324E-05-2.90183E-05-2.90221E-05-1.47016E-08-2.46842E-19-9.58074E-20
 -1      1193 9.74671E-05-2.92359E-05-2.92389E-05-2.09535E-08 1.81333E-19-7.97237E-19
 -1      1194 9.81459E-05-2.94356E-05-2.94350E-05-2.93891E-08 7.30647E-20-2.42759E-18
 -1      1195 9.86810E-05-2.95913E-05-2.95834E-05-3.88334E-08-2.00488E-19-1.52069E-18
 -1      1196 9.89394E-05-2.96638E-05-2.96437E-05-4.68001E-08-3.03079E-21-8.33310E-19
 -1      1197 9.87452E-05-2.96015E-05-2.95646E-05-4.92000E-08 9.33060E-22-1.47074E-18
 -1      1198 9.78993E-05-2.93465E-05-2.92903E-05-4.06062E-08 5.73402E-21-1.98847E-18
 -1      1199 9.62248E-05-2.88476E-05-2.87746E-05-1.56303E-08-1.31596E-19-2.66225E-18
 -1      1200 9.36377E-05-2.80808E-05-2.80015E-05 2.82568E-08 4.58771E-20-2.61281E-18
 -1      1201 9.02345E-05-2.70743E-05-2.70078E-05 8.70542E-08-4.52269E-20-1.54798E-18
 -1      1202 8.63600E-05-2.59279E-05-2.58987E-05 1.47804E-07 2.09671E-19-1.94055E-18
 -1      1203 8.26055E-05-2.48137E-05-2.48425E-05 1.90434E-07-1.24985E-19-2.76138E-18
 -1      1204 7.96977E-05-2.39449E-05-2.40371E-05 1.95381E-07-2.59432E-19-1.78261E-18
 -1      1205 7.82862E-05-2.35152E-05-2.36540E-05 1.54184E-07 6.11799E-20-3.61371E-18
 -1      1206 7.87112E-05-2.36299E-05-2.37803E-05 7.60562E-08 2.19865E-20-4.59432E-18
 -1      1207 8.08685E-05-2.42636E-05-2.43863E-05-1.52621E-08 9.77330E-20-6.21696E-18
 -1      1208 8.42517E-05-2.52690E-05-2.53374E-05-9.30336E-08-8.58034E-21-6.25581E-18
 -1      1209 8.81458E-05-2.64330E-05-2.64416E-05-1.39496E-07-2.39955E-19-4.18387E-18
 -1      1210 9.18646E-05-2.75486E-05-2.75103E-05-1.50915E-07-1.85493E-19-1.78740E-18
 -1      1211 9.49233E-05-2.84683E-05-2.84047E-05-1.34897E-07 2.98195E-19-2.62586E-18
 -1      1212 9.70977E-05-2.91230E-05-2.90546E-05-1.03855E-07-2.05091E-20-6.37968E-18
 -1      1213 9.83869E-05-2.95118E-05-2.94524E-05-6.92041E-08 5.40265E-20-3.69914E-18
 -1      1214 9.89313E-05-2.96767E-05-2.96324E-05-3.84721E-08 3.49252E-20-2.95829E-18
 -1      1215 9.89294E-05-2.96773E-05-2.96487E-05-1.50696E-08 7.45513E-20-2.44748E-18
 -1      1216 9.85788E-05-2.95729E-05-2.95575E-05 5.84245E-10 1.13256E-19-3.20045E-18
 -1      1217 9.80432E-05-2.94130E-05-2.94070E-05 9.69487E-09-3.10355E-19-2.20255E-18
 -1      1218 9.74429E-05-2.92335E-05-2.92334E-05 1.40400E-08-6.36274E-19-6.06820E-19
 -1      1219 9.68565E-05-2.90581E-05-2.90613E-05 1.53449E-08 4.50553E-19-1.83093E-18
 -1      1220 9.63307E-05-2.89007E-05-2.89057E-05 1.49932E-08-1.29828E-19-2.11793E-18
 -1      1221 9.58907E-05-2.87691E-05-2.87751E-05 1.38843E-08 2.47877E-19-2.64893E-18
 -1      1222 9.55503E-05-2.86672E-05-2.86746E-05 1.23142E-08-6.04780E-19-9.31065E-19
 -1      1223 9.53208E-05-2.85982E-05-2.86070E-05 9.24866E-09 4.88559E-19-1.64204E-18
 -1      1224 9.52138E-05-2.85652E-05-2.85713E-05 1.51197E-09 5.25195E-19-4.33450E-18
 -1      1225 9.52159E-05-2.85654E-05-2.85539E-05-7.25697E-09-2.82959E-20-3.70307E-18
 -1      1226 9.52432E-05-2.85931E-05-2.85543E-05-7.30045E-09-3.94833E-18-3.31457E-19
 -1      1227 9.52398E-05-2.85907E-05-2.85722E-05-7.94631E-09-4.44108E-18 2.36354E-19
 -1      1228 9.52074E-05-2.84827E-05-2.86076E-05 2.99398E-09-1.83220E-19-1.81452E-20
 -1      1229 9.51457E-05-2.82718E-05-2.86673E-05 8.81100E-09 2.79865E-18 8.66941E-20
 -1      1230 9.50657E-05-2.80002E-05-2.87442E-05 1.11256E-08 1.89558E-18 3.45498E-19
 -1      1231 9.49820E-05-2.77159E-05-2.88252E-05 1.10722E-08 2.29150E-18-5.39932E-19
 -1      1232 9.49072E-05-2.74607E-05-2.88980E-05 9.22771E-09 1.19144E-19 1.20131E-19
 -1      1233 9.48522E-05-2.72727E-05-2.89514E-05 5.62611E-09-5.53521E-18-9.37067E-19
 -1      1234 9.48271E-05-2.71863E-05-2.89755E-05 8.00033E-10-6.34668E-18 1.16638E-18
 -1      1235 9.48374E-05-2.72205E-05-2.89651E-05-4.64431E-09-5.45355E-19 4.47233E-19
 -1      1236 9.48834E-05-2.73766E-05-2.89202E-05-9.79805E-09-7.77813E-18-6.75587E-19
 -1      1237 9.49586E-05-2.76317E-05-2.88478E-05-1.35436E-08-1.28624E-17 1.19963E-18
 -1      1238 9.50504E-05-2.79453E-05-2.87598E-05-1.44486E-08-7.03728E-18 2.34656E-19
 -1      1239 9.51426E-05-2.82602E-05-2.86722E-05-1.12568E-08-2.30776E-18 1.51478E-19
 -1      1240 9.52148E-05-2.85040E-05-2.86041E-05-2.26615E-09 1.82540E-18 8.05975E-19
 -1      1241 9.52472E-05-2.86176E-05-2.85654E-05 1.51622E-08 6.89470E-18 1.94115E-19
 -1      1242 9.52320E-05-2.85975E-05-2.85458E-05 1.37698E-08 6.19869E-18-7.68897E-19
 -1      1243 3.61114E-05-1.12003E-04 1.93007E-05-1.31637E-05-5.06356E-18 1.72927E-19
 -1      1244 1.67454E-05-6.08488E-05 8.76362E-06-2.21378E-05-2.47334E-18-6.97532E-19
 -1      1245 8.35149E-06-1.60427E-06-8.44315E-06 6.50545E-06 2.36830E-18 1.80587E-18
 -1      1246 3.76521E-05 2.95513E-05-2.86953E-05 6.07604E-05 7.86216E-18 8.26027E-18
 -1      1247 1.16460E-04 1.38827E-05-4.99869E-05 1.09129E-04 8.04597E-18 1.20668E-17
 -1      1248 2.20209E-04-3.62182E-05-6.78488E-05 1.12921E-04 4.46005E-18 1.21888E-17
 -1      1249 2.99224E-04-8.32920E-05-7.85470E-05 6.21122E-05 2.06867E-18 6.64921E-18
 -1      1250 3.18463E-04-9.52631E-05-8.08981E-05-2.03337E-05 4.14517E-19 1.55939E-18
 -1      1251 2.65678E-04-6.25101E-05-7.42455E-05-9.24154E-05 6.85885E-19-1.48908E-18
 -1      1252 1.69639E-04-9.34321E-06-5.98925E-05-1.18347E-04 4.20806E-18-6.70172E-18
 -1      1253 7.61621E-05 2.68479E-05-4.08590E-05-9.18400E-05 8.38054E-18-9.48338E-18
 -1      1254 1.90687E-05 2.01640E-05-1.93385E-05-3.50979E-05 1.17517E-17-8.88792E-18
 -1      1255 9.14226E-06-2.83278E-05 3.10459E-07 1.20720E-05 1.29427E-17-6.34936E-18
 -1      1256 2.60659E-05-8.78059E-05 1.46503E-05 2.19354E-05 8.92095E-18-2.21774E-18
 -1      1257 3.95303E-05-1.21619E-04 2.13321E-05-3.83622E-07 5.47480E-18-5.72753E-19
 -1      1258 3.22336E-05-1.09147E-04 1.91245E-05-2.86192E-05-9.87217E-19-9.76047E-19
 -1      1259 1.25339E-05-5.84464E-05 8.03872E-06-3.15236E-05-6.46117E-18-3.32418E-18
 -1      1260 9.95289E-06-2.89780E-06-1.05477E-05 4.89494E-06-1.22396E-17-9.79339E-18
 -1      1261 5.47251E-05 2.01025E-05-3.32565E-05 6.54730E-05-1.29901E-17-1.52195E-17
 -1      1262 1.58166E-04-7.11089E-06-5.73119E-05 1.13324E-04-9.94671E-18-1.77335E-17
 -1      1263 2.84040E-04-6.65680E-05-7.73029E-05 1.02046E-04-5.16860E-18-1.63003E-17
 -1      1264 3.61784E-04-1.09957E-04-8.71564E-05 2.85536E-05-1.24839E-18-1.15950E-17
 -1      1265 3.40340E-04-9.80832E-05-8.45672E-05-6.44663E-05 2.52839E-19-5.15335E-18
 -1      1266 2.37532E-04-4.31280E-05-7.06041E-05-1.16289E-04-2.08158E-18 3.41524E-18
 -1      1267 1.17236E-04 7.65888E-06-4.93888E-05-1.01918E-04-5.47437E-18 8.14676E-18
 -1      1268 3.32090E-05 1.62396E-05-2.48635E-05-4.30770E-05-8.56520E-18 8.24502E-18
 -1      1269 6.92928E-06-2.34432E-05-2.29274E-06 1.47823E-05-1.11232E-17 6.18165E-18
 -1      1270 2.05859E-05-8.21671E-05 1.35085E-05 3.50084E-05-1.24734E-17 4.76985E-18
 -1      1271 3.72926E-05-1.19069E-04 2.10533E-05 1.72442E-05-8.84895E-18 1.29591E-18
 -1      1272 1.04377E-04-2.20031E-05-3.78696E-05-1.72730E-05-3.17214E-19 5.49661E-18
 -1      1273 9.02845E-05-6.67736E-06-3.60039E-05-2.04713E-05-8.27922E-19-7.66565E-20
 -1      1274 9.26102E-05-6.73560E-06-3.72047E-05-2.57567E-05-1.07785E-18 1.19982E-18
 -1      1275 8.58869E-05-4.09225E-06-3.51244E-05-1.64343E-05-8.28266E-19-1.86752E-18
 -1      1276 8.71309E-05-4.08721E-06-3.55901E-05-1.88532E-05-9.30519E-19-1.10051E-18
 -1      1277 9.21029E-05-1.04583E-05-3.50825E-05-1.90308E-05-1.44213E-18-5.94511E-20
 -1      1278 8.41044E-05-3.19296E-06-3.46881E-05-1.28200E-05-6.19049E-19-2.76739E-18
 -1      1279 8.47030E-05-3.16167E-06-3.49090E-05-1.46364E-05-7.34431E-19-2.35345E-18
 -1      1280 8.78582E-05-7.39068E-06-3.45705E-05-1.54158E-05-1.25829E-18-1.54591E-18
 -1      1281 8.32034E-05-2.72869E-06-3.44767E-05-9.68472E-06-4.35693E-19-3.18750E-18
 -1      1282 8.35133E-05-2.71217E-06-3.45836E-05-1.12328E-05-5.11396E-19-2.99842E-18
 -1      1283 8.58769E-05-5.98623E-06-3.43077E-05-1.19540E-05-9.30386E-19-2.31417E-18
 -1      1284 8.27195E-05-2.45758E-06-3.43746E-05-6.91330E-06-2.74707E-19-3.35635E-18
 -1      1285 8.28849E-05-2.44908E-06-3.44271E-05-8.28448E-06-3.32335E-19-3.28086E-18
 -1      1286 8.48401E-05-5.21685E-06-3.41808E-05-8.94035E-06-6.23307E-19-2.62358E-18
 -1      1287 8.24498E-05-2.29160E-06-3.43245E-05-4.29291E-06-1.67009E-19-3.33593E-18
 -1      1288 8.25384E-05-2.28766E-06-3.43506E-05-5.59421E-06-1.84786E-19-3.37512E-18
 -1      1289 8.42621E-05-4.76065E-06-3.41214E-05-6.21328E-06-3.99096E-19-2.82660E-18
 -1      1290 8.23200E-05-2.20161E-06-3.43035E-05-1.78834E-06 4.23856E-20-3.26665E-18
 -1      1291 8.23579E-05-2.20005E-06-3.43141E-05-3.03911E-06-2.65905E-20-3.28453E-18
 -1      1292 8.39441E-05-4.49583E-06-3.40948E-05-3.64166E-06-1.56024E-19-2.71888E-18
 -1      1293 8.22940E-05-2.17377E-06-3.43010E-05 6.70596E-07 2.00146E-19-3.16780E-18
 -1      1294 8.22929E-05-2.17382E-06-3.43008E-05-5.64838E-07 1.35904E-19-3.21961E-18
 -1      1295 8.38045E-05-4.37527E-06-3.40850E-05-1.16876E-06 1.46677E-19-2.67545E-18
 -1      1296 8.23654E-05-2.20410E-06-3.43153E-05 3.14827E-06 3.39941E-19-3.05174E-18
 -1      1297 8.23250E-05-2.20573E-06-3.43041E-05 1.89504E-06 3.03849E-19-3.12578E-18
 -1      1298 8.38089E-05-4.37924E-06-3.40853E-05 1.27389E-06 3.90720E-19-2.56724E-18
 -1      1299 8.25540E-05-2.29754E-06-3.43527E-05 5.71205E-06 4.68512E-19-2.83086E-18
 -1      1300 8.24622E-05-2.30091E-06-3.43260E-05 4.40507E-06 4.26651E-19-2.97675E-18
 -1      1301 8.39582E-05-4.50867E-06-3.40955E-05 3.75075E-06 6.25784E-19-2.46015E-18
 -1      1302 8.29059E-05-2.46366E-06-3.44295E-05 8.39389E-06 6.20849E-19-2.46341E-18
 -1      1303 8.27375E-05-2.47240E-06-3.43764E-05 7.01407E-06 5.47024E-19-2.68062E-18
 -1      1304 8.42857E-05-4.78274E-06-3.41221E-05 6.30832E-06 8.35586E-19-2.20406E-18
 -1      1305 8.35532E-05-2.74087E-06-3.45881E-05 1.13942E-05 8.59328E-19-1.92736E-18
 -1      1306 8.32376E-05-2.75806E-06-3.44800E-05 9.82923E-06 7.53105E-19-2.22782E-18
 -1      1307 8.48800E-05-5.25639E-06-3.41814E-05 9.05121E-06 1.12338E-18-1.81636E-18
 -1      1308 8.47641E-05-3.20569E-06-3.49166E-05 1.48425E-05 1.05146E-18-1.07001E-18
 -1      1309 8.41567E-05-3.24055E-06-3.46930E-05 1.30019E-05 9.40207E-19-1.57773E-18
 -1      1310 8.59518E-05-6.06173E-06-3.43089E-05 1.21180E-05 1.43949E-18-1.27735E-18
 -1      1311 8.72296E-05-4.08796E-06-3.56109E-05 1.90926E-05 1.12084E-18 4.81485E-19
 -1      1312 8.59601E-05-4.15348E-06-3.51314E-05 1.66962E-05 1.01228E-18-4.73836E-19
 -1      1313 8.79801E-05-7.51767E-06-3.45715E-05 1.56487E-05 1.69372E-18-2.49054E-19
 -1      1314 9.34235E-05-6.78852E-06-3.71013E-05 2.50911E-05 9.51747E-19 3.40846E-18
 -1      1315 9.00987E-05-6.43260E-06-3.60269E-05 2.11462E-05 9.51906E-19 1.63673E-18
 -1      1316 9.23267E-05-1.06905E-05-3.50678E-05 1.96755E-05 1.68358E-18 1.50269E-18
 -1      1317 1.23555E-04-2.49077E-05-3.89938E-05 2.83573E-05 4.31352E-19 8.78034E-18
 -1      1318 1.00029E-04-1.44135E-05-3.73362E-05 2.40456E-05 4.58351E-19 5.06017E-18
 -1      1319 1.01634E-04-1.93326E-05-3.53872E-05 2.13959E-05 1.55170E-18 4.11044E-18
 -1      1320 1.02539E-04-2.77855E-05-3.47376E-05 7.32860E-06 8.08678E-19 8.52348E-18
 -1      1321 1.05080E-04-3.02105E-05-3.35046E-05-7.96003E-06-8.86632E-19 5.80832E-18
 -1      1322 9.81930E-05-2.78229E-05-3.07415E-05-4.98936E-06-8.05422E-19 4.72718E-18
 -1      1323 9.54357E-05-2.78290E-05-2.92343E-05-2.49032E-06-5.73785E-19 4.26834E-18
 -1      1324 9.32028E-05-2.75378E-05-2.81947E-05-2.04342E-06-5.19708E-19 3.43498E-18
 -1      1325 9.94290E-05-2.80350E-05-3.09659E-05-7.88790E-06-1.38024E-18 2.59271E-18
 -1      1326 9.15146E-05-2.71804E-05-2.75608E-05-8.37974E-07-4.69574E-19 3.11491E-18
 -1      1327 9.07979E-05-2.70849E-05-2.72586E-05-7.27642E-07-4.80016E-19 2.41809E-18
 -1      1328 9.46648E-05-2.77536E-05-2.88004E-05-3.12025E-06-9.93649E-19 1.94874E-18
 -1      1329 9.00505E-05-2.69028E-05-2.70163E-05-1.72157E-07-3.74878E-19 2.02621E-18
 -1      1330 8.99792E-05-2.69297E-05-2.69819E-05-1.13772E-07-3.51363E-19 1.50209E-18
 -1      1331 9.24697E-05-2.74844E-05-2.78811E-05-1.05054E-06-8.77883E-19 1.25739E-18
 -1      1332 8.97250E-05-2.68637E-05-2.69094E-05 1.59033E-07-1.17121E-19 1.30365E-18
 -1      1333 8.99433E-05-2.69546E-05-2.69723E-05 1.88459E-07-2.02391E-19 1.06501E-18
 -1      1334 9.15193E-05-2.73424E-05-2.75170E-05-6.25020E-08-5.79781E-19 6.69824E-19
 -1      1335 8.99564E-05-2.69595E-05-2.69817E-05 3.23512E-07-3.07825E-19 9.42840E-19
 -1      1336 9.03083E-05-2.70830E-05-2.70835E-05 3.36850E-07-2.62908E-19 5.98435E-19
 -1      1337 9.12813E-05-2.73346E-05-2.74141E-05 4.33054E-07-4.17103E-19 3.89605E-19
 -1      1338 9.04769E-05-2.71315E-05-2.71388E-05 3.99126E-07-2.56117E-19 4.42998E-19
 -1      1339 9.09005E-05-2.72714E-05-2.72616E-05 4.03090E-07-3.19785E-19-1.87360E-19
 -1      1340 9.14454E-05-2.74147E-05-2.74468E-05 6.77284E-07-5.47893E-19 7.68352E-20
 -1      1341 9.11338E-05-2.73376E-05-2.73362E-05 4.22212E-07-1.33521E-19-3.29866E-19
 -1      1342 9.15478E-05-2.74696E-05-2.74565E-05 4.20341E-07-5.19881E-20-5.64094E-19
 -1      1343 9.18324E-05-2.75503E-05-2.75522E-05 7.80082E-07-4.33419E-19-1.50692E-19
 -1      1344 9.18178E-05-2.75472E-05-2.75415E-05 4.19800E-07-6.90101E-21-8.37722E-19
 -1      1345 9.22216E-05-2.76731E-05-2.76595E-05 4.16130E-07-1.97217E-19-8.92879E-19
 -1      1346 9.23181E-05-2.77033E-05-2.76931E-05 8.05796E-07-2.35233E-19-4.52676E-19
 -1      1347 9.25073E-05-2.77548E-05-2.77490E-05 4.09172E-07-2.61073E-19-9.52340E-19
 -1      1348 9.28961E-05-2.78741E-05-2.78632E-05 4.05779E-07-1.30755E-19-1.12539E-18
 -1      1349 9.28556E-05-2.78661E-05-2.78530E-05 7.99209E-07-3.71138E-19-5.37380E-19
 -1      1350 9.31914E-05-2.79582E-05-2.79555E-05 4.02238E-07 2.51450E-20-1.11502E-18
 -1      1351 9.35708E-05-2.80729E-05-2.80676E-05 4.00932E-07 7.05611E-20-9.97846E-19
 -1      1352 9.34194E-05-2.80321E-05-2.80235E-05 7.88331E-07-9.80817E-20-9.20591E-19
 -1      1353 9.38793E-05-2.81604E-05-2.81640E-05 4.09131E-07-7.24341E-21-1.11051E-18
 -1      1354 9.42643E-05-2.82752E-05-2.82781E-05 4.11592E-07-9.25656E-20-1.18858E-18
 -1      1355 9.40062E-05-2.82008E-05-2.82033E-05 7.95090E-07-2.38149E-20-1.44117E-18
 -1      1356 9.45979E-05-2.83690E-05-2.83825E-05 4.39666E-07-2.68933E-19-1.63548E-18
 -1      1357 9.50130E-05-2.84919E-05-2.85058E-05 4.47634E-07-6.08088E-19-2.30132E-18
 -1      1358 9.46308E-05-2.83768E-05-2.83969E-05 8.39249E-07-5.80959E-19-1.51508E-18
 -1      1359 9.54126E-05-2.86034E-05-2.86311E-05 5.07752E-07-5.41878E-19-2.51613E-18
 -1      1360 9.59181E-05-2.87513E-05-2.87820E-05 5.25474E-07-4.15743E-19-3.07022E-18
 -1      1361 9.53427E-05-2.85732E-05-2.86198E-05 9.45265E-07-9.94930E-19-2.01638E-18
 -1      1362 9.63777E-05-2.88786E-05-2.89267E-05 6.26310E-07-3.43681E-19-3.25902E-18
 -1      1363 9.69775E-05-2.90532E-05-2.91058E-05 6.53502E-07-2.64020E-19-3.67490E-18
 -1      1364 9.61779E-05-2.87999E-05-2.88831E-05 1.13961E-06-6.47736E-19-2.43897E-18
 -1      1365 9.75561E-05-2.92123E-05-2.92890E-05 8.11983E-07 1.60870E-19-3.45109E-18
 -1      1366 9.83418E-05-2.94405E-05-2.95236E-05 8.54768E-07 3.69287E-19-3.22327E-18
 -1      1367 9.71819E-05-2.90678E-05-2.92020E-05 1.44865E-06 1.75566E-19-2.74467E-18
 -1      1368 9.90959E-05-2.96461E-05-2.97639E-05 1.09345E-06 1.63118E-19-3.27391E-18
 -1      1369 1.00165E-04-2.99569E-05-3.00832E-05 1.15801E-06-4.86941E-19-3.35513E-18
 -1      1370 9.84666E-05-2.94067E-05-2.96123E-05 1.92123E-06 2.11100E-19-3.18683E-18
 -1      1371 1.01170E-04-3.02283E-05-3.04055E-05 1.50674E-06-3.88782E-19-2.90768E-18
 -1      1372 1.02657E-04-3.06626E-05-3.08497E-05 1.60176E-06 1.67008E-19-3.29528E-18
 -1      1373 1.00156E-04-2.98484E-05-3.01537E-05 2.61892E-06-4.27858E-19-2.72255E-18
 -1      1374 1.04008E-04-3.10251E-05-3.12861E-05 2.09724E-06 8.25887E-19-3.08708E-18
 -1      1375 1.06095E-04-3.16395E-05-3.19092E-05 2.23414E-06 8.09495E-19-1.75836E-18
 -1      1376 1.02412E-04-3.04359E-05-3.08779E-05 3.62006E-06 5.99494E-19-1.68396E-18
 -1      1377 1.07908E-04-3.21204E-05-3.24981E-05 2.91206E-06 6.51157E-19-1.47156E-18
 -1      1378 1.10832E-04-3.30002E-05-3.33660E-05 3.10180E-06 2.59761E-19-1.06123E-18
 -1      1379 1.05437E-04-3.12301E-05-3.18467E-05 5.01024E-06 1.28946E-18-7.81514E-19
 -1      1380 1.13365E-04-3.36771E-05-3.41881E-05 4.00790E-06-1.69857E-19-8.34063E-19
 -1      1381 1.17576E-04-3.49670E-05-3.54301E-05 4.27866E-06 4.12829E-19-7.94226E-19
 -1      1382 1.09577E-04-3.23401E-05-3.31626E-05 6.89859E-06 3.00644E-19-7.34867E-20
 -1      1383 1.20686E-04-3.58270E-05-3.64270E-05 5.26298E-06 5.61695E-19-2.51939E-19
 -1      1384 1.25919E-04-3.74882E-05-3.79365E-05 5.53762E-06 1.48800E-19 2.92438E-19
 -1      1385 1.15013E-04-3.38986E-05-3.48377E-05 9.17628E-06 3.96934E-19 1.72199E-19
 -1      1386 1.29689E-04-3.86200E-05-3.90915E-05 6.30054E-06-5.02363E-19 4.78309E-19
 -1      1387 1.35783E-04-4.06824E-05-4.07731E-05 6.48659E-06-2.28889E-19 5.08220E-21
 -1      1388 1.21693E-04-3.60357E-05-3.67821E-05 1.13150E-05-4.03863E-20 1.16017E-19
 -1      1389 1.39933E-04-4.21253E-05-4.19105E-05 6.26784E-06 4.34005E-19 2.88415E-19
 -1      1390 1.45539E-04-4.42597E-05-4.33150E-05 6.07141E-06 7.10244E-19 6.97902E-19
 -1      1391 1.29586E-04-3.90675E-05-3.88170E-05 1.21459E-05 9.21876E-20 3.76109E-19
 -1      1392 1.49362E-04-4.59539E-05-4.41106E-05 3.60198E-06 5.40433E-19 1.43376E-18
 -1      1393 1.51505E-04-4.71561E-05-4.44498E-05 2.54434E-06 5.19866E-19 2.17208E-18
 -1      1394 1.37935E-04-4.31345E-05-4.05254E-05 9.32313E-06 1.17949E-18 6.12325E-19
 -1      1395 1.53659E-04-4.85388E-05-4.45974E-05-3.13702E-06 6.22013E-19 2.50748E-18
 -1      1396 1.48447E-04-4.70557E-05-4.31718E-05-5.27880E-06 3.32328E-19 3.09040E-18
 -1      1397 1.44858E-04-4.74247E-05-4.14922E-05 2.80981E-08 1.12168E-18 1.45495E-18
 -1      1398 1.47309E-04-4.67363E-05-4.27950E-05-1.19631E-05 3.32480E-19 3.14821E-18
 -1      1399 1.34381E-04-4.14929E-05-4.00570E-05-1.37510E-05 1.76315E-19 3.47432E-18
 -1      1400 1.46906E-04-4.87289E-05-4.18626E-05-1.48176E-05 4.16876E-19 2.05548E-18
 -1      1401 1.29328E-04-3.82674E-05-3.96435E-05-1.52127E-05 3.02814E-19 3.33223E-18
 -1      1402 1.14814E-04-3.15345E-05-3.69710E-05-1.39582E-05-1.65171E-20 3.84913E-18
 -1      1403 1.41218E-04-4.29360E-05-4.24062E-05-2.59822E-05 1.57760E-19 2.29654E-18
 -1      1404 1.11155E-04-2.88528E-05-3.68723E-05-6.26273E-06-2.82591E-19 3.25070E-18
 -1      1405 1.07510E-04-2.68271E-05-3.62876E-05-2.46292E-06-7.28660E-19 2.39700E-18
 -1      1406 1.32034E-04-3.38212E-05-4.32366E-05-1.79784E-05-8.32210E-19 1.27875E-18
 -1      1407 1.08436E-04-2.76795E-05-3.63099E-05 8.35533E-06-8.38033E-19 2.50521E-18
 -1      1408 1.17051E-04-3.17828E-05-3.77927E-05 1.10532E-05-9.44653E-19 1.39803E-18
 -1      1409 1.28487E-04-2.97033E-05-4.36506E-05 4.54367E-06-1.03423E-18 6.80928E-19
 -1      1410 1.22460E-04-3.57309E-05-3.80211E-05 1.54890E-05-8.90973E-19 5.19019E-19
 -1      1411 1.37895E-04-4.25315E-05-4.10277E-05 1.51290E-05-5.45066E-19-1.22820E-20
 -1      1412 1.35504E-04-3.77052E-05-4.28065E-05 2.33775E-05-1.15959E-18 1.28451E-18
 -1      1413 1.41677E-04-4.45830E-05-4.14993E-05 1.04833E-05-1.53525E-19-9.49100E-19
 -1      1414 1.51734E-04-4.83914E-05-4.38610E-05 8.10044E-06-2.36719E-19-9.31313E-19
 -1      1415 1.44463E-04-4.61618E-05-4.20654E-05 2.25725E-05-1.05053E-18-1.12227E-18
 -1      1416 1.51311E-04-4.76576E-05-4.40659E-05 1.21251E-06-5.86782E-19-7.12037E-19
 -1      1417 1.52666E-04-4.77061E-05-4.46435E-05-5.02167E-07-5.81303E-19-2.05155E-18
 -1      1418 1.46794E-04-4.87297E-05-4.16839E-05 7.67735E-06-4.30002E-19-3.03191E-18
 -1      1419 1.49565E-04-4.60277E-05-4.41802E-05-4.67151E-06-9.60456E-20-9.82505E-19
 -1      1420 1.45319E-04-4.41958E-05-4.32379E-05-5.28225E-06-1.36213E-19-8.91396E-19
 -1      1421 1.42004E-04-4.55065E-05-4.11365E-05-5.27278E-06-7.76809E-19-1.09768E-18
 -1      1422 1.41006E-04-4.25249E-05-4.21841E-05-6.54159E-06-6.76935E-19-8.95261E-19
 -1      1423 1.34615E-04-4.02309E-05-4.04883E-05-6.50235E-06 2.67080E-19-9.64241E-19
 -1      1424 1.33903E-04-4.10474E-05-3.97601E-05-1.12806E-05-1.64642E-20-7.90123E-19
 -1      1425 1.30610E-04-3.89777E-05-3.93110E-05-6.08121E-06 8.34926E-19-6.03299E-19
 -1      1426 1.24891E-04-3.71032E-05-3.76842E-05-5.82596E-06 2.87409E-19-4.91914E-19
 -1      1427 1.25429E-04-3.73721E-05-3.77917E-05-1.19468E-05 5.70464E-19-8.06402E-20
 -1      1428 1.21426E-04-3.61155E-05-3.65994E-05-4.88413E-06 9.02474E-19 5.43954E-19
 -1      1429 1.16829E-04-3.46828E-05-3.52502E-05-4.61542E-06 6.81994E-19 1.96763E-18
 -1      1430 1.18127E-04-3.48449E-05-3.57662E-05-1.02260E-05 1.51413E-18 3.34975E-20
 -1      1431 1.14063E-04-3.39331E-05-3.43621E-05-3.65866E-06-5.14281E-19 2.39414E-18
 -1      1432 1.10629E-04-3.28937E-05-3.33399E-05-3.43839E-06-7.25080E-19 1.32661E-18
 -1      1433 1.12163E-04-3.30559E-05-3.39677E-05-7.95143E-06 5.11476E-19 1.63264E-18
 -1      1434 1.08518E-04-3.23314E-05-3.26579E-05-2.64559E-06-2.27184E-19 9.89017E-19
 -1      1435 1.06048E-04-3.15966E-05-3.19184E-05-2.48202E-06-5.98813E-20 9.03685E-19
 -1      1436 1.07530E-04-3.17780E-05-3.25139E-05-5.88356E-06-7.85305E-19 6.77248E-19
 -1      1437 1.04478E-04-3.11793E-05-3.14126E-05-1.88061E-06-9.67338E-19 1.44082E-19
 -1      1438 1.02733E-04-3.06658E-05-3.08893E-05-1.76431E-06-1.42763E-18-1.05587E-18
 -1      1439 1.04038E-04-3.08541E-05-3.13994E-05-4.24275E-06-1.24315E-18 9.32446E-19
 -1      1440 1.01583E-04-3.03578E-05-3.05209E-05-1.32724E-06-8.40492E-19-1.53116E-18
 -1      1441 1.00357E-04-3.00005E-05-3.01534E-05-1.24623E-06-3.15202E-19-2.24923E-18
 -1      1442 1.01454E-04-3.01819E-05-3.05701E-05-3.02187E-06-1.71304E-18 6.41149E-19
 -1      1443 9.94851E-05-2.97657E-05-2.98754E-05-9.22883E-07-1.28370E-19-1.82812E-18
 -1      1444 9.85973E-05-2.95069E-05-2.96087E-05-8.63599E-07-9.30780E-19-2.84379E-18
 -1      1445 9.95253E-05-2.96783E-05-2.99504E-05-2.12714E-06-2.15335E-19-5.21551E-19
 -1      1446 9.80058E-05-2.93450E-05-2.94215E-05-6.46919E-07-9.50859E-19-2.12288E-18
 -1      1447 9.74175E-05-2.91744E-05-2.92451E-05-6.08778E-07-3.28136E-19-3.00110E-18
 -1      1448 9.81308E-05-2.93177E-05-2.95036E-05-1.48884E-06-1.09155E-18-5.15798E-19
 -1      1449 9.69912E-05-2.90572E-05-2.91109E-05-4.54434E-07 7.68005E-19-1.65382E-18
 -1      1450 9.65810E-05-2.89379E-05-2.89881E-05-4.27132E-07 9.06146E-19-1.65166E-19
 -1      1451 9.71512E-05-2.90595E-05-2.91909E-05-1.05060E-06 1.11792E-18 4.32896E-19
 -1      1452 9.62777E-05-2.88536E-05-2.88933E-05-3.14416E-07 4.21730E-19-9.05579E-19
 -1      1453 9.59969E-05-2.87717E-05-2.88094E-05-2.94130E-07 4.54430E-19-6.86960E-19
 -1      1454 9.64473E-05-2.88720E-05-2.89674E-05-7.34790E-07 5.00473E-19 1.01279E-18
 -1      1455 9.57860E-05-2.87121E-05-2.87443E-05-2.07533E-07-2.66449E-19-1.70562E-18
 -1      1456 9.56046E-05-2.86589E-05-2.86903E-05-1.90998E-07-3.67144E-20-7.08911E-19
 -1      1457 9.59487E-05-2.87367E-05-2.88103E-05-4.98979E-07-1.35625E-19-5.96140E-19
 -1      1458 9.54655E-05-2.86183E-05-2.86482E-05-1.19072E-07 5.54691E-19-1.71499E-18
 -1      1459 9.53674E-05-2.85904E-05-2.86185E-05-1.03618E-07-1.63173E-19-1.55212E-18
 -1      1460 9.56070E-05-2.86413E-05-2.87040E-05-3.11578E-07-7.02657E-20-1.66062E-18
 -1      1461 9.52856E-05-2.85670E-05-2.85938E-05-4.20401E-08-1.80665E-18-1.30155E-18
 -1      1462 9.52588E-05-2.85615E-05-2.85814E-05-2.73329E-08-1.39486E-18-3.20187E-18
 -1      1463 9.53891E-05-2.85804E-05-2.86361E-05-1.52986E-07-1.47022E-18-3.68883E-18
 -1      1464 9.52285E-05-2.85590E-05-2.85702E-05 9.01383E-09-1.90580E-19-3.52308E-18
 -1      1465 9.52391E-05-2.85733E-05-2.85598E-05 5.01439E-09 1.71152E-18-1.91033E-18
 -1      1466 9.52487E-05-2.85838E-05-2.85698E-05 8.34900E-09 4.19070E-18 5.30499E-19
 -1      1467 9.52806E-05-2.85542E-05-2.85979E-05-4.06017E-08-1.04438E-18-6.54077E-19
 -1      1468 9.65100E-05-2.83426E-05-2.97514E-05 2.99458E-06 7.20719E-19 6.87926E-18
 -1      1469 1.02472E-04-2.93798E-05-3.21360E-05 4.46457E-06 6.85832E-19 8.01950E-18
 -1      1470 1.02270E-04-2.67004E-05-3.26885E-05 1.27840E-05 1.28834E-18 5.45786E-18
 -1      1471 9.19542E-05-2.73996E-05-2.77398E-05 1.14775E-06 4.38432E-19 5.51874E-18
 -1      1472 9.39138E-05-2.75645E-05-2.86546E-05 1.48018E-06 4.46823E-19 6.26982E-18
 -1      1473 9.64345E-05-2.80200E-05-2.95168E-05 4.88002E-06 1.07912E-18 4.44804E-18
 -1      1474 9.01302E-05-2.69780E-05-2.70438E-05 3.24987E-07 1.75151E-19 4.86888E-18
 -1      1475 9.07548E-05-2.70067E-05-2.73147E-05 4.94804E-07 1.99946E-19 5.15915E-18
 -1      1476 9.29844E-05-2.75770E-05-2.80861E-05 1.84007E-06 5.76154E-19 3.65644E-18
 -1      1477 8.96219E-05-2.68623E-05-2.68716E-05-5.81354E-08 2.50050E-19 4.42944E-18
 -1      1478 8.96688E-05-2.68116E-05-2.68980E-05 3.52311E-08 1.94515E-19 4.71922E-18
 -1      1479 9.14473E-05-2.73291E-05-2.75038E-05 4.70201E-07 3.43690E-19 3.02998E-18
 -1      1480 8.97698E-05-2.69226E-05-2.69175E-05-2.49836E-07 2.62847E-19 3.66123E-18
 -1      1481 8.95402E-05-2.68186E-05-2.68504E-05-1.98020E-07 2.45952E-19 4.15937E-18
 -1      1482 9.09214E-05-2.72363E-05-2.73104E-05-1.82943E-07 4.79474E-19 2.71381E-18
 -1      1483 9.02479E-05-2.70742E-05-2.70630E-05-3.38812E-07 1.50947E-19 3.23193E-18
 -1      1484 8.98901E-05-2.69446E-05-2.69578E-05-3.10305E-07 8.00951E-20 3.32775E-18
 -1      1485 9.09602E-05-2.72761E-05-2.73049E-05-5.00976E-07 3.42559E-19 2.14941E-18
 -1      1486 9.08823E-05-2.72689E-05-2.72544E-05-3.71964E-07 3.72207E-19 2.59556E-18
 -1      1487 9.04739E-05-2.71315E-05-2.71347E-05-3.57325E-07 2.30615E-19 2.95352E-18
 -1      1488 9.12970E-05-2.73910E-05-2.73962E-05-6.47422E-07 4.20398E-19 1.67148E-18
 -1      1489 9.15771E-05-2.74793E-05-2.74638E-05-3.74936E-07 1.74957E-19 1.80622E-18
 -1      1490 9.11589E-05-2.73438E-05-2.73412E-05-3.68392E-07 2.83282E-19 2.32757E-18
 -1      1491 9.17868E-05-2.75447E-05-2.75373E-05-7.00214E-07 5.42464E-19 1.37379E-18
 -1      1492 9.22810E-05-2.76908E-05-2.76763E-05-3.63512E-07 2.21773E-19 1.59160E-18
 -1      1493 9.18736E-05-2.75617E-05-2.75564E-05-3.61259E-07 1.34298E-19 1.83027E-18
 -1      1494 9.23465E-05-2.77150E-05-2.77023E-05-7.03469E-07 3.24725E-19 1.18566E-18
 -1      1495 9.29711E-05-2.78970E-05-2.78849E-05-3.47848E-07 1.34904E-19 1.29518E-18
 -1      1496 9.25818E-05-2.77753E-05-2.77700E-05-3.47286E-07 2.74154E-19 1.48413E-18
 -1      1497 9.29311E-05-2.78900E-05-2.78767E-05-6.84475E-07 3.35463E-19 9.10340E-19
 -1      1498 9.36417E-05-2.80966E-05-2.80878E-05-3.34404E-07 3.04567E-19 8.96773E-19
 -1      1499 9.32699E-05-2.79814E-05-2.79778E-05-3.33767E-07 5.38224E-20 1.01751E-18
 -1      1500 9.35190E-05-2.80642E-05-2.80536E-05-6.60638E-07 2.58891E-19 6.68799E-19
 -1      1501 9.42983E-05-2.82919E-05-2.82865E-05-3.26822E-07 2.80347E-19 2.19520E-19
 -1      1502 9.39384E-05-2.81806E-05-2.81798E-05-3.25001E-07 3.19861E-19 7.00925E-19
 -1      1503 9.41040E-05-2.82366E-05-2.82303E-05-6.42601E-07 4.56761E-19 4.20893E-19
 -1      1504 9.49513E-05-2.84862E-05-2.84839E-05-3.26201E-07 4.07012E-20 2.37374E-19
 -1      1505 9.45957E-05-2.83761E-05-2.83784E-05-3.22710E-07-2.58011E-20 1.54416E-19
 -1      1506 9.46885E-05-2.84087E-05-2.84072E-05-6.35575E-07 2.05113E-19 3.40713E-19
 -1      1507 9.56108E-05-2.86831E-05-2.86828E-05-3.30970E-07 7.99761E-20 2.69883E-19
 -1      1508 9.52527E-05-2.85718E-05-2.85766E-05-3.26012E-07 9.32227E-20 4.81887E-19
 -1      1509 9.52782E-05-2.85832E-05-2.85855E-05-6.39599E-07-5.77203E-20 1.12753E-19
 -1      1510 9.62807E-05-2.88845E-05-2.88839E-05-3.36443E-07-1.58380E-19 3.71083E-19
 -1      1511 9.59173E-05-2.87711E-05-2.87764E-05-3.31071E-07 1.00458E-19 6.31238E-19
 -1      1512 9.58773E-05-2.87624E-05-2.87656E-05-6.49096E-07 5.39365E-20 7.63574E-19
 -1      1513 9.69516E-05-2.90881E-05-2.90841E-05-3.34202E-07 9.32956E-22-1.05049E-19
 -1      1514 9.65881E-05-2.89745E-05-2.89771E-05-3.30549E-07-1.94892E-19-1.04013E-19
 -1      1515 9.64825E-05-2.89465E-05-2.89457E-05-6.51938E-07 8.05450E-20 5.63661E-19
 -1      1516 9.75932E-05-2.92857E-05-2.92737E-05-3.11556E-07 3.46466E-19-8.49872E-19
 -1      1517 9.72472E-05-2.91780E-05-2.91726E-05-3.13077E-07 3.97363E-19-1.01128E-19
 -1      1518 9.70769E-05-2.91322E-05-2.91199E-05-6.28416E-07 4.12680E-19-1.08853E-19
 -1      1519 9.81462E-05-2.94603E-05-2.94343E-05-2.51543E-07-3.42813E-19-1.00469E-18
 -1      1520 9.78523E-05-2.93700E-05-2.93496E-05-2.63137E-07 1.48849E-19-6.61003E-19
 -1      1521 9.76237E-05-2.93099E-05-2.92759E-05-5.50775E-07 2.62826E-19 3.88118E-19
 -1      1522 9.85156E-05-2.95835E-05-2.95372E-05-1.34257E-07-4.81039E-20-5.23969E-19
 -1      1523 9.83292E-05-2.95295E-05-2.94853E-05-1.62056E-07-3.41846E-19-9.22052E-19
 -1      1524 9.80598E-05-2.94617E-05-2.93941E-05-3.84449E-07-3.37270E-19 6.93164E-19
 -1      1525 9.85697E-05-2.96151E-05-2.95432E-05 5.94523E-08 1.73930E-19-9.17728E-19
 -1      1526 9.85676E-05-2.96232E-05-2.95466E-05 8.98538E-09-8.27842E-21-5.97143E-19
 -1      1527 9.82925E-05-2.95594E-05-2.94466E-05-9.26997E-08 3.60767E-20-3.29747E-20
 -1      1528 9.81496E-05-2.95050E-05-2.94061E-05 3.40879E-07-9.22356E-20-8.87055E-19
 -1      1529 9.84238E-05-2.96059E-05-2.94913E-05 2.62909E-07 2.60595E-20-6.95667E-19
 -1      1530 9.82026E-05-2.95641E-05-2.93991E-05 3.53476E-07 7.00920E-20-2.82086E-19
 -1      1531 9.70964E-05-2.92006E-05-2.90818E-05 7.02768E-07 2.27170E-19-1.27965E-18
 -1      1532 9.77376E-05-2.94243E-05-2.92739E-05 5.97305E-07 1.41415E-20-9.03493E-19
 -1      1533 9.76579E-05-2.94291E-05-2.92159E-05 9.58983E-07 2.11414E-19-1.22113E-19
 -1      1534 9.52990E-05-2.86617E-05-2.85418E-05 1.10713E-06 8.40018E-20-1.35443E-18
 -1      1535 9.63679E-05-2.90274E-05-2.88564E-05 9.83031E-07 1.82999E-19-1.32121E-18
 -1      1536 9.65421E-05-2.91080E-05-2.88691E-05 1.68343E-06 3.88298E-19-1.73979E-19
 -1      1537 9.27610E-05-2.78817E-05-2.77929E-05 1.47752E-06-1.50312E-19-1.03383E-18
 -1      1538 9.42491E-05-2.83845E-05-2.82248E-05 1.35554E-06-4.19126E-19-1.69510E-18
 -1      1539 9.48013E-05-2.85705E-05-2.83514E-05 2.42217E-06-2.33827E-19-1.63037E-19
 -1      1540 8.96663E-05-2.69120E-05-2.68934E-05 1.70537E-06 1.96922E-19-9.19322E-19
 -1      1541 9.14589E-05-2.75100E-05-2.74073E-05 1.61717E-06 9.00047E-20-8.72854E-19
 -1      1542 9.24984E-05-2.78244E-05-2.76896E-05 3.00367E-06-2.42877E-19-6.38590E-19
 -1      1543 8.64100E-05-2.58754E-05-2.59591E-05 1.67860E-06 2.18119E-19-1.38445E-18
 -1      1544 8.82716E-05-2.64853E-05-2.64866E-05 1.65879E-06 2.47390E-19-8.41765E-19
 -1      1545 8.98587E-05-2.69371E-05-2.69529E-05 3.21986E-06 3.40918E-19-5.65176E-19
 -1      1546 8.35542E-05-2.49554E-05-2.51478E-05 1.33007E-06-2.46402E-19-1.24321E-18
 -1      1547 8.51586E-05-2.54646E-05-2.55973E-05 1.40168E-06-8.41640E-20-1.14921E-18
 -1      1548 8.72717E-05-2.60432E-05-2.62489E-05 2.89649E-06-1.90066E-19-5.00477E-20
 -1      1549 8.16922E-05-2.43520E-05-2.46210E-05 6.84975E-07 3.31299E-19-1.06839E-18
 -1      1550 8.27040E-05-2.46484E-05-2.49009E-05 8.44688E-07-1.53343E-19-1.14073E-18
 -1      1551 8.52237E-05-2.53224E-05-2.57033E-05 1.98382E-06-1.08294E-19-1.48873E-19
 -1      1552 8.12551E-05-2.42131E-05-2.44942E-05-1.25505E-07 3.54808E-19-2.26242E-18
 -1      1553 8.14401E-05-2.42243E-05-2.45421E-05 8.79274E-08 6.82593E-19-1.21097E-18
 -1      1554 8.41615E-05-2.49468E-05-2.54258E-05 6.18586E-07 6.85600E-19-6.39568E-19
 -1      1555 8.23496E-05-2.45751E-05-2.47960E-05-9.04485E-07 1.84838E-19-2.76067E-18
 -1      1556 8.16626E-05-2.42972E-05-2.46009E-05-6.91320E-07 2.29900E-19-2.65407E-18
 -1      1557 8.43363E-05-2.50143E-05-2.54760E-05-8.94918E-07 5.60464E-19-1.24014E-18
 -1      1558 8.47138E-05-2.53463E-05-2.54580E-05-1.46809E-06 3.76327E-19-4.11473E-18
 -1      1559 8.33172E-05-2.48464E-05-2.50646E-05-1.30614E-06 4.83934E-19-3.54363E-18
 -1      1560 8.57053E-05-2.55068E-05-2.58427E-05-2.19373E-06 8.73847E-19-8.87406E-19
 -1      1561 8.78211E-05-2.63462E-05-2.63394E-05-1.71639E-06-4.98409E-19-4.00439E-18
 -1      1562 8.60220E-05-2.57355E-05-2.58316E-05-1.63380E-06-4.98068E-19-4.65752E-18
 -1      1563 8.79496E-05-2.62983E-05-2.64480E-05-2.99968E-06 2.52786E-21-2.58743E-18
 -1      1564 9.10693E-05-2.73739E-05-2.72752E-05-1.65639E-06-4.76439E-19-3.08603E-18
 -1      1565 8.92109E-05-2.67679E-05-2.67473E-05-1.65279E-06-5.27783E-19-3.63359E-18
 -1      1566 9.05960E-05-2.72074E-05-2.71737E-05-3.21350E-06-9.61579E-19-2.44032E-18
 -1      1567 9.39582E-05-2.82693E-05-2.81223E-05-1.37460E-06-9.30562E-20-2.33694E-18
 -1      1568 9.23210E-05-2.77556E-05-2.76533E-05-1.42883E-06-2.49694E-19-2.80315E-18
 -1      1569 9.31752E-05-2.80637E-05-2.78971E-05-2.91524E-06-4.18206E-19-2.32729E-18
 -1      1570 9.61867E-05-2.89431E-05-2.87893E-05-9.86376E-07 1.02304E-18-3.18391E-18
 -1      1571 9.49355E-05-2.85668E-05-2.84270E-05-1.06991E-06 7.29557E-19-1.97883E-18
 -1      1572 9.53409E-05-2.87524E-05-2.85216E-05-2.29246E-06 5.48844E-19-1.95481E-18
 -1      1573 9.76596E-05-2.93740E-05-2.92415E-05-5.92418E-07-2.45304E-19-3.14730E-18
 -1      1574 9.68416E-05-2.91414E-05-2.90015E-05-6.80388E-07-1.16854E-19-3.30624E-18
 -1      1575 9.69171E-05-2.92261E-05-2.89916E-05-1.55079E-06 2.03420E-19-1.17281E-18
 -1      1576 9.84357E-05-2.95882E-05-2.94898E-05-2.57444E-07 1.05581E-19-2.71652E-18
 -1      1577 9.80118E-05-2.94799E-05-2.93628E-05-3.33805E-07-1.79647E-19-2.98532E-18
 -1      1578 9.78804E-05-2.94913E-05-2.92924E-05-8.50692E-07-4.00210E-19-1.59702E-18
 -1      1579 9.86579E-05-2.96351E-05-2.95718E-05-9.26451E-09-5.17901E-19-2.27503E-18
 -1      1580 9.85433E-05-2.96200E-05-2.95349E-05-6.68712E-08 2.63705E-21-2.59215E-18
 -1      1581 9.83100E-05-2.95862E-05-2.94394E-05-2.84310E-07-3.75687E-19-2.60674E-18
 -1      1582 9.84934E-05-2.95688E-05-2.95351E-05 1.51266E-07 1.87020E-19-2.13373E-18
 -1      1583 9.85915E-05-2.96147E-05-2.95609E-05 1.13114E-07-1.52688E-19-2.40006E-18
 -1      1584 9.83332E-05-2.95593E-05-2.94651E-05 1.17362E-07-1.09075E-19-2.48303E-18
 -1      1585 9.80959E-05-2.94369E-05-2.94248E-05 2.38115E-07-1.35400E-19-1.70549E-18
 -1      1586 9.83195E-05-2.95164E-05-2.94883E-05 2.16562E-07-7.99950E-20-1.63577E-18
 -1      1587 9.80848E-05-2.94568E-05-2.94063E-05 3.64231E-07-2.59793E-20-8.43564E-19
 -1      1588 9.75871E-05-2.92759E-05-2.92778E-05 2.70400E-07-7.90027E-19-8.94086E-19
 -1      1589 9.78684E-05-2.93687E-05-2.93591E-05 2.61301E-07-7.00382E-19-1.94609E-18
 -1      1590 9.76824E-05-2.93156E-05-2.92973E-05 4.86458E-07-7.25967E-19-3.50473E-19
 -1      1591 9.70536E-05-2.91109E-05-2.91207E-05 2.66398E-07-1.10388E-20-9.21886E-19
 -1      1592 9.73451E-05-2.92034E-05-2.92057E-05 2.65722E-07-2.07254E-19-9.62995E-19
 -1      1593 9.72161E-05-2.91624E-05-2.91652E-05 5.19299E-07-5.28805E-19-1.31942E-18
 -1      1594 9.65508E-05-2.89576E-05-2.89712E-05 2.40655E-07 1.04313E-18-2.56110E-18
 -1      1595 9.68228E-05-2.90416E-05-2.90509E-05 2.45170E-07 6.92422E-19-1.29666E-18
 -1      1596 9.67490E-05-2.90145E-05-2.90297E-05 4.94281E-07 1.03540E-18-1.80124E-18
 -1      1597 9.61110E-05-2.88245E-05-2.88397E-05 2.03099E-07-2.85001E-19-1.95948E-18
 -1      1598 9.63465E-05-2.88958E-05-2.89089E-05 2.10623E-07 1.12544E-19-3.01964E-18
 -1      1599 9.63204E-05-2.88818E-05-2.89037E-05 4.35323E-07 2.05249E-19-3.24253E-18
 -1      1600 9.57521E-05-2.87162E-05-2.87323E-05 1.59170E-07-3.12441E-19-1.37702E-18
 -1      1601 9.59418E-05-2.87725E-05-2.87879E-05 1.68623E-07 6.50503E-20-1.48769E-18
 -1      1602 9.59531E-05-2.87694E-05-2.87951E-05 3.57866E-07-3.23542E-19-1.03410E-18
 -1      1603 9.54844E-05-2.86352E-05-2.86526E-05 1.10808E-07 1.23195E-19-4.47636E-19
 -1      1604 9.56222E-05-2.86748E-05-2.86928E-05 1.21994E-07-7.21541E-19-1.50475E-18
 -1      1605 9.56589E-05-2.86795E-05-2.87081E-05 2.69710E-07-6.61481E-19-3.53040E-19
 -1      1606 9.53148E-05-2.85841E-05-2.86016E-05 5.77597E-08 9.53840E-19-2.40372E-18
 -1      1607 9.53956E-05-2.86049E-05-2.86257E-05 7.13998E-08 1.08230E-18-5.86271E-19
 -1      1608 9.54435E-05-2.86128E-05-2.86448E-05 1.73685E-07 9.90780E-19-6.42979E-19
 -1      1609 9.52437E-05-2.85659E-05-2.85747E-05 6.91707E-09 5.81942E-19-2.14996E-18
 -1      1610 9.52657E-05-2.85666E-05-2.85856E-05 2.06291E-08 7.21303E-19-1.74329E-18
 -1      1611 9.53068E-05-2.85716E-05-2.86031E-05 7.40315E-08 1.00002E-18 6.07692E-20
 -1      1612 9.52314E-05-2.85721E-05-2.85647E-05-8.31768E-09-1.42629E-18-1.37374E-18
 -1      1613 9.52359E-05-2.85177E-05-2.85950E-05 4.35395E-08-1.32274E-18 1.43526E-18
 -1      1614 9.52438E-05-2.85475E-05-2.85827E-05 3.10616E-08-1.78828E-18 6.69030E-19
 -1      1615 9.51910E-05-2.83749E-05-2.86367E-05 9.78733E-08 1.09486E-18 1.07609E-18
 -1      1616 9.52175E-05-2.84558E-05-2.86132E-05 8.63607E-08-7.79418E-19 1.38942E-18
 -1      1617 9.52284E-05-2.84476E-05-2.86227E-05 1.32237E-07-2.61832E-19 2.13374E-18
 -1      1618 9.51220E-05-2.81664E-05-2.86959E-05 1.35473E-07 3.43126E-19-1.01896E-18
 -1      1619 9.51610E-05-2.82851E-05-2.86620E-05 1.29386E-07 1.58627E-18 5.51745E-19
 -1      1620 9.51732E-05-2.82935E-05-2.86652E-05 2.22920E-07 9.16939E-19 1.35646E-18
 -1      1621 9.50429E-05-2.79233E-05-2.87657E-05 1.51685E-07 1.60498E-18 1.75884E-18
 -1      1622 9.50875E-05-2.80597E-05-2.87266E-05 1.50277E-07-6.45350E-20 1.09220E-18
 -1      1623 9.51036E-05-2.80955E-05-2.87188E-05 2.78214E-07-9.84081E-19-3.51236E-19
 -1      1624 9.49654E-05-2.76846E-05-2.88347E-05 1.45119E-07 1.08175E-18-3.77875E-19
 -1      1625 9.50081E-05-2.78152E-05-2.87971E-05 1.48110E-07 1.48464E-18-6.11678E-19
 -1      1626 9.50278E-05-2.78793E-05-2.87776E-05 2.91244E-07-5.39682E-19-1.76949E-19
 -1      1627 9.48980E-05-2.74772E-05-2.88945E-05 1.16635E-07-6.54230E-19-1.43071E-18
 -1      1628 9.49337E-05-2.75860E-05-2.88633E-05 1.23797E-07 6.50357E-19-7.30422E-19
 -1      1629 9.49553E-05-2.76715E-05-2.88342E-05 2.61158E-07 6.75749E-19-1.39675E-18
 -1      1630 9.48523E-05-2.73376E-05-2.89347E-05 6.94589E-08-3.88729E-18-1.72180E-18
 -1      1631 9.48744E-05-2.74046E-05-2.89155E-05 7.99431E-08-1.79378E-18-8.54005E-19
 -1      1632 9.48949E-05-2.74993E-05-2.88809E-05 1.91008E-07-3.78551E-19-2.93218E-18
 -1      1633 9.48359E-05-2.72896E-05-2.89483E-05 9.28746E-09-1.14187E-18 2.37232E-18
 -1      1634 9.48405E-05-2.73025E-05-2.89446E-05 2.18230E-08-3.52888E-18 5.42918E-19
 -1      1635 9.48559E-05-2.73902E-05-2.89100E-05 8.90077E-08-2.43054E-19-2.31841E-19
 -1      1636 9.48532E-05-2.73451E-05-2.89319E-05-5.55937E-08-2.51076E-18-1.56650E-18
 -1      1637 9.48383E-05-2.72989E-05-2.89451E-05-4.28105E-08-2.04958E-18 1.10890E-18
 -1      1638 9.48453E-05-2.73630E-05-2.89167E-05-3.18336E-08-1.34207E-18 1.22594E-18
 -1      1639 9.49032E-05-2.75002E-05-2.88869E-05-1.14702E-07-6.45087E-18-2.11021E-18
 -1      1640 9.48704E-05-2.73996E-05-2.89157E-05-1.03898E-07-3.67891E-18-2.51520E-18
 -1      1641 9.48664E-05-2.74257E-05-2.88991E-05-1.53783E-07-2.70088E-18-3.66010E-18
 -1      1642 9.49781E-05-2.77286E-05-2.88214E-05-1.56088E-07-6.66151E-18 1.04420E-18
 -1      1643 9.49327E-05-2.75913E-05-2.88604E-05-1.49651E-07-7.12116E-18-6.33338E-19
 -1      1644 9.49177E-05-2.75715E-05-2.88595E-05-2.55204E-07-2.40456E-18-3.02256E-18
 -1      1645 9.50683E-05-2.79997E-05-2.87443E-05-1.70747E-07-3.57609E-18 5.20236E-19
 -1      1646 9.50167E-05-2.78456E-05-2.87879E-05-1.70379E-07-6.06545E-18 3.41695E-18
 -1      1647 9.49927E-05-2.77804E-05-2.88038E-05-3.15912E-07-3.43097E-18 2.92586E-18
 -1      1648 9.51556E-05-2.82592E-05-2.86712E-05-1.51042E-07-1.27563E-18 1.74545E-18
 -1      1649 9.51091E-05-2.81217E-05-2.87100E-05-1.58115E-07-3.22942E-18 5.45685E-19
 -1      1650 9.50813E-05-2.80220E-05-2.87404E-05-3.19364E-07-1.68275E-18 1.25574E-18
 -1      1651 9.52221E-05-2.84558E-05-2.86155E-05-9.74499E-08 1.87268E-18 2.33432E-18
 -1      1652 9.51905E-05-2.83647E-05-2.86419E-05-1.11788E-07-7.28974E-19 1.93022E-18
 -1      1653 9.51672E-05-2.82538E-05-2.86799E-05-2.57619E-07-1.47657E-18 2.46028E-18
 -1      1654 9.52470E-05-2.85501E-05-2.85832E-05-3.32040E-08 3.24788E-18 6.38796E-19
 -1      1655 9.52386E-05-2.85187E-05-2.85970E-05-4.91636E-08 1.99736E-18 9.95421E-19
 -1      1656 9.52250E-05-2.84216E-05-2.86333E-05-1.50964E-07-2.13815E-19 1.65024E-18
 -1      1657 9.52541E-05-2.85232E-05-2.85993E-05-4.97153E-08-2.04466E-19 4.63910E-19
 -1      1658 2.11816E-05-6.85635E-05 1.44558E-05-3.47497E-06-3.45208E-18 4.48080E-19
 -1      1659 2.54802E-05-8.22211E-05 1.74519E-05 5.33781E-06-5.29756E-18 1.22544E-18
 -1      1660 2.16558E-05-3.56008E-05 2.30646E-06 9.13373E-06-1.74573E-18 5.86359E-19
 -1      1661 2.58066E-05-6.09068E-05 9.29284E-06 3.58695E-06-3.10607E-18-1.80153E-19
 -1      1662 3.65121E-05-6.11557E-06-1.44702E-05 3.43036E-05 2.40981E-18 4.20044E-18
 -1      1663 2.96219E-05-2.73273E-05-5.23337E-06 1.49317E-05-2.04982E-19 1.92827E-18
 -1      1664 8.14013E-05 2.29849E-07-3.37922E-05 6.62821E-05 5.21349E-18 8.48388E-18
 -1      1665 5.55986E-05-4.40514E-06-2.37890E-05 4.35198E-05 3.78116E-18 5.83097E-18
 -1      1666 1.50698E-04-1.67236E-05-5.36109E-05 8.28872E-05 5.61795E-18 8.19758E-18
 -1      1667 1.05259E-04-1.86439E-06-4.35292E-05 7.08652E-05 6.37138E-18 8.47202E-18
 -1      1668 2.17905E-04-4.50310E-05-6.85673E-05 6.68106E-05 3.28781E-18 7.40137E-18
 -1      1669 1.75721E-04-2.37074E-05-6.17112E-05 7.84508E-05 4.60934E-18 8.43899E-18
 -1      1670 2.57852E-04-6.41841E-05-7.66990E-05 2.29130E-05 2.25861E-18 2.85429E-18
 -1      1671 2.34865E-04-5.10170E-05-7.34533E-05 5.40553E-05 3.38771E-18 5.62176E-18
 -1      1672 2.53845E-04-6.11624E-05-7.67500E-05-3.01909E-05 1.63499E-18 4.22669E-19
 -1      1673 2.61683E-04-6.56217E-05-7.77635E-05 5.61358E-06 1.36563E-18 2.46958E-18
 -1      1674 2.06488E-04-3.73232E-05-6.82151E-05-6.83515E-05 2.15898E-18-2.28784E-18
 -1      1675 2.41638E-04-5.63646E-05-7.35214E-05-4.53033E-05 1.51121E-18-7.76729E-19
 -1      1676 1.41784E-04-1.14615E-05-5.36700E-05-7.87303E-05 5.41169E-18-5.09575E-18
 -1      1677 1.85980E-04-3.09122E-05-6.18357E-05-7.84638E-05 3.49443E-18-2.74693E-18
 -1      1678 7.93033E-05 1.89675E-06-3.51396E-05-6.12659E-05 7.21841E-18-6.12066E-18
 -1      1679 1.16247E-04-4.63621E-06-4.50777E-05-7.99511E-05 5.42016E-18-6.08254E-18
 -1      1680 4.28995E-05-1.48585E-05-1.49394E-05-2.97968E-05 8.85658E-18-5.35071E-18
 -1      1681 6.10851E-05-1.71257E-06-2.53259E-05-5.35770E-05 7.53521E-18-5.71408E-18
 -1      1682 2.57207E-05-4.33648E-05 2.40184E-06-6.16696E-06 8.08154E-18-4.34358E-18
 -1      1683 2.55334E-05-1.82510E-05-5.80964E-06-1.93405E-05 9.28433E-18-5.75093E-18
 -1      1684 2.53431E-05-7.20361E-05 1.38701E-05-3.51920E-06 5.86740E-18-1.43424E-18
 -1      1685 1.99346E-05-5.06154E-05 8.56038E-06-1.78893E-06 7.18453E-18-3.10522E-18
 -1      1686 2.41272E-05-8.18902E-05 1.80240E-05-9.32249E-06 2.14270E-18-1.82663E-18
 -1      1687 2.29503E-05-7.71689E-05 1.70337E-05 1.27925E-06 4.75609E-18-1.69237E-18
 -1      1688 2.02120E-05-6.80584E-05 1.40827E-05-1.31151E-05-2.11208E-18-2.22325E-18
 -1      1689 2.54786E-05-8.20073E-05 1.71583E-05-6.45196E-06 9.26231E-19-2.11610E-18
 -1      1690 2.28885E-05-3.70250E-05 1.22759E-06 2.03503E-06-5.65818E-18-5.67194E-18
 -1      1691 2.58291E-05-6.19992E-05 8.80373E-06-6.43328E-06-3.45589E-18-2.92385E-18
 -1      1692 4.72322E-05-1.30046E-05-1.71757E-05 3.21579E-05-9.06833E-18-9.14541E-18
 -1      1693 3.52392E-05-3.10323E-05-7.19615E-06 1.02394E-05-7.33869E-18-6.91221E-18
 -1      1694 1.05646E-04-1.21585E-05-3.91145E-05 6.57173E-05-8.73037E-18-1.21854E-17
 -1      1695 6.98609E-05-1.23540E-05-2.75187E-05 4.09123E-05-8.96161E-18-9.66803E-18
 -1      1696 1.91424E-04-3.68638E-05-6.11382E-05 7.72669E-05-6.55180E-18-1.18957E-17
 -1      1697 1.35773E-04-1.69315E-05-4.99943E-05 6.87528E-05-8.30516E-18-1.21583E-17
 -1      1698 2.65901E-04-6.64683E-05-7.70662E-05 4.56312E-05-3.60264E-18-1.02898E-17
 -1      1699 2.18272E-04-4.38091E-05-6.95645E-05 6.54045E-05-5.76512E-18-1.13638E-17
 -1      1700 2.97230E-04-7.84392E-05-8.36560E-05-3.59588E-06-1.98968E-18-6.84614E-18
 -1      1701 2.83686E-04-7.14479E-05-8.19115E-05 3.49501E-05-2.55550E-18-9.86793E-18
 -1      1702 2.64075E-04-6.23133E-05-7.83633E-05-5.33045E-05-1.53175E-18-1.76013E-18
 -1      1703 2.93835E-04-7.77204E-05-8.25656E-05-1.93827E-05-1.39782E-18-5.60482E-18
 -1      1704 1.89651E-04-3.28338E-05-6.32985E-05-7.39221E-05-3.29369E-18 2.59700E-18
 -1      1705 2.43070E-04-5.65803E-05-7.21513E-05-6.53987E-05-2.17338E-18-8.99549E-19
 -1      1706 1.11209E-04-1.28179E-05-4.26146E-05-6.11707E-05-5.73102E-18 5.69884E-18
 -1      1707 1.60347E-04-2.58075E-05-5.37877E-05-7.74157E-05-4.19112E-18 4.16401E-18
 -1      1708 5.72993E-05-2.06996E-05-1.96508E-05-2.82914E-05-6.15454E-18 5.63616E-18
 -1      1709 8.62228E-05-1.31054E-05-3.15520E-05-5.48489E-05-5.42270E-18 6.15962E-18
 -1      1710 2.84272E-05-4.36075E-05 2.22941E-07-2.92981E-07-8.79728E-18 3.61556E-18
 -1      1711 3.30360E-05-2.01351E-05-9.18121E-06-1.84451E-05-6.94736E-18 4.79844E-18
 -1      1712 2.50263E-05-7.22783E-05 1.32249E-05 8.71954E-06-6.91009E-18 3.34160E-18
 -1      1713 1.93055E-05-5.02076E-05 7.51808E-06 7.81366E-06-8.68378E-18 3.83537E-18
 -1      1714 2.43542E-05-8.09179E-05 1.76975E-05 2.13496E-06-5.88481E-18 1.04651E-18
 -1      1715 2.14863E-05-7.43229E-05 1.62690E-05 1.16523E-05-6.89273E-18 2.50002E-18
 -1      1716 7.67439E-05-3.18301E-05-2.00185E-05 4.50190E-05 4.31140E-19 5.34562E-18
 -1      1717 1.20805E-05-5.39402E-05 1.32351E-05 5.96728E-06-3.79015E-18 2.24379E-18
 -1      1718 9.52489E-05-2.85705E-05-2.85760E-05 3.60173E-09-1.55726E-18 3.75137E-19
 -1      1719 9.52586E-05-2.85323E-05-2.85964E-05 5.10014E-08 5.42216E-19 3.77077E-19
 -1      1720 2.09988E-05-4.90013E-05 8.03985E-06 2.08883E-05-3.55627E-18 6.67038E-19
 -1      1721 4.29408E-05-4.02905E-05-3.86270E-06 3.34898E-05-1.55685E-18 2.71908E-18
 -1      1722 1.20818E-04-2.90401E-05-3.80952E-05 5.02822E-05 2.76387E-18 6.55011E-18
 -1      1723 1.65604E-04-2.94853E-05-5.50732E-05 4.59080E-05 3.89053E-18 5.70392E-18
 -1      1724 2.00518E-04-3.23513E-05-6.73923E-05 2.98470E-05 3.57490E-18 3.79810E-18
 -1      1725 2.17426E-04-3.44087E-05-7.30474E-05 6.65350E-06 2.94895E-18 2.22293E-18
 -1      1726 2.09697E-04-3.24526E-05-7.09607E-05-1.70844E-05 3.01501E-18-2.88415E-19
 -1      1727 1.84561E-04-3.07845E-05-6.19144E-05-3.77332E-05 3.56633E-18-2.16925E-18
 -1      1728 1.44856E-04-2.77562E-05-4.77025E-05-5.04855E-05 5.01274E-18-2.79521E-18
 -1      1729 1.01033E-04-3.03619E-05-3.00499E-05-4.88712E-05 5.05001E-18-2.99130E-18
 -1      1730 6.09529E-05-3.61195E-05-1.22637E-05-4.04482E-05 5.54807E-18-3.35658E-18
 -1      1731 3.05972E-05-4.42764E-05 2.43682E-06-2.70431E-05 4.63666E-18-4.04014E-18
 -1      1732 1.47491E-05-5.07238E-05 1.11596E-05-1.47922E-05 3.04508E-18-2.65121E-18
 -1      1733 1.26976E-05-5.53663E-05 1.33343E-05-1.21633E-06 1.04873E-18-3.72906E-18
 -1      1734 2.43735E-05-5.24163E-05 7.43564E-06 1.24024E-05-1.28495E-18-4.08969E-18
 -1      1735 5.14143E-05-4.65250E-05-5.55556E-06 2.60476E-05-3.62022E-18-6.47705E-18
 -1      1736 9.34178E-05-4.22851E-05-2.34835E-05 3.72155E-05-5.41169E-18-7.81388E-18
 -1      1737 1.47914E-04-4.28425E-05-4.36747E-05 4.06525E-05-5.42821E-18-8.03495E-18
 -1      1738 1.99917E-04-4.43156E-05-6.20641E-05 2.85604E-05-4.64158E-18-6.61956E-18
 -1      1739 2.32684E-04-4.30562E-05-7.43574E-05 1.12777E-05-3.42244E-18-6.24221E-18
 -1      1740 2.45621E-04-4.48357E-05-7.79859E-05-3.95232E-06-3.53043E-18-3.97301E-18
 -1      1741 2.26134E-04-4.50632E-05-7.10900E-05-2.20212E-05-3.53107E-18-2.11419E-18
 -1      1742 1.83636E-04-4.42523E-05-5.61889E-05-3.57574E-05-4.09795E-18 6.88638E-19
 -1      1743 1.30798E-04-4.50297E-05-3.65751E-05-3.87530E-05-3.91499E-18 3.33223E-18
 -1      1744 7.90770E-05-4.57316E-05-1.64025E-05-3.40312E-05-3.80826E-18 3.36865E-18
 -1      1745 3.78165E-05-4.90785E-05 6.62526E-07-1.96509E-05-5.25499E-18 1.87533E-18
 -1      1746 1.72081E-05-5.28336E-05 1.05560E-05-6.54565E-06-3.92176E-18 2.78377E-18
 -1      1747 1.05991E-04-2.31553E-05-3.55844E-05-1.68507E-05-1.07717E-18 4.49520E-18
 -1      1748 8.91260E-05-1.05592E-05-3.37950E-05-1.33369E-05-1.29243E-18-1.34271E-18
 -1      1749 9.04450E-05-1.16259E-05-3.39314E-05-1.51111E-05-1.53832E-18-8.81841E-19
 -1      1750 9.24712E-05-1.38695E-05-3.38463E-05-1.60003E-05-1.50717E-18-2.73645E-19
 -1      1751 9.41742E-05-1.58172E-05-3.40860E-05-1.76606E-05-1.62125E-18 5.44325E-19
 -1      1752 9.34278E-05-1.63611E-05-3.30391E-05-1.37474E-05-1.55379E-18-4.73465E-19
 -1      1753 8.62330E-05-7.67197E-06-3.37405E-05-7.85835E-06-7.19100E-19-2.17215E-18
 -1      1754 8.66299E-05-7.97057E-06-3.37719E-05-9.24764E-06-8.40197E-19-2.08461E-18
 -1      1755 8.56235E-05-7.03357E-06-3.37409E-05-5.31525E-06-4.36593E-19-2.24875E-18
 -1      1756 8.58547E-05-7.21271E-06-3.37545E-05-6.61970E-06-5.56978E-19-2.20930E-18
 -1      1757 8.76163E-05-9.86294E-06-3.33557E-05-6.92131E-06-7.62316E-19-2.11789E-18
 -1      1758 8.52919E-05-6.67300E-06-3.37463E-05-2.88493E-06-5.28961E-20-2.13881E-18
 -1      1759 8.54113E-05-6.76822E-06-3.37513E-05-4.12387E-06-2.49246E-19-2.18495E-18
 -1      1760 8.69872E-05-9.14856E-06-3.33919E-05-4.53068E-06-3.52230E-19-2.09932E-18
 -1      1761 8.51621E-05-6.52375E-06-3.37505E-05-5.15771E-07 2.61770E-19-2.04760E-18
 -1      1762 8.51975E-05-6.55257E-06-3.37517E-05-1.72434E-06 1.10097E-19-2.11276E-18
 -1      1763 8.66573E-05-8.76731E-06-3.34137E-05-2.21291E-06 3.61867E-20-2.03281E-18
 -1      1764 8.52063E-05-6.56108E-06-3.37517E-05 1.84435E-06 5.51437E-19-1.97920E-18
 -1      1765 8.51654E-05-6.52808E-06-3.37504E-05 6.34868E-07 3.82691E-19-2.04048E-18
 -1      1766 8.65594E-05-8.65272E-06-3.34208E-05 6.65337E-08 3.54777E-19-1.97978E-18
 -1      1767 8.54345E-05-6.79221E-06-3.37510E-05 4.24795E-06 7.81940E-19-1.90007E-18
 -1      1768 8.53083E-05-6.69113E-06-3.37459E-05 3.00610E-06 6.89015E-19-1.96886E-18
 -1      1769 8.66736E-05-8.78608E-06-3.34127E-05 2.34694E-06 6.45334E-19-1.90326E-18
 -1      1770 8.58863E-05-7.24699E-06-3.37535E-05 6.70783E-06 1.04115E-18-1.62125E-18
 -1      1771 8.56513E-05-7.06435E-06-3.37402E-05 5.42113E-06 9.11832E-19-1.77213E-18
 -1      1772 8.70188E-05-9.18476E-06-3.33898E-05 4.64723E-06 8.92831E-19-1.74897E-18
 -1      1773 8.66907E-05-8.03783E-06-3.37699E-05 9.36978E-06 1.44265E-18-1.20563E-18
 -1      1774 8.62752E-05-7.72154E-06-3.37384E-05 7.94905E-06 1.21110E-18-1.42504E-18
 -1      1775 8.76659E-05-9.92017E-06-3.33522E-05 7.02105E-06 1.22832E-18-1.42013E-18
 -1      1776 8.80864E-05-9.38278E-06-3.38196E-05 1.22491E-05 1.73701E-18-6.77653E-19
 -1      1777 8.73563E-05-8.82678E-06-3.37507E-05 1.06563E-05 1.55690E-18-1.01745E-18
 -1      1778 8.87770E-05-1.11568E-05-3.32970E-05 9.49677E-06 1.58186E-18-1.01443E-18
 -1      1779 9.06321E-05-1.18439E-05-3.39230E-05 1.53223E-05 1.92660E-18 3.46675E-19
 -1      1780 8.92688E-05-1.07458E-05-3.37869E-05 1.34967E-05 1.80238E-18-2.97838E-19
 -1      1781 9.06570E-05-1.32212E-05-3.32089E-05 1.19510E-05 1.86382E-18-3.63920E-19
 -1      1782 9.58534E-05-1.70747E-05-3.39819E-05 1.76714E-05 1.87414E-18 2.11414E-18
 -1      1783 9.28214E-05-1.43211E-05-3.38185E-05 1.61735E-05 1.85001E-18 1.06125E-18
 -1      1784 9.38665E-05-1.68537E-05-3.30079E-05 1.38519E-05 1.95830E-18 7.27628E-19
 -1      1785 1.01866E-04-2.50820E-05-3.33439E-05 1.44130E-05 1.50528E-18 4.25147E-18
 -1      1786 9.80257E-05-1.95685E-05-3.36128E-05 1.69683E-05 1.71981E-18 2.86599E-18
 -1      1787 9.73732E-05-2.18678E-05-3.24080E-05 1.32774E-05 1.91300E-18 2.12187E-18
 -1      1788 9.87295E-05-2.61322E-05-3.13275E-05 9.42938E-06 1.49935E-18 3.85094E-18
 -1      1789 1.00107E-04-1.95524E-05-3.42018E-05-1.88673E-05-1.41763E-18 2.06676E-18
 -1      1790 9.53375E-05-2.72933E-05-2.91792E-05 4.10040E-06 1.04677E-18 3.16867E-18
 -1      1791 9.76785E-05-2.73771E-05-3.01797E-05 6.39348E-06 1.19495E-18 3.56181E-18
 -1      1792 9.75397E-05-2.56011E-05-3.08117E-05 8.71761E-06 1.45049E-18 2.58883E-18
 -1      1793 9.97731E-05-2.25308E-05-3.28226E-05-1.44672E-05-1.48633E-18 1.44276E-18
 -1      1794 9.69153E-05-2.69643E-05-2.98640E-05-5.70227E-06-1.13934E-18 1.21343E-18
 -1      1795 9.51106E-05-2.70207E-05-2.91539E-05-3.89470E-06-1.00732E-18 8.88253E-19
 -1      1796 9.42933E-05-2.72218E-05-2.86479E-05-2.41676E-06-1.03413E-18 8.31972E-19
 -1      1797 9.35249E-05-2.73021E-05-2.83440E-05-1.56090E-06-1.01925E-18 5.17587E-19
 -1      1798 9.54778E-05-2.65349E-05-2.95679E-05-4.46666E-06-1.23478E-18 1.58362E-19
 -1      1799 9.30048E-05-2.73534E-05-2.80773E-05-7.29983E-07-8.55914E-19 5.97975E-19
 -1      1800 9.27086E-05-2.74172E-05-2.79571E-05-2.87607E-07-5.83040E-19 3.35979E-19
 -1      1801 9.42753E-05-2.72096E-05-2.87632E-05-1.81486E-06-1.03811E-18 1.18598E-19
 -1      1802 9.24405E-05-2.74446E-05-2.78242E-05 1.74551E-07-5.23930E-19 2.06140E-19
 -1      1803 9.24184E-05-2.75236E-05-2.77974E-05 4.05975E-07-5.70164E-19-5.10701E-20
 -1      1804 9.35867E-05-2.75161E-05-2.83328E-05-3.35016E-07-7.35992E-19-1.13258E-20
 -1      1805 9.23267E-05-2.75584E-05-2.77424E-05 6.65417E-07-6.51597E-19-1.16606E-19
 -1      1806 9.24654E-05-2.76506E-05-2.77688E-05 7.83040E-07-5.70951E-19-3.15575E-19
 -1      1807 9.32802E-05-2.77008E-05-2.81175E-05 4.99507E-07-7.32316E-19-5.43175E-19
 -1      1808 9.24919E-05-2.76892E-05-2.77656E-05 9.05051E-07-4.69653E-19-3.91173E-19
 -1      1809 9.27061E-05-2.77806E-05-2.78190E-05 9.51404E-07-3.35469E-19-4.02071E-19
 -1      1810 9.32525E-05-2.78518E-05-2.80377E-05 9.46113E-07-5.83632E-19-5.94534E-19
 -1      1811 9.28040E-05-2.78260E-05-2.78452E-05 1.00654E-06-2.61377E-19-4.27882E-19
 -1      1812 9.30579E-05-2.79150E-05-2.79136E-05 1.01945E-06-1.51859E-19-4.38825E-19
 -1      1813 9.33959E-05-2.79762E-05-2.80428E-05 1.16003E-06-3.63142E-19-6.67912E-19
 -1      1814 9.31992E-05-2.79625E-05-2.79582E-05 1.04073E-06-3.78308E-19-6.47833E-19
 -1      1815 9.34727E-05-2.80477E-05-2.80351E-05 1.04102E-06-4.41892E-19-6.92962E-19
 -1      1816 9.36446E-05-2.80891E-05-2.80991E-05 1.25625E-06-4.57448E-19-6.63964E-19
 -1      1817 9.36422E-05-2.80955E-05-2.80922E-05 1.05231E-06-4.37647E-19-7.38908E-19
 -1      1818 9.39282E-05-2.81767E-05-2.81748E-05 1.05501E-06-1.50180E-19-1.01388E-18
 -1      1819 9.39588E-05-2.81908E-05-2.81891E-05 1.30056E-06-5.43373E-19-7.70622E-19
 -1      1820 9.41195E-05-2.82241E-05-2.82418E-05 1.07482E-06-3.91802E-20-1.23741E-18
 -1      1821 9.44207E-05-2.83031E-05-2.83306E-05 1.09248E-06-1.56700E-19-1.41209E-18
 -1      1822 9.43186E-05-2.82821E-05-2.83037E-05 1.34120E-06-2.52967E-19-8.60085E-19
 -1      1823 9.46339E-05-2.83503E-05-2.84078E-05 1.13694E-06-4.16988E-19-1.29763E-18
 -1      1824 9.49622E-05-2.84305E-05-2.85060E-05 1.18141E-06-7.81646E-19-1.35401E-18
 -1      1825 9.47184E-05-2.83641E-05-2.84399E-05 1.41732E-06-2.97148E-19-1.23571E-18
 -1      1826 9.52163E-05-2.84810E-05-2.86007E-05 1.27126E-06-8.96714E-19-1.22681E-18
 -1      1827 9.56091E-05-2.85707E-05-2.87202E-05 1.36247E-06-7.52250E-19-1.12113E-18
 -1      1828 9.51760E-05-2.84397E-05-2.86044E-05 1.57035E-06-7.18994E-19-6.98309E-19
 -1      1829 9.58898E-05-2.86204E-05-2.88285E-05 1.50997E-06-9.25254E-19-1.09977E-18
 -1      1830 9.63418E-05-2.87187E-05-2.89665E-05 1.65468E-06-6.51248E-19-1.32967E-18
 -1      1831 9.56987E-05-2.85065E-05-2.88002E-05 1.83913E-06-8.18489E-19-2.25168E-19
 -1      1832 9.66753E-05-2.87713E-05-2.90994E-05 1.88492E-06-2.07791E-19-1.80092E-18
 -1      1833 9.72427E-05-2.88896E-05-2.92734E-05 2.10872E-06 1.31511E-19-1.85814E-18
 -1      1834 9.62961E-05-2.85635E-05-2.90327E-05 2.26043E-06-6.71659E-19-2.07607E-19
 -1      1835 9.76464E-05-2.89453E-05-2.94399E-05 2.45144E-06 3.82480E-19-2.29568E-18
 -1      1836 9.83825E-05-2.90950E-05-2.96657E-05 2.78383E-06 1.42146E-19-2.33787E-18
 -1      1837 9.70110E-05-2.86097E-05-2.93202E-05 2.89620E-06-2.03713E-19-9.20282E-19
 -1      1838 9.88762E-05-2.91539E-05-2.98768E-05 3.27741E-06 1.53839E-20-2.01371E-18
 -1      1839 9.98510E-05-2.93506E-05-3.01752E-05 3.75646E-06 2.46665E-20-1.45178E-18
 -1      1840 9.78799E-05-2.86404E-05-2.96801E-05 3.81996E-06 3.09885E-19-1.29981E-18
 -1      1841 1.00456E-04-2.94129E-05-3.04428E-05 4.44804E-06 2.60112E-19-8.67216E-19
 -1      1842 1.01758E-04-2.96805E-05-3.08393E-05 5.11898E-06 1.04985E-18-5.22068E-19
 -1      1843 9.89437E-05-2.86518E-05-3.01315E-05 5.12313E-06 7.26008E-19-9.44558E-20
 -1      1844 1.02496E-04-2.97495E-05-3.11743E-05 6.05921E-06 1.36256E-18-7.06435E-19
 -1      1845 1.04241E-04-3.01318E-05-3.16973E-05 6.96285E-06 1.27631E-18-7.02529E-19
 -1      1846 1.00248E-04-2.86498E-05-3.06913E-05 6.90841E-06 1.15247E-18-1.57631E-19
 -1      1847 1.05195E-04-3.02397E-05-3.21246E-05 8.24749E-06 9.58431E-19-8.72769E-19
 -1      1848 1.07606E-04-3.08315E-05-3.28327E-05 9.46101E-06 5.55482E-19 5.38759E-20
 -1      1849 1.01890E-04-2.86807E-05-3.13846E-05 9.33545E-06 1.05906E-18-9.59596E-19
 -1      1850 1.08732E-04-3.10480E-05-3.33001E-05 1.09509E-05 1.10975E-19 2.37771E-19
 -1      1851 1.11708E-04-3.19436E-05-3.41243E-05 1.22281E-05 1.05681E-19 1.67679E-19
 -1      1852 1.03942E-04-2.88977E-05-3.21714E-05 1.23619E-05 4.71989E-19-8.84403E-19
 -1      1853 1.13213E-04-3.24826E-05-3.46063E-05 1.37783E-05-3.17584E-19 2.47737E-19
 -1      1854 1.16877E-04-3.39433E-05-3.55153E-05 1.47826E-05-2.32702E-19 1.75124E-19
 -1      1855 1.06563E-04-2.97004E-05-3.29603E-05 1.56694E-05-6.01261E-20 3.66788E-19
 -1      1856 1.19155E-04-3.52485E-05-3.59358E-05 1.58394E-05-1.04030E-19 2.25933E-19
 -1      1857 1.23369E-04-3.76343E-05-3.67778E-05 1.56982E-05 4.43064E-19 5.87219E-19
 -1      1858 1.10356E-04-3.19842E-05-3.36333E-05 1.85823E-05 1.36617E-20-8.68126E-20
 -1      1859 1.27215E-04-4.03989E-05-3.70901E-05 1.50844E-05 9.52092E-19 4.98558E-19
 -1      1860 1.31474E-04-4.38603E-05-3.76626E-05 1.23845E-05 1.49538E-18 7.47798E-19
 -1      1861 1.16512E-04-3.72347E-05-3.40683E-05 1.94285E-05 8.88299E-19 1.97594E-19
 -1      1862 1.37825E-04-4.84250E-05-3.80782E-05 8.26950E-06 1.53609E-18 7.31784E-19
 -1      1863 1.40907E-04-5.17626E-05-3.83912E-05 1.87264E-06 9.74617E-19 8.23237E-19
 -1      1864 1.26791E-04-4.66881E-05-3.44931E-05 1.52871E-05 1.61974E-18 1.37193E-19
 -1      1865 1.48862E-04-5.58874E-05-3.97011E-05-6.44376E-06 1.07526E-18 1.10233E-18
 -1      1866 1.48313E-04-5.49877E-05-4.02256E-05-1.42304E-05 9.50450E-19 1.87488E-18
 -1      1867 1.41468E-04-5.76314E-05-3.61727E-05 3.47435E-06 1.43466E-18 4.16257E-19
 -1      1868 1.54578E-04-5.35036E-05-4.37873E-05-2.29432E-05-1.22608E-19 1.93452E-18
 -1      1869 1.49293E-04-4.39762E-05-4.54601E-05-2.59393E-05-1.03465E-18 1.93515E-18
 -1      1870 1.56097E-04-5.97432E-05-4.15487E-05-1.42432E-05 6.93601E-19 1.10612E-18
 -1      1871 1.42922E-04-2.49602E-05-5.12437E-05-1.39616E-06-1.74446E-18 5.49036E-19
 -1      1872 1.44164E-04-2.69380E-05-5.09849E-05 1.04749E-05-1.34085E-18 7.89196E-20
 -1      1873 1.48770E-04-4.92429E-05-4.27998E-05 2.39934E-05-1.76172E-18-1.79719E-18
 -1      1874 1.52522E-04-5.58093E-05-4.17720E-05 1.73201E-05-8.21963E-19-2.78880E-18
 -1      1875 1.45788E-04-5.39134E-05-3.95604E-05 7.83569E-06 1.77877E-20-2.82911E-18
 -1      1876 1.44649E-04-5.26187E-05-3.92433E-05-1.93874E-07-4.50489E-19-2.07958E-18
 -1      1877 1.50181E-04-5.87794E-05-3.94069E-05 9.38468E-06-8.16216E-19-3.59978E-18
 -1      1878 1.37453E-04-4.80281E-05-3.85054E-05-7.02760E-06-5.67962E-19-1.60404E-18
 -1      1879 1.33791E-04-4.43955E-05-3.81143E-05-1.16680E-05 8.03093E-20-4.77978E-19
 -1      1880 1.36332E-04-5.23854E-05-3.61481E-05-7.74562E-06 5.55310E-19-1.74421E-18
 -1      1881 1.28566E-04-4.08072E-05-3.77187E-05-1.41577E-05 2.72480E-19-1.82774E-19
 -1      1882 1.24067E-04-3.76903E-05-3.69434E-05-1.54484E-05 8.57422E-20 2.66140E-19
 -1      1883 1.23796E-04-4.20066E-05-3.51845E-05-1.67359E-05 3.05488E-19-3.33800E-19
 -1      1884 1.21001E-04-3.59295E-05-3.64819E-05-1.51186E-05-6.49171E-21 5.05837E-19
 -1      1885 1.17001E-04-3.39998E-05-3.55638E-05-1.45201E-05 8.89620E-19 8.92329E-19
 -1      1886 1.15454E-04-3.48783E-05-3.45995E-05-1.84827E-05 8.15269E-20 1.13013E-18
 -1      1887 1.14979E-04-3.31840E-05-3.50207E-05-1.31915E-05 1.28742E-18 3.21085E-19
 -1      1888 1.11620E-04-3.20017E-05-3.41296E-05-1.19702E-05 2.04993E-18 5.85009E-19
 -1      1889 1.10251E-04-3.14019E-05-3.38219E-05-1.65449E-05 9.43186E-19 1.26659E-18
 -1      1890 1.10144E-04-3.16328E-05-3.35896E-05-1.04658E-05 1.70246E-18-9.71441E-20
 -1      1891 1.07481E-04-3.08890E-05-3.28302E-05-9.22511E-06-5.35960E-19 6.50704E-19
 -1      1892 1.06657E-04-2.99071E-05-3.29054E-05-1.34234E-05 1.26173E-18-8.57654E-20
 -1      1893 1.06330E-04-3.06993E-05-3.23522E-05-7.89268E-06-4.80757E-19-2.55599E-21
 -1      1894 1.04295E-04-3.02109E-05-3.17507E-05-6.85257E-06-4.88314E-19 1.14121E-18
 -1      1895 1.03968E-04-2.93153E-05-3.20005E-05-1.03160E-05-6.40999E-19-1.06467E-18
 -1      1896 1.03377E-04-3.00883E-05-3.13564E-05-5.78981E-06-1.17626E-18 4.32356E-19
 -1      1897 1.01859E-04-2.97541E-05-3.08993E-05-4.98991E-06-1.40099E-18 3.51503E-19
 -1      1898 1.01869E-04-2.90766E-05-3.12016E-05-7.68591E-06-1.15932E-18 5.91740E-20
 -1      1899 1.01129E-04-2.96584E-05-3.05879E-05-4.18608E-06-1.47580E-18-8.74897E-20
 -1      1900 1.00009E-04-2.94222E-05-3.02481E-05-3.59676E-06-1.57515E-18 5.75446E-19
 -1      1901 1.00212E-04-2.89574E-05-3.05425E-05-5.62764E-06-1.61149E-18-1.24287E-18
 -1      1902 9.94069E-05-2.93398E-05-2.99973E-05-2.97748E-06-6.82176E-19 4.89674E-19
 -1      1903 9.85603E-05-2.91617E-05-2.97386E-05-2.53713E-06-2.02203E-19 2.64226E-20
 -1      1904 9.88815E-05-2.88677E-05-3.00095E-05-4.05400E-06-1.07418E-18 1.30496E-20
 -1      1905 9.81242E-05-2.90942E-05-2.95609E-05-2.11626E-06-4.93013E-19 1.24890E-18
 -1      1906 9.75422E-05-2.89736E-05-2.93828E-05-1.81631E-06 4.40722E-21 1.43583E-18
 -1      1907 9.78513E-05-2.87940E-05-2.96011E-05-2.89912E-06-8.19041E-20 1.24011E-18
 -1      1908 9.72057E-05-2.89170E-05-2.92499E-05-1.51050E-06 1.07072E-18 1.82458E-18
 -1      1909 9.67855E-05-2.88278E-05-2.91213E-05-1.29476E-06 1.77888E-18 2.24395E-18
 -1      1910 9.70819E-05-2.87237E-05-2.93009E-05-2.08556E-06 7.21976E-19 2.23479E-18
 -1      1911 9.65306E-05-2.87811E-05-2.90235E-05-1.07086E-06 3.96531E-19 1.63857E-18
 -1      1912 9.62303E-05-2.87154E-05-2.89318E-05-9.12126E-07-1.38437E-20 1.54829E-18
 -1      1913 9.64964E-05-2.86589E-05-2.90771E-05-1.49143E-06 6.82343E-19 3.08579E-18
 -1      1914 9.60395E-05-2.86770E-05-2.88612E-05-7.43749E-07-6.35033E-19-1.35503E-19
 -1      1915 9.58296E-05-2.86287E-05-2.87975E-05-6.21916E-07-5.61259E-19-1.36902E-18
 -1      1916 9.60556E-05-2.85999E-05-2.89128E-05-1.05043E-06-1.20057E-18 1.18386E-18
 -1      1917 9.56883E-05-2.85967E-05-2.87477E-05-4.89374E-07-7.81513E-19-1.17987E-18
 -1      1918 9.55483E-05-2.85630E-05-2.87054E-05-3.89848E-07-1.82171E-18-1.66644E-18
 -1      1919 9.57282E-05-2.85459E-05-2.87948E-05-7.11940E-07-4.61151E-19-8.84663E-19
 -1      1920 9.54452E-05-2.85377E-05-2.86707E-05-2.79071E-07-1.07666E-18-1.89215E-18
 -1      1921 9.53607E-05-2.85204E-05-2.86438E-05-1.96339E-07-6.38988E-19-5.92554E-19
 -1      1922 9.54883E-05-2.85003E-05-2.87110E-05-4.38892E-07-2.01738E-18 2.90121E-19
 -1      1923 9.52840E-05-2.85119E-05-2.86145E-05-9.74985E-08-8.95296E-19-4.04304E-19
 -1      1924 9.27145E-05-2.73413E-05-2.79827E-05 7.76483E-07 5.41006E-19 1.86344E-18
 -1      1925 9.31843E-05-2.72955E-05-2.81773E-05 1.35980E-06 4.40427E-19 2.05204E-18
 -1      1926 9.21924E-05-2.74139E-05-2.77402E-05-1.07580E-07 5.67911E-19 1.66174E-18
 -1      1927 9.23123E-05-2.73538E-05-2.77968E-05 1.86154E-07 6.06347E-19 1.84471E-18
 -1      1928 9.36525E-05-2.74121E-05-2.84055E-05 9.33067E-07 6.97310E-19 9.33331E-19
 -1      1929 9.21093E-05-2.75122E-05-2.76708E-05-5.83257E-07 6.51145E-19 1.15835E-18
 -1      1930 9.20194E-05-2.74308E-05-2.76584E-05-4.32984E-07 6.31212E-19 1.52031E-18
 -1      1931 9.31379E-05-2.75889E-05-2.81072E-05-1.41091E-07 8.23817E-19 8.25720E-19
 -1      1932 9.22930E-05-2.76373E-05-2.77009E-05-8.22196E-07 5.16341E-19 8.89935E-19
 -1      1933 9.20898E-05-2.75446E-05-2.76513E-05-7.51325E-07 4.20597E-19 1.02795E-18
 -1      1934 9.29891E-05-2.77265E-05-2.79804E-05-7.26327E-07 7.12569E-19 5.06713E-19
 -1      1935 9.26284E-05-2.77765E-05-2.77877E-05-9.25625E-07 4.20366E-19 7.65126E-19
 -1      1936 9.23687E-05-2.76807E-05-2.77187E-05-8.99271E-07 5.51472E-19 8.53073E-19
 -1      1937 9.30705E-05-2.78530E-05-2.79576E-05-1.02683E-06 5.86899E-19 1.94382E-19
 -1      1938 9.30446E-05-2.79203E-05-2.79061E-05-9.54951E-07 2.41793E-19 6.53809E-19
 -1      1939 9.27608E-05-2.78261E-05-2.78277E-05-9.51855E-07 2.24589E-19 6.30415E-19
 -1      1940 9.32929E-05-2.79748E-05-2.79981E-05-1.16295E-06 3.41523E-19 9.11446E-20
 -1      1941 9.35009E-05-2.80633E-05-2.80413E-05-9.49241E-07 3.68858E-19 6.18162E-19
 -1      1942 9.32097E-05-2.79727E-05-2.79590E-05-9.55757E-07 5.08209E-19 8.15835E-19
 -1      1943 9.35979E-05-2.80921E-05-2.80769E-05-1.20909E-06 2.98065E-19 2.26111E-19
 -1      1944 9.39764E-05-2.82040E-05-2.81853E-05-9.33620E-07 3.26004E-19 3.10140E-19
 -1      1945 9.36849E-05-2.81170E-05-2.81017E-05-9.41015E-07 2.33756E-19 4.24121E-19
 -1      1946 9.39501E-05-2.82046E-05-2.81786E-05-1.21305E-06 5.77313E-19 4.05371E-19
 -1      1947 9.44630E-05-2.83436E-05-2.83343E-05-9.23294E-07 5.51321E-19 1.65922E-19
 -1      1948 9.41723E-05-2.82587E-05-2.82501E-05-9.26500E-07 4.60297E-19 3.54008E-19
 -1      1949 9.43303E-05-2.83141E-05-2.82941E-05-1.20539E-06 3.68045E-19 2.93568E-19
 -1      1950 9.49604E-05-2.84855E-05-2.84869E-05-9.25288E-07 9.23832E-20-8.01238E-20
 -1      1951 9.46683E-05-2.84004E-05-2.84020E-05-9.22446E-07 4.36432E-19 1.58389E-19
 -1      1952 9.47304E-05-2.84238E-05-2.84183E-05-1.20396E-06 4.03724E-19 5.36022E-20
 -1      1953 9.54711E-05-2.86339E-05-2.86426E-05-9.38780E-07-2.71411E-19 2.62560E-19
 -1      1954 9.51752E-05-2.85460E-05-2.85567E-05-9.31293E-07-2.19098E-19 5.81678E-20
 -1      1955 9.51489E-05-2.85390E-05-2.85482E-05-1.21589E-06-1.02196E-19 1.08480E-19
 -1      1956 9.59960E-05-2.87933E-05-2.88002E-05-9.54473E-07-1.79188E-19 7.65802E-19
 -1      1957 9.56958E-05-2.87004E-05-2.87136E-05-9.47416E-07-1.93853E-19 6.07731E-19
 -1      1958 9.55876E-05-2.86661E-05-2.86818E-05-1.23772E-06-4.34085E-19 5.66077E-19
 -1      1959 9.65297E-05-2.89667E-05-2.89562E-05-9.53390E-07 2.05362E-19 4.62061E-19
 -1      1960 9.62300E-05-2.88678E-05-2.88708E-05-9.56114E-07 2.36818E-19 7.01508E-19
 -1      1961 9.60477E-05-2.88124E-05-2.88161E-05-1.25459E-06 4.15714E-20 3.83527E-19
 -1      1962 9.70554E-05-2.91545E-05-2.91035E-05-9.05713E-07 3.54419E-19 3.25032E-19
 -1      1963 9.67690E-05-2.90509E-05-2.90237E-05-9.32337E-07 2.42079E-19 4.26647E-19
 -1      1964 9.65261E-05-2.89847E-05-2.89469E-05-1.23879E-06 2.04070E-19 5.68369E-19
 -1      1965 9.75392E-05-2.93513E-05-2.92302E-05-7.70694E-07-1.26457E-19 4.45127E-19
 -1      1966 9.72905E-05-2.92483E-05-2.91633E-05-8.39975E-07 3.40820E-19 1.41499E-19
 -1      1967 9.70108E-05-2.91878E-05-2.90668E-05-1.14876E-06 3.47180E-19 4.21443E-19
 -1      1968 9.79256E-05-2.95434E-05-2.93182E-05-4.99359E-07-1.56682E-19 4.58171E-19
 -1      1969 9.77530E-05-2.94517E-05-2.92754E-05-6.33101E-07-2.45845E-19 5.29901E-19
 -1      1970 9.74770E-05-2.94210E-05-2.91652E-05-9.29887E-07-1.00988E-19 1.55505E-19
 -1      1971 9.81351E-05-2.97041E-05-2.93444E-05-4.23552E-08 3.13898E-20 4.49842E-19
 -1      1972 9.80912E-05-2.96419E-05-2.93401E-05-2.61257E-07 2.33265E-21 7.42877E-19
 -1      1973 9.78809E-05-2.96731E-05-2.92281E-05-5.19637E-07-1.71848E-19 3.00110E-19
 -1      1974 9.80664E-05-2.97909E-05-2.92827E-05 6.34575E-07-1.99185E-21 4.12430E-19
 -1      1975 9.82143E-05-2.97849E-05-2.93332E-05 3.18649E-07 1.52195E-19 4.71413E-19
 -1      1976 9.81567E-05-2.99156E-05-2.92393E-05 1.40142E-07-7.75515E-20 9.34035E-19
 -1      1977 9.76080E-05-2.97445E-05-2.91089E-05 1.52640E-06 3.93346E-19 3.00663E-19
 -1      1978 9.80114E-05-2.98284E-05-2.92292E-05 1.12186E-06 6.11882E-20 3.12607E-19
 -1      1979 9.82146E-05-3.00962E-05-2.91829E-05 1.08086E-06 3.50706E-19 6.39411E-19
 -1      1980 9.66627E-05-2.94957E-05-2.88093E-05 2.55915E-06-1.08440E-19 6.44544E-19
 -1      1981 9.73673E-05-2.97043E-05-2.90075E-05 2.10758E-06 2.24224E-19 4.71438E-19
 -1      1982 9.79477E-05-3.01355E-05-2.90479E-05 2.27450E-06-5.79953E-20 7.86153E-19
 -1      1983 9.51871E-05-2.89846E-05-2.83893E-05 3.56603E-06-7.05449E-19 1.17846E-18
 -1      1984 9.61949E-05-2.93407E-05-2.86611E-05 3.15042E-06-2.37709E-19 1.11640E-18
 -1      1985 9.72523E-05-2.99354E-05-2.88328E-05 3.59675E-06-5.87680E-19 2.11513E-18
 -1      1986 9.32419E-05-2.81950E-05-2.78819E-05 4.29062E-06 1.80575E-19 1.48292E-18
 -1      1987 9.44847E-05-2.86907E-05-2.82051E-05 4.02888E-06-8.26800E-19 1.13825E-18
 -1      1988 9.60671E-05-2.94090E-05-2.85509E-05 4.80338E-06-4.52412E-19 2.39148E-18
 -1      1989 9.10346E-05-2.71953E-05-2.73492E-05 4.44020E-06 2.47353E-19 1.47288E-18
 -1      1990 9.23596E-05-2.77740E-05-2.76828E-05 4.45505E-06 8.64095E-19 1.68335E-18
 -1      1991 9.44309E-05-2.85319E-05-2.82312E-05 5.54861E-06 9.50087E-20 3.22068E-18
 -1      1992 8.89235E-05-2.61615E-05-2.68739E-05 3.79515E-06-1.05992E-19 1.07674E-18
 -1      1993 9.01079E-05-2.67143E-05-2.71638E-05 4.16229E-06 6.17573E-21 9.44667E-19
 -1      1994 9.25368E-05-2.74004E-05-2.79162E-05 5.47241E-06 5.78843E-19 2.77926E-18
 -1      1995 8.73516E-05-2.53489E-05-2.65411E-05 2.33858E-06 2.52224E-19 5.18100E-19
 -1      1996 8.81537E-05-2.57397E-05-2.67329E-05 3.03446E-06 8.22879E-20 1.13196E-18
 -1      1997 9.07405E-05-2.62539E-05-2.76531E-05 4.35345E-06 2.03887E-19 1.29362E-18
 -1      1998 8.67084E-05-2.50011E-05-2.64155E-05 3.27689E-07 6.25031E-19-1.45783E-19
 -1      1999 8.69444E-05-2.51179E-05-2.64698E-05 1.21257E-06 3.20814E-19 1.43493E-19
 -1      2000 8.94799E-05-2.54182E-05-2.74842E-05 2.26546E-06 6.87033E-19 1.41770E-18
 -1      2001 8.71725E-05-2.52352E-05-2.65217E-05-1.76439E-06 4.33284E-19 4.34994E-19
 -1      2002 8.67857E-05-2.50426E-05-2.64271E-05-9.04494E-07 8.77208E-19 4.84597E-19
 -1      2003 8.91126E-05-2.51716E-05-2.74371E-05-3.71288E-07 4.55724E-19 1.34398E-18
 -1      2004 8.86280E-05-2.59776E-05-2.68375E-05-3.43068E-06 1.24297E-18-2.53746E-19
 -1      2005 8.77113E-05-2.55345E-05-2.66140E-05-2.79840E-06 7.65976E-19 2.00839E-21
 -1      2006 8.97500E-05-2.56016E-05-2.75194E-05-2.91560E-06 9.28811E-19 1.47270E-18
 -1      2007 9.07131E-05-2.70019E-05-2.73012E-05-4.33456E-06-4.05768E-19-9.74227E-19
 -1      2008 8.94718E-05-2.64320E-05-2.69937E-05-4.04250E-06 7.00476E-19-4.01113E-19
 -1      2009 9.12007E-05-2.65568E-05-2.77178E-05-4.76459E-06 1.01663E-18 9.36398E-19
 -1      2010 9.29710E-05-2.80414E-05-2.78295E-05-4.41204E-06-8.68564E-19-8.35125E-19
 -1      2011 9.16482E-05-2.74770E-05-2.74938E-05-4.45683E-06-6.59171E-19-8.97074E-19
 -1      2012 9.30666E-05-2.77300E-05-2.80002E-05-5.59002E-06-3.58919E-19 8.17898E-19
 -1      2013 9.50078E-05-2.88933E-05-2.83404E-05-3.83437E-06-1.60207E-19-1.13768E-18
 -1      2014 9.38117E-05-2.84306E-05-2.80277E-05-4.12557E-06-5.08676E-19-1.57095E-18
 -1      2015 9.49197E-05-2.88085E-05-2.83220E-05-5.41213E-06-5.27545E-19-6.27731E-20
 -1      2016 9.65819E-05-2.94646E-05-2.87711E-05-2.88702E-06 2.64708E-19-1.08747E-18
 -1      2017 9.56434E-05-2.91464E-05-2.85173E-05-3.30125E-06-1.87535E-19-1.43830E-18
 -1      2018 9.64468E-05-2.95914E-05-2.86367E-05-4.50786E-06-1.59381E-20-4.24900E-19
 -1      2019 9.76133E-05-2.97585E-05-2.90870E-05-1.84741E-06-8.03154E-19-2.93612E-20
 -1      2020 9.69804E-05-2.95828E-05-2.89087E-05-2.27523E-06 1.84120E-19-4.06629E-19
 -1      2021 9.75018E-05-3.00206E-05-2.89053E-05-3.24708E-06-3.48498E-19-2.54582E-19
 -1      2022 9.81409E-05-2.98329E-05-2.92803E-05-9.12898E-07 3.85069E-19-1.04897E-18
 -1      2023 9.77969E-05-2.97723E-05-2.91776E-05-1.28225E-06-2.12470E-19-4.89659E-19
 -1      2024 9.80809E-05-3.01444E-05-2.91033E-05-1.95412E-06-1.26418E-19 7.01677E-19
 -1      2025 9.82663E-05-2.97614E-05-2.93635E-05-1.84606E-07-1.42394E-19-1.63549E-18
 -1      2026 9.81577E-05-2.97804E-05-2.93252E-05-4.62715E-07 4.51707E-20-1.21801E-18
 -1      2027 9.82639E-05-3.00578E-05-2.92224E-05-8.40664E-07 3.03221E-19-6.64638E-19
 -1      2028 9.81091E-05-2.96092E-05-2.93601E-05 3.13860E-07 2.74057E-19-2.91256E-18
 -1      2029 9.81692E-05-2.96753E-05-2.93700E-05 1.30397E-07 1.91505E-19-2.44974E-18
 -1      2030 9.81605E-05-2.98560E-05-2.92679E-05-2.35528E-09 6.94939E-19-1.88982E-18
 -1      2031 9.77794E-05-2.94245E-05-2.92968E-05 6.06552E-07-4.40528E-19-2.32466E-18
 -1      2032 9.79449E-05-2.95126E-05-2.93382E-05 5.04350E-07-5.58478E-19-3.12781E-18
 -1      2033 9.78764E-05-2.96118E-05-2.92536E-05 5.51288E-07-4.14773E-20-3.73301E-18
 -1      2034 9.73655E-05-2.92379E-05-2.91983E-05 7.38574E-07-6.47145E-19-2.53173E-18
 -1      2035 9.75843E-05-2.93312E-05-2.92568E-05 6.97809E-07-9.44247E-20-2.07602E-18
 -1      2036 9.74979E-05-2.93709E-05-2.91966E-05 8.59934E-07-4.48279E-19-4.08846E-18
 -1      2037 9.69307E-05-2.90667E-05-2.90845E-05 7.57966E-07-1.72041E-19-2.67115E-18
 -1      2038 9.71650E-05-2.91549E-05-2.91491E-05 7.59025E-07-5.03079E-19-2.47124E-18
 -1      2039 9.70878E-05-2.91568E-05-2.91139E-05 9.82328E-07-4.84613E-19-2.85279E-18
 -1      2040 9.65169E-05-2.89185E-05-2.89700E-05 7.05851E-07 1.46857E-18-2.72302E-18
 -1      2041 9.67413E-05-2.89963E-05-2.90331E-05 7.32714E-07 9.71484E-19-2.50039E-18
 -1      2042 9.66879E-05-2.89780E-05-2.90199E-05 9.76918E-07 1.59503E-19-3.54594E-18
 -1      2043 9.61488E-05-2.87951E-05-2.88646E-05 6.12589E-07-2.87102E-19-1.51667E-18
 -1      2044 9.63481E-05-2.88607E-05-2.89213E-05 6.53969E-07 4.06842E-19-1.91167E-18
 -1      2045 9.63233E-05-2.88342E-05-2.89257E-05 8.91956E-07 3.42747E-19-1.39626E-18
 -1      2046 9.58392E-05-2.86953E-05-2.87743E-05 4.97449E-07-7.32037E-19-4.26167E-19
 -1      2047 9.60050E-05-2.87484E-05-2.88216E-05 5.46713E-07-4.66968E-19-1.17242E-18
 -1      2048 9.60068E-05-2.87207E-05-2.88389E-05 7.62205E-07-9.35548E-19 1.49678E-19
 -1      2049 9.55932E-05-2.86168E-05-2.87023E-05 3.70324E-07-2.36102E-20-9.83793E-19
 -1      2050 9.57214E-05-2.86577E-05-2.87388E-05 4.24616E-07-8.93849E-19-7.91973E-19
 -1      2051 9.57432E-05-2.86313E-05-2.87642E-05 6.09388E-07-2.72676E-19-1.10872E-19
 -1      2052 9.54103E-05-2.85577E-05-2.86493E-05 2.35878E-07 3.62694E-19 2.84825E-19
 -1      2053 9.55001E-05-2.85868E-05-2.86748E-05 2.94143E-07 2.27097E-19-1.62574E-19
 -1      2054 9.55311E-05-2.85610E-05-2.87036E-05 4.46174E-07-3.24175E-19-6.64619E-19
 -1      2055 9.52978E-05-2.85314E-05-2.86125E-05 1.13722E-07 5.36432E-19 3.08802E-19
 -1      2056 9.53528E-05-2.85450E-05-2.86302E-05 1.66621E-07 6.60162E-19-1.97546E-19
 -1      2057 9.53846E-05-2.85180E-05-2.86580E-05 2.86688E-07 5.42029E-19 5.11056E-20
 -1      2058 9.52868E-05-2.85016E-05-2.86217E-05 1.45099E-07 2.86962E-19 8.89524E-19
 -1      2059 9.50931E-05-2.80362E-05-2.87391E-05 3.98239E-07-9.06976E-19-5.64124E-19
 -1      2060 9.51393E-05-2.81413E-05-2.87119E-05 3.78896E-07-8.64984E-19-7.55912E-19
 -1      2061 9.51824E-05-2.82363E-05-2.86909E-05 3.40718E-07 3.50633E-19 4.34594E-19
 -1      2062 9.52226E-05-2.83279E-05-2.86677E-05 2.99658E-07-7.32143E-20 2.34097E-18
 -1      2063 9.51792E-05-2.81856E-05-2.87122E-05 4.65386E-07-1.06033E-18 1.13621E-19
 -1      2064 9.52666E-05-2.84371E-05-2.86402E-05 2.04183E-07 3.99113E-19 1.85525E-18
 -1      2065 9.50016E-05-2.78322E-05-2.87883E-05 4.00507E-07-1.21813E-18-1.05260E-18
 -1      2066 9.50484E-05-2.79383E-05-2.87607E-05 4.06020E-07-1.82490E-18 1.29019E-18
 -1      2067 9.50749E-05-2.79876E-05-2.87518E-05 5.15179E-07-1.76199E-18-4.32968E-19
 -1      2068 9.49149E-05-2.76406E-05-2.88342E-05 3.46144E-07 1.05359E-19-2.21290E-18
 -1      2069 9.49577E-05-2.77369E-05-2.88091E-05 3.76441E-07 3.03385E-19-9.16137E-19
 -1      2070 9.49693E-05-2.77885E-05-2.87910E-05 4.96572E-07-9.13262E-19-3.83694E-20
 -1      2071 9.48451E-05-2.74897E-05-2.88697E-05 2.40055E-07-3.76179E-19-2.75185E-18
 -1      2072 9.48776E-05-2.75606E-05-2.88513E-05 2.91938E-07 1.47855E-19-4.13457E-18
 -1      2073 9.48723E-05-2.76075E-05-2.88261E-05 4.08468E-07-3.56289E-19-3.48110E-18
 -1      2074 9.48021E-05-2.74008E-05-2.88897E-05 9.38773E-08-9.51289E-19 3.44158E-19
 -1      2075 9.48192E-05-2.74353E-05-2.88808E-05 1.61305E-07-1.01046E-18-7.11185E-19
 -1      2076 9.47963E-05-2.74684E-05-2.88524E-05 2.58926E-07-9.38723E-19-1.92776E-18
 -1      2077 9.47939E-05-2.73897E-05-2.88908E-05-7.38841E-08-2.48375E-18-7.74828E-19
 -1      2078 9.47919E-05-2.73808E-05-2.88931E-05 5.12264E-11-1.49362E-18 1.66061E-18
 -1      2079 9.47527E-05-2.73910E-05-2.88663E-05 6.44690E-08-2.73281E-18 9.25652E-19
 -1      2080 9.48253E-05-2.74621E-05-2.88724E-05-2.38440E-07-2.99709E-18-4.87729E-18
 -1      2081 9.48027E-05-2.74091E-05-2.88859E-05-1.69584E-07-2.65903E-18-2.92640E-18
 -1      2082 9.47508E-05-2.73899E-05-2.88657E-05-1.49611E-07-3.02565E-18-2.13485E-18
 -1      2083 9.48938E-05-2.76086E-05-2.88377E-05-3.69422E-07-2.46452E-18-4.97408E-19
 -1      2084 9.48531E-05-2.75198E-05-2.88601E-05-3.18973E-07-2.75300E-18-3.45006E-18
 -1      2085 9.47956E-05-2.74698E-05-2.88508E-05-3.49374E-07-2.75051E-18-3.54121E-18
 -1      2086 9.49942E-05-2.78152E-05-2.87906E-05-4.43966E-07-1.64035E-18 2.85340E-18
 -1      2087 9.49396E-05-2.77006E-05-2.88192E-05-4.21781E-07-2.00164E-18 2.53610E-18
 -1      2088 9.48850E-05-2.76246E-05-2.88235E-05-5.01134E-07-1.89161E-18 1.47994E-18
 -1      2089 9.51107E-05-2.80494E-05-2.87388E-05-4.39160E-07-1.10765E-18 6.74285E-19
 -1      2090 9.50514E-05-2.79289E-05-2.87685E-05-4.53770E-07-1.33521E-18 9.14051E-19
 -1      2091 9.50107E-05-2.78379E-05-2.87870E-05-5.74031E-07-6.37396E-19 3.18924E-18
 -1      2092 9.52196E-05-2.82739E-05-2.86886E-05-3.49134E-07-1.71828E-18 3.50973E-18
 -1      2093 9.51698E-05-2.81685E-05-2.87155E-05-4.01515E-07-2.06837E-18 2.64754E-18
 -1      2094 9.51517E-05-2.80788E-05-2.87455E-05-5.45798E-07-1.29449E-18 1.75175E-18
 -1      2095 9.36143E-05-2.73318E-05-2.83619E-05 2.01852E-06 5.98660E-19 2.43285E-18
 -1      2096 9.47082E-05-2.73327E-05-2.88150E-05 3.12265E-06 8.93355E-19 2.84900E-18
 -1      2097 9.54532E-05-2.68340E-05-2.94097E-05 4.52690E-06 1.10145E-18 2.03667E-18
 -1      2098 9.43971E-05-2.71652E-05-2.88272E-05 2.48367E-06 8.21370E-19 1.49227E-18
 -1      2099 6.26780E-05-3.92163E-05-1.03652E-05 4.53826E-05-1.38236E-18 4.53740E-18
 -1      2100 4.76253E-05-4.13193E-05-3.71703E-06 3.93815E-05-2.50383E-18 3.04307E-18
 -1      2101 1.38886E-04-4.06189E-05-4.14846E-05 3.90285E-05 1.63393E-18 4.65614E-18
 -1      2102 1.18243E-04-4.24567E-05-3.29268E-05 3.85629E-05 3.81165E-19 4.50029E-18
 -1      2103 1.23149E-05-3.71315E-05 9.06320E-06 1.25814E-05-2.39880E-18 2.83544E-18
 -1      2104 1.05544E-05-3.54017E-05 9.27225E-06 2.98852E-06-3.01364E-18 2.44115E-18
 -1      2105 9.79532E-05-4.11145E-05-2.43274E-05 4.75849E-05-4.61633E-20 5.04239E-18
 -1      2106 7.82539E-05-4.31750E-05-1.60709E-05 4.29097E-05-1.25403E-18 4.88230E-18
 -1      2107 8.31606E-05-4.81633E-05-1.51018E-05 4.75696E-05-2.11758E-18 4.91509E-18
 -1      2108 8.72781E-05-8.72941E-06-3.37545E-05-1.05231E-05-9.76973E-19-1.91955E-18
 -1      2109 8.79853E-05-9.26449E-06-3.38236E-05-1.21031E-05-1.17499E-18-1.64462E-18
 -1      2110 9.04761E-05-1.30288E-05-3.32200E-05-1.18118E-05-1.30720E-18-1.35439E-18
 -1      2111 8.86887E-05-1.10559E-05-3.33039E-05-9.38564E-06-9.43578E-19-1.83740E-18
 -1      2112 1.67848E-04-3.41314E-05-5.62632E-05 2.66222E-05 2.97150E-18 4.45920E-18
 -1      2113 1.49634E-04-3.50416E-05-4.90145E-05 3.04469E-05 2.98399E-18 4.63666E-18
 -1      2114 1.83190E-04-2.72068E-05-6.57267E-05 1.14295E-05 3.63970E-18 2.73570E-18
 -1      2115 1.72525E-04-2.78075E-05-6.14241E-05 1.80916E-05 3.30915E-18 3.73457E-18
 -1      2116 1.86298E-04-2.29559E-05-6.90971E-05-1.32122E-06 3.61387E-18 6.55339E-19
 -1      2117 1.84309E-04-2.30721E-05-6.81742E-05 7.02312E-06 4.09710E-18 1.97126E-18
 -1      2118 1.75188E-04-2.29660E-05-6.47663E-05-9.65807E-06 3.50079E-18-1.06896E-18
 -1      2119 1.82770E-04-2.28984E-05-6.75535E-05-3.56729E-06 3.14927E-18-3.78730E-19
 -1      2120 1.62428E-04-3.13154E-05-5.58236E-05-2.42172E-05 3.50952E-18-1.61656E-18
 -1      2121 1.75868E-04-3.03464E-05-6.15176E-05-1.73573E-05 2.98749E-18-1.21888E-18
 -1      2122 1.35907E-04-3.93348E-05-4.16383E-05-3.43591E-05 3.22084E-18-1.30867E-18
 -1      2123 1.54737E-04-3.83137E-05-4.91719E-05-3.14491E-05 3.38432E-18-7.57671E-19
 -1      2124 1.04801E-04-4.42960E-05-2.65155E-05-4.08476E-05 3.79301E-18-7.34378E-19
 -1      2125 1.24516E-04-4.12502E-05-3.51687E-05-4.34530E-05 3.75744E-18-4.81115E-19
 -1      2126 1.39414E-04-5.10020E-05-3.74569E-05-2.67749E-05 1.92880E-18 6.52639E-19
 -1      2127 6.24608E-05-4.28990E-05-9.59781E-06-4.13776E-05 3.33731E-18-2.46592E-18
 -1      2128 8.17500E-05-4.08822E-05-1.76733E-05-4.80024E-05 3.60667E-18-1.60428E-18
 -1      2129 3.28673E-05-3.91903E-05 1.51627E-06-3.35536E-05 2.70500E-18-3.37754E-18
 -1      2130 4.55921E-05-3.78212E-05-3.99459E-06-4.05187E-05 3.32249E-18-4.06788E-18
 -1      2131 6.51973E-05-4.32059E-05-9.69075E-06-4.73208E-05 1.43276E-18-2.31176E-18
 -1      2132 1.34777E-05-3.53187E-05 8.06928E-06-1.37524E-05 9.91452E-19-3.09294E-18
 -1      2133 1.84806E-05-3.28414E-05 5.34571E-06-2.44394E-05 2.12012E-18-2.34205E-18
 -1      2134 1.46032E-05-3.80014E-05 8.50221E-06 7.30394E-06 1.43149E-19-3.64563E-18
 -1      2135 1.11386E-05-3.61244E-05 9.29929E-06-1.61405E-06 1.01543E-18-3.83113E-18
 -1      2136 3.49736E-05-4.05404E-05 1.21093E-06 2.61679E-05-7.82235E-19-4.24787E-18
 -1      2137 2.36686E-05-4.19861E-05 5.97478E-06 1.64736E-05 2.72745E-19-3.52747E-18
 -1      2138 7.37274E-05-4.72639E-05-1.22032E-05 3.68239E-05-2.69187E-18-5.85194E-18
 -1      2139 5.47103E-05-4.80829E-05-4.65447E-06 2.99879E-05-1.07531E-18-5.29470E-18
 -1      2140 1.20171E-04-5.24123E-05-2.92024E-05 3.66411E-05-2.95953E-18-5.11777E-18
 -1      2141 9.54946E-05-5.26771E-05-1.99634E-05 3.26656E-05-2.70712E-18-5.00851E-18
 -1      2142 1.66195E-04-5.36204E-05-4.75791E-05 2.48854E-05-3.42244E-18-3.62107E-18
 -1      2143 1.39789E-04-5.31428E-05-3.79407E-05 2.59251E-05-3.36018E-18-4.37577E-18
 -1      2144 1.92752E-04-4.65186E-05-6.15759E-05 3.96439E-06-2.73888E-18-2.02102E-18
 -1      2145 1.77524E-04-4.96272E-05-5.44290E-05 1.04826E-05-2.90850E-18-2.83333E-18
 -1      2146 2.06697E-04-3.58468E-05-7.08682E-05-1.56949E-06-2.90278E-18-2.23468E-18
 -1      2147 1.94241E-04-3.55645E-05-6.67466E-05-8.02889E-07-2.49790E-18-2.34586E-18
 -1      2148 2.07637E-04-3.45622E-05-7.18833E-05-2.06979E-06-3.61641E-18-2.16819E-18
 -1      2149 2.09676E-04-3.42815E-05-7.28121E-05 1.72873E-06-3.33053E-18-2.83131E-18
 -1      2150 1.92320E-04-4.12588E-05-6.35513E-05-5.08611E-06-2.98981E-18-2.05490E-18
 -1      2151 2.06150E-04-4.01013E-05-6.88874E-05-9.61239E-07-3.47411E-18-2.59743E-18
 -1      2152 1.66525E-04-5.25474E-05-4.91308E-05-1.41145E-05-4.14877E-18-9.35124E-19
 -1      2153 1.87160E-04-5.06673E-05-5.72729E-05-1.12475E-05-3.72124E-18-2.32680E-18
 -1      2154 1.28840E-04-5.69237E-05-3.19838E-05-2.66822E-05-1.74658E-18 8.22893E-19
 -1      2155 1.54073E-04-5.51742E-05-4.17524E-05-2.75132E-05-2.75243E-18-7.53859E-20
 -1      2156 8.11339E-05-5.28609E-05-1.36521E-05-3.30086E-05-1.95072E-18 2.01869E-18
 -1      2157 1.06581E-04-5.44758E-05-2.27182E-05-3.77498E-05-1.76818E-18 2.12161E-18
 -1      2158 3.92202E-05-4.56575E-05 7.60042E-07-2.50041E-05-2.63724E-18 6.75297E-19
 -1      2159 5.53152E-05-4.43887E-05-5.89780E-06-3.32983E-05-2.57583E-18 1.50444E-18
 -1      2160 1.72001E-05-3.66575E-05 7.06607E-06-1.10530E-05-1.83594E-18 1.23582E-18
 -1      2161 2.59739E-05-3.90059E-05 4.32099E-06-2.00650E-05-1.74446E-18 1.07848E-18
 -1      2162 2.79667E-05-3.40473E-05 1.88356E-06 3.30527E-05-2.57074E-18 5.94405E-19
 -1      2163 1.95521E-05-3.79872E-05 6.37908E-06 2.26721E-05-3.03682E-18 1.06387E-18
 -1      2164 1.58122E-04-2.75811E-05-5.63843E-05 1.49889E-05-2.23066E-18-1.46293E-18
 -1      2165 1.42177E-04-3.02843E-05-4.83773E-05 2.02555E-05-9.47406E-19-5.27066E-19
 -1      2166 1.48734E-04-4.09425E-05-4.70821E-05 2.55601E-05-1.65256E-18-1.06234E-18
 -1      2167 1.58411E-04-4.80467E-05-4.78247E-05 2.47338E-05-2.05109E-18-3.56982E-18
 -1      2168 9.71464E-05-2.43013E-05-3.12920E-05-1.00025E-05-1.37492E-18 1.06827E-18
 -1      2169 1.48284E-04-4.55254E-05-4.34571E-05 2.08044E-05 9.89758E-19 3.66723E-18
 -1      2170 9.63177E-05-2.30990E-05-3.14461E-05-1.03807E-05-1.44499E-18 2.21856E-19
 -1      2171 1.40561E-04-2.62666E-05-4.95021E-05-1.24056E-05-1.14646E-18 7.47612E-19
 -1      2172 1.57556E-04-2.40545E-05-5.75081E-05-6.14848E-06-1.96300E-18 6.75297E-19
 -1      2173 1.45361E-04-3.38505E-05-4.87747E-05-2.14298E-05-1.27055E-18 1.52222E-18
 -1      2174 9.53129E-05-2.84741E-05-2.86460E-05-2.04208E-07-7.23850E-20-9.24991E-20
 -1      2175 9.52840E-05-2.83969E-05-2.86658E-05 3.22950E-07 4.08012E-19 1.99766E-18
 -1      2176 1.77413E-05-2.64191E-05 3.10688E-06 2.21030E-05-1.92679E-18 2.15739E-18
 -1      2177 9.52830E-05-2.84104E-05-2.86576E-05-2.54190E-07-8.47491E-19 1.53216E-18
 -1      2178 9.52602E-05-2.83462E-05-2.86770E-05-3.16844E-07-1.38440E-18 4.61206E-18
 -1      2179 9.52667E-05-2.82724E-05-2.87125E-05-4.64276E-07-1.46134E-18 4.76565E-18
 -1      2180 9.53609E-05-2.84138E-05-2.86895E-05-3.73346E-07-1.43623E-18 3.08480E-18
 -1      2181 4.57516E-05-3.62600E-05-4.33514E-06 4.24091E-05-2.32722E-18 3.03831E-18
 -1      2182 1.19737E-04-5.27894E-05-2.84704E-05 3.84869E-05-1.55833E-18 3.91986E-18
 -1      2183 1.63674E-05-2.68230E-05 3.82356E-06-6.87047E-06-5.78524E-19 1.40480E-18
 -1      2184 3.98044E-05-3.74126E-05-1.82841E-06-2.99448E-05-2.10488E-19 4.73280E-19
 -1      2185 8.23212E-05-5.26974E-05-1.28427E-05-3.84162E-05-8.95737E-19 8.80094E-19
 -1      2186 1.31339E-04-6.59078E-05-2.83211E-05-2.59743E-05-7.22943E-19-2.57498E-19
 -1      2187 1.65104E-04-6.16662E-05-4.37406E-05-4.99800E-06-2.17762E-18-2.35390E-18
 -1      2188 1.79842E-04-4.51125E-05-5.64952E-05 1.14795E-05-3.57511E-18-3.14673E-18
 -1      2189 1.84974E-04-2.93810E-05-6.48983E-05 8.70323E-06-3.89805E-18-2.38101E-18
 -1      2190 1.82111E-04-2.49014E-05-6.56929E-05-4.61884E-06-3.00612E-18-1.36986E-18
 -1      2191 1.80186E-04-3.77305E-05-5.96403E-05-1.30640E-05-1.87067E-18 6.06052E-19
 -1      2192 1.72515E-04-5.72051E-05-4.84825E-05 3.90154E-07-1.84367E-18-7.28872E-19
 -1      2193 1.42736E-04-6.36977E-05-3.37669E-05 2.23848E-05-6.53486E-19-2.33569E-18
 -1      2194 9.93852E-05-5.80583E-05-1.82018E-05 3.60406E-05-3.05779E-19-4.08873E-18
 -1      2195 5.42170E-05-4.38907E-05-5.16579E-06 3.44805E-05 5.63277E-19-4.96488E-18
 -1      2196 2.23473E-05-3.04615E-05 2.65745E-06 1.75173E-05 6.30616E-19-3.87433E-18
 -1      2197 3.09828E-05-3.09118E-05-5.12409E-07-3.45747E-05 1.33365E-18-3.63335E-18
 -1      2198 1.06312E-04-5.21291E-05-2.31412E-05-4.31763E-05 2.39202E-18-3.19755E-20
 -1      2199 1.56069E-04-3.86116E-05-4.96217E-05-1.23627E-05 2.76413E-18 1.41031E-19
 -1      2200 1.61307E-04-2.13108E-05-5.91735E-05-2.05063E-06 3.55203E-18-4.08905E-19
 -1      2201 1.61361E-04-1.13530E-05-6.34059E-05 1.10406E-06 4.13098E-18-7.64288E-19
 -1      2202 1.61613E-04-2.98379E-05-5.55205E-05 7.55119E-06 2.86827E-18 2.70796E-18
 -1      2203 1.64683E-04-1.59929E-05-6.26227E-05 6.79607E-07 4.17672E-18 1.72562E-18
 -1      2204 1.37348E-05-2.43889E-05 3.97963E-06-8.70330E-06 2.68668E-19-3.72144E-18
 -1      2205 1.61052E-04-4.08179E-05-5.17974E-05-2.30806E-05-1.68178E-18 1.15726E-18
 -1      2206 8.81618E-05-1.11698E-05-3.30361E-05-3.65199E-06-2.17751E-19-1.95479E-18
 -1      2207 8.83946E-05-1.14413E-05-3.30171E-05-4.79158E-06-4.51136E-19-2.00784E-18
 -1      2208 8.87448E-05-1.19273E-05-3.29672E-05-5.80967E-06-5.86051E-19-2.00061E-18
 -1      2209 8.91465E-05-1.23994E-05-3.29373E-05-6.98098E-06-8.35821E-19-1.90815E-18
 -1      2210 8.99122E-05-1.38066E-05-3.26159E-05-4.88934E-06-4.40870E-19-1.82905E-18
 -1      2211 8.78171E-05-1.07079E-05-3.30809E-05 6.15794E-07 4.15056E-19-1.89412E-18
 -1      2212 8.78131E-05-1.07032E-05-3.30812E-05-4.93038E-07 2.71518E-19-1.90130E-18
 -1      2213 8.79962E-05-1.09336E-05-3.30613E-05 2.75309E-06 6.97962E-19-1.76831E-18
 -1      2214 8.78825E-05-1.08000E-05-3.30713E-05 1.63582E-06 4.99390E-19-1.84329E-18
 -1      2215 8.91308E-05-1.27471E-05-3.27389E-05 1.04806E-06 4.23522E-19-1.78187E-18
 -1      2216 8.84274E-05-1.14831E-05-3.30137E-05 4.87848E-06 9.82358E-19-1.66107E-18
 -1      2217 8.81897E-05-1.12052E-05-3.30331E-05 3.75688E-06 8.09970E-19-1.76083E-18
 -1      2218 8.93948E-05-1.31045E-05-3.26974E-05 3.01327E-06 7.15045E-19-1.65291E-18
 -1      2219 8.92020E-05-1.24694E-05-3.29312E-05 7.06360E-06 1.34589E-18-1.21697E-18
 -1      2220 8.87868E-05-1.19813E-05-3.29624E-05 5.89249E-06 1.10033E-18-1.42299E-18
 -1      2221 8.99490E-05-1.38558E-05-3.26103E-05 4.96262E-06 1.00528E-18-1.40560E-18
 -1      2222 9.04639E-05-1.40822E-05-3.27992E-05 9.21154E-06 1.64616E-18-8.32130E-19
 -1      2223 8.97882E-05-1.32711E-05-3.28471E-05 8.03376E-06 1.47033E-18-1.08177E-18
 -1      2224 9.08806E-05-1.51204E-05-3.24614E-05 6.85505E-06 1.31772E-18-1.00521E-18
 -1      2225 9.24477E-05-1.66815E-05-3.25727E-05 1.10488E-05 1.88617E-18-1.77453E-19
 -1      2226 9.13606E-05-1.53060E-05-3.26589E-05 1.00300E-05 1.75200E-18-5.46310E-19
 -1      2227 9.22971E-05-1.70808E-05-3.22149E-05 8.51454E-06 1.59241E-18-5.36049E-19
 -1      2228 9.54738E-05-2.08133E-05-3.20913E-05 1.16983E-05 1.76111E-18 8.94599E-19
 -1      2229 9.37946E-05-1.84736E-05-3.23186E-05 1.14635E-05 1.80687E-18 2.57908E-19
 -1      2230 9.43269E-05-2.00339E-05-3.17902E-05 9.47432E-06 1.65784E-18 6.49899E-20
 -1      2231 9.74733E-05-2.45843E-05-3.13012E-05 9.84295E-06 1.58517E-18 2.06000E-18
 -1      2232 9.62439E-05-2.22191E-05-3.17218E-05 1.10877E-05 1.65696E-18 1.38189E-18
 -1      2233 9.57865E-05-2.31876E-05-3.11122E-05 8.78618E-06 1.60376E-18 8.45987E-19
 -1      2234 9.62831E-05-2.56582E-05-3.02743E-05 6.87581E-06 1.41232E-18 1.83525E-18
 -1      2235 1.67875E-04-2.93278E-05-5.97703E-05-1.43122E-05-1.79317E-18 5.03773E-19
 -1      2236 1.68638E-04-2.39961E-05-6.18144E-05-3.16106E-06-2.54618E-18-4.20393E-19
 -1      2237 1.52413E-04-6.33436E-05-3.81534E-05 4.75011E-06-3.02655E-19-3.62943E-18
 -1      2238 1.46557E-04-6.37789E-05-3.53252E-05-4.26616E-06 5.35219E-19-2.43141E-18
 -1      2239 9.58887E-05-2.50884E-05-3.02989E-05-6.18626E-06-1.17448E-18-1.91049E-19
 -1      2240 9.52391E-05-2.58367E-05-2.97572E-05-4.26932E-06-1.17840E-18-2.61834E-19
 -1      2241 1.49907E-04-4.47592E-05-4.54488E-05 1.04100E-05 1.02713E-18 1.89905E-18
 -1      2242 1.41675E-04-5.10114E-05-3.88720E-05 1.66813E-05-1.30893E-19 2.64804E-18
 -1      2243 6.02741E-05-3.67464E-05-9.94650E-06 4.76480E-05-1.45647E-18 4.61358E-18
 -1      2244 4.15004E-05-2.84463E-05-5.11684E-06 3.91479E-05-1.73557E-18 2.40621E-18
 -1      2245 9.51171E-05-2.65222E-05-2.93428E-05-2.92080E-06-1.14081E-18-1.87846E-19
 -1      2246 9.46588E-05-2.68930E-05-2.90418E-05-1.85308E-06-8.86584E-19-2.43714E-19
 -1      2247 9.53274E-05-2.53456E-05-2.99969E-05-4.26694E-06-1.17394E-18-6.07449E-19
 -1      2248 9.44665E-05-2.72206E-05-2.87815E-05-9.94365E-07-8.66590E-19-2.20307E-19
 -1      2249 9.42167E-05-2.74351E-05-2.86185E-05-3.81426E-07-8.87505E-19-4.79509E-19
 -1      2250 9.50357E-05-2.66849E-05-2.93072E-05-1.88516E-06-9.54652E-19-5.49531E-19
 -1      2251 9.40700E-05-2.76209E-05-2.84557E-05 1.61762E-07-7.56258E-19-5.38715E-19
 -1      2252 9.39832E-05-2.77681E-05-2.83753E-05 5.17412E-07-6.83899E-19-6.10562E-19
 -1      2253 9.47333E-05-2.74104E-05-2.88649E-05-3.56235E-07-1.03351E-18-5.74415E-19
 -1      2254 9.39122E-05-2.78693E-05-2.82915E-05 8.10444E-07-6.24586E-19-5.86692E-19
 -1      2255 9.39407E-05-2.79743E-05-2.82681E-05 9.90838E-07-4.79627E-19-5.92150E-19
 -1      2256 9.45503E-05-2.78384E-05-2.86017E-05 5.61775E-07-7.44521E-19-4.84126E-19
 -1      2257 9.39268E-05-2.80407E-05-2.82305E-05 1.15303E-06-4.13768E-19-5.38403E-19
 -1      2258 9.40236E-05-2.81217E-05-2.82403E-05 1.24345E-06-3.75734E-19-5.08634E-19
 -1      2259 9.44866E-05-2.80883E-05-2.84645E-05 1.07276E-06-5.29384E-19-5.37029E-19
 -1      2260 9.40516E-05-2.81648E-05-2.82345E-05 1.32848E-06-4.97243E-19-4.18957E-19
 -1      2261 9.41911E-05-2.82289E-05-2.82659E-05 1.37210E-06-5.78365E-19-5.38756E-19
 -1      2262 9.45149E-05-2.82442E-05-2.84076E-05 1.35528E-06-4.00410E-19-6.43283E-19
 -1      2263 9.42487E-05-2.82552E-05-2.82824E-05 1.41938E-06-6.10951E-19-3.85768E-19
 -1      2264 9.44160E-05-2.83056E-05-2.83290E-05 1.44652E-06-5.48135E-19-3.55688E-19
 -1      2265 9.46091E-05-2.83364E-05-2.84068E-05 1.51102E-06-5.34525E-19-2.41380E-19
 -1      2266 9.44942E-05-2.83180E-05-2.83621E-05 1.48561E-06-4.41465E-19-4.87761E-19
 -1      2267 9.46829E-05-2.83567E-05-2.84206E-05 1.51960E-06-2.54780E-19-6.11571E-19
 -1      2268 9.47492E-05-2.83807E-05-2.84467E-05 1.61412E-06-5.44583E-19-1.05939E-19
 -1      2269 9.47758E-05-2.83560E-05-2.84674E-05 1.57429E-06-2.93475E-19-7.89758E-19
 -1      2270 9.49867E-05-2.83844E-05-2.85373E-05 1.63496E-06-3.21942E-19-7.07005E-19
 -1      2271 9.49214E-05-2.83842E-05-2.85184E-05 1.72178E-06-4.91530E-19-4.58601E-19
 -1      2272 9.50968E-05-2.83686E-05-2.86002E-05 1.73132E-06-3.92027E-19-6.75224E-19
 -1      2273 9.53456E-05-2.83870E-05-2.86879E-05 1.84617E-06-5.89095E-19-3.02881E-19
 -1      2274 9.51220E-05-2.83467E-05-2.86203E-05 1.88729E-06-4.31935E-19-5.58298E-19
 -1      2275 9.54574E-05-2.83533E-05-2.87619E-05 1.99880E-06-7.00356E-19-1.42108E-19
 -1      2276 9.57326E-05-2.83602E-05-2.88627E-05 2.17709E-06-6.67063E-19 7.30711E-21
 -1      2277 9.53406E-05-2.82619E-05-2.87496E-05 2.15486E-06-4.94896E-19-3.59855E-19
 -1      2278 9.58485E-05-2.83021E-05-2.89523E-05 2.41202E-06-9.33167E-19 4.30031E-19
 -1      2279 9.61738E-05-2.82958E-05-2.90756E-05 2.68449E-06-6.81892E-19 1.14606E-21
 -1      2280 9.55638E-05-2.81222E-05-2.89046E-05 2.56271E-06-7.17207E-19 1.68049E-19
 -1      2281 9.62851E-05-2.82028E-05-2.91833E-05 3.02967E-06-4.75865E-19-2.88519E-20
 -1      2282 9.66769E-05-2.81795E-05-2.93360E-05 3.42862E-06-2.54050E-19-2.44936E-19
 -1      2283 9.57852E-05-2.79063E-05-2.90910E-05 3.16770E-06-7.16491E-19 5.10607E-19
 -1      2284 9.67687E-05-2.80367E-05-2.94640E-05 3.91825E-06 3.79072E-20-1.37683E-19
 -1      2285 9.72452E-05-2.79913E-05-2.96539E-05 4.48393E-06 2.99074E-19-6.00856E-20
 -1      2286 9.59829E-05-2.75849E-05-2.93114E-05 4.03157E-06-5.51779E-20 7.64281E-19
 -1      2287 9.72929E-05-2.77802E-05-2.98020E-05 5.15931E-06 4.81738E-19-1.28899E-19
 -1      2288 9.78738E-05-2.77101E-05-3.00364E-05 5.93882E-06 1.11607E-18 7.12519E-20
 -1      2289 9.61190E-05-2.71206E-05-2.95652E-05 5.22762E-06 1.58929E-19 6.70054E-19
 -1      2290 9.78411E-05-2.74133E-05-3.01991E-05 6.84725E-06 1.06531E-18-4.88127E-19
 -1      2291 9.85551E-05-2.73297E-05-3.04824E-05 7.88650E-06 1.03109E-18-5.54115E-19
 -1      2292 9.61349E-05-2.64755E-05-2.98429E-05 6.83902E-06 6.87197E-19-2.10179E-19
 -1      2293 9.83953E-05-2.69267E-05-3.06509E-05 9.13528E-06 1.09749E-18-9.78827E-19
 -1      2294 9.93018E-05-2.68704E-05-3.09908E-05 1.05446E-05 8.52975E-19-8.40364E-19
 -1      2295 9.59454E-05-2.56188E-05-3.01238E-05 9.01706E-06 8.35572E-19-7.82692E-19
 -1      2296 9.89933E-05-2.64648E-05-3.11113E-05 1.20618E-05 6.95780E-19-6.11787E-19
 -1      2297 1.00101E-04-2.65893E-05-3.14502E-05 1.36492E-05 5.09080E-19-6.51234E-19
 -1      2298 9.54840E-05-2.46391E-05-3.03346E-05 1.17855E-05 7.80983E-19-6.80568E-19
 -1      2299 9.97422E-05-2.63824E-05-3.14656E-05 1.54764E-05 1.63968E-19-3.74037E-19
 -1      2300 1.01274E-04-2.70261E-05-3.17602E-05 1.71131E-05-6.72415E-20-2.47719E-19
 -1      2301 9.48113E-05-2.38994E-05-3.03581E-05 1.50974E-05 2.66952E-19-1.74019E-19
 -1      2302 1.01221E-04-2.75382E-05-3.15748E-05 1.91588E-05-1.31147E-19-2.34829E-19
 -1      2303 1.03646E-04-2.94112E-05-3.17406E-05 2.03635E-05 3.02268E-19-1.67383E-19
 -1      2304 9.42998E-05-2.41910E-05-3.00217E-05 1.89491E-05 1.70684E-19-5.16411E-19
 -1      2305 1.04888E-04-3.16726E-05-3.12663E-05 2.23013E-05 7.25854E-19 1.26724E-20
 -1      2306 1.09093E-04-3.58591E-05-3.12755E-05 2.21376E-05 1.32566E-18 3.68889E-19
 -1      2307 9.51559E-05-2.72730E-05-2.91107E-05 2.31331E-05 6.55544E-19-1.48323E-19
 -1      2308 1.13511E-04-4.11932E-05-3.06662E-05 2.29111E-05 1.57066E-18 4.04564E-19
 -1      2309 1.20506E-04-4.81902E-05-3.08367E-05 1.99682E-05 1.61127E-18 2.40690E-19
 -1      2310 1.00081E-04-3.58236E-05-2.76181E-05 2.68340E-05 1.34403E-18 2.63904E-20
 -1      2311 1.29690E-04-5.61565E-05-3.10612E-05 1.73867E-05 1.90683E-18 8.33057E-19
 -1      2312 1.38138E-04-6.20746E-05-3.25545E-05 1.09600E-05 1.90000E-18 1.08198E-18
 -1      2313 1.12606E-04-5.08335E-05-2.66259E-05 2.75512E-05 1.98396E-18 6.26063E-19
 -1      2314 1.32235E-04-5.63643E-05-3.24259E-05-1.34560E-05 1.48718E-18-1.72933E-18
 -1      2315 1.24470E-04-4.93612E-05-3.17918E-05-1.87991E-05 1.55658E-18-7.93379E-19
 -1      2316 1.16935E-04-4.20911E-05-3.19985E-05-2.03360E-05 1.07774E-18-7.65630E-19
 -1      2317 1.11288E-04-3.63933E-05-3.18824E-05-2.20638E-05 3.81059E-19-1.06448E-19
 -1      2318 1.09363E-04-4.41318E-05-2.81810E-05-2.58656E-05 1.74415E-18-9.99022E-19
 -1      2319 1.08422E-04-3.28729E-05-3.23233E-05-2.09003E-05 1.80736E-19 2.21717E-19
 -1      2320 1.05113E-04-3.00343E-05-3.21260E-05-2.03717E-05 8.16897E-19 6.02555E-19
 -1      2321 9.99457E-05-3.18686E-05-2.92580E-05-2.45510E-05 9.32266E-19-9.56499E-19
 -1      2322 1.04368E-04-2.87781E-05-3.23405E-05-1.84390E-05 5.60286E-19 1.05311E-18
 -1      2323 1.02253E-04-2.75905E-05-3.20053E-05-1.69977E-05 1.02677E-18 6.53950E-19
 -1      2324 9.67789E-05-2.62500E-05-3.02281E-05-2.08883E-05 4.87934E-19-8.35274E-19
 -1      2325 1.02245E-04-2.74525E-05-3.20007E-05-1.50650E-05 3.92845E-19 3.55274E-19
 -1      2326 1.00752E-04-2.70473E-05-3.16077E-05-1.34425E-05 1.70012E-19-9.88808E-19
 -1      2327 9.62488E-05-2.46915E-05-3.06461E-05-1.69451E-05 3.29901E-19-9.70427E-19
 -1      2328 1.00880E-04-2.73099E-05-3.14783E-05-1.17479E-05 2.36613E-19-1.26560E-18
 -1      2329 9.97390E-05-2.72189E-05-3.10977E-05-1.02863E-05-1.07798E-20-9.06897E-19
 -1      2330 9.64555E-05-2.48756E-05-3.06532E-05-1.33157E-05-1.17025E-19-1.36759E-18
 -1      2331 9.98053E-05-2.75529E-05-3.09190E-05-8.90135E-06-8.19792E-19-8.84991E-19
 -1      2332 9.89038E-05-2.75632E-05-3.05870E-05-7.71242E-06-2.04985E-18-1.27667E-18
 -1      2333 9.66894E-05-2.56189E-05-3.04401E-05-1.02302E-05-1.72944E-19-1.55970E-18
 -1      2334 9.88805E-05-2.78477E-05-3.04042E-05-6.62730E-06-1.92923E-18-9.88574E-19
 -1      2335 9.81617E-05-2.78758E-05-3.01314E-05-5.71081E-06-1.36490E-18-3.01003E-19
 -1      2336 9.67579E-05-2.63997E-05-3.01418E-05-7.73676E-06-1.74361E-18-1.77144E-18
 -1      2337 9.80661E-05-2.80941E-05-2.99581E-05-4.84353E-06-7.98027E-19 1.13744E-19
 -1      2338 9.74811E-05-2.81148E-05-2.97337E-05-4.13248E-06-4.21387E-19 8.41645E-19
 -1      2339 9.66658E-05-2.70504E-05-2.98279E-05-5.74915E-06-4.91655E-19 5.75970E-19
 -1      2340 9.73659E-05-2.82535E-05-2.95964E-05-3.52087E-06-3.31438E-19 7.29879E-19
 -1      2341 9.69329E-05-2.82625E-05-2.94326E-05-3.02346E-06-2.10650E-19 5.27823E-19
 -1      2342 9.64733E-05-2.75295E-05-2.95457E-05-4.23409E-06-2.17131E-19 1.60477E-18
 -1      2343 9.68075E-05-2.83508E-05-2.93213E-05-2.56694E-06 2.72926E-19 1.04480E-18
 -1      2344 9.64748E-05-2.83502E-05-2.91972E-05-2.20182E-06 1.74872E-18 1.11193E-18
 -1      2345 9.62453E-05-2.78474E-05-2.93139E-05-3.12616E-06 3.92096E-19 1.20196E-18
 -1      2346 9.63563E-05-2.84030E-05-2.91100E-05-1.86127E-06 1.05478E-18 1.54383E-18
 -1      2347 9.61035E-05-2.83956E-05-2.90177E-05-1.59116E-06-2.51739E-19 1.13191E-18
 -1      2348 9.60148E-05-2.80563E-05-2.91267E-05-2.29460E-06 1.14750E-18 4.45335E-19
 -1      2349 9.59978E-05-2.84235E-05-2.89511E-05-1.33440E-06-1.62782E-18 1.34047E-18
 -1      2350 9.58076E-05-2.84112E-05-2.88836E-05-1.13011E-06-1.75016E-18 1.21099E-18
 -1      2351 9.58017E-05-2.81855E-05-2.89802E-05-1.66819E-06-3.64165E-19 9.90111E-19
 -1      2352 9.57162E-05-2.84230E-05-2.88338E-05-9.31766E-07-4.73255E-19 1.12817E-18
 -1      2353 9.55757E-05-2.84069E-05-2.87857E-05-7.73126E-07-5.05705E-19 9.66690E-19
 -1      2354 9.56135E-05-2.82574E-05-2.88685E-05-1.18943E-06-1.63267E-18 1.43403E-18
 -1      2355 9.55200E-05-2.84201E-05-2.87527E-05-6.25795E-07-1.11676E-18 2.13768E-18
 -1      2356 9.54176E-05-2.84057E-05-2.87173E-05-4.96384E-07-1.48075E-18 2.61633E-18
 -1      2357 9.53721E-05-2.83367E-05-2.87286E-05-5.51870E-07-9.93000E-19 5.78990E-18
 -1      2358 9.54749E-05-2.82996E-05-2.87887E-05-8.32463E-07 3.01857E-20 2.47382E-18
 -1      2359 9.37384E-05-2.78310E-05-2.82417E-05-7.45615E-07 7.28908E-19 3.09835E-19
 -1      2360 9.37568E-05-2.77164E-05-2.82852E-05-4.98913E-07 8.82256E-19 4.78650E-19
 -1      2361 9.38754E-05-2.75948E-05-2.84008E-05-1.00312E-07 8.70711E-19 4.53855E-19
 -1      2362 9.40410E-05-2.74408E-05-2.85116E-05 3.51001E-07 8.22796E-19 6.25102E-19
 -1      2363 9.44664E-05-2.76321E-05-2.86558E-05-1.22007E-07 9.17615E-19 2.37350E-19
 -1      2364 9.42351E-05-2.72207E-05-2.87140E-05 1.02612E-06 7.17535E-19 5.84454E-19
 -1      2365 9.45885E-05-2.69780E-05-2.89371E-05 1.83619E-06 6.83718E-19 6.63948E-19
 -1      2366 9.47417E-05-2.71265E-05-2.89932E-05 1.05435E-06 8.62690E-19 1.85563E-19
 -1      2367 9.37682E-05-2.80011E-05-2.81822E-05-1.09511E-06 5.93699E-19 7.08933E-20
 -1      2368 9.36937E-05-2.79089E-05-2.81839E-05-9.69200E-07 6.03707E-19 1.68285E-19
 -1      2369 9.43321E-05-2.79373E-05-2.84645E-05-8.13911E-07 8.45975E-19 6.92044E-20
 -1      2370 9.39100E-05-2.81329E-05-2.81869E-05-1.26717E-06 2.97105E-19-9.95808E-20
 -1      2371 9.37795E-05-2.80556E-05-2.81627E-05-1.21105E-06 5.41044E-19 9.69408E-20
 -1      2372 9.43185E-05-2.81342E-05-2.83716E-05-1.19809E-06 5.99305E-19 3.00456E-19
 -1      2373 9.41234E-05-2.82396E-05-2.82329E-05-1.33965E-06 2.42300E-19 2.67224E-20
 -1      2374 9.39603E-05-2.81732E-05-2.81928E-05-1.32060E-06-2.54854E-21-2.01524E-19
 -1      2375 9.43930E-05-2.82665E-05-2.83448E-05-1.39537E-06 3.06537E-19-5.34837E-20
 -1      2376 9.43824E-05-2.83297E-05-2.83054E-05-1.36441E-06 4.94844E-19 2.22514E-20
 -1      2377 9.42005E-05-2.82711E-05-2.82556E-05-1.36107E-06 5.61730E-19 5.46586E-20
 -1      2378 9.45284E-05-2.83580E-05-2.83621E-05-1.48755E-06 3.14260E-19-4.73535E-19
 -1      2379 9.46726E-05-2.84106E-05-2.83952E-05-1.37510E-06 2.39646E-19 1.76279E-19
 -1      2380 9.44787E-05-2.83563E-05-2.83392E-05-1.37404E-06 4.32102E-19 2.31575E-19
 -1      2381 9.47064E-05-2.84242E-05-2.84091E-05-1.52973E-06 2.96970E-19-5.96776E-20
 -1      2382 9.49881E-05-2.84905E-05-2.84962E-05-1.39131E-06 1.61472E-19 5.18885E-19
 -1      2383 9.47846E-05-2.84365E-05-2.84363E-05-1.38539E-06 1.63364E-19 3.11953E-19
 -1      2384 9.49169E-05-2.84779E-05-2.84758E-05-1.55757E-06 1.52602E-19 4.09385E-19
 -1      2385 9.53286E-05-2.85787E-05-2.86046E-05-1.42031E-06-3.67216E-19 6.71874E-19
 -1      2386 9.51152E-05-2.85201E-05-2.85421E-05-1.40806E-06 7.67786E-20 5.96613E-19
 -1      2387 9.51569E-05-2.85314E-05-2.85554E-05-1.59126E-06-3.47308E-20 8.47287E-19
 -1      2388 9.56968E-05-2.86863E-05-2.87170E-05-1.45710E-06-4.09008E-19 4.51109E-19
 -1      2389 9.54728E-05-2.86177E-05-2.86532E-05-1.44291E-06-4.98728E-19 4.95915E-19
 -1      2390 9.54288E-05-2.85987E-05-2.86430E-05-1.63703E-06-3.15799E-19 8.92886E-19
 -1      2391 9.60962E-05-2.88260E-05-2.88296E-05-1.48340E-06 3.64162E-19 3.67497E-19
 -1      2392 9.58619E-05-2.87416E-05-2.87664E-05-1.47811E-06 8.66843E-20 2.51536E-19
 -1      2393 9.57391E-05-2.86963E-05-2.87343E-05-1.68706E-06-8.88737E-20 1.01444E-19
 -1      2394 9.65280E-05-2.90113E-05-2.89374E-05-1.46610E-06 2.05942E-20 3.43424E-19
 -1      2395 9.62868E-05-2.89054E-05-2.88775E-05-1.48770E-06 1.76002E-19 5.31350E-19
 -1      2396 9.60968E-05-2.88432E-05-2.88248E-05-1.71826E-06 1.03638E-19 4.85399E-19
 -1      2397 9.69873E-05-2.92543E-05-2.90334E-05-1.35624E-06 5.73058E-19 2.85395E-19
 -1      2398 9.67480E-05-2.91231E-05-2.89810E-05-1.43011E-06 4.29818E-19 3.69707E-19
 -1      2399 9.65114E-05-2.90602E-05-2.89096E-05-1.69056E-06 3.17327E-19 5.08860E-19
 -1      2400 9.74593E-05-2.95607E-05-2.91086E-05-1.09033E-06-1.31042E-19 1.32977E-19
 -1      2401 9.72385E-05-2.94049E-05-2.90695E-05-1.24791E-06 4.56106E-19 4.80417E-19
 -1      2402 9.69893E-05-2.93664E-05-2.89832E-05-1.54607E-06 5.76638E-19 7.86294E-19
 -1      2403 9.79125E-05-2.99225E-05-2.91530E-05-5.96473E-07-4.74743E-19 4.52387E-19
 -1      2404 9.77373E-05-2.97516E-05-2.91339E-05-8.71186E-07-5.77080E-19-9.06300E-20
 -1      2405 9.75286E-05-2.97723E-05-2.90399E-05-1.21102E-06-2.38046E-19 8.04469E-19
 -1      2406 9.82927E-05-3.03063E-05-2.91567E-05 1.90909E-07-3.81223E-20 6.50303E-19
 -1      2407 9.82018E-05-3.01437E-05-2.91647E-05-2.27629E-07-1.66556E-19 6.47929E-19
 -1      2408 9.81096E-05-3.02677E-05-2.90755E-05-6.03695E-07-3.98772E-19 5.49163E-20
 -1      2409 9.85166E-05-3.06406E-05-2.91133E-05 1.30472E-06-1.26890E-19 1.07026E-18
 -1      2410 9.85600E-05-3.05289E-05-2.91540E-05 7.36726E-07-1.22439E-20 1.03920E-18
 -1      2411 9.86830E-05-3.08052E-05-2.90888E-05 3.47414E-07-5.05165E-19 5.59078E-19
 -1      2412 9.84726E-05-3.08081E-05-2.90231E-05 2.70635E-06-6.64810E-19 2.12360E-18
 -1      2413 9.87051E-05-3.08101E-05-2.90982E-05 2.02354E-06-1.73147E-19 1.56089E-18
 -1      2414 9.91567E-05-3.12816E-05-2.90839E-05 1.67125E-06-7.04018E-19 1.85370E-18
 -1      2415 9.80351E-05-3.06552E-05-2.88956E-05 4.24098E-06-9.47577E-19 2.47017E-18
 -1      2416 9.85022E-05-3.08443E-05-2.90012E-05 3.53715E-06-8.68143E-19 2.24001E-18
 -1      2417 9.93892E-05-3.15296E-05-2.90723E-05 3.30679E-06-7.86961E-19 2.08911E-18
 -1      2418 9.71073E-05-3.00372E-05-2.87500E-05 5.60797E-06-3.85476E-19 2.39693E-18
 -1      2419 9.78195E-05-3.04694E-05-2.88755E-05 5.04254E-06-4.43384E-19 2.29239E-18
 -1      2420 9.92064E-05-3.13386E-05-2.90706E-05 5.04920E-06-7.73162E-19 2.02767E-18
 -1      2421 9.56916E-05-2.89027E-05-2.86113E-05 6.38385E-06 1.21381E-19 2.71983E-18
 -1      2422 9.65945E-05-2.95729E-05-2.87402E-05 6.15825E-06-1.76978E-19 2.43005E-18
 -1      2423 9.84600E-05-3.05269E-05-2.90963E-05 6.51853E-06-3.62461E-19 2.37930E-18
 -1      2424 9.39682E-05-2.73921E-05-2.85022E-05 6.13529E-06 8.18873E-19 1.46474E-18
 -1      2425 9.49225E-05-2.81930E-05-2.86160E-05 6.42768E-06 8.90681E-19 2.14513E-18
 -1      2426 9.71320E-05-2.90650E-05-2.91580E-05 7.20124E-06 7.08386E-19 1.44027E-18
 -1      2427 9.23209E-05-2.58783E-05-2.84354E-05 4.62069E-06 3.83769E-19 1.38109E-18
 -1      2428 9.31181E-05-2.66004E-05-2.85179E-05 5.49079E-06 5.05143E-19 1.17019E-18
 -1      2429 9.54429E-05-2.71981E-05-2.92471E-05 6.60935E-06 8.26265E-19 9.33856E-19
 -1      2430 9.12413E-05-2.48648E-05-2.84113E-05 1.99202E-06 5.37525E-19 1.02390E-18
 -1      2431 9.16684E-05-2.52679E-05-2.84516E-05 3.30784E-06 6.65214E-19 9.16134E-19
 -1      2432 9.38682E-05-2.54567E-05-2.93357E-05 4.54286E-06 5.62956E-19 5.95843E-20
 -1      2433 9.11142E-05-2.47468E-05-2.84234E-05-1.16111E-06 1.22982E-19 1.75363E-18
 -1      2434 9.10435E-05-2.46790E-05-2.84168E-05 2.90419E-07 8.44452E-20 1.55374E-18
 -1      2435 9.29739E-05-2.44685E-05-2.93874E-05 1.31268E-06 6.98835E-20 1.32217E-18
 -1      2436 9.20036E-05-2.55795E-05-2.84671E-05-4.01460E-06 1.19919E-18 1.67672E-18
 -1      2437 9.14568E-05-2.50669E-05-2.84143E-05-2.79719E-06 9.46576E-19 1.80924E-18
 -1      2438 9.31257E-05-2.46353E-05-2.93790E-05-2.27634E-06 3.58234E-19 1.25751E-18
 -1      2439 9.36042E-05-2.70359E-05-2.85427E-05-5.87554E-06 7.20995E-19 1.56836E-18
 -1      2440 9.27413E-05-2.62678E-05-2.84500E-05-5.16083E-06 1.59591E-18 1.47524E-18
 -1      2441 9.42601E-05-2.58872E-05-2.93145E-05-5.24908E-06 1.35522E-18 1.28850E-18
 -1      2442 9.54156E-05-2.86084E-05-2.86498E-05-6.46086E-06-2.64448E-19 1.04627E-18
 -1      2443 9.44567E-05-2.78272E-05-2.85296E-05-6.32337E-06 8.28248E-20 9.77626E-19
 -1      2444 9.59242E-05-2.77260E-05-2.92231E-05-6.91610E-06 6.39362E-19 9.88265E-19
 -1      2445 9.69878E-05-2.98699E-05-2.87801E-05-5.91956E-06-1.65094E-19 4.50237E-19
 -1      2446 9.61260E-05-2.92602E-05-2.86496E-05-6.25740E-06-4.10862E-19 6.17089E-19
 -1      2447 9.75513E-05-2.95206E-05-2.91406E-05-7.12356E-06 1.92381E-19 1.88335E-19
 -1      2448 9.80684E-05-3.06169E-05-2.89170E-05-4.65981E-06 4.28366E-19-5.93011E-19
 -1      2449 9.74191E-05-3.02554E-05-2.87944E-05-5.27931E-06 5.18576E-19 1.13366E-19
 -1      2450 9.87313E-05-3.08122E-05-2.90905E-05-6.17738E-06 6.54251E-19-4.45443E-19
 -1      2451 9.86147E-05-3.08623E-05-2.90399E-05-3.13167E-06-9.29894E-19 1.34115E-19
 -1      2452 9.82110E-05-3.07326E-05-2.89401E-05-3.83758E-06-3.94368E-19-3.73054E-19
 -1      2453 9.93165E-05-3.14383E-05-2.90765E-05-4.59575E-06 4.44403E-21-6.00503E-19
 -1      2454 9.87181E-05-3.07425E-05-2.91314E-05-1.68055E-06 2.51428E-19-6.17919E-19
 -1      2455 9.85361E-05-3.07795E-05-2.90630E-05-2.33023E-06-3.89999E-19-2.37801E-19
 -1      2456 9.93733E-05-3.14837E-05-2.90868E-05-2.86768E-06-4.38938E-19-1.33482E-18
 -1      2457 9.85178E-05-3.04194E-05-2.91819E-05-5.01250E-07 3.89623E-19-1.56916E-18
 -1      2458 9.85064E-05-3.05506E-05-2.91468E-05-1.01809E-06 5.94979E-19-1.13922E-18
 -1      2459 9.90669E-05-3.11490E-05-2.91037E-05-1.32609E-06 6.86890E-19-1.72209E-18
 -1      2460 9.81442E-05-3.00246E-05-2.91903E-05 3.40671E-07 1.43698E-18-2.34163E-18
 -1      2461 9.82479E-05-3.01922E-05-2.91851E-05-2.11245E-08 1.10961E-18-1.42362E-18
 -1      2462 9.85673E-05-3.06379E-05-2.91119E-05-1.32619E-07 1.01599E-18-1.43182E-18
 -1      2463 9.76964E-05-2.96423E-05-2.91625E-05 8.63562E-07 3.02902E-19-3.01533E-18
 -1      2464 9.78668E-05-2.98091E-05-2.91805E-05 6.44511E-07 1.17455E-18-2.21632E-18
 -1      2465 9.80035E-05-3.00999E-05-2.91027E-05 6.80144E-07 1.10614E-18-2.46980E-19
 -1      2466 9.72397E-05-2.93146E-05-2.91077E-05 1.12700E-06-5.01223E-19-2.72897E-18
 -1      2467 9.74397E-05-2.94613E-05-2.91414E-05 1.02206E-06-5.10826E-19-3.31450E-18
 -1      2468 9.74562E-05-2.96214E-05-2.90742E-05 1.15488E-06 1.70782E-19-2.06818E-18
 -1      2469 9.68123E-05-2.90545E-05-2.90366E-05 1.20156E-06-1.06477E-18-2.38659E-18
 -1      2470 9.70162E-05-2.91744E-05-2.90789E-05 1.17851E-06-6.57506E-19-2.71458E-18
 -1      2471 9.69662E-05-2.92375E-05-2.90290E-05 1.36598E-06-4.71669E-19-1.85726E-18
 -1      2472 9.64331E-05-2.88583E-05-2.89587E-05 1.15155E-06 5.47189E-19-3.08224E-18
 -1      2473 9.66247E-05-2.89517E-05-2.90037E-05 1.18177E-06-2.39937E-19-2.73030E-18
 -1      2474 9.65486E-05-2.89511E-05-2.89727E-05 1.39153E-06-4.05403E-19-2.05931E-18
 -1      2475 9.61091E-05-2.87146E-05-2.88818E-05 1.02723E-06-1.09099E-18-4.83082E-19
 -1      2476 9.62794E-05-2.87855E-05-2.89250E-05 1.08881E-06 1.64915E-20-2.08656E-18
 -1      2477 9.62032E-05-2.87483E-05-2.89115E-05 1.29859E-06-3.64742E-19-1.67685E-18
 -1      2478 9.58399E-05-2.86100E-05-2.88114E-05 8.63550E-07-8.36844E-19 1.32955E-19
 -1      2479 9.59847E-05-2.86636E-05-2.88500E-05 9.41723E-07-1.17205E-18-1.82332E-19
 -1      2480 9.59229E-05-2.86092E-05-2.88509E-05 1.13809E-06-1.64051E-18-8.08620E-19
 -1      2481 9.56210E-05-2.85319E-05-2.87510E-05 6.82117E-07-2.27534E-19 1.35920E-18
 -1      2482 9.57397E-05-2.85731E-05-2.87833E-05 7.67993E-07 9.99606E-21 1.29810E-18
 -1      2483 9.56979E-05-2.85139E-05-2.87951E-05 9.44170E-07-9.24030E-19 4.14615E-20
 -1      2484 9.54466E-05-2.84722E-05-2.87012E-05 4.95530E-07-5.47286E-19 7.72275E-19
 -1      2485 9.55404E-05-2.85038E-05-2.87273E-05 5.81917E-07-7.94710E-19 9.07436E-19
 -1      2486 9.55163E-05-2.84448E-05-2.87465E-05 7.36295E-07-3.83253E-19 2.00193E-18
 -1      2487 9.53390E-05-2.84066E-05-2.86838E-05 4.02515E-07-2.37205E-19 1.41825E-18
 -1      2488 9.49145E-05-2.77353E-05-2.87936E-05 5.82737E-07-1.24591E-18 5.18943E-19
 -1      2489 9.49787E-05-2.78317E-05-2.87760E-05 6.11733E-07-2.59966E-18 8.99658E-19
 -1      2490 9.50485E-05-2.79378E-05-2.87634E-05 6.24807E-07-2.76303E-18-7.30278E-19
 -1      2491 9.51133E-05-2.80371E-05-2.87450E-05 6.14935E-07-1.93192E-18-1.16098E-18
 -1      2492 9.50050E-05-2.78792E-05-2.87679E-05 7.23656E-07-2.33348E-18-3.14531E-20
 -1      2493 9.51791E-05-2.81413E-05-2.87314E-05 5.88447E-07-1.82492E-18-1.38220E-18
 -1      2494 9.52410E-05-2.82390E-05-2.87128E-05 5.45421E-07-1.32400E-18 5.74388E-19
 -1      2495 9.51584E-05-2.80916E-05-2.87438E-05 7.05604E-07-1.94192E-18-2.10447E-18
 -1      2496 2.44458E-05-1.99336E-05-1.77776E-06 2.78162E-05-1.54075E-18 5.38713E-19
 -1      2497 1.81314E-05-1.86260E-05 4.85017E-07 1.43479E-05-1.06747E-18 2.01001E-18
 -1      2498 9.47940E-05-2.75552E-05-2.88198E-05 4.62068E-07-1.22007E-18-3.75555E-18
 -1      2499 9.48496E-05-2.76362E-05-2.88052E-05 5.26972E-07-6.75459E-19-2.45659E-18
 -1      2500 9.48476E-05-2.76700E-05-2.87894E-05 6.50015E-07-2.59775E-18-8.45599E-19
 -1      2501 9.47014E-05-2.74194E-05-2.88385E-05 2.72475E-07-2.05222E-18-1.25517E-18
 -1      2502 9.47408E-05-2.74743E-05-2.88289E-05 3.67044E-07-1.13310E-18-3.55448E-18
 -1      2503 9.47083E-05-2.74856E-05-2.88080E-05 4.89784E-07-1.75768E-18-3.16841E-18
 -1      2504 9.46517E-05-2.73477E-05-2.88477E-05 3.41446E-08-3.02067E-18-5.77027E-20
 -1      2505 9.46679E-05-2.73677E-05-2.88443E-05 1.47293E-07-2.59353E-18 2.38672E-19
 -1      2506 9.46061E-05-2.73494E-05-2.88217E-05 2.54821E-07-2.09195E-18-9.93703E-19
 -1      2507 9.46576E-05-2.73553E-05-2.88463E-05-2.22236E-07-2.88055E-18-2.45394E-18
 -1      2508 9.46453E-05-2.73351E-05-2.88495E-05-1.06111E-07-3.50218E-18-6.99624E-19
 -1      2509 9.45590E-05-2.72830E-05-2.88293E-05-2.95108E-08-3.12422E-18-1.06329E-18
 -1      2510 9.47247E-05-2.74460E-05-2.88348E-05-4.54087E-07-1.83080E-18-2.01145E-18
 -1      2511 9.46827E-05-2.73872E-05-2.88441E-05-3.55189E-07-1.95674E-18-4.47104E-18
 -1      2512 9.45818E-05-2.73025E-05-2.88304E-05-3.23543E-07-1.62175E-18-2.50354E-18
 -1      2513 9.48527E-05-2.76177E-05-2.88144E-05-6.27734E-07-2.61896E-19 3.50326E-18
 -1      2514 9.47828E-05-2.75239E-05-2.88288E-05-5.61543E-07-9.61603E-19 1.27289E-18
 -1      2515 9.46805E-05-2.74141E-05-2.88251E-05-5.84191E-07 8.39095E-20 8.25973E-19
 -1      2516 9.50253E-05-2.78502E-05-2.87873E-05-7.02057E-07-7.70364E-19 2.00241E-18
 -1      2517 9.49376E-05-2.77341E-05-2.88051E-05-6.85514E-07-8.34693E-19 4.28124E-18
 -1      2518 9.48508E-05-2.76130E-05-2.88136E-05-7.66141E-07-1.21758E-19 3.47607E-18
 -1      2519 9.52135E-05-2.81124E-05-2.87549E-05-6.56304E-07-1.26180E-18 2.29718E-18
 -1      2520 9.51251E-05-2.79900E-05-2.87748E-05-6.96738E-07-9.63188E-19 1.40364E-18
 -1      2521 9.50671E-05-2.78740E-05-2.87957E-05-8.27460E-07-9.66766E-19 2.17847E-18
 -1      2522 9.50472E-05-2.00133E-05-3.22065E-05-1.17654E-05-1.45364E-18-3.73224E-19
 -1      2523 9.54505E-05-2.33472E-05-3.09214E-05-7.95978E-06-1.34523E-18-2.91797E-19
 -1      2524 9.50365E-05-2.25641E-05-3.10490E-05-7.59829E-06-1.26952E-18-6.89910E-19
 -1      2525 9.32260E-05-1.76976E-05-3.23959E-05-1.13036E-05-1.37045E-18-8.42493E-19
 -1      2526 9.74091E-05-5.15896E-05-1.96665E-05 4.64685E-05-2.36492E-18 5.39282E-18
 -1      2527 8.16890E-05-4.66370E-05-1.47232E-05 4.69360E-05-2.08963E-18 5.38416E-18
 -1      2528 1.30726E-04-5.64992E-05-3.21372E-05 3.05106E-05-8.89385E-19 3.77141E-18
 -1      2529 1.13734E-04-5.57746E-05-2.47620E-05 3.80813E-05-2.20334E-18 4.66016E-18
 -1      2530 3.97236E-05-2.91991E-05-4.26085E-06-2.93980E-05 2.49875E-19 3.87094E-19
 -1      2531 5.56069E-05-3.84543E-05-7.38877E-06-3.68316E-05-8.66091E-20 2.66392E-19
 -1      2532 1.47212E-04-4.34725E-05-4.47050E-05-7.29094E-06 1.65171E-18 9.55241E-19
 -1      2533 1.52513E-04-3.55878E-05-5.05114E-05-2.57355E-06 2.40589E-18 1.26631E-18
 -1      2534 1.70404E-05-1.80801E-05 6.08485E-07-1.65446E-07 1.38053E-19 9.96111E-19
 -1      2535 2.48073E-05-2.02114E-05-1.61493E-06-1.66052E-05 7.08331E-19 3.29496E-19
 -1      2536 2.41630E-05-1.35596E-05-3.95023E-06 5.35696E-06 6.30073E-19 2.98156E-19
 -1      2537 8.78697E-05-1.07836E-05-3.30727E-05-1.51336E-06 1.50038E-19-1.91463E-18
 -1      2538 8.79745E-05-1.09064E-05-3.30635E-05-2.63017E-06-5.62841E-20-1.92609E-18
 -1      2539 8.93699E-05-1.30727E-05-3.27008E-05-2.92001E-06-1.05580E-19-1.80899E-18
 -1      2540 8.91220E-05-1.27356E-05-3.27401E-05-9.36373E-07 1.54831E-19-1.81447E-18
 -1      2541 1.48589E-04-1.10204E-05-5.95310E-05-3.02989E-06 5.00808E-18 1.48284E-19
 -1      2542 1.48880E-04-1.57647E-05-5.74631E-05-4.19244E-06 3.71636E-18 6.69580E-19
 -1      2543 1.79865E-05-1.71923E-05 1.42794E-08 9.52231E-07-8.42798E-20-4.38975E-18
 -1      2544 1.92931E-05-1.58735E-05-1.08811E-06-1.39371E-05 1.05456E-19-3.83537E-18
 -1      2545 1.51801E-04-2.60544E-05-5.44374E-05-2.60212E-06 2.02102E-18 1.04672E-18
 -1      2546 1.50540E-04-3.45674E-05-4.99451E-05 1.46077E-06 1.43826E-18 1.25191E-18
 -1      2547 1.44201E-04-8.54705E-06-5.87588E-05 1.99287E-06 4.19112E-18-2.96514E-19
 -1      2548 1.47831E-04-8.48668E-06-6.01105E-05-6.45032E-07 4.96446E-18 7.13096E-20
 -1      2549 1.36197E-04-7.44819E-06-5.54573E-05-3.22863E-06 4.82004E-18 1.45690E-19
 -1      2550 1.51167E-04-2.50127E-05-5.42729E-05 2.77946E-06 2.80220E-18 1.01644E-19
 -1      2551 1.47511E-04-1.61268E-05-5.69615E-05 5.57376E-06 2.65884E-18-6.43427E-19
 -1      2552 1.44820E-04-2.99974E-05-4.93190E-05 6.32095E-06 1.68104E-18 1.20766E-18
 -1      2553 1.34393E-04-5.60359E-05-3.35338E-05-2.37917E-05 2.04537E-18 1.63329E-18
 -1      2554 1.42915E-04-5.27982E-05-3.89979E-05-1.70910E-05 1.80884E-18 1.22100E-18
 -1      2555 9.97726E-05-5.28246E-05-1.99327E-05-4.34136E-05 1.62355E-18 1.09797E-19
 -1      2556 1.20216E-04-5.62880E-05-2.76338E-05-3.74324E-05 1.80842E-18 1.53811E-18
 -1      2557 6.22938E-05-3.91230E-05-9.64528E-06-4.62402E-05 4.30293E-19-2.50711E-18
 -1      2558 7.88337E-05-4.52051E-05-1.44708E-05-4.92524E-05 8.07858E-19-1.81127E-18
 -1      2559 2.88982E-05-2.21650E-05-2.50218E-06-3.08131E-05 4.29234E-19-3.30089E-18
 -1      2560 4.35823E-05-2.99229E-05-5.69694E-06-4.21943E-05 5.63489E-19-3.17341E-18
 -1      2561 3.24432E-05-2.60044E-05-2.61423E-06 2.58523E-05 6.37816E-19-4.05559E-18
 -1      2562 2.20590E-05-2.07669E-05-3.47720E-07 1.33122E-05 6.42474E-19-3.45505E-18
 -1      2563 7.24269E-05-4.52251E-05-1.16823E-05 3.98561E-05 1.02915E-18-4.59918E-18
 -1      2564 5.12471E-05-3.56835E-05-6.47373E-06 3.37043E-05 1.43784E-18-4.81115E-18
 -1      2565 1.17965E-04-6.23514E-05-2.40257E-05 3.28082E-05 7.53436E-19-1.51444E-18
 -1      2566 9.55931E-05-5.53745E-05-1.72451E-05 3.56999E-05 9.52277E-19-3.01578E-18
 -1      2567 1.54306E-04-6.68418E-05-3.78163E-05 1.07996E-05 1.12655E-19 3.17214E-19
 -1      2568 1.36416E-04-6.60563E-05-3.03397E-05 1.97075E-05 9.64982E-19-4.84503E-19
 -1      2569 1.28277E-04-6.45495E-05-2.72805E-05-2.34178E-05-3.00697E-20-1.44954E-18
 -1      2570 1.50344E-04-6.91066E-05-3.50158E-05-1.23756E-05-1.35949E-19-2.66646E-18
 -1      2571 7.59772E-05-4.75100E-05-1.22499E-05-3.72455E-05 1.75548E-19 4.15046E-19
 -1      2572 9.97088E-05-5.54323E-05-1.90403E-05-3.62725E-05 5.20502E-19 6.98061E-19
 -1      2573 7.46049E-05-4.14803E-05-1.37300E-05-3.69068E-05 7.03037E-19 1.06091E-19
 -1      2574 9.53246E-05-2.83439E-05-2.87071E-05 5.30078E-07-5.30760E-19 1.67197E-18
 -1      2575 1.67096E-04-4.32601E-05-5.28755E-05 1.72453E-05-2.98685E-18-3.23016E-18
 -1      2576 1.66307E-04-6.05915E-05-4.58578E-05 1.43997E-05-2.05771E-18-4.26439E-18
 -1      2577 9.08140E-05-1.50357E-05-3.24712E-05-6.79233E-06-8.88554E-19-1.73812E-18
 -1      2578 8.97196E-05-1.31759E-05-3.28563E-05-7.95162E-06-9.09151E-19-1.86996E-18
 -1      2579 9.03725E-05-1.39622E-05-3.28087E-05-9.12423E-06-1.06737E-18-1.67154E-18
 -1      2580 9.59307E-05-2.62368E-05-2.98365E-05 5.38697E-06 1.20750E-18 1.56417E-18
 -1      2581 9.58808E-05-2.51515E-05-3.02885E-05 6.47608E-06 1.37713E-18 1.10134E-18
 -1      2582 9.52708E-05-2.64745E-05-2.94560E-05 4.09238E-06 1.10874E-18 1.31635E-18
 -1      2583 1.59646E-04-6.44187E-05-4.10814E-05 1.86455E-07-1.18172E-18-3.18400E-18
 -1      2584 1.31479E-04-6.11279E-05-3.03735E-05-1.75868E-05 1.25276E-18-1.92013E-18
 -1      2585 9.11440E-05-1.50045E-05-3.26843E-05-9.81065E-06-1.14684E-18-1.49814E-18
 -1      2586 9.21648E-05-1.62846E-05-3.25997E-05-1.08398E-05-1.34197E-18-1.25458E-18
 -1      2587 9.36575E-05-1.92058E-05-3.18929E-05-9.19340E-06-1.29433E-18-1.04867E-18
 -1      2588 9.20853E-05-1.68138E-05-3.22447E-05-8.29953E-06-1.09268E-18-1.41520E-18
 -1      2589 1.37291E-04-5.61897E-05-3.46747E-05 1.87868E-05-8.00817E-19 3.43599E-18
 -1      2590 3.97760E-05-2.20482E-05-6.99642E-06 3.36511E-05-2.33146E-19 1.49840E-18
 -1      2591 1.41643E-04-2.01973E-05-5.22503E-05-7.98529E-06 2.61098E-18-2.24464E-20
 -1      2592 1.33175E-04-1.43067E-05-5.13870E-05 8.42743E-06 2.13452E-18 7.12990E-19
 -1      2593 1.40114E-04-1.12479E-05-5.55933E-05 5.58895E-06 3.02857E-18 4.05835E-19
 -1      2594 1.29519E-04-7.28487E-06-5.29831E-05 4.91318E-06 4.18244E-18 1.45113E-18
 -1      2595 1.70952E-04-3.67455E-05-5.77526E-05 1.86036E-05-2.99553E-18-3.39533E-18
 -1      2596 9.46996E-05-2.68362E-05-2.90548E-05 2.41706E-06 8.74231E-19 7.92103E-19
 -1      2597 9.50423E-05-2.66528E-05-2.92683E-05 3.30294E-06 1.01279E-18 1.14405E-18
 -1      2598 9.52988E-05-2.61270E-05-2.96561E-05 4.02798E-06 1.10731E-18 7.83449E-19
 -1      2599 9.50161E-05-2.65883E-05-2.93454E-05 2.49950E-06 8.73963E-19 3.64760E-19
 -1      2600 9.53408E-05-2.83078E-05-2.87278E-05 6.56566E-07-6.13690E-19 4.96979E-19
 -1      2601 1.12131E-04-5.60581E-05-2.37355E-05 3.84117E-05-1.83510E-18 4.91618E-18
 -1      2602 1.71490E-04-2.81189E-05-6.11367E-05 9.52205E-06-3.45928E-18-1.66146E-18
 -1      2603 1.43820E-04-4.96714E-05-4.04481E-05-5.55898E-06 1.37939E-18 2.03817E-18
 -1      2604 1.15124E-04-5.83838E-05-2.41031E-05-3.02631E-05 1.40417E-18-3.93698E-19
 -1      2605 1.32235E-04-6.55368E-05-2.86190E-05 2.15626E-05 1.75103E-18 3.81588E-19
 -1      2606 9.12771E-05-4.99437E-05-1.75181E-05 3.64814E-05 1.78216E-18-2.71093E-18
 -1      2607 4.99818E-05-2.85743E-05-8.70054E-06 3.07017E-05 1.31798E-18-4.14347E-18
 -1      2608 2.83014E-05-1.67137E-05-4.40518E-06-2.26476E-05-7.73976E-20-3.44001E-18
 -1      2609 3.83040E-05-1.74727E-05-8.71094E-06-2.97916E-05-3.66977E-19-3.15054E-18
 -1      2610 3.01132E-05-1.09314E-05-7.56986E-06-1.42583E-05-3.79735E-19-3.90016E-18
 -1      2611 5.88970E-05-3.30973E-05-1.05304E-05-4.38764E-05 9.31736E-20-2.47799E-18
 -1      2612 9.64056E-05-5.06817E-05-1.92078E-05-4.40454E-05 6.31251E-19 1.13721E-19
 -1      2613 3.66912E-05-2.26171E-05-5.56301E-06-2.37375E-05 7.00496E-19 6.44169E-19
 -1      2614 4.92990E-05-2.48249E-05-1.03277E-05-2.98461E-05 9.34807E-19 8.34963E-19
 -1      2615 3.57362E-05-1.54953E-05-8.00823E-06-1.82790E-05 1.72329E-18 5.62430E-19
 -1      2616 7.63849E-05-4.15749E-05-1.45437E-05 4.61206E-05-1.69068E-18 5.15769E-18
 -1      2617 1.46052E-04-4.06623E-05-4.52268E-05-8.97917E-07 4.12346E-19 4.55704E-19
 -1      2618 2.69032E-05-1.46043E-05-4.70887E-06 7.90087E-06 2.70733E-19-3.29686E-18
 -1      2619 1.28608E-04-5.84129E-05-2.99066E-05-2.71826E-05 1.63181E-18 1.46886E-18
 -1      2620 1.69773E-04-5.41778E-05-5.02555E-05-1.72517E-05-1.67660E-18 4.36010E-19
 -1      2621 1.68197E-04-3.63228E-05-5.61631E-05-1.62193E-05-1.90201E-18 3.17214E-19
 -1      2622 1.69197E-04-5.60049E-05-4.89069E-05-1.28646E-05-1.39628E-18 8.23316E-19
 -1      2623 1.62891E-04-6.20656E-05-4.33187E-05-2.32341E-06-6.24899E-19-2.11758E-20
 -1      2624 1.72241E-04-2.45563E-05-6.32802E-05 3.83117E-06-3.86332E-18-1.15371E-18
 -1      2625 9.53163E-05-2.82596E-05-2.87393E-05-5.91845E-07-8.88331E-19 3.74966E-18
 -1      2626 9.53008E-05-2.81697E-05-2.87709E-05-7.56462E-07-6.50253E-20 2.63458E-18
 -1      2627 1.62037E-04-5.61863E-05-4.50540E-05-1.73399E-05-7.21037E-19 1.47934E-18
 -1      2628 1.58054E-04-6.61098E-05-3.93621E-05-2.27728E-06 8.77738E-19 1.02936E-18
 -1      2629 1.39746E-04-5.43992E-05-3.71487E-05 9.34196E-06-4.45222E-20 2.00027E-18
 -1      2630 1.31427E-04-5.79501E-05-3.12837E-05 2.03210E-05-7.73023E-19 3.64521E-18
 -1      2631 9.05759E-05-1.51443E-05-3.23502E-05 3.18340E-06 7.75823E-19-1.46553E-18
 -1      2632 9.03865E-05-1.48715E-05-3.23839E-05 2.25290E-06 5.97445E-19-1.49140E-18
 -1      2633 9.02528E-05-1.46673E-05-3.24137E-05 1.41847E-06 4.33668E-19-1.63071E-18
 -1      2634 9.01883E-05-1.45747E-05-3.24252E-05 4.65169E-07 3.16383E-19-1.71865E-18
 -1      2635 9.14333E-05-1.65531E-05-3.20784E-05 1.63364E-06 4.67316E-19-1.46865E-18
 -1      2636 9.21523E-05-1.75343E-05-3.20178E-05 6.45393E-06 1.33461E-18-8.33623E-19
 -1      2637 9.16285E-05-1.67342E-05-3.21202E-05 5.61669E-06 1.14699E-18-9.78450E-19
 -1      2638 9.35116E-05-1.97143E-05-3.16857E-05 7.62177E-06 1.49684E-18-4.05702E-19
 -1      2639 9.27797E-05-1.85059E-05-3.18486E-05 6.98840E-06 1.35328E-18-6.31400E-19
 -1      2640 9.34372E-05-1.98259E-05-3.15201E-05 5.71872E-06 1.24640E-18-6.34427E-19
 -1      2641 9.58805E-05-2.43737E-05-3.06379E-05 7.13460E-06 1.40028E-18 6.97913E-19
 -1      2642 9.53201E-05-2.30529E-05-3.09970E-05 7.82947E-06 1.50981E-18 2.97209E-19
 -1      2643 9.54975E-05-2.49863E-05-3.01973E-05 5.55118E-06 1.27459E-18 5.40797E-19
 -1      2644 9.53512E-05-2.81454E-05-2.88008E-05-9.03409E-07 5.72106E-19 1.74617E-18
 -1      2645 1.34694E-04-6.46887E-05-3.03841E-05 1.80499E-05 2.13198E-18 1.52466E-18
 -1      2646 1.50923E-04-6.57141E-05-3.61568E-05 1.20795E-06 1.68189E-18 7.34272E-19
 -1      2647 9.53506E-05-2.58752E-05-2.97502E-05-2.67105E-06-8.42777E-19-7.21599E-19
 -1      2648 9.52007E-05-2.64623E-05-2.94700E-05-1.67059E-06-8.99034E-19-6.96255E-19
 -1      2649 9.52264E-05-2.69990E-05-2.92177E-05-8.84972E-07-8.91097E-19-4.80132E-19
 -1      2650 9.50944E-05-2.73572E-05-2.90365E-05-2.41916E-07-7.74191E-19-5.12790E-19
 -1      2651 9.54293E-05-2.63231E-05-2.96232E-05-1.52161E-06-8.21505E-19-6.75758E-19
 -1      2652 9.50643E-05-2.76445E-05-2.88785E-05 2.31152E-07-7.46736E-19-3.48008E-19
 -1      2653 9.49995E-05-2.78568E-05-2.87775E-05 5.96856E-07-6.96375E-19-3.75818E-19
 -1      2654 9.54306E-05-2.73094E-05-2.92029E-05-1.90661E-07-6.87408E-19-4.39327E-19
 -1      2655 9.49616E-05-2.80254E-05-2.86772E-05 8.87607E-07-6.29670E-19-3.87375E-19
 -1      2656 9.49500E-05-2.81583E-05-2.86248E-05 1.09870E-06-5.35657E-19-5.39970E-19
 -1      2657 9.53746E-05-2.78828E-05-2.89323E-05 6.31264E-07-7.33983E-19-2.71328E-19
 -1      2658 9.49196E-05-2.82506E-05-2.85669E-05 1.26935E-06-4.30281E-19-5.67563E-19
 -1      2659 9.49482E-05-2.83311E-05-2.85485E-05 1.38826E-06-3.72660E-19-5.02840E-19
 -1      2660 9.53177E-05-2.82180E-05-2.87629E-05 1.13372E-06-5.28800E-19-3.86773E-19
 -1      2661 9.49283E-05-2.83714E-05-2.85219E-05 1.48824E-06-3.38054E-19-3.80282E-19
 -1      2662 9.49852E-05-2.84140E-05-2.85278E-05 1.55954E-06-3.63496E-19-2.51513E-19
 -1      2663 9.52762E-05-2.83940E-05-2.86682E-05 1.43379E-06-3.86580E-19-2.47990E-19
 -1      2664 9.49733E-05-2.84155E-05-2.85245E-05 1.62676E-06-6.12389E-19-1.59739E-19
 -1      2665 9.50500E-05-2.84278E-05-2.85487E-05 1.68396E-06-5.50469E-19-3.37653E-19
 -1      2666 9.52504E-05-2.84563E-05-2.86293E-05 1.62209E-06-3.96884E-19-2.07552E-19
 -1      2667 9.50414E-05-2.83969E-05-2.85634E-05 1.74807E-06-5.35592E-19-2.70404E-19
 -1      2668 9.51329E-05-2.83827E-05-2.86024E-05 1.81785E-06-6.34892E-19-3.03891E-19
 -1      2669 9.52339E-05-2.84293E-05-2.86327E-05 1.76877E-06-5.23565E-19 9.49556E-20
 -1      2670 9.51209E-05-2.83167E-05-2.86334E-05 1.90762E-06-5.53191E-19-2.59171E-19
 -1      2671 9.52265E-05-2.82723E-05-2.86886E-05 2.02068E-06-2.93110E-19-2.02621E-19
 -1      2672 9.52151E-05-2.83201E-05-2.86707E-05 1.93446E-06-5.86265E-19 3.67857E-20
 -1      2673 9.52004E-05-2.81726E-05-2.87308E-05 2.15112E-06-2.63530E-19-2.99929E-19
 -1      2674 9.53085E-05-2.80991E-05-2.87969E-05 2.31827E-06-3.66539E-19-1.12352E-19
 -1      2675 9.51789E-05-2.81270E-05-2.87365E-05 2.16466E-06-3.65705E-19-1.52525E-19
 -1      2676 9.52561E-05-2.79552E-05-2.88497E-05 2.51275E-06-3.71113E-19 1.68599E-19
 -1      2677 9.53660E-05-2.78427E-05-2.89298E-05 2.76255E-06-6.24697E-19 3.34409E-19
 -1      2678 9.51033E-05-2.78448E-05-2.88236E-05 2.49496E-06-2.06996E-19 3.64331E-20
 -1      2679 9.52650E-05-2.76389E-05-2.89917E-05 3.04201E-06-7.58025E-19 9.50011E-19
 -1      2680 9.53679E-05-2.74744E-05-2.90866E-05 3.40109E-06-3.78626E-19 9.39543E-19
 -1      2681 9.49537E-05-2.74446E-05-2.89287E-05 2.96972E-06-1.32034E-19 7.95025E-19
 -1      2682 9.51859E-05-2.71887E-05-2.91542E-05 3.78823E-06-1.08854E-19 1.21660E-18
 -1      2683 9.52661E-05-2.69542E-05-2.92639E-05 4.28726E-06 2.91290E-19 1.43826E-18
 -1      2684 9.46781E-05-2.68880E-05-2.90456E-05 3.62932E-06-1.64953E-19 1.66081E-18
 -1      2685 9.49551E-05-2.65579E-05-2.93307E-05 4.80693E-06-2.47728E-20 1.13470E-18
 -1      2686 9.49869E-05-2.62323E-05-2.94517E-05 5.48024E-06-1.22674E-19 7.17920E-19
 -1      2687 9.41988E-05-2.61223E-05-2.91629E-05 4.51517E-06 9.55826E-20 1.46437E-18
 -1      2688 9.44794E-05-2.56940E-05-2.95042E-05 6.15978E-06 1.49150E-19 8.82887E-19
 -1      2689 9.44313E-05-2.52613E-05-2.96274E-05 7.04215E-06 4.98444E-19 4.64843E-19
 -1      2690 9.34032E-05-2.50852E-05-2.92582E-05 5.66907E-06 9.80416E-20 1.73736E-18
 -1      2691 9.35964E-05-2.45155E-05-2.96395E-05 7.95537E-06 4.16595E-19 8.76650E-20
 -1      2692 9.33963E-05-2.39516E-05-2.97427E-05 9.14700E-06 5.41252E-19-2.40309E-19
 -1      2693 9.20979E-05-2.36861E-05-2.92887E-05 7.17810E-06 9.27573E-20 1.31060E-18
 -1      2694 9.21917E-05-2.30842E-05-2.96636E-05 1.02530E-05 8.69253E-19-2.24166E-19
 -1      2695 9.18556E-05-2.25220E-05-2.96932E-05 1.16469E-05 8.60576E-19-8.20977E-20
 -1      2696 9.01035E-05-2.19264E-05-2.91699E-05 9.04818E-06 7.47060E-19 7.35936E-19
 -1      2697 9.01911E-05-2.16210E-05-2.94453E-05 1.30428E-05 2.87979E-19 1.41646E-20
 -1      2698 8.97918E-05-2.12774E-05-2.93279E-05 1.46840E-05-8.67646E-20-3.06767E-19
 -1      2699 8.72941E-05-1.99947E-05-2.87738E-05 1.13124E-05 5.78857E-19 8.99675E-20
 -1      2700 8.76888E-05-2.06703E-05-2.87810E-05 1.64975E-05-2.66124E-19-3.93374E-19
 -1      2701 8.75835E-05-2.11212E-05-2.84065E-05 1.83603E-05-1.61206E-19-7.20739E-19
 -1      2702 8.35464E-05-1.82691E-05-2.78782E-05 1.41808E-05-3.91306E-20-6.30861E-19
 -1      2703 8.52828E-05-2.14281E-05-2.73755E-05 2.08431E-05 5.53098E-20-7.21791E-19
 -1      2704 8.64000E-05-2.38674E-05-2.66194E-05 2.29671E-05 6.20488E-19-8.52340E-19
 -1      2705 7.90567E-05-1.76995E-05-2.61490E-05 1.80633E-05-2.99917E-19-1.17185E-18
 -1      2706 8.49810E-05-2.64849E-05-2.48579E-05 2.63733E-05 1.06896E-18-1.19162E-18
 -1      2707 8.88833E-05-3.25965E-05-2.37533E-05 2.85103E-05 1.21592E-18-1.46399E-18
 -1      2708 7.47685E-05-2.05968E-05-2.31385E-05 2.40052E-05 4.26666E-19-1.98936E-18
 -1      2709 9.52841E-05-2.82143E-05-2.87440E-05 7.94983E-07-1.48243E-18-2.16520E-18
 -1      2710 9.53877E-05-2.83217E-05-2.87417E-05 7.72838E-07-6.94383E-19 2.99164E-19
 -1      2711 9.54709E-05-2.83530E-05-2.87625E-05 8.81676E-07-1.33939E-18-4.73278E-19
 -1      2712 9.08226E-05-2.88993E-05-2.62949E-05-2.54334E-05 6.60699E-19-1.89958E-18
 -1      2713 8.78791E-05-2.45579E-05-2.70299E-05-2.36910E-05 7.47196E-19-2.19400E-18
 -1      2714 8.93394E-05-2.31258E-05-2.82612E-05-2.07961E-05 8.52764E-19-2.51615E-18
 -1      2715 8.86645E-05-2.17718E-05-2.87050E-05-1.89168E-05 1.67719E-20-2.03762E-18
 -1      2716 7.98362E-05-1.99189E-05-2.54877E-05-2.16623E-05 2.94106E-19-1.97414E-18
 -1      2717 9.05508E-05-2.18629E-05-2.93826E-05-1.67399E-05-2.48171E-19-2.11544E-18
 -1      2718 9.05970E-05-2.17975E-05-2.95400E-05-1.49607E-05 2.19781E-19-2.63583E-18
 -1      2719 8.33344E-05-1.87096E-05-2.76014E-05-1.67070E-05-2.03083E-19-2.76312E-18
 -1      2720 9.22631E-05-2.25158E-05-2.98614E-05-1.32933E-05 5.92452E-19-2.64337E-18
 -1      2721 9.24424E-05-2.29171E-05-2.98443E-05-1.17198E-05 2.89010E-19-2.05610E-18
 -1      2722 8.69497E-05-1.97578E-05-2.87277E-05-1.31773E-05 4.62593E-19-2.20588E-18
 -1      2723 9.37064E-05-2.37491E-05-2.99580E-05-1.03932E-05 3.87772E-19-1.96360E-18
 -1      2724 9.38169E-05-2.42394E-05-2.98553E-05-9.07686E-06 4.88152E-20-2.04012E-18
 -1      2725 8.98451E-05-2.14766E-05-2.92496E-05-1.04214E-05 5.42371E-19-1.17161E-18
 -1      2726 9.46893E-05-2.49717E-05-2.98587E-05-8.01629E-06-5.55664E-19-1.12389E-18
 -1      2727 9.46989E-05-2.54010E-05-2.97263E-05-6.95660E-06-8.97760E-19-1.90905E-19
 -1      2728 9.19325E-05-2.31867E-05-2.94266E-05-8.19354E-06 6.74826E-19-5.66422E-19
 -1      2729 9.52815E-05-2.59999E-05-2.96746E-05-6.07163E-06-7.01781E-19 2.10847E-18
 -1      2730 9.52183E-05-2.63444E-05-2.95364E-05-5.21076E-06-1.05373E-19 2.06897E-18
 -1      2731 9.33555E-05-2.46496E-05-2.94213E-05-6.34251E-06 3.27944E-19 2.83800E-18
 -1      2732 9.55578E-05-2.67614E-05-2.94692E-05-4.55748E-06-3.33689E-20 1.68262E-18
 -1      2733 9.54570E-05-2.69975E-05-2.93525E-05-3.92881E-06 2.02612E-20 2.34574E-18
 -1      2734 9.42445E-05-2.57722E-05-2.93313E-05-4.85871E-06-6.73718E-21 3.37164E-18
 -1      2735 9.56496E-05-2.72922E-05-2.92837E-05-3.42009E-06-1.17704E-19 2.06594E-18
 -1      2736 9.55366E-05-2.74558E-05-2.91861E-05-2.94263E-06 6.41449E-19 2.05454E-18
 -1      2737 9.47575E-05-2.65722E-05-2.92143E-05-3.71412E-06 2.61682E-19 2.33679E-18
 -1      2738 9.56377E-05-2.76586E-05-2.91241E-05-2.54943E-06 1.09185E-18 1.72998E-18
 -1      2739 9.55275E-05-2.77674E-05-2.90458E-05-2.18736E-06 1.02682E-18 1.33259E-18
 -1      2740 9.50426E-05-2.71402E-05-2.90968E-05-2.81552E-06 5.18961E-19 2.34659E-18
 -1      2741 9.55725E-05-2.79029E-05-2.89937E-05-1.88344E-06 4.22792E-19 1.39216E-18
 -1      2742 9.54728E-05-2.79711E-05-2.89328E-05-1.60748E-06-8.08553E-19 1.14621E-18
 -1      2743 9.51846E-05-2.75330E-05-2.89917E-05-2.11345E-06 5.20279E-19 2.90072E-18
 -1      2744 9.54820E-05-2.80564E-05-2.88910E-05-1.36940E-06-1.90187E-18 1.20892E-18
 -1      2745 9.53923E-05-2.80939E-05-2.88440E-05-1.15357E-06-5.76058E-19 1.80649E-18
 -1      2746 9.52367E-05-2.77920E-05-2.89040E-05-1.56581E-06-6.39199E-19 1.88274E-18
 -1      2747 9.49109E-05-2.76046E-05-2.88485E-05-1.64029E-07 8.66741E-19 2.34712E-20
 -1      2748 9.50197E-05-2.73434E-05-2.89833E-05 3.22779E-07 8.71323E-19 1.78272E-20
 -1      2749 9.48227E-05-2.79889E-05-2.86436E-05-8.38634E-07 6.53105E-19 1.20992E-19
 -1      2750 9.48630E-05-2.78219E-05-2.87185E-05-5.53987E-07 8.06278E-19 1.38964E-19
 -1      2751 9.52930E-05-2.75977E-05-2.90204E-05-2.01662E-07 8.25046E-19-3.82076E-19
 -1      2752 9.50544E-05-2.69733E-05-2.91837E-05 9.49653E-07 8.18871E-19-3.57895E-20
 -1      2753 9.52399E-05-2.65593E-05-2.94064E-05 1.74589E-06 7.98724E-19-2.29127E-20
 -1      2754 9.53583E-05-2.68625E-05-2.93635E-05 8.82313E-07 8.80226E-19-2.32981E-19
 -1      2755 9.48284E-05-2.83692E-05-2.84807E-05-1.43501E-06 3.77027E-19-1.86746E-19
 -1      2756 9.47777E-05-2.82975E-05-2.84872E-05-1.35418E-06 4.72720E-19 2.72620E-19
 -1      2757 9.49011E-05-2.84524E-05-2.84756E-05-1.54284E-06 2.67269E-19-2.57994E-19
 -1      2758 9.48243E-05-2.84055E-05-2.84633E-05-1.50305E-06 2.01073E-19-2.74395E-19
 -1      2759 9.51606E-05-2.84501E-05-2.85943E-05-1.48810E-06 4.14505E-19 2.12707E-19
 -1      2760 9.50076E-05-2.84983E-05-2.85013E-05-1.60319E-06-7.18835E-20-4.07837E-20
 -1      2761 9.49120E-05-2.84665E-05-2.84763E-05-1.58080E-06 8.14287E-20-3.09519E-19
 -1      2762 9.51733E-05-2.85201E-05-2.85687E-05-1.61185E-06 1.17158E-19 1.01724E-20
 -1      2763 9.51440E-05-2.85255E-05-2.85479E-05-1.65129E-06-1.19477E-19 9.82211E-20
 -1      2764 9.50328E-05-2.85005E-05-2.85145E-05-1.63148E-06 8.94989E-20-2.62733E-20
 -1      2765 9.52131E-05-2.85441E-05-2.85749E-05-1.69108E-06-9.28718E-20 8.97848E-21
 -1      2766 9.53116E-05-2.85521E-05-2.86083E-05-1.70699E-06-2.72088E-19 6.31136E-19
 -1      2767 9.51850E-05-2.85253E-05-2.85695E-05-1.68242E-06-3.92294E-19 2.38480E-19
 -1      2768 9.52813E-05-2.85466E-05-2.86027E-05-1.76075E-06-2.84267E-19-2.06375E-19
 -1      2769 9.55166E-05-2.85979E-05-2.86768E-05-1.77589E-06-2.46255E-19 5.45914E-19
 -1      2770 9.53724E-05-2.85595E-05-2.86350E-05-1.74629E-06-6.71912E-20 9.10551E-19
 -1      2771 9.53840E-05-2.85517E-05-2.86445E-05-1.84029E-06-2.63118E-19 4.55679E-19
 -1      2772 9.57703E-05-2.86858E-05-2.87486E-05-1.84895E-06-3.61491E-20 1.10654E-19
 -1      2773 9.56045E-05-2.86247E-05-2.87059E-05-1.82144E-06-3.92769E-20 2.18370E-19
 -1      2774 9.55328E-05-2.85853E-05-2.86941E-05-1.93435E-06 1.35289E-19 1.28714E-19
 -1      2775 9.60882E-05-2.88427E-05-2.88188E-05-1.90101E-06-6.37740E-20 1.38074E-19
 -1      2776 9.58959E-05-2.87460E-05-2.87777E-05-1.89091E-06-2.26848E-19 8.94548E-20
 -1      2777 9.57458E-05-2.86782E-05-2.87462E-05-2.03219E-06-5.64856E-20-3.52431E-20
 -1      2778 9.64889E-05-2.90986E-05-2.88829E-05-1.88885E-06 3.14863E-19 6.06617E-19
 -1      2779 9.62657E-05-2.89529E-05-2.88458E-05-1.92040E-06 3.57000E-20 5.82284E-19
 -1      2780 9.60481E-05-2.88660E-05-2.87961E-05-2.10584E-06-2.95241E-19-4.15340E-20
 -1      2781 9.69909E-05-2.94818E-05-2.89367E-05-1.74993E-06 2.32810E-19 1.11430E-18
 -1      2782 9.67350E-05-2.92758E-05-2.89063E-05-1.85634E-06 5.04458E-19 8.35801E-19
 -1      2783 9.64712E-05-2.91882E-05-2.88405E-05-2.10761E-06 2.20477E-19 1.19478E-18
 -1      2784 9.76062E-05-3.00103E-05-2.89778E-05-1.40380E-06-4.18682E-19 8.84377E-19
 -1      2785 9.73219E-05-2.97402E-05-2.89561E-05-1.62534E-06 6.29756E-20 1.11836E-18
 -1      2786 9.70486E-05-2.96813E-05-2.88780E-05-1.96817E-06 9.44496E-20 9.98710E-19
 -1      2787 9.83281E-05-3.06745E-05-2.90072E-05-7.59716E-07-1.29763E-19 1.97729E-19
 -1      2788 9.80317E-05-3.03531E-05-2.89949E-05-1.13799E-06-2.01886E-19 8.72847E-19
 -1      2789 9.78074E-05-3.03659E-05-2.89108E-05-1.59722E-06-6.84244E-21 8.93569E-19
 -1      2790 9.91136E-05-3.14139E-05-2.90318E-05 2.64798E-07-9.34106E-19 5.74176E-19
 -1      2791 9.88399E-05-3.10820E-05-2.90269E-05-3.01355E-07-4.14737E-19 2.51444E-19
 -1      2792 9.87507E-05-3.12241E-05-2.89474E-05-8.90954E-07-3.66407E-19 7.98931E-19
 -1      2793 9.98624E-05-3.20903E-05-2.90660E-05 1.70882E-06-9.86854E-19 1.03011E-18
 -1      2794 9.96707E-05-3.18285E-05-2.90632E-05 9.53800E-07-1.17071E-18 9.05693E-19
 -1      2795 9.98316E-05-3.21673E-05-2.90044E-05 2.47206E-07-1.35996E-18 4.00814E-19
 -1      2796 1.00401E-04-3.24726E-05-2.91324E-05 3.51306E-06-7.73000E-19 1.36848E-18
 -1      2797 1.00375E-04-3.24035E-05-2.91225E-05 2.62561E-06-6.93559E-19 1.35458E-18
 -1      2798 1.00920E-04-3.30021E-05-2.91079E-05 1.86496E-06-1.06421E-18 3.81941E-19
 -1      2799 1.00499E-04-3.22616E-05-2.92567E-05 5.45080E-06-5.40442E-19 1.11560E-18
 -1      2800 1.00726E-04-3.25278E-05-2.92291E-05 4.57274E-06-6.38461E-19 1.07560E-18
 -1      2801 1.01782E-04-3.34166E-05-2.92902E-05 3.89129E-06-5.30048E-19 5.08183E-19
 -1      2802 9.99362E-05-3.11937E-05-2.94568E-05 7.07857E-06-5.92371E-20 5.88217E-19
 -1      2803 1.00469E-04-3.18950E-05-2.94039E-05 6.44541E-06-3.93012E-19 6.29358E-19
 -1      2804 1.02096E-04-3.30284E-05-2.95804E-05 6.04541E-06-1.35633E-19-2.88260E-19
 -1      2805 9.86495E-05-2.92264E-05-2.97270E-05 7.77702E-06 8.57376E-19 3.39120E-19
 -1      2806 9.94430E-05-3.03261E-05-2.96508E-05 7.67510E-06 5.66854E-19 6.37512E-19
 -1      2807 1.01572E-04-3.15427E-05-2.99858E-05 7.77606E-06 3.20662E-19-5.12323E-19
 -1      2808 9.68875E-05-2.67296E-05-3.00261E-05 6.94987E-06 9.80912E-19 3.58075E-19
 -1      2809 9.77603E-05-2.79783E-05-2.99421E-05 7.60340E-06 1.04957E-18 6.79706E-19
 -1      2810 1.00153E-04-2.90008E-05-3.04714E-05 8.32961E-06 8.80029E-19-6.70650E-19
 -1      2811 9.52521E-05-2.45096E-05-3.02779E-05 4.38655E-06 7.24858E-20-1.00428E-19
 -1      2812 9.59197E-05-2.54839E-05-3.02133E-05 5.79510E-06 6.81339E-19 4.07593E-21
 -1      2813 9.82278E-05-2.60077E-05-3.09494E-05 7.03790E-06 1.07446E-18-5.17110E-19
 -1      2814 9.44554E-05-2.34746E-05-3.04003E-05 5.54918E-07-1.80662E-19 6.35086E-19
 -1      2815 9.46582E-05-2.37735E-05-3.03805E-05 2.41258E-06-2.56748E-19 4.50383E-20
 -1      2816 9.65994E-05-2.36293E-05-3.12943E-05 3.79876E-06 1.06305E-20-3.90969E-19
 -1      2817 9.49076E-05-2.41136E-05-3.03496E-05-3.46249E-06 7.86707E-19 2.87995E-20
 -1      2818 9.45577E-05-2.35995E-05-3.03832E-05-1.68051E-06 2.56098E-19 2.89612E-19
 -1      2819 9.60837E-05-2.28937E-05-3.13959E-05-6.31661E-07 1.35305E-19-7.01437E-19
 -1      2820 9.64079E-05-2.61372E-05-3.01469E-05-6.46923E-06 9.11691E-19-2.56931E-20
 -1      2821 9.56520E-05-2.50407E-05-3.02193E-05-5.25220E-06 1.16543E-18-2.30902E-19
 -1      2822 9.69695E-05-2.41561E-05-3.12203E-05-4.85970E-06 9.96193E-19-1.67211E-18
 -1      2823 9.82719E-05-2.86727E-05-2.98638E-05-7.78289E-06 6.61466E-19-8.84730E-19
 -1      2824 9.73962E-05-2.74310E-05-2.99474E-05-7.34880E-06 1.02466E-18-5.38975E-19
 -1      2825 9.87760E-05-2.68241E-05-3.08283E-05-7.59533E-06 9.61095E-19-1.83215E-18
 -1      2826 9.98055E-05-3.08439E-05-2.95809E-05-7.44282E-06 4.44687E-19-1.71313E-18
 -1      2827 9.90713E-05-2.98403E-05-2.96511E-05-7.71530E-06 2.92312E-19-1.29034E-18
 -1      2828 1.00624E-04-2.97785E-05-3.03383E-05-8.33734E-06 7.85701E-19-2.30586E-18
 -1      2829 1.00618E-04-3.21500E-05-2.93544E-05-5.97871E-06 6.98809E-19-8.58159E-19
 -1      2830 1.00169E-04-3.15740E-05-2.93990E-05-6.70280E-06 1.02465E-18-8.50845E-19
 -1      2831 1.01813E-04-3.20573E-05-2.98694E-05-7.39087E-06 4.07725E-19-7.85587E-19
 -1      2832 1.00688E-04-3.25421E-05-2.92032E-05-4.04934E-06-3.21880E-19-1.82178E-19
 -1      2833 1.00536E-04-3.23841E-05-2.92232E-05-4.94304E-06 3.33521E-19-2.32641E-19
 -1      2834 1.02087E-04-3.32216E-05-2.94969E-05-5.48339E-06 2.51954E-19 1.56078E-19
 -1      2835 1.00218E-04-3.22560E-05-2.91167E-05-2.17128E-06 5.58397E-19-1.04843E-18
 -1      2836 1.00296E-04-3.23951E-05-2.91212E-05-3.02270E-06-4.60203E-19-1.29283E-18
 -1      2837 1.01590E-04-3.33437E-05-2.92423E-05-3.33610E-06 4.43534E-19-5.90223E-19
 -1      2838 9.94667E-05-3.16023E-05-2.90719E-05-6.32570E-07 4.64166E-19-1.53533E-18
 -1      2839 9.96827E-05-3.18971E-05-2.90713E-05-1.32511E-06 8.96380E-19-1.30611E-18
 -1      2840 1.00638E-04-3.27670E-05-2.90899E-05-1.42668E-06 6.59672E-19-3.66675E-19
 -1      2841 9.86410E-05-3.08378E-05-2.90463E-05 4.70102E-07 9.97746E-19-4.92602E-19
 -1      2842 9.89177E-05-3.11765E-05-2.90485E-05-2.51215E-08 5.92203E-19-9.44778E-19
 -1      2843 9.95367E-05-3.18652E-05-2.90085E-05 3.03880E-08 2.12530E-19-5.95345E-19
 -1      2844 9.78691E-05-3.01244E-05-2.90233E-05 1.15852E-06 5.70946E-19 2.78823E-19
 -1      2845 9.81536E-05-3.04383E-05-2.90325E-05 8.49866E-07 1.18537E-18-1.07221E-19
 -1      2846 9.84899E-05-3.09178E-05-2.89672E-05 1.00363E-06 6.30108E-19 5.84842E-19
 -1      2847 9.72106E-05-2.95394E-05-2.89945E-05 1.51005E-06 4.72581E-19-1.27714E-18
 -1      2848 9.74734E-05-2.97968E-05-2.90115E-05 1.35347E-06 6.67497E-19-9.32041E-19
 -1      2849 9.76017E-05-3.00855E-05-2.89428E-05 1.55786E-06 1.23891E-18-4.14084E-19
 -1      2850 9.66803E-05-2.91011E-05-2.89574E-05 1.61610E-06-3.96273E-19-1.48436E-18
 -1      2851 9.69084E-05-2.92951E-05-2.89808E-05 1.57080E-06 2.76356E-21-1.54843E-18
 -1      2852 9.69021E-05-2.94334E-05-2.89212E-05 1.79255E-06 4.81106E-19-1.78085E-18
 -1      2853 9.62683E-05-2.87956E-05-2.89137E-05 1.55988E-06 9.69905E-20-1.54143E-18
 -1      2854 9.64591E-05-2.89327E-05-2.89410E-05 1.58850E-06-3.73827E-19-1.25602E-18
 -1      2855 9.63786E-05-2.89653E-05-2.88962E-05 1.80669E-06-1.57887E-19-1.67236E-18
 -1      2856 9.59552E-05-2.85948E-05-2.88668E-05 1.40735E-06-1.14749E-18-5.82653E-19
 -1      2857 9.61107E-05-2.86872E-05-2.88953E-05 1.48021E-06-5.23713E-19-4.84064E-19
 -1      2858 9.60006E-05-2.86538E-05-2.88665E-05 1.68298E-06-1.21889E-18-2.01465E-19
 -1      2859 9.57189E-05-2.84683E-05-2.88204E-05 1.20418E-06-1.19962E-18-4.26251E-19
 -1      2860 9.58432E-05-2.85288E-05-2.88477E-05 1.30033E-06-9.89184E-19 1.73941E-19
 -1      2861 9.57314E-05-2.84595E-05-2.88337E-05 1.48475E-06-1.35346E-18 1.31825E-18
 -1      2862 9.55326E-05-2.83828E-05-2.87778E-05 9.90112E-07-1.61346E-18-5.60990E-19
 -1      2863 9.56326E-05-2.84231E-05-2.88022E-05 1.09698E-06-1.48193E-18-1.46060E-18
 -1      2864 9.55345E-05-2.83410E-05-2.88006E-05 1.26094E-06-7.48273E-19-2.12603E-19
 -1      2865 9.53894E-05-2.82650E-05-2.87708E-05 1.03212E-06-1.85930E-18-1.28743E-18
 -1      2866 9.49427E-05-2.78168E-05-2.87712E-05 8.23126E-07-1.92694E-18 1.09844E-18
 -1      2867 9.50390E-05-2.79238E-05-2.87612E-05 8.43058E-07-1.62066E-18-8.27958E-19
 -1      2868 9.45841E-05-2.73989E-05-2.87971E-05 5.24332E-07-1.93417E-18-3.55822E-18
 -1      2869 9.46598E-05-2.74810E-05-2.87898E-05 6.28907E-07-2.49704E-18-2.91149E-18
 -1      2870 9.51963E-05-2.81066E-05-2.87541E-05 8.26661E-07-1.98554E-18-2.06739E-18
 -1      2871 1.31500E-04-1.55012E-05-5.04722E-05-9.79346E-06 3.09887E-18-3.61789E-19
 -1      2872 1.35670E-04-2.47388E-05-4.78757E-05-1.09894E-05 1.33799E-18-2.82697E-19
 -1      2873 9.47521E-05-2.75942E-05-2.87851E-05 7.21873E-07-3.59541E-18-2.22173E-18
 -1      2874 9.48434E-05-2.76952E-05-2.87761E-05 7.83615E-07-3.68229E-18 5.46448E-19
 -1      2875 9.48687E-05-2.77371E-05-2.87688E-05 9.09844E-07-3.05069E-18-7.84714E-19
 -1      2876 9.46429E-05-2.74959E-05-2.87757E-05 7.71394E-07-3.58881E-18-1.61468E-18
 -1      2877 9.47983E-05-2.82257E-05-2.85302E-05-1.22605E-06 4.47689E-19 3.19451E-19
 -1      2878 9.47853E-05-2.81165E-05-2.85643E-05-1.06900E-06 6.28041E-19 2.02043E-19
 -1      2879 9.52226E-05-2.80418E-05-2.87986E-05-8.72364E-07 6.43405E-19-1.36095E-19
 -1      2880 9.51766E-05-2.83044E-05-2.86648E-05-1.26675E-06 4.84242E-19 6.51705E-21
 -1      2881 9.44155E-05-2.71897E-05-2.88138E-05-8.68411E-08-1.68708E-18-3.63278E-19
 -1      2882 9.44258E-05-2.72017E-05-2.88112E-05 7.02344E-08-1.88181E-18-5.16389E-19
 -1      2883 9.44575E-05-2.72193E-05-2.88179E-05-4.21472E-07-1.95400E-19-2.42838E-18
 -1      2884 9.44230E-05-2.71865E-05-2.88179E-05-2.70925E-07-1.13221E-18-8.97751E-19
 -1      2885 9.42890E-05-2.70783E-05-2.88009E-05-1.77952E-07-5.15734E-20-9.54231E-19
 -1      2886 9.45992E-05-2.73538E-05-2.88192E-05-7.18251E-07 4.12691E-19 2.21942E-18
 -1      2887 9.45169E-05-2.72747E-05-2.88218E-05-5.93835E-07-8.50161E-22-4.17202E-19
 -1      2888 9.43652E-05-2.71297E-05-2.88111E-05-5.55803E-07 4.28725E-19-2.49727E-19
 -1      2889 9.48295E-05-2.75854E-05-2.88168E-05-9.15016E-07-5.23280E-19 3.07360E-18
 -1      2890 9.47090E-05-2.74683E-05-2.88221E-05-8.44420E-07 9.45293E-20 2.74534E-18
 -1      2891 9.45614E-05-2.73020E-05-2.88213E-05-8.76202E-07-1.15977E-18 2.15270E-18
 -1      2892 9.45170E-05-2.14829E-05-3.13316E-05-7.67444E-06-1.24941E-18-9.60350E-19
 -1      2893 9.49385E-05-2.32097E-05-3.07407E-05-5.97623E-06-1.20601E-18-8.62083E-19
 -1      2894 9.37496E-05-2.01220E-05-3.15562E-05-7.53884E-06-1.18772E-18-1.16566E-18
 -1      2895 5.05101E-05-2.32842E-05-1.12919E-05 3.70741E-05 4.71268E-19 2.64486E-18
 -1      2896 3.59508E-05-1.51156E-05-8.32875E-06 2.55729E-05 7.34166E-19 6.64921E-19
 -1      2897 6.78834E-05-3.34928E-05-1.39666E-05-3.45910E-05 1.09543E-18-9.89758E-19
 -1      2898 8.51705E-05-4.25638E-05-1.81727E-05-3.65283E-05 1.89439E-18-6.18122E-19
 -1      2899 1.19489E-04-5.78418E-05-2.67371E-05 3.21020E-05-1.31227E-18 5.37055E-18
 -1      2900 1.06173E-04-5.27822E-05-2.24490E-05 3.79786E-05-1.53376E-18 5.50618E-18
 -1      2901 1.37784E-04-5.19872E-05-3.69016E-05-5.25156E-06 1.83908E-18 1.85701E-18
 -1      2902 1.40719E-04-4.45168E-05-4.17076E-05 2.42339E-06 1.59523E-18 1.56331E-18
 -1      2903 2.99792E-05-1.01689E-05-7.96988E-06 1.24374E-05 1.12380E-18 1.08632E-19
 -1      2904 3.06209E-05-9.98734E-06-8.19536E-06-2.93937E-06 2.33966E-18-4.57398E-20
 -1      2905 9.44637E-05-2.72557E-05-2.88068E-05 2.44629E-07-1.94378E-18-1.11996E-18
 -1      2906 9.45121E-05-2.73074E-05-2.88016E-05 3.83432E-07-8.51886E-19-2.39907E-18
 -1      2907 9.43243E-05-2.71376E-05-2.87916E-05 1.99359E-07-1.05887E-18-1.35396E-18
 -1      2908 8.88036E-05-4.51765E-05-1.86434E-05 4.40341E-05-9.28136E-19 5.55807E-18
 -1      2909 7.04820E-05-3.48242E-05-1.47572E-05 4.28999E-05-9.70276E-19 5.16362E-18
 -1      2910 9.53007E-05-2.43121E-05-3.04119E-05-4.92007E-06-1.08698E-18-8.22797E-19
 -1      2911 9.52028E-05-2.52389E-05-2.99974E-05-3.46957E-06-9.70478E-19-7.77202E-19
 -1      2912 9.52533E-05-2.49184E-05-3.01394E-05-3.21655E-06-8.98703E-19-7.48647E-19
 -1      2913 9.48776E-05-2.32407E-05-3.07076E-05-5.08748E-06-1.06330E-18-9.59529E-19
 -1      2914 1.39203E-04-3.66124E-05-4.46927E-05-7.30499E-06 3.50460E-19-3.15943E-19
 -1      2915 1.40924E-04-4.55334E-05-4.09076E-05-1.73207E-06-2.05300E-19-1.05456E-19
 -1      2916 9.11923E-05-1.60645E-05-3.22254E-05 4.89998E-06 1.10136E-18-1.20146E-18
 -1      2917 9.08506E-05-1.55637E-05-3.22877E-05 3.98010E-06 9.18410E-19-1.38003E-18
 -1      2918 9.18246E-05-1.71644E-05-3.19818E-05 3.18133E-06 8.23030E-19-1.29385E-18
 -1      2919 9.24911E-05-1.82310E-05-3.18063E-05 4.59510E-06 1.06558E-18-1.00146E-18
 -1      2920 5.43930E-05-2.63394E-05-1.12525E-05-3.93076E-05-4.39187E-19-2.49663E-18
 -1      2921 6.99158E-05-3.59421E-05-1.45640E-05-4.49242E-05-1.84018E-19-1.94013E-18
 -1      2922 3.51511E-05-1.41089E-05-8.49701E-06 1.60760E-05 6.76568E-19-2.55275E-18
 -1      2923 3.02285E-05-9.96434E-06-8.13988E-06 2.90842E-06 1.24223E-19-3.03428E-18
 -1      2924 1.26252E-04-6.37836E-06-5.21226E-05-1.59834E-06 4.26650E-18 1.02230E-18
 -1      2925 1.27951E-04-8.73507E-06-5.16834E-05-6.51630E-06 4.08270E-18 1.31608E-19
 -1      2926 1.38947E-04-3.55336E-05-4.46555E-05 8.05595E-06 9.09713E-19 1.23074E-18
 -1      2927 1.35396E-04-2.57124E-05-4.77264E-05 1.06523E-05 1.02936E-18 1.43996E-19
 -1      2928 1.34876E-04-3.99129E-05-4.08789E-05 7.90675E-06 1.56087E-18 6.58780E-19
 -1      2929 8.95346E-05-4.56724E-05-1.82184E-05-4.32833E-05 1.78089E-19-6.36492E-19
 -1      2930 1.06621E-04-5.36909E-05-2.29028E-05-3.94854E-05 8.12940E-19 1.45719E-18
 -1      2931 9.08176E-05-1.55171E-05-3.22936E-05-3.91337E-06-3.45375E-19-1.69284E-18
 -1      2932 9.11547E-05-1.60094E-05-3.22332E-05-4.83746E-06-5.40097E-19-1.62949E-18
 -1      2933 1.21569E-04-5.78345E-05-2.69776E-05-2.97587E-05 1.07113E-18 1.62117E-18
 -1      2934 1.31819E-04-5.79745E-05-3.19700E-05-1.86963E-05 1.26674E-18 1.98730E-18
 -1      2935 6.31938E-05-3.02038E-05-1.38423E-05 3.40570E-05 1.72594E-18-4.26058E-18
 -1      2936 4.60830E-05-2.01820E-05-1.04355E-05 2.53614E-05 1.15546E-18-3.39766E-18
 -1      2937 9.52145E-05-2.79619E-05-2.88227E-05-1.06517E-06-2.81688E-20 2.64285E-18
 -1      2938 8.40326E-05-4.01043E-05-1.83554E-05-4.07786E-05-2.78780E-19-9.34066E-19
 -1      2939 9.13019E-05-1.63491E-05-3.21102E-05 3.05353E-08 2.53493E-19-1.57459E-18
 -1      2940 9.01848E-05-1.45701E-05-3.24258E-05-3.79050E-07 2.21093E-19-1.69214E-18
 -1      2941 9.02420E-05-1.46513E-05-3.24157E-05-1.33312E-06 6.50529E-20-1.69576E-18
 -1      2942 9.44797E-05-2.13903E-05-3.13183E-05 7.85042E-06 1.51937E-18-3.51916E-20
 -1      2943 1.19089E-04-5.97522E-05-2.47686E-05 2.88273E-05 2.08201E-18-1.78274E-19
 -1      2944 1.30589E-04-2.02373E-05-4.77028E-05 1.14055E-05 1.61572E-18 1.09754E-18
 -1      2945 1.22967E-04-1.49043E-05-4.69374E-05 1.06721E-05 2.29874E-18 2.05469E-18
 -1      2946 1.26839E-04-2.58020E-05-4.35443E-05 1.20845E-05 1.09140E-18 1.11758E-18
 -1      2947 9.51608E-05-2.80478E-05-2.87610E-05 9.45799E-07-1.73890E-18-7.62586E-19
 -1      2948 1.32440E-04-3.11898E-05-4.36651E-05-1.09099E-05 2.84180E-19-1.62620E-18
 -1      2949 9.46271E-05-4.07117E-05-2.25781E-05 3.16354E-05 1.82112E-18-1.15811E-18
 -1      2950 1.02889E-04-5.03659E-05-2.21832E-05 3.20375E-05 2.16512E-18-1.28558E-18
 -1      2951 4.09463E-05-1.19448E-05-1.17570E-05 1.74463E-05 1.50145E-18 9.89123E-19
 -1      2952 9.20523E-05-3.54046E-05-2.38639E-05-2.98401E-05 1.09055E-18-1.67527E-18
 -1      2953 7.77774E-05-2.74491E-05-2.14783E-05-2.96931E-05 8.52327E-19-1.86638E-18
 -1      2954 9.53236E-05-2.56385E-05-2.98718E-05 2.54549E-06 8.64564E-19-2.43237E-19
 -1      2955 9.52052E-05-2.58705E-05-2.97093E-05 2.72790E-06 8.41408E-19-5.01278E-20
 -1      2956 1.56144E-04-6.31886E-05-4.04590E-05-8.40174E-06 6.92767E-19 1.04122E-18
 -1      2957 9.44509E-05-2.72862E-05-2.87831E-05 5.28566E-07-1.56356E-18-2.39093E-18
 -1      2958 7.58966E-05-3.24169E-05-1.83551E-05 3.69412E-05 8.43062E-19 4.48054E-18
 -1      2959 6.37464E-05-2.85173E-05-1.46663E-05 3.91060E-05 4.46386E-19 4.18593E-18
 -1      2960 5.78095E-05-2.11808E-05-1.53342E-05 3.25189E-05 1.53588E-18 3.53615E-18
 -1      2961 9.52284E-05-2.55415E-05-2.98426E-05 3.42953E-06 9.40443E-19 9.11429E-20
 -1      2962 9.03675E-05-1.48446E-05-3.23874E-05-2.16643E-06-3.74617E-20-1.61842E-18
 -1      2963 9.05511E-05-1.51092E-05-3.23543E-05-3.11459E-06-2.16169E-19-1.69262E-18
 -1      2964 9.17988E-05-1.71238E-05-3.19876E-05-3.12331E-06-3.11951E-19-1.52794E-18
 -1      2965 9.14222E-05-1.65353E-05-3.20811E-05-1.57177E-06-1.25654E-20-1.53863E-18
 -1      2966 1.24005E-04-1.35456E-05-4.77473E-05-8.92170E-06 2.61140E-18-6.75032E-19
 -1      2967 6.30252E-05-2.69206E-05-1.48106E-05-3.05369E-05 1.48930E-18-9.45712E-19
 -1      2968 1.36861E-04-5.00628E-05-3.73453E-05 1.63676E-06-2.47175E-19-4.78044E-19
 -1      2969 9.51113E-05-2.78912E-05-2.88082E-05-9.63936E-07-7.16364E-19 1.44754E-18
 -1      2970 9.49779E-05-2.77479E-05-2.88173E-05-9.71173E-07-9.90953E-19 2.88481E-18
 -1      2971 9.95683E-05-4.78107E-05-2.19029E-05 3.74735E-05-1.04132E-18 5.42544E-18
 -1      2972 1.14608E-04-5.45652E-05-2.54623E-05-3.10973E-05 5.56130E-19 1.58059E-18
 -1      2973 1.26099E-04-5.70857E-05-2.94560E-05 2.16703E-05-6.38875E-19 4.65625E-18
 -1      2974 3.38327E-05-9.53038E-06-9.69322E-06-4.95738E-06-2.48598E-19-3.74367E-18
 -1      2975 3.87014E-05-1.00579E-05-1.21525E-05-1.32170E-05-1.00195E-18-3.19427E-18
 -1      2976 3.91286E-05-8.55915E-06-1.28195E-05 2.75615E-06-1.52102E-19-2.55507E-18
 -1      2977 3.72691E-05-1.13901E-05-1.03483E-05-9.90362E-06 2.03394E-18 1.70465E-19
 -1      2978 4.55185E-05-1.32463E-05-1.35210E-05-1.73823E-05 2.15199E-18 2.62474E-19
 -1      2979 4.16816E-05-8.80762E-06-1.36548E-05-3.51774E-06 2.01980E-18 2.92756E-19
 -1      2980 1.19883E-04-8.61054E-06-4.81232E-05 5.38203E-06 3.19088E-18 1.18450E-18
 -1      2981 1.23711E-04-7.18861E-06-5.04919E-05 1.74122E-06 4.17831E-18 8.55914E-19
 -1      2982 1.17310E-04-7.97922E-06-4.72291E-05-6.90766E-07 3.07822E-18 1.45875E-19
 -1      2983 1.07453E-04-5.12355E-05-2.32673E-05-3.14982E-05 2.56884E-18-1.00135E-18
 -1      2984 1.34862E-04-5.56239E-05-3.40144E-05-9.62496E-06 1.55562E-18 1.77157E-18
 -1      2985 1.32872E-04-5.05539E-05-3.54543E-05-9.45974E-07 1.59695E-18 1.06056E-18
 -1      2986 1.28384E-04-5.55857E-05-3.11847E-05-1.40223E-05 6.29518E-19 1.65235E-18
 -1      2987 9.98177E-05-4.49811E-05-2.30888E-05-3.11616E-05 2.18386E-18-1.66241E-18
 -1      2988 9.47450E-05-2.24019E-05-3.09728E-05 6.31788E-06 1.24933E-18-1.16082E-19
 -1      2989 7.69285E-05-3.10830E-05-1.94875E-05 3.19899E-05 1.50957E-18-2.61839E-18
 -1      2990 4.86375E-05-1.62692E-05-1.32714E-05 2.02490E-05 8.74297E-19-3.24160E-18
 -1      2991 5.11350E-05-2.06771E-05-1.23947E-05-3.25038E-05-9.72606E-19-2.35306E-18
 -1      2992 9.24470E-05-1.81520E-05-3.18166E-05-4.55577E-06-6.28806E-19-1.39808E-18
 -1      2993 9.15824E-05-1.66624E-05-3.21301E-05-5.56189E-06-7.43515E-19-1.58829E-18
 -1      2994 9.21003E-05-1.74590E-05-3.20280E-05-6.38617E-06-9.80637E-19-1.44482E-18
 -1      2995 9.48486E-05-2.75788E-05-2.88284E-05-1.07460E-06-4.04379E-19 2.64251E-18
 -1      2996 9.66771E-05-4.99898E-05-2.00662E-05 3.50387E-05 2.13050E-18-2.01414E-18
 -1      2997 7.63212E-05-3.89161E-05-1.53415E-05 3.66266E-05 2.26137E-18-3.67888E-18
 -1      2998 7.10985E-05-3.15207E-05-1.65101E-05 3.27629E-05 1.75802E-18-3.47538E-18
 -1      2999 9.42719E-05-2.18393E-05-3.10777E-05 4.96734E-06 1.06975E-18-4.27166E-19
 -1      3000 9.38214E-05-2.08898E-05-3.12615E-05 4.57885E-06 1.02085E-18-6.42613E-19
 -1      3001 9.53695E-05-2.53422E-05-2.99880E-05 4.65827E-06 1.09971E-18 3.77891E-19
 -1      3002 9.42202E-05-2.70104E-05-2.88055E-05-6.91212E-07-1.20591E-19 3.92523E-19
 -1      3003 9.41423E-05-2.69506E-05-2.87988E-05-5.02055E-07 4.80300E-19-1.95910E-18
 -1      3004 9.55034E-05-2.55410E-05-2.99713E-05-2.05851E-06-7.25840E-19-8.87744E-19
 -1      3005 9.55513E-05-2.62584E-05-2.97079E-05-1.20784E-06-7.40571E-19-7.33298E-19
 -1      3006 9.25826E-05-1.82110E-05-3.18920E-05-6.81843E-06-1.01056E-18-1.38279E-18
 -1      3007 9.32135E-05-1.92209E-05-3.17475E-05-7.31621E-06-1.13192E-18-1.29684E-18
 -1      3008 9.41518E-05-2.12000E-05-3.12319E-05-6.03813E-06-1.04697E-18-1.15542E-18
 -1      3009 9.33422E-05-1.96251E-05-3.15605E-05-5.56426E-06-9.82113E-19-1.26362E-18
 -1      3010 9.53692E-05-2.55030E-05-2.99536E-05 2.13843E-06 9.13951E-19-4.14785E-19
 -1      3011 9.52881E-05-2.46673E-05-3.02624E-05 3.15903E-06 9.36937E-19-2.96706E-19
 -1      3012 9.56910E-05-2.68510E-05-2.94881E-05-6.07392E-07-7.05587E-19-6.12849E-19
 -1      3013 9.56685E-05-2.72781E-05-2.93174E-05-7.09482E-08-6.91587E-19-6.59834E-19
 -1      3014 9.57175E-05-2.61657E-05-2.98102E-05-1.04940E-06-6.09539E-19-7.99094E-19
 -1      3015 9.57042E-05-2.76385E-05-2.91600E-05 3.31949E-07-7.65013E-19-5.98261E-19
 -1      3016 9.56707E-05-2.79015E-05-2.90476E-05 6.70865E-07-6.81126E-19-5.37248E-19
 -1      3017 9.58934E-05-2.72443E-05-2.94245E-05-7.95913E-09-6.77659E-19-8.32498E-19
 -1      3018 9.56522E-05-2.81097E-05-2.89395E-05 9.27158E-07-4.55516E-19-5.48500E-19
 -1      3019 9.56242E-05-2.82621E-05-2.88705E-05 1.13460E-06-3.30548E-19-4.04130E-19
 -1      3020 9.59172E-05-2.79090E-05-2.91501E-05 6.83925E-07-6.64350E-19-6.02183E-19
 -1      3021 9.55770E-05-2.83657E-05-2.88007E-05 1.29282E-06-4.17215E-19-3.95820E-19
 -1      3022 9.55579E-05-2.84398E-05-2.87642E-05 1.42028E-06-4.48463E-19-5.10795E-19
 -1      3023 9.58587E-05-2.82850E-05-2.89635E-05 1.12535E-06-2.54464E-19-8.07489E-19
 -1      3024 9.54934E-05-2.84674E-05-2.87238E-05 1.52083E-06-4.30711E-19-3.48680E-19
 -1      3025 9.54812E-05-2.84825E-05-2.87118E-05 1.60829E-06-4.65588E-19-3.43607E-19
 -1      3026 9.57535E-05-2.84544E-05-2.88451E-05 1.40496E-06-5.12397E-19-5.66769E-19
 -1      3027 9.54022E-05-2.84507E-05-2.86940E-05 1.68359E-06-4.60570E-19-3.64680E-19
 -1      3028 9.53931E-05-2.84176E-05-2.87009E-05 1.76243E-06-4.62938E-19-1.94986E-19
 -1      3029 9.56158E-05-2.84678E-05-2.87794E-05 1.59619E-06-4.54212E-19-6.47256E-19
 -1      3030 9.52920E-05-2.83294E-05-2.87006E-05 1.84193E-06-5.30491E-19-2.13180E-19
 -1      3031 9.52767E-05-2.82457E-05-2.87240E-05 1.94330E-06-5.81371E-19-1.88185E-19
 -1      3032 9.54409E-05-2.83494E-05-2.87542E-05 1.76161E-06-4.64965E-19-4.93245E-19
 -1      3033 9.51517E-05-2.81083E-05-2.87371E-05 2.04121E-06-5.08429E-19-8.06794E-20
 -1      3034 9.51236E-05-2.79809E-05-2.87717E-05 2.17674E-06-2.67466E-19-8.92790E-20
 -1      3035 9.52204E-05-2.81106E-05-2.87605E-05 1.94502E-06-2.91092E-19-1.79401E-19
 -1      3036 9.49570E-05-2.77860E-05-2.87938E-05 2.31294E-06-9.08986E-20 4.98185E-19
 -1      3037 9.49007E-05-2.76029E-05-2.88380E-05 2.50624E-06 5.93508E-20 5.76236E-19
 -1      3038 9.49366E-05-2.77562E-05-2.87888E-05 2.17793E-06-5.60756E-20 5.08383E-19
 -1      3039 9.46672E-05-2.73362E-05-2.88650E-05 2.69378E-06 1.65522E-20 7.40736E-19
 -1      3040 9.45612E-05-2.70824E-05-2.89158E-05 2.96270E-06 8.25255E-20 1.28235E-18
 -1      3041 9.45465E-05-2.72634E-05-2.88301E-05 2.49169E-06 1.07511E-19 1.09185E-18
 -1      3042 9.42246E-05-2.67221E-05-2.89417E-05 3.21180E-06 1.67225E-19 1.52003E-18
 -1      3043 9.40359E-05-2.63754E-05-2.89946E-05 3.57323E-06 1.74645E-19 1.63324E-18
 -1      3044 9.39917E-05-2.65981E-05-2.88735E-05 2.90546E-06 4.18950E-19 1.50481E-18
 -1      3045 9.35441E-05-2.58922E-05-2.90101E-05 3.89049E-06-4.97182E-20 1.80405E-18
 -1      3046 9.32242E-05-2.54241E-05-2.90564E-05 4.35960E-06 4.22507E-20 1.81150E-18
 -1      3047 9.31866E-05-2.57111E-05-2.89027E-05 3.42901E-06 3.16212E-19 1.52843E-18
 -1      3048 9.25041E-05-2.47837E-05-2.90459E-05 4.74708E-06-1.72422E-19 1.62134E-18
 -1      3049 9.19882E-05-2.41636E-05-2.90701E-05 5.33607E-06-7.01606E-20 1.60789E-18
 -1      3050 9.20099E-05-2.45396E-05-2.88918E-05 4.05996E-06-3.78799E-20 1.41618E-18
 -1      3051 9.08825E-05-2.32814E-05-2.90026E-05 5.81358E-06-8.23789E-20 1.19658E-18
 -1      3052 9.00194E-05-2.24409E-05-2.89695E-05 6.57221E-06-4.25129E-20 1.18749E-18
 -1      3053 9.02406E-05-2.29746E-05-2.87931E-05 4.80258E-06-3.47368E-19 6.52139E-19
 -1      3054 8.84825E-05-2.13785E-05-2.88027E-05 7.09147E-06 1.56921E-19 9.30202E-19
 -1      3055 8.72558E-05-2.04052E-05-2.86652E-05 7.95292E-06 4.26875E-19 3.32799E-19
 -1      3056 8.76712E-05-2.09775E-05-2.85286E-05 5.59501E-06-1.37271E-19 5.85607E-19
 -1      3057 8.50925E-05-1.91509E-05-2.83227E-05 8.54677E-06 4.63511E-20-1.49865E-19
 -1      3058 8.33747E-05-1.81007E-05-2.79923E-05 9.57607E-06-2.66167E-19-1.07786E-18
 -1      3059 8.40880E-05-1.86059E-05-2.79849E-05 6.39468E-06-5.21742E-19-5.73731E-19
 -1      3060 8.03773E-05-1.67772E-05-2.73428E-05 1.03253E-05-1.15643E-19-1.20767E-18
 -1      3061 7.81454E-05-1.58970E-05-2.66765E-05 1.16202E-05-2.26394E-19-1.36141E-18
 -1      3062 7.90704E-05-1.59094E-05-2.69503E-05 7.26364E-06-4.02600E-19-1.80530E-18
 -1      3063 7.41259E-05-1.48741E-05-2.54949E-05 1.27572E-05-7.33994E-19-1.41247E-18
 -1      3064 7.19178E-05-1.47805E-05-2.43625E-05 1.43710E-05-5.08286E-19-1.65028E-18
 -1      3065 7.22670E-05-1.32504E-05-2.50632E-05 8.50634E-06-5.60666E-19-1.94201E-18
 -1      3066 4.78701E-05-1.34684E-05-1.43479E-05 2.30771E-05 1.66611E-18 1.71334E-18
 -1      3067 4.30937E-05-9.10266E-06-1.41471E-05 1.04074E-05 2.34598E-18 3.67295E-19
 -1      3068 9.52969E-05-2.45324E-05-3.03533E-05 4.81395E-06 1.09814E-18-8.68879E-20
 -1      3069 9.47502E-05-2.29518E-05-3.07585E-05 4.92067E-06 1.01903E-18-2.55199E-19
 -1      3070 7.68338E-05-1.59126E-05-2.60775E-05-1.41770E-05-1.65671E-19-9.43462E-19
 -1      3071 7.89104E-05-1.63423E-05-2.69073E-05-1.24836E-05-1.69503E-19-1.10280E-18
 -1      3072 8.22398E-05-1.75177E-05-2.77437E-05-1.13853E-05 4.69835E-19-1.17175E-18
 -1      3073 8.39718E-05-1.84101E-05-2.81693E-05-1.01038E-05 6.25982E-19-7.54038E-19
 -1      3074 7.68645E-05-1.49220E-05-2.64083E-05-9.08970E-06 7.11774E-19 3.92828E-19
 -1      3075 8.64183E-05-1.96674E-05-2.86169E-05-9.27341E-06 8.58718E-19 2.84544E-19
 -1      3076 8.77163E-05-2.06275E-05-2.88029E-05-8.21928E-06 1.41553E-18 1.00868E-18
 -1      3077 8.25046E-05-1.75324E-05-2.77546E-05-7.66413E-06 1.53090E-18 1.40126E-18
 -1      3078 8.94560E-05-2.17462E-05-2.90251E-05-7.53366E-06 1.34239E-18 4.01866E-19
 -1      3079 9.03483E-05-2.25801E-05-2.90796E-05-6.64618E-06 1.31435E-18 1.08319E-18
 -1      3080 8.65767E-05-2.00071E-05-2.84682E-05-6.51894E-06 1.55030E-18 1.89413E-18
 -1      3081 9.16081E-05-2.35291E-05-2.91783E-05-6.01812E-06 1.32883E-18 1.92196E-18
 -1      3082 9.22083E-05-2.42207E-05-2.91632E-05-5.24890E-06 5.19879E-19 3.33161E-18
 -1      3083 8.95020E-05-2.21449E-05-2.88255E-05-5.44075E-06 2.05869E-18 3.39765E-18
 -1      3084 9.30218E-05-2.49134E-05-2.91878E-05-4.73912E-06 3.10387E-20 3.35731E-18
 -1      3085 9.33671E-05-2.54068E-05-2.91440E-05-4.13993E-06 8.16702E-19 3.46749E-18
 -1      3086 9.15071E-05-2.38371E-05-2.89736E-05-4.45816E-06 5.27406E-19 3.78773E-18
 -1      3087 9.39092E-05-2.59202E-05-2.91346E-05-3.70888E-06 8.09812E-19 2.64328E-18
 -1      3088 9.41088E-05-2.62811E-05-2.90821E-05-3.22746E-06 3.98552E-19 3.26374E-18
 -1      3089 9.28229E-05-2.50969E-05-2.90075E-05-3.60375E-06 5.06912E-19 3.08582E-18
 -1      3090 9.44647E-05-2.66532E-05-2.90580E-05-2.87043E-06 8.43437E-19 3.66035E-18
 -1      3091 9.45706E-05-2.69095E-05-2.90070E-05-2.48812E-06 1.34436E-18 3.72689E-18
 -1      3092 9.36963E-05-2.60322E-05-2.89876E-05-2.86636E-06 8.27755E-19 3.93066E-18
 -1      3093 9.47993E-05-2.71715E-05-2.89789E-05-2.19783E-06 5.19770E-19 3.14478E-18
 -1      3094 9.48456E-05-2.73491E-05-2.89342E-05-1.89406E-06-2.91002E-19 2.66724E-18
 -1      3095 9.42670E-05-2.67131E-05-2.89450E-05-2.24678E-06 4.35340E-19 3.93056E-18
 -1      3096 9.49922E-05-2.75333E-05-2.89075E-05-1.65964E-06-4.23653E-19 2.33867E-18
 -1      3097 9.50077E-05-2.76498E-05-2.88710E-05-1.42089E-06-6.19971E-19 2.61482E-18
 -1      3098 9.46259E-05-2.71926E-05-2.88973E-05-1.73699E-06-9.36420E-19 2.26817E-18
 -1      3099 9.55799E-05-2.75958E-05-2.91415E-05-2.85585E-07 7.16074E-19-3.92462E-19
 -1      3100 9.56209E-05-2.72594E-05-2.92844E-05 1.62818E-07 7.89358E-19-4.75313E-19
 -1      3101 9.55513E-05-2.67955E-05-2.94760E-05 6.81096E-07 8.87502E-19-4.77538E-19
 -1      3102 9.55684E-05-2.62570E-05-2.96888E-05 1.37968E-06 8.18260E-19-4.65412E-19
 -1      3103 9.54896E-05-2.53696E-05-3.00499E-05 1.89046E-06 8.98102E-19-4.90503E-19
 -1      3104 9.57609E-05-2.67344E-05-2.95861E-05 5.69552E-07 8.65212E-19-4.65809E-19
 -1      3105 9.54146E-05-2.85683E-05-2.86463E-05-1.60963E-06 6.14373E-20 3.74020E-19
 -1      3106 9.54036E-05-2.85407E-05-2.86540E-05-1.55380E-06 1.85214E-19 4.61483E-19
 -1      3107 9.54513E-05-2.85126E-05-2.86869E-05-1.48014E-06 2.11642E-19 1.74512E-19
 -1      3108 9.54546E-05-2.84475E-05-2.87138E-05-1.38778E-06 3.96641E-19 3.22705E-19
 -1      3109 9.56582E-05-2.85502E-05-2.87635E-05-1.47553E-06 1.17168E-20 5.57349E-19
 -1      3110 9.53996E-05-2.85443E-05-2.86492E-05-1.79314E-06-4.79954E-19 3.41190E-19
 -1      3111 9.53588E-05-2.85468E-05-2.86343E-05-1.75119E-06-3.79766E-19 3.16380E-19
 -1      3112 9.54396E-05-2.85239E-05-2.86749E-05-1.89859E-06 2.14544E-19-1.73848E-19
 -1      3113 9.53788E-05-2.85202E-05-2.86545E-05-1.84969E-06-1.98101E-19 7.83894E-20
 -1      3114 9.54358E-05-2.85179E-05-2.86812E-05-1.84375E-06-1.97586E-19-1.53016E-19
 -1      3115 9.55321E-05-2.85403E-05-2.87076E-05-2.02387E-06-2.05458E-20-2.56065E-19
 -1      3116 9.54438E-05-2.85142E-05-2.86847E-05-1.96859E-06 8.65262E-20-2.07492E-19
 -1      3117 9.54190E-05-2.84798E-05-2.86907E-05-1.98064E-06 1.60155E-19-6.10243E-19
 -1      3118 9.57022E-05-2.86316E-05-2.87418E-05-2.15859E-06-3.68840E-19 4.35394E-19
 -1      3119 9.55755E-05-2.85642E-05-2.87188E-05-2.10541E-06-2.62126E-20 2.75889E-19
 -1      3120 9.54649E-05-2.84916E-05-2.87061E-05-2.14405E-06-3.00035E-19 5.67182E-20
 -1      3121 9.59846E-05-2.88432E-05-2.87729E-05-2.27520E-06-4.74245E-19 4.86235E-19
 -1      3122 9.58049E-05-2.87123E-05-2.87520E-05-2.24164E-06-4.40316E-19 2.62272E-19
 -1      3123 9.56076E-05-2.86007E-05-2.87218E-05-2.32419E-06-2.93043E-19 8.11236E-19
 -1      3124 9.64233E-05-2.92252E-05-2.87987E-05-2.32585E-06 2.68729E-19 1.05903E-18
 -1      3125 9.61737E-05-2.90072E-05-2.87811E-05-2.33968E-06-7.88837E-20 6.35226E-19
 -1      3126 9.58941E-05-2.88627E-05-2.87343E-05-2.49358E-06-3.21657E-19 2.65493E-19
 -1      3127 9.70675E-05-2.98256E-05-2.88198E-05-2.23896E-06 1.59582E-19 1.07568E-18
 -1      3128 9.67314E-05-2.95005E-05-2.88052E-05-2.33908E-06 3.91074E-19 1.49927E-18
 -1      3129 9.63843E-05-2.93392E-05-2.87428E-05-2.60249E-06 1.34226E-20 5.83566E-19
 -1      3130 9.79612E-05-3.06741E-05-2.88428E-05-1.91780E-06-1.88040E-19 1.09523E-18
 -1      3131 9.75293E-05-3.02343E-05-2.88281E-05-2.15317E-06-1.54030E-19 1.01657E-18
 -1      3132 9.71464E-05-3.00877E-05-2.87519E-05-2.57338E-06 1.62028E-19 1.22873E-18
 -1      3133 9.91218E-05-3.17530E-05-2.88828E-05-1.24474E-06-3.97405E-19 6.50024E-19
 -1      3134 9.86028E-05-3.12198E-05-2.88610E-05-1.66924E-06 3.52965E-19 1.05265E-18
 -1      3135 9.82434E-05-3.11406E-05-2.87739E-05-2.29603E-06 7.11065E-21 1.16446E-18
 -1      3136 1.00505E-04-3.29556E-05-2.89659E-05-1.00156E-07-1.09690E-18 1.88635E-19
 -1      3137 9.99416E-05-3.24001E-05-2.89251E-05-7.59010E-07-8.77425E-19 3.75244E-19
 -1      3138 9.97043E-05-3.24671E-05-2.88331E-05-1.62894E-06-3.07135E-19 2.07675E-19
 -1      3139 1.01962E-04-3.40393E-05-2.91306E-05 1.59486E-06-9.27458E-19-2.29890E-19
 -1      3140 1.01447E-04-3.36035E-05-2.90537E-05 6.90615E-07-1.13720E-18 6.06129E-20
 -1      3141 1.01478E-04-3.39217E-05-2.89678E-05-4.18696E-07-8.23548E-19-3.84793E-19
 -1      3142 1.03200E-04-3.45961E-05-2.94230E-05 3.79569E-06-5.55530E-20-7.22809E-19
 -1      3143 1.02881E-04-3.44986E-05-2.92905E-05 2.71176E-06-3.95347E-19-4.19396E-19
 -1      3144 1.03369E-04-3.51795E-05-2.92307E-05 1.44900E-06-4.99600E-19-7.35585E-19
 -1      3145 1.03806E-04-3.41072E-05-2.98826E-05 6.20914E-06 6.96341E-20-8.00407E-19
 -1      3146 1.03852E-04-3.45952E-05-2.96809E-05 5.13898E-06-5.95847E-20-7.20939E-19
 -1      3147 1.04988E-04-3.57111E-05-2.96809E-05 3.93421E-06 7.19754E-20-4.57575E-19
 -1      3148 1.03378E-04-3.21550E-05-3.05137E-05 8.18908E-06 3.32118E-19-3.21360E-19
 -1      3149 1.03896E-04-3.33757E-05-3.02473E-05 7.47575E-06 1.71313E-19-3.12479E-19
 -1      3150 1.05781E-04-3.48718E-05-3.03606E-05 6.67077E-06-2.00027E-19-4.81681E-19
 -1      3151 1.01813E-04-2.87940E-05-3.12550E-05 8.79688E-06 7.42673E-19-3.53169E-19
 -1      3152 1.02730E-04-3.06110E-05-3.09573E-05 8.85901E-06 3.62188E-19-4.96125E-19
 -1      3153 1.05241E-04-3.22256E-05-3.12512E-05 8.82396E-06 3.06472E-19-1.18666E-19
 -1      3154 9.96046E-05-2.49071E-05-3.19630E-05 7.16303E-06 4.32412E-19 2.42001E-19
 -1      3155 1.00590E-04-2.67601E-05-3.17016E-05 8.29153E-06 9.83897E-19-1.50416E-19
 -1      3156 1.03326E-04-2.80234E-05-3.22431E-05 9.21465E-06 3.17644E-19 2.75782E-20
 -1      3157 9.78291E-05-2.20732E-05-3.24349E-05 3.23457E-06 4.88710E-19-3.39322E-20
 -1      3158 9.84337E-05-2.31866E-05-3.22904E-05 5.29028E-06 5.24564E-19 6.12008E-19
 -1      3159 1.00855E-04-2.35995E-05-3.31122E-05 6.89830E-06 2.87820E-19 7.26470E-19
 -1      3160 9.75391E-05-2.17079E-05-3.25072E-05-1.89185E-06 5.65336E-19-6.00328E-19
 -1      3161 9.74396E-05-2.15213E-05-3.25317E-05 4.68190E-07 5.90672E-19-1.20244E-19
 -1      3162 9.92271E-05-2.09188E-05-3.35911E-05 2.06707E-06 9.48313E-19 4.75762E-19
 -1      3163 9.89704E-05-2.40526E-05-3.21546E-05-6.35673E-06 1.11501E-18-7.87896E-19
 -1      3164 9.82066E-05-2.26517E-05-3.23378E-05-4.51409E-06 5.89280E-19-1.03403E-18
 -1      3165 9.95041E-05-2.13531E-05-3.35086E-05-3.58207E-06 8.04886E-19-6.80014E-19
 -1      3166 1.01248E-04-2.78733E-05-3.15068E-05-8.67796E-06 9.90453E-19-1.39664E-18
 -1      3167 1.00234E-04-2.59601E-05-3.17843E-05-7.86037E-06 1.49417E-18-1.31725E-18
 -1      3168 1.01533E-04-2.47599E-05-3.28994E-05-7.81510E-06 1.34245E-18-1.11711E-18
 -1      3169 1.03168E-04-3.15023E-05-3.07580E-05-8.63313E-06 9.56874E-20-1.55299E-18
 -1      3170 1.02341E-04-2.98170E-05-3.10523E-05-8.81656E-06 7.20880E-19-1.67728E-18
 -1      3171 1.03969E-04-2.92905E-05-3.19765E-05-9.34345E-06 7.30182E-19-1.51130E-18
 -1      3172 1.04002E-04-3.38524E-05-3.00804E-05-6.89692E-06-1.60054E-19-5.14745E-19
 -1      3173 1.03615E-04-3.28361E-05-3.03304E-05-7.74552E-06-2.21319E-19-1.16038E-18
 -1      3174 1.05534E-04-3.31161E-05-3.09956E-05-8.36249E-06-1.93875E-19-1.33077E-18
 -1      3175 1.03659E-04-3.46586E-05-2.95659E-05-4.47241E-06 8.59453E-20-6.12588E-19
 -1      3176 1.03729E-04-3.43585E-05-2.97461E-05-5.56850E-06 2.78003E-19-3.32057E-19
 -1      3177 1.05678E-04-3.52549E-05-3.01573E-05-5.94498E-06-7.98964E-19-1.53674E-18
 -1      3178 1.02513E-04-3.42757E-05-2.92260E-05-2.14100E-06 1.03480E-18-1.24456E-18
 -1      3179 1.02903E-04-3.44970E-05-2.93392E-05-3.17886E-06 4.07885E-19-7.61377E-19
 -1      3180 1.04595E-04-3.56442E-05-2.95472E-05-3.22716E-06 5.68633E-19-5.65686E-19
 -1      3181 1.01026E-04-3.32405E-05-2.90286E-05-2.96181E-07 2.49252E-19-9.53610E-19
 -1      3182 1.01565E-04-3.37340E-05-2.90910E-05-1.12233E-06 1.02943E-18-1.02550E-18
 -1      3183 1.02847E-04-3.48343E-05-2.91585E-05-9.13194E-07 5.56544E-19-4.68659E-19
 -1      3184 9.95501E-05-3.20027E-05-2.89281E-05 9.65188E-07 9.40194E-22-1.27296E-18
 -1      3185 1.00106E-04-3.25702E-05-2.89587E-05 3.90914E-07 1.11377E-19-1.24392E-18
 -1      3186 1.00954E-04-3.34618E-05-2.89417E-05 7.41541E-07 8.62648E-20-1.03978E-18
 -1      3187 9.82785E-05-3.08456E-05-2.88833E-05 1.70432E-06 5.49510E-19-4.60975E-19
 -1      3188 9.87732E-05-3.13666E-05-2.88978E-05 1.35908E-06-5.60878E-20-1.13069E-18
 -1      3189 9.92493E-05-3.19984E-05-2.88388E-05 1.75388E-06-1.61747E-19-1.52663E-18
 -1      3190 9.72810E-05-2.99037E-05-2.88642E-05 2.04142E-06 9.08897E-19-1.30137E-18
 -1      3191 9.76830E-05-3.03235E-05-2.88731E-05 1.87655E-06 1.34190E-18-1.06988E-18
 -1      3192 9.78795E-05-3.07126E-05-2.88005E-05 2.25436E-06 3.63526E-19-1.18033E-18
 -1      3193 9.65504E-05-2.92096E-05-2.88526E-05 2.10032E-06 5.84538E-19-1.47153E-18
 -1      3194 9.68574E-05-2.95173E-05-2.88617E-05 2.06360E-06 6.16657E-19-1.25145E-18
 -1      3195 9.68675E-05-2.97119E-05-2.87924E-05 2.39511E-06 4.43632E-19-1.53554E-18
 -1      3196 9.60435E-05-2.87400E-05-2.88399E-05 1.98474E-06-8.87945E-19-1.26709E-18
 -1      3197 9.62681E-05-2.89480E-05-2.88512E-05 2.03080E-06 6.01694E-21-1.42213E-18
 -1      3198 9.61696E-05-2.90034E-05-2.87938E-05 2.30773E-06 6.73635E-22-1.19295E-18
 -1      3199 9.57077E-05-2.84478E-05-2.88232E-05 1.77243E-06-2.22025E-18-9.80440E-19
 -1      3200 9.58668E-05-2.85780E-05-2.88367E-05 1.86606E-06-1.56855E-18-1.63442E-18
 -1      3201 9.57177E-05-2.85440E-05-2.87943E-05 2.09124E-06-1.39120E-18-1.82136E-18
 -1      3202 9.54975E-05-2.82833E-05-2.88030E-05 1.51705E-06-1.30693E-18-1.13484E-18
 -1      3203 9.56046E-05-2.83587E-05-2.88178E-05 1.63129E-06-1.99399E-18-1.62610E-18
 -1      3204 9.54406E-05-2.82727E-05-2.87904E-05 1.81481E-06-1.47847E-18-3.14789E-18
 -1      3205 1.24840E-04-2.60634E-05-4.28954E-05-1.25671E-05-1.08526E-20-9.58471E-19
 -1      3206 1.29587E-04-3.55272E-05-4.02593E-05-1.10395E-05-8.67468E-19-1.66617E-18
 -1      3207 9.44809E-05-2.72189E-05-2.88255E-05-1.04903E-06-8.57627E-19 2.94235E-18
 -1      3208 9.43350E-05-2.71007E-05-2.88192E-05-9.05512E-07-1.46371E-18 2.55108E-18
 -1      3209 9.41223E-05-2.68917E-05-2.88087E-05-8.70753E-07-3.92322E-19-4.38939E-19
 -1      3210 9.41059E-05-2.69396E-05-2.87883E-05-2.61654E-07 9.67181E-19-1.19002E-18
 -1      3211 9.40986E-05-2.69398E-05-2.87827E-05-6.41795E-08 6.44679E-19 7.71845E-19
 -1      3212 9.39481E-05-2.67850E-05-2.87813E-05-3.95392E-07 9.98785E-19-1.82194E-18
 -1      3213 9.51367E-05-2.78219E-05-2.88476E-05-1.22162E-06-1.23967E-18 3.02941E-18
 -1      3214 1.06505E-04-4.94060E-05-2.45194E-05 3.15128E-05-5.89297E-19 5.15991E-18
 -1      3215 9.23979E-05-4.18133E-05-2.14006E-05 3.59566E-05 1.73642E-20 5.11171E-18
 -1      3216 7.75106E-05-3.33846E-05-1.82492E-05-3.78095E-05-6.74238E-19-1.20565E-18
 -1      3217 9.24670E-05-4.31249E-05-2.13365E-05-3.77127E-05-3.65495E-19 4.38075E-19
 -1      3218 1.29162E-04-5.59410E-05-3.16803E-05 1.33053E-05-5.32201E-19 5.98799E-19
 -1      3219 1.19885E-04-5.45678E-05-2.78639E-05 2.27491E-05-9.32027E-19 3.21119E-18
 -1      3220 9.41327E-05-2.69974E-05-2.87758E-05 1.71823E-07-4.79917E-19 5.22500E-19
 -1      3221 9.41863E-05-2.70503E-05-2.87714E-05 3.56128E-07-1.19909E-18-1.36551E-18
 -1      3222 9.39451E-05-2.68299E-05-2.87623E-05 9.61872E-08 1.80461E-19 1.13471E-18
 -1      3223 6.35787E-05-1.94616E-05-1.83094E-05-2.46844E-05 1.09363E-18-2.00270E-19
 -1      3224 1.07729E-04-5.02757E-05-2.41779E-05-3.20963E-05-8.33269E-20 1.97573E-18
 -1      3225 1.18646E-04-5.47254E-05-2.75803E-05-2.44584E-05-6.68627E-20 2.33006E-18
 -1      3226 9.42766E-05-2.71596E-05-2.87681E-05 5.53862E-07-2.46837E-18-1.89035E-18
 -1      3227 9.43737E-05-2.72527E-05-2.87649E-05 6.98975E-07-2.62006E-18-1.65357E-18
 -1      3228 9.40875E-05-2.69990E-05-2.87520E-05 5.38760E-07-2.14398E-18-9.47189E-19
 -1      3229 1.30736E-04-4.24075E-05-3.80196E-05 6.98741E-06 1.44504E-18 5.95199E-19
 -1      3230 1.28490E-04-3.50713E-05-4.04373E-05 1.08422E-05 1.08664E-18 6.40966E-19
 -1      3231 7.03326E-05-1.63967E-05-2.30842E-05-1.86748E-05-1.59753E-19 5.74871E-19
 -1      3232 7.23252E-05-1.52080E-05-2.45712E-05-1.58968E-05 1.15428E-19-6.41283E-19
 -1      3233 6.93216E-05-1.27453E-05-2.39922E-05-1.11152E-05-4.80412E-19 4.86323E-19
 -1      3234 9.49776E-05-2.78699E-05-2.87643E-05 1.08677E-06-1.76397E-18-9.01525E-19
 -1      3235 9.51694E-05-2.80535E-05-2.87628E-05 1.07520E-06-1.27284E-18-3.74463E-19
 -1      3236 9.52271E-05-2.80820E-05-2.87738E-05 1.19705E-06-5.75118E-19 1.23158E-19
 -1      3237 1.16947E-04-1.16079E-05-4.56545E-05-7.24776E-06 3.00612E-18-6.33316E-19
 -1      3238 1.20695E-04-1.71719E-05-4.46148E-05-1.16120E-05 1.93060E-18-1.13598E-18
 -1      3239 1.32269E-04-4.60986E-05-3.74928E-05-4.25737E-06-3.29443E-19-2.39154E-18
 -1      3240 1.32841E-04-5.24005E-05-3.43291E-05 4.00830E-06-3.25936E-19-1.12348E-18
 -1      3241 1.27721E-04-5.22839E-05-3.23184E-05 6.41181E-06-4.72267E-19-2.13550E-18
 -1      3242 6.63848E-05-2.24149E-05-1.82210E-05 2.77225E-05 9.14531E-19-3.44499E-18
 -1      3243 9.49063E-05-2.75763E-05-2.88527E-05-1.31088E-06-5.97351E-19 2.35874E-18
 -1      3244 4.77833E-05-1.44858E-05-1.34985E-05-2.50342E-05-1.23873E-18-2.56916E-18
 -1      3245 5.98772E-05-2.33415E-05-1.57499E-05-3.45265E-05-1.10289E-18-2.14956E-18
 -1      3246 9.53949E-05-2.85689E-05-2.86371E-05-1.70299E-06-1.42483E-19 4.06459E-19
 -1      3247 9.53699E-05-2.85633E-05-2.86312E-05-1.66121E-06 9.77978E-20 4.88425E-19
 -1      3248 9.55697E-05-2.85888E-05-2.87086E-05-1.61633E-06 3.41492E-20 9.01796E-19
 -1      3249 9.54915E-05-2.85662E-05-2.86845E-05-1.72844E-06-7.20495E-20 5.57344E-19
 -1      3250 9.47025E-05-2.74035E-05-2.88462E-05-1.24296E-06-2.44292E-19 1.93979E-18
 -1      3251 9.23770E-05-1.82869E-05-3.17679E-05 1.79779E-06 5.95288E-19-1.24469E-18
 -1      3252 9.22575E-05-1.80839E-05-3.18007E-05 1.04975E-06 3.60111E-19-1.30948E-18
 -1      3253 6.31990E-05-1.76688E-05-1.91476E-05 2.20250E-05 4.01758E-19-3.12036E-18
 -1      3254 5.54569E-05-1.67553E-05-1.62395E-05 2.23749E-05 5.20661E-19-3.42858E-18
 -1      3255 4.64361E-05-1.06883E-05-1.45003E-05 1.26958E-05 5.72568E-19-2.87197E-18
 -1      3256 9.21975E-05-1.79825E-05-3.18195E-05 4.07746E-07 3.21642E-19-1.44468E-18
 -1      3257 9.21952E-05-1.79783E-05-3.18202E-05-3.54363E-07 1.88941E-19-1.46144E-18
 -1      3258 9.31427E-05-1.95521E-05-3.15208E-05 6.22690E-07 3.56132E-19-1.32905E-18
 -1      3259 1.00353E-04-4.47367E-05-2.36389E-05-3.12674E-05-5.46654E-19 1.81615E-18
 -1      3260 7.19978E-05-2.72895E-05-1.87593E-05-3.23560E-05-7.08384E-19-2.21256E-18
 -1      3261 9.52707E-05-2.48536E-05-3.01900E-05-2.68078E-06-7.69389E-19-9.17222E-19
 -1      3262 9.53399E-05-2.47321E-05-3.02562E-05-2.32588E-06-7.29541E-19-1.09500E-18
 -1      3263 9.51827E-05-2.41255E-05-3.04336E-05-3.52586E-06-8.30971E-19-9.68838E-19
 -1      3264 9.44936E-05-2.24144E-05-3.09059E-05-4.99086E-06-9.48186E-19-1.04836E-18
 -1      3265 1.24890E-04-3.01833E-05-4.08311E-05 1.25831E-05 9.04525E-19 1.28418E-18
 -1      3266 1.19257E-04-2.46324E-05-4.09879E-05 1.27178E-05 1.22857E-18 2.09548E-18
 -1      3267 1.22275E-04-3.34820E-05-3.81452E-05 1.14344E-05 6.51898E-19 2.07212E-18
 -1      3268 5.05893E-05-9.66523E-06-1.73407E-05 9.36493E-06 2.58169E-18 1.07446E-18
 -1      3269 4.50435E-05-8.33746E-06-1.51464E-05 3.99829E-06 2.28696E-18 9.05902E-19
 -1      3270 4.82678E-05-8.78504E-06-1.68005E-05-2.98936E-06 1.71945E-18 1.15938E-18
 -1      3271 5.87383E-05-1.80318E-05-1.70714E-05 2.56297E-05 1.86130E-18 2.74619E-18
 -1      3272 6.48582E-05-1.46599E-05-2.14429E-05 1.84285E-05 2.35449E-20-2.49816E-18
 -1      3273 1.27223E-04-4.05117E-05-3.72866E-05-7.81981E-06-6.01168E-19-1.83462E-18
 -1      3274 9.50060E-05-2.37375E-05-3.05254E-05 3.77371E-06 9.53540E-19-3.11307E-19
 -1      3275 9.25273E-05-1.85545E-05-3.17156E-05-2.35537E-06-1.91392E-19-1.34981E-18
 -1      3276 9.27607E-05-1.89636E-05-3.16486E-05-3.04608E-06-4.01586E-19-1.36073E-18
 -1      3277 9.55818E-05-2.78760E-05-2.90072E-05-6.22437E-07 6.54891E-19-2.47714E-19
 -1      3278 9.58355E-05-2.75915E-05-2.92515E-05-3.27440E-07 6.28258E-19-2.05474E-19
 -1      3279 9.55481E-05-2.80838E-05-2.89156E-05-8.97463E-07 5.26723E-19-7.51208E-20
 -1      3280 9.57449E-05-2.84097E-05-2.88615E-05-1.25932E-06 2.36467E-19 1.41356E-19
 -1      3281 9.54988E-05-2.83667E-05-2.87712E-05-1.26546E-06 4.06749E-19 9.68033E-20
 -1      3282 9.55175E-05-2.82443E-05-2.88252E-05-1.10415E-06 3.64265E-19-2.16420E-20
 -1      3283 9.49440E-05-2.35575E-05-3.05842E-05 3.31099E-06 1.01233E-18-3.49916E-19
 -1      3284 1.18928E-04-2.29607E-05-4.13557E-05-1.18968E-05 6.22781E-19-8.29113E-19
 -1      3285 9.53011E-05-2.81444E-05-2.87788E-05 1.30408E-06-7.16508E-19-8.36553E-19
 -1      3286 9.53810E-05-2.81944E-05-2.87923E-05 1.42225E-06-8.16477E-19-1.12337E-18
 -1      3287 9.52216E-05-2.80868E-05-2.87771E-05 1.56687E-06-1.42750E-18-3.37628E-18
 -1      3288 9.50374E-05-2.79299E-05-2.87652E-05 1.34257E-06-1.35090E-18-1.49295E-18
 -1      3289 8.55855E-05-3.65738E-05-2.08027E-05 3.53893E-05 8.83535E-19 4.89604E-18
 -1      3290 7.80344E-05-2.97025E-05-2.05151E-05 3.19040E-05 1.48059E-18 4.58335E-18
 -1      3291 9.33787E-05-3.89143E-05-2.32660E-05 3.00265E-05 9.16619E-19 5.40391E-18
 -1      3292 1.18224E-04-1.38225E-05-4.50864E-05 8.17832E-06 2.18852E-18 1.34811E-18
 -1      3293 9.46954E-05-2.75905E-05-2.87625E-05 1.00150E-06-3.70336E-18-1.28273E-18
 -1      3294 9.48236E-05-2.77146E-05-2.87606E-05 1.04489E-06-2.66627E-18-1.18483E-18
 -1      3295 9.48205E-05-2.77122E-05-2.87575E-05 1.18826E-06-2.51473E-18-2.32510E-18
 -1      3296 1.14237E-04-5.18671E-05-2.66071E-05 2.47725E-05-6.27638E-19 3.09249E-18
 -1      3297 1.06889E-04-4.65684E-05-2.57991E-05 2.52896E-05 2.49028E-19 2.97606E-18
 -1      3298 1.18083E-04-5.15373E-05-2.86944E-05 1.68628E-05-5.47382E-19-2.94675E-20
 -1      3299 9.37708E-05-2.07202E-05-3.12889E-05-2.79728E-06-5.14526E-19-1.14525E-18
 -1      3300 9.30665E-05-1.94746E-05-3.15484E-05-3.58921E-06-5.28003E-19-1.32213E-18
 -1      3301 9.34356E-05-2.01472E-05-3.14329E-05-4.21050E-06-7.36432E-19-1.26060E-18
 -1      3302 9.44954E-05-2.71756E-05-2.88481E-05-1.31218E-06-7.67626E-19 3.21279E-18
 -1      3303 9.43252E-05-2.19353E-05-3.10104E-05 3.58123E-06 9.52661E-19-8.50849E-19
 -1      3304 9.34375E-05-2.01715E-05-3.14235E-05 4.22145E-06 1.04896E-18-9.98905E-19
 -1      3305 9.30835E-05-1.95130E-05-3.15393E-05 3.62313E-06 1.02443E-18-1.22063E-18
 -1      3306 4.54786E-05-9.34373E-06-1.55150E-05 5.56615E-06-4.32940E-19-2.58493E-18
 -1      3307 1.11600E-04-9.85176E-06-4.38410E-05-7.63659E-07 2.39350E-18-8.59434E-19
 -1      3308 1.14601E-04-1.04821E-05-4.50034E-05-4.47572E-06 2.70516E-18-1.30162E-18
 -1      3309 1.11972E-04-1.38802E-05-4.22697E-05-6.66192E-06 2.31960E-18-1.98650E-18
 -1      3310 6.08621E-05-1.12291E-05-2.08708E-05 1.21075E-05-6.55842E-19-2.00202E-18
 -1      3311 1.23803E-04-5.48208E-05-2.94399E-05-1.70621E-05-5.01576E-19 1.67277E-18
 -1      3312 1.25109E-04-5.25597E-05-3.12114E-05-9.02464E-06-3.42003E-19 1.14338E-18
 -1      3313 1.17107E-04-5.16858E-05-2.80303E-05-1.94406E-05-7.83082E-19 2.15504E-18
 -1      3314 4.90138E-05-1.22633E-05-1.51751E-05-1.73929E-05-1.28519E-18-2.72882E-18
 -1      3315 9.44657E-05-2.73578E-05-2.87638E-05 8.21645E-07-2.88315E-18-2.00595E-18
 -1      3316 9.45842E-05-2.74733E-05-2.87614E-05 9.18455E-07-3.01818E-18-1.16075E-18
 -1      3317 9.45273E-05-2.74394E-05-2.87503E-05 1.06328E-06-2.53325E-18-1.08174E-18
 -1      3318 9.42988E-05-2.72164E-05-2.87489E-05 8.58437E-07-2.09014E-18-2.99739E-19
 -1      3319 1.30219E-04-4.67693E-05-3.59395E-05 3.51004E-06 1.37293E-18 1.21957E-18
 -1      3320 1.25430E-04-4.19377E-05-3.58366E-05 7.34927E-06 7.09522E-19 1.67662E-18
 -1      3321 1.27215E-04-4.90278E-05-3.35594E-05-7.08618E-07 7.30434E-19 1.66333E-18
 -1      3322 6.25505E-05-1.55983E-05-1.98615E-05-1.91302E-05 8.73503E-19 4.52633E-20
 -1      3323 9.27905E-05-1.90031E-05-3.16419E-05 3.10124E-06 9.47561E-19-1.12112E-18
 -1      3324 9.25521E-05-1.85878E-05-3.17107E-05 2.40411E-06 7.63193E-19-1.16822E-18
 -1      3325 9.33601E-05-1.99495E-05-3.14429E-05 1.78028E-06 6.36408E-19-1.02650E-18
 -1      3326 9.37669E-05-2.07384E-05-3.12802E-05 2.81364E-06 9.60801E-19-1.09690E-18
 -1      3327 5.64226E-05-1.05885E-05-1.91004E-05-1.18078E-05 7.29176E-19 8.69903E-19
 -1      3328 9.56793E-05-2.54800E-05-3.00799E-05-1.38816E-06-5.30916E-19-9.01028E-19
 -1      3329 9.58349E-05-2.62002E-05-2.98519E-05-7.52970E-07-5.53639E-19-8.82287E-19
 -1      3330 9.60237E-05-2.68243E-05-2.96483E-05-3.08816E-07-6.06212E-19-9.37946E-19
 -1      3331 9.60646E-05-2.72884E-05-2.94824E-05 1.28379E-07-6.75424E-19-8.87231E-19
 -1      3332 9.59763E-05-2.62107E-05-2.98988E-05-5.83457E-07-5.85827E-19-9.72672E-19
 -1      3333 9.61275E-05-2.76732E-05-2.93306E-05 4.32900E-07-7.15728E-19-6.33813E-19
 -1      3334 9.61124E-05-2.79560E-05-2.92138E-05 7.19899E-07-5.26874E-19-6.18115E-19
 -1      3335 9.62213E-05-2.72989E-05-2.95381E-05 1.84276E-07-4.94832E-19-7.72476E-19
 -1      3336 9.60943E-05-2.81734E-05-2.91042E-05 9.18060E-07-3.08832E-19-7.14484E-19
 -1      3337 9.60492E-05-2.83254E-05-2.90260E-05 1.10189E-06-2.56049E-19-6.61316E-19
 -1      3338 9.62662E-05-2.79707E-05-2.92706E-05 7.06769E-07-4.69157E-19-4.40482E-19
 -1      3339 9.59776E-05-2.84205E-05-2.89505E-05 1.22822E-06-3.42550E-19-6.82189E-19
 -1      3340 9.59140E-05-2.84750E-05-2.89023E-05 1.34871E-06-3.68803E-19-5.77027E-19
 -1      3341 9.61788E-05-2.83301E-05-2.90794E-05 1.04933E-06-2.74165E-19-6.51132E-19
 -1      3342 9.58033E-05-2.84769E-05-2.88536E-05 1.43340E-06-5.18903E-19-4.87818E-19
 -1      3343 9.57250E-05-2.84555E-05-2.88286E-05 1.52314E-06-3.11343E-19-5.78255E-19
 -1      3344 9.60001E-05-2.84545E-05-2.89491E-05 1.27465E-06-3.51846E-19-6.08794E-19
 -1      3345 9.55729E-05-2.83772E-05-2.87993E-05 1.59362E-06-3.16088E-19-4.50794E-19
 -1      3346 9.54699E-05-2.82841E-05-2.87922E-05 1.68219E-06-3.41030E-19-3.16406E-19
 -1      3347 9.57418E-05-2.83904E-05-2.88651E-05 1.43970E-06-3.44546E-19-2.98121E-19
 -1      3348 9.52857E-05-2.81398E-05-2.87797E-05 1.75031E-06-2.40054E-19-2.58943E-19
 -1      3349 9.51603E-05-2.79890E-05-2.87860E-05 1.84945E-06-8.79212E-20 8.76477E-20
 -1      3350 9.54108E-05-2.81662E-05-2.88180E-05 1.58273E-06-1.12775E-19 7.57035E-20
 -1      3351 9.49280E-05-2.77780E-05-2.87832E-05 1.93157E-06 1.27202E-19 1.38721E-19
 -1      3352 9.47596E-05-2.75617E-05-2.87980E-05 2.05982E-06 2.25146E-19 5.54853E-19
 -1      3353 9.50022E-05-2.78024E-05-2.87970E-05 1.72976E-06 1.46993E-19 5.03192E-20
 -1      3354 9.44582E-05-2.72754E-05-2.87991E-05 2.16226E-06 1.96259E-19 6.08132E-19
 -1      3355 9.42225E-05-2.69822E-05-2.88174E-05 2.32928E-06 3.94073E-19 9.69031E-19
 -1      3356 9.44786E-05-2.72910E-05-2.87893E-05 1.90106E-06 3.01981E-19 1.04745E-19
 -1      3357 9.38211E-05-2.66052E-05-2.88156E-05 2.45224E-06 2.42179E-19 1.16473E-18
 -1      3358 9.34820E-05-2.62163E-05-2.88305E-05 2.66227E-06 5.48877E-19 1.21544E-18
 -1      3359 9.37903E-05-2.66120E-05-2.87818E-05 2.09945E-06 4.99657E-19 8.05083E-19
 -1      3360 9.29363E-05-2.57262E-05-2.88160E-05 2.79786E-06 4.39145E-19 7.02449E-19
 -1      3361 9.24416E-05-2.52160E-05-2.88171E-05 3.04816E-06 3.24248E-19 9.08681E-19
 -1      3362 9.28647E-05-2.57320E-05-2.87572E-05 2.31106E-06 2.04720E-19 4.52831E-19
 -1      3363 9.16908E-05-2.45857E-05-2.87750E-05 3.17792E-06-6.98318E-20 6.65494E-19
 -1      3364 9.09693E-05-2.39240E-05-2.87459E-05 3.45700E-06-5.65282E-19 3.18793E-19
 -1      3365 9.15999E-05-2.46060E-05-2.86903E-05 2.50047E-06-2.90801E-19-1.05151E-19
 -1      3366 8.98732E-05-2.30770E-05-2.86471E-05 3.55257E-06-6.05734E-19 4.72749E-19
 -1      3367 8.87558E-05-2.21860E-05-2.85509E-05 3.84886E-06-2.44381E-19 2.43285E-19
 -1      3368 8.98037E-05-2.31441E-05-2.85373E-05 2.60554E-06-5.68083E-19-2.34428E-19
 -1      3369 8.72928E-05-2.11763E-05-2.83640E-05 3.84983E-06-3.52929E-19-8.82432E-20
 -1      3370 8.57543E-05-2.01187E-05-2.81639E-05 4.10039E-06-3.19216E-19-7.52437E-20
 -1      3371 8.73115E-05-2.13223E-05-2.82348E-05 2.50642E-06-3.65017E-19-3.93389E-19
 -1      3372 8.37438E-05-1.89081E-05-2.78266E-05 3.95383E-06-6.63694E-19-6.08540E-19
 -1      3373 8.15603E-05-1.76589E-05-2.74409E-05 4.14236E-06-9.55521E-19-1.11734E-18
 -1      3374 8.39484E-05-1.91723E-05-2.76955E-05 2.07484E-06-6.33529E-19-9.35659E-19
 -1      3375 7.87867E-05-1.62567E-05-2.68536E-05 3.76150E-06-9.60345E-19-1.53182E-18
 -1      3376 7.57194E-05-1.48841E-05-2.61481E-05 3.92500E-06-8.81417E-19-2.14114E-18
 -1      3377 7.93544E-05-1.66959E-05-2.67575E-05 1.12579E-06-1.07307E-18-1.29530E-18
 -1      3378 7.17604E-05-1.33134E-05-2.51307E-05 3.27101E-06-2.11692E-19-2.13080E-18
 -1      3379 6.72557E-05-1.18880E-05-2.38547E-05 3.76013E-06-6.69768E-20-1.92719E-18
 -1      3380 7.29024E-05-1.39128E-05-2.51491E-05-6.63912E-07-6.93740E-19-2.28168E-18
 -1      3381 9.23662E-05-1.82665E-05-3.17716E-05-1.74302E-06-1.00724E-19-1.43435E-18
 -1      3382 9.33492E-05-1.99200E-05-3.14473E-05-1.74684E-06-1.47085E-19-1.31353E-18
 -1      3383 9.22506E-05-1.80721E-05-3.18028E-05-9.96262E-07 7.92056E-20-1.45912E-18
 -1      3384 7.25532E-05-1.35578E-05-2.53776E-05-5.07967E-06-1.13962E-19 1.60413E-18
 -1      3385 7.60813E-05-1.49082E-05-2.62932E-05-4.76098E-06 1.54036E-18 1.30024E-18
 -1      3386 7.93364E-05-1.63415E-05-2.70602E-05-5.05837E-06 2.04867E-18 1.55134E-18
 -1      3387 8.18478E-05-1.76580E-05-2.75624E-05-4.71743E-06 2.05458E-18 2.51612E-18
 -1      3388 7.66387E-05-1.51727E-05-2.61868E-05-1.62195E-06 1.40689E-18 2.18112E-18
 -1      3389 8.42000E-05-1.89560E-05-2.80018E-05-4.79720E-06 1.25961E-18 2.46493E-18
 -1      3390 8.59577E-05-2.00838E-05-2.82667E-05-4.42858E-06 8.90850E-19 2.82056E-18
 -1      3391 8.19295E-05-1.78007E-05-2.74034E-05-2.46547E-06 1.48699E-18 2.59753E-18
 -1      3392 8.77303E-05-2.12357E-05-2.85225E-05-4.35528E-06 1.62249E-18 2.88972E-18
 -1      3393 8.90003E-05-2.22006E-05-2.86533E-05-3.94964E-06 1.85075E-18 2.99566E-18
 -1      3394 8.59391E-05-2.01998E-05-2.81198E-05-2.81563E-06 1.30101E-18 2.22100E-18
 -1      3395 9.01966E-05-2.30812E-05-2.87788E-05-3.79135E-06 1.11129E-18 3.14597E-18
 -1      3396 9.10141E-05-2.37952E-05-2.88263E-05-3.41118E-06 4.01745E-19 3.71240E-18
 -1      3397 8.88103E-05-2.21828E-05-2.85160E-05-2.82288E-06 1.29033E-18 6.03165E-19
 -1      3398 9.18601E-05-2.44778E-05-2.88861E-05-3.20987E-06-1.27662E-19 3.21928E-18
 -1      3399 9.24075E-05-2.50216E-05-2.88934E-05-2.85953E-06 2.89160E-20 2.90314E-18
 -1      3400 9.07969E-05-2.37311E-05-2.87162E-05-2.61088E-06-2.15526E-19 1.56434E-18
 -1      3401 9.30009E-05-2.55391E-05-2.89159E-05-2.64749E-06 8.30435E-19 2.26779E-18
 -1      3402 9.33609E-05-2.59432E-05-2.89038E-05-2.33891E-06 1.41534E-18 2.28611E-18
 -1      3403 9.21990E-05-2.49342E-05-2.88100E-05-2.29228E-06 3.98658E-19 1.87691E-18
 -1      3404 9.37726E-05-2.63242E-05-2.89068E-05-2.13653E-06 5.06867E-19 2.73881E-18
 -1      3405 9.40020E-05-2.66193E-05-2.88868E-05-1.87152E-06-3.92584E-19 2.00584E-18
 -1      3406 9.31796E-05-2.58511E-05-2.88444E-05-1.93892E-06 1.15650E-18 1.31022E-18
 -1      3407 9.42017E-05-2.68161E-05-2.88765E-05-1.68550E-06 1.70293E-20 2.80934E-18
 -1      3408 9.43505E-05-2.70284E-05-2.88568E-05-1.46841E-06-3.24001E-19 2.70534E-18
 -1      3409 9.41032E-05-2.68363E-05-2.88298E-05-1.24153E-06 2.01254E-20 3.42429E-18
 -1      3410 9.37556E-05-2.64476E-05-2.88423E-05-1.57374E-06 6.70462E-19 9.91121E-19
 -1      3411 9.58318E-05-2.85811E-05-2.88209E-05-1.42485E-06-2.42399E-19 4.43464E-19
 -1      3412 9.58787E-05-2.85307E-05-2.88611E-05-1.33156E-06-7.25669E-20 2.22284E-19
 -1      3413 9.53795E-05-2.83997E-05-2.87018E-05-1.99321E-06-7.88751E-20 1.39479E-20
 -1      3414 9.53752E-05-2.84167E-05-2.86975E-05-1.91248E-06-6.33328E-21-2.73910E-19
 -1      3415 9.54530E-05-2.84648E-05-2.87059E-05-1.82513E-06 1.41465E-19-2.87751E-19
 -1      3416 9.54739E-05-2.84947E-05-2.87062E-05-1.75782E-06 1.94395E-20 1.49472E-20
 -1      3417 9.53934E-05-2.83885E-05-2.87184E-05-1.82786E-06 8.83171E-20 6.96009E-20
 -1      3418 9.54828E-05-2.85038E-05-2.87008E-05-2.43624E-06-2.63603E-19 6.81801E-20
 -1      3419 9.53788E-05-2.84200E-05-2.86962E-05-2.33561E-06-5.92518E-20 2.81133E-20
 -1      3420 9.57598E-05-2.87942E-05-2.86951E-05-2.68083E-06-3.29363E-19 5.05629E-20
 -1      3421 9.55686E-05-2.86129E-05-2.86928E-05-2.59053E-06-4.60245E-19 2.12901E-20
 -1      3422 9.52992E-05-2.84298E-05-2.86646E-05-2.61135E-06-2.87641E-19-9.00846E-19
 -1      3423 9.62816E-05-2.93401E-05-2.86853E-05-2.88663E-06-1.88257E-19 2.91895E-19
 -1      3424 9.59698E-05-2.90255E-05-2.86846E-05-2.83533E-06-3.75666E-19 1.52720E-19
 -1      3425 9.55839E-05-2.87795E-05-2.86400E-05-2.95316E-06-3.63029E-19-1.74523E-19
 -1      3426 9.71355E-05-3.02137E-05-2.86786E-05-2.97646E-06-1.28570E-19 8.58944E-19
 -1      3427 9.66681E-05-2.97341E-05-2.86754E-05-3.00792E-06 4.10559E-20 8.35875E-19
 -1      3428 9.61651E-05-2.94352E-05-2.86127E-05-3.27980E-06-4.49102E-19 3.43648E-19
 -1      3429 9.84067E-05-3.14617E-05-2.86920E-05-2.83291E-06 4.83274E-20 6.02874E-19
 -1      3430 9.77573E-05-3.08039E-05-2.86771E-05-3.00855E-06 8.49479E-20 1.06885E-18
 -1      3431 9.71550E-05-3.04830E-05-2.85936E-05-3.50858E-06-4.01243E-19 7.12916E-19
 -1      3432 1.00145E-04-3.30598E-05-2.87582E-05-2.29137E-06-6.32732E-19 4.99452E-19
 -1      3433 9.93153E-05-3.22555E-05-2.87151E-05-2.68896E-06-1.48126E-19 5.68114E-19
 -1      3434 9.86679E-05-3.19781E-05-2.86074E-05-3.50204E-06-2.52538E-19 9.20798E-19
 -1      3435 1.02304E-04-3.48450E-05-2.89277E-05-1.15665E-06-8.79304E-19-2.31120E-19
 -1      3436 1.01353E-04-3.40038E-05-2.88320E-05-1.85572E-06-5.83199E-19 2.28672E-19
 -1      3437 1.00775E-04-3.38834E-05-2.86983E-05-3.05374E-06-3.50768E-19 3.84975E-19
 -1      3438 1.04672E-04-3.64351E-05-2.92700E-05 7.53807E-07-5.50277E-19 1.03298E-19
 -1      3439 1.03746E-04-3.57880E-05-2.90898E-05-2.97227E-07-9.08963E-19-2.37124E-19
 -1      3440 1.03437E-04-3.59959E-05-2.89333E-05-1.90484E-06-7.10710E-19-1.57448E-19
 -1      3441 1.06771E-04-3.71481E-05-2.98675E-05 3.46350E-06 1.21376E-19-3.87283E-19
 -1      3442 1.06123E-04-3.70638E-05-2.95689E-05 2.12309E-06-6.85253E-20-4.99700E-21
 -1      3443 1.06380E-04-3.78027E-05-2.94049E-05 2.15686E-07-4.96492E-19 1.75280E-21
 -1      3444 1.07909E-04-3.61315E-05-3.07808E-05 6.61420E-06-2.87775E-19 2.38857E-20
 -1      3445 1.07841E-04-3.70256E-05-3.03478E-05 5.23951E-06-4.32408E-19-3.05814E-19
 -1      3446 1.08990E-04-3.84539E-05-3.02207E-05 3.35586E-06-2.06134E-19 2.09053E-19
 -1      3447 1.07399E-04-3.27316E-05-3.19857E-05 9.19346E-06 1.79842E-19-1.58010E-19
 -1      3448 1.08076E-04-3.47940E-05-3.14479E-05 8.33380E-06 2.30410E-19-8.27396E-20
 -1      3449 1.10335E-04-3.68765E-05-3.14464E-05 7.06419E-06-1.34916E-19 1.58018E-19
 -1      3450 1.05135E-04-2.72148E-05-3.33345E-05 9.68515E-06-1.94156E-20-1.54476E-20
 -1      3451 1.06386E-04-3.01204E-05-3.27738E-05 1.00079E-05-2.40881E-19-3.71460E-19
 -1      3452 1.09542E-04-3.23798E-05-3.30061E-05 1.00017E-05 8.10356E-20-5.30977E-19
 -1      3453 1.02216E-04-2.16725E-05-3.44693E-05 6.77242E-06 5.31116E-19 1.29917E-19
 -1      3454 1.03366E-04-2.41972E-05-3.40514E-05 8.55032E-06 2.78951E-19-1.64559E-20
 -1      3455 1.06665E-04-2.56146E-05-3.46740E-05 1.01106E-05 3.56227E-19-7.49710E-19
 -1      3456 1.00476E-04-1.88392E-05-3.50104E-05 9.89534E-07 1.25911E-18-9.89751E-20
 -1      3457 1.00930E-04-1.96814E-05-3.48834E-05 3.79015E-06 1.03534E-18 5.17294E-19
 -1      3458 1.03699E-04-1.98899E-05-3.59145E-05 5.99568E-06 6.03226E-19-5.88383E-19
 -1      3459 1.01516E-04-2.06444E-05-3.47109E-05-5.38577E-06 1.23311E-18-1.39980E-18
 -1      3460 1.00795E-04-1.92157E-05-3.49315E-05-2.78777E-06 1.72680E-18-8.12927E-19
 -1      3461 1.02451E-04-1.75918E-05-3.63682E-05-1.05681E-06 1.88180E-18-9.31941E-19
 -1      3462 1.04294E-04-2.58337E-05-3.37216E-05-9.39560E-06 1.40953E-18-1.02833E-18
 -1      3463 1.02899E-04-2.30179E-05-3.41944E-05-7.94902E-06 8.49508E-19-1.51801E-18
 -1      3464 1.04335E-04-2.12266E-05-3.56556E-05-7.32867E-06 1.15952E-18-2.09799E-18
 -1      3465 1.06998E-04-3.15653E-05-3.24054E-05-9.75849E-06 2.76620E-19-8.01981E-19
 -1      3466 1.05898E-04-2.88766E-05-3.29672E-05-9.76598E-06 1.36318E-18-5.92622E-19
 -1      3467 1.07724E-04-2.80170E-05-3.41834E-05-1.02470E-05 8.42075E-19-8.61290E-19
 -1      3468 1.08205E-04-3.56545E-05-3.11196E-05-7.56422E-06-8.90960E-19-6.34915E-19
 -1      3469 1.07738E-04-3.38995E-05-3.16370E-05-8.64452E-06-7.67764E-20-5.22733E-19
 -1      3470 1.09947E-04-3.37947E-05-3.25709E-05-9.36792E-06-6.52943E-20 3.82445E-19
 -1      3471 1.07478E-04-3.71980E-05-3.01084E-05-4.35651E-06-5.26672E-19-6.13827E-19
 -1      3472 1.07729E-04-3.66129E-05-3.05021E-05-5.76206E-06-6.97133E-19-1.09363E-18
 -1      3473 1.10146E-04-3.75821E-05-3.10709E-05-6.03275E-06-7.13532E-19 5.68164E-19
 -1      3474 1.05491E-04-3.67643E-05-2.94244E-05-1.39955E-06 6.88931E-19-4.27381E-19
 -1      3475 1.06248E-04-3.70553E-05-2.96850E-05-2.66925E-06 1.50931E-19-6.50457E-19
 -1      3476 1.08346E-04-3.84381E-05-2.99672E-05-2.42337E-06-6.09692E-20-1.24150E-18
 -1      3477 1.03050E-04-3.52595E-05-2.90184E-05 7.56665E-07 6.74947E-19-3.77719E-19
 -1      3478 1.04005E-04-3.59985E-05-2.91699E-05-1.84380E-07 4.92209E-19-4.64925E-19
 -1      3479 1.05548E-04-3.73255E-05-2.92617E-05 4.40437E-07 1.32641E-19-1.00432E-18
 -1      3480 1.00724E-04-3.34260E-05-2.88117E-05 2.07014E-06-3.07095E-19-4.12331E-19
 -1      3481 1.01655E-04-3.42844E-05-2.88871E-05 1.47573E-06 4.47986E-19-2.82658E-19
 -1      3482 1.02631E-04-3.53417E-05-2.88687E-05 2.24828E-06 3.66079E-19-7.10858E-19
 -1      3483 9.88018E-05-3.17156E-05-2.87283E-05 2.70597E-06 4.39697E-19-1.34784E-18
 -1      3484 9.95880E-05-3.24995E-05-2.87581E-05 2.39708E-06-4.27957E-19-8.44860E-19
 -1      3485 1.00094E-04-3.32271E-05-2.86867E-05 3.15162E-06 2.29823E-19-1.00424E-18
 -1      3486 9.73624E-05-3.03345E-05-2.87108E-05 2.87521E-06-3.06440E-19-9.20661E-19
 -1      3487 9.79653E-05-3.09597E-05-2.87173E-05 2.77067E-06 6.26407E-19-8.36871E-19
 -1      3488 9.81342E-05-3.13898E-05-2.86290E-05 3.41779E-06 1.43996E-19-1.31167E-18
 -1      3489 9.63673E-05-2.93285E-05-2.87214E-05 2.75922E-06 4.77211E-19-1.00514E-18
 -1      3490 9.67961E-05-2.97799E-05-2.87190E-05 2.78632E-06-1.82814E-20-1.34473E-18
 -1      3491 9.67500E-05-2.99800E-05-2.86337E-05 3.29777E-06 5.90348E-19-1.11787E-18
 -1      3492 9.57290E-05-2.86594E-05-2.87390E-05 2.48988E-06-8.63028E-19-3.30666E-19
 -1      3493 9.60147E-05-2.89577E-05-2.87353E-05 2.59308E-06 1.59482E-19-7.49700E-19
 -1      3494 9.58491E-05-2.89979E-05-2.86630E-05 2.97574E-06-3.50838E-19-4.29470E-19
 -1      3495 9.53532E-05-2.82557E-05-2.87536E-05 2.15475E-06-4.56872E-19-1.34541E-18
 -1      3496 9.55313E-05-2.84349E-05-2.87519E-05 2.29510E-06-7.78793E-19-6.05063E-19
 -1      3497 9.53138E-05-2.83753E-05-2.86959E-05 2.57094E-06-6.19961E-19-3.92707E-19
 -1      3498 9.51595E-05-2.80417E-05-2.87616E-05 1.80683E-06-4.48080E-19-2.43569E-18
 -1      3499 9.52591E-05-2.81381E-05-2.87629E-05 1.95701E-06-5.29150E-19-2.26893E-18
 -1      3500 9.50296E-05-2.80212E-05-2.87233E-05 2.15514E-06 2.30021E-19-9.09550E-19
 -1      3501 9.50673E-05-2.38526E-05-3.05209E-05 2.58638E-06 1.08211E-18-5.51036E-19
 -1      3502 9.47442E-05-2.29717E-05-3.07713E-05 3.14277E-06 9.78679E-19-6.96318E-19
 -1      3503 9.44691E-05-2.22881E-05-3.09338E-05 2.88011E-06 9.79476E-19-1.01119E-18
 -1      3504 9.39161E-05-2.67164E-05-2.88035E-05-9.61797E-07-3.12404E-19-7.48080E-19
 -1      3505 9.37914E-05-2.66231E-05-2.87863E-05-7.29194E-07 6.40123E-19-4.36711E-18
 -1      3506 9.37601E-05-2.65350E-05-2.88066E-05-1.10837E-06 7.24599E-19 2.91604E-19
 -1      3507 9.37200E-05-2.66069E-05-2.87671E-05-4.21046E-07 3.00865E-19-2.17444E-18
 -1      3508 9.36947E-05-2.65944E-05-2.87548E-05-1.65217E-07-5.49075E-19 2.57397E-19
 -1      3509 9.35112E-05-2.64054E-05-2.87579E-05-4.95981E-07-1.25525E-21-3.17224E-18
 -1      3510 1.21459E-04-3.57507E-05-3.71071E-05-1.07419E-05-7.95523E-19-6.40648E-19
 -1      3511 1.25153E-04-4.35646E-05-3.48144E-05-6.07092E-06-4.51866E-19-1.73728E-18
 -1      3512 9.37294E-05-2.66704E-05-2.87435E-05 1.29615E-07 6.07909E-19 1.97467E-18
 -1      3513 9.37891E-05-2.67286E-05-2.87363E-05 3.77607E-07 2.90925E-19 3.75214E-19
 -1      3514 9.35106E-05-2.64798E-05-2.87267E-05 1.27173E-07-1.21196E-18 8.59503E-19
 -1      3515 6.72347E-05-2.17852E-05-1.93429E-05 2.79776E-05 1.79320E-18 3.26754E-18
 -1      3516 5.85912E-05-1.45414E-05-1.86452E-05 1.92842E-05 2.19874E-18 1.71127E-18
 -1      3517 9.39098E-05-2.68734E-05-2.87330E-05 6.18612E-07 1.04599E-19-2.76633E-19
 -1      3518 9.40329E-05-2.69852E-05-2.87309E-05 8.20295E-07-9.96844E-19 2.64344E-19
 -1      3519 9.37116E-05-2.67136E-05-2.87132E-05 6.77912E-07 1.18328E-18 1.63426E-19
 -1      3520 6.65959E-05-2.10359E-05-1.90401E-05-2.75714E-05-8.03093E-19-2.26470E-18
 -1      3521 7.97317E-05-3.04403E-05-2.11313E-05-3.10590E-05-1.02859E-18-1.46042E-18
 -1      3522 9.44627E-05-2.23448E-05-3.09253E-05-4.36119E-06-8.55933E-19-1.25147E-18
 -1      3523 5.74752E-05-1.00447E-05-2.02296E-05-5.45753E-06 1.12510E-18 1.58400E-18
 -1      3524 4.94634E-05-8.64843E-06-1.67138E-05-8.65029E-06-1.21004E-18-3.05339E-18
 -1      3525 5.48203E-05-1.35275E-05-1.79040E-05-1.94299E-05-9.90870E-19-2.88034E-18
 -1      3526 1.25265E-04-4.93267E-05-3.29005E-05 1.45504E-06-3.22179E-19-2.41323E-18
 -1      3527 1.23589E-04-5.12912E-05-3.07435E-05 8.44069E-06-2.70826E-19-1.99973E-18
 -1      3528 9.53753E-05-2.83943E-05-2.87020E-05-2.19919E-06-3.34326E-19 1.42240E-19
 -1      3529 9.53314E-05-2.83750E-05-2.86963E-05-2.10483E-06-2.21431E-19 1.35635E-19
 -1      3530 9.52658E-05-2.83057E-05-2.86999E-05-2.03741E-06-5.21201E-22-2.38364E-20
 -1      3531 9.52172E-05-2.82979E-05-2.86838E-05-2.29954E-06-3.11054E-19-6.09396E-19
 -1      3532 1.13255E-04-1.98072E-05-4.03539E-05-1.06830E-05 1.29080E-18-1.54612E-18
 -1      3533 1.17520E-04-2.65532E-05-3.89261E-05-1.27985E-05-2.68298E-19-8.96002E-19
 -1      3534 1.15560E-04-1.72016E-05-4.22682E-05 1.08366E-05 1.38691E-18 1.21785E-18
 -1      3535 1.12207E-04-1.19970E-05-4.33207E-05 5.39089E-06 1.62503E-18-1.49465E-19
 -1      3536 9.38800E-05-3.91836E-05-2.32205E-05-3.02337E-05-8.14674E-19 2.28278E-18
 -1      3537 1.05765E-04-4.62995E-05-2.55533E-05-2.61652E-05-8.60400E-19 3.07732E-18
 -1      3538 1.20640E-04-4.96121E-05-3.04803E-05-7.61111E-06-8.24364E-19 1.08818E-18
 -1      3539 1.25118E-04-5.04042E-05-3.20541E-05-4.00555E-06-1.33120E-19 1.22217E-18
 -1      3540 1.22684E-04-4.65956E-05-3.26182E-05 1.02085E-06 9.82442E-20 1.49947E-18
 -1      3541 1.23248E-04-3.82630E-05-3.65842E-05 9.83825E-06 1.09802E-18 1.82555E-18
 -1      3542 1.19432E-04-3.32555E-05-3.69782E-05 1.16490E-05 7.43271E-19 1.55052E-18
 -1      3543 1.22724E-04-4.17090E-05-3.47778E-05 6.80312E-06 8.03237E-19 1.30386E-18
 -1      3544 6.28498E-05-1.13375E-05-2.18850E-05-6.28962E-06-1.07987E-19-2.70943E-18
 -1      3545 6.04609E-05-1.04340E-05-2.14414E-05-1.86996E-07-7.33147E-19-1.92044E-18
 -1      3546 5.68300E-05-1.19965E-05-1.89113E-05 1.47316E-05 2.23760E-18 9.59635E-19
 -1      3547 5.63811E-05-1.05787E-05-1.96051E-05 8.83405E-06 2.12754E-18 1.41693E-18
 -1      3548 6.45529E-05-1.56766E-05-2.08650E-05 1.70619E-05 2.02870E-18 1.80717E-18
 -1      3549 9.31392E-05-1.95446E-05-3.15224E-05-5.77075E-07 1.07660E-19-1.32515E-18
 -1      3550 9.58135E-05-2.81147E-05-2.90178E-05-9.04097E-07 4.15069E-19 1.39207E-19
 -1      3551 9.59080E-05-2.67583E-05-2.96441E-05 3.56330E-07 7.00928E-19-4.72540E-19
 -1      3552 9.58292E-05-2.61749E-05-2.98451E-05 9.15252E-07 6.85975E-19-5.82560E-19
 -1      3553 9.60902E-05-2.84727E-05-2.89809E-05-1.17640E-06 1.86390E-20 2.83856E-19
 -1      3554 9.59494E-05-2.84558E-05-2.89264E-05-1.22598E-06 8.65536E-20 2.29031E-19
 -1      3555 9.59921E-05-2.83344E-05-2.89920E-05-1.07884E-06 2.78464E-19 1.13293E-20
 -1      3556 9.60340E-05-2.76342E-05-2.93197E-05-4.12714E-07 4.35197E-19-2.42267E-19
 -1      3557 9.60277E-05-2.72606E-05-2.94631E-05-4.03021E-08 5.76593E-19-2.41964E-19
 -1      3558 9.60670E-05-2.67591E-05-2.97030E-05 2.42757E-07 5.01589E-19-2.27542E-19
 -1      3559 9.52092E-05-2.40706E-05-3.04910E-05-2.48615E-06-5.99759E-19-1.06566E-18
 -1      3560 9.54137E-05-2.47921E-05-3.02745E-05-1.83798E-06-5.72116E-19-9.54461E-19
 -1      3561 9.55221E-05-2.48029E-05-3.03023E-05-1.51269E-06-4.87387E-19-9.08750E-19
 -1      3562 7.65945E-05-2.58805E-05-2.15524E-05 2.65542E-05 1.51095E-18 3.84889E-18
 -1      3563 9.56211E-05-2.55720E-05-3.00292E-05 1.31163E-06 8.40701E-19-6.95930E-19
 -1      3564 9.54156E-05-2.47220E-05-3.02957E-05 2.07924E-06 9.78372E-19-5.23490E-19
 -1      3565 9.52420E-05-2.41267E-05-3.04780E-05 1.97424E-06 9.65699E-19-7.26710E-19
 -1      3566 9.57465E-05-2.55659E-05-3.00748E-05 1.06875E-06 7.08198E-19-6.75199E-19
 -1      3567 1.16617E-04-3.16986E-05-3.64808E-05-1.10411E-05-1.06307E-18-1.35887E-18
 -1      3568 9.55637E-05-2.84927E-05-2.87465E-05-1.66139E-06 2.90050E-19 8.28152E-20
 -1      3569 9.55664E-05-2.85437E-05-2.87213E-05-1.68841E-06 8.87436E-20 5.85132E-20
 -1      3570 9.56025E-05-2.85663E-05-2.87301E-05-1.62780E-06 1.44700E-19 3.86964E-19
 -1      3571 9.50440E-05-2.79369E-05-2.87590E-05 1.66716E-06-9.69434E-19-2.78862E-18
 -1      3572 9.48262E-05-2.77963E-05-2.87332E-05 1.80352E-06-2.25861E-19-2.31699E-18
 -1      3573 9.49370E-05-2.78409E-05-2.87521E-05 1.55290E-06-2.01966E-18-1.99052E-18
 -1      3574 1.01320E-04-4.27856E-05-2.49016E-05 2.69482E-05 5.32453E-19 4.41834E-18
 -1      3575 9.46560E-05-3.78450E-05-2.42924E-05 2.66689E-05 7.59180E-19 4.75044E-18
 -1      3576 1.07126E-04-4.49802E-05-2.66282E-05 2.09544E-05 5.31166E-19 1.19132E-18
 -1      3577 9.48299E-05-2.77340E-05-2.87528E-05 1.30614E-06-1.96935E-18-2.04422E-18
 -1      3578 9.48955E-05-2.77959E-05-2.87547E-05 1.43212E-06-2.01030E-18-2.35400E-18
 -1      3579 9.46932E-05-2.76485E-05-2.87380E-05 1.51935E-06-1.15778E-18-8.37062E-19
 -1      3580 9.46450E-05-2.75785E-05-2.87468E-05 1.26178E-06-1.79968E-18-2.76412E-18
 -1      3581 1.18148E-04-4.94008E-05-2.94542E-05 1.16091E-05 6.33687E-20-1.84223E-18
 -1      3582 9.39343E-05-2.11246E-05-3.12128E-05-1.18679E-06-1.08541E-19-1.21835E-18
 -1      3583 9.40811E-05-2.14118E-05-3.11587E-05-1.71266E-06-2.46649E-19-1.20877E-18
 -1      3584 8.80218E-05-3.43101E-05-2.28826E-05-2.90361E-05-1.11570E-18 1.23912E-18
 -1      3585 9.41351E-05-3.64408E-05-2.46678E-05-2.44595E-05-1.69862E-18 3.19762E-18
 -1      3586 8.14768E-05-2.80867E-05-2.28852E-05-2.52840E-05-1.78833E-18-3.06798E-19
 -1      3587 9.38539E-05-2.09625E-05-3.12506E-05 7.95676E-07 3.52083E-19-1.10894E-18
 -1      3588 9.38044E-05-2.08622E-05-3.12705E-05 2.44310E-07 2.71124E-19-1.35702E-18
 -1      3589 1.21939E-04-4.44474E-05-3.31691E-05-3.38597E-06-8.09658E-19-2.20115E-18
 -1      3590 1.09410E-04-1.32545E-05-4.14091E-05 2.19548E-06 1.74015E-18-1.08913E-18
 -1      3591 6.52313E-05-1.75091E-05-2.01722E-05-2.00341E-05-7.68550E-19-2.76832E-18
 -1      3592 1.14449E-04-2.19039E-05-3.97267E-05 1.11435E-05 8.47933E-19 1.36322E-18
 -1      3593 9.40001E-05-2.70026E-05-2.87134E-05 1.06640E-06 1.35327E-18 8.36083E-20
 -1      3594 9.41588E-05-2.71218E-05-2.87322E-05 9.63366E-07-4.91276E-19-2.88475E-19
 -1      3595 9.42763E-05-2.72282E-05-2.87326E-05 1.08779E-06-8.09390E-19-5.85955E-19
 -1      3596 1.11757E-04-4.84755E-05-2.69555E-05-2.13068E-05-1.15613E-18 2.78756E-18
 -1      3597 1.15280E-04-4.88639E-05-2.84954E-05-1.50919E-05-1.36313E-18 2.54629E-18
 -1      3598 1.05199E-04-4.39492E-05-2.62977E-05-2.18516E-05-1.38501E-18 3.35716E-18
 -1      3599 6.35579E-05-1.11647E-05-2.24292E-05-5.91110E-06-8.34526E-20 1.40343E-18
 -1      3600 6.79207E-05-1.20301E-05-2.40485E-05-5.14170E-06-7.18588E-19 1.46223E-18
 -1      3601 9.49504E-05-2.32005E-05-3.07358E-05-1.64017E-06-4.18339E-19-8.87166E-19
 -1      3602 9.44378E-05-2.22188E-05-3.09517E-05-2.24343E-06-4.70551E-19-1.04207E-18
 -1      3603 5.25776E-05-9.78263E-06-1.80771E-05 1.23315E-06-7.44039E-19-1.98232E-18
 -1      3604 9.40742E-05-2.14184E-05-3.11497E-05 1.72910E-06 6.13779E-19-9.19487E-19
 -1      3605 9.39352E-05-2.11346E-05-3.12087E-05 1.22834E-06 4.82768E-19-9.56601E-19
 -1      3606 9.45927E-05-2.22851E-05-3.09696E-05 8.12346E-07 3.14649E-19-8.74106E-19
 -1      3607 9.56984E-05-2.85956E-05-2.87564E-05-1.56491E-06 5.14562E-20 4.69819E-19
 -1      3608 9.57428E-05-2.85919E-05-2.87781E-05-1.49791E-06-3.99020E-20 4.85956E-19
 -1      3609 9.59333E-05-2.85812E-05-2.88671E-05-1.37018E-06-1.11924E-19-1.92846E-19
 -1      3610 9.57507E-05-2.85717E-05-2.87928E-05-1.51859E-06 2.53110E-19 3.37695E-20
 -1      3611 6.84015E-05-1.17601E-05-2.40136E-05-2.04540E-07-3.36153E-19 3.23449E-18
 -1      3612 9.41197E-05-2.16308E-05-3.10730E-05-4.11094E-06-8.03628E-19-1.21946E-18
 -1      3613 5.84790E-05-9.55825E-06-2.05287E-05 1.98257E-06 5.63671E-19 2.13955E-18
 -1      3614 7.15222E-05-1.53084E-05-2.39634E-05-8.15756E-06-6.51928E-19-1.73942E-18
 -1      3615 6.55735E-05-1.44739E-05-2.18344E-05-1.33869E-05-9.02669E-19-2.38873E-18
 -1      3616 7.39312E-05-2.12382E-05-2.26215E-05-2.08119E-05-1.44610E-18-2.05533E-18
 -1      3617 9.62887E-05-2.69449E-05-2.97135E-05-3.83306E-08-3.68068E-19-7.44938E-19
 -1      3618 9.63514E-05-2.74020E-05-2.95558E-05 2.81744E-07-2.91451E-19-5.11652E-19
 -1      3619 9.64063E-05-2.77696E-05-2.94117E-05 4.87927E-07-3.78773E-19-4.52229E-19
 -1      3620 9.63897E-05-2.80402E-05-2.92960E-05 7.04863E-07-3.77771E-19-3.20207E-19
 -1      3621 9.64552E-05-2.74451E-05-2.95740E-05 2.96500E-07-2.45387E-19-3.28026E-19
 -1      3622 9.63517E-05-2.82388E-05-2.91887E-05 8.38854E-07-3.22971E-19-3.80950E-19
 -1      3623 9.62811E-05-2.83683E-05-2.91070E-05 9.81787E-07-1.59294E-19-4.46761E-19
 -1      3624 9.64714E-05-2.80608E-05-2.93182E-05 6.45669E-07-3.70190E-19-3.23343E-19
 -1      3625 9.61750E-05-2.84359E-05-2.90299E-05 1.06748E-06-1.94240E-19-1.97056E-19
 -1      3626 9.60651E-05-2.84569E-05-2.89753E-05 1.16532E-06-2.87248E-19-8.93723E-20
 -1      3627 9.63283E-05-2.83595E-05-2.91294E-05 8.75527E-07-1.85444E-19-6.84371E-20
 -1      3628 9.58977E-05-2.84190E-05-2.89197E-05 1.22546E-06-1.70593E-19-6.96947E-20
 -1      3629 9.57444E-05-2.83462E-05-2.88847E-05 1.30360E-06-1.21798E-19 1.29886E-19
 -1      3630 9.60582E-05-2.84091E-05-2.89921E-05 1.02951E-06-2.41149E-19 1.59322E-19
 -1      3631 9.55357E-05-2.82227E-05-2.88499E-05 1.34640E-06-2.21583E-19 8.70435E-20
 -1      3632 9.53515E-05-2.80771E-05-2.88318E-05 1.41516E-06-8.24191E-20 1.42705E-19
 -1      3633 9.56863E-05-2.82555E-05-2.88978E-05 1.13659E-06-1.98840E-19 4.12858E-19
 -1      3634 9.50924E-05-2.78788E-05-2.88085E-05 1.45327E-06 4.53481E-20 6.65935E-20
 -1      3635 9.48592E-05-2.76613E-05-2.87998E-05 1.52646E-06 1.11691E-19-1.61827E-19
 -1      3636 9.52258E-05-2.79372E-05-2.88355E-05 1.21558E-06 4.74838E-21-2.67889E-20
 -1      3637 9.45367E-05-2.73881E-05-2.87819E-05 1.56117E-06 2.34408E-19-4.82255E-20
 -1      3638 9.42343E-05-2.70946E-05-2.87765E-05 1.64210E-06 3.54953E-19-1.82918E-20
 -1      3639 9.46536E-05-2.74665E-05-2.87900E-05 1.27749E-06 7.12807E-20-2.63019E-19
 -1      3640 9.38276E-05-2.67404E-05-2.87569E-05 1.66724E-06 4.02229E-19-4.43635E-20
 -1      3641 9.34254E-05-2.63602E-05-2.87473E-05 1.75111E-06 4.95072E-19 2.36003E-19
 -1      3642 9.39375E-05-2.68424E-05-2.87478E-05 1.31447E-06 3.14894E-19-3.22008E-19
 -1      3643 9.29042E-05-2.59137E-05-2.87168E-05 1.75031E-06 3.37178E-19-2.18418E-20
 -1      3644 9.23581E-05-2.54306E-05-2.86925E-05 1.82174E-06-6.18876E-20-2.59026E-19
 -1      3645 9.30280E-05-2.60534E-05-2.86924E-05 1.29950E-06 2.66125E-19-8.27017E-19
 -1      3646 9.16817E-05-2.48776E-05-2.86384E-05 1.76520E-06-4.52674E-19-4.01362E-19
 -1      3647 9.09322E-05-2.42724E-05-2.85846E-05 1.79588E-06-4.11679E-19-4.54045E-19
 -1      3648 9.18562E-05-2.50810E-05-2.86017E-05 1.18001E-06-2.51109E-19-4.78670E-19
 -1      3649 8.99994E-05-2.35606E-05-2.84826E-05 1.62666E-06-2.96380E-19-3.55348E-19
 -1      3650 8.89016E-05-2.27723E-05-2.83667E-05 1.55871E-06-3.32520E-19-3.59618E-19
 -1      3651 9.02867E-05-2.38735E-05-2.84394E-05 8.58673E-07-3.26958E-19-4.47058E-19
 -1      3652 8.77265E-05-2.19609E-05-2.81960E-05 1.21475E-06-5.99825E-19-2.13876E-19
 -1      3653 8.62732E-05-2.10493E-05-2.79923E-05 9.85125E-07-5.65845E-19-4.48833E-19
 -1      3654 8.82294E-05-2.24482E-05-2.81590E-05 1.93534E-07-5.77633E-19-6.88318E-19
 -1      3655 8.47410E-05-2.01168E-05-2.77084E-05 3.63779E-07-6.63339E-19-4.47396E-19
 -1      3656 8.27430E-05-1.90565E-05-2.73526E-05-1.23651E-07-8.38906E-19-6.09971E-19
 -1      3657 8.56045E-05-2.08626E-05-2.77013E-05-9.82706E-07-7.58397E-19-3.04490E-19
 -1      3658 8.07329E-05-1.80219E-05-2.68893E-05-1.14614E-06-8.57905E-19-9.08540E-19
 -1      3659 7.79534E-05-1.68442E-05-2.62730E-05-2.01396E-06-9.42376E-19-8.34610E-19
 -1      3660 8.21836E-05-1.91494E-05-2.69582E-05-2.96488E-06-9.38310E-19-2.54802E-19
 -1      3661 7.63452E-05-1.63696E-05-2.56927E-05-3.97070E-06-1.28485E-18-1.26112E-18
 -1      3662 7.25403E-05-1.51069E-05-2.46843E-05-5.56455E-06-1.00567E-18-1.48226E-18
 -1      3663 7.56630E-05-1.80863E-05-2.46289E-05-1.14499E-05-1.41407E-18-9.90651E-19
 -1      3664 7.85741E-05-1.79868E-05-2.59184E-05-6.37574E-06-1.39090E-18-5.10227E-19
 -1      3665 9.60285E-05-2.81649E-05-2.90871E-05-9.12222E-07 2.83800E-19 8.51131E-20
 -1      3666 9.60564E-05-2.79400E-05-2.91864E-05-6.75092E-07 3.30722E-19 2.11913E-20
 -1      3667 9.62066E-05-2.76503E-05-2.93823E-05-4.36413E-07 2.91113E-19 6.54596E-20
 -1      3668 9.61945E-05-2.81879E-05-2.91475E-05-8.86050E-07 2.09698E-19 4.74582E-20
 -1      3669 8.04047E-05-1.76338E-05-2.69662E-05 1.31343E-07 1.89484E-18 1.95277E-18
 -1      3670 8.27351E-05-1.87721E-05-2.74296E-05-3.51734E-07 1.28977E-18 2.28954E-18
 -1      3671 8.46434E-05-1.98518E-05-2.78146E-05-1.06108E-06 1.54598E-18 2.08114E-18
 -1      3672 8.64083E-05-2.08966E-05-2.80901E-05-1.28649E-06 1.32110E-18 1.93257E-18
 -1      3673 8.37843E-05-1.96135E-05-2.74452E-05 1.26459E-06 1.20525E-18 2.64509E-18
 -1      3674 8.77530E-05-2.17799E-05-2.83055E-05-1.64250E-06 8.10177E-19 1.66590E-18
 -1      3675 8.89464E-05-2.25930E-05-2.84488E-05-1.67365E-06 6.33410E-19 7.91457E-19
 -1      3676 8.69179E-05-2.13814E-05-2.80450E-05-8.06721E-08 8.43554E-19 2.44799E-18
 -1      3677 8.99507E-05-2.33227E-05-2.85745E-05-1.82845E-06 3.81572E-19 9.53744E-19
 -1      3678 9.07966E-05-2.39735E-05-2.86483E-05-1.75253E-06 7.79787E-20 1.69893E-18
 -1      3679 8.92036E-05-2.28830E-05-2.83932E-05-7.74427E-07 6.21418E-19 8.48158E-19
 -1      3680 9.15401E-05-2.45596E-05-2.87181E-05-1.78244E-06 5.48512E-20 1.79506E-18
 -1      3681 9.21340E-05-2.50671E-05-2.87514E-05-1.65256E-06 4.38512E-19 2.57985E-18
 -1      3682 9.09062E-05-2.41333E-05-2.85958E-05-1.08204E-06 7.44870E-20 1.36387E-18
 -1      3683 9.26799E-05-2.55216E-05-2.87878E-05-1.61342E-06 4.32065E-19 1.96101E-18
 -1      3684 9.30880E-05-2.59095E-05-2.87987E-05-1.46411E-06 1.16668E-18 1.55984E-18
 -1      3685 9.21659E-05-2.51475E-05-2.87083E-05-1.15575E-06 4.65053E-19 1.72038E-18
 -1      3686 9.33467E-05-2.61305E-05-2.88057E-05-1.36637E-06 1.59836E-18 9.12333E-19
 -1      3687 9.35462E-05-2.63567E-05-2.88013E-05-1.19268E-06 1.61730E-18 1.24083E-18
 -1      3688 9.33786E-05-2.62360E-05-2.87719E-05-8.91621E-07 1.22818E-18-2.46653E-18
 -1      3689 9.29230E-05-2.58095E-05-2.87552E-05-1.05451E-06 8.56753E-19 1.44486E-18
 -1      3690 1.10495E-04-1.58801E-05-4.06923E-05-8.25921E-06 2.34970E-18-1.52786E-18
 -1      3691 1.09492E-04-2.00736E-05-3.84391E-05-9.15562E-06 1.42884E-18-1.82400E-18
 -1      3692 9.53420E-05-2.86258E-05-2.85844E-05-3.17783E-06-7.77366E-19 3.05852E-19
 -1      3693 9.51302E-05-2.83906E-05-2.86010E-05-2.98504E-06-4.96696E-19-2.23225E-19
 -1      3694 9.50738E-05-2.82574E-05-2.86286E-05-2.72183E-06-3.91591E-19-5.47952E-19
 -1      3695 9.49872E-05-2.81570E-05-2.86420E-05-2.54349E-06-3.99850E-19-6.18499E-19
 -1      3696 9.47658E-05-2.81055E-05-2.85761E-05-2.92231E-06-7.55690E-19 5.52279E-19
 -1      3697 9.70251E-05-3.05141E-05-2.84960E-05-4.09157E-06-8.94106E-19 4.52174E-19
 -1      3698 9.63968E-05-2.98580E-05-2.85049E-05-3.97030E-06-8.91207E-19 5.47849E-20
 -1      3699 9.87219E-05-3.22225E-05-2.84946E-05-4.32919E-06-6.55156E-19 8.27447E-19
 -1      3700 9.78023E-05-3.13028E-05-2.84788E-05-4.34743E-06-5.91745E-19 3.05937E-19
 -1      3701 9.68518E-05-3.07013E-05-2.83783E-05-4.88700E-06-8.90717E-19 4.23144E-21
 -1      3702 1.01149E-04-3.44537E-05-2.85863E-05-4.13230E-06-1.84862E-20 8.81133E-20
 -1      3703 9.99249E-05-3.33081E-05-2.85168E-05-4.40971E-06-1.96736E-19 3.12009E-19
 -1      3704 9.87960E-05-3.26970E-05-2.83678E-05-5.39152E-06-8.60047E-20 2.23283E-19
 -1      3705 1.04281E-04-3.69962E-05-2.88545E-05-3.17562E-06-5.76774E-19-3.29627E-19
 -1      3706 1.02824E-04-3.57699E-05-2.86908E-05-3.85492E-06-4.63114E-20-2.24165E-19
 -1      3707 1.01654E-04-3.53185E-05-2.84790E-05-5.40073E-06 2.70066E-20-1.19644E-19
 -1      3708 1.07859E-04-3.92906E-05-2.94206E-05-1.04461E-06-3.37842E-19-3.52348E-19
 -1      3709 1.06394E-04-3.83615E-05-2.91038E-05-2.28991E-06-7.73540E-19-3.88671E-19
 -1      3710 1.05435E-04-3.83367E-05-2.88198E-05-4.51255E-06-5.03918E-19-6.69963E-19
 -1      3711 1.11184E-04-4.02645E-05-3.04329E-05 2.38631E-06-4.04161E-19 2.77860E-19
 -1      3712 1.10070E-04-4.01831E-05-2.99065E-05 6.23147E-07-3.46855E-19 4.03887E-20
 -1      3713 1.09814E-04-4.08170E-05-2.95662E-05-2.01769E-06-6.51436E-19-5.18383E-19
 -1      3714 1.12971E-04-3.84849E-05-3.19490E-05 6.62583E-06-9.66379E-20 5.26772E-19
 -1      3715 1.12814E-04-3.99440E-05-3.12324E-05 4.83375E-06-2.74086E-19 3.26839E-19
 -1      3716 1.13853E-04-4.17861E-05-3.08655E-05 2.07478E-06-2.01505E-19 1.81685E-19
 -1      3717 1.13889E-04-3.30256E-05-3.47017E-05 1.04081E-05 6.66350E-19 2.47800E-19
 -1      3718 1.15063E-04-3.66324E-05-3.36792E-05 9.27553E-06 4.33481E-19 7.22365E-19
 -1      3719 1.10940E-04-2.46276E-05-3.70267E-05 1.09033E-05 5.31473E-19-1.09146E-19
 -1      3720 1.12907E-04-2.92692E-05-3.60376E-05 1.14697E-05 4.86349E-19 1.07795E-19
 -1      3721 1.05662E-04-1.61113E-05-3.84447E-05 5.44472E-06 9.94840E-19-3.60201E-19
 -1      3722 1.07042E-04-1.90782E-05-3.79150E-05 8.34576E-06 8.34744E-19-3.25449E-19
 -1      3723 1.06153E-04-2.02680E-05-3.68537E-05-8.38370E-06 1.21677E-18-1.84701E-18
 -1      3724 1.04751E-04-1.75124E-05-3.74625E-05-5.53470E-06 2.34606E-18-1.83230E-18
 -1      3725 1.10797E-04-2.82151E-05-3.55234E-05-1.11373E-05 4.54701E-20-1.14017E-18
 -1      3726 1.08987E-04-2.38507E-05-3.64705E-05-1.08167E-05 4.18950E-19-1.91634E-18
 -1      3727 1.13550E-04-3.77372E-05-3.25652E-05-8.13428E-06-3.72779E-19 4.27153E-19
 -1      3728 1.12768E-04-3.46284E-05-3.34519E-05-9.76848E-06 4.21544E-19-3.63887E-19
 -1      3729 1.12277E-04-4.02596E-05-3.08175E-05-3.69207E-06-7.87694E-19 5.42010E-19
 -1      3730 1.12647E-04-3.92086E-05-3.15136E-05-5.51088E-06-1.01768E-18 4.54907E-19
 -1      3731 1.15714E-04-4.02961E-05-3.23428E-05-5.79506E-06-6.16812E-19-4.75619E-19
 -1      3732 1.09051E-04-3.97485E-05-2.96513E-05 2.94612E-07 6.65381E-19-4.06394E-19
 -1      3733 1.10300E-04-4.01695E-05-3.01098E-05-1.26314E-06 1.62440E-19 3.06091E-19
 -1      3734 1.12967E-04-4.20339E-05-3.04729E-05-7.37997E-07 1.48853E-19 1.67016E-19
 -1      3735 1.05336E-04-3.75984E-05-2.89755E-05 2.80009E-06 9.31347E-20-1.28633E-18
 -1      3736 1.06849E-04-3.86850E-05-2.92422E-05 1.74789E-06 7.96333E-19-1.02805E-18
 -1      3737 1.08527E-04-4.02682E-05-2.93127E-05 2.94254E-06 1.10784E-18-3.96957E-19
 -1      3738 1.01913E-04-3.49759E-05-2.86439E-05 4.03333E-06 3.76234E-19-1.07807E-18
 -1      3739 1.03327E-04-3.62167E-05-2.87746E-05 3.48861E-06-3.58886E-19-1.47392E-18
 -1      3740 1.04283E-04-3.74045E-05-2.87107E-05 4.84604E-06 2.61523E-19-1.84772E-18
 -1      3741 9.92041E-05-3.25817E-05-2.85227E-05 4.35340E-06 4.64826E-20-1.22244E-18
 -1      3742 1.00355E-04-3.36907E-05-2.85706E-05 4.17705E-06 5.79022E-19-8.55174E-19
 -1      3743 1.00713E-04-3.44316E-05-2.84520E-05 5.41925E-06 1.05073E-20-2.08559E-18
 -1      3744 9.72684E-05-3.06941E-05-2.85137E-05 4.14444E-06 3.59974E-19-1.40890E-18
 -1      3745 9.81147E-05-3.15594E-05-2.85176E-05 4.19361E-06-1.40645E-19-1.63659E-18
 -1      3746 9.80979E-05-3.19366E-05-2.83902E-05 5.19662E-06 2.45276E-19-1.12727E-18
 -1      3747 9.59989E-05-2.93500E-05-2.85539E-05 3.67888E-06 5.42569E-19-1.40334E-18
 -1      3748 9.65710E-05-2.99611E-05-2.85388E-05 3.84693E-06 1.06171E-18-8.04635E-19
 -1      3749 9.63467E-05-3.00827E-05-2.84241E-05 4.59250E-06 5.21030E-19-8.29243E-19
 -1      3750 9.52404E-05-2.84777E-05-2.86081E-05 3.12598E-06-1.52227E-18-9.56722E-20
 -1      3751 9.55960E-05-2.88715E-05-2.85880E-05 3.34355E-06-7.82033E-19-1.25585E-18
 -1      3752 9.52779E-05-2.88307E-05-2.84939E-05 3.86319E-06-5.52546E-19-4.76812E-19
 -1      3753 9.48435E-05-2.79700E-05-2.86587E-05 2.57887E-06-6.11599E-19 1.01921E-19
 -1      3754 9.50421E-05-2.81975E-05-2.86405E-05 2.80457E-06-8.11076E-19 2.94960E-19
 -1      3755 9.47007E-05-2.80647E-05-2.85683E-05 3.14725E-06-1.15639E-18 6.71131E-19
 -1      3756 9.46881E-05-2.77179E-05-2.86985E-05 2.08752E-06 4.93869E-19 2.33317E-19
 -1      3757 9.47791E-05-2.78337E-05-2.86851E-05 2.29353E-06-1.43703E-19 5.27794E-19
 -1      3758 9.44518E-05-2.76544E-05-2.86329E-05 2.50737E-06-5.87408E-19 7.40502E-19
 -1      3759 9.48404E-05-2.30312E-05-3.07602E-05 2.29144E-06 8.84214E-19-1.00339E-18
 -1      3760 9.43722E-05-2.20857E-05-3.09922E-05 2.66340E-06 9.42240E-19-1.14862E-18
 -1      3761 9.41556E-05-2.15970E-05-3.11022E-05 2.24425E-06 7.83195E-19-9.71128E-19
 -1      3762 9.51773E-05-2.39447E-05-3.05378E-05 1.80630E-06 8.57606E-19-8.78264E-19
 -1      3763 1.07719E-04-1.41424E-05-4.02260E-05-5.11066E-06 2.67551E-18-1.97168E-18
 -1      3764 1.05250E-04-1.45752E-05-3.90056E-05-4.23060E-07 1.73581E-18-1.48789E-18
 -1      3765 9.38031E-05-2.08594E-05-3.12713E-05-2.05605E-07 1.83799E-19-1.25408E-18
 -1      3766 9.38490E-05-2.09522E-05-3.12530E-05-7.58440E-07-2.92257E-20-1.21364E-18
 -1      3767 9.45883E-05-2.22737E-05-3.09730E-05-7.78797E-07-2.57024E-20-1.10569E-18
 -1      3768 9.45138E-05-2.21077E-05-3.10128E-05 1.66334E-08 1.21694E-19-1.17055E-18
 -1      3769 9.32828E-05-2.62277E-05-2.87436E-05-5.10367E-07-1.01140E-18-3.17827E-18
 -1      3770 9.32513E-05-2.62187E-05-2.87237E-05-1.89450E-07-2.06310E-18-6.91378E-20
 -1      3771 9.30756E-05-2.60283E-05-2.87348E-05-5.80442E-07-3.64533E-19-9.09572E-19
 -1      3772 9.46481E-05-2.26941E-05-3.08374E-05-2.63139E-06-6.48516E-19-9.96585E-19
 -1      3773 9.46093E-05-2.26415E-05-3.08340E-05-3.15090E-06-7.29753E-19-1.11131E-18
 -1      3774 6.21388E-05-1.17062E-05-2.17515E-05 7.01041E-06 4.25718E-19 1.84857E-18
 -1      3775 1.17508E-04-4.75383E-05-3.01460E-05 6.51754E-06 3.12094E-19-2.64290E-18
 -1      3776 1.13521E-04-4.69924E-05-2.83758E-05 1.38047E-05 1.52966E-19-1.78050E-18
 -1      3777 9.34218E-05-2.64964E-05-2.86871E-05 7.14237E-07 1.35500E-18 3.00476E-19
 -1      3778 9.35860E-05-2.66466E-05-2.86853E-05 9.58372E-07 1.27643E-18 1.58823E-19
 -1      3779 9.32493E-05-2.62796E-05-2.87065E-05 1.28664E-07-2.05811E-18-5.35673E-20
 -1      3780 9.33290E-05-2.63640E-05-2.86954E-05 4.32151E-07 3.13171E-19-7.01160E-19
 -1      3781 9.31727E-05-2.62850E-05-2.86646E-05 7.31343E-07 2.08444E-19-1.61081E-18
 -1      3782 9.30302E-05-2.60885E-05-2.86899E-05 1.28025E-07-1.32469E-18-1.30545E-19
 -1      3783 9.59470E-05-2.93424E-05-2.85357E-05-3.66037E-06-5.76769E-19 2.95238E-19
 -1      3784 9.55569E-05-2.89213E-05-2.85526E-05-3.47923E-06-5.72322E-19 2.57194E-19
 -1      3785 9.50192E-05-2.85246E-05-2.85099E-05-3.52938E-06-7.86184E-19 4.40646E-19
 -1      3786 9.53167E-05-2.82822E-05-2.87253E-05-1.76447E-06 2.49204E-19-3.86121E-19
 -1      3787 9.53948E-05-2.83424E-05-2.87383E-05-1.66750E-06 3.72244E-19-1.85810E-19
 -1      3788 9.43990E-05-2.73467E-05-2.87381E-05 1.14675E-06-1.75073E-18-5.13939E-19
 -1      3789 9.45324E-05-2.74656E-05-2.87406E-05 1.23079E-06-1.47331E-18-1.00943E-18
 -1      3790 9.45439E-05-2.74901E-05-2.87355E-05 1.35415E-06 2.18576E-19-1.05816E-18
 -1      3791 9.42760E-05-2.72574E-05-2.87221E-05 1.26916E-06 1.37593E-19 5.71264E-19
 -1      3792 7.43308E-05-1.50124E-05-2.55179E-05 1.99974E-06 4.48019E-19 3.51386E-18
 -1      3793 7.79091E-05-1.64848E-05-2.63560E-05 1.23658E-06 2.00644E-18 3.11744E-18
 -1      3794 7.95066E-05-1.76387E-05-2.64532E-05 3.55228E-06 1.64298E-18 3.20731E-18
 -1      3795 8.36652E-05-2.93652E-05-2.32875E-05 2.52527E-05 1.44857E-18 4.94596E-18
 -1      3796 7.45788E-05-2.20431E-05-2.23809E-05 2.18246E-05 2.00932E-18 2.94189E-18
 -1      3797 9.58949E-05-2.56332E-05-3.01114E-05-7.95264E-07-5.98677E-19-8.75984E-19
 -1      3798 9.60930E-05-2.63395E-05-2.99017E-05-3.41286E-07-5.75038E-19-8.75404E-19
 -1      3799 9.62137E-05-2.64221E-05-2.99093E-05-2.09394E-07-3.95409E-19-6.55454E-19
 -1      3800 8.08487E-05-2.46285E-05-2.39921E-05-1.95090E-05-1.83579E-18-2.15424E-19
 -1      3801 1.10451E-04-4.39720E-05-2.84420E-05 1.12453E-05 9.71848E-19-2.48614E-18
 -1      3802 1.09802E-04-4.53517E-05-2.76735E-05 1.65548E-05 3.99753E-19-1.57909E-18
 -1      3803 1.04862E-04-4.19935E-05-2.68592E-05 1.82640E-05 4.20093E-19-4.16816E-19
 -1      3804 9.62015E-05-2.85055E-05-2.90130E-05-1.10495E-06 8.47188E-20 1.33344E-19
 -1      3805 9.62711E-05-2.84022E-05-2.90843E-05-9.81723E-07 1.05328E-19 2.89337E-19
 -1      3806 7.85131E-05-2.29337E-05-2.38203E-05 1.87557E-05 2.04280E-18 3.95909E-18
 -1      3807 7.18415E-05-1.94410E-05-2.23026E-05 1.96033E-05 1.90705E-18 2.53821E-18
 -1      3808 6.89443E-05-1.62658E-05-2.23309E-05 1.55128E-05 1.76140E-18 2.39260E-18
 -1      3809 9.54499E-05-2.83223E-05-2.87702E-05-1.50129E-06 4.88717E-19-5.34095E-19
 -1      3810 9.55430E-05-2.84229E-05-2.87629E-05-1.57488E-06 4.57878E-19-7.99786E-20
 -1      3811 9.56356E-05-2.84782E-05-2.87827E-05-1.49512E-06 4.87941E-19 1.05563E-19
 -1      3812 9.56584E-05-2.93470E-05-2.84382E-05-4.21109E-06-8.18434E-19-1.25837E-20
 -1      3813 9.61965E-05-2.68683E-05-2.97191E-05 6.83545E-08 3.03703E-19-2.30329E-19
 -1      3814 9.60844E-05-2.62848E-05-2.99057E-05 4.80477E-07 3.87108E-19-4.40328E-19
 -1      3815 9.58014E-05-2.55781E-05-3.01061E-05 8.57995E-07 5.35319E-19-5.11709E-19
 -1      3816 9.56196E-05-2.49135E-05-3.02906E-05 1.27716E-06 6.72840E-19-6.61626E-19
 -1      3817 9.52191E-05-2.39110E-05-3.05643E-05 1.56153E-06 6.85193E-19-6.95808E-19
 -1      3818 9.59309E-05-2.56646E-05-3.01153E-05 6.45162E-07 3.61089E-19-3.27847E-19
 -1      3819 9.47658E-05-2.79690E-05-2.86317E-05-2.41995E-06 8.74216E-21 5.77298E-19
 -1      3820 9.50320E-05-2.81341E-05-2.86647E-05-2.32928E-06 1.48117E-21-3.82897E-19
 -1      3821 9.50281E-05-2.81224E-05-2.86754E-05-2.17757E-06 7.91235E-20-1.49392E-19
 -1      3822 1.17890E-04-3.99304E-05-3.34138E-05 7.12424E-06 3.96107E-19 1.04800E-18
 -1      3823 1.04233E-04-1.65556E-05-3.76216E-05-1.63917E-06 2.00401E-18-1.16042E-18
 -1      3824 9.47179E-05-2.26307E-05-3.08787E-05 1.66339E-06 5.94090E-19-7.41514E-19
 -1      3825 9.45868E-05-2.75986E-05-2.87068E-05 1.87645E-06 5.37659E-19 1.21192E-18
 -1      3826 9.42986E-05-2.74000E-05-2.86728E-05 1.98790E-06-1.14599E-19 2.02871E-18
 -1      3827 9.44930E-05-2.74926E-05-2.87090E-05 1.71388E-06-3.90680E-19 1.92498E-18
 -1      3828 7.21922E-05-1.56425E-05-2.42608E-05 7.93890E-06 8.35674E-19 3.52943E-18
 -1      3829 7.54814E-05-1.76255E-05-2.46985E-05 1.06977E-05 1.24061E-18 4.41140E-18
 -1      3830 9.68722E-05-3.71995E-05-2.57054E-05 2.14907E-05 3.59514E-19 2.70012E-18
 -1      3831 9.04230E-05-3.32488E-05-2.43359E-05 2.40810E-05 6.81870E-19 4.46269E-18
 -1      3832 8.75777E-05-2.95039E-05-2.48517E-05 2.05649E-05 1.40383E-18 3.45174E-18
 -1      3833 1.17357E-04-4.87137E-05-2.93887E-05-1.06185E-05-1.38079E-18 7.62472E-19
 -1      3834 1.17291E-04-4.67783E-05-3.01913E-05-5.43798E-06-9.94379E-19 4.74272E-19
 -1      3835 1.12070E-04-4.59554E-05-2.83865E-05-1.31176E-05-1.23655E-18 1.12164E-18
 -1      3836 6.79493E-05-1.46467E-05-2.29133E-05 9.81786E-06 4.80824E-19 3.05228E-18
 -1      3837 9.41884E-05-3.53152E-05-2.52479E-05-2.20563E-05-1.40257E-18 3.01759E-18
 -1      3838 9.97849E-05-3.97320E-05-2.56017E-05-2.29113E-05-1.23426E-18 3.36966E-18
 -1      3839 1.04671E-04-4.21480E-05-2.67805E-05-1.88054E-05-1.32826E-18 3.11709E-18
 -1      3840 9.60096E-05-2.85830E-05-2.88962E-05-1.27710E-06-2.30507E-20-1.14012E-19
 -1      3841 9.60981E-05-2.85586E-05-2.89444E-05-1.18917E-06 1.20242E-20 1.02697E-19
 -1      3842 9.62549E-05-2.84994E-05-2.90389E-05-1.01123E-06 1.58763E-19 3.62395E-19
 -1      3843 9.52213E-05-2.37524E-05-3.06272E-05-1.06992E-06-3.44831E-19-7.93173E-19
 -1      3844 9.54772E-05-2.45405E-05-3.04115E-05-1.40091E-06-5.50529E-19-8.35356E-19
 -1      3845 9.37516E-05-2.68246E-05-2.86870E-05 1.15721E-06 1.16466E-18-8.93229E-19
 -1      3846 9.39086E-05-2.69620E-05-2.86899E-05 1.30062E-06 1.53503E-18-1.19743E-18
 -1      3847 9.34753E-05-2.66000E-05-2.86590E-05 1.21416E-06 1.01482E-18-7.01845E-19
 -1      3848 9.50113E-05-2.32036E-05-3.07850E-05 1.91472E-07 1.59998E-19-1.07188E-18
 -1      3849 9.50094E-05-2.31969E-05-3.07857E-05-1.68682E-07 8.34523E-20-1.12525E-18
 -1      3850 1.18797E-04-4.53131E-05-3.13820E-05-3.65762E-07-5.14298E-19-1.00712E-18
 -1      3851 1.14852E-04-4.43756E-05-3.02352E-05 2.85499E-06 2.86214E-19-1.43122E-18
 -1      3852 9.51018E-05-2.34382E-05-3.07233E-05 8.02407E-07 3.75430E-19-6.87587E-19
 -1      3853 9.50355E-05-2.32725E-05-3.07632E-05 4.63324E-07 2.33931E-19-8.66233E-19
 -1      3854 9.55408E-05-2.42178E-05-3.05469E-05 2.44705E-07 2.35115E-19-8.09764E-19
 -1      3855 9.51808E-05-2.82060E-05-2.87053E-05-1.88880E-06-1.18931E-20-2.43016E-20
 -1      3856 9.51650E-05-2.81507E-05-2.87220E-05-1.72556E-06-8.82777E-20-1.74037E-20
 -1      3857 9.51327E-05-2.81664E-05-2.86951E-05-2.01131E-06-2.54937E-19-9.43913E-20
 -1      3858 1.14900E-04-3.17226E-05-3.57135E-05-1.10064E-05-7.60225E-19-1.23859E-18
 -1      3859 9.50366E-05-2.32672E-05-3.07657E-05-4.34918E-07 1.08677E-20-1.00410E-18
 -1      3860 9.50895E-05-2.34312E-05-3.07261E-05-7.81716E-07-1.76016E-19-9.57348E-19
 -1      3861 9.55264E-05-2.42037E-05-3.05496E-05-2.12363E-07 2.14554E-20-9.57905E-19
 -1      3862 9.56474E-05-2.46052E-05-3.04306E-05-6.74573E-07-3.68332E-19-7.16645E-19
 -1      3863 1.20036E-04-4.35742E-05-3.27996E-05 4.32184E-06 4.53123E-19 1.34450E-18
 -1      3864 7.98061E-05-2.23807E-05-2.46763E-05-1.57627E-05-1.51362E-18-4.75060E-19
 -1      3865 8.68841E-05-2.87041E-05-2.49188E-05-1.98361E-05-1.78195E-18 1.06071E-18
 -1      3866 1.19900E-04-4.37318E-05-3.26205E-05-3.14538E-06-4.41880E-19-1.17437E-18
 -1      3867 9.65750E-05-2.79116E-05-2.94248E-05 4.46954E-07-2.95289E-19-3.15207E-19
 -1      3868 9.65369E-05-2.81460E-05-2.93131E-05 5.90190E-07-1.89100E-19-2.50060E-19
 -1      3869 9.64652E-05-2.83045E-05-2.92108E-05 6.59934E-07-1.35353E-19-1.68211E-19
 -1      3870 9.63601E-05-2.83952E-05-2.91293E-05 7.55777E-07-2.74194E-19 4.45206E-20
 -1      3871 9.65586E-05-2.81714E-05-2.93077E-05 4.75369E-07-8.47378E-20-6.19295E-20
 -1      3872 9.62082E-05-2.84231E-05-2.90505E-05 7.99441E-07-3.22880E-19 7.32081E-20
 -1      3873 9.60401E-05-2.83972E-05-2.89908E-05 8.65663E-07-2.07033E-19 1.61302E-19
 -1      3874 9.63359E-05-2.83789E-05-2.91237E-05 5.94949E-07-1.12863E-19 9.33209E-20
 -1      3875 9.58357E-05-2.83175E-05-2.89369E-05 8.86413E-07-1.92061E-19 2.07957E-19
 -1      3876 9.56274E-05-2.82017E-05-2.88978E-05 9.30773E-07-1.86631E-19 2.94918E-19
 -1      3877 9.59812E-05-2.83385E-05-2.89887E-05 6.62819E-07-1.24939E-19 2.09465E-19
 -1      3878 9.53714E-05-2.80387E-05-2.88580E-05 9.36600E-07-2.33560E-19 1.29882E-19
 -1      3879 9.51121E-05-2.78454E-05-2.88304E-05 9.68034E-07-3.44152E-20 3.89648E-20
 -1      3880 9.55259E-05-2.81067E-05-2.88922E-05 6.89415E-07-2.42689E-19 3.18125E-19
 -1      3881 9.48009E-05-2.76082E-05-2.87986E-05 9.56498E-07-7.85033E-20-1.17324E-19
 -1      3882 9.44785E-05-2.73423E-05-2.87760E-05 9.73987E-07-7.02008E-20-3.82739E-20
 -1      3883 9.49656E-05-2.77168E-05-2.88178E-05 6.76617E-07-1.36915E-19-3.24439E-20
 -1      3884 9.41026E-05-2.70351E-05-2.87453E-05 9.35307E-07 4.60814E-20 3.52689E-20
 -1      3885 9.36964E-05-2.66958E-05-2.87204E-05 9.28918E-07 2.42091E-19-2.41894E-19
 -1      3886 9.42881E-05-2.71876E-05-2.87524E-05 6.10224E-07-1.53428E-19 1.69035E-19
 -1      3887 9.32397E-05-2.63187E-05-2.86827E-05 8.43982E-07 2.72923E-19-6.41267E-20
 -1      3888 9.27202E-05-2.59022E-05-2.86461E-05 7.92559E-07 1.11808E-19-2.04953E-19
 -1      3889 9.34685E-05-2.65291E-05-2.86809E-05 4.58031E-07 1.67319E-19 1.77645E-19
 -1      3890 9.21635E-05-2.54559E-05-2.85908E-05 6.28334E-07-1.76175E-19-2.97110E-19
 -1      3891 9.14902E-05-2.49570E-05-2.85300E-05 4.95967E-07-3.44674E-19 1.76232E-20
 -1      3892 9.24729E-05-2.57514E-05-2.85848E-05 1.65731E-07-7.97679E-20-2.61994E-19
 -1      3893 9.07733E-05-2.44163E-05-2.84387E-05 1.87263E-07-4.93798E-19-2.52246E-19
 -1      3894 8.98456E-05-2.38025E-05-2.83279E-05-1.05496E-07-5.93755E-19-4.57260E-19
 -1      3895 9.12239E-05-2.48403E-05-2.84358E-05-3.72201E-07-5.20212E-19 6.64803E-20
 -1      3896 8.90117E-05-2.32337E-05-2.81882E-05-6.09268E-07-5.03189E-19-4.61617E-19
 -1      3897 8.78517E-05-2.25711E-05-2.80114E-05-1.11660E-06-5.07331E-19-3.15976E-19
 -1      3898 8.97023E-05-2.38541E-05-2.82025E-05-1.28512E-06-4.55758E-19 1.22082E-19
 -1      3899 8.68581E-05-2.19862E-05-2.77944E-05-1.92379E-06-7.57278E-19-4.80465E-19
 -1      3900 8.53564E-05-2.12781E-05-2.75075E-05-2.77928E-06-7.07735E-19-3.29926E-19
 -1      3901 8.79168E-05-2.28841E-05-2.78484E-05-2.72402E-06-8.37694E-19-2.10868E-19
 -1      3902 8.42104E-05-2.07513E-05-2.71768E-05-4.00277E-06-8.52620E-19-2.68247E-19
 -1      3903 8.22923E-05-2.00527E-05-2.67155E-05-5.41206E-06-1.08874E-18-2.05629E-19
 -1      3904 8.58064E-05-2.20234E-05-2.73101E-05-4.95121E-06-6.56021E-19-4.91026E-19
 -1      3905 9.44097E-05-2.78246E-05-2.85260E-05-3.02700E-06-9.38779E-19 9.63700E-19
 -1      3906 9.43534E-05-2.77216E-05-2.85592E-05-2.73670E-06-3.46093E-19 1.04968E-18
 -1      3907 8.34147E-05-2.00895E-05-2.71949E-05 3.40790E-06 1.21022E-18 2.17081E-18
 -1      3908 8.52783E-05-2.09030E-05-2.75812E-05 2.38090E-06 6.73702E-19 2.30126E-18
 -1      3909 9.57302E-05-2.52223E-05-3.02181E-05-9.48121E-07-6.20229E-19-8.69542E-19
 -1      3910 8.64171E-05-2.15227E-05-2.78547E-05 1.44589E-06 2.57174E-19 1.38199E-18
 -1      3911 8.77509E-05-2.22314E-05-2.80785E-05 8.81313E-07 8.11222E-19 1.00074E-18
 -1      3912 8.64649E-05-2.18828E-05-2.76457E-05 3.34902E-06 3.26564E-19 2.66703E-19
 -1      3913 8.86862E-05-2.28274E-05-2.82543E-05 3.03991E-07 9.22161E-19 7.96050E-19
 -1      3914 8.96843E-05-2.34484E-05-2.83884E-05 4.71887E-09-3.68114E-19 5.67999E-20
 -1      3915 8.84917E-05-2.28834E-05-2.80928E-05 1.66886E-06 5.31958E-19 7.79035E-20
 -1      3916 9.04314E-05-2.39814E-05-2.84982E-05-3.29265E-07-5.52326E-19 1.90787E-19
 -1      3917 9.11716E-05-2.45022E-05-2.85757E-05-4.59808E-07 4.21205E-19 9.30031E-19
 -1      3918 9.01365E-05-2.38728E-05-2.83794E-05 6.37657E-07-7.73517E-20 1.66772E-20
 -1      3919 9.17575E-05-2.49525E-05-2.86425E-05-6.34266E-07 7.95676E-19 8.15172E-19
 -1      3920 9.22952E-05-2.53783E-05-2.86848E-05-6.64618E-07 5.41937E-19 1.34453E-18
 -1      3921 9.14437E-05-2.47731E-05-2.85587E-05 4.26983E-08 1.68695E-19-2.19838E-19
 -1      3922 9.25805E-05-2.56057E-05-2.87062E-05-6.62351E-07 1.07170E-19 9.51608E-19
 -1      3923 9.28318E-05-2.58373E-05-2.87183E-05-5.86274E-07 3.96117E-19 3.35136E-20
 -1      3924 9.27957E-05-2.58393E-05-2.86901E-05-1.96523E-07-7.92982E-19 3.73151E-19
 -1      3925 9.22809E-05-2.54155E-05-2.86479E-05-1.69344E-07 3.70669E-19 6.00385E-19
 -1      3926 9.63222E-05-2.73608E-05-2.95495E-05-2.08798E-07 2.18662E-19-3.18643E-20
 -1      3927 9.63142E-05-2.69185E-05-2.97380E-05-8.75975E-09 1.40286E-19-3.74861E-19
 -1      3928 9.63467E-05-2.77345E-05-2.94098E-05-4.90866E-07 1.50805E-19-4.35279E-20
 -1      3929 9.52328E-05-2.90809E-05-2.83345E-05-4.68843E-06-9.52414E-19 4.15433E-20
 -1      3930 9.47801E-05-2.85653E-05-2.83749E-05-4.29902E-06-7.18647E-19 1.14958E-19
 -1      3931 9.85633E-05-3.27268E-05-2.81961E-05-6.54773E-06 1.16091E-20 2.44708E-20
 -1      3932 9.73337E-05-3.15054E-05-2.81898E-05-6.27619E-06-4.20136E-19 2.81288E-19
 -1      3933 9.64683E-05-3.05303E-05-2.82407E-05-5.66247E-06-8.11345E-19 1.11221E-19
 -1      3934 9.56837E-05-2.96957E-05-2.82704E-05-5.28219E-06-9.42780E-19 1.23154E-20
 -1      3935 9.59073E-05-3.05028E-05-2.80653E-05-6.74810E-06-5.23936E-19 1.48256E-19
 -1      3936 1.06027E-04-3.93212E-05-2.86172E-05-6.51277E-06-5.90015E-19-2.54347E-19
 -1      3937 1.03993E-04-3.75183E-05-2.83972E-05-7.05029E-06-5.07271E-19-1.65428E-19
 -1      3938 1.13044E-04-4.38864E-05-2.96870E-05-4.37272E-06-1.06405E-18 8.90675E-20
 -1      3939 1.10712E-04-4.26003E-05-2.91484E-05-5.92839E-06-1.05714E-18-3.13220E-19
 -1      3940 1.17887E-04-4.43657E-05-3.15285E-05 1.09938E-06 1.57958E-20 9.89027E-19
 -1      3941 1.16210E-04-4.47625E-05-3.06253E-05-1.47019E-06-7.33150E-19 4.30165E-19
 -1      3942 9.51846E-05-2.37396E-05-3.06260E-05 1.16887E-06 4.64862E-19-5.72099E-19
 -1      3943 9.58587E-05-2.53763E-05-3.02106E-05-6.95537E-07-5.74191E-19-7.46646E-19
 -1      3944 1.02691E-04-3.64550E-05-2.83307E-05 7.14294E-06 1.58889E-19-1.50907E-18
 -1      3945 1.04761E-04-3.82216E-05-2.85187E-05 6.74121E-06 5.63907E-19-9.86000E-19
 -1      3946 9.91001E-05-3.32091E-05-2.82033E-05 6.81462E-06-1.54344E-19-7.07751E-19
 -1      3947 1.00684E-04-3.47162E-05-2.82601E-05 6.90450E-06-3.25352E-19-1.51306E-18
 -1      3948 1.00591E-04-3.53153E-05-2.80317E-05 8.80602E-06-2.18475E-19-7.53997E-19
 -1      3949 9.66991E-05-3.07748E-05-2.82354E-05 5.93637E-06 4.79802E-20-8.26276E-19
 -1      3950 9.78027E-05-3.19016E-05-2.82260E-05 6.26014E-06 1.97820E-19-4.49695E-19
 -1      3951 9.73524E-05-3.20678E-05-2.80204E-05 7.69754E-06-9.24106E-20 2.35647E-20
 -1      3952 9.52322E-05-2.91099E-05-2.83307E-05 4.89773E-06 8.29701E-19-7.51821E-19
 -1      3953 9.59365E-05-2.98751E-05-2.82944E-05 5.30500E-06 3.05451E-19-4.36111E-19
 -1      3954 9.53552E-05-2.97931E-05-2.81281E-05 6.30619E-06 3.81905E-19-1.60669E-19
 -1      3955 9.44379E-05-2.80773E-05-2.84389E-05 3.90488E-06-1.48734E-18 4.56442E-19
 -1      3956 9.48441E-05-2.85506E-05-2.83964E-05 4.30782E-06-2.71810E-20 8.94580E-20
 -1      3957 9.42519E-05-2.83336E-05-2.82691E-05 4.96258E-06-3.93333E-19 3.24224E-19
 -1      3958 9.40933E-05-2.75115E-05-2.85369E-05 3.04293E-06-1.18137E-18 2.52152E-19
 -1      3959 9.42930E-05-2.77695E-05-2.84982E-05 3.40216E-06-1.67907E-18-8.63898E-20
 -1      3960 9.37517E-05-2.74967E-05-2.84050E-05 3.80060E-06-1.40133E-18-5.79589E-19
 -1      3961 9.40366E-05-2.72710E-05-2.86165E-05 2.33350E-06 1.07047E-19-6.19815E-19
 -1      3962 9.40953E-05-2.73787E-05-2.85846E-05 2.63743E-06-3.81207E-20-4.04531E-19
 -1      3963 9.36302E-05-2.70945E-05-2.85191E-05 2.85687E-06-6.50166E-19-1.97033E-18
 -1      3964 9.64141E-05-2.82655E-05-2.92070E-05-7.93808E-07 6.52897E-20 1.89450E-19
 -1      3965 9.63278E-05-2.82474E-05-2.91795E-05-8.60536E-07 2.59849E-20 2.49699E-19
 -1      3966 9.63623E-05-2.80315E-05-2.92809E-05-6.73984E-07 1.96276E-19 1.19102E-19
 -1      3967 9.46129E-05-2.82317E-05-2.84356E-05-3.78706E-06-4.07015E-19 1.13702E-19
 -1      3968 9.43970E-05-2.79585E-05-2.84747E-05-3.43783E-06-5.63059E-19 3.69641E-19
 -1      3969 9.39284E-05-2.75480E-05-2.84561E-05-3.24499E-06-3.69368E-19 5.07914E-19
 -1      3970 1.18342E-04-3.90308E-05-3.41484E-05-8.97687E-06-5.83887E-19-1.48924E-18
 -1      3971 1.12526E-04-4.34750E-05-2.94983E-05 4.97793E-06 5.75526E-19-1.32015E-18
 -1      3972 1.01760E-04-3.57314E-05-2.82836E-05-7.04512E-06-8.22044E-20 2.27293E-20
 -1      3973 1.00019E-04-3.41437E-05-2.81935E-05-7.06012E-06 4.94653E-19 2.74407E-19
 -1      3974 1.01953E-04-3.66613E-05-2.80738E-05-9.03936E-06-6.33447E-20 2.39303E-19
 -1      3975 9.58533E-05-2.50337E-05-3.03643E-05-4.64825E-08 5.66252E-20-9.22560E-19
 -1      3976 9.58649E-05-2.50811E-05-3.03458E-05-2.47040E-07-1.30170E-19-7.88740E-19
 -1      3977 9.57821E-05-2.85389E-05-2.88165E-05-1.42172E-06 1.91793E-19-6.73842E-22
 -1      3978 9.58778E-05-2.85662E-05-2.88478E-05-1.34669E-06 2.49972E-20-1.83157E-19
 -1      3979 9.57441E-05-2.84718E-05-2.88322E-05-1.32742E-06 1.88331E-19-5.46481E-20
 -1      3980 7.96897E-05-1.87737E-05-2.61670E-05 6.53271E-06 7.84879E-19 4.22586E-18
 -1      3981 8.20870E-05-1.95430E-05-2.67734E-05 4.84304E-06 1.12755E-18 2.86587E-18
 -1      3982 8.40252E-05-2.10268E-05-2.69648E-05 5.98732E-06 3.08714E-19 2.56455E-18
 -1      3983 7.81301E-05-2.07681E-05-2.45674E-05 1.47231E-05 1.53494E-18 4.32548E-18
 -1      3984 7.87644E-05-1.90301E-05-2.55513E-05 9.19275E-06 1.43844E-18 4.52331E-18
 -1      3985 8.17947E-05-2.11900E-05-2.59731E-05 1.03209E-05 8.11400E-19 4.52333E-18
 -1      3986 8.09898E-05-2.34723E-05-2.46872E-05 1.69539E-05 1.76645E-18 4.26410E-18
 -1      3987 9.65023E-05-2.71706E-05-2.97069E-05 1.15695E-07-1.44302E-19-4.94990E-19
 -1      3988 9.65468E-05-2.75852E-05-2.95597E-05 3.29200E-07-2.24780E-19-4.05916E-19
 -1      3989 9.65997E-05-2.76478E-05-2.95478E-05 2.88892E-07-2.10829E-19-3.04369E-19
 -1      3990 1.09546E-04-4.14096E-05-2.91797E-05 4.81157E-06 1.10613E-18-1.58828E-18
 -1      3991 1.10200E-04-4.32008E-05-2.88020E-05 8.73451E-06 1.09139E-18-2.51746E-18
 -1      3992 1.07475E-04-4.14250E-05-2.82068E-05 1.07441E-05 2.03089E-18-2.11294E-18
 -1      3993 1.07196E-04-3.98636E-05-2.87613E-05 6.10723E-06 1.20913E-18-1.44233E-18
 -1      3994 8.10031E-05-2.17295E-05-2.53453E-05-1.27348E-05-1.62496E-18-4.03204E-19
 -1      3995 9.40733E-05-2.74558E-05-2.85543E-05-2.49932E-06-2.77723E-19 1.18288E-18
 -1      3996 9.44709E-05-2.77183E-05-2.86004E-05-2.42129E-06-2.03280E-19 1.15584E-18
 -1      3997 9.45154E-05-2.77267E-05-2.86276E-05-2.19078E-06 1.25149E-20 1.00009E-18
 -1      3998 8.18149E-05-2.02029E-05-2.63534E-05-7.22510E-06-1.40100E-18-3.85150E-19
 -1      3999 8.03060E-05-2.01343E-05-2.58177E-05-9.45361E-06-1.52663E-18-6.04682E-19
 -1      4000 8.41215E-05-2.19849E-05-2.66353E-05-8.16715E-06-9.79863E-19-5.09082E-19
 -1      4001 9.64333E-05-2.70916E-05-2.97224E-05-1.32785E-07 4.85590E-20-5.02232E-19
 -1      4002 9.63139E-05-2.65591E-05-2.98957E-05 1.67225E-07 1.06290E-19-5.04831E-19
 -1      4003 9.40691E-05-2.71136E-05-2.86984E-05 1.38409E-06 1.52261E-18 5.93583E-19
 -1      4004 9.42155E-05-2.72381E-05-2.87058E-05 1.44500E-06 1.57609E-18 1.13280E-18
 -1      4005 9.38327E-05-2.69302E-05-2.86708E-05 1.49051E-06 3.07910E-19-9.48068E-19
 -1      4006 9.53445E-05-2.82052E-05-2.87708E-05-1.37031E-06 2.97543E-19-3.41109E-19
 -1      4007 9.54930E-05-2.82999E-05-2.87989E-05-1.27072E-06 4.19694E-19-4.54071E-19
 -1      4008 9.81163E-05-3.29718E-05-2.79832E-05-8.08282E-06 8.01422E-20 5.74045E-19
 -1      4009 9.59161E-05-2.53965E-05-3.02251E-05 4.30159E-07 2.83448E-19-4.98168E-19
 -1      4010 9.56032E-05-2.45569E-05-3.04360E-05 8.04682E-07 4.12570E-19-5.50902E-19
 -1      4011 9.46395E-05-2.88957E-05-2.81986E-05-5.40346E-06-8.63692E-19-7.62859E-20
 -1      4012 1.00483E-04-3.81156E-05-2.67022E-05 1.72995E-05-5.65394E-20-2.99770E-21
 -1      4013 1.08481E-04-4.18731E-05-2.85729E-05-9.14638E-06-7.58788E-19 1.49376E-19
 -1      4014 9.25617E-05-2.57207E-05-2.86481E-05 2.02246E-07 1.32154E-18-9.57164E-19
 -1      4015 9.27991E-05-2.59151E-05-2.86681E-05 1.83901E-07 3.04730E-19-1.33017E-19
 -1      4016 9.28505E-05-2.59883E-05-2.86514E-05 5.03926E-07 7.90520E-19-1.86332E-18
 -1      4017 9.60308E-05-2.55912E-05-3.01890E-05 2.70909E-07 2.85051E-19-6.81667E-19
 -1      4018 9.39553E-05-2.71450E-05-2.86309E-05 2.08798E-06-9.02412E-19-1.55479E-19
 -1      4019 9.64800E-05-2.83269E-05-2.92098E-05-7.23687E-07 1.38942E-20 1.48385E-19
 -1      4020 9.65349E-05-2.81433E-05-2.93093E-05-5.89213E-07 5.15840E-21 1.68664E-19
 -1      4021 9.40582E-05-2.79726E-05-2.83358E-05-4.21365E-06-5.86711E-19 4.35184E-19
 -1      4022 9.04111E-05-3.00660E-05-2.59640E-05 1.69125E-05 1.31687E-19 1.41540E-18
 -1      4023 8.55104E-05-2.65164E-05-2.51818E-05 1.74958E-05 1.11956E-18 3.03579E-18
 -1      4024 8.49778E-05-2.46407E-05-2.58205E-05 1.39730E-05 6.06130E-19 3.28498E-18
 -1      4025 1.05018E-04-3.91368E-05-2.83196E-05 8.76872E-06 4.86152E-19-1.62105E-18
 -1      4026 9.11278E-05-3.15054E-05-2.54817E-05-1.92478E-05-1.07730E-18 1.91422E-18
 -1      4027 9.61039E-05-3.49890E-05-2.62540E-05-1.81684E-05-5.67201E-19 2.42872E-18
 -1      4028 8.97609E-05-2.91479E-05-2.59776E-05-1.61580E-05-1.14051E-18 1.23716E-18
 -1      4029 9.60210E-05-2.85480E-05-2.89180E-05-1.17560E-06 5.79633E-20-5.19000E-20
 -1      4030 9.31589E-05-2.63806E-05-2.86222E-05 1.33798E-06-8.25726E-19-2.13584E-19
 -1      4031 9.33677E-05-2.65677E-05-2.86253E-05 1.53437E-06-1.20914E-18-1.21963E-18
 -1      4032 9.49214E-05-2.80110E-05-2.86785E-05-2.02492E-06 1.06747E-19 4.64320E-19
 -1      4033 9.50014E-05-2.79881E-05-2.87154E-05-1.61861E-06-4.32172E-19 3.64825E-20
 -1      4034 9.51368E-05-2.80853E-05-2.87390E-05-1.48727E-06-1.35380E-19-2.51531E-19
 -1      4035 9.51698E-05-2.80526E-05-2.87648E-05-1.25123E-06 5.81725E-20-4.72574E-19
 -1      4036 9.62884E-05-2.85161E-05-2.90453E-05-8.96818E-07 2.48028E-20 2.79736E-19
 -1      4037 9.63910E-05-2.84474E-05-2.91180E-05-8.00658E-07-1.90297E-20 2.39985E-19
 -1      4038 9.64982E-05-2.83376E-05-2.92115E-05-6.10814E-07-5.99690E-20 1.20936E-19
 -1      4039 9.59525E-05-2.53202E-05-3.02829E-05 2.34686E-07 2.41213E-19-6.65915E-19
 -1      4040 9.59325E-05-2.52304E-05-3.03066E-05 6.08737E-08 6.13902E-20-7.90067E-19
 -1      4041 9.62737E-05-2.59719E-05-3.01143E-05-2.20666E-08-3.01094E-20-6.97790E-19
 -1      4042 9.63871E-05-2.64313E-05-2.99681E-05 3.67774E-08-1.73968E-20-5.59158E-19
 -1      4043 9.58919E-05-2.52065E-05-3.02952E-05-3.70251E-07-1.76818E-19-5.93325E-19
 -1      4044 9.59579E-05-2.55281E-05-3.01906E-05-5.20963E-07-4.23604E-19-7.17731E-19
 -1      4045 9.28984E-05-2.60859E-05-2.86369E-05 7.88734E-07-2.19523E-19-2.30924E-18
 -1      4046 9.30263E-05-2.62229E-05-2.86289E-05 1.07067E-06-5.26748E-19-7.10051E-19
 -1      4047 9.28901E-05-2.61812E-05-2.85908E-05 1.42890E-06-1.33742E-18-3.90399E-19
 -1      4048 9.26959E-05-2.59223E-05-2.86140E-05 8.58949E-07 5.18131E-19-1.22999E-18
 -1      4049 9.43580E-05-2.73567E-05-2.87132E-05 1.48293E-06 1.16803E-18 2.01731E-19
 -1      4050 9.43855E-05-2.73986E-05-2.87072E-05 1.62247E-06 7.44013E-19 1.39566E-18
 -1      4051 9.62025E-05-2.58837E-05-3.01209E-05-1.74321E-07-1.32386E-19-6.21602E-19
 -1      4052 9.63070E-05-2.65812E-05-2.98917E-05-7.13752E-08-1.27510E-19-5.11526E-19
 -1      4053 9.64104E-05-2.67260E-05-2.98696E-05-1.00538E-08-8.98588E-20-6.20895E-19
 -1      4054 9.35785E-05-2.67674E-05-2.86366E-05 1.63823E-06-1.14316E-18-3.85293E-19
 -1      4055 9.37733E-05-2.69260E-05-2.86465E-05 1.72269E-06-1.61035E-18 9.07381E-19
 -1      4056 9.33060E-05-2.65661E-05-2.85994E-05 1.77735E-06-1.91676E-18 2.22052E-19
 -1      4057 1.04474E-04-3.92425E-05-2.79635E-05 1.10428E-05 8.68096E-19-1.75947E-18
 -1      4058 1.04001E-04-3.99195E-05-2.75564E-05 1.39057E-05 4.87590E-19-1.97187E-18
 -1      4059 1.02094E-04-3.72214E-05-2.77495E-05 1.13263E-05-1.74192E-20-1.64002E-18
 -1      4060 9.64598E-05-2.83670E-05-2.91820E-05 3.74078E-07-2.44837E-20-3.72335E-19
 -1      4061 9.63063E-05-2.84087E-05-2.91006E-05 4.24189E-07-5.12192E-20-2.60860E-19
 -1      4062 9.61297E-05-2.83914E-05-2.90303E-05 4.20569E-07-1.14391E-19-2.52736E-19
 -1      4063 9.59252E-05-2.83238E-05-2.89736E-05 4.44245E-07-1.05824E-19-5.53596E-20
 -1      4064 9.62486E-05-2.83874E-05-2.90829E-05 2.10053E-07 4.33659E-20-7.38350E-19
 -1      4065 9.56931E-05-2.82114E-05-2.89205E-05 4.26429E-07-7.46716E-20 1.68001E-19
 -1      4066 9.54371E-05-2.80611E-05-2.88778E-05 4.29552E-07-1.21911E-19 5.15732E-20
 -1      4067 9.58422E-05-2.82722E-05-2.89573E-05 1.90168E-07 1.65035E-20-4.33386E-19
 -1      4068 9.51584E-05-2.78738E-05-2.88358E-05 3.88831E-07-1.58521E-19 1.02607E-19
 -1      4069 9.48464E-05-2.76526E-05-2.88011E-05 3.67124E-07-1.48483E-19-1.07011E-19
 -1      4070 9.53360E-05-2.79899E-05-2.88612E-05 1.30091E-07-1.10434E-19-1.48906E-19
 -1      4071 9.45210E-05-2.74044E-05-2.87637E-05 2.94640E-07-1.28307E-19 1.70981E-20
 -1      4072 9.41450E-05-2.71220E-05-2.87298E-05 2.34832E-07-2.15841E-20 1.49143E-19
 -1      4073 9.47351E-05-2.75749E-05-2.87803E-05 9.30691E-09-2.15502E-19-8.60593E-20
 -1      4074 9.37693E-05-2.68233E-05-2.86901E-05 1.11331E-07-6.31097E-21-1.80011E-20
 -1      4075 9.33145E-05-2.64866E-05-2.86490E-05-9.06468E-09 1.25294E-19-1.28011E-19
 -1      4076 9.40395E-05-2.70589E-05-2.87017E-05-2.02511E-07-9.07724E-20 5.34635E-19
 -1      4077 9.28821E-05-2.61462E-05-2.85986E-05-2.12911E-07-1.74481E-19-2.36412E-19
 -1      4078 9.23270E-05-2.57662E-05-2.85402E-05-4.25917E-07-4.08434E-19-5.67232E-19
 -1      4079 9.32422E-05-2.64705E-05-2.86108E-05-5.57868E-07-1.17471E-19-3.13448E-19
 -1      4080 9.18212E-05-2.53867E-05-2.84652E-05-7.73405E-07-2.81701E-19-2.81807E-19
 -1      4081 9.11056E-05-2.49541E-05-2.83705E-05-1.16001E-06-2.73199E-19-1.33801E-19
 -1      4082 9.23115E-05-2.58367E-05-2.84848E-05-1.14967E-06-2.15816E-19-4.63894E-19
 -1      4083 9.05796E-05-2.46020E-05-2.82647E-05-1.68259E-06-5.21883E-19 8.48051E-20
 -1      4084 8.97507E-05-2.41876E-05-2.81250E-05-2.27992E-06-7.31304E-19 2.22439E-19
 -1      4085 9.12794E-05-2.52279E-05-2.83050E-05-2.07641E-06-3.28817E-19 3.36387E-20
 -1      4086 8.92095E-05-2.38986E-05-2.79710E-05-3.06606E-06-9.88023E-19-4.60722E-20
 -1      4087 8.82268E-05-2.35358E-05-2.77586E-05-3.99493E-06-7.73361E-19-4.14873E-19
 -1      4088 9.02061E-05-2.47575E-05-2.80507E-05-3.44717E-06-1.03294E-18-5.51895E-20
 -1      4089 8.77438E-05-2.34138E-05-2.75389E-05-5.14267E-06-7.81025E-19-2.90135E-19
 -1      4090 8.66357E-05-2.31752E-05-2.72232E-05-6.56312E-06-6.92703E-19-2.49376E-19
 -1      4091 8.91520E-05-2.45700E-05-2.76887E-05-5.45040E-06-9.16383E-19-1.47551E-19
 -1      4092 9.65277E-05-2.75423E-05-2.95640E-05-2.83306E-07-5.80162E-20-3.42692E-19
 -1      4093 9.65200E-05-2.71924E-05-2.97106E-05-1.45385E-07-2.14037E-19-5.70082E-19
 -1      4094 8.68283E-05-2.26996E-05-2.75303E-05 4.86579E-06-9.75968E-19 1.00481E-18
 -1      4095 8.79716E-05-2.30515E-05-2.77990E-05 3.75443E-06-2.19745E-19 1.36644E-19
 -1      4096 9.74795E-05-3.26457E-05-2.77443E-05-9.44087E-06-3.09359E-19 9.58353E-19
 -1      4097 9.59126E-05-3.11287E-05-2.77500E-05-8.79288E-06-3.23981E-19 5.90643E-19
 -1      4098 8.85380E-05-2.33092E-05-2.79923E-05 2.82795E-06 1.19810E-18-3.42734E-19
 -1      4099 8.94797E-05-2.37229E-05-2.81683E-05 2.11842E-06 6.83885E-19-5.81582E-19
 -1      4100 8.91150E-05-2.40061E-05-2.78953E-05 4.21153E-06-3.41774E-19 7.46815E-19
 -1      4101 9.00244E-05-2.40555E-05-2.82996E-05 1.50614E-06 2.51051E-20-1.25101E-20
 -1      4102 9.07774E-05-2.44667E-05-2.84121E-05 1.07201E-06-7.88355E-20-2.81500E-19
 -1      4103 9.02535E-05-2.43924E-05-2.82137E-05 2.55987E-06 8.02991E-19-7.35242E-19
 -1      4104 9.12616E-05-2.48075E-05-2.84991E-05 6.82645E-07-3.16713E-19-4.98995E-19
 -1      4105 9.18485E-05-2.51864E-05-2.85692E-05 4.37273E-07 5.82106E-20-6.23007E-19
 -1      4106 9.12968E-05-2.49296E-05-2.84303E-05 1.46862E-06-3.66931E-19 7.79419E-20
 -1      4107 9.22859E-05-2.55123E-05-2.86238E-05 2.33764E-07 8.39227E-19-1.11708E-18
 -1      4108 9.38927E-05-2.83548E-05-2.80582E-05-5.93231E-06-1.07849E-18-2.62429E-20
 -1      4109 9.34294E-05-2.77892E-05-2.81360E-05-5.24170E-06-1.13177E-18 6.57873E-20
 -1      4110 9.64091E-05-2.66115E-05-2.99215E-05 1.32636E-08-5.16213E-20-6.32651E-19
 -1      4111 9.75669E-05-3.53624E-05-2.65702E-05 1.67132E-05-3.11673E-19 4.90386E-20
 -1      4112 9.37615E-05-2.83898E-05-2.80216E-05 6.37242E-06-2.04094E-20 1.06062E-18
 -1      4113 9.45474E-05-2.92672E-05-2.79436E-05 7.13586E-06 2.16112E-19 9.47217E-20
 -1      4114 9.78087E-05-3.30615E-05-2.77142E-05 9.87387E-06-7.30235E-19-1.06905E-18
 -1      4115 9.98178E-05-3.49911E-05-2.77475E-05 1.04274E-05-8.00487E-20-1.33723E-18
 -1      4116 9.86615E-05-3.48631E-05-2.74132E-05 1.24796E-05-3.66820E-19-1.25443E-18
 -1      4117 9.31297E-05-2.73089E-05-2.82184E-05 4.77218E-06-6.39292E-19 8.84494E-19
 -1      4118 9.35420E-05-2.78143E-05-2.81406E-05 5.42969E-06 2.64618E-19 8.81688E-19
 -1      4119 9.25074E-05-2.73042E-05-2.79605E-05 6.20207E-06-3.34543E-21 9.38687E-19
 -1      4120 9.29930E-05-2.67865E-05-2.83848E-05 3.49655E-06-1.09505E-18-4.20142E-19
 -1      4121 9.31536E-05-2.70303E-05-2.83177E-05 4.03006E-06-7.14423E-19 3.32576E-19
 -1      4122 9.23141E-05-2.65349E-05-2.81940E-05 4.45870E-06-5.34551E-20 8.68406E-19
 -1      4123 9.31548E-05-2.66374E-05-2.85153E-05 2.51779E-06-8.96580E-19-1.09321E-18
 -1      4124 9.31442E-05-2.67019E-05-2.84615E-05 2.93979E-06-1.36686E-18-1.60683E-18
 -1      4125 9.24843E-05-2.62588E-05-2.83791E-05 3.14189E-06 1.13795E-19 4.61171E-19
 -1      4126 9.64558E-05-2.77720E-05-2.94354E-05-4.76981E-07 1.05141E-19 8.57242E-20
 -1      4127 9.34213E-05-2.74768E-05-2.82399E-05-4.46628E-06-7.45601E-19 1.98769E-19
 -1      4128 9.32465E-05-2.72069E-05-2.83099E-05-3.90091E-06-4.06964E-19 4.01645E-19
 -1      4129 9.25303E-05-2.69913E-05-2.81068E-05-4.92876E-06-7.70581E-19 1.76779E-19
 -1      4130 1.03174E-04-4.01610E-05-2.70396E-05-1.63767E-05-7.11405E-19 1.49592E-18
 -1      4131 1.08611E-04-4.38365E-05-2.77274E-05-1.49044E-05-9.67970E-19 1.52903E-18
 -1      4132 8.50683E-05-2.24573E-05-2.68570E-05 7.92055E-06-3.06672E-19 2.31423E-18
 -1      4133 8.63386E-05-2.26514E-05-2.72550E-05 6.21385E-06-8.86075E-19 1.59640E-18
 -1      4134 8.79833E-05-2.39658E-05-2.74407E-05 6.62464E-06-1.55115E-18 1.07219E-18
 -1      4135 1.10287E-04-4.38482E-05-2.85109E-05-1.08837E-05-9.20326E-19 3.69525E-19
 -1      4136 9.46952E-05-2.78032E-05-2.86614E-05-1.96047E-06-2.02808E-19 3.86616E-19
 -1      4137 9.47977E-05-2.78740E-05-2.86849E-05-1.78439E-06-3.26643E-19 1.00589E-19
 -1      4138 9.43788E-05-2.75751E-05-2.86328E-05-1.94316E-06-4.39900E-19 7.51129E-19
 -1      4139 9.56908E-05-2.83985E-05-2.88373E-05-1.18726E-06 4.78920E-19-3.81249E-19
 -1      4140 9.58369E-05-2.84655E-05-2.88747E-05-1.10417E-06 1.47620E-19-1.86603E-19
 -1      4141 9.55749E-05-2.82889E-05-2.88373E-05-1.04814E-06 4.06060E-19-3.73218E-19
 -1      4142 9.60158E-05-2.85208E-05-2.89250E-05-1.04053E-06 7.02150E-20-8.23355E-20
 -1      4143 9.61461E-05-2.85329E-05-2.89772E-05-9.60134E-07 1.65646E-19 5.66552E-20
 -1      4144 9.62666E-05-2.84860E-05-2.90490E-05-7.58415E-07 1.39849E-19-4.33814E-20
 -1      4145 9.59498E-05-2.84511E-05-2.89288E-05-8.93426E-07 3.74073E-19-3.27448E-19
 -1      4146 8.44225E-05-2.40447E-05-2.58819E-05-1.31384E-05-1.52557E-18-2.86516E-19
 -1      4147 9.94434E-05-3.57561E-05-2.73020E-05-1.30353E-05-2.11530E-19 1.09048E-18
 -1      4148 9.72767E-05-3.35014E-05-2.72951E-05-1.21883E-05-1.09519E-21 1.18516E-18
 -1      4149 9.34066E-05-2.71194E-05-2.83927E-05-3.31436E-06-2.09970E-19 1.41449E-19
 -1      4150 9.34151E-05-2.70487E-05-2.84501E-05-2.87654E-06 3.28694E-20 7.26312E-19
 -1      4151 9.26951E-05-2.66741E-05-2.83033E-05-3.51853E-06-3.28772E-19-2.59975E-20
 -1      4152 9.50836E-05-2.99868E-05-2.78669E-05-7.66457E-06-5.52216E-19 1.67060E-19
 -1      4153 9.42063E-05-2.90202E-05-2.79374E-05-6.90904E-06-6.83657E-19 9.59844E-20
 -1      4154 9.28189E-05-2.78738E-05-2.78660E-05-6.78730E-06-9.73762E-19-1.52364E-19
 -1      4155 9.39276E-05-2.95991E-05-2.75973E-05-9.09768E-06-7.09373E-19 5.59667E-19
 -1      4156 9.65998E-05-2.79323E-05-2.94279E-05-4.16314E-07-1.38520E-19-2.13758E-19
 -1      4157 9.65476E-05-2.78815E-05-2.94310E-05-4.80318E-07-7.94772E-20-6.49350E-20
 -1      4158 8.44536E-05-2.35123E-05-2.60927E-05 1.20758E-05 1.87714E-19 3.27420E-18
 -1      4159 8.51355E-05-2.29422E-05-2.66150E-05 9.37988E-06 2.64294E-19 2.59002E-18
 -1      4160 8.74547E-05-2.46029E-05-2.69378E-05 9.51453E-06-7.78495E-19 1.51684E-18
 -1      4161 8.78654E-05-2.62813E-05-2.64758E-05 1.26254E-05-6.95362E-19 2.13230E-18
 -1      4162 9.52127E-05-3.02447E-05-2.78381E-05 8.11018E-06 4.86932E-20-3.07637E-19
 -1      4163 9.64962E-05-3.15941E-05-2.77868E-05 8.86595E-06-1.12581E-18-6.83607E-19
 -1      4164 9.52652E-05-3.11733E-05-2.75021E-05 1.04613E-05-1.09690E-18-1.15621E-18
 -1      4165 9.34067E-05-2.88239E-05-2.77135E-05 8.27924E-06-8.14412E-19-5.02347E-20
 -1      4166 9.61053E-05-2.58853E-05-3.00850E-05-3.69300E-07-3.00894E-19-8.00337E-19
 -1      4167 9.66570E-05-2.74747E-05-2.96421E-05 1.34038E-07 1.54334E-20-5.91723E-19
 -1      4168 9.66630E-05-2.78219E-05-2.95076E-05 2.56127E-07-1.93978E-20-2.45662E-19
 -1      4169 9.66418E-05-2.80794E-05-2.93835E-05 2.83162E-07-1.52440E-19-2.81100E-19
 -1      4170 9.65697E-05-2.82578E-05-2.92786E-05 3.62088E-07-1.63568E-19-3.25544E-19
 -1      4171 9.66685E-05-2.78984E-05-2.94727E-05 1.44468E-07-1.29523E-19-6.75033E-19
 -1      4172 9.64811E-05-2.67882E-05-2.98692E-05 1.13741E-08-5.71058E-20-6.49892E-19
 -1      4173 1.00086E-04-3.68934E-05-2.70738E-05-1.48988E-05-2.16490E-19 1.12077E-18
 -1      4174 9.36625E-05-2.71040E-05-2.85137E-05-2.44733E-06-2.87611E-19 5.70637E-19
 -1      4175 9.37788E-05-2.71502E-05-2.85588E-05-2.12766E-06-3.02106E-19 5.53441E-19
 -1      4176 9.31008E-05-2.67147E-05-2.84552E-05-2.48525E-06-1.52266E-19 3.71511E-19
 -1      4177 9.65386E-05-2.82848E-05-2.92511E-05 1.93260E-07-1.87257E-19-6.86499E-19
 -1      4178 8.63362E-05-2.45075E-05-2.64800E-05-1.09906E-05-1.20122E-18-4.34685E-19
 -1      4179 8.73563E-05-2.62680E-05-2.61177E-05-1.38861E-05-1.41034E-18 3.55626E-20
 -1      4180 9.07886E-05-2.89536E-05-2.65238E-05-1.37341E-05-6.80591E-19 7.10032E-19
 -1      4181 8.65689E-05-2.34165E-05-2.70218E-05-7.73294E-06-7.81178E-19-4.02957E-19
 -1      4182 8.61310E-05-2.38058E-05-2.67127E-05-9.54194E-06-1.21115E-18-1.33769E-19
 -1      4183 8.85124E-05-2.58541E-05-2.68790E-05-1.03718E-05-1.31490E-18 6.94683E-20
 -1      4184 8.85283E-05-2.49390E-05-2.72827E-05-7.83620E-06-1.09351E-18-7.91860E-21
 -1      4185 9.66207E-05-2.74708E-05-2.96358E-05-1.87235E-07-3.07194E-19-5.85452E-19
 -1      4186 9.65369E-05-2.70321E-05-2.97948E-05-2.82689E-08-2.10481E-19-5.55320E-19
 -1      4187 9.64894E-05-2.67763E-05-2.98808E-05-9.07104E-09-2.05019E-19-4.34626E-19
 -1      4188 9.22156E-05-2.55300E-05-2.85748E-05 8.05684E-07 2.89325E-19-1.50232E-18
 -1      4189 9.65039E-05-2.83904E-05-2.91917E-05-4.91045E-07-1.40191E-19-4.15942E-19
 -1      4190 9.65911E-05-2.82575E-05-2.92865E-05-4.04517E-07-2.01029E-19-3.54658E-19
 -1      4191 9.66432E-05-2.80763E-05-2.93863E-05-3.58553E-07-1.88992E-19-5.91239E-19
 -1      4192 9.66578E-05-2.78019E-05-2.95105E-05-2.44777E-07-2.42590E-19-6.84865E-19
 -1      4193 9.66585E-05-2.76178E-05-2.95857E-05-1.29139E-07-2.52972E-19-8.27977E-19
 -1      4194 9.66392E-05-2.81270E-05-2.93613E-05-2.33676E-07-2.19065E-19-9.46268E-19
 -1      4195 9.38730E-05-2.70360E-05-2.86488E-05 1.82644E-06-2.34218E-18 8.89365E-19
 -1      4196 9.35750E-05-2.68540E-05-2.85914E-05 2.15066E-06-9.36594E-19-4.86852E-19
 -1      4197 9.30904E-05-2.64940E-05-2.85405E-05 2.20276E-06-1.62947E-18-6.93608E-20
 -1      4198 9.65381E-05-2.69709E-05-2.98225E-05 3.20581E-08-6.69525E-20-7.03845E-19
 -1      4199 9.53821E-05-3.30330E-05-2.66677E-05 1.51753E-05-5.44611E-19 6.58125E-19
 -1      4200 9.29488E-05-3.02923E-05-2.68606E-05 1.31356E-05-7.53151E-19-4.38683E-20
 -1      4201 9.54533E-05-2.81791E-05-2.88293E-05-8.63492E-07 3.60803E-19-3.69898E-19
 -1      4202 9.56521E-05-2.82918E-05-2.88703E-05-7.77469E-07 3.26395E-19-5.40504E-19
 -1      4203 9.47589E-05-2.77943E-05-2.87000E-05-1.53835E-06-4.51725E-19-1.51572E-19
 -1      4204 9.49922E-05-2.78895E-05-2.87549E-05-1.07405E-06-2.54299E-19-2.39915E-19
 -1      4205 9.51985E-05-2.80321E-05-2.87889E-05-9.53339E-07 1.58140E-19-2.58180E-20
 -1      4206 9.52722E-05-2.80263E-05-2.88190E-05-6.78094E-07 6.46425E-20-2.73205E-19
 -1      4207 9.04384E-05-2.54034E-05-2.78910E-05 5.34287E-06-8.52370E-19 1.25246E-18
 -1      4208 9.06298E-05-2.58002E-05-2.77496E-05 6.35480E-06-6.74888E-19 4.50883E-19
 -1      4209 9.41030E-05-2.71883E-05-2.86816E-05 1.68059E-06-6.00145E-19 1.25541E-18
 -1      4210 9.59886E-05-2.83608E-05-2.89831E-05-4.44372E-08 2.06303E-19-5.20349E-19
 -1      4211 9.57552E-05-2.82585E-05-2.89286E-05-6.20110E-08 2.27049E-19-3.87425E-19
 -1      4212 9.55648E-05-2.81654E-05-2.88841E-05-2.14386E-07 1.67014E-19-3.92703E-19
 -1      4213 9.52905E-05-2.80024E-05-2.88404E-05-2.62098E-07-1.28167E-19-3.32146E-19
 -1      4214 9.50327E-05-2.78301E-05-2.87993E-05-3.50876E-07-2.76539E-19 2.37794E-21
 -1      4215 9.47106E-05-2.76139E-05-2.87603E-05-4.35691E-07-4.38019E-20 9.37638E-20
 -1      4216 9.36383E-05-2.68199E-05-2.86325E-05-8.07911E-07-2.57868E-19-1.32359E-20
 -1      4217 9.32099E-05-2.65365E-05-2.85805E-05-1.04543E-06-2.05905E-19-2.37892E-19
 -1      4218 9.30559E-05-2.64557E-05-2.85357E-05-1.44348E-06-1.20571E-19-2.34268E-19
 -1      4219 9.25729E-05-2.61798E-05-2.84620E-05-1.83803E-06-1.94445E-19-5.96954E-20
 -1      4220 9.23209E-05-2.60395E-05-2.83933E-05-2.26148E-06-2.49571E-19-8.77660E-20
 -1      4221 9.18190E-05-2.58227E-05-2.82925E-05-2.83180E-06-5.00459E-19-5.74875E-20
 -1      4222 9.16505E-05-2.58016E-05-2.82009E-05-3.43094E-06-7.62589E-19 2.34984E-19
 -1      4223 9.11476E-05-2.56953E-05-2.80583E-05-4.26691E-06-8.22355E-19 1.88872E-19
 -1      4224 9.11486E-05-2.58854E-05-2.79395E-05-5.08808E-06-1.01014E-18 1.99293E-19
 -1      4225 9.07103E-05-2.59903E-05-2.77426E-05-6.26719E-06-9.03665E-19 6.30427E-20
 -1      4226 9.63740E-05-2.84607E-05-2.91065E-05-5.27928E-07 1.60826E-19-3.87243E-19
 -1      4227 9.64609E-05-2.83855E-05-2.91748E-05-3.29618E-07 1.93695E-21-7.03576E-19
 -1      4228 9.62359E-05-2.84834E-05-2.90362E-05-6.01673E-07 4.00799E-19-4.29474E-19
 -1      4229 9.09940E-05-2.52792E-05-2.81827E-05 3.56523E-06 5.85286E-19 6.89982E-19
 -1      4230 9.15002E-05-2.54227E-05-2.83086E-05 2.87320E-06 8.29513E-19 9.13206E-19
 -1      4231 9.16755E-05-2.54640E-05-2.83930E-05 2.31790E-06 2.41918E-19 4.60482E-19
 -1      4232 9.21390E-05-2.56757E-05-2.84794E-05 1.85713E-06-4.35389E-19 1.20755E-18
 -1      4233 9.67038E-05-2.77910E-05-2.95354E-05-3.63769E-08-2.04724E-19-9.51552E-19
 -1      4234 9.66812E-05-2.80596E-05-2.94103E-05-6.10263E-09-2.61938E-19-9.42440E-19
 -1      4235 9.09420E-05-2.53983E-05-2.80702E-05 4.32881E-06 1.10099E-19 1.40663E-18
 -1      4236 9.02237E-05-2.60779E-05-2.75042E-05 7.78285E-06-1.05577E-18 4.23913E-19
 -1      4237 9.43392E-05-3.13708E-05-2.69987E-05-1.29157E-05-2.19137E-19 1.38849E-18
 -1      4238 9.39147E-05-2.71686E-05-2.85989E-05-1.75615E-06-5.77505E-19 4.35275E-19
 -1      4239 9.41062E-05-2.72958E-05-2.86371E-05-1.51760E-06-6.84359E-19 1.74825E-19
 -1      4240 9.63863E-05-2.84217E-05-2.91268E-05-8.88232E-08 1.36685E-19-7.01418E-19
 -1      4241 9.62107E-05-2.84210E-05-2.90540E-05-8.74015E-08 2.13274E-19-5.77907E-19
 -1      4242 9.44685E-05-2.75309E-05-2.86825E-05-1.34201E-06-3.90167E-19 1.15335E-19
 -1      4243 9.46732E-05-2.76800E-05-2.87156E-05-1.17159E-06-3.30414E-19-4.07797E-20
 -1      4244 9.47081E-05-2.76463E-05-2.87386E-05-8.61324E-07-1.24069E-19-1.89083E-19
 -1      4245 9.40170E-05-2.71566E-05-2.86528E-05-1.11424E-06-5.80235E-19-7.38718E-20
 -1      4246 9.22911E-05-2.56522E-05-2.85583E-05 1.11308E-06-9.50652E-19-5.71484E-21
 -1      4247 9.66270E-05-2.82332E-05-2.93112E-05-5.97111E-08-2.36939E-19-8.11065E-19
 -1      4248 9.65189E-05-2.83594E-05-2.92125E-05-4.55232E-08-1.68064E-19-8.81996E-19
 -1      4249 9.28367E-05-2.62732E-05-2.85243E-05 2.11044E-06-1.12879E-18 5.81741E-19
 -1      4250 9.39665E-05-3.02979E-05-2.72913E-05 1.10421E-05-1.22286E-18-6.83595E-19
 -1      4251 9.00635E-05-2.75900E-05-2.67376E-05 1.23256E-05-9.79417E-19 1.68969E-18
 -1      4252 8.93449E-05-2.65048E-05-2.69591E-05 1.07412E-05-1.47974E-18 1.34808E-18
 -1      4253 9.27167E-05-2.87787E-05-2.73819E-05 9.92134E-06-1.46051E-18-4.77256E-19
 -1      4254 9.57059E-05-2.82597E-05-2.89059E-05-4.37321E-07 3.70694E-19-5.69857E-19
 -1      4255 9.58403E-05-2.83633E-05-2.89170E-05-6.36165E-07 4.53199E-19-5.37637E-19
 -1      4256 9.24030E-05-2.58092E-05-2.85464E-05 1.40928E-06-9.04181E-19 4.45473E-19
 -1      4257 9.07657E-05-2.68958E-05-2.73546E-05 8.95644E-06-1.83342E-18-7.85838E-20
 -1      4258 9.09811E-05-2.65133E-05-2.75921E-05-7.37957E-06-9.59687E-19 2.47985E-20
 -1      4259 9.17568E-05-2.86819E-05-2.70687E-05-1.11831E-05-8.04190E-19 3.87572E-19
 -1      4260 9.61211E-05-2.84071E-05-2.90198E-05-3.37857E-07 4.12347E-19-6.00234E-19
 -1      4261 9.40110E-05-2.71097E-05-2.86787E-05-6.60272E-07-1.46711E-19 2.42303E-19
 -1      4262 9.08671E-05-2.69183E-05-2.74176E-05-8.50865E-06-1.20693E-18 1.94945E-19
 -1      4263 9.43824E-05-2.73643E-05-2.87198E-05-5.18748E-07-1.20228E-19 8.15524E-20
 -1      4264 9.34737E-05-2.68360E-05-2.85618E-05-1.67229E-06-4.11223E-19-8.84572E-20
 -1      4265 9.66720E-05-2.74505E-05-2.96580E-05-1.08202E-09-2.24527E-19-8.28972E-19
 -1      4266 1.05464E-04-3.98767E-05-2.80049E-05-1.10269E-05-5.12091E-19 3.23633E-19
 -1      4267 9.15713E-05-2.79295E-05-2.72530E-05-9.92397E-06-1.17213E-18 5.76282E-19
 -1      4268 9.60233E-05-2.84297E-05-2.89693E-05-5.64859E-07 4.42654E-19-5.07898E-19
 -1      4269 8.92194E-05-2.59277E-05-2.71564E-05 9.36511E-06-1.68620E-18 8.48724E-19
 -3
    1PSTEP                         4           1           1          
  100CL  101 1.000000000        4269                     0    1           1
 -4  ERROR       1    1
 -5  STR(%)      1    1    0    0
 -1         1 4.56863E+01
 -1         2 2.48314E+01
 -1         3 1.01031E-02
 -1         4 1.91274E-02
 -1         5 1.40430E+01
 -1         6 1.31474E+01
 -1         7 1.31474E+01
 -1         8 3.65855E+00
 -1         9 1.82096E+00
 -1        10 1.28706E+00
 -1        11 1.04108E+00
 -1        12 8.97739E-01
 -1        13 8.07017E-01
 -1        14 7.52932E-01
 -1        15 7.54757E-01
 -1        16 8.11130E-01
 -1        17 8.98486E-01
 -1        18 1.05014E+00
 -1        19 1.30329E+00
 -1        20 1.82588E+00
 -1        21 3.50347E+00
 -1        22 8.64148E+00
 -1        23 1.31474E+01
 -1        24 4.32558E+00
 -1        25 3.35050E+00
 -1        26 2.12202E+00
 -1        27 1.37481E+00
 -1        28 1.02993E+00
 -1        29 7.95553E-01
 -1        30 6.26904E-01
 -1        31 4.83035E-01
 -1        32 3.83735E-01
 -1        33 3.10319E-01
 -1        34 2.59129E-01
 -1        35 2.27280E-01
 -1        36 2.56776E-01
 -1        37 3.08785E-01
 -1        38 4.03673E-01
 -1        39 5.41423E-01
 -1        40 7.32747E-01
 -1        41 9.85242E-01
 -1        42 1.29490E+00
 -1        43 1.76035E+00
 -1        44 2.44524E+00
 -1        45 3.23845E+00
 -1        46 4.17543E+00
 -1        47 4.45982E+00
 -1        48 4.45982E+00
 -1        49 4.20657E+00
 -1        50 1.00049E+01
 -1        51 1.27380E+01
 -1        52 1.27380E+01
 -1        53 1.21209E+01
 -1        54 7.06297E+00
 -1        55 4.07644E+00
 -1        56 4.47392E+00
 -1        57 4.47392E+00
 -1        58 3.83585E+00
 -1        59 2.79674E+00
 -1        60 2.08101E+00
 -1        61 1.47179E+00
 -1        62 1.13875E+00
 -1        63 8.49255E-01
 -1        64 6.19687E-01
 -1        65 4.61703E-01
 -1        66 3.14100E-01
 -1        67 2.23558E-01
 -1        68 1.61588E-01
 -1        69 1.35218E-01
 -1        70 1.04871E-01
 -1        71 6.10271E-02
 -1        72 1.40430E+01
 -1        73 3.40197E+00
 -1        74 2.42506E+00
 -1        75 1.67617E+00
 -1        76 1.15765E+00
 -1        77 9.21233E-01
 -1        78 7.51049E-01
 -1        79 6.13359E-01
 -1        80 5.00979E-01
 -1        81 4.09918E-01
 -1        82 3.37397E-01
 -1        83 2.80674E-01
 -1        84 2.36620E-01
 -1        85 2.01505E-01
 -1        86 1.71228E-01
 -1        87 1.73933E-01
 -1        88 1.73933E-01
 -1        89 1.71905E-01
 -1        90 2.09327E-01
 -1        91 2.43321E-01
 -1        92 3.52690E-01
 -1        93 4.65844E-01
 -1        94 5.50931E-01
 -1        95 7.58297E-01
 -1        96 9.14900E-01
 -1        97 1.04752E+00
 -1        98 1.52241E+00
 -1        99 1.88420E+00
 -1       100 2.01814E+00
 -1       101 2.23262E+00
 -1       102 2.24497E+00
 -1       103 2.24497E+00
 -1       104 1.95695E+00
 -1       105 1.48862E+00
 -1       106 1.05494E+00
 -1       107 6.58168E-01
 -1       108 4.49163E-01
 -1       109 2.58123E-01
 -1       110 2.49921E-01
 -1       111 2.53158E-01
 -1       112 2.53158E-01
 -1       113 2.26430E-01
 -1       114 1.85142E-01
 -1       115 1.46481E-01
 -1       116 1.19181E-01
 -1       117 1.00314E-01
 -1       118 7.73903E-02
 -1       119 5.06503E-02
 -1       120 3.45172E-02
 -1       121 1.47483E-02
 -1       122 1.47483E-02
 -1       123 1.43608E-02
 -1       124 8.93645E-03
 -1       125 4.45523E-03
 -1       126 1.00797E-02
 -1       127 1.45029E-02
 -1       128 1.70469E-02
 -1       129 1.73310E-02
 -1       130 1.73310E-02
 -1       131 1.45923E-02
 -1       132 9.16056E-03
 -1       133 1.03855E-02
 -1       134 1.79109E-02
 -1       135 1.79109E-02
 -1       136 1.56154E-02
 -1       137 2.40923E+01
 -1       138 4.56492E+01
 -1       139 4.56492E+01
 -1       140 1.75794E+01
 -1       141 1.21571E+01
 -1       142 1.22048E+01
 -1       143 1.22048E+01
 -1       144 1.26577E+01
 -1       145 1.26577E+01
 -1       146 1.23455E+01
 -1       147 2.78998E+01
 -1       148 3.02588E+01
 -1       149 2.91815E+01
 -1       150 2.52602E+01
 -1       151 2.41769E+01
 -1       152 2.48473E+01
 -1       153 4.56863E+01
 -1       154 1.81973E+01
 -1       155 1.34777E+01
 -1       156 1.34777E+01
 -1       157 1.27414E+01
 -1       158 1.27414E+01
 -1       159 1.28817E+01
 -1       160 2.59573E+01
 -1       161 2.94237E+01
 -1       162 2.94237E+01
 -1       163 2.50251E+01
 -1       164 6.07204E+00
 -1       165 2.29529E+00
 -1       166 1.50273E+00
 -1       167 1.15571E+00
 -1       168 9.70002E-01
 -1       169 8.62761E-01
 -1       170 7.94757E-01
 -1       171 7.54757E-01
 -1       172 7.97998E-01
 -1       173 8.65409E-01
 -1       174 9.78866E-01
 -1       175 1.16903E+00
 -1       176 1.52410E+00
 -1       177 2.25574E+00
 -1       178 3.92976E+00
 -1       179 1.40430E+01
 -1       180 4.32558E+00
 -1       181 3.35050E+00
 -1       182 2.12202E+00
 -1       183 1.45696E+00
 -1       184 1.03625E+00
 -1       185 7.95553E-01
 -1       186 6.26904E-01
 -1       187 4.87783E-01
 -1       188 3.94262E-01
 -1       189 3.19852E-01
 -1       190 2.62081E-01
 -1       191 2.27280E-01
 -1       192 2.12478E-01
 -1       193 2.56776E-01
 -1       194 3.14703E-01
 -1       195 4.12339E-01
 -1       196 6.00623E-01
 -1       197 8.92772E-01
 -1       198 1.29073E+00
 -1       199 1.82148E+00
 -1       200 2.42743E+00
 -1       201 2.99238E+00
 -1       202 3.43997E+00
 -1       203 4.17543E+00
 -1       204 4.45982E+00
 -1       205 4.02876E+00
 -1       206 4.62906E+00
 -1       207 1.00049E+01
 -1       208 1.27380E+01
 -1       209 1.21209E+01
 -1       210 7.06297E+00
 -1       211 3.31924E+00
 -1       212 4.07644E+00
 -1       213 4.47392E+00
 -1       214 3.83585E+00
 -1       215 3.06814E+00
 -1       216 2.44264E+00
 -1       217 1.90654E+00
 -1       218 1.40749E+00
 -1       219 9.96174E-01
 -1       220 6.83996E-01
 -1       221 4.78957E-01
 -1       222 3.33416E-01
 -1       223 2.41556E-01
 -1       224 1.73843E-01
 -1       225 1.35218E-01
 -1       226 1.04871E-01
 -1       227 6.10271E-02
 -1       228 2.82409E-02
 -1       229 3.40197E+00
 -1       230 2.42506E+00
 -1       231 1.67617E+00
 -1       232 1.15765E+00
 -1       233 9.21233E-01
 -1       234 7.51049E-01
 -1       235 6.13359E-01
 -1       236 5.00979E-01
 -1       237 4.09918E-01
 -1       238 3.37397E-01
 -1       239 2.80674E-01
 -1       240 2.36620E-01
 -1       241 2.01505E-01
 -1       242 1.70860E-01
 -1       243 1.71228E-01
 -1       244 1.73933E-01
 -1       245 1.81715E-01
 -1       246 1.89724E-01
 -1       247 2.09327E-01
 -1       248 2.43321E-01
 -1       249 3.52690E-01
 -1       250 4.65844E-01
 -1       251 6.71619E-01
 -1       252 9.72771E-01
 -1       253 1.30085E+00
 -1       254 1.60930E+00
 -1       255 1.77641E+00
 -1       256 1.88420E+00
 -1       257 2.01814E+00
 -1       258 2.23262E+00
 -1       259 2.24497E+00
 -1       260 1.95695E+00
 -1       261 1.48862E+00
 -1       262 1.06519E+00
 -1       263 7.09018E-01
 -1       264 4.49163E-01
 -1       265 2.58123E-01
 -1       266 2.45956E-01
 -1       267 2.49921E-01
 -1       268 2.53158E-01
 -1       269 2.26430E-01
 -1       270 1.85142E-01
 -1       271 1.46481E-01
 -1       272 1.19181E-01
 -1       273 1.00314E-01
 -1       274 7.73903E-02
 -1       275 5.11459E-02
 -1       276 3.45172E-02
 -1       277 2.61720E-02
 -1       278 2.61720E-02
 -1       279 2.29667E-02
 -1       280 1.27394E-02
 -1       281 1.74065E-02
 -1       282 2.63465E-02
 -1       283 3.23340E-02
 -1       284 3.39365E-02
 -1       285 3.39365E-02
 -1       286 3.35503E-02
 -1       287 2.85052E-02
 -1       288 1.78834E-02
 -1       289 2.88527E-02
 -1       290 3.59437E-02
 -1       291 4.13473E-02
 -1       292 2.84600E+01
 -1       293 2.67798E+01
 -1       294 4.56492E+01
 -1       295 1.91165E+01
 -1       296 1.10805E+01
 -1       297 1.21571E+01
 -1       298 1.22048E+01
 -1       299 1.19414E+01
 -1       300 1.26577E+01
 -1       301 1.17764E+01
 -1       302 1.23455E+01
 -1       303 3.02588E+01
 -1       304 3.41950E+01
 -1       305 3.41950E+01
 -1       306 2.91679E+01
 -1       307 2.91679E+01
 -1       308 3.84745E+01
 -1       309 4.56863E+01
 -1       310 1.88624E+01
 -1       311 1.18847E+01
 -1       312 1.34777E+01
 -1       313 1.25227E+01
 -1       314 1.27414E+01
 -1       315 1.24400E+01
 -1       316 1.28817E+01
 -1       317 2.83579E+01
 -1       318 2.94237E+01
 -1       319 2.50251E+01
 -1       320 2.84600E+01
 -1       321 1.06490E+00
 -1       322 2.47364E+00
 -1       323 7.86592E-01
 -1       324 6.93133E-01
 -1       325 6.30319E-01
 -1       326 5.86287E-01
 -1       327 5.89324E-01
 -1       328 6.32769E-01
 -1       329 6.99193E-01
 -1       330 7.94142E-01
 -1       331 9.27999E-01
 -1       332 1.13970E+00
 -1       333 1.32425E+00
 -1       334 2.19786E+00
 -1       335 1.91382E+00
 -1       336 1.73696E+00
 -1       337 1.27558E+00
 -1       338 9.15964E-01
 -1       339 6.65377E-01
 -1       340 5.55514E-01
 -1       341 4.58225E-01
 -1       342 3.78592E-01
 -1       343 3.11332E-01
 -1       344 2.56717E-01
 -1       345 2.13589E-01
 -1       346 1.80169E-01
 -1       347 2.08895E-01
 -1       348 2.46261E-01
 -1       349 3.48346E-01
 -1       350 5.28520E-01
 -1       351 7.76641E-01
 -1       352 1.11478E+00
 -1       353 1.58072E+00
 -1       354 2.15811E+00
 -1       355 2.81265E+00
 -1       356 3.45422E+00
 -1       357 3.92798E+00
 -1       358 4.85207E+00
 -1       359 6.54496E+00
 -1       360 7.45250E+00
 -1       361 5.01667E+00
 -1       362 8.11886E+00
 -1       363 6.15181E+00
 -1       364 6.82307E+00
 -1       365 5.47976E+00
 -1       366 4.09633E+00
 -1       367 3.59791E+00
 -1       368 3.09669E+00
 -1       369 2.46246E+00
 -1       370 1.85297E+00
 -1       371 1.34211E+00
 -1       372 9.46474E-01
 -1       373 6.62683E-01
 -1       374 4.34967E-01
 -1       375 2.89046E-01
 -1       376 1.87407E-01
 -1       377 1.22950E-01
 -1       378 8.52816E-02
 -1       379 6.03908E-02
 -1       380 1.14209E+00
 -1       381 8.22906E-01
 -1       382 6.45122E-01
 -1       383 5.33653E-01
 -1       384 4.36730E-01
 -1       385 3.53886E-01
 -1       386 2.85403E-01
 -1       387 2.28450E-01
 -1       388 1.78938E-01
 -1       389 1.43217E-01
 -1       390 1.44565E-01
 -1       391 1.45546E-01
 -1       392 1.46899E-01
 -1       393 1.56077E-01
 -1       394 1.81715E-01
 -1       395 1.89724E-01
 -1       396 1.66767E-01
 -1       397 1.64714E-01
 -1       398 3.15680E-01
 -1       399 5.25669E-01
 -1       400 7.54555E-01
 -1       401 1.04954E+00
 -1       402 1.30085E+00
 -1       403 1.60930E+00
 -1       404 1.77641E+00
 -1       405 1.76069E+00
 -1       406 1.77692E+00
 -1       407 1.74745E+00
 -1       408 1.54129E+00
 -1       409 1.23577E+00
 -1       410 9.69950E-01
 -1       411 6.92716E-01
 -1       412 4.66802E-01
 -1       413 2.66108E-01
 -1       414 1.63219E-01
 -1       415 1.65735E-01
 -1       416 1.78416E-01
 -1       417 1.64256E-01
 -1       418 1.36335E-01
 -1       419 1.14058E-01
 -1       420 1.03378E-01
 -1       421 8.92518E-02
 -1       422 7.16074E-02
 -1       423 5.14031E-02
 -1       424 3.85367E-02
 -1       425 2.62705E-02
 -1       426 4.96576E-02
 -1       427 2.12147E-02
 -1       428 3.41965E-02
 -1       429 4.41177E-02
 -1       430 4.87203E-02
 -1       431 4.97073E-02
 -1       432 4.97994E-02
 -1       433 4.97994E-02
 -1       434 4.16694E-02
 -1       435 3.20236E-02
 -1       436 5.50461E-02
 -1       437 1.36465E+00
 -1       438 2.67798E+01
 -1       439 9.33056E+00
 -1       440 3.46129E+01
 -1       441 1.55222E+01
 -1       442 9.10465E-01
 -1       443 7.67915E+00
 -1       444 9.96257E+00
 -1       445 1.06588E+01
 -1       446 1.12486E+01
 -1       447 8.82310E+00
 -1       448 6.63625E+00
 -1       449 1.14471E+01
 -1       450 2.00811E+01
 -1       451 3.41950E+01
 -1       452 3.93232E+01
 -1       453 3.93232E+01
 -1       454 2.69064E+01
 -1       455 2.73831E+01
 -1       456 1.60805E+01
 -1       457 9.07368E+00
 -1       458 8.33192E+00
 -1       459 1.14718E+01
 -1       460 1.12267E+01
 -1       461 1.03657E+01
 -1       462 7.25274E+00
 -1       463 1.10550E+01
 -1       464 1.94788E+01
 -1       465 2.31598E+01
 -1       466 3.46129E+01
 -1       467 2.76084E+01
 -1       468 7.23862E+00
 -1       469 8.11886E+00
 -1       470 5.50461E-02
 -1       471 4.85030E-01
 -1       472 5.09041E-01
 -1       473 4.30031E-01
 -1       474 4.55764E-01
 -1       475 4.85276E-01
 -1       476 5.09069E-01
 -1       477 5.09069E-01
 -1       478 5.01761E-01
 -1       479 6.36554E-01
 -1       480 1.31593E+00
 -1       481 1.01601E+01
 -1       482 8.02118E-01
 -1       483 5.60955E+00
 -1       484 1.97823E+01
 -1       485 7.07569E-01
 -1       486 5.93872E-01
 -1       487 4.77041E-01
 -1       488 3.80874E-01
 -1       489 3.34216E-01
 -1       490 2.84903E-01
 -1       491 2.37334E-01
 -1       492 1.92850E-01
 -1       493 1.50943E-01
 -1       494 1.43639E-01
 -1       495 1.64676E-01
 -1       496 2.59371E-01
 -1       497 3.95472E-01
 -1       498 5.77525E-01
 -1       499 8.23644E-01
 -1       500 1.17242E+00
 -1       501 1.64387E+00
 -1       502 2.29310E+00
 -1       503 3.21803E+00
 -1       504 4.56540E+00
 -1       505 6.55896E+00
 -1       506 7.95189E+00
 -1       507 1.01344E+01
 -1       508 1.00842E+01
 -1       509 6.61158E+00
 -1       510 5.10297E+00
 -1       511 3.70461E+00
 -1       512 2.69851E+00
 -1       513 1.95442E+00
 -1       514 1.40932E+00
 -1       515 1.00988E+00
 -1       516 7.15836E-01
 -1       517 4.96151E-01
 -1       518 3.44667E-01
 -1       519 2.35787E-01
 -1       520 1.58083E-01
 -1       521 1.03111E-01
 -1       522 8.59811E-02
 -1       523 4.46403E-01
 -1       524 5.65750E-01
 -1       525 6.96234E-01
 -1       526 3.77533E-01
 -1       527 3.22854E-01
 -1       528 2.69070E-01
 -1       529 2.18852E-01
 -1       530 1.73064E-01
 -1       531 1.31535E-01
 -1       532 1.06878E-01
 -1       533 1.09674E-01
 -1       534 1.12600E-01
 -1       535 1.14958E-01
 -1       536 1.32459E-01
 -1       537 1.34535E-01
 -1       538 1.74932E-01
 -1       539 2.18500E-01
 -1       540 2.82464E-01
 -1       541 4.46011E-01
 -1       542 6.19812E-01
 -1       543 8.65384E-01
 -1       544 1.07975E+00
 -1       545 1.21087E+00
 -1       546 1.32960E+00
 -1       547 1.32831E+00
 -1       548 1.26637E+00
 -1       549 1.33995E+00
 -1       550 1.30954E+00
 -1       551 1.17444E+00
 -1       552 1.02947E+00
 -1       553 7.97729E-01
 -1       554 5.71806E-01
 -1       555 3.96198E-01
 -1       556 2.46201E-01
 -1       557 2.05179E-01
 -1       558 1.61395E-01
 -1       559 1.43009E-01
 -1       560 1.36650E-01
 -1       561 1.22933E-01
 -1       562 1.04500E-01
 -1       563 8.65249E-02
 -1       564 6.85863E-02
 -1       565 5.14031E-02
 -1       566 3.96991E-02
 -1       567 5.24910E-02
 -1       568 5.24910E-02
 -1       569 2.76084E+01
 -1       570 5.40825E-02
 -1       571 6.35666E-02
 -1       572 6.49730E-02
 -1       573 7.00569E-02
 -1       574 7.00569E-02
 -1       575 6.83340E-02
 -1       576 5.62756E-02
 -1       577 8.59811E-02
 -1       578 8.77919E-01
 -1       579 1.20556E+01
 -1       580 7.67968E+00
 -1       581 2.31598E+01
 -1       582 4.16543E+00
 -1       583 3.46129E+01
 -1       584 4.55890E-01
 -1       585 7.69296E+00
 -1       586 3.93232E+01
 -1       587 5.66428E+00
 -1       588 8.04432E+00
 -1       589 5.98985E+00
 -1       590 6.68297E+00
 -1       591 1.01046E+01
 -1       592 1.41101E+01
 -1       593 2.40868E+01
 -1       594 2.69064E+01
 -1       595 2.04755E+01
 -1       596 1.27776E+01
 -1       597 7.97389E+00
 -1       598 1.48063E+01
 -1       599 5.09041E-01
 -1       600 7.46045E-01
 -1       601 4.62588E-01
 -1       602 6.69671E+00
 -1       603 6.34561E-01
 -1       604 1.86616E+01
 -1       605 1.75211E+01
 -1       606 4.79853E+00
 -1       607 5.22011E+00
 -1       608 3.57243E-01
 -1       609 3.41668E-01
 -1       610 3.60355E-01
 -1       611 3.39281E-01
 -1       612 5.92277E-01
 -1       613 3.98184E-01
 -1       614 3.84253E-01
 -1       615 3.39496E-01
 -1       616 2.85750E-01
 -1       617 2.36395E-01
 -1       618 2.02780E-01
 -1       619 1.64943E-01
 -1       620 1.23908E-01
 -1       621 8.02123E-02
 -1       622 8.66008E-02
 -1       623 1.58112E-01
 -1       624 2.70759E-01
 -1       625 4.34755E-01
 -1       626 6.65123E-01
 -1       627 1.01268E+00
 -1       628 1.48000E+00
 -1       629 2.14375E+00
 -1       630 3.10552E+00
 -1       631 4.59009E+00
 -1       632 7.65187E+00
 -1       633 7.95189E+00
 -1       634 8.14910E-02
 -1       635 1.25602E+01
 -1       636 5.51890E+00
 -1       637 3.66909E+00
 -1       638 2.51758E+00
 -1       639 1.73372E+00
 -1       640 1.19488E+00
 -1       641 8.08791E-01
 -1       642 5.37163E-01
 -1       643 3.55696E-01
 -1       644 2.38326E-01
 -1       645 1.68013E-01
 -1       646 1.14903E-01
 -1       647 3.86931E-01
 -1       648 3.30260E-01
 -1       649 4.30967E-01
 -1       650 2.31899E-01
 -1       651 1.95125E-01
 -1       652 1.57199E-01
 -1       653 1.19947E-01
 -1       654 8.43856E-02
 -1       655 7.33254E-02
 -1       656 7.90711E-02
 -1       657 9.98341E-02
 -1       658 1.23136E-01
 -1       659 1.54846E-01
 -1       660 1.81835E-01
 -1       661 2.61695E-01
 -1       662 3.51928E-01
 -1       663 4.46011E-01
 -1       664 6.19812E-01
 -1       665 8.15818E-01
 -1       666 9.62683E-01
 -1       667 1.10783E+00
 -1       668 1.21087E+00
 -1       669 1.34309E+00
 -1       670 1.22951E+00
 -1       671 1.29243E+00
 -1       672 1.32788E+00
 -1       673 1.17943E+00
 -1       674 1.07418E+00
 -1       675 9.33153E-01
 -1       676 7.62221E-01
 -1       677 5.71806E-01
 -1       678 4.16445E-01
 -1       679 3.27738E-01
 -1       680 2.39662E-01
 -1       681 1.87111E-01
 -1       682 1.65918E-01
 -1       683 1.41204E-01
 -1       684 1.18810E-01
 -1       685 1.19460E-01
 -1       686 1.11273E-01
 -1       687 7.49918E-02
 -1       688 7.60617E-02
 -1       689 4.53154E+00
 -1       690 7.60617E-02
 -1       691 2.70433E-01
 -1       692 8.48862E-02
 -1       693 9.64398E-02
 -1       694 9.64398E-02
 -1       695 9.42120E-02
 -1       696 3.46307E-01
 -1       697 1.57667E+01
 -1       698 1.31907E+01
 -1       699 7.49179E+00
 -1       700 2.90995E+00
 -1       701 1.36184E+01
 -1       702 8.41621E-02
 -1       703 1.03504E+01
 -1       704 3.90446E-01
 -1       705 2.94974E+00
 -1       706 3.60355E-01
 -1       707 1.41733E+01
 -1       708 1.55818E+01
 -1       709 5.80898E+00
 -1       710 3.63793E+00
 -1       711 9.49850E+00
 -1       712 3.60621E-01
 -1       713 6.45430E+00
 -1       714 1.54101E+01
 -1       715 3.41444E-01
 -1       716 5.13010E+00
 -1       717 1.01344E+01
 -1       718 4.18747E-01
 -1       719 9.47323E+00
 -1       720 3.56363E-01
 -1       721 8.20530E-02
 -1       722 1.33967E+01
 -1       723 1.36184E+01
 -1       724 5.59764E+00
 -1       725 3.76062E+00
 -1       726 3.60621E-01
 -1       727 2.41298E-01
 -1       728 1.44051E-01
 -1       729 2.36421E-01
 -1       730 3.00621E-01
 -1       731 2.28242E-01
 -1       732 2.55259E-01
 -1       733 2.43427E-01
 -1       734 2.15454E-01
 -1       735 1.78936E-01
 -1       736 1.52246E-01
 -1       737 1.20501E-01
 -1       738 8.31808E-02
 -1       739 9.12108E-02
 -1       740 1.33681E-01
 -1       741 2.29939E-01
 -1       742 3.58708E-01
 -1       743 5.34850E-01
 -1       744 8.07754E-01
 -1       745 1.15067E+00
 -1       746 1.67900E+00
 -1       747 2.50385E+00
 -1       748 3.75174E+00
 -1       749 7.65187E+00
 -1       750 9.03855E+00
 -1       751 4.81187E+00
 -1       752 3.17197E+00
 -1       753 2.11107E+00
 -1       754 1.43459E+00
 -1       755 9.84217E-01
 -1       756 6.73057E-01
 -1       757 4.64213E-01
 -1       758 3.16951E-01
 -1       759 2.12495E-01
 -1       760 1.68332E-01
 -1       761 2.65669E-01
 -1       762 2.67430E-01
 -1       763 1.44022E-01
 -1       764 1.73139E-01
 -1       765 7.32420E-02
 -1       766 3.88458E-02
 -1       767 5.18795E-02
 -1       768 8.95974E-02
 -1       769 1.25947E-01
 -1       770 1.63848E-01
 -1       771 2.16191E-01
 -1       772 2.67866E-01
 -1       773 3.67483E-01
 -1       774 5.15607E-01
 -1       775 6.66666E-01
 -1       776 8.15818E-01
 -1       777 1.02616E+00
 -1       778 1.18821E+00
 -1       779 1.23620E+00
 -1       780 1.52316E+00
 -1       781 1.70913E+00
 -1       782 1.52638E+00
 -1       783 1.57924E+00
 -1       784 1.43810E+00
 -1       785 1.16934E+00
 -1       786 1.18027E+00
 -1       787 9.62815E-01
 -1       788 7.62221E-01
 -1       789 6.27610E-01
 -1       790 4.76674E-01
 -1       791 3.32932E-01
 -1       792 2.67077E-01
 -1       793 2.18903E-01
 -1       794 1.75405E-01
 -1       795 1.42428E-01
 -1       796 1.44162E-01
 -1       797 2.67924E+00
 -1       798 1.64277E-01
 -1       799 1.12656E-01
 -1       800 5.58788E+00
 -1       801 9.43437E+00
 -1       802 4.03750E+00
 -1       803 9.38849E-02
 -1       804 6.36756E+00
 -1       805 7.62280E-02
 -1       806 2.27580E+00
 -1       807 8.94688E+00
 -1       808 1.11273E-01
 -1       809 3.87323E+00
 -1       810 2.60833E+00
 -1       811 1.09720E+01
 -1       812 1.10071E-01
 -1       813 2.86790E-01
 -1       814 9.46378E+00
 -1       815 2.80126E-01
 -1       816 2.73980E-01
 -1       817 3.41564E+00
 -1       818 8.63209E+00
 -1       819 2.87375E-01
 -1       820 2.42361E-01
 -1       821 2.08046E-01
 -1       822 1.19460E-01
 -1       823 5.58531E+00
 -1       824 7.88443E-02
 -1       825 3.47345E+00
 -1       826 2.87375E-01
 -1       827 2.79070E-01
 -1       828 3.88211E+00
 -1       829 3.37126E+00
 -1       830 7.60617E-02
 -1       831 2.84675E+00
 -1       832 2.86790E-01
 -1       833 1.43491E-01
 -1       834 1.71258E-01
 -1       835 1.74317E-01
 -1       836 1.61145E-01
 -1       837 1.37590E-01
 -1       838 1.18696E-01
 -1       839 9.74559E-02
 -1       840 1.08416E-01
 -1       841 1.25286E-01
 -1       842 1.76308E-01
 -1       843 2.65464E-01
 -1       844 3.80511E-01
 -1       845 5.56825E-01
 -1       846 7.53610E-01
 -1       847 1.09411E+00
 -1       848 1.65988E+00
 -1       849 2.56677E+00
 -1       850 6.38515E+00
 -1       851 2.86631E-01
 -1       852 3.15703E+00
 -1       853 1.99921E+00
 -1       854 1.34009E+00
 -1       855 9.44542E-01
 -1       856 6.74413E-01
 -1       857 4.88118E-01
 -1       858 3.51001E-01
 -1       859 2.50112E-01
 -1       860 1.84857E-01
 -1       861 1.33241E-01
 -1       862 6.39075E-02
 -1       863 7.04713E-02
 -1       864 1.21866E-01
 -1       865 1.71509E-01
 -1       866 2.27189E-01
 -1       867 3.06181E-01
 -1       868 4.04501E-01
 -1       869 5.15607E-01
 -1       870 7.05395E-01
 -1       871 9.50878E-01
 -1       872 1.15802E+00
 -1       873 1.26742E+00
 -1       874 2.26396E+00
 -1       875 2.52174E+00
 -1       876 3.37542E+00
 -1       877 2.85664E+00
 -1       878 1.57924E+00
 -1       879 1.91261E+00
 -1       880 1.43810E+00
 -1       881 1.54818E+00
 -1       882 1.26180E+00
 -1       883 1.06543E+00
 -1       884 8.95188E-01
 -1       885 6.46452E-01
 -1       886 4.83127E-01
 -1       887 3.87312E-01
 -1       888 2.95199E-01
 -1       889 2.28676E-01
 -1       890 1.79954E-01
 -1       891 1.73278E-01
 -1       892 1.37716E-01
 -1       893 1.66359E-01
 -1       894 1.19233E-01
 -1       895 1.94466E+00
 -1       896 1.32565E-01
 -1       897 7.27409E+00
 -1       898 1.32565E-01
 -1       899 8.06406E+00
 -1       900 9.28434E+00
 -1       901 3.00309E+00
 -1       902 9.19318E-02
 -1       903 2.56814E+00
 -1       904 3.37542E+00
 -1       905 4.39634E+00
 -1       906 2.48934E+00
 -1       907 2.52174E+00
 -1       908 5.85086E+00
 -1       909 1.70260E-01
 -1       910 1.58690E-01
 -1       911 1.85099E-01
 -1       912 2.19962E-01
 -1       913 1.27497E-01
 -1       914 8.43413E-02
 -1       915 1.75921E-01
 -1       916 4.00176E+00
 -1       917 1.39769E-01
 -1       918 2.19962E-01
 -1       919 3.89267E+00
 -1       920 2.13946E-01
 -1       921 1.13046E-01
 -1       922 3.03864E+00
 -1       923 5.49214E+00
 -1       924 2.13946E-01
 -1       925 1.11858E-01
 -1       926 6.38515E+00
 -1       927 1.19324E-01
 -1       928 1.27709E-01
 -1       929 1.22260E-01
 -1       930 1.07267E-01
 -1       931 1.03697E-01
 -1       932 1.13843E-01
 -1       933 1.27049E-01
 -1       934 1.62192E-01
 -1       935 2.18756E-01
 -1       936 3.00966E-01
 -1       937 4.42484E-01
 -1       938 5.96317E-01
 -1       939 8.32773E-01
 -1       940 1.16327E+00
 -1       941 1.93235E+00
 -1       942 3.02385E+00
 -1       943 1.78402E-01
 -1       944 1.49552E+00
 -1       945 1.05663E+00
 -1       946 7.05439E-01
 -1       947 4.92234E-01
 -1       948 3.42334E-01
 -1       949 2.36019E-01
 -1       950 1.86262E-01
 -1       951 2.81547E+00
 -1       952 2.37250E-01
 -1       953 1.82221E-01
 -1       954 4.38312E-01
 -1       955 5.88695E-01
 -1       956 8.03079E-01
 -1       957 9.50878E-01
 -1       958 1.98016E+00
 -1       959 1.93667E+00
 -1       960 2.26396E+00
 -1       961 1.54818E+00
 -1       962 2.08382E+00
 -1       963 1.26180E+00
 -1       964 1.07342E+00
 -1       965 9.09613E-01
 -1       966 7.30081E-01
 -1       967 5.45474E-01
 -1       968 4.18973E-01
 -1       969 3.18712E-01
 -1       970 2.32793E-01
 -1       971 1.73278E-01
 -1       972 1.79437E-01
 -1       973 2.17240E-01
 -1       974 1.34845E-01
 -1       975 2.08382E+00
 -1       976 1.41675E-01
 -1       977 1.29200E-01
 -1       978 3.32705E-01
 -1       979 9.44279E-02
 -1       980 1.39769E-01
 -1       981 1.99921E+00
 -1       982 4.82266E+00
 -1       983 9.17407E-02
 -1       984 3.29962E+00
 -1       985 1.20897E-01
 -1       986 5.44243E+00
 -1       987 9.51754E-02
 -1       988 1.14510E-01
 -1       989 1.27497E-01
 -1       990 1.42511E-01
 -1       991 1.75921E-01
 -1       992 3.29962E+00
 -1       993 2.47331E+00
 -1       994 2.89695E+00
 -1       995 1.03614E-01
 -1       996 1.57427E-01
 -1       997 1.41675E-01
 -1       998 1.50605E-01
 -1       999 1.50605E-01
 -1      1000 1.03507E-01
 -1      1001 1.57427E-01
 -1      1002 3.61597E+00
 -1      1003 9.64714E-02
 -1      1004 1.00647E-01
 -1      1005 1.06247E-01
 -1      1006 1.16692E-01
 -1      1007 1.30913E-01
 -1      1008 1.55202E-01
 -1      1009 1.96673E-01
 -1      1010 2.53165E-01
 -1      1011 3.45934E-01
 -1      1012 4.42484E-01
 -1      1013 6.34439E-01
 -1      1014 9.76977E-01
 -1      1015 1.26285E+00
 -1      1016 2.61119E-01
 -1      1017 1.19142E+00
 -1      1018 7.54459E-01
 -1      1019 4.99508E-01
 -1      1020 3.76442E-01
 -1      1021 2.78885E-01
 -1      1022 1.60846E-01
 -1      1023 1.32046E-01
 -1      1024 4.70597E-01
 -1      1025 8.40576E-01
 -1      1026 6.59133E-01
 -1      1027 2.66760E+00
 -1      1028 1.37447E+00
 -1      1029 1.07033E+00
 -1      1030 8.30926E-01
 -1      1031 6.14084E-01
 -1      1032 4.34803E-01
 -1      1033 3.14456E-01
 -1      1034 2.18263E-01
 -1      1035 1.32729E-01
 -1      1036 3.38433E-01
 -1      1037 1.65704E+00
 -1      1038 1.10107E-01
 -1      1039 9.55053E-02
 -1      1040 1.78420E+00
 -1      1041 2.12110E+00
 -1      1042 8.84104E-02
 -1      1043 1.56093E+00
 -1      1044 1.98171E-01
 -1      1045 2.02008E+00
 -1      1046 9.67127E-02
 -1      1047 1.75921E-01
 -1      1048 1.15786E-01
 -1      1049 2.26463E-01
 -1      1050 1.00328E-01
 -1      1051 2.12110E+00
 -1      1052 2.66760E+00
 -1      1053 2.96868E-01
 -1      1054 1.38468E-01
 -1      1055 9.47122E-02
 -1      1056 1.10107E-01
 -1      1057 9.62441E-02
 -1      1058 2.43838E-01
 -1      1059 2.23477E-01
 -1      1060 2.38376E+00
 -1      1061 1.03758E-01
 -1      1062 1.14527E-01
 -1      1063 1.24254E-01
 -1      1064 1.36740E-01
 -1      1065 1.63350E-01
 -1      1066 1.98425E-01
 -1      1067 3.35631E-01
 -1      1068 4.80675E-01
 -1      1069 6.83629E-01
 -1      1070 9.56214E-01
 -1      1071 1.15118E+00
 -1      1072 9.77891E-02
 -1      1073 1.24162E+00
 -1      1074 1.46869E+00
 -1      1075 8.52081E-01
 -1      1076 5.67916E-01
 -1      1077 3.70921E-01
 -1      1078 9.56214E-01
 -1      1079 1.29317E+00
 -1      1080 2.06034E+00
 -1      1081 8.56087E-01
 -1      1082 5.81676E-01
 -1      1083 4.21277E-01
 -1      1084 6.83629E-01
 -1      1085 2.66760E+00
 -1      1086 1.60900E+00
 -1      1087 1.91591E-01
 -1      1088 9.55053E-02
 -1      1089 1.17621E-01
 -1      1090 4.80675E-01
 -1      1091 1.28574E+00
 -1      1092 1.78420E+00
 -1      1093 1.60900E+00
 -1      1094 7.15824E-02
 -1      1095 9.29907E-02
 -1      1096 3.35631E-01
 -1      1097 1.46869E+00
 -1      1098 1.38983E+00
 -1      1099 5.90815E-02
 -1      1100 9.47122E-02
 -1      1101 7.43693E-02
 -1      1102 1.24254E-01
 -1      1103 1.38468E-01
 -1      1104 1.17621E-01
 -1      1105 1.98425E-01
 -1      1106 1.17621E-01
 -1      1107 1.91591E-01
 -1      1108 1.60900E+00
 -1      1109 1.31474E+01
 -1      1110 8.40296E+00
 -1      1111 2.73976E+00
 -1      1112 1.55401E+00
 -1      1113 1.16407E+00
 -1      1114 9.69409E-01
 -1      1115 8.52378E-01
 -1      1116 7.79974E-01
 -1      1117 7.53844E-01
 -1      1118 7.82944E-01
 -1      1119 8.54808E-01
 -1      1120 9.74312E-01
 -1      1121 1.17671E+00
 -1      1122 1.56458E+00
 -1      1123 2.66467E+00
 -1      1124 6.07247E+00
 -1      1125 1.13422E+01
 -1      1126 1.31474E+01
 -1      1127 8.73647E+00
 -1      1128 3.83804E+00
 -1      1129 2.73626E+00
 -1      1130 1.74841E+00
 -1      1131 1.20237E+00
 -1      1132 9.12743E-01
 -1      1133 7.11228E-01
 -1      1134 5.54969E-01
 -1      1135 4.33385E-01
 -1      1136 3.47027E-01
 -1      1137 2.84724E-01
 -1      1138 2.43204E-01
 -1      1139 2.42028E-01
 -1      1140 2.82780E-01
 -1      1141 3.56229E-01
 -1      1142 4.72548E-01
 -1      1143 6.37085E-01
 -1      1144 8.58994E-01
 -1      1145 1.14007E+00
 -1      1146 1.52763E+00
 -1      1147 2.10280E+00
 -1      1148 2.84185E+00
 -1      1149 3.70694E+00
 -1      1150 4.31763E+00
 -1      1151 4.45982E+00
 -1      1152 4.33320E+00
 -1      1153 7.10574E+00
 -1      1154 1.13714E+01
 -1      1155 1.27380E+01
 -1      1156 1.24294E+01
 -1      1157 9.59192E+00
 -1      1158 5.56970E+00
 -1      1159 4.27518E+00
 -1      1160 4.47392E+00
 -1      1161 4.15488E+00
 -1      1162 3.31629E+00
 -1      1163 2.43887E+00
 -1      1164 1.77640E+00
 -1      1165 1.30527E+00
 -1      1166 9.94005E-01
 -1      1167 7.34471E-01
 -1      1168 5.40695E-01
 -1      1169 3.87901E-01
 -1      1170 2.68829E-01
 -1      1171 1.92573E-01
 -1      1172 1.48403E-01
 -1      1173 1.20044E-01
 -1      1174 8.29489E-02
 -1      1175 4.00773E-02
 -1      1176 1.40430E+01
 -1      1177 8.72246E+00
 -1      1178 2.91352E+00
 -1      1179 2.05061E+00
 -1      1180 1.41691E+00
 -1      1181 1.03944E+00
 -1      1182 8.36141E-01
 -1      1183 6.82204E-01
 -1      1184 5.57169E-01
 -1      1185 4.55449E-01
 -1      1186 3.73658E-01
 -1      1187 3.09036E-01
 -1      1188 2.58647E-01
 -1      1189 2.19063E-01
 -1      1190 1.86367E-01
 -1      1191 1.72580E-01
 -1      1192 1.73933E-01
 -1      1193 1.72919E-01
 -1      1194 1.90616E-01
 -1      1195 2.26324E-01
 -1      1196 2.98006E-01
 -1      1197 4.09267E-01
 -1      1198 5.08387E-01
 -1      1199 6.54614E-01
 -1      1200 8.36598E-01
 -1      1201 9.81208E-01
 -1      1202 1.28496E+00
 -1      1203 1.70330E+00
 -1      1204 1.95117E+00
 -1      1205 2.12538E+00
 -1      1206 2.23879E+00
 -1      1207 2.24497E+00
 -1      1208 2.10096E+00
 -1      1209 1.72278E+00
 -1      1210 1.27178E+00
 -1      1211 8.56552E-01
 -1      1212 5.53665E-01
 -1      1213 3.53643E-01
 -1      1214 2.54022E-01
 -1      1215 2.51539E-01
 -1      1216 2.53158E-01
 -1      1217 2.39794E-01
 -1      1218 2.05786E-01
 -1      1219 1.65811E-01
 -1      1220 1.32831E-01
 -1      1221 1.09748E-01
 -1      1222 8.88523E-02
 -1      1223 6.40203E-02
 -1      1224 4.25837E-02
 -1      1225 2.23102E-02
 -1      1226 1.24257E-02
 -1      1227 1.47483E-02
 -1      1228 1.45546E-02
 -1      1229 1.16486E-02
 -1      1230 6.69584E-03
 -1      1231 7.26744E-03
 -1      1232 1.22913E-02
 -1      1233 1.57749E-02
 -1      1234 1.71890E-02
 -1      1235 1.73310E-02
 -1      1236 1.59617E-02
 -1      1237 1.18764E-02
 -1      1238 9.77303E-03
 -1      1239 1.41482E-02
 -1      1240 1.79109E-02
 -1      1241 1.67631E-02
 -1      1242 1.73714E-02
 -1      1243 2.44619E+01
 -1      1244 3.48708E+01
 -1      1245 4.56492E+01
 -1      1246 3.16143E+01
 -1      1247 1.48682E+01
 -1      1248 1.21809E+01
 -1      1249 1.22048E+01
 -1      1250 1.24312E+01
 -1      1251 1.26577E+01
 -1      1252 1.25016E+01
 -1      1253 2.01226E+01
 -1      1254 2.90793E+01
 -1      1255 2.97202E+01
 -1      1256 2.72208E+01
 -1      1257 2.47185E+01
 -1      1258 2.45121E+01
 -1      1259 3.52668E+01
 -1      1260 4.56863E+01
 -1      1261 3.19418E+01
 -1      1262 1.58375E+01
 -1      1263 1.34777E+01
 -1      1264 1.31095E+01
 -1      1265 1.27414E+01
 -1      1266 1.28115E+01
 -1      1267 1.94195E+01
 -1      1268 2.76905E+01
 -1      1269 2.94237E+01
 -1      1270 2.72244E+01
 -1      1271 2.49283E+01
 -1      1272 1.31474E+01
 -1      1273 4.86530E+00
 -1      1274 9.60970E+00
 -1      1275 2.05813E+00
 -1      1276 2.97692E+00
 -1      1277 4.18367E+00
 -1      1278 1.39489E+00
 -1      1279 1.66185E+00
 -1      1280 1.89901E+00
 -1      1281 1.09839E+00
 -1      1282 1.22138E+00
 -1      1283 1.32922E+00
 -1      1284 9.33870E-01
 -1      1285 1.00554E+00
 -1      1286 1.06285E+00
 -1      1287 8.34889E-01
 -1      1288 8.80250E-01
 -1      1289 9.16381E-01
 -1      1290 7.73844E-01
 -1      1291 8.00887E-01
 -1      1292 8.28759E-01
 -1      1293 7.54757E-01
 -1      1294 7.53844E-01
 -1      1295 7.74757E-01
 -1      1296 8.04564E-01
 -1      1297 7.76377E-01
 -1      1298 7.76377E-01
 -1      1299 8.81948E-01
 -1      1300 8.38270E-01
 -1      1301 8.31703E-01
 -1      1302 1.01450E+00
 -1      1303 9.38676E-01
 -1      1304 9.22137E-01
 -1      1305 1.23616E+00
 -1      1306 1.10958E+00
 -1      1307 1.07395E+00
 -1      1308 1.67499E+00
 -1      1309 1.41370E+00
 -1      1310 1.34657E+00
 -1      1311 2.87960E+00
 -1      1312 2.04081E+00
 -1      1313 1.88992E+00
 -1      1314 6.28562E+00
 -1      1315 3.71661E+00
 -1      1316 3.09275E+00
 -1      1317 1.40430E+01
 -1      1318 1.13422E+01
 -1      1319 8.98635E+00
 -1      1320 1.40430E+01
 -1      1321 8.73647E+00
 -1      1322 4.32558E+00
 -1      1323 3.83804E+00
 -1      1324 3.35050E+00
 -1      1325 3.83804E+00
 -1      1326 2.73626E+00
 -1      1327 2.12202E+00
 -1      1328 2.73626E+00
 -1      1329 1.78949E+00
 -1      1330 1.41588E+00
 -1      1331 1.78949E+00
 -1      1332 1.20553E+00
 -1      1333 1.03309E+00
 -1      1334 1.24661E+00
 -1      1335 9.12743E-01
 -1      1336 7.95553E-01
 -1      1337 9.15904E-01
 -1      1338 7.11228E-01
 -1      1339 6.26904E-01
 -1      1340 7.11228E-01
 -1      1341 5.57344E-01
 -1      1342 4.85409E-01
 -1      1343 5.57344E-01
 -1      1344 4.38648E-01
 -1      1345 3.88998E-01
 -1      1346 4.41023E-01
 -1      1347 3.51794E-01
 -1      1348 3.15086E-01
 -1      1349 3.57057E-01
 -1      1350 2.86200E-01
 -1      1351 2.60605E-01
 -1      1352 2.90967E-01
 -1      1353 2.43204E-01
 -1      1354 2.27280E-01
 -1      1355 2.44681E-01
 -1      1356 2.19879E-01
 -1      1357 2.34627E-01
 -1      1358 2.19879E-01
 -1      1359 2.56776E-01
 -1      1360 2.82780E-01
 -1      1361 2.34627E-01
 -1      1362 3.11744E-01
 -1      1363 3.59188E-01
 -1      1364 2.85739E-01
 -1      1365 4.08006E-01
 -1      1366 4.76881E-01
 -1      1367 3.63521E-01
 -1      1368 5.71023E-01
 -1      1369 6.66685E-01
 -1      1370 5.06481E-01
 -1      1371 8.12759E-01
 -1      1372 9.39007E-01
 -1      1373 7.46697E-01
 -1      1374 1.13799E+00
 -1      1375 1.29282E+00
 -1      1376 1.09175E+00
 -1      1377 1.55819E+00
 -1      1378 1.79092E+00
 -1      1379 1.55610E+00
 -1      1380 2.09389E+00
 -1      1381 2.43634E+00
 -1      1382 2.12446E+00
 -1      1383 2.71881E+00
 -1      1384 3.11542E+00
 -1      1385 2.70991E+00
 -1      1386 3.33921E+00
 -1      1387 3.80770E+00
 -1      1388 3.21618E+00
 -1      1389 4.17543E+00
 -1      1390 4.31763E+00
 -1      1391 3.80770E+00
 -1      1392 4.45982E+00
 -1      1393 4.45982E+00
 -1      1394 4.31763E+00
 -1      1395 4.24429E+00
 -1      1396 4.11766E+00
 -1      1397 4.24429E+00
 -1      1398 4.41781E+00
 -1      1399 7.31698E+00
 -1      1400 4.32891E+00
 -1      1401 1.00049E+01
 -1      1402 1.13714E+01
 -1      1403 7.31698E+00
 -1      1404 1.27380E+01
 -1      1405 1.27380E+01
 -1      1406 1.13714E+01
 -1      1407 1.24294E+01
 -1      1408 1.21209E+01
 -1      1409 1.24294E+01
 -1      1410 9.59192E+00
 -1      1411 7.06297E+00
 -1      1412 9.59192E+00
 -1      1413 5.19110E+00
 -1      1414 3.69784E+00
 -1      1415 5.19110E+00
 -1      1416 4.07644E+00
 -1      1417 4.27518E+00
 -1      1418 3.69784E+00
 -1      1419 4.47392E+00
 -1      1420 4.47392E+00
 -1      1421 4.27518E+00
 -1      1422 4.15488E+00
 -1      1423 3.83585E+00
 -1      1424 4.15488E+00
 -1      1425 3.45200E+00
 -1      1426 2.93244E+00
 -1      1427 3.45200E+00
 -1      1428 2.61969E+00
 -1      1429 2.26183E+00
 -1      1430 2.75539E+00
 -1      1431 1.99378E+00
 -1      1432 1.68917E+00
 -1      1433 2.17459E+00
 -1      1434 1.43964E+00
 -1      1435 1.27312E+00
 -1      1436 1.65701E+00
 -1      1437 1.06746E+00
 -1      1438 9.22715E-01
 -1      1439 1.20183E+00
 -1      1440 7.66625E-01
 -1      1441 6.51842E-01
 -1      1442 8.40085E-01
 -1      1443 5.49322E-01
 -1      1444 4.70330E-01
 -1      1445 5.81476E-01
 -1      1446 3.97559E-01
 -1      1447 3.23758E-01
 -1      1448 4.06186E-01
 -1      1449 2.77828E-01
 -1      1450 2.32557E-01
 -1      1451 2.87486E-01
 -1      1452 1.98700E-01
 -1      1453 1.67715E-01
 -1      1454 2.07700E-01
 -1      1455 1.48403E-01
 -1      1456 1.35218E-01
 -1      1457 1.54530E-01
 -1      1458 1.20044E-01
 -1      1459 1.04871E-01
 -1      1460 1.20044E-01
 -1      1461 8.29489E-02
 -1      1462 6.10271E-02
 -1      1463 8.29489E-02
 -1      1464 4.46340E-02
 -1      1465 2.36842E-02
 -1      1466 2.19281E-02
 -1      1467 4.46340E-02
 -1      1468 3.40197E+00
 -1      1469 8.72246E+00
 -1      1470 8.72246E+00
 -1      1471 2.42506E+00
 -1      1472 2.91352E+00
 -1      1473 2.91352E+00
 -1      1474 1.67617E+00
 -1      1475 2.05061E+00
 -1      1476 2.05061E+00
 -1      1477 1.15765E+00
 -1      1478 1.41691E+00
 -1      1479 1.41691E+00
 -1      1480 9.21233E-01
 -1      1481 1.03944E+00
 -1      1482 1.03944E+00
 -1      1483 7.51049E-01
 -1      1484 8.36141E-01
 -1      1485 8.36141E-01
 -1      1486 6.13359E-01
 -1      1487 6.82204E-01
 -1      1488 6.82204E-01
 -1      1489 5.00979E-01
 -1      1490 5.57169E-01
 -1      1491 5.57169E-01
 -1      1492 4.09918E-01
 -1      1493 4.55449E-01
 -1      1494 4.55449E-01
 -1      1495 3.37397E-01
 -1      1496 3.73658E-01
 -1      1497 3.73658E-01
 -1      1498 2.80674E-01
 -1      1499 3.09036E-01
 -1      1500 3.09036E-01
 -1      1501 2.36620E-01
 -1      1502 2.58647E-01
 -1      1503 2.58647E-01
 -1      1504 2.01505E-01
 -1      1505 2.19063E-01
 -1      1506 2.19063E-01
 -1      1507 1.71044E-01
 -1      1508 1.86182E-01
 -1      1509 1.86182E-01
 -1      1510 1.72580E-01
 -1      1511 1.71228E-01
 -1      1512 1.71044E-01
 -1      1513 1.73933E-01
 -1      1514 1.73933E-01
 -1      1515 1.72580E-01
 -1      1516 1.76810E-01
 -1      1517 1.77824E-01
 -1      1518 1.77824E-01
 -1      1519 1.99525E-01
 -1      1520 1.80814E-01
 -1      1521 1.85719E-01
 -1      1522 2.26324E-01
 -1      1523 2.09327E-01
 -1      1524 1.99525E-01
 -1      1525 2.98006E-01
 -1      1526 2.43321E-01
 -1      1527 2.26324E-01
 -1      1528 4.09267E-01
 -1      1529 3.52690E-01
 -1      1530 2.98006E-01
 -1      1531 5.08387E-01
 -1      1532 4.65844E-01
 -1      1533 4.09267E-01
 -1      1534 7.14958E-01
 -1      1535 6.11275E-01
 -1      1536 5.68732E-01
 -1      1537 9.43835E-01
 -1      1538 8.65534E-01
 -1      1539 8.22195E-01
 -1      1540 1.17418E+00
 -1      1541 1.10788E+00
 -1      1542 1.13681E+00
 -1      1543 1.56586E+00
 -1      1544 1.32841E+00
 -1      1545 1.45508E+00
 -1      1546 1.83030E+00
 -1      1547 1.64941E+00
 -1      1548 1.69286E+00
 -1      1549 1.95117E+00
 -1      1550 1.88420E+00
 -1      1551 1.83030E+00
 -1      1552 2.12538E+00
 -1      1553 2.01814E+00
 -1      1554 1.95117E+00
 -1      1555 2.23879E+00
 -1      1556 2.23262E+00
 -1      1557 2.12538E+00
 -1      1558 2.24497E+00
 -1      1559 2.24497E+00
 -1      1560 2.23879E+00
 -1      1561 1.95695E+00
 -1      1562 2.10096E+00
 -1      1563 2.10096E+00
 -1      1564 1.48862E+00
 -1      1565 1.72278E+00
 -1      1566 1.72278E+00
 -1      1567 1.06006E+00
 -1      1568 1.27690E+00
 -1      1569 1.27690E+00
 -1      1570 6.83593E-01
 -1      1571 8.81978E-01
 -1      1572 8.87104E-01
 -1      1573 4.49163E-01
 -1      1574 5.53665E-01
 -1      1575 5.79091E-01
 -1      1576 2.58123E-01
 -1      1577 3.53643E-01
 -1      1578 3.53643E-01
 -1      1579 2.47938E-01
 -1      1580 2.52039E-01
 -1      1581 2.52039E-01
 -1      1582 2.51539E-01
 -1      1583 2.49921E-01
 -1      1584 2.47938E-01
 -1      1585 2.53158E-01
 -1      1586 2.53158E-01
 -1      1587 2.51539E-01
 -1      1588 2.26430E-01
 -1      1589 2.39794E-01
 -1      1590 2.39794E-01
 -1      1591 1.85142E-01
 -1      1592 2.05786E-01
 -1      1593 2.05786E-01
 -1      1594 1.46481E-01
 -1      1595 1.65811E-01
 -1      1596 1.65811E-01
 -1      1597 1.19181E-01
 -1      1598 1.32831E-01
 -1      1599 1.32831E-01
 -1      1600 1.00314E-01
 -1      1601 1.09748E-01
 -1      1602 1.09748E-01
 -1      1603 7.73903E-02
 -1      1604 8.88523E-02
 -1      1605 8.88523E-02
 -1      1606 5.08981E-02
 -1      1607 6.42681E-02
 -1      1608 6.42681E-02
 -1      1609 3.45172E-02
 -1      1610 4.25837E-02
 -1      1611 4.28316E-02
 -1      1612 2.46327E-02
 -1      1613 2.04602E-02
 -1      1614 2.04602E-02
 -1      1615 2.02664E-02
 -1      1616 2.04602E-02
 -1      1617 2.61720E-02
 -1      1618 1.59516E-02
 -1      1619 1.86638E-02
 -1      1620 2.45694E-02
 -1      1621 8.59733E-03
 -1      1622 1.08379E-02
 -1      1623 1.78531E-02
 -1      1624 1.37431E-02
 -1      1625 1.09309E-02
 -1      1626 1.50730E-02
 -1      1627 2.04247E-02
 -1      1628 1.82131E-02
 -1      1629 2.18765E-02
 -1      1630 2.46905E-02
 -1      1631 2.34185E-02
 -1      1632 2.93402E-02
 -1      1633 2.56338E-02
 -1      1634 2.54917E-02
 -1      1635 3.31353E-02
 -1      1636 2.56338E-02
 -1      1637 2.56338E-02
 -1      1638 3.39365E-02
 -1      1639 2.40713E-02
 -1      1640 2.54407E-02
 -1      1641 3.37434E-02
 -1      1642 1.88329E-02
 -1      1643 2.15488E-02
 -1      1644 3.10278E-02
 -1      1645 1.41345E-02
 -1      1646 1.35220E-02
 -1      1647 2.31943E-02
 -1      1648 2.33818E-02
 -1      1649 1.96191E-02
 -1      1650 2.33681E-02
 -1      1651 2.69273E-02
 -1      1652 2.69273E-02
 -1      1653 3.23982E-02
 -1      1654 2.84813E-02
 -1      1655 2.96291E-02
 -1      1656 3.86455E-02
 -1      1657 3.47941E-02
 -1      1658 2.62762E+01
 -1      1659 2.66457E+01
 -1      1660 3.62145E+01
 -1      1661 2.54361E+01
 -1      1662 4.56492E+01
 -1      1663 4.56492E+01
 -1      1664 1.83479E+01
 -1      1665 3.23828E+01
 -1      1666 1.16188E+01
 -1      1667 1.43299E+01
 -1      1668 1.21809E+01
 -1      1669 1.21571E+01
 -1      1670 1.22048E+01
 -1      1671 1.22048E+01
 -1      1672 1.22995E+01
 -1      1673 1.20731E+01
 -1      1674 1.26577E+01
 -1      1675 1.26577E+01
 -1      1676 1.20609E+01
 -1      1677 1.22170E+01
 -1      1678 2.01226E+01
 -1      1679 1.23455E+01
 -1      1680 3.02588E+01
 -1      1681 2.90793E+01
 -1      1682 3.16882E+01
 -1      1683 3.22269E+01
 -1      1684 2.97276E+01
 -1      1685 3.16882E+01
 -1      1686 2.66724E+01
 -1      1687 2.72140E+01
 -1      1688 2.70076E+01
 -1      1689 2.66724E+01
 -1      1690 4.20804E+01
 -1      1691 3.16609E+01
 -1      1692 4.56863E+01
 -1      1693 4.56863E+01
 -1      1694 1.85298E+01
 -1      1695 3.22743E+01
 -1      1696 1.26812E+01
 -1      1697 1.50410E+01
 -1      1698 1.34777E+01
 -1      1699 1.34777E+01
 -1      1700 1.26320E+01
 -1      1701 1.30002E+01
 -1      1702 1.27414E+01
 -1      1703 1.27414E+01
 -1      1704 1.26608E+01
 -1      1705 1.25907E+01
 -1      1706 1.94195E+01
 -1      1707 1.28817E+01
 -1      1708 2.88908E+01
 -1      1709 2.71576E+01
 -1      1710 2.94237E+01
 -1      1711 2.94237E+01
 -1      1712 2.50251E+01
 -1      1713 2.72244E+01
 -1      1714 2.66457E+01
 -1      1715 2.67425E+01
 -1      1716 3.23828E+01
 -1      1717 2.84600E+01
 -1      1718 2.46327E-02
 -1      1719 3.03446E-02
 -1      1720 2.76199E+01
 -1      1721 3.62145E+01
 -1      1722 1.50985E+01
 -1      1723 1.16188E+01
 -1      1724 1.21809E+01
 -1      1725 1.20731E+01
 -1      1726 1.22995E+01
 -1      1727 1.22170E+01
 -1      1728 1.20609E+01
 -1      1729 2.13022E+01
 -1      1730 3.22269E+01
 -1      1731 3.41950E+01
 -1      1732 3.16814E+01
 -1      1733 2.91679E+01
 -1      1734 3.38212E+01
 -1      1735 4.20804E+01
 -1      1736 3.22743E+01
 -1      1737 1.53735E+01
 -1      1738 1.26812E+01
 -1      1739 1.30002E+01
 -1      1740 1.26320E+01
 -1      1741 1.25907E+01
 -1      1742 1.26608E+01
 -1      1743 2.06198E+01
 -1      1744 2.88908E+01
 -1      1745 2.72244E+01
 -1      1746 2.67425E+01
 -1      1747 9.60970E+00
 -1      1748 1.28381E+00
 -1      1749 1.68009E+00
 -1      1750 2.38447E+00
 -1      1751 4.27284E+00
 -1      1752 1.76927E+00
 -1      1753 8.78297E-01
 -1      1754 9.71150E-01
 -1      1755 7.77947E-01
 -1      1756 8.31567E-01
 -1      1757 7.39862E-01
 -1      1758 7.12538E-01
 -1      1759 7.46540E-01
 -1      1760 6.61726E-01
 -1      1761 6.70522E-01
 -1      1762 6.90522E-01
 -1      1763 6.08303E-01
 -1      1764 6.93661E-01
 -1      1765 6.72040E-01
 -1      1766 5.87806E-01
 -1      1767 7.49089E-01
 -1      1768 7.15383E-01
 -1      1769 6.11047E-01
 -1      1770 8.39030E-01
 -1      1771 7.82301E-01
 -1      1772 6.65981E-01
 -1      1773 9.81585E-01
 -1      1774 8.86504E-01
 -1      1775 7.46668E-01
 -1      1776 1.22605E+00
 -1      1777 1.04851E+00
 -1      1778 8.61071E-01
 -1      1779 1.69772E+00
 -1      1780 1.33190E+00
 -1      1781 1.03385E+00
 -1      1782 2.62700E+00
 -1      1783 1.78999E+00
 -1      1784 1.23198E+00
 -1      1785 8.12041E+00
 -1      1786 3.06381E+00
 -1      1787 1.76106E+00
 -1      1788 2.79992E+00
 -1      1789 5.19881E+00
 -1      1790 2.16944E+00
 -1      1791 2.65789E+00
 -1      1792 2.05584E+00
 -1      1793 3.39961E+00
 -1      1794 2.54373E+00
 -1      1795 1.92949E+00
 -1      1796 1.69880E+00
 -1      1797 1.36627E+00
 -1      1798 1.50627E+00
 -1      1799 1.18646E+00
 -1      1800 9.76109E-01
 -1      1801 1.09577E+00
 -1      1802 8.50816E-01
 -1      1803 7.30465E-01
 -1      1804 7.90670E-01
 -1      1805 6.75533E-01
 -1      1806 5.91209E-01
 -1      1807 6.10445E-01
 -1      1808 5.42565E-01
 -1      1809 4.73004E-01
 -1      1810 5.06870E-01
 -1      1811 4.33188E-01
 -1      1812 3.86427E-01
 -1      1813 4.18409E-01
 -1      1814 3.52797E-01
 -1      1815 3.15592E-01
 -1      1816 3.44962E-01
 -1      1817 2.88285E-01
 -1      1818 2.59399E-01
 -1      1819 2.84024E-01
 -1      1820 2.37835E-01
 -1      1821 2.20435E-01
 -1      1822 2.35153E-01
 -1      1823 2.03725E-01
 -1      1824 1.96324E-01
 -1      1825 1.96879E-01
 -1      1826 2.10687E-01
 -1      1827 2.32835E-01
 -1      1828 1.94532E-01
 -1      1829 2.51518E-01
 -1      1830 2.80482E-01
 -1      1831 2.27578E-01
 -1      1832 3.31524E-01
 -1      1833 3.80342E-01
 -1      1834 2.97303E-01
 -1      1835 4.70430E-01
 -1      1836 5.64571E-01
 -1      1837 4.38433E-01
 -1      1838 6.88632E-01
 -1      1839 8.34706E-01
 -1      1840 6.52580E-01
 -1      1841 1.00378E+00
 -1      1842 1.20276E+00
 -1      1843 9.45712E-01
 -1      1844 1.43572E+00
 -1      1845 1.70110E+00
 -1      1846 1.34775E+00
 -1      1847 1.98980E+00
 -1      1848 2.29277E+00
 -1      1849 1.86942E+00
 -1      1850 2.62004E+00
 -1      1851 2.90252E+00
 -1      1852 2.48538E+00
 -1      1853 3.22330E+00
 -1      1854 3.44709E+00
 -1      1855 3.13343E+00
 -1      1856 3.68397E+00
 -1      1857 4.05170E+00
 -1      1858 3.69110E+00
 -1      1859 4.51375E+00
 -1      1860 4.65595E+00
 -1      1861 4.39002E+00
 -1      1862 5.50239E+00
 -1      1863 5.28686E+00
 -1      1864 5.69852E+00
 -1      1865 5.74063E+00
 -1      1866 6.04078E+00
 -1      1867 6.99873E+00
 -1      1868 4.82286E+00
 -1      1869 7.51079E+00
 -1      1870 6.23459E+00
 -1      1871 1.04284E+01
 -1      1872 1.01199E+01
 -1      1873 6.60739E+00
 -1      1874 4.73553E+00
 -1      1875 5.07116E+00
 -1      1876 5.44976E+00
 -1      1877 6.48744E+00
 -1      1878 4.77810E+00
 -1      1879 4.97684E+00
 -1      1880 6.15141E+00
 -1      1881 4.28513E+00
 -1      1882 3.96609E+00
 -1      1883 4.78804E+00
 -1      1884 3.71688E+00
 -1      1885 3.33303E+00
 -1      1886 3.84712E+00
 -1      1887 3.08242E+00
 -1      1888 2.76966E+00
 -1      1889 3.34730E+00
 -1      1890 2.45255E+00
 -1      1891 2.18450E+00
 -1      1892 2.77957E+00
 -1      1893 1.87975E+00
 -1      1894 1.63023E+00
 -1      1895 2.15771E+00
 -1      1896 1.37480E+00
 -1      1897 1.16914E+00
 -1      1898 1.59754E+00
 -1      1899 9.71324E-01
 -1      1900 8.15235E-01
 -1      1901 1.14429E+00
 -1      1902 6.73340E-01
 -1      1903 5.70820E-01
 -1      1904 8.04579E-01
 -1      1905 4.56962E-01
 -1      1906 3.84192E-01
 -1      1907 5.48825E-01
 -1      1908 3.11231E-01
 -1      1909 2.65301E-01
 -1      1910 3.62007E-01
 -1      1911 2.14482E-01
 -1      1912 1.80625E-01
 -1      1913 2.38227E-01
 -1      1914 1.48396E-01
 -1      1915 1.29084E-01
 -1      1916 1.55178E-01
 -1      1917 1.10250E-01
 -1      1918 9.50762E-02
 -1      1919 1.04116E-01
 -1      1920 8.26307E-02
 -1      1921 6.07089E-02
 -1      1922 7.28362E-02
 -1      1923 5.11872E-02
 -1      1924 1.14987E+00
 -1      1925 1.40913E+00
 -1      1926 8.72069E-01
 -1      1927 9.90280E-01
 -1      1928 9.82497E-01
 -1      1929 6.98085E-01
 -1      1930 7.83177E-01
 -1      1931 7.34014E-01
 -1      1932 5.73506E-01
 -1      1933 6.42351E-01
 -1      1934 5.89388E-01
 -1      1935 4.68854E-01
 -1      1936 5.25045E-01
 -1      1937 4.85192E-01
 -1      1938 3.81902E-01
 -1      1939 4.27432E-01
 -1      1940 3.95308E-01
 -1      1941 3.11400E-01
 -1      1942 3.47661E-01
 -1      1943 3.19644E-01
 -1      1944 2.54562E-01
 -1      1945 2.82923E-01
 -1      1946 2.56926E-01
 -1      1947 2.07779E-01
 -1      1948 2.29806E-01
 -1      1949 2.03694E-01
 -1      1950 1.72361E-01
 -1      1951 1.89919E-01
 -1      1952 1.61078E-01
 -1      1953 1.57712E-01
 -1      1954 1.73035E-01
 -1      1955 1.43891E-01
 -1      1956 1.58387E-01
 -1      1957 1.58203E-01
 -1      1958 1.45056E-01
 -1      1959 1.60416E-01
 -1      1960 1.59064E-01
 -1      1961 1.46223E-01
 -1      1962 1.68896E-01
 -1      1963 1.65005E-01
 -1      1964 1.51488E-01
 -1      1965 1.85719E-01
 -1      1966 1.81715E-01
 -1      1967 1.68896E-01
 -1      1968 1.99525E-01
 -1      1969 1.89724E-01
 -1      1970 1.85719E-01
 -1      1971 2.05044E-01
 -1      1972 1.88047E-01
 -1      1973 1.78245E-01
 -1      1974 2.58702E-01
 -1      1975 2.04017E-01
 -1      1976 1.65740E-01
 -1      1977 3.90762E-01
 -1      1978 3.34185E-01
 -1      1979 2.40197E-01
 -1      1980 5.98644E-01
 -1      1981 4.95757E-01
 -1      1982 4.20675E-01
 -1      1983 8.63663E-01
 -1      1984 7.13087E-01
 -1      1985 6.40112E-01
 -1      1986 1.17520E+00
 -1      1987 1.01116E+00
 -1      1988 9.02049E-01
 -1      1989 1.45508E+00
 -1      1990 1.30085E+00
 -1      1991 1.17520E+00
 -1      1992 1.69286E+00
 -1      1993 1.60930E+00
 -1      1994 1.45508E+00
 -1      1995 1.83030E+00
 -1      1996 1.77641E+00
 -1      1997 1.69286E+00
 -1      1998 1.88941E+00
 -1      1999 1.82244E+00
 -1      2000 1.76855E+00
 -1      2001 2.00477E+00
 -1      2002 1.89753E+00
 -1      2003 1.76881E+00
 -1      2004 1.99621E+00
 -1      2005 1.99003E+00
 -1      2006 1.76218E+00
 -1      2007 1.74912E+00
 -1      2008 1.89313E+00
 -1      2009 1.64437E+00
 -1      2010 1.36219E+00
 -1      2011 1.59636E+00
 -1      2012 1.38853E+00
 -1      2013 1.01757E+00
 -1      2014 1.22928E+00
 -1      2015 1.10286E+00
 -1      2016 7.00867E-01
 -1      2017 8.78953E-01
 -1      2018 8.31333E-01
 -1      2019 4.57982E-01
 -1      2020 5.87910E-01
 -1      2021 5.79759E-01
 -1      2022 2.62116E-01
 -1      2023 3.57635E-01
 -1      2024 3.66455E-01
 -1      2025 2.04587E-01
 -1      2026 2.10671E-01
 -1      2027 2.14663E-01
 -1      2028 2.07828E-01
 -1      2029 2.05845E-01
 -1      2030 1.64477E-01
 -1      2031 2.15787E-01
 -1      2032 2.14168E-01
 -1      2033 1.72075E-01
 -1      2034 1.95343E-01
 -1      2035 2.08707E-01
 -1      2036 1.71336E-01
 -1      2037 1.60738E-01
 -1      2038 1.81382E-01
 -1      2039 1.50296E-01
 -1      2040 1.30270E-01
 -1      2041 1.49600E-01
 -1      2042 1.25196E-01
 -1      2043 1.11280E-01
 -1      2044 1.24930E-01
 -1      2045 1.08718E-01
 -1      2046 9.47831E-02
 -1      2047 1.04217E-01
 -1      2048 9.63149E-02
 -1      2049 7.44988E-02
 -1      2050 8.59609E-02
 -1      2051 8.04296E-02
 -1      2052 5.12745E-02
 -1      2053 6.43967E-02
 -1      2054 6.15052E-02
 -1      2055 3.65270E-02
 -1      2056 4.48413E-02
 -1      2057 4.49699E-02
 -1      2058 3.23544E-02
 -1      2059 1.95050E-02
 -1      2060 2.46186E-02
 -1      2061 3.63121E-02
 -1      2062 3.79148E-02
 -1      2063 3.79640E-02
 -1      2064 3.23544E-02
 -1      2065 1.93106E-02
 -1      2066 1.69771E-02
 -1      2067 2.37426E-02
 -1      2068 3.02715E-02
 -1      2069 2.58015E-02
 -1      2070 2.77056E-02
 -1      2071 3.82259E-02
 -1      2072 3.52321E-02
 -1      2073 3.91571E-02
 -1      2074 4.13284E-02
 -1      2075 4.05271E-02
 -1      2076 4.64190E-02
 -1      2077 4.18219E-02
 -1      2078 4.18219E-02
 -1      2079 4.92138E-02
 -1      2080 4.16749E-02
 -1      2081 4.18680E-02
 -1      2082 4.97534E-02
 -1      2083 3.91523E-02
 -1      2084 4.16749E-02
 -1      2085 4.97994E-02
 -1      2086 2.97764E-02
 -1      2087 3.50873E-02
 -1      2088 4.57344E-02
 -1      2089 3.04382E-02
 -1      2090 2.49535E-02
 -1      2091 3.68465E-02
 -1      2092 4.54949E-02
 -1      2093 4.19494E-02
 -1      2094 4.35348E-02
 -1      2095 1.52041E+00
 -1      2096 1.89486E+00
 -1      2097 1.63923E+00
 -1      2098 1.25337E+00
 -1      2099 3.62145E+01
 -1      2100 2.67798E+01
 -1      2101 1.02055E+01
 -1      2102 1.42235E+01
 -1      2103 3.15364E+01
 -1      2104 3.15364E+01
 -1      2105 1.73193E+01
 -1      2106 3.05857E+01
 -1      2107 2.11510E+01
 -1      2108 1.03309E+00
 -1      2109 1.20660E+00
 -1      2110 9.87681E-01
 -1      2111 8.48529E-01
 -1      2112 9.91811E+00
 -1      2113 9.37982E+00
 -1      2114 1.10837E+01
 -1      2115 1.10598E+01
 -1      2116 1.13001E+01
 -1      2117 1.14318E+01
 -1      2118 1.19531E+01
 -1      2119 1.15950E+01
 -1      2120 1.02997E+01
 -1      2121 1.07404E+01
 -1      2122 9.49086E+00
 -1      2123 9.20632E+00
 -1      2124 2.08530E+01
 -1      2125 1.18963E+01
 -1      2126 9.04166E+00
 -1      2127 2.71380E+01
 -1      2128 2.51700E+01
 -1      2129 3.41950E+01
 -1      2130 3.41950E+01
 -1      2131 2.71380E+01
 -1      2132 3.42455E+01
 -1      2133 3.67591E+01
 -1      2134 3.42455E+01
 -1      2135 3.42455E+01
 -1      2136 3.26905E+01
 -1      2137 2.80371E+01
 -1      2138 3.65347E+01
 -1      2139 3.29288E+01
 -1      2140 1.74715E+01
 -1      2141 3.08834E+01
 -1      2142 1.04792E+01
 -1      2143 1.39680E+01
 -1      2144 1.09048E+01
 -1      2145 1.01083E+01
 -1      2146 1.19972E+01
 -1      2147 1.24747E+01
 -1      2148 1.19840E+01
 -1      2149 1.18747E+01
 -1      2150 1.14028E+01
 -1      2151 1.15536E+01
 -1      2152 1.00672E+01
 -1      2153 9.84634E+00
 -1      2154 1.97065E+01
 -1      2155 1.19683E+01
 -1      2156 2.44512E+01
 -1      2157 2.39184E+01
 -1      2158 2.40924E+01
 -1      2159 2.62917E+01
 -1      2160 3.15364E+01
 -1      2161 2.98190E+01
 -1      2162 2.71941E+01
 -1      2163 2.80342E+01
 -1      2164 7.67874E+00
 -1      2165 9.67975E+00
 -1      2166 7.15079E+00
 -1      2167 6.69522E+00
 -1      2168 2.91207E+00
 -1      2169 8.50486E+00
 -1      2170 2.10530E+00
 -1      2171 1.04284E+01
 -1      2172 8.11886E+00
 -1      2173 9.06188E+00
 -1      2174 5.08690E-02
 -1      2175 4.40972E-02
 -1      2176 3.11106E+01
 -1      2177 4.81967E-02
 -1      2178 4.54949E-02
 -1      2179 5.50461E-02
 -1      2180 5.77184E-02
 -1      2181 2.71941E+01
 -1      2182 1.24264E+01
 -1      2183 3.46129E+01
 -1      2184 2.88863E+01
 -1      2185 2.13193E+01
 -1      2186 1.52669E+01
 -1      2187 9.15385E+00
 -1      2188 8.80924E+00
 -1      2189 1.07962E+01
 -1      2190 1.13492E+01
 -1      2191 9.90184E+00
 -1      2192 8.70280E+00
 -1      2193 1.25771E+01
 -1      2194 2.17318E+01
 -1      2195 2.71448E+01
 -1      2196 3.31148E+01
 -1      2197 3.67591E+01
 -1      2198 1.57641E+01
 -1      2199 7.72968E+00
 -1      2200 1.00358E+01
 -1      2201 1.09537E+01
 -1      2202 8.82086E+00
 -1      2203 1.03107E+01
 -1      2204 3.93232E+01
 -1      2205 6.56777E+00
 -1      2206 5.57675E-01
 -1      2207 5.89081E-01
 -1      2208 6.01087E-01
 -1      2209 6.47817E-01
 -1      2210 4.97036E-01
 -1      2211 5.09677E-01
 -1      2212 5.08159E-01
 -1      2213 5.44266E-01
 -1      2214 5.22544E-01
 -1      2215 4.42897E-01
 -1      2216 5.92235E-01
 -1      2217 5.59023E-01
 -1      2218 4.70520E-01
 -1      2219 6.51606E-01
 -1      2220 6.04131E-01
 -1      2221 4.97173E-01
 -1      2222 7.18534E-01
 -1      2223 6.51606E-01
 -1      2224 5.09069E-01
 -1      2225 8.20733E-01
 -1      2226 7.14880E-01
 -1      2227 5.05415E-01
 -1      2228 9.80402E-01
 -1      2229 8.88129E-01
 -1      2230 5.69158E-01
 -1      2231 1.75690E+00
 -1      2232 1.32009E+00
 -1      2233 9.76244E-01
 -1      2234 1.61488E+00
 -1      2235 9.79531E+00
 -1      2236 9.79531E+00
 -1      2237 8.15595E+00
 -1      2238 8.49158E+00
 -1      2239 1.26954E+00
 -1      2240 1.03885E+00
 -1      2241 6.64435E+00
 -1      2242 7.47006E+00
 -1      2243 2.32811E+01
 -1      2244 2.36953E+01
 -1      2245 9.91576E-01
 -1      2246 8.11766E-01
 -1      2247 7.54843E-01
 -1      2248 7.54918E-01
 -1      2249 6.29625E-01
 -1      2250 6.50721E-01
 -1      2251 5.71209E-01
 -1      2252 5.16278E-01
 -1      2253 5.35457E-01
 -1      2254 4.68194E-01
 -1      2255 4.19549E-01
 -1      2256 4.28957E-01
 -1      2257 3.96221E-01
 -1      2258 3.56404E-01
 -1      2259 3.57545E-01
 -1      2260 3.31748E-01
 -1      2261 2.98117E-01
 -1      2262 3.09560E-01
 -1      2263 2.74333E-01
 -1      2264 2.47025E-01
 -1      2265 2.61119E-01
 -1      2266 2.24783E-01
 -1      2267 2.03220E-01
 -1      2268 2.15092E-01
 -1      2269 1.82266E-01
 -1      2270 1.65556E-01
 -1      2271 1.71896E-01
 -1      2272 1.61904E-01
 -1      2273 1.76267E-01
 -1      2274 1.47291E-01
 -1      2275 1.86786E-01
 -1      2276 2.05469E-01
 -1      2277 1.54158E-01
 -1      2278 2.52816E-01
 -1      2279 3.03858E-01
 -1      2280 2.12023E-01
 -1      2281 3.71909E-01
 -1      2282 4.61996E-01
 -1      2283 3.27421E-01
 -1      2284 5.53022E-01
 -1      2285 6.77083E-01
 -1      2286 4.86498E-01
 -1      2287 8.00143E-01
 -1      2288 9.69213E-01
 -1      2289 7.00584E-01
 -1      2290 1.14360E+00
 -1      2291 1.37657E+00
 -1      2292 9.98031E-01
 -1      2293 1.61230E+00
 -1      2294 1.90099E+00
 -1      2295 1.40815E+00
 -1      2296 2.22560E+00
 -1      2297 2.55287E+00
 -1      2298 1.96848E+00
 -1      2299 3.01534E+00
 -1      2300 3.33612E+00
 -1      2301 2.75556E+00
 -1      2302 4.00981E+00
 -1      2303 4.24669E+00
 -1      2304 3.89171E+00
 -1      2305 5.24347E+00
 -1      2306 5.70551E+00
 -1      2307 5.56218E+00
 -1      2308 6.40198E+00
 -1      2309 7.24843E+00
 -1      2310 7.25542E+00
 -1      2311 8.33968E+00
 -1      2312 8.79345E+00
 -1      2313 9.04315E+00
 -1      2314 8.45362E+00
 -1      2315 7.78196E+00
 -1      2316 6.04567E+00
 -1      2317 5.35396E+00
 -1      2318 8.34787E+00
 -1      2319 4.59965E+00
 -1      2320 4.35044E+00
 -1      2321 5.85728E+00
 -1      2322 3.65126E+00
 -1      2323 3.40065E+00
 -1      2324 4.40379E+00
 -1      2325 2.89760E+00
 -1      2326 2.58048E+00
 -1      2327 3.20156E+00
 -1      2328 2.20844E+00
 -1      2329 1.90369E+00
 -1      2330 2.32647E+00
 -1      2331 1.63115E+00
 -1      2332 1.37572E+00
 -1      2333 1.68187E+00
 -1      2334 1.17599E+00
 -1      2335 9.78177E-01
 -1      2336 1.20960E+00
 -1      2337 8.31155E-01
 -1      2338 6.89260E-01
 -1      2339 8.62857E-01
 -1      2340 5.79417E-01
 -1      2341 4.65559E-01
 -1      2342 6.05993E-01
 -1      2343 3.89817E-01
 -1      2344 3.16857E-01
 -1      2345 4.20409E-01
 -1      2346 2.62417E-01
 -1      2347 2.11597E-01
 -1      2348 2.90227E-01
 -1      2349 1.72745E-01
 -1      2350 1.40516E-01
 -1      2351 1.96935E-01
 -1      2352 1.13030E-01
 -1      2353 9.41965E-02
 -1      2354 1.30597E-01
 -1      2355 8.56313E-02
 -1      2356 7.31859E-02
 -1      2357 7.05136E-02
 -1      2358 9.45462E-02
 -1      2359 4.90028E-01
 -1      2360 5.45762E-01
 -1      2361 6.05436E-01
 -1      2362 6.94328E-01
 -1      2363 5.06076E-01
 -1      2364 7.59570E-01
 -1      2365 9.19161E-01
 -1      2366 6.30992E-01
 -1      2367 4.07132E-01
 -1      2368 4.55593E-01
 -1      2369 4.11968E-01
 -1      2370 3.38370E-01
 -1      2371 3.79792E-01
 -1      2372 3.50194E-01
 -1      2373 2.77237E-01
 -1      2374 3.11478E-01
 -1      2375 2.95962E-01
 -1      2376 2.23651E-01
 -1      2377 2.52128E-01
 -1      2378 2.43961E-01
 -1      2379 1.76001E-01
 -1      2380 2.00757E-01
 -1      2381 1.95958E-01
 -1      2382 1.37376E-01
 -1      2383 1.55237E-01
 -1      2384 1.52300E-01
 -1      2385 1.25721E-01
 -1      2386 1.25047E-01
 -1      2387 1.19206E-01
 -1      2388 1.27610E-01
 -1      2389 1.27119E-01
 -1      2390 1.08276E-01
 -1      2391 1.29750E-01
 -1      2392 1.29073E-01
 -1      2393 1.11137E-01
 -1      2394 1.35517E-01
 -1      2395 1.30929E-01
 -1      2396 1.13779E-01
 -1      2397 1.57087E-01
 -1      2398 1.44268E-01
 -1      2399 1.23709E-01
 -1      2400 1.62129E-01
 -1      2401 1.58125E-01
 -1      2402 1.33497E-01
 -1      2403 1.70850E-01
 -1      2404 1.82328E-01
 -1      2405 1.54733E-01
 -1      2406 1.91607E-01
 -1      2407 1.92634E-01
 -1      2408 1.96716E-01
 -1      2409 2.99072E-01
 -1      2410 2.23589E-01
 -1      2411 2.50482E-01
 -1      2412 4.85840E-01
 -1      2413 3.80845E-01
 -1      2414 3.64237E-01
 -1      2415 6.87183E-01
 -1      2416 5.72741E-01
 -1      2417 5.32911E-01
 -1      2418 9.57463E-01
 -1      2419 8.09969E-01
 -1      2420 7.42598E-01
 -1      2421 1.19030E+00
 -1      2422 1.06465E+00
 -1      2423 9.72567E-01
 -1      2424 1.41009E+00
 -1      2425 1.25586E+00
 -1      2426 1.14531E+00
 -1      2427 1.55300E+00
 -1      2428 1.46945E+00
 -1      2429 1.27023E+00
 -1      2430 1.54450E+00
 -1      2431 1.55236E+00
 -1      2432 1.32895E+00
 -1      2433 1.52165E+00
 -1      2434 1.51353E+00
 -1      2435 1.29734E+00
 -1      2436 1.54370E+00
 -1      2437 1.55844E+00
 -1      2438 1.30316E+00
 -1      2439 1.42542E+00
 -1      2440 1.52850E+00
 -1      2441 1.32475E+00
 -1      2442 1.20510E+00
 -1      2443 1.35786E+00
 -1      2444 1.24199E+00
 -1      2445 9.99710E-01
 -1      2446 1.13262E+00
 -1      2447 1.10195E+00
 -1      2448 7.45223E-01
 -1      2449 8.83840E-01
 -1      2450 9.13599E-01
 -1      2451 5.19304E-01
 -1      2452 6.32261E-01
 -1      2453 6.84768E-01
 -1      2454 3.31153E-01
 -1      2455 4.31500E-01
 -1      2456 4.84002E-01
 -1      2457 2.04710E-01
 -1      2458 2.56155E-01
 -1      2459 3.21199E-01
 -1      2460 1.85457E-01
 -1      2461 1.84199E-01
 -1      2462 2.25690E-01
 -1      2463 1.69905E-01
 -1      2464 1.63565E-01
 -1      2465 1.83287E-01
 -1      2466 1.53633E-01
 -1      2467 1.60713E-01
 -1      2468 1.52202E-01
 -1      2469 1.36493E-01
 -1      2470 1.50453E-01
 -1      2471 1.39830E-01
 -1      2472 1.18495E-01
 -1      2473 1.29634E-01
 -1      2474 1.29792E-01
 -1      2475 1.03939E-01
 -1      2476 1.09279E-01
 -1      2477 1.13716E-01
 -1      2478 8.78883E-02
 -1      2479 9.49515E-02
 -1      2480 9.55122E-02
 -1      2481 7.00968E-02
 -1      2482 7.89191E-02
 -1      2483 7.75556E-02
 -1      2484 5.14031E-02
 -1      2485 6.15052E-02
 -1      2486 5.99947E-02
 -1      2487 5.05303E-02
 -1      2488 3.69478E-02
 -1      2489 3.04569E-02
 -1      2490 3.68529E-02
 -1      2491 3.93808E-02
 -1      2492 4.60951E-02
 -1      2493 3.93808E-02
 -1      2494 5.10743E-02
 -1      2495 5.24910E-02
 -1      2496 2.76084E+01
 -1      2497 3.11106E+01
 -1      2498 4.91001E-02
 -1      2499 4.41395E-02
 -1      2500 4.68908E-02
 -1      2501 5.61434E-02
 -1      2502 5.38422E-02
 -1      2503 5.88246E-02
 -1      2504 5.73402E-02
 -1      2505 5.68466E-02
 -1      2506 6.42698E-02
 -1      2507 5.99282E-02
 -1      2508 5.98821E-02
 -1      2509 6.75150E-02
 -1      2510 5.99282E-02
 -1      2511 5.99282E-02
 -1      2512 7.00569E-02
 -1      2513 5.50017E-02
 -1      2514 5.90667E-02
 -1      2515 6.91955E-02
 -1      2516 4.41496E-02
 -1      2517 4.89725E-02
 -1      2518 6.23048E-02
 -1      2519 7.05136E-02
 -1      2520 5.90023E-02
 -1      2521 7.11284E-02
 -1      2522 1.67578E+00
 -1      2523 1.30744E+00
 -1      2524 8.40019E-01
 -1      2525 9.71408E-01
 -1      2526 1.37889E+01
 -1      2527 1.94177E+01
 -1      2528 8.50512E+00
 -1      2529 1.16009E+01
 -1      2530 2.88863E+01
 -1      2531 2.31598E+01
 -1      2532 5.40084E+00
 -1      2533 6.49426E+00
 -1      2534 3.46129E+01
 -1      2535 3.46129E+01
 -1      2536 3.11106E+01
 -1      2537 5.21089E-01
 -1      2538 5.43105E-01
 -1      2539 4.70460E-01
 -1      2540 4.42961E-01
 -1      2541 9.17590E+00
 -1      2542 8.82776E+00
 -1      2543 3.93232E+01
 -1      2544 3.93232E+01
 -1      2545 7.81342E+00
 -1      2546 6.67171E+00
 -1      2547 9.64645E+00
 -1      2548 9.35157E+00
 -1      2549 7.86864E+00
 -1      2550 7.40648E+00
 -1      2551 8.61921E+00
 -1      2552 5.07764E+00
 -1      2553 9.06502E+00
 -1      2554 6.65961E+00
 -1      2555 1.50928E+01
 -1      2556 1.07758E+01
 -1      2557 2.41526E+01
 -1      2558 1.70956E+01
 -1      2559 3.17050E+01
 -1      2560 2.91409E+01
 -1      2561 2.69064E+01
 -1      2562 3.31148E+01
 -1      2563 2.39293E+01
 -1      2564 2.36910E+01
 -1      2565 1.44291E+01
 -1      2566 2.00803E+01
 -1      2567 8.52379E+00
 -1      2568 1.20272E+01
 -1      2569 1.48194E+01
 -1      2570 1.06075E+01
 -1      2571 1.89830E+01
 -1      2572 1.71425E+01
 -1      2573 1.89830E+01
 -1      2574 5.05303E-02
 -1      2575 7.24568E+00
 -1      2576 6.70227E+00
 -1      2577 5.09041E-01
 -1      2578 6.47817E-01
 -1      2579 7.09753E-01
 -1      2580 1.32993E+00
 -1      2581 1.03099E+00
 -1      2582 1.05535E+00
 -1      2583 8.70641E+00
 -1      2584 1.01221E+01
 -1      2585 6.86526E-01
 -1      2586 7.63742E-01
 -1      2587 6.70253E-01
 -1      2588 4.85814E-01
 -1      2589 6.64461E+00
 -1      2590 2.36953E+01
 -1      2591 6.67862E+00
 -1      2592 6.34328E+00
 -1      2593 8.97264E+00
 -1      2594 7.37051E+00
 -1      2595 8.80218E+00
 -1      2596 8.88324E-01
 -1      2597 9.99606E-01
 -1      2598 6.90303E-01
 -1      2599 6.65397E-01
 -1      2600 5.19471E-02
 -1      2601 9.86762E+00
 -1      2602 9.24230E+00
 -1      2603 5.42420E+00
 -1      2604 1.47815E+01
 -1      2605 1.03757E+01
 -1      2606 1.66265E+01
 -1      2607 2.36910E+01
 -1      2608 2.89924E+01
 -1      2609 2.13742E+01
 -1      2610 2.89924E+01
 -1      2611 1.90985E+01
 -1      2612 1.21074E+01
 -1      2613 2.60670E+01
 -1      2614 2.03404E+01
 -1      2615 2.60670E+01
 -1      2616 1.59189E+01
 -1      2617 5.63691E+00
 -1      2618 3.31148E+01
 -1      2619 8.39378E+00
 -1      2620 6.67429E+00
 -1      2621 8.22539E+00
 -1      2622 6.56522E+00
 -1      2623 6.93611E+00
 -1      2624 9.67276E+00
 -1      2625 7.05136E-02
 -1      2626 8.59811E-02
 -1      2627 4.90760E+00
 -1      2628 6.38621E+00
 -1      2629 5.41483E+00
 -1      2630 6.44989E+00
 -1      2631 4.21260E-01
 -1      2632 4.06503E-01
 -1      2633 3.98716E-01
 -1      2634 3.85850E-01
 -1      2635 3.49456E-01
 -1      2636 4.34712E-01
 -1      2637 4.34712E-01
 -1      2638 4.20521E-01
 -1      2639 4.24175E-01
 -1      2640 3.49818E-01
 -1      2641 9.54105E-01
 -1      2642 6.14415E-01
 -1      2643 6.69161E-01
 -1      2644 9.45462E-02
 -1      2645 9.05414E+00
 -1      2646 7.71320E+00
 -1      2647 5.52876E-01
 -1      2648 4.96028E-01
 -1      2649 4.89063E-01
 -1      2650 4.30647E-01
 -1      2651 3.91219E-01
 -1      2652 4.08269E-01
 -1      2653 3.60185E-01
 -1      2654 3.61875E-01
 -1      2655 3.33312E-01
 -1      2656 3.09983E-01
 -1      2657 3.12623E-01
 -1      2658 2.85306E-01
 -1      2659 2.60649E-01
 -1      2660 2.61072E-01
 -1      2661 2.43841E-01
 -1      2662 2.20057E-01
 -1      2663 2.19587E-01
 -1      2664 2.01138E-01
 -1      2665 1.78896E-01
 -1      2666 1.83861E-01
 -1      2667 1.58379E-01
 -1      2668 1.37425E-01
 -1      2669 1.44425E-01
 -1      2670 1.15578E-01
 -1      2671 1.11926E-01
 -1      2672 1.02060E-01
 -1      2673 1.15120E-01
 -1      2674 1.25638E-01
 -1      2675 8.34065E-02
 -1      2676 1.61394E-01
 -1      2677 2.08741E-01
 -1      2678 1.22356E-01
 -1      2679 2.65065E-01
 -1      2680 3.33115E-01
 -1      2681 2.14435E-01
 -1      2682 4.15113E-01
 -1      2683 5.06140E-01
 -1      2684 3.52757E-01
 -1      2685 6.21324E-01
 -1      2686 7.44384E-01
 -1      2687 5.49939E-01
 -1      2688 9.18160E-01
 -1      2689 1.09255E+00
 -1      2690 8.38900E-01
 -1      2691 1.32621E+00
 -1      2692 1.56194E+00
 -1      2693 1.24634E+00
 -1      2694 1.89381E+00
 -1      2695 2.21843E+00
 -1      2696 1.81188E+00
 -1      2697 2.69931E+00
 -1      2698 3.16178E+00
 -1      2699 2.62464E+00
 -1      2700 3.90406E+00
 -1      2701 4.57774E+00
 -1      2702 3.84781E+00
 -1      2703 6.10863E+00
 -1      2704 7.10541E+00
 -1      2705 6.12098E+00
 -1      2706 7.25542E+00
 -1      2707 7.95189E+00
 -1      2708 7.80188E+00
 -1      2709 6.69910E-02
 -1      2710 6.64470E-02
 -1      2711 7.50387E-02
 -1      2712 9.58588E+00
 -1      2713 8.83158E+00
 -1      2714 5.31093E+00
 -1      2715 4.61175E+00
 -1      2716 9.03954E+00
 -1      2717 3.68685E+00
 -1      2718 3.18380E+00
 -1      2719 4.59399E+00
 -1      2720 2.60805E+00
 -1      2721 2.23600E+00
 -1      2722 3.09334E+00
 -1      2723 1.84407E+00
 -1      2724 1.57152E+00
 -1      2725 2.12565E+00
 -1      2726 1.30210E+00
 -1      2727 1.10238E+00
 -1      2728 1.46430E+00
 -1      2729 9.09335E-01
 -1      2730 7.62313E-01
 -1      2731 1.00183E+00
 -1      2732 6.26499E-01
 -1      2733 5.16657E-01
 -1      2734 6.72977E-01
 -1      2735 4.25924E-01
 -1      2736 3.50181E-01
 -1      2737 4.46430E-01
 -1      2738 2.91497E-01
 -1      2739 2.37057E-01
 -1      2740 2.97011E-01
 -1      2741 2.01900E-01
 -1      2742 1.63048E-01
 -1      2743 2.03170E-01
 -1      2744 1.36493E-01
 -1      2745 1.09007E-01
 -1      2746 1.41458E-01
 -1      2747 4.16667E-01
 -1      2748 4.76341E-01
 -1      2749 3.53897E-01
 -1      2750 3.88331E-01
 -1      2751 3.58596E-01
 -1      2752 4.98358E-01
 -1      2753 5.63600E-01
 -1      2754 4.08949E-01
 -1      2755 2.50485E-01
 -1      2756 2.77377E-01
 -1      2757 2.06988E-01
 -1      2758 2.32098E-01
 -1      2759 2.13512E-01
 -1      2760 1.65132E-01
 -1      2761 1.88026E-01
 -1      2762 1.76162E-01
 -1      2763 1.25741E-01
 -1      2764 1.46505E-01
 -1      2765 1.38573E-01
 -1      2766 9.56316E-02
 -1      2767 1.07960E-01
 -1      2768 1.02166E-01
 -1      2769 9.14996E-02
 -1      2770 9.01015E-02
 -1      2771 7.88555E-02
 -1      2772 9.58358E-02
 -1      2773 9.43725E-02
 -1      2774 7.61982E-02
 -1      2775 1.07396E-01
 -1      2776 1.06217E-01
 -1      2777 8.94526E-02
 -1      2778 1.27798E-01
 -1      2779 1.19047E-01
 -1      2780 1.11485E-01
 -1      2781 1.44690E-01
 -1      2782 1.43653E-01
 -1      2783 1.38991E-01
 -1      2784 1.78384E-01
 -1      2785 1.58185E-01
 -1      2786 1.68341E-01
 -1      2787 2.40098E-01
 -1      2788 2.18314E-01
 -1      2789 2.21765E-01
 -1      2790 3.17196E-01
 -1      2791 2.85214E-01
 -1      2792 3.06812E-01
 -1      2793 4.46011E-01
 -1      2794 3.64237E-01
 -1      2795 3.98969E-01
 -1      2796 6.19812E-01
 -1      2797 5.32911E-01
 -1      2798 5.32911E-01
 -1      2799 8.40601E-01
 -1      2800 7.17815E-01
 -1      2801 7.17815E-01
 -1      2802 1.02122E+00
 -1      2803 9.14033E-01
 -1      2804 8.89250E-01
 -1      2805 1.15935E+00
 -1      2806 1.09379E+00
 -1      2807 1.03526E+00
 -1      2808 1.27023E+00
 -1      2809 1.21087E+00
 -1      2810 1.15935E+00
 -1      2811 1.33570E+00
 -1      2812 1.33634E+00
 -1      2813 1.27698E+00
 -1      2814 1.24794E+00
 -1      2815 1.27891E+00
 -1      2816 1.28630E+00
 -1      2817 1.31619E+00
 -1      2818 1.27940E+00
 -1      2819 1.26097E+00
 -1      2820 1.31871E+00
 -1      2821 1.33392E+00
 -1      2822 1.31016E+00
 -1      2823 1.17693E+00
 -1      2824 1.24449E+00
 -1      2825 1.25365E+00
 -1      2826 1.05183E+00
 -1      2827 1.12431E+00
 -1      2828 1.12680E+00
 -1      2829 8.65441E-01
 -1      2830 9.81311E-01
 -1      2831 1.00367E+00
 -1      2832 6.67013E-01
 -1      2833 7.79975E-01
 -1      2834 8.47687E-01
 -1      2835 4.84002E-01
 -1      2836 5.71806E-01
 -1      2837 6.67013E-01
 -1      2838 3.31323E-01
 -1      2839 4.06321E-01
 -1      2840 4.94125E-01
 -1      2841 2.66459E-01
 -1      2842 2.86970E-01
 -1      2843 3.72091E-01
 -1      2844 2.00528E-01
 -1      2845 2.22421E-01
 -1      2846 2.83700E-01
 -1      2847 1.65060E-01
 -1      2848 1.74253E-01
 -1      2849 2.13386E-01
 -1      2850 1.51284E-01
 -1      2851 1.54464E-01
 -1      2852 1.76514E-01
 -1      2853 1.32069E-01
 -1      2854 1.38927E-01
 -1      2855 1.53561E-01
 -1      2856 1.11655E-01
 -1      2857 1.20871E-01
 -1      2858 1.30007E-01
 -1      2859 1.02993E-01
 -1      2860 1.11980E-01
 -1      2861 1.19135E-01
 -1      2862 8.99295E-02
 -1      2863 9.88988E-02
 -1      2864 1.15366E-01
 -1      2865 9.63819E-02
 -1      2866 5.73455E-02
 -1      2867 6.37414E-02
 -1      2868 6.98142E-02
 -1      2869 6.50721E-02
 -1      2870 6.69910E-02
 -1      2871 6.11225E+00
 -1      2872 5.09791E+00
 -1      2873 6.50721E-02
 -1      2874 5.78804E-02
 -1      2875 7.55268E-02
 -1      2876 7.60617E-02
 -1      2877 2.96644E-01
 -1      2878 3.23983E-01
 -1      2879 3.00346E-01
 -1      2880 2.51166E-01
 -1      2881 7.74716E-02
 -1      2882 7.49296E-02
 -1      2883 8.32483E-02
 -1      2884 8.32483E-02
 -1      2885 9.06630E-02
 -1      2886 8.23869E-02
 -1      2887 8.32483E-02
 -1      2888 9.64398E-02
 -1      2889 7.52438E-02
 -1      2890 8.12730E-02
 -1      2891 9.53259E-02
 -1      2892 6.12113E-01
 -1      2893 5.74212E-01
 -1      2894 4.04447E-01
 -1      2895 1.77745E+01
 -1      2896 2.16876E+01
 -1      2897 1.81753E+01
 -1      2898 1.39985E+01
 -1      2899 7.58574E+00
 -1      2900 9.77368E+00
 -1      2901 4.79646E+00
 -1      2902 3.53769E+00
 -1      2903 2.06134E+01
 -1      2904 2.41157E+01
 -1      2905 7.45676E-02
 -1      2906 7.38644E-02
 -1      2907 8.45242E-02
 -1      2908 1.12030E+01
 -1      2909 1.50664E+01
 -1      2910 5.96282E-01
 -1      2911 5.49007E-01
 -1      2912 3.94315E-01
 -1      2913 3.68376E-01
 -1      2914 4.30701E+00
 -1      2915 4.27964E+00
 -1      2916 4.34712E-01
 -1      2917 4.22816E-01
 -1      2918 3.58799E-01
 -1      2919 3.60355E-01
 -1      2920 1.91301E+01
 -1      2921 1.41417E+01
 -1      2922 2.12441E+01
 -1      2923 2.74525E+01
 -1      2924 6.92665E+00
 -1      2925 6.75097E+00
 -1      2926 3.90168E+00
 -1      2927 4.81389E+00
 -1      2928 3.27394E+00
 -1      2929 1.18043E+01
 -1      2930 9.80155E+00
 -1      2931 4.22825E-01
 -1      2932 4.34831E-01
 -1      2933 8.27944E+00
 -1      2934 6.56864E+00
 -1      2935 1.79428E+01
 -1      2936 2.11583E+01
 -1      2937 1.00442E-01
 -1      2938 1.18359E+01
 -1      2939 3.41556E-01
 -1      2940 3.85737E-01
 -1      2941 3.98667E-01
 -1      2942 5.47019E-01
 -1      2943 1.14560E+01
 -1      2944 5.55998E+00
 -1      2945 5.91341E+00
 -1      2946 4.38401E+00
 -1      2947 7.82414E-02
 -1      2948 3.74064E+00
 -1      2949 9.04315E+00
 -1      2950 1.01344E+01
 -1      2951 1.46926E+01
 -1      2952 9.90116E+00
 -1      2953 1.28755E+01
 -1      2954 4.24857E-01
 -1      2955 5.57490E-01
 -1      2956 6.12552E+00
 -1      2957 8.01119E-02
 -1      2958 9.91183E+00
 -1      2959 1.46278E+01
 -1      2960 1.26200E+01
 -1      2961 5.26654E-01
 -1      2962 4.06127E-01
 -1      2963 4.20696E-01
 -1      2964 3.58492E-01
 -1      2965 3.48903E-01
 -1      2966 5.17026E+00
 -1      2967 1.53559E+01
 -1      2968 4.08492E+00
 -1      2969 8.40170E-02
 -1      2970 6.91643E-02
 -1      2971 8.92111E+00
 -1      2972 7.97640E+00
 -1      2973 6.35595E+00
 -1      2974 2.63599E+01
 -1      2975 1.60292E+01
 -1      2976 1.44892E+01
 -1      2977 2.41157E+01
 -1      2978 1.55698E+01
 -1      2979 1.36184E+01
 -1      2980 6.14718E+00
 -1      2981 6.82098E+00
 -1      2982 5.70331E+00
 -1      2983 1.24452E+01
 -1      2984 5.22180E+00
 -1      2985 3.33529E+00
 -1      2986 5.10746E+00
 -1      2987 1.16375E+01
 -1      2988 4.65779E-01
 -1      2989 9.04315E+00
 -1      2990 1.54959E+01
 -1      2991 1.64175E+01
 -1      2992 3.60621E-01
 -1      2993 4.34831E-01
 -1      2994 4.34831E-01
 -1      2995 8.81325E-02
 -1      2996 1.14560E+01
 -1      2997 1.53049E+01
 -1      2998 1.27723E+01
 -1      2999 2.90290E-01
 -1      3000 3.00827E-01
 -1      3001 6.13419E-01
 -1      3002 1.20246E-01
 -1      3003 1.20246E-01
 -1      3004 3.17302E-01
 -1      3005 3.10337E-01
 -1      3006 4.04831E-01
 -1      3007 3.81604E-01
 -1      3008 3.23464E-01
 -1      3009 3.30621E-01
 -1      3010 3.29605E-01
 -1      3011 3.23494E-01
 -1      3012 3.19756E-01
 -1      3013 2.97378E-01
 -1      3014 2.45840E-01
 -1      3015 2.91462E-01
 -1      3016 2.64589E-01
 -1      3017 2.49343E-01
 -1      3018 2.50602E-01
 -1      3019 2.25925E-01
 -1      3020 2.29441E-01
 -1      3021 2.07666E-01
 -1      3022 1.90858E-01
 -1      3023 1.97195E-01
 -1      3024 1.77513E-01
 -1      3025 1.58594E-01
 -1      3026 1.65591E-01
 -1      3027 1.42722E-01
 -1      3028 1.22204E-01
 -1      3029 1.36373E-01
 -1      3030 1.03544E-01
 -1      3031 8.16966E-02
 -1      3032 1.01841E-01
 -1      3033 8.57115E-02
 -1      3034 8.89058E-02
 -1      3035 8.71958E-02
 -1      3036 1.10141E-01
 -1      3037 1.45896E-01
 -1      3038 1.12446E-01
 -1      3039 1.94025E-01
 -1      3040 2.50349E-01
 -1      3041 1.81810E-01
 -1      3042 3.14733E-01
 -1      3043 3.96732E-01
 -1      3044 2.94324E-01
 -1      3045 4.84802E-01
 -1      3046 5.99986E-01
 -1      3047 4.46779E-01
 -1      3048 7.36439E-01
 -1      3049 9.10216E-01
 -1      3050 6.71302E-01
 -1      3051 1.08167E+00
 -1      3052 1.31534E+00
 -1      3053 9.79212E-01
 -1      3054 1.57950E+00
 -1      3055 1.91138E+00
 -1      3056 1.41484E+00
 -1      3057 2.32380E+00
 -1      3058 2.80468E+00
 -1      3059 2.09143E+00
 -1      3060 3.42863E+00
 -1      3061 4.17091E+00
 -1      3062 3.12779E+00
 -1      3063 6.12098E+00
 -1      3064 7.65187E+00
 -1      3065 5.70181E+00
 -1      3066 1.24026E+01
 -1      3067 1.13285E+01
 -1      3068 5.05512E-01
 -1      3069 3.79014E-01
 -1      3070 5.16538E+00
 -1      3071 4.24048E+00
 -1      3072 3.42053E+00
 -1      3073 2.84478E+00
 -1      3074 3.99192E+00
 -1      3075 2.31433E+00
 -1      3076 1.92240E+00
 -1      3077 2.64152E+00
 -1      3078 1.58415E+00
 -1      3079 1.31473E+00
 -1      3080 1.77283E+00
 -1      3081 1.08955E+00
 -1      3082 8.96504E-01
 -1      3083 1.20940E+00
 -1      3084 7.40924E-01
 -1      3085 6.05110E-01
 -1      3086 8.28637E-01
 -1      3087 5.00688E-01
 -1      3088 4.09955E-01
 -1      3089 5.68635E-01
 -1      3090 3.36323E-01
 -1      3091 2.77639E-01
 -1      3092 3.90582E-01
 -1      3093 2.25411E-01
 -1      3094 1.90254E-01
 -1      3095 2.64723E-01
 -1      3096 1.68173E-01
 -1      3097 1.41617E-01
 -1      3098 1.90414E-01
 -1      3099 2.97965E-01
 -1      3100 3.26300E-01
 -1      3101 3.27181E-01
 -1      3102 3.49199E-01
 -1      3103 2.47836E-01
 -1      3104 2.66550E-01
 -1      3105 1.50611E-01
 -1      3106 1.69574E-01
 -1      3107 1.84132E-01
 -1      3108 2.02519E-01
 -1      3109 1.58581E-01
 -1      3110 7.88138E-02
 -1      3111 9.65943E-02
 -1      3112 5.60856E-02
 -1      3113 6.16157E-02
 -1      3114 5.60439E-02
 -1      3115 6.54753E-02
 -1      3116 6.26024E-02
 -1      3117 4.53626E-02
 -1      3118 9.47157E-02
 -1      3119 8.43342E-02
 -1      3120 7.07384E-02
 -1      3121 1.24542E-01
 -1      3122 1.12891E-01
 -1      3123 1.07772E-01
 -1      3124 1.59347E-01
 -1      3125 1.43492E-01
 -1      3126 1.44898E-01
 -1      3127 1.99013E-01
 -1      3128 1.85518E-01
 -1      3129 1.90019E-01
 -1      3130 2.64781E-01
 -1      3131 2.24851E-01
 -1      3132 2.42028E-01
 -1      3133 3.59706E-01
 -1      3134 3.14589E-01
 -1      3135 3.17675E-01
 -1      3136 4.80809E-01
 -1      3137 4.33768E-01
 -1      3138 4.41545E-01
 -1      3139 6.43239E-01
 -1      3140 5.56338E-01
 -1      3141 5.91137E-01
 -1      3142 8.15818E-01
 -1      3143 7.17815E-01
 -1      3144 7.41242E-01
 -1      3145 9.94422E-01
 -1      3146 9.20990E-01
 -1      3147 9.20990E-01
 -1      3148 1.14802E+00
 -1      3149 1.07545E+00
 -1      3150 1.10719E+00
 -1      3151 1.22354E+00
 -1      3152 1.17202E+00
 -1      3153 1.21221E+00
 -1      3154 1.43313E+00
 -1      3155 1.36702E+00
 -1      3156 1.37968E+00
 -1      3157 1.46932E+00
 -1      3158 1.52611E+00
 -1      3159 1.61614E+00
 -1      3160 1.40941E+00
 -1      3161 1.37794E+00
 -1      3162 1.61775E+00
 -1      3163 1.45356E+00
 -1      3164 1.43583E+00
 -1      3165 1.55281E+00
 -1      3166 1.30876E+00
 -1      3167 1.38299E+00
 -1      3168 1.50867E+00
 -1      3169 1.12176E+00
 -1      3170 1.17438E+00
 -1      3171 1.30372E+00
 -1      3172 1.05671E+00
 -1      3173 1.12722E+00
 -1      3174 1.17480E+00
 -1      3175 8.62518E-01
 -1      3176 9.47984E-01
 -1      3177 1.07154E+00
 -1      3178 6.67013E-01
 -1      3179 7.62221E-01
 -1      3180 8.62518E-01
 -1      3181 5.22027E-01
 -1      3182 5.99708E-01
 -1      3183 6.94916E-01
 -1      3184 4.02206E-01
 -1      3185 4.46559E-01
 -1      3186 5.52142E-01
 -1      3187 2.86297E-01
 -1      3188 3.30335E-01
 -1      3189 4.04803E-01
 -1      3190 2.27094E-01
 -1      3191 2.53370E-01
 -1      3192 3.00004E-01
 -1      3193 1.92411E-01
 -1      3194 2.03007E-01
 -1      3195 2.42990E-01
 -1      3196 1.58305E-01
 -1      3197 1.70662E-01
 -1      3198 1.97154E-01
 -1      3199 1.30619E-01
 -1      3200 1.41816E-01
 -1      3201 1.58917E-01
 -1      3202 1.31811E-01
 -1      3203 1.31486E-01
 -1      3204 1.43295E-01
 -1      3205 3.60539E+00
 -1      3206 2.81449E+00
 -1      3207 1.29245E-01
 -1      3208 1.30359E-01
 -1      3209 1.54164E-01
 -1      3210 1.04548E-01
 -1      3211 9.87709E-02
 -1      3212 1.28353E-01
 -1      3213 9.84779E-02
 -1      3214 6.53984E+00
 -1      3215 7.96915E+00
 -1      3216 1.18039E+01
 -1      3217 9.46644E+00
 -1      3218 4.62880E+00
 -1      3219 5.76465E+00
 -1      3220 8.93856E-02
 -1      3221 8.90235E-02
 -1      3222 1.03270E-01
 -1      3223 1.50406E+01
 -1      3224 7.93303E+00
 -1      3225 6.41093E+00
 -1      3226 8.01951E-02
 -1      3227 7.61449E-02
 -1      3228 8.50565E-02
 -1      3229 2.59287E+00
 -1      3230 2.95686E+00
 -1      3231 1.07535E+01
 -1      3232 7.23289E+00
 -1      3233 6.87937E+00
 -1      3234 9.31323E-02
 -1      3235 9.63819E-02
 -1      3236 1.11273E-01
 -1      3237 4.84111E+00
 -1      3238 4.20239E+00
 -1      3239 2.77903E+00
 -1      3240 3.91422E+00
 -1      3241 3.32292E+00
 -1      3242 1.16810E+01
 -1      3243 1.25192E-01
 -1      3244 1.48168E+01
 -1      3245 1.25726E+01
 -1      3246 1.15009E-01
 -1      3247 1.33635E-01
 -1      3248 1.27046E-01
 -1      3249 9.16563E-02
 -1      3250 1.31272E-01
 -1      3251 3.22016E-01
 -1      3252 3.14229E-01
 -1      3253 8.70784E+00
 -1      3254 1.24370E+01
 -1      3255 1.25228E+01
 -1      3256 3.10897E-01
 -1      3257 3.10785E-01
 -1      3258 2.83458E-01
 -1      3259 7.90097E+00
 -1      3260 1.02032E+01
 -1      3261 3.36082E-01
 -1      3262 2.55200E-01
 -1      3263 3.32213E-01
 -1      3264 3.45533E-01
 -1      3265 3.52678E+00
 -1      3266 4.27287E+00
 -1      3267 2.84572E+00
 -1      3268 8.83532E+00
 -1      3269 1.11253E+01
 -1      3270 1.11253E+01
 -1      3271 9.25589E+00
 -1      3272 8.55783E+00
 -1      3273 2.64379E+00
 -1      3274 3.30023E-01
 -1      3275 3.21869E-01
 -1      3276 3.23998E-01
 -1      3277 2.86310E-01
 -1      3278 2.54015E-01
 -1      3279 2.56397E-01
 -1      3280 1.90593E-01
 -1      3281 2.19973E-01
 -1      3282 2.39239E-01
 -1      3283 2.34770E-01
 -1      3284 3.27624E+00
 -1      3285 1.15366E-01
 -1      3286 1.19460E-01
 -1      3287 1.31811E-01
 -1      3288 1.15366E-01
 -1      3289 7.96787E+00
 -1      3290 7.52927E+00
 -1      3291 5.58659E+00
 -1      3292 5.36387E+00
 -1      3293 7.74530E-02
 -1      3294 7.69181E-02
 -1      3295 9.50585E-02
 -1      3296 5.48262E+00
 -1      3297 4.53067E+00
 -1      3298 3.75548E+00
 -1      3299 2.87375E-01
 -1      3300 3.23998E-01
 -1      3301 3.23998E-01
 -1      3302 1.66305E-01
 -1      3303 2.60184E-01
 -1      3304 3.19713E-01
 -1      3305 3.19713E-01
 -1      3306 1.14302E+01
 -1      3307 4.73987E+00
 -1      3308 4.84555E+00
 -1      3309 3.87767E+00
 -1      3310 8.55783E+00
 -1      3311 4.91278E+00
 -1      3312 3.56594E+00
 -1      3313 4.86941E+00
 -1      3314 1.21843E+01
 -1      3315 7.60617E-02
 -1      3316 7.60617E-02
 -1      3317 7.74530E-02
 -1      3318 7.61449E-02
 -1      3319 2.87835E+00
 -1      3320 2.56127E+00
 -1      3321 3.30368E+00
 -1      3322 1.30893E+01
 -1      3323 3.23572E-01
 -1      3324 3.22016E-01
 -1      3325 2.86790E-01
 -1      3326 2.82930E-01
 -1      3327 1.12827E+01
 -1      3328 1.89956E-01
 -1      3329 1.99375E-01
 -1      3330 2.13259E-01
 -1      3331 2.07342E-01
 -1      3332 1.57374E-01
 -1      3333 2.08872E-01
 -1      3334 1.94886E-01
 -1      3335 1.72787E-01
 -1      3336 1.88300E-01
 -1      3337 1.70041E-01
 -1      3338 1.67731E-01
 -1      3339 1.58263E-01
 -1      3340 1.44918E-01
 -1      3341 1.49368E-01
 -1      3342 1.35471E-01
 -1      3343 1.19598E-01
 -1      3344 1.28143E-01
 -1      3345 1.08978E-01
 -1      3346 9.03184E-02
 -1      3347 1.08076E-01
 -1      3348 9.57982E-02
 -1      3349 9.98132E-02
 -1      3350 1.02936E-01
 -1      3351 1.08248E-01
 -1      3352 1.29483E-01
 -1      3353 1.16851E-01
 -1      3354 1.54995E-01
 -1      3355 2.03124E-01
 -1      3356 1.50797E-01
 -1      3357 2.47701E-01
 -1      3358 3.12086E-01
 -1      3359 2.20886E-01
 -1      3360 3.69610E-01
 -1      3361 4.57680E-01
 -1      3362 3.22988E-01
 -1      3363 5.45837E-01
 -1      3364 6.82289E-01
 -1      3365 4.68668E-01
 -1      3366 7.80682E-01
 -1      3367 9.52140E-01
 -1      3368 6.55217E-01
 -1      3369 1.12239E+00
 -1      3370 1.38655E+00
 -1      3371 9.23858E-01
 -1      3372 1.66944E+00
 -1      3373 2.08186E+00
 -1      3374 1.37699E+00
 -1      3375 2.53531E+00
 -1      3376 3.15925E+00
 -1      3377 2.11332E+00
 -1      3378 5.06844E+00
 -1      3379 7.01851E+00
 -1      3380 4.47596E+00
 -1      3381 3.21497E-01
 -1      3382 2.87003E-01
 -1      3383 3.14037E-01
 -1      3384 3.98445E+00
 -1      3385 3.16450E+00
 -1      3386 2.58559E+00
 -1      3387 2.05514E+00
 -1      3388 2.57812E+00
 -1      3389 1.72558E+00
 -1      3390 1.38734E+00
 -1      3391 1.66965E+00
 -1      3392 1.18956E+00
 -1      3393 9.64379E-01
 -1      3394 1.14231E+00
 -1      3395 8.29315E-01
 -1      3396 6.73735E-01
 -1      3397 8.09477E-01
 -1      3398 5.80587E-01
 -1      3399 4.76166E-01
 -1      3400 5.81266E-01
 -1      3401 4.07607E-01
 -1      3402 3.33976E-01
 -1      3403 4.19560E-01
 -1      3404 2.83531E-01
 -1      3405 2.31304E-01
 -1      3406 3.00556E-01
 -1      3407 1.98676E-01
 -1      3408 1.76594E-01
 -1      3409 1.74567E-01
 -1      3410 2.17484E-01
 -1      3411 1.38631E-01
 -1      3412 1.53190E-01
 -1      3413 5.78935E-02
 -1      3414 5.13766E-02
 -1      3415 5.46585E-02
 -1      3416 7.18567E-02
 -1      3417 6.71894E-02
 -1      3418 1.23907E-01
 -1      3419 1.05732E-01
 -1      3420 1.67678E-01
 -1      3421 1.48728E-01
 -1      3422 1.46688E-01
 -1      3423 2.21690E-01
 -1      3424 1.95518E-01
 -1      3425 1.99349E-01
 -1      3426 2.87023E-01
 -1      3427 2.61186E-01
 -1      3428 2.66685E-01
 -1      3429 3.85992E-01
 -1      3430 3.36184E-01
 -1      3431 3.55341E-01
 -1      3432 5.15607E-01
 -1      3433 4.41545E-01
 -1      3434 4.60054E-01
 -1      3435 6.86031E-01
 -1      3436 6.10501E-01
 -1      3437 6.10501E-01
 -1      3438 8.83348E-01
 -1      3439 8.08772E-01
 -1      3440 8.28137E-01
 -1      3441 1.09209E+00
 -1      3442 9.86920E-01
 -1      3443 1.05445E+00
 -1      3444 1.22782E+00
 -1      3445 1.14679E+00
 -1      3446 1.21272E+00
 -1      3447 1.75008E+00
 -1      3448 1.72609E+00
 -1      3449 1.76569E+00
 -1      3450 2.02245E+00
 -1      3451 1.87897E+00
 -1      3452 2.39285E+00
 -1      3453 2.54227E+00
 -1      3454 2.44929E+00
 -1      3455 2.94858E+00
 -1      3456 2.19151E+00
 -1      3457 2.28288E+00
 -1      3458 3.11603E+00
 -1      3459 1.57924E+00
 -1      3460 1.55281E+00
 -1      3461 2.21794E+00
 -1      3462 1.67536E+00
 -1      3463 1.74592E+00
 -1      3464 1.74592E+00
 -1      3465 1.30372E+00
 -1      3466 1.43810E+00
 -1      3467 1.67536E+00
 -1      3468 1.36422E+00
 -1      3469 1.35876E+00
 -1      3470 1.49314E+00
 -1      3471 1.11231E+00
 -1      3472 1.22104E+00
 -1      3473 1.40499E+00
 -1      3474 9.13823E-01
 -1      3475 1.01412E+00
 -1      3476 1.16361E+00
 -1      3477 7.61399E-01
 -1      3478 8.28704E-01
 -1      3479 9.80307E-01
 -1      3480 5.61563E-01
 -1      3481 6.37031E-01
 -1      3482 7.70820E-01
 -1      3483 4.08029E-01
 -1      3484 4.79901E-01
 -1      3485 5.64789E-01
 -1      3486 3.27195E-01
 -1      3487 3.60122E-01
 -1      3488 4.35220E-01
 -1      3489 2.57051E-01
 -1      3490 2.81138E-01
 -1      3491 3.41256E-01
 -1      3492 2.02041E-01
 -1      3493 2.23790E-01
 -1      3494 2.61937E-01
 -1      3495 1.61191E-01
 -1      3496 1.77680E-01
 -1      3497 2.04315E-01
 -1      3498 1.58720E-01
 -1      3499 1.57853E-01
 -1      3500 1.76616E-01
 -1      3501 1.82979E-01
 -1      3502 1.89507E-01
 -1      3503 2.08393E-01
 -1      3504 1.65318E-01
 -1      3505 1.55205E-01
 -1      3506 1.75608E-01
 -1      3507 1.31642E-01
 -1      3508 1.15945E-01
 -1      3509 1.42796E-01
 -1      3510 2.31195E+00
 -1      3511 2.27649E+00
 -1      3512 1.22610E-01
 -1      3513 1.13225E-01
 -1      3514 1.25899E-01
 -1      3515 8.37366E+00
 -1      3516 8.15632E+00
 -1      3517 1.13225E-01
 -1      3518 1.04397E-01
 -1      3519 1.32565E-01
 -1      3520 9.51801E+00
 -1      3521 8.74921E+00
 -1      3522 2.87300E-01
 -1      3523 8.78949E+00
 -1      3524 1.13405E+01
 -1      3525 1.01281E+01
 -1      3526 2.80571E+00
 -1      3527 3.52030E+00
 -1      3528 9.07646E-02
 -1      3529 7.19056E-02
 -1      3530 7.79196E-02
 -1      3531 1.06899E-01
 -1      3532 3.22068E+00
 -1      3533 2.62369E+00
 -1      3534 4.25276E+00
 -1      3535 4.48653E+00
 -1      3536 6.91536E+00
 -1      3537 5.38195E+00
 -1      3538 2.93030E+00
 -1      3539 3.12498E+00
 -1      3540 2.66804E+00
 -1      3541 2.39877E+00
 -1      3542 2.96869E+00
 -1      3543 2.68425E+00
 -1      3544 7.83474E+00
 -1      3545 8.46810E+00
 -1      3546 7.44470E+00
 -1      3547 7.24147E+00
 -1      3548 6.56247E+00
 -1      3549 2.83378E-01
 -1      3550 2.25203E-01
 -1      3551 2.17965E-01
 -1      3552 2.18845E-01
 -1      3553 1.45965E-01
 -1      3554 1.65914E-01
 -1      3555 1.83368E-01
 -1      3556 2.13730E-01
 -1      3557 2.25384E-01
 -1      3558 1.77680E-01
 -1      3559 2.46971E-01
 -1      3560 2.28191E-01
 -1      3561 1.81726E-01
 -1      3562 6.42970E+00
 -1      3563 1.97464E-01
 -1      3564 1.77870E-01
 -1      3565 1.32607E-01
 -1      3566 1.48879E-01
 -1      3567 2.25640E+00
 -1      3568 7.74063E-02
 -1      3569 7.87917E-02
 -1      3570 9.72059E-02
 -1      3571 1.60041E-01
 -1      3572 1.74600E-01
 -1      3573 1.47691E-01
 -1      3574 4.79482E+00
 -1      3575 4.79353E+00
 -1      3576 3.73761E+00
 -1      3577 1.25521E-01
 -1      3578 1.29615E-01
 -1      3579 1.57845E-01
 -1      3580 1.09307E-01
 -1      3581 3.23827E+00
 -1      3582 2.53296E-01
 -1      3583 2.53669E-01
 -1      3584 6.66352E+00
 -1      3585 4.14451E+00
 -1      3586 5.97836E+00
 -1      3587 2.50368E-01
 -1      3588 2.47036E-01
 -1      3589 2.47388E+00
 -1      3590 3.62876E+00
 -1      3591 8.67420E+00
 -1      3592 3.39553E+00
 -1      3593 1.22806E-01
 -1      3594 9.46372E-02
 -1      3595 9.45541E-02
 -1      3596 4.70310E+00
 -1      3597 3.20495E+00
 -1      3598 3.71749E+00
 -1      3599 7.21951E+00
 -1      3600 5.15200E+00
 -1      3601 2.19962E-01
 -1      3602 2.53669E-01
 -1      3603 9.37406E+00
 -1      3604 2.50368E-01
 -1      3605 2.50368E-01
 -1      3606 2.13946E-01
 -1      3607 1.10964E-01
 -1      3608 1.27940E-01
 -1      3609 1.22549E-01
 -1      3610 9.80997E-02
 -1      3611 4.32459E+00
 -1      3612 3.17300E-01
 -1      3613 7.06212E+00
 -1      3614 6.38515E+00
 -1      3615 7.83474E+00
 -1      3616 7.22460E+00
 -1      3617 1.45291E-01
 -1      3618 1.46821E-01
 -1      3619 1.51013E-01
 -1      3620 1.44427E-01
 -1      3621 1.23517E-01
 -1      3622 1.41703E-01
 -1      3623 1.29925E-01
 -1      3624 1.24985E-01
 -1      3625 1.22429E-01
 -1      3626 1.12982E-01
 -1      3627 1.14764E-01
 -1      3628 1.11197E-01
 -1      3629 1.00577E-01
 -1      3630 1.05482E-01
 -1      3631 1.05649E-01
 -1      3632 1.11129E-01
 -1      3633 1.08770E-01
 -1      3634 1.17732E-01
 -1      3635 1.26167E-01
 -1      3636 1.20446E-01
 -1      3637 1.43739E-01
 -1      3638 1.69250E-01
 -1      3639 1.44620E-01
 -1      3640 1.97532E-01
 -1      3641 2.42110E-01
 -1      3642 1.90474E-01
 -1      3643 2.83215E-01
 -1      3644 3.40738E-01
 -1      3645 2.59861E-01
 -1      3646 4.11498E-01
 -1      3647 4.99654E-01
 -1      3648 3.71725E-01
 -1      3649 5.76571E-01
 -1      3650 6.74964E-01
 -1      3651 5.19401E-01
 -1      3652 7.93192E-01
 -1      3653 9.63439E-01
 -1      3654 7.14545E-01
 -1      3655 1.12869E+00
 -1      3656 1.41158E+00
 -1      3657 9.98023E-01
 -1      3658 1.79612E+00
 -1      3659 2.24956E+00
 -1      3660 1.54781E+00
 -1      3661 2.79531E+00
 -1      3662 4.70450E+00
 -1      3663 4.70450E+00
 -1      3664 2.47810E+00
 -1      3665 1.93224E-01
 -1      3666 2.10381E-01
 -1      3667 1.81751E-01
 -1      3668 1.68546E-01
 -1      3669 1.74736E+00
 -1      3670 1.41780E+00
 -1      3671 1.19836E+00
 -1      3672 1.00059E+00
 -1      3673 1.27607E+00
 -1      3674 8.24990E-01
 -1      3675 6.89926E-01
 -1      3676 8.81034E-01
 -1      3677 5.83324E-01
 -1      3678 4.90176E-01
 -1      3679 5.98837E-01
 -1      3680 4.15226E-01
 -1      3681 3.46667E-01
 -1      3682 4.17284E-01
 -1      3683 2.93510E-01
 -1      3684 2.43065E-01
 -1      3685 2.89176E-01
 -1      3686 2.18187E-01
 -1      3687 1.85559E-01
 -1      3688 1.76310E-01
 -1      3689 2.11140E-01
 -1      3690 3.34435E+00
 -1      3691 2.69181E+00
 -1      3692 2.32219E-01
 -1      3693 2.04379E-01
 -1      3694 1.76865E-01
 -1      3695 1.52044E-01
 -1      3696 2.09735E-01
 -1      3697 4.21407E-01
 -1      3698 3.72246E-01
 -1      3699 5.52151E-01
 -1      3700 4.96598E-01
 -1      3701 5.13503E-01
 -1      3702 7.54237E-01
 -1      3703 6.59343E-01
 -1      3704 6.95887E-01
 -1      3705 9.50878E-01
 -1      3706 8.28137E-01
 -1      3707 8.76979E-01
 -1      3708 1.56909E+00
 -1      3709 1.46552E+00
 -1      3710 1.46552E+00
 -1      3711 1.60204E+00
 -1      3712 1.54735E+00
 -1      3713 1.95842E+00
 -1      3714 2.26396E+00
 -1      3715 1.76569E+00
 -1      3716 2.10032E+00
 -1      3717 2.52174E+00
 -1      3718 2.39285E+00
 -1      3719 3.39553E+00
 -1      3720 2.96869E+00
 -1      3721 3.11603E+00
 -1      3722 3.37542E+00
 -1      3723 2.36404E+00
 -1      3724 2.19736E+00
 -1      3725 2.00312E+00
 -1      3726 2.24038E+00
 -1      3727 1.54818E+00
 -1      3728 1.49314E+00
 -1      3729 1.67281E+00
 -1      3730 1.81600E+00
 -1      3731 1.81600E+00
 -1      3732 1.16361E+00
 -1      3733 1.26180E+00
 -1      3734 1.67281E+00
 -1      3735 9.84304E-01
 -1      3736 1.06942E+00
 -1      3737 1.16761E+00
 -1      3738 7.78032E-01
 -1      3739 9.02400E-01
 -1      3740 9.91517E-01
 -1      3741 6.06604E-01
 -1      3742 6.88267E-01
 -1      3743 8.19847E-01
 -1      3744 4.66393E-01
 -1      3745 5.14301E-01
 -1      3746 6.37778E-01
 -1      3747 3.57086E-01
 -1      3748 4.03142E-01
 -1      3749 4.82223E-01
 -1      3750 2.73694E-01
 -1      3751 3.06956E-01
 -1      3752 3.68843E-01
 -1      3753 2.06373E-01
 -1      3754 2.30734E-01
 -1      3755 2.75752E-01
 -1      3756 1.73278E-01
 -1      3757 1.76616E-01
 -1      3758 2.03035E-01
 -1      3759 1.58577E-01
 -1      3760 2.29254E-01
 -1      3761 2.33114E-01
 -1      3762 1.53467E-01
 -1      3763 3.34879E+00
 -1      3764 3.36937E+00
 -1      3765 2.48683E-01
 -1      3766 2.51935E-01
 -1      3767 2.18601E-01
 -1      3768 2.15593E-01
 -1      3769 1.50602E-01
 -1      3770 1.27039E-01
 -1      3771 1.60554E-01
 -1      3772 2.53669E-01
 -1      3773 2.80678E-01
 -1      3774 5.67150E+00
 -1      3775 2.54345E+00
 -1      3776 2.77864E+00
 -1      3777 1.37120E-01
 -1      3778 1.37120E-01
 -1      3779 1.24217E-01
 -1      3780 1.30883E-01
 -1      3781 1.35437E-01
 -1      3782 1.32023E-01
 -1      3783 3.19443E-01
 -1      3784 2.79947E-01
 -1      3785 2.84977E-01
 -1      3786 7.91677E-02
 -1      3787 8.24496E-02
 -1      3788 1.07916E-01
 -1      3789 1.09307E-01
 -1      3790 1.39769E-01
 -1      3791 1.26408E-01
 -1      3792 2.57812E+00
 -1      3793 1.99921E+00
 -1      3794 1.74736E+00
 -1      3795 5.20398E+00
 -1      3796 6.04838E+00
 -1      3797 1.17616E-01
 -1      3798 1.31499E-01
 -1      3799 1.05532E-01
 -1      3800 5.13891E+00
 -1      3801 2.69172E+00
 -1      3802 3.38654E+00
 -1      3803 3.65069E+00
 -1      3804 1.27069E-01
 -1      3805 1.39793E-01
 -1      3806 5.13255E+00
 -1      3807 6.35826E+00
 -1      3808 5.64664E+00
 -1      3809 9.48016E-02
 -1      3810 8.28234E-02
 -1      3811 8.97584E-02
 -1      3812 3.85508E-01
 -1      3813 1.49804E-01
 -1      3814 1.42385E-01
 -1      3815 1.48879E-01
 -1      3816 1.27497E-01
 -1      3817 1.53467E-01
 -1      3818 1.21004E-01
 -1      3819 1.62366E-01
 -1      3820 1.32189E-01
 -1      3821 1.17222E-01
 -1      3822 2.39285E+00
 -1      3823 2.83606E+00
 -1      3824 1.96692E-01
 -1      3825 1.74600E-01
 -1      3826 1.74600E-01
 -1      3827 1.75921E-01
 -1      3828 4.29973E+00
 -1      3829 3.72082E+00
 -1      3830 3.65069E+00
 -1      3831 4.44246E+00
 -1      3832 4.06114E+00
 -1      3833 2.92228E+00
 -1      3834 2.48132E+00
 -1      3835 2.75597E+00
 -1      3836 5.46729E+00
 -1      3837 3.39481E+00
 -1      3838 3.64665E+00
 -1      3839 2.96779E+00
 -1      3840 1.07736E-01
 -1      3841 1.18428E-01
 -1      3842 1.12256E-01
 -1      3843 1.88694E-01
 -1      3844 1.88694E-01
 -1      3845 1.37120E-01
 -1      3846 1.27360E-01
 -1      3847 1.41675E-01
 -1      3848 1.82276E-01
 -1      3849 1.83923E-01
 -1      3850 2.54345E+00
 -1      3851 2.08382E+00
 -1      3852 1.82276E-01
 -1      3853 1.82276E-01
 -1      3854 1.50605E-01
 -1      3855 8.37074E-02
 -1      3856 9.89676E-02
 -1      3857 9.77195E-02
 -1      3858 2.05816E+00
 -1      3859 1.87334E-01
 -1      3860 1.88694E-01
 -1      3861 1.54016E-01
 -1      3862 1.57427E-01
 -1      3863 2.55535E+00
 -1      3864 5.00056E+00
 -1      3865 3.75432E+00
 -1      3866 2.27563E+00
 -1      3867 1.12090E-01
 -1      3868 1.09366E-01
 -1      3869 1.11453E-01
 -1      3870 1.03957E-01
 -1      3871 9.85591E-02
 -1      3872 1.06757E-01
 -1      3873 1.04972E-01
 -1      3874 1.03447E-01
 -1      3875 1.10195E-01
 -1      3876 1.15267E-01
 -1      3877 1.11470E-01
 -1      3878 1.22378E-01
 -1      3879 1.28981E-01
 -1      3880 1.23802E-01
 -1      3881 1.41125E-01
 -1      3882 1.58697E-01
 -1      3883 1.43057E-01
 -1      3884 1.79433E-01
 -1      3885 2.07714E-01
 -1      3886 1.75938E-01
 -1      3887 2.35960E-01
 -1      3888 2.77065E-01
 -1      3889 2.24919E-01
 -1      3890 3.23450E-01
 -1      3891 3.94209E-01
 -1      3892 2.99550E-01
 -1      3893 4.42484E-01
 -1      3894 5.19401E-01
 -1      3895 3.94209E-01
 -1      3896 6.15378E-01
 -1      3897 7.33606E-01
 -1      3898 5.38461E-01
 -1      3899 9.04875E-01
 -1      3900 1.07013E+00
 -1      3901 8.05708E-01
 -1      3902 1.21306E+00
 -1      3903 1.59760E+00
 -1      3904 1.11991E+00
 -1      3905 2.49184E-01
 -1      3906 2.21670E-01
 -1      3907 1.34347E+00
 -1      3908 1.12403E+00
 -1      3909 1.50459E-01
 -1      3910 9.05544E-01
 -1      3911 7.29949E-01
 -1      3912 9.72940E-01
 -1      3913 6.02474E-01
 -1      3914 4.95871E-01
 -1      3915 6.26984E-01
 -1      3916 4.34338E-01
 -1      3917 3.59388E-01
 -1      3918 4.37975E-01
 -1      3919 3.10609E-01
 -1      3920 2.57452E-01
 -1      3921 3.27664E-01
 -1      3922 1.98433E-01
 -1      3923 1.73554E-01
 -1      3924 1.47846E-01
 -1      3925 2.19866E-01
 -1      3926 1.58573E-01
 -1      3927 1.23278E-01
 -1      3928 1.55224E-01
 -1      3929 4.54455E-01
 -1      3930 4.01651E-01
 -1      3931 8.21828E-01
 -1      3932 7.14636E-01
 -1      3933 6.23914E-01
 -1      3934 5.48722E-01
 -1      3935 7.49855E-01
 -1      3936 2.32388E+00
 -1      3937 1.80924E+00
 -1      3938 2.20499E+00
 -1      3939 2.22674E+00
 -1      3940 2.37665E+00
 -1      3941 2.21300E+00
 -1      3942 1.70722E-01
 -1      3943 1.24584E-01
 -1      3944 1.14204E+00
 -1      3945 1.22395E+00
 -1      3946 9.00208E-01
 -1      3947 9.89973E-01
 -1      3948 1.22240E+00
 -1      3949 6.88200E-01
 -1      3950 7.80504E-01
 -1      3951 9.50630E-01
 -1      3952 5.16528E-01
 -1      3953 5.79779E-01
 -1      3954 7.22505E-01
 -1      3955 3.76758E-01
 -1      3956 4.26888E-01
 -1      3957 5.24444E-01
 -1      3958 2.73624E-01
 -1      3959 3.16584E-01
 -1      3960 3.74630E-01
 -1      3961 1.95770E-01
 -1      3962 2.25528E-01
 -1      3963 2.66360E-01
 -1      3964 1.26813E-01
 -1      3965 1.45709E-01
 -1      3966 1.55566E-01
 -1      3967 3.35569E-01
 -1      3968 2.87841E-01
 -1      3969 2.99776E-01
 -1      3970 1.74642E+00
 -1      3971 1.67281E+00
 -1      3972 1.30396E+00
 -1      3973 1.23006E+00
 -1      3974 2.16232E+00
 -1      3975 1.30356E-01
 -1      3976 1.33767E-01
 -1      3977 8.99233E-02
 -1      3978 1.03682E-01
 -1      3979 9.53404E-02
 -1      3980 1.89171E+00
 -1      3981 1.63986E+00
 -1      3982 1.48781E+00
 -1      3983 3.78176E+00
 -1      3984 2.06015E+00
 -1      3985 1.95265E+00
 -1      3986 3.47188E+00
 -1      3987 1.03867E-01
 -1      3988 1.08060E-01
 -1      3989 9.24409E-02
 -1      3990 1.41137E+00
 -1      3991 1.82237E+00
 -1      3992 2.43028E+00
 -1      3993 1.31718E+00
 -1      3994 3.31991E+00
 -1      3995 2.29645E-01
 -1      3996 1.90196E-01
 -1      3997 1.70341E-01
 -1      3998 1.97622E+00
 -1      3999 2.52197E+00
 -1      4000 1.64146E+00
 -1      4001 1.14379E-01
 -1      4002 1.05611E-01
 -1      4003 1.44484E-01
 -1      4004 1.57845E-01
 -1      4005 1.58798E-01
 -1      4006 1.05107E-01
 -1      4007 1.05481E-01
 -1      4008 1.24881E+00
 -1      4009 1.32557E-01
 -1      4010 1.39051E-01
 -1      4011 5.64865E-01
 -1      4012 3.29962E+00
 -1      4013 2.57046E+00
 -1      4014 1.93655E-01
 -1      4015 1.80654E-01
 -1      4016 1.77832E-01
 -1      4017 1.23659E-01
 -1      4018 1.97092E-01
 -1      4019 1.10612E-01
 -1      4020 1.16529E-01
 -1      4021 4.04515E-01
 -1      4022 2.71036E+00
 -1      4023 3.47188E+00
 -1      4024 2.12110E+00
 -1      4025 1.46770E+00
 -1      4026 3.28014E+00
 -1      4027 2.78228E+00
 -1      4028 3.14178E+00
 -1      4029 9.95599E-02
 -1      4030 2.19271E-01
 -1      4031 2.19271E-01
 -1      4032 1.23009E-01
 -1      4033 1.20987E-01
 -1      4034 1.16448E-01
 -1      4035 1.27127E-01
 -1      4036 9.91633E-02
 -1      4037 1.07805E-01
 -1      4038 9.75199E-02
 -1      4039 1.30356E-01
 -1      4040 1.30356E-01
 -1      4041 1.10107E-01
 -1      4042 1.03410E-01
 -1      4043 1.26836E-01
 -1      4044 1.26836E-01
 -1      4045 1.86519E-01
 -1      4046 1.92756E-01
 -1      4047 2.70353E-01
 -1      4048 2.35150E-01
 -1      4049 1.57845E-01
 -1      4050 1.75921E-01
 -1      4051 1.03176E-01
 -1      4052 1.07784E-01
 -1      4053 9.23272E-02
 -1      4054 1.82576E-01
 -1      4055 1.99699E-01
 -1      4056 2.60172E-01
 -1      4057 1.97235E+00
 -1      4058 2.84169E+00
 -1      4059 1.87912E+00
 -1      4060 1.02202E-01
 -1      4061 1.05003E-01
 -1      4062 1.10387E-01
 -1      4063 1.15609E-01
 -1      4064 1.09142E-01
 -1      4065 1.20473E-01
 -1      4066 1.27583E-01
 -1      4067 1.19390E-01
 -1      4068 1.33826E-01
 -1      4069 1.45971E-01
 -1      4070 1.30497E-01
 -1      4071 1.59276E-01
 -1      4072 1.80012E-01
 -1      4073 1.50045E-01
 -1      4074 1.97549E-01
 -1      4075 2.25795E-01
 -1      4076 1.80888E-01
 -1      4077 2.94398E-01
 -1      4078 3.40783E-01
 -1      4079 2.67028E-01
 -1      4080 4.13305E-01
 -1      4081 4.61579E-01
 -1      4082 4.08153E-01
 -1      4083 5.63056E-01
 -1      4084 6.59034E-01
 -1      4085 5.82152E-01
 -1      4086 7.95326E-01
 -1      4087 9.66595E-01
 -1      4088 8.19921E-01
 -1      4089 1.06408E+00
 -1      4090 1.20702E+00
 -1      4091 1.05370E+00
 -1      4092 1.14918E-01
 -1      4093 9.72509E-02
 -1      4094 1.21652E+00
 -1      4095 9.98041E-01
 -1      4096 1.56286E+00
 -1      4097 1.15463E+00
 -1      4098 8.03270E-01
 -1      4099 6.75795E-01
 -1      4100 1.04685E+00
 -1      4101 5.33712E-01
 -1      4102 4.72179E-01
 -1      4103 7.09998E-01
 -1      4104 3.73682E-01
 -1      4105 3.24903E-01
 -1      4106 4.69419E-01
 -1      4107 2.52674E-01
 -1      4108 8.07673E-01
 -1      4109 7.13406E-01
 -1      4110 9.92588E-02
 -1      4111 2.84169E+00
 -1      4112 9.53626E-01
 -1      4113 1.06205E+00
 -1      4114 1.56534E+00
 -1      4115 1.71741E+00
 -1      4116 2.22205E+00
 -1      4117 6.45445E-01
 -1      4118 7.35085E-01
 -1      4119 1.07463E+00
 -1      4120 4.48066E-01
 -1      4121 5.08240E-01
 -1      4122 7.18881E-01
 -1      4123 3.19770E-01
 -1      4124 3.67867E-01
 -1      4125 5.01476E-01
 -1      4126 1.32388E-01
 -1      4127 5.77113E-01
 -1      4128 5.11031E-01
 -1      4129 8.19921E-01
 -1      4130 2.78228E+00
 -1      4131 2.85312E+00
 -1      4132 1.69660E+00
 -1      4133 1.40021E+00
 -1      4134 1.42531E+00
 -1      4135 2.57046E+00
 -1      4136 1.67051E-01
 -1      4137 1.47549E-01
 -1      4138 1.94881E-01
 -1      4139 9.53404E-02
 -1      4140 9.55053E-02
 -1      4141 1.05646E-01
 -1      4142 1.06563E-01
 -1      4143 1.10618E-01
 -1      4144 1.06167E-01
 -1      4145 1.06563E-01
 -1      4146 2.81802E+00
 -1      4147 2.66760E+00
 -1      4148 2.16232E+00
 -1      4149 4.09554E-01
 -1      4150 3.70897E-01
 -1      4151 5.82152E-01
 -1      4152 1.06316E+00
 -1      4153 9.72434E-01
 -1      4154 1.12097E+00
 -1      4155 1.37721E+00
 -1      4156 9.90584E-02
 -1      4157 1.15259E-01
 -1      4158 1.95265E+00
 -1      4159 1.78420E+00
 -1      4160 1.69660E+00
 -1      4161 1.95265E+00
 -1      4162 1.21996E+00
 -1      4163 1.33967E+00
 -1      4164 1.83467E+00
 -1      4165 1.45108E+00
 -1      4166 9.39924E-02
 -1      4167 7.99964E-02
 -1      4168 8.40269E-02
 -1      4169 9.47311E-02
 -1      4170 9.68188E-02
 -1      4171 8.22866E-02
 -1      4172 9.08448E-02
 -1      4173 2.66760E+00
 -1      4174 2.98375E-01
 -1      4175 2.66901E-01
 -1      4176 4.08153E-01
 -1      4177 9.83745E-02
 -1      4178 1.74438E+00
 -1      4179 2.54233E+00
 -1      4180 2.06815E+00
 -1      4181 1.32634E+00
 -1      4182 1.70496E+00
 -1      4183 1.42926E+00
 -1      4184 1.27051E+00
 -1      4185 7.84353E-02
 -1      4186 7.78971E-02
 -1      4187 8.45943E-02
 -1      4188 2.98692E-01
 -1      4189 9.47122E-02
 -1      4190 9.75199E-02
 -1      4191 8.73485E-02
 -1      4192 8.60792E-02
 -1      4193 6.67254E-02
 -1      4194 8.45408E-02
 -1      4195 1.99699E-01
 -1      4196 2.20870E-01
 -1      4197 3.22377E-01
 -1      4198 9.08448E-02
 -1      4199 2.67998E+00
 -1      4200 2.09072E+00
 -1      4201 1.20020E-01
 -1      4202 1.09880E-01
 -1      4203 1.65029E-01
 -1      4204 1.38468E-01
 -1      4205 1.27127E-01
 -1      4206 1.31361E-01
 -1      4207 1.04886E+00
 -1      4208 1.26740E+00
 -1      4209 1.75921E-01
 -1      4210 1.16074E-01
 -1      4211 1.20938E-01
 -1      4212 1.24254E-01
 -1      4213 1.30497E-01
 -1      4214 1.37604E-01
 -1      4215 1.50909E-01
 -1      4216 1.98425E-01
 -1      4217 2.67028E-01
 -1      4218 3.35631E-01
 -1      4219 4.08153E-01
 -1      4220 4.80675E-01
 -1      4221 5.82152E-01
 -1      4222 6.83629E-01
 -1      4223 8.19921E-01
 -1      4224 9.56214E-01
 -1      4225 1.05370E+00
 -1      4226 1.06167E-01
 -1      4227 1.06167E-01
 -1      4228 1.17621E-01
 -1      4229 7.16878E-01
 -1      4230 5.74796E-01
 -1      4231 4.94596E-01
 -1      4232 3.96099E-01
 -1      4233 7.29759E-02
 -1      4234 8.36800E-02
 -1      4235 8.54084E-01
 -1      4236 1.45108E+00
 -1      4237 2.06815E+00
 -1      4238 1.98298E-01
 -1      4239 1.95008E-01
 -1      4240 1.10690E-01
 -1      4241 1.16074E-01
 -1      4242 1.91591E-01
 -1      4243 1.65029E-01
 -1      4244 1.65029E-01
 -1      4245 1.95008E-01
 -1      4246 3.07379E-01
 -1      4247 9.38515E-02
 -1      4248 9.92352E-02
 -1      4249 3.59072E-01
 -1      4250 1.83467E+00
 -1      4251 1.86505E+00
 -1      4252 1.69660E+00
 -1      4253 1.60900E+00
 -1      4254 1.20938E-01
 -1      4255 1.06563E-01
 -1      4256 3.33894E-01
 -1      4257 1.60900E+00
 -1      4258 1.21846E+00
 -1      4259 1.46869E+00
 -1      4260 1.17621E-01
 -1      4261 1.95008E-01
 -1      4262 1.33778E+00
 -1      4263 1.77471E-01
 -1      4264 2.67028E-01
 -1      4265 6.53319E-02
 -1      4266 2.66760E+00
 -1      4267 1.42926E+00
 -1      4268 1.17621E-01
 -1      4269 1.60900E+00
 -3
 9999
