    1C
    1UUSER                                                              
    1UDATE              26.october.2022                                 
    1UTIME              23:44:37                                        
    1UHOST                                                              
    1UPGM               CalculiX                                        
    1UVERSION           Version 2.17                             
    1UCOMPILETIME       Thu Jul 23 21:43:50 CEST 2020                    
    1UDIR                                                               
    1UDBN                                                               
    1UMAT    1SOLIDMATERIAL                                             
    2C                          4317                                     1
 -1         1 4.36066E+01 2.70833E+01 0.00000E+00
 -1         2 4.57572E+01 2.20352E+01 0.00000E+00
 -1         3 1.50000E+02 0.00000E+00 0.00000E+00
 -1         4 1.50000E+02 5.00000E+01 0.00000E+00
 -1         5 0.00000E+00 0.00000E+00 0.00000E+00
 -1         6 0.00000E+00 5.00000E+01 0.00000E+00
 -1         7 0.00000E+00 4.70500E+01 0.00000E+00
 -1         8 0.00000E+00 4.41000E+01 0.00000E+00
 -1         9 0.00000E+00 4.11500E+01 0.00000E+00
 -1        10 0.00000E+00 3.82000E+01 0.00000E+00
 -1        11 0.00000E+00 3.52500E+01 0.00000E+00
 -1        12 0.00000E+00 3.23500E+01 0.00000E+00
 -1        13 0.00000E+00 2.94000E+01 0.00000E+00
 -1        14 0.00000E+00 2.64500E+01 0.00000E+00
 -1        15 0.00000E+00 2.35000E+01 0.00000E+00
 -1        16 0.00000E+00 2.05500E+01 0.00000E+00
 -1        17 0.00000E+00 1.76000E+01 0.00000E+00
 -1        18 0.00000E+00 1.47000E+01 0.00000E+00
 -1        19 0.00000E+00 1.17500E+01 0.00000E+00
 -1        20 0.00000E+00 8.80000E+00 0.00000E+00
 -1        21 0.00000E+00 5.85000E+00 0.00000E+00
 -1        22 0.00000E+00 2.90000E+00 0.00000E+00
 -1        23 3.15000E+00 5.00000E+01 0.00000E+00
 -1        24 6.15000E+00 5.00000E+01 0.00000E+00
 -1        25 9.15000E+00 5.00000E+01 0.00000E+00
 -1        26 1.21500E+01 5.00000E+01 0.00000E+00
 -1        27 1.51500E+01 5.00000E+01 0.00000E+00
 -1        28 1.81500E+01 5.00000E+01 0.00000E+00
 -1        29 2.11500E+01 5.00000E+01 0.00000E+00
 -1        30 2.41500E+01 5.00000E+01 0.00000E+00
 -1        31 2.71500E+01 5.00000E+01 0.00000E+00
 -1        32 3.01500E+01 5.00000E+01 0.00000E+00
 -1        33 3.31500E+01 5.00000E+01 0.00000E+00
 -1        34 3.61500E+01 5.00000E+01 0.00000E+00
 -1        35 3.91500E+01 5.00000E+01 0.00000E+00
 -1        36 4.21500E+01 5.00000E+01 0.00000E+00
 -1        37 4.51500E+01 5.00000E+01 0.00000E+00
 -1        38 4.81500E+01 5.00000E+01 0.00000E+00
 -1        39 5.11500E+01 5.00000E+01 0.00000E+00
 -1        40 5.41500E+01 5.00000E+01 0.00000E+00
 -1        41 5.71500E+01 5.00000E+01 0.00000E+00
 -1        42 6.01500E+01 5.00000E+01 0.00000E+00
 -1        43 6.31500E+01 5.00000E+01 0.00000E+00
 -1        44 6.61500E+01 5.00000E+01 0.00000E+00
 -1        45 6.91500E+01 5.00000E+01 0.00000E+00
 -1        46 7.21500E+01 5.00000E+01 0.00000E+00
 -1        47 7.51500E+01 5.00000E+01 0.00000E+00
 -1        48 7.81500E+01 5.00000E+01 0.00000E+00
 -1        49 8.11500E+01 5.00000E+01 0.00000E+00
 -1        50 8.41500E+01 5.00000E+01 0.00000E+00
 -1        51 8.71500E+01 5.00000E+01 0.00000E+00
 -1        52 9.01500E+01 5.00000E+01 0.00000E+00
 -1        53 9.31500E+01 5.00000E+01 0.00000E+00
 -1        54 9.61500E+01 5.00000E+01 0.00000E+00
 -1        55 9.91500E+01 5.00000E+01 0.00000E+00
 -1        56 1.02150E+02 5.00000E+01 0.00000E+00
 -1        57 1.05150E+02 5.00000E+01 0.00000E+00
 -1        58 1.08150E+02 5.00000E+01 0.00000E+00
 -1        59 1.11150E+02 5.00000E+01 0.00000E+00
 -1        60 1.14150E+02 5.00000E+01 0.00000E+00
 -1        61 1.17150E+02 5.00000E+01 0.00000E+00
 -1        62 1.20150E+02 5.00000E+01 0.00000E+00
 -1        63 1.23150E+02 5.00000E+01 0.00000E+00
 -1        64 1.26150E+02 5.00000E+01 0.00000E+00
 -1        65 1.29150E+02 5.00000E+01 0.00000E+00
 -1        66 1.32150E+02 5.00000E+01 0.00000E+00
 -1        67 1.35150E+02 5.00000E+01 0.00000E+00
 -1        68 1.38150E+02 5.00000E+01 0.00000E+00
 -1        69 1.41150E+02 5.00000E+01 0.00000E+00
 -1        70 1.44150E+02 5.00000E+01 0.00000E+00
 -1        71 1.47150E+02 5.00000E+01 0.00000E+00
 -1        72 3.15000E+00 0.00000E+00 0.00000E+00
 -1        73 6.15000E+00 0.00000E+00 0.00000E+00
 -1        74 9.15000E+00 0.00000E+00 0.00000E+00
 -1        75 1.21500E+01 0.00000E+00 0.00000E+00
 -1        76 1.51500E+01 0.00000E+00 0.00000E+00
 -1        77 1.81500E+01 0.00000E+00 0.00000E+00
 -1        78 2.11500E+01 0.00000E+00 0.00000E+00
 -1        79 2.41500E+01 0.00000E+00 0.00000E+00
 -1        80 2.71500E+01 0.00000E+00 0.00000E+00
 -1        81 3.01500E+01 0.00000E+00 0.00000E+00
 -1        82 3.31500E+01 0.00000E+00 0.00000E+00
 -1        83 3.61500E+01 0.00000E+00 0.00000E+00
 -1        84 3.91500E+01 0.00000E+00 0.00000E+00
 -1        85 4.21500E+01 0.00000E+00 0.00000E+00
 -1        86 4.51500E+01 0.00000E+00 0.00000E+00
 -1        87 4.81500E+01 0.00000E+00 0.00000E+00
 -1        88 5.11500E+01 0.00000E+00 0.00000E+00
 -1        89 5.41500E+01 0.00000E+00 0.00000E+00
 -1        90 5.71500E+01 0.00000E+00 0.00000E+00
 -1        91 6.01500E+01 0.00000E+00 0.00000E+00
 -1        92 6.31500E+01 0.00000E+00 0.00000E+00
 -1        93 6.61500E+01 0.00000E+00 0.00000E+00
 -1        94 6.91500E+01 0.00000E+00 0.00000E+00
 -1        95 7.21500E+01 0.00000E+00 0.00000E+00
 -1        96 7.51500E+01 0.00000E+00 0.00000E+00
 -1        97 7.81500E+01 0.00000E+00 0.00000E+00
 -1        98 8.11500E+01 0.00000E+00 0.00000E+00
 -1        99 8.41500E+01 0.00000E+00 0.00000E+00
 -1       100 8.71500E+01 0.00000E+00 0.00000E+00
 -1       101 9.01500E+01 0.00000E+00 0.00000E+00
 -1       102 9.31500E+01 0.00000E+00 0.00000E+00
 -1       103 9.61500E+01 0.00000E+00 0.00000E+00
 -1       104 9.91500E+01 0.00000E+00 0.00000E+00
 -1       105 1.02150E+02 0.00000E+00 0.00000E+00
 -1       106 1.05150E+02 0.00000E+00 0.00000E+00
 -1       107 1.08150E+02 0.00000E+00 0.00000E+00
 -1       108 1.11150E+02 0.00000E+00 0.00000E+00
 -1       109 1.14150E+02 0.00000E+00 0.00000E+00
 -1       110 1.17150E+02 0.00000E+00 0.00000E+00
 -1       111 1.20150E+02 0.00000E+00 0.00000E+00
 -1       112 1.23150E+02 0.00000E+00 0.00000E+00
 -1       113 1.26150E+02 0.00000E+00 0.00000E+00
 -1       114 1.29150E+02 0.00000E+00 0.00000E+00
 -1       115 1.32150E+02 0.00000E+00 0.00000E+00
 -1       116 1.35150E+02 0.00000E+00 0.00000E+00
 -1       117 1.38150E+02 0.00000E+00 0.00000E+00
 -1       118 1.41150E+02 0.00000E+00 0.00000E+00
 -1       119 1.44150E+02 0.00000E+00 0.00000E+00
 -1       120 1.47150E+02 0.00000E+00 0.00000E+00
 -1       121 1.50000E+02 2.95000E+00 0.00000E+00
 -1       122 1.50000E+02 5.90000E+00 0.00000E+00
 -1       123 1.50000E+02 8.85000E+00 0.00000E+00
 -1       124 1.50000E+02 1.18000E+01 0.00000E+00
 -1       125 1.50000E+02 1.47500E+01 0.00000E+00
 -1       126 1.50000E+02 1.76500E+01 0.00000E+00
 -1       127 1.50000E+02 2.06000E+01 0.00000E+00
 -1       128 1.50000E+02 2.35500E+01 0.00000E+00
 -1       129 1.50000E+02 2.65000E+01 0.00000E+00
 -1       130 1.50000E+02 2.94500E+01 0.00000E+00
 -1       131 1.50000E+02 3.24000E+01 0.00000E+00
 -1       132 1.50000E+02 3.53000E+01 0.00000E+00
 -1       133 1.50000E+02 3.82500E+01 0.00000E+00
 -1       134 1.50000E+02 4.12000E+01 0.00000E+00
 -1       135 1.50000E+02 4.41500E+01 0.00000E+00
 -1       136 1.50000E+02 4.71000E+01 0.00000E+00
 -1       137 4.55897E+01 2.05129E+01 0.00000E+00
 -1       138 4.51082E+01 1.90916E+01 0.00000E+00
 -1       139 4.42255E+01 1.76651E+01 0.00000E+00
 -1       140 4.31426E+01 1.65791E+01 0.00000E+00
 -1       141 4.19257E+01 1.57933E+01 0.00000E+00
 -1       142 4.04298E+01 1.52379E+01 0.00000E+00
 -1       143 3.88130E+01 1.50354E+01 0.00000E+00
 -1       144 3.73655E+01 1.51749E+01 0.00000E+00
 -1       145 3.59481E+01 1.56235E+01 0.00000E+00
 -1       146 3.46343E+01 1.63782E+01 0.00000E+00
 -1       147 3.35590E+01 1.73470E+01 0.00000E+00
 -1       148 3.26636E+01 1.85902E+01 0.00000E+00
 -1       149 3.20440E+01 2.00521E+01 0.00000E+00
 -1       150 3.17729E+01 2.15670E+01 0.00000E+00
 -1       151 3.18281E+01 2.30288E+01 0.00000E+00
 -1       152 3.22171E+01 2.45306E+01 0.00000E+00
 -1       153 3.28466E+01 2.57854E+01 0.00000E+00
 -1       154 3.38207E+01 2.69982E+01 0.00000E+00
 -1       155 3.51775E+01 2.80506E+01 0.00000E+00
 -1       156 3.64778E+01 2.86537E+01 0.00000E+00
 -1       157 3.80008E+01 2.89942E+01 0.00000E+00
 -1       158 3.97324E+01 2.89669E+01 0.00000E+00
 -1       159 4.11118E+01 2.86273E+01 0.00000E+00
 -1       160 4.25028E+01 2.79488E+01 0.00000E+00
 -1       161 4.45087E+01 2.60253E+01 0.00000E+00
 -1       162 4.51948E+01 2.47841E+01 0.00000E+00
 -1       163 4.56169E+01 2.34297E+01 0.00000E+00
 -1       164 2.59800E+00 4.55750E+01 0.00000E+00
 -1       165 2.59800E+00 4.26250E+01 0.00000E+00
 -1       166 2.59800E+00 3.96750E+01 0.00000E+00
 -1       167 2.59800E+00 3.67250E+01 0.00000E+00
 -1       168 2.59800E+00 3.38250E+01 0.00000E+00
 -1       169 2.59800E+00 3.08750E+01 0.00000E+00
 -1       170 2.59800E+00 2.79250E+01 0.00000E+00
 -1       171 2.59800E+00 2.49750E+01 0.00000E+00
 -1       172 2.59800E+00 2.20250E+01 0.00000E+00
 -1       173 2.59800E+00 1.90750E+01 0.00000E+00
 -1       174 2.59800E+00 1.61750E+01 0.00000E+00
 -1       175 2.59800E+00 1.32250E+01 0.00000E+00
 -1       176 2.59800E+00 1.02750E+01 0.00000E+00
 -1       177 2.59800E+00 7.32500E+00 0.00000E+00
 -1       178 2.59800E+00 4.37500E+00 0.00000E+00
 -1       179 2.87400E+00 2.18750E+00 0.00000E+00
 -1       180 4.65000E+00 4.74020E+01 0.00000E+00
 -1       181 7.65000E+00 4.74020E+01 0.00000E+00
 -1       182 1.06500E+01 4.74020E+01 0.00000E+00
 -1       183 1.36500E+01 4.74020E+01 0.00000E+00
 -1       184 1.66500E+01 4.74020E+01 0.00000E+00
 -1       185 1.96500E+01 4.74020E+01 0.00000E+00
 -1       186 2.26500E+01 4.74020E+01 0.00000E+00
 -1       187 2.56500E+01 4.74020E+01 0.00000E+00
 -1       188 2.86500E+01 4.74020E+01 0.00000E+00
 -1       189 3.16500E+01 4.74020E+01 0.00000E+00
 -1       190 3.46500E+01 4.74020E+01 0.00000E+00
 -1       191 3.76500E+01 4.74020E+01 0.00000E+00
 -1       192 4.06500E+01 4.74020E+01 0.00000E+00
 -1       193 4.36500E+01 4.74020E+01 0.00000E+00
 -1       194 4.66500E+01 4.74020E+01 0.00000E+00
 -1       195 4.96500E+01 4.74020E+01 0.00000E+00
 -1       196 5.26500E+01 4.74020E+01 0.00000E+00
 -1       197 5.56500E+01 4.74020E+01 0.00000E+00
 -1       198 5.86500E+01 4.74020E+01 0.00000E+00
 -1       199 6.16500E+01 4.74020E+01 0.00000E+00
 -1       200 6.46500E+01 4.74020E+01 0.00000E+00
 -1       201 6.76500E+01 4.74020E+01 0.00000E+00
 -1       202 7.06500E+01 4.74020E+01 0.00000E+00
 -1       203 7.36500E+01 4.74020E+01 0.00000E+00
 -1       204 7.66500E+01 4.74020E+01 0.00000E+00
 -1       205 7.96500E+01 4.74020E+01 0.00000E+00
 -1       206 8.26500E+01 4.74020E+01 0.00000E+00
 -1       207 8.56500E+01 4.74020E+01 0.00000E+00
 -1       208 8.86500E+01 4.74020E+01 0.00000E+00
 -1       209 9.16500E+01 4.74020E+01 0.00000E+00
 -1       210 9.46500E+01 4.74020E+01 0.00000E+00
 -1       211 9.76500E+01 4.74020E+01 0.00000E+00
 -1       212 1.00650E+02 4.74020E+01 0.00000E+00
 -1       213 1.03650E+02 4.74020E+01 0.00000E+00
 -1       214 1.06650E+02 4.74020E+01 0.00000E+00
 -1       215 1.09650E+02 4.74020E+01 0.00000E+00
 -1       216 1.12650E+02 4.74020E+01 0.00000E+00
 -1       217 1.15650E+02 4.74020E+01 0.00000E+00
 -1       218 1.18650E+02 4.74020E+01 0.00000E+00
 -1       219 1.21650E+02 4.74020E+01 0.00000E+00
 -1       220 1.24650E+02 4.74020E+01 0.00000E+00
 -1       221 1.27650E+02 4.74020E+01 0.00000E+00
 -1       222 1.30650E+02 4.74020E+01 0.00000E+00
 -1       223 1.33650E+02 4.74020E+01 0.00000E+00
 -1       224 1.36650E+02 4.74020E+01 0.00000E+00
 -1       225 1.39650E+02 4.74020E+01 0.00000E+00
 -1       226 1.42650E+02 4.74020E+01 0.00000E+00
 -1       227 1.45650E+02 4.74020E+01 0.00000E+00
 -1       228 5.87400E+00 2.18750E+00 0.00000E+00
 -1       229 8.87400E+00 2.18750E+00 0.00000E+00
 -1       230 1.18740E+01 2.18750E+00 0.00000E+00
 -1       231 1.48740E+01 2.18750E+00 0.00000E+00
 -1       232 1.78740E+01 2.18750E+00 0.00000E+00
 -1       233 2.08740E+01 2.18750E+00 0.00000E+00
 -1       234 2.38740E+01 2.18750E+00 0.00000E+00
 -1       235 2.68740E+01 2.18750E+00 0.00000E+00
 -1       236 2.98740E+01 2.18750E+00 0.00000E+00
 -1       237 3.28740E+01 2.18750E+00 0.00000E+00
 -1       238 3.58740E+01 2.18750E+00 0.00000E+00
 -1       239 3.88740E+01 2.18750E+00 0.00000E+00
 -1       240 4.18740E+01 2.18750E+00 0.00000E+00
 -1       241 4.48740E+01 2.18750E+00 0.00000E+00
 -1       242 4.78740E+01 2.18750E+00 0.00000E+00
 -1       243 5.08740E+01 2.18750E+00 0.00000E+00
 -1       244 5.38740E+01 2.18750E+00 0.00000E+00
 -1       245 5.68740E+01 2.18750E+00 0.00000E+00
 -1       246 5.98740E+01 2.18750E+00 0.00000E+00
 -1       247 6.28740E+01 2.18750E+00 0.00000E+00
 -1       248 6.58740E+01 2.18750E+00 0.00000E+00
 -1       249 6.88740E+01 2.18750E+00 0.00000E+00
 -1       250 7.18740E+01 2.18750E+00 0.00000E+00
 -1       251 7.48740E+01 2.18750E+00 0.00000E+00
 -1       252 7.78740E+01 2.18750E+00 0.00000E+00
 -1       253 8.08740E+01 2.18750E+00 0.00000E+00
 -1       254 8.38740E+01 2.18750E+00 0.00000E+00
 -1       255 8.68740E+01 2.18750E+00 0.00000E+00
 -1       256 8.98740E+01 2.18750E+00 0.00000E+00
 -1       257 9.28740E+01 2.18750E+00 0.00000E+00
 -1       258 9.58740E+01 2.18750E+00 0.00000E+00
 -1       259 9.88740E+01 2.18750E+00 0.00000E+00
 -1       260 1.01874E+02 2.18750E+00 0.00000E+00
 -1       261 1.04874E+02 2.18750E+00 0.00000E+00
 -1       262 1.07874E+02 2.18750E+00 0.00000E+00
 -1       263 1.10874E+02 2.18750E+00 0.00000E+00
 -1       264 1.13874E+02 2.18750E+00 0.00000E+00
 -1       265 1.16874E+02 2.18750E+00 0.00000E+00
 -1       266 1.19874E+02 2.18750E+00 0.00000E+00
 -1       267 1.22874E+02 2.18750E+00 0.00000E+00
 -1       268 1.25874E+02 2.18750E+00 0.00000E+00
 -1       269 1.28874E+02 2.18750E+00 0.00000E+00
 -1       270 1.31874E+02 2.18750E+00 0.00000E+00
 -1       271 1.34874E+02 2.18750E+00 0.00000E+00
 -1       272 1.37874E+02 2.18750E+00 0.00000E+00
 -1       273 1.40874E+02 2.18750E+00 0.00000E+00
 -1       274 1.43874E+02 2.18750E+00 0.00000E+00
 -1       275 1.46874E+02 2.18750E+00 0.00000E+00
 -1       276 1.47402E+02 4.42500E+00 0.00000E+00
 -1       277 1.47402E+02 7.37500E+00 0.00000E+00
 -1       278 1.47402E+02 1.03250E+01 0.00000E+00
 -1       279 1.47402E+02 1.32750E+01 0.00000E+00
 -1       280 1.47402E+02 1.61750E+01 0.00000E+00
 -1       281 1.47402E+02 1.91250E+01 0.00000E+00
 -1       282 1.47402E+02 2.20750E+01 0.00000E+00
 -1       283 1.47402E+02 2.50250E+01 0.00000E+00
 -1       284 1.47402E+02 2.79750E+01 0.00000E+00
 -1       285 1.47402E+02 3.09250E+01 0.00000E+00
 -1       286 1.47402E+02 3.38250E+01 0.00000E+00
 -1       287 1.47402E+02 3.67750E+01 0.00000E+00
 -1       288 1.47402E+02 3.97250E+01 0.00000E+00
 -1       289 1.47402E+02 4.26750E+01 0.00000E+00
 -1       290 1.46526E+02 4.50385E+01 0.00000E+00
 -1       291 4.69618E+01 2.11322E+01 0.00000E+00
 -1       292 4.65766E+01 1.93864E+01 0.00000E+00
 -1       293 4.58403E+01 1.76522E+01 0.00000E+00
 -1       294 4.46019E+01 1.62068E+01 0.00000E+00
 -1       295 4.31919E+01 1.51677E+01 0.00000E+00
 -1       296 4.17164E+01 1.40649E+01 0.00000E+00
 -1       297 3.98138E+01 1.36011E+01 0.00000E+00
 -1       298 3.79729E+01 1.38983E+01 0.00000E+00
 -1       299 3.62404E+01 1.40836E+01 0.00000E+00
 -1       300 3.46456E+01 1.48769E+01 0.00000E+00
 -1       301 3.32851E+01 1.59619E+01 0.00000E+00
 -1       302 3.21275E+01 1.72600E+01 0.00000E+00
 -1       303 3.09289E+01 1.87173E+01 0.00000E+00
 -1       304 3.05500E+01 2.05665E+01 0.00000E+00
 -1       305 3.05889E+01 2.23437E+01 0.00000E+00
 -1       306 3.06056E+01 2.41467E+01 0.00000E+00
 -1       307 3.14482E+01 2.57016E+01 0.00000E+00
 -1       308 3.22578E+01 2.72560E+01 0.00000E+00
 -1       309 3.35506E+01 2.87472E+01 0.00000E+00
 -1       310 3.53176E+01 2.94520E+01 0.00000E+00
 -1       311 3.69382E+01 3.01706E+01 0.00000E+00
 -1       312 3.88910E+01 3.05279E+01 0.00000E+00
 -1       313 4.07120E+01 2.99743E+01 0.00000E+00
 -1       314 4.24123E+01 2.95283E+01 0.00000E+00
 -1       315 4.38028E+01 2.84701E+01 0.00000E+00
 -1       316 4.49802E+01 2.73409E+01 0.00000E+00
 -1       317 4.59128E+01 2.59913E+01 0.00000E+00
 -1       318 4.65634E+01 2.44676E+01 0.00000E+00
 -1       319 4.68934E+01 2.28538E+01 0.00000E+00
 -1       320 5.19600E+00 4.11500E+01 0.00000E+00
 -1       321 5.19600E+00 4.41000E+01 0.00000E+00
 -1       322 5.19600E+00 3.52750E+01 0.00000E+00
 -1       323 5.19600E+00 3.23250E+01 0.00000E+00
 -1       324 5.19600E+00 2.93750E+01 0.00000E+00
 -1       325 5.19600E+00 2.64250E+01 0.00000E+00
 -1       326 5.19600E+00 2.34750E+01 0.00000E+00
 -1       327 5.19600E+00 2.05250E+01 0.00000E+00
 -1       328 5.19600E+00 1.76250E+01 0.00000E+00
 -1       329 5.19600E+00 1.46750E+01 0.00000E+00
 -1       330 5.19600E+00 1.17250E+01 0.00000E+00
 -1       331 5.19600E+00 8.77500E+00 0.00000E+00
 -1       332 5.19600E+00 5.82500E+00 0.00000E+00
 -1       333 5.53500E+00 4.00625E+00 0.00000E+00
 -1       334 8.53500E+00 4.00625E+00 0.00000E+00
 -1       335 9.15000E+00 4.48040E+01 0.00000E+00
 -1       336 1.21500E+01 4.48040E+01 0.00000E+00
 -1       337 1.51500E+01 4.48040E+01 0.00000E+00
 -1       338 1.81500E+01 4.48040E+01 0.00000E+00
 -1       339 2.11500E+01 4.48040E+01 0.00000E+00
 -1       340 2.41500E+01 4.48040E+01 0.00000E+00
 -1       341 2.71500E+01 4.48040E+01 0.00000E+00
 -1       342 3.01500E+01 4.48040E+01 0.00000E+00
 -1       343 3.31500E+01 4.48040E+01 0.00000E+00
 -1       344 3.61500E+01 4.48040E+01 0.00000E+00
 -1       345 3.91500E+01 4.48040E+01 0.00000E+00
 -1       346 4.21500E+01 4.48040E+01 0.00000E+00
 -1       347 4.51500E+01 4.48040E+01 0.00000E+00
 -1       348 4.81500E+01 4.48040E+01 0.00000E+00
 -1       349 5.11500E+01 4.48040E+01 0.00000E+00
 -1       350 5.41500E+01 4.48040E+01 0.00000E+00
 -1       351 5.71500E+01 4.48040E+01 0.00000E+00
 -1       352 6.01500E+01 4.48040E+01 0.00000E+00
 -1       353 6.31500E+01 4.48040E+01 0.00000E+00
 -1       354 6.61500E+01 4.48040E+01 0.00000E+00
 -1       355 6.91500E+01 4.48040E+01 0.00000E+00
 -1       356 7.21500E+01 4.48040E+01 0.00000E+00
 -1       357 7.51500E+01 4.48040E+01 0.00000E+00
 -1       358 7.81500E+01 4.48040E+01 0.00000E+00
 -1       359 8.11500E+01 4.48040E+01 0.00000E+00
 -1       360 8.41500E+01 4.48040E+01 0.00000E+00
 -1       361 8.71500E+01 4.48040E+01 0.00000E+00
 -1       362 9.01500E+01 4.48040E+01 0.00000E+00
 -1       363 9.31500E+01 4.48040E+01 0.00000E+00
 -1       364 9.61500E+01 4.48040E+01 0.00000E+00
 -1       365 9.91500E+01 4.48040E+01 0.00000E+00
 -1       366 1.02150E+02 4.48040E+01 0.00000E+00
 -1       367 1.05150E+02 4.48040E+01 0.00000E+00
 -1       368 1.08150E+02 4.48040E+01 0.00000E+00
 -1       369 1.11150E+02 4.48040E+01 0.00000E+00
 -1       370 1.14150E+02 4.48040E+01 0.00000E+00
 -1       371 1.17150E+02 4.48040E+01 0.00000E+00
 -1       372 1.20150E+02 4.48040E+01 0.00000E+00
 -1       373 1.23150E+02 4.48040E+01 0.00000E+00
 -1       374 1.26150E+02 4.48040E+01 0.00000E+00
 -1       375 1.29150E+02 4.48040E+01 0.00000E+00
 -1       376 1.32150E+02 4.48040E+01 0.00000E+00
 -1       377 1.35150E+02 4.48040E+01 0.00000E+00
 -1       378 1.38150E+02 4.48040E+01 0.00000E+00
 -1       379 1.41150E+02 4.48040E+01 0.00000E+00
 -1       380 1.43838E+02 4.49212E+01 0.00000E+00
 -1       381 1.15350E+01 4.00625E+00 0.00000E+00
 -1       382 1.45350E+01 4.00625E+00 0.00000E+00
 -1       383 1.75350E+01 4.00625E+00 0.00000E+00
 -1       384 2.05350E+01 4.00625E+00 0.00000E+00
 -1       385 2.35350E+01 4.00625E+00 0.00000E+00
 -1       386 2.65350E+01 4.00625E+00 0.00000E+00
 -1       387 2.95350E+01 4.00625E+00 0.00000E+00
 -1       388 3.25350E+01 4.00625E+00 0.00000E+00
 -1       389 3.55350E+01 4.00625E+00 0.00000E+00
 -1       390 3.85350E+01 4.00625E+00 0.00000E+00
 -1       391 4.15350E+01 4.00625E+00 0.00000E+00
 -1       392 4.45350E+01 4.00625E+00 0.00000E+00
 -1       393 4.75350E+01 4.00625E+00 0.00000E+00
 -1       394 5.05350E+01 4.00625E+00 0.00000E+00
 -1       395 5.35350E+01 4.00625E+00 0.00000E+00
 -1       396 5.65350E+01 4.00625E+00 0.00000E+00
 -1       397 5.95350E+01 4.00625E+00 0.00000E+00
 -1       398 6.25350E+01 4.00625E+00 0.00000E+00
 -1       399 6.55350E+01 4.00625E+00 0.00000E+00
 -1       400 6.85350E+01 4.00625E+00 0.00000E+00
 -1       401 7.15350E+01 4.00625E+00 0.00000E+00
 -1       402 7.45350E+01 4.00625E+00 0.00000E+00
 -1       403 7.75350E+01 4.00625E+00 0.00000E+00
 -1       404 8.05350E+01 4.00625E+00 0.00000E+00
 -1       405 8.35350E+01 4.00625E+00 0.00000E+00
 -1       406 8.65350E+01 4.00625E+00 0.00000E+00
 -1       407 8.95350E+01 4.00625E+00 0.00000E+00
 -1       408 9.25350E+01 4.00625E+00 0.00000E+00
 -1       409 9.55350E+01 4.00625E+00 0.00000E+00
 -1       410 9.85350E+01 4.00625E+00 0.00000E+00
 -1       411 1.01535E+02 4.00625E+00 0.00000E+00
 -1       412 1.04535E+02 4.00625E+00 0.00000E+00
 -1       413 1.07535E+02 4.00625E+00 0.00000E+00
 -1       414 1.10535E+02 4.00625E+00 0.00000E+00
 -1       415 1.13535E+02 4.00625E+00 0.00000E+00
 -1       416 1.16535E+02 4.00625E+00 0.00000E+00
 -1       417 1.19535E+02 4.00625E+00 0.00000E+00
 -1       418 1.22535E+02 4.00625E+00 0.00000E+00
 -1       419 1.25535E+02 4.00625E+00 0.00000E+00
 -1       420 1.28535E+02 4.00625E+00 0.00000E+00
 -1       421 1.31535E+02 4.00625E+00 0.00000E+00
 -1       422 1.34535E+02 4.00625E+00 0.00000E+00
 -1       423 1.37535E+02 4.00625E+00 0.00000E+00
 -1       424 1.40535E+02 4.00625E+00 0.00000E+00
 -1       425 1.43535E+02 4.00625E+00 0.00000E+00
 -1       426 1.45469E+02 4.21562E+00 0.00000E+00
 -1       427 1.44804E+02 1.18000E+01 0.00000E+00
 -1       428 1.44804E+02 8.85000E+00 0.00000E+00
 -1       429 1.45136E+02 6.53281E+00 0.00000E+00
 -1       430 1.44804E+02 1.47000E+01 0.00000E+00
 -1       431 1.44804E+02 1.76500E+01 0.00000E+00
 -1       432 1.44804E+02 2.06000E+01 0.00000E+00
 -1       433 1.44804E+02 2.35500E+01 0.00000E+00
 -1       434 1.44804E+02 2.65000E+01 0.00000E+00
 -1       435 1.44804E+02 2.94500E+01 0.00000E+00
 -1       436 1.44804E+02 3.23500E+01 0.00000E+00
 -1       437 1.44804E+02 3.53000E+01 0.00000E+00
 -1       438 1.44804E+02 3.82500E+01 0.00000E+00
 -1       439 1.44804E+02 4.12000E+01 0.00000E+00
 -1       440 4.76329E+01 1.79145E+01 0.00000E+00
 -1       441 4.83065E+01 2.20479E+01 0.00000E+00
 -1       442 4.82804E+01 1.99258E+01 0.00000E+00
 -1       443 4.63963E+01 1.59226E+01 0.00000E+00
 -1       444 4.47652E+01 1.45089E+01 0.00000E+00
 -1       445 5.19600E+00 3.82125E+01 0.00000E+00
 -1       446 4.11316E+01 1.23295E+01 0.00000E+00
 -1       447 3.86333E+01 1.21393E+01 0.00000E+00
 -1       448 3.69008E+01 1.23245E+01 0.00000E+00
 -1       449 3.47537E+01 1.30947E+01 0.00000E+00
 -1       450 3.29482E+01 1.41440E+01 0.00000E+00
 -1       451 3.16763E+01 1.56925E+01 0.00000E+00
 -1       452 3.04778E+01 1.71498E+01 0.00000E+00
 -1       453 2.93876E+01 1.93649E+01 0.00000E+00
 -1       454 2.91898E+01 2.14853E+01 0.00000E+00
 -1       455 2.92065E+01 2.32883E+01 0.00000E+00
 -1       456 2.95926E+01 2.57014E+01 0.00000E+00
 -1       457 3.04022E+01 2.72558E+01 0.00000E+00
 -1       458 3.18615E+01 2.89055E+01 0.00000E+00
 -1       459 3.39228E+01 3.03813E+01 0.00000E+00
 -1       460 3.55434E+01 3.11000E+01 0.00000E+00
 -1       461 3.76210E+01 3.19540E+01 0.00000E+00
 -1       462 4.02760E+01 3.18119E+01 0.00000E+00
 -1       463 4.19763E+01 3.13659E+01 0.00000E+00
 -1       464 4.38925E+01 3.00307E+01 0.00000E+00
 -1       465 4.52887E+01 2.88410E+01 0.00000E+00
 -1       466 4.65128E+01 2.74030E+01 0.00000E+00
 -1       467 4.74301E+01 2.57384E+01 0.00000E+00
 -1       468 4.80804E+01 2.39371E+01 0.00000E+00
 -1       469 4.32898E+01 1.34061E+01 0.00000E+00
 -1       470 2.89364E+01 1.77974E+01 0.00000E+00
 -1       471 3.22337E+01 3.05397E+01 0.00000E+00
 -1       472 1.00350E+01 6.60425E+00 0.00000E+00
 -1       473 7.79400E+00 3.08500E+01 0.00000E+00
 -1       474 7.79400E+00 3.38000E+01 0.00000E+00
 -1       475 7.79400E+00 2.49500E+01 0.00000E+00
 -1       476 7.79400E+00 2.20000E+01 0.00000E+00
 -1       477 7.79400E+00 1.91000E+01 0.00000E+00
 -1       478 7.79400E+00 1.61500E+01 0.00000E+00
 -1       479 7.79400E+00 1.32000E+01 0.00000E+00
 -1       480 7.79400E+00 1.02500E+01 0.00000E+00
 -1       481 4.66492E+01 1.39830E+01 0.00000E+00
 -1       482 1.30350E+01 6.60425E+00 0.00000E+00
 -1       483 1.06500E+01 4.22060E+01 0.00000E+00
 -1       484 4.30511E+01 1.11831E+01 0.00000E+00
 -1       485 1.36500E+01 4.22060E+01 0.00000E+00
 -1       486 1.66500E+01 4.22060E+01 0.00000E+00
 -1       487 1.96500E+01 4.22060E+01 0.00000E+00
 -1       488 2.26500E+01 4.22060E+01 0.00000E+00
 -1       489 2.56500E+01 4.22060E+01 0.00000E+00
 -1       490 2.86500E+01 4.22060E+01 0.00000E+00
 -1       491 3.16500E+01 4.22060E+01 0.00000E+00
 -1       492 3.46500E+01 4.22060E+01 0.00000E+00
 -1       493 3.76500E+01 4.22060E+01 0.00000E+00
 -1       494 4.06500E+01 4.22060E+01 0.00000E+00
 -1       495 4.36500E+01 4.22060E+01 0.00000E+00
 -1       496 4.66500E+01 4.22060E+01 0.00000E+00
 -1       497 4.96500E+01 4.22060E+01 0.00000E+00
 -1       498 5.26500E+01 4.22060E+01 0.00000E+00
 -1       499 5.56500E+01 4.22060E+01 0.00000E+00
 -1       500 5.86500E+01 4.22060E+01 0.00000E+00
 -1       501 6.16500E+01 4.22060E+01 0.00000E+00
 -1       502 6.46500E+01 4.22060E+01 0.00000E+00
 -1       503 6.76500E+01 4.22060E+01 0.00000E+00
 -1       504 7.06500E+01 4.22060E+01 0.00000E+00
 -1       505 7.36500E+01 4.22060E+01 0.00000E+00
 -1       506 7.66500E+01 4.22060E+01 0.00000E+00
 -1       507 7.96500E+01 4.22060E+01 0.00000E+00
 -1       508 8.26500E+01 4.22060E+01 0.00000E+00
 -1       509 8.56500E+01 4.22060E+01 0.00000E+00
 -1       510 8.86500E+01 4.22060E+01 0.00000E+00
 -1       511 9.16500E+01 4.22060E+01 0.00000E+00
 -1       512 9.46500E+01 4.22060E+01 0.00000E+00
 -1       513 9.76500E+01 4.22060E+01 0.00000E+00
 -1       514 1.00650E+02 4.22060E+01 0.00000E+00
 -1       515 1.03650E+02 4.22060E+01 0.00000E+00
 -1       516 1.06650E+02 4.22060E+01 0.00000E+00
 -1       517 1.09650E+02 4.22060E+01 0.00000E+00
 -1       518 1.12650E+02 4.22060E+01 0.00000E+00
 -1       519 1.15650E+02 4.22060E+01 0.00000E+00
 -1       520 1.18650E+02 4.22060E+01 0.00000E+00
 -1       521 1.21650E+02 4.22060E+01 0.00000E+00
 -1       522 1.24650E+02 4.22060E+01 0.00000E+00
 -1       523 1.27650E+02 4.22060E+01 0.00000E+00
 -1       524 1.30650E+02 4.22060E+01 0.00000E+00
 -1       525 1.33650E+02 4.22060E+01 0.00000E+00
 -1       526 1.36650E+02 4.22060E+01 0.00000E+00
 -1       527 1.39650E+02 4.22060E+01 0.00000E+00
 -1       528 1.90350E+01 6.60425E+00 0.00000E+00
 -1       529 2.20350E+01 6.60425E+00 0.00000E+00
 -1       530 2.50350E+01 6.60425E+00 0.00000E+00
 -1       531 2.80350E+01 6.60425E+00 0.00000E+00
 -1       532 3.10350E+01 6.60425E+00 0.00000E+00
 -1       533 3.40350E+01 6.60425E+00 0.00000E+00
 -1       534 3.70350E+01 6.60425E+00 0.00000E+00
 -1       535 4.00350E+01 6.60425E+00 0.00000E+00
 -1       536 4.30350E+01 6.60425E+00 0.00000E+00
 -1       537 4.60350E+01 6.60425E+00 0.00000E+00
 -1       538 4.90350E+01 6.60425E+00 0.00000E+00
 -1       539 5.20350E+01 6.60425E+00 0.00000E+00
 -1       540 5.50350E+01 6.60425E+00 0.00000E+00
 -1       541 5.80350E+01 6.60425E+00 0.00000E+00
 -1       542 6.10350E+01 6.60425E+00 0.00000E+00
 -1       543 6.40350E+01 6.60425E+00 0.00000E+00
 -1       544 6.70350E+01 6.60425E+00 0.00000E+00
 -1       545 7.00350E+01 6.60425E+00 0.00000E+00
 -1       546 7.30350E+01 6.60425E+00 0.00000E+00
 -1       547 7.60350E+01 6.60425E+00 0.00000E+00
 -1       548 7.90350E+01 6.60425E+00 0.00000E+00
 -1       549 8.20350E+01 6.60425E+00 0.00000E+00
 -1       550 8.50350E+01 6.60425E+00 0.00000E+00
 -1       551 8.80350E+01 6.60425E+00 0.00000E+00
 -1       552 9.10350E+01 6.60425E+00 0.00000E+00
 -1       553 9.40350E+01 6.60425E+00 0.00000E+00
 -1       554 9.70350E+01 6.60425E+00 0.00000E+00
 -1       555 1.00035E+02 6.60425E+00 0.00000E+00
 -1       556 1.03035E+02 6.60425E+00 0.00000E+00
 -1       557 1.06035E+02 6.60425E+00 0.00000E+00
 -1       558 1.09035E+02 6.60425E+00 0.00000E+00
 -1       559 1.12035E+02 6.60425E+00 0.00000E+00
 -1       560 1.15035E+02 6.60425E+00 0.00000E+00
 -1       561 1.18035E+02 6.60425E+00 0.00000E+00
 -1       562 1.21035E+02 6.60425E+00 0.00000E+00
 -1       563 1.24035E+02 6.60425E+00 0.00000E+00
 -1       564 1.27035E+02 6.60425E+00 0.00000E+00
 -1       565 1.30035E+02 6.60425E+00 0.00000E+00
 -1       566 1.33035E+02 6.60425E+00 0.00000E+00
 -1       567 1.36035E+02 6.60425E+00 0.00000E+00
 -1       568 1.39035E+02 6.60425E+00 0.00000E+00
 -1       569 1.42035E+02 6.60425E+00 0.00000E+00
 -1       570 1.42206E+02 1.61750E+01 0.00000E+00
 -1       571 1.42206E+02 1.91250E+01 0.00000E+00
 -1       572 1.42206E+02 1.03250E+01 0.00000E+00
 -1       573 1.42206E+02 1.32500E+01 0.00000E+00
 -1       574 1.42206E+02 2.20750E+01 0.00000E+00
 -1       575 1.42206E+02 2.50250E+01 0.00000E+00
 -1       576 1.42206E+02 2.79750E+01 0.00000E+00
 -1       577 1.42206E+02 3.08750E+01 0.00000E+00
 -1       578 1.42206E+02 3.38250E+01 0.00000E+00
 -1       579 1.42206E+02 3.67750E+01 0.00000E+00
 -1       580 1.42206E+02 3.97250E+01 0.00000E+00
 -1       581 4.98409E+01 2.09678E+01 0.00000E+00
 -1       582 4.87533E+01 1.58391E+01 0.00000E+00
 -1       583 1.60350E+01 6.60425E+00 0.00000E+00
 -1       584 4.98964E+01 2.31963E+01 0.00000E+00
 -1       585 4.95893E+01 1.83946E+01 0.00000E+00
 -1       586 7.92300E+00 4.16780E+01 0.00000E+00
 -1       587 4.96837E+01 2.55339E+01 0.00000E+00
 -1       588 3.59302E+01 3.31133E+01 0.00000E+00
 -1       589 2.99727E+01 2.91060E+01 0.00000E+00
 -1       590 3.09869E+01 1.38297E+01 0.00000E+00
 -1       591 7.79400E+00 2.79000E+01 0.00000E+00
 -1       592 4.00126E+01 1.05242E+01 0.00000E+00
 -1       593 3.29050E+01 1.19916E+01 0.00000E+00
 -1       594 3.75669E+01 1.03599E+01 0.00000E+00
 -1       595 2.77479E+01 2.02814E+01 0.00000E+00
 -1       596 3.51916E+01 1.09375E+01 0.00000E+00
 -1       597 2.97883E+01 1.52869E+01 0.00000E+00
 -1       598 2.78183E+01 2.23996E+01 0.00000E+00
 -1       599 2.78715E+01 2.47394E+01 0.00000E+00
 -1       600 2.86249E+01 2.71935E+01 0.00000E+00
 -1       601 3.90580E+01 3.39302E+01 0.00000E+00
 -1       602 3.41398E+01 3.20788E+01 0.00000E+00
 -1       603 4.58093E+01 3.08660E+01 0.00000E+00
 -1       604 4.15613E+01 3.32479E+01 0.00000E+00
 -1       605 4.38931E+01 3.22011E+01 0.00000E+00
 -1       606 4.70791E+01 2.91251E+01 0.00000E+00
 -1       607 4.82534E+01 2.72772E+01 0.00000E+00
 -1       608 4.50544E+01 1.25837E+01 0.00000E+00
 -1       609 7.61550E+00 6.21462E+00 0.00000E+00
 -1       610 7.79400E+00 3.67375E+01 0.00000E+00
 -1       611 2.82470E+01 1.59345E+01 0.00000E+00
 -1       612 3.73672E+01 3.50896E+01 0.00000E+00
 -1       613 3.03449E+01 3.07401E+01 0.00000E+00
 -1       614 2.72967E+01 1.87139E+01 0.00000E+00
 -1       615 3.24507E+01 3.22371E+01 0.00000E+00
 -1       616 1.41678E+02 4.22645E+01 0.00000E+00
 -1       617 4.20299E+01 1.05233E+01 0.00000E+00
 -1       618 1.03920E+01 2.05500E+01 0.00000E+00
 -1       619 1.03920E+01 2.35000E+01 0.00000E+00
 -1       620 1.03920E+01 1.46750E+01 0.00000E+00
 -1       621 1.03920E+01 1.17250E+01 0.00000E+00
 -1       622 1.39206E+02 1.03250E+01 0.00000E+00
 -1       623 1.15350E+01 9.20225E+00 0.00000E+00
 -1       624 4.35622E+01 9.27183E+00 0.00000E+00
 -1       625 4.55655E+01 1.06725E+01 0.00000E+00
 -1       626 1.51500E+01 3.96080E+01 0.00000E+00
 -1       627 1.81500E+01 3.96080E+01 0.00000E+00
 -1       628 2.11500E+01 3.96080E+01 0.00000E+00
 -1       629 2.41500E+01 3.96080E+01 0.00000E+00
 -1       630 2.71500E+01 3.96080E+01 0.00000E+00
 -1       631 3.01500E+01 3.96080E+01 0.00000E+00
 -1       632 3.31500E+01 3.96080E+01 0.00000E+00
 -1       633 3.61500E+01 3.96080E+01 0.00000E+00
 -1       634 3.91500E+01 3.96080E+01 0.00000E+00
 -1       635 4.21500E+01 3.96080E+01 0.00000E+00
 -1       636 4.51500E+01 3.96080E+01 0.00000E+00
 -1       637 4.81500E+01 3.96080E+01 0.00000E+00
 -1       638 5.11500E+01 3.96080E+01 0.00000E+00
 -1       639 5.41500E+01 3.96080E+01 0.00000E+00
 -1       640 5.71500E+01 3.96080E+01 0.00000E+00
 -1       641 6.01500E+01 3.96080E+01 0.00000E+00
 -1       642 6.31500E+01 3.96080E+01 0.00000E+00
 -1       643 6.61500E+01 3.96080E+01 0.00000E+00
 -1       644 6.91500E+01 3.96080E+01 0.00000E+00
 -1       645 7.21500E+01 3.96080E+01 0.00000E+00
 -1       646 7.51500E+01 3.96080E+01 0.00000E+00
 -1       647 7.81500E+01 3.96080E+01 0.00000E+00
 -1       648 8.11500E+01 3.96080E+01 0.00000E+00
 -1       649 8.41500E+01 3.96080E+01 0.00000E+00
 -1       650 8.71500E+01 3.96080E+01 0.00000E+00
 -1       651 9.01500E+01 3.96080E+01 0.00000E+00
 -1       652 9.31500E+01 3.96080E+01 0.00000E+00
 -1       653 9.61500E+01 3.96080E+01 0.00000E+00
 -1       654 9.91500E+01 3.96080E+01 0.00000E+00
 -1       655 1.02150E+02 3.96080E+01 0.00000E+00
 -1       656 1.05150E+02 3.96080E+01 0.00000E+00
 -1       657 1.08150E+02 3.96080E+01 0.00000E+00
 -1       658 1.11150E+02 3.96080E+01 0.00000E+00
 -1       659 1.14150E+02 3.96080E+01 0.00000E+00
 -1       660 1.17150E+02 3.96080E+01 0.00000E+00
 -1       661 1.20150E+02 3.96080E+01 0.00000E+00
 -1       662 1.23150E+02 3.96080E+01 0.00000E+00
 -1       663 1.26150E+02 3.96080E+01 0.00000E+00
 -1       664 1.29150E+02 3.96080E+01 0.00000E+00
 -1       665 1.32150E+02 3.96080E+01 0.00000E+00
 -1       666 1.35150E+02 3.96080E+01 0.00000E+00
 -1       667 1.38150E+02 3.96080E+01 0.00000E+00
 -1       668 2.35350E+01 9.20225E+00 0.00000E+00
 -1       669 4.91138E+01 2.91210E+01 0.00000E+00
 -1       670 2.05350E+01 9.20225E+00 0.00000E+00
 -1       671 2.95350E+01 9.20225E+00 0.00000E+00
 -1       672 4.75350E+01 9.15721E+00 0.00000E+00
 -1       673 5.05350E+01 9.15721E+00 0.00000E+00
 -1       674 5.35350E+01 9.15721E+00 0.00000E+00
 -1       675 5.65350E+01 9.15721E+00 0.00000E+00
 -1       676 5.95350E+01 9.15721E+00 0.00000E+00
 -1       677 6.25350E+01 9.15721E+00 0.00000E+00
 -1       678 6.55350E+01 9.15721E+00 0.00000E+00
 -1       679 6.85350E+01 9.15721E+00 0.00000E+00
 -1       680 7.15350E+01 9.15721E+00 0.00000E+00
 -1       681 7.45350E+01 9.15721E+00 0.00000E+00
 -1       682 7.75350E+01 9.15721E+00 0.00000E+00
 -1       683 8.05350E+01 9.15721E+00 0.00000E+00
 -1       684 8.35350E+01 9.15721E+00 0.00000E+00
 -1       685 8.65350E+01 9.15721E+00 0.00000E+00
 -1       686 8.95350E+01 9.15721E+00 0.00000E+00
 -1       687 9.25350E+01 9.15721E+00 0.00000E+00
 -1       688 9.55350E+01 9.15721E+00 0.00000E+00
 -1       689 9.85350E+01 9.15721E+00 0.00000E+00
 -1       690 1.01535E+02 9.15721E+00 0.00000E+00
 -1       691 1.04535E+02 9.15721E+00 0.00000E+00
 -1       692 1.07535E+02 9.15721E+00 0.00000E+00
 -1       693 1.10535E+02 9.15721E+00 0.00000E+00
 -1       694 1.13535E+02 9.15721E+00 0.00000E+00
 -1       695 1.16535E+02 9.15721E+00 0.00000E+00
 -1       696 1.19535E+02 9.15721E+00 0.00000E+00
 -1       697 1.22535E+02 9.15721E+00 0.00000E+00
 -1       698 1.25535E+02 9.15721E+00 0.00000E+00
 -1       699 1.28535E+02 9.15721E+00 0.00000E+00
 -1       700 1.31535E+02 9.15721E+00 0.00000E+00
 -1       701 1.34535E+02 9.15721E+00 0.00000E+00
 -1       702 1.36870E+02 9.74111E+00 0.00000E+00
 -1       703 1.39608E+02 2.35500E+01 0.00000E+00
 -1       704 1.40178E+02 3.96665E+01 0.00000E+00
 -1       705 1.39608E+02 1.76500E+01 0.00000E+00
 -1       706 1.39608E+02 2.65000E+01 0.00000E+00
 -1       707 1.39608E+02 2.06000E+01 0.00000E+00
 -1       708 4.71603E+01 1.20718E+01 0.00000E+00
 -1       709 1.39608E+02 2.94000E+01 0.00000E+00
 -1       710 1.39608E+02 3.23500E+01 0.00000E+00
 -1       711 1.39608E+02 3.53000E+01 0.00000E+00
 -1       712 5.19187E+01 1.94658E+01 0.00000E+00
 -1       713 5.09607E+01 1.65315E+01 0.00000E+00
 -1       714 9.78035E+00 3.93914E+01 0.00000E+00
 -1       715 4.08048E+01 3.54055E+01 0.00000E+00
 -1       716 4.60211E+01 3.32127E+01 0.00000E+00
 -1       717 5.16650E+01 2.45357E+01 0.00000E+00
 -1       718 1.45350E+01 9.20225E+00 0.00000E+00
 -1       719 2.67688E+01 2.64206E+01 0.00000E+00
 -1       720 1.75350E+01 9.20225E+00 0.00000E+00
 -1       721 5.14994E+01 2.20415E+01 0.00000E+00
 -1       722 2.65350E+01 9.20225E+00 0.00000E+00
 -1       723 1.24652E+01 3.94997E+01 0.00000E+00
 -1       724 4.92644E+01 1.39279E+01 0.00000E+00
 -1       725 3.05274E+01 1.14303E+01 0.00000E+00
 -1       726 2.60689E+01 2.13974E+01 0.00000E+00
 -1       727 1.03920E+01 1.76125E+01 0.00000E+00
 -1       728 5.05441E+01 2.73777E+01 0.00000E+00
 -1       729 2.89336E+01 1.33623E+01 0.00000E+00
 -1       730 1.03920E+01 3.23250E+01 0.00000E+00
 -1       731 4.34982E+01 3.44421E+01 0.00000E+00
 -1       732 3.40931E+01 3.42261E+01 0.00000E+00
 -1       733 2.61221E+01 2.37372E+01 0.00000E+00
 -1       734 2.78969E+01 2.91377E+01 0.00000E+00
 -1       735 4.78440E+01 3.08619E+01 0.00000E+00
 -1       736 3.19700E+01 9.29790E+00 0.00000E+00
 -1       737 1.03920E+01 2.64500E+01 0.00000E+00
 -1       738 1.03920E+01 3.52625E+01 0.00000E+00
 -1       739 1.39608E+02 1.47250E+01 0.00000E+00
 -1       740 5.25253E+01 2.63795E+01 0.00000E+00
 -1       741 5.14718E+01 1.46203E+01 0.00000E+00
 -1       742 2.66073E+01 1.68510E+01 0.00000E+00
 -1       743 3.55301E+01 3.62024E+01 0.00000E+00
 -1       744 3.91139E+01 3.65648E+01 0.00000E+00
 -1       745 3.05619E+01 3.24375E+01 0.00000E+00
 -1       746 2.60408E+01 2.83649E+01 0.00000E+00
 -1       747 2.56178E+01 1.98299E+01 0.00000E+00
 -1       748 1.03920E+01 2.93875E+01 0.00000E+00
 -1       749 2.82691E+01 3.07719E+01 0.00000E+00
 -1       750 5.15436E+01 2.96561E+01 0.00000E+00
 -1       751 1.29900E+01 1.32000E+01 0.00000E+00
 -1       752 1.37010E+02 2.79500E+01 0.00000E+00
 -1       753 4.95687E+01 1.14623E+01 0.00000E+00
 -1       754 1.96500E+01 3.70100E+01 0.00000E+00
 -1       755 2.26500E+01 3.70100E+01 0.00000E+00
 -1       756 2.56500E+01 3.70100E+01 0.00000E+00
 -1       757 2.86500E+01 3.70100E+01 0.00000E+00
 -1       758 3.16500E+01 3.70100E+01 0.00000E+00
 -1       759 4.36500E+01 3.72226E+01 0.00000E+00
 -1       760 4.66500E+01 3.72226E+01 0.00000E+00
 -1       761 4.96500E+01 3.72226E+01 0.00000E+00
 -1       762 5.26500E+01 3.72226E+01 0.00000E+00
 -1       763 5.56500E+01 3.72226E+01 0.00000E+00
 -1       764 5.86500E+01 3.72226E+01 0.00000E+00
 -1       765 6.16500E+01 3.72226E+01 0.00000E+00
 -1       766 6.46500E+01 3.72226E+01 0.00000E+00
 -1       767 6.76500E+01 3.72226E+01 0.00000E+00
 -1       768 7.06500E+01 3.72226E+01 0.00000E+00
 -1       769 7.36500E+01 3.72226E+01 0.00000E+00
 -1       770 7.66500E+01 3.72226E+01 0.00000E+00
 -1       771 7.96500E+01 3.72226E+01 0.00000E+00
 -1       772 8.26500E+01 3.72226E+01 0.00000E+00
 -1       773 8.56500E+01 3.72226E+01 0.00000E+00
 -1       774 8.86500E+01 3.72226E+01 0.00000E+00
 -1       775 9.16500E+01 3.72226E+01 0.00000E+00
 -1       776 9.46500E+01 3.72226E+01 0.00000E+00
 -1       777 9.76500E+01 3.72226E+01 0.00000E+00
 -1       778 1.00650E+02 3.72226E+01 0.00000E+00
 -1       779 1.03650E+02 3.72226E+01 0.00000E+00
 -1       780 1.06650E+02 3.72226E+01 0.00000E+00
 -1       781 1.09650E+02 3.72226E+01 0.00000E+00
 -1       782 1.12650E+02 3.72226E+01 0.00000E+00
 -1       783 1.15650E+02 3.72226E+01 0.00000E+00
 -1       784 1.18650E+02 3.72226E+01 0.00000E+00
 -1       785 1.21650E+02 3.72226E+01 0.00000E+00
 -1       786 1.24650E+02 3.72226E+01 0.00000E+00
 -1       787 1.27650E+02 3.72226E+01 0.00000E+00
 -1       788 1.30650E+02 3.72226E+01 0.00000E+00
 -1       789 1.33650E+02 3.72226E+01 0.00000E+00
 -1       790 1.36650E+02 3.72226E+01 0.00000E+00
 -1       791 5.02737E+01 3.13970E+01 0.00000E+00
 -1       792 5.80350E+01 1.17552E+01 0.00000E+00
 -1       793 6.10350E+01 1.17552E+01 0.00000E+00
 -1       794 6.40350E+01 1.17552E+01 0.00000E+00
 -1       795 6.70350E+01 1.17552E+01 0.00000E+00
 -1       796 7.00350E+01 1.17552E+01 0.00000E+00
 -1       797 7.30350E+01 1.17552E+01 0.00000E+00
 -1       798 7.60350E+01 1.17552E+01 0.00000E+00
 -1       799 7.90350E+01 1.17552E+01 0.00000E+00
 -1       800 8.20350E+01 1.17552E+01 0.00000E+00
 -1       801 8.50350E+01 1.17552E+01 0.00000E+00
 -1       802 8.80350E+01 1.17552E+01 0.00000E+00
 -1       803 9.10350E+01 1.17552E+01 0.00000E+00
 -1       804 9.40350E+01 1.17552E+01 0.00000E+00
 -1       805 9.70350E+01 1.17552E+01 0.00000E+00
 -1       806 1.00035E+02 1.17552E+01 0.00000E+00
 -1       807 1.03035E+02 1.17552E+01 0.00000E+00
 -1       808 1.06035E+02 1.17552E+01 0.00000E+00
 -1       809 1.09035E+02 1.17552E+01 0.00000E+00
 -1       810 1.12035E+02 1.17552E+01 0.00000E+00
 -1       811 1.15035E+02 1.17552E+01 0.00000E+00
 -1       812 1.18035E+02 1.17552E+01 0.00000E+00
 -1       813 1.21035E+02 1.17552E+01 0.00000E+00
 -1       814 1.24035E+02 1.17552E+01 0.00000E+00
 -1       815 1.27035E+02 1.17552E+01 0.00000E+00
 -1       816 1.30035E+02 1.17552E+01 0.00000E+00
 -1       817 1.33035E+02 1.17552E+01 0.00000E+00
 -1       818 1.37010E+02 2.50000E+01 0.00000E+00
 -1       819 2.47781E+01 2.54807E+01 0.00000E+00
 -1       820 1.37010E+02 3.38250E+01 0.00000E+00
 -1       821 5.39586E+01 2.31309E+01 0.00000E+00
 -1       822 1.37010E+02 3.08875E+01 0.00000E+00
 -1       823 5.50350E+01 1.17552E+01 0.00000E+00
 -1       824 4.84509E+01 3.37477E+01 0.00000E+00
 -1       825 5.23018E+01 1.16088E+01 0.00000E+00
 -1       826 5.37073E+01 1.72583E+01 0.00000E+00
 -1       827 5.43779E+01 2.05552E+01 0.00000E+00
 -1       828 2.20350E+01 1.18003E+01 0.00000E+00
 -1       829 2.66094E+01 1.41197E+01 0.00000E+00
 -1       830 2.40458E+01 2.26139E+01 0.00000E+00
 -1       831 1.37625E+01 1.12011E+01 0.00000E+00
 -1       832 1.66500E+01 3.70100E+01 0.00000E+00
 -1       833 3.19494E+01 3.43237E+01 0.00000E+00
 -1       834 2.77343E+01 1.12823E+01 0.00000E+00
 -1       835 1.29900E+01 2.20250E+01 0.00000E+00
 -1       836 1.29900E+01 1.61375E+01 0.00000E+00
 -1       837 1.29900E+01 3.37938E+01 0.00000E+00
 -1       838 1.37010E+02 1.61875E+01 0.00000E+00
 -1       839 1.29900E+01 2.49750E+01 0.00000E+00
 -1       840 5.48190E+01 2.49747E+01 0.00000E+00
 -1       841 1.35370E+02 1.23391E+01 0.00000E+00
 -1       842 1.37010E+02 1.91375E+01 0.00000E+00
 -1       843 2.35946E+01 2.10464E+01 0.00000E+00
 -1       844 2.40501E+01 2.74250E+01 0.00000E+00
 -1       845 1.37010E+02 2.20688E+01 0.00000E+00
 -1       846 2.49283E+01 1.79671E+01 0.00000E+00
 -1       847 1.90350E+01 1.18003E+01 0.00000E+00
 -1       848 2.64130E+01 2.99991E+01 0.00000E+00
 -1       849 1.63988E+01 1.15007E+01 0.00000E+00
 -1       850 1.29900E+01 1.90875E+01 0.00000E+00
 -1       851 2.48846E+01 1.15413E+01 0.00000E+00
 -1       852 1.39652E+01 3.69017E+01 0.00000E+00
 -1       853 1.29900E+01 3.08563E+01 0.00000E+00
 -1       854 5.35248E+01 2.86579E+01 0.00000E+00
 -1       855 2.84861E+01 3.24693E+01 0.00000E+00
 -1       856 1.36940E+02 1.29643E+01 0.00000E+00
 -1       857 2.41500E+01 3.44120E+01 0.00000E+00
 -1       858 1.34010E+02 3.38250E+01 0.00000E+00
 -1       859 5.41500E+01 3.46246E+01 0.00000E+00
 -1       860 5.71500E+01 3.46246E+01 0.00000E+00
 -1       861 6.01500E+01 3.46246E+01 0.00000E+00
 -1       862 6.31500E+01 3.46246E+01 0.00000E+00
 -1       863 6.61500E+01 3.46246E+01 0.00000E+00
 -1       864 6.91500E+01 3.46246E+01 0.00000E+00
 -1       865 7.21500E+01 3.46246E+01 0.00000E+00
 -1       866 7.51500E+01 3.46246E+01 0.00000E+00
 -1       867 7.81500E+01 3.46246E+01 0.00000E+00
 -1       868 8.11500E+01 3.46246E+01 0.00000E+00
 -1       869 8.41500E+01 3.46246E+01 0.00000E+00
 -1       870 8.71500E+01 3.46246E+01 0.00000E+00
 -1       871 9.01500E+01 3.46246E+01 0.00000E+00
 -1       872 9.31500E+01 3.46246E+01 0.00000E+00
 -1       873 9.61500E+01 3.46246E+01 0.00000E+00
 -1       874 9.91500E+01 3.46246E+01 0.00000E+00
 -1       875 1.02150E+02 3.46246E+01 0.00000E+00
 -1       876 1.05150E+02 3.46246E+01 0.00000E+00
 -1       877 1.08150E+02 3.46246E+01 0.00000E+00
 -1       878 1.11150E+02 3.46246E+01 0.00000E+00
 -1       879 1.14150E+02 3.46246E+01 0.00000E+00
 -1       880 1.17150E+02 3.46246E+01 0.00000E+00
 -1       881 1.20150E+02 3.46246E+01 0.00000E+00
 -1       882 1.23150E+02 3.46246E+01 0.00000E+00
 -1       883 1.26150E+02 3.46246E+01 0.00000E+00
 -1       884 1.29150E+02 3.46246E+01 0.00000E+00
 -1       885 1.31580E+02 3.42248E+01 0.00000E+00
 -1       886 5.14619E+01 3.43098E+01 0.00000E+00
 -1       887 5.24933E+01 3.14838E+01 0.00000E+00
 -1       888 6.25350E+01 1.43532E+01 0.00000E+00
 -1       889 5.95350E+01 1.43532E+01 0.00000E+00
 -1       890 6.85350E+01 1.43532E+01 0.00000E+00
 -1       891 7.15350E+01 1.43532E+01 0.00000E+00
 -1       892 7.45350E+01 1.43532E+01 0.00000E+00
 -1       893 7.75350E+01 1.43532E+01 0.00000E+00
 -1       894 8.05350E+01 1.43532E+01 0.00000E+00
 -1       895 8.35350E+01 1.43532E+01 0.00000E+00
 -1       896 8.65350E+01 1.43532E+01 0.00000E+00
 -1       897 8.95350E+01 1.43532E+01 0.00000E+00
 -1       898 9.25350E+01 1.43532E+01 0.00000E+00
 -1       899 9.55350E+01 1.43532E+01 0.00000E+00
 -1       900 9.85350E+01 1.43532E+01 0.00000E+00
 -1       901 1.01535E+02 1.43532E+01 0.00000E+00
 -1       902 1.04535E+02 1.43532E+01 0.00000E+00
 -1       903 1.07535E+02 1.43532E+01 0.00000E+00
 -1       904 1.10535E+02 1.43532E+01 0.00000E+00
 -1       905 1.13535E+02 1.43532E+01 0.00000E+00
 -1       906 1.16535E+02 1.43532E+01 0.00000E+00
 -1       907 1.19535E+02 1.43532E+01 0.00000E+00
 -1       908 1.22535E+02 1.43532E+01 0.00000E+00
 -1       909 1.25535E+02 1.43532E+01 0.00000E+00
 -1       910 1.28535E+02 1.43532E+01 0.00000E+00
 -1       911 1.31535E+02 1.43532E+01 0.00000E+00
 -1       912 1.29900E+01 2.79188E+01 0.00000E+00
 -1       913 1.34412E+02 2.64750E+01 0.00000E+00
 -1       914 5.65406E+01 1.83986E+01 0.00000E+00
 -1       915 5.42815E+01 1.45055E+01 0.00000E+00
 -1       916 2.49304E+01 1.52357E+01 0.00000E+00
 -1       917 1.81500E+01 3.44120E+01 0.00000E+00
 -1       918 5.65190E+01 2.22256E+01 0.00000E+00
 -1       919 2.24255E+01 2.45547E+01 0.00000E+00
 -1       920 6.55350E+01 1.43532E+01 0.00000E+00
 -1       921 5.69083E+01 1.44293E+01 0.00000E+00
 -1       922 2.11500E+01 3.44120E+01 0.00000E+00
 -1       923 1.56263E+01 1.34996E+01 0.00000E+00
 -1       924 2.16975E+01 2.64990E+01 0.00000E+00
 -1       925 1.56748E+01 3.39021E+01 0.00000E+00
 -1       926 1.56748E+01 3.09646E+01 0.00000E+00
 -1       927 1.55880E+01 2.35000E+01 0.00000E+00
 -1       928 1.33870E+02 1.49371E+01 0.00000E+00
 -1       929 2.19743E+01 2.29872E+01 0.00000E+00
 -1       930 2.42417E+01 2.95974E+01 0.00000E+00
 -1       931 1.34412E+02 2.94125E+01 0.00000E+00
 -1       932 1.34412E+02 2.35438E+01 0.00000E+00
 -1       933 2.29052E+01 1.91836E+01 0.00000E+00
 -1       934 2.05350E+01 1.43982E+01 0.00000E+00
 -1       935 1.34412E+02 1.76625E+01 0.00000E+00
 -1       936 5.67244E+01 1.64140E+01 0.00000E+00
 -1       937 5.58185E+01 2.72531E+01 0.00000E+00
 -1       938 1.55880E+01 2.05625E+01 0.00000E+00
 -1       939 1.55880E+01 2.64438E+01 0.00000E+00
 -1       940 5.86500E+01 3.20266E+01 0.00000E+00
 -1       941 6.16500E+01 3.20266E+01 0.00000E+00
 -1       942 6.46500E+01 3.20266E+01 0.00000E+00
 -1       943 6.76500E+01 3.20266E+01 0.00000E+00
 -1       944 7.06500E+01 3.20266E+01 0.00000E+00
 -1       945 7.36500E+01 3.20266E+01 0.00000E+00
 -1       946 7.66500E+01 3.20266E+01 0.00000E+00
 -1       947 7.96500E+01 3.20266E+01 0.00000E+00
 -1       948 8.26500E+01 3.20266E+01 0.00000E+00
 -1       949 8.56500E+01 3.20266E+01 0.00000E+00
 -1       950 8.86500E+01 3.20266E+01 0.00000E+00
 -1       951 9.16500E+01 3.20266E+01 0.00000E+00
 -1       952 9.46500E+01 3.20266E+01 0.00000E+00
 -1       953 9.76500E+01 3.20266E+01 0.00000E+00
 -1       954 1.00650E+02 3.20266E+01 0.00000E+00
 -1       955 1.03650E+02 3.20266E+01 0.00000E+00
 -1       956 1.06650E+02 3.20266E+01 0.00000E+00
 -1       957 1.09650E+02 3.20266E+01 0.00000E+00
 -1       958 1.12650E+02 3.20266E+01 0.00000E+00
 -1       959 1.15650E+02 3.20266E+01 0.00000E+00
 -1       960 1.18650E+02 3.20266E+01 0.00000E+00
 -1       961 1.21650E+02 3.20266E+01 0.00000E+00
 -1       962 1.24650E+02 3.20266E+01 0.00000E+00
 -1       963 1.27650E+02 3.20266E+01 0.00000E+00
 -1       964 7.60350E+01 1.69512E+01 0.00000E+00
 -1       965 6.10350E+01 1.69512E+01 0.00000E+00
 -1       966 2.26500E+01 3.18140E+01 0.00000E+00
 -1       967 7.30350E+01 1.69512E+01 0.00000E+00
 -1       968 7.00350E+01 1.69512E+01 0.00000E+00
 -1       969 7.90350E+01 1.69512E+01 0.00000E+00
 -1       970 8.20350E+01 1.69512E+01 0.00000E+00
 -1       971 8.50350E+01 1.69512E+01 0.00000E+00
 -1       972 8.80350E+01 1.69512E+01 0.00000E+00
 -1       973 9.10350E+01 1.69512E+01 0.00000E+00
 -1       974 9.40350E+01 1.69512E+01 0.00000E+00
 -1       975 9.70350E+01 1.69512E+01 0.00000E+00
 -1       976 1.00035E+02 1.69512E+01 0.00000E+00
 -1       977 1.03035E+02 1.69512E+01 0.00000E+00
 -1       978 1.06035E+02 1.69512E+01 0.00000E+00
 -1       979 1.09035E+02 1.69512E+01 0.00000E+00
 -1       980 1.12035E+02 1.69512E+01 0.00000E+00
 -1       981 1.15035E+02 1.69512E+01 0.00000E+00
 -1       982 1.18035E+02 1.69512E+01 0.00000E+00
 -1       983 1.21035E+02 1.69512E+01 0.00000E+00
 -1       984 1.24035E+02 1.69512E+01 0.00000E+00
 -1       985 1.27035E+02 1.69512E+01 0.00000E+00
 -1       986 1.30035E+02 1.69512E+01 0.00000E+00
 -1       987 1.56314E+01 2.87042E+01 0.00000E+00
 -1       988 1.34412E+02 2.05938E+01 0.00000E+00
 -1       989 1.61458E+01 1.66550E+01 0.00000E+00
 -1       990 1.32223E+02 1.73069E+01 0.00000E+00
 -1       991 5.90790E+01 2.03266E+01 0.00000E+00
 -1       992 1.96500E+01 3.18140E+01 0.00000E+00
 -1       993 1.80806E+01 1.39489E+01 0.00000E+00
 -1       994 2.18891E+01 2.86714E+01 0.00000E+00
 -1       995 2.48934E+01 3.21438E+01 0.00000E+00
 -1       996 2.65101E+01 3.18594E+01 0.00000E+00
 -1       997 1.76624E+01 3.13893E+01 0.00000E+00
 -1       998 5.78787E+01 2.49666E+01 0.00000E+00
 -1       999 1.81860E+01 2.49719E+01 0.00000E+00
 -1      1000 5.88797E+01 1.66826E+01 0.00000E+00
 -1      1001 5.56500E+01 3.20266E+01 0.00000E+00
 -1      1002 5.50924E+01 3.08313E+01 0.00000E+00
 -1      1003 1.30080E+02 3.16268E+01 0.00000E+00
 -1      1004 2.28791E+01 1.65998E+01 0.00000E+00
 -1      1005 1.32246E+02 3.05197E+01 0.00000E+00
 -1      1006 1.32223E+02 2.02381E+01 0.00000E+00
 -1      1007 6.70350E+01 1.69512E+01 0.00000E+00
 -1      1008 6.04387E+01 2.30675E+01 0.00000E+00
 -1      1009 1.32246E+02 2.75822E+01 0.00000E+00
 -1      1010 1.32246E+02 2.46509E+01 0.00000E+00
 -1      1011 2.12849E+01 2.11244E+01 0.00000E+00
 -1      1012 6.40350E+01 1.69512E+01 0.00000E+00
 -1      1013 1.96707E+01 2.46316E+01 0.00000E+00
 -1      1014 1.81860E+01 2.20344E+01 0.00000E+00
 -1      1015 1.99285E+01 1.73928E+01 0.00000E+00
 -1      1016 6.01500E+01 2.94286E+01 0.00000E+00
 -1      1017 1.32235E+02 2.24445E+01 0.00000E+00
 -1      1018 6.31500E+01 2.94286E+01 0.00000E+00
 -1      1019 6.61500E+01 2.94286E+01 0.00000E+00
 -1      1020 6.91500E+01 2.94286E+01 0.00000E+00
 -1      1021 7.21500E+01 2.94286E+01 0.00000E+00
 -1      1022 7.51500E+01 2.94286E+01 0.00000E+00
 -1      1023 7.81500E+01 2.94286E+01 0.00000E+00
 -1      1024 8.11500E+01 2.94286E+01 0.00000E+00
 -1      1025 8.41500E+01 2.94286E+01 0.00000E+00
 -1      1026 8.71500E+01 2.94286E+01 0.00000E+00
 -1      1027 9.01500E+01 2.94286E+01 0.00000E+00
 -1      1028 9.31500E+01 2.94286E+01 0.00000E+00
 -1      1029 9.61500E+01 2.94286E+01 0.00000E+00
 -1      1030 9.91500E+01 2.94286E+01 0.00000E+00
 -1      1031 1.02150E+02 2.94286E+01 0.00000E+00
 -1      1032 1.05150E+02 2.94286E+01 0.00000E+00
 -1      1033 1.08150E+02 2.94286E+01 0.00000E+00
 -1      1034 1.11150E+02 2.94286E+01 0.00000E+00
 -1      1035 1.14150E+02 2.94286E+01 0.00000E+00
 -1      1036 1.17150E+02 2.94286E+01 0.00000E+00
 -1      1037 1.20150E+02 2.94286E+01 0.00000E+00
 -1      1038 1.23150E+02 2.94286E+01 0.00000E+00
 -1      1039 1.26150E+02 2.94286E+01 0.00000E+00
 -1      1040 8.05350E+01 1.95492E+01 0.00000E+00
 -1      1041 7.75350E+01 1.95492E+01 0.00000E+00
 -1      1042 7.15350E+01 1.95492E+01 0.00000E+00
 -1      1043 8.35350E+01 1.95492E+01 0.00000E+00
 -1      1044 8.65350E+01 1.95492E+01 0.00000E+00
 -1      1045 8.95350E+01 1.95492E+01 0.00000E+00
 -1      1046 9.25350E+01 1.95492E+01 0.00000E+00
 -1      1047 9.55350E+01 1.95492E+01 0.00000E+00
 -1      1048 9.85350E+01 1.95492E+01 0.00000E+00
 -1      1049 1.01535E+02 1.95492E+01 0.00000E+00
 -1      1050 1.04535E+02 1.95492E+01 0.00000E+00
 -1      1051 1.07535E+02 1.95492E+01 0.00000E+00
 -1      1052 1.10535E+02 1.95492E+01 0.00000E+00
 -1      1053 1.13535E+02 1.95492E+01 0.00000E+00
 -1      1054 1.16535E+02 1.95492E+01 0.00000E+00
 -1      1055 1.19535E+02 1.95492E+01 0.00000E+00
 -1      1056 1.22535E+02 1.95492E+01 0.00000E+00
 -1      1057 1.25535E+02 1.95492E+01 0.00000E+00
 -1      1058 1.28535E+02 1.95492E+01 0.00000E+00
 -1      1059 1.30379E+02 1.98937E+01 0.00000E+00
 -1      1060 1.95840E+01 2.77800E+01 0.00000E+00
 -1      1061 5.84962E+01 2.75944E+01 0.00000E+00
 -1      1062 7.45350E+01 1.95492E+01 0.00000E+00
 -1      1063 6.23049E+01 1.99415E+01 0.00000E+00
 -1      1064 1.28580E+02 2.90288E+01 0.00000E+00
 -1      1065 6.53048E+01 1.99415E+01 0.00000E+00
 -1      1066 1.93131E+01 2.16949E+01 0.00000E+00
 -1      1067 6.85350E+01 1.95492E+01 0.00000E+00
 -1      1068 1.29648E+02 2.61165E+01 0.00000E+00
 -1      1069 6.10563E+01 2.56953E+01 0.00000E+00
 -1      1070 7.90350E+01 2.21472E+01 0.00000E+00
 -1      1071 6.46500E+01 2.68306E+01 0.00000E+00
 -1      1072 6.76500E+01 2.68306E+01 0.00000E+00
 -1      1073 7.06500E+01 2.68306E+01 0.00000E+00
 -1      1074 7.36500E+01 2.68306E+01 0.00000E+00
 -1      1075 7.66500E+01 2.68306E+01 0.00000E+00
 -1      1076 7.96500E+01 2.68306E+01 0.00000E+00
 -1      1077 8.26500E+01 2.68306E+01 0.00000E+00
 -1      1078 8.56500E+01 2.68306E+01 0.00000E+00
 -1      1079 8.86500E+01 2.68306E+01 0.00000E+00
 -1      1080 9.16500E+01 2.68306E+01 0.00000E+00
 -1      1081 9.46500E+01 2.68306E+01 0.00000E+00
 -1      1082 9.76500E+01 2.68306E+01 0.00000E+00
 -1      1083 1.00650E+02 2.68306E+01 0.00000E+00
 -1      1084 1.03650E+02 2.68306E+01 0.00000E+00
 -1      1085 1.06650E+02 2.68306E+01 0.00000E+00
 -1      1086 1.09650E+02 2.68306E+01 0.00000E+00
 -1      1087 1.12650E+02 2.68306E+01 0.00000E+00
 -1      1088 1.15650E+02 2.68306E+01 0.00000E+00
 -1      1089 1.18650E+02 2.68306E+01 0.00000E+00
 -1      1090 1.21650E+02 2.68306E+01 0.00000E+00
 -1      1091 1.24650E+02 2.68306E+01 0.00000E+00
 -1      1092 8.50350E+01 2.21472E+01 0.00000E+00
 -1      1093 7.30350E+01 2.21472E+01 0.00000E+00
 -1      1094 1.27218E+02 2.65163E+01 0.00000E+00
 -1      1095 8.80350E+01 2.21472E+01 0.00000E+00
 -1      1096 8.20350E+01 2.21472E+01 0.00000E+00
 -1      1097 9.10350E+01 2.21472E+01 0.00000E+00
 -1      1098 9.40350E+01 2.21472E+01 0.00000E+00
 -1      1099 9.70350E+01 2.21472E+01 0.00000E+00
 -1      1100 1.00035E+02 2.21472E+01 0.00000E+00
 -1      1101 1.03035E+02 2.21472E+01 0.00000E+00
 -1      1102 1.06035E+02 2.21472E+01 0.00000E+00
 -1      1103 1.09035E+02 2.21472E+01 0.00000E+00
 -1      1104 1.12035E+02 2.21472E+01 0.00000E+00
 -1      1105 1.15035E+02 2.21472E+01 0.00000E+00
 -1      1106 1.18035E+02 2.21472E+01 0.00000E+00
 -1      1107 1.21035E+02 2.21472E+01 0.00000E+00
 -1      1108 1.24035E+02 2.21472E+01 0.00000E+00
 -1      1109 1.27035E+02 2.21472E+01 0.00000E+00
 -1      1110 1.82506E+01 2.97845E+01 0.00000E+00
 -1      1111 7.60350E+01 2.21472E+01 0.00000E+00
 -1      1112 1.29637E+02 2.39101E+01 0.00000E+00
 -1      1113 6.36025E+01 2.28362E+01 0.00000E+00
 -1      1114 1.30008E+02 2.19019E+01 0.00000E+00
 -1      1115 7.00350E+01 2.21472E+01 0.00000E+00
 -1      1116 8.95350E+01 2.47452E+01 0.00000E+00
 -1      1117 6.91500E+01 2.42326E+01 0.00000E+00
 -1      1118 9.31500E+01 2.42326E+01 0.00000E+00
 -1      1119 6.61500E+01 2.42326E+01 0.00000E+00
 -1      1120 6.68187E+01 2.24917E+01 0.00000E+00
 -1      1121 0.00000E+00 4.85250E+01 0.00000E+00
 -1      1122 0.00000E+00 4.55750E+01 0.00000E+00
 -1      1123 0.00000E+00 4.26250E+01 0.00000E+00
 -1      1124 0.00000E+00 3.96750E+01 0.00000E+00
 -1      1125 0.00000E+00 3.67250E+01 0.00000E+00
 -1      1126 0.00000E+00 3.38000E+01 0.00000E+00
 -1      1127 0.00000E+00 3.08750E+01 0.00000E+00
 -1      1128 0.00000E+00 2.79250E+01 0.00000E+00
 -1      1129 0.00000E+00 2.49750E+01 0.00000E+00
 -1      1130 0.00000E+00 2.20250E+01 0.00000E+00
 -1      1131 0.00000E+00 1.90750E+01 0.00000E+00
 -1      1132 0.00000E+00 1.61500E+01 0.00000E+00
 -1      1133 0.00000E+00 1.32250E+01 0.00000E+00
 -1      1134 0.00000E+00 1.02750E+01 0.00000E+00
 -1      1135 0.00000E+00 7.32500E+00 0.00000E+00
 -1      1136 0.00000E+00 4.37500E+00 0.00000E+00
 -1      1137 0.00000E+00 1.45000E+00 0.00000E+00
 -1      1138 1.57500E+00 5.00000E+01 0.00000E+00
 -1      1139 4.65000E+00 5.00000E+01 0.00000E+00
 -1      1140 7.65000E+00 5.00000E+01 0.00000E+00
 -1      1141 1.06500E+01 5.00000E+01 0.00000E+00
 -1      1142 1.36500E+01 5.00000E+01 0.00000E+00
 -1      1143 1.66500E+01 5.00000E+01 0.00000E+00
 -1      1144 1.96500E+01 5.00000E+01 0.00000E+00
 -1      1145 2.26500E+01 5.00000E+01 0.00000E+00
 -1      1146 2.56500E+01 5.00000E+01 0.00000E+00
 -1      1147 2.86500E+01 5.00000E+01 0.00000E+00
 -1      1148 3.16500E+01 5.00000E+01 0.00000E+00
 -1      1149 3.46500E+01 5.00000E+01 0.00000E+00
 -1      1150 3.76500E+01 5.00000E+01 0.00000E+00
 -1      1151 4.06500E+01 5.00000E+01 0.00000E+00
 -1      1152 4.36500E+01 5.00000E+01 0.00000E+00
 -1      1153 4.66500E+01 5.00000E+01 0.00000E+00
 -1      1154 4.96500E+01 5.00000E+01 0.00000E+00
 -1      1155 5.26500E+01 5.00000E+01 0.00000E+00
 -1      1156 5.56500E+01 5.00000E+01 0.00000E+00
 -1      1157 5.86500E+01 5.00000E+01 0.00000E+00
 -1      1158 6.16500E+01 5.00000E+01 0.00000E+00
 -1      1159 6.46500E+01 5.00000E+01 0.00000E+00
 -1      1160 6.76500E+01 5.00000E+01 0.00000E+00
 -1      1161 7.06500E+01 5.00000E+01 0.00000E+00
 -1      1162 7.36500E+01 5.00000E+01 0.00000E+00
 -1      1163 7.66500E+01 5.00000E+01 0.00000E+00
 -1      1164 7.96500E+01 5.00000E+01 0.00000E+00
 -1      1165 8.26500E+01 5.00000E+01 0.00000E+00
 -1      1166 8.56500E+01 5.00000E+01 0.00000E+00
 -1      1167 8.86500E+01 5.00000E+01 0.00000E+00
 -1      1168 9.16500E+01 5.00000E+01 0.00000E+00
 -1      1169 9.46500E+01 5.00000E+01 0.00000E+00
 -1      1170 9.76500E+01 5.00000E+01 0.00000E+00
 -1      1171 1.00650E+02 5.00000E+01 0.00000E+00
 -1      1172 1.03650E+02 5.00000E+01 0.00000E+00
 -1      1173 1.06650E+02 5.00000E+01 0.00000E+00
 -1      1174 1.09650E+02 5.00000E+01 0.00000E+00
 -1      1175 1.12650E+02 5.00000E+01 0.00000E+00
 -1      1176 1.15650E+02 5.00000E+01 0.00000E+00
 -1      1177 1.18650E+02 5.00000E+01 0.00000E+00
 -1      1178 1.21650E+02 5.00000E+01 0.00000E+00
 -1      1179 1.24650E+02 5.00000E+01 0.00000E+00
 -1      1180 1.27650E+02 5.00000E+01 0.00000E+00
 -1      1181 1.30650E+02 5.00000E+01 0.00000E+00
 -1      1182 1.33650E+02 5.00000E+01 0.00000E+00
 -1      1183 1.36650E+02 5.00000E+01 0.00000E+00
 -1      1184 1.39650E+02 5.00000E+01 0.00000E+00
 -1      1185 1.42650E+02 5.00000E+01 0.00000E+00
 -1      1186 1.45650E+02 5.00000E+01 0.00000E+00
 -1      1187 1.48575E+02 5.00000E+01 0.00000E+00
 -1      1188 1.57500E+00 0.00000E+00 0.00000E+00
 -1      1189 4.65000E+00 0.00000E+00 0.00000E+00
 -1      1190 7.65000E+00 0.00000E+00 0.00000E+00
 -1      1191 1.06500E+01 0.00000E+00 0.00000E+00
 -1      1192 1.36500E+01 0.00000E+00 0.00000E+00
 -1      1193 1.66500E+01 0.00000E+00 0.00000E+00
 -1      1194 1.96500E+01 0.00000E+00 0.00000E+00
 -1      1195 2.26500E+01 0.00000E+00 0.00000E+00
 -1      1196 2.56500E+01 0.00000E+00 0.00000E+00
 -1      1197 2.86500E+01 0.00000E+00 0.00000E+00
 -1      1198 3.16500E+01 0.00000E+00 0.00000E+00
 -1      1199 3.46500E+01 0.00000E+00 0.00000E+00
 -1      1200 3.76500E+01 0.00000E+00 0.00000E+00
 -1      1201 4.06500E+01 0.00000E+00 0.00000E+00
 -1      1202 4.36500E+01 0.00000E+00 0.00000E+00
 -1      1203 4.66500E+01 0.00000E+00 0.00000E+00
 -1      1204 4.96500E+01 0.00000E+00 0.00000E+00
 -1      1205 5.26500E+01 0.00000E+00 0.00000E+00
 -1      1206 5.56500E+01 0.00000E+00 0.00000E+00
 -1      1207 5.86500E+01 0.00000E+00 0.00000E+00
 -1      1208 6.16500E+01 0.00000E+00 0.00000E+00
 -1      1209 6.46500E+01 0.00000E+00 0.00000E+00
 -1      1210 6.76500E+01 0.00000E+00 0.00000E+00
 -1      1211 7.06500E+01 0.00000E+00 0.00000E+00
 -1      1212 7.36500E+01 0.00000E+00 0.00000E+00
 -1      1213 7.66500E+01 0.00000E+00 0.00000E+00
 -1      1214 7.96500E+01 0.00000E+00 0.00000E+00
 -1      1215 8.26500E+01 0.00000E+00 0.00000E+00
 -1      1216 8.56500E+01 0.00000E+00 0.00000E+00
 -1      1217 8.86500E+01 0.00000E+00 0.00000E+00
 -1      1218 9.16500E+01 0.00000E+00 0.00000E+00
 -1      1219 9.46500E+01 0.00000E+00 0.00000E+00
 -1      1220 9.76500E+01 0.00000E+00 0.00000E+00
 -1      1221 1.00650E+02 0.00000E+00 0.00000E+00
 -1      1222 1.03650E+02 0.00000E+00 0.00000E+00
 -1      1223 1.06650E+02 0.00000E+00 0.00000E+00
 -1      1224 1.09650E+02 0.00000E+00 0.00000E+00
 -1      1225 1.12650E+02 0.00000E+00 0.00000E+00
 -1      1226 1.15650E+02 0.00000E+00 0.00000E+00
 -1      1227 1.18650E+02 0.00000E+00 0.00000E+00
 -1      1228 1.21650E+02 0.00000E+00 0.00000E+00
 -1      1229 1.24650E+02 0.00000E+00 0.00000E+00
 -1      1230 1.27650E+02 0.00000E+00 0.00000E+00
 -1      1231 1.30650E+02 0.00000E+00 0.00000E+00
 -1      1232 1.33650E+02 0.00000E+00 0.00000E+00
 -1      1233 1.36650E+02 0.00000E+00 0.00000E+00
 -1      1234 1.39650E+02 0.00000E+00 0.00000E+00
 -1      1235 1.42650E+02 0.00000E+00 0.00000E+00
 -1      1236 1.45650E+02 0.00000E+00 0.00000E+00
 -1      1237 1.48575E+02 0.00000E+00 0.00000E+00
 -1      1238 1.50000E+02 1.47500E+00 0.00000E+00
 -1      1239 1.50000E+02 4.42500E+00 0.00000E+00
 -1      1240 1.50000E+02 7.37500E+00 0.00000E+00
 -1      1241 1.50000E+02 1.03250E+01 0.00000E+00
 -1      1242 1.50000E+02 1.32750E+01 0.00000E+00
 -1      1243 1.50000E+02 1.62000E+01 0.00000E+00
 -1      1244 1.50000E+02 1.91250E+01 0.00000E+00
 -1      1245 1.50000E+02 2.20750E+01 0.00000E+00
 -1      1246 1.50000E+02 2.50250E+01 0.00000E+00
 -1      1247 1.50000E+02 2.79750E+01 0.00000E+00
 -1      1248 1.50000E+02 3.09250E+01 0.00000E+00
 -1      1249 1.50000E+02 3.38500E+01 0.00000E+00
 -1      1250 1.50000E+02 3.67750E+01 0.00000E+00
 -1      1251 1.50000E+02 3.97250E+01 0.00000E+00
 -1      1252 1.50000E+02 4.26750E+01 0.00000E+00
 -1      1253 1.50000E+02 4.56250E+01 0.00000E+00
 -1      1254 1.50000E+02 4.85500E+01 0.00000E+00
 -1      1255 4.57152E+01 2.12694E+01 0.00000E+00
 -1      1256 4.53871E+01 1.97893E+01 0.00000E+00
 -1      1257 4.47098E+01 1.83518E+01 0.00000E+00
 -1      1258 4.37139E+01 1.70924E+01 0.00000E+00
 -1      1259 4.25545E+01 1.61547E+01 0.00000E+00
 -1      1260 4.11937E+01 1.54729E+01 0.00000E+00
 -1      1261 3.96273E+01 1.50895E+01 0.00000E+00
 -1      1262 3.80856E+01 1.50675E+01 0.00000E+00
 -1      1263 3.66449E+01 1.53615E+01 0.00000E+00
 -1      1264 3.52707E+01 1.59652E+01 0.00000E+00
 -1      1265 3.40715E+01 1.68347E+01 0.00000E+00
 -1      1266 3.30772E+01 1.79440E+01 0.00000E+00
 -1      1267 3.23122E+01 1.93035E+01 0.00000E+00
 -1      1268 3.18667E+01 2.08021E+01 0.00000E+00
 -1      1269 3.17622E+01 2.22993E+01 0.00000E+00
 -1      1270 3.19809E+01 2.37905E+01 0.00000E+00
 -1      1271 3.25003E+01 2.51738E+01 0.00000E+00
 -1      1272 3.32999E+01 2.64189E+01 0.00000E+00
 -1      1273 3.44667E+01 2.75662E+01 0.00000E+00
 -1      1274 3.58122E+01 2.83855E+01 0.00000E+00
 -1      1275 3.72298E+01 2.88665E+01 0.00000E+00
 -1      1276 3.88675E+01 2.90343E+01 0.00000E+00
 -1      1277 4.04308E+01 2.88322E+01 0.00000E+00
 -1      1278 4.18261E+01 2.83266E+01 0.00000E+00
 -1      1279 4.30764E+01 2.75437E+01 0.00000E+00
 -1      1280 4.40840E+01 2.65767E+01 0.00000E+00
 -1      1281 4.48833E+01 2.54221E+01 0.00000E+00
 -1      1282 4.54403E+01 2.41176E+01 0.00000E+00
 -1      1283 4.57220E+01 2.27359E+01 0.00000E+00
 -1      1284 1.57500E+00 4.85250E+01 0.00000E+00
 -1      1285 1.29900E+00 4.48375E+01 0.00000E+00
 -1      1286 1.29900E+00 4.63125E+01 0.00000E+00
 -1      1287 1.29900E+00 4.18875E+01 0.00000E+00
 -1      1288 1.29900E+00 4.33625E+01 0.00000E+00
 -1      1289 2.59800E+00 4.41000E+01 0.00000E+00
 -1      1290 1.29900E+00 3.89375E+01 0.00000E+00
 -1      1291 1.29900E+00 4.04125E+01 0.00000E+00
 -1      1292 2.59800E+00 4.11500E+01 0.00000E+00
 -1      1293 1.29900E+00 3.59875E+01 0.00000E+00
 -1      1294 1.29900E+00 3.74625E+01 0.00000E+00
 -1      1295 2.59800E+00 3.82000E+01 0.00000E+00
 -1      1296 1.29900E+00 3.30875E+01 0.00000E+00
 -1      1297 1.29900E+00 3.45375E+01 0.00000E+00
 -1      1298 2.59800E+00 3.52750E+01 0.00000E+00
 -1      1299 1.29900E+00 3.01375E+01 0.00000E+00
 -1      1300 1.29900E+00 3.16125E+01 0.00000E+00
 -1      1301 2.59800E+00 3.23500E+01 0.00000E+00
 -1      1302 1.29900E+00 2.71875E+01 0.00000E+00
 -1      1303 1.29900E+00 2.86625E+01 0.00000E+00
 -1      1304 2.59800E+00 2.94000E+01 0.00000E+00
 -1      1305 1.29900E+00 2.42375E+01 0.00000E+00
 -1      1306 1.29900E+00 2.57125E+01 0.00000E+00
 -1      1307 2.59800E+00 2.64500E+01 0.00000E+00
 -1      1308 1.29900E+00 2.12875E+01 0.00000E+00
 -1      1309 1.29900E+00 2.27625E+01 0.00000E+00
 -1      1310 2.59800E+00 2.35000E+01 0.00000E+00
 -1      1311 1.29900E+00 1.83375E+01 0.00000E+00
 -1      1312 1.29900E+00 1.98125E+01 0.00000E+00
 -1      1313 2.59800E+00 2.05500E+01 0.00000E+00
 -1      1314 1.29900E+00 1.54375E+01 0.00000E+00
 -1      1315 1.29900E+00 1.68875E+01 0.00000E+00
 -1      1316 2.59800E+00 1.76250E+01 0.00000E+00
 -1      1317 1.29900E+00 1.24875E+01 0.00000E+00
 -1      1318 1.29900E+00 1.39625E+01 0.00000E+00
 -1      1319 2.59800E+00 1.47000E+01 0.00000E+00
 -1      1320 1.29900E+00 9.53750E+00 0.00000E+00
 -1      1321 1.29900E+00 1.10125E+01 0.00000E+00
 -1      1322 2.59800E+00 1.17500E+01 0.00000E+00
 -1      1323 1.29900E+00 6.58750E+00 0.00000E+00
 -1      1324 1.29900E+00 8.06250E+00 0.00000E+00
 -1      1325 2.59800E+00 8.80000E+00 0.00000E+00
 -1      1326 1.29900E+00 3.63750E+00 0.00000E+00
 -1      1327 1.29900E+00 5.11250E+00 0.00000E+00
 -1      1328 2.59800E+00 5.85000E+00 0.00000E+00
 -1      1329 1.43700E+00 1.09375E+00 0.00000E+00
 -1      1330 1.43700E+00 2.54375E+00 0.00000E+00
 -1      1331 2.73600E+00 3.28125E+00 0.00000E+00
 -1      1332 3.01200E+00 1.09375E+00 0.00000E+00
 -1      1333 3.90000E+00 4.87010E+01 0.00000E+00
 -1      1334 5.40000E+00 4.87010E+01 0.00000E+00
 -1      1335 6.90000E+00 4.87010E+01 0.00000E+00
 -1      1336 8.40000E+00 4.87010E+01 0.00000E+00
 -1      1337 6.15000E+00 4.74020E+01 0.00000E+00
 -1      1338 9.90000E+00 4.87010E+01 0.00000E+00
 -1      1339 1.14000E+01 4.87010E+01 0.00000E+00
 -1      1340 9.15000E+00 4.74020E+01 0.00000E+00
 -1      1341 1.29000E+01 4.87010E+01 0.00000E+00
 -1      1342 1.44000E+01 4.87010E+01 0.00000E+00
 -1      1343 1.21500E+01 4.74020E+01 0.00000E+00
 -1      1344 1.59000E+01 4.87010E+01 0.00000E+00
 -1      1345 1.74000E+01 4.87010E+01 0.00000E+00
 -1      1346 1.51500E+01 4.74020E+01 0.00000E+00
 -1      1347 1.89000E+01 4.87010E+01 0.00000E+00
 -1      1348 2.04000E+01 4.87010E+01 0.00000E+00
 -1      1349 1.81500E+01 4.74020E+01 0.00000E+00
 -1      1350 2.19000E+01 4.87010E+01 0.00000E+00
 -1      1351 2.34000E+01 4.87010E+01 0.00000E+00
 -1      1352 2.11500E+01 4.74020E+01 0.00000E+00
 -1      1353 2.49000E+01 4.87010E+01 0.00000E+00
 -1      1354 2.64000E+01 4.87010E+01 0.00000E+00
 -1      1355 2.41500E+01 4.74020E+01 0.00000E+00
 -1      1356 2.79000E+01 4.87010E+01 0.00000E+00
 -1      1357 2.94000E+01 4.87010E+01 0.00000E+00
 -1      1358 2.71500E+01 4.74020E+01 0.00000E+00
 -1      1359 3.09000E+01 4.87010E+01 0.00000E+00
 -1      1360 3.24000E+01 4.87010E+01 0.00000E+00
 -1      1361 3.01500E+01 4.74020E+01 0.00000E+00
 -1      1362 3.39000E+01 4.87010E+01 0.00000E+00
 -1      1363 3.54000E+01 4.87010E+01 0.00000E+00
 -1      1364 3.31500E+01 4.74020E+01 0.00000E+00
 -1      1365 3.69000E+01 4.87010E+01 0.00000E+00
 -1      1366 3.84000E+01 4.87010E+01 0.00000E+00
 -1      1367 3.61500E+01 4.74020E+01 0.00000E+00
 -1      1368 3.99000E+01 4.87010E+01 0.00000E+00
 -1      1369 4.14000E+01 4.87010E+01 0.00000E+00
 -1      1370 3.91500E+01 4.74020E+01 0.00000E+00
 -1      1371 4.29000E+01 4.87010E+01 0.00000E+00
 -1      1372 4.44000E+01 4.87010E+01 0.00000E+00
 -1      1373 4.21500E+01 4.74020E+01 0.00000E+00
 -1      1374 4.59000E+01 4.87010E+01 0.00000E+00
 -1      1375 4.74000E+01 4.87010E+01 0.00000E+00
 -1      1376 4.51500E+01 4.74020E+01 0.00000E+00
 -1      1377 4.89000E+01 4.87010E+01 0.00000E+00
 -1      1378 5.04000E+01 4.87010E+01 0.00000E+00
 -1      1379 4.81500E+01 4.74020E+01 0.00000E+00
 -1      1380 5.19000E+01 4.87010E+01 0.00000E+00
 -1      1381 5.34000E+01 4.87010E+01 0.00000E+00
 -1      1382 5.11500E+01 4.74020E+01 0.00000E+00
 -1      1383 5.49000E+01 4.87010E+01 0.00000E+00
 -1      1384 5.64000E+01 4.87010E+01 0.00000E+00
 -1      1385 5.41500E+01 4.74020E+01 0.00000E+00
 -1      1386 5.79000E+01 4.87010E+01 0.00000E+00
 -1      1387 5.94000E+01 4.87010E+01 0.00000E+00
 -1      1388 5.71500E+01 4.74020E+01 0.00000E+00
 -1      1389 6.09000E+01 4.87010E+01 0.00000E+00
 -1      1390 6.24000E+01 4.87010E+01 0.00000E+00
 -1      1391 6.01500E+01 4.74020E+01 0.00000E+00
 -1      1392 6.39000E+01 4.87010E+01 0.00000E+00
 -1      1393 6.54000E+01 4.87010E+01 0.00000E+00
 -1      1394 6.31500E+01 4.74020E+01 0.00000E+00
 -1      1395 6.69000E+01 4.87010E+01 0.00000E+00
 -1      1396 6.84000E+01 4.87010E+01 0.00000E+00
 -1      1397 6.61500E+01 4.74020E+01 0.00000E+00
 -1      1398 6.99000E+01 4.87010E+01 0.00000E+00
 -1      1399 7.14000E+01 4.87010E+01 0.00000E+00
 -1      1400 6.91500E+01 4.74020E+01 0.00000E+00
 -1      1401 7.29000E+01 4.87010E+01 0.00000E+00
 -1      1402 7.44000E+01 4.87010E+01 0.00000E+00
 -1      1403 7.21500E+01 4.74020E+01 0.00000E+00
 -1      1404 7.59000E+01 4.87010E+01 0.00000E+00
 -1      1405 7.74000E+01 4.87010E+01 0.00000E+00
 -1      1406 7.51500E+01 4.74020E+01 0.00000E+00
 -1      1407 7.89000E+01 4.87010E+01 0.00000E+00
 -1      1408 8.04000E+01 4.87010E+01 0.00000E+00
 -1      1409 7.81500E+01 4.74020E+01 0.00000E+00
 -1      1410 8.19000E+01 4.87010E+01 0.00000E+00
 -1      1411 8.34000E+01 4.87010E+01 0.00000E+00
 -1      1412 8.11500E+01 4.74020E+01 0.00000E+00
 -1      1413 8.49000E+01 4.87010E+01 0.00000E+00
 -1      1414 8.64000E+01 4.87010E+01 0.00000E+00
 -1      1415 8.41500E+01 4.74020E+01 0.00000E+00
 -1      1416 8.79000E+01 4.87010E+01 0.00000E+00
 -1      1417 8.94000E+01 4.87010E+01 0.00000E+00
 -1      1418 8.71500E+01 4.74020E+01 0.00000E+00
 -1      1419 9.09000E+01 4.87010E+01 0.00000E+00
 -1      1420 9.24000E+01 4.87010E+01 0.00000E+00
 -1      1421 9.01500E+01 4.74020E+01 0.00000E+00
 -1      1422 9.39000E+01 4.87010E+01 0.00000E+00
 -1      1423 9.54000E+01 4.87010E+01 0.00000E+00
 -1      1424 9.31500E+01 4.74020E+01 0.00000E+00
 -1      1425 9.69000E+01 4.87010E+01 0.00000E+00
 -1      1426 9.84000E+01 4.87010E+01 0.00000E+00
 -1      1427 9.61500E+01 4.74020E+01 0.00000E+00
 -1      1428 9.99000E+01 4.87010E+01 0.00000E+00
 -1      1429 1.01400E+02 4.87010E+01 0.00000E+00
 -1      1430 9.91500E+01 4.74020E+01 0.00000E+00
 -1      1431 1.02900E+02 4.87010E+01 0.00000E+00
 -1      1432 1.04400E+02 4.87010E+01 0.00000E+00
 -1      1433 1.02150E+02 4.74020E+01 0.00000E+00
 -1      1434 1.05900E+02 4.87010E+01 0.00000E+00
 -1      1435 1.07400E+02 4.87010E+01 0.00000E+00
 -1      1436 1.05150E+02 4.74020E+01 0.00000E+00
 -1      1437 1.08900E+02 4.87010E+01 0.00000E+00
 -1      1438 1.10400E+02 4.87010E+01 0.00000E+00
 -1      1439 1.08150E+02 4.74020E+01 0.00000E+00
 -1      1440 1.11900E+02 4.87010E+01 0.00000E+00
 -1      1441 1.13400E+02 4.87010E+01 0.00000E+00
 -1      1442 1.11150E+02 4.74020E+01 0.00000E+00
 -1      1443 1.14900E+02 4.87010E+01 0.00000E+00
 -1      1444 1.16400E+02 4.87010E+01 0.00000E+00
 -1      1445 1.14150E+02 4.74020E+01 0.00000E+00
 -1      1446 1.17900E+02 4.87010E+01 0.00000E+00
 -1      1447 1.19400E+02 4.87010E+01 0.00000E+00
 -1      1448 1.17150E+02 4.74020E+01 0.00000E+00
 -1      1449 1.20900E+02 4.87010E+01 0.00000E+00
 -1      1450 1.22400E+02 4.87010E+01 0.00000E+00
 -1      1451 1.20150E+02 4.74020E+01 0.00000E+00
 -1      1452 1.23900E+02 4.87010E+01 0.00000E+00
 -1      1453 1.25400E+02 4.87010E+01 0.00000E+00
 -1      1454 1.23150E+02 4.74020E+01 0.00000E+00
 -1      1455 1.26900E+02 4.87010E+01 0.00000E+00
 -1      1456 1.28400E+02 4.87010E+01 0.00000E+00
 -1      1457 1.26150E+02 4.74020E+01 0.00000E+00
 -1      1458 1.29900E+02 4.87010E+01 0.00000E+00
 -1      1459 1.31400E+02 4.87010E+01 0.00000E+00
 -1      1460 1.29150E+02 4.74020E+01 0.00000E+00
 -1      1461 1.32900E+02 4.87010E+01 0.00000E+00
 -1      1462 1.34400E+02 4.87010E+01 0.00000E+00
 -1      1463 1.32150E+02 4.74020E+01 0.00000E+00
 -1      1464 1.35900E+02 4.87010E+01 0.00000E+00
 -1      1465 1.37400E+02 4.87010E+01 0.00000E+00
 -1      1466 1.35150E+02 4.74020E+01 0.00000E+00
 -1      1467 1.38900E+02 4.87010E+01 0.00000E+00
 -1      1468 1.40400E+02 4.87010E+01 0.00000E+00
 -1      1469 1.38150E+02 4.74020E+01 0.00000E+00
 -1      1470 1.41900E+02 4.87010E+01 0.00000E+00
 -1      1471 1.43400E+02 4.87010E+01 0.00000E+00
 -1      1472 1.41150E+02 4.74020E+01 0.00000E+00
 -1      1473 1.44900E+02 4.87010E+01 0.00000E+00
 -1      1474 1.46400E+02 4.87010E+01 0.00000E+00
 -1      1475 1.44150E+02 4.74020E+01 0.00000E+00
 -1      1476 1.48575E+02 4.85500E+01 0.00000E+00
 -1      1477 1.47825E+02 4.72510E+01 0.00000E+00
 -1      1478 6.01200E+00 1.09375E+00 0.00000E+00
 -1      1479 4.51200E+00 1.09375E+00 0.00000E+00
 -1      1480 4.37400E+00 2.18750E+00 0.00000E+00
 -1      1481 9.01200E+00 1.09375E+00 0.00000E+00
 -1      1482 7.51200E+00 1.09375E+00 0.00000E+00
 -1      1483 7.37400E+00 2.18750E+00 0.00000E+00
 -1      1484 1.20120E+01 1.09375E+00 0.00000E+00
 -1      1485 1.05120E+01 1.09375E+00 0.00000E+00
 -1      1486 1.03740E+01 2.18750E+00 0.00000E+00
 -1      1487 1.50120E+01 1.09375E+00 0.00000E+00
 -1      1488 1.35120E+01 1.09375E+00 0.00000E+00
 -1      1489 1.33740E+01 2.18750E+00 0.00000E+00
 -1      1490 1.80120E+01 1.09375E+00 0.00000E+00
 -1      1491 1.65120E+01 1.09375E+00 0.00000E+00
 -1      1492 1.63740E+01 2.18750E+00 0.00000E+00
 -1      1493 2.10120E+01 1.09375E+00 0.00000E+00
 -1      1494 1.95120E+01 1.09375E+00 0.00000E+00
 -1      1495 1.93740E+01 2.18750E+00 0.00000E+00
 -1      1496 2.40120E+01 1.09375E+00 0.00000E+00
 -1      1497 2.25120E+01 1.09375E+00 0.00000E+00
 -1      1498 2.23740E+01 2.18750E+00 0.00000E+00
 -1      1499 2.70120E+01 1.09375E+00 0.00000E+00
 -1      1500 2.55120E+01 1.09375E+00 0.00000E+00
 -1      1501 2.53740E+01 2.18750E+00 0.00000E+00
 -1      1502 3.00120E+01 1.09375E+00 0.00000E+00
 -1      1503 2.85120E+01 1.09375E+00 0.00000E+00
 -1      1504 2.83740E+01 2.18750E+00 0.00000E+00
 -1      1505 3.30120E+01 1.09375E+00 0.00000E+00
 -1      1506 3.15120E+01 1.09375E+00 0.00000E+00
 -1      1507 3.13740E+01 2.18750E+00 0.00000E+00
 -1      1508 3.60120E+01 1.09375E+00 0.00000E+00
 -1      1509 3.45120E+01 1.09375E+00 0.00000E+00
 -1      1510 3.43740E+01 2.18750E+00 0.00000E+00
 -1      1511 3.90120E+01 1.09375E+00 0.00000E+00
 -1      1512 3.75120E+01 1.09375E+00 0.00000E+00
 -1      1513 3.73740E+01 2.18750E+00 0.00000E+00
 -1      1514 4.20120E+01 1.09375E+00 0.00000E+00
 -1      1515 4.05120E+01 1.09375E+00 0.00000E+00
 -1      1516 4.03740E+01 2.18750E+00 0.00000E+00
 -1      1517 4.50120E+01 1.09375E+00 0.00000E+00
 -1      1518 4.35120E+01 1.09375E+00 0.00000E+00
 -1      1519 4.33740E+01 2.18750E+00 0.00000E+00
 -1      1520 4.80120E+01 1.09375E+00 0.00000E+00
 -1      1521 4.65120E+01 1.09375E+00 0.00000E+00
 -1      1522 4.63740E+01 2.18750E+00 0.00000E+00
 -1      1523 5.10120E+01 1.09375E+00 0.00000E+00
 -1      1524 4.95120E+01 1.09375E+00 0.00000E+00
 -1      1525 4.93740E+01 2.18750E+00 0.00000E+00
 -1      1526 5.40120E+01 1.09375E+00 0.00000E+00
 -1      1527 5.25120E+01 1.09375E+00 0.00000E+00
 -1      1528 5.23740E+01 2.18750E+00 0.00000E+00
 -1      1529 5.70120E+01 1.09375E+00 0.00000E+00
 -1      1530 5.55120E+01 1.09375E+00 0.00000E+00
 -1      1531 5.53740E+01 2.18750E+00 0.00000E+00
 -1      1532 6.00120E+01 1.09375E+00 0.00000E+00
 -1      1533 5.85120E+01 1.09375E+00 0.00000E+00
 -1      1534 5.83740E+01 2.18750E+00 0.00000E+00
 -1      1535 6.30120E+01 1.09375E+00 0.00000E+00
 -1      1536 6.15120E+01 1.09375E+00 0.00000E+00
 -1      1537 6.13740E+01 2.18750E+00 0.00000E+00
 -1      1538 6.60120E+01 1.09375E+00 0.00000E+00
 -1      1539 6.45120E+01 1.09375E+00 0.00000E+00
 -1      1540 6.43740E+01 2.18750E+00 0.00000E+00
 -1      1541 6.90120E+01 1.09375E+00 0.00000E+00
 -1      1542 6.75120E+01 1.09375E+00 0.00000E+00
 -1      1543 6.73740E+01 2.18750E+00 0.00000E+00
 -1      1544 7.20120E+01 1.09375E+00 0.00000E+00
 -1      1545 7.05120E+01 1.09375E+00 0.00000E+00
 -1      1546 7.03740E+01 2.18750E+00 0.00000E+00
 -1      1547 7.50120E+01 1.09375E+00 0.00000E+00
 -1      1548 7.35120E+01 1.09375E+00 0.00000E+00
 -1      1549 7.33740E+01 2.18750E+00 0.00000E+00
 -1      1550 7.80120E+01 1.09375E+00 0.00000E+00
 -1      1551 7.65120E+01 1.09375E+00 0.00000E+00
 -1      1552 7.63740E+01 2.18750E+00 0.00000E+00
 -1      1553 8.10120E+01 1.09375E+00 0.00000E+00
 -1      1554 7.95120E+01 1.09375E+00 0.00000E+00
 -1      1555 7.93740E+01 2.18750E+00 0.00000E+00
 -1      1556 8.40120E+01 1.09375E+00 0.00000E+00
 -1      1557 8.25120E+01 1.09375E+00 0.00000E+00
 -1      1558 8.23740E+01 2.18750E+00 0.00000E+00
 -1      1559 8.70120E+01 1.09375E+00 0.00000E+00
 -1      1560 8.55120E+01 1.09375E+00 0.00000E+00
 -1      1561 8.53740E+01 2.18750E+00 0.00000E+00
 -1      1562 9.00120E+01 1.09375E+00 0.00000E+00
 -1      1563 8.85120E+01 1.09375E+00 0.00000E+00
 -1      1564 8.83740E+01 2.18750E+00 0.00000E+00
 -1      1565 9.30120E+01 1.09375E+00 0.00000E+00
 -1      1566 9.15120E+01 1.09375E+00 0.00000E+00
 -1      1567 9.13740E+01 2.18750E+00 0.00000E+00
 -1      1568 9.60120E+01 1.09375E+00 0.00000E+00
 -1      1569 9.45120E+01 1.09375E+00 0.00000E+00
 -1      1570 9.43740E+01 2.18750E+00 0.00000E+00
 -1      1571 9.90120E+01 1.09375E+00 0.00000E+00
 -1      1572 9.75120E+01 1.09375E+00 0.00000E+00
 -1      1573 9.73740E+01 2.18750E+00 0.00000E+00
 -1      1574 1.02012E+02 1.09375E+00 0.00000E+00
 -1      1575 1.00512E+02 1.09375E+00 0.00000E+00
 -1      1576 1.00374E+02 2.18750E+00 0.00000E+00
 -1      1577 1.05012E+02 1.09375E+00 0.00000E+00
 -1      1578 1.03512E+02 1.09375E+00 0.00000E+00
 -1      1579 1.03374E+02 2.18750E+00 0.00000E+00
 -1      1580 1.08012E+02 1.09375E+00 0.00000E+00
 -1      1581 1.06512E+02 1.09375E+00 0.00000E+00
 -1      1582 1.06374E+02 2.18750E+00 0.00000E+00
 -1      1583 1.11012E+02 1.09375E+00 0.00000E+00
 -1      1584 1.09512E+02 1.09375E+00 0.00000E+00
 -1      1585 1.09374E+02 2.18750E+00 0.00000E+00
 -1      1586 1.14012E+02 1.09375E+00 0.00000E+00
 -1      1587 1.12512E+02 1.09375E+00 0.00000E+00
 -1      1588 1.12374E+02 2.18750E+00 0.00000E+00
 -1      1589 1.17012E+02 1.09375E+00 0.00000E+00
 -1      1590 1.15512E+02 1.09375E+00 0.00000E+00
 -1      1591 1.15374E+02 2.18750E+00 0.00000E+00
 -1      1592 1.20012E+02 1.09375E+00 0.00000E+00
 -1      1593 1.18512E+02 1.09375E+00 0.00000E+00
 -1      1594 1.18374E+02 2.18750E+00 0.00000E+00
 -1      1595 1.23012E+02 1.09375E+00 0.00000E+00
 -1      1596 1.21512E+02 1.09375E+00 0.00000E+00
 -1      1597 1.21374E+02 2.18750E+00 0.00000E+00
 -1      1598 1.26012E+02 1.09375E+00 0.00000E+00
 -1      1599 1.24512E+02 1.09375E+00 0.00000E+00
 -1      1600 1.24374E+02 2.18750E+00 0.00000E+00
 -1      1601 1.29012E+02 1.09375E+00 0.00000E+00
 -1      1602 1.27512E+02 1.09375E+00 0.00000E+00
 -1      1603 1.27374E+02 2.18750E+00 0.00000E+00
 -1      1604 1.32012E+02 1.09375E+00 0.00000E+00
 -1      1605 1.30512E+02 1.09375E+00 0.00000E+00
 -1      1606 1.30374E+02 2.18750E+00 0.00000E+00
 -1      1607 1.35012E+02 1.09375E+00 0.00000E+00
 -1      1608 1.33512E+02 1.09375E+00 0.00000E+00
 -1      1609 1.33374E+02 2.18750E+00 0.00000E+00
 -1      1610 1.38012E+02 1.09375E+00 0.00000E+00
 -1      1611 1.36512E+02 1.09375E+00 0.00000E+00
 -1      1612 1.36374E+02 2.18750E+00 0.00000E+00
 -1      1613 1.41012E+02 1.09375E+00 0.00000E+00
 -1      1614 1.39512E+02 1.09375E+00 0.00000E+00
 -1      1615 1.39374E+02 2.18750E+00 0.00000E+00
 -1      1616 1.44012E+02 1.09375E+00 0.00000E+00
 -1      1617 1.42512E+02 1.09375E+00 0.00000E+00
 -1      1618 1.42374E+02 2.18750E+00 0.00000E+00
 -1      1619 1.47012E+02 1.09375E+00 0.00000E+00
 -1      1620 1.45512E+02 1.09375E+00 0.00000E+00
 -1      1621 1.45374E+02 2.18750E+00 0.00000E+00
 -1      1622 1.48575E+02 1.47500E+00 0.00000E+00
 -1      1623 1.48701E+02 5.16250E+00 0.00000E+00
 -1      1624 1.48701E+02 3.68750E+00 0.00000E+00
 -1      1625 1.48701E+02 8.11250E+00 0.00000E+00
 -1      1626 1.48701E+02 6.63750E+00 0.00000E+00
 -1      1627 1.47402E+02 5.90000E+00 0.00000E+00
 -1      1628 1.48701E+02 1.10625E+01 0.00000E+00
 -1      1629 1.48701E+02 9.58750E+00 0.00000E+00
 -1      1630 1.47402E+02 8.85000E+00 0.00000E+00
 -1      1631 1.48701E+02 1.40125E+01 0.00000E+00
 -1      1632 1.48701E+02 1.25375E+01 0.00000E+00
 -1      1633 1.47402E+02 1.18000E+01 0.00000E+00
 -1      1634 1.48701E+02 1.69125E+01 0.00000E+00
 -1      1635 1.48701E+02 1.54625E+01 0.00000E+00
 -1      1636 1.47402E+02 1.47250E+01 0.00000E+00
 -1      1637 1.48701E+02 1.98625E+01 0.00000E+00
 -1      1638 1.48701E+02 1.83875E+01 0.00000E+00
 -1      1639 1.47402E+02 1.76500E+01 0.00000E+00
 -1      1640 1.48701E+02 2.28125E+01 0.00000E+00
 -1      1641 1.48701E+02 2.13375E+01 0.00000E+00
 -1      1642 1.47402E+02 2.06000E+01 0.00000E+00
 -1      1643 1.48701E+02 2.57625E+01 0.00000E+00
 -1      1644 1.48701E+02 2.42875E+01 0.00000E+00
 -1      1645 1.47402E+02 2.35500E+01 0.00000E+00
 -1      1646 1.48701E+02 2.87125E+01 0.00000E+00
 -1      1647 1.48701E+02 2.72375E+01 0.00000E+00
 -1      1648 1.47402E+02 2.65000E+01 0.00000E+00
 -1      1649 1.48701E+02 3.16625E+01 0.00000E+00
 -1      1650 1.48701E+02 3.01875E+01 0.00000E+00
 -1      1651 1.47402E+02 2.94500E+01 0.00000E+00
 -1      1652 1.48701E+02 3.45625E+01 0.00000E+00
 -1      1653 1.48701E+02 3.31125E+01 0.00000E+00
 -1      1654 1.47402E+02 3.23750E+01 0.00000E+00
 -1      1655 1.48701E+02 3.75125E+01 0.00000E+00
 -1      1656 1.48701E+02 3.60375E+01 0.00000E+00
 -1      1657 1.47402E+02 3.53000E+01 0.00000E+00
 -1      1658 1.48701E+02 4.04625E+01 0.00000E+00
 -1      1659 1.48701E+02 3.89875E+01 0.00000E+00
 -1      1660 1.47402E+02 3.82500E+01 0.00000E+00
 -1      1661 1.48701E+02 4.34125E+01 0.00000E+00
 -1      1662 1.48701E+02 4.19375E+01 0.00000E+00
 -1      1663 1.47402E+02 4.12000E+01 0.00000E+00
 -1      1664 1.48263E+02 4.60692E+01 0.00000E+00
 -1      1665 1.48263E+02 4.45942E+01 0.00000E+00
 -1      1666 1.46964E+02 4.38568E+01 0.00000E+00
 -1      1667 1.46088E+02 4.62202E+01 0.00000E+00
 -1      1668 4.62758E+01 2.08225E+01 0.00000E+00
 -1      1669 4.63595E+01 2.15837E+01 0.00000E+00
 -1      1670 4.58424E+01 1.92390E+01 0.00000E+00
 -1      1671 4.60831E+01 1.99496E+01 0.00000E+00
 -1      1672 4.50329E+01 1.76586E+01 0.00000E+00
 -1      1673 4.54743E+01 1.83719E+01 0.00000E+00
 -1      1674 4.38722E+01 1.63930E+01 0.00000E+00
 -1      1675 4.44137E+01 1.69360E+01 0.00000E+00
 -1      1676 4.25588E+01 1.54805E+01 0.00000E+00
 -1      1677 4.31672E+01 1.58734E+01 0.00000E+00
 -1      1678 4.10731E+01 1.46514E+01 0.00000E+00
 -1      1679 4.18211E+01 1.49291E+01 0.00000E+00
 -1      1680 3.93134E+01 1.43183E+01 0.00000E+00
 -1      1681 4.01218E+01 1.44195E+01 0.00000E+00
 -1      1682 3.76692E+01 1.45366E+01 0.00000E+00
 -1      1683 3.83930E+01 1.44669E+01 0.00000E+00
 -1      1684 3.60943E+01 1.48536E+01 0.00000E+00
 -1      1685 3.68029E+01 1.46292E+01 0.00000E+00
 -1      1686 3.46399E+01 1.56275E+01 0.00000E+00
 -1      1687 3.52969E+01 1.52502E+01 0.00000E+00
 -1      1688 3.34221E+01 1.66544E+01 0.00000E+00
 -1      1689 3.39597E+01 1.61700E+01 0.00000E+00
 -1      1690 3.23956E+01 1.79251E+01 0.00000E+00
 -1      1691 3.28433E+01 1.73035E+01 0.00000E+00
 -1      1692 3.14865E+01 1.93847E+01 0.00000E+00
 -1      1693 3.17963E+01 1.86537E+01 0.00000E+00
 -1      1694 3.11615E+01 2.10667E+01 0.00000E+00
 -1      1695 3.12970E+01 2.03093E+01 0.00000E+00
 -1      1696 3.12085E+01 2.26862E+01 0.00000E+00
 -1      1697 3.11809E+01 2.19553E+01 0.00000E+00
 -1      1698 3.14114E+01 2.43387E+01 0.00000E+00
 -1      1699 3.12168E+01 2.35878E+01 0.00000E+00
 -1      1700 3.21474E+01 2.57435E+01 0.00000E+00
 -1      1701 3.18326E+01 2.51161E+01 0.00000E+00
 -1      1702 3.30393E+01 2.71271E+01 0.00000E+00
 -1      1703 3.25522E+01 2.65207E+01 0.00000E+00
 -1      1704 3.43641E+01 2.83989E+01 0.00000E+00
 -1      1705 3.36857E+01 2.78727E+01 0.00000E+00
 -1      1706 3.58977E+01 2.90528E+01 0.00000E+00
 -1      1707 3.52475E+01 2.87513E+01 0.00000E+00
 -1      1708 3.74695E+01 2.95824E+01 0.00000E+00
 -1      1709 3.67080E+01 2.94121E+01 0.00000E+00
 -1      1710 3.93117E+01 2.97474E+01 0.00000E+00
 -1      1711 3.84459E+01 2.97610E+01 0.00000E+00
 -1      1712 4.09119E+01 2.93008E+01 0.00000E+00
 -1      1713 4.02222E+01 2.94706E+01 0.00000E+00
 -1      1714 4.24576E+01 2.87385E+01 0.00000E+00
 -1      1715 4.17621E+01 2.90778E+01 0.00000E+00
 -1      1716 4.37047E+01 2.77767E+01 0.00000E+00
 -1      1717 4.31528E+01 2.82094E+01 0.00000E+00
 -1      1718 4.47444E+01 2.66831E+01 0.00000E+00
 -1      1719 4.42934E+01 2.72121E+01 0.00000E+00
 -1      1720 4.55538E+01 2.53877E+01 0.00000E+00
 -1      1721 4.52107E+01 2.60083E+01 0.00000E+00
 -1      1722 4.60901E+01 2.39486E+01 0.00000E+00
 -1      1723 4.58791E+01 2.46259E+01 0.00000E+00
 -1      1724 4.63253E+01 2.24445E+01 0.00000E+00
 -1      1725 4.62551E+01 2.31417E+01 0.00000E+00
 -1      1726 4.38969E+01 1.56873E+01 0.00000E+00
 -1      1727 4.52211E+01 1.69295E+01 0.00000E+00
 -1      1728 1.48437E+02 2.56875E+00 0.00000E+00
 -1      1729 1.47138E+02 3.30625E+00 0.00000E+00
 -1      1730 4.67692E+01 2.02593E+01 0.00000E+00
 -1      1731 4.62085E+01 1.85193E+01 0.00000E+00
 -1      1732 4.69276E+01 2.19930E+01 0.00000E+00
 -1      1733 4.24541E+01 1.46163E+01 0.00000E+00
 -1      1734 4.07651E+01 1.38330E+01 0.00000E+00
 -1      1735 3.88934E+01 1.37497E+01 0.00000E+00
 -1      1736 3.71067E+01 1.39910E+01 0.00000E+00
 -1      1737 3.54430E+01 1.44802E+01 0.00000E+00
 -1      1738 3.39653E+01 1.54194E+01 0.00000E+00
 -1      1739 3.27063E+01 1.66109E+01 0.00000E+00
 -1      1740 3.15282E+01 1.79886E+01 0.00000E+00
 -1      1741 3.07395E+01 1.96419E+01 0.00000E+00
 -1      1742 3.05695E+01 2.14551E+01 0.00000E+00
 -1      1743 3.05973E+01 2.32452E+01 0.00000E+00
 -1      1744 3.10269E+01 2.49242E+01 0.00000E+00
 -1      1745 3.18530E+01 2.64788E+01 0.00000E+00
 -1      1746 3.29042E+01 2.80016E+01 0.00000E+00
 -1      1747 3.44341E+01 2.90996E+01 0.00000E+00
 -1      1748 3.61279E+01 2.98113E+01 0.00000E+00
 -1      1749 3.79146E+01 3.03493E+01 0.00000E+00
 -1      1750 3.98015E+01 3.02511E+01 0.00000E+00
 -1      1751 4.15621E+01 2.97513E+01 0.00000E+00
 -1      1752 4.31076E+01 2.89992E+01 0.00000E+00
 -1      1753 4.43915E+01 2.79055E+01 0.00000E+00
 -1      1754 4.54465E+01 2.66661E+01 0.00000E+00
 -1      1755 4.62381E+01 2.52294E+01 0.00000E+00
 -1      1756 4.67284E+01 2.36607E+01 0.00000E+00
 -1      1757 2.87400E+00 4.77875E+01 0.00000E+00
 -1      1758 3.89700E+00 4.04125E+01 0.00000E+00
 -1      1759 3.89700E+00 4.18875E+01 0.00000E+00
 -1      1760 3.89700E+00 4.33625E+01 0.00000E+00
 -1      1761 3.89700E+00 4.48375E+01 0.00000E+00
 -1      1762 5.19600E+00 4.26250E+01 0.00000E+00
 -1      1763 3.89700E+00 3.45500E+01 0.00000E+00
 -1      1764 3.89700E+00 3.60000E+01 0.00000E+00
 -1      1765 3.89700E+00 3.16000E+01 0.00000E+00
 -1      1766 3.89700E+00 3.30750E+01 0.00000E+00
 -1      1767 5.19600E+00 3.38000E+01 0.00000E+00
 -1      1768 3.89700E+00 2.86500E+01 0.00000E+00
 -1      1769 3.89700E+00 3.01250E+01 0.00000E+00
 -1      1770 5.19600E+00 3.08500E+01 0.00000E+00
 -1      1771 3.89700E+00 2.57000E+01 0.00000E+00
 -1      1772 3.89700E+00 2.71750E+01 0.00000E+00
 -1      1773 5.19600E+00 2.79000E+01 0.00000E+00
 -1      1774 3.89700E+00 2.27500E+01 0.00000E+00
 -1      1775 3.89700E+00 2.42250E+01 0.00000E+00
 -1      1776 5.19600E+00 2.49500E+01 0.00000E+00
 -1      1777 3.89700E+00 1.98000E+01 0.00000E+00
 -1      1778 3.89700E+00 2.12750E+01 0.00000E+00
 -1      1779 5.19600E+00 2.20000E+01 0.00000E+00
 -1      1780 3.89700E+00 1.69000E+01 0.00000E+00
 -1      1781 3.89700E+00 1.83500E+01 0.00000E+00
 -1      1782 5.19600E+00 1.90750E+01 0.00000E+00
 -1      1783 3.89700E+00 1.39500E+01 0.00000E+00
 -1      1784 3.89700E+00 1.54250E+01 0.00000E+00
 -1      1785 5.19600E+00 1.61500E+01 0.00000E+00
 -1      1786 3.89700E+00 1.10000E+01 0.00000E+00
 -1      1787 3.89700E+00 1.24750E+01 0.00000E+00
 -1      1788 5.19600E+00 1.32000E+01 0.00000E+00
 -1      1789 3.89700E+00 8.05000E+00 0.00000E+00
 -1      1790 3.89700E+00 9.52500E+00 0.00000E+00
 -1      1791 5.19600E+00 1.02500E+01 0.00000E+00
 -1      1792 3.89700E+00 5.10000E+00 0.00000E+00
 -1      1793 3.89700E+00 6.57500E+00 0.00000E+00
 -1      1794 5.19600E+00 7.30000E+00 0.00000E+00
 -1      1795 4.20450E+00 3.09687E+00 0.00000E+00
 -1      1796 4.06650E+00 4.19063E+00 0.00000E+00
 -1      1797 5.36550E+00 4.91563E+00 0.00000E+00
 -1      1798 5.70450E+00 3.09687E+00 0.00000E+00
 -1      1799 3.62400E+00 4.64885E+01 0.00000E+00
 -1      1800 8.70450E+00 3.09687E+00 0.00000E+00
 -1      1801 7.20450E+00 3.09687E+00 0.00000E+00
 -1      1802 7.03500E+00 4.00625E+00 0.00000E+00
 -1      1803 4.92300E+00 4.57510E+01 0.00000E+00
 -1      1804 8.40000E+00 4.61030E+01 0.00000E+00
 -1      1805 9.90000E+00 4.61030E+01 0.00000E+00
 -1      1806 1.14000E+01 4.61030E+01 0.00000E+00
 -1      1807 1.29000E+01 4.61030E+01 0.00000E+00
 -1      1808 1.06500E+01 4.48040E+01 0.00000E+00
 -1      1809 1.44000E+01 4.61030E+01 0.00000E+00
 -1      1810 1.59000E+01 4.61030E+01 0.00000E+00
 -1      1811 1.36500E+01 4.48040E+01 0.00000E+00
 -1      1812 1.74000E+01 4.61030E+01 0.00000E+00
 -1      1813 1.89000E+01 4.61030E+01 0.00000E+00
 -1      1814 1.66500E+01 4.48040E+01 0.00000E+00
 -1      1815 2.04000E+01 4.61030E+01 0.00000E+00
 -1      1816 2.19000E+01 4.61030E+01 0.00000E+00
 -1      1817 1.96500E+01 4.48040E+01 0.00000E+00
 -1      1818 2.34000E+01 4.61030E+01 0.00000E+00
 -1      1819 2.49000E+01 4.61030E+01 0.00000E+00
 -1      1820 2.26500E+01 4.48040E+01 0.00000E+00
 -1      1821 2.64000E+01 4.61030E+01 0.00000E+00
 -1      1822 2.79000E+01 4.61030E+01 0.00000E+00
 -1      1823 2.56500E+01 4.48040E+01 0.00000E+00
 -1      1824 2.94000E+01 4.61030E+01 0.00000E+00
 -1      1825 3.09000E+01 4.61030E+01 0.00000E+00
 -1      1826 2.86500E+01 4.48040E+01 0.00000E+00
 -1      1827 3.24000E+01 4.61030E+01 0.00000E+00
 -1      1828 3.39000E+01 4.61030E+01 0.00000E+00
 -1      1829 3.16500E+01 4.48040E+01 0.00000E+00
 -1      1830 3.54000E+01 4.61030E+01 0.00000E+00
 -1      1831 3.69000E+01 4.61030E+01 0.00000E+00
 -1      1832 3.46500E+01 4.48040E+01 0.00000E+00
 -1      1833 3.84000E+01 4.61030E+01 0.00000E+00
 -1      1834 3.99000E+01 4.61030E+01 0.00000E+00
 -1      1835 3.76500E+01 4.48040E+01 0.00000E+00
 -1      1836 4.14000E+01 4.61030E+01 0.00000E+00
 -1      1837 4.29000E+01 4.61030E+01 0.00000E+00
 -1      1838 4.06500E+01 4.48040E+01 0.00000E+00
 -1      1839 4.44000E+01 4.61030E+01 0.00000E+00
 -1      1840 4.59000E+01 4.61030E+01 0.00000E+00
 -1      1841 4.36500E+01 4.48040E+01 0.00000E+00
 -1      1842 4.74000E+01 4.61030E+01 0.00000E+00
 -1      1843 4.89000E+01 4.61030E+01 0.00000E+00
 -1      1844 4.66500E+01 4.48040E+01 0.00000E+00
 -1      1845 5.04000E+01 4.61030E+01 0.00000E+00
 -1      1846 5.19000E+01 4.61030E+01 0.00000E+00
 -1      1847 4.96500E+01 4.48040E+01 0.00000E+00
 -1      1848 5.34000E+01 4.61030E+01 0.00000E+00
 -1      1849 5.49000E+01 4.61030E+01 0.00000E+00
 -1      1850 5.26500E+01 4.48040E+01 0.00000E+00
 -1      1851 5.64000E+01 4.61030E+01 0.00000E+00
 -1      1852 5.79000E+01 4.61030E+01 0.00000E+00
 -1      1853 5.56500E+01 4.48040E+01 0.00000E+00
 -1      1854 5.94000E+01 4.61030E+01 0.00000E+00
 -1      1855 6.09000E+01 4.61030E+01 0.00000E+00
 -1      1856 5.86500E+01 4.48040E+01 0.00000E+00
 -1      1857 6.24000E+01 4.61030E+01 0.00000E+00
 -1      1858 6.39000E+01 4.61030E+01 0.00000E+00
 -1      1859 6.16500E+01 4.48040E+01 0.00000E+00
 -1      1860 6.54000E+01 4.61030E+01 0.00000E+00
 -1      1861 6.69000E+01 4.61030E+01 0.00000E+00
 -1      1862 6.46500E+01 4.48040E+01 0.00000E+00
 -1      1863 6.84000E+01 4.61030E+01 0.00000E+00
 -1      1864 6.99000E+01 4.61030E+01 0.00000E+00
 -1      1865 6.76500E+01 4.48040E+01 0.00000E+00
 -1      1866 7.14000E+01 4.61030E+01 0.00000E+00
 -1      1867 7.29000E+01 4.61030E+01 0.00000E+00
 -1      1868 7.06500E+01 4.48040E+01 0.00000E+00
 -1      1869 7.44000E+01 4.61030E+01 0.00000E+00
 -1      1870 7.59000E+01 4.61030E+01 0.00000E+00
 -1      1871 7.36500E+01 4.48040E+01 0.00000E+00
 -1      1872 7.74000E+01 4.61030E+01 0.00000E+00
 -1      1873 7.89000E+01 4.61030E+01 0.00000E+00
 -1      1874 7.66500E+01 4.48040E+01 0.00000E+00
 -1      1875 8.04000E+01 4.61030E+01 0.00000E+00
 -1      1876 8.19000E+01 4.61030E+01 0.00000E+00
 -1      1877 7.96500E+01 4.48040E+01 0.00000E+00
 -1      1878 8.34000E+01 4.61030E+01 0.00000E+00
 -1      1879 8.49000E+01 4.61030E+01 0.00000E+00
 -1      1880 8.26500E+01 4.48040E+01 0.00000E+00
 -1      1881 8.64000E+01 4.61030E+01 0.00000E+00
 -1      1882 8.79000E+01 4.61030E+01 0.00000E+00
 -1      1883 8.56500E+01 4.48040E+01 0.00000E+00
 -1      1884 8.94000E+01 4.61030E+01 0.00000E+00
 -1      1885 9.09000E+01 4.61030E+01 0.00000E+00
 -1      1886 8.86500E+01 4.48040E+01 0.00000E+00
 -1      1887 9.24000E+01 4.61030E+01 0.00000E+00
 -1      1888 9.39000E+01 4.61030E+01 0.00000E+00
 -1      1889 9.16500E+01 4.48040E+01 0.00000E+00
 -1      1890 9.54000E+01 4.61030E+01 0.00000E+00
 -1      1891 9.69000E+01 4.61030E+01 0.00000E+00
 -1      1892 9.46500E+01 4.48040E+01 0.00000E+00
 -1      1893 9.84000E+01 4.61030E+01 0.00000E+00
 -1      1894 9.99000E+01 4.61030E+01 0.00000E+00
 -1      1895 9.76500E+01 4.48040E+01 0.00000E+00
 -1      1896 1.01400E+02 4.61030E+01 0.00000E+00
 -1      1897 1.02900E+02 4.61030E+01 0.00000E+00
 -1      1898 1.00650E+02 4.48040E+01 0.00000E+00
 -1      1899 1.04400E+02 4.61030E+01 0.00000E+00
 -1      1900 1.05900E+02 4.61030E+01 0.00000E+00
 -1      1901 1.03650E+02 4.48040E+01 0.00000E+00
 -1      1902 1.07400E+02 4.61030E+01 0.00000E+00
 -1      1903 1.08900E+02 4.61030E+01 0.00000E+00
 -1      1904 1.06650E+02 4.48040E+01 0.00000E+00
 -1      1905 1.10400E+02 4.61030E+01 0.00000E+00
 -1      1906 1.11900E+02 4.61030E+01 0.00000E+00
 -1      1907 1.09650E+02 4.48040E+01 0.00000E+00
 -1      1908 1.13400E+02 4.61030E+01 0.00000E+00
 -1      1909 1.14900E+02 4.61030E+01 0.00000E+00
 -1      1910 1.12650E+02 4.48040E+01 0.00000E+00
 -1      1911 1.16400E+02 4.61030E+01 0.00000E+00
 -1      1912 1.17900E+02 4.61030E+01 0.00000E+00
 -1      1913 1.15650E+02 4.48040E+01 0.00000E+00
 -1      1914 1.19400E+02 4.61030E+01 0.00000E+00
 -1      1915 1.20900E+02 4.61030E+01 0.00000E+00
 -1      1916 1.18650E+02 4.48040E+01 0.00000E+00
 -1      1917 1.22400E+02 4.61030E+01 0.00000E+00
 -1      1918 1.23900E+02 4.61030E+01 0.00000E+00
 -1      1919 1.21650E+02 4.48040E+01 0.00000E+00
 -1      1920 1.25400E+02 4.61030E+01 0.00000E+00
 -1      1921 1.26900E+02 4.61030E+01 0.00000E+00
 -1      1922 1.24650E+02 4.48040E+01 0.00000E+00
 -1      1923 1.28400E+02 4.61030E+01 0.00000E+00
 -1      1924 1.29900E+02 4.61030E+01 0.00000E+00
 -1      1925 1.27650E+02 4.48040E+01 0.00000E+00
 -1      1926 1.31400E+02 4.61030E+01 0.00000E+00
 -1      1927 1.32900E+02 4.61030E+01 0.00000E+00
 -1      1928 1.30650E+02 4.48040E+01 0.00000E+00
 -1      1929 1.34400E+02 4.61030E+01 0.00000E+00
 -1      1930 1.35900E+02 4.61030E+01 0.00000E+00
 -1      1931 1.33650E+02 4.48040E+01 0.00000E+00
 -1      1932 1.37400E+02 4.61030E+01 0.00000E+00
 -1      1933 1.38900E+02 4.61030E+01 0.00000E+00
 -1      1934 1.36650E+02 4.48040E+01 0.00000E+00
 -1      1935 1.40400E+02 4.61030E+01 0.00000E+00
 -1      1936 1.41900E+02 4.61030E+01 0.00000E+00
 -1      1937 1.39650E+02 4.48040E+01 0.00000E+00
 -1      1938 1.43244E+02 4.61616E+01 0.00000E+00
 -1      1939 1.44744E+02 4.61616E+01 0.00000E+00
 -1      1940 1.45182E+02 4.49799E+01 0.00000E+00
 -1      1941 1.42494E+02 4.48626E+01 0.00000E+00
 -1      1942 1.17045E+01 3.09687E+00 0.00000E+00
 -1      1943 1.02045E+01 3.09687E+00 0.00000E+00
 -1      1944 1.00350E+01 4.00625E+00 0.00000E+00
 -1      1945 1.47045E+01 3.09687E+00 0.00000E+00
 -1      1946 1.32045E+01 3.09687E+00 0.00000E+00
 -1      1947 1.30350E+01 4.00625E+00 0.00000E+00
 -1      1948 1.77045E+01 3.09687E+00 0.00000E+00
 -1      1949 1.62045E+01 3.09687E+00 0.00000E+00
 -1      1950 1.60350E+01 4.00625E+00 0.00000E+00
 -1      1951 2.07045E+01 3.09687E+00 0.00000E+00
 -1      1952 1.92045E+01 3.09687E+00 0.00000E+00
 -1      1953 1.90350E+01 4.00625E+00 0.00000E+00
 -1      1954 2.37045E+01 3.09687E+00 0.00000E+00
 -1      1955 2.22045E+01 3.09687E+00 0.00000E+00
 -1      1956 2.20350E+01 4.00625E+00 0.00000E+00
 -1      1957 2.67045E+01 3.09687E+00 0.00000E+00
 -1      1958 2.52045E+01 3.09687E+00 0.00000E+00
 -1      1959 2.50350E+01 4.00625E+00 0.00000E+00
 -1      1960 2.97045E+01 3.09687E+00 0.00000E+00
 -1      1961 2.82045E+01 3.09687E+00 0.00000E+00
 -1      1962 2.80350E+01 4.00625E+00 0.00000E+00
 -1      1963 3.27045E+01 3.09687E+00 0.00000E+00
 -1      1964 3.12045E+01 3.09687E+00 0.00000E+00
 -1      1965 3.10350E+01 4.00625E+00 0.00000E+00
 -1      1966 3.57045E+01 3.09687E+00 0.00000E+00
 -1      1967 3.42045E+01 3.09687E+00 0.00000E+00
 -1      1968 3.40350E+01 4.00625E+00 0.00000E+00
 -1      1969 3.87045E+01 3.09687E+00 0.00000E+00
 -1      1970 3.72045E+01 3.09687E+00 0.00000E+00
 -1      1971 3.70350E+01 4.00625E+00 0.00000E+00
 -1      1972 4.17045E+01 3.09687E+00 0.00000E+00
 -1      1973 4.02045E+01 3.09687E+00 0.00000E+00
 -1      1974 4.00350E+01 4.00625E+00 0.00000E+00
 -1      1975 4.47045E+01 3.09687E+00 0.00000E+00
 -1      1976 4.32045E+01 3.09687E+00 0.00000E+00
 -1      1977 4.30350E+01 4.00625E+00 0.00000E+00
 -1      1978 4.77045E+01 3.09687E+00 0.00000E+00
 -1      1979 4.62045E+01 3.09687E+00 0.00000E+00
 -1      1980 4.60350E+01 4.00625E+00 0.00000E+00
 -1      1981 5.07045E+01 3.09687E+00 0.00000E+00
 -1      1982 4.92045E+01 3.09687E+00 0.00000E+00
 -1      1983 4.90350E+01 4.00625E+00 0.00000E+00
 -1      1984 5.37045E+01 3.09687E+00 0.00000E+00
 -1      1985 5.22045E+01 3.09687E+00 0.00000E+00
 -1      1986 5.20350E+01 4.00625E+00 0.00000E+00
 -1      1987 5.67045E+01 3.09687E+00 0.00000E+00
 -1      1988 5.52045E+01 3.09687E+00 0.00000E+00
 -1      1989 5.50350E+01 4.00625E+00 0.00000E+00
 -1      1990 5.97045E+01 3.09687E+00 0.00000E+00
 -1      1991 5.82045E+01 3.09687E+00 0.00000E+00
 -1      1992 5.80350E+01 4.00625E+00 0.00000E+00
 -1      1993 6.27045E+01 3.09687E+00 0.00000E+00
 -1      1994 6.12045E+01 3.09687E+00 0.00000E+00
 -1      1995 6.10350E+01 4.00625E+00 0.00000E+00
 -1      1996 6.57045E+01 3.09687E+00 0.00000E+00
 -1      1997 6.42045E+01 3.09687E+00 0.00000E+00
 -1      1998 6.40350E+01 4.00625E+00 0.00000E+00
 -1      1999 6.87045E+01 3.09687E+00 0.00000E+00
 -1      2000 6.72045E+01 3.09687E+00 0.00000E+00
 -1      2001 6.70350E+01 4.00625E+00 0.00000E+00
 -1      2002 7.17045E+01 3.09687E+00 0.00000E+00
 -1      2003 7.02045E+01 3.09687E+00 0.00000E+00
 -1      2004 7.00350E+01 4.00625E+00 0.00000E+00
 -1      2005 7.47045E+01 3.09687E+00 0.00000E+00
 -1      2006 7.32045E+01 3.09687E+00 0.00000E+00
 -1      2007 7.30350E+01 4.00625E+00 0.00000E+00
 -1      2008 7.77045E+01 3.09687E+00 0.00000E+00
 -1      2009 7.62045E+01 3.09687E+00 0.00000E+00
 -1      2010 7.60350E+01 4.00625E+00 0.00000E+00
 -1      2011 8.07045E+01 3.09687E+00 0.00000E+00
 -1      2012 7.92045E+01 3.09687E+00 0.00000E+00
 -1      2013 7.90350E+01 4.00625E+00 0.00000E+00
 -1      2014 8.37045E+01 3.09687E+00 0.00000E+00
 -1      2015 8.22045E+01 3.09687E+00 0.00000E+00
 -1      2016 8.20350E+01 4.00625E+00 0.00000E+00
 -1      2017 8.67045E+01 3.09687E+00 0.00000E+00
 -1      2018 8.52045E+01 3.09687E+00 0.00000E+00
 -1      2019 8.50350E+01 4.00625E+00 0.00000E+00
 -1      2020 8.97045E+01 3.09687E+00 0.00000E+00
 -1      2021 8.82045E+01 3.09687E+00 0.00000E+00
 -1      2022 8.80350E+01 4.00625E+00 0.00000E+00
 -1      2023 9.27045E+01 3.09687E+00 0.00000E+00
 -1      2024 9.12045E+01 3.09687E+00 0.00000E+00
 -1      2025 9.10350E+01 4.00625E+00 0.00000E+00
 -1      2026 9.57045E+01 3.09687E+00 0.00000E+00
 -1      2027 9.42045E+01 3.09687E+00 0.00000E+00
 -1      2028 9.40350E+01 4.00625E+00 0.00000E+00
 -1      2029 9.87045E+01 3.09687E+00 0.00000E+00
 -1      2030 9.72045E+01 3.09687E+00 0.00000E+00
 -1      2031 9.70350E+01 4.00625E+00 0.00000E+00
 -1      2032 1.01704E+02 3.09687E+00 0.00000E+00
 -1      2033 1.00204E+02 3.09687E+00 0.00000E+00
 -1      2034 1.00035E+02 4.00625E+00 0.00000E+00
 -1      2035 1.04704E+02 3.09687E+00 0.00000E+00
 -1      2036 1.03204E+02 3.09687E+00 0.00000E+00
 -1      2037 1.03035E+02 4.00625E+00 0.00000E+00
 -1      2038 1.07704E+02 3.09687E+00 0.00000E+00
 -1      2039 1.06204E+02 3.09687E+00 0.00000E+00
 -1      2040 1.06035E+02 4.00625E+00 0.00000E+00
 -1      2041 1.10704E+02 3.09687E+00 0.00000E+00
 -1      2042 1.09204E+02 3.09687E+00 0.00000E+00
 -1      2043 1.09035E+02 4.00625E+00 0.00000E+00
 -1      2044 1.13704E+02 3.09687E+00 0.00000E+00
 -1      2045 1.12204E+02 3.09687E+00 0.00000E+00
 -1      2046 1.12035E+02 4.00625E+00 0.00000E+00
 -1      2047 1.16704E+02 3.09687E+00 0.00000E+00
 -1      2048 1.15204E+02 3.09687E+00 0.00000E+00
 -1      2049 1.15035E+02 4.00625E+00 0.00000E+00
 -1      2050 1.19704E+02 3.09687E+00 0.00000E+00
 -1      2051 1.18204E+02 3.09687E+00 0.00000E+00
 -1      2052 1.18035E+02 4.00625E+00 0.00000E+00
 -1      2053 1.22704E+02 3.09687E+00 0.00000E+00
 -1      2054 1.21204E+02 3.09687E+00 0.00000E+00
 -1      2055 1.21035E+02 4.00625E+00 0.00000E+00
 -1      2056 1.25704E+02 3.09687E+00 0.00000E+00
 -1      2057 1.24204E+02 3.09687E+00 0.00000E+00
 -1      2058 1.24035E+02 4.00625E+00 0.00000E+00
 -1      2059 1.28704E+02 3.09687E+00 0.00000E+00
 -1      2060 1.27204E+02 3.09687E+00 0.00000E+00
 -1      2061 1.27035E+02 4.00625E+00 0.00000E+00
 -1      2062 1.31704E+02 3.09687E+00 0.00000E+00
 -1      2063 1.30204E+02 3.09687E+00 0.00000E+00
 -1      2064 1.30035E+02 4.00625E+00 0.00000E+00
 -1      2065 1.34704E+02 3.09687E+00 0.00000E+00
 -1      2066 1.33204E+02 3.09687E+00 0.00000E+00
 -1      2067 1.33035E+02 4.00625E+00 0.00000E+00
 -1      2068 1.37704E+02 3.09687E+00 0.00000E+00
 -1      2069 1.36204E+02 3.09687E+00 0.00000E+00
 -1      2070 1.36035E+02 4.00625E+00 0.00000E+00
 -1      2071 1.40704E+02 3.09687E+00 0.00000E+00
 -1      2072 1.39204E+02 3.09687E+00 0.00000E+00
 -1      2073 1.39035E+02 4.00625E+00 0.00000E+00
 -1      2074 1.43704E+02 3.09687E+00 0.00000E+00
 -1      2075 1.42204E+02 3.09687E+00 0.00000E+00
 -1      2076 1.42035E+02 4.00625E+00 0.00000E+00
 -1      2077 1.46171E+02 3.20156E+00 0.00000E+00
 -1      2078 1.44671E+02 3.20156E+00 0.00000E+00
 -1      2079 1.44502E+02 4.11094E+00 0.00000E+00
 -1      2080 1.46435E+02 4.32031E+00 0.00000E+00
 -1      2081 1.46103E+02 1.25375E+01 0.00000E+00
 -1      2082 1.46103E+02 1.10625E+01 0.00000E+00
 -1      2083 1.46103E+02 9.58750E+00 0.00000E+00
 -1      2084 1.46103E+02 8.11250E+00 0.00000E+00
 -1      2085 1.44804E+02 1.03250E+01 0.00000E+00
 -1      2086 1.46269E+02 6.95391E+00 0.00000E+00
 -1      2087 1.46269E+02 5.47891E+00 0.00000E+00
 -1      2088 1.45302E+02 5.37422E+00 0.00000E+00
 -1      2089 1.44970E+02 7.69141E+00 0.00000E+00
 -1      2090 1.46103E+02 1.54375E+01 0.00000E+00
 -1      2091 1.46103E+02 1.39875E+01 0.00000E+00
 -1      2092 1.44804E+02 1.32500E+01 0.00000E+00
 -1      2093 1.46103E+02 1.83875E+01 0.00000E+00
 -1      2094 1.46103E+02 1.69125E+01 0.00000E+00
 -1      2095 1.44804E+02 1.61750E+01 0.00000E+00
 -1      2096 1.46103E+02 2.13375E+01 0.00000E+00
 -1      2097 1.46103E+02 1.98625E+01 0.00000E+00
 -1      2098 1.44804E+02 1.91250E+01 0.00000E+00
 -1      2099 1.46103E+02 2.42875E+01 0.00000E+00
 -1      2100 1.46103E+02 2.28125E+01 0.00000E+00
 -1      2101 1.44804E+02 2.20750E+01 0.00000E+00
 -1      2102 1.46103E+02 2.72375E+01 0.00000E+00
 -1      2103 1.46103E+02 2.57625E+01 0.00000E+00
 -1      2104 1.44804E+02 2.50250E+01 0.00000E+00
 -1      2105 1.46103E+02 3.01875E+01 0.00000E+00
 -1      2106 1.46103E+02 2.87125E+01 0.00000E+00
 -1      2107 1.44804E+02 2.79750E+01 0.00000E+00
 -1      2108 1.46103E+02 3.30875E+01 0.00000E+00
 -1      2109 1.46103E+02 3.16375E+01 0.00000E+00
 -1      2110 1.44804E+02 3.09000E+01 0.00000E+00
 -1      2111 1.46103E+02 3.60375E+01 0.00000E+00
 -1      2112 1.46103E+02 3.45625E+01 0.00000E+00
 -1      2113 1.44804E+02 3.38250E+01 0.00000E+00
 -1      2114 1.46103E+02 3.89875E+01 0.00000E+00
 -1      2115 1.46103E+02 3.75125E+01 0.00000E+00
 -1      2116 1.44804E+02 3.67750E+01 0.00000E+00
 -1      2117 1.46103E+02 4.19375E+01 0.00000E+00
 -1      2118 1.46103E+02 4.04625E+01 0.00000E+00
 -1      2119 1.44804E+02 3.97250E+01 0.00000E+00
 -1      2120 4.67366E+01 1.77834E+01 0.00000E+00
 -1      2121 4.71048E+01 1.86504E+01 0.00000E+00
 -1      2122 4.76342E+01 2.15900E+01 0.00000E+00
 -1      2123 4.75999E+01 2.24508E+01 0.00000E+00
 -1      2124 4.74285E+01 1.96561E+01 0.00000E+00
 -1      2125 4.76211E+01 2.05290E+01 0.00000E+00
 -1      2126 4.54991E+01 1.60647E+01 0.00000E+00
 -1      2127 4.61183E+01 1.67874E+01 0.00000E+00
 -1      2128 4.39786E+01 1.48383E+01 0.00000E+00
 -1      2129 4.46836E+01 1.53579E+01 0.00000E+00
 -1      2130 3.89700E+00 3.74688E+01 0.00000E+00
 -1      2131 3.89700E+00 3.89437E+01 0.00000E+00
 -1      2132 5.19600E+00 3.96813E+01 0.00000E+00
 -1      2133 5.19600E+00 3.67438E+01 0.00000E+00
 -1      2134 4.04727E+01 1.29653E+01 0.00000E+00
 -1      2135 4.14240E+01 1.31972E+01 0.00000E+00
 -1      2136 3.83031E+01 1.30188E+01 0.00000E+00
 -1      2137 3.92236E+01 1.28702E+01 0.00000E+00
 -1      2138 3.65706E+01 1.32040E+01 0.00000E+00
 -1      2139 3.74369E+01 1.31114E+01 0.00000E+00
 -1      2140 3.77671E+01 1.22319E+01 0.00000E+00
 -1      2141 3.46997E+01 1.39858E+01 0.00000E+00
 -1      2142 3.54971E+01 1.35891E+01 0.00000E+00
 -1      2143 3.31167E+01 1.50529E+01 0.00000E+00
 -1      2144 3.37969E+01 1.45104E+01 0.00000E+00
 -1      2145 3.19019E+01 1.64763E+01 0.00000E+00
 -1      2146 3.24807E+01 1.58272E+01 0.00000E+00
 -1      2147 3.07033E+01 1.79335E+01 0.00000E+00
 -1      2148 3.13026E+01 1.72049E+01 0.00000E+00
 -1      2149 3.10771E+01 1.64211E+01 0.00000E+00
 -1      2150 2.99688E+01 1.99657E+01 0.00000E+00
 -1      2151 3.01583E+01 1.90411E+01 0.00000E+00
 -1      2152 2.98894E+01 2.19145E+01 0.00000E+00
 -1      2153 2.98699E+01 2.10259E+01 0.00000E+00
 -1      2154 2.99061E+01 2.37175E+01 0.00000E+00
 -1      2155 2.98977E+01 2.28160E+01 0.00000E+00
 -1      2156 2.91982E+01 2.23868E+01 0.00000E+00
 -1      2157 3.05204E+01 2.57015E+01 0.00000E+00
 -1      2158 3.00991E+01 2.49241E+01 0.00000E+00
 -1      2159 3.13300E+01 2.72559E+01 0.00000E+00
 -1      2160 3.09252E+01 2.64787E+01 0.00000E+00
 -1      2161 2.99974E+01 2.64786E+01 0.00000E+00
 -1      2162 3.27061E+01 2.88264E+01 0.00000E+00
 -1      2163 3.20597E+01 2.80808E+01 0.00000E+00
 -1      2164 3.46202E+01 2.99167E+01 0.00000E+00
 -1      2165 3.37367E+01 2.95643E+01 0.00000E+00
 -1      2166 3.62408E+01 3.06353E+01 0.00000E+00
 -1      2167 3.54305E+01 3.02760E+01 0.00000E+00
 -1      2168 3.47331E+01 3.07406E+01 0.00000E+00
 -1      2169 3.82560E+01 3.12409E+01 0.00000E+00
 -1      2170 3.72796E+01 3.10623E+01 0.00000E+00
 -1      2171 4.04940E+01 3.08931E+01 0.00000E+00
 -1      2172 3.95835E+01 3.11699E+01 0.00000E+00
 -1      2173 4.21943E+01 3.04471E+01 0.00000E+00
 -1      2174 4.13441E+01 3.06701E+01 0.00000E+00
 -1      2175 4.11261E+01 3.15889E+01 0.00000E+00
 -1      2176 4.38477E+01 2.92504E+01 0.00000E+00
 -1      2177 4.31524E+01 2.97795E+01 0.00000E+00
 -1      2178 4.51344E+01 2.80909E+01 0.00000E+00
 -1      2179 4.45457E+01 2.86555E+01 0.00000E+00
 -1      2180 4.62128E+01 2.66971E+01 0.00000E+00
 -1      2181 4.57465E+01 2.73719E+01 0.00000E+00
 -1      2182 4.69968E+01 2.51030E+01 0.00000E+00
 -1      2183 4.66715E+01 2.58649E+01 0.00000E+00
 -1      2184 4.74869E+01 2.33955E+01 0.00000E+00
 -1      2185 4.73219E+01 2.42024E+01 0.00000E+00
 -1      2186 4.25031E+01 1.37355E+01 0.00000E+00
 -1      2187 4.32408E+01 1.42869E+01 0.00000E+00
 -1      2188 4.40275E+01 1.39575E+01 0.00000E+00
 -1      2189 4.55807E+01 1.52158E+01 0.00000E+00
 -1      2190 6.42300E+00 4.57510E+01 0.00000E+00
 -1      2191 4.22107E+01 1.28678E+01 0.00000E+00
 -1      2192 7.17300E+00 4.44520E+01 0.00000E+00
 -1      2193 4.79567E+01 1.89202E+01 0.00000E+00
 -1      2194 4.82934E+01 2.09869E+01 0.00000E+00
 -1      2195 1.45665E+02 4.31193E+01 0.00000E+00
 -1      2196 4.70146E+01 1.69186E+01 0.00000E+00
 -1      2197 4.81934E+01 2.29925E+01 0.00000E+00
 -1      2198 4.77553E+01 2.48378E+01 0.00000E+00
 -1      2199 4.69715E+01 2.65707E+01 0.00000E+00
 -1      2200 4.59008E+01 2.81220E+01 0.00000E+00
 -1      2201 4.29344E+01 3.06983E+01 0.00000E+00
 -1      2202 3.65822E+01 3.15270E+01 0.00000E+00
 -1      2203 3.11319E+01 2.80807E+01 0.00000E+00
 -1      2204 2.93996E+01 2.44949E+01 0.00000E+00
 -1      2205 2.99327E+01 1.82573E+01 0.00000E+00
 -1      2206 2.97071E+01 1.74736E+01 0.00000E+00
 -1      2207 2.91620E+01 1.85811E+01 0.00000E+00
 -1      2208 3.23123E+01 1.49182E+01 0.00000E+00
 -1      2209 3.58273E+01 1.27096E+01 0.00000E+00
 -1      2210 3.98824E+01 1.22344E+01 0.00000E+00
 -1      2211 3.38510E+01 1.36193E+01 0.00000E+00
 -1      2212 2.92887E+01 2.04251E+01 0.00000E+00
 -1      2213 3.28922E+01 2.96434E+01 0.00000E+00
 -1      2214 3.20476E+01 2.97226E+01 0.00000E+00
 -1      2215 3.30783E+01 3.04605E+01 0.00000E+00
 -1      2216 3.89485E+01 3.18829E+01 0.00000E+00
 -1      2217 4.45906E+01 2.94358E+01 0.00000E+00
 -1      2218 1.07850E+01 5.30525E+00 0.00000E+00
 -1      2219 9.28500E+00 5.30525E+00 0.00000E+00
 -1      2220 6.49500E+00 3.01125E+01 0.00000E+00
 -1      2221 6.49500E+00 3.15875E+01 0.00000E+00
 -1      2222 6.49500E+00 3.30625E+01 0.00000E+00
 -1      2223 6.49500E+00 3.45375E+01 0.00000E+00
 -1      2224 7.79400E+00 3.23250E+01 0.00000E+00
 -1      2225 6.49500E+00 2.42125E+01 0.00000E+00
 -1      2226 6.49500E+00 2.56875E+01 0.00000E+00
 -1      2227 6.49500E+00 2.12625E+01 0.00000E+00
 -1      2228 6.49500E+00 2.27375E+01 0.00000E+00
 -1      2229 7.79400E+00 2.34750E+01 0.00000E+00
 -1      2230 6.49500E+00 1.83625E+01 0.00000E+00
 -1      2231 6.49500E+00 1.98125E+01 0.00000E+00
 -1      2232 7.79400E+00 2.05500E+01 0.00000E+00
 -1      2233 6.49500E+00 1.54125E+01 0.00000E+00
 -1      2234 6.49500E+00 1.68875E+01 0.00000E+00
 -1      2235 7.79400E+00 1.76250E+01 0.00000E+00
 -1      2236 6.49500E+00 1.24625E+01 0.00000E+00
 -1      2237 6.49500E+00 1.39375E+01 0.00000E+00
 -1      2238 7.79400E+00 1.46750E+01 0.00000E+00
 -1      2239 6.49500E+00 9.51250E+00 0.00000E+00
 -1      2240 6.49500E+00 1.09875E+01 0.00000E+00
 -1      2241 7.79400E+00 1.17250E+01 0.00000E+00
 -1      2242 4.57072E+01 1.42460E+01 0.00000E+00
 -1      2243 4.65227E+01 1.49528E+01 0.00000E+00
 -1      2244 1.37850E+01 5.30525E+00 0.00000E+00
 -1      2245 1.22850E+01 5.30525E+00 0.00000E+00
 -1      2246 1.15350E+01 6.60425E+00 0.00000E+00
 -1      2247 9.90000E+00 4.35050E+01 0.00000E+00
 -1      2248 1.14000E+01 4.35050E+01 0.00000E+00
 -1      2249 4.20913E+01 1.17563E+01 0.00000E+00
 -1      2250 4.31704E+01 1.22946E+01 0.00000E+00
 -1      2251 1.29000E+01 4.35050E+01 0.00000E+00
 -1      2252 1.44000E+01 4.35050E+01 0.00000E+00
 -1      2253 1.21500E+01 4.22060E+01 0.00000E+00
 -1      2254 1.59000E+01 4.35050E+01 0.00000E+00
 -1      2255 1.74000E+01 4.35050E+01 0.00000E+00
 -1      2256 1.51500E+01 4.22060E+01 0.00000E+00
 -1      2257 1.89000E+01 4.35050E+01 0.00000E+00
 -1      2258 2.04000E+01 4.35050E+01 0.00000E+00
 -1      2259 1.81500E+01 4.22060E+01 0.00000E+00
 -1      2260 2.19000E+01 4.35050E+01 0.00000E+00
 -1      2261 2.34000E+01 4.35050E+01 0.00000E+00
 -1      2262 2.11500E+01 4.22060E+01 0.00000E+00
 -1      2263 2.49000E+01 4.35050E+01 0.00000E+00
 -1      2264 2.64000E+01 4.35050E+01 0.00000E+00
 -1      2265 2.41500E+01 4.22060E+01 0.00000E+00
 -1      2266 2.79000E+01 4.35050E+01 0.00000E+00
 -1      2267 2.94000E+01 4.35050E+01 0.00000E+00
 -1      2268 2.71500E+01 4.22060E+01 0.00000E+00
 -1      2269 3.09000E+01 4.35050E+01 0.00000E+00
 -1      2270 3.24000E+01 4.35050E+01 0.00000E+00
 -1      2271 3.01500E+01 4.22060E+01 0.00000E+00
 -1      2272 3.39000E+01 4.35050E+01 0.00000E+00
 -1      2273 3.54000E+01 4.35050E+01 0.00000E+00
 -1      2274 3.31500E+01 4.22060E+01 0.00000E+00
 -1      2275 3.69000E+01 4.35050E+01 0.00000E+00
 -1      2276 3.84000E+01 4.35050E+01 0.00000E+00
 -1      2277 3.61500E+01 4.22060E+01 0.00000E+00
 -1      2278 3.99000E+01 4.35050E+01 0.00000E+00
 -1      2279 4.14000E+01 4.35050E+01 0.00000E+00
 -1      2280 3.91500E+01 4.22060E+01 0.00000E+00
 -1      2281 4.29000E+01 4.35050E+01 0.00000E+00
 -1      2282 4.44000E+01 4.35050E+01 0.00000E+00
 -1      2283 4.21500E+01 4.22060E+01 0.00000E+00
 -1      2284 4.59000E+01 4.35050E+01 0.00000E+00
 -1      2285 4.74000E+01 4.35050E+01 0.00000E+00
 -1      2286 4.51500E+01 4.22060E+01 0.00000E+00
 -1      2287 4.89000E+01 4.35050E+01 0.00000E+00
 -1      2288 5.04000E+01 4.35050E+01 0.00000E+00
 -1      2289 4.81500E+01 4.22060E+01 0.00000E+00
 -1      2290 5.19000E+01 4.35050E+01 0.00000E+00
 -1      2291 5.34000E+01 4.35050E+01 0.00000E+00
 -1      2292 5.11500E+01 4.22060E+01 0.00000E+00
 -1      2293 5.49000E+01 4.35050E+01 0.00000E+00
 -1      2294 5.64000E+01 4.35050E+01 0.00000E+00
 -1      2295 5.41500E+01 4.22060E+01 0.00000E+00
 -1      2296 5.79000E+01 4.35050E+01 0.00000E+00
 -1      2297 5.94000E+01 4.35050E+01 0.00000E+00
 -1      2298 5.71500E+01 4.22060E+01 0.00000E+00
 -1      2299 6.09000E+01 4.35050E+01 0.00000E+00
 -1      2300 6.24000E+01 4.35050E+01 0.00000E+00
 -1      2301 6.01500E+01 4.22060E+01 0.00000E+00
 -1      2302 6.39000E+01 4.35050E+01 0.00000E+00
 -1      2303 6.54000E+01 4.35050E+01 0.00000E+00
 -1      2304 6.31500E+01 4.22060E+01 0.00000E+00
 -1      2305 6.69000E+01 4.35050E+01 0.00000E+00
 -1      2306 6.84000E+01 4.35050E+01 0.00000E+00
 -1      2307 6.61500E+01 4.22060E+01 0.00000E+00
 -1      2308 6.99000E+01 4.35050E+01 0.00000E+00
 -1      2309 7.14000E+01 4.35050E+01 0.00000E+00
 -1      2310 6.91500E+01 4.22060E+01 0.00000E+00
 -1      2311 7.29000E+01 4.35050E+01 0.00000E+00
 -1      2312 7.44000E+01 4.35050E+01 0.00000E+00
 -1      2313 7.21500E+01 4.22060E+01 0.00000E+00
 -1      2314 7.59000E+01 4.35050E+01 0.00000E+00
 -1      2315 7.74000E+01 4.35050E+01 0.00000E+00
 -1      2316 7.51500E+01 4.22060E+01 0.00000E+00
 -1      2317 7.89000E+01 4.35050E+01 0.00000E+00
 -1      2318 8.04000E+01 4.35050E+01 0.00000E+00
 -1      2319 7.81500E+01 4.22060E+01 0.00000E+00
 -1      2320 8.19000E+01 4.35050E+01 0.00000E+00
 -1      2321 8.34000E+01 4.35050E+01 0.00000E+00
 -1      2322 8.11500E+01 4.22060E+01 0.00000E+00
 -1      2323 8.49000E+01 4.35050E+01 0.00000E+00
 -1      2324 8.64000E+01 4.35050E+01 0.00000E+00
 -1      2325 8.41500E+01 4.22060E+01 0.00000E+00
 -1      2326 8.79000E+01 4.35050E+01 0.00000E+00
 -1      2327 8.94000E+01 4.35050E+01 0.00000E+00
 -1      2328 8.71500E+01 4.22060E+01 0.00000E+00
 -1      2329 9.09000E+01 4.35050E+01 0.00000E+00
 -1      2330 9.24000E+01 4.35050E+01 0.00000E+00
 -1      2331 9.01500E+01 4.22060E+01 0.00000E+00
 -1      2332 9.39000E+01 4.35050E+01 0.00000E+00
 -1      2333 9.54000E+01 4.35050E+01 0.00000E+00
 -1      2334 9.31500E+01 4.22060E+01 0.00000E+00
 -1      2335 9.69000E+01 4.35050E+01 0.00000E+00
 -1      2336 9.84000E+01 4.35050E+01 0.00000E+00
 -1      2337 9.61500E+01 4.22060E+01 0.00000E+00
 -1      2338 9.99000E+01 4.35050E+01 0.00000E+00
 -1      2339 1.01400E+02 4.35050E+01 0.00000E+00
 -1      2340 9.91500E+01 4.22060E+01 0.00000E+00
 -1      2341 1.02900E+02 4.35050E+01 0.00000E+00
 -1      2342 1.04400E+02 4.35050E+01 0.00000E+00
 -1      2343 1.02150E+02 4.22060E+01 0.00000E+00
 -1      2344 1.05900E+02 4.35050E+01 0.00000E+00
 -1      2345 1.07400E+02 4.35050E+01 0.00000E+00
 -1      2346 1.05150E+02 4.22060E+01 0.00000E+00
 -1      2347 1.08900E+02 4.35050E+01 0.00000E+00
 -1      2348 1.10400E+02 4.35050E+01 0.00000E+00
 -1      2349 1.08150E+02 4.22060E+01 0.00000E+00
 -1      2350 1.11900E+02 4.35050E+01 0.00000E+00
 -1      2351 1.13400E+02 4.35050E+01 0.00000E+00
 -1      2352 1.11150E+02 4.22060E+01 0.00000E+00
 -1      2353 1.14900E+02 4.35050E+01 0.00000E+00
 -1      2354 1.16400E+02 4.35050E+01 0.00000E+00
 -1      2355 1.14150E+02 4.22060E+01 0.00000E+00
 -1      2356 1.17900E+02 4.35050E+01 0.00000E+00
 -1      2357 1.19400E+02 4.35050E+01 0.00000E+00
 -1      2358 1.17150E+02 4.22060E+01 0.00000E+00
 -1      2359 1.20900E+02 4.35050E+01 0.00000E+00
 -1      2360 1.22400E+02 4.35050E+01 0.00000E+00
 -1      2361 1.20150E+02 4.22060E+01 0.00000E+00
 -1      2362 1.23900E+02 4.35050E+01 0.00000E+00
 -1      2363 1.25400E+02 4.35050E+01 0.00000E+00
 -1      2364 1.23150E+02 4.22060E+01 0.00000E+00
 -1      2365 1.26900E+02 4.35050E+01 0.00000E+00
 -1      2366 1.28400E+02 4.35050E+01 0.00000E+00
 -1      2367 1.26150E+02 4.22060E+01 0.00000E+00
 -1      2368 1.29900E+02 4.35050E+01 0.00000E+00
 -1      2369 1.31400E+02 4.35050E+01 0.00000E+00
 -1      2370 1.29150E+02 4.22060E+01 0.00000E+00
 -1      2371 1.32900E+02 4.35050E+01 0.00000E+00
 -1      2372 1.34400E+02 4.35050E+01 0.00000E+00
 -1      2373 1.32150E+02 4.22060E+01 0.00000E+00
 -1      2374 1.35900E+02 4.35050E+01 0.00000E+00
 -1      2375 1.37400E+02 4.35050E+01 0.00000E+00
 -1      2376 1.35150E+02 4.22060E+01 0.00000E+00
 -1      2377 1.38900E+02 4.35050E+01 0.00000E+00
 -1      2378 1.40400E+02 4.35050E+01 0.00000E+00
 -1      2379 1.38150E+02 4.22060E+01 0.00000E+00
 -1      2380 1.97850E+01 5.30525E+00 0.00000E+00
 -1      2381 1.82850E+01 5.30525E+00 0.00000E+00
 -1      2382 2.27850E+01 5.30525E+00 0.00000E+00
 -1      2383 2.12850E+01 5.30525E+00 0.00000E+00
 -1      2384 2.05350E+01 6.60425E+00 0.00000E+00
 -1      2385 2.57850E+01 5.30525E+00 0.00000E+00
 -1      2386 2.42850E+01 5.30525E+00 0.00000E+00
 -1      2387 2.35350E+01 6.60425E+00 0.00000E+00
 -1      2388 2.87850E+01 5.30525E+00 0.00000E+00
 -1      2389 2.72850E+01 5.30525E+00 0.00000E+00
 -1      2390 2.65350E+01 6.60425E+00 0.00000E+00
 -1      2391 3.17850E+01 5.30525E+00 0.00000E+00
 -1      2392 3.02850E+01 5.30525E+00 0.00000E+00
 -1      2393 2.95350E+01 6.60425E+00 0.00000E+00
 -1      2394 3.47850E+01 5.30525E+00 0.00000E+00
 -1      2395 3.32850E+01 5.30525E+00 0.00000E+00
 -1      2396 3.25350E+01 6.60425E+00 0.00000E+00
 -1      2397 3.77850E+01 5.30525E+00 0.00000E+00
 -1      2398 3.62850E+01 5.30525E+00 0.00000E+00
 -1      2399 3.55350E+01 6.60425E+00 0.00000E+00
 -1      2400 4.07850E+01 5.30525E+00 0.00000E+00
 -1      2401 3.92850E+01 5.30525E+00 0.00000E+00
 -1      2402 3.85350E+01 6.60425E+00 0.00000E+00
 -1      2403 4.37850E+01 5.30525E+00 0.00000E+00
 -1      2404 4.22850E+01 5.30525E+00 0.00000E+00
 -1      2405 4.15350E+01 6.60425E+00 0.00000E+00
 -1      2406 4.67850E+01 5.30525E+00 0.00000E+00
 -1      2407 4.52850E+01 5.30525E+00 0.00000E+00
 -1      2408 4.45350E+01 6.60425E+00 0.00000E+00
 -1      2409 4.97850E+01 5.30525E+00 0.00000E+00
 -1      2410 4.82850E+01 5.30525E+00 0.00000E+00
 -1      2411 4.75350E+01 6.60425E+00 0.00000E+00
 -1      2412 5.27850E+01 5.30525E+00 0.00000E+00
 -1      2413 5.12850E+01 5.30525E+00 0.00000E+00
 -1      2414 5.05350E+01 6.60425E+00 0.00000E+00
 -1      2415 5.57850E+01 5.30525E+00 0.00000E+00
 -1      2416 5.42850E+01 5.30525E+00 0.00000E+00
 -1      2417 5.35350E+01 6.60425E+00 0.00000E+00
 -1      2418 5.87850E+01 5.30525E+00 0.00000E+00
 -1      2419 5.72850E+01 5.30525E+00 0.00000E+00
 -1      2420 5.65350E+01 6.60425E+00 0.00000E+00
 -1      2421 6.17850E+01 5.30525E+00 0.00000E+00
 -1      2422 6.02850E+01 5.30525E+00 0.00000E+00
 -1      2423 5.95350E+01 6.60425E+00 0.00000E+00
 -1      2424 6.47850E+01 5.30525E+00 0.00000E+00
 -1      2425 6.32850E+01 5.30525E+00 0.00000E+00
 -1      2426 6.25350E+01 6.60425E+00 0.00000E+00
 -1      2427 6.77850E+01 5.30525E+00 0.00000E+00
 -1      2428 6.62850E+01 5.30525E+00 0.00000E+00
 -1      2429 6.55350E+01 6.60425E+00 0.00000E+00
 -1      2430 7.07850E+01 5.30525E+00 0.00000E+00
 -1      2431 6.92850E+01 5.30525E+00 0.00000E+00
 -1      2432 6.85350E+01 6.60425E+00 0.00000E+00
 -1      2433 7.37850E+01 5.30525E+00 0.00000E+00
 -1      2434 7.22850E+01 5.30525E+00 0.00000E+00
 -1      2435 7.15350E+01 6.60425E+00 0.00000E+00
 -1      2436 7.67850E+01 5.30525E+00 0.00000E+00
 -1      2437 7.52850E+01 5.30525E+00 0.00000E+00
 -1      2438 7.45350E+01 6.60425E+00 0.00000E+00
 -1      2439 7.97850E+01 5.30525E+00 0.00000E+00
 -1      2440 7.82850E+01 5.30525E+00 0.00000E+00
 -1      2441 7.75350E+01 6.60425E+00 0.00000E+00
 -1      2442 8.27850E+01 5.30525E+00 0.00000E+00
 -1      2443 8.12850E+01 5.30525E+00 0.00000E+00
 -1      2444 8.05350E+01 6.60425E+00 0.00000E+00
 -1      2445 8.57850E+01 5.30525E+00 0.00000E+00
 -1      2446 8.42850E+01 5.30525E+00 0.00000E+00
 -1      2447 8.35350E+01 6.60425E+00 0.00000E+00
 -1      2448 8.87850E+01 5.30525E+00 0.00000E+00
 -1      2449 8.72850E+01 5.30525E+00 0.00000E+00
 -1      2450 8.65350E+01 6.60425E+00 0.00000E+00
 -1      2451 9.17850E+01 5.30525E+00 0.00000E+00
 -1      2452 9.02850E+01 5.30525E+00 0.00000E+00
 -1      2453 8.95350E+01 6.60425E+00 0.00000E+00
 -1      2454 9.47850E+01 5.30525E+00 0.00000E+00
 -1      2455 9.32850E+01 5.30525E+00 0.00000E+00
 -1      2456 9.25350E+01 6.60425E+00 0.00000E+00
 -1      2457 9.77850E+01 5.30525E+00 0.00000E+00
 -1      2458 9.62850E+01 5.30525E+00 0.00000E+00
 -1      2459 9.55350E+01 6.60425E+00 0.00000E+00
 -1      2460 1.00785E+02 5.30525E+00 0.00000E+00
 -1      2461 9.92850E+01 5.30525E+00 0.00000E+00
 -1      2462 9.85350E+01 6.60425E+00 0.00000E+00
 -1      2463 1.03785E+02 5.30525E+00 0.00000E+00
 -1      2464 1.02285E+02 5.30525E+00 0.00000E+00
 -1      2465 1.01535E+02 6.60425E+00 0.00000E+00
 -1      2466 1.06785E+02 5.30525E+00 0.00000E+00
 -1      2467 1.05285E+02 5.30525E+00 0.00000E+00
 -1      2468 1.04535E+02 6.60425E+00 0.00000E+00
 -1      2469 1.09785E+02 5.30525E+00 0.00000E+00
 -1      2470 1.08285E+02 5.30525E+00 0.00000E+00
 -1      2471 1.07535E+02 6.60425E+00 0.00000E+00
 -1      2472 1.12785E+02 5.30525E+00 0.00000E+00
 -1      2473 1.11285E+02 5.30525E+00 0.00000E+00
 -1      2474 1.10535E+02 6.60425E+00 0.00000E+00
 -1      2475 1.15785E+02 5.30525E+00 0.00000E+00
 -1      2476 1.14285E+02 5.30525E+00 0.00000E+00
 -1      2477 1.13535E+02 6.60425E+00 0.00000E+00
 -1      2478 1.18785E+02 5.30525E+00 0.00000E+00
 -1      2479 1.17285E+02 5.30525E+00 0.00000E+00
 -1      2480 1.16535E+02 6.60425E+00 0.00000E+00
 -1      2481 1.21785E+02 5.30525E+00 0.00000E+00
 -1      2482 1.20285E+02 5.30525E+00 0.00000E+00
 -1      2483 1.19535E+02 6.60425E+00 0.00000E+00
 -1      2484 1.24785E+02 5.30525E+00 0.00000E+00
 -1      2485 1.23285E+02 5.30525E+00 0.00000E+00
 -1      2486 1.22535E+02 6.60425E+00 0.00000E+00
 -1      2487 1.27785E+02 5.30525E+00 0.00000E+00
 -1      2488 1.26285E+02 5.30525E+00 0.00000E+00
 -1      2489 1.25535E+02 6.60425E+00 0.00000E+00
 -1      2490 1.30785E+02 5.30525E+00 0.00000E+00
 -1      2491 1.29285E+02 5.30525E+00 0.00000E+00
 -1      2492 1.28535E+02 6.60425E+00 0.00000E+00
 -1      2493 1.33785E+02 5.30525E+00 0.00000E+00
 -1      2494 1.32285E+02 5.30525E+00 0.00000E+00
 -1      2495 1.31535E+02 6.60425E+00 0.00000E+00
 -1      2496 1.36785E+02 5.30525E+00 0.00000E+00
 -1      2497 1.35285E+02 5.30525E+00 0.00000E+00
 -1      2498 1.34535E+02 6.60425E+00 0.00000E+00
 -1      2499 1.39785E+02 5.30525E+00 0.00000E+00
 -1      2500 1.38285E+02 5.30525E+00 0.00000E+00
 -1      2501 1.37535E+02 6.60425E+00 0.00000E+00
 -1      2502 1.42785E+02 5.30525E+00 0.00000E+00
 -1      2503 1.41285E+02 5.30525E+00 0.00000E+00
 -1      2504 1.40535E+02 6.60425E+00 0.00000E+00
 -1      2505 1.44336E+02 5.26953E+00 0.00000E+00
 -1      2506 1.43505E+02 1.69125E+01 0.00000E+00
 -1      2507 1.43505E+02 1.54375E+01 0.00000E+00
 -1      2508 1.43505E+02 1.98625E+01 0.00000E+00
 -1      2509 1.43505E+02 1.83875E+01 0.00000E+00
 -1      2510 1.42206E+02 1.76500E+01 0.00000E+00
 -1      2511 1.43505E+02 1.10625E+01 0.00000E+00
 -1      2512 1.43505E+02 9.58750E+00 0.00000E+00
 -1      2513 1.43505E+02 1.39750E+01 0.00000E+00
 -1      2514 1.43505E+02 1.25250E+01 0.00000E+00
 -1      2515 1.42206E+02 1.17875E+01 0.00000E+00
 -1      2516 1.42206E+02 1.47125E+01 0.00000E+00
 -1      2517 1.43505E+02 2.28125E+01 0.00000E+00
 -1      2518 1.43505E+02 2.13375E+01 0.00000E+00
 -1      2519 1.42206E+02 2.06000E+01 0.00000E+00
 -1      2520 1.43505E+02 2.57625E+01 0.00000E+00
 -1      2521 1.43505E+02 2.42875E+01 0.00000E+00
 -1      2522 1.42206E+02 2.35500E+01 0.00000E+00
 -1      2523 1.43505E+02 2.87125E+01 0.00000E+00
 -1      2524 1.43505E+02 2.72375E+01 0.00000E+00
 -1      2525 1.42206E+02 2.65000E+01 0.00000E+00
 -1      2526 1.43505E+02 3.16125E+01 0.00000E+00
 -1      2527 1.43505E+02 3.01625E+01 0.00000E+00
 -1      2528 1.42206E+02 2.94250E+01 0.00000E+00
 -1      2529 1.43505E+02 3.45625E+01 0.00000E+00
 -1      2530 1.43505E+02 3.30875E+01 0.00000E+00
 -1      2531 1.42206E+02 3.23500E+01 0.00000E+00
 -1      2532 1.43505E+02 3.75125E+01 0.00000E+00
 -1      2533 1.43505E+02 3.60375E+01 0.00000E+00
 -1      2534 1.42206E+02 3.53000E+01 0.00000E+00
 -1      2535 1.43505E+02 4.04625E+01 0.00000E+00
 -1      2536 1.43505E+02 3.89875E+01 0.00000E+00
 -1      2537 1.42206E+02 3.82500E+01 0.00000E+00
 -1      2538 4.90606E+01 2.04468E+01 0.00000E+00
 -1      2539 4.90737E+01 2.15079E+01 0.00000E+00
 -1      2540 4.75748E+01 1.58808E+01 0.00000E+00
 -1      2541 4.81931E+01 1.68768E+01 0.00000E+00
 -1      2542 1.67850E+01 5.30525E+00 0.00000E+00
 -1      2543 1.52850E+01 5.30525E+00 0.00000E+00
 -1      2544 1.75350E+01 6.60425E+00 0.00000E+00
 -1      2545 1.44321E+02 4.30606E+01 0.00000E+00
 -1      2546 4.91014E+01 2.26221E+01 0.00000E+00
 -1      2547 4.89884E+01 2.35667E+01 0.00000E+00
 -1      2548 4.86111E+01 1.81546E+01 0.00000E+00
 -1      2549 4.89348E+01 1.91602E+01 0.00000E+00
 -1      2550 6.55950E+00 4.28890E+01 0.00000E+00
 -1      2551 8.53650E+00 4.32410E+01 0.00000E+00
 -1      2552 9.28650E+00 4.19420E+01 0.00000E+00
 -1      2553 6.55950E+00 4.14140E+01 0.00000E+00
 -1      2554 4.88820E+01 2.47355E+01 0.00000E+00
 -1      2555 4.85569E+01 2.56362E+01 0.00000E+00
 -1      2556 3.67756E+01 3.25336E+01 0.00000E+00
 -1      2557 3.57368E+01 3.21066E+01 0.00000E+00
 -1      2558 3.09171E+01 2.90057E+01 0.00000E+00
 -1      2559 3.01875E+01 2.81809E+01 0.00000E+00
 -1      2560 3.13316E+01 1.47611E+01 0.00000E+00
 -1      2561 3.19676E+01 1.39868E+01 0.00000E+00
 -1      2562 6.49500E+00 2.71625E+01 0.00000E+00
 -1      2563 6.49500E+00 2.86375E+01 0.00000E+00
 -1      2564 7.79400E+00 2.93750E+01 0.00000E+00
 -1      2565 7.79400E+00 2.64250E+01 0.00000E+00
 -1      2566 3.93230E+01 1.13317E+01 0.00000E+00
 -1      2567 4.05721E+01 1.14268E+01 0.00000E+00
 -1      2568 3.29266E+01 1.30678E+01 0.00000E+00
 -1      2569 3.38294E+01 1.25431E+01 0.00000E+00
 -1      2570 3.72338E+01 1.13422E+01 0.00000E+00
 -1      2571 3.81001E+01 1.12496E+01 0.00000E+00
 -1      2572 2.84689E+01 2.08833E+01 0.00000E+00
 -1      2573 2.85678E+01 1.98231E+01 0.00000E+00
 -1      2574 3.49727E+01 1.20161E+01 0.00000E+00
 -1      2575 3.60462E+01 1.16310E+01 0.00000E+00
 -1      2576 3.01330E+01 1.62183E+01 0.00000E+00
 -1      2577 3.07323E+01 1.54897E+01 0.00000E+00
 -1      2578 3.03876E+01 1.45583E+01 0.00000E+00
 -1      2579 2.85124E+01 2.28440E+01 0.00000E+00
 -1      2580 2.85041E+01 2.19424E+01 0.00000E+00
 -1      2581 2.87320E+01 2.52204E+01 0.00000E+00
 -1      2582 2.85390E+01 2.40139E+01 0.00000E+00
 -1      2583 2.95136E+01 2.72246E+01 0.00000E+00
 -1      2584 2.91088E+01 2.64474E+01 0.00000E+00
 -1      2585 3.96670E+01 3.28711E+01 0.00000E+00
 -1      2586 3.83395E+01 3.29421E+01 0.00000E+00
 -1      2587 3.48416E+01 3.15894E+01 0.00000E+00
 -1      2588 3.40313E+01 3.12300E+01 0.00000E+00
 -1      2589 4.55490E+01 2.98535E+01 0.00000E+00
 -1      2590 4.48509E+01 3.04483E+01 0.00000E+00
 -1      2591 4.17688E+01 3.23069E+01 0.00000E+00
 -1      2592 4.09186E+01 3.25299E+01 0.00000E+00
 -1      2593 4.38928E+01 3.11159E+01 0.00000E+00
 -1      2594 4.29347E+01 3.17835E+01 0.00000E+00
 -1      2595 4.48512E+01 3.15336E+01 0.00000E+00
 -1      2596 4.67960E+01 2.82640E+01 0.00000E+00
 -1      2597 4.61839E+01 2.89830E+01 0.00000E+00
 -1      2598 4.78418E+01 2.65078E+01 0.00000E+00
 -1      2599 4.73831E+01 2.73401E+01 0.00000E+00
 -1      2600 4.41721E+01 1.29949E+01 0.00000E+00
 -1      2601 4.49098E+01 1.35463E+01 0.00000E+00
 -1      2602 8.07525E+00 5.11044E+00 0.00000E+00
 -1      2603 6.57525E+00 5.11044E+00 0.00000E+00
 -1      2604 6.40575E+00 6.01981E+00 0.00000E+00
 -1      2605 8.82525E+00 6.40944E+00 0.00000E+00
 -1      2606 7.79400E+00 3.52687E+01 0.00000E+00
 -1      2607 6.49500E+00 3.60062E+01 0.00000E+00
 -1      2608 6.49500E+00 3.74750E+01 0.00000E+00
 -1      2609 4.77012E+01 1.49111E+01 0.00000E+00
 -1      2610 4.58518E+01 1.32834E+01 0.00000E+00
 -1      2611 6.40575E+00 7.49481E+00 0.00000E+00
 -1      2612 4.64442E+01 2.99955E+01 0.00000E+00
 -1      2613 3.50350E+01 3.25960E+01 0.00000E+00
 -1      2614 4.97900E+01 2.43651E+01 0.00000E+00
 -1      2615 4.40527E+01 1.18834E+01 0.00000E+00
 -1      2616 4.03097E+01 3.35891E+01 0.00000E+00
 -1      2617 2.92988E+01 2.81497E+01 0.00000E+00
 -1      2618 2.82482E+01 2.59664E+01 0.00000E+00
 -1      2619 1.43586E+02 6.56853E+00 0.00000E+00
 -1      2620 1.43419E+02 7.72713E+00 0.00000E+00
 -1      2621 2.93624E+01 1.65422E+01 0.00000E+00
 -1      2622 2.90177E+01 1.56107E+01 0.00000E+00
 -1      2623 2.85917E+01 1.68660E+01 0.00000E+00
 -1      2624 4.98686E+01 2.20821E+01 0.00000E+00
 -1      2625 4.97151E+01 1.96812E+01 0.00000E+00
 -1      2626 4.91713E+01 1.71169E+01 0.00000E+00
 -1      2627 3.40483E+01 1.14645E+01 0.00000E+00
 -1      2628 2.77831E+01 2.13405E+01 0.00000E+00
 -1      2629 1.45350E+01 6.60425E+00 0.00000E+00
 -1      2630 3.63792E+01 1.06487E+01 0.00000E+00
 -1      2631 4.89686E+01 2.64055E+01 0.00000E+00
 -1      2632 3.74941E+01 3.35218E+01 0.00000E+00
 -1      2633 3.66487E+01 3.41014E+01 0.00000E+00
 -1      2634 3.82126E+01 3.45099E+01 0.00000E+00
 -1      2635 3.11032E+01 2.98228E+01 0.00000E+00
 -1      2636 3.01588E+01 2.99230E+01 0.00000E+00
 -1      2637 3.12893E+01 3.06399E+01 0.00000E+00
 -1      2638 6.55950E+00 3.99453E+01 0.00000E+00
 -1      2639 3.19459E+01 1.29106E+01 0.00000E+00
 -1      2640 2.83422E+01 1.90394E+01 0.00000E+00
 -1      2641 2.81166E+01 1.82556E+01 0.00000E+00
 -1      2642 2.75223E+01 1.94976E+01 0.00000E+00
 -1      2643 3.87898E+01 1.04420E+01 0.00000E+00
 -1      2644 2.78449E+01 2.35695E+01 0.00000E+00
 -1      2645 3.31867E+01 3.13092E+01 0.00000E+00
 -1      2646 3.23422E+01 3.13884E+01 0.00000E+00
 -1      2647 3.32952E+01 3.21579E+01 0.00000E+00
 -1      2648 4.27272E+01 3.27245E+01 0.00000E+00
 -1      2649 1.42758E+02 4.35929E+01 0.00000E+00
 -1      2650 1.43241E+02 4.17323E+01 0.00000E+00
 -1      2651 1.41942E+02 4.09948E+01 0.00000E+00
 -1      2652 1.41414E+02 4.35342E+01 0.00000E+00
 -1      2653 4.76663E+01 2.82011E+01 0.00000E+00
 -1      2654 7.70475E+00 8.23231E+00 0.00000E+00
 -1      2655 1.42120E+02 8.46463E+00 0.00000E+00
 -1      2656 1.40664E+02 4.22352E+01 0.00000E+00
 -1      2657 4.10213E+01 1.05237E+01 0.00000E+00
 -1      2658 4.15807E+01 1.14264E+01 0.00000E+00
 -1      2659 9.09300E+00 1.98250E+01 0.00000E+00
 -1      2660 9.09300E+00 2.12750E+01 0.00000E+00
 -1      2661 9.09300E+00 2.27500E+01 0.00000E+00
 -1      2662 9.09300E+00 2.42250E+01 0.00000E+00
 -1      2663 1.03920E+01 2.20250E+01 0.00000E+00
 -1      2664 9.09300E+00 1.39375E+01 0.00000E+00
 -1      2665 9.09300E+00 1.54125E+01 0.00000E+00
 -1      2666 9.09300E+00 1.09875E+01 0.00000E+00
 -1      2667 9.09300E+00 1.24625E+01 0.00000E+00
 -1      2668 1.03920E+01 1.32000E+01 0.00000E+00
 -1      2669 1.40706E+02 1.03250E+01 0.00000E+00
 -1      2670 1.40620E+02 8.46463E+00 0.00000E+00
 -1      2671 1.39120E+02 8.46463E+00 0.00000E+00
 -1      2672 1.22850E+01 7.90325E+00 0.00000E+00
 -1      2673 1.07850E+01 7.90325E+00 0.00000E+00
 -1      2674 4.25405E+01 1.08532E+01 0.00000E+00
 -1      2675 4.27960E+01 9.89756E+00 0.00000E+00
 -1      2676 4.33066E+01 1.02274E+01 0.00000E+00
 -1      2677 4.43083E+01 1.09278E+01 0.00000E+00
 -1      2678 4.53099E+01 1.16281E+01 0.00000E+00
 -1      2679 4.45638E+01 9.97218E+00 0.00000E+00
 -1      2680 1.44000E+01 4.09070E+01 0.00000E+00
 -1      2681 1.59000E+01 4.09070E+01 0.00000E+00
 -1      2682 1.74000E+01 4.09070E+01 0.00000E+00
 -1      2683 1.89000E+01 4.09070E+01 0.00000E+00
 -1      2684 1.66500E+01 3.96080E+01 0.00000E+00
 -1      2685 2.04000E+01 4.09070E+01 0.00000E+00
 -1      2686 2.19000E+01 4.09070E+01 0.00000E+00
 -1      2687 1.96500E+01 3.96080E+01 0.00000E+00
 -1      2688 2.34000E+01 4.09070E+01 0.00000E+00
 -1      2689 2.49000E+01 4.09070E+01 0.00000E+00
 -1      2690 2.26500E+01 3.96080E+01 0.00000E+00
 -1      2691 2.64000E+01 4.09070E+01 0.00000E+00
 -1      2692 2.79000E+01 4.09070E+01 0.00000E+00
 -1      2693 2.56500E+01 3.96080E+01 0.00000E+00
 -1      2694 2.94000E+01 4.09070E+01 0.00000E+00
 -1      2695 3.09000E+01 4.09070E+01 0.00000E+00
 -1      2696 2.86500E+01 3.96080E+01 0.00000E+00
 -1      2697 3.24000E+01 4.09070E+01 0.00000E+00
 -1      2698 3.39000E+01 4.09070E+01 0.00000E+00
 -1      2699 3.16500E+01 3.96080E+01 0.00000E+00
 -1      2700 3.54000E+01 4.09070E+01 0.00000E+00
 -1      2701 3.69000E+01 4.09070E+01 0.00000E+00
 -1      2702 3.46500E+01 3.96080E+01 0.00000E+00
 -1      2703 3.84000E+01 4.09070E+01 0.00000E+00
 -1      2704 3.99000E+01 4.09070E+01 0.00000E+00
 -1      2705 3.76500E+01 3.96080E+01 0.00000E+00
 -1      2706 4.14000E+01 4.09070E+01 0.00000E+00
 -1      2707 4.29000E+01 4.09070E+01 0.00000E+00
 -1      2708 4.06500E+01 3.96080E+01 0.00000E+00
 -1      2709 4.44000E+01 4.09070E+01 0.00000E+00
 -1      2710 4.59000E+01 4.09070E+01 0.00000E+00
 -1      2711 4.36500E+01 3.96080E+01 0.00000E+00
 -1      2712 4.74000E+01 4.09070E+01 0.00000E+00
 -1      2713 4.89000E+01 4.09070E+01 0.00000E+00
 -1      2714 4.66500E+01 3.96080E+01 0.00000E+00
 -1      2715 5.04000E+01 4.09070E+01 0.00000E+00
 -1      2716 5.19000E+01 4.09070E+01 0.00000E+00
 -1      2717 4.96500E+01 3.96080E+01 0.00000E+00
 -1      2718 5.34000E+01 4.09070E+01 0.00000E+00
 -1      2719 5.49000E+01 4.09070E+01 0.00000E+00
 -1      2720 5.26500E+01 3.96080E+01 0.00000E+00
 -1      2721 5.64000E+01 4.09070E+01 0.00000E+00
 -1      2722 5.79000E+01 4.09070E+01 0.00000E+00
 -1      2723 5.56500E+01 3.96080E+01 0.00000E+00
 -1      2724 5.94000E+01 4.09070E+01 0.00000E+00
 -1      2725 6.09000E+01 4.09070E+01 0.00000E+00
 -1      2726 5.86500E+01 3.96080E+01 0.00000E+00
 -1      2727 6.24000E+01 4.09070E+01 0.00000E+00
 -1      2728 6.39000E+01 4.09070E+01 0.00000E+00
 -1      2729 6.16500E+01 3.96080E+01 0.00000E+00
 -1      2730 6.54000E+01 4.09070E+01 0.00000E+00
 -1      2731 6.69000E+01 4.09070E+01 0.00000E+00
 -1      2732 6.46500E+01 3.96080E+01 0.00000E+00
 -1      2733 6.84000E+01 4.09070E+01 0.00000E+00
 -1      2734 6.99000E+01 4.09070E+01 0.00000E+00
 -1      2735 6.76500E+01 3.96080E+01 0.00000E+00
 -1      2736 7.14000E+01 4.09070E+01 0.00000E+00
 -1      2737 7.29000E+01 4.09070E+01 0.00000E+00
 -1      2738 7.06500E+01 3.96080E+01 0.00000E+00
 -1      2739 7.44000E+01 4.09070E+01 0.00000E+00
 -1      2740 7.59000E+01 4.09070E+01 0.00000E+00
 -1      2741 7.36500E+01 3.96080E+01 0.00000E+00
 -1      2742 7.74000E+01 4.09070E+01 0.00000E+00
 -1      2743 7.89000E+01 4.09070E+01 0.00000E+00
 -1      2744 7.66500E+01 3.96080E+01 0.00000E+00
 -1      2745 8.04000E+01 4.09070E+01 0.00000E+00
 -1      2746 8.19000E+01 4.09070E+01 0.00000E+00
 -1      2747 7.96500E+01 3.96080E+01 0.00000E+00
 -1      2748 8.34000E+01 4.09070E+01 0.00000E+00
 -1      2749 8.49000E+01 4.09070E+01 0.00000E+00
 -1      2750 8.26500E+01 3.96080E+01 0.00000E+00
 -1      2751 8.64000E+01 4.09070E+01 0.00000E+00
 -1      2752 8.79000E+01 4.09070E+01 0.00000E+00
 -1      2753 8.56500E+01 3.96080E+01 0.00000E+00
 -1      2754 8.94000E+01 4.09070E+01 0.00000E+00
 -1      2755 9.09000E+01 4.09070E+01 0.00000E+00
 -1      2756 8.86500E+01 3.96080E+01 0.00000E+00
 -1      2757 9.24000E+01 4.09070E+01 0.00000E+00
 -1      2758 9.39000E+01 4.09070E+01 0.00000E+00
 -1      2759 9.16500E+01 3.96080E+01 0.00000E+00
 -1      2760 9.54000E+01 4.09070E+01 0.00000E+00
 -1      2761 9.69000E+01 4.09070E+01 0.00000E+00
 -1      2762 9.46500E+01 3.96080E+01 0.00000E+00
 -1      2763 9.84000E+01 4.09070E+01 0.00000E+00
 -1      2764 9.99000E+01 4.09070E+01 0.00000E+00
 -1      2765 9.76500E+01 3.96080E+01 0.00000E+00
 -1      2766 1.01400E+02 4.09070E+01 0.00000E+00
 -1      2767 1.02900E+02 4.09070E+01 0.00000E+00
 -1      2768 1.00650E+02 3.96080E+01 0.00000E+00
 -1      2769 1.04400E+02 4.09070E+01 0.00000E+00
 -1      2770 1.05900E+02 4.09070E+01 0.00000E+00
 -1      2771 1.03650E+02 3.96080E+01 0.00000E+00
 -1      2772 1.07400E+02 4.09070E+01 0.00000E+00
 -1      2773 1.08900E+02 4.09070E+01 0.00000E+00
 -1      2774 1.06650E+02 3.96080E+01 0.00000E+00
 -1      2775 1.10400E+02 4.09070E+01 0.00000E+00
 -1      2776 1.11900E+02 4.09070E+01 0.00000E+00
 -1      2777 1.09650E+02 3.96080E+01 0.00000E+00
 -1      2778 1.13400E+02 4.09070E+01 0.00000E+00
 -1      2779 1.14900E+02 4.09070E+01 0.00000E+00
 -1      2780 1.12650E+02 3.96080E+01 0.00000E+00
 -1      2781 1.16400E+02 4.09070E+01 0.00000E+00
 -1      2782 1.17900E+02 4.09070E+01 0.00000E+00
 -1      2783 1.15650E+02 3.96080E+01 0.00000E+00
 -1      2784 1.19400E+02 4.09070E+01 0.00000E+00
 -1      2785 1.20900E+02 4.09070E+01 0.00000E+00
 -1      2786 1.18650E+02 3.96080E+01 0.00000E+00
 -1      2787 1.22400E+02 4.09070E+01 0.00000E+00
 -1      2788 1.23900E+02 4.09070E+01 0.00000E+00
 -1      2789 1.21650E+02 3.96080E+01 0.00000E+00
 -1      2790 1.25400E+02 4.09070E+01 0.00000E+00
 -1      2791 1.26900E+02 4.09070E+01 0.00000E+00
 -1      2792 1.24650E+02 3.96080E+01 0.00000E+00
 -1      2793 1.28400E+02 4.09070E+01 0.00000E+00
 -1      2794 1.29900E+02 4.09070E+01 0.00000E+00
 -1      2795 1.27650E+02 3.96080E+01 0.00000E+00
 -1      2796 1.31400E+02 4.09070E+01 0.00000E+00
 -1      2797 1.32900E+02 4.09070E+01 0.00000E+00
 -1      2798 1.30650E+02 3.96080E+01 0.00000E+00
 -1      2799 1.34400E+02 4.09070E+01 0.00000E+00
 -1      2800 1.35900E+02 4.09070E+01 0.00000E+00
 -1      2801 1.33650E+02 3.96080E+01 0.00000E+00
 -1      2802 1.37400E+02 4.09070E+01 0.00000E+00
 -1      2803 1.38900E+02 4.09070E+01 0.00000E+00
 -1      2804 1.36650E+02 3.96080E+01 0.00000E+00
 -1      2805 2.42850E+01 7.90325E+00 0.00000E+00
 -1      2806 2.27850E+01 7.90325E+00 0.00000E+00
 -1      2807 4.86836E+01 2.81991E+01 0.00000E+00
 -1      2808 4.80965E+01 2.91231E+01 0.00000E+00
 -1      2809 2.12850E+01 7.90325E+00 0.00000E+00
 -1      2810 1.97850E+01 7.90325E+00 0.00000E+00
 -1      2811 2.20350E+01 9.20225E+00 0.00000E+00
 -1      2812 3.02850E+01 7.90325E+00 0.00000E+00
 -1      2813 2.87850E+01 7.90325E+00 0.00000E+00
 -1      2814 3.61133E+01 8.77085E+00 0.00000E+00
 -1      2815 3.46133E+01 8.77085E+00 0.00000E+00
 -1      2816 4.00238E+01 8.56423E+00 0.00000E+00
 -1      2817 3.85238E+01 8.56423E+00 0.00000E+00
 -1      2818 4.15238E+01 8.56423E+00 0.00000E+00
 -1      2819 4.47986E+01 7.93804E+00 0.00000E+00
 -1      2820 4.32986E+01 7.93804E+00 0.00000E+00
 -1      2821 4.82850E+01 7.88073E+00 0.00000E+00
 -1      2822 4.67850E+01 7.88073E+00 0.00000E+00
 -1      2823 5.12850E+01 7.88073E+00 0.00000E+00
 -1      2824 4.97850E+01 7.88073E+00 0.00000E+00
 -1      2825 4.90350E+01 9.15721E+00 0.00000E+00
 -1      2826 5.42850E+01 7.88073E+00 0.00000E+00
 -1      2827 5.27850E+01 7.88073E+00 0.00000E+00
 -1      2828 5.20350E+01 9.15721E+00 0.00000E+00
 -1      2829 5.72850E+01 7.88073E+00 0.00000E+00
 -1      2830 5.57850E+01 7.88073E+00 0.00000E+00
 -1      2831 5.50350E+01 9.15721E+00 0.00000E+00
 -1      2832 6.02850E+01 7.88073E+00 0.00000E+00
 -1      2833 5.87850E+01 7.88073E+00 0.00000E+00
 -1      2834 5.80350E+01 9.15721E+00 0.00000E+00
 -1      2835 6.32850E+01 7.88073E+00 0.00000E+00
 -1      2836 6.17850E+01 7.88073E+00 0.00000E+00
 -1      2837 6.10350E+01 9.15721E+00 0.00000E+00
 -1      2838 6.62850E+01 7.88073E+00 0.00000E+00
 -1      2839 6.47850E+01 7.88073E+00 0.00000E+00
 -1      2840 6.40350E+01 9.15721E+00 0.00000E+00
 -1      2841 6.92850E+01 7.88073E+00 0.00000E+00
 -1      2842 6.77850E+01 7.88073E+00 0.00000E+00
 -1      2843 6.70350E+01 9.15721E+00 0.00000E+00
 -1      2844 7.22850E+01 7.88073E+00 0.00000E+00
 -1      2845 7.07850E+01 7.88073E+00 0.00000E+00
 -1      2846 7.00350E+01 9.15721E+00 0.00000E+00
 -1      2847 7.52850E+01 7.88073E+00 0.00000E+00
 -1      2848 7.37850E+01 7.88073E+00 0.00000E+00
 -1      2849 7.30350E+01 9.15721E+00 0.00000E+00
 -1      2850 7.82850E+01 7.88073E+00 0.00000E+00
 -1      2851 7.67850E+01 7.88073E+00 0.00000E+00
 -1      2852 7.60350E+01 9.15721E+00 0.00000E+00
 -1      2853 8.12850E+01 7.88073E+00 0.00000E+00
 -1      2854 7.97850E+01 7.88073E+00 0.00000E+00
 -1      2855 7.90350E+01 9.15721E+00 0.00000E+00
 -1      2856 8.42850E+01 7.88073E+00 0.00000E+00
 -1      2857 8.27850E+01 7.88073E+00 0.00000E+00
 -1      2858 8.20350E+01 9.15721E+00 0.00000E+00
 -1      2859 8.72850E+01 7.88073E+00 0.00000E+00
 -1      2860 8.57850E+01 7.88073E+00 0.00000E+00
 -1      2861 8.50350E+01 9.15721E+00 0.00000E+00
 -1      2862 9.02850E+01 7.88073E+00 0.00000E+00
 -1      2863 8.87850E+01 7.88073E+00 0.00000E+00
 -1      2864 8.80350E+01 9.15721E+00 0.00000E+00
 -1      2865 9.32850E+01 7.88073E+00 0.00000E+00
 -1      2866 9.17850E+01 7.88073E+00 0.00000E+00
 -1      2867 9.10350E+01 9.15721E+00 0.00000E+00
 -1      2868 9.62850E+01 7.88073E+00 0.00000E+00
 -1      2869 9.47850E+01 7.88073E+00 0.00000E+00
 -1      2870 9.40350E+01 9.15721E+00 0.00000E+00
 -1      2871 9.92850E+01 7.88073E+00 0.00000E+00
 -1      2872 9.77850E+01 7.88073E+00 0.00000E+00
 -1      2873 9.70350E+01 9.15721E+00 0.00000E+00
 -1      2874 1.02285E+02 7.88073E+00 0.00000E+00
 -1      2875 1.00785E+02 7.88073E+00 0.00000E+00
 -1      2876 1.00035E+02 9.15721E+00 0.00000E+00
 -1      2877 1.05285E+02 7.88073E+00 0.00000E+00
 -1      2878 1.03785E+02 7.88073E+00 0.00000E+00
 -1      2879 1.03035E+02 9.15721E+00 0.00000E+00
 -1      2880 1.08285E+02 7.88073E+00 0.00000E+00
 -1      2881 1.06785E+02 7.88073E+00 0.00000E+00
 -1      2882 1.06035E+02 9.15721E+00 0.00000E+00
 -1      2883 1.11285E+02 7.88073E+00 0.00000E+00
 -1      2884 1.09785E+02 7.88073E+00 0.00000E+00
 -1      2885 1.09035E+02 9.15721E+00 0.00000E+00
 -1      2886 1.14285E+02 7.88073E+00 0.00000E+00
 -1      2887 1.12785E+02 7.88073E+00 0.00000E+00
 -1      2888 1.12035E+02 9.15721E+00 0.00000E+00
 -1      2889 1.17285E+02 7.88073E+00 0.00000E+00
 -1      2890 1.15785E+02 7.88073E+00 0.00000E+00
 -1      2891 1.15035E+02 9.15721E+00 0.00000E+00
 -1      2892 1.20285E+02 7.88073E+00 0.00000E+00
 -1      2893 1.18785E+02 7.88073E+00 0.00000E+00
 -1      2894 1.18035E+02 9.15721E+00 0.00000E+00
 -1      2895 1.23285E+02 7.88073E+00 0.00000E+00
 -1      2896 1.21785E+02 7.88073E+00 0.00000E+00
 -1      2897 1.21035E+02 9.15721E+00 0.00000E+00
 -1      2898 1.26285E+02 7.88073E+00 0.00000E+00
 -1      2899 1.24785E+02 7.88073E+00 0.00000E+00
 -1      2900 1.24035E+02 9.15721E+00 0.00000E+00
 -1      2901 1.29285E+02 7.88073E+00 0.00000E+00
 -1      2902 1.27785E+02 7.88073E+00 0.00000E+00
 -1      2903 1.27035E+02 9.15721E+00 0.00000E+00
 -1      2904 1.32285E+02 7.88073E+00 0.00000E+00
 -1      2905 1.30785E+02 7.88073E+00 0.00000E+00
 -1      2906 1.30035E+02 9.15721E+00 0.00000E+00
 -1      2907 1.35285E+02 7.88073E+00 0.00000E+00
 -1      2908 1.33785E+02 7.88073E+00 0.00000E+00
 -1      2909 1.33035E+02 9.15721E+00 0.00000E+00
 -1      2910 1.37953E+02 8.17268E+00 0.00000E+00
 -1      2911 1.36453E+02 8.17268E+00 0.00000E+00
 -1      2912 1.35703E+02 9.44916E+00 0.00000E+00
 -1      2913 1.38038E+02 1.00331E+01 0.00000E+00
 -1      2914 1.40907E+02 2.42875E+01 0.00000E+00
 -1      2915 1.40907E+02 2.28125E+01 0.00000E+00
 -1      2916 1.39914E+02 4.09362E+01 0.00000E+00
 -1      2917 1.40928E+02 4.09655E+01 0.00000E+00
 -1      2918 1.39164E+02 3.96372E+01 0.00000E+00
 -1      2919 1.40907E+02 1.83875E+01 0.00000E+00
 -1      2920 1.40907E+02 1.69125E+01 0.00000E+00
 -1      2921 1.40907E+02 2.72375E+01 0.00000E+00
 -1      2922 1.40907E+02 2.57625E+01 0.00000E+00
 -1      2923 1.39608E+02 2.50250E+01 0.00000E+00
 -1      2924 1.40907E+02 2.13375E+01 0.00000E+00
 -1      2925 1.40907E+02 1.98625E+01 0.00000E+00
 -1      2926 1.39608E+02 1.91250E+01 0.00000E+00
 -1      2927 1.39608E+02 2.20750E+01 0.00000E+00
 -1      2928 4.61074E+01 1.23278E+01 0.00000E+00
 -1      2929 4.69048E+01 1.30274E+01 0.00000E+00
 -1      2930 4.63629E+01 1.13722E+01 0.00000E+00
 -1      2931 1.40907E+02 3.01375E+01 0.00000E+00
 -1      2932 1.40907E+02 2.86875E+01 0.00000E+00
 -1      2933 1.39608E+02 2.79500E+01 0.00000E+00
 -1      2934 1.40907E+02 3.30875E+01 0.00000E+00
 -1      2935 1.40907E+02 3.16125E+01 0.00000E+00
 -1      2936 1.39608E+02 3.08750E+01 0.00000E+00
 -1      2937 1.40907E+02 3.60375E+01 0.00000E+00
 -1      2938 1.40907E+02 3.45625E+01 0.00000E+00
 -1      2939 1.39608E+02 3.38250E+01 0.00000E+00
 -1      2940 5.07540E+01 1.89302E+01 0.00000E+00
 -1      2941 5.08798E+01 2.02168E+01 0.00000E+00
 -1      2942 4.98570E+01 1.61853E+01 0.00000E+00
 -1      2943 5.02750E+01 1.74631E+01 0.00000E+00
 -1      2944 8.85168E+00 4.05347E+01 0.00000E+00
 -1      2945 1.02152E+01 4.07987E+01 0.00000E+00
 -1      2946 8.91450E+00 8.42712E+00 0.00000E+00
 -1      2947 4.11831E+01 3.43267E+01 0.00000E+00
 -1      2948 3.99314E+01 3.46679E+01 0.00000E+00
 -1      2949 4.59152E+01 3.20393E+01 0.00000E+00
 -1      2950 4.49571E+01 3.27069E+01 0.00000E+00
 -1      2951 5.07807E+01 2.38660E+01 0.00000E+00
 -1      2952 5.06743E+01 2.50348E+01 0.00000E+00
 -1      2953 1.52850E+01 7.90325E+00 0.00000E+00
 -1      2954 1.37850E+01 7.90325E+00 0.00000E+00
 -1      2955 1.30350E+01 9.20225E+00 0.00000E+00
 -1      2956 2.76969E+01 2.68071E+01 0.00000E+00
 -1      2957 2.73201E+01 2.55800E+01 0.00000E+00
 -1      2958 1.82850E+01 7.90325E+00 0.00000E+00
 -1      2959 1.67850E+01 7.90325E+00 0.00000E+00
 -1      2960 1.60350E+01 9.20225E+00 0.00000E+00
 -1      2961 1.90350E+01 9.20225E+00 0.00000E+00
 -1      2962 5.06702E+01 2.15047E+01 0.00000E+00
 -1      2963 5.06979E+01 2.26189E+01 0.00000E+00
 -1      2964 2.72850E+01 7.90325E+00 0.00000E+00
 -1      2965 2.57850E+01 7.90325E+00 0.00000E+00
 -1      2966 2.50350E+01 9.20225E+00 0.00000E+00
 -1      2967 2.80350E+01 9.20225E+00 0.00000E+00
 -1      2968 1.15576E+01 4.08528E+01 0.00000E+00
 -1      2969 1.30576E+01 4.08528E+01 0.00000E+00
 -1      2970 1.38076E+01 3.95538E+01 0.00000E+00
 -1      2971 1.11228E+01 3.94455E+01 0.00000E+00
 -1      2972 4.79568E+01 1.39554E+01 0.00000E+00
 -1      2973 4.90088E+01 1.48835E+01 0.00000E+00
 -1      2974 4.82124E+01 1.29998E+01 0.00000E+00
 -1      2975 3.07571E+01 1.26300E+01 0.00000E+00
 -1      2976 3.17162E+01 1.17109E+01 0.00000E+00
 -1      2977 2.69436E+01 2.18985E+01 0.00000E+00
 -1      2978 2.69084E+01 2.08394E+01 0.00000E+00
 -1      2979 9.09300E+00 1.68813E+01 0.00000E+00
 -1      2980 9.09300E+00 1.83563E+01 0.00000E+00
 -1      2981 1.03920E+01 1.90812E+01 0.00000E+00
 -1      2982 1.03920E+01 1.61437E+01 0.00000E+00
 -1      2983 5.01139E+01 2.64558E+01 0.00000E+00
 -1      2984 4.93988E+01 2.73275E+01 0.00000E+00
 -1      2985 4.98290E+01 2.82494E+01 0.00000E+00
 -1      2986 2.93610E+01 1.43246E+01 0.00000E+00
 -1      2987 2.99602E+01 1.35960E+01 0.00000E+00
 -1      2988 7.48818E+00 3.88019E+01 0.00000E+00
 -1      2989 9.09300E+00 3.15875E+01 0.00000E+00
 -1      2990 9.09300E+00 3.30625E+01 0.00000E+00
 -1      2991 4.36956E+01 3.33216E+01 0.00000E+00
 -1      2992 4.25298E+01 3.38450E+01 0.00000E+00
 -1      2993 3.50116E+01 3.36697E+01 0.00000E+00
 -1      2994 3.41164E+01 3.31524E+01 0.00000E+00
 -1      2995 2.69968E+01 2.42383E+01 0.00000E+00
 -1      2996 2.69702E+01 2.30684E+01 0.00000E+00
 -1      2997 2.60955E+01 2.25673E+01 0.00000E+00
 -1      2998 2.89348E+01 2.91219E+01 0.00000E+00
 -1      2999 2.82609E+01 2.81656E+01 0.00000E+00
 -1      3000 4.74616E+01 2.99935E+01 0.00000E+00
 -1      3001 4.68266E+01 3.08639E+01 0.00000E+00
 -1      3002 4.84789E+01 2.99915E+01 0.00000E+00
 -1      3003 1.41192E+02 3.96958E+01 0.00000E+00
 -1      3004 3.35808E+01 1.01177E+01 0.00000E+00
 -1      3005 3.30025E+01 7.95108E+00 0.00000E+00
 -1      3006 3.15025E+01 7.95108E+00 0.00000E+00
 -1      3007 3.24375E+01 1.06447E+01 0.00000E+00
 -1      3008 1.03920E+01 2.49750E+01 0.00000E+00
 -1      3009 9.09300E+00 2.57000E+01 0.00000E+00
 -1      3010 9.09300E+00 2.71750E+01 0.00000E+00
 -1      3011 3.12487E+01 1.03641E+01 0.00000E+00
 -1      3012 1.40706E+02 1.17875E+01 0.00000E+00
 -1      3013 2.64455E+01 2.50789E+01 0.00000E+00
 -1      3014 9.09300E+00 3.45313E+01 0.00000E+00
 -1      3015 9.09300E+00 3.60000E+01 0.00000E+00
 -1      3016 1.03920E+01 3.37938E+01 0.00000E+00
 -1      3017 1.39608E+02 1.61875E+01 0.00000E+00
 -1      3018 1.40907E+02 1.54500E+01 0.00000E+00
 -1      3019 1.40907E+02 1.39875E+01 0.00000E+00
 -1      3020 1.41192E+02 3.82207E+01 0.00000E+00
 -1      3021 5.15822E+01 2.32886E+01 0.00000E+00
 -1      3022 3.07525E+01 9.25008E+00 0.00000E+00
 -1      3023 3.73010E+01 8.48206E+00 0.00000E+00
 -1      3024 4.58003E+01 8.63839E+00 0.00000E+00
 -1      3025 4.65503E+01 9.91487E+00 0.00000E+00
 -1      3026 5.11045E+01 2.59567E+01 0.00000E+00
 -1      3027 5.15347E+01 2.68786E+01 0.00000E+00
 -1      3028 5.20952E+01 2.54576E+01 0.00000E+00
 -1      3029 5.01125E+01 1.52297E+01 0.00000E+00
 -1      3030 5.12162E+01 1.55759E+01 0.00000E+00
 -1      3031 5.03681E+01 1.42741E+01 0.00000E+00
 -1      3032 2.77719E+01 1.73242E+01 0.00000E+00
 -1      3033 2.74271E+01 1.63928E+01 0.00000E+00
 -1      3034 2.69520E+01 1.77824E+01 0.00000E+00
 -1      3035 3.57301E+01 3.46579E+01 0.00000E+00
 -1      3036 3.48116E+01 3.52143E+01 0.00000E+00
 -1      3037 3.64486E+01 3.56460E+01 0.00000E+00
 -1      3038 5.17091E+01 2.07536E+01 0.00000E+00
 -1      3039 1.39893E+02 3.74832E+01 0.00000E+00
 -1      3040 5.14397E+01 1.79986E+01 0.00000E+00
 -1      3041 4.69326E+01 3.20373E+01 0.00000E+00
 -1      3042 9.66450E+00 9.72612E+00 0.00000E+00
 -1      3043 4.21515E+01 3.49238E+01 0.00000E+00
 -1      3044 4.47597E+01 3.38274E+01 0.00000E+00
 -1      3045 3.90860E+01 3.52475E+01 0.00000E+00
 -1      3046 3.82406E+01 3.58272E+01 0.00000E+00
 -1      3047 3.99594E+01 3.59851E+01 0.00000E+00
 -1      3048 3.13978E+01 3.14886E+01 0.00000E+00
 -1      3049 3.04534E+01 3.15888E+01 0.00000E+00
 -1      3050 3.15063E+01 3.23373E+01 0.00000E+00
 -1      3051 2.73329E+01 2.77792E+01 0.00000E+00
 -1      3052 2.64048E+01 2.73927E+01 0.00000E+00
 -1      3053 2.69689E+01 2.87513E+01 0.00000E+00
 -1      3054 2.66828E+01 2.00556E+01 0.00000E+00
 -1      3055 2.64572E+01 1.92719E+01 0.00000E+00
 -1      3056 2.58433E+01 2.06137E+01 0.00000E+00
 -1      3057 9.09300E+00 2.86437E+01 0.00000E+00
 -1      3058 9.09300E+00 3.01187E+01 0.00000E+00
 -1      3059 1.03920E+01 3.08563E+01 0.00000E+00
 -1      3060 1.03920E+01 2.79188E+01 0.00000E+00
 -1      3061 2.97305E+01 1.23963E+01 0.00000E+00
 -1      3062 2.85903E+01 1.46484E+01 0.00000E+00
 -1      3063 8.78718E+00 3.80644E+01 0.00000E+00
 -1      3064 3.32719E+01 3.32316E+01 0.00000E+00
 -1      3065 2.93070E+01 3.07560E+01 0.00000E+00
 -1      3066 2.91209E+01 2.99389E+01 0.00000E+00
 -1      3067 2.80830E+01 2.99548E+01 0.00000E+00
 -1      3068 1.09635E+01 1.04636E+01 0.00000E+00
 -1      3069 5.10438E+01 2.85169E+01 0.00000E+00
 -1      3070 5.03287E+01 2.93886E+01 0.00000E+00
 -1      3071 1.16910E+01 1.24625E+01 0.00000E+00
 -1      3072 1.16910E+01 1.39375E+01 0.00000E+00
 -1      3073 1.38309E+02 2.86750E+01 0.00000E+00
 -1      3074 1.38309E+02 2.72250E+01 0.00000E+00
 -1      3075 4.83645E+01 1.17671E+01 0.00000E+00
 -1      3076 4.94165E+01 1.26951E+01 0.00000E+00
 -1      3077 1.89000E+01 3.83090E+01 0.00000E+00
 -1      3078 2.04000E+01 3.83090E+01 0.00000E+00
 -1      3079 2.19000E+01 3.83090E+01 0.00000E+00
 -1      3080 2.34000E+01 3.83090E+01 0.00000E+00
 -1      3081 2.11500E+01 3.70100E+01 0.00000E+00
 -1      3082 2.49000E+01 3.83090E+01 0.00000E+00
 -1      3083 2.64000E+01 3.83090E+01 0.00000E+00
 -1      3084 2.41500E+01 3.70100E+01 0.00000E+00
 -1      3085 2.79000E+01 3.83090E+01 0.00000E+00
 -1      3086 2.94000E+01 3.83090E+01 0.00000E+00
 -1      3087 2.71500E+01 3.70100E+01 0.00000E+00
 -1      3088 3.09000E+01 3.83090E+01 0.00000E+00
 -1      3089 3.24000E+01 3.83090E+01 0.00000E+00
 -1      3090 3.01500E+01 3.70100E+01 0.00000E+00
 -1      3091 3.43400E+01 3.79052E+01 0.00000E+00
 -1      3092 3.58400E+01 3.79052E+01 0.00000E+00
 -1      3093 3.76320E+01 3.80864E+01 0.00000E+00
 -1      3094 3.91320E+01 3.80864E+01 0.00000E+00
 -1      3095 4.06320E+01 3.80864E+01 0.00000E+00
 -1      3096 4.29000E+01 3.84153E+01 0.00000E+00
 -1      3097 4.44000E+01 3.84153E+01 0.00000E+00
 -1      3098 4.59000E+01 3.84153E+01 0.00000E+00
 -1      3099 4.74000E+01 3.84153E+01 0.00000E+00
 -1      3100 4.51500E+01 3.72226E+01 0.00000E+00
 -1      3101 4.89000E+01 3.84153E+01 0.00000E+00
 -1      3102 5.04000E+01 3.84153E+01 0.00000E+00
 -1      3103 4.81500E+01 3.72226E+01 0.00000E+00
 -1      3104 5.19000E+01 3.84153E+01 0.00000E+00
 -1      3105 5.34000E+01 3.84153E+01 0.00000E+00
 -1      3106 5.11500E+01 3.72226E+01 0.00000E+00
 -1      3107 5.49000E+01 3.84153E+01 0.00000E+00
 -1      3108 5.64000E+01 3.84153E+01 0.00000E+00
 -1      3109 5.41500E+01 3.72226E+01 0.00000E+00
 -1      3110 5.79000E+01 3.84153E+01 0.00000E+00
 -1      3111 5.94000E+01 3.84153E+01 0.00000E+00
 -1      3112 5.71500E+01 3.72226E+01 0.00000E+00
 -1      3113 6.09000E+01 3.84153E+01 0.00000E+00
 -1      3114 6.24000E+01 3.84153E+01 0.00000E+00
 -1      3115 6.01500E+01 3.72226E+01 0.00000E+00
 -1      3116 6.39000E+01 3.84153E+01 0.00000E+00
 -1      3117 6.54000E+01 3.84153E+01 0.00000E+00
 -1      3118 6.31500E+01 3.72226E+01 0.00000E+00
 -1      3119 6.69000E+01 3.84153E+01 0.00000E+00
 -1      3120 6.84000E+01 3.84153E+01 0.00000E+00
 -1      3121 6.61500E+01 3.72226E+01 0.00000E+00
 -1      3122 6.99000E+01 3.84153E+01 0.00000E+00
 -1      3123 7.14000E+01 3.84153E+01 0.00000E+00
 -1      3124 6.91500E+01 3.72226E+01 0.00000E+00
 -1      3125 7.29000E+01 3.84153E+01 0.00000E+00
 -1      3126 7.44000E+01 3.84153E+01 0.00000E+00
 -1      3127 7.21500E+01 3.72226E+01 0.00000E+00
 -1      3128 7.59000E+01 3.84153E+01 0.00000E+00
 -1      3129 7.74000E+01 3.84153E+01 0.00000E+00
 -1      3130 7.51500E+01 3.72226E+01 0.00000E+00
 -1      3131 7.89000E+01 3.84153E+01 0.00000E+00
 -1      3132 8.04000E+01 3.84153E+01 0.00000E+00
 -1      3133 7.81500E+01 3.72226E+01 0.00000E+00
 -1      3134 8.19000E+01 3.84153E+01 0.00000E+00
 -1      3135 8.34000E+01 3.84153E+01 0.00000E+00
 -1      3136 8.11500E+01 3.72226E+01 0.00000E+00
 -1      3137 8.49000E+01 3.84153E+01 0.00000E+00
 -1      3138 8.64000E+01 3.84153E+01 0.00000E+00
 -1      3139 8.41500E+01 3.72226E+01 0.00000E+00
 -1      3140 8.79000E+01 3.84153E+01 0.00000E+00
 -1      3141 8.94000E+01 3.84153E+01 0.00000E+00
 -1      3142 8.71500E+01 3.72226E+01 0.00000E+00
 -1      3143 9.09000E+01 3.84153E+01 0.00000E+00
 -1      3144 9.24000E+01 3.84153E+01 0.00000E+00
 -1      3145 9.01500E+01 3.72226E+01 0.00000E+00
 -1      3146 9.39000E+01 3.84153E+01 0.00000E+00
 -1      3147 9.54000E+01 3.84153E+01 0.00000E+00
 -1      3148 9.31500E+01 3.72226E+01 0.00000E+00
 -1      3149 9.69000E+01 3.84153E+01 0.00000E+00
 -1      3150 9.84000E+01 3.84153E+01 0.00000E+00
 -1      3151 9.61500E+01 3.72226E+01 0.00000E+00
 -1      3152 9.99000E+01 3.84153E+01 0.00000E+00
 -1      3153 1.01400E+02 3.84153E+01 0.00000E+00
 -1      3154 9.91500E+01 3.72226E+01 0.00000E+00
 -1      3155 1.02900E+02 3.84153E+01 0.00000E+00
 -1      3156 1.04400E+02 3.84153E+01 0.00000E+00
 -1      3157 1.02150E+02 3.72226E+01 0.00000E+00
 -1      3158 1.05900E+02 3.84153E+01 0.00000E+00
 -1      3159 1.07400E+02 3.84153E+01 0.00000E+00
 -1      3160 1.05150E+02 3.72226E+01 0.00000E+00
 -1      3161 1.08900E+02 3.84153E+01 0.00000E+00
 -1      3162 1.10400E+02 3.84153E+01 0.00000E+00
 -1      3163 1.08150E+02 3.72226E+01 0.00000E+00
 -1      3164 1.11900E+02 3.84153E+01 0.00000E+00
 -1      3165 1.13400E+02 3.84153E+01 0.00000E+00
 -1      3166 1.11150E+02 3.72226E+01 0.00000E+00
 -1      3167 1.14900E+02 3.84153E+01 0.00000E+00
 -1      3168 1.16400E+02 3.84153E+01 0.00000E+00
 -1      3169 1.14150E+02 3.72226E+01 0.00000E+00
 -1      3170 1.17900E+02 3.84153E+01 0.00000E+00
 -1      3171 1.19400E+02 3.84153E+01 0.00000E+00
 -1      3172 1.17150E+02 3.72226E+01 0.00000E+00
 -1      3173 1.20900E+02 3.84153E+01 0.00000E+00
 -1      3174 1.22400E+02 3.84153E+01 0.00000E+00
 -1      3175 1.20150E+02 3.72226E+01 0.00000E+00
 -1      3176 1.23900E+02 3.84153E+01 0.00000E+00
 -1      3177 1.25400E+02 3.84153E+01 0.00000E+00
 -1      3178 1.23150E+02 3.72226E+01 0.00000E+00
 -1      3179 1.26900E+02 3.84153E+01 0.00000E+00
 -1      3180 1.28400E+02 3.84153E+01 0.00000E+00
 -1      3181 1.26150E+02 3.72226E+01 0.00000E+00
 -1      3182 1.29900E+02 3.84153E+01 0.00000E+00
 -1      3183 1.31400E+02 3.84153E+01 0.00000E+00
 -1      3184 1.29150E+02 3.72226E+01 0.00000E+00
 -1      3185 1.32900E+02 3.84153E+01 0.00000E+00
 -1      3186 1.34400E+02 3.84153E+01 0.00000E+00
 -1      3187 1.32150E+02 3.72226E+01 0.00000E+00
 -1      3188 1.35900E+02 3.84153E+01 0.00000E+00
 -1      3189 1.37400E+02 3.84153E+01 0.00000E+00
 -1      3190 1.35150E+02 3.72226E+01 0.00000E+00
 -1      3191 4.96938E+01 3.02590E+01 0.00000E+00
 -1      3192 4.90588E+01 3.11294E+01 0.00000E+00
 -1      3193 5.09086E+01 3.05265E+01 0.00000E+00
 -1      3194 4.17874E+01 9.89802E+00 0.00000E+00
 -1      3195 5.00518E+01 1.03098E+01 0.00000E+00
 -1      3196 4.85518E+01 1.03098E+01 0.00000E+00
 -1      3197 5.87850E+01 1.04562E+01 0.00000E+00
 -1      3198 5.72850E+01 1.04562E+01 0.00000E+00
 -1      3199 6.17850E+01 1.04562E+01 0.00000E+00
 -1      3200 6.02850E+01 1.04562E+01 0.00000E+00
 -1      3201 5.95350E+01 1.17552E+01 0.00000E+00
 -1      3202 6.47850E+01 1.04562E+01 0.00000E+00
 -1      3203 6.32850E+01 1.04562E+01 0.00000E+00
 -1      3204 6.25350E+01 1.17552E+01 0.00000E+00
 -1      3205 6.77850E+01 1.04562E+01 0.00000E+00
 -1      3206 6.62850E+01 1.04562E+01 0.00000E+00
 -1      3207 6.55350E+01 1.17552E+01 0.00000E+00
 -1      3208 7.07850E+01 1.04562E+01 0.00000E+00
 -1      3209 6.92850E+01 1.04562E+01 0.00000E+00
 -1      3210 6.85350E+01 1.17552E+01 0.00000E+00
 -1      3211 7.37850E+01 1.04562E+01 0.00000E+00
 -1      3212 7.22850E+01 1.04562E+01 0.00000E+00
 -1      3213 7.15350E+01 1.17552E+01 0.00000E+00
 -1      3214 7.67850E+01 1.04562E+01 0.00000E+00
 -1      3215 7.52850E+01 1.04562E+01 0.00000E+00
 -1      3216 7.45350E+01 1.17552E+01 0.00000E+00
 -1      3217 7.97850E+01 1.04562E+01 0.00000E+00
 -1      3218 7.82850E+01 1.04562E+01 0.00000E+00
 -1      3219 7.75350E+01 1.17552E+01 0.00000E+00
 -1      3220 8.27850E+01 1.04562E+01 0.00000E+00
 -1      3221 8.12850E+01 1.04562E+01 0.00000E+00
 -1      3222 8.05350E+01 1.17552E+01 0.00000E+00
 -1      3223 8.57850E+01 1.04562E+01 0.00000E+00
 -1      3224 8.42850E+01 1.04562E+01 0.00000E+00
 -1      3225 8.35350E+01 1.17552E+01 0.00000E+00
 -1      3226 8.87850E+01 1.04562E+01 0.00000E+00
 -1      3227 8.72850E+01 1.04562E+01 0.00000E+00
 -1      3228 8.65350E+01 1.17552E+01 0.00000E+00
 -1      3229 9.17850E+01 1.04562E+01 0.00000E+00
 -1      3230 9.02850E+01 1.04562E+01 0.00000E+00
 -1      3231 8.95350E+01 1.17552E+01 0.00000E+00
 -1      3232 9.47850E+01 1.04562E+01 0.00000E+00
 -1      3233 9.32850E+01 1.04562E+01 0.00000E+00
 -1      3234 9.25350E+01 1.17552E+01 0.00000E+00
 -1      3235 9.77850E+01 1.04562E+01 0.00000E+00
 -1      3236 9.62850E+01 1.04562E+01 0.00000E+00
 -1      3237 9.55350E+01 1.17552E+01 0.00000E+00
 -1      3238 1.00785E+02 1.04562E+01 0.00000E+00
 -1      3239 9.92850E+01 1.04562E+01 0.00000E+00
 -1      3240 9.85350E+01 1.17552E+01 0.00000E+00
 -1      3241 1.03785E+02 1.04562E+01 0.00000E+00
 -1      3242 1.02285E+02 1.04562E+01 0.00000E+00
 -1      3243 1.01535E+02 1.17552E+01 0.00000E+00
 -1      3244 1.06785E+02 1.04562E+01 0.00000E+00
 -1      3245 1.05285E+02 1.04562E+01 0.00000E+00
 -1      3246 1.04535E+02 1.17552E+01 0.00000E+00
 -1      3247 1.09785E+02 1.04562E+01 0.00000E+00
 -1      3248 1.08285E+02 1.04562E+01 0.00000E+00
 -1      3249 1.07535E+02 1.17552E+01 0.00000E+00
 -1      3250 1.12785E+02 1.04562E+01 0.00000E+00
 -1      3251 1.11285E+02 1.04562E+01 0.00000E+00
 -1      3252 1.10535E+02 1.17552E+01 0.00000E+00
 -1      3253 1.15785E+02 1.04562E+01 0.00000E+00
 -1      3254 1.14285E+02 1.04562E+01 0.00000E+00
 -1      3255 1.13535E+02 1.17552E+01 0.00000E+00
 -1      3256 1.18785E+02 1.04562E+01 0.00000E+00
 -1      3257 1.17285E+02 1.04562E+01 0.00000E+00
 -1      3258 1.16535E+02 1.17552E+01 0.00000E+00
 -1      3259 1.21785E+02 1.04562E+01 0.00000E+00
 -1      3260 1.20285E+02 1.04562E+01 0.00000E+00
 -1      3261 1.19535E+02 1.17552E+01 0.00000E+00
 -1      3262 1.24785E+02 1.04562E+01 0.00000E+00
 -1      3263 1.23285E+02 1.04562E+01 0.00000E+00
 -1      3264 1.22535E+02 1.17552E+01 0.00000E+00
 -1      3265 1.27785E+02 1.04562E+01 0.00000E+00
 -1      3266 1.26285E+02 1.04562E+01 0.00000E+00
 -1      3267 1.25535E+02 1.17552E+01 0.00000E+00
 -1      3268 1.30785E+02 1.04562E+01 0.00000E+00
 -1      3269 1.29285E+02 1.04562E+01 0.00000E+00
 -1      3270 1.28535E+02 1.17552E+01 0.00000E+00
 -1      3271 1.33785E+02 1.04562E+01 0.00000E+00
 -1      3272 1.32285E+02 1.04562E+01 0.00000E+00
 -1      3273 1.31535E+02 1.17552E+01 0.00000E+00
 -1      3274 4.35741E+01 3.58323E+01 0.00000E+00
 -1      3275 4.22274E+01 3.63140E+01 0.00000E+00
 -1      3276 4.73477E+01 1.06145E+01 0.00000E+00
 -1      3277 1.38309E+02 2.57500E+01 0.00000E+00
 -1      3278 1.38309E+02 2.42750E+01 0.00000E+00
 -1      3279 1.37010E+02 2.64750E+01 0.00000E+00
 -1      3280 2.57735E+01 2.59507E+01 0.00000E+00
 -1      3281 2.54501E+01 2.46090E+01 0.00000E+00
 -1      3282 1.38309E+02 3.45625E+01 0.00000E+00
 -1      3283 1.38309E+02 3.30875E+01 0.00000E+00
 -1      3284 5.27290E+01 2.25862E+01 0.00000E+00
 -1      3285 5.28118E+01 2.38333E+01 0.00000E+00
 -1      3286 3.00312E+01 1.03163E+01 0.00000E+00
 -1      3287 1.38309E+02 3.16187E+01 0.00000E+00
 -1      3288 1.38309E+02 3.01437E+01 0.00000E+00
 -1      3289 1.37010E+02 2.94188E+01 0.00000E+00
 -1      3290 1.37010E+02 3.23563E+01 0.00000E+00
 -1      3291 5.57850E+01 1.04562E+01 0.00000E+00
 -1      3292 5.42850E+01 1.04562E+01 0.00000E+00
 -1      3293 5.65350E+01 1.17552E+01 0.00000E+00
 -1      3294 4.81474E+01 3.23048E+01 0.00000E+00
 -1      3295 4.72360E+01 3.34802E+01 0.00000E+00
 -1      3296 4.93623E+01 3.25724E+01 0.00000E+00
 -1      3297 5.29184E+01 1.03830E+01 0.00000E+00
 -1      3298 5.14184E+01 1.03830E+01 0.00000E+00
 -1      3299 5.09352E+01 1.15355E+01 0.00000E+00
 -1      3300 5.36684E+01 1.16820E+01 0.00000E+00
 -1      3301 5.23340E+01 1.68949E+01 0.00000E+00
 -1      3302 5.28130E+01 1.83620E+01 0.00000E+00
 -1      3303 5.31483E+01 2.00105E+01 0.00000E+00
 -1      3304 5.29387E+01 2.12983E+01 0.00000E+00
 -1      3305 5.41683E+01 2.18430E+01 0.00000E+00
 -1      3306 2.27850E+01 1.05013E+01 0.00000E+00
 -1      3307 2.12850E+01 1.05013E+01 0.00000E+00
 -1      3308 2.74282E+01 1.50271E+01 0.00000E+00
 -1      3309 2.77715E+01 1.37410E+01 0.00000E+00
 -1      3310 1.00862E+01 3.73269E+01 0.00000E+00
 -1      3311 2.50840E+01 2.31756E+01 0.00000E+00
 -1      3312 2.50574E+01 2.20057E+01 0.00000E+00
 -1      3313 1.26488E+01 1.02017E+01 0.00000E+00
 -1      3314 1.20772E+01 1.14631E+01 0.00000E+00
 -1      3315 1.33763E+01 1.22006E+01 0.00000E+00
 -1      3316 1.41488E+01 1.02017E+01 0.00000E+00
 -1      3317 1.59000E+01 3.83090E+01 0.00000E+00
 -1      3318 1.74000E+01 3.83090E+01 0.00000E+00
 -1      3319 1.81500E+01 3.70100E+01 0.00000E+00
 -1      3320 3.30212E+01 3.42749E+01 0.00000E+00
 -1      3321 3.22000E+01 3.32804E+01 0.00000E+00
 -1      3322 2.91308E+01 1.13563E+01 0.00000E+00
 -1      3323 2.86346E+01 1.02423E+01 0.00000E+00
 -1      3324 2.71346E+01 1.02423E+01 0.00000E+00
 -1      3325 2.83339E+01 1.23223E+01 0.00000E+00
 -1      3326 1.16910E+01 2.12875E+01 0.00000E+00
 -1      3327 1.16910E+01 2.27625E+01 0.00000E+00
 -1      3328 1.39407E+02 1.25250E+01 0.00000E+00
 -1      3329 1.29900E+01 1.46687E+01 0.00000E+00
 -1      3330 1.16910E+01 1.54063E+01 0.00000E+00
 -1      3331 1.16910E+01 1.68750E+01 0.00000E+00
 -1      3332 2.44120E+01 2.40473E+01 0.00000E+00
 -1      3333 1.16910E+01 3.30594E+01 0.00000E+00
 -1      3334 1.16910E+01 3.45281E+01 0.00000E+00
 -1      3335 1.38309E+02 1.69188E+01 0.00000E+00
 -1      3336 1.38309E+02 1.54563E+01 0.00000E+00
 -1      3337 5.07831E+01 1.27683E+01 0.00000E+00
 -1      3338 3.35900E+01 3.66062E+01 0.00000E+00
 -1      3339 4.13820E+01 3.68937E+01 0.00000E+00
 -1      3340 1.14286E+01 3.73811E+01 0.00000E+00
 -1      3341 1.16910E+01 2.42375E+01 0.00000E+00
 -1      3342 1.16910E+01 2.57125E+01 0.00000E+00
 -1      3343 1.29900E+01 2.35000E+01 0.00000E+00
 -1      3344 5.25895E+01 1.59393E+01 0.00000E+00
 -1      3345 5.32420E+01 2.47552E+01 0.00000E+00
 -1      3346 5.36722E+01 2.56771E+01 0.00000E+00
 -1      3347 5.43888E+01 2.40528E+01 0.00000E+00
 -1      3348 4.75504E+01 3.54852E+01 0.00000E+00
 -1      3349 4.63356E+01 3.52176E+01 0.00000E+00
 -1      3350 1.34953E+02 1.07482E+01 0.00000E+00
 -1      3351 1.34203E+02 1.20472E+01 0.00000E+00
 -1      3352 1.36120E+02 1.10401E+01 0.00000E+00
 -1      3353 4.50741E+01 3.58323E+01 0.00000E+00
 -1      3354 1.38309E+02 1.98687E+01 0.00000E+00
 -1      3355 1.38309E+02 1.83937E+01 0.00000E+00
 -1      3356 1.37010E+02 1.76625E+01 0.00000E+00
 -1      3357 1.38879E+02 3.74540E+01 0.00000E+00
 -1      3358 2.38202E+01 2.18302E+01 0.00000E+00
 -1      3359 2.48318E+01 2.12219E+01 0.00000E+00
 -1      3360 2.46062E+01 2.04382E+01 0.00000E+00
 -1      3361 5.18868E+01 1.31145E+01 0.00000E+00
 -1      3362 2.54094E+01 2.69228E+01 0.00000E+00
 -1      3363 2.44141E+01 2.64529E+01 0.00000E+00
 -1      3364 2.50454E+01 2.78949E+01 0.00000E+00
 -1      3365 1.38309E+02 2.28094E+01 0.00000E+00
 -1      3366 1.38309E+02 2.13344E+01 0.00000E+00
 -1      3367 1.37010E+02 2.06031E+01 0.00000E+00
 -1      3368 1.37010E+02 2.35344E+01 0.00000E+00
 -1      3369 5.40426E+01 1.89067E+01 0.00000E+00
 -1      3370 2.61125E+01 1.83405E+01 0.00000E+00
 -1      3371 2.57678E+01 1.74090E+01 0.00000E+00
 -1      3372 2.52730E+01 1.88985E+01 0.00000E+00
 -1      3373 1.97850E+01 1.05013E+01 0.00000E+00
 -1      3374 1.82850E+01 1.05013E+01 0.00000E+00
 -1      3375 2.05350E+01 1.18003E+01 0.00000E+00
 -1      3376 2.66083E+01 1.54854E+01 0.00000E+00
 -1      3377 3.12556E+01 3.33806E+01 0.00000E+00
 -1      3378 2.71550E+01 2.95684E+01 0.00000E+00
 -1      3379 2.62269E+01 2.91820E+01 0.00000E+00
 -1      3380 2.73410E+01 3.03855E+01 0.00000E+00
 -1      3381 2.71718E+01 1.27010E+01 0.00000E+00
 -1      3382 1.69669E+01 1.03515E+01 0.00000E+00
 -1      3383 1.54669E+01 1.03515E+01 0.00000E+00
 -1      3384 1.50806E+01 1.13509E+01 0.00000E+00
 -1      3385 1.77169E+01 1.16505E+01 0.00000E+00
 -1      3386 1.16910E+01 1.98188E+01 0.00000E+00
 -1      3387 1.29900E+01 2.05562E+01 0.00000E+00
 -1      3388 1.16910E+01 1.83500E+01 0.00000E+00
 -1      3389 2.57098E+01 1.03718E+01 0.00000E+00
 -1      3390 2.42098E+01 1.03718E+01 0.00000E+00
 -1      3391 2.34598E+01 1.16708E+01 0.00000E+00
 -1      3392 2.63095E+01 1.14118E+01 0.00000E+00
 -1      3393 1.32152E+01 3.82007E+01 0.00000E+00
 -1      3394 1.45576E+01 3.82548E+01 0.00000E+00
 -1      3395 1.53076E+01 3.69558E+01 0.00000E+00
 -1      3396 3.28715E+01 3.56181E+01 0.00000E+00
 -1      3397 1.16910E+01 3.01219E+01 0.00000E+00
 -1      3398 1.16910E+01 3.15906E+01 0.00000E+00
 -1      3399 1.29900E+01 3.23250E+01 0.00000E+00
 -1      3400 5.30251E+01 2.75187E+01 0.00000E+00
 -1      3401 5.20345E+01 2.80178E+01 0.00000E+00
 -1      3402 5.25342E+01 2.91570E+01 0.00000E+00
 -1      3403 2.94155E+01 3.16047E+01 0.00000E+00
 -1      3404 2.83776E+01 3.16206E+01 0.00000E+00
 -1      3405 2.95240E+01 3.24534E+01 0.00000E+00
 -1      3406 1.38274E+02 1.38447E+01 0.00000E+00
 -1      3407 1.38073E+02 1.16447E+01 0.00000E+00
 -1      3408 1.36905E+02 1.13527E+01 0.00000E+00
 -1      3409 1.36975E+02 1.45759E+01 0.00000E+00
 -1      3410 1.38129E+02 3.62613E+01 0.00000E+00
 -1      3411 1.36830E+02 3.55238E+01 0.00000E+00
 -1      3412 3.73220E+01 3.63836E+01 0.00000E+00
 -1      3413 2.34000E+01 3.57110E+01 0.00000E+00
 -1      3414 2.49000E+01 3.57110E+01 0.00000E+00
 -1      3415 2.70680E+01 3.47397E+01 0.00000E+00
 -1      3416 2.85680E+01 3.47397E+01 0.00000E+00
 -1      3417 1.21786E+01 3.60821E+01 0.00000E+00
 -1      3418 1.35330E+02 3.55238E+01 0.00000E+00
 -1      3419 1.35510E+02 3.38250E+01 0.00000E+00
 -1      3420 1.33830E+02 3.55238E+01 0.00000E+00
 -1      3421 4.90504E+01 3.54852E+01 0.00000E+00
 -1      3422 5.34000E+01 3.59236E+01 0.00000E+00
 -1      3423 5.49000E+01 3.59236E+01 0.00000E+00
 -1      3424 5.64000E+01 3.59236E+01 0.00000E+00
 -1      3425 5.79000E+01 3.59236E+01 0.00000E+00
 -1      3426 5.56500E+01 3.46246E+01 0.00000E+00
 -1      3427 5.94000E+01 3.59236E+01 0.00000E+00
 -1      3428 6.09000E+01 3.59236E+01 0.00000E+00
 -1      3429 5.86500E+01 3.46246E+01 0.00000E+00
 -1      3430 6.24000E+01 3.59236E+01 0.00000E+00
 -1      3431 6.39000E+01 3.59236E+01 0.00000E+00
 -1      3432 6.16500E+01 3.46246E+01 0.00000E+00
 -1      3433 6.54000E+01 3.59236E+01 0.00000E+00
 -1      3434 6.69000E+01 3.59236E+01 0.00000E+00
 -1      3435 6.46500E+01 3.46246E+01 0.00000E+00
 -1      3436 6.84000E+01 3.59236E+01 0.00000E+00
 -1      3437 6.99000E+01 3.59236E+01 0.00000E+00
 -1      3438 6.76500E+01 3.46246E+01 0.00000E+00
 -1      3439 7.14000E+01 3.59236E+01 0.00000E+00
 -1      3440 7.29000E+01 3.59236E+01 0.00000E+00
 -1      3441 7.06500E+01 3.46246E+01 0.00000E+00
 -1      3442 7.44000E+01 3.59236E+01 0.00000E+00
 -1      3443 7.59000E+01 3.59236E+01 0.00000E+00
 -1      3444 7.36500E+01 3.46246E+01 0.00000E+00
 -1      3445 7.74000E+01 3.59236E+01 0.00000E+00
 -1      3446 7.89000E+01 3.59236E+01 0.00000E+00
 -1      3447 7.66500E+01 3.46246E+01 0.00000E+00
 -1      3448 8.04000E+01 3.59236E+01 0.00000E+00
 -1      3449 8.19000E+01 3.59236E+01 0.00000E+00
 -1      3450 7.96500E+01 3.46246E+01 0.00000E+00
 -1      3451 8.34000E+01 3.59236E+01 0.00000E+00
 -1      3452 8.49000E+01 3.59236E+01 0.00000E+00
 -1      3453 8.26500E+01 3.46246E+01 0.00000E+00
 -1      3454 8.64000E+01 3.59236E+01 0.00000E+00
 -1      3455 8.79000E+01 3.59236E+01 0.00000E+00
 -1      3456 8.56500E+01 3.46246E+01 0.00000E+00
 -1      3457 8.94000E+01 3.59236E+01 0.00000E+00
 -1      3458 9.09000E+01 3.59236E+01 0.00000E+00
 -1      3459 8.86500E+01 3.46246E+01 0.00000E+00
 -1      3460 9.24000E+01 3.59236E+01 0.00000E+00
 -1      3461 9.39000E+01 3.59236E+01 0.00000E+00
 -1      3462 9.16500E+01 3.46246E+01 0.00000E+00
 -1      3463 9.54000E+01 3.59236E+01 0.00000E+00
 -1      3464 9.69000E+01 3.59236E+01 0.00000E+00
 -1      3465 9.46500E+01 3.46246E+01 0.00000E+00
 -1      3466 9.84000E+01 3.59236E+01 0.00000E+00
 -1      3467 9.99000E+01 3.59236E+01 0.00000E+00
 -1      3468 9.76500E+01 3.46246E+01 0.00000E+00
 -1      3469 1.01400E+02 3.59236E+01 0.00000E+00
 -1      3470 1.02900E+02 3.59236E+01 0.00000E+00
 -1      3471 1.00650E+02 3.46246E+01 0.00000E+00
 -1      3472 1.04400E+02 3.59236E+01 0.00000E+00
 -1      3473 1.05900E+02 3.59236E+01 0.00000E+00
 -1      3474 1.03650E+02 3.46246E+01 0.00000E+00
 -1      3475 1.07400E+02 3.59236E+01 0.00000E+00
 -1      3476 1.08900E+02 3.59236E+01 0.00000E+00
 -1      3477 1.06650E+02 3.46246E+01 0.00000E+00
 -1      3478 1.10400E+02 3.59236E+01 0.00000E+00
 -1      3479 1.11900E+02 3.59236E+01 0.00000E+00
 -1      3480 1.09650E+02 3.46246E+01 0.00000E+00
 -1      3481 1.13400E+02 3.59236E+01 0.00000E+00
 -1      3482 1.14900E+02 3.59236E+01 0.00000E+00
 -1      3483 1.12650E+02 3.46246E+01 0.00000E+00
 -1      3484 1.16400E+02 3.59236E+01 0.00000E+00
 -1      3485 1.17900E+02 3.59236E+01 0.00000E+00
 -1      3486 1.15650E+02 3.46246E+01 0.00000E+00
 -1      3487 1.19400E+02 3.59236E+01 0.00000E+00
 -1      3488 1.20900E+02 3.59236E+01 0.00000E+00
 -1      3489 1.18650E+02 3.46246E+01 0.00000E+00
 -1      3490 1.22400E+02 3.59236E+01 0.00000E+00
 -1      3491 1.23900E+02 3.59236E+01 0.00000E+00
 -1      3492 1.21650E+02 3.46246E+01 0.00000E+00
 -1      3493 1.25400E+02 3.59236E+01 0.00000E+00
 -1      3494 1.26900E+02 3.59236E+01 0.00000E+00
 -1      3495 1.24650E+02 3.46246E+01 0.00000E+00
 -1      3496 1.28400E+02 3.59236E+01 0.00000E+00
 -1      3497 1.29900E+02 3.59236E+01 0.00000E+00
 -1      3498 1.27650E+02 3.46246E+01 0.00000E+00
 -1      3499 1.31115E+02 3.57237E+01 0.00000E+00
 -1      3500 1.32615E+02 3.57237E+01 0.00000E+00
 -1      3501 1.32795E+02 3.40249E+01 0.00000E+00
 -1      3502 1.30365E+02 3.44247E+01 0.00000E+00
 -1      3503 4.99564E+01 3.40288E+01 0.00000E+00
 -1      3504 5.05559E+01 3.57662E+01 0.00000E+00
 -1      3505 5.20559E+01 3.57662E+01 0.00000E+00
 -1      3506 5.08678E+01 3.28534E+01 0.00000E+00
 -1      3507 5.20184E+01 3.05700E+01 0.00000E+00
 -1      3508 5.13835E+01 3.14404E+01 0.00000E+00
 -1      3509 5.19776E+01 3.28968E+01 0.00000E+00
 -1      3510 5.30091E+01 3.00709E+01 0.00000E+00
 -1      3511 6.32850E+01 1.30542E+01 0.00000E+00
 -1      3512 6.17850E+01 1.30542E+01 0.00000E+00
 -1      3513 6.02850E+01 1.30542E+01 0.00000E+00
 -1      3514 5.87850E+01 1.30542E+01 0.00000E+00
 -1      3515 6.10350E+01 1.43532E+01 0.00000E+00
 -1      3516 6.92850E+01 1.30542E+01 0.00000E+00
 -1      3517 6.77850E+01 1.30542E+01 0.00000E+00
 -1      3518 7.22850E+01 1.30542E+01 0.00000E+00
 -1      3519 7.07850E+01 1.30542E+01 0.00000E+00
 -1      3520 7.00350E+01 1.43532E+01 0.00000E+00
 -1      3521 7.52850E+01 1.30542E+01 0.00000E+00
 -1      3522 7.37850E+01 1.30542E+01 0.00000E+00
 -1      3523 7.30350E+01 1.43532E+01 0.00000E+00
 -1      3524 7.82850E+01 1.30542E+01 0.00000E+00
 -1      3525 7.67850E+01 1.30542E+01 0.00000E+00
 -1      3526 7.60350E+01 1.43532E+01 0.00000E+00
 -1      3527 8.12850E+01 1.30542E+01 0.00000E+00
 -1      3528 7.97850E+01 1.30542E+01 0.00000E+00
 -1      3529 7.90350E+01 1.43532E+01 0.00000E+00
 -1      3530 8.42850E+01 1.30542E+01 0.00000E+00
 -1      3531 8.27850E+01 1.30542E+01 0.00000E+00
 -1      3532 8.20350E+01 1.43532E+01 0.00000E+00
 -1      3533 8.72850E+01 1.30542E+01 0.00000E+00
 -1      3534 8.57850E+01 1.30542E+01 0.00000E+00
 -1      3535 8.50350E+01 1.43532E+01 0.00000E+00
 -1      3536 9.02850E+01 1.30542E+01 0.00000E+00
 -1      3537 8.87850E+01 1.30542E+01 0.00000E+00
 -1      3538 8.80350E+01 1.43532E+01 0.00000E+00
 -1      3539 9.32850E+01 1.30542E+01 0.00000E+00
 -1      3540 9.17850E+01 1.30542E+01 0.00000E+00
 -1      3541 9.10350E+01 1.43532E+01 0.00000E+00
 -1      3542 9.62850E+01 1.30542E+01 0.00000E+00
 -1      3543 9.47850E+01 1.30542E+01 0.00000E+00
 -1      3544 9.40350E+01 1.43532E+01 0.00000E+00
 -1      3545 9.92850E+01 1.30542E+01 0.00000E+00
 -1      3546 9.77850E+01 1.30542E+01 0.00000E+00
 -1      3547 9.70350E+01 1.43532E+01 0.00000E+00
 -1      3548 1.02285E+02 1.30542E+01 0.00000E+00
 -1      3549 1.00785E+02 1.30542E+01 0.00000E+00
 -1      3550 1.00035E+02 1.43532E+01 0.00000E+00
 -1      3551 1.05285E+02 1.30542E+01 0.00000E+00
 -1      3552 1.03785E+02 1.30542E+01 0.00000E+00
 -1      3553 1.03035E+02 1.43532E+01 0.00000E+00
 -1      3554 1.08285E+02 1.30542E+01 0.00000E+00
 -1      3555 1.06785E+02 1.30542E+01 0.00000E+00
 -1      3556 1.06035E+02 1.43532E+01 0.00000E+00
 -1      3557 1.11285E+02 1.30542E+01 0.00000E+00
 -1      3558 1.09785E+02 1.30542E+01 0.00000E+00
 -1      3559 1.09035E+02 1.43532E+01 0.00000E+00
 -1      3560 1.14285E+02 1.30542E+01 0.00000E+00
 -1      3561 1.12785E+02 1.30542E+01 0.00000E+00
 -1      3562 1.12035E+02 1.43532E+01 0.00000E+00
 -1      3563 1.17285E+02 1.30542E+01 0.00000E+00
 -1      3564 1.15785E+02 1.30542E+01 0.00000E+00
 -1      3565 1.15035E+02 1.43532E+01 0.00000E+00
 -1      3566 1.20285E+02 1.30542E+01 0.00000E+00
 -1      3567 1.18785E+02 1.30542E+01 0.00000E+00
 -1      3568 1.18035E+02 1.43532E+01 0.00000E+00
 -1      3569 1.23285E+02 1.30542E+01 0.00000E+00
 -1      3570 1.21785E+02 1.30542E+01 0.00000E+00
 -1      3571 1.21035E+02 1.43532E+01 0.00000E+00
 -1      3572 1.26285E+02 1.30542E+01 0.00000E+00
 -1      3573 1.24785E+02 1.30542E+01 0.00000E+00
 -1      3574 1.24035E+02 1.43532E+01 0.00000E+00
 -1      3575 1.29285E+02 1.30542E+01 0.00000E+00
 -1      3576 1.27785E+02 1.30542E+01 0.00000E+00
 -1      3577 1.27035E+02 1.43532E+01 0.00000E+00
 -1      3578 1.32285E+02 1.30542E+01 0.00000E+00
 -1      3579 1.30785E+02 1.30542E+01 0.00000E+00
 -1      3580 1.30035E+02 1.43532E+01 0.00000E+00
 -1      3581 1.16910E+01 2.71844E+01 0.00000E+00
 -1      3582 1.16910E+01 2.86531E+01 0.00000E+00
 -1      3583 1.29900E+01 2.93875E+01 0.00000E+00
 -1      3584 1.35711E+02 2.72125E+01 0.00000E+00
 -1      3585 1.35711E+02 2.57375E+01 0.00000E+00
 -1      3586 5.51239E+01 1.78285E+01 0.00000E+00
 -1      3587 5.54593E+01 1.94769E+01 0.00000E+00
 -1      3588 5.28766E+01 1.45629E+01 0.00000E+00
 -1      3589 5.39944E+01 1.58819E+01 0.00000E+00
 -1      3590 5.46583E+01 1.31303E+01 0.00000E+00
 -1      3591 5.32917E+01 1.30571E+01 0.00000E+00
 -1      3592 2.57689E+01 1.60434E+01 0.00000E+00
 -1      3593 2.57699E+01 1.46777E+01 0.00000E+00
 -1      3594 2.49294E+01 1.66014E+01 0.00000E+00
 -1      3595 1.74000E+01 3.57110E+01 0.00000E+00
 -1      3596 1.89000E+01 3.57110E+01 0.00000E+00
 -1      3597 5.54484E+01 2.13904E+01 0.00000E+00
 -1      3598 5.52388E+01 2.26783E+01 0.00000E+00
 -1      3599 2.36018E+01 2.50177E+01 0.00000E+00
 -1      3600 2.32357E+01 2.35843E+01 0.00000E+00
 -1      3601 6.62850E+01 1.30542E+01 0.00000E+00
 -1      3602 6.47850E+01 1.30542E+01 0.00000E+00
 -1      3603 6.40350E+01 1.43532E+01 0.00000E+00
 -1      3604 6.70350E+01 1.43532E+01 0.00000E+00
 -1      3605 5.74716E+01 1.30923E+01 0.00000E+00
 -1      3606 5.59716E+01 1.30923E+01 0.00000E+00
 -1      3607 5.55949E+01 1.44674E+01 0.00000E+00
 -1      3608 5.82216E+01 1.43913E+01 0.00000E+00
 -1      3609 2.04000E+01 3.57110E+01 0.00000E+00
 -1      3610 2.19000E+01 3.57110E+01 0.00000E+00
 -1      3611 2.26500E+01 3.44120E+01 0.00000E+00
 -1      3612 1.34776E+01 3.53477E+01 0.00000E+00
 -1      3613 3.17997E+01 3.56668E+01 0.00000E+00
 -1      3614 2.57470E+01 1.28305E+01 0.00000E+00
 -1      3615 1.46944E+01 1.23503E+01 0.00000E+00
 -1      3616 1.43081E+01 1.33498E+01 0.00000E+00
 -1      3617 1.60125E+01 1.25001E+01 0.00000E+00
 -1      3618 3.02997E+01 3.56668E+01 0.00000E+00
 -1      3619 2.63180E+01 3.34407E+01 0.00000E+00
 -1      3620 2.28738E+01 2.69620E+01 0.00000E+00
 -1      3621 2.32378E+01 2.59899E+01 0.00000E+00
 -1      3622 2.20615E+01 2.55268E+01 0.00000E+00
 -1      3623 2.96060E+01 3.47238E+01 0.00000E+00
 -1      3624 1.43324E+01 3.38479E+01 0.00000E+00
 -1      3625 1.48200E+01 3.54019E+01 0.00000E+00
 -1      3626 1.61624E+01 3.54560E+01 0.00000E+00
 -1      3627 1.43324E+01 3.09104E+01 0.00000E+00
 -1      3628 1.43324E+01 3.23792E+01 0.00000E+00
 -1      3629 1.56748E+01 3.24333E+01 0.00000E+00
 -1      3630 5.28059E+01 3.44672E+01 0.00000E+00
 -1      3631 1.42890E+01 2.27625E+01 0.00000E+00
 -1      3632 1.42890E+01 2.42375E+01 0.00000E+00
 -1      3633 1.36155E+02 1.26517E+01 0.00000E+00
 -1      3634 5.56690E+01 2.36002E+01 0.00000E+00
 -1      3635 1.34620E+02 1.36381E+01 0.00000E+00
 -1      3636 1.33453E+02 1.33462E+01 0.00000E+00
 -1      3637 1.32703E+02 1.46452E+01 0.00000E+00
 -1      3638 1.29900E+01 2.64469E+01 0.00000E+00
 -1      3639 2.30101E+01 2.28006E+01 0.00000E+00
 -1      3640 2.27845E+01 2.20168E+01 0.00000E+00
 -1      3641 2.21999E+01 2.37710E+01 0.00000E+00
 -1      3642 2.51412E+01 2.89811E+01 0.00000E+00
 -1      3643 2.41459E+01 2.85112E+01 0.00000E+00
 -1      3644 1.35711E+02 2.86812E+01 0.00000E+00
 -1      3645 1.34412E+02 2.79438E+01 0.00000E+00
 -1      3646 1.35711E+02 3.01500E+01 0.00000E+00
 -1      3647 1.96500E+01 3.44120E+01 0.00000E+00
 -1      3648 1.35711E+02 2.42719E+01 0.00000E+00
 -1      3649 1.35711E+02 2.28062E+01 0.00000E+00
 -1      3650 1.34412E+02 2.50094E+01 0.00000E+00
 -1      3651 2.42615E+01 1.95067E+01 0.00000E+00
 -1      3652 2.39168E+01 1.85753E+01 0.00000E+00
 -1      3653 2.32499E+01 2.01150E+01 0.00000E+00
 -1      3654 2.12850E+01 1.30992E+01 0.00000E+00
 -1      3655 1.97850E+01 1.30992E+01 0.00000E+00
 -1      3656 1.35711E+02 1.84000E+01 0.00000E+00
 -1      3657 1.35711E+02 1.69250E+01 0.00000E+00
 -1      3658 5.55030E+01 1.54597E+01 0.00000E+00
 -1      3659 5.52159E+01 1.68361E+01 0.00000E+00
 -1      3660 5.66325E+01 1.74063E+01 0.00000E+00
 -1      3661 5.68164E+01 1.54217E+01 0.00000E+00
 -1      3662 1.35510E+02 3.23563E+01 0.00000E+00
 -1      3663 1.29900E+01 1.76125E+01 0.00000E+00
 -1      3664 5.65298E+01 2.03121E+01 0.00000E+00
 -1      3665 2.49075E+01 1.33885E+01 0.00000E+00
 -1      3666 1.69124E+01 3.41570E+01 0.00000E+00
 -1      3667 5.53188E+01 2.61139E+01 0.00000E+00
 -1      3668 5.41719E+01 2.68163E+01 0.00000E+00
 -1      3669 5.46717E+01 2.79555E+01 0.00000E+00
 -1      3670 1.42890E+01 2.12938E+01 0.00000E+00
 -1      3671 1.55880E+01 2.20313E+01 0.00000E+00
 -1      3672 1.42890E+01 1.98250E+01 0.00000E+00
 -1      3673 2.53273E+01 2.97982E+01 0.00000E+00
 -1      3674 1.34141E+02 1.62998E+01 0.00000E+00
 -1      3675 1.35440E+02 1.55623E+01 0.00000E+00
 -1      3676 1.43081E+01 1.48185E+01 0.00000E+00
 -1      3677 2.34827E+01 1.35180E+01 0.00000E+00
 -1      3678 2.27327E+01 1.48170E+01 0.00000E+00
 -1      3679 1.34211E+02 3.16187E+01 0.00000E+00
 -1      3680 5.33217E+01 3.30542E+01 0.00000E+00
 -1      3681 1.55880E+01 2.49719E+01 0.00000E+00
 -1      3682 1.42890E+01 2.57094E+01 0.00000E+00
 -1      3683 1.42890E+01 2.71812E+01 0.00000E+00
 -1      3684 5.79000E+01 3.33256E+01 0.00000E+00
 -1      3685 5.94000E+01 3.33256E+01 0.00000E+00
 -1      3686 6.09000E+01 3.33256E+01 0.00000E+00
 -1      3687 6.24000E+01 3.33256E+01 0.00000E+00
 -1      3688 6.01500E+01 3.20266E+01 0.00000E+00
 -1      3689 6.39000E+01 3.33256E+01 0.00000E+00
 -1      3690 6.54000E+01 3.33256E+01 0.00000E+00
 -1      3691 6.31500E+01 3.20266E+01 0.00000E+00
 -1      3692 6.69000E+01 3.33256E+01 0.00000E+00
 -1      3693 6.84000E+01 3.33256E+01 0.00000E+00
 -1      3694 6.61500E+01 3.20266E+01 0.00000E+00
 -1      3695 6.99000E+01 3.33256E+01 0.00000E+00
 -1      3696 7.14000E+01 3.33256E+01 0.00000E+00
 -1      3697 6.91500E+01 3.20266E+01 0.00000E+00
 -1      3698 7.29000E+01 3.33256E+01 0.00000E+00
 -1      3699 7.44000E+01 3.33256E+01 0.00000E+00
 -1      3700 7.21500E+01 3.20266E+01 0.00000E+00
 -1      3701 7.59000E+01 3.33256E+01 0.00000E+00
 -1      3702 7.74000E+01 3.33256E+01 0.00000E+00
 -1      3703 7.51500E+01 3.20266E+01 0.00000E+00
 -1      3704 7.89000E+01 3.33256E+01 0.00000E+00
 -1      3705 8.04000E+01 3.33256E+01 0.00000E+00
 -1      3706 7.81500E+01 3.20266E+01 0.00000E+00
 -1      3707 8.19000E+01 3.33256E+01 0.00000E+00
 -1      3708 8.34000E+01 3.33256E+01 0.00000E+00
 -1      3709 8.11500E+01 3.20266E+01 0.00000E+00
 -1      3710 8.49000E+01 3.33256E+01 0.00000E+00
 -1      3711 8.64000E+01 3.33256E+01 0.00000E+00
 -1      3712 8.41500E+01 3.20266E+01 0.00000E+00
 -1      3713 8.79000E+01 3.33256E+01 0.00000E+00
 -1      3714 8.94000E+01 3.33256E+01 0.00000E+00
 -1      3715 8.71500E+01 3.20266E+01 0.00000E+00
 -1      3716 9.09000E+01 3.33256E+01 0.00000E+00
 -1      3717 9.24000E+01 3.33256E+01 0.00000E+00
 -1      3718 9.01500E+01 3.20266E+01 0.00000E+00
 -1      3719 9.39000E+01 3.33256E+01 0.00000E+00
 -1      3720 9.54000E+01 3.33256E+01 0.00000E+00
 -1      3721 9.31500E+01 3.20266E+01 0.00000E+00
 -1      3722 9.69000E+01 3.33256E+01 0.00000E+00
 -1      3723 9.84000E+01 3.33256E+01 0.00000E+00
 -1      3724 9.61500E+01 3.20266E+01 0.00000E+00
 -1      3725 9.99000E+01 3.33256E+01 0.00000E+00
 -1      3726 1.01400E+02 3.33256E+01 0.00000E+00
 -1      3727 9.91500E+01 3.20266E+01 0.00000E+00
 -1      3728 1.02900E+02 3.33256E+01 0.00000E+00
 -1      3729 1.04400E+02 3.33256E+01 0.00000E+00
 -1      3730 1.02150E+02 3.20266E+01 0.00000E+00
 -1      3731 1.05900E+02 3.33256E+01 0.00000E+00
 -1      3732 1.07400E+02 3.33256E+01 0.00000E+00
 -1      3733 1.05150E+02 3.20266E+01 0.00000E+00
 -1      3734 1.08900E+02 3.33256E+01 0.00000E+00
 -1      3735 1.10400E+02 3.33256E+01 0.00000E+00
 -1      3736 1.08150E+02 3.20266E+01 0.00000E+00
 -1      3737 1.11900E+02 3.33256E+01 0.00000E+00
 -1      3738 1.13400E+02 3.33256E+01 0.00000E+00
 -1      3739 1.11150E+02 3.20266E+01 0.00000E+00
 -1      3740 1.14900E+02 3.33256E+01 0.00000E+00
 -1      3741 1.16400E+02 3.33256E+01 0.00000E+00
 -1      3742 1.14150E+02 3.20266E+01 0.00000E+00
 -1      3743 1.17900E+02 3.33256E+01 0.00000E+00
 -1      3744 1.19400E+02 3.33256E+01 0.00000E+00
 -1      3745 1.17150E+02 3.20266E+01 0.00000E+00
 -1      3746 1.20900E+02 3.33256E+01 0.00000E+00
 -1      3747 1.22400E+02 3.33256E+01 0.00000E+00
 -1      3748 1.20150E+02 3.20266E+01 0.00000E+00
 -1      3749 1.23900E+02 3.33256E+01 0.00000E+00
 -1      3750 1.25400E+02 3.33256E+01 0.00000E+00
 -1      3751 1.23150E+02 3.20266E+01 0.00000E+00
 -1      3752 1.26900E+02 3.33256E+01 0.00000E+00
 -1      3753 1.28400E+02 3.33256E+01 0.00000E+00
 -1      3754 1.26150E+02 3.20266E+01 0.00000E+00
 -1      3755 7.67850E+01 1.56522E+01 0.00000E+00
 -1      3756 7.52850E+01 1.56522E+01 0.00000E+00
 -1      3757 6.17850E+01 1.56522E+01 0.00000E+00
 -1      3758 6.02850E+01 1.56522E+01 0.00000E+00
 -1      3759 2.19000E+01 3.31130E+01 0.00000E+00
 -1      3760 2.34000E+01 3.31130E+01 0.00000E+00
 -1      3761 7.37850E+01 1.56522E+01 0.00000E+00
 -1      3762 7.22850E+01 1.56522E+01 0.00000E+00
 -1      3763 7.45350E+01 1.69512E+01 0.00000E+00
 -1      3764 7.07850E+01 1.56522E+01 0.00000E+00
 -1      3765 6.92850E+01 1.56522E+01 0.00000E+00
 -1      3766 7.15350E+01 1.69512E+01 0.00000E+00
 -1      3767 7.97850E+01 1.56522E+01 0.00000E+00
 -1      3768 7.82850E+01 1.56522E+01 0.00000E+00
 -1      3769 7.75350E+01 1.69512E+01 0.00000E+00
 -1      3770 8.27850E+01 1.56522E+01 0.00000E+00
 -1      3771 8.12850E+01 1.56522E+01 0.00000E+00
 -1      3772 8.05350E+01 1.69512E+01 0.00000E+00
 -1      3773 8.57850E+01 1.56522E+01 0.00000E+00
 -1      3774 8.42850E+01 1.56522E+01 0.00000E+00
 -1      3775 8.35350E+01 1.69512E+01 0.00000E+00
 -1      3776 8.87850E+01 1.56522E+01 0.00000E+00
 -1      3777 8.72850E+01 1.56522E+01 0.00000E+00
 -1      3778 8.65350E+01 1.69512E+01 0.00000E+00
 -1      3779 9.17850E+01 1.56522E+01 0.00000E+00
 -1      3780 9.02850E+01 1.56522E+01 0.00000E+00
 -1      3781 8.95350E+01 1.69512E+01 0.00000E+00
 -1      3782 9.47850E+01 1.56522E+01 0.00000E+00
 -1      3783 9.32850E+01 1.56522E+01 0.00000E+00
 -1      3784 9.25350E+01 1.69512E+01 0.00000E+00
 -1      3785 9.77850E+01 1.56522E+01 0.00000E+00
 -1      3786 9.62850E+01 1.56522E+01 0.00000E+00
 -1      3787 9.55350E+01 1.69512E+01 0.00000E+00
 -1      3788 1.00785E+02 1.56522E+01 0.00000E+00
 -1      3789 9.92850E+01 1.56522E+01 0.00000E+00
 -1      3790 9.85350E+01 1.69512E+01 0.00000E+00
 -1      3791 1.03785E+02 1.56522E+01 0.00000E+00
 -1      3792 1.02285E+02 1.56522E+01 0.00000E+00
 -1      3793 1.01535E+02 1.69512E+01 0.00000E+00
 -1      3794 1.06785E+02 1.56522E+01 0.00000E+00
 -1      3795 1.05285E+02 1.56522E+01 0.00000E+00
 -1      3796 1.04535E+02 1.69512E+01 0.00000E+00
 -1      3797 1.09785E+02 1.56522E+01 0.00000E+00
 -1      3798 1.08285E+02 1.56522E+01 0.00000E+00
 -1      3799 1.07535E+02 1.69512E+01 0.00000E+00
 -1      3800 1.12785E+02 1.56522E+01 0.00000E+00
 -1      3801 1.11285E+02 1.56522E+01 0.00000E+00
 -1      3802 1.10535E+02 1.69512E+01 0.00000E+00
 -1      3803 1.15785E+02 1.56522E+01 0.00000E+00
 -1      3804 1.14285E+02 1.56522E+01 0.00000E+00
 -1      3805 1.13535E+02 1.69512E+01 0.00000E+00
 -1      3806 1.18785E+02 1.56522E+01 0.00000E+00
 -1      3807 1.17285E+02 1.56522E+01 0.00000E+00
 -1      3808 1.16535E+02 1.69512E+01 0.00000E+00
 -1      3809 1.21785E+02 1.56522E+01 0.00000E+00
 -1      3810 1.20285E+02 1.56522E+01 0.00000E+00
 -1      3811 1.19535E+02 1.69512E+01 0.00000E+00
 -1      3812 1.24785E+02 1.56522E+01 0.00000E+00
 -1      3813 1.23285E+02 1.56522E+01 0.00000E+00
 -1      3814 1.22535E+02 1.69512E+01 0.00000E+00
 -1      3815 1.27785E+02 1.56522E+01 0.00000E+00
 -1      3816 1.26285E+02 1.56522E+01 0.00000E+00
 -1      3817 1.25535E+02 1.69512E+01 0.00000E+00
 -1      3818 1.30785E+02 1.56522E+01 0.00000E+00
 -1      3819 1.29285E+02 1.56522E+01 0.00000E+00
 -1      3820 1.28535E+02 1.69512E+01 0.00000E+00
 -1      3821 1.43107E+01 2.83115E+01 0.00000E+00
 -1      3822 1.43107E+01 2.97802E+01 0.00000E+00
 -1      3823 1.56531E+01 2.98344E+01 0.00000E+00
 -1      3824 1.56097E+01 2.75740E+01 0.00000E+00
 -1      3825 1.35711E+02 1.98656E+01 0.00000E+00
 -1      3826 1.34412E+02 1.91281E+01 0.00000E+00
 -1      3827 1.35711E+02 2.13312E+01 0.00000E+00
 -1      3828 1.58860E+01 1.50773E+01 0.00000E+00
 -1      3829 1.45679E+01 1.63963E+01 0.00000E+00
 -1      3830 1.33047E+02 1.61220E+01 0.00000E+00
 -1      3831 1.31879E+02 1.58300E+01 0.00000E+00
 -1      3832 1.31129E+02 1.71290E+01 0.00000E+00
 -1      3833 1.33318E+02 1.74847E+01 0.00000E+00
 -1      3834 5.78098E+01 1.93626E+01 0.00000E+00
 -1      3835 5.77990E+01 2.12761E+01 0.00000E+00
 -1      3836 1.89000E+01 3.31130E+01 0.00000E+00
 -1      3837 2.04000E+01 3.31130E+01 0.00000E+00
 -1      3838 2.11500E+01 3.18140E+01 0.00000E+00
 -1      3839 1.85578E+01 1.28746E+01 0.00000E+00
 -1      3840 1.72397E+01 1.27248E+01 0.00000E+00
 -1      3841 1.68534E+01 1.37242E+01 0.00000E+00
 -1      3842 1.93078E+01 1.41736E+01 0.00000E+00
 -1      3843 2.30654E+01 2.91344E+01 0.00000E+00
 -1      3844 2.29696E+01 2.80482E+01 0.00000E+00
 -1      3845 2.17933E+01 2.75852E+01 0.00000E+00
 -1      3846 2.56532E+01 3.10714E+01 0.00000E+00
 -1      3847 2.45675E+01 3.08706E+01 0.00000E+00
 -1      3848 1.35405E+02 1.39507E+01 0.00000E+00
 -1      3849 1.45679E+01 1.78713E+01 0.00000E+00
 -1      3850 2.74981E+01 3.21643E+01 0.00000E+00
 -1      3851 2.73896E+01 3.13156E+01 0.00000E+00
 -1      3852 1.66686E+01 3.26457E+01 0.00000E+00
 -1      3853 1.79062E+01 3.29006E+01 0.00000E+00
 -1      3854 1.86562E+01 3.16016E+01 0.00000E+00
 -1      3855 1.66686E+01 3.11769E+01 0.00000E+00
 -1      3856 5.71988E+01 2.35961E+01 0.00000E+00
 -1      3857 5.63488E+01 2.49706E+01 0.00000E+00
 -1      3858 2.64616E+01 3.09292E+01 0.00000E+00
 -1      3859 2.57018E+01 3.20016E+01 0.00000E+00
 -1      3860 1.68870E+01 2.42359E+01 0.00000E+00
 -1      3861 1.68870E+01 2.57078E+01 0.00000E+00
 -1      3862 1.34412E+02 2.20688E+01 0.00000E+00
 -1      3863 5.92074E+01 1.55179E+01 0.00000E+00
 -1      3864 5.78940E+01 1.55560E+01 0.00000E+00
 -1      3865 5.78021E+01 1.65483E+01 0.00000E+00
 -1      3866 5.99574E+01 1.68169E+01 0.00000E+00
 -1      3867 5.49000E+01 3.33256E+01 0.00000E+00
 -1      3868 5.64000E+01 3.33256E+01 0.00000E+00
 -1      3869 5.43086E+01 2.97446E+01 0.00000E+00
 -1      3870 5.37929E+01 3.11576E+01 0.00000E+00
 -1      3871 5.71500E+01 3.20266E+01 0.00000E+00
 -1      3872 1.28865E+02 3.18267E+01 0.00000E+00
 -1      3873 1.29615E+02 3.31257E+01 0.00000E+00
 -1      3874 1.30830E+02 3.29258E+01 0.00000E+00
 -1      3875 2.39037E+01 1.72834E+01 0.00000E+00
 -1      3876 2.39048E+01 1.59178E+01 0.00000E+00
 -1      3877 1.31913E+02 3.23722E+01 0.00000E+00
 -1      3878 1.33128E+02 3.21723E+01 0.00000E+00
 -1      3879 1.33329E+02 2.99661E+01 0.00000E+00
 -1      3880 1.31163E+02 3.10732E+01 0.00000E+00
 -1      3881 1.33318E+02 1.89503E+01 0.00000E+00
 -1      3882 1.32223E+02 1.87725E+01 0.00000E+00
 -1      3883 1.33318E+02 2.04159E+01 0.00000E+00
 -1      3884 6.85350E+01 1.69512E+01 0.00000E+00
 -1      3885 6.77850E+01 1.56522E+01 0.00000E+00
 -1      3886 6.62850E+01 1.56522E+01 0.00000E+00
 -1      3887 5.97588E+01 2.16970E+01 0.00000E+00
 -1      3888 5.84788E+01 2.26466E+01 0.00000E+00
 -1      3889 5.91587E+01 2.40170E+01 0.00000E+00
 -1      3890 1.33329E+02 2.84973E+01 0.00000E+00
 -1      3891 1.33329E+02 2.70286E+01 0.00000E+00
 -1      3892 1.32246E+02 2.90509E+01 0.00000E+00
 -1      3893 1.71132E+01 1.53020E+01 0.00000E+00
 -1      3894 1.33329E+02 2.55630E+01 0.00000E+00
 -1      3895 1.33329E+02 2.40973E+01 0.00000E+00
 -1      3896 1.32246E+02 2.61165E+01 0.00000E+00
 -1      3897 2.24398E+01 2.10854E+01 0.00000E+00
 -1      3898 2.20950E+01 2.01540E+01 0.00000E+00
 -1      3899 2.16296E+01 2.20558E+01 0.00000E+00
 -1      3900 5.77102E+01 1.75406E+01 0.00000E+00
 -1      3901 5.68486E+01 2.61098E+01 0.00000E+00
 -1      3902 5.54555E+01 2.90422E+01 0.00000E+00
 -1      3903 5.89794E+01 1.85046E+01 0.00000E+00
 -1      3904 1.58669E+01 1.86088E+01 0.00000E+00
 -1      3905 2.17071E+01 1.54990E+01 0.00000E+00
 -1      3906 6.47850E+01 1.56522E+01 0.00000E+00
 -1      3907 6.32850E+01 1.56522E+01 0.00000E+00
 -1      3908 6.55350E+01 1.69512E+01 0.00000E+00
 -1      3909 2.06841E+01 2.55653E+01 0.00000E+00
 -1      3910 2.10481E+01 2.45932E+01 0.00000E+00
 -1      3911 2.28922E+01 1.78917E+01 0.00000E+00
 -1      3912 1.68870E+01 2.12984E+01 0.00000E+00
 -1      3913 1.68870E+01 2.27672E+01 0.00000E+00
 -1      3914 1.81860E+01 2.35031E+01 0.00000E+00
 -1      3915 2.14038E+01 1.69963E+01 0.00000E+00
 -1      3916 2.02317E+01 1.58955E+01 0.00000E+00
 -1      3917 2.34458E+01 3.07057E+01 0.00000E+00
 -1      3918 2.22695E+01 3.02427E+01 0.00000E+00
 -1      3919 1.90046E+01 1.56708E+01 0.00000E+00
 -1      3920 6.25350E+01 1.69512E+01 0.00000E+00
 -1      3921 2.08225E+01 2.38094E+01 0.00000E+00
 -1      3922 2.37717E+01 3.19789E+01 0.00000E+00
 -1      3923 5.94000E+01 3.07276E+01 0.00000E+00
 -1      3924 6.09000E+01 3.07276E+01 0.00000E+00
 -1      3925 1.33323E+02 2.29941E+01 0.00000E+00
 -1      3926 1.33323E+02 2.15191E+01 0.00000E+00
 -1      3927 1.32229E+02 2.13413E+01 0.00000E+00
 -1      3928 1.32240E+02 2.35477E+01 0.00000E+00
 -1      3929 6.00570E+01 1.86389E+01 0.00000E+00
 -1      3930 2.53301E+01 3.31357E+01 0.00000E+00
 -1      3931 2.45217E+01 3.32779E+01 0.00000E+00
 -1      3932 6.24000E+01 3.07276E+01 0.00000E+00
 -1      3933 6.39000E+01 3.07276E+01 0.00000E+00
 -1      3934 6.16500E+01 2.94286E+01 0.00000E+00
 -1      3935 6.54000E+01 3.07276E+01 0.00000E+00
 -1      3936 6.69000E+01 3.07276E+01 0.00000E+00
 -1      3937 6.46500E+01 2.94286E+01 0.00000E+00
 -1      3938 6.84000E+01 3.07276E+01 0.00000E+00
 -1      3939 6.99000E+01 3.07276E+01 0.00000E+00
 -1      3940 6.76500E+01 2.94286E+01 0.00000E+00
 -1      3941 7.14000E+01 3.07276E+01 0.00000E+00
 -1      3942 7.29000E+01 3.07276E+01 0.00000E+00
 -1      3943 7.06500E+01 2.94286E+01 0.00000E+00
 -1      3944 7.44000E+01 3.07276E+01 0.00000E+00
 -1      3945 7.59000E+01 3.07276E+01 0.00000E+00
 -1      3946 7.36500E+01 2.94286E+01 0.00000E+00
 -1      3947 7.74000E+01 3.07276E+01 0.00000E+00
 -1      3948 7.89000E+01 3.07276E+01 0.00000E+00
 -1      3949 7.66500E+01 2.94286E+01 0.00000E+00
 -1      3950 8.04000E+01 3.07276E+01 0.00000E+00
 -1      3951 8.19000E+01 3.07276E+01 0.00000E+00
 -1      3952 7.96500E+01 2.94286E+01 0.00000E+00
 -1      3953 8.34000E+01 3.07276E+01 0.00000E+00
 -1      3954 8.49000E+01 3.07276E+01 0.00000E+00
 -1      3955 8.26500E+01 2.94286E+01 0.00000E+00
 -1      3956 8.64000E+01 3.07276E+01 0.00000E+00
 -1      3957 8.79000E+01 3.07276E+01 0.00000E+00
 -1      3958 8.56500E+01 2.94286E+01 0.00000E+00
 -1      3959 8.94000E+01 3.07276E+01 0.00000E+00
 -1      3960 9.09000E+01 3.07276E+01 0.00000E+00
 -1      3961 8.86500E+01 2.94286E+01 0.00000E+00
 -1      3962 9.24000E+01 3.07276E+01 0.00000E+00
 -1      3963 9.39000E+01 3.07276E+01 0.00000E+00
 -1      3964 9.16500E+01 2.94286E+01 0.00000E+00
 -1      3965 9.54000E+01 3.07276E+01 0.00000E+00
 -1      3966 9.69000E+01 3.07276E+01 0.00000E+00
 -1      3967 9.46500E+01 2.94286E+01 0.00000E+00
 -1      3968 9.84000E+01 3.07276E+01 0.00000E+00
 -1      3969 9.99000E+01 3.07276E+01 0.00000E+00
 -1      3970 9.76500E+01 2.94286E+01 0.00000E+00
 -1      3971 1.01400E+02 3.07276E+01 0.00000E+00
 -1      3972 1.02900E+02 3.07276E+01 0.00000E+00
 -1      3973 1.00650E+02 2.94286E+01 0.00000E+00
 -1      3974 1.04400E+02 3.07276E+01 0.00000E+00
 -1      3975 1.05900E+02 3.07276E+01 0.00000E+00
 -1      3976 1.03650E+02 2.94286E+01 0.00000E+00
 -1      3977 1.07400E+02 3.07276E+01 0.00000E+00
 -1      3978 1.08900E+02 3.07276E+01 0.00000E+00
 -1      3979 1.06650E+02 2.94286E+01 0.00000E+00
 -1      3980 1.10400E+02 3.07276E+01 0.00000E+00
 -1      3981 1.11900E+02 3.07276E+01 0.00000E+00
 -1      3982 1.09650E+02 2.94286E+01 0.00000E+00
 -1      3983 1.13400E+02 3.07276E+01 0.00000E+00
 -1      3984 1.14900E+02 3.07276E+01 0.00000E+00
 -1      3985 1.12650E+02 2.94286E+01 0.00000E+00
 -1      3986 1.16400E+02 3.07276E+01 0.00000E+00
 -1      3987 1.17900E+02 3.07276E+01 0.00000E+00
 -1      3988 1.15650E+02 2.94286E+01 0.00000E+00
 -1      3989 1.19400E+02 3.07276E+01 0.00000E+00
 -1      3990 1.20900E+02 3.07276E+01 0.00000E+00
 -1      3991 1.18650E+02 2.94286E+01 0.00000E+00
 -1      3992 1.22400E+02 3.07276E+01 0.00000E+00
 -1      3993 1.23900E+02 3.07276E+01 0.00000E+00
 -1      3994 1.21650E+02 2.94286E+01 0.00000E+00
 -1      3995 1.25400E+02 3.07276E+01 0.00000E+00
 -1      3996 1.26900E+02 3.07276E+01 0.00000E+00
 -1      3997 1.24650E+02 2.94286E+01 0.00000E+00
 -1      3998 8.12850E+01 1.82502E+01 0.00000E+00
 -1      3999 7.97850E+01 1.82502E+01 0.00000E+00
 -1      4000 7.82850E+01 1.82502E+01 0.00000E+00
 -1      4001 7.67850E+01 1.82502E+01 0.00000E+00
 -1      4002 7.90350E+01 1.95492E+01 0.00000E+00
 -1      4003 1.80371E+01 1.70239E+01 0.00000E+00
 -1      4004 7.22850E+01 1.82502E+01 0.00000E+00
 -1      4005 7.07850E+01 1.82502E+01 0.00000E+00
 -1      4006 8.42850E+01 1.82502E+01 0.00000E+00
 -1      4007 8.27850E+01 1.82502E+01 0.00000E+00
 -1      4008 8.20350E+01 1.95492E+01 0.00000E+00
 -1      4009 8.72850E+01 1.82502E+01 0.00000E+00
 -1      4010 8.57850E+01 1.82502E+01 0.00000E+00
 -1      4011 8.50350E+01 1.95492E+01 0.00000E+00
 -1      4012 9.02850E+01 1.82502E+01 0.00000E+00
 -1      4013 8.87850E+01 1.82502E+01 0.00000E+00
 -1      4014 8.80350E+01 1.95492E+01 0.00000E+00
 -1      4015 9.32850E+01 1.82502E+01 0.00000E+00
 -1      4016 9.17850E+01 1.82502E+01 0.00000E+00
 -1      4017 9.10350E+01 1.95492E+01 0.00000E+00
 -1      4018 9.62850E+01 1.82502E+01 0.00000E+00
 -1      4019 9.47850E+01 1.82502E+01 0.00000E+00
 -1      4020 9.40350E+01 1.95492E+01 0.00000E+00
 -1      4021 9.92850E+01 1.82502E+01 0.00000E+00
 -1      4022 9.77850E+01 1.82502E+01 0.00000E+00
 -1      4023 9.70350E+01 1.95492E+01 0.00000E+00
 -1      4024 1.02285E+02 1.82502E+01 0.00000E+00
 -1      4025 1.00785E+02 1.82502E+01 0.00000E+00
 -1      4026 1.00035E+02 1.95492E+01 0.00000E+00
 -1      4027 1.05285E+02 1.82502E+01 0.00000E+00
 -1      4028 1.03785E+02 1.82502E+01 0.00000E+00
 -1      4029 1.03035E+02 1.95492E+01 0.00000E+00
 -1      4030 1.08285E+02 1.82502E+01 0.00000E+00
 -1      4031 1.06785E+02 1.82502E+01 0.00000E+00
 -1      4032 1.06035E+02 1.95492E+01 0.00000E+00
 -1      4033 1.11285E+02 1.82502E+01 0.00000E+00
 -1      4034 1.09785E+02 1.82502E+01 0.00000E+00
 -1      4035 1.09035E+02 1.95492E+01 0.00000E+00
 -1      4036 1.14285E+02 1.82502E+01 0.00000E+00
 -1      4037 1.12785E+02 1.82502E+01 0.00000E+00
 -1      4038 1.12035E+02 1.95492E+01 0.00000E+00
 -1      4039 1.17285E+02 1.82502E+01 0.00000E+00
 -1      4040 1.15785E+02 1.82502E+01 0.00000E+00
 -1      4041 1.15035E+02 1.95492E+01 0.00000E+00
 -1      4042 1.20285E+02 1.82502E+01 0.00000E+00
 -1      4043 1.18785E+02 1.82502E+01 0.00000E+00
 -1      4044 1.18035E+02 1.95492E+01 0.00000E+00
 -1      4045 1.23285E+02 1.82502E+01 0.00000E+00
 -1      4046 1.21785E+02 1.82502E+01 0.00000E+00
 -1      4047 1.21035E+02 1.95492E+01 0.00000E+00
 -1      4048 1.26285E+02 1.82502E+01 0.00000E+00
 -1      4049 1.24785E+02 1.82502E+01 0.00000E+00
 -1      4050 1.24035E+02 1.95492E+01 0.00000E+00
 -1      4051 1.29285E+02 1.82502E+01 0.00000E+00
 -1      4052 1.27785E+02 1.82502E+01 0.00000E+00
 -1      4053 1.27035E+02 1.95492E+01 0.00000E+00
 -1      4054 1.77582E+01 1.89776E+01 0.00000E+00
 -1      4055 1.31301E+02 1.86003E+01 0.00000E+00
 -1      4056 1.30207E+02 1.84224E+01 0.00000E+00
 -1      4057 1.29457E+02 1.97214E+01 0.00000E+00
 -1      4058 1.31301E+02 2.00659E+01 0.00000E+00
 -1      4059 2.07365E+01 2.82257E+01 0.00000E+00
 -1      4060 2.06408E+01 2.71395E+01 0.00000E+00
 -1      4061 2.07695E+01 3.02427E+01 0.00000E+00
 -1      4062 5.81874E+01 2.62805E+01 0.00000E+00
 -1      4063 5.71574E+01 2.74237E+01 0.00000E+00
 -1      4064 7.52850E+01 1.82502E+01 0.00000E+00
 -1      4065 7.37850E+01 1.82502E+01 0.00000E+00
 -1      4066 7.60350E+01 1.95492E+01 0.00000E+00
 -1      4067 1.88850E+01 2.63759E+01 0.00000E+00
 -1      4068 1.75860E+01 2.71119E+01 0.00000E+00
 -1      4069 2.14168E+01 1.82882E+01 0.00000E+00
 -1      4070 6.16699E+01 1.84464E+01 0.00000E+00
 -1      4071 6.06919E+01 2.01340E+01 0.00000E+00
 -1      4072 5.67943E+01 2.92128E+01 0.00000E+00
 -1      4073 1.90572E+01 1.97136E+01 0.00000E+00
 -1      4074 1.96170E+01 2.97970E+01 0.00000E+00
 -1      4075 2.06067E+01 1.92586E+01 0.00000E+00
 -1      4076 1.27365E+02 2.92287E+01 0.00000E+00
 -1      4077 1.28115E+02 3.05277E+01 0.00000E+00
 -1      4078 1.29330E+02 3.03278E+01 0.00000E+00
 -1      4079 6.31699E+01 1.84464E+01 0.00000E+00
 -1      4080 6.46699E+01 1.84464E+01 0.00000E+00
 -1      4081 6.38049E+01 1.99415E+01 0.00000E+00
 -1      4082 6.61699E+01 1.84464E+01 0.00000E+00
 -1      4083 1.94919E+01 2.31632E+01 0.00000E+00
 -1      4084 2.06437E+01 2.23411E+01 0.00000E+00
 -1      4085 7.30350E+01 1.95492E+01 0.00000E+00
 -1      4086 1.76077E+01 2.82421E+01 0.00000E+00
 -1      4087 6.92850E+01 1.82502E+01 0.00000E+00
 -1      4088 6.77850E+01 1.82502E+01 0.00000E+00
 -1      4089 7.00350E+01 1.95492E+01 0.00000E+00
 -1      4090 6.13718E+01 2.15045E+01 0.00000E+00
 -1      4091 5.40717E+01 3.17552E+01 0.00000E+00
 -1      4092 1.30947E+02 2.68493E+01 0.00000E+00
 -1      4093 1.30947E+02 2.53837E+01 0.00000E+00
 -1      4094 2.02990E+01 2.14096E+01 0.00000E+00
 -1      4095 5.94675E+01 2.53309E+01 0.00000E+00
 -1      4096 5.97762E+01 2.66448E+01 0.00000E+00
 -1      4097 6.07475E+01 2.43814E+01 0.00000E+00
 -1      4098 1.96273E+01 2.62058E+01 0.00000E+00
 -1      4099 1.30413E+02 2.83055E+01 0.00000E+00
 -1      4100 1.29114E+02 2.75727E+01 0.00000E+00
 -1      4101 7.97850E+01 2.08482E+01 0.00000E+00
 -1      4102 7.82850E+01 2.08482E+01 0.00000E+00
 -1      4103 5.53712E+01 3.14290E+01 0.00000E+00
 -1      4104 5.70731E+01 2.98105E+01 0.00000E+00
 -1      4105 5.85731E+01 2.98105E+01 0.00000E+00
 -1      4106 1.89283E+01 2.33330E+01 0.00000E+00
 -1      4107 1.89283E+01 2.48017E+01 0.00000E+00
 -1      4108 6.39000E+01 2.81296E+01 0.00000E+00
 -1      4109 6.54000E+01 2.81296E+01 0.00000E+00
 -1      4110 6.69000E+01 2.81296E+01 0.00000E+00
 -1      4111 6.84000E+01 2.81296E+01 0.00000E+00
 -1      4112 6.61500E+01 2.68306E+01 0.00000E+00
 -1      4113 6.99000E+01 2.81296E+01 0.00000E+00
 -1      4114 7.14000E+01 2.81296E+01 0.00000E+00
 -1      4115 6.91500E+01 2.68306E+01 0.00000E+00
 -1      4116 7.29000E+01 2.81296E+01 0.00000E+00
 -1      4117 7.44000E+01 2.81296E+01 0.00000E+00
 -1      4118 7.21500E+01 2.68306E+01 0.00000E+00
 -1      4119 7.59000E+01 2.81296E+01 0.00000E+00
 -1      4120 7.74000E+01 2.81296E+01 0.00000E+00
 -1      4121 7.51500E+01 2.68306E+01 0.00000E+00
 -1      4122 7.89000E+01 2.81296E+01 0.00000E+00
 -1      4123 8.04000E+01 2.81296E+01 0.00000E+00
 -1      4124 7.81500E+01 2.68306E+01 0.00000E+00
 -1      4125 8.19000E+01 2.81296E+01 0.00000E+00
 -1      4126 8.34000E+01 2.81296E+01 0.00000E+00
 -1      4127 8.11500E+01 2.68306E+01 0.00000E+00
 -1      4128 8.49000E+01 2.81296E+01 0.00000E+00
 -1      4129 8.64000E+01 2.81296E+01 0.00000E+00
 -1      4130 8.41500E+01 2.68306E+01 0.00000E+00
 -1      4131 8.79000E+01 2.81296E+01 0.00000E+00
 -1      4132 8.94000E+01 2.81296E+01 0.00000E+00
 -1      4133 8.71500E+01 2.68306E+01 0.00000E+00
 -1      4134 9.09000E+01 2.81296E+01 0.00000E+00
 -1      4135 9.24000E+01 2.81296E+01 0.00000E+00
 -1      4136 9.01500E+01 2.68306E+01 0.00000E+00
 -1      4137 9.39000E+01 2.81296E+01 0.00000E+00
 -1      4138 9.54000E+01 2.81296E+01 0.00000E+00
 -1      4139 9.31500E+01 2.68306E+01 0.00000E+00
 -1      4140 9.69000E+01 2.81296E+01 0.00000E+00
 -1      4141 9.84000E+01 2.81296E+01 0.00000E+00
 -1      4142 9.61500E+01 2.68306E+01 0.00000E+00
 -1      4143 9.99000E+01 2.81296E+01 0.00000E+00
 -1      4144 1.01400E+02 2.81296E+01 0.00000E+00
 -1      4145 9.91500E+01 2.68306E+01 0.00000E+00
 -1      4146 1.02900E+02 2.81296E+01 0.00000E+00
 -1      4147 1.04400E+02 2.81296E+01 0.00000E+00
 -1      4148 1.02150E+02 2.68306E+01 0.00000E+00
 -1      4149 1.05900E+02 2.81296E+01 0.00000E+00
 -1      4150 1.07400E+02 2.81296E+01 0.00000E+00
 -1      4151 1.05150E+02 2.68306E+01 0.00000E+00
 -1      4152 1.08900E+02 2.81296E+01 0.00000E+00
 -1      4153 1.10400E+02 2.81296E+01 0.00000E+00
 -1      4154 1.08150E+02 2.68306E+01 0.00000E+00
 -1      4155 1.11900E+02 2.81296E+01 0.00000E+00
 -1      4156 1.13400E+02 2.81296E+01 0.00000E+00
 -1      4157 1.11150E+02 2.68306E+01 0.00000E+00
 -1      4158 1.14900E+02 2.81296E+01 0.00000E+00
 -1      4159 1.16400E+02 2.81296E+01 0.00000E+00
 -1      4160 1.14150E+02 2.68306E+01 0.00000E+00
 -1      4161 1.17900E+02 2.81296E+01 0.00000E+00
 -1      4162 1.19400E+02 2.81296E+01 0.00000E+00
 -1      4163 1.17150E+02 2.68306E+01 0.00000E+00
 -1      4164 1.20900E+02 2.81296E+01 0.00000E+00
 -1      4165 1.22400E+02 2.81296E+01 0.00000E+00
 -1      4166 1.20150E+02 2.68306E+01 0.00000E+00
 -1      4167 1.23900E+02 2.81296E+01 0.00000E+00
 -1      4168 1.25400E+02 2.81296E+01 0.00000E+00
 -1      4169 1.23150E+02 2.68306E+01 0.00000E+00
 -1      4170 8.57850E+01 2.08482E+01 0.00000E+00
 -1      4171 8.42850E+01 2.08482E+01 0.00000E+00
 -1      4172 7.37850E+01 2.08482E+01 0.00000E+00
 -1      4173 7.22850E+01 2.08482E+01 0.00000E+00
 -1      4174 1.27899E+02 2.77726E+01 0.00000E+00
 -1      4175 1.28433E+02 2.63164E+01 0.00000E+00
 -1      4176 1.26684E+02 2.79725E+01 0.00000E+00
 -1      4177 8.87850E+01 2.08482E+01 0.00000E+00
 -1      4178 8.72850E+01 2.08482E+01 0.00000E+00
 -1      4179 8.65350E+01 2.21472E+01 0.00000E+00
 -1      4180 8.27850E+01 2.08482E+01 0.00000E+00
 -1      4181 8.12850E+01 2.08482E+01 0.00000E+00
 -1      4182 8.05350E+01 2.21472E+01 0.00000E+00
 -1      4183 8.35350E+01 2.21472E+01 0.00000E+00
 -1      4184 9.17850E+01 2.08482E+01 0.00000E+00
 -1      4185 9.02850E+01 2.08482E+01 0.00000E+00
 -1      4186 8.95350E+01 2.21472E+01 0.00000E+00
 -1      4187 9.47850E+01 2.08482E+01 0.00000E+00
 -1      4188 9.32850E+01 2.08482E+01 0.00000E+00
 -1      4189 9.25350E+01 2.21472E+01 0.00000E+00
 -1      4190 9.77850E+01 2.08482E+01 0.00000E+00
 -1      4191 9.62850E+01 2.08482E+01 0.00000E+00
 -1      4192 9.55350E+01 2.21472E+01 0.00000E+00
 -1      4193 1.00785E+02 2.08482E+01 0.00000E+00
 -1      4194 9.92850E+01 2.08482E+01 0.00000E+00
 -1      4195 9.85350E+01 2.21472E+01 0.00000E+00
 -1      4196 1.03785E+02 2.08482E+01 0.00000E+00
 -1      4197 1.02285E+02 2.08482E+01 0.00000E+00
 -1      4198 1.01535E+02 2.21472E+01 0.00000E+00
 -1      4199 1.06785E+02 2.08482E+01 0.00000E+00
 -1      4200 1.05285E+02 2.08482E+01 0.00000E+00
 -1      4201 1.04535E+02 2.21472E+01 0.00000E+00
 -1      4202 1.09785E+02 2.08482E+01 0.00000E+00
 -1      4203 1.08285E+02 2.08482E+01 0.00000E+00
 -1      4204 1.07535E+02 2.21472E+01 0.00000E+00
 -1      4205 1.12785E+02 2.08482E+01 0.00000E+00
 -1      4206 1.11285E+02 2.08482E+01 0.00000E+00
 -1      4207 1.10535E+02 2.21472E+01 0.00000E+00
 -1      4208 1.15785E+02 2.08482E+01 0.00000E+00
 -1      4209 1.14285E+02 2.08482E+01 0.00000E+00
 -1      4210 1.13535E+02 2.21472E+01 0.00000E+00
 -1      4211 1.18785E+02 2.08482E+01 0.00000E+00
 -1      4212 1.17285E+02 2.08482E+01 0.00000E+00
 -1      4213 1.16535E+02 2.21472E+01 0.00000E+00
 -1      4214 1.21785E+02 2.08482E+01 0.00000E+00
 -1      4215 1.20285E+02 2.08482E+01 0.00000E+00
 -1      4216 1.19535E+02 2.21472E+01 0.00000E+00
 -1      4217 1.24785E+02 2.08482E+01 0.00000E+00
 -1      4218 1.23285E+02 2.08482E+01 0.00000E+00
 -1      4219 1.22535E+02 2.21472E+01 0.00000E+00
 -1      4220 1.27785E+02 2.08482E+01 0.00000E+00
 -1      4221 1.26285E+02 2.08482E+01 0.00000E+00
 -1      4222 1.25535E+02 2.21472E+01 0.00000E+00
 -1      4223 1.69410E+01 2.92443E+01 0.00000E+00
 -1      4224 1.69627E+01 3.03745E+01 0.00000E+00
 -1      4225 1.79565E+01 3.05869E+01 0.00000E+00
 -1      4226 1.30413E+02 2.97742E+01 0.00000E+00
 -1      4227 7.67850E+01 2.08482E+01 0.00000E+00
 -1      4228 7.52850E+01 2.08482E+01 0.00000E+00
 -1      4229 7.45350E+01 2.21472E+01 0.00000E+00
 -1      4230 7.75350E+01 2.21472E+01 0.00000E+00
 -1      4231 5.93231E+01 2.85115E+01 0.00000E+00
 -1      4232 1.89503E+01 3.07992E+01 0.00000E+00
 -1      4233 6.06031E+01 2.75620E+01 0.00000E+00
 -1      4234 1.29642E+02 2.50133E+01 0.00000E+00
 -1      4235 1.30941E+02 2.42805E+01 0.00000E+00
 -1      4236 1.30936E+02 2.31773E+01 0.00000E+00
 -1      4237 6.29537E+01 2.13889E+01 0.00000E+00
 -1      4238 6.20206E+01 2.29518E+01 0.00000E+00
 -1      4239 1.31121E+02 2.21732E+01 0.00000E+00
 -1      4240 1.31116E+02 2.10700E+01 0.00000E+00
 -1      4241 1.30194E+02 2.08978E+01 0.00000E+00
 -1      4242 1.29822E+02 2.29060E+01 0.00000E+00
 -1      4243 6.69199E+01 1.97454E+01 0.00000E+00
 -1      4244 6.21031E+01 2.75620E+01 0.00000E+00
 -1      4245 1.87495E+01 2.18646E+01 0.00000E+00
 -1      4246 1.25934E+02 2.66735E+01 0.00000E+00
 -1      4247 7.15350E+01 2.21472E+01 0.00000E+00
 -1      4248 7.07850E+01 2.08482E+01 0.00000E+00
 -1      4249 6.92850E+01 2.08482E+01 0.00000E+00
 -1      4250 1.28427E+02 2.52132E+01 0.00000E+00
 -1      4251 1.96208E+01 1.95438E+01 0.00000E+00
 -1      4252 6.28531E+01 2.62630E+01 0.00000E+00
 -1      4253 6.23294E+01 2.42657E+01 0.00000E+00
 -1      4254 1.29271E+02 2.07256E+01 0.00000E+00
 -1      4255 6.44537E+01 2.13889E+01 0.00000E+00
 -1      4256 1.28521E+02 2.20246E+01 0.00000E+00
 -1      4257 1.89173E+01 2.87822E+01 0.00000E+00
 -1      4258 9.02850E+01 2.34462E+01 0.00000E+00
 -1      4259 8.87850E+01 2.34462E+01 0.00000E+00
 -1      4260 6.84000E+01 2.55316E+01 0.00000E+00
 -1      4261 6.99000E+01 2.55316E+01 0.00000E+00
 -1      4262 7.18425E+01 2.44889E+01 0.00000E+00
 -1      4263 7.33425E+01 2.44889E+01 0.00000E+00
 -1      4264 7.48425E+01 2.44889E+01 0.00000E+00
 -1      4265 7.63425E+01 2.44889E+01 0.00000E+00
 -1      4266 7.78425E+01 2.44889E+01 0.00000E+00
 -1      4267 7.93425E+01 2.44889E+01 0.00000E+00
 -1      4268 8.08425E+01 2.44889E+01 0.00000E+00
 -1      4269 8.23425E+01 2.44889E+01 0.00000E+00
 -1      4270 8.38425E+01 2.44889E+01 0.00000E+00
 -1      4271 8.53425E+01 2.44889E+01 0.00000E+00
 -1      4272 8.90925E+01 2.57879E+01 0.00000E+00
 -1      4273 9.05925E+01 2.57879E+01 0.00000E+00
 -1      4274 9.24000E+01 2.55316E+01 0.00000E+00
 -1      4275 9.39000E+01 2.55316E+01 0.00000E+00
 -1      4276 9.58425E+01 2.44889E+01 0.00000E+00
 -1      4277 9.73425E+01 2.44889E+01 0.00000E+00
 -1      4278 9.88425E+01 2.44889E+01 0.00000E+00
 -1      4279 1.00342E+02 2.44889E+01 0.00000E+00
 -1      4280 1.01842E+02 2.44889E+01 0.00000E+00
 -1      4281 1.03342E+02 2.44889E+01 0.00000E+00
 -1      4282 1.04842E+02 2.44889E+01 0.00000E+00
 -1      4283 1.06342E+02 2.44889E+01 0.00000E+00
 -1      4284 1.07842E+02 2.44889E+01 0.00000E+00
 -1      4285 1.09342E+02 2.44889E+01 0.00000E+00
 -1      4286 1.10842E+02 2.44889E+01 0.00000E+00
 -1      4287 1.12342E+02 2.44889E+01 0.00000E+00
 -1      4288 1.13842E+02 2.44889E+01 0.00000E+00
 -1      4289 1.15342E+02 2.44889E+01 0.00000E+00
 -1      4290 1.16842E+02 2.44889E+01 0.00000E+00
 -1      4291 1.18342E+02 2.44889E+01 0.00000E+00
 -1      4292 1.19842E+02 2.44889E+01 0.00000E+00
 -1      4293 1.21342E+02 2.44889E+01 0.00000E+00
 -1      4294 1.22842E+02 2.44889E+01 0.00000E+00
 -1      4295 1.24342E+02 2.44889E+01 0.00000E+00
 -1      4296 9.35925E+01 2.31899E+01 0.00000E+00
 -1      4297 9.20925E+01 2.31899E+01 0.00000E+00
 -1      4298 6.54000E+01 2.55316E+01 0.00000E+00
 -1      4299 6.69000E+01 2.55316E+01 0.00000E+00
 -1      4300 6.76500E+01 2.42326E+01 0.00000E+00
 -1      4301 1.25842E+02 2.44889E+01 0.00000E+00
 -1      4302 6.41262E+01 2.48334E+01 0.00000E+00
 -1      4303 1.28336E+02 2.30287E+01 0.00000E+00
 -1      4304 6.76769E+01 2.10205E+01 0.00000E+00
 -1      4305 6.60618E+01 2.12166E+01 0.00000E+00
 -1      4306 6.52106E+01 2.26640E+01 0.00000E+00
 -1      4307 6.84269E+01 2.23195E+01 0.00000E+00
 -1      4308 8.68425E+01 2.44889E+01 0.00000E+00
 -1      4309 1.27127E+02 2.43318E+01 0.00000E+00
 -1      4310 9.13425E+01 2.44889E+01 0.00000E+00
 -1      4311 8.83425E+01 2.44889E+01 0.00000E+00
 -1      4312 6.48762E+01 2.35344E+01 0.00000E+00
 -1      4313 9.43425E+01 2.44889E+01 0.00000E+00
 -1      4314 7.03425E+01 2.44889E+01 0.00000E+00
 -1      4315 6.64844E+01 2.33622E+01 0.00000E+00
 -1      4316 6.79844E+01 2.33622E+01 0.00000E+00
 -1      4317 6.95925E+01 2.31899E+01 0.00000E+00
 -3
    3C                          2077                                     1
 -1       164    8    0    1
 -2         6         7        23      1121      1284      1138
 -1       165    8    0    1
 -2         7         8       164      1122      1285      1286
 -1       166    8    0    1
 -2         8         9       165      1123      1287      1288
 -1       167    8    0    1
 -2         8       165       164      1288      1289      1285
 -1       168    8    0    1
 -2         9        10       166      1124      1290      1291
 -1       169    8    0    1
 -2         9       166       165      1291      1292      1287
 -1       170    8    0    1
 -2        10        11       167      1125      1293      1294
 -1       171    8    0    1
 -2        10       167       166      1294      1295      1290
 -1       172    8    0    1
 -2        11        12       168      1126      1296      1297
 -1       173    8    0    1
 -2        11       168       167      1297      1298      1293
 -1       174    8    0    1
 -2        12        13       169      1127      1299      1300
 -1       175    8    0    1
 -2        12       169       168      1300      1301      1296
 -1       176    8    0    1
 -2        13        14       170      1128      1302      1303
 -1       177    8    0    1
 -2        13       170       169      1303      1304      1299
 -1       178    8    0    1
 -2        14        15       171      1129      1305      1306
 -1       179    8    0    1
 -2        14       171       170      1306      1307      1302
 -1       180    8    0    1
 -2        15        16       172      1130      1308      1309
 -1       181    8    0    1
 -2        15       172       171      1309      1310      1305
 -1       182    8    0    1
 -2        16        17       173      1131      1311      1312
 -1       183    8    0    1
 -2        16       173       172      1312      1313      1308
 -1       184    8    0    1
 -2        17        18       174      1132      1314      1315
 -1       185    8    0    1
 -2        17       174       173      1315      1316      1311
 -1       186    8    0    1
 -2        18        19       175      1133      1317      1318
 -1       187    8    0    1
 -2        18       175       174      1318      1319      1314
 -1       188    8    0    1
 -2        19        20       176      1134      1320      1321
 -1       189    8    0    1
 -2        19       176       175      1321      1322      1317
 -1       190    8    0    1
 -2        20        21       177      1135      1323      1324
 -1       191    8    0    1
 -2        20       177       176      1324      1325      1320
 -1       192    8    0    1
 -2        21        22       178      1136      1326      1327
 -1       193    8    0    1
 -2        21       178       177      1327      1328      1323
 -1       194    8    0    1
 -2        22         5       179      1137      1329      1330
 -1       195    8    0    1
 -2       178        22       179      1326      1330      1331
 -1       196    8    0    1
 -2         5        72       179      1188      1332      1329
 -1       197    8    0    1
 -2        24        23       180      1139      1333      1334
 -1       198    8    0    1
 -2        25        24       181      1140      1335      1336
 -1       199    8    0    1
 -2        24       180       181      1334      1337      1335
 -1       200    8    0    1
 -2        26        25       182      1141      1338      1339
 -1       201    8    0    1
 -2        25       181       182      1336      1340      1338
 -1       202    8    0    1
 -2        27        26       183      1142      1341      1342
 -1       203    8    0    1
 -2        26       182       183      1339      1343      1341
 -1       204    8    0    1
 -2        28        27       184      1143      1344      1345
 -1       205    8    0    1
 -2        27       183       184      1342      1346      1344
 -1       206    8    0    1
 -2        29        28       185      1144      1347      1348
 -1       207    8    0    1
 -2        28       184       185      1345      1349      1347
 -1       208    8    0    1
 -2        30        29       186      1145      1350      1351
 -1       209    8    0    1
 -2        29       185       186      1348      1352      1350
 -1       210    8    0    1
 -2        31        30       187      1146      1353      1354
 -1       211    8    0    1
 -2        30       186       187      1351      1355      1353
 -1       212    8    0    1
 -2        32        31       188      1147      1356      1357
 -1       213    8    0    1
 -2        31       187       188      1354      1358      1356
 -1       214    8    0    1
 -2        33        32       189      1148      1359      1360
 -1       215    8    0    1
 -2        32       188       189      1357      1361      1359
 -1       216    8    0    1
 -2        34        33       190      1149      1362      1363
 -1       217    8    0    1
 -2        33       189       190      1360      1364      1362
 -1       218    8    0    1
 -2        35        34       191      1150      1365      1366
 -1       219    8    0    1
 -2        34       190       191      1363      1367      1365
 -1       220    8    0    1
 -2        36        35       192      1151      1368      1369
 -1       221    8    0    1
 -2        35       191       192      1366      1370      1368
 -1       222    8    0    1
 -2        37        36       193      1152      1371      1372
 -1       223    8    0    1
 -2        36       192       193      1369      1373      1371
 -1       224    8    0    1
 -2        38        37       194      1153      1374      1375
 -1       225    8    0    1
 -2        37       193       194      1372      1376      1374
 -1       226    8    0    1
 -2        39        38       195      1154      1377      1378
 -1       227    8    0    1
 -2        38       194       195      1375      1379      1377
 -1       228    8    0    1
 -2        40        39       196      1155      1380      1381
 -1       229    8    0    1
 -2        39       195       196      1378      1382      1380
 -1       230    8    0    1
 -2        41        40       197      1156      1383      1384
 -1       231    8    0    1
 -2        40       196       197      1381      1385      1383
 -1       232    8    0    1
 -2        42        41       198      1157      1386      1387
 -1       233    8    0    1
 -2        41       197       198      1384      1388      1386
 -1       234    8    0    1
 -2        43        42       199      1158      1389      1390
 -1       235    8    0    1
 -2        42       198       199      1387      1391      1389
 -1       236    8    0    1
 -2        44        43       200      1159      1392      1393
 -1       237    8    0    1
 -2        43       199       200      1390      1394      1392
 -1       238    8    0    1
 -2        45        44       201      1160      1395      1396
 -1       239    8    0    1
 -2        44       200       201      1393      1397      1395
 -1       240    8    0    1
 -2        46        45       202      1161      1398      1399
 -1       241    8    0    1
 -2        45       201       202      1396      1400      1398
 -1       242    8    0    1
 -2        47        46       203      1162      1401      1402
 -1       243    8    0    1
 -2        46       202       203      1399      1403      1401
 -1       244    8    0    1
 -2        48        47       204      1163      1404      1405
 -1       245    8    0    1
 -2        47       203       204      1402      1406      1404
 -1       246    8    0    1
 -2        49        48       205      1164      1407      1408
 -1       247    8    0    1
 -2        48       204       205      1405      1409      1407
 -1       248    8    0    1
 -2        50        49       206      1165      1410      1411
 -1       249    8    0    1
 -2        49       205       206      1408      1412      1410
 -1       250    8    0    1
 -2        51        50       207      1166      1413      1414
 -1       251    8    0    1
 -2        50       206       207      1411      1415      1413
 -1       252    8    0    1
 -2        52        51       208      1167      1416      1417
 -1       253    8    0    1
 -2        51       207       208      1414      1418      1416
 -1       254    8    0    1
 -2        53        52       209      1168      1419      1420
 -1       255    8    0    1
 -2        52       208       209      1417      1421      1419
 -1       256    8    0    1
 -2        54        53       210      1169      1422      1423
 -1       257    8    0    1
 -2        53       209       210      1420      1424      1422
 -1       258    8    0    1
 -2        55        54       211      1170      1425      1426
 -1       259    8    0    1
 -2        54       210       211      1423      1427      1425
 -1       260    8    0    1
 -2        56        55       212      1171      1428      1429
 -1       261    8    0    1
 -2        55       211       212      1426      1430      1428
 -1       262    8    0    1
 -2        57        56       213      1172      1431      1432
 -1       263    8    0    1
 -2        56       212       213      1429      1433      1431
 -1       264    8    0    1
 -2        58        57       214      1173      1434      1435
 -1       265    8    0    1
 -2        57       213       214      1432      1436      1434
 -1       266    8    0    1
 -2        59        58       215      1174      1437      1438
 -1       267    8    0    1
 -2        58       214       215      1435      1439      1437
 -1       268    8    0    1
 -2        60        59       216      1175      1440      1441
 -1       269    8    0    1
 -2        59       215       216      1438      1442      1440
 -1       270    8    0    1
 -2        61        60       217      1176      1443      1444
 -1       271    8    0    1
 -2        60       216       217      1441      1445      1443
 -1       272    8    0    1
 -2        62        61       218      1177      1446      1447
 -1       273    8    0    1
 -2        61       217       218      1444      1448      1446
 -1       274    8    0    1
 -2        63        62       219      1178      1449      1450
 -1       275    8    0    1
 -2        62       218       219      1447      1451      1449
 -1       276    8    0    1
 -2        64        63       220      1179      1452      1453
 -1       277    8    0    1
 -2        63       219       220      1450      1454      1452
 -1       278    8    0    1
 -2        65        64       221      1180      1455      1456
 -1       279    8    0    1
 -2        64       220       221      1453      1457      1455
 -1       280    8    0    1
 -2        66        65       222      1181      1458      1459
 -1       281    8    0    1
 -2        65       221       222      1456      1460      1458
 -1       282    8    0    1
 -2        67        66       223      1182      1461      1462
 -1       283    8    0    1
 -2        66       222       223      1459      1463      1461
 -1       284    8    0    1
 -2        68        67       224      1183      1464      1465
 -1       285    8    0    1
 -2        67       223       224      1462      1466      1464
 -1       286    8    0    1
 -2        69        68       225      1184      1467      1468
 -1       287    8    0    1
 -2        68       224       225      1465      1469      1467
 -1       288    8    0    1
 -2        70        69       226      1185      1470      1471
 -1       289    8    0    1
 -2        69       225       226      1468      1472      1470
 -1       290    8    0    1
 -2        71        70       227      1186      1473      1474
 -1       291    8    0    1
 -2        70       226       227      1471      1475      1473
 -1       292    8    0    1
 -2         4        71       136      1187      1476      1254
 -1       293    8    0    1
 -2       136        71       227      1476      1474      1477
 -1       294    8    0    1
 -2        72        73       228      1189      1478      1479
 -1       295    8    0    1
 -2        72       228       179      1479      1480      1332
 -1       296    8    0    1
 -2        73        74       229      1190      1481      1482
 -1       297    8    0    1
 -2        73       229       228      1482      1483      1478
 -1       298    8    0    1
 -2        74        75       230      1191      1484      1485
 -1       299    8    0    1
 -2        74       230       229      1485      1486      1481
 -1       300    8    0    1
 -2        75        76       231      1192      1487      1488
 -1       301    8    0    1
 -2        75       231       230      1488      1489      1484
 -1       302    8    0    1
 -2        76        77       232      1193      1490      1491
 -1       303    8    0    1
 -2        76       232       231      1491      1492      1487
 -1       304    8    0    1
 -2        77        78       233      1194      1493      1494
 -1       305    8    0    1
 -2        77       233       232      1494      1495      1490
 -1       306    8    0    1
 -2        78        79       234      1195      1496      1497
 -1       307    8    0    1
 -2        78       234       233      1497      1498      1493
 -1       308    8    0    1
 -2        79        80       235      1196      1499      1500
 -1       309    8    0    1
 -2        79       235       234      1500      1501      1496
 -1       310    8    0    1
 -2        80        81       236      1197      1502      1503
 -1       311    8    0    1
 -2        80       236       235      1503      1504      1499
 -1       312    8    0    1
 -2        81        82       237      1198      1505      1506
 -1       313    8    0    1
 -2        81       237       236      1506      1507      1502
 -1       314    8    0    1
 -2        82        83       238      1199      1508      1509
 -1       315    8    0    1
 -2        82       238       237      1509      1510      1505
 -1       316    8    0    1
 -2        83        84       239      1200      1511      1512
 -1       317    8    0    1
 -2        83       239       238      1512      1513      1508
 -1       318    8    0    1
 -2        84        85       240      1201      1514      1515
 -1       319    8    0    1
 -2        84       240       239      1515      1516      1511
 -1       320    8    0    1
 -2        85        86       241      1202      1517      1518
 -1       321    8    0    1
 -2        85       241       240      1518      1519      1514
 -1       322    8    0    1
 -2        86        87       242      1203      1520      1521
 -1       323    8    0    1
 -2        86       242       241      1521      1522      1517
 -1       324    8    0    1
 -2        87        88       243      1204      1523      1524
 -1       325    8    0    1
 -2        87       243       242      1524      1525      1520
 -1       326    8    0    1
 -2        88        89       244      1205      1526      1527
 -1       327    8    0    1
 -2        88       244       243      1527      1528      1523
 -1       328    8    0    1
 -2        89        90       245      1206      1529      1530
 -1       329    8    0    1
 -2        89       245       244      1530      1531      1526
 -1       330    8    0    1
 -2        90        91       246      1207      1532      1533
 -1       331    8    0    1
 -2        90       246       245      1533      1534      1529
 -1       332    8    0    1
 -2        91        92       247      1208      1535      1536
 -1       333    8    0    1
 -2        91       247       246      1536      1537      1532
 -1       334    8    0    1
 -2        92        93       248      1209      1538      1539
 -1       335    8    0    1
 -2        92       248       247      1539      1540      1535
 -1       336    8    0    1
 -2        93        94       249      1210      1541      1542
 -1       337    8    0    1
 -2        93       249       248      1542      1543      1538
 -1       338    8    0    1
 -2        94        95       250      1211      1544      1545
 -1       339    8    0    1
 -2        94       250       249      1545      1546      1541
 -1       340    8    0    1
 -2        95        96       251      1212      1547      1548
 -1       341    8    0    1
 -2        95       251       250      1548      1549      1544
 -1       342    8    0    1
 -2        96        97       252      1213      1550      1551
 -1       343    8    0    1
 -2        96       252       251      1551      1552      1547
 -1       344    8    0    1
 -2        97        98       253      1214      1553      1554
 -1       345    8    0    1
 -2        97       253       252      1554      1555      1550
 -1       346    8    0    1
 -2        98        99       254      1215      1556      1557
 -1       347    8    0    1
 -2        98       254       253      1557      1558      1553
 -1       348    8    0    1
 -2        99       100       255      1216      1559      1560
 -1       349    8    0    1
 -2        99       255       254      1560      1561      1556
 -1       350    8    0    1
 -2       100       101       256      1217      1562      1563
 -1       351    8    0    1
 -2       100       256       255      1563      1564      1559
 -1       352    8    0    1
 -2       101       102       257      1218      1565      1566
 -1       353    8    0    1
 -2       101       257       256      1566      1567      1562
 -1       354    8    0    1
 -2       102       103       258      1219      1568      1569
 -1       355    8    0    1
 -2       102       258       257      1569      1570      1565
 -1       356    8    0    1
 -2       103       104       259      1220      1571      1572
 -1       357    8    0    1
 -2       103       259       258      1572      1573      1568
 -1       358    8    0    1
 -2       104       105       260      1221      1574      1575
 -1       359    8    0    1
 -2       104       260       259      1575      1576      1571
 -1       360    8    0    1
 -2       105       106       261      1222      1577      1578
 -1       361    8    0    1
 -2       105       261       260      1578      1579      1574
 -1       362    8    0    1
 -2       106       107       262      1223      1580      1581
 -1       363    8    0    1
 -2       106       262       261      1581      1582      1577
 -1       364    8    0    1
 -2       107       108       263      1224      1583      1584
 -1       365    8    0    1
 -2       107       263       262      1584      1585      1580
 -1       366    8    0    1
 -2       108       109       264      1225      1586      1587
 -1       367    8    0    1
 -2       108       264       263      1587      1588      1583
 -1       368    8    0    1
 -2       109       110       265      1226      1589      1590
 -1       369    8    0    1
 -2       109       265       264      1590      1591      1586
 -1       370    8    0    1
 -2       110       111       266      1227      1592      1593
 -1       371    8    0    1
 -2       110       266       265      1593      1594      1589
 -1       372    8    0    1
 -2       111       112       267      1228      1595      1596
 -1       373    8    0    1
 -2       111       267       266      1596      1597      1592
 -1       374    8    0    1
 -2       112       113       268      1229      1598      1599
 -1       375    8    0    1
 -2       112       268       267      1599      1600      1595
 -1       376    8    0    1
 -2       113       114       269      1230      1601      1602
 -1       377    8    0    1
 -2       113       269       268      1602      1603      1598
 -1       378    8    0    1
 -2       114       115       270      1231      1604      1605
 -1       379    8    0    1
 -2       114       270       269      1605      1606      1601
 -1       380    8    0    1
 -2       115       116       271      1232      1607      1608
 -1       381    8    0    1
 -2       115       271       270      1608      1609      1604
 -1       382    8    0    1
 -2       116       117       272      1233      1610      1611
 -1       383    8    0    1
 -2       116       272       271      1611      1612      1607
 -1       384    8    0    1
 -2       117       118       273      1234      1613      1614
 -1       385    8    0    1
 -2       117       273       272      1614      1615      1610
 -1       386    8    0    1
 -2       118       119       274      1235      1616      1617
 -1       387    8    0    1
 -2       118       274       273      1617      1618      1613
 -1       388    8    0    1
 -2       119       120       275      1236      1619      1620
 -1       389    8    0    1
 -2       119       275       274      1620      1621      1616
 -1       390    8    0    1
 -2       120         3       121      1237      1238      1622
 -1       391    8    0    1
 -2       121       122       276      1239      1623      1624
 -1       392    8    0    1
 -2       122       123       277      1240      1625      1626
 -1       393    8    0    1
 -2       122       277       276      1626      1627      1623
 -1       394    8    0    1
 -2       123       124       278      1241      1628      1629
 -1       395    8    0    1
 -2       123       278       277      1629      1630      1625
 -1       396    8    0    1
 -2       124       125       279      1242      1631      1632
 -1       397    8    0    1
 -2       124       279       278      1632      1633      1628
 -1       398    8    0    1
 -2       125       126       280      1243      1634      1635
 -1       399    8    0    1
 -2       125       280       279      1635      1636      1631
 -1       400    8    0    1
 -2       126       127       281      1244      1637      1638
 -1       401    8    0    1
 -2       126       281       280      1638      1639      1634
 -1       402    8    0    1
 -2       127       128       282      1245      1640      1641
 -1       403    8    0    1
 -2       127       282       281      1641      1642      1637
 -1       404    8    0    1
 -2       128       129       283      1246      1643      1644
 -1       405    8    0    1
 -2       128       283       282      1644      1645      1640
 -1       406    8    0    1
 -2       129       130       284      1247      1646      1647
 -1       407    8    0    1
 -2       129       284       283      1647      1648      1643
 -1       408    8    0    1
 -2       130       131       285      1248      1649      1650
 -1       409    8    0    1
 -2       130       285       284      1650      1651      1646
 -1       410    8    0    1
 -2       131       132       286      1249      1652      1653
 -1       411    8    0    1
 -2       131       286       285      1653      1654      1649
 -1       412    8    0    1
 -2       132       133       287      1250      1655      1656
 -1       413    8    0    1
 -2       132       287       286      1656      1657      1652
 -1       414    8    0    1
 -2       133       134       288      1251      1658      1659
 -1       415    8    0    1
 -2       133       288       287      1659      1660      1655
 -1       416    8    0    1
 -2       134       135       289      1252      1661      1662
 -1       417    8    0    1
 -2       134       289       288      1662      1663      1658
 -1       418    8    0    1
 -2       135       136       290      1253      1664      1665
 -1       419    8    0    1
 -2       289       135       290      1661      1665      1666
 -1       420    8    0    1
 -2       136       227       290      1477      1667      1664
 -1       421    8    0    1
 -2         2       137       291      1255      1668      1669
 -1       422    8    0    1
 -2       137       138       292      1256      1670      1671
 -1       423    8    0    1
 -2       138       139       293      1257      1672      1673
 -1       424    8    0    1
 -2       139       140       294      1258      1674      1675
 -1       425    8    0    1
 -2       140       141       295      1259      1676      1677
 -1       426    8    0    1
 -2       141       142       296      1260      1678      1679
 -1       427    8    0    1
 -2       142       143       297      1261      1680      1681
 -1       428    8    0    1
 -2       143       144       298      1262      1682      1683
 -1       429    8    0    1
 -2       144       145       299      1263      1684      1685
 -1       430    8    0    1
 -2       145       146       300      1264      1686      1687
 -1       431    8    0    1
 -2       146       147       301      1265      1688      1689
 -1       432    8    0    1
 -2       147       148       302      1266      1690      1691
 -1       433    8    0    1
 -2       148       149       303      1267      1692      1693
 -1       434    8    0    1
 -2       149       150       304      1268      1694      1695
 -1       435    8    0    1
 -2       150       151       305      1269      1696      1697
 -1       436    8    0    1
 -2       151       152       306      1270      1698      1699
 -1       437    8    0    1
 -2       152       153       307      1271      1700      1701
 -1       438    8    0    1
 -2       153       154       308      1272      1702      1703
 -1       439    8    0    1
 -2       154       155       309      1273      1704      1705
 -1       440    8    0    1
 -2       155       156       310      1274      1706      1707
 -1       441    8    0    1
 -2       156       157       311      1275      1708      1709
 -1       442    8    0    1
 -2       157       158       312      1276      1710      1711
 -1       443    8    0    1
 -2       158       159       313      1277      1712      1713
 -1       444    8    0    1
 -2       159       160       314      1278      1714      1715
 -1       445    8    0    1
 -2       160         1       315      1279      1716      1717
 -1       446    8    0    1
 -2         1       161       316      1280      1718      1719
 -1       447    8    0    1
 -2       161       162       317      1281      1720      1721
 -1       448    8    0    1
 -2       162       163       318      1282      1722      1723
 -1       449    8    0    1
 -2       163         2       319      1283      1724      1725
 -1       450    8    0    1
 -2       294       140       295      1674      1677      1726
 -1       451    8    0    1
 -2       293       139       294      1672      1675      1727
 -1       452    8    0    1
 -2       120       121       275      1622      1728      1619
 -1       453    8    0    1
 -2       121       276       275      1624      1729      1728
 -1       454    8    0    1
 -2       291       137       292      1668      1671      1730
 -1       455    8    0    1
 -2       292       138       293      1670      1673      1731
 -1       456    8    0    1
 -2         2       291       319      1669      1732      1724
 -1       457    8    0    1
 -2       141       296       295      1679      1733      1676
 -1       458    8    0    1
 -2       142       297       296      1681      1734      1678
 -1       459    8    0    1
 -2       143       298       297      1683      1735      1680
 -1       460    8    0    1
 -2       144       299       298      1685      1736      1682
 -1       461    8    0    1
 -2       145       300       299      1687      1737      1684
 -1       462    8    0    1
 -2       146       301       300      1689      1738      1686
 -1       463    8    0    1
 -2       147       302       301      1691      1739      1688
 -1       464    8    0    1
 -2       148       303       302      1693      1740      1690
 -1       465    8    0    1
 -2       149       304       303      1695      1741      1692
 -1       466    8    0    1
 -2       150       305       304      1697      1742      1694
 -1       467    8    0    1
 -2       151       306       305      1699      1743      1696
 -1       468    8    0    1
 -2       152       307       306      1701      1744      1698
 -1       469    8    0    1
 -2       153       308       307      1703      1745      1700
 -1       470    8    0    1
 -2       154       309       308      1705      1746      1702
 -1       471    8    0    1
 -2       155       310       309      1707      1747      1704
 -1       472    8    0    1
 -2       156       311       310      1709      1748      1706
 -1       473    8    0    1
 -2       157       312       311      1711      1749      1708
 -1       474    8    0    1
 -2       158       313       312      1713      1750      1710
 -1       475    8    0    1
 -2       159       314       313      1715      1751      1712
 -1       476    8    0    1
 -2       160       315       314      1717      1752      1714
 -1       477    8    0    1
 -2         1       316       315      1719      1753      1716
 -1       478    8    0    1
 -2       161       317       316      1721      1754      1718
 -1       479    8    0    1
 -2       162       318       317      1723      1755      1720
 -1       480    8    0    1
 -2       163       319       318      1725      1756      1722
 -1       481    8    0    1
 -2        23         7       164      1284      1286      1757
 -1       482    8    0    1
 -2       165       166       320      1292      1758      1759
 -1       483    8    0    1
 -2       164       165       321      1289      1760      1761
 -1       484    8    0    1
 -2       165       320       321      1759      1762      1760
 -1       485    8    0    1
 -2       167       168       322      1298      1763      1764
 -1       486    8    0    1
 -2       168       169       323      1301      1765      1766
 -1       487    8    0    1
 -2       168       323       322      1766      1767      1763
 -1       488    8    0    1
 -2       169       170       324      1304      1768      1769
 -1       489    8    0    1
 -2       169       324       323      1769      1770      1765
 -1       490    8    0    1
 -2       170       171       325      1307      1771      1772
 -1       491    8    0    1
 -2       170       325       324      1772      1773      1768
 -1       492    8    0    1
 -2       171       172       326      1310      1774      1775
 -1       493    8    0    1
 -2       171       326       325      1775      1776      1771
 -1       494    8    0    1
 -2       172       173       327      1313      1777      1778
 -1       495    8    0    1
 -2       172       327       326      1778      1779      1774
 -1       496    8    0    1
 -2       173       174       328      1316      1780      1781
 -1       497    8    0    1
 -2       173       328       327      1781      1782      1777
 -1       498    8    0    1
 -2       174       175       329      1319      1783      1784
 -1       499    8    0    1
 -2       174       329       328      1784      1785      1780
 -1       500    8    0    1
 -2       175       176       330      1322      1786      1787
 -1       501    8    0    1
 -2       175       330       329      1787      1788      1783
 -1       502    8    0    1
 -2       176       177       331      1325      1789      1790
 -1       503    8    0    1
 -2       176       331       330      1790      1791      1786
 -1       504    8    0    1
 -2       177       178       332      1328      1792      1793
 -1       505    8    0    1
 -2       177       332       331      1793      1794      1789
 -1       506    8    0    1
 -2       178       179       333      1331      1795      1796
 -1       507    8    0    1
 -2       332       178       333      1792      1796      1797
 -1       508    8    0    1
 -2       179       228       333      1480      1798      1795
 -1       509    8    0    1
 -2       180        23       164      1333      1757      1799
 -1       510    8    0    1
 -2       228       229       334      1483      1800      1801
 -1       511    8    0    1
 -2       228       334       333      1801      1802      1798
 -1       512    8    0    1
 -2       180       164       321      1799      1761      1803
 -1       513    8    0    1
 -2       182       181       335      1340      1804      1805
 -1       514    8    0    1
 -2       183       182       336      1343      1806      1807
 -1       515    8    0    1
 -2       182       335       336      1805      1808      1806
 -1       516    8    0    1
 -2       184       183       337      1346      1809      1810
 -1       517    8    0    1
 -2       183       336       337      1807      1811      1809
 -1       518    8    0    1
 -2       185       184       338      1349      1812      1813
 -1       519    8    0    1
 -2       184       337       338      1810      1814      1812
 -1       520    8    0    1
 -2       186       185       339      1352      1815      1816
 -1       521    8    0    1
 -2       185       338       339      1813      1817      1815
 -1       522    8    0    1
 -2       187       186       340      1355      1818      1819
 -1       523    8    0    1
 -2       186       339       340      1816      1820      1818
 -1       524    8    0    1
 -2       188       187       341      1358      1821      1822
 -1       525    8    0    1
 -2       187       340       341      1819      1823      1821
 -1       526    8    0    1
 -2       189       188       342      1361      1824      1825
 -1       527    8    0    1
 -2       188       341       342      1822      1826      1824
 -1       528    8    0    1
 -2       190       189       343      1364      1827      1828
 -1       529    8    0    1
 -2       189       342       343      1825      1829      1827
 -1       530    8    0    1
 -2       191       190       344      1367      1830      1831
 -1       531    8    0    1
 -2       190       343       344      1828      1832      1830
 -1       532    8    0    1
 -2       192       191       345      1370      1833      1834
 -1       533    8    0    1
 -2       191       344       345      1831      1835      1833
 -1       534    8    0    1
 -2       193       192       346      1373      1836      1837
 -1       535    8    0    1
 -2       192       345       346      1834      1838      1836
 -1       536    8    0    1
 -2       194       193       347      1376      1839      1840
 -1       537    8    0    1
 -2       193       346       347      1837      1841      1839
 -1       538    8    0    1
 -2       195       194       348      1379      1842      1843
 -1       539    8    0    1
 -2       194       347       348      1840      1844      1842
 -1       540    8    0    1
 -2       196       195       349      1382      1845      1846
 -1       541    8    0    1
 -2       195       348       349      1843      1847      1845
 -1       542    8    0    1
 -2       197       196       350      1385      1848      1849
 -1       543    8    0    1
 -2       196       349       350      1846      1850      1848
 -1       544    8    0    1
 -2       198       197       351      1388      1851      1852
 -1       545    8    0    1
 -2       197       350       351      1849      1853      1851
 -1       546    8    0    1
 -2       199       198       352      1391      1854      1855
 -1       547    8    0    1
 -2       198       351       352      1852      1856      1854
 -1       548    8    0    1
 -2       200       199       353      1394      1857      1858
 -1       549    8    0    1
 -2       199       352       353      1855      1859      1857
 -1       550    8    0    1
 -2       201       200       354      1397      1860      1861
 -1       551    8    0    1
 -2       200       353       354      1858      1862      1860
 -1       552    8    0    1
 -2       202       201       355      1400      1863      1864
 -1       553    8    0    1
 -2       201       354       355      1861      1865      1863
 -1       554    8    0    1
 -2       203       202       356      1403      1866      1867
 -1       555    8    0    1
 -2       202       355       356      1864      1868      1866
 -1       556    8    0    1
 -2       204       203       357      1406      1869      1870
 -1       557    8    0    1
 -2       203       356       357      1867      1871      1869
 -1       558    8    0    1
 -2       205       204       358      1409      1872      1873
 -1       559    8    0    1
 -2       204       357       358      1870      1874      1872
 -1       560    8    0    1
 -2       206       205       359      1412      1875      1876
 -1       561    8    0    1
 -2       205       358       359      1873      1877      1875
 -1       562    8    0    1
 -2       207       206       360      1415      1878      1879
 -1       563    8    0    1
 -2       206       359       360      1876      1880      1878
 -1       564    8    0    1
 -2       208       207       361      1418      1881      1882
 -1       565    8    0    1
 -2       207       360       361      1879      1883      1881
 -1       566    8    0    1
 -2       209       208       362      1421      1884      1885
 -1       567    8    0    1
 -2       208       361       362      1882      1886      1884
 -1       568    8    0    1
 -2       210       209       363      1424      1887      1888
 -1       569    8    0    1
 -2       209       362       363      1885      1889      1887
 -1       570    8    0    1
 -2       211       210       364      1427      1890      1891
 -1       571    8    0    1
 -2       210       363       364      1888      1892      1890
 -1       572    8    0    1
 -2       212       211       365      1430      1893      1894
 -1       573    8    0    1
 -2       211       364       365      1891      1895      1893
 -1       574    8    0    1
 -2       213       212       366      1433      1896      1897
 -1       575    8    0    1
 -2       212       365       366      1894      1898      1896
 -1       576    8    0    1
 -2       214       213       367      1436      1899      1900
 -1       577    8    0    1
 -2       213       366       367      1897      1901      1899
 -1       578    8    0    1
 -2       215       214       368      1439      1902      1903
 -1       579    8    0    1
 -2       214       367       368      1900      1904      1902
 -1       580    8    0    1
 -2       216       215       369      1442      1905      1906
 -1       581    8    0    1
 -2       215       368       369      1903      1907      1905
 -1       582    8    0    1
 -2       217       216       370      1445      1908      1909
 -1       583    8    0    1
 -2       216       369       370      1906      1910      1908
 -1       584    8    0    1
 -2       218       217       371      1448      1911      1912
 -1       585    8    0    1
 -2       217       370       371      1909      1913      1911
 -1       586    8    0    1
 -2       219       218       372      1451      1914      1915
 -1       587    8    0    1
 -2       218       371       372      1912      1916      1914
 -1       588    8    0    1
 -2       220       219       373      1454      1917      1918
 -1       589    8    0    1
 -2       219       372       373      1915      1919      1917
 -1       590    8    0    1
 -2       221       220       374      1457      1920      1921
 -1       591    8    0    1
 -2       220       373       374      1918      1922      1920
 -1       592    8    0    1
 -2       222       221       375      1460      1923      1924
 -1       593    8    0    1
 -2       221       374       375      1921      1925      1923
 -1       594    8    0    1
 -2       223       222       376      1463      1926      1927
 -1       595    8    0    1
 -2       222       375       376      1924      1928      1926
 -1       596    8    0    1
 -2       224       223       377      1466      1929      1930
 -1       597    8    0    1
 -2       223       376       377      1927      1931      1929
 -1       598    8    0    1
 -2       225       224       378      1469      1932      1933
 -1       599    8    0    1
 -2       224       377       378      1930      1934      1932
 -1       600    8    0    1
 -2       226       225       379      1472      1935      1936
 -1       601    8    0    1
 -2       225       378       379      1933      1937      1935
 -1       602    8    0    1
 -2       227       226       380      1475      1938      1939
 -1       603    8    0    1
 -2       290       227       380      1667      1939      1940
 -1       604    8    0    1
 -2       226       379       380      1936      1941      1938
 -1       605    8    0    1
 -2       229       230       381      1486      1942      1943
 -1       606    8    0    1
 -2       229       381       334      1943      1944      1800
 -1       607    8    0    1
 -2       230       231       382      1489      1945      1946
 -1       608    8    0    1
 -2       230       382       381      1946      1947      1942
 -1       609    8    0    1
 -2       231       232       383      1492      1948      1949
 -1       610    8    0    1
 -2       231       383       382      1949      1950      1945
 -1       611    8    0    1
 -2       232       233       384      1495      1951      1952
 -1       612    8    0    1
 -2       232       384       383      1952      1953      1948
 -1       613    8    0    1
 -2       233       234       385      1498      1954      1955
 -1       614    8    0    1
 -2       233       385       384      1955      1956      1951
 -1       615    8    0    1
 -2       234       235       386      1501      1957      1958
 -1       616    8    0    1
 -2       234       386       385      1958      1959      1954
 -1       617    8    0    1
 -2       235       236       387      1504      1960      1961
 -1       618    8    0    1
 -2       235       387       386      1961      1962      1957
 -1       619    8    0    1
 -2       236       237       388      1507      1963      1964
 -1       620    8    0    1
 -2       236       388       387      1964      1965      1960
 -1       621    8    0    1
 -2       237       238       389      1510      1966      1967
 -1       622    8    0    1
 -2       237       389       388      1967      1968      1963
 -1       623    8    0    1
 -2       238       239       390      1513      1969      1970
 -1       624    8    0    1
 -2       238       390       389      1970      1971      1966
 -1       625    8    0    1
 -2       239       240       391      1516      1972      1973
 -1       626    8    0    1
 -2       239       391       390      1973      1974      1969
 -1       627    8    0    1
 -2       240       241       392      1519      1975      1976
 -1       628    8    0    1
 -2       240       392       391      1976      1977      1972
 -1       629    8    0    1
 -2       241       242       393      1522      1978      1979
 -1       630    8    0    1
 -2       241       393       392      1979      1980      1975
 -1       631    8    0    1
 -2       242       243       394      1525      1981      1982
 -1       632    8    0    1
 -2       242       394       393      1982      1983      1978
 -1       633    8    0    1
 -2       243       244       395      1528      1984      1985
 -1       634    8    0    1
 -2       243       395       394      1985      1986      1981
 -1       635    8    0    1
 -2       244       245       396      1531      1987      1988
 -1       636    8    0    1
 -2       244       396       395      1988      1989      1984
 -1       637    8    0    1
 -2       245       246       397      1534      1990      1991
 -1       638    8    0    1
 -2       245       397       396      1991      1992      1987
 -1       639    8    0    1
 -2       246       247       398      1537      1993      1994
 -1       640    8    0    1
 -2       246       398       397      1994      1995      1990
 -1       641    8    0    1
 -2       247       248       399      1540      1996      1997
 -1       642    8    0    1
 -2       247       399       398      1997      1998      1993
 -1       643    8    0    1
 -2       248       249       400      1543      1999      2000
 -1       644    8    0    1
 -2       248       400       399      2000      2001      1996
 -1       645    8    0    1
 -2       249       250       401      1546      2002      2003
 -1       646    8    0    1
 -2       249       401       400      2003      2004      1999
 -1       647    8    0    1
 -2       250       251       402      1549      2005      2006
 -1       648    8    0    1
 -2       250       402       401      2006      2007      2002
 -1       649    8    0    1
 -2       251       252       403      1552      2008      2009
 -1       650    8    0    1
 -2       251       403       402      2009      2010      2005
 -1       651    8    0    1
 -2       252       253       404      1555      2011      2012
 -1       652    8    0    1
 -2       252       404       403      2012      2013      2008
 -1       653    8    0    1
 -2       253       254       405      1558      2014      2015
 -1       654    8    0    1
 -2       253       405       404      2015      2016      2011
 -1       655    8    0    1
 -2       254       255       406      1561      2017      2018
 -1       656    8    0    1
 -2       254       406       405      2018      2019      2014
 -1       657    8    0    1
 -2       255       256       407      1564      2020      2021
 -1       658    8    0    1
 -2       255       407       406      2021      2022      2017
 -1       659    8    0    1
 -2       256       257       408      1567      2023      2024
 -1       660    8    0    1
 -2       256       408       407      2024      2025      2020
 -1       661    8    0    1
 -2       257       258       409      1570      2026      2027
 -1       662    8    0    1
 -2       257       409       408      2027      2028      2023
 -1       663    8    0    1
 -2       258       259       410      1573      2029      2030
 -1       664    8    0    1
 -2       258       410       409      2030      2031      2026
 -1       665    8    0    1
 -2       259       260       411      1576      2032      2033
 -1       666    8    0    1
 -2       259       411       410      2033      2034      2029
 -1       667    8    0    1
 -2       260       261       412      1579      2035      2036
 -1       668    8    0    1
 -2       260       412       411      2036      2037      2032
 -1       669    8    0    1
 -2       261       262       413      1582      2038      2039
 -1       670    8    0    1
 -2       261       413       412      2039      2040      2035
 -1       671    8    0    1
 -2       262       263       414      1585      2041      2042
 -1       672    8    0    1
 -2       262       414       413      2042      2043      2038
 -1       673    8    0    1
 -2       263       264       415      1588      2044      2045
 -1       674    8    0    1
 -2       263       415       414      2045      2046      2041
 -1       675    8    0    1
 -2       264       265       416      1591      2047      2048
 -1       676    8    0    1
 -2       264       416       415      2048      2049      2044
 -1       677    8    0    1
 -2       265       266       417      1594      2050      2051
 -1       678    8    0    1
 -2       265       417       416      2051      2052      2047
 -1       679    8    0    1
 -2       266       267       418      1597      2053      2054
 -1       680    8    0    1
 -2       266       418       417      2054      2055      2050
 -1       681    8    0    1
 -2       267       268       419      1600      2056      2057
 -1       682    8    0    1
 -2       267       419       418      2057      2058      2053
 -1       683    8    0    1
 -2       268       269       420      1603      2059      2060
 -1       684    8    0    1
 -2       268       420       419      2060      2061      2056
 -1       685    8    0    1
 -2       269       270       421      1606      2062      2063
 -1       686    8    0    1
 -2       269       421       420      2063      2064      2059
 -1       687    8    0    1
 -2       270       271       422      1609      2065      2066
 -1       688    8    0    1
 -2       270       422       421      2066      2067      2062
 -1       689    8    0    1
 -2       271       272       423      1612      2068      2069
 -1       690    8    0    1
 -2       271       423       422      2069      2070      2065
 -1       691    8    0    1
 -2       272       273       424      1615      2071      2072
 -1       692    8    0    1
 -2       272       424       423      2072      2073      2068
 -1       693    8    0    1
 -2       273       274       425      1618      2074      2075
 -1       694    8    0    1
 -2       273       425       424      2075      2076      2071
 -1       695    8    0    1
 -2       274       275       426      1621      2077      2078
 -1       696    8    0    1
 -2       425       274       426      2074      2078      2079
 -1       697    8    0    1
 -2       275       276       426      1729      2080      2077
 -1       698    8    0    1
 -2       278       279       427      1633      2081      2082
 -1       699    8    0    1
 -2       277       278       428      1630      2083      2084
 -1       700    8    0    1
 -2       278       427       428      2082      2085      2083
 -1       701    8    0    1
 -2       276       277       429      1627      2086      2087
 -1       702    8    0    1
 -2       426       276       429      2080      2087      2088
 -1       703    8    0    1
 -2       277       428       429      2084      2089      2086
 -1       704    8    0    1
 -2       279       280       430      1636      2090      2091
 -1       705    8    0    1
 -2       279       430       427      2091      2092      2081
 -1       706    8    0    1
 -2       280       281       431      1639      2093      2094
 -1       707    8    0    1
 -2       280       431       430      2094      2095      2090
 -1       708    8    0    1
 -2       281       282       432      1642      2096      2097
 -1       709    8    0    1
 -2       281       432       431      2097      2098      2093
 -1       710    8    0    1
 -2       282       283       433      1645      2099      2100
 -1       711    8    0    1
 -2       282       433       432      2100      2101      2096
 -1       712    8    0    1
 -2       283       284       434      1648      2102      2103
 -1       713    8    0    1
 -2       283       434       433      2103      2104      2099
 -1       714    8    0    1
 -2       284       285       435      1651      2105      2106
 -1       715    8    0    1
 -2       284       435       434      2106      2107      2102
 -1       716    8    0    1
 -2       285       286       436      1654      2108      2109
 -1       717    8    0    1
 -2       285       436       435      2109      2110      2105
 -1       718    8    0    1
 -2       286       287       437      1657      2111      2112
 -1       719    8    0    1
 -2       286       437       436      2112      2113      2108
 -1       720    8    0    1
 -2       287       288       438      1660      2114      2115
 -1       721    8    0    1
 -2       287       438       437      2115      2116      2111
 -1       722    8    0    1
 -2       288       289       439      1663      2117      2118
 -1       723    8    0    1
 -2       288       439       438      2118      2119      2114
 -1       724    8    0    1
 -2       292       293       440      1731      2120      2121
 -1       725    8    0    1
 -2       319       291       441      1732      2122      2123
 -1       726    8    0    1
 -2       291       292       442      1730      2124      2125
 -1       727    8    0    1
 -2       293       294       443      1727      2126      2127
 -1       728    8    0    1
 -2       294       295       444      1726      2128      2129
 -1       729    8    0    1
 -2       166       167       445      1295      2130      2131
 -1       730    8    0    1
 -2       320       166       445      1758      2131      2132
 -1       731    8    0    1
 -2       167       322       445      1764      2133      2130
 -1       732    8    0    1
 -2       296       297       446      1734      2134      2135
 -1       733    8    0    1
 -2       297       298       447      1735      2136      2137
 -1       734    8    0    1
 -2       298       299       448      1736      2138      2139
 -1       735    8    0    1
 -2       298       448       447      2139      2140      2136
 -1       736    8    0    1
 -2       299       300       449      1737      2141      2142
 -1       737    8    0    1
 -2       300       301       450      1738      2143      2144
 -1       738    8    0    1
 -2       301       302       451      1739      2145      2146
 -1       739    8    0    1
 -2       302       303       452      1740      2147      2148
 -1       740    8    0    1
 -2       302       452       451      2148      2149      2145
 -1       741    8    0    1
 -2       303       304       453      1741      2150      2151
 -1       742    8    0    1
 -2       304       305       454      1742      2152      2153
 -1       743    8    0    1
 -2       305       306       455      1743      2154      2155
 -1       744    8    0    1
 -2       305       455       454      2155      2156      2152
 -1       745    8    0    1
 -2       306       307       456      1744      2157      2158
 -1       746    8    0    1
 -2       307       308       457      1745      2159      2160
 -1       747    8    0    1
 -2       307       457       456      2160      2161      2157
 -1       748    8    0    1
 -2       308       309       458      1746      2162      2163
 -1       749    8    0    1
 -2       309       310       459      1747      2164      2165
 -1       750    8    0    1
 -2       310       311       460      1748      2166      2167
 -1       751    8    0    1
 -2       310       460       459      2167      2168      2164
 -1       752    8    0    1
 -2       311       312       461      1749      2169      2170
 -1       753    8    0    1
 -2       312       313       462      1750      2171      2172
 -1       754    8    0    1
 -2       313       314       463      1751      2173      2174
 -1       755    8    0    1
 -2       313       463       462      2174      2175      2171
 -1       756    8    0    1
 -2       314       315       464      1752      2176      2177
 -1       757    8    0    1
 -2       315       316       465      1753      2178      2179
 -1       758    8    0    1
 -2       316       317       466      1754      2180      2181
 -1       759    8    0    1
 -2       317       318       467      1755      2182      2183
 -1       760    8    0    1
 -2       318       319       468      1756      2184      2185
 -1       761    8    0    1
 -2       295       296       469      1733      2186      2187
 -1       762    8    0    1
 -2       295       469       444      2187      2188      2128
 -1       763    8    0    1
 -2       443       294       444      2126      2129      2189
 -1       764    8    0    1
 -2       180       321       181      1803      2190      1337
 -1       765    8    0    1
 -2       296       446       469      2135      2191      2186
 -1       766    8    0    1
 -2       335       181       321      1804      2190      2192
 -1       767    8    0    1
 -2       442       292       440      2124      2121      2193
 -1       768    8    0    1
 -2       441       291       442      2122      2125      2194
 -1       769    8    0    1
 -2       439       289       290      2117      1666      2195
 -1       770    8    0    1
 -2       440       293       443      2120      2127      2196
 -1       771    8    0    1
 -2       319       441       468      2123      2197      2184
 -1       772    8    0    1
 -2       467       318       468      2182      2185      2198
 -1       773    8    0    1
 -2       466       317       467      2180      2183      2199
 -1       774    8    0    1
 -2       465       316       466      2178      2181      2200
 -1       775    8    0    1
 -2       463       314       464      2173      2177      2201
 -1       776    8    0    1
 -2       460       311       461      2166      2170      2202
 -1       777    8    0    1
 -2       457       308       458      2159      2163      2203
 -1       778    8    0    1
 -2       455       306       456      2154      2158      2204
 -1       779    8    0    1
 -2       452       303       470      2147      2205      2206
 -1       780    8    0    1
 -2       303       453       470      2151      2207      2205
 -1       781    8    0    1
 -2       450       301       451      2143      2146      2208
 -1       782    8    0    1
 -2       448       299       449      2138      2142      2209
 -1       783    8    0    1
 -2       446       297       447      2134      2137      2210
 -1       784    8    0    1
 -2       449       300       450      2141      2144      2211
 -1       785    8    0    1
 -2       453       304       454      2150      2153      2212
 -1       786    8    0    1
 -2       458       309       471      2162      2213      2214
 -1       787    8    0    1
 -2       309       459       471      2165      2215      2213
 -1       788    8    0    1
 -2       461       312       462      2169      2172      2216
 -1       789    8    0    1
 -2       464       315       465      2176      2179      2217
 -1       790    8    0    1
 -2       334       381       472      1944      2218      2219
 -1       791    8    0    1
 -2       323       324       473      1770      2220      2221
 -1       792    8    0    1
 -2       322       323       474      1767      2222      2223
 -1       793    8    0    1
 -2       323       473       474      2221      2224      2222
 -1       794    8    0    1
 -2       325       326       475      1776      2225      2226
 -1       795    8    0    1
 -2       326       327       476      1779      2227      2228
 -1       796    8    0    1
 -2       326       476       475      2228      2229      2225
 -1       797    8    0    1
 -2       327       328       477      1782      2230      2231
 -1       798    8    0    1
 -2       327       477       476      2231      2232      2227
 -1       799    8    0    1
 -2       328       329       478      1785      2233      2234
 -1       800    8    0    1
 -2       328       478       477      2234      2235      2230
 -1       801    8    0    1
 -2       329       330       479      1788      2236      2237
 -1       802    8    0    1
 -2       329       479       478      2237      2238      2233
 -1       803    8    0    1
 -2       330       331       480      1791      2239      2240
 -1       804    8    0    1
 -2       330       480       479      2240      2241      2236
 -1       805    8    0    1
 -2       443       444       481      2189      2242      2243
 -1       806    8    0    1
 -2       381       382       482      1947      2244      2245
 -1       807    8    0    1
 -2       381       482       472      2245      2246      2218
 -1       808    8    0    1
 -2       336       335       483      1808      2247      2248
 -1       809    8    0    1
 -2       469       446       484      2191      2249      2250
 -1       810    8    0    1
 -2       337       336       485      1811      2251      2252
 -1       811    8    0    1
 -2       336       483       485      2248      2253      2251
 -1       812    8    0    1
 -2       338       337       486      1814      2254      2255
 -1       813    8    0    1
 -2       337       485       486      2252      2256      2254
 -1       814    8    0    1
 -2       339       338       487      1817      2257      2258
 -1       815    8    0    1
 -2       338       486       487      2255      2259      2257
 -1       816    8    0    1
 -2       340       339       488      1820      2260      2261
 -1       817    8    0    1
 -2       339       487       488      2258      2262      2260
 -1       818    8    0    1
 -2       341       340       489      1823      2263      2264
 -1       819    8    0    1
 -2       340       488       489      2261      2265      2263
 -1       820    8    0    1
 -2       342       341       490      1826      2266      2267
 -1       821    8    0    1
 -2       341       489       490      2264      2268      2266
 -1       822    8    0    1
 -2       343       342       491      1829      2269      2270
 -1       823    8    0    1
 -2       342       490       491      2267      2271      2269
 -1       824    8    0    1
 -2       344       343       492      1832      2272      2273
 -1       825    8    0    1
 -2       343       491       492      2270      2274      2272
 -1       826    8    0    1
 -2       345       344       493      1835      2275      2276
 -1       827    8    0    1
 -2       344       492       493      2273      2277      2275
 -1       828    8    0    1
 -2       346       345       494      1838      2278      2279
 -1       829    8    0    1
 -2       345       493       494      2276      2280      2278
 -1       830    8    0    1
 -2       347       346       495      1841      2281      2282
 -1       831    8    0    1
 -2       346       494       495      2279      2283      2281
 -1       832    8    0    1
 -2       348       347       496      1844      2284      2285
 -1       833    8    0    1
 -2       347       495       496      2282      2286      2284
 -1       834    8    0    1
 -2       349       348       497      1847      2287      2288
 -1       835    8    0    1
 -2       348       496       497      2285      2289      2287
 -1       836    8    0    1
 -2       350       349       498      1850      2290      2291
 -1       837    8    0    1
 -2       349       497       498      2288      2292      2290
 -1       838    8    0    1
 -2       351       350       499      1853      2293      2294
 -1       839    8    0    1
 -2       350       498       499      2291      2295      2293
 -1       840    8    0    1
 -2       352       351       500      1856      2296      2297
 -1       841    8    0    1
 -2       351       499       500      2294      2298      2296
 -1       842    8    0    1
 -2       353       352       501      1859      2299      2300
 -1       843    8    0    1
 -2       352       500       501      2297      2301      2299
 -1       844    8    0    1
 -2       354       353       502      1862      2302      2303
 -1       845    8    0    1
 -2       353       501       502      2300      2304      2302
 -1       846    8    0    1
 -2       355       354       503      1865      2305      2306
 -1       847    8    0    1
 -2       354       502       503      2303      2307      2305
 -1       848    8    0    1
 -2       356       355       504      1868      2308      2309
 -1       849    8    0    1
 -2       355       503       504      2306      2310      2308
 -1       850    8    0    1
 -2       357       356       505      1871      2311      2312
 -1       851    8    0    1
 -2       356       504       505      2309      2313      2311
 -1       852    8    0    1
 -2       358       357       506      1874      2314      2315
 -1       853    8    0    1
 -2       357       505       506      2312      2316      2314
 -1       854    8    0    1
 -2       359       358       507      1877      2317      2318
 -1       855    8    0    1
 -2       358       506       507      2315      2319      2317
 -1       856    8    0    1
 -2       360       359       508      1880      2320      2321
 -1       857    8    0    1
 -2       359       507       508      2318      2322      2320
 -1       858    8    0    1
 -2       361       360       509      1883      2323      2324
 -1       859    8    0    1
 -2       360       508       509      2321      2325      2323
 -1       860    8    0    1
 -2       362       361       510      1886      2326      2327
 -1       861    8    0    1
 -2       361       509       510      2324      2328      2326
 -1       862    8    0    1
 -2       363       362       511      1889      2329      2330
 -1       863    8    0    1
 -2       362       510       511      2327      2331      2329
 -1       864    8    0    1
 -2       364       363       512      1892      2332      2333
 -1       865    8    0    1
 -2       363       511       512      2330      2334      2332
 -1       866    8    0    1
 -2       365       364       513      1895      2335      2336
 -1       867    8    0    1
 -2       364       512       513      2333      2337      2335
 -1       868    8    0    1
 -2       366       365       514      1898      2338      2339
 -1       869    8    0    1
 -2       365       513       514      2336      2340      2338
 -1       870    8    0    1
 -2       367       366       515      1901      2341      2342
 -1       871    8    0    1
 -2       366       514       515      2339      2343      2341
 -1       872    8    0    1
 -2       368       367       516      1904      2344      2345
 -1       873    8    0    1
 -2       367       515       516      2342      2346      2344
 -1       874    8    0    1
 -2       369       368       517      1907      2347      2348
 -1       875    8    0    1
 -2       368       516       517      2345      2349      2347
 -1       876    8    0    1
 -2       370       369       518      1910      2350      2351
 -1       877    8    0    1
 -2       369       517       518      2348      2352      2350
 -1       878    8    0    1
 -2       371       370       519      1913      2353      2354
 -1       879    8    0    1
 -2       370       518       519      2351      2355      2353
 -1       880    8    0    1
 -2       372       371       520      1916      2356      2357
 -1       881    8    0    1
 -2       371       519       520      2354      2358      2356
 -1       882    8    0    1
 -2       373       372       521      1919      2359      2360
 -1       883    8    0    1
 -2       372       520       521      2357      2361      2359
 -1       884    8    0    1
 -2       374       373       522      1922      2362      2363
 -1       885    8    0    1
 -2       373       521       522      2360      2364      2362
 -1       886    8    0    1
 -2       375       374       523      1925      2365      2366
 -1       887    8    0    1
 -2       374       522       523      2363      2367      2365
 -1       888    8    0    1
 -2       376       375       524      1928      2368      2369
 -1       889    8    0    1
 -2       375       523       524      2366      2370      2368
 -1       890    8    0    1
 -2       377       376       525      1931      2371      2372
 -1       891    8    0    1
 -2       376       524       525      2369      2373      2371
 -1       892    8    0    1
 -2       378       377       526      1934      2374      2375
 -1       893    8    0    1
 -2       377       525       526      2372      2376      2374
 -1       894    8    0    1
 -2       379       378       527      1937      2377      2378
 -1       895    8    0    1
 -2       378       526       527      2375      2379      2377
 -1       896    8    0    1
 -2       383       384       528      1953      2380      2381
 -1       897    8    0    1
 -2       384       385       529      1956      2382      2383
 -1       898    8    0    1
 -2       384       529       528      2383      2384      2380
 -1       899    8    0    1
 -2       385       386       530      1959      2385      2386
 -1       900    8    0    1
 -2       385       530       529      2386      2387      2382
 -1       901    8    0    1
 -2       386       387       531      1962      2388      2389
 -1       902    8    0    1
 -2       386       531       530      2389      2390      2385
 -1       903    8    0    1
 -2       387       388       532      1965      2391      2392
 -1       904    8    0    1
 -2       387       532       531      2392      2393      2388
 -1       905    8    0    1
 -2       388       389       533      1968      2394      2395
 -1       906    8    0    1
 -2       388       533       532      2395      2396      2391
 -1       907    8    0    1
 -2       389       390       534      1971      2397      2398
 -1       908    8    0    1
 -2       389       534       533      2398      2399      2394
 -1       909    8    0    1
 -2       390       391       535      1974      2400      2401
 -1       910    8    0    1
 -2       390       535       534      2401      2402      2397
 -1       911    8    0    1
 -2       391       392       536      1977      2403      2404
 -1       912    8    0    1
 -2       391       536       535      2404      2405      2400
 -1       913    8    0    1
 -2       392       393       537      1980      2406      2407
 -1       914    8    0    1
 -2       392       537       536      2407      2408      2403
 -1       915    8    0    1
 -2       393       394       538      1983      2409      2410
 -1       916    8    0    1
 -2       393       538       537      2410      2411      2406
 -1       917    8    0    1
 -2       394       395       539      1986      2412      2413
 -1       918    8    0    1
 -2       394       539       538      2413      2414      2409
 -1       919    8    0    1
 -2       395       396       540      1989      2415      2416
 -1       920    8    0    1
 -2       395       540       539      2416      2417      2412
 -1       921    8    0    1
 -2       396       397       541      1992      2418      2419
 -1       922    8    0    1
 -2       396       541       540      2419      2420      2415
 -1       923    8    0    1
 -2       397       398       542      1995      2421      2422
 -1       924    8    0    1
 -2       397       542       541      2422      2423      2418
 -1       925    8    0    1
 -2       398       399       543      1998      2424      2425
 -1       926    8    0    1
 -2       398       543       542      2425      2426      2421
 -1       927    8    0    1
 -2       399       400       544      2001      2427      2428
 -1       928    8    0    1
 -2       399       544       543      2428      2429      2424
 -1       929    8    0    1
 -2       400       401       545      2004      2430      2431
 -1       930    8    0    1
 -2       400       545       544      2431      2432      2427
 -1       931    8    0    1
 -2       401       402       546      2007      2433      2434
 -1       932    8    0    1
 -2       401       546       545      2434      2435      2430
 -1       933    8    0    1
 -2       402       403       547      2010      2436      2437
 -1       934    8    0    1
 -2       402       547       546      2437      2438      2433
 -1       935    8    0    1
 -2       403       404       548      2013      2439      2440
 -1       936    8    0    1
 -2       403       548       547      2440      2441      2436
 -1       937    8    0    1
 -2       404       405       549      2016      2442      2443
 -1       938    8    0    1
 -2       404       549       548      2443      2444      2439
 -1       939    8    0    1
 -2       405       406       550      2019      2445      2446
 -1       940    8    0    1
 -2       405       550       549      2446      2447      2442
 -1       941    8    0    1
 -2       406       407       551      2022      2448      2449
 -1       942    8    0    1
 -2       406       551       550      2449      2450      2445
 -1       943    8    0    1
 -2       407       408       552      2025      2451      2452
 -1       944    8    0    1
 -2       407       552       551      2452      2453      2448
 -1       945    8    0    1
 -2       408       409       553      2028      2454      2455
 -1       946    8    0    1
 -2       408       553       552      2455      2456      2451
 -1       947    8    0    1
 -2       409       410       554      2031      2457      2458
 -1       948    8    0    1
 -2       409       554       553      2458      2459      2454
 -1       949    8    0    1
 -2       410       411       555      2034      2460      2461
 -1       950    8    0    1
 -2       410       555       554      2461      2462      2457
 -1       951    8    0    1
 -2       411       412       556      2037      2463      2464
 -1       952    8    0    1
 -2       411       556       555      2464      2465      2460
 -1       953    8    0    1
 -2       412       413       557      2040      2466      2467
 -1       954    8    0    1
 -2       412       557       556      2467      2468      2463
 -1       955    8    0    1
 -2       413       414       558      2043      2469      2470
 -1       956    8    0    1
 -2       413       558       557      2470      2471      2466
 -1       957    8    0    1
 -2       414       415       559      2046      2472      2473
 -1       958    8    0    1
 -2       414       559       558      2473      2474      2469
 -1       959    8    0    1
 -2       415       416       560      2049      2475      2476
 -1       960    8    0    1
 -2       415       560       559      2476      2477      2472
 -1       961    8    0    1
 -2       416       417       561      2052      2478      2479
 -1       962    8    0    1
 -2       416       561       560      2479      2480      2475
 -1       963    8    0    1
 -2       417       418       562      2055      2481      2482
 -1       964    8    0    1
 -2       417       562       561      2482      2483      2478
 -1       965    8    0    1
 -2       418       419       563      2058      2484      2485
 -1       966    8    0    1
 -2       418       563       562      2485      2486      2481
 -1       967    8    0    1
 -2       419       420       564      2061      2487      2488
 -1       968    8    0    1
 -2       419       564       563      2488      2489      2484
 -1       969    8    0    1
 -2       420       421       565      2064      2490      2491
 -1       970    8    0    1
 -2       420       565       564      2491      2492      2487
 -1       971    8    0    1
 -2       421       422       566      2067      2493      2494
 -1       972    8    0    1
 -2       421       566       565      2494      2495      2490
 -1       973    8    0    1
 -2       422       423       567      2070      2496      2497
 -1       974    8    0    1
 -2       422       567       566      2497      2498      2493
 -1       975    8    0    1
 -2       423       424       568      2073      2499      2500
 -1       976    8    0    1
 -2       423       568       567      2500      2501      2496
 -1       977    8    0    1
 -2       424       425       569      2076      2502      2503
 -1       978    8    0    1
 -2       424       569       568      2503      2504      2499
 -1       979    8    0    1
 -2       425       426       429      2079      2088      2505
 -1       980    8    0    1
 -2       430       431       570      2095      2506      2507
 -1       981    8    0    1
 -2       431       432       571      2098      2508      2509
 -1       982    8    0    1
 -2       431       571       570      2509      2510      2506
 -1       983    8    0    1
 -2       428       427       572      2085      2511      2512
 -1       984    8    0    1
 -2       427       430       573      2092      2513      2514
 -1       985    8    0    1
 -2       572       427       573      2511      2514      2515
 -1       986    8    0    1
 -2       430       570       573      2507      2516      2513
 -1       987    8    0    1
 -2       432       433       574      2101      2517      2518
 -1       988    8    0    1
 -2       432       574       571      2518      2519      2508
 -1       989    8    0    1
 -2       433       434       575      2104      2520      2521
 -1       990    8    0    1
 -2       433       575       574      2521      2522      2517
 -1       991    8    0    1
 -2       434       435       576      2107      2523      2524
 -1       992    8    0    1
 -2       434       576       575      2524      2525      2520
 -1       993    8    0    1
 -2       435       436       577      2110      2526      2527
 -1       994    8    0    1
 -2       435       577       576      2527      2528      2523
 -1       995    8    0    1
 -2       436       437       578      2113      2529      2530
 -1       996    8    0    1
 -2       436       578       577      2530      2531      2526
 -1       997    8    0    1
 -2       437       438       579      2116      2532      2533
 -1       998    8    0    1
 -2       437       579       578      2533      2534      2529
 -1       999    8    0    1
 -2       438       439       580      2119      2535      2536
 -1      1000    8    0    1
 -2       438       580       579      2536      2537      2532
 -1      1001    8    0    1
 -2       441       442       581      2194      2538      2539
 -1      1002    8    0    1
 -2       440       443       582      2196      2540      2541
 -1      1003    8    0    1
 -2       382       383       583      1950      2542      2543
 -1      1004    8    0    1
 -2       383       528       583      2381      2544      2542
 -1      1005    8    0    1
 -2       439       290       380      2195      1940      2545
 -1      1006    8    0    1
 -2       468       441       584      2197      2546      2547
 -1      1007    8    0    1
 -2       442       440       585      2193      2548      2549
 -1      1008    8    0    1
 -2       335       321       586      2192      2550      2551
 -1      1009    8    0    1
 -2       483       335       586      2247      2551      2552
 -1      1010    8    0    1
 -2       321       320       586      1762      2553      2550
 -1      1011    8    0    1
 -2       467       468       587      2198      2554      2555
 -1      1012    8    0    1
 -2       460       461       588      2202      2556      2557
 -1      1013    8    0    1
 -2       457       458       589      2203      2558      2559
 -1      1014    8    0    1
 -2       450       451       590      2208      2560      2561
 -1      1015    8    0    1
 -2       324       325       591      1773      2562      2563
 -1      1016    8    0    1
 -2       473       324       591      2220      2563      2564
 -1      1017    8    0    1
 -2       325       475       591      2226      2565      2562
 -1      1018    8    0    1
 -2       446       447       592      2210      2566      2567
 -1      1019    8    0    1
 -2       449       450       593      2211      2568      2569
 -1      1020    8    0    1
 -2       447       448       594      2140      2570      2571
 -1      1021    8    0    1
 -2       453       454       595      2212      2572      2573
 -1      1022    8    0    1
 -2       448       449       596      2209      2574      2575
 -1      1023    8    0    1
 -2       451       452       597      2149      2576      2577
 -1      1024    8    0    1
 -2       451       597       590      2577      2578      2560
 -1      1025    8    0    1
 -2       454       455       598      2156      2579      2580
 -1      1026    8    0    1
 -2       455       456       599      2204      2581      2582
 -1      1027    8    0    1
 -2       456       457       600      2161      2583      2584
 -1      1028    8    0    1
 -2       461       462       601      2216      2585      2586
 -1      1029    8    0    1
 -2       459       460       602      2168      2587      2588
 -1      1030    8    0    1
 -2       464       465       603      2217      2589      2590
 -1      1031    8    0    1
 -2       462       463       604      2175      2591      2592
 -1      1032    8    0    1
 -2       463       464       605      2201      2593      2594
 -1      1033    8    0    1
 -2       464       603       605      2590      2595      2593
 -1      1034    8    0    1
 -2       465       466       606      2200      2596      2597
 -1      1035    8    0    1
 -2       466       467       607      2199      2598      2599
 -1      1036    8    0    1
 -2       444       469       608      2188      2600      2601
 -1      1037    8    0    1
 -2       333       334       609      1802      2602      2603
 -1      1038    8    0    1
 -2       332       333       609      1797      2603      2604
 -1      1039    8    0    1
 -2       334       472       609      2219      2605      2602
 -1      1040    8    0    1
 -2       322       474       610      2223      2606      2607
 -1      1041    8    0    1
 -2       322       610       445      2607      2608      2133
 -1      1042    8    0    1
 -2       443       481       582      2243      2609      2540
 -1      1043    8    0    1
 -2       481       444       608      2242      2601      2610
 -1      1044    8    0    1
 -2       331       332       609      1794      2604      2611
 -1      1045    8    0    1
 -2       603       465       606      2589      2597      2612
 -1      1046    8    0    1
 -2       602       460       588      2587      2557      2613
 -1      1047    8    0    1
 -2       587       468       584      2554      2547      2614
 -1      1048    8    0    1
 -2       469       484       608      2250      2615      2600
 -1      1049    8    0    1
 -2       601       462       604      2585      2592      2616
 -1      1050    8    0    1
 -2       600       457       589      2583      2559      2617
 -1      1051    8    0    1
 -2       599       456       600      2581      2584      2618
 -1      1052    8    0    1
 -2       425       429       569      2505      2619      2502
 -1      1053    8    0    1
 -2       429       428       569      2089      2620      2619
 -1      1054    8    0    1
 -2       597       452       611      2576      2621      2622
 -1      1055    8    0    1
 -2       452       470       611      2206      2623      2621
 -1      1056    8    0    1
 -2       441       581       584      2539      2624      2546
 -1      1057    8    0    1
 -2       581       442       585      2538      2549      2625
 -1      1058    8    0    1
 -2       440       582       585      2541      2626      2548
 -1      1059    8    0    1
 -2       596       449       593      2574      2569      2627
 -1      1060    8    0    1
 -2       595       454       598      2572      2580      2628
 -1      1061    8    0    1
 -2       382       583       482      2543      2629      2244
 -1      1062    8    0    1
 -2       594       448       596      2570      2575      2630
 -1      1063    8    0    1
 -2       607       467       587      2598      2555      2631
 -1      1064    8    0    1
 -2       588       461       612      2556      2632      2633
 -1      1065    8    0    1
 -2       461       601       612      2586      2634      2632
 -1      1066    8    0    1
 -2       589       458       613      2558      2635      2636
 -1      1067    8    0    1
 -2       458       471       613      2214      2637      2635
 -1      1068    8    0    1
 -2       586       320       445      2553      2132      2638
 -1      1069    8    0    1
 -2       450       590       593      2561      2639      2568
 -1      1070    8    0    1
 -2       470       453       614      2207      2640      2641
 -1      1071    8    0    1
 -2       453       595       614      2573      2642      2640
 -1      1072    8    0    1
 -2       447       594       592      2571      2643      2566
 -1      1073    8    0    1
 -2       598       455       599      2579      2582      2644
 -1      1074    8    0    1
 -2       471       459       615      2215      2645      2646
 -1      1075    8    0    1
 -2       459       602       615      2588      2647      2645
 -1      1076    8    0    1
 -2       463       605       604      2594      2648      2591
 -1      1077    8    0    1
 -2       439       380       616      2545      2649      2650
 -1      1078    8    0    1
 -2       580       439       616      2535      2650      2651
 -1      1079    8    0    1
 -2       380       379       616      1941      2652      2649
 -1      1080    8    0    1
 -2       606       466       607      2596      2599      2653
 -1      1081    8    0    1
 -2       331       609       480      2611      2654      2239
 -1      1082    8    0    1
 -2       569       428       572      2620      2512      2655
 -1      1083    8    0    1
 -2       616       379       527      2652      2378      2656
 -1      1084    8    0    1
 -2       446       592       617      2567      2657      2658
 -1      1085    8    0    1
 -2       476       477       618      2232      2659      2660
 -1      1086    8    0    1
 -2       475       476       619      2229      2661      2662
 -1      1087    8    0    1
 -2       476       618       619      2660      2663      2661
 -1      1088    8    0    1
 -2       478       479       620      2238      2664      2665
 -1      1089    8    0    1
 -2       479       480       621      2241      2666      2667
 -1      1090    8    0    1
 -2       479       621       620      2667      2668      2664
 -1      1091    8    0    1
 -2       569       572       622      2655      2669      2670
 -1      1092    8    0    1
 -2       569       622       568      2670      2671      2504
 -1      1093    8    0    1
 -2       472       482       623      2246      2672      2673
 -1      1094    8    0    1
 -2       446       617       484      2658      2674      2249
 -1      1095    8    0    1
 -2       484       617       624      2674      2675      2676
 -1      1096    8    0    1
 -2       608       484       625      2615      2677      2678
 -1      1097    8    0    1
 -2       484       624       625      2676      2679      2677
 -1      1098    8    0    1
 -2       486       485       626      2256      2680      2681
 -1      1099    8    0    1
 -2       487       486       627      2259      2682      2683
 -1      1100    8    0    1
 -2       486       626       627      2681      2684      2682
 -1      1101    8    0    1
 -2       488       487       628      2262      2685      2686
 -1      1102    8    0    1
 -2       487       627       628      2683      2687      2685
 -1      1103    8    0    1
 -2       489       488       629      2265      2688      2689
 -1      1104    8    0    1
 -2       488       628       629      2686      2690      2688
 -1      1105    8    0    1
 -2       490       489       630      2268      2691      2692
 -1      1106    8    0    1
 -2       489       629       630      2689      2693      2691
 -1      1107    8    0    1
 -2       491       490       631      2271      2694      2695
 -1      1108    8    0    1
 -2       490       630       631      2692      2696      2694
 -1      1109    8    0    1
 -2       492       491       632      2274      2697      2698
 -1      1110    8    0    1
 -2       491       631       632      2695      2699      2697
 -1      1111    8    0    1
 -2       493       492       633      2277      2700      2701
 -1      1112    8    0    1
 -2       492       632       633      2698      2702      2700
 -1      1113    8    0    1
 -2       494       493       634      2280      2703      2704
 -1      1114    8    0    1
 -2       493       633       634      2701      2705      2703
 -1      1115    8    0    1
 -2       495       494       635      2283      2706      2707
 -1      1116    8    0    1
 -2       494       634       635      2704      2708      2706
 -1      1117    8    0    1
 -2       496       495       636      2286      2709      2710
 -1      1118    8    0    1
 -2       495       635       636      2707      2711      2709
 -1      1119    8    0    1
 -2       497       496       637      2289      2712      2713
 -1      1120    8    0    1
 -2       496       636       637      2710      2714      2712
 -1      1121    8    0    1
 -2       498       497       638      2292      2715      2716
 -1      1122    8    0    1
 -2       497       637       638      2713      2717      2715
 -1      1123    8    0    1
 -2       499       498       639      2295      2718      2719
 -1      1124    8    0    1
 -2       498       638       639      2716      2720      2718
 -1      1125    8    0    1
 -2       500       499       640      2298      2721      2722
 -1      1126    8    0    1
 -2       499       639       640      2719      2723      2721
 -1      1127    8    0    1
 -2       501       500       641      2301      2724      2725
 -1      1128    8    0    1
 -2       500       640       641      2722      2726      2724
 -1      1129    8    0    1
 -2       502       501       642      2304      2727      2728
 -1      1130    8    0    1
 -2       501       641       642      2725      2729      2727
 -1      1131    8    0    1
 -2       503       502       643      2307      2730      2731
 -1      1132    8    0    1
 -2       502       642       643      2728      2732      2730
 -1      1133    8    0    1
 -2       504       503       644      2310      2733      2734
 -1      1134    8    0    1
 -2       503       643       644      2731      2735      2733
 -1      1135    8    0    1
 -2       505       504       645      2313      2736      2737
 -1      1136    8    0    1
 -2       504       644       645      2734      2738      2736
 -1      1137    8    0    1
 -2       506       505       646      2316      2739      2740
 -1      1138    8    0    1
 -2       505       645       646      2737      2741      2739
 -1      1139    8    0    1
 -2       507       506       647      2319      2742      2743
 -1      1140    8    0    1
 -2       506       646       647      2740      2744      2742
 -1      1141    8    0    1
 -2       508       507       648      2322      2745      2746
 -1      1142    8    0    1
 -2       507       647       648      2743      2747      2745
 -1      1143    8    0    1
 -2       509       508       649      2325      2748      2749
 -1      1144    8    0    1
 -2       508       648       649      2746      2750      2748
 -1      1145    8    0    1
 -2       510       509       650      2328      2751      2752
 -1      1146    8    0    1
 -2       509       649       650      2749      2753      2751
 -1      1147    8    0    1
 -2       511       510       651      2331      2754      2755
 -1      1148    8    0    1
 -2       510       650       651      2752      2756      2754
 -1      1149    8    0    1
 -2       512       511       652      2334      2757      2758
 -1      1150    8    0    1
 -2       511       651       652      2755      2759      2757
 -1      1151    8    0    1
 -2       513       512       653      2337      2760      2761
 -1      1152    8    0    1
 -2       512       652       653      2758      2762      2760
 -1      1153    8    0    1
 -2       514       513       654      2340      2763      2764
 -1      1154    8    0    1
 -2       513       653       654      2761      2765      2763
 -1      1155    8    0    1
 -2       515       514       655      2343      2766      2767
 -1      1156    8    0    1
 -2       514       654       655      2764      2768      2766
 -1      1157    8    0    1
 -2       516       515       656      2346      2769      2770
 -1      1158    8    0    1
 -2       515       655       656      2767      2771      2769
 -1      1159    8    0    1
 -2       517       516       657      2349      2772      2773
 -1      1160    8    0    1
 -2       516       656       657      2770      2774      2772
 -1      1161    8    0    1
 -2       518       517       658      2352      2775      2776
 -1      1162    8    0    1
 -2       517       657       658      2773      2777      2775
 -1      1163    8    0    1
 -2       519       518       659      2355      2778      2779
 -1      1164    8    0    1
 -2       518       658       659      2776      2780      2778
 -1      1165    8    0    1
 -2       520       519       660      2358      2781      2782
 -1      1166    8    0    1
 -2       519       659       660      2779      2783      2781
 -1      1167    8    0    1
 -2       521       520       661      2361      2784      2785
 -1      1168    8    0    1
 -2       520       660       661      2782      2786      2784
 -1      1169    8    0    1
 -2       522       521       662      2364      2787      2788
 -1      1170    8    0    1
 -2       521       661       662      2785      2789      2787
 -1      1171    8    0    1
 -2       523       522       663      2367      2790      2791
 -1      1172    8    0    1
 -2       522       662       663      2788      2792      2790
 -1      1173    8    0    1
 -2       524       523       664      2370      2793      2794
 -1      1174    8    0    1
 -2       523       663       664      2791      2795      2793
 -1      1175    8    0    1
 -2       525       524       665      2373      2796      2797
 -1      1176    8    0    1
 -2       524       664       665      2794      2798      2796
 -1      1177    8    0    1
 -2       526       525       666      2376      2799      2800
 -1      1178    8    0    1
 -2       525       665       666      2797      2801      2799
 -1      1179    8    0    1
 -2       527       526       667      2379      2802      2803
 -1      1180    8    0    1
 -2       526       666       667      2800      2804      2802
 -1      1181    8    0    1
 -2       529       530       668      2387      2805      2806
 -1      1182    8    0    1
 -2       606       607       669      2653      2807      2808
 -1      1183    8    0    1
 -2       528       529       670      2384      2809      2810
 -1      1184    8    0    1
 -2       529       668       670      2806      2811      2809
 -1      1185    8    0    1
 -2       531       532       671      2393      2812      2813
 -1      1186    8    0    1
 -2       533       534       596      2399      2814      2815
 -1      1187    8    0    1
 -2       534       535       592      2402      2816      2817
 -1      1188    8    0    1
 -2       535       536       592      2405      2818      2816
 -1      1189    8    0    1
 -2       536       537       624      2408      2819      2820
 -1      1190    8    0    1
 -2       537       538       672      2411      2821      2822
 -1      1191    8    0    1
 -2       538       539       673      2414      2823      2824
 -1      1192    8    0    1
 -2       538       673       672      2824      2825      2821
 -1      1193    8    0    1
 -2       539       540       674      2417      2826      2827
 -1      1194    8    0    1
 -2       539       674       673      2827      2828      2823
 -1      1195    8    0    1
 -2       540       541       675      2420      2829      2830
 -1      1196    8    0    1
 -2       540       675       674      2830      2831      2826
 -1      1197    8    0    1
 -2       541       542       676      2423      2832      2833
 -1      1198    8    0    1
 -2       541       676       675      2833      2834      2829
 -1      1199    8    0    1
 -2       542       543       677      2426      2835      2836
 -1      1200    8    0    1
 -2       542       677       676      2836      2837      2832
 -1      1201    8    0    1
 -2       543       544       678      2429      2838      2839
 -1      1202    8    0    1
 -2       543       678       677      2839      2840      2835
 -1      1203    8    0    1
 -2       544       545       679      2432      2841      2842
 -1      1204    8    0    1
 -2       544       679       678      2842      2843      2838
 -1      1205    8    0    1
 -2       545       546       680      2435      2844      2845
 -1      1206    8    0    1
 -2       545       680       679      2845      2846      2841
 -1      1207    8    0    1
 -2       546       547       681      2438      2847      2848
 -1      1208    8    0    1
 -2       546       681       680      2848      2849      2844
 -1      1209    8    0    1
 -2       547       548       682      2441      2850      2851
 -1      1210    8    0    1
 -2       547       682       681      2851      2852      2847
 -1      1211    8    0    1
 -2       548       549       683      2444      2853      2854
 -1      1212    8    0    1
 -2       548       683       682      2854      2855      2850
 -1      1213    8    0    1
 -2       549       550       684      2447      2856      2857
 -1      1214    8    0    1
 -2       549       684       683      2857      2858      2853
 -1      1215    8    0    1
 -2       550       551       685      2450      2859      2860
 -1      1216    8    0    1
 -2       550       685       684      2860      2861      2856
 -1      1217    8    0    1
 -2       551       552       686      2453      2862      2863
 -1      1218    8    0    1
 -2       551       686       685      2863      2864      2859
 -1      1219    8    0    1
 -2       552       553       687      2456      2865      2866
 -1      1220    8    0    1
 -2       552       687       686      2866      2867      2862
 -1      1221    8    0    1
 -2       553       554       688      2459      2868      2869
 -1      1222    8    0    1
 -2       553       688       687      2869      2870      2865
 -1      1223    8    0    1
 -2       554       555       689      2462      2871      2872
 -1      1224    8    0    1
 -2       554       689       688      2872      2873      2868
 -1      1225    8    0    1
 -2       555       556       690      2465      2874      2875
 -1      1226    8    0    1
 -2       555       690       689      2875      2876      2871
 -1      1227    8    0    1
 -2       556       557       691      2468      2877      2878
 -1      1228    8    0    1
 -2       556       691       690      2878      2879      2874
 -1      1229    8    0    1
 -2       557       558       692      2471      2880      2881
 -1      1230    8    0    1
 -2       557       692       691      2881      2882      2877
 -1      1231    8    0    1
 -2       558       559       693      2474      2883      2884
 -1      1232    8    0    1
 -2       558       693       692      2884      2885      2880
 -1      1233    8    0    1
 -2       559       560       694      2477      2886      2887
 -1      1234    8    0    1
 -2       559       694       693      2887      2888      2883
 -1      1235    8    0    1
 -2       560       561       695      2480      2889      2890
 -1      1236    8    0    1
 -2       560       695       694      2890      2891      2886
 -1      1237    8    0    1
 -2       561       562       696      2483      2892      2893
 -1      1238    8    0    1
 -2       561       696       695      2893      2894      2889
 -1      1239    8    0    1
 -2       562       563       697      2486      2895      2896
 -1      1240    8    0    1
 -2       562       697       696      2896      2897      2892
 -1      1241    8    0    1
 -2       563       564       698      2489      2898      2899
 -1      1242    8    0    1
 -2       563       698       697      2899      2900      2895
 -1      1243    8    0    1
 -2       564       565       699      2492      2901      2902
 -1      1244    8    0    1
 -2       564       699       698      2902      2903      2898
 -1      1245    8    0    1
 -2       565       566       700      2495      2904      2905
 -1      1246    8    0    1
 -2       565       700       699      2905      2906      2901
 -1      1247    8    0    1
 -2       566       567       701      2498      2907      2908
 -1      1248    8    0    1
 -2       566       701       700      2908      2909      2904
 -1      1249    8    0    1
 -2       567       568       702      2501      2910      2911
 -1      1250    8    0    1
 -2       701       567       702      2907      2911      2912
 -1      1251    8    0    1
 -2       568       622       702      2671      2913      2910
 -1      1252    8    0    1
 -2       574       575       703      2522      2914      2915
 -1      1253    8    0    1
 -2       616       527       704      2656      2916      2917
 -1      1254    8    0    1
 -2       527       667       704      2803      2918      2916
 -1      1255    8    0    1
 -2       570       571       705      2510      2919      2920
 -1      1256    8    0    1
 -2       575       576       706      2525      2921      2922
 -1      1257    8    0    1
 -2       575       706       703      2922      2923      2914
 -1      1258    8    0    1
 -2       571       574       707      2519      2924      2925
 -1      1259    8    0    1
 -2       705       571       707      2919      2925      2926
 -1      1260    8    0    1
 -2       574       703       707      2915      2927      2924
 -1      1261    8    0    1
 -2       481       608       708      2610      2928      2929
 -1      1262    8    0    1
 -2       608       625       708      2678      2930      2928
 -1      1263    8    0    1
 -2       576       577       709      2528      2931      2932
 -1      1264    8    0    1
 -2       576       709       706      2932      2933      2921
 -1      1265    8    0    1
 -2       577       578       710      2531      2934      2935
 -1      1266    8    0    1
 -2       577       710       709      2935      2936      2931
 -1      1267    8    0    1
 -2       578       579       711      2534      2937      2938
 -1      1268    8    0    1
 -2       578       711       710      2938      2939      2934
 -1      1269    8    0    1
 -2       581       585       712      2625      2940      2941
 -1      1270    8    0    1
 -2       585       582       713      2626      2942      2943
 -1      1271    8    0    1
 -2       483       586       714      2552      2944      2945
 -1      1272    8    0    1
 -2       609       472       480      2605      2946      2654
 -1      1273    8    0    1
 -2       601       604       715      2616      2947      2948
 -1      1274    8    0    1
 -2       605       603       716      2595      2949      2950
 -1      1275    8    0    1
 -2       587       584       717      2614      2951      2952
 -1      1276    8    0    1
 -2       482       583       718      2629      2953      2954
 -1      1277    8    0    1
 -2       482       718       623      2954      2955      2672
 -1      1278    8    0    1
 -2       599       600       719      2618      2956      2957
 -1      1279    8    0    1
 -2       583       528       720      2544      2958      2959
 -1      1280    8    0    1
 -2       718       583       720      2953      2959      2960
 -1      1281    8    0    1
 -2       528       670       720      2810      2961      2958
 -1      1282    8    0    1
 -2       584       581       721      2624      2962      2963
 -1      1283    8    0    1
 -2       530       531       722      2390      2964      2965
 -1      1284    8    0    1
 -2       668       530       722      2805      2965      2966
 -1      1285    8    0    1
 -2       531       671       722      2813      2967      2964
 -1      1286    8    0    1
 -2       485       483       723      2253      2968      2969
 -1      1287    8    0    1
 -2       626       485       723      2680      2969      2970
 -1      1288    8    0    1
 -2       483       714       723      2945      2971      2968
 -1      1289    8    0    1
 -2       582       481       724      2609      2972      2973
 -1      1290    8    0    1
 -2       481       708       724      2929      2974      2972
 -1      1291    8    0    1
 -2       593       590       725      2639      2975      2976
 -1      1292    8    0    1
 -2       595       598       726      2628      2977      2978
 -1      1293    8    0    1
 -2       477       478       727      2235      2979      2980
 -1      1294    8    0    1
 -2       618       477       727      2659      2980      2981
 -1      1295    8    0    1
 -2       478       620       727      2665      2982      2979
 -1      1296    8    0    1
 -2       607       587       728      2631      2983      2984
 -1      1297    8    0    1
 -2       607       728       669      2984      2985      2807
 -1      1298    8    0    1
 -2       590       597       729      2578      2986      2987
 -1      1299    8    0    1
 -2       586       445       714      2638      2988      2944
 -1      1300    8    0    1
 -2       474       473       730      2224      2989      2990
 -1      1301    8    0    1
 -2       604       605       731      2648      2991      2992
 -1      1302    8    0    1
 -2       602       588       732      2613      2993      2994
 -1      1303    8    0    1
 -2       598       599       733      2644      2995      2996
 -1      1304    8    0    1
 -2       598       733       726      2996      2997      2977
 -1      1305    8    0    1
 -2       600       589       734      2617      2998      2999
 -1      1306    8    0    1
 -2       603       606       735      2612      3000      3001
 -1      1307    8    0    1
 -2       606       669       735      2808      3002      3000
 -1      1308    8    0    1
 -2       580       616       704      2651      2917      3003
 -1      1309    8    0    1
 -2       533       596       736      2815      3004      3005
 -1      1310    8    0    1
 -2       532       533       736      2396      3005      3006
 -1      1311    8    0    1
 -2       596       593       736      2627      3007      3004
 -1      1312    8    0    1
 -2       475       619       737      2662      3008      3009
 -1      1313    8    0    1
 -2       475       737       591      3009      3010      2565
 -1      1314    8    0    1
 -2       593       725       736      2976      3011      3007
 -1      1315    8    0    1
 -2       622       572       573      2669      2515      3012
 -1      1316    8    0    1
 -2       599       719       733      2957      3013      2995
 -1      1317    8    0    1
 -2       610       474       738      2606      3014      3015
 -1      1318    8    0    1
 -2       474       730       738      2990      3016      3014
 -1      1319    8    0    1
 -2       570       705       739      2920      3017      3018
 -1      1320    8    0    1
 -2       570       739       573      3018      3019      2516
 -1      1321    8    0    1
 -2       580       704       579      3003      3020      2537
 -1      1322    8    0    1
 -2       584       721       717      2963      3021      2951
 -1      1323    8    0    1
 -2       671       532       736      2812      3006      3022
 -1      1324    8    0    1
 -2       534       592       594      2817      2643      3023
 -1      1325    8    0    1
 -2       624       537       625      2819      3024      2679
 -1      1326    8    0    1
 -2       537       672       625      2822      3025      3024
 -1      1327    8    0    1
 -2       728       587       740      2983      3026      3027
 -1      1328    8    0    1
 -2       587       717       740      2952      3028      3026
 -1      1329    8    0    1
 -2       713       582       741      2942      3029      3030
 -1      1330    8    0    1
 -2       582       724       741      2973      3031      3029
 -1      1331    8    0    1
 -2       611       470       742      2623      3032      3033
 -1      1332    8    0    1
 -2       470       614       742      2641      3034      3032
 -1      1333    8    0    1
 -2       732       588       743      2993      3035      3036
 -1      1334    8    0    1
 -2       588       612       743      2633      3037      3035
 -1      1335    8    0    1
 -2       581       712       721      2941      3038      2962
 -1      1336    8    0    1
 -2       711       579       704      2937      3020      3039
 -1      1337    8    0    1
 -2       712       585       713      2940      2943      3040
 -1      1338    8    0    1
 -2       716       603       735      2949      3001      3041
 -1      1339    8    0    1
 -2       480       472       623      2946      2673      3042
 -1      1340    8    0    1
 -2       715       604       731      2947      2992      3043
 -1      1341    8    0    1
 -2       605       716       731      2950      3044      2991
 -1      1342    8    0    1
 -2       612       601       744      2634      3045      3046
 -1      1343    8    0    1
 -2       601       715       744      2948      3047      3045
 -1      1344    8    0    1
 -2       613       471       745      2637      3048      3049
 -1      1345    8    0    1
 -2       471       615       745      2646      3050      3048
 -1      1346    8    0    1
 -2       719       600       746      2956      3051      3052
 -1      1347    8    0    1
 -2       600       734       746      2999      3053      3051
 -1      1348    8    0    1
 -2       614       595       747      2642      3054      3055
 -1      1349    8    0    1
 -2       595       726       747      2978      3056      3054
 -1      1350    8    0    1
 -2       596       534       594      2814      3023      2630
 -1      1351    8    0    1
 -2       473       591       748      2564      3057      3058
 -1      1352    8    0    1
 -2       730       473       748      2989      3058      3059
 -1      1353    8    0    1
 -2       591       737       748      3010      3060      3057
 -1      1354    8    0    1
 -2       725       590       729      2975      2987      3061
 -1      1355    8    0    1
 -2       729       597       611      2986      2622      3062
 -1      1356    8    0    1
 -2       714       445       610      2988      2608      3063
 -1      1357    8    0    1
 -2       615       602       732      2647      2994      3064
 -1      1358    8    0    1
 -2       589       613       749      2636      3065      3066
 -1      1359    8    0    1
 -2       589       749       734      3066      3067      2998
 -1      1360    8    0    1
 -2       480       623       621      3042      3068      2666
 -1      1361    8    0    1
 -2       669       728       750      2985      3069      3070
 -1      1362    8    0    1
 -2       620       621       751      2668      3071      3072
 -1      1363    8    0    1
 -2       706       709       752      2933      3073      3074
 -1      1364    8    0    1
 -2       724       708       753      2974      3075      3076
 -1      1365    8    0    1
 -2       628       627       754      2687      3077      3078
 -1      1366    8    0    1
 -2       629       628       755      2690      3079      3080
 -1      1367    8    0    1
 -2       628       754       755      3078      3081      3079
 -1      1368    8    0    1
 -2       630       629       756      2693      3082      3083
 -1      1369    8    0    1
 -2       629       755       756      3080      3084      3082
 -1      1370    8    0    1
 -2       631       630       757      2696      3085      3086
 -1      1371    8    0    1
 -2       630       756       757      3083      3087      3085
 -1      1372    8    0    1
 -2       632       631       758      2699      3088      3089
 -1      1373    8    0    1
 -2       631       757       758      3086      3090      3088
 -1      1374    8    0    1
 -2       633       632       743      2702      3091      3092
 -1      1375    8    0    1
 -2       634       633       744      2705      3093      3094
 -1      1376    8    0    1
 -2       635       634       744      2708      3094      3095
 -1      1377    8    0    1
 -2       636       635       759      2711      3096      3097
 -1      1378    8    0    1
 -2       637       636       760      2714      3098      3099
 -1      1379    8    0    1
 -2       636       759       760      3097      3100      3098
 -1      1380    8    0    1
 -2       638       637       761      2717      3101      3102
 -1      1381    8    0    1
 -2       637       760       761      3099      3103      3101
 -1      1382    8    0    1
 -2       639       638       762      2720      3104      3105
 -1      1383    8    0    1
 -2       638       761       762      3102      3106      3104
 -1      1384    8    0    1
 -2       640       639       763      2723      3107      3108
 -1      1385    8    0    1
 -2       639       762       763      3105      3109      3107
 -1      1386    8    0    1
 -2       641       640       764      2726      3110      3111
 -1      1387    8    0    1
 -2       640       763       764      3108      3112      3110
 -1      1388    8    0    1
 -2       642       641       765      2729      3113      3114
 -1      1389    8    0    1
 -2       641       764       765      3111      3115      3113
 -1      1390    8    0    1
 -2       643       642       766      2732      3116      3117
 -1      1391    8    0    1
 -2       642       765       766      3114      3118      3116
 -1      1392    8    0    1
 -2       644       643       767      2735      3119      3120
 -1      1393    8    0    1
 -2       643       766       767      3117      3121      3119
 -1      1394    8    0    1
 -2       645       644       768      2738      3122      3123
 -1      1395    8    0    1
 -2       644       767       768      3120      3124      3122
 -1      1396    8    0    1
 -2       646       645       769      2741      3125      3126
 -1      1397    8    0    1
 -2       645       768       769      3123      3127      3125
 -1      1398    8    0    1
 -2       647       646       770      2744      3128      3129
 -1      1399    8    0    1
 -2       646       769       770      3126      3130      3128
 -1      1400    8    0    1
 -2       648       647       771      2747      3131      3132
 -1      1401    8    0    1
 -2       647       770       771      3129      3133      3131
 -1      1402    8    0    1
 -2       649       648       772      2750      3134      3135
 -1      1403    8    0    1
 -2       648       771       772      3132      3136      3134
 -1      1404    8    0    1
 -2       650       649       773      2753      3137      3138
 -1      1405    8    0    1
 -2       649       772       773      3135      3139      3137
 -1      1406    8    0    1
 -2       651       650       774      2756      3140      3141
 -1      1407    8    0    1
 -2       650       773       774      3138      3142      3140
 -1      1408    8    0    1
 -2       652       651       775      2759      3143      3144
 -1      1409    8    0    1
 -2       651       774       775      3141      3145      3143
 -1      1410    8    0    1
 -2       653       652       776      2762      3146      3147
 -1      1411    8    0    1
 -2       652       775       776      3144      3148      3146
 -1      1412    8    0    1
 -2       654       653       777      2765      3149      3150
 -1      1413    8    0    1
 -2       653       776       777      3147      3151      3149
 -1      1414    8    0    1
 -2       655       654       778      2768      3152      3153
 -1      1415    8    0    1
 -2       654       777       778      3150      3154      3152
 -1      1416    8    0    1
 -2       656       655       779      2771      3155      3156
 -1      1417    8    0    1
 -2       655       778       779      3153      3157      3155
 -1      1418    8    0    1
 -2       657       656       780      2774      3158      3159
 -1      1419    8    0    1
 -2       656       779       780      3156      3160      3158
 -1      1420    8    0    1
 -2       658       657       781      2777      3161      3162
 -1      1421    8    0    1
 -2       657       780       781      3159      3163      3161
 -1      1422    8    0    1
 -2       659       658       782      2780      3164      3165
 -1      1423    8    0    1
 -2       658       781       782      3162      3166      3164
 -1      1424    8    0    1
 -2       660       659       783      2783      3167      3168
 -1      1425    8    0    1
 -2       659       782       783      3165      3169      3167
 -1      1426    8    0    1
 -2       661       660       784      2786      3170      3171
 -1      1427    8    0    1
 -2       660       783       784      3168      3172      3170
 -1      1428    8    0    1
 -2       662       661       785      2789      3173      3174
 -1      1429    8    0    1
 -2       661       784       785      3171      3175      3173
 -1      1430    8    0    1
 -2       663       662       786      2792      3176      3177
 -1      1431    8    0    1
 -2       662       785       786      3174      3178      3176
 -1      1432    8    0    1
 -2       664       663       787      2795      3179      3180
 -1      1433    8    0    1
 -2       663       786       787      3177      3181      3179
 -1      1434    8    0    1
 -2       665       664       788      2798      3182      3183
 -1      1435    8    0    1
 -2       664       787       788      3180      3184      3182
 -1      1436    8    0    1
 -2       666       665       789      2801      3185      3186
 -1      1437    8    0    1
 -2       665       788       789      3183      3187      3185
 -1      1438    8    0    1
 -2       667       666       790      2804      3188      3189
 -1      1439    8    0    1
 -2       666       789       790      3186      3190      3188
 -1      1440    8    0    1
 -2       735       669       791      3002      3191      3192
 -1      1441    8    0    1
 -2       669       750       791      3070      3193      3191
 -1      1442    8    0    1
 -2       592       536       624      2818      2820      3194
 -1      1443    8    0    1
 -2       672       673       753      2825      3195      3196
 -1      1444    8    0    1
 -2       675       676       792      2834      3197      3198
 -1      1445    8    0    1
 -2       676       677       793      2837      3199      3200
 -1      1446    8    0    1
 -2       676       793       792      3200      3201      3197
 -1      1447    8    0    1
 -2       677       678       794      2840      3202      3203
 -1      1448    8    0    1
 -2       677       794       793      3203      3204      3199
 -1      1449    8    0    1
 -2       678       679       795      2843      3205      3206
 -1      1450    8    0    1
 -2       678       795       794      3206      3207      3202
 -1      1451    8    0    1
 -2       679       680       796      2846      3208      3209
 -1      1452    8    0    1
 -2       679       796       795      3209      3210      3205
 -1      1453    8    0    1
 -2       680       681       797      2849      3211      3212
 -1      1454    8    0    1
 -2       680       797       796      3212      3213      3208
 -1      1455    8    0    1
 -2       681       682       798      2852      3214      3215
 -1      1456    8    0    1
 -2       681       798       797      3215      3216      3211
 -1      1457    8    0    1
 -2       682       683       799      2855      3217      3218
 -1      1458    8    0    1
 -2       682       799       798      3218      3219      3214
 -1      1459    8    0    1
 -2       683       684       800      2858      3220      3221
 -1      1460    8    0    1
 -2       683       800       799      3221      3222      3217
 -1      1461    8    0    1
 -2       684       685       801      2861      3223      3224
 -1      1462    8    0    1
 -2       684       801       800      3224      3225      3220
 -1      1463    8    0    1
 -2       685       686       802      2864      3226      3227
 -1      1464    8    0    1
 -2       685       802       801      3227      3228      3223
 -1      1465    8    0    1
 -2       686       687       803      2867      3229      3230
 -1      1466    8    0    1
 -2       686       803       802      3230      3231      3226
 -1      1467    8    0    1
 -2       687       688       804      2870      3232      3233
 -1      1468    8    0    1
 -2       687       804       803      3233      3234      3229
 -1      1469    8    0    1
 -2       688       689       805      2873      3235      3236
 -1      1470    8    0    1
 -2       688       805       804      3236      3237      3232
 -1      1471    8    0    1
 -2       689       690       806      2876      3238      3239
 -1      1472    8    0    1
 -2       689       806       805      3239      3240      3235
 -1      1473    8    0    1
 -2       690       691       807      2879      3241      3242
 -1      1474    8    0    1
 -2       690       807       806      3242      3243      3238
 -1      1475    8    0    1
 -2       691       692       808      2882      3244      3245
 -1      1476    8    0    1
 -2       691       808       807      3245      3246      3241
 -1      1477    8    0    1
 -2       692       693       809      2885      3247      3248
 -1      1478    8    0    1
 -2       692       809       808      3248      3249      3244
 -1      1479    8    0    1
 -2       693       694       810      2888      3250      3251
 -1      1480    8    0    1
 -2       693       810       809      3251      3252      3247
 -1      1481    8    0    1
 -2       694       695       811      2891      3253      3254
 -1      1482    8    0    1
 -2       694       811       810      3254      3255      3250
 -1      1483    8    0    1
 -2       695       696       812      2894      3256      3257
 -1      1484    8    0    1
 -2       695       812       811      3257      3258      3253
 -1      1485    8    0    1
 -2       696       697       813      2897      3259      3260
 -1      1486    8    0    1
 -2       696       813       812      3260      3261      3256
 -1      1487    8    0    1
 -2       697       698       814      2900      3262      3263
 -1      1488    8    0    1
 -2       697       814       813      3263      3264      3259
 -1      1489    8    0    1
 -2       698       699       815      2903      3265      3266
 -1      1490    8    0    1
 -2       698       815       814      3266      3267      3262
 -1      1491    8    0    1
 -2       699       700       816      2906      3268      3269
 -1      1492    8    0    1
 -2       699       816       815      3269      3270      3265
 -1      1493    8    0    1
 -2       700       701       817      2909      3271      3272
 -1      1494    8    0    1
 -2       700       817       816      3272      3273      3268
 -1      1495    8    0    1
 -2       715       731       759      3043      3274      3275
 -1      1496    8    0    1
 -2       708       625       672      2930      3025      3276
 -1      1497    8    0    1
 -2       703       706       818      2923      3277      3278
 -1      1498    8    0    1
 -2       706       752       818      3074      3279      3277
 -1      1499    8    0    1
 -2       733       719       819      3013      3280      3281
 -1      1500    8    0    1
 -2       710       711       820      2939      3282      3283
 -1      1501    8    0    1
 -2       717       721       821      3021      3284      3285
 -1      1502    8    0    1
 -2       671       736       725      3022      3011      3286
 -1      1503    8    0    1
 -2       709       710       822      2936      3287      3288
 -1      1504    8    0    1
 -2       752       709       822      3073      3288      3289
 -1      1505    8    0    1
 -2       710       820       822      3283      3290      3287
 -1      1506    8    0    1
 -2       674       675       823      2831      3291      3292
 -1      1507    8    0    1
 -2       675       792       823      3198      3293      3291
 -1      1508    8    0    1
 -2       716       735       824      3041      3294      3295
 -1      1509    8    0    1
 -2       735       791       824      3192      3296      3294
 -1      1510    8    0    1
 -2       673       674       825      2828      3297      3298
 -1      1511    8    0    1
 -2       753       673       825      3195      3298      3299
 -1      1512    8    0    1
 -2       674       823       825      3292      3300      3297
 -1      1513    8    0    1
 -2       712       713       826      3040      3301      3302
 -1      1514    8    0    1
 -2       721       712       827      3038      3303      3304
 -1      1515    8    0    1
 -2       721       827       821      3304      3305      3284
 -1      1516    8    0    1
 -2       670       668       828      2811      3306      3307
 -1      1517    8    0    1
 -2       729       611       829      3062      3308      3309
 -1      1518    8    0    1
 -2       714       610       738      3063      3015      3310
 -1      1519    8    0    1
 -2       726       733       830      2997      3311      3312
 -1      1520    8    0    1
 -2       621       623       831      3068      3313      3314
 -1      1521    8    0    1
 -2       751       621       831      3071      3314      3315
 -1      1522    8    0    1
 -2       623       718       831      2955      3316      3313
 -1      1523    8    0    1
 -2       627       626       832      2684      3317      3318
 -1      1524    8    0    1
 -2       627       832       754      3318      3319      3077
 -1      1525    8    0    1
 -2       615       732       833      3064      3320      3321
 -1      1526    8    0    1
 -2       708       672       753      3276      3196      3075
 -1      1527    8    0    1
 -2       671       725       834      3286      3322      3323
 -1      1528    8    0    1
 -2       722       671       834      2967      3323      3324
 -1      1529    8    0    1
 -2       725       729       834      3061      3325      3322
 -1      1530    8    0    1
 -2       619       618       835      2663      3326      3327
 -1      1531    8    0    1
 -2       622       573       739      3012      3019      3328
 -1      1532    8    0    1
 -2       620       751       836      3072      3329      3330
 -1      1533    8    0    1
 -2       620       836       727      3330      3331      2982
 -1      1534    8    0    1
 -2       733       819       830      3281      3332      3311
 -1      1535    8    0    1
 -2       738       730       837      3016      3333      3334
 -1      1536    8    0    1
 -2       739       705       838      3017      3335      3336
 -1      1537    8    0    1
 -2       724       753       825      3076      3299      3337
 -1      1538    8    0    1
 -2       632       758       743      3089      3338      3091
 -1      1539    8    0    1
 -2       635       744       759      3095      3339      3096
 -1      1540    8    0    1
 -2       723       714       738      2971      3310      3340
 -1      1541    8    0    1
 -2       737       619       839      3008      3341      3342
 -1      1542    8    0    1
 -2       619       835       839      3327      3343      3341
 -1      1543    8    0    1
 -2       826       713       741      3301      3030      3344
 -1      1544    8    0    1
 -2       740       717       840      3028      3345      3346
 -1      1545    8    0    1
 -2       717       821       840      3285      3347      3345
 -1      1546    8    0    1
 -2       716       824       760      3295      3348      3349
 -1      1547    8    0    1
 -2       817       701       841      3271      3350      3351
 -1      1548    8    0    1
 -2       701       702       841      2912      3352      3350
 -1      1549    8    0    1
 -2       759       731       760      3274      3353      3100
 -1      1550    8    0    1
 -2       760       731       716      3353      3044      3349
 -1      1551    8    0    1
 -2       705       707       842      2926      3354      3355
 -1      1552    8    0    1
 -2       705       842       838      3355      3356      3335
 -1      1553    8    0    1
 -2       704       667       711      2918      3357      3039
 -1      1554    8    0    1
 -2       726       830       843      3312      3358      3359
 -1      1555    8    0    1
 -2       726       843       747      3359      3360      3056
 -1      1556    8    0    1
 -2       741       724       825      3031      3337      3361
 -1      1557    8    0    1
 -2       819       719       844      3280      3362      3363
 -1      1558    8    0    1
 -2       719       746       844      3052      3364      3362
 -1      1559    8    0    1
 -2       707       703       845      2927      3365      3366
 -1      1560    8    0    1
 -2       842       707       845      3354      3366      3367
 -1      1561    8    0    1
 -2       703       818       845      3278      3368      3365
 -1      1562    8    0    1
 -2       712       826       827      3302      3369      3303
 -1      1563    8    0    1
 -2       742       614       846      3034      3370      3371
 -1      1564    8    0    1
 -2       614       747       846      3055      3372      3370
 -1      1565    8    0    1
 -2       720       670       847      2961      3373      3374
 -1      1566    8    0    1
 -2       670       828       847      3307      3375      3373
 -1      1567    8    0    1
 -2       829       611       742      3308      3033      3376
 -1      1568    8    0    1
 -2       745       615       833      3050      3321      3377
 -1      1569    8    0    1
 -2       746       734       848      3053      3378      3379
 -1      1570    8    0    1
 -2       734       749       848      3067      3380      3378
 -1      1571    8    0    1
 -2       834       729       829      3325      3309      3381
 -1      1572    8    0    1
 -2       718       720       849      2960      3382      3383
 -1      1573    8    0    1
 -2       831       718       849      3316      3383      3384
 -1      1574    8    0    1
 -2       720       847       849      3374      3385      3382
 -1      1575    8    0    1
 -2       835       618       850      3326      3386      3387
 -1      1576    8    0    1
 -2       618       727       850      2981      3388      3386
 -1      1577    8    0    1
 -2       668       722       851      2966      3389      3390
 -1      1578    8    0    1
 -2       828       668       851      3306      3390      3391
 -1      1579    8    0    1
 -2       722       834       851      3324      3392      3389
 -1      1580    8    0    1
 -2       626       723       852      2970      3393      3394
 -1      1581    8    0    1
 -2       626       852       832      3394      3395      3317
 -1      1582    8    0    1
 -2       732       743       758      3036      3338      3396
 -1      1583    8    0    1
 -2       730       748       853      3059      3397      3398
 -1      1584    8    0    1
 -2       730       853       837      3398      3399      3333
 -1      1585    8    0    1
 -2       728       740       854      3027      3400      3401
 -1      1586    8    0    1
 -2       728       854       750      3401      3402      3069
 -1      1587    8    0    1
 -2       749       613       855      3065      3403      3404
 -1      1588    8    0    1
 -2       613       745       855      3049      3405      3403
 -1      1589    8    0    1
 -2       622       739       856      3328      3406      3407
 -1      1590    8    0    1
 -2       702       622       856      2913      3407      3408
 -1      1591    8    0    1
 -2       739       838       856      3336      3409      3406
 -1      1592    8    0    1
 -2       711       667       790      3357      3189      3410
 -1      1593    8    0    1
 -2       711       790       820      3410      3411      3282
 -1      1594    8    0    1
 -2       633       743       744      3092      3412      3093
 -1      1595    8    0    1
 -2       756       755       857      3084      3413      3414
 -1      1596    8    0    1
 -2       757       756       855      3087      3415      3416
 -1      1597    8    0    1
 -2       723       738       852      3340      3417      3393
 -1      1598    8    0    1
 -2       820       790       858      3411      3418      3419
 -1      1599    8    0    1
 -2       790       789       858      3190      3420      3418
 -1      1600    8    0    1
 -2       761       760       824      3103      3348      3421
 -1      1601    8    0    1
 -2       763       762       859      3109      3422      3423
 -1      1602    8    0    1
 -2       764       763       860      3112      3424      3425
 -1      1603    8    0    1
 -2       763       859       860      3423      3426      3424
 -1      1604    8    0    1
 -2       765       764       861      3115      3427      3428
 -1      1605    8    0    1
 -2       764       860       861      3425      3429      3427
 -1      1606    8    0    1
 -2       766       765       862      3118      3430      3431
 -1      1607    8    0    1
 -2       765       861       862      3428      3432      3430
 -1      1608    8    0    1
 -2       767       766       863      3121      3433      3434
 -1      1609    8    0    1
 -2       766       862       863      3431      3435      3433
 -1      1610    8    0    1
 -2       768       767       864      3124      3436      3437
 -1      1611    8    0    1
 -2       767       863       864      3434      3438      3436
 -1      1612    8    0    1
 -2       769       768       865      3127      3439      3440
 -1      1613    8    0    1
 -2       768       864       865      3437      3441      3439
 -1      1614    8    0    1
 -2       770       769       866      3130      3442      3443
 -1      1615    8    0    1
 -2       769       865       866      3440      3444      3442
 -1      1616    8    0    1
 -2       771       770       867      3133      3445      3446
 -1      1617    8    0    1
 -2       770       866       867      3443      3447      3445
 -1      1618    8    0    1
 -2       772       771       868      3136      3448      3449
 -1      1619    8    0    1
 -2       771       867       868      3446      3450      3448
 -1      1620    8    0    1
 -2       773       772       869      3139      3451      3452
 -1      1621    8    0    1
 -2       772       868       869      3449      3453      3451
 -1      1622    8    0    1
 -2       774       773       870      3142      3454      3455
 -1      1623    8    0    1
 -2       773       869       870      3452      3456      3454
 -1      1624    8    0    1
 -2       775       774       871      3145      3457      3458
 -1      1625    8    0    1
 -2       774       870       871      3455      3459      3457
 -1      1626    8    0    1
 -2       776       775       872      3148      3460      3461
 -1      1627    8    0    1
 -2       775       871       872      3458      3462      3460
 -1      1628    8    0    1
 -2       777       776       873      3151      3463      3464
 -1      1629    8    0    1
 -2       776       872       873      3461      3465      3463
 -1      1630    8    0    1
 -2       778       777       874      3154      3466      3467
 -1      1631    8    0    1
 -2       777       873       874      3464      3468      3466
 -1      1632    8    0    1
 -2       779       778       875      3157      3469      3470
 -1      1633    8    0    1
 -2       778       874       875      3467      3471      3469
 -1      1634    8    0    1
 -2       780       779       876      3160      3472      3473
 -1      1635    8    0    1
 -2       779       875       876      3470      3474      3472
 -1      1636    8    0    1
 -2       781       780       877      3163      3475      3476
 -1      1637    8    0    1
 -2       780       876       877      3473      3477      3475
 -1      1638    8    0    1
 -2       782       781       878      3166      3478      3479
 -1      1639    8    0    1
 -2       781       877       878      3476      3480      3478
 -1      1640    8    0    1
 -2       783       782       879      3169      3481      3482
 -1      1641    8    0    1
 -2       782       878       879      3479      3483      3481
 -1      1642    8    0    1
 -2       784       783       880      3172      3484      3485
 -1      1643    8    0    1
 -2       783       879       880      3482      3486      3484
 -1      1644    8    0    1
 -2       785       784       881      3175      3487      3488
 -1      1645    8    0    1
 -2       784       880       881      3485      3489      3487
 -1      1646    8    0    1
 -2       786       785       882      3178      3490      3491
 -1      1647    8    0    1
 -2       785       881       882      3488      3492      3490
 -1      1648    8    0    1
 -2       787       786       883      3181      3493      3494
 -1      1649    8    0    1
 -2       786       882       883      3491      3495      3493
 -1      1650    8    0    1
 -2       788       787       884      3184      3496      3497
 -1      1651    8    0    1
 -2       787       883       884      3494      3498      3496
 -1      1652    8    0    1
 -2       789       788       885      3187      3499      3500
 -1      1653    8    0    1
 -2       858       789       885      3420      3500      3501
 -1      1654    8    0    1
 -2       788       884       885      3497      3502      3499
 -1      1655    8    0    1
 -2       761       824       886      3421      3503      3504
 -1      1656    8    0    1
 -2       762       761       886      3106      3504      3505
 -1      1657    8    0    1
 -2       824       791       886      3296      3506      3503
 -1      1658    8    0    1
 -2       791       750       887      3193      3507      3508
 -1      1659    8    0    1
 -2       886       791       887      3506      3508      3509
 -1      1660    8    0    1
 -2       750       854       887      3402      3510      3507
 -1      1661    8    0    1
 -2       793       794       888      3204      3511      3512
 -1      1662    8    0    1
 -2       792       793       889      3201      3513      3514
 -1      1663    8    0    1
 -2       793       888       889      3512      3515      3513
 -1      1664    8    0    1
 -2       795       796       890      3210      3516      3517
 -1      1665    8    0    1
 -2       796       797       891      3213      3518      3519
 -1      1666    8    0    1
 -2       796       891       890      3519      3520      3516
 -1      1667    8    0    1
 -2       797       798       892      3216      3521      3522
 -1      1668    8    0    1
 -2       797       892       891      3522      3523      3518
 -1      1669    8    0    1
 -2       798       799       893      3219      3524      3525
 -1      1670    8    0    1
 -2       798       893       892      3525      3526      3521
 -1      1671    8    0    1
 -2       799       800       894      3222      3527      3528
 -1      1672    8    0    1
 -2       799       894       893      3528      3529      3524
 -1      1673    8    0    1
 -2       800       801       895      3225      3530      3531
 -1      1674    8    0    1
 -2       800       895       894      3531      3532      3527
 -1      1675    8    0    1
 -2       801       802       896      3228      3533      3534
 -1      1676    8    0    1
 -2       801       896       895      3534      3535      3530
 -1      1677    8    0    1
 -2       802       803       897      3231      3536      3537
 -1      1678    8    0    1
 -2       802       897       896      3537      3538      3533
 -1      1679    8    0    1
 -2       803       804       898      3234      3539      3540
 -1      1680    8    0    1
 -2       803       898       897      3540      3541      3536
 -1      1681    8    0    1
 -2       804       805       899      3237      3542      3543
 -1      1682    8    0    1
 -2       804       899       898      3543      3544      3539
 -1      1683    8    0    1
 -2       805       806       900      3240      3545      3546
 -1      1684    8    0    1
 -2       805       900       899      3546      3547      3542
 -1      1685    8    0    1
 -2       806       807       901      3243      3548      3549
 -1      1686    8    0    1
 -2       806       901       900      3549      3550      3545
 -1      1687    8    0    1
 -2       807       808       902      3246      3551      3552
 -1      1688    8    0    1
 -2       807       902       901      3552      3553      3548
 -1      1689    8    0    1
 -2       808       809       903      3249      3554      3555
 -1      1690    8    0    1
 -2       808       903       902      3555      3556      3551
 -1      1691    8    0    1
 -2       809       810       904      3252      3557      3558
 -1      1692    8    0    1
 -2       809       904       903      3558      3559      3554
 -1      1693    8    0    1
 -2       810       811       905      3255      3560      3561
 -1      1694    8    0    1
 -2       810       905       904      3561      3562      3557
 -1      1695    8    0    1
 -2       811       812       906      3258      3563      3564
 -1      1696    8    0    1
 -2       811       906       905      3564      3565      3560
 -1      1697    8    0    1
 -2       812       813       907      3261      3566      3567
 -1      1698    8    0    1
 -2       812       907       906      3567      3568      3563
 -1      1699    8    0    1
 -2       813       814       908      3264      3569      3570
 -1      1700    8    0    1
 -2       813       908       907      3570      3571      3566
 -1      1701    8    0    1
 -2       814       815       909      3267      3572      3573
 -1      1702    8    0    1
 -2       814       909       908      3573      3574      3569
 -1      1703    8    0    1
 -2       815       816       910      3270      3575      3576
 -1      1704    8    0    1
 -2       815       910       909      3576      3577      3572
 -1      1705    8    0    1
 -2       816       817       911      3273      3578      3579
 -1      1706    8    0    1
 -2       816       911       910      3579      3580      3575
 -1      1707    8    0    1
 -2       748       737       912      3060      3581      3582
 -1      1708    8    0    1
 -2       748       912       853      3582      3583      3397
 -1      1709    8    0    1
 -2       818       752       913      3279      3584      3585
 -1      1710    8    0    1
 -2       743       612       744      3037      3046      3412
 -1      1711    8    0    1
 -2       827       826       914      3369      3586      3587
 -1      1712    8    0    1
 -2       826       741       915      3344      3588      3589
 -1      1713    8    0    1
 -2       825       823       915      3300      3590      3591
 -1      1714    8    0    1
 -2       829       742       916      3376      3592      3593
 -1      1715    8    0    1
 -2       742       846       916      3371      3594      3592
 -1      1716    8    0    1
 -2       754       832       917      3319      3595      3596
 -1      1717    8    0    1
 -2       741       825       915      3361      3591      3588
 -1      1718    8    0    1
 -2       821       827       918      3305      3597      3598
 -1      1719    8    0    1
 -2       830       819       919      3332      3599      3600
 -1      1720    8    0    1
 -2       794       795       920      3207      3601      3602
 -1      1721    8    0    1
 -2       888       794       920      3511      3602      3603
 -1      1722    8    0    1
 -2       795       890       920      3517      3604      3601
 -1      1723    8    0    1
 -2       823       792       921      3293      3605      3606
 -1      1724    8    0    1
 -2       915       823       921      3590      3606      3607
 -1      1725    8    0    1
 -2       792       889       921      3514      3608      3605
 -1      1726    8    0    1
 -2       755       754       922      3081      3609      3610
 -1      1727    8    0    1
 -2       755       922       857      3610      3611      3413
 -1      1728    8    0    1
 -2       738       837       852      3334      3612      3417
 -1      1729    8    0    1
 -2       732       758       833      3396      3613      3320
 -1      1730    8    0    1
 -2       834       829       851      3381      3614      3392
 -1      1731    8    0    1
 -2       751       831       923      3315      3615      3616
 -1      1732    8    0    1
 -2       831       849       923      3384      3617      3615
 -1      1733    8    0    1
 -2       617       592       624      2657      3194      2675
 -1      1734    8    0    1
 -2       833       758       757      3613      3090      3618
 -1      1735    8    0    1
 -2       855       756       857      3415      3414      3619
 -1      1736    8    0    1
 -2       819       844       924      3363      3620      3621
 -1      1737    8    0    1
 -2       819       924       919      3621      3622      3599
 -1      1738    8    0    1
 -2       833       757       745      3618      3623      3377
 -1      1739    8    0    1
 -2       852       837       925      3612      3624      3625
 -1      1740    8    0    1
 -2       852       925       832      3625      3626      3395
 -1      1741    8    0    1
 -2       837       853       926      3399      3627      3628
 -1      1742    8    0    1
 -2       837       926       925      3628      3629      3624
 -1      1743    8    0    1
 -2       859       762       886      3422      3505      3630
 -1      1744    8    0    1
 -2       839       835       927      3343      3631      3632
 -1      1745    8    0    1
 -2       841       702       856      3352      3408      3633
 -1      1746    8    0    1
 -2       840       821       918      3347      3598      3634
 -1      1747    8    0    1
 -2       817       841       928      3351      3635      3636
 -1      1748    8    0    1
 -2       817       928       911      3636      3637      3578
 -1      1749    8    0    1
 -2       912       737       839      3581      3342      3638
 -1      1750    8    0    1
 -2       715       759       744      3275      3339      3047
 -1      1751    8    0    1
 -2       843       830       929      3358      3639      3640
 -1      1752    8    0    1
 -2       830       919       929      3600      3641      3639
 -1      1753    8    0    1
 -2       844       746       930      3364      3642      3643
 -1      1754    8    0    1
 -2       913       752       931      3584      3644      3645
 -1      1755    8    0    1
 -2       752       822       931      3289      3646      3644
 -1      1756    8    0    1
 -2       922       754       917      3609      3596      3647
 -1      1757    8    0    1
 -2       845       818       932      3368      3648      3649
 -1      1758    8    0    1
 -2       818       913       932      3585      3650      3648
 -1      1759    8    0    1
 -2       846       747       933      3372      3651      3652
 -1      1760    8    0    1
 -2       747       843       933      3360      3653      3651
 -1      1761    8    0    1
 -2       847       828       934      3375      3654      3655
 -1      1762    8    0    1
 -2       838       842       935      3356      3656      3657
 -1      1763    8    0    1
 -2       826       915       936      3589      3658      3659
 -1      1764    8    0    1
 -2       914       826       936      3586      3659      3660
 -1      1765    8    0    1
 -2       915       921       936      3607      3661      3658
 -1      1766    8    0    1
 -2       822       820       858      3290      3419      3662
 -1      1767    8    0    1
 -2       727       836       850      3331      3663      3388
 -1      1768    8    0    1
 -2       918       827       914      3597      3587      3664
 -1      1769    8    0    1
 -2       829       916       851      3593      3665      3614
 -1      1770    8    0    1
 -2       832       925       917      3626      3666      3595
 -1      1771    8    0    1
 -2       740       840       937      3346      3667      3668
 -1      1772    8    0    1
 -2       740       937       854      3668      3669      3400
 -1      1773    8    0    1
 -2       927       835       938      3631      3670      3671
 -1      1774    8    0    1
 -2       835       850       938      3387      3672      3670
 -1      1775    8    0    1
 -2       930       746       848      3642      3379      3673
 -1      1776    8    0    1
 -2       838       935       928      3657      3674      3675
 -1      1777    8    0    1
 -2       751       923       836      3616      3676      3329
 -1      1778    8    0    1
 -2       828       851       916      3391      3665      3677
 -1      1779    8    0    1
 -2       828       916       934      3677      3678      3654
 -1      1780    8    0    1
 -2       822       858       931      3662      3679      3646
 -1      1781    8    0    1
 -2       859       886       887      3630      3509      3680
 -1      1782    8    0    1
 -2       839       927       939      3632      3681      3682
 -1      1783    8    0    1
 -2       839       939       912      3682      3683      3638
 -1      1784    8    0    1
 -2       861       860       940      3429      3684      3685
 -1      1785    8    0    1
 -2       862       861       941      3432      3686      3687
 -1      1786    8    0    1
 -2       861       940       941      3685      3688      3686
 -1      1787    8    0    1
 -2       863       862       942      3435      3689      3690
 -1      1788    8    0    1
 -2       862       941       942      3687      3691      3689
 -1      1789    8    0    1
 -2       864       863       943      3438      3692      3693
 -1      1790    8    0    1
 -2       863       942       943      3690      3694      3692
 -1      1791    8    0    1
 -2       865       864       944      3441      3695      3696
 -1      1792    8    0    1
 -2       864       943       944      3693      3697      3695
 -1      1793    8    0    1
 -2       866       865       945      3444      3698      3699
 -1      1794    8    0    1
 -2       865       944       945      3696      3700      3698
 -1      1795    8    0    1
 -2       867       866       946      3447      3701      3702
 -1      1796    8    0    1
 -2       866       945       946      3699      3703      3701
 -1      1797    8    0    1
 -2       868       867       947      3450      3704      3705
 -1      1798    8    0    1
 -2       867       946       947      3702      3706      3704
 -1      1799    8    0    1
 -2       869       868       948      3453      3707      3708
 -1      1800    8    0    1
 -2       868       947       948      3705      3709      3707
 -1      1801    8    0    1
 -2       870       869       949      3456      3710      3711
 -1      1802    8    0    1
 -2       869       948       949      3708      3712      3710
 -1      1803    8    0    1
 -2       871       870       950      3459      3713      3714
 -1      1804    8    0    1
 -2       870       949       950      3711      3715      3713
 -1      1805    8    0    1
 -2       872       871       951      3462      3716      3717
 -1      1806    8    0    1
 -2       871       950       951      3714      3718      3716
 -1      1807    8    0    1
 -2       873       872       952      3465      3719      3720
 -1      1808    8    0    1
 -2       872       951       952      3717      3721      3719
 -1      1809    8    0    1
 -2       874       873       953      3468      3722      3723
 -1      1810    8    0    1
 -2       873       952       953      3720      3724      3722
 -1      1811    8    0    1
 -2       875       874       954      3471      3725      3726
 -1      1812    8    0    1
 -2       874       953       954      3723      3727      3725
 -1      1813    8    0    1
 -2       876       875       955      3474      3728      3729
 -1      1814    8    0    1
 -2       875       954       955      3726      3730      3728
 -1      1815    8    0    1
 -2       877       876       956      3477      3731      3732
 -1      1816    8    0    1
 -2       876       955       956      3729      3733      3731
 -1      1817    8    0    1
 -2       878       877       957      3480      3734      3735
 -1      1818    8    0    1
 -2       877       956       957      3732      3736      3734
 -1      1819    8    0    1
 -2       879       878       958      3483      3737      3738
 -1      1820    8    0    1
 -2       878       957       958      3735      3739      3737
 -1      1821    8    0    1
 -2       880       879       959      3486      3740      3741
 -1      1822    8    0    1
 -2       879       958       959      3738      3742      3740
 -1      1823    8    0    1
 -2       881       880       960      3489      3743      3744
 -1      1824    8    0    1
 -2       880       959       960      3741      3745      3743
 -1      1825    8    0    1
 -2       882       881       961      3492      3746      3747
 -1      1826    8    0    1
 -2       881       960       961      3744      3748      3746
 -1      1827    8    0    1
 -2       883       882       962      3495      3749      3750
 -1      1828    8    0    1
 -2       882       961       962      3747      3751      3749
 -1      1829    8    0    1
 -2       884       883       963      3498      3752      3753
 -1      1830    8    0    1
 -2       883       962       963      3750      3754      3752
 -1      1831    8    0    1
 -2       892       893       964      3526      3755      3756
 -1      1832    8    0    1
 -2       889       888       965      3515      3757      3758
 -1      1833    8    0    1
 -2       857       922       966      3611      3759      3760
 -1      1834    8    0    1
 -2       891       892       967      3523      3761      3762
 -1      1835    8    0    1
 -2       892       964       967      3756      3763      3761
 -1      1836    8    0    1
 -2       890       891       968      3520      3764      3765
 -1      1837    8    0    1
 -2       891       967       968      3762      3766      3764
 -1      1838    8    0    1
 -2       893       894       969      3529      3767      3768
 -1      1839    8    0    1
 -2       893       969       964      3768      3769      3755
 -1      1840    8    0    1
 -2       894       895       970      3532      3770      3771
 -1      1841    8    0    1
 -2       894       970       969      3771      3772      3767
 -1      1842    8    0    1
 -2       895       896       971      3535      3773      3774
 -1      1843    8    0    1
 -2       895       971       970      3774      3775      3770
 -1      1844    8    0    1
 -2       896       897       972      3538      3776      3777
 -1      1845    8    0    1
 -2       896       972       971      3777      3778      3773
 -1      1846    8    0    1
 -2       897       898       973      3541      3779      3780
 -1      1847    8    0    1
 -2       897       973       972      3780      3781      3776
 -1      1848    8    0    1
 -2       898       899       974      3544      3782      3783
 -1      1849    8    0    1
 -2       898       974       973      3783      3784      3779
 -1      1850    8    0    1
 -2       899       900       975      3547      3785      3786
 -1      1851    8    0    1
 -2       899       975       974      3786      3787      3782
 -1      1852    8    0    1
 -2       900       901       976      3550      3788      3789
 -1      1853    8    0    1
 -2       900       976       975      3789      3790      3785
 -1      1854    8    0    1
 -2       901       902       977      3553      3791      3792
 -1      1855    8    0    1
 -2       901       977       976      3792      3793      3788
 -1      1856    8    0    1
 -2       902       903       978      3556      3794      3795
 -1      1857    8    0    1
 -2       902       978       977      3795      3796      3791
 -1      1858    8    0    1
 -2       903       904       979      3559      3797      3798
 -1      1859    8    0    1
 -2       903       979       978      3798      3799      3794
 -1      1860    8    0    1
 -2       904       905       980      3562      3800      3801
 -1      1861    8    0    1
 -2       904       980       979      3801      3802      3797
 -1      1862    8    0    1
 -2       905       906       981      3565      3803      3804
 -1      1863    8    0    1
 -2       905       981       980      3804      3805      3800
 -1      1864    8    0    1
 -2       906       907       982      3568      3806      3807
 -1      1865    8    0    1
 -2       906       982       981      3807      3808      3803
 -1      1866    8    0    1
 -2       907       908       983      3571      3809      3810
 -1      1867    8    0    1
 -2       907       983       982      3810      3811      3806
 -1      1868    8    0    1
 -2       908       909       984      3574      3812      3813
 -1      1869    8    0    1
 -2       908       984       983      3813      3814      3809
 -1      1870    8    0    1
 -2       909       910       985      3577      3815      3816
 -1      1871    8    0    1
 -2       909       985       984      3816      3817      3812
 -1      1872    8    0    1
 -2       910       911       986      3580      3818      3819
 -1      1873    8    0    1
 -2       910       986       985      3819      3820      3815
 -1      1874    8    0    1
 -2       853       912       987      3583      3821      3822
 -1      1875    8    0    1
 -2       926       853       987      3627      3822      3823
 -1      1876    8    0    1
 -2       912       939       987      3683      3824      3821
 -1      1877    8    0    1
 -2       935       842       988      3656      3825      3826
 -1      1878    8    0    1
 -2       842       845       988      3367      3827      3825
 -1      1879    8    0    1
 -2       836       923       989      3676      3828      3829
 -1      1880    8    0    1
 -2       911       928       990      3637      3830      3831
 -1      1881    8    0    1
 -2       986       911       990      3818      3831      3832
 -1      1882    8    0    1
 -2       928       935       990      3674      3833      3830
 -1      1883    8    0    1
 -2       918       914       991      3664      3834      3835
 -1      1884    8    0    1
 -2       922       917       992      3647      3836      3837
 -1      1885    8    0    1
 -2       922       992       966      3837      3838      3759
 -1      1886    8    0    1
 -2       745       757       855      3623      3416      3405
 -1      1887    8    0    1
 -2       849       847       993      3385      3839      3840
 -1      1888    8    0    1
 -2       923       849       993      3617      3840      3841
 -1      1889    8    0    1
 -2       847       934       993      3655      3842      3839
 -1      1890    8    0    1
 -2       844       930       994      3643      3843      3844
 -1      1891    8    0    1
 -2       844       994       924      3844      3845      3620
 -1      1892    8    0    1
 -2       930       848       995      3673      3846      3847
 -1      1893    8    0    1
 -2       838       928       856      3675      3848      3409
 -1      1894    8    0    1
 -2       850       836       989      3663      3829      3849
 -1      1895    8    0    1
 -2       749       855       996      3404      3850      3851
 -1      1896    8    0    1
 -2       917       925       997      3666      3852      3853
 -1      1897    8    0    1
 -2       992       917       997      3836      3853      3854
 -1      1898    8    0    1
 -2       925       926       997      3629      3855      3852
 -1      1899    8    0    1
 -2       840       918       998      3634      3856      3857
 -1      1900    8    0    1
 -2       749       996       848      3851      3858      3380
 -1      1901    8    0    1
 -2       848       996       995      3858      3859      3846
 -1      1902    8    0    1
 -2       939       927       999      3681      3860      3861
 -1      1903    8    0    1
 -2       988       845       932      3827      3649      3862
 -1      1904    8    0    1
 -2       921       889      1000      3608      3863      3864
 -1      1905    8    0    1
 -2       936       921      1000      3661      3864      3865
 -1      1906    8    0    1
 -2       889       965      1000      3758      3866      3863
 -1      1907    8    0    1
 -2       860       859      1001      3426      3867      3868
 -1      1908    8    0    1
 -2       887       854      1002      3510      3869      3870
 -1      1909    8    0    1
 -2       940       860      1001      3684      3868      3871
 -1      1910    8    0    1
 -2       884       963      1003      3753      3872      3873
 -1      1911    8    0    1
 -2       884      1003       885      3873      3874      3502
 -1      1912    8    0    1
 -2       916       846      1004      3594      3875      3876
 -1      1913    8    0    1
 -2       841       856       928      3633      3848      3635
 -1      1914    8    0    1
 -2       858       885      1005      3501      3877      3878
 -1      1915    8    0    1
 -2       931       858      1005      3679      3878      3879
 -1      1916    8    0    1
 -2       885      1003      1005      3874      3880      3877
 -1      1917    8    0    1
 -2       990       935      1006      3833      3881      3882
 -1      1918    8    0    1
 -2       935       988      1006      3826      3883      3881
 -1      1919    8    0    1
 -2       890       968      1007      3765      3884      3885
 -1      1920    8    0    1
 -2       890      1007       920      3885      3886      3604
 -1      1921    8    0    1
 -2       918       991      1008      3835      3887      3888
 -1      1922    8    0    1
 -2       918      1008       998      3888      3889      3856
 -1      1923    8    0    1
 -2       913       931      1009      3645      3890      3891
 -1      1924    8    0    1
 -2       931      1005      1009      3879      3892      3890
 -1      1925    8    0    1
 -2       989       923       993      3828      3841      3893
 -1      1926    8    0    1
 -2       932       913      1010      3650      3894      3895
 -1      1927    8    0    1
 -2       913      1009      1010      3891      3896      3894
 -1      1928    8    0    1
 -2       933       843      1011      3653      3897      3898
 -1      1929    8    0    1
 -2       843       929      1011      3640      3899      3897
 -1      1930    8    0    1
 -2       914       936      1000      3660      3865      3900
 -1      1931    8    0    1
 -2       937       840       998      3667      3857      3901
 -1      1932    8    0    1
 -2       854       937      1002      3669      3902      3869
 -1      1933    8    0    1
 -2       914      1000       991      3900      3903      3834
 -1      1934    8    0    1
 -2       938       850       989      3672      3849      3904
 -1      1935    8    0    1
 -2       934       916      1004      3678      3876      3905
 -1      1936    8    0    1
 -2       888       920      1012      3603      3906      3907
 -1      1937    8    0    1
 -2       920      1007      1012      3886      3908      3906
 -1      1938    8    0    1
 -2       919       924      1013      3622      3909      3910
 -1      1939    8    0    1
 -2       846       933      1004      3652      3911      3875
 -1      1940    8    0    1
 -2       927       938      1014      3671      3912      3913
 -1      1941    8    0    1
 -2       927      1014       999      3913      3914      3860
 -1      1942    8    0    1
 -2       934      1004      1015      3905      3915      3916
 -1      1943    8    0    1
 -2       994       930       966      3843      3917      3918
 -1      1944    8    0    1
 -2       934      1015       993      3916      3919      3842
 -1      1945    8    0    1
 -2       965       888      1012      3757      3907      3920
 -1      1946    8    0    1
 -2       919      1013       929      3910      3921      3641
 -1      1947    8    0    1
 -2       966       930       995      3917      3847      3922
 -1      1948    8    0    1
 -2       941       940      1016      3688      3923      3924
 -1      1949    8    0    1
 -2       988       932      1017      3862      3925      3926
 -1      1950    8    0    1
 -2      1006       988      1017      3883      3926      3927
 -1      1951    8    0    1
 -2       932      1010      1017      3895      3928      3925
 -1      1952    8    0    1
 -2      1000       965       991      3866      3929      3903
 -1      1953    8    0    1
 -2       855       857       996      3619      3930      3850
 -1      1954    8    0    1
 -2       996       857       995      3930      3931      3859
 -1      1955    8    0    1
 -2       942       941      1018      3691      3932      3933
 -1      1956    8    0    1
 -2       941      1016      1018      3924      3934      3932
 -1      1957    8    0    1
 -2       943       942      1019      3694      3935      3936
 -1      1958    8    0    1
 -2       942      1018      1019      3933      3937      3935
 -1      1959    8    0    1
 -2       944       943      1020      3697      3938      3939
 -1      1960    8    0    1
 -2       943      1019      1020      3936      3940      3938
 -1      1961    8    0    1
 -2       945       944      1021      3700      3941      3942
 -1      1962    8    0    1
 -2       944      1020      1021      3939      3943      3941
 -1      1963    8    0    1
 -2       946       945      1022      3703      3944      3945
 -1      1964    8    0    1
 -2       945      1021      1022      3942      3946      3944
 -1      1965    8    0    1
 -2       947       946      1023      3706      3947      3948
 -1      1966    8    0    1
 -2       946      1022      1023      3945      3949      3947
 -1      1967    8    0    1
 -2       948       947      1024      3709      3950      3951
 -1      1968    8    0    1
 -2       947      1023      1024      3948      3952      3950
 -1      1969    8    0    1
 -2       949       948      1025      3712      3953      3954
 -1      1970    8    0    1
 -2       948      1024      1025      3951      3955      3953
 -1      1971    8    0    1
 -2       950       949      1026      3715      3956      3957
 -1      1972    8    0    1
 -2       949      1025      1026      3954      3958      3956
 -1      1973    8    0    1
 -2       951       950      1027      3718      3959      3960
 -1      1974    8    0    1
 -2       950      1026      1027      3957      3961      3959
 -1      1975    8    0    1
 -2       952       951      1028      3721      3962      3963
 -1      1976    8    0    1
 -2       951      1027      1028      3960      3964      3962
 -1      1977    8    0    1
 -2       953       952      1029      3724      3965      3966
 -1      1978    8    0    1
 -2       952      1028      1029      3963      3967      3965
 -1      1979    8    0    1
 -2       954       953      1030      3727      3968      3969
 -1      1980    8    0    1
 -2       953      1029      1030      3966      3970      3968
 -1      1981    8    0    1
 -2       955       954      1031      3730      3971      3972
 -1      1982    8    0    1
 -2       954      1030      1031      3969      3973      3971
 -1      1983    8    0    1
 -2       956       955      1032      3733      3974      3975
 -1      1984    8    0    1
 -2       955      1031      1032      3972      3976      3974
 -1      1985    8    0    1
 -2       957       956      1033      3736      3977      3978
 -1      1986    8    0    1
 -2       956      1032      1033      3975      3979      3977
 -1      1987    8    0    1
 -2       958       957      1034      3739      3980      3981
 -1      1988    8    0    1
 -2       957      1033      1034      3978      3982      3980
 -1      1989    8    0    1
 -2       959       958      1035      3742      3983      3984
 -1      1990    8    0    1
 -2       958      1034      1035      3981      3985      3983
 -1      1991    8    0    1
 -2       960       959      1036      3745      3986      3987
 -1      1992    8    0    1
 -2       959      1035      1036      3984      3988      3986
 -1      1993    8    0    1
 -2       961       960      1037      3748      3989      3990
 -1      1994    8    0    1
 -2       960      1036      1037      3987      3991      3989
 -1      1995    8    0    1
 -2       962       961      1038      3751      3992      3993
 -1      1996    8    0    1
 -2       961      1037      1038      3990      3994      3992
 -1      1997    8    0    1
 -2       963       962      1039      3754      3995      3996
 -1      1998    8    0    1
 -2       962      1038      1039      3993      3997      3995
 -1      1999    8    0    1
 -2       969       970      1040      3772      3998      3999
 -1      2000    8    0    1
 -2       857       966       995      3760      3922      3931
 -1      2001    8    0    1
 -2       964       969      1041      3769      4000      4001
 -1      2002    8    0    1
 -2       969      1040      1041      3999      4002      4000
 -1      2003    8    0    1
 -2       989       993      1015      3893      3919      4003
 -1      2004    8    0    1
 -2       968       967      1042      3766      4004      4005
 -1      2005    8    0    1
 -2       970       971      1043      3775      4006      4007
 -1      2006    8    0    1
 -2       970      1043      1040      4007      4008      3998
 -1      2007    8    0    1
 -2       971       972      1044      3778      4009      4010
 -1      2008    8    0    1
 -2       971      1044      1043      4010      4011      4006
 -1      2009    8    0    1
 -2       972       973      1045      3781      4012      4013
 -1      2010    8    0    1
 -2       972      1045      1044      4013      4014      4009
 -1      2011    8    0    1
 -2       973       974      1046      3784      4015      4016
 -1      2012    8    0    1
 -2       973      1046      1045      4016      4017      4012
 -1      2013    8    0    1
 -2       974       975      1047      3787      4018      4019
 -1      2014    8    0    1
 -2       974      1047      1046      4019      4020      4015
 -1      2015    8    0    1
 -2       975       976      1048      3790      4021      4022
 -1      2016    8    0    1
 -2       975      1048      1047      4022      4023      4018
 -1      2017    8    0    1
 -2       976       977      1049      3793      4024      4025
 -1      2018    8    0    1
 -2       976      1049      1048      4025      4026      4021
 -1      2019    8    0    1
 -2       977       978      1050      3796      4027      4028
 -1      2020    8    0    1
 -2       977      1050      1049      4028      4029      4024
 -1      2021    8    0    1
 -2       978       979      1051      3799      4030      4031
 -1      2022    8    0    1
 -2       978      1051      1050      4031      4032      4027
 -1      2023    8    0    1
 -2       979       980      1052      3802      4033      4034
 -1      2024    8    0    1
 -2       979      1052      1051      4034      4035      4030
 -1      2025    8    0    1
 -2       980       981      1053      3805      4036      4037
 -1      2026    8    0    1
 -2       980      1053      1052      4037      4038      4033
 -1      2027    8    0    1
 -2       981       982      1054      3808      4039      4040
 -1      2028    8    0    1
 -2       981      1054      1053      4040      4041      4036
 -1      2029    8    0    1
 -2       982       983      1055      3811      4042      4043
 -1      2030    8    0    1
 -2       982      1055      1054      4043      4044      4039
 -1      2031    8    0    1
 -2       983       984      1056      3814      4045      4046
 -1      2032    8    0    1
 -2       983      1056      1055      4046      4047      4042
 -1      2033    8    0    1
 -2       984       985      1057      3817      4048      4049
 -1      2034    8    0    1
 -2       984      1057      1056      4049      4050      4045
 -1      2035    8    0    1
 -2       985       986      1058      3820      4051      4052
 -1      2036    8    0    1
 -2       985      1058      1057      4052      4053      4048
 -1      2037    8    0    1
 -2       938       989      1015      3904      4003      4054
 -1      2038    8    0    1
 -2       986       990      1059      3832      4055      4056
 -1      2039    8    0    1
 -2      1058       986      1059      4051      4056      4057
 -1      2040    8    0    1
 -2       990      1006      1059      3882      4058      4055
 -1      2041    8    0    1
 -2       924       994      1060      3845      4059      4060
 -1      2042    8    0    1
 -2       966       992       994      3838      4061      3918
 -1      2043    8    0    1
 -2       937       998      1061      3901      4062      4063
 -1      2044    8    0    1
 -2       967       964      1062      3763      4064      4065
 -1      2045    8    0    1
 -2       964      1041      1062      4001      4066      4064
 -1      2046    8    0    1
 -2       939       999      1060      3861      4067      4068
 -1      2047    8    0    1
 -2      1004       933      1015      3911      4069      3915
 -1      2048    8    0    1
 -2       991       965      1063      3929      4070      4071
 -1      2049    8    0    1
 -2      1002       937      1061      3902      4063      4072
 -1      2050    8    0    1
 -2       938      1015      1014      4054      4073      3912
 -1      2051    8    0    1
 -2       994       992      1060      4061      4074      4059
 -1      2052    8    0    1
 -2      1015       933      1011      4069      3898      4075
 -1      2053    8    0    1
 -2       963      1039      1064      3996      4076      4077
 -1      2054    8    0    1
 -2       963      1064      1003      4077      4078      3872
 -1      2055    8    0    1
 -2       965      1012      1063      3920      4079      4070
 -1      2056    8    0    1
 -2      1063      1012      1065      4079      4080      4081
 -1      2057    8    0    1
 -2      1012      1007      1065      3908      4082      4080
 -1      2058    8    0    1
 -2       929      1013      1066      3921      4083      4084
 -1      2059    8    0    1
 -2      1042       967      1062      4004      4065      4085
 -1      2060    8    0    1
 -2       987       939      1060      3824      4068      4086
 -1      2061    8    0    1
 -2      1007       968      1067      3884      4087      4088
 -1      2062    8    0    1
 -2       968      1042      1067      4005      4089      4087
 -1      2063    8    0    1
 -2      1008       991      1063      3887      4071      4090
 -1      2064    8    0    1
 -2       859       887      1001      3680      4091      3867
 -1      2065    8    0    1
 -2      1010      1009      1068      3896      4092      4093
 -1      2066    8    0    1
 -2      1011       929      1066      3899      4084      4094
 -1      2067    8    0    1
 -2      1061       998      1069      4062      4095      4096
 -1      2068    8    0    1
 -2       998      1008      1069      3889      4097      4095
 -1      2069    8    0    1
 -2      1013       924      1060      3909      4060      4098
 -1      2070    8    0    1
 -2      1068      1009      1064      4092      4099      4100
 -1      2071    8    0    1
 -2      1041      1040      1070      4002      4101      4102
 -1      2072    8    0    1
 -2       887      1002      1001      3870      4103      4091
 -1      2073    8    0    1
 -2       940      1001      1061      3871      4104      4105
 -1      2074    8    0    1
 -2       999      1014      1013      3914      4106      4107
 -1      2075    8    0    1
 -2      1019      1018      1071      3937      4108      4109
 -1      2076    8    0    1
 -2      1020      1019      1072      3940      4110      4111
 -1      2077    8    0    1
 -2      1019      1071      1072      4109      4112      4110
 -1      2078    8    0    1
 -2      1021      1020      1073      3943      4113      4114
 -1      2079    8    0    1
 -2      1020      1072      1073      4111      4115      4113
 -1      2080    8    0    1
 -2      1022      1021      1074      3946      4116      4117
 -1      2081    8    0    1
 -2      1021      1073      1074      4114      4118      4116
 -1      2082    8    0    1
 -2      1023      1022      1075      3949      4119      4120
 -1      2083    8    0    1
 -2      1022      1074      1075      4117      4121      4119
 -1      2084    8    0    1
 -2      1024      1023      1076      3952      4122      4123
 -1      2085    8    0    1
 -2      1023      1075      1076      4120      4124      4122
 -1      2086    8    0    1
 -2      1025      1024      1077      3955      4125      4126
 -1      2087    8    0    1
 -2      1024      1076      1077      4123      4127      4125
 -1      2088    8    0    1
 -2      1026      1025      1078      3958      4128      4129
 -1      2089    8    0    1
 -2      1025      1077      1078      4126      4130      4128
 -1      2090    8    0    1
 -2      1027      1026      1079      3961      4131      4132
 -1      2091    8    0    1
 -2      1026      1078      1079      4129      4133      4131
 -1      2092    8    0    1
 -2      1028      1027      1080      3964      4134      4135
 -1      2093    8    0    1
 -2      1027      1079      1080      4132      4136      4134
 -1      2094    8    0    1
 -2      1029      1028      1081      3967      4137      4138
 -1      2095    8    0    1
 -2      1028      1080      1081      4135      4139      4137
 -1      2096    8    0    1
 -2      1030      1029      1082      3970      4140      4141
 -1      2097    8    0    1
 -2      1029      1081      1082      4138      4142      4140
 -1      2098    8    0    1
 -2      1031      1030      1083      3973      4143      4144
 -1      2099    8    0    1
 -2      1030      1082      1083      4141      4145      4143
 -1      2100    8    0    1
 -2      1032      1031      1084      3976      4146      4147
 -1      2101    8    0    1
 -2      1031      1083      1084      4144      4148      4146
 -1      2102    8    0    1
 -2      1033      1032      1085      3979      4149      4150
 -1      2103    8    0    1
 -2      1032      1084      1085      4147      4151      4149
 -1      2104    8    0    1
 -2      1034      1033      1086      3982      4152      4153
 -1      2105    8    0    1
 -2      1033      1085      1086      4150      4154      4152
 -1      2106    8    0    1
 -2      1035      1034      1087      3985      4155      4156
 -1      2107    8    0    1
 -2      1034      1086      1087      4153      4157      4155
 -1      2108    8    0    1
 -2      1036      1035      1088      3988      4158      4159
 -1      2109    8    0    1
 -2      1035      1087      1088      4156      4160      4158
 -1      2110    8    0    1
 -2      1037      1036      1089      3991      4161      4162
 -1      2111    8    0    1
 -2      1036      1088      1089      4159      4163      4161
 -1      2112    8    0    1
 -2      1038      1037      1090      3994      4164      4165
 -1      2113    8    0    1
 -2      1037      1089      1090      4162      4166      4164
 -1      2114    8    0    1
 -2      1039      1038      1091      3997      4167      4168
 -1      2115    8    0    1
 -2      1038      1090      1091      4165      4169      4167
 -1      2116    8    0    1
 -2      1043      1044      1092      4011      4170      4171
 -1      2117    8    0    1
 -2      1042      1062      1093      4085      4172      4173
 -1      2118    8    0    1
 -2      1068      1064      1094      4100      4174      4175
 -1      2119    8    0    1
 -2      1064      1039      1094      4076      4176      4174
 -1      2120    8    0    1
 -2      1044      1045      1095      4014      4177      4178
 -1      2121    8    0    1
 -2      1044      1095      1092      4178      4179      4170
 -1      2122    8    0    1
 -2      1040      1043      1096      4008      4180      4181
 -1      2123    8    0    1
 -2      1070      1040      1096      4101      4181      4182
 -1      2124    8    0    1
 -2      1043      1092      1096      4171      4183      4180
 -1      2125    8    0    1
 -2      1045      1046      1097      4017      4184      4185
 -1      2126    8    0    1
 -2      1045      1097      1095      4185      4186      4177
 -1      2127    8    0    1
 -2      1046      1047      1098      4020      4187      4188
 -1      2128    8    0    1
 -2      1046      1098      1097      4188      4189      4184
 -1      2129    8    0    1
 -2      1047      1048      1099      4023      4190      4191
 -1      2130    8    0    1
 -2      1047      1099      1098      4191      4192      4187
 -1      2131    8    0    1
 -2      1048      1049      1100      4026      4193      4194
 -1      2132    8    0    1
 -2      1048      1100      1099      4194      4195      4190
 -1      2133    8    0    1
 -2      1049      1050      1101      4029      4196      4197
 -1      2134    8    0    1
 -2      1049      1101      1100      4197      4198      4193
 -1      2135    8    0    1
 -2      1050      1051      1102      4032      4199      4200
 -1      2136    8    0    1
 -2      1050      1102      1101      4200      4201      4196
 -1      2137    8    0    1
 -2      1051      1052      1103      4035      4202      4203
 -1      2138    8    0    1
 -2      1051      1103      1102      4203      4204      4199
 -1      2139    8    0    1
 -2      1052      1053      1104      4038      4205      4206
 -1      2140    8    0    1
 -2      1052      1104      1103      4206      4207      4202
 -1      2141    8    0    1
 -2      1053      1054      1105      4041      4208      4209
 -1      2142    8    0    1
 -2      1053      1105      1104      4209      4210      4205
 -1      2143    8    0    1
 -2      1054      1055      1106      4044      4211      4212
 -1      2144    8    0    1
 -2      1054      1106      1105      4212      4213      4208
 -1      2145    8    0    1
 -2      1055      1056      1107      4047      4214      4215
 -1      2146    8    0    1
 -2      1055      1107      1106      4215      4216      4211
 -1      2147    8    0    1
 -2      1056      1057      1108      4050      4217      4218
 -1      2148    8    0    1
 -2      1056      1108      1107      4218      4219      4214
 -1      2149    8    0    1
 -2      1057      1058      1109      4053      4220      4221
 -1      2150    8    0    1
 -2      1057      1109      1108      4221      4222      4217
 -1      2151    8    0    1
 -2       926       987      1110      3823      4223      4224
 -1      2152    8    0    1
 -2       999      1013      1060      4107      4098      4067
 -1      2153    8    0    1
 -2       926      1110       997      4224      4225      3855
 -1      2154    8    0    1
 -2      1009      1005      1064      3892      4226      4099
 -1      2155    8    0    1
 -2      1062      1041      1111      4066      4227      4228
 -1      2156    8    0    1
 -2      1093      1062      1111      4172      4228      4229
 -1      2157    8    0    1
 -2      1041      1070      1111      4102      4230      4227
 -1      2158    8    0    1
 -2      1003      1064      1005      4078      4226      3880
 -1      2159    8    0    1
 -2      1016       940      1061      3923      4105      4231
 -1      2160    8    0    1
 -2       997      1110       992      4225      4232      3854
 -1      2161    8    0    1
 -2      1016      1061      1069      4231      4096      4233
 -1      2162    8    0    1
 -2      1010      1068      1112      4093      4234      4235
 -1      2163    8    0    1
 -2      1010      1112      1017      4235      4236      3928
 -1      2164    8    0    1
 -2      1008      1063      1113      4090      4237      4238
 -1      2165    8    0    1
 -2      1006      1017      1114      3927      4239      4240
 -1      2166    8    0    1
 -2      1059      1006      1114      4058      4240      4241
 -1      2167    8    0    1
 -2      1017      1112      1114      4236      4242      4239
 -1      2168    8    0    1
 -2      1065      1007      1067      4082      4088      4243
 -1      2169    8    0    1
 -2      1018      1016      1069      3934      4233      4244
 -1      2170    8    0    1
 -2      1066      1013      1014      4083      4106      4245
 -1      2171    8    0    1
 -2      1039      1091      1094      4168      4246      4176
 -1      2172    8    0    1
 -2      1042      1093      1115      4173      4247      4248
 -1      2173    8    0    1
 -2      1042      1115      1067      4248      4249      4089
 -1      2174    8    0    1
 -2      1068      1094      1112      4175      4250      4234
 -1      2175    8    0    1
 -2      1015      1011      1066      4075      4094      4251
 -1      2176    8    0    1
 -2      1071      1018      1069      4108      4244      4252
 -1      2177    8    0    1
 -2      1069      1008      1113      4097      4238      4253
 -1      2178    8    0    1
 -2      1058      1059      1114      4057      4241      4254
 -1      2179    8    0    1
 -2      1063      1065      1113      4081      4255      4237
 -1      2180    8    0    1
 -2      1058      1114      1109      4254      4256      4220
 -1      2181    8    0    1
 -2      1060       992      1110      4074      4232      4257
 -1      2182    8    0    1
 -2      1060      1110       987      4257      4223      4086
 -1      2183    8    0    1
 -2      1001      1002      1061      4103      4072      4104
 -1      2184    8    0    1
 -2      1095      1097      1116      4186      4258      4259
 -1      2185    8    0    1
 -2      1073      1072      1117      4115      4260      4261
 -1      2186    8    0    1
 -2      1074      1073      1093      4118      4262      4263
 -1      2187    8    0    1
 -2      1075      1074      1111      4121      4264      4265
 -1      2188    8    0    1
 -2      1076      1075      1070      4124      4266      4267
 -1      2189    8    0    1
 -2      1077      1076      1096      4127      4268      4269
 -1      2190    8    0    1
 -2      1078      1077      1092      4130      4270      4271
 -1      2191    8    0    1
 -2      1080      1079      1116      4136      4272      4273
 -1      2192    8    0    1
 -2      1081      1080      1118      4139      4274      4275
 -1      2193    8    0    1
 -2      1082      1081      1099      4142      4276      4277
 -1      2194    8    0    1
 -2      1083      1082      1100      4145      4278      4279
 -1      2195    8    0    1
 -2      1084      1083      1101      4148      4280      4281
 -1      2196    8    0    1
 -2      1085      1084      1102      4151      4282      4283
 -1      2197    8    0    1
 -2      1086      1085      1103      4154      4284      4285
 -1      2198    8    0    1
 -2      1087      1086      1104      4157      4286      4287
 -1      2199    8    0    1
 -2      1088      1087      1105      4160      4288      4289
 -1      2200    8    0    1
 -2      1089      1088      1106      4163      4290      4291
 -1      2201    8    0    1
 -2      1090      1089      1107      4166      4292      4293
 -1      2202    8    0    1
 -2      1091      1090      1108      4169      4294      4295
 -1      2203    8    0    1
 -2      1104      1086      1103      4286      4285      4207
 -1      2204    8    0    1
 -2      1103      1085      1102      4284      4283      4204
 -1      2205    8    0    1
 -2      1097      1098      1118      4189      4296      4297
 -1      2206    8    0    1
 -2      1072      1071      1119      4112      4298      4299
 -1      2207    8    0    1
 -2      1072      1119      1117      4299      4300      4260
 -1      2208    8    0    1
 -2      1099      1100      1082      4195      4278      4277
 -1      2209    8    0    1
 -2      1100      1101      1083      4198      4280      4279
 -1      2210    8    0    1
 -2      1101      1102      1084      4201      4282      4281
 -1      2211    8    0    1
 -2      1104      1105      1087      4210      4288      4287
 -1      2212    8    0    1
 -2      1105      1106      1088      4213      4290      4289
 -1      2213    8    0    1
 -2      1106      1107      1089      4216      4292      4291
 -1      2214    8    0    1
 -2      1107      1108      1090      4219      4294      4293
 -1      2215    8    0    1
 -2      1108      1109      1091      4222      4301      4295
 -1      2216    8    0    1
 -2      1070      1075      1111      4266      4265      4230
 -1      2217    8    0    1
 -2      1071      1069      1113      4252      4253      4302
 -1      2218    8    0    1
 -2      1114      1112      1109      4242      4303      4256
 -1      2219    8    0    1
 -2      1065      1067      1120      4243      4304      4305
 -1      2220    8    0    1
 -2      1113      1065      1120      4255      4305      4306
 -1      2221    8    0    1
 -2      1067      1115      1120      4249      4307      4304
 -1      2222    8    0    1
 -2      1092      1095      1078      4179      4308      4271
 -1      2223    8    0    1
 -2      1092      1077      1096      4270      4269      4183
 -1      2224    8    0    1
 -2      1109      1112      1094      4303      4250      4309
 -1      2225    8    0    1
 -2      1074      1093      1111      4263      4229      4264
 -1      2226    8    0    1
 -2      1076      1070      1096      4267      4182      4268
 -1      2227    8    0    1
 -2      1080      1116      1118      4273      4310      4274
 -1      2228    8    0    1
 -2      1079      1078      1095      4133      4308      4311
 -1      2229    8    0    1
 -2      1091      1109      1094      4301      4309      4246
 -1      2230    8    0    1
 -2      1097      1118      1116      4297      4310      4258
 -1      2231    8    0    1
 -2      1071      1113      1119      4302      4312      4298
 -1      2232    8    0    1
 -2      1098      1099      1081      4192      4276      4313
 -1      2233    8    0    1
 -2      1093      1073      1115      4262      4314      4247
 -1      2234    8    0    1
 -2      1015      1066      1014      4251      4245      4073
 -1      2235    8    0    1
 -2      1119      1113      1120      4312      4306      4315
 -1      2236    8    0    1
 -2      1117      1119      1120      4300      4315      4316
 -1      2237    8    0    1
 -2      1098      1081      1118      4313      4275      4296
 -1      2238    8    0    1
 -2      1079      1095      1116      4311      4259      4272
 -1      2239    8    0    1
 -2      1073      1117      1115      4261      4317      4314
 -1      2240    8    0    1
 -2      1115      1117      1120      4317      4316      4307
 -3
    1PSTEP                         1           1           1          
  100CL  101 1.000000000        4317                     0    1           1
 -4  DISP        4    1
 -5  D1          1    2    1    0
 -5  D2          1    2    2    0
 -5  D3          1    2    3    0
 -5  ALL         1    2    0    0    1ALL
 -1         1 5.63107E-03-3.32687E-04-1.41070E-14
 -1         2 6.35575E-03 2.76895E-04-1.53806E-14
 -1         3 1.55678E-02 2.27632E-03-1.35479E-13
 -1         4 1.48641E-02 8.46694E-04-1.35605E-13
 -1         5 0.00000E+00 0.00000E+00 0.00000E+00
 -1         6 0.00000E+00 0.00000E+00 0.00000E+00
 -1         7 0.00000E+00 0.00000E+00 0.00000E+00
 -1         8 0.00000E+00 0.00000E+00 0.00000E+00
 -1         9 0.00000E+00 0.00000E+00 0.00000E+00
 -1        10 0.00000E+00 0.00000E+00 0.00000E+00
 -1        11 0.00000E+00 0.00000E+00 0.00000E+00
 -1        12 0.00000E+00 0.00000E+00 0.00000E+00
 -1        13 0.00000E+00 0.00000E+00 0.00000E+00
 -1        14 0.00000E+00 0.00000E+00 0.00000E+00
 -1        15 0.00000E+00 0.00000E+00 0.00000E+00
 -1        16 0.00000E+00 0.00000E+00 0.00000E+00
 -1        17 0.00000E+00 0.00000E+00 0.00000E+00
 -1        18 0.00000E+00 0.00000E+00 0.00000E+00
 -1        19 0.00000E+00 0.00000E+00 0.00000E+00
 -1        20 0.00000E+00 0.00000E+00 0.00000E+00
 -1        21 0.00000E+00 0.00000E+00 0.00000E+00
 -1        22 0.00000E+00 0.00000E+00 0.00000E+00
 -1        23 4.27539E-04-2.50379E-04 4.40254E-17
 -1        24 7.46267E-04-3.77115E-04-6.76271E-17
 -1        25 1.05263E-03-4.67354E-04-3.31546E-16
 -1        26 1.36058E-03-5.38963E-04-7.46361E-16
 -1        27 1.67313E-03-6.03524E-04-1.31182E-15
 -1        28 1.99014E-03-6.68436E-04-2.02541E-15
 -1        29 2.30898E-03-7.38455E-04-2.88768E-15
 -1        30 2.62491E-03-8.15244E-04-3.89799E-15
 -1        31 2.93178E-03-8.96322E-04-5.05629E-15
 -1        32 3.22369E-03-9.74272E-04-6.36302E-15
 -1        33 3.49749E-03-1.03731E-03-7.81522E-15
 -1        34 3.75506E-03-1.07208E-03-9.40541E-15
 -1        35 4.00401E-03-1.06824E-03-1.11392E-14
 -1        36 4.25545E-03-1.02280E-03-1.30111E-14
 -1        37 4.52000E-03-9.41665E-04-1.50197E-14
 -1        38 4.80388E-03-8.37229E-04-1.71624E-14
 -1        39 5.10756E-03-7.23767E-04-1.94259E-14
 -1        40 5.42690E-03-6.13236E-04-2.18067E-14
 -1        41 5.75566E-03-5.13184E-04-2.42966E-14
 -1        42 6.08769E-03-4.26779E-04-2.68913E-14
 -1        43 6.41823E-03-3.53980E-04-2.95819E-14
 -1        44 6.74428E-03-2.92938E-04-3.23679E-14
 -1        45 7.06437E-03-2.41101E-04-3.52498E-14
 -1        46 7.37814E-03-1.95912E-04-3.82297E-14
 -1        47 7.68594E-03-1.55157E-04-4.12964E-14
 -1        48 7.98850E-03-1.17086E-04-4.44418E-14
 -1        49 8.28665E-03-8.04066E-05-4.76672E-14
 -1        50 8.58127E-03-4.42189E-05-5.09728E-14
 -1        51 8.87312E-03-7.93742E-06-5.43536E-14
 -1        52 9.16289E-03 2.87890E-05-5.78130E-14
 -1        53 9.45111E-03 6.61437E-05-6.13433E-14
 -1        54 9.73824E-03 1.04196E-04-6.49401E-14
 -1        55 1.00246E-02 1.42941E-04-6.85926E-14
 -1        56 1.03105E-02 1.82332E-04-7.22901E-14
 -1        57 1.05960E-02 2.22295E-04-7.60299E-14
 -1        58 1.08814E-02 2.62751E-04-7.98194E-14
 -1        59 1.11667E-02 3.03619E-04-8.36418E-14
 -1        60 1.14519E-02 3.44822E-04-8.74960E-14
 -1        61 1.17372E-02 3.86294E-04-9.13893E-14
 -1        62 1.20226E-02 4.27975E-04-9.53176E-14
 -1        63 1.23079E-02 4.69816E-04-9.92930E-14
 -1        64 1.25934E-02 5.11777E-04-1.03302E-13
 -1        65 1.28788E-02 5.53823E-04-1.07351E-13
 -1        66 1.31644E-02 5.95928E-04-1.11417E-13
 -1        67 1.34500E-02 6.38070E-04-1.15483E-13
 -1        68 1.37356E-02 6.80229E-04-1.19543E-13
 -1        69 1.40213E-02 7.22390E-04-1.23594E-13
 -1        70 1.43070E-02 7.64542E-04-1.27645E-13
 -1        71 1.45927E-02 8.06678E-04-1.31711E-13
 -1        72 4.31061E-04 2.46221E-04 6.13929E-17
 -1        73 7.53815E-04 3.69341E-04-1.72524E-17
 -1        74 1.07094E-03 4.54244E-04-2.33591E-16
 -1        75 1.39438E-03 5.23329E-04-5.88678E-16
 -1        76 1.72946E-03 5.89274E-04-1.07994E-15
 -1        77 2.07829E-03 6.62728E-04-1.70851E-15
 -1        78 2.43963E-03 7.53416E-04-2.47382E-15
 -1        79 2.80773E-03 8.68944E-04-3.37285E-15
 -1        80 3.17145E-03 1.01138E-03-4.40865E-15
 -1        81 3.51559E-03 1.17220E-03-5.59098E-15
 -1        82 3.82655E-03 1.32860E-03-6.92439E-15
 -1        83 4.10153E-03 1.44711E-03-8.40800E-15
 -1        84 4.35472E-03 1.49761E-03-1.00431E-14
 -1        85 4.61277E-03 1.47034E-03-1.18354E-14
 -1        86 4.90049E-03 1.38278E-03-1.37897E-14
 -1        87 5.22737E-03 1.26885E-03-1.59004E-14
 -1        88 5.58658E-03 1.16104E-03-1.81411E-14
 -1        89 5.96307E-03 1.07930E-03-2.05009E-14
 -1        90 6.34218E-03 1.03014E-03-2.29744E-14
 -1        91 6.71388E-03 1.01130E-03-2.55555E-14
 -1        92 7.07318E-03 1.01667E-03-2.82438E-14
 -1        93 7.41876E-03 1.03961E-03-3.10337E-14
 -1        94 7.75142E-03 1.07438E-03-3.39284E-14
 -1        95 8.07291E-03 1.11660E-03-3.69231E-14
 -1        96 8.38523E-03 1.16314E-03-4.00150E-14
 -1        97 8.69030E-03 1.21190E-03-4.31926E-14
 -1        98 8.98977E-03 1.26150E-03-4.64411E-14
 -1        99 9.28501E-03 1.31109E-03-4.97629E-14
 -1       100 9.57711E-03 1.36019E-03-5.31621E-14
 -1       101 9.86693E-03 1.40853E-03-5.66499E-14
 -1       102 1.01551E-02 1.45603E-03-6.02193E-14
 -1       103 1.04422E-02 1.50268E-03-6.38569E-14
 -1       104 1.07285E-02 1.54854E-03-6.75610E-14
 -1       105 1.10143E-02 1.59369E-03-7.13221E-14
 -1       106 1.12998E-02 1.63823E-03-7.51411E-14
 -1       107 1.15852E-02 1.68225E-03-7.90114E-14
 -1       108 1.18704E-02 1.72584E-03-8.29299E-14
 -1       109 1.21557E-02 1.76909E-03-8.68872E-14
 -1       110 1.24409E-02 1.81206E-03-9.08763E-14
 -1       111 1.27263E-02 1.85483E-03-9.48902E-14
 -1       112 1.30116E-02 1.89743E-03-9.89403E-14
 -1       113 1.32971E-02 1.93991E-03-1.03012E-13
 -1       114 1.35825E-02 1.98231E-03-1.07107E-13
 -1       115 1.38681E-02 2.02465E-03-1.11201E-13
 -1       116 1.41537E-02 2.06695E-03-1.15284E-13
 -1       117 1.44393E-02 2.10923E-03-1.19360E-13
 -1       118 1.47250E-02 2.15151E-03-1.23454E-13
 -1       119 1.50107E-02 2.19381E-03-1.27547E-13
 -1       120 1.52964E-02 2.23611E-03-1.31621E-13
 -1       121 1.55262E-02 2.19203E-03-1.35499E-13
 -1       122 1.54846E-02 2.10775E-03-1.35538E-13
 -1       123 1.54429E-02 2.02344E-03-1.35561E-13
 -1       124 1.54013E-02 1.93911E-03-1.35582E-13
 -1       125 1.53596E-02 1.85476E-03-1.35583E-13
 -1       126 1.53187E-02 1.77181E-03-1.35581E-13
 -1       127 1.52771E-02 1.68741E-03-1.35594E-13
 -1       128 1.52355E-02 1.60300E-03-1.35608E-13
 -1       129 1.51940E-02 1.51858E-03-1.35627E-13
 -1       130 1.51525E-02 1.43417E-03-1.35631E-13
 -1       131 1.51111E-02 1.34977E-03-1.35612E-13
 -1       132 1.50704E-02 1.26682E-03-1.35612E-13
 -1       133 1.50290E-02 1.18247E-03-1.35593E-13
 -1       134 1.49876E-02 1.09814E-03-1.35592E-13
 -1       135 1.49462E-02 1.01384E-03-1.35606E-13
 -1       136 1.49048E-02 9.29549E-04-1.35616E-13
 -1       137 6.32163E-03 4.55649E-04-1.52166E-14
 -1       138 6.18826E-03 6.24668E-04-1.48406E-14
 -1       139 5.92762E-03 7.97760E-04-1.42014E-14
 -1       140 5.59700E-03 9.33886E-04-1.34585E-14
 -1       141 5.21514E-03 1.03398E-03-1.26568E-14
 -1       142 4.74071E-03 1.10403E-03-1.17157E-14
 -1       143 4.22190E-03 1.12363E-03-1.07497E-14
 -1       144 3.74945E-03 1.09375E-03-9.92740E-15
 -1       145 3.28940E-03 1.01967E-03-9.15951E-15
 -1       146 2.86163E-03 9.06120E-04-8.48182E-15
 -1       147 2.51193E-03 7.69735E-04-7.95405E-15
 -1       148 2.22114E-03 6.04021E-04-7.54074E-15
 -1       149 2.01846E-03 4.21900E-04-7.27616E-15
 -1       150 1.92671E-03 2.39781E-04-7.18317E-15
 -1       151 1.93815E-03 6.73384E-05-7.24756E-15
 -1       152 2.05416E-03-1.04006E-04-7.47829E-15
 -1       153 2.24615E-03-2.48635E-04-7.82651E-15
 -1       154 2.54708E-03-3.86897E-04-8.35717E-15
 -1       155 2.96771E-03-5.06750E-04-9.10033E-15
 -1       156 3.37571E-03-5.72851E-04-9.82515E-15
 -1       157 3.85424E-03-6.05723E-04-1.06972E-14
 -1       158 4.39733E-03-5.90629E-04-1.17184E-14
 -1       159 4.83611E-03-5.38816E-04-1.25549E-14
 -1       160 5.27724E-03-4.45236E-04-1.34156E-14
 -1       161 5.92302E-03-1.99994E-04-1.46713E-14
 -1       162 6.14972E-03-4.89438E-05-1.50886E-14
 -1       163 6.29597E-03 1.12432E-04-1.53303E-14
 -1       164 2.56262E-04-1.08338E-04-2.64410E-17
 -1       165 2.37097E-04-7.25448E-05-4.80742E-17
 -1       166 2.25685E-04-4.78496E-05-6.00614E-17
 -1       167 2.16538E-04-2.94888E-05-6.69698E-17
 -1       168 2.08740E-04-1.59874E-05-7.05036E-17
 -1       169 2.02081E-04-6.09088E-06-7.23908E-17
 -1       170 1.97165E-04 6.23744E-07-7.29228E-17
 -1       171 1.94591E-04 5.07608E-06-7.27771E-17
 -1       172 1.94858E-04 8.53583E-06-7.18047E-17
 -1       173 1.98197E-04 1.25585E-05-6.99412E-17
 -1       174 2.04363E-04 1.86922E-05-6.66141E-17
 -1       175 2.13223E-04 2.87968E-05-6.12100E-17
 -1       176 2.24352E-04 4.45191E-05-5.27261E-17
 -1       177 2.38109E-04 6.81682E-05-3.85095E-17
 -1       178 2.57975E-04 1.04776E-04-1.43996E-17
 -1       179 3.19866E-04 1.66116E-04 1.12215E-17
 -1       180 5.01495E-04-2.38817E-04-7.32785E-17
 -1       181 8.27130E-04-3.44920E-04-2.91088E-16
 -1       182 1.14340E-03-4.23799E-04-6.51257E-16
 -1       183 1.45781E-03-4.90073E-04-1.15584E-15
 -1       184 1.77302E-03-5.53201E-04-1.80538E-15
 -1       185 2.08939E-03-6.19808E-04-2.59966E-15
 -1       186 2.40541E-03-6.93734E-04-3.53851E-15
 -1       187 2.71819E-03-7.75095E-04-4.62224E-15
 -1       188 3.02423E-03-8.59023E-04-5.85165E-15
 -1       189 3.32066E-03-9.35193E-04-7.22588E-15
 -1       190 3.60685E-03-9.89401E-04-8.74282E-15
 -1       191 3.88550E-03-1.00779E-03-1.04003E-14
 -1       192 4.16232E-03-9.82385E-04-1.22016E-14
 -1       193 4.44403E-03-9.14849E-04-1.41405E-14
 -1       194 4.73568E-03-8.15923E-04-1.62142E-14
 -1       195 5.03901E-03-7.00940E-04-1.84149E-14
 -1       196 5.35254E-03-5.84439E-04-2.07347E-14
 -1       197 5.67286E-03-4.76680E-04-2.31668E-14
 -1       198 5.99609E-03-3.82817E-04-2.57063E-14
 -1       199 6.31890E-03-3.03892E-04-2.83455E-14
 -1       200 6.63892E-03-2.38406E-04-3.10819E-14
 -1       201 6.95478E-03-1.83718E-04-3.39138E-14
 -1       202 7.26595E-03-1.36981E-04-3.68416E-14
 -1       203 7.57243E-03-9.56391E-05-3.98625E-14
 -1       204 7.87459E-03-5.76298E-05-4.29664E-14
 -1       205 8.17298E-03-2.14093E-05-4.61497E-14
 -1       206 8.46821E-03 1.41078E-05-4.94114E-14
 -1       207 8.76087E-03 4.96367E-05-5.27501E-14
 -1       208 9.05151E-03 8.56127E-05-5.61667E-14
 -1       209 9.34060E-03 1.22270E-04-5.96595E-14
 -1       210 9.62852E-03 1.59703E-04-6.32211E-14
 -1       211 9.91559E-03 1.97918E-04-6.68415E-14
 -1       212 1.02021E-02 2.36867E-04-7.05135E-14
 -1       213 1.04881E-02 2.76472E-04-7.42295E-14
 -1       214 1.07739E-02 3.16642E-04-7.79913E-14
 -1       215 1.10595E-02 3.57288E-04-8.17924E-14
 -1       216 1.13450E-02 3.98322E-04-8.56295E-14
 -1       217 1.16305E-02 4.39667E-04-8.95002E-14
 -1       218 1.19160E-02 4.81256E-04-9.34077E-14
 -1       219 1.22014E-02 5.23033E-04-9.73598E-14
 -1       220 1.24869E-02 5.64950E-04-1.01348E-13
 -1       221 1.27725E-02 6.06969E-04-1.05366E-13
 -1       222 1.30580E-02 6.49059E-04-1.09413E-13
 -1       223 1.33436E-02 6.91196E-04-1.13470E-13
 -1       224 1.36293E-02 7.33357E-04-1.17528E-13
 -1       225 1.39149E-02 7.75527E-04-1.21584E-13
 -1       226 1.42006E-02 8.17692E-04-1.25632E-13
 -1       227 1.44863E-02 8.59841E-04-1.29690E-13
 -1       228 6.56915E-04 2.90050E-04-8.89961E-17
 -1       229 9.84349E-04 3.77048E-04-3.17878E-16
 -1       230 1.31059E-03 4.45573E-04-6.80408E-16
 -1       231 1.64187E-03 5.09077E-04-1.17622E-15
 -1       232 1.98122E-03 5.78834E-04-1.80615E-15
 -1       233 2.32901E-03 6.65354E-04-2.57038E-15
 -1       234 2.68269E-03 7.77492E-04-3.46770E-15
 -1       235 3.03647E-03 9.19105E-04-4.50106E-15
 -1       236 3.38196E-03 1.08351E-03-5.67502E-15
 -1       237 3.71091E-03 1.24849E-03-6.99726E-15
 -1       238 4.02036E-03 1.37823E-03-8.47030E-15
 -1       239 4.31693E-03 1.43801E-03-1.00960E-14
 -1       240 4.61502E-03 1.41404E-03-1.18812E-14
 -1       241 4.92876E-03 1.32356E-03-1.38245E-14
 -1       242 5.26364E-03 1.20354E-03-1.59202E-14
 -1       243 5.61582E-03 1.08969E-03-1.81512E-14
 -1       244 5.97668E-03 1.00374E-03-2.05028E-14
 -1       245 6.33762E-03 9.52533E-04-2.29660E-14
 -1       246 6.69259E-03 9.33347E-04-2.55337E-14
 -1       247 7.03836E-03 9.39465E-04-2.82118E-14
 -1       248 7.37391E-03 9.63699E-04-3.09940E-14
 -1       249 7.69964E-03 9.99957E-04-3.38777E-14
 -1       250 8.01663E-03 1.04364E-03-3.68579E-14
 -1       251 8.32625E-03 1.09152E-03-3.99319E-14
 -1       252 8.62985E-03 1.14142E-03-4.30960E-14
 -1       253 8.92869E-03 1.19198E-03-4.63379E-14
 -1       254 9.22382E-03 1.24234E-03-4.96524E-14
 -1       255 9.51614E-03 1.29205E-03-5.30453E-14
 -1       256 9.80634E-03 1.34088E-03-5.65174E-14
 -1       257 1.00950E-02 1.38875E-03-6.00721E-14
 -1       258 1.03825E-02 1.43568E-03-6.36977E-14
 -1       259 1.06693E-02 1.48174E-03-6.73854E-14
 -1       260 1.09555E-02 1.52704E-03-7.11372E-14
 -1       261 1.12414E-02 1.57169E-03-7.49409E-14
 -1       262 1.15270E-02 1.61578E-03-7.87973E-14
 -1       263 1.18125E-02 1.65942E-03-8.26961E-14
 -1       264 1.20980E-02 1.70270E-03-8.66326E-14
 -1       265 1.23834E-02 1.74570E-03-9.06033E-14
 -1       266 1.26689E-02 1.78847E-03-9.46053E-14
 -1       267 1.29543E-02 1.83108E-03-9.86388E-14
 -1       268 1.32398E-02 1.87356E-03-1.02702E-13
 -1       269 1.35254E-02 1.91595E-03-1.06781E-13
 -1       270 1.38109E-02 1.95828E-03-1.10866E-13
 -1       271 1.40965E-02 2.00058E-03-1.14943E-13
 -1       272 1.43822E-02 2.04286E-03-1.19015E-13
 -1       273 1.46678E-02 2.08513E-03-1.23100E-13
 -1       274 1.49535E-02 2.12742E-03-1.27187E-13
 -1       275 1.52392E-02 2.16972E-03-1.31262E-13
 -1       276 1.52579E-02 2.11324E-03-1.31997E-13
 -1       277 1.52163E-02 2.02894E-03-1.32023E-13
 -1       278 1.51746E-02 1.94462E-03-1.32041E-13
 -1       279 1.51330E-02 1.86028E-03-1.32056E-13
 -1       280 1.50920E-02 1.77736E-03-1.32064E-13
 -1       281 1.50504E-02 1.69299E-03-1.32073E-13
 -1       282 1.50088E-02 1.60861E-03-1.32086E-13
 -1       283 1.49673E-02 1.52423E-03-1.32099E-13
 -1       284 1.49258E-02 1.43984E-03-1.32103E-13
 -1       285 1.48844E-02 1.35546E-03-1.32101E-13
 -1       286 1.48436E-02 1.27252E-03-1.32098E-13
 -1       287 1.48022E-02 1.18817E-03-1.32091E-13
 -1       288 1.47609E-02 1.10384E-03-1.32082E-13
 -1       289 1.47195E-02 1.01952E-03-1.32076E-13
 -1       290 1.46029E-02 9.39677E-04-1.30886E-13
 -1       291 6.37576E-03 3.36096E-04-1.62987E-14
 -1       292 6.25209E-03 4.39136E-04-1.59593E-14
 -1       293 5.98692E-03 5.74182E-04-1.53743E-14
 -1       294 5.62875E-03 7.56269E-04-1.44568E-14
 -1       295 5.25518E-03 9.36703E-04-1.34704E-14
 -1       296 4.83593E-03 1.09666E-03-1.24817E-14
 -1       297 4.42917E-03 1.20089E-03-1.12956E-14
 -1       298 4.03559E-03 1.18484E-03-1.02356E-14
 -1       299 3.65937E-03 1.09243E-03-9.29287E-15
 -1       300 3.24825E-03 9.23115E-04-8.48727E-15
 -1       301 2.84041E-03 7.32359E-04-7.84337E-15
 -1       302 2.46631E-03 5.45746E-04-7.33075E-15
 -1       303 2.15590E-03 3.59897E-04-6.84262E-15
 -1       304 1.94720E-03 2.51553E-04-6.71206E-15
 -1       305 1.89419E-03 1.61331E-04-6.76099E-15
 -1       306 1.98347E-03 7.26366E-05-6.82434E-15
 -1       307 2.19562E-03-5.31480E-05-7.22737E-15
 -1       308 2.51020E-03-1.87566E-04-7.64864E-15
 -1       309 2.92467E-03-3.65965E-04-8.31402E-15
 -1       310 3.30867E-03-5.39763E-04-9.23097E-15
 -1       311 3.70064E-03-6.51724E-04-1.01287E-14
 -1       312 4.10845E-03-6.90364E-04-1.12587E-14
 -1       313 4.51481E-03-6.13345E-04-1.23497E-14
 -1       314 4.89021E-03-4.78506E-04-1.34243E-14
 -1       315 5.29558E-03-3.07382E-04-1.43166E-14
 -1       316 5.65310E-03-1.37599E-04-1.50903E-14
 -1       317 5.97118E-03 1.59918E-05-1.57033E-14
 -1       318 6.21719E-03 1.42871E-04-1.61198E-14
 -1       319 6.35775E-03 2.43676E-04-1.63044E-14
 -1       320 4.75154E-04-1.23203E-04-2.05433E-16
 -1       321 5.05066E-04-1.77070E-04-1.69867E-16
 -1       322 4.32877E-04-5.02371E-05-2.39832E-16
 -1       323 4.16062E-04-2.59014E-05-2.47063E-16
 -1       324 4.02509E-04-8.01405E-06-2.50722E-16
 -1       325 3.93536E-04 4.81623E-06-2.51464E-16
 -1       326 3.90544E-04 1.45825E-05-2.49695E-16
 -1       327 3.94481E-04 2.39076E-05-2.45314E-16
 -1       328 4.05266E-04 3.55590E-05-2.37555E-16
 -1       329 4.22722E-04 5.29440E-05-2.25328E-16
 -1       330 4.45839E-04 7.88419E-05-2.07554E-16
 -1       331 4.74331E-04 1.16395E-04-1.80408E-16
 -1       332 5.10722E-04 1.70082E-04-1.38812E-16
 -1       333 5.77235E-04 2.25328E-04-1.21404E-16
 -1       334 9.01268E-04 3.12186E-04-3.56862E-16
 -1       335 9.27474E-04-3.08647E-04-5.41037E-16
 -1       336 1.24143E-03-3.77524E-04-9.90934E-16
 -1       337 1.55561E-03-4.39326E-04-1.58082E-15
 -1       338 1.87145E-03-5.01749E-04-2.31085E-15
 -1       339 2.18938E-03-5.70457E-04-3.18180E-15
 -1       340 2.50852E-03-6.48287E-04-4.19404E-15
 -1       341 2.82665E-03-7.33755E-04-5.34773E-15
 -1       342 3.14054E-03-8.19489E-04-6.64489E-15
 -1       343 3.44729E-03-8.91978E-04-8.08539E-15
 -1       344 3.74635E-03-9.34360E-04-9.66880E-15
 -1       345 4.04081E-03-9.32683E-04-1.13950E-14
 -1       346 4.33647E-03-8.82701E-04-1.32638E-14
 -1       347 4.63864E-03-7.92362E-04-1.52693E-14
 -1       348 4.94941E-03-6.77909E-04-1.74072E-14
 -1       349 5.26728E-03-5.56760E-04-1.96672E-14
 -1       350 5.58886E-03-4.42123E-04-2.20417E-14
 -1       351 5.91072E-03-3.41231E-04-2.45272E-14
 -1       352 6.23036E-03-2.56247E-04-2.71145E-14
 -1       353 6.54636E-03-1.86106E-04-2.98009E-14
 -1       354 6.85813E-03-1.28188E-04-3.25837E-14
 -1       355 7.16564E-03-7.94574E-05-3.54611E-14
 -1       356 7.46914E-03-3.70956E-05-3.84328E-14
 -1       357 7.76908E-03 1.22518E-06-4.14930E-14
 -1       358 8.06594E-03 3.72815E-05-4.46361E-14
 -1       359 8.36021E-03 7.23444E-05-4.78573E-14
 -1       360 8.65236E-03 1.07268E-04-5.11561E-14
 -1       361 8.94280E-03 1.42585E-04-5.45304E-14
 -1       362 9.23192E-03 1.78592E-04-5.79817E-14
 -1       363 9.52000E-03 2.15424E-04-6.15042E-14
 -1       364 9.80731E-03 2.53107E-04-6.50915E-14
 -1       365 1.00940E-02 2.91600E-04-6.87390E-14
 -1       366 1.03804E-02 3.30824E-04-7.24339E-14
 -1       367 1.06664E-02 3.70686E-04-7.61687E-14
 -1       368 1.09522E-02 4.11085E-04-7.99457E-14
 -1       369 1.12380E-02 4.51926E-04-8.37602E-14
 -1       370 1.15236E-02 4.93124E-04-8.76147E-14
 -1       371 1.18092E-02 5.34603E-04-9.15023E-14
 -1       372 1.20948E-02 5.76299E-04-9.54308E-14
 -1       373 1.23804E-02 6.18159E-04-9.93971E-14
 -1       374 1.26660E-02 6.60140E-04-1.03395E-13
 -1       375 1.29516E-02 7.02206E-04-1.07425E-13
 -1       376 1.32372E-02 7.44330E-04-1.11472E-13
 -1       377 1.35229E-02 7.86488E-04-1.15522E-13
 -1       378 1.38085E-02 8.28662E-04-1.19574E-13
 -1       379 1.40942E-02 8.70837E-04-1.23624E-13
 -1       380 1.43486E-02 9.05266E-04-1.27251E-13
 -1       381 1.22451E-03 3.80416E-04-7.21594E-16
 -1       382 1.55036E-03 4.42066E-04-1.21709E-15
 -1       383 1.88193E-03 5.08267E-04-1.84412E-15
 -1       384 2.22104E-03 5.89792E-04-2.60354E-15
 -1       385 2.56780E-03 6.96377E-04-3.49461E-15
 -1       386 2.91998E-03 8.33849E-04-4.51873E-15
 -1       387 3.27225E-03 9.98591E-04-5.68064E-15
 -1       388 3.61688E-03 1.17098E-03-6.98740E-15
 -1       389 3.94788E-03 1.31402E-03-8.44508E-15
 -1       390 4.26755E-03 1.38685E-03-1.00573E-14
 -1       391 4.58684E-03 1.36901E-03-1.18293E-14
 -1       392 4.91787E-03 1.27686E-03-1.37595E-14
 -1       393 5.26373E-03 1.15150E-03-1.58416E-14
 -1       394 5.61912E-03 1.03251E-03-1.80612E-14
 -1       395 5.97606E-03 9.43146E-04-2.04031E-14
 -1       396 6.32843E-03 8.90147E-04-2.28542E-14
 -1       397 6.67297E-03 8.70286E-04-2.54103E-14
 -1       398 7.00861E-03 8.76417E-04-2.80748E-14
 -1       399 7.33549E-03 9.01064E-04-3.08461E-14
 -1       400 7.65436E-03 9.37949E-04-3.37154E-14
 -1       401 7.96627E-03 9.82349E-04-3.66828E-14
 -1       402 8.27229E-03 1.03095E-03-3.97430E-14
 -1       403 8.57348E-03 1.08153E-03-4.28927E-14
 -1       404 8.87078E-03 1.13270E-03-4.61243E-14
 -1       405 9.16501E-03 1.18359E-03-4.94288E-14
 -1       406 9.45684E-03 1.23375E-03-5.28097E-14
 -1       407 9.74686E-03 1.28294E-03-5.62713E-14
 -1       408 1.00355E-02 1.33111E-03-5.98130E-14
 -1       409 1.03231E-02 1.37828E-03-6.34249E-14
 -1       410 1.06101E-02 1.42453E-03-6.71004E-14
 -1       411 1.08965E-02 1.46997E-03-7.08362E-14
 -1       412 1.11825E-02 1.51472E-03-7.46291E-14
 -1       413 1.14683E-02 1.55889E-03-7.84723E-14
 -1       414 1.17540E-02 1.60259E-03-8.23580E-14
 -1       415 1.20396E-02 1.64591E-03-8.62814E-14
 -1       416 1.23251E-02 1.68893E-03-9.02326E-14
 -1       417 1.26107E-02 1.73173E-03-9.42201E-14
 -1       418 1.28962E-02 1.77434E-03-9.82446E-14
 -1       419 1.31818E-02 1.81683E-03-1.02295E-13
 -1       420 1.34673E-02 1.85922E-03-1.06364E-13
 -1       421 1.37529E-02 1.90156E-03-1.10438E-13
 -1       422 1.40386E-02 1.94385E-03-1.14507E-13
 -1       423 1.43242E-02 1.98612E-03-1.18579E-13
 -1       424 1.46099E-02 2.02839E-03-1.22659E-13
 -1       425 1.48956E-02 2.07067E-03-1.26743E-13
 -1       426 1.50768E-02 2.09195E-03-1.29373E-13
 -1       427 1.49064E-02 1.86583E-03-1.28521E-13
 -1       428 1.49480E-02 1.95015E-03-1.28504E-13
 -1       429 1.50124E-02 2.02105E-03-1.28939E-13
 -1       430 1.48654E-02 1.78292E-03-1.28536E-13
 -1       431 1.48238E-02 1.69857E-03-1.28546E-13
 -1       432 1.47822E-02 1.61421E-03-1.28557E-13
 -1       433 1.47406E-02 1.52985E-03-1.28568E-13
 -1       434 1.46991E-02 1.44548E-03-1.28580E-13
 -1       435 1.46576E-02 1.36111E-03-1.28584E-13
 -1       436 1.46169E-02 1.27819E-03-1.28583E-13
 -1       437 1.45755E-02 1.19384E-03-1.28581E-13
 -1       438 1.45341E-02 1.10950E-03-1.28574E-13
 -1       439 1.44927E-02 1.02518E-03-1.28567E-13
 -1       440 6.13055E-03 4.45955E-04-1.67225E-14
 -1       441 6.40037E-03 2.99227E-04-1.73753E-14
 -1       442 6.34315E-03 3.56999E-04-1.72839E-14
 -1       443 5.76492E-03 6.10186E-04-1.57387E-14
 -1       444 5.36945E-03 8.16031E-04-1.45277E-14
 -1       445 4.52261E-04-8.19942E-05-2.26781E-16
 -1       446 4.60587E-03 1.18357E-03-1.20583E-14
 -1       447 4.20310E-03 1.24136E-03-1.05595E-14
 -1       448 3.92102E-03 1.18288E-03-9.60190E-15
 -1       449 3.51827E-03 1.00003E-03-8.50990E-15
 -1       450 3.11722E-03 7.73940E-04-7.66892E-15
 -1       451 2.71342E-03 5.65929E-04-7.12805E-15
 -1       452 2.36544E-03 3.92989E-04-6.64731E-15
 -1       453 2.02115E-03 2.45910E-04-6.25039E-15
 -1       454 1.88321E-03 1.81725E-04-6.21266E-15
 -1       455 1.89936E-03 1.36400E-04-6.25905E-15
 -1       456 2.10540E-03 5.34075E-05-6.47264E-15
 -1       457 2.35576E-03-4.67266E-05-6.84740E-15
 -1       458 2.74056E-03-2.25317E-04-7.53147E-15
 -1       459 3.21351E-03-4.63267E-04-8.55130E-15
 -1       460 3.53031E-03-6.06524E-04-9.40060E-15
 -1       461 3.89692E-03-7.12736E-04-1.05606E-14
 -1       462 4.31366E-03-6.81069E-04-1.21315E-14
 -1       463 4.60458E-03-5.71381E-04-1.31978E-14
 -1       464 5.04082E-03-3.56061E-04-1.44378E-14
 -1       465 5.40666E-03-1.65058E-04-1.53755E-14
 -1       466 5.77149E-03 1.36867E-05-1.62128E-14
 -1       467 6.08671E-03 1.50284E-04-1.68375E-14
 -1       468 6.30778E-03 2.42045E-04-1.72688E-14
 -1       469 5.02375E-03 9.97449E-04-1.34856E-14
 -1       470 2.17005E-03 2.84104E-04-6.04955E-15
 -1       471 2.98695E-03-3.40728E-04-7.74505E-15
 -1       472 9.97657E-04 2.72765E-04-6.14932E-16
 -1       473 6.20286E-04-2.76256E-05-5.28772E-16
 -1       474 6.46080E-04-6.00917E-05-5.18838E-16
 -1       475 5.89742E-04 1.53020E-05-5.31489E-16
 -1       476 5.89913E-04 3.10418E-05-5.25340E-16
 -1       477 6.01911E-04 4.77264E-05-5.13803E-16
 -1       478 6.25719E-04 7.01102E-05-4.95433E-16
 -1       479 6.59657E-04 1.01820E-04-4.68592E-16
 -1       480 7.02030E-04 1.46136E-04-4.30567E-16
 -1       481 5.56058E-03 7.07191E-04-1.58505E-14
 -1       482 1.31037E-03 3.31921E-04-1.06736E-15
 -1       483 1.03299E-03-2.70719E-04-8.19633E-16
 -1       484 4.84604E-03 1.10352E-03-1.32401E-14
 -1       485 1.34132E-03-3.29506E-04-1.35358E-15
 -1       486 1.65347E-03-3.86226E-04-2.02325E-15
 -1       487 1.97048E-03-4.47090E-04-2.82982E-15
 -1       488 2.29302E-03-5.17170E-04-3.77329E-15
 -1       489 2.62032E-03-5.98832E-04-4.85361E-15
 -1       490 2.94937E-03-6.89393E-04-6.07380E-15
 -1       491 3.27521E-03-7.78540E-04-7.43566E-15
 -1       492 3.59327E-03-8.47839E-04-8.94168E-15
 -1       493 3.90318E-03-8.75857E-04-1.05923E-14
 -1       494 4.21034E-03-8.48625E-04-1.23885E-14
 -1       495 4.52237E-03-7.68874E-04-1.43261E-14
 -1       496 4.84328E-03-6.54267E-04-1.63987E-14
 -1       497 5.17120E-03-5.27240E-04-1.86013E-14
 -1       498 5.50096E-03-4.05346E-04-2.09204E-14
 -1       499 5.82776E-03-2.98014E-04-2.33508E-14
 -1       500 6.14887E-03-2.08016E-04-2.58867E-14
 -1       501 6.46356E-03-1.34214E-04-2.85231E-14
 -1       502 6.77230E-03-7.37473E-05-3.12586E-14
 -1       503 7.07599E-03-2.33539E-05-3.40878E-14
 -1       504 7.37561E-03 1.99767E-05-3.70093E-14
 -1       505 7.67203E-03 5.87365E-05-4.00252E-14
 -1       506 7.96592E-03 9.48449E-05-4.31267E-14
 -1       507 8.25785E-03 1.29695E-04-4.63087E-14
 -1       508 8.54824E-03 1.64242E-04-4.95675E-14
 -1       509 8.83743E-03 1.99097E-04-5.29023E-14
 -1       510 9.12569E-03 2.34613E-04-5.63107E-14
 -1       511 9.41323E-03 2.70966E-04-5.97934E-14
 -1       512 9.70024E-03 3.08205E-04-6.33458E-14
 -1       513 9.98683E-03 3.46303E-04-6.69620E-14
 -1       514 1.02731E-02 3.85187E-04-7.06346E-14
 -1       515 1.05592E-02 4.24763E-04-7.43489E-14
 -1       516 1.08451E-02 4.64928E-04-7.81041E-14
 -1       517 1.11309E-02 5.05581E-04-8.18964E-14
 -1       518 1.14167E-02 5.46631E-04-8.57278E-14
 -1       519 1.17024E-02 5.87995E-04-8.95960E-14
 -1       520 1.19881E-02 6.29605E-04-9.35007E-14
 -1       521 1.22737E-02 6.71402E-04-9.74477E-14
 -1       522 1.25594E-02 7.13337E-04-1.01428E-13
 -1       523 1.28451E-02 7.55373E-04-1.05439E-13
 -1       524 1.31307E-02 7.97479E-04-1.09473E-13
 -1       525 1.34164E-02 8.39628E-04-1.13519E-13
 -1       526 1.37021E-02 8.81802E-04-1.17568E-13
 -1       527 1.39878E-02 9.23984E-04-1.21610E-13
 -1       528 1.95045E-03 4.56593E-04-2.35728E-15
 -1       529 2.28388E-03 5.42441E-04-3.19488E-15
 -1       530 2.63029E-03 6.57408E-04-4.16145E-15
 -1       531 2.99004E-03 8.07489E-04-5.25869E-15
 -1       532 3.35786E-03 9.87033E-04-6.49395E-15
 -1       533 3.72207E-03 1.16754E-03-7.87608E-15
 -1       534 4.07272E-03 1.29575E-03-9.41338E-15
 -1       535 4.41525E-03 1.32524E-03-1.11111E-14
 -1       536 4.76526E-03 1.25060E-03-1.29718E-14
 -1       537 5.12959E-03 1.11806E-03-1.49883E-14
 -1       538 5.49869E-03 9.82787E-04-1.71493E-14
 -1       539 5.86183E-03 8.77949E-04-1.94381E-14
 -1       540 6.21189E-03 8.12880E-04-2.18406E-14
 -1       541 6.54825E-03 7.84136E-04-2.43472E-14
 -1       542 6.87312E-03 7.83948E-04-2.69579E-14
 -1       543 7.18913E-03 8.04323E-04-2.96749E-14
 -1       544 7.49847E-03 8.38552E-04-3.24939E-14
 -1       545 7.80267E-03 8.81527E-04-3.54092E-14
 -1       546 8.10284E-03 9.29582E-04-3.84195E-14
 -1       547 8.39980E-03 9.80214E-04-4.15212E-14
 -1       548 8.69417E-03 1.03179E-03-4.47083E-14
 -1       549 8.98646E-03 1.08329E-03-4.79734E-14
 -1       550 9.27709E-03 1.13413E-03-5.13130E-14
 -1       551 9.56642E-03 1.18401E-03-5.47317E-14
 -1       552 9.85472E-03 1.23282E-03-5.82287E-14
 -1       553 1.01422E-02 1.28056E-03-6.18017E-14
 -1       554 1.04292E-02 1.32731E-03-6.54367E-14
 -1       555 1.07157E-02 1.37317E-03-6.91320E-14
 -1       556 1.10019E-02 1.41827E-03-7.28876E-14
 -1       557 1.12879E-02 1.46272E-03-7.67017E-14
 -1       558 1.15737E-02 1.50664E-03-8.05548E-14
 -1       559 1.18595E-02 1.55014E-03-8.44467E-14
 -1       560 1.21451E-02 1.59329E-03-8.83698E-14
 -1       561 1.24308E-02 1.63618E-03-9.23265E-14
 -1       562 1.27164E-02 1.67887E-03-9.63184E-14
 -1       563 1.30021E-02 1.72141E-03-1.00343E-13
 -1       564 1.32877E-02 1.76383E-03-1.04392E-13
 -1       565 1.35733E-02 1.80619E-03-1.08451E-13
 -1       566 1.38590E-02 1.84849E-03-1.12512E-13
 -1       567 1.41447E-02 1.89077E-03-1.16575E-13
 -1       568 1.44304E-02 1.93303E-03-1.20644E-13
 -1       569 1.47160E-02 1.97530E-03-1.24724E-13
 -1       570 1.45971E-02 1.70415E-03-1.25019E-13
 -1       571 1.45555E-02 1.61981E-03-1.25031E-13
 -1       572 1.46798E-02 1.87138E-03-1.24981E-13
 -1       573 1.46385E-02 1.78777E-03-1.25000E-13
 -1       574 1.45139E-02 1.53545E-03-1.25043E-13
 -1       575 1.44724E-02 1.45110E-03-1.25055E-13
 -1       576 1.44309E-02 1.36674E-03-1.25065E-13
 -1       577 1.43901E-02 1.28382E-03-1.25068E-13
 -1       578 1.43487E-02 1.19948E-03-1.25065E-13
 -1       579 1.43074E-02 1.11514E-03-1.25064E-13
 -1       580 1.42660E-02 1.03082E-03-1.25062E-13
 -1       581 6.42555E-03 3.28035E-04-1.85361E-14
 -1       582 5.99077E-03 5.06985E-04-1.74936E-14
 -1       583 1.62706E-03 3.89922E-04-1.64785E-15
 -1       584 6.39944E-03 2.92739E-04-1.86583E-14
 -1       585 6.28724E-03 3.87415E-04-1.82423E-14
 -1       586 7.48587E-04-1.98294E-04-4.60860E-16
 -1       587 6.22764E-03 2.35977E-04-1.85671E-14
 -1       588 3.67886E-03-6.75629E-04-9.65136E-15
 -1       589 2.54443E-03-1.23641E-04-6.71097E-15
 -1       590 2.88673E-03 6.15526E-04-6.79477E-15
 -1       591 6.00630E-04-3.19124E-06-5.32797E-16
 -1       592 4.40651E-03 1.25677E-03-1.13066E-14
 -1       593 3.33799E-03 8.80795E-04-7.59278E-15
 -1       594 4.07848E-03 1.24346E-03-9.89574E-15
 -1       595 1.89970E-03 1.85059E-04-5.64879E-15
 -1       596 3.73350E-03 1.10819E-03-8.66299E-15
 -1       597 2.56245E-03 4.46466E-04-6.33325E-15
 -1       598 1.84988E-03 1.52097E-04-5.71676E-15
 -1       599 1.94059E-03 1.08664E-04-5.78252E-15
 -1       600 2.20301E-03 1.78989E-05-6.12166E-15
 -1       601 4.10044E-03-7.36767E-04-1.14374E-14
 -1       602 3.38344E-03-5.46037E-04-8.70034E-15
 -1       603 5.21157E-03-2.29287E-04-1.58057E-14
 -1       604 4.44498E-03-6.42111E-04-1.29740E-14
 -1       605 4.82608E-03-4.48946E-04-1.44957E-14
 -1       606 5.57833E-03-3.74843E-05-1.66871E-14
 -1       607 5.93761E-03 1.24423E-04-1.75165E-14
 -1       608 5.21579E-03 8.97662E-04-1.46563E-14
 -1       609 7.54863E-04 2.27843E-04-3.33230E-16
 -1       610 6.75969E-04-1.01659E-04-5.01528E-16
 -1       611 2.32975E-03 3.39116E-04-5.74169E-15
 -1       612 3.88751E-03-7.45734E-04-1.04729E-14
 -1       613 2.75371E-03-2.35920E-04-6.89861E-15
 -1       614 1.98737E-03 2.11754E-04-5.44985E-15
 -1       615 3.15367E-03-4.41591E-04-7.87867E-15
 -1       616 1.41801E-02 9.50824E-04-1.24344E-13
 -1       617 4.68240E-03 1.18297E-03-1.25505E-14
 -1       618 7.94865E-04 5.49204E-05-8.92417E-16
 -1       619 7.86580E-04 3.29005E-05-9.06671E-16
 -1       620 8.63435E-04 1.15427E-04-8.35788E-16
 -1       621 9.18427E-04 1.62877E-04-7.88574E-16
 -1       622 1.43941E-02 1.82912E-03-1.20911E-13
 -1       623 1.08552E-03 2.35091E-04-9.05705E-16
 -1       624 4.86290E-03 1.14069E-03-1.34806E-14
 -1       625 5.17692E-03 9.63042E-04-1.49190E-14
 -1       626 1.43875E-03-2.78258E-04-1.73892E-15
 -1       627 1.74891E-03-3.28568E-04-2.48350E-15
 -1       628 2.06829E-03-3.86353E-04-3.36175E-15
 -1       629 2.39820E-03-4.57157E-04-4.37169E-15
 -1       630 2.73769E-03-5.44103E-04-5.51613E-15
 -1       631 3.08181E-03-6.43817E-04-6.79838E-15
 -1       632 3.42195E-03-7.41238E-04-8.22309E-15
 -1       633 3.75172E-03-8.07891E-04-9.79413E-15
 -1       634 4.07203E-03-8.14168E-04-1.15142E-14
 -1       635 4.39417E-03-7.50896E-04-1.33835E-14
 -1       636 4.72657E-03-6.33924E-04-1.53927E-14
 -1       637 5.06833E-03-4.96371E-04-1.75351E-14
 -1       638 5.41145E-03-3.64047E-04-1.98003E-14
 -1       639 5.74804E-03-2.49720E-04-2.21770E-14
 -1       640 6.07421E-03-1.55921E-04-2.46625E-14
 -1       641 6.38973E-03-8.02785E-05-2.72492E-14
 -1       642 6.69630E-03-1.89212E-05-2.99362E-14
 -1       643 6.99612E-03 3.19561E-05-3.27198E-14
 -1       644 7.29119E-03 7.55820E-05-3.55923E-14
 -1       645 7.58306E-03 1.14511E-04-3.85601E-14
 -1       646 7.87283E-03 1.50674E-04-4.16186E-14
 -1       647 8.16123E-03 1.85472E-04-4.47593E-14
 -1       648 8.44875E-03 2.19876E-04-4.79794E-14
 -1       649 8.73569E-03 2.54521E-04-5.12769E-14
 -1       650 9.02226E-03 2.89786E-04-5.46483E-14
 -1       651 9.30857E-03 3.25869E-04-5.80904E-14
 -1       652 9.59470E-03 3.62839E-04-6.16041E-14
 -1       653 9.88071E-03 4.00682E-04-6.51875E-14
 -1       654 1.01666E-02 4.39334E-04-6.88314E-14
 -1       655 1.04525E-02 4.78704E-04-7.25284E-14
 -1       656 1.07383E-02 5.18693E-04-7.62616E-14
 -1       657 1.10241E-02 5.59198E-04-8.00351E-14
 -1       658 1.13099E-02 6.00127E-04-8.38441E-14
 -1       659 1.15956E-02 6.41394E-04-8.76913E-14
 -1       660 1.18813E-02 6.82927E-04-9.15748E-14
 -1       661 1.21671E-02 7.24664E-04-9.55002E-14
 -1       662 1.24528E-02 7.66555E-04-9.94656E-14
 -1       663 1.27385E-02 8.08560E-04-1.03457E-13
 -1       664 1.30242E-02 8.50643E-04-1.07476E-13
 -1       665 1.33099E-02 8.92781E-04-1.11514E-13
 -1       666 1.35956E-02 9.34950E-04-1.15555E-13
 -1       667 1.38814E-02 9.77135E-04-1.19598E-13
 -1       668 2.32920E-03 4.89248E-04-3.80257E-15
 -1       669 5.80200E-03 6.76726E-05-1.82179E-14
 -1       670 2.00087E-03 4.03104E-04-2.89084E-15
 -1       671 3.05512E-03 7.74510E-04-6.00458E-15
 -1       672 5.38249E-03 9.30418E-04-1.62316E-14
 -1       673 5.76090E-03 8.07309E-04-1.84688E-14
 -1       674 6.11486E-03 7.32793E-04-2.08231E-14
 -1       675 6.44579E-03 6.99194E-04-2.32830E-14
 -1       676 6.76002E-03 6.95722E-04-2.58445E-14
 -1       677 7.06367E-03 7.13359E-04-2.85071E-14
 -1       678 7.36106E-03 7.45277E-04-3.12754E-14
 -1       679 7.65483E-03 7.86463E-04-3.41399E-14
 -1       680 7.94646E-03 8.33292E-04-3.70989E-14
 -1       681 8.23671E-03 8.83212E-04-4.01518E-14
 -1       682 8.52600E-03 9.34489E-04-4.32954E-14
 -1       683 8.81455E-03 9.85993E-04-4.65189E-14
 -1       684 9.10250E-03 1.03703E-03-4.98180E-14
 -1       685 9.38995E-03 1.08723E-03-5.31937E-14
 -1       686 9.67700E-03 1.13640E-03-5.66489E-14
 -1       687 9.96371E-03 1.18452E-03-6.01816E-14
 -1       688 1.02502E-02 1.23162E-03-6.37770E-14
 -1       689 1.05364E-02 1.27780E-03-6.74352E-14
 -1       690 1.08225E-02 1.32318E-03-7.11535E-14
 -1       691 1.11084E-02 1.36786E-03-7.49324E-14
 -1       692 1.13943E-02 1.41198E-03-7.87553E-14
 -1       693 1.16801E-02 1.45562E-03-8.26198E-14
 -1       694 1.19658E-02 1.49890E-03-8.65171E-14
 -1       695 1.22515E-02 1.54189E-03-9.04442E-14
 -1       696 1.25372E-02 1.58465E-03-9.44064E-14
 -1       697 1.28229E-02 1.62724E-03-9.84034E-14
 -1       698 1.31086E-02 1.66971E-03-1.02429E-13
 -1       699 1.33943E-02 1.71209E-03-1.06471E-13
 -1       700 1.36800E-02 1.75441E-03-1.10522E-13
 -1       701 1.39657E-02 1.79669E-03-1.14577E-13
 -1       702 1.41799E-02 1.81290E-03-1.17743E-13
 -1       703 1.42457E-02 1.45671E-03-1.21539E-13
 -1       704 1.40737E-02 1.00398E-03-1.22327E-13
 -1       705 1.43289E-02 1.62539E-03-1.21511E-13
 -1       706 1.42042E-02 1.37236E-03-1.21549E-13
 -1       707 1.42873E-02 1.54105E-03-1.21528E-13
 -1       708 5.47174E-03 7.92541E-04-1.61310E-14
 -1       709 1.41634E-02 1.28945E-03-1.21554E-13
 -1       710 1.41220E-02 1.20510E-03-1.21557E-13
 -1       711 1.40806E-02 1.12077E-03-1.21560E-13
 -1       712 6.46322E-03 3.63314E-04-2.01207E-14
 -1       713 6.24072E-03 4.42971E-04-1.92304E-14
 -1       714 8.98387E-04-1.84079E-04-7.40083E-16
 -1       715 4.29691E-03-7.11413E-04-1.25254E-14
 -1       716 5.05154E-03-3.37379E-04-1.59999E-14
 -1       717 6.40006E-03 2.86617E-04-2.00993E-14
 -1       718 1.38405E-03 2.85738E-04-1.44145E-15
 -1       719 2.00024E-03 6.61793E-05-5.39472E-15
 -1       720 1.68783E-03 3.38807E-04-2.10354E-15
 -1       721 6.48036E-03 3.22725E-04-1.98843E-14
 -1       722 2.67962E-03 6.09595E-04-4.83914E-15
 -1       723 1.16553E-03-2.31925E-04-1.18688E-15
 -1       724 5.87321E-03 5.94360E-04-1.77909E-14
 -1       725 3.04754E-03 7.22287E-04-6.51985E-15
 -1       726 1.80472E-03 1.51386E-04-5.05863E-15
 -1       727 8.21163E-04 8.07407E-05-8.69323E-16
 -1       728 6.10967E-03 1.90593E-04-1.92875E-14
 -1       729 2.67482E-03 5.08854E-04-5.93434E-15
 -1       730 8.54319E-04-5.88535E-05-9.00870E-16
 -1       731 4.65784E-03-5.56872E-04-1.42657E-14
 -1       732 3.46333E-03-6.15903E-04-8.70904E-15
 -1       733 1.82167E-03 1.23263E-04-5.11835E-15
 -1       734 2.32452E-03-5.79599E-05-5.86217E-15
 -1       735 5.47752E-03-9.16044E-05-1.72923E-14
 -1       736 3.36893E-03 9.33992E-04-7.05682E-15
 -1       737 7.96020E-04 9.36595E-06-9.12576E-16
 -1       738 8.94791E-04-1.07855E-04-8.81426E-16
 -1       739 1.43702E-02 1.70901E-03-1.21493E-13
 -1       740 6.33332E-03 2.52587E-04-2.08347E-14
 -1       741 6.15514E-03 5.17151E-04-1.95342E-14
 -1       742 2.10135E-03 2.54960E-04-5.15260E-15
 -1       743 3.67311E-03-7.23882E-04-9.47099E-15
 -1       744 4.08738E-03-7.66194E-04-1.14998E-14
 -1       745 2.90988E-03-3.42421E-04-7.01477E-15
 -1       746 2.08734E-03 1.47443E-06-5.14454E-15
 -1       747 1.83697E-03 1.68064E-04-4.86754E-15
 -1       748 8.20047E-04-2.01981E-05-9.10862E-16
 -1       749 2.50170E-03-1.53807E-04-6.02667E-15
 -1       750 5.99735E-03 1.17017E-04-2.01135E-14
 -1       751 1.12184E-03 1.70668E-04-1.25252E-15
 -1       752 1.39363E-02 1.29435E-03-1.18051E-13
 -1       753 5.74572E-03 7.20514E-04-1.78842E-14
 -1       754 1.83740E-03-2.63920E-04-2.96085E-15
 -1       755 2.15942E-03-3.16926E-04-3.90375E-15
 -1       756 2.49819E-03-3.88754E-04-4.97480E-15
 -1       757 2.85350E-03-4.85047E-04-6.17931E-15
 -1       758 3.21747E-03-6.02321E-04-7.52097E-15
 -1       759 4.60049E-03-6.30153E-04-1.43845E-14
 -1       760 4.95885E-03-4.76702E-04-1.64681E-14
 -1       761 5.31865E-03-3.27736E-04-1.86782E-14
 -1       762 5.66826E-03-2.03395E-04-2.10055E-14
 -1       763 6.00149E-03-1.05814E-04-2.34388E-14
 -1       764 6.31882E-03-2.97581E-05-2.59762E-14
 -1       765 6.62352E-03 3.08422E-05-2.86141E-14
 -1       766 6.91938E-03 8.08632E-05-3.13508E-14
 -1       767 7.20956E-03 1.23903E-04-3.41783E-14
 -1       768 7.49640E-03 1.62539E-04-3.70980E-14
 -1       769 7.78145E-03 1.98610E-04-4.01107E-14
 -1       770 8.06571E-03 2.33416E-04-4.32077E-14
 -1       771 8.34974E-03 2.67855E-04-4.63897E-14
 -1       772 8.63384E-03 3.02522E-04-4.96505E-14
 -1       773 8.91817E-03 3.37778E-04-5.29845E-14
 -1       774 9.20276E-03 3.73820E-04-5.63876E-14
 -1       775 9.48762E-03 4.10722E-04-5.98665E-14
 -1       776 9.77271E-03 4.48480E-04-6.34145E-14
 -1       777 1.00580E-02 4.87038E-04-6.70275E-14
 -1       778 1.03434E-02 5.26312E-04-7.07010E-14
 -1       779 1.06290E-02 5.66208E-04-7.44151E-14
 -1       780 1.09146E-02 6.06628E-04-7.81674E-14
 -1       781 1.12002E-02 6.47481E-04-8.19583E-14
 -1       782 1.14860E-02 6.88682E-04-8.57865E-14
 -1       783 1.17717E-02 7.30159E-04-8.96496E-14
 -1       784 1.20574E-02 7.71851E-04-9.35537E-14
 -1       785 1.23432E-02 8.13705E-04-9.74996E-14
 -1       786 1.26289E-02 8.55681E-04-1.01478E-13
 -1       787 1.29147E-02 8.97744E-04-1.05483E-13
 -1       788 1.32004E-02 9.39868E-04-1.09507E-13
 -1       789 1.34862E-02 9.82030E-04-1.13540E-13
 -1       790 1.37719E-02 1.02421E-03-1.17578E-13
 -1       791 5.72129E-03-8.24278E-06-1.91425E-14
 -1       792 6.67106E-03 6.07000E-04-2.47384E-14
 -1       793 6.95842E-03 6.25002E-04-2.73520E-14
 -1       794 7.24056E-03 6.55994E-04-3.00668E-14
 -1       795 7.52101E-03 6.95627E-04-3.28819E-14
 -1       796 7.80153E-03 7.40819E-04-3.57922E-14
 -1       797 8.08282E-03 7.89322E-04-3.87940E-14
 -1       798 8.36507E-03 8.39521E-04-4.18887E-14
 -1       799 8.64821E-03 8.90288E-04-4.50696E-14
 -1       800 8.93209E-03 9.40881E-04-4.83289E-14
 -1       801 9.21653E-03 9.90850E-04-5.16642E-14
 -1       802 9.50140E-03 1.03996E-03-5.50761E-14
 -1       803 9.78657E-03 1.08810E-03-5.85653E-14
 -1       804 1.00719E-02 1.13530E-03-6.21252E-14
 -1       805 1.03575E-02 1.18160E-03-6.57446E-14
 -1       806 1.06431E-02 1.22710E-03-6.94245E-14
 -1       807 1.09287E-02 1.27192E-03-7.31702E-14
 -1       808 1.12144E-02 1.31615E-03-7.69647E-14
 -1       809 1.15002E-02 1.35990E-03-8.07980E-14
 -1       810 1.17859E-02 1.40326E-03-8.46723E-14
 -1       811 1.20717E-02 1.44632E-03-8.85767E-14
 -1       812 1.23574E-02 1.48914E-03-9.25082E-14
 -1       813 1.26432E-02 1.53178E-03-9.64745E-14
 -1       814 1.29289E-02 1.57428E-03-1.00473E-13
 -1       815 1.32146E-02 1.61668E-03-1.04497E-13
 -1       816 1.35004E-02 1.65902E-03-1.08539E-13
 -1       817 1.37861E-02 1.70131E-03-1.12589E-13
 -1       818 1.39778E-02 1.37869E-03-1.18042E-13
 -1       819 1.82069E-03 8.56583E-05-4.66311E-15
 -1       820 1.38538E-02 1.12639E-03-1.18060E-13
 -1       821 6.56886E-03 3.26241E-04-2.19034E-14
 -1       822 1.38950E-02 1.21037E-03-1.18056E-13
 -1       823 6.37204E-03 6.08760E-04-2.22233E-14
 -1       824 5.33542E-03-2.18414E-04-1.77781E-14
 -1       825 6.07374E-03 6.43938E-04-2.00095E-14
 -1       826 6.48657E-03 4.22982E-04-2.14593E-14
 -1       827 6.61217E-03 3.64596E-04-2.21540E-14
 -1       828 2.02790E-03 3.45086E-04-3.44384E-15
 -1       829 2.34315E-03 3.69229E-04-5.07214E-15
 -1       830 1.71106E-03 1.22373E-04-4.37403E-15
 -1       831 1.24721E-03 2.23267E-04-1.35111E-15
 -1       832 1.52971E-03-2.21834E-04-2.14647E-15
 -1       833 3.18522E-03-5.08447E-04-7.66275E-15
 -1       834 2.69724E-03 5.62483E-04-5.38624E-15
 -1       835 9.85134E-04 5.74795E-05-1.37034E-15
 -1       836 1.05594E-03 1.22116E-04-1.30587E-15
 -1       837 1.10764E-03-1.02289E-04-1.36311E-15
 -1       838 1.41021E-02 1.63062E-03-1.17999E-13
 -1       839 9.87834E-04 2.98290E-05-1.38480E-15
 -1       840 6.55623E-03 3.03023E-04-2.26636E-14
 -1       841 1.40003E-02 1.71753E-03-1.15751E-13
 -1       842 1.40604E-02 1.54629E-03-1.18018E-13
 -1       843 1.70051E-03 1.36069E-04-4.19694E-15
 -1       844 1.86703E-03 3.60466E-05-4.42666E-15
 -1       845 1.40191E-02 1.46249E-03-1.18034E-13
 -1       846 1.90036E-03 1.96842E-04-4.58515E-15
 -1       847 1.73029E-03 2.87332E-04-2.58385E-15
 -1       848 2.24051E-03-7.26205E-05-5.29477E-15
 -1       849 1.48861E-03 2.54418E-04-1.91834E-15
 -1       850 1.00832E-03 8.59671E-05-1.34454E-15
 -1       851 2.34638E-03 4.32637E-04-4.36085E-15
 -1       852 1.26142E-03-1.85069E-04-1.52832E-15
 -1       853 1.05591E-03-4.69232E-05-1.38134E-15
 -1       854 6.25316E-03 1.93947E-04-2.16833E-14
 -1       855 2.64491E-03-2.53818E-04-6.12553E-15
 -1       856 1.41410E-02 1.72177E-03-1.17876E-13
 -1       857 2.23378E-03-2.36699E-04-4.45503E-15
 -1       858 1.35681E-02 1.08420E-03-1.14024E-13
 -1       859 5.95428E-03-3.92301E-05-2.22252E-14
 -1       860 6.27066E-03 3.38900E-05-2.47137E-14
 -1       861 6.57033E-03 9.03258E-05-2.73020E-14
 -1       862 6.85929E-03 1.36749E-04-2.99910E-14
 -1       863 7.14208E-03 1.77333E-04-3.27732E-14
 -1       864 7.42183E-03 2.14577E-04-3.56447E-14
 -1       865 7.70049E-03 2.50034E-04-3.86109E-14
 -1       866 7.97919E-03 2.84723E-04-4.16651E-14
 -1       867 8.25855E-03 3.19322E-04-4.48045E-14
 -1       868 8.53883E-03 3.54275E-04-4.80274E-14
 -1       869 8.82009E-03 3.89851E-04-5.13256E-14
 -1       870 9.10229E-03 4.26191E-04-5.46944E-14
 -1       871 9.38531E-03 4.63347E-04-5.81353E-14
 -1       872 9.66903E-03 5.01306E-04-6.16509E-14
 -1       873 9.95330E-03 5.40014E-04-6.52304E-14
 -1       874 1.02380E-02 5.79394E-04-6.88722E-14
 -1       875 1.05231E-02 6.19359E-04-7.25680E-14
 -1       876 1.08084E-02 6.59821E-04-7.63025E-14
 -1       877 1.10938E-02 7.00695E-04-8.00761E-14
 -1       878 1.13794E-02 7.41903E-04-8.38861E-14
 -1       879 1.16651E-02 7.83378E-04-8.77327E-14
 -1       880 1.19508E-02 8.25061E-04-9.16161E-14
 -1       881 1.22366E-02 8.66905E-04-9.55397E-14
 -1       882 1.25224E-02 9.08869E-04-9.95020E-14
 -1       883 1.28081E-02 9.50922E-04-1.03495E-13
 -1       884 1.30939E-02 9.93037E-04-1.07505E-13
 -1       885 1.33310E-02 1.03861E-03-1.10760E-13
 -1       886 5.66800E-03-1.12226E-04-2.00810E-14
 -1       887 5.95822E-03 5.72042E-05-2.08856E-14
 -1       888 7.13417E-03 5.72734E-04-2.88658E-14
 -1       889 6.87183E-03 5.41182E-04-2.62009E-14
 -1       890 7.66582E-03 6.54423E-04-3.44908E-14
 -1       891 7.93658E-03 7.00854E-04-3.74441E-14
 -1       892 8.21048E-03 7.49178E-04-4.04883E-14
 -1       893 8.48707E-03 7.98404E-04-4.36238E-14
 -1       894 8.76588E-03 8.47808E-04-4.68420E-14
 -1       895 9.04646E-03 8.96902E-04-5.01381E-14
 -1       896 9.32842E-03 9.45391E-04-5.35087E-14
 -1       897 9.61144E-03 9.93123E-04-5.69551E-14
 -1       898 9.89526E-03 1.04005E-03-6.04718E-14
 -1       899 1.01797E-02 1.08619E-03-6.40549E-14
 -1       900 1.04645E-02 1.13160E-03-6.77006E-14
 -1       901 1.07497E-02 1.17638E-03-7.14080E-14
 -1       902 1.10350E-02 1.22060E-03-7.51745E-14
 -1       903 1.13206E-02 1.26436E-03-7.89804E-14
 -1       904 1.16062E-02 1.30774E-03-8.28267E-14
 -1       905 1.18919E-02 1.35082E-03-8.67095E-14
 -1       906 1.21776E-02 1.39367E-03-9.06183E-14
 -1       907 1.24634E-02 1.43633E-03-9.45569E-14
 -1       908 1.27492E-02 1.47885E-03-9.85277E-14
 -1       909 1.30349E-02 1.52128E-03-1.02530E-13
 -1       910 1.33207E-02 1.56363E-03-1.06557E-13
 -1       911 1.36065E-02 1.60592E-03-1.10599E-13
 -1       912 1.01362E-03-3.46633E-06-1.38838E-15
 -1       913 1.37096E-02 1.29996E-03-1.14554E-13
 -1       914 6.71781E-03 4.20522E-04-2.38572E-14
 -1       915 6.41212E-03 5.08575E-04-2.17791E-14
 -1       916 2.09162E-03 2.79323E-04-4.51095E-15
 -1       917 1.60934E-03-1.58962E-04-2.57448E-15
 -1       918 6.73099E-03 3.59393E-04-2.39953E-14
 -1       919 1.64914E-03 8.60623E-05-3.86203E-15
 -1       920 7.39843E-03 6.11175E-04-3.16298E-14
 -1       921 6.64359E-03 5.19438E-04-2.39535E-14
 -1       922 1.91173E-03-1.90508E-04-3.45310E-15
 -1       923 1.34962E-03 1.96685E-04-1.79995E-15
 -1       924 1.65496E-03 4.83806E-05-3.64452E-15
 -1       925 1.35822E-03-1.24520E-04-1.94879E-15
 -1       926 1.28947E-03-5.59715E-05-1.97041E-15
 -1       927 1.17577E-03 5.66916E-05-1.94330E-15
 -1       928 1.38207E-02 1.62214E-03-1.13757E-13
 -1       929 1.60156E-03 1.02862E-04-3.70064E-15
 -1       930 2.00341E-03-3.52533E-05-4.50267E-15
 -1       931 1.36683E-02 1.21598E-03-1.14561E-13
 -1       932 1.37508E-02 1.38375E-03-1.14544E-13
 -1       933 1.71436E-03 1.55214E-04-3.93536E-15
 -1       934 1.75119E-03 2.35930E-04-3.08660E-15
 -1       935 1.38338E-02 1.55187E-03-1.14510E-13
 -1       936 6.68588E-03 4.65299E-04-2.39121E-14
 -1       937 6.52007E-03 2.60933E-04-2.35434E-14
 -1       938 1.18747E-03 8.77045E-05-1.91719E-15
 -1       939 1.19885E-03 2.16423E-05-1.95593E-15
 -1       940 6.53442E-03 1.52566E-04-2.59962E-14
 -1       941 6.81147E-03 1.92764E-04-2.86350E-14
 -1       942 7.08341E-03 2.29277E-04-3.13703E-14
 -1       943 7.35380E-03 2.64195E-04-3.41977E-14
 -1       944 7.62452E-03 2.98597E-04-3.71172E-14
 -1       945 7.89661E-03 3.33062E-04-4.01256E-14
 -1       946 8.17052E-03 3.67940E-04-4.32220E-14
 -1       947 8.44638E-03 4.03433E-04-4.64039E-14
 -1       948 8.72410E-03 4.39651E-04-4.96636E-14
 -1       949 9.00350E-03 4.76636E-04-5.29980E-14
 -1       950 9.28436E-03 5.14381E-04-5.64073E-14
 -1       951 9.56642E-03 5.52850E-04-5.98880E-14
 -1       952 9.84946E-03 5.91981E-04-6.34350E-14
 -1       953 1.01333E-02 6.31698E-04-6.70447E-14
 -1       954 1.04177E-02 6.71924E-04-7.07149E-14
 -1       955 1.07025E-02 7.12581E-04-7.44314E-14
 -1       956 1.09877E-02 7.53598E-04-7.81894E-14
 -1       957 1.12731E-02 7.94906E-04-8.19845E-14
 -1       958 1.15587E-02 8.36449E-04-8.58145E-14
 -1       959 1.18443E-02 8.78176E-04-8.96801E-14
 -1       960 1.21301E-02 9.20047E-04-9.35857E-14
 -1       961 1.24158E-02 9.62025E-04-9.75281E-14
 -1       962 1.27016E-02 1.00408E-03-1.01502E-13
 -1       963 1.29874E-02 1.04620E-03-1.05502E-13
 -1       964 8.32937E-03 7.10986E-04-4.21851E-14
 -1       965 7.03747E-03 4.96983E-04-2.76701E-14
 -1       966 1.96158E-03-1.08360E-04-3.95701E-15
 -1       967 8.05985E-03 6.64102E-04-3.90978E-14
 -1       968 7.79491E-03 6.18440E-04-3.61022E-14
 -1       969 8.60263E-03 7.58439E-04-4.53572E-14
 -1       970 8.87888E-03 8.05968E-04-4.86130E-14
 -1       971 9.15750E-03 8.53235E-04-5.19441E-14
 -1       972 9.43799E-03 9.00036E-04-5.53513E-14
 -1       973 9.71991E-03 9.46267E-04-5.88280E-14
 -1       974 1.00029E-02 9.91896E-04-6.23693E-14
 -1       975 1.02868E-02 1.03694E-03-6.59801E-14
 -1       976 1.05712E-02 1.08145E-03-6.96527E-14
 -1       977 1.08561E-02 1.12550E-03-7.33847E-14
 -1       978 1.11413E-02 1.16913E-03-7.71634E-14
 -1       979 1.14267E-02 1.21244E-03-8.09830E-14
 -1       980 1.17123E-02 1.25547E-03-8.48436E-14
 -1       981 1.19980E-02 1.29829E-03-8.87327E-14
 -1       982 1.22837E-02 1.34094E-03-9.26486E-14
 -1       983 1.25695E-02 1.38346E-03-9.65941E-14
 -1       984 1.28553E-02 1.42588E-03-1.00571E-13
 -1       985 1.31411E-02 1.46823E-03-1.04581E-13
 -1       986 1.34268E-02 1.51054E-03-1.08610E-13
 -1       987 1.23876E-03-1.28104E-05-1.96708E-15
 -1       988 1.37924E-02 1.46808E-03-1.14530E-13
 -1       989 1.30215E-03 1.42934E-04-1.98882E-15
 -1       990 1.36303E-02 1.53121E-03-1.11560E-13
 -1       991 6.91011E-03 4.12872E-04-2.61123E-14
 -1       992 1.67184E-03-9.00057E-05-3.02013E-15
 -1       993 1.55276E-03 2.16126E-04-2.40183E-15
 -1       994 1.75200E-03-2.18511E-06-3.71313E-15
 -1       995 2.21030E-03-1.48157E-04-4.73510E-15
 -1       996 2.37311E-03-1.64897E-04-5.33769E-15
 -1       997 1.47600E-03-7.08968E-05-2.46809E-15
 -1       998 6.75931E-03 3.26553E-04-2.52320E-14
 -1       999 1.37293E-03 5.32740E-05-2.60775E-15
 -1      1000 6.86186E-03 4.79290E-04-2.57659E-14
 -1      1001 6.24639E-03 1.03363E-04-2.34574E-14
 -1      1002 6.25949E-03 1.39102E-04-2.29887E-14
 -1      1003 1.32245E-02 1.09177E-03-1.08754E-13
 -1      1004 1.83374E-03 2.07066E-04-3.86594E-15
 -1      1005 1.34464E-02 1.15387E-03-1.11653E-13
 -1      1006 1.35889E-02 1.44743E-03-1.11584E-13
 -1      1007 7.53549E-03 5.74773E-04-3.31976E-14
 -1      1008 6.98301E-03 3.81592E-04-2.74028E-14
 -1      1009 1.34876E-02 1.23783E-03-1.11648E-13
 -1      1010 1.35289E-02 1.32161E-03-1.11639E-13
 -1      1011 1.56861E-03 1.19087E-04-3.46031E-15
 -1      1012 7.28268E-03 5.33995E-04-3.03844E-14
 -1      1013 1.47175E-03 6.64432E-05-3.02011E-15
 -1      1014 1.36068E-03 8.77581E-05-2.58319E-15
 -1      1015 1.57443E-03 1.62054E-04-2.98973E-15
 -1      1016 6.77662E-03 2.46666E-04-2.72847E-14
 -1      1017 1.35589E-02 1.38452E-03-1.11612E-13
 -1      1018 7.03294E-03 2.78438E-04-2.99724E-14
 -1      1019 7.29099E-03 3.10523E-04-3.27539E-14
 -1      1020 7.55204E-03 3.43687E-04-3.56262E-14
 -1      1021 7.81650E-03 3.77973E-04-3.85881E-14
 -1      1022 8.08434E-03 4.13317E-04-4.16431E-14
 -1      1023 8.35538E-03 4.49643E-04-4.47816E-14
 -1      1024 8.62930E-03 4.86851E-04-4.80015E-14
 -1      1025 8.90572E-03 5.24847E-04-5.13009E-14
 -1      1026 9.18425E-03 5.63544E-04-5.46755E-14
 -1      1027 9.46452E-03 6.02861E-04-5.81238E-14
 -1      1028 9.74621E-03 6.42715E-04-6.16386E-14
 -1      1029 1.00290E-02 6.83032E-04-6.52178E-14
 -1      1030 1.03127E-02 7.23739E-04-6.88583E-14
 -1      1031 1.05970E-02 7.64774E-04-7.25537E-14
 -1      1032 1.08818E-02 8.06080E-04-7.62939E-14
 -1      1033 1.11669E-02 8.47605E-04-8.00776E-14
 -1      1034 1.14524E-02 8.89305E-04-8.38922E-14
 -1      1035 1.17379E-02 9.31144E-04-8.77445E-14
 -1      1036 1.20236E-02 9.73091E-04-9.16308E-14
 -1      1037 1.23094E-02 1.01512E-03-9.55559E-14
 -1      1038 1.25952E-02 1.05721E-03-9.95134E-14
 -1      1039 1.28810E-02 1.09935E-03-1.03496E-13
 -1      1040 8.71245E-03 7.18371E-04-4.70881E-14
 -1      1041 8.44048E-03 6.73059E-04-4.38758E-14
 -1      1042 7.90984E-03 5.84442E-04-3.77118E-14
 -1      1043 8.98770E-03 7.63826E-04-5.03779E-14
 -1      1044 9.26555E-03 8.09171E-04-5.37468E-14
 -1      1045 9.54544E-03 8.54255E-04-5.71865E-14
 -1      1046 9.82692E-03 8.98991E-04-6.06918E-14
 -1      1047 1.01096E-02 9.43351E-04-6.42618E-14
 -1      1048 1.03932E-02 9.87344E-04-6.78998E-14
 -1      1049 1.06775E-02 1.03100E-03-7.15962E-14
 -1      1050 1.09623E-02 1.07435E-03-7.53493E-14
 -1      1051 1.12475E-02 1.11745E-03-7.91429E-14
 -1      1052 1.15329E-02 1.16034E-03-8.29797E-14
 -1      1053 1.18184E-02 1.20306E-03-8.68484E-14
 -1      1054 1.21041E-02 1.24564E-03-9.07415E-14
 -1      1055 1.23899E-02 1.28812E-03-9.46662E-14
 -1      1056 1.26756E-02 1.33052E-03-9.86209E-14
 -1      1057 1.29614E-02 1.37286E-03-1.02609E-13
 -1      1058 1.32473E-02 1.41515E-03-1.06622E-13
 -1      1059 1.34181E-02 1.43130E-03-1.09101E-13
 -1      1060 1.53448E-03 1.31499E-05-3.00941E-15
 -1      1061 6.71232E-03 2.76572E-04-2.58192E-14
 -1      1062 8.17261E-03 6.28252E-04-4.07497E-14
 -1      1063 7.14791E-03 4.55064E-04-2.89518E-14
 -1      1064 1.31181E-02 1.14492E-03-1.06740E-13
 -1      1065 7.38437E-03 4.91679E-04-3.17089E-14
 -1      1066 1.43776E-03 9.87123E-05-2.88881E-15
 -1      1067 7.65339E-03 5.42199E-04-3.47640E-14
 -1      1068 1.32607E-02 1.24316E-03-1.08159E-13
 -1      1069 6.97288E-03 3.40058E-04-2.80226E-14
 -1      1070 8.54537E-03 6.34061E-04-4.55664E-14
 -1      1071 7.23031E-03 3.52202E-04-3.13118E-14
 -1      1072 7.48042E-03 3.84558E-04-3.41376E-14
 -1      1073 7.73664E-03 4.19046E-04-3.70561E-14
 -1      1074 7.99810E-03 4.55173E-04-4.00658E-14
 -1      1075 8.26430E-03 4.92696E-04-4.31645E-14
 -1      1076 8.53446E-03 5.31265E-04-4.63422E-14
 -1      1077 8.80796E-03 5.70647E-04-4.96011E-14
 -1      1078 9.08423E-03 6.10661E-04-5.29417E-14
 -1      1079 9.36275E-03 6.51162E-04-5.63574E-14
 -1      1080 9.64314E-03 6.92062E-04-5.98415E-14
 -1      1081 9.92495E-03 7.33255E-04-6.33896E-14
 -1      1082 1.02079E-02 7.74676E-04-6.69971E-14
 -1      1083 1.04916E-02 8.16290E-04-7.06688E-14
 -1      1084 1.07761E-02 8.58049E-04-7.43896E-14
 -1      1085 1.10610E-02 8.99922E-04-7.81579E-14
 -1      1086 1.13462E-02 9.41884E-04-8.19631E-14
 -1      1087 1.16316E-02 9.83915E-04-8.58020E-14
 -1      1088 1.19173E-02 1.02600E-03-8.96760E-14
 -1      1089 1.22030E-02 1.06812E-03-9.35822E-14
 -1      1090 1.24887E-02 1.11028E-03-9.75242E-14
 -1      1091 1.27745E-02 1.15246E-03-1.01491E-13
 -1      1092 9.09317E-03 7.20652E-04-5.21380E-14
 -1      1093 8.01354E-03 5.49821E-04-3.93194E-14
 -1      1094 1.30236E-02 1.19755E-03-1.04910E-13
 -1      1095 9.37116E-03 7.64155E-04-5.55441E-14
 -1      1096 8.81768E-03 6.77217E-04-4.88124E-14
 -1      1097 9.65120E-03 8.07633E-04-5.90175E-14
 -1      1098 9.93278E-03 8.50994E-04-6.25499E-14
 -1      1099 1.02155E-02 8.94194E-04-6.61513E-14
 -1      1100 1.04992E-02 9.37237E-04-6.98136E-14
 -1      1101 1.07836E-02 9.80127E-04-7.35350E-14
 -1      1102 1.10684E-02 1.02288E-03-7.73031E-14
 -1      1103 1.13536E-02 1.06551E-03-8.11144E-14
 -1      1104 1.16390E-02 1.10804E-03-8.49608E-14
 -1      1105 1.19246E-02 1.15049E-03-8.88323E-14
 -1      1106 1.22103E-02 1.19288E-03-9.27368E-14
 -1      1107 1.24961E-02 1.23522E-03-9.66738E-14
 -1      1108 1.27819E-02 1.27752E-03-1.00643E-13
 -1      1109 1.30677E-02 1.31979E-03-1.04638E-13
 -1      1110 1.48255E-03-3.29425E-05-2.63323E-15
 -1      1111 8.27700E-03 5.91468E-04-4.24000E-14
 -1      1112 1.32907E-02 1.30606E-03-1.08132E-13
 -1      1113 7.22389E-03 4.18344E-04-3.02424E-14
 -1      1114 1.33544E-02 1.36868E-03-1.08617E-13
 -1      1115 7.75621E-03 5.09639E-04-3.63265E-14
 -1      1116 9.47516E-03 7.17862E-04-5.73399E-14
 -1      1117 7.65328E-03 4.55851E-04-3.55257E-14
 -1      1118 9.82068E-03 7.82290E-04-6.15564E-14
 -1      1119 7.40519E-03 4.20510E-04-3.26530E-14
 -1      1120 7.48449E-03 4.62112E-04-3.32322E-14
 -1      1121 0.00000E+00 0.00000E+00 0.00000E+00
 -1      1122 0.00000E+00 0.00000E+00 0.00000E+00
 -1      1123 0.00000E+00 0.00000E+00 0.00000E+00
 -1      1124 0.00000E+00 0.00000E+00 0.00000E+00
 -1      1125 0.00000E+00 0.00000E+00 0.00000E+00
 -1      1126 0.00000E+00 0.00000E+00 0.00000E+00
 -1      1127 0.00000E+00 0.00000E+00 0.00000E+00
 -1      1128 0.00000E+00 0.00000E+00 0.00000E+00
 -1      1129 0.00000E+00 0.00000E+00 0.00000E+00
 -1      1130 0.00000E+00 0.00000E+00 0.00000E+00
 -1      1131 0.00000E+00 0.00000E+00 0.00000E+00
 -1      1132 0.00000E+00 0.00000E+00 0.00000E+00
 -1      1133 0.00000E+00 0.00000E+00 0.00000E+00
 -1      1134 0.00000E+00 0.00000E+00 0.00000E+00
 -1      1135 0.00000E+00 0.00000E+00 0.00000E+00
 -1      1136 0.00000E+00 0.00000E+00 0.00000E+00
 -1      1137 0.00000E+00 0.00000E+00 0.00000E+00
 -1      1138 2.18509E-04-1.44721E-04 1.92581E-17
 -1      1139 5.81069E-04-3.18984E-04-3.24176E-17
 -1      1140 8.94935E-04-4.28512E-04-2.17437E-16
 -1      1141 1.20439E-03-5.06943E-04-5.57890E-16
 -1      1142 1.51586E-03-5.72506E-04-1.04924E-15
 -1      1143 1.83111E-03-6.35377E-04-1.68972E-15
 -1      1144 2.14913E-03-7.01983E-04-2.47812E-15
 -1      1145 2.46652E-03-7.75804E-04-3.41396E-15
 -1      1146 2.77797E-03-8.56648E-04-4.49741E-15
 -1      1147 3.07750E-03-9.39478E-04-5.72993E-15
 -1      1148 3.36055E-03-1.01408E-03-7.11058E-15
 -1      1149 3.62636E-03-1.06671E-03-8.63240E-15
 -1      1150 3.87964E-03-1.08421E-03-1.02928E-14
 -1      1151 4.12979E-03-1.05908E-03-1.20957E-14
 -1      1152 4.38782E-03-9.92905E-04-1.40354E-14
 -1      1153 4.66216E-03-8.95821E-04-1.61095E-14
 -1      1154 4.95609E-03-7.82476E-04-1.83119E-14
 -1      1155 5.26766E-03-6.67000E-04-2.06331E-14
 -1      1156 5.59163E-03-5.59571E-04-2.30668E-14
 -1      1157 5.92182E-03-4.65469E-04-2.56103E-14
 -1      1158 6.25288E-03-3.85914E-04-2.82516E-14
 -1      1159 6.58097E-03-3.19569E-04-3.09908E-14
 -1      1160 6.90390E-03-2.63924E-04-3.38249E-14
 -1      1161 7.22075E-03-2.16219E-04-3.67533E-14
 -1      1162 7.53153E-03-1.73961E-04-3.97756E-14
 -1      1163 7.83673E-03-1.35126E-04-4.28814E-14
 -1      1164 8.13714E-03-9.81876E-05-4.60662E-14
 -1      1165 8.43359E-03-6.20660E-05-4.93310E-14
 -1      1166 8.72689E-03-2.60417E-05-5.26765E-14
 -1      1167 9.01776E-03 1.03303E-05-5.60968E-14
 -1      1168 9.30681E-03 4.72964E-05-5.95873E-14
 -1      1169 9.59453E-03 8.49657E-05-6.31487E-14
 -1      1170 9.88132E-03 1.23357E-04-6.67703E-14
 -1      1171 1.01675E-02 1.62434E-04-7.04473E-14
 -1      1172 1.04532E-02 2.02130E-04-7.41662E-14
 -1      1173 1.07387E-02 2.42363E-04-7.79304E-14
 -1      1174 1.10240E-02 2.83049E-04-8.17346E-14
 -1      1175 1.13093E-02 3.24108E-04-8.55759E-14
 -1      1176 1.15946E-02 3.65467E-04-8.94492E-14
 -1      1177 1.18799E-02 4.07063E-04-9.33586E-14
 -1      1178 1.21652E-02 4.48841E-04-9.73075E-14
 -1      1179 1.24506E-02 4.90756E-04-1.01300E-13
 -1      1180 1.27361E-02 5.32771E-04-1.05332E-13
 -1      1181 1.30216E-02 5.74856E-04-1.09391E-13
 -1      1182 1.33072E-02 6.16987E-04-1.13456E-13
 -1      1183 1.35928E-02 6.59143E-04-1.17514E-13
 -1      1184 1.38784E-02 7.01309E-04-1.21570E-13
 -1      1185 1.41641E-02 7.43470E-04-1.25622E-13
 -1      1186 1.44498E-02 7.85615E-04-1.29680E-13
 -1      1187 1.47284E-02 8.26690E-04-1.33658E-13
 -1      1188 2.35766E-04 1.54874E-04 3.15367E-17
 -1      1189 5.87983E-04 3.15340E-04 6.36969E-18
 -1      1190 9.09042E-04 4.17043E-04-1.41556E-16
 -1      1191 1.23120E-03 4.90906E-04-4.29032E-16
 -1      1192 1.56152E-03 5.54846E-04-8.53443E-16
 -1      1193 1.90384E-03 6.21202E-04-1.41387E-15
 -1      1194 2.25890E-03 7.00672E-04-2.11189E-15
 -1      1195 2.62350E-03 8.02810E-04-2.94369E-15
 -1      1196 2.98955E-03 9.33724E-04-3.91112E-15
 -1      1197 3.34404E-03 1.09124E-03-5.02001E-15
 -1      1198 3.67229E-03 1.25934E-03-6.27810E-15
 -1      1199 3.96539E-03 1.40702E-03-7.68793E-15
 -1      1200 4.22868E-03 1.49774E-03-9.24833E-15
 -1      1201 4.48313E-03 1.50805E-03-1.09617E-14
 -1      1202 4.75545E-03 1.44226E-03-1.28334E-14
 -1      1203 5.06306E-03 1.33049E-03-1.48656E-14
 -1      1204 5.40671E-03 1.21050E-03-1.70391E-14
 -1      1205 5.77489E-03 1.11063E-03-1.93375E-14
 -1      1206 6.15261E-03 1.04380E-03-2.17533E-14
 -1      1207 6.52769E-03 1.01074E-03-2.42830E-14
 -1      1208 6.89287E-03 1.00595E-03-2.69176E-14
 -1      1209 7.24510E-03 1.02220E-03-2.96534E-14
 -1      1210 7.58414E-03 1.05288E-03-3.24922E-14
 -1      1211 7.91124E-03 1.09280E-03-3.54373E-14
 -1      1212 8.22824E-03 1.13823E-03-3.84837E-14
 -1      1213 8.53706E-03 1.18662E-03-4.16193E-14
 -1      1214 8.83945E-03 1.23629E-03-4.48296E-14
 -1      1215 9.13692E-03 1.28620E-03-4.81111E-14
 -1      1216 9.43069E-03 1.33573E-03-5.14715E-14
 -1      1217 9.72174E-03 1.38455E-03-5.49150E-14
 -1      1218 1.00108E-02 1.43252E-03-5.84454E-14
 -1      1219 1.02985E-02 1.47961E-03-6.20510E-14
 -1      1220 1.05852E-02 1.52586E-03-6.57198E-14
 -1      1221 1.08713E-02 1.57134E-03-6.94493E-14
 -1      1222 1.11570E-02 1.61616E-03-7.32384E-14
 -1      1223 1.14425E-02 1.66041E-03-7.70824E-14
 -1      1224 1.17278E-02 1.70418E-03-8.09748E-14
 -1      1225 1.20130E-02 1.74758E-03-8.49167E-14
 -1      1226 1.22983E-02 1.79067E-03-8.88906E-14
 -1      1227 1.25836E-02 1.83352E-03-9.28885E-14
 -1      1228 1.28689E-02 1.87618E-03-9.69197E-14
 -1      1229 1.31543E-02 1.91871E-03-1.00980E-13
 -1      1230 1.34398E-02 1.96114E-03-1.05057E-13
 -1      1231 1.37253E-02 2.00350E-03-1.09152E-13
 -1      1232 1.40109E-02 2.04581E-03-1.13238E-13
 -1      1233 1.42965E-02 2.08810E-03-1.17319E-13
 -1      1234 1.45821E-02 2.13037E-03-1.21409E-13
 -1      1235 1.48678E-02 2.17266E-03-1.25505E-13
 -1      1236 1.51535E-02 2.21495E-03-1.29586E-13
 -1      1237 1.54321E-02 2.25621E-03-1.33550E-13
 -1      1238 1.55470E-02 2.23417E-03-1.35489E-13
 -1      1239 1.55054E-02 2.14989E-03-1.35515E-13
 -1      1240 1.54637E-02 2.06559E-03-1.35549E-13
 -1      1241 1.54221E-02 1.98128E-03-1.35569E-13
 -1      1242 1.53804E-02 1.89694E-03-1.35586E-13
 -1      1243 1.53391E-02 1.81328E-03-1.35580E-13
 -1      1244 1.52979E-02 1.72961E-03-1.35584E-13
 -1      1245 1.52563E-02 1.64520E-03-1.35601E-13
 -1      1246 1.52148E-02 1.56079E-03-1.35619E-13
 -1      1247 1.51733E-02 1.47638E-03-1.35631E-13
 -1      1248 1.51318E-02 1.39197E-03-1.35620E-13
 -1      1249 1.50907E-02 1.30830E-03-1.35613E-13
 -1      1250 1.50497E-02 1.22465E-03-1.35606E-13
 -1      1251 1.50083E-02 1.14031E-03-1.35589E-13
 -1      1252 1.49669E-02 1.05599E-03-1.35595E-13
 -1      1253 1.49255E-02 9.71696E-04-1.35614E-13
 -1      1254 1.48845E-02 8.88125E-04-1.35623E-13
 -1      1255 6.39095E-03 3.53260E-04-1.53314E-14
 -1      1256 6.29054E-03 5.06047E-04-1.50640E-14
 -1      1257 6.06819E-03 6.70765E-04-1.45686E-14
 -1      1258 5.74297E-03 8.37117E-04-1.38840E-14
 -1      1259 5.37132E-03 9.80056E-04-1.31195E-14
 -1      1260 4.94610E-03 1.09308E-03-1.22529E-14
 -1      1261 4.46714E-03 1.15855E-03-1.12987E-14
 -1      1262 3.99635E-03 1.15561E-03-1.03997E-14
 -1      1263 3.54988E-03 1.08701E-03-9.59345E-15
 -1      1264 3.11135E-03 9.66299E-04-8.85614E-15
 -1      1265 2.71239E-03 8.14396E-04-8.23964E-15
 -1      1266 2.36672E-03 6.47573E-04-7.75381E-15
 -1      1267 2.09092E-03 4.73936E-04-7.40357E-15
 -1      1268 1.92291E-03 3.09168E-04-7.21911E-15
 -1      1269 1.87837E-03 1.58046E-04-7.20454E-15
 -1      1270 1.95364E-03 9.64742E-06-7.35480E-15
 -1      1271 2.13302E-03-1.36315E-04-7.65860E-15
 -1      1272 2.40505E-03-2.82635E-04-8.10795E-15
 -1      1273 2.78593E-03-4.33741E-04-8.75604E-15
 -1      1274 3.20730E-03-5.54578E-04-9.50769E-15
 -1      1275 3.63698E-03-6.26227E-04-1.03149E-14
 -1      1276 4.12377E-03-6.43688E-04-1.12701E-14
 -1      1277 4.59151E-03-5.99811E-04-1.22017E-14
 -1      1278 5.02104E-03-5.03995E-04-1.30480E-14
 -1      1279 5.42210E-03-3.74256E-04-1.38162E-14
 -1      1280 5.76268E-03-2.32397E-04-1.44375E-14
 -1      1281 6.04762E-03-8.38834E-05-1.49195E-14
 -1      1282 6.25854E-03 6.41350E-05-1.52398E-14
 -1      1283 6.37635E-03 2.07072E-04-1.53814E-14
 -1      1284 1.76063E-04-1.04390E-04-2.57498E-18
 -1      1285 1.19792E-04-4.68144E-05-2.87991E-17
 -1      1286 1.25490E-04-5.92229E-05-2.16163E-17
 -1      1287 1.13425E-04-3.04194E-05-4.07118E-17
 -1      1288 1.16458E-04-3.76786E-05-3.70797E-17
 -1      1289 2.40653E-04-8.64349E-05-8.73054E-17
 -1      1290 1.09048E-04-1.90241E-05-4.72306E-17
 -1      1291 1.11327E-04-2.42622E-05-4.52654E-17
 -1      1292 2.28247E-04-5.69049E-05-1.08502E-16
 -1      1293 1.05265E-04-1.06349E-05-5.13370E-17
 -1      1294 1.07216E-04-1.45466E-05-5.02799E-17
 -1      1295 2.18924E-04-3.57003E-05-1.21132E-16
 -1      1296 1.01983E-04-4.66462E-06-5.34376E-17
 -1      1297 1.03641E-04-7.45788E-06-5.29226E-17
 -1      1298 2.10920E-04-2.00875E-05-1.28573E-16
 -1      1299 9.92213E-05-5.92325E-07-5.47793E-17
 -1      1300 1.00563E-04-2.51151E-06-5.45760E-17
 -1      1301 2.03928E-04-8.78728E-06-1.32977E-16
 -1      1302 9.73008E-05 1.82014E-06-5.50368E-17
 -1      1303 9.81668E-05 6.33698E-07-5.49691E-17
 -1      1304 1.98255E-04-1.09223E-06-1.35010E-16
 -1      1305 9.64926E-05 3.10845E-06-5.48200E-17
 -1      1306 9.67533E-05 2.37060E-06-5.49691E-17
 -1      1307 1.94545E-04 3.67268E-06-1.35322E-16
 -1      1308 9.69909E-05 4.01717E-06-5.39391E-17
 -1      1309 9.65628E-05 3.35014E-06-5.41695E-17
 -1      1310 1.93373E-04 6.65032E-06-1.34184E-16
 -1      1311 9.88509E-05 5.43883E-06-5.25296E-17
 -1      1312 9.77247E-05 4.40768E-06-5.29633E-17
 -1      1313 1.95114E-04 9.35182E-06-1.31690E-16
 -1      1314 1.01911E-04 8.24366E-06-4.99817E-17
 -1      1315 1.00184E-04 6.45046E-06-5.08355E-17
 -1      1316 1.99762E-04 1.34690E-05-1.27516E-16
 -1      1317 1.06079E-04 1.34258E-05-4.61599E-17
 -1      1318 1.03786E-04 1.03764E-05-4.74203E-17
 -1      1319 2.07054E-04 2.07631E-05-1.20658E-16
 -1      1320 1.11125E-04 2.18978E-05-4.02103E-17
 -1      1321 1.08343E-04 1.71505E-05-4.25143E-17
 -1      1322 2.16639E-04 3.30763E-05-1.10738E-16
 -1      1323 1.17221E-04 3.50405E-05-3.04254E-17
 -1      1324 1.13722E-04 2.78136E-05-3.45860E-17
 -1      1325 2.28189E-04 5.23474E-05-9.52607E-17
 -1      1326 1.26222E-04 5.65210E-05-1.47587E-17
 -1      1327 1.20662E-04 4.44588E-05-2.23346E-17
 -1      1328 2.42717E-04 8.19360E-05-7.17606E-17
 -1      1329 1.67051E-04 1.02935E-04 9.85269E-18
 -1      1330 1.46421E-04 7.62395E-05-5.54298E-18
 -1      1331 2.77748E-04 1.29698E-04-4.37205E-17
 -1      1332 3.57761E-04 2.02895E-04-3.11708E-18
 -1      1333 4.48113E-04-2.43663E-04-5.07542E-17
 -1      1334 6.14613E-04-3.10722E-04-1.12066E-16
 -1      1335 7.76754E-04-3.64859E-04-2.13628E-16
 -1      1336 9.36374E-04-4.09629E-04-3.52623E-16
 -1      1337 6.59255E-04-2.97449E-04-2.03545E-16
 -1      1338 1.09434E-03-4.48660E-04-5.27668E-16
 -1      1339 1.25149E-03-4.83348E-04-7.39697E-16
 -1      1340 9.82494E-04-3.88668E-04-4.92418E-16
 -1      1341 1.40852E-03-5.15930E-04-9.88494E-16
 -1      1342 1.56576E-03-5.47115E-04-1.27470E-15
 -1      1343 1.29948E-03-4.58963E-04-9.25204E-16
 -1      1344 1.72342E-03-5.78337E-04-1.59714E-15
 -1      1345 1.88145E-03-6.10086E-04-1.95633E-15
 -1      1346 1.61494E-03-5.21620E-04-1.50283E-15
 -1      1347 2.03976E-03-6.43295E-04-2.35214E-15
 -1      1348 2.19802E-03-6.78223E-04-2.78404E-15
 -1      1349 1.93084E-03-5.85179E-04-2.22520E-15
 -1      1350 2.35587E-03-7.15330E-04-3.25250E-15
 -1      1351 2.51280E-03-7.54484E-04-3.75810E-15
 -1      1352 2.24691E-03-6.55188E-04-3.09152E-15
 -1      1353 2.66831E-03-7.95517E-04-4.29992E-15
 -1      1354 2.82181E-03-8.37745E-04-4.87781E-15
 -1      1355 2.56116E-03-7.33947E-04-4.10250E-15
 -1      1356 2.97280E-03-8.80204E-04-5.49361E-15
 -1      1357 3.12086E-03-9.21599E-04-6.14604E-15
 -1      1358 2.87054E-03-8.19246E-04-5.25875E-15
 -1      1359 3.26571E-03-9.60203E-04-6.83383E-15
 -1      1360 3.40729E-03-9.94306E-04-7.55865E-15
 -1      1361 3.17191E-03-9.03208E-04-6.56026E-15
 -1      1362 3.54577E-03-1.02183E-03-8.31784E-15
 -1      1363 3.68161E-03-1.04112E-03-9.11207E-15
 -1      1364 3.46346E-03-9.72657E-04-8.00514E-15
 -1      1365 3.81548E-03-1.05052E-03-9.94262E-15
 -1      1366 3.94832E-03-1.04910E-03-1.08077E-14
 -1      1367 3.74611E-03-1.01216E-03-9.59242E-15
 -1      1368 4.08109E-03-1.03636E-03-1.17082E-14
 -1      1369 4.21488E-03-1.01250E-03-1.26439E-14
 -1      1370 4.02404E-03-1.00954E-03-1.13222E-14
 -1      1371 4.35061E-03-9.78445E-04-1.36130E-14
 -1      1372 4.48913E-03-9.35473E-04-1.46161E-14
 -1      1373 4.30350E-03-9.61213E-04-1.31914E-14
 -1      1374 4.63097E-03-8.85521E-04-1.56528E-14
 -1      1375 4.77645E-03-8.30431E-04-1.67215E-14
 -1      1376 4.59041E-03-8.74045E-04-1.51963E-14
 -1      1377 4.92561E-03-7.72359E-04-1.78214E-14
 -1      1378 5.07827E-03-7.13073E-04-1.89525E-14
 -1      1379 4.88810E-03-7.62436E-04-1.73328E-14
 -1      1380 5.23405E-03-6.54264E-04-2.01122E-14
 -1      1381 5.39244E-03-5.97227E-04-2.12996E-14
 -1      1382 5.19658E-03-6.42615E-04-1.95916E-14
 -1      1383 5.55288E-03-5.42896E-04-2.25164E-14
 -1      1384 5.71478E-03-4.91983E-04-2.37606E-14
 -1      1385 5.51336E-03-5.27693E-04-2.19675E-14
 -1      1386 5.87755E-03-4.44735E-04-2.50301E-14
 -1      1387 6.04068E-03-4.01383E-04-2.63254E-14
 -1      1388 5.83485E-03-4.25476E-04-2.44523E-14
 -1      1389 6.20370E-03-3.61718E-04-2.76454E-14
 -1      1390 6.36624E-03-3.25660E-04-2.89903E-14
 -1      1391 6.15754E-03-3.38774E-04-2.70410E-14
 -1      1392 6.52800E-03-2.92791E-04-3.03593E-14
 -1      1393 6.68874E-03-2.62870E-04-3.17525E-14
 -1      1394 6.47866E-03-2.66954E-04-2.97291E-14
 -1      1395 6.84832E-03-2.35441E-04-3.31689E-14
 -1      1396 7.00662E-03-2.10209E-04-3.46083E-14
 -1      1397 6.79640E-03-2.07592E-04-3.25138E-14
 -1      1398 7.16361E-03-1.86771E-04-3.60728E-14
 -1      1399 7.31928E-03-1.64840E-04-3.75602E-14
 -1      1400 7.10981E-03-1.57693E-04-3.53925E-14
 -1      1401 7.47364E-03-1.44101E-04-3.90701E-14
 -1      1402 7.62676E-03-1.24308E-04-4.06015E-14
 -1      1403 7.41860E-03-1.14412E-04-3.83663E-14
 -1      1404 7.77869E-03-1.05234E-04-4.21539E-14
 -1      1405 7.92951E-03-8.66818E-05-4.37257E-14
 -1      1406 7.72294E-03-7.53729E-05-4.14266E-14
 -1      1407 8.07931E-03-6.85014E-05-4.53183E-14
 -1      1408 8.22818E-03-5.05425E-05-4.69297E-14
 -1      1409 8.02327E-03-3.87554E-05-4.45706E-14
 -1      1410 8.37620E-03-3.27150E-05-4.85610E-14
 -1      1411 8.52347E-03-1.49104E-05-5.02131E-14
 -1      1412 8.32016E-03-3.25286E-06-4.77935E-14
 -1      1413 8.67005E-03 2.91905E-06-5.18847E-14
 -1      1414 8.81604E-03 2.08479E-05-5.35752E-14
 -1      1415 8.61418E-03 3.20149E-05-5.10947E-14
 -1      1416 8.96150E-03 3.88949E-05-5.52834E-14
 -1      1417 9.10649E-03 5.71084E-05-5.70101E-14
 -1      1418 8.90590E-03 6.76001E-05-5.44720E-14
 -1      1419 9.25110E-03 7.54887E-05-5.87567E-14
 -1      1420 9.39535E-03 9.40645E-05-6.05200E-14
 -1      1421 9.19583E-03 1.03815E-04-5.79254E-14
 -1      1422 9.53932E-03 1.12825E-04-6.23000E-14
 -1      1423 9.68304E-03 1.31786E-04-6.40933E-14
 -1      1424 9.48439E-03 1.40807E-04-6.14499E-14
 -1      1425 9.82654E-03 1.50931E-04-6.59039E-14
 -1      1426 9.96987E-03 1.70264E-04-6.77280E-14
 -1      1427 9.77193E-03 1.78610E-04-6.50388E-14
 -1      1428 1.01131E-02 1.89769E-04-6.95639E-14
 -1      1429 1.02561E-02 2.09443E-04-7.14141E-14
 -1      1430 1.00587E-02 2.17192E-04-6.86843E-14
 -1      1431 1.03991E-02 2.29269E-04-7.32728E-14
 -1      1432 1.05420E-02 2.49243E-04-7.51405E-14
 -1      1433 1.03450E-02 2.56482E-04-7.23786E-14
 -1      1434 1.06848E-02 2.69347E-04-7.70215E-14
 -1      1435 1.08276E-02 2.89575E-04-7.89135E-14
 -1      1436 1.06310E-02 2.96390E-04-7.61148E-14
 -1      1437 1.09704E-02 3.09912E-04-8.08161E-14
 -1      1438 1.11131E-02 3.30351E-04-8.27254E-14
 -1      1439 1.09167E-02 3.36822E-04-7.98964E-14
 -1      1440 1.12558E-02 3.50878E-04-8.46444E-14
 -1      1441 1.13985E-02 3.71488E-04-8.65749E-14
 -1      1442 1.12022E-02 3.77685E-04-8.37167E-14
 -1      1443 1.15412E-02 3.92168E-04-8.85113E-14
 -1      1444 1.16839E-02 4.12913E-04-9.04539E-14
 -1      1445 1.14877E-02 4.18896E-04-8.75705E-14
 -1      1446 1.18266E-02 4.33713E-04-9.24090E-14
 -1      1447 1.19693E-02 4.54563E-04-9.43746E-14
 -1      1448 1.17732E-02 4.60383E-04-9.14605E-14
 -1      1449 1.21120E-02 4.75455E-04-9.63478E-14
 -1      1450 1.22547E-02 4.96384E-04-9.83317E-14
 -1      1451 1.20587E-02 5.02083E-04-9.53883E-14
 -1      1452 1.23974E-02 5.17345E-04-1.00328E-13
 -1      1453 1.25402E-02 5.38334E-04-1.02333E-13
 -1      1454 1.23442E-02 5.43945E-04-9.93567E-14
 -1      1455 1.26829E-02 5.59345E-04-1.04346E-13
 -1      1456 1.28257E-02 5.80375E-04-1.06367E-13
 -1      1457 1.26297E-02 5.85925E-04-1.03361E-13
 -1      1458 1.29684E-02 6.01421E-04-1.08390E-13
 -1      1459 1.31112E-02 6.22480E-04-1.10417E-13
 -1      1460 1.29153E-02 6.27990E-04-1.07394E-13
 -1      1461 1.32540E-02 6.43549E-04-1.12447E-13
 -1      1462 1.33968E-02 6.64625E-04-1.14478E-13
 -1      1463 1.32008E-02 6.70112E-04-1.11445E-13
 -1      1464 1.35396E-02 6.85706E-04-1.16508E-13
 -1      1465 1.36824E-02 7.06790E-04-1.18533E-13
 -1      1466 1.34865E-02 7.12268E-04-1.15501E-13
 -1      1467 1.38253E-02 7.27875E-04-1.20561E-13
 -1      1468 1.39681E-02 7.48959E-04-1.22589E-13
 -1      1469 1.37721E-02 7.54439E-04-1.19557E-13
 -1      1470 1.41109E-02 7.70042E-04-1.24617E-13
 -1      1471 1.42538E-02 7.91120E-04-1.26641E-13
 -1      1472 1.40578E-02 7.96611E-04-1.23610E-13
 -1      1473 1.43966E-02 8.12194E-04-1.28672E-13
 -1      1474 1.45395E-02 8.33263E-04-1.30707E-13
 -1      1475 1.43435E-02 8.38771E-04-1.27663E-13
 -1      1476 1.47488E-02 8.68118E-04-1.33669E-13
 -1      1477 1.46956E-02 8.94703E-04-1.32652E-13
 -1      1478 6.98242E-04 3.32136E-04-8.98533E-17
 -1      1479 5.30640E-04 2.74240E-04-2.92870E-17
 -1      1480 4.82841E-04 2.33806E-04-5.94007E-17
 -1      1481 1.02637E-03 4.17596E-04-3.14486E-16
 -1      1482 8.62933E-04 3.78114E-04-1.85168E-16
 -1      1483 8.17438E-04 3.38558E-04-2.21746E-16
 -1      1484 1.35428E-03 4.84312E-04-6.73683E-16
 -1      1485 1.18974E-03 4.52264E-04-4.76968E-16
 -1      1486 1.14642E-03 4.13403E-04-5.18438E-16
 -1      1487 1.68869E-03 5.46772E-04-1.16800E-15
 -1      1488 1.52032E-03 5.15379E-04-9.04076E-16
 -1      1489 1.47634E-03 4.76088E-04-9.48284E-16
 -1      1490 2.03260E-03 6.16443E-04-1.79740E-15
 -1      1491 1.85932E-03 5.80118E-04-1.46552E-15
 -1      1492 1.81198E-03 5.39508E-04-1.51143E-15
 -1      1493 2.38570E-03 7.03954E-04-2.56217E-15
 -1      1494 2.20810E-03 6.57512E-04-2.16304E-15
 -1      1495 2.15536E-03 6.14990E-04-2.20868E-15
 -1      1496 2.74402E-03 8.18263E-04-3.46060E-15
 -1      1497 2.56459E-03 7.57615E-04-2.99474E-15
 -1      1498 2.50566E-03 7.13021E-04-3.03978E-15
 -1      1499 3.09976E-03 9.63080E-04-4.49574E-15
 -1      1500 2.92287E-03 8.87326E-04-3.96060E-15
 -1      1501 2.85901E-03 8.41209E-04-4.00479E-15
 -1      1502 3.44242E-03 1.13097E-03-5.67615E-15
 -1      1503 3.27350E-03 1.04550E-03-5.06787E-15
 -1      1504 3.20867E-03 9.99412E-04-5.10858E-15
 -1      1505 3.76254E-03 1.29833E-03-7.00363E-15
 -1      1506 3.60576E-03 1.21690E-03-6.32110E-15
 -1      1507 3.54633E-03 1.17332E-03-6.35714E-15
 -1      1508 4.05786E-03 1.42806E-03-8.48376E-15
 -1      1509 3.91300E-03 1.37013E-03-7.72440E-15
 -1      1510 3.86594E-03 1.33147E-03-7.75515E-15
 -1      1511 4.33772E-03 1.48503E-03-1.01155E-14
 -1      1512 4.19862E-03 1.46666E-03-9.28017E-15
 -1      1513 4.16890E-03 1.43361E-03-9.30515E-15
 -1      1514 4.62026E-03 1.45649E-03-1.19041E-14
 -1      1515 4.47729E-03 1.48054E-03-1.09904E-14
 -1      1516 4.46587E-03 1.45126E-03-1.10113E-14
 -1      1517 4.92278E-03 1.36113E-03-1.38512E-14
 -1      1518 4.76822E-03 1.41476E-03-1.28574E-14
 -1      1519 4.77181E-03 1.38596E-03-1.28746E-14
 -1      1520 5.25236E-03 1.23723E-03-1.59488E-14
 -1      1521 5.08421E-03 1.30026E-03-1.48820E-14
 -1      1522 5.09659E-03 1.26941E-03-1.48928E-14
 -1      1523 5.60488E-03 1.12122E-03-1.81813E-14
 -1      1524 5.42634E-03 1.17665E-03-1.70494E-14
 -1      1525 5.44049E-03 1.14288E-03-1.70547E-14
 -1      1526 5.97010E-03 1.03474E-03-2.05344E-14
 -1      1527 5.78664E-03 1.07376E-03-1.93429E-14
 -1      1528 5.79690E-03 1.03750E-03-1.93442E-14
 -1      1529 6.33747E-03 9.84070E-04-2.30010E-14
 -1      1530 6.15413E-03 1.00510E-03-2.17543E-14
 -1      1531 6.15729E-03 9.67274E-04-2.17503E-14
 -1      1532 6.69927E-03 9.65835E-04-2.55802E-14
 -1      1533 6.51945E-03 9.71356E-04-2.42771E-14
 -1      1534 6.51465E-03 9.32863E-04-2.42678E-14
 -1      1535 7.05125E-03 9.72878E-04-2.82591E-14
 -1      1536 6.87666E-03 9.66688E-04-2.69066E-14
 -1      1537 6.86456E-03 9.28190E-04-2.68911E-14
 -1      1538 7.39192E-03 9.97803E-04-3.10430E-14
 -1      1539 7.22303E-03 9.83519E-04-2.96377E-14
 -1      1540 7.20499E-03 9.45427E-04-2.96193E-14
 -1      1541 7.72158E-03 1.03448E-03-3.39283E-14
 -1      1542 7.55807E-03 1.01498E-03-3.24735E-14
 -1      1543 7.53559E-03 9.77503E-04-3.24488E-14
 -1      1544 8.04143E-03 1.07834E-03-3.69181E-14
 -1      1545 7.88264E-03 1.05573E-03-3.54110E-14
 -1      1546 7.85703E-03 1.01893E-03-3.53812E-14
 -1      1547 8.35302E-03 1.12623E-03-4.00019E-14
 -1      1548 8.19815E-03 1.10193E-03-3.84482E-14
 -1      1549 8.17047E-03 1.06579E-03-3.84096E-14
 -1      1550 8.65793E-03 1.17603E-03-4.31676E-14
 -1      1551 8.50621E-03 1.15098E-03-4.15742E-14
 -1      1552 8.47724E-03 1.11544E-03-4.15282E-14
 -1      1553 8.95757E-03 1.22643E-03-4.64108E-14
 -1      1554 8.80832E-03 1.20122E-03-4.47807E-14
 -1      1555 8.77862E-03 1.16619E-03-4.47288E-14
 -1      1556 9.25316E-03 1.27662E-03-4.97283E-14
 -1      1557 9.10580E-03 1.25159E-03-4.80600E-14
 -1      1558 9.07574E-03 1.21699E-03-4.80053E-14
 -1      1559 9.54569E-03 1.32615E-03-5.31256E-14
 -1      1560 9.39975E-03 1.30148E-03-5.14165E-14
 -1      1561 9.36959E-03 1.26723E-03-5.13586E-14
 -1      1562 9.83596E-03 1.37481E-03-5.66064E-14
 -1      1563 9.69106E-03 1.35060E-03-5.48559E-14
 -1      1564 9.66094E-03 1.31662E-03-5.47921E-14
 -1      1565 1.01246E-02 1.42253E-03-6.01669E-14
 -1      1566 9.98044E-03 1.39879E-03-5.83764E-14
 -1      1567 9.95045E-03 1.36503E-03-5.83063E-14
 -1      1568 1.04120E-02 1.46933E-03-6.37981E-14
 -1      1569 1.02684E-02 1.44604E-03-6.19746E-14
 -1      1570 1.02386E-02 1.41245E-03-6.18960E-14
 -1      1571 1.06987E-02 1.51529E-03-6.74915E-14
 -1      1572 1.05554E-02 1.49241E-03-6.56366E-14
 -1      1573 1.05258E-02 1.45894E-03-6.55522E-14
 -1      1574 1.09848E-02 1.56051E-03-7.12437E-14
 -1      1575 1.08418E-02 1.53799E-03-6.93602E-14
 -1      1576 1.08123E-02 1.50461E-03-6.92689E-14
 -1      1577 1.12705E-02 1.60508E-03-7.50557E-14
 -1      1578 1.11277E-02 1.58287E-03-7.31435E-14
 -1      1579 1.10984E-02 1.54956E-03-7.30452E-14
 -1      1580 1.15560E-02 1.64912E-03-7.89162E-14
 -1      1581 1.14133E-02 1.62716E-03-7.69803E-14
 -1      1582 1.13842E-02 1.59390E-03-7.68758E-14
 -1      1583 1.18415E-02 1.69272E-03-8.28227E-14
 -1      1584 1.16988E-02 1.67097E-03-8.08627E-14
 -1      1585 1.16698E-02 1.63774E-03-8.07519E-14
 -1      1586 1.21268E-02 1.73597E-03-8.67725E-14
 -1      1587 1.19841E-02 1.71438E-03-8.47930E-14
 -1      1588 1.19552E-02 1.68118E-03-8.46708E-14
 -1      1589 1.24122E-02 1.77894E-03-9.07486E-14
 -1      1590 1.22695E-02 1.75748E-03-8.87585E-14
 -1      1591 1.22407E-02 1.72429E-03-8.86245E-14
 -1      1592 1.26976E-02 1.82169E-03-9.47582E-14
 -1      1593 1.25549E-02 1.80034E-03-9.27504E-14
 -1      1594 1.25261E-02 1.76716E-03-9.26107E-14
 -1      1595 1.29830E-02 1.86429E-03-9.88003E-14
 -1      1596 1.28403E-02 1.84301E-03-9.67746E-14
 -1      1597 1.28116E-02 1.80983E-03-9.66301E-14
 -1      1598 1.32685E-02 1.90676E-03-1.02861E-13
 -1      1599 1.31257E-02 1.88554E-03-1.00828E-13
 -1      1600 1.30971E-02 1.85236E-03-1.00675E-13
 -1      1601 1.35540E-02 1.94915E-03-1.06941E-13
 -1      1602 1.34112E-02 1.92796E-03-1.04900E-13
 -1      1603 1.33826E-02 1.89478E-03-1.04741E-13
 -1      1604 1.38395E-02 1.99148E-03-1.11030E-13
 -1      1605 1.36967E-02 1.97032E-03-1.08986E-13
 -1      1606 1.36681E-02 1.93714E-03-1.08822E-13
 -1      1607 1.41251E-02 2.03377E-03-1.15107E-13
 -1      1608 1.39823E-02 2.01263E-03-1.13070E-13
 -1      1609 1.39537E-02 1.97944E-03-1.12901E-13
 -1      1610 1.44108E-02 2.07605E-03-1.19191E-13
 -1      1611 1.42679E-02 2.05491E-03-1.17149E-13
 -1      1612 1.42394E-02 2.02172E-03-1.16977E-13
 -1      1613 1.46964E-02 2.11832E-03-1.23280E-13
 -1      1614 1.45536E-02 2.09718E-03-1.21234E-13
 -1      1615 1.45250E-02 2.06399E-03-1.21060E-13
 -1      1616 1.49821E-02 2.16061E-03-1.27365E-13
 -1      1617 1.48393E-02 2.13946E-03-1.25322E-13
 -1      1618 1.48107E-02 2.10627E-03-1.25145E-13
 -1      1619 1.52678E-02 2.20291E-03-1.31438E-13
 -1      1620 1.51250E-02 2.18176E-03-1.29405E-13
 -1      1621 1.50964E-02 2.14856E-03-1.29223E-13
 -1      1622 1.54113E-02 2.21407E-03-1.33560E-13
 -1      1623 1.53713E-02 2.11048E-03-1.33761E-13
 -1      1624 1.53921E-02 2.15263E-03-1.33748E-13
 -1      1625 1.53296E-02 2.02618E-03-1.33788E-13
 -1      1626 1.53504E-02 2.06833E-03-1.33777E-13
 -1      1627 1.52371E-02 2.07108E-03-1.32007E-13
 -1      1628 1.52879E-02 1.94186E-03-1.33808E-13
 -1      1629 1.53088E-02 1.98402E-03-1.33799E-13
 -1      1630 1.51955E-02 1.98678E-03-1.32029E-13
 -1      1631 1.52463E-02 1.85752E-03-1.33821E-13
 -1      1632 1.52671E-02 1.89969E-03-1.33817E-13
 -1      1633 1.51538E-02 1.90245E-03-1.32047E-13
 -1      1634 1.52054E-02 1.77458E-03-1.33821E-13
 -1      1635 1.52258E-02 1.81605E-03-1.33821E-13
 -1      1636 1.51125E-02 1.81882E-03-1.32058E-13
 -1      1637 1.51637E-02 1.69020E-03-1.33832E-13
 -1      1638 1.51845E-02 1.73239E-03-1.33826E-13
 -1      1639 1.50712E-02 1.73518E-03-1.32065E-13
 -1      1640 1.51222E-02 1.60581E-03-1.33844E-13
 -1      1641 1.51430E-02 1.64801E-03-1.33835E-13
 -1      1642 1.50296E-02 1.65080E-03-1.32073E-13
 -1      1643 1.50806E-02 1.52141E-03-1.33859E-13
 -1      1644 1.51014E-02 1.56361E-03-1.33856E-13
 -1      1645 1.49881E-02 1.56642E-03-1.32087E-13
 -1      1646 1.50392E-02 1.43701E-03-1.33865E-13
 -1      1647 1.50599E-02 1.47921E-03-1.33863E-13
 -1      1648 1.49465E-02 1.48203E-03-1.32101E-13
 -1      1649 1.49977E-02 1.35263E-03-1.33857E-13
 -1      1650 1.50184E-02 1.39482E-03-1.33863E-13
 -1      1651 1.49051E-02 1.39765E-03-1.32101E-13
 -1      1652 1.49570E-02 1.26968E-03-1.33853E-13
 -1      1653 1.49774E-02 1.31115E-03-1.33854E-13
 -1      1654 1.48640E-02 1.31399E-03-1.32097E-13
 -1      1655 1.49156E-02 1.18533E-03-1.33843E-13
 -1      1656 1.49363E-02 1.22750E-03-1.33849E-13
 -1      1657 1.48229E-02 1.23035E-03-1.32092E-13
 -1      1658 1.48742E-02 1.10100E-03-1.33836E-13
 -1      1659 1.48949E-02 1.14316E-03-1.33840E-13
 -1      1660 1.47816E-02 1.14601E-03-1.32086E-13
 -1      1661 1.48329E-02 1.01669E-03-1.33840E-13
 -1      1662 1.48536E-02 1.05884E-03-1.33836E-13
 -1      1663 1.47402E-02 1.06168E-03-1.32081E-13
 -1      1664 1.47539E-02 9.34619E-04-1.33250E-13
 -1      1665 1.47746E-02 9.76766E-04-1.33248E-13
 -1      1666 1.46612E-02 9.79602E-04-1.31485E-13
 -1      1667 1.45446E-02 8.99761E-04-1.30295E-13
 -1      1668 6.38929E-03 3.57186E-04-1.57631E-14
 -1      1669 6.41456E-03 3.10677E-04-1.58456E-14
 -1      1670 6.23467E-03 4.71269E-04-1.54113E-14
 -1      1671 6.32208E-03 4.16220E-04-1.56013E-14
 -1      1672 5.93538E-03 6.24679E-04-1.48081E-14
 -1      1673 6.09075E-03 5.46011E-04-1.51307E-14
 -1      1674 5.56610E-03 8.10315E-04-1.39938E-14
 -1      1675 5.74075E-03 7.25681E-04-1.43664E-14
 -1      1676 5.18560E-03 9.87489E-04-1.31134E-14
 -1      1677 5.36313E-03 9.09303E-04-1.35160E-14
 -1      1678 4.75661E-03 1.13854E-03-1.21571E-14
 -1      1679 4.94684E-03 1.07211E-03-1.26301E-14
 -1      1680 4.33557E-03 1.21909E-03-1.10875E-14
 -1      1681 4.52595E-03 1.19474E-03-1.15702E-14
 -1      1682 3.93691E-03 1.18520E-03-1.01466E-14
 -1      1683 4.11568E-03 1.20908E-03-1.05577E-14
 -1      1684 3.54547E-03 1.07285E-03-9.28565E-15
 -1      1685 3.72946E-03 1.13613E-03-9.66677E-15
 -1      1686 3.12385E-03 8.95420E-04-8.53487E-15
 -1      1687 3.31657E-03 9.83155E-04-8.87059E-15
 -1      1688 2.72080E-03 7.05516E-04-7.93784E-15
 -1      1689 2.89953E-03 7.93772E-04-8.19856E-15
 -1      1690 2.35155E-03 5.21141E-04-7.46273E-15
 -1      1691 2.51759E-03 6.04815E-04-7.66665E-15
 -1      1692 2.06050E-03 3.47783E-04-7.07931E-15
 -1      1693 2.18688E-03 4.13273E-04-7.20782E-15
 -1      1694 1.88878E-03 2.38293E-04-6.95940E-15
 -1      1695 1.94813E-03 2.87139E-04-7.00552E-15
 -1      1696 1.87001E-03 1.42129E-04-7.01300E-15
 -1      1697 1.86096E-03 1.86295E-04-6.98181E-15
 -1      1698 1.99629E-03 4.31751E-05-7.16460E-15
 -1      1699 1.91944E-03 9.23733E-05-7.05188E-15
 -1      1700 2.22730E-03-9.02882E-05-7.54887E-15
 -1      1701 2.11003E-03-3.15070E-05-7.37708E-15
 -1      1702 2.56669E-03-2.39603E-04-8.03474E-15
 -1      1703 2.40015E-03-1.62021E-04-7.77420E-15
 -1      1704 2.99991E-03-4.25425E-04-8.74854E-15
 -1      1705 2.79716E-03-3.34581E-04-8.38380E-15
 -1      1706 3.38101E-03-5.81836E-04-9.58034E-15
 -1      1707 3.20629E-03-5.20910E-04-9.22049E-15
 -1      1708 3.78404E-03-6.78179E-04-1.04722E-14
 -1      1709 3.60029E-03-6.42004E-04-1.00373E-14
 -1      1710 4.21354E-03-6.90902E-04-1.15508E-14
 -1      1711 4.01542E-03-6.99856E-04-1.10398E-14
 -1      1712 4.61564E-03-6.03475E-04-1.25117E-14
 -1      1713 4.44264E-03-6.48650E-04-1.20934E-14
 -1      1714 5.01123E-03-4.53430E-04-1.34731E-14
 -1      1715 4.82114E-03-5.31229E-04-1.30394E-14
 -1      1716 5.40896E-03-2.83862E-04-1.42540E-14
 -1      1717 5.23624E-03-3.63520E-04-1.39063E-14
 -1      1718 5.76174E-03-1.16206E-04-1.49117E-14
 -1      1719 5.60302E-03-1.92378E-04-1.46270E-14
 -1      1720 6.06806E-03 3.36325E-05-1.54149E-14
 -1      1721 5.93385E-03-3.29166E-05-1.52047E-14
 -1      1722 6.29203E-03 1.56953E-04-1.57333E-14
 -1      1723 6.20046E-03 1.03452E-04-1.56123E-14
 -1      1724 6.40476E-03 2.57860E-04-1.58469E-14
 -1      1725 6.36753E-03 2.13622E-04-1.58211E-14
 -1      1726 5.40818E-03 8.24546E-04-1.40015E-14
 -1      1727 5.79865E-03 6.22149E-04-1.49402E-14
 -1      1728 1.53827E-02 2.18087E-03-1.33381E-13
 -1      1729 1.52486E-02 2.14148E-03-1.31626E-13
 -1      1730 6.35910E-03 3.60021E-04-1.61365E-14
 -1      1731 6.14153E-03 4.62472E-04-1.56819E-14
 -1      1732 6.41972E-03 2.90625E-04-1.63048E-14
 -1      1733 4.99837E-03 1.02317E-03-1.30261E-14
 -1      1734 4.60385E-03 1.18537E-03-1.19410E-14
 -1      1735 4.23802E-03 1.24273E-03-1.08220E-14
 -1      1736 3.86879E-03 1.17912E-03-9.81761E-15
 -1      1737 3.49541E-03 1.02239E-03-8.93700E-15
 -1      1738 3.08311E-03 8.12250E-04-8.20416E-15
 -1      1739 2.67158E-03 6.00642E-04-7.61485E-15
 -1      1740 2.29877E-03 4.03415E-04-7.10380E-15
 -1      1741 2.01060E-03 2.72498E-04-6.79083E-15
 -1      1742 1.86623E-03 1.99754E-04-6.74530E-15
 -1      1743 1.88879E-03 1.33584E-04-6.80339E-15
 -1      1744 2.06098E-03 5.26802E-05-7.04116E-15
 -1      1745 2.35237E-03-7.57748E-05-7.46453E-15
 -1      1746 2.74384E-03-2.45864E-04-8.01651E-15
 -1      1747 3.15284E-03-4.52080E-04-8.81338E-15
 -1      1748 3.54231E-03-6.21432E-04-9.73052E-15
 -1      1749 3.92067E-03-7.15651E-04-1.07456E-14
 -1      1750 4.28799E-03-6.94830E-04-1.18569E-14
 -1      1751 4.66897E-03-5.69674E-04-1.29357E-14
 -1      1752 5.05033E-03-3.87170E-04-1.39129E-14
 -1      1753 5.44535E-03-1.92451E-04-1.47352E-14
 -1      1754 5.80669E-03-1.70054E-05-1.54174E-14
 -1      1755 6.11608E-03 1.21576E-04-1.59222E-14
 -1      1756 6.33084E-03 2.19060E-04-1.62164E-14
 -1      1757 3.04598E-04-1.61502E-04-4.78675E-17
 -1      1758 3.44266E-04-8.05535E-05-1.73188E-16
 -1      1759 3.52902E-04-9.88348E-05-1.61560E-16
 -1      1760 3.62956E-04-1.20460E-04-1.47330E-16
 -1      1761 3.75955E-04-1.45785E-04-1.27475E-16
 -1      1762 4.84355E-04-1.47088E-04-2.34391E-16
 -1      1763 3.16735E-04-2.88738E-05-1.98517E-16
 -1      1764 3.22851E-04-3.89917E-05-1.94452E-16
 -1      1765 3.05665E-04-1.25508E-05-2.03993E-16
 -1      1766 3.10940E-04-1.99937E-05-2.01526E-16
 -1      1767 4.21859E-04-3.53131E-05-2.95147E-16
 -1      1768 2.97038E-04-1.26819E-06-2.06202E-16
 -1      1769 3.00975E-04-6.33274E-06-2.05456E-16
 -1      1770 4.06747E-04-1.46867E-05-3.01422E-16
 -1      1771 2.91837E-04 6.22527E-06-2.06297E-16
 -1      1772 2.93935E-04 2.86400E-06-2.06486E-16
 -1      1773 3.95400E-04-1.00617E-07-3.03970E-16
 -1      1774 2.90976E-04 1.16965E-05-2.04182E-16
 -1      1775 2.90812E-04 9.09046E-06-2.05538E-16
 -1      1776 3.89284E-04 1.01656E-05-3.03278E-16
 -1      1777 2.94971E-04 1.73938E-05-1.99873E-16
 -1      1778 2.92355E-04 1.43737E-05-2.02366E-16
 -1      1779 3.89643E-04 1.85234E-05-2.99606E-16
 -1      1780 3.03596E-04 2.56355E-05-1.92676E-16
 -1      1781 2.98731E-04 2.10515E-05-1.96742E-16
 -1      1782 3.96962E-04 2.78496E-05-2.92382E-16
 -1      1783 3.16632E-04 3.91833E-05-1.81482E-16
 -1      1784 3.09631E-04 3.16385E-05-1.87770E-16
 -1      1785 4.10976E-04 4.13350E-05-2.80971E-16
 -1      1786 3.33316E-04 6.04440E-05-1.65151E-16
 -1      1787 3.24568E-04 4.87447E-05-1.74380E-16
 -1      1788 4.31044E-04 6.22452E-05-2.63963E-16
 -1      1789 3.53595E-04 9.24535E-05-1.40052E-16
 -1      1790 3.42964E-04 7.49838E-05-1.54268E-16
 -1      1791 4.56219E-04 9.36074E-05-2.39161E-16
 -1      1792 3.80456E-04 1.40448E-04-1.02267E-16
 -1      1793 3.65927E-04 1.14207E-04-1.23436E-16
 -1      1794 4.87065E-04 1.39293E-04-2.02014E-16
 -1      1795 4.43336E-04 1.99973E-04-7.61923E-17
 -1      1796 4.10308E-04 1.66583E-04-9.34853E-17
 -1      1797 5.37326E-04 1.95686E-04-1.68905E-16
 -1      1798 6.09699E-04 2.57422E-04-1.42166E-16
 -1      1799 3.64996E-04-1.68461E-04-8.95822E-17
 -1      1800 9.40030E-04 3.45140E-04-3.75961E-16
 -1      1801 7.75100E-04 3.04763E-04-2.42685E-16
 -1      1802 7.35366E-04 2.72039E-04-2.59761E-16
 -1      1803 4.92897E-04-2.04811E-04-1.65016E-16
 -1      1804 8.72037E-04-3.28588E-04-4.52627E-16
 -1      1805 1.03179E-03-3.67078E-04-6.38256E-16
 -1      1806 1.19015E-03-4.01903E-04-8.58973E-16
 -1      1807 1.34819E-03-4.33945E-04-1.11516E-15
 -1      1808 1.08222E-03-3.45154E-04-7.90167E-16
 -1      1809 1.50599E-03-4.65021E-04-1.40671E-15
 -1      1810 1.66377E-03-4.95666E-04-1.73426E-15
 -1      1811 1.39721E-03-4.08808E-04-1.30965E-15
 -1      1812 1.82190E-03-5.27159E-04-2.09757E-15
 -1      1813 1.98003E-03-5.59926E-04-2.49639E-15
 -1      1814 1.71268E-03-4.69525E-04-1.96934E-15
 -1      1815 2.13861E-03-5.94745E-04-2.93023E-15
 -1      1816 2.29687E-03-6.31808E-04-3.39996E-15
 -1      1817 2.02980E-03-5.34375E-04-2.76954E-15
 -1      1818 2.45525E-03-6.71298E-04-3.90639E-15
 -1      1819 2.61273E-03-7.12959E-04-4.44780E-15
 -1      1820 2.34861E-03-6.08005E-04-3.71091E-15
 -1      1821 2.76963E-03-7.56201E-04-5.02540E-15
 -1      1822 2.92494E-03-8.00105E-04-5.63923E-15
 -1      1823 2.66771E-03-6.91445E-04-4.79414E-15
 -1      1824 3.07880E-03-8.43227E-04-6.28848E-15
 -1      1825 3.23060E-03-8.83913E-04-6.97404E-15
 -1      1826 2.98431E-03-7.80377E-04-6.01892E-15
 -1      1827 3.38021E-03-9.20070E-04-7.69529E-15
 -1      1828 3.52791E-03-9.49680E-04-8.45164E-15
 -1      1829 3.29508E-03-8.63866E-04-7.38698E-15
 -1      1830 3.67336E-03-9.70641E-04-9.24411E-15
 -1      1831 3.81784E-03-9.81251E-04-1.00731E-14
 -1      1832 3.59794E-03-9.25503E-04-8.89802E-15
 -1      1833 3.96091E-03-9.80285E-04-1.09373E-14
 -1      1834 4.10457E-03-9.67252E-04-1.18365E-14
 -1      1835 3.89400E-03-9.48248E-04-1.05527E-14
 -1      1836 4.24833E-03-9.42401E-04-1.27703E-14
 -1      1837 4.39406E-03-9.06655E-04-1.37389E-14
 -1      1838 4.18811E-03-9.21885E-04-1.23498E-14
 -1      1839 4.54135E-03-8.61652E-04-1.47414E-14
 -1      1840 4.69121E-03-8.09357E-04-1.57767E-14
 -1      1841 4.48646E-03-8.48434E-04-1.42862E-14
 -1      1842 4.84333E-03-7.52070E-04-1.68449E-14
 -1      1843 4.99773E-03-6.91869E-04-1.79439E-14
 -1      1844 4.79301E-03-7.41309E-04-1.63572E-14
 -1      1845 5.15431E-03-6.30880E-04-1.90729E-14
 -1      1846 5.31230E-03-5.70679E-04-2.02316E-14
 -1      1847 5.10780E-03-6.18944E-04-1.85556E-14
 -1      1848 5.47182E-03-5.12703E-04-2.14184E-14
 -1      1849 5.63183E-03-4.57809E-04-2.26336E-14
 -1      1850 5.42802E-03-4.97664E-04-2.08711E-14
 -1      1851 5.79256E-03-4.06655E-04-2.38763E-14
 -1      1852 5.95303E-03-3.59501E-04-2.51441E-14
 -1      1853 5.75000E-03-3.87966E-04-2.33001E-14
 -1      1854 6.11348E-03-3.16395E-04-2.64381E-14
 -1      1855 6.27320E-03-2.77234E-04-2.77561E-14
 -1      1856 6.07076E-03-2.94323E-04-2.58360E-14
 -1      1857 6.43237E-03-2.41705E-04-2.91005E-14
 -1      1858 6.59055E-03-2.09538E-04-3.04689E-14
 -1      1859 6.38844E-03-2.16882E-04-2.84726E-14
 -1      1860 6.74785E-03-1.80275E-04-3.18603E-14
 -1      1861 6.90407E-03-1.53599E-04-3.32756E-14
 -1      1862 6.70215E-03-1.53424E-04-3.12084E-14
 -1      1863 7.05927E-03-1.29048E-04-3.47149E-14
 -1      1864 7.21339E-03-1.06328E-04-3.61772E-14
 -1      1865 7.01164E-03-1.00846E-04-3.40377E-14
 -1      1866 7.36646E-03-8.50412E-05-3.76627E-14
 -1      1867 7.51855E-03-6.49421E-05-3.91700E-14
 -1      1868 7.31705E-03-5.60480E-05-3.69607E-14
 -1      1869 7.66965E-03-4.57231E-05-4.07005E-14
 -1      1870 7.81987E-03-2.71923E-05-4.22516E-14
 -1      1871 7.61872E-03-1.63686E-05-3.99754E-14
 -1      1872 7.96921E-03-9.13074E-06-4.38228E-14
 -1      1873 8.11780E-03 8.60439E-06-4.54142E-14
 -1      1874 7.91711E-03 2.02803E-05-4.30766E-14
 -1      1875 8.26564E-03 2.61573E-05-4.70260E-14
 -1      1876 8.41286E-03 4.36297E-05-4.86561E-14
 -1      1877 8.21270E-03 5.54258E-05-4.62589E-14
 -1      1878 8.55946E-03 6.11080E-05-5.03052E-14
 -1      1879 8.70555E-03 7.86615E-05-5.19755E-14
 -1      1880 8.50595E-03 9.01176E-05-4.95186E-14
 -1      1881 8.85115E-03 9.63346E-05-5.36643E-14
 -1      1882 8.99634E-03 1.14172E-04-5.53699E-14
 -1      1883 8.79730E-03 1.25029E-04-5.28563E-14
 -1      1884 9.14115E-03 1.32190E-04-5.70949E-14
 -1      1885 9.28565E-03 1.50415E-04-5.88393E-14
 -1      1886 9.08713E-03 1.60556E-04-5.62678E-14
 -1      1887 9.42985E-03 1.68845E-04-6.06017E-14
 -1      1888 9.57382E-03 1.87494E-04-6.23782E-14
 -1      1889 9.37577E-03 1.96894E-04-5.97525E-14
 -1      1890 9.71756E-03 2.06348E-04-6.41737E-14
 -1      1891 9.86114E-03 2.25414E-04-6.59820E-14
 -1      1892 9.66351E-03 2.34109E-04-6.33085E-14
 -1      1893 1.00045E-02 2.44672E-04-6.78026E-14
 -1      1894 1.01478E-02 2.64123E-04-6.96385E-14
 -1      1895 9.95057E-03 2.72182E-04-6.69233E-14
 -1      1896 1.02910E-02 2.83747E-04-7.14839E-14
 -1      1897 1.04341E-02 3.03538E-04-7.33412E-14
 -1      1898 1.02371E-02 3.11042E-04-7.05911E-14
 -1      1899 1.05771E-02 3.23478E-04-7.52118E-14
 -1      1900 1.07201E-02 3.43561E-04-7.70896E-14
 -1      1901 1.05233E-02 3.50597E-04-7.43051E-14
 -1      1902 1.08630E-02 3.63769E-04-7.89786E-14
 -1      1903 1.10058E-02 3.84095E-04-8.08784E-14
 -1      1904 1.08093E-02 3.90744E-04-7.80637E-14
 -1      1905 1.11487E-02 4.04522E-04-8.27869E-14
 -1      1906 1.12915E-02 4.25045E-04-8.47050E-14
 -1      1907 1.10951E-02 4.31384E-04-8.18588E-14
 -1      1908 1.14343E-02 4.45649E-04-8.66310E-14
 -1      1909 1.15770E-02 4.66329E-04-8.85674E-14
 -1      1910 1.13808E-02 4.72424E-04-8.56924E-14
 -1      1911 1.17198E-02 4.87073E-04-9.05120E-14
 -1      1912 1.18626E-02 5.07876E-04-9.24657E-14
 -1      1913 1.16664E-02 5.13781E-04-8.95639E-14
 -1      1914 1.20054E-02 5.28727E-04-9.44308E-14
 -1      1915 1.21481E-02 5.49623E-04-9.64036E-14
 -1      1916 1.19520E-02 5.55385E-04-9.34705E-14
 -1      1917 1.22909E-02 5.70556E-04-9.83866E-14
 -1      1918 1.24337E-02 5.91521E-04-1.00379E-13
 -1      1919 1.22376E-02 5.97178E-04-9.74189E-14
 -1      1920 1.25765E-02 6.12514E-04-1.02380E-13
 -1      1921 1.27192E-02 6.33530E-04-1.04390E-13
 -1      1922 1.25232E-02 6.39111E-04-1.01400E-13
 -1      1923 1.28620E-02 6.54564E-04-1.06403E-13
 -1      1924 1.30048E-02 6.75615E-04-1.08421E-13
 -1      1925 1.28088E-02 6.81145E-04-1.05413E-13
 -1      1926 1.31476E-02 6.96678E-04-1.10446E-13
 -1      1927 1.32904E-02 7.17751E-04-1.12472E-13
 -1      1928 1.30944E-02 7.23249E-04-1.09448E-13
 -1      1929 1.34333E-02 7.38831E-04-1.14498E-13
 -1      1930 1.35761E-02 7.59916E-04-1.16524E-13
 -1      1931 1.33800E-02 7.65397E-04-1.13497E-13
 -1      1932 1.37189E-02 7.81004E-04-1.18550E-13
 -1      1933 1.38617E-02 8.02092E-04-1.20576E-13
 -1      1934 1.36657E-02 8.07569E-04-1.17544E-13
 -1      1935 1.40046E-02 8.23180E-04-1.22604E-13
 -1      1936 1.41474E-02 8.44265E-04-1.24632E-13
 -1      1937 1.39514E-02 8.49749E-04-1.21599E-13
 -1      1938 1.42746E-02 8.61479E-04-1.26445E-13
 -1      1939 1.44174E-02 8.82556E-04-1.28473E-13
 -1      1940 1.44757E-02 9.22476E-04-1.29070E-13
 -1      1941 1.42214E-02 8.88054E-04-1.25438E-13
 -1      1942 1.26766E-03 4.12252E-04-7.39602E-16
 -1      1943 1.10360E-03 3.80344E-04-5.41220E-16
 -1      1944 1.06114E-03 3.47685E-04-5.59963E-16
 -1      1945 1.59755E-03 4.73086E-04-1.23606E-15
 -1      1946 1.43193E-03 4.42788E-04-9.71201E-16
 -1      1947 1.38686E-03 4.09862E-04-9.90215E-16
 -1      1948 1.93324E-03 5.39470E-04-1.86435E-15
 -1      1949 1.76450E-03 5.04985E-04-1.53355E-15
 -1      1950 1.71595E-03 4.70846E-04-1.55171E-15
 -1      1951 2.27609E-03 6.22584E-04-2.62607E-15
 -1      1952 2.10383E-03 5.78395E-04-2.22854E-15
 -1      1953 2.05121E-03 5.42071E-04-2.24473E-15
 -1      1954 2.62520E-03 7.32394E-04-3.52055E-15
 -1      1955 2.45020E-03 6.73808E-04-3.05642E-15
 -1      1956 2.39393E-03 6.34572E-04-3.06985E-15
 -1      1957 2.97702E-03 8.74440E-04-4.54912E-15
 -1      1958 2.80141E-03 7.99550E-04-4.01799E-15
 -1      1959 2.74353E-03 7.57385E-04-4.02708E-15
 -1      1960 3.32529E-03 1.04379E-03-5.71934E-15
 -1      1961 3.15242E-03 9.56763E-04-5.11608E-15
 -1      1962 3.09664E-03 9.13083E-04-5.12012E-15
 -1      1963 3.66242E-03 1.21867E-03-7.03476E-15
 -1      1964 3.49588E-03 1.13271E-03-6.35864E-15
 -1      1965 3.44662E-03 1.09074E-03-6.35500E-15
 -1      1966 3.98366E-03 1.36034E-03-8.50124E-15
 -1      1967 3.82480E-03 1.29619E-03-7.74889E-15
 -1      1968 3.78527E-03 1.25995E-03-7.73832E-15
 -1      1969 4.29319E-03 1.42858E-03-1.01214E-14
 -1      1970 4.13877E-03 1.40503E-03-9.29161E-15
 -1      1971 4.10938E-03 1.37619E-03-9.27368E-15
 -1      1972 4.60304E-03 1.40521E-03-1.19001E-14
 -1      1973 4.44645E-03 1.42755E-03-1.09906E-14
 -1      1974 4.42612E-03 1.40419E-03-1.09658E-14
 -1      1975 4.92629E-03 1.30838E-03-1.38358E-14
 -1      1976 4.76223E-03 1.36350E-03-1.28487E-14
 -1      1977 4.74963E-03 1.34100E-03-1.28172E-14
 -1      1978 5.26648E-03 1.17943E-03-1.59196E-14
 -1      1979 5.09440E-03 1.24537E-03-1.48599E-14
 -1      1980 5.08867E-03 1.22073E-03-1.48228E-14
 -1      1981 5.61904E-03 1.05808E-03-1.81415E-14
 -1      1982 5.44188E-03 1.11625E-03-1.70141E-14
 -1      1983 5.44075E-03 1.08881E-03-1.69710E-14
 -1      1984 5.97622E-03 9.67671E-04-2.04846E-14
 -1      1985 5.79778E-03 1.00857E-03-1.92989E-14
 -1      1986 5.79786E-03 9.79065E-04-1.92500E-14
 -1      1987 6.33129E-03 9.14761E-04-2.29409E-14
 -1      1988 6.15456E-03 9.36764E-04-2.16994E-14
 -1      1989 6.15264E-03 9.06109E-04-2.16455E-14
 -1      1990 6.67998E-03 8.95675E-04-2.55067E-14
 -1      1991 6.50676E-03 9.01472E-04-2.42099E-14
 -1      1992 6.50072E-03 8.70293E-04-2.41504E-14
 -1      1993 7.02020E-03 9.02826E-04-2.81757E-14
 -1      1994 6.85130E-03 8.96455E-04-2.68276E-14
 -1      1995 6.84036E-03 8.65121E-04-2.67613E-14
 -1      1996 7.35140E-03 9.28434E-04-3.09485E-14
 -1      1997 7.18695E-03 9.13715E-04-2.95497E-14
 -1      1998 7.17130E-03 8.82451E-04-2.94781E-14
 -1      1999 7.67396E-03 9.66079E-04-3.38238E-14
 -1      2000 7.51371E-03 9.46037E-04-3.23744E-14
 -1      2001 7.49402E-03 9.14983E-04-3.22962E-14
 -1      2002 7.98882E-03 1.01100E-03-3.67977E-14
 -1      2003 7.83227E-03 9.87825E-04-3.52983E-14
 -1      2004 7.80940E-03 9.57061E-04-3.52148E-14
 -1      2005 8.29708E-03 1.05992E-03-3.98657E-14
 -1      2006 8.14368E-03 1.03509E-03-3.83196E-14
 -1      2007 8.11844E-03 1.00465E-03-3.82278E-14
 -1      2008 8.59990E-03 1.11066E-03-4.30168E-14
 -1      2009 8.44908E-03 1.08514E-03-4.14306E-14
 -1      2010 8.42216E-03 1.05503E-03-4.13317E-14
 -1      2011 8.89834E-03 1.16187E-03-4.62525E-14
 -1      2012 8.74959E-03 1.13625E-03-4.46257E-14
 -1      2013 8.72152E-03 1.10645E-03-4.45205E-14
 -1      2014 9.19334E-03 1.21274E-03-4.95616E-14
 -1      2015 9.04621E-03 1.18737E-03-4.78975E-14
 -1      2016 9.01740E-03 1.15785E-03-4.77873E-14
 -1      2017 9.48568E-03 1.26283E-03-5.29496E-14
 -1      2018 9.33979E-03 1.23789E-03-5.12459E-14
 -1      2019 9.31053E-03 1.20861E-03-5.11307E-14
 -1      2020 9.77600E-03 1.31193E-03-5.64179E-14
 -1      2021 9.63105E-03 1.28750E-03-5.46737E-14
 -1      2022 9.60155E-03 1.25843E-03-5.45533E-14
 -1      2023 1.00648E-02 1.36001E-03-5.99626E-14
 -1      2024 9.92056E-03 1.33610E-03-5.81797E-14
 -1      2025 9.89095E-03 1.30719E-03-5.80525E-14
 -1      2026 1.03525E-02 1.40708E-03-6.35794E-14
 -1      2027 1.02088E-02 1.38366E-03-6.17616E-14
 -1      2028 1.01792E-02 1.35489E-03-6.16278E-14
 -1      2029 1.06395E-02 1.45325E-03-6.72603E-14
 -1      2030 1.04961E-02 1.43027E-03-6.54131E-14
 -1      2031 1.04665E-02 1.40161E-03-6.52711E-14
 -1      2032 1.09258E-02 1.49862E-03-7.10004E-14
 -1      2033 1.07827E-02 1.47603E-03-6.91236E-14
 -1      2034 1.07532E-02 1.44745E-03-6.89756E-14
 -1      2035 1.12118E-02 1.54331E-03-7.47987E-14
 -1      2036 1.10689E-02 1.52104E-03-7.28921E-14
 -1      2037 1.10394E-02 1.49253E-03-7.27391E-14
 -1      2038 1.14976E-02 1.58743E-03-7.86470E-14
 -1      2039 1.13548E-02 1.56543E-03-7.67173E-14
 -1      2040 1.13254E-02 1.53696E-03-7.65573E-14
 -1      2041 1.17832E-02 1.63109E-03-8.25354E-14
 -1      2042 1.16404E-02 1.60931E-03-8.05859E-14
 -1      2043 1.16111E-02 1.58088E-03-8.04196E-14
 -1      2044 1.20688E-02 1.67437E-03-8.64661E-14
 -1      2045 1.19260E-02 1.65277E-03-8.44967E-14
 -1      2046 1.18968E-02 1.62436E-03-8.43236E-14
 -1      2047 1.23543E-02 1.71737E-03-9.04282E-14
 -1      2048 1.22115E-02 1.69591E-03-8.84442E-14
 -1      2049 1.21823E-02 1.66751E-03-8.82615E-14
 -1      2050 1.26398E-02 1.76014E-03-9.44235E-14
 -1      2051 1.24970E-02 1.73878E-03-9.24208E-14
 -1      2052 1.24679E-02 1.71040E-03-9.22339E-14
 -1      2053 1.29253E-02 1.80274E-03-9.84514E-14
 -1      2054 1.27825E-02 1.78146E-03-9.64336E-14
 -1      2055 1.27534E-02 1.75309E-03-9.62382E-14
 -1      2056 1.32108E-02 1.84522E-03-1.02501E-13
 -1      2057 1.30680E-02 1.82399E-03-1.00473E-13
 -1      2058 1.30390E-02 1.79563E-03-1.00272E-13
 -1      2059 1.34964E-02 1.88761E-03-1.06570E-13
 -1      2060 1.33536E-02 1.86642E-03-1.04534E-13
 -1      2061 1.33245E-02 1.83806E-03-1.04327E-13
 -1      2062 1.37819E-02 1.92993E-03-1.10649E-13
 -1      2063 1.36391E-02 1.90878E-03-1.08611E-13
 -1      2064 1.36101E-02 1.88041E-03-1.08399E-13
 -1      2065 1.40676E-02 1.97222E-03-1.14722E-13
 -1      2066 1.39247E-02 1.95108E-03-1.12687E-13
 -1      2067 1.38958E-02 1.92272E-03-1.12471E-13
 -1      2068 1.43532E-02 2.01449E-03-1.18799E-13
 -1      2069 1.42104E-02 1.99336E-03-1.16759E-13
 -1      2070 1.41814E-02 1.96499E-03-1.16543E-13
 -1      2071 1.46389E-02 2.05676E-03-1.22883E-13
 -1      2072 1.44960E-02 2.03563E-03-1.20839E-13
 -1      2073 1.44671E-02 2.00726E-03-1.20619E-13
 -1      2074 1.49246E-02 2.09904E-03-1.26960E-13
 -1      2075 1.47817E-02 2.07790E-03-1.24923E-13
 -1      2076 1.47527E-02 2.04953E-03-1.24699E-13
 -1      2077 1.51580E-02 2.13083E-03-1.30313E-13
 -1      2078 1.50152E-02 2.10968E-03-1.28275E-13
 -1      2079 1.49862E-02 2.08131E-03-1.28053E-13
 -1      2080 1.51674E-02 2.10259E-03-1.30680E-13
 -1      2081 1.50197E-02 1.86305E-03-1.30289E-13
 -1      2082 1.50405E-02 1.90522E-03-1.30279E-13
 -1      2083 1.50613E-02 1.94738E-03-1.30270E-13
 -1      2084 1.50822E-02 1.98953E-03-1.30262E-13
 -1      2085 1.49272E-02 1.90798E-03-1.28510E-13
 -1      2086 1.51144E-02 2.02499E-03-1.30476E-13
 -1      2087 1.51352E-02 2.06714E-03-1.30463E-13
 -1      2088 1.50446E-02 2.05650E-03-1.29149E-13
 -1      2089 1.49802E-02 1.98560E-03-1.28716E-13
 -1      2090 1.49787E-02 1.78014E-03-1.30300E-13
 -1      2091 1.49992E-02 1.82159E-03-1.30296E-13
 -1      2092 1.48859E-02 1.82437E-03-1.28530E-13
 -1      2093 1.49371E-02 1.69578E-03-1.30311E-13
 -1      2094 1.49579E-02 1.73796E-03-1.30304E-13
 -1      2095 1.48446E-02 1.74074E-03-1.28542E-13
 -1      2096 1.48955E-02 1.61141E-03-1.30319E-13
 -1      2097 1.49163E-02 1.65360E-03-1.30316E-13
 -1      2098 1.48030E-02 1.65639E-03-1.28553E-13
 -1      2099 1.48540E-02 1.52704E-03-1.30334E-13
 -1      2100 1.48747E-02 1.56923E-03-1.30324E-13
 -1      2101 1.47614E-02 1.57203E-03-1.28564E-13
 -1      2102 1.48124E-02 1.44266E-03-1.30342E-13
 -1      2103 1.48332E-02 1.48485E-03-1.30340E-13
 -1      2104 1.47198E-02 1.48766E-03-1.28575E-13
 -1      2105 1.47710E-02 1.35829E-03-1.30343E-13
 -1      2106 1.47917E-02 1.40048E-03-1.30343E-13
 -1      2107 1.46783E-02 1.40330E-03-1.28583E-13
 -1      2108 1.47303E-02 1.27536E-03-1.30341E-13
 -1      2109 1.47506E-02 1.31683E-03-1.30342E-13
 -1      2110 1.46372E-02 1.31965E-03-1.28585E-13
 -1      2111 1.46889E-02 1.19101E-03-1.30337E-13
 -1      2112 1.47096E-02 1.23318E-03-1.30338E-13
 -1      2113 1.45962E-02 1.23601E-03-1.28583E-13
 -1      2114 1.46475E-02 1.10668E-03-1.30332E-13
 -1      2115 1.46682E-02 1.14884E-03-1.30333E-13
 -1      2116 1.45548E-02 1.15167E-03-1.28579E-13
 -1      2117 1.46061E-02 1.02236E-03-1.30322E-13
 -1      2118 1.46268E-02 1.06451E-03-1.30327E-13
 -1      2119 1.45134E-02 1.06734E-03-1.28572E-13
 -1      2120 6.05838E-03 4.54321E-04-1.60651E-14
 -1      2121 6.20249E-03 4.00951E-04-1.63607E-14
 -1      2122 6.42696E-03 3.03653E-04-1.68448E-14
 -1      2123 6.41740E-03 2.86315E-04-1.68473E-14
 -1      2124 6.32266E-03 3.55063E-04-1.66326E-14
 -1      2125 6.39281E-03 3.29886E-04-1.68027E-14
 -1      2126 5.66637E-03 6.35867E-04-1.51258E-14
 -1      2127 5.85414E-03 5.44040E-04-1.55868E-14
 -1      2128 5.26636E-03 8.55792E-04-1.40406E-14
 -1      2129 5.44926E-03 7.52021E-04-1.45351E-14
 -1      2130 3.29431E-04-5.09526E-05-1.89071E-16
 -1      2131 3.36505E-04-6.46476E-05-1.81807E-16
 -1      2132 4.59779E-04-9.95429E-05-2.64749E-16
 -1      2133 4.39568E-04-6.31401E-05-2.83573E-16
 -1      2134 4.50266E-03 1.22777E-03-1.17325E-14
 -1      2135 4.66906E-03 1.16295E-03-1.23271E-14
 -1      2136 4.14081E-03 1.25683E-03-1.04582E-14
 -1      2137 4.29280E-03 1.26323E-03-1.09841E-14
 -1      2138 3.83888E-03 1.16669E-03-9.50319E-15
 -1      2139 3.98822E-03 1.22490E-03-9.97452E-15
 -1      2140 4.07384E-03 1.25202E-03-1.01275E-14
 -1      2141 3.44642E-03 9.61606E-04-8.55037E-15
 -1      2142 3.62402E-03 1.06391E-03-8.94863E-15
 -1      2143 3.03669E-03 7.23075E-04-7.80040E-15
 -1      2144 3.22818E-03 8.34869E-04-8.11664E-15
 -1      2145 2.61995E-03 5.09091E-04-7.26256E-15
 -1      2146 2.81186E-03 6.08759E-04-7.51634E-15
 -1      2147 2.25659E-03 3.32496E-04-6.76979E-15
 -1      2148 2.42920E-03 4.14100E-04-7.01154E-15
 -1      2149 2.54659E-03 4.36924E-04-6.91385E-15
 -1      2150 1.95544E-03 2.23856E-04-6.49871E-15
 -1      2151 2.06755E-03 2.57397E-04-6.56312E-15
 -1      2152 1.84899E-03 1.77187E-04-6.50046E-15
 -1      2153 1.87694E-03 1.93779E-04-6.47677E-15
 -1      2154 1.90882E-03 1.37415E-04-6.55639E-15
 -1      2155 1.85932E-03 1.55897E-04-6.52570E-15
 -1      2156 1.84503E-03 1.63877E-04-6.25356E-15
 -1      2157 2.14562E-03 5.50295E-05-6.87122E-15
 -1      2158 2.02537E-03 9.80585E-05-6.67214E-15
 -1      2159 2.45019E-03-6.46448E-05-7.27514E-15
 -1      2160 2.28626E-03-1.00153E-07-7.06903E-15
 -1      2161 2.22041E-03 4.40285E-05-6.68674E-15
 -1      2162 2.86819E-03-2.65871E-04-7.95826E-15
 -1      2163 2.66312E-03-1.65007E-04-7.63029E-15
 -1      2164 3.30536E-03-5.03624E-04-8.93770E-15
 -1      2165 3.12319E-03-4.00869E-04-8.48075E-15
 -1      2166 3.64034E-03-6.56637E-04-9.81615E-15
 -1      2167 3.47690E-03-5.85588E-04-9.37035E-15
 -1      2168 3.40951E-03-5.45204E-04-9.01956E-15
 -1      2169 3.99546E-03-7.42124E-04-1.09652E-14
 -1      2170 3.83607E-03-7.17719E-04-1.04023E-14
 -1      2171 4.37148E-03-6.81069E-04-1.22980E-14
 -1      2172 4.21303E-03-7.25447E-04-1.17486E-14
 -1      2173 4.68797E-03-5.35403E-04-1.33640E-14
 -1      2174 4.52939E-03-6.19169E-04-1.28253E-14
 -1      2175 4.43283E-03-6.55310E-04-1.27106E-14
 -1      2176 5.11053E-03-3.12414E-04-1.44219E-14
 -1      2177 4.92369E-03-4.14950E-04-1.39735E-14
 -1      2178 5.48960E-03-1.11037E-04-1.52674E-14
 -1      2179 5.31032E-03-2.06127E-04-1.48792E-14
 -1      2180 5.85784E-03 6.29610E-05-1.59826E-14
 -1      2181 5.68949E-03-1.29651E-05-1.56746E-14
 -1      2182 6.16654E-03 1.85542E-04-1.64930E-14
 -1      2183 6.03181E-03 1.35670E-04-1.62841E-14
 -1      2184 6.36664E-03 2.59388E-04-1.67951E-14
 -1      2185 6.28830E-03 2.32865E-04-1.67020E-14
 -1      2186 4.89214E-03 1.05667E-03-1.30329E-14
 -1      2187 5.07499E-03 9.58320E-04-1.35309E-14
 -1      2188 5.15699E-03 8.98020E-04-1.40473E-14
 -1      2189 5.54500E-03 6.80122E-04-1.51628E-14
 -1      2190 6.53933E-04-2.58525E-04-2.71538E-16
 -1      2191 4.77554E-03 1.11363E-03-1.28123E-14
 -1      2192 7.10628E-04-2.46134E-04-3.70391E-16
 -1      2193 6.26856E-03 3.65781E-04-1.70187E-14
 -1      2194 6.42009E-03 3.16132E-04-1.73413E-14
 -1      2195 1.45478E-02 9.82431E-04-1.29728E-13
 -1      2196 5.95413E-03 4.83113E-04-1.62522E-14
 -1      2197 6.39943E-03 2.84296E-04-1.73322E-14
 -1      2198 6.22824E-03 2.30716E-04-1.70647E-14
 -1      2199 5.93597E-03 1.24868E-04-1.65434E-14
 -1      2200 5.57088E-03-3.85343E-05-1.58202E-14
 -1      2201 4.77898E-03-4.74301E-04-1.38568E-14
 -1      2202 3.74331E-03-6.94954E-04-1.00245E-14
 -1      2203 2.55900E-03-9.68942E-05-7.21871E-15
 -1      2204 1.95966E-03 1.24414E-04-6.38687E-15
 -1      2205 2.16186E-03 2.73434E-04-6.46791E-15
 -1      2206 2.26032E-03 2.95579E-04-6.37072E-15
 -1      2207 2.07911E-03 2.33800E-04-6.17411E-15
 -1      2208 2.94694E-03 6.43305E-04-7.43253E-15
 -1      2209 3.75276E-03 1.12098E-03-9.09513E-15
 -1      2210 4.39166E-03 1.26004E-03-1.13485E-14
 -1      2211 3.35652E-03 8.86227E-04-8.12664E-15
 -1      2212 1.90584E-03 1.94268E-04-6.24949E-15
 -1      2213 3.01208E-03-3.26851E-04-8.07380E-15
 -1      2214 2.90147E-03-2.60811E-04-7.67958E-15
 -1      2215 3.13343E-03-3.89823E-04-8.18653E-15
 -1      2216 4.10131E-03-7.45960E-04-1.13844E-14
 -1      2217 5.18737E-03-2.41948E-04-1.49408E-14
 -1      2218 1.10781E-03 3.24243E-04-7.08079E-16
 -1      2219 9.47689E-04 2.91891E-04-5.19658E-16
 -1      2220 5.07323E-04-1.49783E-05-4.28937E-16
 -1      2221 5.16317E-04-2.62396E-05-4.25956E-16
 -1      2222 5.26504E-04-3.94550E-05-4.21768E-16
 -1      2223 5.37498E-04-5.46851E-05-4.16076E-16
 -1      2224 6.29993E-04-4.11109E-05-5.74166E-16
 -1      2225 4.87178E-04 1.57622E-05-4.28992E-16
 -1      2226 4.89296E-04 9.64197E-06-4.30564E-16
 -1      2227 4.89790E-04 2.73050E-05-4.22676E-16
 -1      2228 4.87302E-04 2.15114E-05-4.26417E-16
 -1      2229 5.85603E-04 2.31564E-05-5.78720E-16
 -1      2230 5.01626E-04 4.07378E-05-4.11807E-16
 -1      2231 4.94594E-04 3.35434E-05-4.18014E-16
 -1      2232 5.91643E-04 3.80334E-05-5.69111E-16
 -1      2233 5.22506E-04 6.02736E-05-3.94663E-16
 -1      2234 5.11070E-04 4.95564E-05-4.04109E-16
 -1      2235 6.09599E-04 5.63253E-05-5.53187E-16
 -1      2236 5.51028E-04 8.92733E-05-3.69808E-16
 -1      2237 5.35971E-04 7.34071E-05-3.83347E-16
 -1      2238 6.38657E-04 8.24649E-05-5.29118E-16
 -1      2239 5.86171E-04 1.31120E-04-3.34287E-16
 -1      2240 5.67912E-04 1.08408E-04-3.53884E-16
 -1      2241 6.76867E-04 1.20049E-04-4.94979E-16
 -1      2242 5.43569E-03 7.32807E-04-1.52219E-14
 -1      2243 5.63212E-03 6.26903E-04-1.58301E-14
 -1      2244 1.42886E-03 3.83454E-04-1.18175E-15
 -1      2245 1.26797E-03 3.54512E-04-9.28429E-16
 -1      2246 1.15201E-03 3.01432E-04-8.63540E-16
 -1      2247 9.77586E-04-2.90220E-04-7.18840E-16
 -1      2248 1.13368E-03-3.22931E-04-9.48162E-16
 -1      2249 4.70393E-03 1.16124E-03-1.26931E-14
 -1      2250 4.88637E-03 1.05774E-03-1.34141E-14
 -1      2251 1.28990E-03-3.53666E-04-1.21126E-15
 -1      2252 1.44659E-03-3.83118E-04-1.50895E-15
 -1      2253 1.18477E-03-3.00297E-04-1.11211E-15
 -1      2254 1.60385E-03-4.12531E-04-1.84123E-15
 -1      2255 1.76172E-03-4.42538E-04-2.20849E-15
 -1      2256 1.49570E-03-3.56898E-04-1.71347E-15
 -1      2257 1.92058E-03-4.74072E-04-2.60985E-15
 -1      2258 2.08011E-03-5.07670E-04-3.04588E-15
 -1      2259 1.81077E-03-4.14703E-04-2.45096E-15
 -1      2260 2.24080E-03-5.43844E-04-3.51683E-15
 -1      2261 2.40191E-03-5.82834E-04-4.02324E-15
 -1      2262 2.13113E-03-4.79815E-04-3.32521E-15
 -1      2263 2.56389E-03-6.24574E-04-4.56430E-15
 -1      2264 2.72565E-03-6.68635E-04-5.14039E-15
 -1      2265 2.45699E-03-5.56472E-04-4.33681E-15
 -1      2266 2.88738E-03-7.14199E-04-5.75186E-15
 -1      2267 3.04797E-03-7.59801E-04-6.39846E-15
 -1      2268 2.78649E-03-6.45043E-04-5.48712E-15
 -1      2269 3.20727E-03-8.03791E-04-7.08076E-15
 -1      2270 3.36461E-03-8.43600E-04-7.79921E-15
 -1      2271 3.11527E-03-7.39211E-04-6.77748E-15
 -1      2272 3.51959E-03-8.77042E-04-8.55379E-15
 -1      2273 3.67278E-03-9.01268E-04-9.34379E-15
 -1      2274 3.43769E-03-8.23832E-04-8.21089E-15
 -1      2275 3.82365E-03-9.14463E-04-1.01699E-14
 -1      2276 3.97407E-03-9.14540E-04-1.10325E-14
 -1      2277 3.75049E-03-8.77090E-04-9.78856E-15
 -1      2278 4.12348E-03-9.01018E-04-1.19302E-14
 -1      2279 4.27452E-03-8.74311E-04-1.28634E-14
 -1      2280 4.05639E-03-8.78943E-04-1.15112E-14
 -1      2281 4.42659E-03-8.35388E-04-1.38314E-14
 -1      2282 4.58122E-03-7.86714E-04-1.48337E-14
 -1      2283 4.36363E-03-8.22760E-04-1.33773E-14
 -1      2284 4.73791E-03-7.30454E-04-1.58699E-14
 -1      2285 4.89688E-03-6.69593E-04-1.69381E-14
 -1      2286 4.67935E-03-7.20232E-04-1.53821E-14
 -1      2287 5.05770E-03-6.06370E-04-1.80368E-14
 -1      2288 5.21955E-03-5.43204E-04-1.91660E-14
 -1      2289 5.00447E-03-5.93839E-04-1.75188E-14
 -1      2290 5.38232E-03-4.81717E-04-2.03249E-14
 -1      2291 5.54483E-03-4.23186E-04-2.15111E-14
 -1      2292 5.33462E-03-4.65156E-04-1.97781E-14
 -1      2293 5.70727E-03-3.68483E-04-2.27259E-14
 -1      2294 5.86862E-03-3.17932E-04-2.39679E-14
 -1      2295 5.66399E-03-3.48147E-04-2.21521E-14
 -1      2296 6.02925E-03-2.71785E-04-2.52352E-14
 -1      2297 6.18846E-03-2.29842E-04-2.65279E-14
 -1      2298 5.98854E-03-2.48563E-04-2.46352E-14
 -1      2299 6.34664E-03-1.91949E-04-2.78462E-14
 -1      2300 6.50340E-03-1.57701E-04-2.91898E-14
 -1      2301 6.30661E-03-1.66677E-04-2.72212E-14
 -1      2302 6.65904E-03-1.26741E-04-3.05566E-14
 -1      2303 6.81341E-03-9.86362E-05-3.19475E-14
 -1      2304 6.61825E-03-1.00052E-04-2.99063E-14
 -1      2305 6.96671E-03-7.29722E-05-3.33624E-14
 -1      2306 7.11892E-03-4.93717E-05-3.48000E-14
 -1      2307 6.92430E-03-4.53325E-05-3.26880E-14
 -1      2308 7.27019E-03-2.74459E-05-3.62627E-14
 -1      2309 7.42055E-03-6.89526E-06-3.77461E-14
 -1      2310 7.22579E-03 7.94200E-07-3.55633E-14
 -1      2311 7.57008E-03 1.26023E-05-3.92518E-14
 -1      2312 7.71887E-03 3.12709E-05-4.07815E-14
 -1      2313 7.52368E-03 4.11713E-05-3.85311E-14
 -1      2314 7.86696E-03 4.93546E-05-4.23323E-14
 -1      2315 8.01445E-03 6.70141E-05-4.39033E-14
 -1      2316 7.81876E-03 7.80449E-05-4.15880E-14
 -1      2317 8.16135E-03 8.44208E-05-4.54930E-14
 -1      2318 8.30777E-03 1.01685E-04-4.71039E-14
 -1      2319 8.11163E-03 1.13081E-04-4.47293E-14
 -1      2320 8.45370E-03 1.18918E-04-4.87337E-14
 -1      2321 8.59926E-03 1.36193E-04-5.03821E-14
 -1      2322 8.40278E-03 1.47445E-04-4.79486E-14
 -1      2323 8.74442E-03 1.53574E-04-5.20496E-14
 -1      2324 8.88928E-03 1.71106E-04-5.37373E-14
 -1      2325 8.69258E-03 1.81905E-04-5.12454E-14
 -1      2326 9.03383E-03 1.88820E-04-5.54434E-14
 -1      2327 9.17815E-03 2.06742E-04-5.71659E-14
 -1      2328 8.98133E-03 2.16926E-04-5.46182E-14
 -1      2329 9.32222E-03 2.24880E-04-5.89076E-14
 -1      2330 9.46612E-03 2.43247E-04-6.06670E-14
 -1      2331 9.26927E-03 2.52754E-04-5.80645E-14
 -1      2332 9.60983E-03 2.61835E-04-6.24428E-14
 -1      2333 9.75340E-03 2.80650E-04-6.42366E-14
 -1      2334 9.55657E-03 2.89486E-04-6.15805E-14
 -1      2335 9.89684E-03 2.99676E-04-6.60438E-14
 -1      2336 1.00402E-02 3.18910E-04-6.78641E-14
 -1      2337 9.84340E-03 3.27122E-04-6.51633E-14
 -1      2338 1.01834E-02 3.38335E-04-6.96980E-14
 -1      2339 1.03266E-02 3.57946E-04-7.15435E-14
 -1      2340 1.01299E-02 3.65602E-04-6.88052E-14
 -1      2341 1.04696E-02 3.77722E-04-7.34007E-14
 -1      2342 1.06127E-02 3.97657E-04-7.52701E-14
 -1      2343 1.04161E-02 4.04835E-04-7.24968E-14
 -1      2344 1.07557E-02 4.17731E-04-7.71479E-14
 -1      2345 1.08986E-02 4.37938E-04-7.90344E-14
 -1      2346 1.07021E-02 4.44715E-04-7.62317E-14
 -1      2347 1.10415E-02 4.58260E-04-8.09322E-14
 -1      2348 1.11844E-02 4.78690E-04-8.28388E-14
 -1      2349 1.09880E-02 4.85139E-04-8.00055E-14
 -1      2350 1.13273E-02 4.99212E-04-8.47544E-14
 -1      2351 1.14701E-02 5.19820E-04-8.66807E-14
 -1      2352 1.12738E-02 5.26007E-04-8.38179E-14
 -1      2353 1.16130E-02 5.40501E-04-8.86150E-14
 -1      2354 1.17558E-02 5.61250E-04-9.05581E-14
 -1      2355 1.15595E-02 5.67230E-04-8.76661E-14
 -1      2356 1.18986E-02 5.82055E-04-9.25135E-14
 -1      2357 1.20414E-02 6.02911E-04-9.44777E-14
 -1      2358 1.18452E-02 6.08733E-04-9.15540E-14
 -1      2359 1.21842E-02 6.23810E-04-9.64485E-14
 -1      2360 1.23271E-02 6.44747E-04-9.84302E-14
 -1      2361 1.21309E-02 6.50450E-04-9.54806E-14
 -1      2362 1.24699E-02 6.65716E-04-1.00420E-13
 -1      2363 1.26127E-02 6.86712E-04-1.02419E-13
 -1      2364 1.24166E-02 6.92328E-04-9.94427E-14
 -1      2365 1.27555E-02 7.07731E-04-1.04425E-13
 -1      2366 1.28983E-02 7.28770E-04-1.06437E-13
 -1      2367 1.27022E-02 7.34324E-04-1.03437E-13
 -1      2368 1.30412E-02 7.49824E-04-1.08452E-13
 -1      2369 1.31840E-02 7.70890E-04-1.10473E-13
 -1      2370 1.29879E-02 7.76404E-04-1.07458E-13
 -1      2371 1.33268E-02 7.91966E-04-1.12496E-13
 -1      2372 1.34696E-02 8.13049E-04-1.14519E-13
 -1      2373 1.32736E-02 8.18539E-04-1.11495E-13
 -1      2374 1.36125E-02 8.34137E-04-1.16541E-13
 -1      2375 1.37553E-02 8.55227E-04-1.18565E-13
 -1      2376 1.35593E-02 8.60706E-04-1.15538E-13
 -1      2377 1.38982E-02 8.76319E-04-1.20591E-13
 -1      2378 1.40410E-02 8.97409E-04-1.22617E-13
 -1      2379 1.38449E-02 9.02889E-04-1.19585E-13
 -1      2380 2.08552E-03 5.16827E-04-2.51876E-15
 -1      2381 1.91878E-03 4.78176E-04-2.13570E-15
 -1      2382 2.42635E-03 6.13055E-04-3.38260E-15
 -1      2383 2.25496E-03 5.61347E-04-2.93443E-15
 -1      2384 2.11593E-03 4.91389E-04-2.79755E-15
 -1      2385 2.77725E-03 7.41602E-04-4.37747E-15
 -1      2386 2.60101E-03 6.72827E-04-3.86341E-15
 -1      2387 2.45634E-03 5.90565E-04-3.69904E-15
 -1      2388 3.13584E-03 9.04467E-04-5.50836E-15
 -1      2389 2.95645E-03 8.19040E-04-4.92567E-15
 -1      2390 2.81116E-03 7.24487E-04-4.73120E-15
 -1      2391 3.49460E-03 1.08838E-03-6.78126E-15
 -1      2392 3.31626E-03 9.95541E-04-6.12639E-15
 -1      2393 3.17815E-03 8.95294E-04-5.89807E-15
 -1      2394 3.84265E-03 1.25784E-03-8.20237E-15
 -1      2395 3.67046E-03 1.17851E-03-7.47304E-15
 -1      2396 3.54730E-03 1.08756E-03-7.20765E-15
 -1      2397 4.17555E-03 1.36086E-03-9.77876E-15
 -1      2398 4.00968E-03 1.32054E-03-8.97091E-15
 -1      2399 3.90447E-03 1.25699E-03-8.66700E-15
 -1      2400 4.50265E-03 1.36369E-03-1.15140E-14
 -1      2401 4.33729E-03 1.37596E-03-1.06260E-14
 -1      2402 4.24438E-03 1.34397E-03-1.02847E-14
 -1      2403 4.84062E-03 1.27288E-03-1.34084E-14
 -1      2404 4.66866E-03 1.32665E-03-1.24411E-14
 -1      2405 4.58433E-03 1.31435E-03-1.20639E-14
 -1      2406 5.19525E-03 1.13750E-03-1.54548E-14
 -1      2407 5.01651E-03 1.20736E-03-1.44136E-14
 -1      2408 4.93933E-03 1.19536E-03-1.40019E-14
 -1      2409 5.55738E-03 1.00554E-03-1.76404E-14
 -1      2410 5.37655E-03 1.06879E-03-1.65310E-14
 -1      2411 5.30913E-03 1.04885E-03-1.60907E-14
 -1      2412 5.91665E-03 9.05431E-04-1.99525E-14
 -1      2413 5.73836E-03 9.50722E-04-1.87819E-14
 -1      2414 5.67879E-03 9.21551E-04-1.83136E-14
 -1      2415 6.26690E-03 8.45154E-04-2.23768E-14
 -1      2416 6.09341E-03 8.70480E-04-2.11503E-14
 -1      2417 6.03723E-03 8.34287E-04-2.06565E-14
 -1      2418 6.60663E-03 8.20843E-04-2.49093E-14
 -1      2419 6.43825E-03 8.28993E-04-2.36295E-14
 -1      2420 6.38087E-03 7.87896E-04-2.31103E-14
 -1      2421 6.93656E-03 8.24530E-04-2.75474E-14
 -1      2422 6.77281E-03 8.19708E-04-2.62160E-14
 -1      2423 6.71121E-03 7.75117E-04-2.56703E-14
 -1      2424 7.25808E-03 8.48063E-04-3.02887E-14
 -1      2425 7.09830E-03 8.34254E-04-2.89054E-14
 -1      2426 7.03122E-03 7.87171E-04-2.83339E-14
 -1      2427 7.57253E-03 8.84677E-04-3.31321E-14
 -1      2428 7.41609E-03 8.65069E-04-3.16977E-14
 -1      2429 7.34355E-03 8.16287E-04-3.11012E-14
 -1      2430 7.88108E-03 9.29309E-04-3.60723E-14
 -1      2431 7.72745E-03 9.06230E-04-3.45900E-14
 -1      2432 7.65010E-03 8.56399E-04-3.39679E-14
 -1      2433 8.18473E-03 9.78412E-04-3.91077E-14
 -1      2434 8.03343E-03 9.53467E-04-3.75775E-14
 -1      2435 7.95220E-03 9.03091E-04-3.69297E-14
 -1      2436 8.48433E-03 1.02962E-03-4.22286E-14
 -1      2437 8.33496E-03 1.00387E-03-4.06573E-14
 -1      2438 8.25077E-03 9.53313E-04-3.99843E-14
 -1      2439 8.78064E-03 1.08144E-03-4.54358E-14
 -1      2440 8.63283E-03 1.05553E-03-4.38217E-14
 -1      2441 8.54647E-03 1.00505E-03-4.31263E-14
 -1      2442 9.07431E-03 1.13296E-03-4.87200E-14
 -1      2443 8.92775E-03 1.10728E-03-4.70693E-14
 -1      2444 8.83987E-03 1.05702E-03-4.63512E-14
 -1      2445 9.36588E-03 1.18368E-03-5.20825E-14
 -1      2446 9.22031E-03 1.15844E-03-5.03922E-14
 -1      2447 9.13140E-03 1.10848E-03-4.96544E-14
 -1      2448 9.65582E-03 1.23337E-03-5.55235E-14
 -1      2449 9.51102E-03 1.20866E-03-5.37929E-14
 -1      2450 9.42144E-03 1.15903E-03-5.30339E-14
 -1      2451 9.94451E-03 1.28195E-03-5.90392E-14
 -1      2452 9.80029E-03 1.25780E-03-5.72720E-14
 -1      2453 9.71032E-03 1.20849E-03-5.64921E-14
 -1      2454 1.02323E-02 1.32946E-03-6.26275E-14
 -1      2455 1.00885E-02 1.30584E-03-6.08237E-14
 -1      2456 9.99829E-03 1.25683E-03-6.00239E-14
 -1      2457 1.05193E-02 1.37600E-03-6.62823E-14
 -1      2458 1.03759E-02 1.35285E-03-6.44471E-14
 -1      2459 1.02856E-02 1.30410E-03-6.36256E-14
 -1      2460 1.08059E-02 1.42166E-03-6.99995E-14
 -1      2461 1.06626E-02 1.39893E-03-6.81349E-14
 -1      2462 1.05723E-02 1.35042E-03-6.72927E-14
 -1      2463 1.10921E-02 1.46659E-03-7.37707E-14
 -1      2464 1.09490E-02 1.44421E-03-7.18771E-14
 -1      2465 1.08587E-02 1.39589E-03-7.10192E-14
 -1      2466 1.13780E-02 1.51089E-03-7.75973E-14
 -1      2467 1.12351E-02 1.48881E-03-7.56777E-14
 -1      2468 1.11448E-02 1.44065E-03-7.48011E-14
 -1      2469 1.16638E-02 1.55470E-03-8.14621E-14
 -1      2470 1.15209E-02 1.53285E-03-7.95241E-14
 -1      2471 1.14308E-02 1.48481E-03-7.86309E-14
 -1      2472 1.19495E-02 1.59809E-03-8.53681E-14
 -1      2473 1.18067E-02 1.57644E-03-8.34100E-14
 -1      2474 1.17166E-02 1.52850E-03-8.25011E-14
 -1      2475 1.22351E-02 1.64117E-03-8.93105E-14
 -1      2476 1.20923E-02 1.61967E-03-8.73369E-14
 -1      2477 1.20023E-02 1.57181E-03-8.64129E-14
 -1      2478 1.25207E-02 1.68400E-03-9.32820E-14
 -1      2479 1.23779E-02 1.66261E-03-9.12917E-14
 -1      2480 1.22880E-02 1.61481E-03-9.03539E-14
 -1      2481 1.28063E-02 1.72664E-03-9.72884E-14
 -1      2482 1.26635E-02 1.70534E-03-9.52801E-14
 -1      2483 1.25736E-02 1.65758E-03-9.43274E-14
 -1      2484 1.30919E-02 1.76915E-03-1.01322E-13
 -1      2485 1.29491E-02 1.74791E-03-9.93030E-14
 -1      2486 1.28592E-02 1.70018E-03-9.83349E-14
 -1      2487 1.33775E-02 1.81155E-03-1.05375E-13
 -1      2488 1.32347E-02 1.79036E-03-1.03347E-13
 -1      2489 1.31449E-02 1.74265E-03-1.02369E-13
 -1      2490 1.36632E-02 1.85389E-03-1.09442E-13
 -1      2491 1.35203E-02 1.83273E-03-1.07407E-13
 -1      2492 1.34305E-02 1.78504E-03-1.06420E-13
 -1      2493 1.39488E-02 1.89618E-03-1.13508E-13
 -1      2494 1.38060E-02 1.87504E-03-1.11475E-13
 -1      2495 1.37162E-02 1.82736E-03-1.10481E-13
 -1      2496 1.42345E-02 1.93845E-03-1.17579E-13
 -1      2497 1.40916E-02 1.91732E-03-1.15543E-13
 -1      2498 1.40018E-02 1.86964E-03-1.14544E-13
 -1      2499 1.45201E-02 1.98071E-03-1.21652E-13
 -1      2500 1.43773E-02 1.95958E-03-1.19613E-13
 -1      2501 1.42875E-02 1.91190E-03-1.18611E-13
 -1      2502 1.48058E-02 2.02299E-03-1.25730E-13
 -1      2503 1.46630E-02 2.00185E-03-1.23692E-13
 -1      2504 1.45732E-02 1.95416E-03-1.22681E-13
 -1      2505 1.49540E-02 2.04586E-03-1.27835E-13
 -1      2506 1.47105E-02 1.70136E-03-1.26783E-13
 -1      2507 1.47313E-02 1.74353E-03-1.26776E-13
 -1      2508 1.46688E-02 1.61701E-03-1.26796E-13
 -1      2509 1.46896E-02 1.65918E-03-1.26790E-13
 -1      2510 1.45763E-02 1.66198E-03-1.25027E-13
 -1      2511 1.47931E-02 1.86860E-03-1.26753E-13
 -1      2512 1.48139E-02 1.91076E-03-1.26742E-13
 -1      2513 1.47519E-02 1.78534E-03-1.26770E-13
 -1      2514 1.47724E-02 1.82679E-03-1.26760E-13
 -1      2515 1.46591E-02 1.82957E-03-1.24994E-13
 -1      2516 1.46178E-02 1.74596E-03-1.25010E-13
 -1      2517 1.46273E-02 1.53265E-03-1.26807E-13
 -1      2518 1.46480E-02 1.57483E-03-1.26802E-13
 -1      2519 1.45347E-02 1.57763E-03-1.25041E-13
 -1      2520 1.45857E-02 1.44829E-03-1.26819E-13
 -1      2521 1.46065E-02 1.49047E-03-1.26813E-13
 -1      2522 1.44931E-02 1.49328E-03-1.25054E-13
 -1      2523 1.45443E-02 1.36393E-03-1.26825E-13
 -1      2524 1.45650E-02 1.40611E-03-1.26822E-13
 -1      2525 1.44516E-02 1.40892E-03-1.25063E-13
 -1      2526 1.45035E-02 1.28101E-03-1.26826E-13
 -1      2527 1.45239E-02 1.32247E-03-1.26825E-13
 -1      2528 1.44105E-02 1.32528E-03-1.25067E-13
 -1      2529 1.44621E-02 1.19666E-03-1.26826E-13
 -1      2530 1.44828E-02 1.23883E-03-1.26828E-13
 -1      2531 1.43694E-02 1.24165E-03-1.25070E-13
 -1      2532 1.44207E-02 1.11233E-03-1.26822E-13
 -1      2533 1.44414E-02 1.15449E-03-1.26824E-13
 -1      2534 1.43280E-02 1.15731E-03-1.25070E-13
 -1      2535 1.43794E-02 1.02801E-03-1.26814E-13
 -1      2536 1.44001E-02 1.07016E-03-1.26816E-13
 -1      2537 1.42867E-02 1.07298E-03-1.25065E-13
 -1      2538 6.41471E-03 3.21536E-04-1.79225E-14
 -1      2539 6.44320E-03 3.11524E-04-1.79684E-14
 -1      2540 5.86908E-03 5.14648E-04-1.66371E-14
 -1      2541 6.05287E-03 4.39624E-04-1.71350E-14
 -1      2542 1.75381E-03 4.43953E-04-1.78523E-15
 -1      2543 1.59069E-03 4.12940E-04-1.46717E-15
 -1      2544 1.78751E-03 4.17463E-04-2.02446E-15
 -1      2545 1.44207E-02 9.65223E-04-1.27910E-13
 -1      2546 6.42982E-03 2.99156E-04-1.80292E-14
 -1      2547 6.38109E-03 2.88950E-04-1.79743E-14
 -1      2548 6.22254E-03 3.77846E-04-1.74982E-14
 -1      2549 6.33264E-03 3.47375E-04-1.77812E-14
 -1      2550 6.23789E-04-1.90481E-04-3.43069E-16
 -1      2551 8.31781E-04-2.50703E-04-5.46980E-16
 -1      2552 8.86812E-04-2.34381E-04-6.70877E-16
 -1      2553 6.06551E-04-1.59612E-04-3.65607E-16
 -1      2554 6.28415E-03 2.64153E-04-1.79334E-14
 -1      2555 6.16904E-03 2.33281E-04-1.77144E-14
 -1      2556 3.79896E-03-7.22042E-04-1.01528E-14
 -1      2557 3.64366E-03-6.60853E-04-9.57803E-15
 -1      2558 2.66299E-03-1.39261E-04-7.15355E-15
 -1      2559 2.46881E-03-5.02704E-05-6.81684E-15
 -1      2560 2.83751E-03 5.59785E-04-6.99928E-15
 -1      2561 3.03041E-03 6.70179E-04-7.26329E-15
 -1      2562 4.93541E-04 2.69566E-06-4.31025E-16
 -1      2563 4.99594E-04-5.39066E-06-4.30482E-16
 -1      2564 6.06941E-04-1.32302E-05-5.81498E-16
 -1      2565 5.91265E-04 7.28633E-06-5.82840E-16
 -1      2566 4.30797E-03 1.28241E-03-1.09829E-14
 -1      2567 4.47802E-03 1.25017E-03-1.17317E-14
 -1      2568 3.27528E-03 8.19134E-04-7.67722E-15
 -1      2569 3.46019E-03 9.40449E-04-8.09083E-15
 -1      2570 4.02241E-03 1.24316E-03-9.80094E-15
 -1      2571 4.14032E-03 1.27467E-03-1.02789E-14
 -1      2572 1.86240E-03 1.74406E-04-5.95055E-15
 -1      2573 1.93270E-03 1.88756E-04-5.96889E-15
 -1      2574 3.66984E-03 1.06870E-03-8.63735E-15
 -1      2575 3.84426E-03 1.16883E-03-9.17623E-15
 -1      2576 2.48039E-03 3.82112E-04-6.52209E-15
 -1      2577 2.65741E-03 4.65799E-04-6.75823E-15
 -1      2578 2.74034E-03 5.02381E-04-6.59578E-15
 -1      2579 1.84303E-03 1.57101E-04-6.00696E-15
 -1      2580 1.83458E-03 1.63074E-04-5.98440E-15
 -1      2581 2.00072E-03 1.15731E-04-6.14933E-15
 -1      2582 1.89556E-03 1.40549E-04-6.04460E-15
 -1      2583 2.28036E-03 2.57429E-05-6.51198E-15
 -1      2584 2.15115E-03 6.94395E-05-6.32802E-15
 -1      2585 4.18563E-03-7.41215E-04-1.18359E-14
 -1      2586 4.01359E-03-7.58573E-04-1.10491E-14
 -1      2587 3.48702E-03-5.86345E-04-9.09719E-15
 -1      2588 3.34338E-03-5.06796E-04-8.67535E-15
 -1      2589 5.26380E-03-1.73080E-04-1.56291E-14
 -1      2590 5.09102E-03-2.75275E-04-1.51562E-14
 -1      2591 4.48880E-03-6.26229E-04-1.31365E-14
 -1      2592 4.36412E-03-6.86353E-04-1.26009E-14
 -1      2593 4.88116E-03-4.00005E-04-1.45130E-14
 -1      2594 4.68719E-03-5.18787E-04-1.38865E-14
 -1      2595 4.98670E-03-3.35682E-04-1.51832E-14
 -1      2596 5.64958E-03 2.47513E-05-1.64805E-14
 -1      2597 5.46716E-03-6.62947E-05-1.60582E-14
 -1      2598 6.01097E-03 1.74582E-04-1.71981E-14
 -1      2599 5.84844E-03 1.12596E-04-1.68843E-14
 -1      2600 5.08574E-03 9.40207E-04-1.41119E-14
 -1      2601 5.24618E-03 8.41495E-04-1.46379E-14
 -1      2602 8.23278E-04 2.68395E-04-3.85542E-16
 -1      2603 6.62732E-04 2.27706E-04-2.55153E-16
 -1      2604 6.28771E-04 1.99745E-04-2.63922E-16
 -1      2605 8.73649E-04 2.50500E-04-5.01972E-16
 -1      2606 6.57865E-04-7.79138E-05-5.59692E-16
 -1      2607 5.49307E-04-7.21089E-05-4.08649E-16
 -1      2608 5.61734E-04-9.18356E-05-3.98892E-16
 -1      2609 5.77276E-03 5.70688E-04-1.66940E-14
 -1      2610 5.36124E-03 7.85859E-04-1.52866E-14
 -1      2611 6.05760E-04 1.66856E-04-2.94009E-16
 -1      2612 5.36948E-03-1.11071E-04-1.62773E-14
 -1      2613 3.56129E-03-6.29940E-04-9.21686E-15
 -1      2614 6.34834E-03 2.84104E-04-1.86313E-14
 -1      2615 4.99727E-03 1.00693E-03-1.39837E-14
 -1      2616 4.25697E-03-7.25293E-04-1.22405E-14
 -1      2617 2.37195E-03-1.78711E-05-6.44727E-15
 -1      2618 2.04535E-03 9.51999E-05-5.98058E-15
 -1      2619 1.48642E-02 1.99817E-03-1.26827E-13
 -1      2620 1.48320E-02 1.96272E-03-1.26611E-13
 -1      2621 2.36066E-03 3.24155E-04-6.21957E-15
 -1      2622 2.44791E-03 3.60155E-04-6.06514E-15
 -1      2623 2.25045E-03 2.80823E-04-5.92580E-15
 -1      2624 6.45451E-03 3.10424E-04-1.86139E-14
 -1      2625 6.39520E-03 3.36679E-04-1.84089E-14
 -1      2626 6.15655E-03 4.12930E-04-1.78916E-14
 -1      2627 3.56494E-03 1.00828E-03-8.16155E-15
 -1      2628 1.83361E-03 1.62778E-04-5.70631E-15
 -1      2629 1.46735E-03 3.57725E-04-1.37965E-15
 -1      2630 3.92311E-03 1.20885E-03-9.31414E-15
 -1      2631 6.10187E-03 2.15623E-04-1.80593E-14
 -1      2632 3.90568E-03-7.53612E-04-1.05729E-14
 -1      2633 3.80469E-03-7.36385E-04-1.01063E-14
 -1      2634 3.99272E-03-7.67786E-04-1.09981E-14
 -1      2635 2.78448E-03-2.01612E-04-7.25536E-15
 -1      2636 2.67002E-03-1.57108E-04-6.84454E-15
 -1      2637 2.89317E-03-2.67204E-04-7.35635E-15
 -1      2638 5.91003E-04-1.32414E-04-3.83320E-16
 -1      2639 3.14288E-03 7.37513E-04-7.22665E-15
 -1      2640 1.99195E-03 2.00642E-04-5.87057E-15
 -1      2641 2.05992E-03 2.16787E-04-5.77270E-15
 -1      2642 1.91994E-03 1.80473E-04-5.57514E-15
 -1      2643 4.24170E-03 1.28952E-03-1.06355E-14
 -1      2644 1.85454E-03 1.44708E-04-5.77501E-15
 -1      2645 3.22472E-03-4.43772E-04-8.25979E-15
 -1      2646 3.10663E-03-3.83439E-04-7.85603E-15
 -1      2647 3.29495E-03-4.94069E-04-8.32932E-15
 -1      2648 4.60514E-03-5.66040E-04-1.37684E-14
 -1      2649 1.42643E-02 9.28046E-04-1.25798E-13
 -1      2650 1.43364E-02 9.88006E-04-1.26455E-13
 -1      2651 1.42231E-02 9.90822E-04-1.24702E-13
 -1      2652 1.41372E-02 9.10829E-04-1.23985E-13
 -1      2653 5.75313E-03 7.87577E-05-1.71261E-14
 -1      2654 7.23474E-04 1.81831E-04-4.26972E-16
 -1      2655 1.46979E-02 1.92334E-03-1.24854E-13
 -1      2656 1.40840E-02 9.37404E-04-1.22976E-13
 -1      2657 4.53020E-03 1.24701E-03-1.19676E-14
 -1      2658 4.62019E-03 1.20228E-03-1.23568E-14
 -1      2659 6.95616E-04 5.07761E-05-7.37813E-16
 -1      2660 6.88362E-04 4.13116E-05-7.45606E-16
 -1      2661 6.84747E-04 3.23459E-05-7.51596E-16
 -1      2662 6.84912E-04 2.33518E-05-7.55987E-16
 -1      2663 7.84870E-04 4.32694E-05-9.47105E-16
 -1      2664 7.59849E-04 1.07371E-04-6.83400E-16
 -1      2665 7.39167E-04 8.93556E-05-7.01086E-16
 -1      2666 8.08778E-04 1.53614E-04-6.38473E-16
 -1      2667 7.83294E-04 1.28666E-04-6.62854E-16
 -1      2668 8.86536E-04 1.35063E-04-8.56994E-16
 -1      2669 1.45369E-02 1.85025E-03-1.22948E-13
 -1      2670 1.45551E-02 1.90221E-03-1.22814E-13
 -1      2671 1.44122E-02 1.88108E-03-1.20780E-13
 -1      2672 1.19386E-03 2.79401E-04-1.02671E-15
 -1      2673 1.04072E-03 2.51983E-04-7.95601E-16
 -1      2674 4.74114E-03 1.15927E-03-1.29409E-14
 -1      2675 4.75694E-03 1.17584E-03-1.30592E-14
 -1      2676 4.83122E-03 1.13166E-03-1.34085E-14
 -1      2677 4.99230E-03 1.03521E-03-1.41113E-14
 -1      2678 5.16565E-03 9.25936E-04-1.48326E-14
 -1      2679 4.99777E-03 1.06070E-03-1.42342E-14
 -1      2680 1.38914E-03-3.03363E-04-1.58582E-15
 -1      2681 1.54426E-03-3.29679E-04-1.92272E-15
 -1      2682 1.70098E-03-3.56737E-04-2.29330E-15
 -1      2683 1.85934E-03-3.85357E-04-2.69755E-15
 -1      2684 1.59175E-03-3.01237E-04-2.13695E-15
 -1      2685 2.01983E-03-4.16176E-04-3.13538E-15
 -1      2686 2.18211E-03-4.49999E-04-3.60672E-15
 -1      2687 1.90716E-03-3.54336E-04-2.94773E-15
 -1      2688 2.34675E-03-4.87154E-04-4.11237E-15
 -1      2689 2.51289E-03-5.28073E-04-4.65199E-15
 -1      2690 2.23292E-03-4.18259E-04-3.89092E-15
 -1      2691 2.68092E-03-5.72631E-04-5.22571E-15
 -1      2692 2.84935E-03-6.20107E-04-5.83409E-15
 -1      2693 2.56948E-03-4.98203E-04-4.96775E-15
 -1      2694 3.01824E-03-6.69495E-04-6.47759E-15
 -1      2695 3.18578E-03-7.18569E-04-7.15584E-15
 -1      2696 2.91388E-03-5.94916E-04-6.18102E-15
 -1      2697 3.35155E-03-7.65337E-04-7.87104E-15
 -1      2698 3.51452E-03-8.05419E-04-8.62213E-15
 -1      2699 3.25834E-03-6.99667E-04-7.53464E-15
 -1      2700 3.67394E-03-8.36439E-04-9.40903E-15
 -1      2701 3.83148E-03-8.54097E-04-1.02329E-14
 -1      2702 3.59281E-03-7.89356E-04-9.03220E-15
 -1      2703 3.98617E-03-8.56997E-04-1.10943E-14
 -1      2704 4.14172E-03-8.42667E-04-1.19914E-14
 -1      2705 3.91361E-03-8.31987E-04-1.06776E-14
 -1      2706 4.29724E-03-8.11573E-04-1.29241E-14
 -1      2707 4.45602E-03-7.67195E-04-1.38927E-14
 -1      2708 4.22982E-03-8.02033E-04-1.24713E-14
 -1      2709 4.61732E-03-7.11270E-04-1.48954E-14
 -1      2710 4.78178E-03-6.48403E-04-1.59326E-14
 -1      2711 4.55376E-03-7.04776E-04-1.44092E-14
 -1      2712 4.94872E-03-5.81154E-04-1.70019E-14
 -1      2713 5.11685E-03-5.13498E-04-1.81018E-14
 -1      2714 4.89136E-03-5.69901E-04-1.64843E-14
 -1      2715 5.28583E-03-4.47266E-04-1.92317E-14
 -1      2716 5.45385E-03-3.84495E-04-2.03913E-14
 -1      2717 5.23617E-03-4.29057E-04-1.86864E-14
 -1      2718 5.62103E-03-3.26134E-04-2.15791E-14
 -1      2719 5.78600E-03-2.72497E-04-2.27939E-14
 -1      2720 5.57833E-03-3.02694E-04-2.10064E-14
 -1      2721 5.94920E-03-2.23928E-04-2.40361E-14
 -1      2722 6.10990E-03-1.79948E-04-2.53032E-14
 -1      2723 5.91115E-03-1.97736E-04-2.34368E-14
 -1      2724 6.26864E-03-1.40518E-04-2.65962E-14
 -1      2725 6.42512E-03-1.04952E-04-2.79147E-14
 -1      2726 6.23262E-03-1.13217E-04-2.59731E-14
 -1      2727 6.57986E-03-7.30095E-05-2.92578E-14
 -1      2728 6.73281E-03-4.40479E-05-3.06247E-14
 -1      2729 6.54377E-03-4.53769E-05-2.86085E-14
 -1      2730 6.88436E-03-1.77460E-05-3.20145E-14
 -1      2731 7.03460E-03 6.40183E-06-3.34284E-14
 -1      2732 6.84682E-03 9.94967E-06-3.13430E-14
 -1      2733 7.18376E-03 2.87240E-05-3.48668E-14
 -1      2734 7.33200E-03 4.95937E-05-3.63273E-14
 -1      2735 7.14404E-03 5.64333E-05-3.41704E-14
 -1      2736 7.47944E-03 6.93034E-05-3.78109E-14
 -1      2737 7.62622E-03 8.81147E-05-3.93165E-14
 -1      2738 7.43730E-03 9.70297E-05-3.70909E-14
 -1      2739 7.77243E-03 1.06265E-04-4.08451E-14
 -1      2740 7.91817E-03 1.23933E-04-4.23950E-14
 -1      2741 7.72796E-03 1.34006E-04-4.01034E-14
 -1      2742 8.06349E-03 1.41296E-04-4.39648E-14
 -1      2743 8.20848E-03 1.58471E-04-4.55546E-14
 -1      2744 8.01693E-03 1.69031E-04-4.32005E-14
 -1      2745 8.35314E-03 1.75583E-04-4.71640E-14
 -1      2746 8.49758E-03 1.92703E-04-4.87937E-14
 -1      2747 8.30482E-03 2.03282E-04-4.63802E-14
 -1      2748 8.64177E-03 2.09914E-04-5.04423E-14
 -1      2749 8.78580E-03 2.27256E-04-5.21087E-14
 -1      2750 8.59203E-03 2.37548E-04-4.96390E-14
 -1      2751 8.92963E-03 2.44776E-04-5.37953E-14
 -1      2752 9.07335E-03 2.62494E-04-5.54999E-14
 -1      2753 8.87877E-03 2.72319E-04-5.29736E-14
 -1      2754 9.21692E-03 2.80432E-04-5.72235E-14
 -1      2755 9.36040E-03 2.98597E-04-5.89624E-14
 -1      2756 9.16522E-03 3.07868E-04-5.63816E-14
 -1      2757 9.50377E-03 3.16993E-04-6.07190E-14
 -1      2758 9.64708E-03 3.35619E-04-6.24932E-14
 -1      2759 9.45146E-03 3.44314E-04-5.98591E-14
 -1      2760 9.79030E-03 3.54467E-04-6.42850E-14
 -1      2761 9.93347E-03 3.73532E-04-6.60914E-14
 -1      2762 9.73756E-03 3.81674E-04-6.34069E-14
 -1      2763 1.00766E-02 3.92799E-04-6.79128E-14
 -1      2764 1.02197E-02 4.12262E-04-6.97460E-14
 -1      2765 1.00236E-02 4.19898E-04-6.70195E-14
 -1      2766 1.03627E-02 4.31903E-04-7.15899E-14
 -1      2767 1.05057E-02 4.51712E-04-7.34472E-14
 -1      2768 1.03095E-02 4.58902E-04-7.06851E-14
 -1      2769 1.06487E-02 4.71673E-04-7.53163E-14
 -1      2770 1.07916E-02 4.91776E-04-7.71932E-14
 -1      2771 1.05953E-02 4.98585E-04-7.43987E-14
 -1      2772 1.09345E-02 5.12004E-04-7.90792E-14
 -1      2773 1.10774E-02 5.32349E-04-8.09761E-14
 -1      2774 1.08812E-02 5.38841E-04-7.81534E-14
 -1      2775 1.12203E-02 5.52796E-04-8.28817E-14
 -1      2776 1.13632E-02 5.73338E-04-8.47963E-14
 -1      2777 1.11669E-02 5.79570E-04-8.19445E-14
 -1      2778 1.15061E-02 5.93960E-04-8.67208E-14
 -1      2779 1.16490E-02 6.14656E-04-8.86532E-14
 -1      2780 1.14527E-02 6.20681E-04-8.57744E-14
 -1      2781 1.17918E-02 6.35415E-04-9.05955E-14
 -1      2782 1.19347E-02 6.56231E-04-9.25502E-14
 -1      2783 1.17385E-02 6.62095E-04-8.96400E-14
 -1      2784 1.20775E-02 6.77095E-04-9.45136E-14
 -1      2785 1.22204E-02 6.98003E-04-9.64840E-14
 -1      2786 1.20242E-02 7.03742E-04-9.35445E-14
 -1      2787 1.23632E-02 7.18946E-04-9.84631E-14
 -1      2788 1.25061E-02 7.39922E-04-1.00453E-13
 -1      2789 1.23099E-02 7.45568E-04-9.74875E-14
 -1      2790 1.26489E-02 7.60923E-04-1.02451E-13
 -1      2791 1.27918E-02 7.81947E-04-1.04454E-13
 -1      2792 1.25956E-02 7.87525E-04-1.01464E-13
 -1      2793 1.29346E-02 8.02989E-04-1.06464E-13
 -1      2794 1.30775E-02 8.24046E-04-1.08478E-13
 -1      2795 1.28813E-02 8.29577E-04-1.05469E-13
 -1      2796 1.32203E-02 8.45115E-04-1.10493E-13
 -1      2797 1.33632E-02 8.66194E-04-1.12514E-13
 -1      2798 1.31671E-02 8.71695E-04-1.09496E-13
 -1      2799 1.35060E-02 8.87279E-04-1.14537E-13
 -1      2800 1.36489E-02 9.08369E-04-1.16557E-13
 -1      2801 1.34528E-02 9.13854E-04-1.13532E-13
 -1      2802 1.37917E-02 9.29462E-04-1.18578E-13
 -1      2803 1.39346E-02 9.50556E-04-1.20600E-13
 -1      2804 1.37385E-02 9.56037E-04-1.17572E-13
 -1      2805 2.48211E-03 5.65425E-04-4.01877E-15
 -1      2806 2.30989E-03 5.10737E-04-3.53386E-15
 -1      2807 5.85823E-03 1.25267E-04-1.78934E-14
 -1      2808 5.68060E-03 4.68155E-05-1.74745E-14
 -1      2809 2.14169E-03 4.64693E-04-3.08060E-15
 -1      2810 1.97783E-03 4.25011E-04-2.65897E-15
 -1      2811 2.16288E-03 4.36275E-04-3.36806E-15
 -1      2812 3.22087E-03 8.83640E-04-6.28866E-15
 -1      2813 3.03085E-03 7.88911E-04-5.67021E-15
 -1      2814 3.93642E-03 1.23157E-03-9.08907E-15
 -1      2815 3.74769E-03 1.14674E-03-8.32464E-15
 -1      2816 4.40281E-03 1.30774E-03-1.12656E-14
 -1      2817 4.22250E-03 1.31017E-03-1.03934E-14
 -1      2818 4.58543E-03 1.26958E-03-1.21784E-14
 -1      2819 4.98651E-03 1.13286E-03-1.42720E-14
 -1      2820 4.79767E-03 1.20901E-03-1.32730E-14
 -1      2821 5.43135E-03 9.54171E-04-1.67280E-14
 -1      2822 5.23998E-03 1.02796E-03-1.56461E-14
 -1      2823 5.80532E-03 8.37313E-04-1.89872E-14
 -1      2824 5.62138E-03 8.90237E-04-1.78425E-14
 -1      2825 5.56656E-03 8.57199E-04-1.73707E-14
 -1      2826 6.15911E-03 7.66444E-04-2.13619E-14
 -1      2827 5.98529E-03 7.96676E-04-2.01608E-14
 -1      2828 5.93764E-03 7.56546E-04-1.96646E-14
 -1      2829 6.49358E-03 7.35229E-04-2.38439E-14
 -1      2830 6.32872E-03 7.46707E-04-2.25895E-14
 -1      2831 6.28185E-03 7.03999E-04-2.20702E-14
 -1      2832 6.81345E-03 7.33961E-04-2.64314E-14
 -1      2833 6.65510E-03 7.31551E-04-2.51244E-14
 -1      2834 6.60452E-03 6.87764E-04-2.45802E-14
 -1      2835 7.12346E-03 7.53823E-04-2.91203E-14
 -1      2836 6.96946E-03 7.41765E-04-2.77641E-14
 -1      2837 6.91295E-03 6.97053E-04-2.71936E-14
 -1      2838 7.42700E-03 7.87851E-04-3.19121E-14
 -1      2839 7.27585E-03 7.69432E-04-3.05034E-14
 -1      2840 7.21291E-03 7.23715E-04-2.99088E-14
 -1      2841 7.72623E-03 8.30840E-04-3.48004E-14
 -1      2842 7.57702E-03 8.08477E-04-3.33442E-14
 -1      2843 7.50806E-03 7.61805E-04-3.27232E-14
 -1      2844 8.02242E-03 8.79075E-04-3.77854E-14
 -1      2845 7.87461E-03 8.54473E-04-3.62816E-14
 -1      2846 7.80048E-03 8.07021E-04-3.56354E-14
 -1      2847 8.31634E-03 9.30004E-04-4.08592E-14
 -1      2848 8.16960E-03 9.04316E-04-3.93111E-14
 -1      2849 8.09127E-03 8.56318E-04-3.86401E-14
 -1      2850 8.60849E-03 9.81941E-04-4.40217E-14
 -1      2851 8.46259E-03 9.55919E-04-4.24303E-14
 -1      2852 8.38098E-03 9.07600E-04-4.17351E-14
 -1      2853 8.89921E-03 1.03383E-03-4.72648E-14
 -1      2854 8.75399E-03 1.00794E-03-4.56330E-14
 -1      2855 8.66989E-03 9.59482E-04-4.49173E-14
 -1      2856 9.18876E-03 1.08506E-03-5.05860E-14
 -1      2857 9.04409E-03 1.05955E-03-4.89157E-14
 -1      2858 8.95817E-03 1.01110E-03-4.81783E-14
 -1      2859 9.47737E-03 1.13530E-03-5.39849E-14
 -1      2860 9.33316E-03 1.11031E-03-5.22757E-14
 -1      2861 9.24591E-03 1.06195E-03-5.15176E-14
 -1      2862 9.76523E-03 1.18443E-03-5.74593E-14
 -1      2863 9.62137E-03 1.16001E-03-5.57126E-14
 -1      2864 9.53321E-03 1.11178E-03-5.49336E-14
 -1      2865 1.00525E-02 1.23246E-03-6.10051E-14
 -1      2866 9.90893E-03 1.20859E-03-5.92230E-14
 -1      2867 9.82013E-03 1.16052E-03-5.84230E-14
 -1      2868 1.03393E-02 1.27945E-03-6.46197E-14
 -1      2869 1.01960E-02 1.25608E-03-6.28051E-14
 -1      2870 1.01068E-02 1.20818E-03-6.19862E-14
 -1      2871 1.06258E-02 1.32551E-03-6.83008E-14
 -1      2872 1.04826E-02 1.30259E-03-6.64528E-14
 -1      2873 1.03931E-02 1.25484E-03-6.56143E-14
 -1      2874 1.09120E-02 1.37077E-03-7.20352E-14
 -1      2875 1.07689E-02 1.34823E-03-7.01613E-14
 -1      2876 1.06793E-02 1.30063E-03-6.93031E-14
 -1      2877 1.11980E-02 1.41535E-03-7.58240E-14
 -1      2878 1.10550E-02 1.39313E-03-7.39215E-14
 -1      2879 1.09653E-02 1.34565E-03-7.30481E-14
 -1      2880 1.14839E-02 1.45937E-03-7.96617E-14
 -1      2881 1.13410E-02 1.43742E-03-7.77387E-14
 -1      2882 1.12513E-02 1.39004E-03-7.68456E-14
 -1      2883 1.17697E-02 1.50293E-03-8.35361E-14
 -1      2884 1.16268E-02 1.48120E-03-8.15942E-14
 -1      2885 1.15371E-02 1.43391E-03-8.06886E-14
 -1      2886 1.20554E-02 1.54614E-03-8.74515E-14
 -1      2887 1.19126E-02 1.52458E-03-8.54888E-14
 -1      2888 1.18229E-02 1.47735E-03-8.45696E-14
 -1      2889 1.23411E-02 1.58908E-03-9.13920E-14
 -1      2890 1.21983E-02 1.56764E-03-8.94179E-14
 -1      2891 1.21086E-02 1.52047E-03-8.84839E-14
 -1      2892 1.26268E-02 1.63179E-03-9.53695E-14
 -1      2893 1.24840E-02 1.61046E-03-9.33772E-14
 -1      2894 1.23944E-02 1.56333E-03-9.24290E-14
 -1      2895 1.29125E-02 1.67435E-03-9.93792E-14
 -1      2896 1.27697E-02 1.65309E-03-9.73704E-14
 -1      2897 1.26801E-02 1.60599E-03-9.64089E-14
 -1      2898 1.31982E-02 1.71679E-03-1.03411E-13
 -1      2899 1.30553E-02 1.69559E-03-1.01393E-13
 -1      2900 1.29658E-02 1.64851E-03-1.00419E-13
 -1      2901 1.34838E-02 1.75915E-03-1.07460E-13
 -1      2902 1.33410E-02 1.73798E-03-1.05435E-13
 -1      2903 1.32515E-02 1.69092E-03-1.04452E-13
 -1      2904 1.37695E-02 1.80146E-03-1.11516E-13
 -1      2905 1.36267E-02 1.78031E-03-1.09487E-13
 -1      2906 1.35372E-02 1.73327E-03-1.08497E-13
 -1      2907 1.40552E-02 1.84373E-03-1.15578E-13
 -1      2908 1.39124E-02 1.82260E-03-1.13546E-13
 -1      2909 1.38229E-02 1.77556E-03-1.12550E-13
 -1      2910 1.43051E-02 1.87297E-03-1.19191E-13
 -1      2911 1.41623E-02 1.85184E-03-1.17161E-13
 -1      2912 1.40728E-02 1.80480E-03-1.16159E-13
 -1      2913 1.42870E-02 1.82101E-03-1.19327E-13
 -1      2914 1.43590E-02 1.45390E-03-1.23298E-13
 -1      2915 1.43798E-02 1.49608E-03-1.23294E-13
 -1      2916 1.40307E-02 9.63979E-04-1.21967E-13
 -1      2917 1.41269E-02 9.77401E-04-1.23335E-13
 -1      2918 1.39775E-02 9.90556E-04-1.20960E-13
 -1      2919 1.44422E-02 1.62260E-03-1.23274E-13
 -1      2920 1.44630E-02 1.66477E-03-1.23264E-13
 -1      2921 1.43175E-02 1.36955E-03-1.23309E-13
 -1      2922 1.43383E-02 1.41173E-03-1.23306E-13
 -1      2923 1.42249E-02 1.41453E-03-1.21548E-13
 -1      2924 1.44006E-02 1.53825E-03-1.23288E-13
 -1      2925 1.44214E-02 1.58043E-03-1.23281E-13
 -1      2926 1.43080E-02 1.58323E-03-1.21522E-13
 -1      2927 1.42665E-02 1.49888E-03-1.21536E-13
 -1      2928 5.32271E-03 8.29700E-04-1.54256E-14
 -1      2929 5.48833E-03 7.32467E-04-1.60287E-14
 -1      2930 5.30369E-03 8.70594E-04-1.55586E-14
 -1      2931 1.42768E-02 1.28663E-03-1.23313E-13
 -1      2932 1.42971E-02 1.32809E-03-1.23311E-13
 -1      2933 1.41838E-02 1.33090E-03-1.21557E-13
 -1      2934 1.42354E-02 1.20229E-03-1.23315E-13
 -1      2935 1.42561E-02 1.24446E-03-1.23314E-13
 -1      2936 1.41427E-02 1.24727E-03-1.21561E-13
 -1      2937 1.41940E-02 1.11796E-03-1.23316E-13
 -1      2938 1.42147E-02 1.16012E-03-1.23316E-13
 -1      2939 1.41013E-02 1.16294E-03-1.21563E-13
 -1      2940 6.39704E-03 3.52501E-04-1.91960E-14
 -1      2941 6.46192E-03 3.34583E-04-1.93446E-14
 -1      2942 6.12440E-03 4.43546E-04-1.83811E-14
 -1      2943 6.26841E-03 3.91312E-04-1.87603E-14
 -1      2944 8.21344E-04-1.91391E-04-6.38554E-16
 -1      2945 9.61575E-04-2.24654E-04-8.26189E-16
 -1      2946 8.40609E-04 2.02792E-04-5.64449E-16
 -1      2947 4.35035E-03-6.97730E-04-1.27978E-14
 -1      2948 4.19639E-03-7.48204E-04-1.20247E-14
 -1      2949 5.09672E-03-2.76278E-04-1.59430E-14
 -1      2950 4.91580E-03-3.88901E-04-1.52809E-14
 -1      2951 6.41780E-03 3.00518E-04-1.93942E-14
 -1      2952 6.33464E-03 2.82294E-04-1.93475E-14
 -1      2953 1.50246E-03 3.32520E-04-1.58430E-15
 -1      2954 1.34755E-03 3.05943E-04-1.28940E-15
 -1      2955 1.23237E-03 2.57938E-04-1.19745E-15
 -1      2956 2.08880E-03 7.15805E-05-5.78456E-15
 -1      2957 1.95767E-03 1.08695E-04-5.61875E-15
 -1      2958 1.81696E-03 3.90847E-04-2.26918E-15
 -1      2959 1.65874E-03 3.60404E-04-1.91077E-15
 -1      2960 1.53365E-03 3.07690E-04-1.79534E-15
 -1      2961 1.84195E-03 3.63756E-04-2.51944E-15
 -1      2962 6.47785E-03 3.19625E-04-1.92256E-14
 -1      2963 6.46540E-03 3.13410E-04-1.92867E-14
 -1      2964 2.84253E-03 7.03854E-04-5.08641E-15
 -1      2965 2.66030E-03 6.29061E-04-4.53618E-15
 -1      2966 2.50395E-03 5.37382E-04-4.34204E-15
 -1      2967 2.87137E-03 6.80885E-04-5.44367E-15
 -1      2968 1.09780E-03-2.51287E-04-1.04102E-15
 -1      2969 1.25038E-03-2.78233E-04-1.31432E-15
 -1      2970 1.29961E-03-2.53720E-04-1.49296E-15
 -1      2971 1.02876E-03-2.07052E-04-9.94972E-16
 -1      2972 5.70758E-03 6.19427E-04-1.68426E-14
 -1      2973 5.92068E-03 5.26080E-04-1.76730E-14
 -1      2974 5.66267E-03 6.69951E-04-1.69861E-14
 -1      2975 3.00001E-03 6.54950E-04-6.69868E-15
 -1      2976 3.21241E-03 7.91014E-04-7.08674E-15
 -1      2977 1.80272E-03 1.52444E-04-5.40974E-15
 -1      2978 1.82597E-03 1.57407E-04-5.37682E-15
 -1      2979 7.21296E-04 7.43091E-05-7.15533E-16
 -1      2980 7.06711E-04 6.15823E-05-7.27811E-16
 -1      2981 8.02342E-04 6.56340E-05-9.27738E-16
 -1      2982 8.37190E-04 9.46584E-05-8.98465E-16
 -1      2983 6.17580E-03 2.36682E-04-1.89490E-14
 -1      2984 6.02597E-03 1.89999E-04-1.84185E-14
 -1      2985 5.96222E-03 1.57269E-04-1.87741E-14
 -1      2986 2.63848E-03 4.53072E-04-6.16937E-15
 -1      2987 2.79629E-03 5.37096E-04-6.39366E-15
 -1      2988 6.67366E-04-1.29874E-04-4.94328E-16
 -1      2989 7.32384E-04-4.00884E-05-7.51989E-16
 -1      2990 7.48246E-04-5.90687E-05-7.45484E-16
 -1      2991 4.70840E-03-5.12170E-04-1.44254E-14
 -1      2992 4.53412E-03-6.13329E-04-1.36579E-14
 -1      2993 3.58851E-03-6.59404E-04-9.22160E-15
 -1      2994 3.45544E-03-5.89847E-04-8.75443E-15
 -1      2995 1.85729E-03 1.33507E-04-5.47380E-15
 -1      2996 1.81223E-03 1.43797E-04-5.44139E-15
 -1      2997 1.77845E-03 1.40884E-04-5.11701E-15
 -1      2998 2.44114E-03-6.05828E-05-6.31692E-15
 -1      2999 2.27045E-03 6.37056E-06-6.02852E-15
 -1      3000 5.50248E-03-4.14348E-05-1.70224E-14
 -1      3001 5.32564E-03-1.39813E-04-1.65765E-14
 -1      3002 5.62945E-03 1.18068E-05-1.77813E-14
 -1      3003 1.41698E-02 1.01740E-03-1.23692E-13
 -1      3004 3.56526E-03 1.02641E-03-7.88353E-15
 -1      3005 3.56692E-03 1.06639E-03-7.50314E-15
 -1      3006 3.37601E-03 9.63647E-04-6.81931E-15
 -1      3007 3.38347E-03 9.07707E-04-7.37050E-15
 -1      3008 7.85791E-04 2.20656E-05-9.57662E-16
 -1      3009 6.88709E-04 1.37774E-05-7.58630E-16
 -1      3010 6.95735E-04 3.03666E-06-7.59524E-16
 -1      3011 3.23249E-03 8.27774E-04-6.82600E-15
 -1      3012 1.45162E-02 1.80845E-03-1.22958E-13
 -1      3013 1.87920E-03 1.15128E-04-5.28616E-15
 -1      3014 7.65384E-04-8.05399E-05-7.37041E-16
 -1      3015 7.83363E-04-1.04567E-04-7.25792E-16
 -1      3016 8.71284E-04-8.02467E-05-9.39515E-16
 -1      3017 1.43495E-02 1.66721E-03-1.21505E-13
 -1      3018 1.44837E-02 1.70658E-03-1.23254E-13
 -1      3019 1.45043E-02 1.74839E-03-1.23246E-13
 -1      3020 1.41905E-02 1.05956E-03-1.23697E-13
 -1      3021 6.47232E-03 3.12040E-04-2.00120E-14
 -1      3022 3.22315E-03 8.50877E-04-6.55930E-15
 -1      3023 4.08247E-03 1.28936E-03-9.70933E-15
 -1      3024 5.12869E-03 1.04578E-03-1.50048E-14
 -1      3025 5.26548E-03 9.41306E-04-1.56105E-14
 -1      3026 6.28481E-03 2.65089E-04-1.97135E-14
 -1      3027 6.23476E-03 2.42299E-04-2.00780E-14
 -1      3028 6.38027E-03 2.83323E-04-2.04874E-14
 -1      3029 6.06616E-03 4.84871E-04-1.85344E-14
 -1      3030 6.19894E-03 4.59876E-04-1.94107E-14
 -1      3031 6.01674E-03 5.30917E-04-1.86846E-14
 -1      3032 2.13506E-03 2.39654E-04-5.62393E-15
 -1      3033 2.20645E-03 2.69568E-04-5.47405E-15
 -1      3034 2.03315E-03 2.11627E-04-5.33070E-15
 -1      3035 3.69639E-03-7.14332E-04-9.61349E-15
 -1      3036 3.58922E-03-6.87487E-04-9.13211E-15
 -1      3037 3.78694E-03-7.53806E-04-1.00116E-14
 -1      3038 6.50402E-03 3.35403E-04-2.00241E-14
 -1      3039 1.40771E-02 1.06237E-03-1.21947E-13
 -1      3040 6.38042E-03 3.78867E-04-1.96995E-14
 -1      3041 5.23896E-03-2.04810E-04-1.66751E-14
 -1      3042 8.87927E-04 1.88269E-04-6.87994E-16
 -1      3043 4.45822E-03-6.59065E-04-1.34247E-14
 -1      3044 4.83078E-03-4.54600E-04-1.51599E-14
 -1      3045 4.09163E-03-7.70570E-04-1.15209E-14
 -1      3046 3.99309E-03-7.79248E-04-1.10267E-14
 -1      3047 4.18478E-03-7.60705E-04-1.20535E-14
 -1      3048 2.98006E-03-3.25830E-04-7.42055E-15
 -1      3049 2.85540E-03-2.77416E-04-6.99881E-15
 -1      3050 3.05171E-03-3.83193E-04-7.48281E-15
 -1      3051 2.14890E-03 3.62433E-05-5.66037E-15
 -1      3052 2.03916E-03 5.36393E-05-5.30440E-15
 -1      3053 2.20131E-03-4.40851E-06-5.53353E-15
 -1      3054 1.85234E-03 1.63670E-04-5.28001E-15
 -1      3055 1.88971E-03 1.72028E-04-5.18353E-15
 -1      3056 1.79661E-03 1.52322E-04-4.99158E-15
 -1      3057 7.05691E-04-9.25937E-06-7.58887E-16
 -1      3058 7.18019E-04-2.35751E-05-7.56380E-16
 -1      3059 8.33266E-04-3.66359E-05-9.54396E-16
 -1      3060 8.03275E-04-3.25099E-06-9.60115E-16
 -1      3061 2.87829E-03 5.99336E-04-6.26048E-15
 -1      3062 2.51055E-03 3.97450E-04-5.87267E-15
 -1      3063 7.81343E-04-1.38133E-04-6.63491E-16
 -1      3064 3.34134E-03-5.38789E-04-8.33323E-15
 -1      3065 2.63863E-03-1.72735E-04-6.49517E-15
 -1      3066 2.54274E-03-1.14434E-04-6.40644E-15
 -1      3067 2.42151E-03-8.54227E-05-5.98320E-15
 -1      3068 9.96966E-04 1.94576E-04-8.89507E-16
 -1      3069 6.04934E-03 1.72848E-04-1.97261E-14
 -1      3070 5.89622E-03 1.15306E-04-1.91841E-14
 -1      3071 1.01883E-03 1.65035E-04-1.04935E-15
 -1      3072 9.86685E-04 1.39196E-04-1.07760E-15
 -1      3073 1.40498E-02 1.29190E-03-1.19807E-13
 -1      3074 1.40702E-02 1.33335E-03-1.19805E-13
 -1      3075 5.59822E-03 7.38935E-04-1.70342E-14
 -1      3076 5.79340E-03 6.42253E-04-1.78725E-14
 -1      3077 1.79386E-03-2.94932E-04-2.76209E-15
 -1      3078 1.95311E-03-3.21141E-04-3.20086E-15
 -1      3079 2.11589E-03-3.50340E-04-3.67231E-15
 -1      3080 2.28197E-03-3.83867E-04-4.17646E-15
 -1      3081 1.99673E-03-2.85502E-04-3.45751E-15
 -1      3082 2.45195E-03-4.22198E-04-4.71383E-15
 -1      3083 2.62486E-03-4.65996E-04-5.28450E-15
 -1      3084 2.32881E-03-3.47091E-04-4.46390E-15
 -1      3085 2.80165E-03-5.14974E-04-5.88951E-15
 -1      3086 2.97898E-03-5.68705E-04-6.52833E-15
 -1      3087 2.67929E-03-4.31979E-04-5.60229E-15
 -1      3088 3.15713E-03-6.25712E-04-7.20218E-15
 -1      3089 3.33309E-03-6.82288E-04-7.91234E-15
 -1      3090 3.04389E-03-5.43590E-04-6.87537E-15
 -1      3091 3.55348E-03-7.39082E-04-8.88788E-15
 -1      3092 3.72250E-03-7.78870E-04-9.68113E-15
 -1      3093 3.91624E-03-8.06361E-04-1.06794E-14
 -1      3094 4.07864E-03-8.02919E-04-1.15568E-14
 -1      3095 4.24160E-03-7.74850E-04-1.24708E-14
 -1      3096 4.48621E-03-7.04392E-04-1.39219E-14
 -1      3097 4.65646E-03-6.37910E-04-1.49273E-14
 -1      3098 4.83020E-03-5.63484E-04-1.59650E-14
 -1      3099 5.00621E-03-4.88068E-04-1.70367E-14
 -1      3100 4.76917E-03-5.60801E-04-1.54479E-14
 -1      3101 5.18383E-03-4.14079E-04-1.81399E-14
 -1      3102 5.35955E-03-3.44954E-04-1.92721E-14
 -1      3103 5.13176E-03-4.00053E-04-1.75930E-14
 -1      3104 5.53378E-03-2.81599E-04-2.04330E-14
 -1      3105 5.70433E-03-2.24490E-04-2.16217E-14
 -1      3106 5.49062E-03-2.59350E-04-1.98618E-14
 -1      3107 5.87180E-03-1.73734E-04-2.28375E-14
 -1      3108 6.03531E-03-1.28388E-04-2.40803E-14
 -1      3109 5.83458E-03-1.47903E-04-2.22403E-14
 -1      3110 6.19562E-03-8.83303E-05-2.53483E-14
 -1      3111 6.35257E-03-5.24488E-05-2.66416E-14
 -1      3112 6.16106E-03-6.18869E-05-2.47255E-14
 -1      3113 6.50685E-03-2.05179E-05-2.79595E-14
 -1      3114 6.65866E-03 8.39985E-06-2.93027E-14
 -1      3115 6.47238E-03 5.31651E-06-2.73123E-14
 -1      3116 6.80853E-03 3.45604E-05-3.06696E-14
 -1      3117 6.95673E-03 5.86188E-05-3.20595E-14
 -1      3118 6.77253E-03 5.95675E-05-2.99976E-14
 -1      3119 7.10363E-03 8.08338E-05-3.34732E-14
 -1      3120 7.24947E-03 1.01656E-04-3.49113E-14
 -1      3121 7.06527E-03 1.05204E-04-3.27796E-14
 -1      3122 7.39449E-03 1.21321E-04-3.63720E-14
 -1      3123 7.53889E-03 1.40124E-04-3.78549E-14
 -1      3124 7.35348E-03 1.45311E-04-3.56533E-14
 -1      3125 7.68279E-03 1.58264E-04-3.93591E-14
 -1      3126 7.82635E-03 1.75933E-04-4.08863E-14
 -1      3127 7.63918E-03 1.82081E-04-3.86184E-14
 -1      3128 7.96963E-03 1.93290E-04-4.24368E-14
 -1      3129 8.11274E-03 2.10454E-04-4.40058E-14
 -1      3130 7.92365E-03 2.17059E-04-4.16724E-14
 -1      3131 8.25569E-03 2.27544E-04-4.55959E-14
 -1      3132 8.39858E-03 2.44631E-04-4.72055E-14
 -1      3133 8.20767E-03 2.51328E-04-4.48123E-14
 -1      3134 8.54139E-03 2.61798E-04-4.88335E-14
 -1      3135 8.68418E-03 2.79083E-04-5.04831E-14
 -1      3136 8.49166E-03 2.85616E-04-4.80311E-14
 -1      3137 8.82694E-03 2.96538E-04-5.21494E-14
 -1      3138 8.96971E-03 3.14180E-04-5.38342E-14
 -1      3139 8.77584E-03 3.20386E-04-5.13266E-14
 -1      3140 9.11247E-03 3.32038E-04-5.55384E-14
 -1      3141 9.25524E-03 3.50115E-04-5.72603E-14
 -1      3142 9.06029E-03 3.55900E-04-5.46968E-14
 -1      3143 9.39802E-03 3.68421E-04-5.89986E-14
 -1      3144 9.54081E-03 3.86954E-04-6.07540E-14
 -1      3145 9.34502E-03 3.92282E-04-5.81389E-14
 -1      3146 9.68361E-03 4.05711E-04-6.25275E-14
 -1      3147 9.82643E-03 4.24683E-04-6.43185E-14
 -1      3148 9.63000E-03 4.29556E-04-6.16515E-14
 -1      3149 9.96925E-03 4.43862E-04-6.61253E-14
 -1      3150 1.01121E-02 4.63238E-04-6.79452E-14
 -1      3151 9.91521E-03 4.67682E-04-6.52309E-14
 -1      3152 1.02549E-02 4.82796E-04-6.97775E-14
 -1      3153 1.03978E-02 5.02526E-04-7.16228E-14
 -1      3154 1.02006E-02 5.06583E-04-6.88699E-14
 -1      3155 1.05406E-02 5.22413E-04-7.34791E-14
 -1      3156 1.06835E-02 5.42446E-04-7.53475E-14
 -1      3157 1.04861E-02 5.46165E-04-7.25619E-14
 -1      3158 1.08264E-02 5.62610E-04-7.72238E-14
 -1      3159 1.09692E-02 5.82896E-04-7.91102E-14
 -1      3160 1.07717E-02 5.86327E-04-7.62946E-14
 -1      3161 1.11121E-02 6.03288E-04-8.10063E-14
 -1      3162 1.12550E-02 6.23779E-04-8.29119E-14
 -1      3163 1.10573E-02 6.26972E-04-8.00673E-14
 -1      3164 1.13979E-02 6.44356E-04-8.48261E-14
 -1      3165 1.15407E-02 6.65011E-04-8.67499E-14
 -1      3166 1.13431E-02 6.68009E-04-8.38784E-14
 -1      3167 1.16836E-02 6.85733E-04-8.86823E-14
 -1      3168 1.18265E-02 7.06516E-04-9.06246E-14
 -1      3169 1.16288E-02 7.09359E-04-8.77250E-14
 -1      3170 1.19694E-02 7.27351E-04-9.25772E-14
 -1      3171 1.21122E-02 7.48233E-04-9.45407E-14
 -1      3172 1.19145E-02 7.50954E-04-9.16105E-14
 -1      3173 1.22551E-02 7.69153E-04-9.65104E-14
 -1      3174 1.23980E-02 7.90109E-04-9.84884E-14
 -1      3175 1.22003E-02 7.92737E-04-9.55335E-14
 -1      3176 1.25408E-02 8.11093E-04-1.00477E-13
 -1      3177 1.26837E-02 8.32102E-04-1.02472E-13
 -1      3178 1.24861E-02 8.34661E-04-9.94912E-14
 -1      3179 1.28266E-02 8.53132E-04-1.04476E-13
 -1      3180 1.29694E-02 8.74179E-04-1.06484E-13
 -1      3181 1.27718E-02 8.76688E-04-1.03481E-13
 -1      3182 1.31123E-02 8.95241E-04-1.08495E-13
 -1      3183 1.32552E-02 9.16313E-04-1.10507E-13
 -1      3184 1.30576E-02 9.18788E-04-1.07494E-13
 -1      3185 1.33980E-02 9.37395E-04-1.12526E-13
 -1      3186 1.35409E-02 9.58483E-04-1.14545E-13
 -1      3187 1.33433E-02 9.60937E-04-1.11521E-13
 -1      3188 1.36838E-02 9.79575E-04-1.16566E-13
 -1      3189 1.38266E-02 1.00067E-03-1.18585E-13
 -1      3190 1.36290E-02 1.00311E-03-1.15557E-13
 -1      3191 5.74553E-03 4.81594E-05-1.87100E-14
 -1      3192 5.58989E-03-2.94436E-05-1.82406E-14
 -1      3193 5.85731E-03 7.24043E-05-1.96540E-14
 -1      3194 4.62650E-03 1.22737E-03-1.24142E-14
 -1      3195 5.74151E-03 7.55532E-04-1.82120E-14
 -1      3196 5.54965E-03 8.15585E-04-1.70862E-14
 -1      3197 6.71316E-03 6.44930E-04-2.53202E-14
 -1      3198 6.56106E-03 6.42894E-04-2.40385E-14
 -1      3199 7.00928E-03 6.63748E-04-2.79596E-14
 -1      3200 6.86225E-03 6.52372E-04-2.66270E-14
 -1      3201 6.81700E-03 6.08097E-04-2.60621E-14
 -1      3202 7.29924E-03 6.96187E-04-3.06996E-14
 -1      3203 7.15472E-03 6.78630E-04-2.93173E-14
 -1      3204 7.10096E-03 6.34684E-04-2.87266E-14
 -1      3205 7.58642E-03 7.37496E-04-3.35366E-14
 -1      3206 7.44299E-03 7.15966E-04-3.21056E-14
 -1      3207 7.38158E-03 6.71568E-04-3.14903E-14
 -1      3208 7.87256E-03 7.84295E-04-3.64722E-14
 -1      3209 7.72951E-03 7.60365E-04-3.49931E-14
 -1      3210 7.66158E-03 7.15171E-04-3.43521E-14
 -1      3211 8.15843E-03 8.34175E-04-3.94982E-14
 -1      3212 8.01546E-03 8.08955E-04-3.79748E-14
 -1      3213 7.94218E-03 7.62927E-04-3.73092E-14
 -1      3214 8.44434E-03 8.85458E-04-4.26129E-14
 -1      3215 8.30134E-03 8.59710E-04-4.10437E-14
 -1      3216 8.22377E-03 8.12965E-04-4.03556E-14
 -1      3217 8.73034E-03 9.37025E-04-4.58135E-14
 -1      3218 8.58730E-03 9.11250E-04-4.42036E-14
 -1      3219 8.50638E-03 8.63958E-04-4.34906E-14
 -1      3220 9.01641E-03 9.88175E-04-4.90935E-14
 -1      3221 8.87335E-03 9.62678E-04-4.74440E-14
 -1      3222 8.78986E-03 9.15008E-04-4.67102E-14
 -1      3223 9.30251E-03 1.03851E-03-5.24503E-14
 -1      3224 9.15944E-03 1.01346E-03-5.07612E-14
 -1      3225 9.07402E-03 9.65549E-04-5.00078E-14
 -1      3226 9.58861E-03 1.08783E-03-5.58825E-14
 -1      3227 9.44555E-03 1.06330E-03-5.41569E-14
 -1      3228 9.35870E-03 1.01526E-03-5.33801E-14
 -1      3229 9.87467E-03 1.13610E-03-5.93878E-14
 -1      3230 9.73163E-03 1.11209E-03-5.76264E-14
 -1      3231 9.64375E-03 1.06400E-03-5.68292E-14
 -1      3232 1.01607E-02 1.18334E-03-6.29648E-14
 -1      3233 1.00177E-02 1.15984E-03-6.11685E-14
 -1      3234 9.92905E-03 1.11175E-03-6.03519E-14
 -1      3235 1.04466E-02 1.22964E-03-6.66046E-14
 -1      3236 1.03037E-02 1.20660E-03-6.47758E-14
 -1      3237 1.02145E-02 1.15853E-03-6.39402E-14
 -1      3238 1.07325E-02 1.27512E-03-7.03058E-14
 -1      3239 1.05896E-02 1.25248E-03-6.84481E-14
 -1      3240 1.05001E-02 1.20445E-03-6.75913E-14
 -1      3241 1.10184E-02 1.31990E-03-7.40579E-14
 -1      3242 1.08755E-02 1.29759E-03-7.21755E-14
 -1      3243 1.07858E-02 1.24962E-03-7.13016E-14
 -1      3244 1.13042E-02 1.36408E-03-7.78661E-14
 -1      3245 1.11613E-02 1.34206E-03-7.59568E-14
 -1      3246 1.10715E-02 1.29414E-03-7.50691E-14
 -1      3247 1.15900E-02 1.40779E-03-8.17143E-14
 -1      3248 1.14471E-02 1.38599E-03-7.97856E-14
 -1      3249 1.13572E-02 1.33812E-03-7.88813E-14
 -1      3250 1.18758E-02 1.45112E-03-8.55991E-14
 -1      3251 1.17329E-02 1.42950E-03-8.36510E-14
 -1      3252 1.16430E-02 1.38166E-03-8.27361E-14
 -1      3253 1.21616E-02 1.49414E-03-8.95148E-14
 -1      3254 1.20187E-02 1.47266E-03-8.75531E-14
 -1      3255 1.19288E-02 1.42486E-03-8.66243E-14
 -1      3256 1.24473E-02 1.53692E-03-9.34646E-14
 -1      3257 1.23044E-02 1.51556E-03-9.14867E-14
 -1      3258 1.22145E-02 1.46779E-03-9.05443E-14
 -1      3259 1.27330E-02 1.57953E-03-9.74455E-14
 -1      3260 1.25902E-02 1.55825E-03-9.54501E-14
 -1      3261 1.25003E-02 1.51051E-03-9.44952E-14
 -1      3262 1.30188E-02 1.62201E-03-1.01455E-13
 -1      3263 1.28759E-02 1.60079E-03-9.94479E-14
 -1      3264 1.27860E-02 1.55307E-03-9.84782E-14
 -1      3265 1.33045E-02 1.66440E-03-1.05487E-13
 -1      3266 1.31616E-02 1.64322E-03-1.03467E-13
 -1      3267 1.30718E-02 1.59551E-03-1.02487E-13
 -1      3268 1.35902E-02 1.70673E-03-1.09531E-13
 -1      3269 1.34473E-02 1.68557E-03-1.07508E-13
 -1      3270 1.33575E-02 1.63787E-03-1.06519E-13
 -1      3271 1.38759E-02 1.74901E-03-1.13581E-13
 -1      3272 1.37331E-02 1.72787E-03-1.11555E-13
 -1      3273 1.36432E-02 1.68018E-03-1.10562E-13
 -1      3274 4.61042E-03-6.03506E-04-1.43707E-14
 -1      3275 4.44187E-03-6.86649E-04-1.34845E-14
 -1      3276 5.40224E-03 8.56531E-04-1.62226E-14
 -1      3277 1.40910E-02 1.37552E-03-1.19797E-13
 -1      3278 1.41117E-02 1.41770E-03-1.19791E-13
 -1      3279 1.39570E-02 1.33651E-03-1.18050E-13
 -1      3280 1.89397E-03 9.43959E-05-5.05502E-15
 -1      3281 1.80516E-03 1.15645E-04-4.92040E-15
 -1      3282 1.39672E-02 1.12358E-03-1.19814E-13
 -1      3283 1.39879E-02 1.16575E-03-1.19811E-13
 -1      3284 6.53881E-03 3.26326E-04-2.09088E-14
 -1      3285 6.50391E-03 3.15103E-04-2.10162E-14
 -1      3286 3.06981E-03 7.42769E-04-6.30281E-15
 -1      3287 1.40085E-02 1.20773E-03-1.19811E-13
 -1      3288 1.40292E-02 1.24990E-03-1.19808E-13
 -1      3289 1.39157E-02 1.25235E-03-1.18059E-13
 -1      3290 1.38744E-02 1.16838E-03-1.18061E-13
 -1      3291 6.40498E-03 6.46500E-04-2.27816E-14
 -1      3292 6.24372E-03 6.58523E-04-2.15519E-14
 -1      3293 6.52440E-03 5.97069E-04-2.34978E-14
 -1      3294 5.37913E-03-1.45007E-04-1.75721E-14
 -1      3295 5.17961E-03-2.68448E-04-1.69158E-14
 -1      3296 5.51550E-03-1.00079E-04-1.84877E-14
 -1      3297 6.08800E-03 6.80101E-04-2.04481E-14
 -1      3298 5.91299E-03 7.12320E-04-1.92679E-14
 -1      3299 5.90843E-03 6.64692E-04-1.89676E-14
 -1      3300 6.22529E-03 6.12221E-04-2.11356E-14
 -1      3301 6.37637E-03 4.11988E-04-2.03606E-14
 -1      3302 6.48432E-03 3.79614E-04-2.08121E-14
 -1      3303 6.55453E-03 3.54716E-04-2.11526E-14
 -1      3304 6.55971E-03 3.40471E-04-2.10323E-14
 -1      3305 6.61446E-03 3.44661E-04-2.20540E-14
 -1      3306 2.17696E-03 4.05800E-04-3.65949E-15
 -1      3307 2.01691E-03 3.67816E-04-3.20173E-15
 -1      3308 2.34530E-03 3.32065E-04-5.43769E-15
 -1      3309 2.50901E-03 4.14392E-04-5.52888E-15
 -1      3310 8.94063E-04-1.42920E-04-8.59054E-16
 -1      3311 1.74654E-03 1.29058E-04-4.77023E-15
 -1      3312 1.73893E-03 1.35723E-04-4.74180E-15
 -1      3313 1.16607E-03 2.27053E-04-1.15881E-15
 -1      3314 1.07852E-03 1.90195E-04-1.09254E-15
 -1      3315 1.18017E-03 1.92738E-04-1.34380E-15
 -1      3316 1.31231E-03 2.50197E-04-1.43715E-15
 -1      3317 1.48392E-03-2.48930E-04-1.98263E-15
 -1      3318 1.63753E-03-2.71252E-04-2.35617E-15
 -1      3319 1.68107E-03-2.39389E-04-2.57949E-15
 -1      3320 3.34186E-03-5.67672E-04-8.22111E-15
 -1      3321 3.19680E-03-4.74158E-04-7.81685E-15
 -1      3322 2.88077E-03 6.25432E-04-5.97612E-15
 -1      3323 2.88812E-03 6.59325E-04-5.72887E-15
 -1      3324 2.69789E-03 5.78285E-04-5.14917E-15
 -1      3325 2.70190E-03 5.21769E-04-5.69633E-15
 -1      3326 8.86137E-04 5.59639E-05-1.16430E-15
 -1      3327 8.81508E-04 4.41701E-05-1.17311E-15
 -1      3328 1.43821E-02 1.76907E-03-1.21205E-13
 -1      3329 1.08338E-03 1.41948E-04-1.32355E-15
 -1      3330 9.57645E-04 1.17106E-04-1.10135E-15
 -1      3331 9.32618E-04 9.81946E-05-1.12172E-15
 -1      3332 1.73576E-03 1.14010E-04-4.55126E-15
 -1      3333 9.75722E-04-7.70055E-05-1.16720E-15
 -1      3334 9.99473E-04-1.04538E-04-1.15583E-15
 -1      3335 1.42155E-02 1.62801E-03-1.19757E-13
 -1      3336 1.42361E-02 1.66982E-03-1.19747E-13
 -1      3337 5.96052E-03 6.01516E-04-1.89230E-14
 -1      3338 3.45492E-03-6.75567E-04-8.51007E-15
 -1      3339 4.33761E-03-7.30967E-04-1.29429E-14
 -1      3340 1.02305E-03-1.62580E-04-1.07827E-15
 -1      3341 8.82445E-04 3.23370E-05-1.17938E-15
 -1      3342 8.88569E-04 1.94912E-05-1.18333E-15
 -1      3343 9.78897E-04 4.41119E-05-1.42299E-15
 -1      3344 6.34084E-03 4.44939E-04-2.05180E-14
 -1      3345 6.48513E-03 3.04097E-04-2.13911E-14
 -1      3346 6.46095E-03 2.89560E-04-2.17655E-14
 -1      3347 6.57724E-03 3.20287E-04-2.23072E-14
 -1      3348 5.12182E-03-3.51294E-04-1.71561E-14
 -1      3349 4.97677E-03-4.10406E-04-1.62790E-14
 -1      3350 1.39830E-02 1.75712E-03-1.15162E-13
 -1      3351 1.38932E-02 1.70943E-03-1.14165E-13
 -1      3352 1.40901E-02 1.76522E-03-1.16742E-13
 -1      3353 4.79563E-03-5.15530E-04-1.53944E-14
 -1      3354 1.41738E-02 1.54367E-03-1.19773E-13
 -1      3355 1.41946E-02 1.58584E-03-1.19765E-13
 -1      3356 1.40812E-02 1.58846E-03-1.18010E-13
 -1      3357 1.39810E-02 1.04895E-03-1.20580E-13
 -1      3358 1.68609E-03 1.28458E-04-4.31780E-15
 -1      3359 1.73894E-03 1.40000E-04-4.65008E-15
 -1      3360 1.74940E-03 1.44422E-04-4.55853E-15
 -1      3361 6.10586E-03 5.65996E-04-1.98052E-14
 -1      3362 1.93065E-03 6.76863E-05-4.93563E-15
 -1      3363 1.83339E-03 7.35068E-05-4.57979E-15
 -1      3364 1.96646E-03 3.61313E-05-4.81496E-15
 -1      3365 1.41324E-02 1.45960E-03-1.19787E-13
 -1      3366 1.41532E-02 1.50177E-03-1.19780E-13
 -1      3367 1.40397E-02 1.50439E-03-1.18026E-13
 -1      3368 1.39984E-02 1.42059E-03-1.18038E-13
 -1      3369 6.57593E-03 3.80827E-04-2.18344E-14
 -1      3370 1.93566E-03 1.86475E-04-5.03979E-15
 -1      3371 1.98552E-03 2.06309E-04-4.89604E-15
 -1      3372 1.85160E-03 1.69515E-04-4.75666E-15
 -1      3373 1.86161E-03 3.36086E-04-2.77502E-15
 -1      3374 1.70986E-03 3.08127E-04-2.37883E-15
 -1      3375 1.87538E-03 3.07273E-04-3.03589E-15
 -1      3376 2.22021E-03 2.89732E-04-5.14718E-15
 -1      3377 3.07039E-03-4.24476E-04-7.37787E-15
 -1      3378 2.28751E-03-4.60027E-05-5.61335E-15
 -1      3379 2.16231E-03-1.76605E-05-5.25664E-15
 -1      3380 2.37236E-03-9.29932E-05-5.69328E-15
 -1      3381 2.52703E-03 4.47713E-04-5.26508E-15
 -1      3382 1.58449E-03 2.90375E-04-2.05067E-15
 -1      3383 1.43644E-03 2.66534E-04-1.71252E-15
 -1      3384 1.36553E-03 2.35229E-04-1.66210E-15
 -1      3385 1.60691E-03 2.65528E-04-2.27749E-15
 -1      3386 8.96363E-04 6.82915E-05-1.15306E-15
 -1      3387 9.89114E-04 7.01014E-05-1.40261E-15
 -1      3388 9.11893E-04 8.21762E-05-1.13871E-15
 -1      3389 2.51626E-03 5.08863E-04-4.63453E-15
 -1      3390 2.34263E-03 4.53614E-04-4.11662E-15
 -1      3391 2.18356E-03 3.75720E-04-3.92510E-15
 -1      3392 2.52166E-03 4.80901E-04-4.89570E-15
 -1      3393 1.21244E-03-2.07544E-04-1.39831E-15
 -1      3394 1.34727E-03-2.28121E-04-1.67740E-15
 -1      3395 1.39280E-03-2.01085E-04-1.86797E-15
 -1      3396 3.35445E-03-6.11013E-04-8.15422E-15
 -1      3397 9.32525E-04-3.04565E-05-1.18116E-15
 -1      3398 9.53123E-04-5.22707E-05-1.17534E-15
 -1      3399 1.07818E-03-7.10268E-05-1.41902E-15
 -1      3400 6.29767E-03 2.37113E-04-2.12823E-14
 -1      3401 6.17910E-03 2.09865E-04-2.04994E-14
 -1      3402 6.13150E-03 1.72206E-04-2.09172E-14
 -1      3403 2.71917E-03-2.28609E-04-6.55051E-15
 -1      3404 2.58665E-03-1.90482E-04-6.11795E-15
 -1      3405 2.78928E-03-2.85468E-04-6.60394E-15
 -1      3406 1.42556E-02 1.71540E-03-1.19685E-13
 -1      3407 1.42675E-02 1.77545E-03-1.19392E-13
 -1      3408 1.41604E-02 1.76734E-03-1.17809E-13
 -1      3409 1.41215E-02 1.67620E-03-1.17938E-13
 -1      3410 1.39262E-02 1.07249E-03-1.19572E-13
 -1      3411 1.38129E-02 1.07530E-03-1.17822E-13
 -1      3412 3.88727E-03-7.78567E-04-1.05029E-14
 -1      3413 2.20124E-03-2.73807E-04-4.21894E-15
 -1      3414 2.37153E-03-3.06916E-04-4.75310E-15
 -1      3415 2.59224E-03-3.17770E-04-5.59035E-15
 -1      3416 2.77756E-03-3.69999E-04-6.20254E-15
 -1      3417 1.07184E-03-1.42324E-04-1.22913E-15
 -1      3418 1.36700E-02 1.05420E-03-1.15802E-13
 -1      3419 1.37109E-02 1.10529E-03-1.16044E-13
 -1      3420 1.35271E-02 1.03311E-03-1.13784E-13
 -1      3421 5.30934E-03-2.71147E-04-1.82666E-14
 -1      3422 5.80623E-03-1.15051E-04-2.16442E-14
 -1      3423 5.97299E-03-6.89240E-05-2.28616E-14
 -1      3424 6.13490E-03-2.94918E-05-2.41059E-14
 -1      3425 6.29199E-03 5.38413E-06-2.53739E-14
 -1      3426 6.11370E-03 5.25697E-06-2.34870E-14
 -1      3427 6.44528E-03 3.58509E-05-2.66682E-14
 -1      3428 6.59536E-03 6.34455E-05-2.79872E-14
 -1      3429 6.42228E-03 6.78607E-05-2.60252E-14
 -1      3430 6.74289E-03 8.82977E-05-2.93301E-14
 -1      3431 6.88841E-03 1.11293E-04-3.06969E-14
 -1      3432 6.71646E-03 1.17632E-04-2.86630E-14
 -1      3433 7.03236E-03 1.32587E-04-3.20867E-14
 -1      3434 7.17520E-03 1.52731E-04-3.35005E-14
 -1      3435 7.00197E-03 1.59974E-04-3.13965E-14
 -1      3436 7.31717E-03 1.71874E-04-3.49377E-14
 -1      3437 7.45861E-03 1.90328E-04-3.63980E-14
 -1      3438 7.28284E-03 1.98055E-04-3.42234E-14
 -1      3439 7.59965E-03 2.08235E-04-3.78798E-14
 -1      3440 7.74051E-03 2.25777E-04-3.93834E-14
 -1      3441 7.56170E-03 2.33799E-04-3.71418E-14
 -1      3442 7.88124E-03 2.43077E-04-4.09108E-14
 -1      3443 8.02200E-03 2.60240E-04-4.24598E-14
 -1      3444 7.84012E-03 2.68421E-04-4.01508E-14
 -1      3445 8.16279E-03 2.77366E-04-4.40301E-14
 -1      3446 8.30370E-03 2.94511E-04-4.56202E-14
 -1      3447 8.11896E-03 3.02726E-04-4.32478E-14
 -1      3448 8.44472E-03 3.11750E-04-4.72303E-14
 -1      3449 8.58592E-03 3.29108E-04-4.88589E-14
 -1      3450 8.39865E-03 3.37251E-04-4.64291E-14
 -1      3451 8.72724E-03 3.46639E-04-5.05061E-14
 -1      3452 8.86874E-03 3.64348E-04-5.21722E-14
 -1      3453 8.67934E-03 3.72331E-04-4.96867E-14
 -1      3454 9.01038E-03 3.82268E-04-5.38572E-14
 -1      3455 9.15218E-03 4.00396E-04-5.55616E-14
 -1      3456 8.96103E-03 4.08159E-04-5.30187E-14
 -1      3457 9.29410E-03 4.18747E-04-5.72820E-14
 -1      3458 9.43616E-03 4.37312E-04-5.90206E-14
 -1      3459 9.24363E-03 4.44817E-04-5.64250E-14
 -1      3460 9.57833E-03 4.56095E-04-6.07763E-14
 -1      3461 9.72061E-03 4.75083E-04-6.25497E-14
 -1      3462 9.52700E-03 4.82315E-04-5.99030E-14
 -1      3463 9.86297E-03 4.94272E-04-6.43404E-14
 -1      3464 1.00054E-02 5.13650E-04-6.61460E-14
 -1      3465 9.81101E-03 5.20613E-04-6.34502E-14
 -1      3466 1.01479E-02 5.33206E-04-6.79654E-14
 -1      3467 1.02905E-02 5.52929E-04-6.97977E-14
 -1      3468 1.00955E-02 5.59638E-04-6.70598E-14
 -1      3469 1.04332E-02 5.72806E-04-7.16427E-14
 -1      3470 1.05759E-02 5.92825E-04-7.34994E-14
 -1      3471 1.03804E-02 5.99303E-04-7.07251E-14
 -1      3472 1.07186E-02 6.12974E-04-7.53674E-14
 -1      3473 1.08614E-02 6.33242E-04-7.72446E-14
 -1      3474 1.06656E-02 6.39517E-04-7.44381E-14
 -1      3475 1.10041E-02 6.53618E-04-7.91306E-14
 -1      3476 1.11470E-02 6.74090E-04-8.10273E-14
 -1      3477 1.09510E-02 6.80189E-04-7.81940E-14
 -1      3478 1.12898E-02 6.94648E-04-8.29326E-14
 -1      3479 1.14326E-02 7.15285E-04-8.48472E-14
 -1      3480 1.12366E-02 7.21237E-04-8.19859E-14
 -1      3481 1.15755E-02 7.35990E-04-8.67698E-14
 -1      3482 1.17184E-02 7.56756E-04-8.87031E-14
 -1      3483 1.15222E-02 7.62586E-04-8.58160E-14
 -1      3484 1.18612E-02 7.77575E-04-9.06458E-14
 -1      3485 1.20041E-02 7.98441E-04-9.25980E-14
 -1      3486 1.18079E-02 8.04174E-04-8.96820E-14
 -1      3487 1.21470E-02 8.19348E-04-9.45604E-14
 -1      3488 1.22899E-02 8.40290E-04-9.65291E-14
 -1      3489 1.20937E-02 8.45946E-04-9.35856E-14
 -1      3490 1.24328E-02 8.61263E-04-9.85077E-14
 -1      3491 1.25756E-02 8.82261E-04-1.00496E-13
 -1      3492 1.23795E-02 8.87857E-04-9.75265E-14
 -1      3493 1.27185E-02 9.03282E-04-1.02489E-13
 -1      3494 1.28614E-02 9.24321E-04-1.04491E-13
 -1      3495 1.26652E-02 9.29872E-04-1.01500E-13
 -1      3496 1.30043E-02 9.45375E-04-1.06496E-13
 -1      3497 1.31472E-02 9.66442E-04-1.08503E-13
 -1      3498 1.29510E-02 9.71962E-04-1.05497E-13
 -1      3499 1.32657E-02 9.89227E-04-1.10135E-13
 -1      3500 1.34086E-02 1.01031E-03-1.12149E-13
 -1      3501 1.34495E-02 1.06140E-03-1.12393E-13
 -1      3502 1.32124E-02 1.01581E-03-1.09132E-13
 -1      3503 5.49585E-03-1.53231E-04-1.89495E-14
 -1      3504 5.48147E-03-2.15389E-04-1.94105E-14
 -1      3505 5.65874E-03-1.54435E-04-2.05776E-14
 -1      3506 5.67932E-03-5.16351E-05-1.96457E-14
 -1      3507 5.97257E-03 9.98201E-05-2.05264E-14
 -1      3508 5.83749E-03 3.94306E-05-2.00366E-14
 -1      3509 5.80578E-03-1.65231E-05-2.05143E-14
 -1      3510 6.10939E-03 1.41812E-04-2.13108E-14
 -1      3511 7.18739E-03 6.09617E-04-2.94947E-14
 -1      3512 7.05128E-03 5.92254E-04-2.81377E-14
 -1      3513 6.91504E-03 5.77064E-04-2.68047E-14
 -1      3514 6.77749E-03 5.64838E-04-2.54970E-14
 -1      3515 7.00555E-03 5.51210E-04-2.75490E-14
 -1      3516 7.73333E-03 6.94669E-04-3.51673E-14
 -1      3517 7.59616E-03 6.71642E-04-3.37124E-14
 -1      3518 8.00921E-03 7.42794E-04-3.81458E-14
 -1      3519 7.87096E-03 7.18419E-04-3.66447E-14
 -1      3520 7.80158E-03 6.75469E-04-3.59832E-14
 -1      3521 8.28720E-03 7.92596E-04-4.12116E-14
 -1      3522 8.14793E-03 7.67539E-04-3.96683E-14
 -1      3523 8.07361E-03 7.23485E-04-3.89812E-14
 -1      3524 8.56704E-03 8.43029E-04-4.43673E-14
 -1      3525 8.42689E-03 8.17770E-04-4.27789E-14
 -1      3526 8.34867E-03 7.72746E-04-4.20691E-14
 -1      3527 8.84840E-03 8.93375E-04-4.76062E-14
 -1      3528 8.70753E-03 8.68236E-04-4.59760E-14
 -1      3529 8.62627E-03 8.22425E-04-4.52440E-14
 -1      3530 9.13097E-03 9.43178E-04-5.09203E-14
 -1      3531 8.98954E-03 9.18357E-04-4.92536E-14
 -1      3532 8.90593E-03 8.71940E-04-4.85007E-14
 -1      3533 9.41444E-03 9.92182E-04-5.43125E-14
 -1      3534 9.27259E-03 9.67784E-04-5.26068E-14
 -1      3535 9.18719E-03 9.20919E-04-5.18335E-14
 -1      3536 9.69861E-03 1.04028E-03-5.77754E-14
 -1      3537 9.55644E-03 1.01634E-03-5.60351E-14
 -1      3538 9.46969E-03 9.69158E-04-5.52416E-14
 -1      3539 9.98327E-03 1.08745E-03-6.13124E-14
 -1      3540 9.84088E-03 1.06398E-03-5.95367E-14
 -1      3541 9.75314E-03 1.01657E-03-5.87215E-14
 -1      3542 1.02683E-02 1.13376E-03-6.49139E-14
 -1      3543 1.01257E-02 1.11071E-03-6.31054E-14
 -1      3544 1.00373E-02 1.06316E-03-6.22722E-14
 -1      3545 1.05536E-02 1.17927E-03-6.85794E-14
 -1      3546 1.04109E-02 1.15661E-03-6.67386E-14
 -1      3547 1.03219E-02 1.10896E-03-6.58870E-14
 -1      3548 1.08390E-02 1.22411E-03-7.22986E-14
 -1      3549 1.06963E-02 1.20177E-03-7.04320E-14
 -1      3550 1.06070E-02 1.15407E-03-6.95622E-14
 -1      3551 1.11246E-02 1.26836E-03-7.60752E-14
 -1      3552 1.09818E-02 1.24630E-03-7.41807E-14
 -1      3553 1.08922E-02 1.19857E-03-7.32945E-14
 -1      3554 1.14103E-02 1.31213E-03-7.98971E-14
 -1      3555 1.12674E-02 1.29030E-03-7.79824E-14
 -1      3556 1.11777E-02 1.24256E-03-7.70811E-14
 -1      3557 1.16960E-02 1.35552E-03-8.37535E-14
 -1      3558 1.15531E-02 1.33387E-03-8.18205E-14
 -1      3559 1.14633E-02 1.28612E-03-8.09065E-14
 -1      3560 1.19817E-02 1.39859E-03-8.76470E-14
 -1      3561 1.18389E-02 1.37709E-03-8.56957E-14
 -1      3562 1.17490E-02 1.32935E-03-8.47678E-14
 -1      3563 1.22675E-02 1.44142E-03-9.15687E-14
 -1      3564 1.21246E-02 1.42003E-03-8.96025E-14
 -1      3565 1.20347E-02 1.37230E-03-8.86648E-14
 -1      3566 1.25533E-02 1.48407E-03-9.55220E-14
 -1      3567 1.24104E-02 1.46277E-03-9.35429E-14
 -1      3568 1.23205E-02 1.41504E-03-9.25892E-14
 -1      3569 1.28390E-02 1.52658E-03-9.95075E-14
 -1      3570 1.26961E-02 1.50534E-03-9.75107E-14
 -1      3571 1.26063E-02 1.45763E-03-9.65469E-14
 -1      3572 1.31248E-02 1.56899E-03-1.03517E-13
 -1      3573 1.29819E-02 1.54780E-03-1.01510E-13
 -1      3574 1.28920E-02 1.50009E-03-1.00533E-13
 -1      3575 1.34105E-02 1.61133E-03-1.07550E-13
 -1      3576 1.32677E-02 1.59017E-03-1.05531E-13
 -1      3577 1.31778E-02 1.54247E-03-1.04547E-13
 -1      3578 1.36963E-02 1.65363E-03-1.11590E-13
 -1      3579 1.35534E-02 1.63249E-03-1.09569E-13
 -1      3580 1.34636E-02 1.58479E-03-1.08578E-13
 -1      3581 8.99497E-04 5.12372E-06-1.18501E-15
 -1      3582 9.14298E-04-1.14026E-05-1.18430E-15
 -1      3583 1.02970E-03-2.19355E-05-1.43136E-15
 -1      3584 1.38229E-02 1.29715E-03-1.16305E-13
 -1      3585 1.38437E-02 1.33932E-03-1.16296E-13
 -1      3586 6.61448E-03 4.10638E-04-2.26733E-14
 -1      3587 6.67453E-03 3.85949E-04-2.30260E-14
 -1      3588 6.28775E-03 4.95458E-04-2.06739E-14
 -1      3589 6.45499E-03 4.51960E-04-2.16483E-14
 -1      3590 6.39025E-03 5.48051E-04-2.20317E-14
 -1      3591 6.24973E-03 5.56863E-04-2.09193E-14
 -1      3592 2.09620E-03 2.49854E-04-4.86055E-15
 -1      3593 2.21128E-03 3.04924E-04-4.82090E-15
 -1      3594 1.98416E-03 2.20243E-04-4.58232E-15
 -1      3595 1.56977E-03-1.88421E-04-2.40041E-15
 -1      3596 1.72125E-03-2.05626E-04-2.80760E-15
 -1      3597 6.68557E-03 3.59933E-04-2.30947E-14
 -1      3598 6.66048E-03 3.44131E-04-2.29657E-14
 -1      3599 1.72095E-03 9.47619E-05-4.28846E-15
 -1      3600 1.66483E-03 1.08148E-04-4.14967E-15
 -1      3601 7.45958E-03 6.49649E-04-3.22824E-14
 -1      3602 7.32328E-03 6.28864E-04-3.08770E-14
 -1      3603 7.26785E-03 5.87814E-04-3.02643E-14
 -1      3604 7.53297E-03 6.29791E-04-3.30766E-14
 -1      3605 6.65713E-03 5.55455E-04-2.43746E-14
 -1      3606 6.51546E-03 5.50344E-04-2.31133E-14
 -1      3607 6.53215E-03 5.03309E-04-2.28843E-14
 -1      3608 6.76119E-03 5.22782E-04-2.50947E-14
 -1      3609 1.87654E-03-2.24612E-04-3.24639E-15
 -1      3610 2.03620E-03-2.47199E-04-3.71690E-15
 -1      3611 2.07077E-03-2.05897E-04-3.97905E-15
 -1      3612 1.18063E-03-1.39035E-04-1.49133E-15
 -1      3613 3.22015E-03-5.59477E-04-7.63885E-15
 -1      3614 2.35399E-03 3.88756E-04-4.74937E-15
 -1      3615 1.29747E-03 2.06664E-04-1.60927E-15
 -1      3616 1.23282E-03 1.80674E-04-1.55481E-15
 -1      3617 1.41455E-03 2.20204E-04-1.89974E-15
 -1      3618 3.03080E-03-4.90356E-04-6.95026E-15
 -1      3619 2.44324E-03-2.31097E-04-5.30321E-15
 -1      3620 1.74937E-03 5.26905E-05-4.06357E-15
 -1      3621 1.73343E-03 7.55079E-05-4.17606E-15
 -1      3622 1.64086E-03 7.37956E-05-3.79026E-15
 -1      3623 2.91041E-03-4.11918E-04-6.64547E-15
 -1      3624 1.22947E-03-1.10957E-04-1.68793E-15
 -1      3625 1.30960E-03-1.53332E-04-1.77886E-15
 -1      3626 1.44093E-03-1.68085E-04-2.09208E-15
 -1      3627 1.16877E-03-4.91436E-05-1.70765E-15
 -1      3628 1.19834E-03-7.84222E-05-1.69938E-15
 -1      3629 1.32052E-03-8.58590E-05-2.00493E-15
 -1      3630 5.80941E-03-6.66039E-05-2.11742E-14
 -1      3631 1.07502E-03 5.74341E-05-1.68795E-15
 -1      3632 1.07729E-03 4.31902E-05-1.69661E-15
 -1      3633 1.40706E-02 1.71965E-03-1.16810E-13
 -1      3634 6.66385E-03 3.35340E-04-2.33531E-14
 -1      3635 1.39105E-02 1.66984E-03-1.14748E-13
 -1      3636 1.38034E-02 1.66174E-03-1.13170E-13
 -1      3637 1.37136E-02 1.61404E-03-1.12174E-13
 -1      3638 9.94139E-04 1.54002E-05-1.43258E-15
 -1      3639 1.64453E-03 1.14177E-04-4.06524E-15
 -1      3640 1.63307E-03 1.18632E-04-3.98076E-15
 -1      3641 1.61029E-03 9.81253E-05-3.81729E-15
 -1      3642 2.04564E-03-2.83626E-06-4.85659E-15
 -1      3643 1.92848E-03 1.42711E-05-4.50240E-15
 -1      3644 1.38023E-02 1.25516E-03-1.16310E-13
 -1      3645 1.36889E-02 1.25797E-03-1.14559E-13
 -1      3646 1.37816E-02 1.21317E-03-1.16311E-13
 -1      3647 1.75749E-03-1.69568E-04-3.03959E-15
 -1      3648 1.38643E-02 1.38122E-03-1.16293E-13
 -1      3649 1.38849E-02 1.42312E-03-1.16288E-13
 -1      3650 1.37302E-02 1.34185E-03-1.14548E-13
 -1      3651 1.76623E-03 1.52808E-04-4.42296E-15
 -1      3652 1.79076E-03 1.64283E-04-4.28760E-15
 -1      3653 1.69044E-03 1.39701E-04-4.09925E-15
 -1      3654 1.88190E-03 2.78336E-04-3.30172E-15
 -1      3655 1.74025E-03 2.55297E-04-2.86980E-15
 -1      3656 1.39471E-02 1.54909E-03-1.16264E-13
 -1      3657 1.39679E-02 1.59125E-03-1.16253E-13
 -1      3658 6.56174E-03 4.73034E-04-2.28644E-14
 -1      3659 6.58958E-03 4.33779E-04-2.26997E-14
 -1      3660 6.71101E-03 4.35151E-04-2.39107E-14
 -1      3661 6.67036E-03 4.83843E-04-2.39598E-14
 -1      3662 1.37315E-02 1.14728E-03-1.16044E-13
 -1      3663 1.02514E-03 1.00556E-04-1.37000E-15
 -1      3664 6.74782E-03 3.84764E-04-2.39573E-14
 -1      3665 2.22225E-03 3.40425E-04-4.47540E-15
 -1      3666 1.48017E-03-1.37860E-04-2.29397E-15
 -1      3667 6.54721E-03 2.90126E-04-2.31289E-14
 -1      3668 6.42905E-03 2.66975E-04-2.21994E-14
 -1      3669 6.39735E-03 2.39217E-04-2.26317E-14
 -1      3670 1.08052E-03 7.10996E-05-1.67638E-15
 -1      3671 1.17147E-03 7.17070E-05-1.97363E-15
 -1      3672 1.09394E-03 8.56234E-05-1.66144E-15
 -1      3673 2.11800E-03-3.76562E-05-4.92871E-15
 -1      3674 1.38272E-02 1.58701E-03-1.14129E-13
 -1      3675 1.39614E-02 1.62639E-03-1.15875E-13
 -1      3676 1.19295E-03 1.53123E-04-1.58718E-15
 -1      3677 2.06989E-03 3.02280E-04-4.00146E-15
 -1      3678 1.91879E-03 2.44920E-04-3.80288E-15
 -1      3679 1.36181E-02 1.15009E-03-1.14296E-13
 -1      3680 5.94607E-03 1.57151E-05-2.15847E-14
 -1      3681 1.17797E-03 4.13685E-05-1.99343E-15
 -1      3682 1.08704E-03 2.77229E-05-1.70232E-15
 -1      3683 1.10302E-03 9.84695E-06-1.70508E-15
 -1      3684 6.40464E-03 1.00724E-04-2.53840E-14
 -1      3685 6.55080E-03 1.25237E-04-2.66779E-14
 -1      3686 6.69386E-03 1.47201E-04-2.79971E-14
 -1      3687 6.83489E-03 1.67804E-04-2.93400E-14
 -1      3688 6.67531E-03 1.77147E-04-2.73321E-14
 -1      3689 6.97424E-03 1.87085E-04-3.07073E-14
 -1      3690 7.11270E-03 2.05692E-04-3.20967E-14
 -1      3691 6.94928E-03 2.14024E-04-3.00188E-14
 -1      3692 7.25043E-03 2.23670E-04-3.35103E-14
 -1      3693 7.38790E-03 2.41295E-04-3.49470E-14
 -1      3694 7.21991E-03 2.48748E-04-3.27988E-14
 -1      3695 7.52518E-03 2.58646E-04-3.64070E-14
 -1      3696 7.66258E-03 2.75850E-04-3.78878E-14
 -1      3697 7.49001E-03 2.82769E-04-3.56712E-14
 -1      3698 7.80009E-03 2.92991E-04-3.93930E-14
 -1      3699 7.93791E-03 3.10123E-04-4.09195E-14
 -1      3700 7.76107E-03 3.16769E-04-3.86357E-14
 -1      3701 8.07600E-03 3.27324E-04-4.24665E-14
 -1      3702 8.21447E-03 3.44609E-04-4.40366E-14
 -1      3703 8.03381E-03 3.51132E-04-4.16880E-14
 -1      3704 8.35327E-03 3.62044E-04-4.56269E-14
 -1      3705 8.49247E-03 3.79623E-04-4.72371E-14
 -1      3706 8.30851E-03 3.86097E-04-4.48250E-14
 -1      3707 8.63201E-03 3.97395E-04-4.88656E-14
 -1      3708 8.77193E-03 4.15345E-04-5.05129E-14
 -1      3709 8.58518E-03 4.21795E-04-4.80444E-14
 -1      3710 8.91215E-03 4.33509E-04-5.21800E-14
 -1      3711 9.05271E-03 4.51865E-04-5.38655E-14
 -1      3712 8.86368E-03 4.58283E-04-5.13409E-14
 -1      3713 9.19354E-03 4.70436E-04-5.55685E-14
 -1      3714 9.33464E-03 4.89200E-04-5.72910E-14
 -1      3715 9.14377E-03 4.95570E-04-5.47120E-14
 -1      3716 9.47598E-03 5.08169E-04-5.90303E-14
 -1      3717 9.61754E-03 5.27322E-04-6.07863E-14
 -1      3718 9.42522E-03 5.33625E-04-5.81568E-14
 -1      3719 9.75929E-03 5.46662E-04-6.25587E-14
 -1      3720 9.90121E-03 5.66170E-04-6.43483E-14
 -1      3721 9.70778E-03 5.72392E-04-6.16693E-14
 -1      3722 1.00433E-02 5.85843E-04-6.61546E-14
 -1      3723 1.01855E-02 6.05664E-04-6.79736E-14
 -1      3724 9.99121E-03 6.11797E-04-6.52470E-14
 -1      3725 1.03278E-02 6.25628E-04-6.98060E-14
 -1      3726 1.04702E-02 6.45719E-04-7.16500E-14
 -1      3727 1.02753E-02 6.51759E-04-6.88851E-14
 -1      3728 1.06127E-02 6.65930E-04-7.35082E-14
 -1      3729 1.07553E-02 6.86249E-04-7.53766E-14
 -1      3730 1.05600E-02 6.92198E-04-7.25774E-14
 -1      3731 1.08980E-02 7.06666E-04-7.72536E-14
 -1      3732 1.10407E-02 7.27172E-04-7.91418E-14
 -1      3733 1.08450E-02 7.33036E-04-7.63135E-14
 -1      3734 1.11834E-02 7.47759E-04-8.10389E-14
 -1      3735 1.13262E-02 7.68416E-04-8.29450E-14
 -1      3736 1.11303E-02 7.74203E-04-8.00903E-14
 -1      3737 1.14690E-02 7.89138E-04-8.48603E-14
 -1      3738 1.16118E-02 8.09916E-04-8.67843E-14
 -1      3739 1.14158E-02 8.15635E-04-8.39030E-14
 -1      3740 1.17547E-02 8.30743E-04-8.87172E-14
 -1      3741 1.18975E-02 8.51615E-04-9.06599E-14
 -1      3742 1.17014E-02 8.57276E-04-8.77524E-14
 -1      3743 1.20404E-02 8.72525E-04-9.26117E-14
 -1      3744 1.21833E-02 8.93469E-04-9.45745E-14
 -1      3745 1.19872E-02 8.99081E-04-9.16382E-14
 -1      3746 1.23262E-02 9.14441E-04-9.65447E-14
 -1      3747 1.24691E-02 9.35439E-04-9.85221E-14
 -1      3748 1.22729E-02 9.41011E-04-9.55621E-14
 -1      3749 1.26120E-02 9.56458E-04-1.00510E-13
 -1      3750 1.27549E-02 9.77495E-04-1.02502E-13
 -1      3751 1.25587E-02 9.83035E-04-9.95182E-14
 -1      3752 1.28978E-02 9.98546E-04-1.04501E-13
 -1      3753 1.30407E-02 1.01961E-03-1.06504E-13
 -1      3754 1.28445E-02 1.02513E-03-1.03503E-13
 -1      3755 8.40821E-03 7.53312E-04-4.29262E-14
 -1      3756 8.27135E-03 7.28985E-04-4.13614E-14
 -1      3757 7.08812E-03 5.29923E-04-2.82955E-14
 -1      3758 6.96282E-03 5.12302E-04-2.69623E-14
 -1      3759 1.93981E-03-1.44446E-04-3.74372E-15
 -1      3760 2.09730E-03-1.62014E-04-4.24340E-15
 -1      3761 8.13539E-03 7.04852E-04-3.98179E-14
 -1      3762 8.00031E-03 6.80906E-04-3.82976E-14
 -1      3763 8.19470E-03 6.86514E-04-4.06548E-14
 -1      3764 7.86632E-03 6.57359E-04-3.67988E-14
 -1      3765 7.73337E-03 6.34199E-04-3.53226E-14
 -1      3766 7.92774E-03 6.39824E-04-3.76143E-14
 -1      3767 8.68410E-03 8.02069E-04-4.61203E-14
 -1      3768 8.54580E-03 7.77671E-04-4.45128E-14
 -1      3769 8.46593E-03 7.34007E-04-4.37831E-14
 -1      3770 8.96244E-03 8.50643E-04-4.93949E-14
 -1      3771 8.82298E-03 8.26389E-04-4.77484E-14
 -1      3772 8.74059E-03 7.81743E-04-4.69955E-14
 -1      3773 9.24270E-03 8.98729E-04-5.27456E-14
 -1      3774 9.10235E-03 8.74752E-04-5.10599E-14
 -1      3775 9.01798E-03 8.29321E-04-5.02880E-14
 -1      3776 9.52445E-03 9.46157E-04-5.61693E-14
 -1      3777 9.38341E-03 9.22526E-04-5.44486E-14
 -1      3778 9.29752E-03 8.76484E-04-5.36557E-14
 -1      3779 9.80734E-03 9.92860E-04-5.96650E-14
 -1      3780 9.66577E-03 9.69597E-04-5.79082E-14
 -1      3781 9.57873E-03 9.23088E-04-5.70970E-14
 -1      3782 1.00911E-02 1.03884E-03-6.32284E-14
 -1      3783 9.94911E-03 1.01593E-03-6.14389E-14
 -1      3784 9.86121E-03 9.69076E-04-6.06071E-14
 -1      3785 1.03754E-02 1.08414E-03-6.68570E-14
 -1      3786 1.02332E-02 1.06157E-03-6.50340E-14
 -1      3787 1.01447E-02 1.01445E-03-6.41840E-14
 -1      3788 1.06603E-02 1.12883E-03-7.05433E-14
 -1      3789 1.05178E-02 1.10655E-03-6.86926E-14
 -1      3790 1.04288E-02 1.05925E-03-6.78241E-14
 -1      3791 1.09454E-02 1.17300E-03-7.42861E-14
 -1      3792 1.08028E-02 1.15097E-03-7.24080E-14
 -1      3793 1.07135E-02 1.10353E-03-7.15223E-14
 -1      3794 1.12308E-02 1.21672E-03-7.80803E-14
 -1      3795 1.10881E-02 1.19491E-03-7.61765E-14
 -1      3796 1.09986E-02 1.14737E-03-7.52762E-14
 -1      3797 1.15164E-02 1.26008E-03-8.19129E-14
 -1      3798 1.13736E-02 1.23844E-03-7.99936E-14
 -1      3799 1.12839E-02 1.19084E-03-7.90767E-14
 -1      3800 1.18020E-02 1.30315E-03-8.57796E-14
 -1      3801 1.16592E-02 1.28165E-03-8.38406E-14
 -1      3802 1.15694E-02 1.23401E-03-8.29172E-14
 -1      3803 1.20878E-02 1.34599E-03-8.96781E-14
 -1      3804 1.19449E-02 1.32459E-03-8.77254E-14
 -1      3805 1.18551E-02 1.27692E-03-8.67876E-14
 -1      3806 1.23735E-02 1.38864E-03-9.36085E-14
 -1      3807 1.22306E-02 1.36734E-03-9.16387E-14
 -1      3808 1.21408E-02 1.31965E-03-9.06896E-14
 -1      3809 1.26593E-02 1.43117E-03-9.75677E-14
 -1      3810 1.25164E-02 1.40992E-03-9.55851E-14
 -1      3811 1.24266E-02 1.36223E-03-9.46233E-14
 -1      3812 1.29451E-02 1.47359E-03-1.01558E-13
 -1      3813 1.28022E-02 1.45239E-03-9.95599E-14
 -1      3814 1.27124E-02 1.40469E-03-9.85884E-14
 -1      3815 1.32309E-02 1.51594E-03-1.05572E-13
 -1      3816 1.30880E-02 1.49477E-03-1.03562E-13
 -1      3817 1.29982E-02 1.44707E-03-1.02580E-13
 -1      3818 1.35167E-02 1.55824E-03-1.09604E-13
 -1      3819 1.33738E-02 1.53709E-03-1.07587E-13
 -1      3820 1.32839E-02 1.48940E-03-1.06596E-13
 -1      3821 1.12092E-03-5.68863E-06-1.70992E-15
 -1      3822 1.14552E-03-2.89442E-05-1.70714E-15
 -1      3823 1.25932E-03-3.05960E-05-2.01288E-15
 -1      3824 1.21244E-03 7.67946E-06-2.00530E-15
 -1      3825 1.39264E-02 1.50719E-03-1.16274E-13
 -1      3826 1.38131E-02 1.50998E-03-1.14520E-13
 -1      3827 1.39057E-02 1.46529E-03-1.16281E-13
 -1      3828 1.31998E-03 1.64436E-04-1.93617E-15
 -1      3829 1.17583E-03 1.30005E-04-1.67139E-15
 -1      3830 1.37255E-02 1.57668E-03-1.12653E-13
 -1      3831 1.36184E-02 1.56858E-03-1.11078E-13
 -1      3832 1.35286E-02 1.52088E-03-1.10084E-13
 -1      3833 1.37320E-02 1.54155E-03-1.13031E-13
 -1      3834 6.82530E-03 4.11761E-04-2.50037E-14
 -1      3835 6.82837E-03 3.83774E-04-2.50727E-14
 -1      3836 1.64108E-03-1.21051E-04-2.83699E-15
 -1      3837 1.78820E-03-1.31732E-04-3.27519E-15
 -1      3838 1.81271E-03-9.16746E-05-3.51403E-15
 -1      3839 1.63616E-03 2.44318E-04-2.53164E-15
 -1      3840 1.51980E-03 2.30599E-04-2.19436E-15
 -1      3841 1.44817E-03 2.02167E-04-2.12955E-15
 -1      3842 1.64836E-03 2.19937E-04-2.77152E-15
 -1      3843 1.86931E-03-6.47781E-06-4.13690E-15
 -1      3844 1.80646E-03 2.59436E-05-4.10114E-15
 -1      3845 1.69385E-03 3.21320E-05-3.71780E-15
 -1      3846 2.23288E-03-9.86875E-05-5.05233E-15
 -1      3847 2.10659E-03-7.80867E-05-4.65768E-15
 -1      3848 1.39808E-02 1.67196E-03-1.15812E-13
 -1      3849 1.14504E-03 1.09545E-04-1.69542E-15
 -1      3850 2.51414E-03-1.95327E-04-5.76531E-15
 -1      3851 2.44582E-03-1.44398E-04-5.71839E-15
 -1      3852 1.41678E-03-9.55282E-05-2.24622E-15
 -1      3853 1.53959E-03-1.08939E-04-2.56540E-15
 -1      3854 1.56990E-03-7.54600E-05-2.77934E-15
 -1      3855 1.37861E-03-5.98177E-05-2.25540E-15
 -1      3856 6.75852E-03 3.45679E-04-2.46403E-14
 -1      3857 6.66383E-03 3.18801E-04-2.39610E-14
 -1      3858 2.31218E-03-1.04727E-04-5.35620E-15
 -1      3859 2.29430E-03-1.45078E-04-5.07182E-15
 -1      3860 1.26659E-03 5.66582E-05-2.30528E-15
 -1      3861 1.28140E-03 3.87108E-05-2.31302E-15
 -1      3862 1.37716E-02 1.42592E-03-1.14537E-13
 -1      3863 6.87120E-03 5.03765E-04-2.60118E-14
 -1      3864 6.76309E-03 4.89736E-04-2.48824E-14
 -1      3865 6.77975E-03 4.65287E-04-2.48580E-14
 -1      3866 6.95410E-03 4.83152E-04-2.67384E-14
 -1      3867 6.10015E-03 4.19834E-05-2.28686E-14
 -1      3868 6.25504E-03 7.38111E-05-2.41143E-14
 -1      3869 6.25448E-03 1.76282E-04-2.23601E-14
 -1      3870 6.11271E-03 1.11164E-04-2.19554E-14
 -1      3871 6.39306E-03 1.34959E-04-2.47429E-14
 -1      3872 1.31060E-02 1.06898E-03-1.07128E-13
 -1      3873 1.31592E-02 1.04239E-03-1.08129E-13
 -1      3874 1.32777E-02 1.06518E-03-1.09757E-13
 -1      3875 1.86172E-03 1.90257E-04-4.25264E-15
 -1      3876 1.95013E-03 2.27179E-04-4.21683E-15
 -1      3877 1.33887E-02 1.09623E-03-1.11211E-13
 -1      3878 1.35072E-02 1.11903E-03-1.12842E-13
 -1      3879 1.35573E-02 1.18492E-03-1.13111E-13
 -1      3880 1.33354E-02 1.12281E-03-1.10206E-13
 -1      3881 1.37113E-02 1.49965E-03-1.13045E-13
 -1      3882 1.36096E-02 1.48932E-03-1.11570E-13
 -1      3883 1.36906E-02 1.45776E-03-1.13055E-13
 -1      3884 7.66597E-03 5.94626E-04-3.46638E-14
 -1      3885 7.60171E-03 6.11689E-04-3.38696E-14
 -1      3886 7.47122E-03 5.89804E-04-3.24403E-14
 -1      3887 6.95722E-03 3.96561E-04-2.67844E-14
 -1      3888 6.85987E-03 3.70370E-04-2.57047E-14
 -1      3889 6.88015E-03 3.55405E-04-2.63367E-14
 -1      3890 1.35779E-02 1.22691E-03-1.13108E-13
 -1      3891 1.35986E-02 1.26889E-03-1.13101E-13
 -1      3892 1.34670E-02 1.19585E-03-1.11656E-13
 -1      3893 1.41656E-03 1.71909E-04-2.23224E-15
 -1      3894 1.36192E-02 1.31079E-03-1.13096E-13
 -1      3895 1.36398E-02 1.35268E-03-1.13091E-13
 -1      3896 1.35082E-02 1.27972E-03-1.11645E-13
 -1      3897 1.62403E-03 1.24826E-04-3.85519E-15
 -1      3898 1.62431E-03 1.31760E-04-3.73058E-15
 -1      3899 1.56926E-03 1.10692E-04-3.61634E-15
 -1      3900 6.79356E-03 4.43524E-04-2.48315E-14
 -1      3901 6.65370E-03 3.00735E-04-2.44099E-14
 -1      3902 6.39821E-03 2.13400E-04-2.32962E-14
 -1      3903 6.89997E-03 4.39543E-04-2.59712E-14
 -1      3904 1.23097E-03 1.10032E-04-1.99740E-15
 -1      3905 1.79134E-03 2.13180E-04-3.50392E-15
 -1      3906 7.34220E-03 5.68853E-04-3.10342E-14
 -1      3907 7.21437E-03 5.48795E-04-2.96521E-14
 -1      3908 7.41047E-03 5.51710E-04-3.18049E-14
 -1      3909 1.54985E-03 6.34071E-05-3.36404E-15
 -1      3910 1.55320E-03 7.96618E-05-3.46657E-15
 -1      3911 1.75825E-03 1.69726E-04-3.93698E-15
 -1      3912 1.26799E-03 8.69215E-05-2.27930E-15
 -1      3913 1.26165E-03 7.18318E-05-2.29397E-15
 -1      3914 1.35290E-03 7.21739E-05-2.63725E-15
 -1      3915 1.69393E-03 1.75316E-04-3.45127E-15
 -1      3916 1.65135E-03 1.89085E-04-3.07810E-15
 -1      3917 1.98511E-03-6.30931E-05-4.26669E-15
 -1      3918 1.85064E-03-4.28651E-05-3.87526E-15
 -1      3919 1.56010E-03 1.82413E-04-2.72961E-15
 -1      3920 7.16238E-03 5.11788E-04-2.90418E-14
 -1      3921 1.52738E-03 8.68869E-05-3.39088E-15
 -1      3922 2.08386E-03-1.17644E-04-4.37676E-15
 -1      3923 6.66164E-03 2.06538E-04-2.66684E-14
 -1      3924 6.79488E-03 2.23627E-04-2.79872E-14
 -1      3925 1.36548E-02 1.38414E-03-1.13079E-13
 -1      3926 1.36756E-02 1.42630E-03-1.13070E-13
 -1      3927 1.35739E-02 1.41598E-03-1.11598E-13
 -1      3928 1.35439E-02 1.35307E-03-1.11627E-13
 -1      3929 6.98070E-03 4.49761E-04-2.69187E-14
 -1      3930 2.31215E-03-1.93122E-04-4.93151E-15
 -1      3931 2.22762E-03-1.85382E-04-4.63589E-15
 -1      3932 6.92699E-03 2.40181E-04-2.93310E-14
 -1      3933 7.05913E-03 2.56599E-04-3.06971E-14
 -1      3934 6.90741E-03 2.65599E-04-2.86433E-14
 -1      3935 7.19105E-03 2.72950E-04-3.20876E-14
 -1      3936 7.32333E-03 2.89394E-04-3.35007E-14
 -1      3937 7.16373E-03 2.96262E-04-3.13771E-14
 -1      3938 7.45589E-03 3.05972E-04-3.49376E-14
 -1      3939 7.58906E-03 3.22703E-04-3.63967E-14
 -1      3940 7.42268E-03 3.28221E-04-3.42039E-14
 -1      3941 7.72275E-03 3.39635E-04-3.78783E-14
 -1      3942 7.85714E-03 3.56737E-04-3.93832E-14
 -1      3943 7.68499E-03 3.61558E-04-3.71221E-14
 -1      3944 7.99213E-03 3.74071E-04-4.09089E-14
 -1      3945 8.12782E-03 3.91591E-04-4.24562E-14
 -1      3946 7.95081E-03 3.96109E-04-4.01301E-14
 -1      3947 8.26414E-03 4.09350E-04-4.40244E-14
 -1      3948 8.40111E-03 4.27299E-04-4.56140E-14
 -1      3949 8.22002E-03 4.31775E-04-4.32250E-14
 -1      3950 8.53866E-03 4.45481E-04-4.72249E-14
 -1      3951 8.67681E-03 4.63850E-04-4.88529E-14
 -1      3952 8.49235E-03 4.68426E-04-4.64039E-14
 -1      3953 8.81546E-03 4.82439E-04-5.05006E-14
 -1      3954 8.95462E-03 5.01208E-04-5.21683E-14
 -1      3955 8.76742E-03 5.05949E-04-4.96617E-14
 -1      3956 9.09423E-03 5.20181E-04-5.38563E-14
 -1      3957 9.23426E-03 5.39322E-04-5.55616E-14
 -1      3958 9.04484E-03 5.44242E-04-5.29988E-14
 -1      3959 9.37465E-03 5.58648E-04-5.72834E-14
 -1      3960 9.51539E-03 5.78128E-04-5.90237E-14
 -1      3961 9.32421E-03 5.83211E-04-5.64103E-14
 -1      3962 9.65642E-03 5.97770E-04-6.07800E-14
 -1      3963 9.79773E-03 6.17550E-04-6.25518E-14
 -1      3964 9.60519E-03 6.22775E-04-5.98902E-14
 -1      3965 9.93928E-03 6.37471E-04-6.43424E-14
 -1      3966 1.00810E-02 6.57512E-04-6.61474E-14
 -1      3967 9.88744E-03 6.62847E-04-6.34366E-14
 -1      3968 1.02230E-02 6.77672E-04-6.79661E-14
 -1      3969 1.03651E-02 6.97936E-04-6.97981E-14
 -1      3970 1.01707E-02 7.03351E-04-6.70453E-14
 -1      3971 1.05073E-02 7.18299E-04-7.16456E-14
 -1      3972 1.06497E-02 7.38750E-04-7.35039E-14
 -1      3973 1.04547E-02 7.44219E-04-7.07126E-14
 -1      3974 1.07921E-02 7.59282E-04-7.53714E-14
 -1      3975 1.09347E-02 7.79886E-04-7.72512E-14
 -1      3976 1.07393E-02 7.85391E-04-7.44286E-14
 -1      3977 1.10773E-02 8.00557E-04-7.91401E-14
 -1      3978 1.12199E-02 8.21285E-04-8.10393E-14
 -1      3979 1.10243E-02 8.26809E-04-7.81889E-14
 -1      3980 1.13627E-02 8.42067E-04-8.29473E-14
 -1      3981 1.15054E-02 8.62894E-04-8.48630E-14
 -1      3982 1.13096E-02 8.68425E-04-8.19882E-14
 -1      3983 1.16482E-02 8.83763E-04-8.67883E-14
 -1      3984 1.17911E-02 9.04669E-04-8.87225E-14
 -1      3985 1.15951E-02 9.10199E-04-8.58225E-14
 -1      3986 1.19339E-02 9.25606E-04-9.06648E-14
 -1      3987 1.20768E-02 9.46572E-04-9.26185E-14
 -1      3988 1.18807E-02 9.52096E-04-8.96917E-14
 -1      3989 1.22197E-02 9.67561E-04-9.45790E-14
 -1      3990 1.23626E-02 9.88572E-04-9.65489E-14
 -1      3991 1.21665E-02 9.94088E-04-9.35958E-14
 -1      3992 1.25055E-02 1.00960E-03-9.85274E-14
 -1      3993 1.26484E-02 1.03064E-03-1.00512E-13
 -1      3994 1.24522E-02 1.03615E-03-9.75357E-14
 -1      3995 1.27913E-02 1.05170E-03-1.02507E-13
 -1      3996 1.29342E-02 1.07277E-03-1.04504E-13
 -1      3997 1.27380E-02 1.07827E-03-1.01508E-13
 -1      3998 8.79581E-03 7.61381E-04-4.78690E-14
 -1      3999 8.65845E-03 7.38036E-04-4.62434E-14
 -1      4000 8.52192E-03 7.14737E-04-4.46375E-14
 -1      4001 8.38628E-03 6.91457E-04-4.30526E-14
 -1      4002 8.57639E-03 6.95276E-04-4.54922E-14
 -1      4003 1.43548E-03 1.48734E-04-2.50394E-15
 -1      4004 7.98602E-03 6.22666E-04-3.84292E-14
 -1      4005 7.85521E-03 6.00244E-04-3.69311E-14
 -1      4006 9.07261E-03 8.07924E-04-5.11812E-14
 -1      4007 8.93388E-03 7.84669E-04-4.95164E-14
 -1      4008 8.84992E-03 7.40811E-04-4.87436E-14
 -1      4009 9.35170E-03 8.54145E-04-5.45662E-14
 -1      4010 9.21190E-03 8.31076E-04-5.28639E-14
 -1      4011 9.12643E-03 7.86324E-04-5.20724E-14
 -1      4012 9.63256E-03 8.99921E-04-5.80220E-14
 -1      4013 9.49193E-03 8.77088E-04-5.62848E-14
 -1      4014 9.40529E-03 8.31618E-04-5.54742E-14
 -1      4015 9.91479E-03 9.45197E-04-6.15476E-14
 -1      4016 9.77352E-03 9.22618E-04-5.97776E-14
 -1      4017 9.68598E-03 8.76584E-04-5.89467E-14
 -1      4018 1.01980E-02 9.89970E-04-6.51380E-14
 -1      4019 1.00563E-02 9.67642E-04-6.33341E-14
 -1      4020 9.96808E-03 9.21169E-04-6.24858E-14
 -1      4021 1.04821E-02 1.03428E-03-6.87904E-14
 -1      4022 1.03400E-02 1.01218E-03-6.69572E-14
 -1      4023 1.02513E-02 9.65367E-04-6.60900E-14
 -1      4024 1.07667E-02 1.07817E-03-7.25004E-14
 -1      4025 1.06243E-02 1.05627E-03-7.06386E-14
 -1      4026 1.05352E-02 1.00920E-03-6.97547E-14
 -1      4027 1.10517E-02 1.12169E-03-7.62628E-14
 -1      4028 1.09091E-02 1.09997E-03-7.43752E-14
 -1      4029 1.08198E-02 1.05271E-03-7.34759E-14
 -1      4030 1.13370E-02 1.16492E-03-8.00720E-14
 -1      4031 1.11943E-02 1.14334E-03-7.81615E-14
 -1      4032 1.11048E-02 1.09594E-03-7.72483E-14
 -1      4033 1.16225E-02 1.20789E-03-8.39170E-14
 -1      4034 1.14797E-02 1.18643E-03-8.19917E-14
 -1      4035 1.13901E-02 1.13893E-03-8.10633E-14
 -1      4036 1.19081E-02 1.25067E-03-8.77911E-14
 -1      4037 1.17653E-02 1.22930E-03-8.58504E-14
 -1      4038 1.16756E-02 1.18173E-03-8.49151E-14
 -1      4039 1.21939E-02 1.29329E-03-9.16990E-14
 -1      4040 1.20510E-02 1.27200E-03-8.97412E-14
 -1      4041 1.19612E-02 1.22438E-03-8.87929E-14
 -1      4042 1.24796E-02 1.33579E-03-9.56354E-14
 -1      4043 1.23367E-02 1.31455E-03-9.36625E-14
 -1      4044 1.22470E-02 1.26691E-03-9.27040E-14
 -1      4045 1.27654E-02 1.37820E-03-9.96051E-14
 -1      4046 1.26225E-02 1.35701E-03-9.76171E-14
 -1      4047 1.25327E-02 1.30934E-03-9.66462E-14
 -1      4048 1.30512E-02 1.42055E-03-1.03599E-13
 -1      4049 1.29083E-02 1.39938E-03-1.01599E-13
 -1      4050 1.28185E-02 1.35170E-03-1.00617E-13
 -1      4051 1.33370E-02 1.46285E-03-1.07620E-13
 -1      4052 1.31941E-02 1.44171E-03-1.05609E-13
 -1      4053 1.31043E-02 1.39402E-03-1.04620E-13
 -1      4054 1.36392E-03 1.17948E-04-2.46819E-15
 -1      4055 1.35242E-02 1.48126E-03-1.10329E-13
 -1      4056 1.34224E-02 1.47092E-03-1.08858E-13
 -1      4057 1.33327E-02 1.42323E-03-1.07865E-13
 -1      4058 1.35035E-02 1.43937E-03-1.10342E-13
 -1      4059 1.63489E-03 1.28549E-05-3.39199E-15
 -1      4060 1.59008E-03 3.57462E-05-3.35948E-15
 -1      4061 1.71381E-03-4.04885E-05-3.40179E-15
 -1      4062 6.74438E-03 3.06789E-04-2.55549E-14
 -1      4063 6.62044E-03 2.74380E-04-2.46975E-14
 -1      4064 8.25169E-03 6.68339E-04-4.14900E-14
 -1      4065 8.11820E-03 6.45344E-04-3.99494E-14
 -1      4066 8.30662E-03 6.50019E-04-4.23240E-14
 -1      4067 1.44011E-03 3.93929E-05-2.84680E-15
 -1      4068 1.35777E-03 2.18392E-05-2.49749E-15
 -1      4069 1.63994E-03 1.52549E-04-3.48435E-15
 -1      4070 7.10218E-03 4.72198E-04-2.83387E-14
 -1      4071 7.03167E-03 4.31359E-04-2.75440E-14
 -1      4072 6.50297E-03 2.22753E-04-2.44188E-14
 -1      4073 1.44013E-03 1.17934E-04-2.82726E-15
 -1      4074 1.59631E-03-2.85493E-05-3.05920E-15
 -1      4075 1.55489E-03 1.33979E-04-3.26137E-15
 -1      4076 1.29995E-02 1.12213E-03-1.05124E-13
 -1      4077 1.30527E-02 1.09555E-03-1.06125E-13
 -1      4078 1.31713E-02 1.11834E-03-1.07750E-13
 -1      4079 7.21985E-03 4.91031E-04-2.96941E-14
 -1      4080 7.34013E-03 5.10300E-04-3.10739E-14
 -1      4081 7.26822E-03 4.71493E-04-3.03438E-14
 -1      4082 7.46307E-03 5.30515E-04-3.24775E-14
 -1      4083 1.43856E-03 8.42768E-05-2.99471E-15
 -1      4084 1.50957E-03 1.00991E-04-3.32067E-15
 -1      4085 8.04153E-03 6.05460E-04-3.92438E-14
 -1      4086 1.38433E-03 2.25450E-06-2.50448E-15
 -1      4087 7.72601E-03 5.78317E-04-3.54567E-14
 -1      4088 7.59851E-03 5.56774E-04-3.40049E-14
 -1      4089 7.78229E-03 5.62141E-04-3.62494E-14
 -1      4090 7.07453E-03 4.16732E-04-2.82022E-14
 -1      4091 6.10346E-03 9.13859E-05-2.21861E-14
 -1      4092 1.33742E-02 1.24050E-03-1.09907E-13
 -1      4093 1.33948E-02 1.28239E-03-1.09900E-13
 -1      4094 1.49377E-03 1.07387E-04-3.20620E-15
 -1      4095 6.86894E-03 3.35181E-04-2.66402E-14
 -1      4096 6.85117E-03 3.12231E-04-2.69398E-14
 -1      4097 6.98600E-03 3.62837E-04-2.77412E-14
 -1      4098 1.49047E-03 4.62512E-05-3.05642E-15
 -1      4099 1.33028E-02 1.19137E-03-1.09197E-13
 -1      4100 1.31894E-02 1.19404E-03-1.07455E-13
 -1      4101 8.62949E-03 6.75551E-04-4.63470E-14
 -1      4102 8.49406E-03 6.53421E-04-4.47429E-14
 -1      4103 6.25334E-03 1.28778E-04-2.32501E-14
 -1      4104 6.49732E-03 2.07409E-04-2.46614E-14
 -1      4105 6.62862E-03 2.23675E-04-2.59434E-14
 -1      4106 1.40220E-03 7.89434E-05-2.83799E-15
 -1      4107 1.41530E-03 6.20440E-05-2.84990E-15
 -1      4108 7.13736E-03 3.18190E-04-3.06669E-14
 -1      4109 7.26301E-03 3.33394E-04-3.20571E-14
 -1      4110 7.38981E-03 3.49279E-04-3.34708E-14
 -1      4111 7.51801E-03 3.65579E-04-3.49067E-14
 -1      4112 7.35694E-03 3.69094E-04-3.27384E-14
 -1      4113 7.64733E-03 3.82406E-04-3.63667E-14
 -1      4114 7.77789E-03 3.99596E-04-3.78491E-14
 -1      4115 7.60949E-03 4.02136E-04-3.56113E-14
 -1      4116 7.90948E-03 4.17182E-04-3.93513E-14
 -1      4117 8.04219E-03 4.35086E-04-4.08773E-14
 -1      4118 7.86790E-03 4.37230E-04-3.85743E-14
 -1      4119 8.17586E-03 4.53334E-04-4.24263E-14
 -1      4120 8.31051E-03 4.71833E-04-4.39951E-14
 -1      4121 8.13146E-03 4.73990E-04-4.16271E-14
 -1      4122 8.44600E-03 4.90607E-04-4.55847E-14
 -1      4123 8.58232E-03 5.09587E-04-4.71941E-14
 -1      4124 8.39945E-03 5.11994E-04-4.47659E-14
 -1      4125 8.71936E-03 5.28793E-04-4.88234E-14
 -1      4126 8.85710E-03 5.48170E-04-5.04717E-14
 -1      4127 8.67116E-03 5.50948E-04-4.79843E-14
 -1      4128 8.99545E-03 5.67734E-04-5.21409E-14
 -1      4129 9.13437E-03 5.87440E-04-5.38304E-14
 -1      4130 8.94597E-03 5.90636E-04-5.12839E-14
 -1      4131 9.27380E-03 6.07300E-04-5.55361E-14
 -1      4132 9.41369E-03 6.27278E-04-5.72592E-14
 -1      4133 9.22333E-03 6.30894E-04-5.46603E-14
 -1      4134 9.55399E-03 6.47390E-04-5.89984E-14
 -1      4135 9.69466E-03 6.67595E-04-6.07555E-14
 -1      4136 9.50278E-03 6.71603E-04-5.81078E-14
 -1      4137 9.83565E-03 6.87906E-04-6.25300E-14
 -1      4138 9.97693E-03 7.08300E-04-6.43193E-14
 -1      4139 9.78387E-03 7.12634E-04-6.16227E-14
 -1      4140 1.01185E-02 7.28779E-04-6.61248E-14
 -1      4141 1.02602E-02 7.49326E-04-6.79437E-14
 -1      4142 1.00662E-02 7.53942E-04-6.52012E-14
 -1      4143 1.04021E-02 7.69945E-04-6.97769E-14
 -1      4144 1.05442E-02 7.90620E-04-7.16244E-14
 -1      4145 1.03496E-02 7.95464E-04-6.88412E-14
 -1      4146 1.06865E-02 8.11351E-04-7.34827E-14
 -1      4147 1.08289E-02 8.32128E-04-7.53530E-14
 -1      4148 1.06337E-02 8.37152E-04-7.25352E-14
 -1      4149 1.09713E-02 8.52950E-04-7.72348E-14
 -1      4150 1.11139E-02 8.73808E-04-7.91261E-14
 -1      4151 1.09184E-02 8.78970E-04-7.62776E-14
 -1      4152 1.12565E-02 8.94702E-04-8.10253E-14
 -1      4153 1.13992E-02 9.15625E-04-8.29360E-14
 -1      4154 1.12035E-02 9.20890E-04-8.00628E-14
 -1      4155 1.15419E-02 9.36576E-04-8.48553E-14
 -1      4156 1.16847E-02 9.57550E-04-8.67819E-14
 -1      4157 1.14888E-02 9.62889E-04-8.38846E-14
 -1      4158 1.18275E-02 9.78545E-04-8.87188E-14
 -1      4159 1.19704E-02 9.99558E-04-9.06621E-14
 -1      4160 1.17744E-02 1.00495E-03-8.77424E-14
 -1      4161 1.21132E-02 1.02059E-03-9.26151E-14
 -1      4162 1.22561E-02 1.04163E-03-9.45763E-14
 -1      4163 1.20601E-02 1.04705E-03-9.16324E-14
 -1      4164 1.23990E-02 1.06268E-03-9.65465E-14
 -1      4165 1.25419E-02 1.08375E-03-9.85243E-14
 -1      4166 1.23458E-02 1.08920E-03-9.55563E-14
 -1      4167 1.26848E-02 1.10482E-03-1.00507E-13
 -1      4168 1.28277E-02 1.12590E-03-1.02501E-13
 -1      4169 1.26316E-02 1.13136E-03-9.95102E-14
 -1      4170 9.17951E-03 7.64481E-04-5.29617E-14
 -1      4171 9.04093E-03 7.42228E-04-5.12801E-14
 -1      4172 8.09456E-03 5.88072E-04-4.00576E-14
 -1      4173 7.96407E-03 5.66747E-04-3.85383E-14
 -1      4174 1.30708E-02 1.17124E-03-1.05830E-13
 -1      4175 1.31422E-02 1.22036E-03-1.06537E-13
 -1      4176 1.29523E-02 1.14844E-03-1.04210E-13
 -1      4177 9.45835E-03 8.08873E-04-5.63821E-14
 -1      4178 9.31867E-03 7.86687E-04-5.46638E-14
 -1      4179 9.23198E-03 7.42315E-04-5.38517E-14
 -1      4180 8.90302E-03 7.19983E-04-4.96170E-14
 -1      4181 8.76583E-03 6.97731E-04-4.79717E-14
 -1      4182 8.68145E-03 6.55420E-04-4.72016E-14
 -1      4183 8.95527E-03 6.98788E-04-5.04870E-14
 -1      4184 9.73904E-03 8.53057E-04-5.98700E-14
 -1      4185 9.59849E-03 8.30991E-04-5.81156E-14
 -1      4186 9.51099E-03 7.85846E-04-5.72894E-14
 -1      4187 1.00211E-02 8.96978E-04-6.34239E-14
 -1      4188 9.87993E-03 8.75049E-04-6.16403E-14
 -1      4189 9.79180E-03 8.29286E-04-6.07925E-14
 -1      4190 1.03043E-02 9.40626E-04-6.70401E-14
 -1      4191 1.01626E-02 9.18833E-04-6.52234E-14
 -1      4192 1.00740E-02 8.72589E-04-6.43603E-14
 -1      4193 1.05883E-02 9.84014E-04-7.07182E-14
 -1      4194 1.04462E-02 9.62350E-04-6.88723E-14
 -1      4195 1.03572E-02 9.15723E-04-6.79900E-14
 -1      4196 1.08728E-02 1.02717E-03-7.44517E-14
 -1      4197 1.07305E-02 1.00562E-03-7.25795E-14
 -1      4198 1.06412E-02 9.58695E-04-7.16818E-14
 -1      4199 1.11578E-02 1.07012E-03-7.82308E-14
 -1      4200 1.10153E-02 1.04867E-03-7.63340E-14
 -1      4201 1.09259E-02 1.00152E-03-7.54240E-14
 -1      4202 1.14432E-02 1.11289E-03-8.20537E-14
 -1      4203 1.13005E-02 1.09152E-03-8.01361E-14
 -1      4204 1.12109E-02 1.04421E-03-7.92101E-14
 -1      4205 1.17287E-02 1.15553E-03-8.59063E-14
 -1      4206 1.15859E-02 1.13423E-03-8.39769E-14
 -1      4207 1.14962E-02 1.08679E-03-8.30384E-14
 -1      4208 1.20143E-02 1.19806E-03-8.97917E-14
 -1      4209 1.18715E-02 1.17681E-03-8.78461E-14
 -1      4210 1.17818E-02 1.12928E-03-8.68986E-14
 -1      4211 1.23000E-02 1.24049E-03-9.37081E-14
 -1      4212 1.21572E-02 1.21929E-03-9.17459E-14
 -1      4213 1.20674E-02 1.17170E-03-9.07878E-14
 -1      4214 1.25858E-02 1.28287E-03-9.76563E-14
 -1      4215 1.24429E-02 1.26169E-03-9.56768E-14
 -1      4216 1.23532E-02 1.21406E-03-9.47100E-14
 -1      4217 1.28716E-02 1.32519E-03-1.01631E-13
 -1      4218 1.27287E-02 1.30403E-03-9.96401E-14
 -1      4219 1.26390E-02 1.25638E-03-9.86623E-14
 -1      4220 1.31575E-02 1.36747E-03-1.05634E-13
 -1      4221 1.30145E-02 1.34633E-03-1.03629E-13
 -1      4222 1.29248E-02 1.29866E-03-1.02643E-13
 -1      4223 1.35398E-03-1.84270E-05-2.33109E-15
 -1      4224 1.38365E-03-4.20742E-05-2.33330E-15
 -1      4225 1.47602E-03-4.78004E-05-2.59284E-15
 -1      4226 1.32822E-02 1.14939E-03-1.09201E-13
 -1      4227 8.35969E-03 6.31456E-04-4.31597E-14
 -1      4228 8.22646E-03 6.09618E-04-4.15987E-14
 -1      4229 8.14552E-03 5.70226E-04-4.08721E-14
 -1      4230 8.41124E-03 6.12454E-04-4.39951E-14
 -1      4231 6.74680E-03 2.65981E-04-2.65769E-14
 -1      4232 1.57066E-03-5.43553E-05-2.86552E-15
 -1      4233 6.88519E-03 2.99567E-04-2.76845E-14
 -1      4234 1.32757E-02 1.27461E-03-1.08152E-13
 -1      4235 1.34098E-02 1.31384E-03-1.09888E-13
 -1      4236 1.34248E-02 1.34529E-03-1.09875E-13
 -1      4237 7.19379E-03 4.35947E-04-2.96231E-14
 -1      4238 7.10610E-03 3.99509E-04-2.88342E-14
 -1      4239 1.34566E-02 1.37660E-03-1.10115E-13
 -1      4240 1.34716E-02 1.40805E-03-1.10100E-13
 -1      4241 1.33862E-02 1.39999E-03-1.08860E-13
 -1      4242 1.33225E-02 1.33737E-03-1.08378E-13
 -1      4243 7.51978E-03 5.15282E-04-3.32469E-14
 -1      4244 7.00619E-03 3.13066E-04-2.90232E-14
 -1      4245 1.39086E-03 9.24117E-05-2.77306E-15
 -1      4246 1.28991E-02 1.17500E-03-1.03203E-13
 -1      4247 7.88543E-03 5.29173E-04-3.78345E-14
 -1      4248 7.83522E-03 5.45888E-04-3.70431E-14
 -1      4249 7.70816E-03 5.25359E-04-3.55694E-14
 -1      4250 1.31571E-02 1.25180E-03-1.06525E-13
 -1      4251 1.48216E-03 1.24039E-04-2.98179E-15
 -1      4252 7.10254E-03 3.47313E-04-2.96761E-14
 -1      4253 7.10668E-03 3.79956E-04-2.91520E-14
 -1      4254 1.33008E-02 1.39192E-03-1.07625E-13
 -1      4255 7.30983E-03 4.53578E-04-3.09993E-14
 -1      4256 1.32110E-02 1.34424E-03-1.06627E-13
 -1      4257 1.50512E-03-5.42308E-06-2.86052E-15
 -1      4258 9.56327E-03 7.62522E-04-5.81920E-14
 -1      4259 9.42337E-03 7.41143E-04-5.64574E-14
 -1      4260 7.57065E-03 4.20715E-04-3.48565E-14
 -1      4261 7.69729E-03 4.38200E-04-3.63172E-14
 -1      4262 7.88006E-03 4.84016E-04-3.82135E-14
 -1      4263 8.00991E-03 5.03131E-04-3.97233E-14
 -1      4264 8.14115E-03 5.22725E-04-4.12589E-14
 -1      4265 8.27368E-03 5.42535E-04-4.28143E-14
 -1      4266 8.40737E-03 5.62688E-04-4.43885E-14
 -1      4267 8.54211E-03 5.82992E-04-4.59840E-14
 -1      4268 8.67782E-03 6.03537E-04-4.76004E-14
 -1      4269 8.81439E-03 6.24178E-04-4.92364E-14
 -1      4270 8.95174E-03 6.44982E-04-5.08922E-14
 -1      4271 9.08980E-03 6.65845E-04-5.25678E-14
 -1      4272 9.41913E-03 6.84458E-04-5.68644E-14
 -1      4273 9.55913E-03 7.05162E-04-5.86014E-14
 -1      4274 9.73200E-03 7.37032E-04-6.07144E-14
 -1      4275 9.87284E-03 7.57914E-04-6.24888E-14
 -1      4276 1.00704E-02 8.13357E-04-6.47860E-14
 -1      4277 1.02119E-02 8.34505E-04-6.65968E-14
 -1      4278 1.03536E-02 8.55665E-04-6.84225E-14
 -1      4279 1.04955E-02 8.76819E-04-7.02603E-14
 -1      4280 1.06376E-02 8.97979E-04-7.21145E-14
 -1      4281 1.07798E-02 9.19132E-04-7.39809E-14
 -1      4282 1.09222E-02 9.40286E-04-7.58564E-14
 -1      4283 1.10647E-02 9.61434E-04-7.77441E-14
 -1      4284 1.12072E-02 9.82581E-04-7.96437E-14
 -1      4285 1.13498E-02 1.00372E-03-8.15509E-14
 -1      4286 1.14925E-02 1.02486E-03-8.34670E-14
 -1      4287 1.16353E-02 1.04600E-03-8.53930E-14
 -1      4288 1.17781E-02 1.06713E-03-8.73256E-14
 -1      4289 1.19209E-02 1.08826E-03-8.92660E-14
 -1      4290 1.20637E-02 1.10939E-03-9.12146E-14
 -1      4291 1.22066E-02 1.13051E-03-9.31706E-14
 -1      4292 1.23495E-02 1.15164E-03-9.51368E-14
 -1      4293 1.24924E-02 1.17276E-03-9.71102E-14
 -1      4294 1.26353E-02 1.19388E-03-9.90904E-14
 -1      4295 1.27782E-02 1.21499E-03-1.01077E-13
 -1      4296 9.87674E-03 8.16536E-04-6.20709E-14
 -1      4297 9.73596E-03 7.95096E-04-6.02990E-14
 -1      4298 7.32323E-03 3.87463E-04-3.20063E-14
 -1      4299 7.44593E-03 4.03671E-04-3.34198E-14
 -1      4300 7.53044E-03 4.38077E-04-3.41023E-14
 -1      4301 1.29211E-02 1.23611E-03-1.03070E-13
 -1      4302 7.23511E-03 3.87474E-04-3.08067E-14
 -1      4303 1.31792E-02 1.31293E-03-1.06388E-13
 -1      4304 7.57264E-03 5.00688E-04-3.40210E-14
 -1      4305 7.43922E-03 4.76255E-04-3.24947E-14
 -1      4306 7.35571E-03 4.39421E-04-3.17478E-14
 -1      4307 7.62116E-03 4.84972E-04-3.47903E-14
 -1      4308 9.22849E-03 6.86815E-04-5.42629E-14
 -1      4309 1.30456E-02 1.25867E-03-1.04780E-13
 -1      4310 9.64764E-03 7.49961E-04-5.94511E-14
 -1      4311 9.36774E-03 7.07828E-04-5.59767E-14
 -1      4312 7.31693E-03 4.19676E-04-3.14641E-14
 -1      4313 9.92912E-03 7.92200E-04-6.29944E-14
 -1      4314 7.75177E-03 4.65149E-04-3.67255E-14
 -1      4315 7.44827E-03 4.41235E-04-3.29668E-14
 -1      4316 7.57102E-03 4.59065E-04-3.43978E-14
 -1      4317 7.70730E-03 4.82426E-04-3.59521E-14
 -3
    1PSTEP                         2           1           1          
  100CL  101 1.000000000        4317                     0    1           1
 -4  STRESS      6    1
 -5  SXX         1    4    1    1
 -5  SYY         1    4    2    2
 -5  SZZ         1    4    3    3
 -5  SXY         1    4    1    2
 -5  SYZ         1    4    2    3
 -5  SZX         1    4    3    1
 -1         1 1.24044E+01 9.90409E+00 1.04563E-01-1.10562E+01-2.77472E-12 2.99016E-12
 -1         2-6.94018E-01-2.47230E+01-3.37341E+00-1.19935E-01 2.53391E-13 5.88349E-14
 -1         3 1.99999E+01 6.77761E-05-1.25092E-04 6.69250E-05-1.87969E-14-2.74078E-13
 -1         4 1.99999E+01 5.98872E-05-1.31101E-04-6.03539E-05 3.79205E-14 3.00030E-13
 -1         5 3.35812E+01 6.33276E+00 2.59412E+00 6.13104E+00-4.03497E-14 3.05068E-12
 -1         6 3.63712E+01 1.24000E+01 4.96208E+00-8.55804E+00-1.79801E-13 2.98345E-12
 -1         7 2.22107E+01 6.47820E+00-3.52749E-02-4.32624E+00-2.62707E-14 5.97977E-13
 -1         8 2.08040E+01 6.26336E+00 9.58229E-02-2.59219E+00-3.39728E-14-1.41118E-13
 -1         9 1.98748E+01 5.98893E+00 7.20278E-02-1.67846E+00-3.01495E-14-5.53477E-13
 -1        10 1.91480E+01 5.76692E+00 5.71619E-02-1.03025E+00-2.07924E-14-7.64915E-13
 -1        11 1.85139E+01 5.57426E+00 4.09058E-02-5.51038E-01-1.57895E-14-8.69976E-13
 -1        12 1.79719E+01 5.40999E+00 2.38545E-02-2.15044E-01-6.60583E-15-9.22853E-13
 -1        13 1.75333E+01 5.27778E+00 7.43922E-03 7.14221E-03-6.16694E-15-9.36187E-13
 -1        14 1.72522E+01 5.19325E+00-5.44361E-03 1.33458E-01 9.02924E-16-9.41115E-13
 -1        15 1.71708E+01 5.16896E+00-1.19221E-02 2.00724E-01 5.54700E-15-9.27697E-13
 -1        16 1.73157E+01 5.21277E+00-1.00111E-02 2.58279E-01 1.01117E-14-9.07187E-13
 -1        17 1.76892E+01 5.32513E+00 7.05112E-04 3.63241E-01 1.26357E-14-8.67124E-13
 -1        18 1.82560E+01 5.49644E+00 1.85750E-02 5.67833E-01 1.80932E-14-7.78970E-13
 -1        19 1.90007E+01 5.72170E+00 4.18670E-02 9.34576E-01 2.97193E-14-6.55748E-13
 -1        20 1.98879E+01 5.99139E+00 6.78699E-02 1.52014E+00 3.42087E-14-4.08193E-13
 -1        21 2.09652E+01 6.32070E+00 1.01735E-01 2.42530E+00 4.25354E-14 5.93765E-14
 -1        22 2.27298E+01 6.78733E+00 2.15334E-01 3.98160E+00 5.06539E-15 9.87269E-13
 -1        23 2.45553E+01-1.47013E+00-9.87488E-01-5.83010E-01-1.24928E-13 2.34575E-12
 -1        24 2.16153E+01-9.71187E-02-2.97336E-01 8.99375E-02-3.09744E-14 1.78106E-12
 -1        25 2.14832E+01-5.07840E-02-5.67786E-02 7.48217E-02-8.70918E-15 1.23662E-12
 -1        26 2.17253E+01-1.43953E-02 4.69315E-03 4.47636E-02-1.14628E-14 8.31236E-13
 -1        27 2.20561E+01 2.71319E-05 1.83924E-02 3.12158E-02-1.78575E-14 5.00888E-13
 -1        28 2.22919E+01 1.07815E-02 2.86341E-02 1.72863E-02 7.15389E-15 3.76740E-13
 -1        29 2.22702E+01 1.82198E-02 3.90047E-02-1.34038E-03-1.18140E-14 2.75900E-13
 -1        30 2.18591E+01 2.04792E-02 4.36306E-02-2.56658E-02 2.32527E-14 1.40232E-13
 -1        31 2.10074E+01 1.50886E-02 3.46875E-02-5.15865E-02 7.76061E-15-5.09488E-14
 -1        32 1.98127E+01 1.37878E-03 7.86460E-03-6.91906E-02-3.40233E-14-3.28598E-13
 -1        33 1.85546E+01-1.71211E-02-3.11502E-02-6.64436E-02 6.87590E-14-3.52596E-13
 -1        34 1.76336E+01-3.28472E-02-6.59937E-02-3.78168E-02-2.62394E-14-2.57731E-13
 -1        35 1.74019E+01-3.78934E-02-7.75250E-02 8.10436E-03-1.84054E-14-4.40684E-13
 -1        36 1.79755E+01-2.94582E-02-5.89101E-02 5.14465E-02 1.74138E-14-4.51857E-13
 -1        37 1.91659E+01-1.20223E-02-2.12169E-02 7.41490E-02-3.38532E-14-4.92939E-13
 -1        38 2.05885E+01 6.16946E-03 1.57201E-02 7.15091E-02 4.21776E-15-6.95794E-13
 -1        39 2.18602E+01 1.84721E-02 3.78859E-02 5.18469E-02-1.46232E-14-8.38050E-13
 -1        40 2.27434E+01 2.27390E-02 4.26243E-02 2.74681E-02-5.08337E-14-8.62066E-13
 -1        41 2.31762E+01 2.06540E-02 3.55101E-02 7.15841E-03 3.46242E-14-1.00328E-12
 -1        42 2.32219E+01 1.52903E-02 2.38213E-02-5.83843E-03 1.73741E-14-7.64122E-13
 -1        43 2.29972E+01 9.27341E-03 1.26384E-02-1.20995E-02-7.89720E-14-6.09451E-13
 -1        44 2.26198E+01 4.12636E-03 4.21566E-03-1.36757E-02 7.95603E-14-3.62313E-13
 -1        45 2.21829E+01 4.01630E-04-1.13152E-03-1.26156E-02-9.58805E-14-2.46855E-13
 -1        46 2.17493E+01-1.93317E-03-3.98313E-03-1.04111E-02-1.51329E-14-4.26474E-13
 -1        47 2.13552E+01-3.16029E-03-5.12213E-03-7.96051E-03 5.29621E-14-3.29650E-13
 -1        48 2.10174E+01-3.61061E-03-5.22481E-03-5.71976E-03 1.23084E-15-3.65990E-13
 -1        49 2.07402E+01-3.57076E-03-4.77620E-03-3.86934E-03 7.68823E-14-3.94789E-13
 -1        50 2.05207E+01-3.25604E-03-4.08759E-03-2.43977E-03-7.42749E-14-4.41919E-13
 -1        51 2.03519E+01-2.81376E-03-3.34209E-03-1.39085E-03 4.10452E-16-2.54048E-13
 -1        52 2.02258E+01-2.33726E-03-2.63787E-03-6.56420E-04-9.76118E-15-5.58415E-14
 -1        53 2.01343E+01-1.88101E-03-2.02062E-03-1.67180E-04-5.38838E-15-7.18537E-14
 -1        54 2.00700E+01-1.47326E-03-1.50552E-03 1.39087E-04-7.77973E-14-2.00316E-13
 -1        55 2.00264E+01-1.12554E-03-1.09100E-03 3.13975E-04-2.85522E-14-4.86923E-13
 -1        56 1.99983E+01-8.39283E-04-7.67192E-04 3.98128E-04 1.18007E-13-2.25845E-13
 -1        57 1.99814E+01-6.10323E-04-5.20806E-04 4.22334E-04-4.01007E-14-1.34938E-13
 -1        58 1.99725E+01-4.31757E-04-3.38030E-04 4.09159E-04 2.79967E-14-3.77394E-13
 -1        59 1.99689E+01-2.95746E-04-2.05987E-04 3.74654E-04-3.16708E-14-4.38403E-13
 -1        60 1.99688E+01-1.94550E-04-1.13393E-04 3.29881E-04 1.65725E-14-3.39105E-13
 -1        61 1.99708E+01-1.21074E-04-5.07546E-05 2.82189E-04-5.63421E-15-3.66082E-13
 -1        62 1.99741E+01-6.91113E-05-1.03047E-05 2.36223E-04 1.59030E-14-3.64498E-13
 -1        63 1.99780E+01-3.33996E-05 1.41841E-05 1.94708E-04-1.09451E-13-7.95641E-13
 -1        64 1.99820E+01-9.55972E-06 2.76625E-05 1.59027E-04-1.37924E-14-1.23641E-12
 -1        65 1.99858E+01 6.02091E-06 3.41200E-05 1.29624E-04 2.70267E-14-8.71322E-13
 -1        66 1.99894E+01 1.63320E-05 3.69918E-05 1.06216E-04 5.98587E-14-4.44115E-13
 -1        67 1.99926E+01 2.38767E-05 3.97342E-05 8.77704E-05 1.92458E-14 2.26445E-13
 -1        68 1.99954E+01 3.06917E-05 4.63282E-05 7.20453E-05 7.01698E-15 7.02363E-13
 -1        69 1.99976E+01 3.76206E-05 6.01098E-05 5.40135E-05 2.97163E-14 9.33302E-13
 -1        70 1.99992E+01 3.75530E-05 7.16942E-05 1.85864E-05 7.12069E-16 1.22729E-12
 -1        71 1.99999E+01-7.21594E-06 2.15320E-05-3.43264E-05 4.76305E-14 1.13149E-12
 -1        72 2.28772E+01-4.21155E-01-1.01879E+00-3.88581E-01 4.48634E-14 2.77646E-12
 -1        73 2.21647E+01-6.64318E-02-2.80749E-01-7.35826E-02 1.82077E-14 2.07344E-12
 -1        74 2.23757E+01-2.12419E-02-6.24517E-02-3.48395E-02 2.29256E-14 1.57338E-12
 -1        75 2.30456E+01-8.09026E-03-1.21668E-02-3.48673E-02-1.13494E-15 1.26867E-12
 -1        76 2.39606E+01 2.87574E-03 5.02791E-03-4.14557E-02-3.89809E-15 1.06637E-12
 -1        77 2.49146E+01 1.52011E-02 2.71168E-02-4.90441E-02 1.02283E-14 9.08296E-13
 -1        78 2.56346E+01 2.75121E-02 6.14824E-02-4.90586E-02-2.39878E-14 8.90964E-13
 -1        79 2.57577E+01 3.37397E-02 9.88829E-02-2.78626E-02 1.25499E-14 9.10032E-13
 -1        80 2.49140E+01 2.47908E-02 1.12200E-01 2.73080E-02-1.08251E-14 7.38423E-13
 -1        81 2.29682E+01-3.06333E-03 6.56069E-02 1.09796E-01 3.26768E-14 5.38479E-13
 -1        82 2.03552E+01-3.65025E-02-4.65777E-02 1.73322E-01 4.35069E-14 2.62082E-13
 -1        83 1.81600E+01-5.45489E-02-1.66297E-01 1.55635E-01-3.16054E-14 1.83398E-13
 -1        84 1.75557E+01-4.17786E-02-2.06444E-01 4.61167E-02 1.45300E-14 1.31548E-13
 -1        85 1.89566E+01-1.23269E-02-1.28192E-01-9.14382E-02 1.01757E-14-8.32667E-17
 -1        86 2.16091E+01 1.54916E-02 1.44720E-03-1.61133E-01-6.10352E-16-3.51358E-13
 -1        87 2.42479E+01 2.95724E-02 9.19800E-02-1.46806E-01-5.06572E-14-4.91142E-13
 -1        88 2.59843E+01 2.96998E-02 1.12575E-01-8.87177E-02 5.66843E-15-4.16212E-13
 -1        89 2.66049E+01 2.16887E-02 8.62120E-02-3.15840E-02 4.18769E-14-6.23594E-13
 -1        90 2.63525E+01 1.18520E-02 4.74576E-02 5.38776E-03 4.53187E-14-7.04320E-13
 -1        91 2.55980E+01 3.83220E-03 1.62638E-02 2.25224E-02-8.79440E-14-5.52317E-13
 -1        92 2.46504E+01-1.32528E-03-2.40096E-03 2.68334E-02-1.38055E-14-1.88610E-13
 -1        93 2.37047E+01-4.00263E-03-1.09725E-02 2.47839E-02 2.29651E-14-1.56160E-13
 -1        94 2.28596E+01-4.98986E-03-1.34036E-02 2.04274E-02 3.14126E-14-5.72755E-13
 -1        95 2.21514E+01-4.99786E-03-1.27857E-02 1.58049E-02 4.40308E-14-7.89547E-13
 -1        96 2.15821E+01-4.52098E-03-1.09710E-02 1.17489E-02 3.13874E-14-8.04370E-13
 -1        97 2.11376E+01-3.85794E-03-8.89951E-03 8.48537E-03-5.12525E-14-3.71419E-13
 -1        98 2.07984E+01-3.17075E-03-6.97978E-03 5.98071E-03-2.04600E-14 1.03523E-13
 -1        99 2.05446E+01-2.53752E-03-5.35114E-03 4.11366E-03 3.00946E-14-3.20012E-13
 -1       100 2.03582E+01-1.98921E-03-4.03121E-03 2.75028E-03 2.05142E-15-5.01821E-13
 -1       101 2.02239E+01-1.53215E-03-2.98980E-03 1.77172E-03-4.26673E-14-9.05516E-13
 -1       102 2.01294E+01-1.16097E-03-2.18266E-03 1.08142E-03 3.22191E-14-7.84729E-13
 -1       103 2.00645E+01-8.65438E-04-1.56574E-03 6.04141E-04 9.49109E-15-5.70152E-13
 -1       104 2.00216E+01-6.34027E-04-1.10022E-03 2.82475E-04 5.84615E-15-4.40696E-13
 -1       105 1.99945E+01-4.55573E-04-7.53584E-04 7.30448E-05 5.03598E-14-5.75916E-13
 -1       106 1.99786E+01-3.20018E-04-4.99245E-04-5.66528E-05-7.27879E-14-5.83600E-13
 -1       107 1.99705E+01-2.18662E-04-3.15801E-04-1.30768E-04-1.77851E-14-7.15645E-13
 -1       108 1.99675E+01-1.44174E-04-1.86221E-04-1.67083E-04 8.28276E-14-1.10948E-12
 -1       109 1.99679E+01-9.04904E-05-9.70749E-05-1.78571E-04-2.80877E-14-2.46107E-13
 -1       110 1.99703E+01-5.26631E-05-3.78490E-05-1.74597E-04-3.68971E-14-1.48750E-13
 -1       111 1.99738E+01-2.66932E-05-3.63037E-07-1.61832E-04 4.44459E-14-1.67289E-13
 -1       112 1.99778E+01-9.36708E-06 2.17226E-05-1.44953E-04-5.50294E-14-2.90968E-13
 -1       113 1.99819E+01 1.90076E-06 3.33342E-05-1.27179E-04 5.60721E-14-5.85228E-14
 -1       114 1.99858E+01 9.21799E-06 3.83943E-05-1.10677E-04 7.63665E-14-3.67293E-13
 -1       115 1.99894E+01 1.43101E-05 4.02930E-05-9.67959E-05-1.55380E-14-3.51131E-13
 -1       116 1.99927E+01 1.86024E-05 4.24856E-05-8.60930E-05 8.15615E-14-4.89477E-13
 -1       117 1.99954E+01 2.32793E-05 4.92433E-05-7.82334E-05 3.84052E-14-1.31925E-12
 -1       118 1.99977E+01 2.83332E-05 6.37334E-05-7.04034E-05-3.13042E-15-1.18408E-12
 -1       119 1.99992E+01 2.89249E-05 7.60735E-05-4.95279E-05-2.83550E-14-7.07533E-13
 -1       120 1.99999E+01-2.65316E-05 1.21734E-05 1.49436E-05 6.79299E-14-2.24766E-14
 -1       121 1.99998E+01 3.07086E-05 1.45960E-05 3.46926E-05-1.37372E-13-1.28986E-13
 -1       122 1.99998E+01-6.31505E-04 6.72554E-05-3.12289E-05-3.59897E-13 9.27885E-14
 -1       123 1.99998E+01-2.10244E-03 3.84412E-05-6.35437E-05 1.48882E-13 1.86540E-13
 -1       124 1.99998E+01-3.94913E-03 4.25724E-06-7.10038E-05-4.16346E-14 6.61509E-14
 -1       125 1.99998E+01-5.82175E-03-2.18853E-05-6.41748E-05 9.85379E-13 7.06063E-14
 -1       126 1.99998E+01-7.42724E-03-3.98700E-05-5.05130E-05 1.02641E-13-1.07686E-13
 -1       127 1.99998E+01-8.62012E-03-5.07027E-05-3.16933E-05-1.59569E-13-4.77619E-14
 -1       128 1.99998E+01-9.24342E-03-5.58684E-05-1.05906E-05-5.48211E-13-3.38631E-14
 -1       129 1.99998E+01-9.23515E-03-5.57423E-05 1.11589E-05-1.36253E-13 1.06980E-13
 -1       130 1.99998E+01-8.59664E-03-5.03673E-05 3.21034E-05 5.55549E-13-1.72239E-14
 -1       131 1.99998E+01-7.39285E-03-3.90536E-05 5.12567E-05 3.52142E-13-1.58780E-13
 -1       132 1.99998E+01-5.78270E-03-2.15321E-05 6.42790E-05 2.36445E-13 3.31246E-13
 -1       133 1.99998E+01-3.91048E-03 4.51032E-06 7.06252E-05 3.99977E-13-1.00991E-13
 -1       134 1.99998E+01-2.06515E-03 4.17008E-05 6.81520E-05-5.25356E-13-6.03086E-14
 -1       135 1.99998E+01-6.36060E-04 5.84812E-05 4.34186E-05-1.44003E-12-2.27673E-13
 -1       136 1.99998E+01 8.70105E-06 1.15887E-05-7.06167E-05-1.24789E-12-3.13694E-14
 -1       137-1.49820E+00-2.02623E+01-3.14780E+00-4.02732E+00 1.89562E-12 5.15556E-13
 -1       138-1.78646E+00-8.76819E+00-2.38067E+00-3.21700E+00 3.13388E-12 1.47049E-12
 -1       139 4.13182E+00 4.37018E+00-1.01923E+00 4.53074E+00 3.47256E-12 2.82713E-12
 -1       140 1.84416E+01 1.06215E+01 5.27094E-01 1.38705E+01 2.63423E-12 3.16047E-12
 -1       141 3.86626E+01 9.18155E+00 2.04522E+00 1.80983E+01 1.38931E-12 2.76262E-12
 -1       142 5.85976E+01 4.23496E+00 3.27647E+00 1.34444E+01 4.34167E-13 1.45728E-12
 -1       143 6.79615E+01 1.03388E+00 3.80817E+00 9.37785E-01 8.89566E-14-6.45414E-13
 -1       144 6.17256E+01 3.21885E+00 3.45123E+00-1.21169E+01 5.93317E-13-2.49817E-12
 -1       145 4.43562E+01 8.32847E+00 2.43944E+00-1.83015E+01 1.65870E-12-3.68400E-12
 -1       146 2.31868E+01 1.11215E+01 9.63906E-01-1.58164E+01 2.81819E-12-3.86496E-12
 -1       147 7.34273E+00 7.31163E+00-5.41429E-01-7.42624E+00 3.43620E-12-3.10729E-12
 -1       148-5.22671E-01-3.98082E+00-1.94777E+00 9.95565E-01 3.06916E-12-1.78674E-12
 -1       149-1.86462E+00-1.68268E+01-2.93044E+00 4.28670E+00 2.01761E-12-6.22107E-13
 -1       150-8.27891E-01-2.43246E+01-3.38578E+00 1.62307E+00 2.61013E-13-8.65974E-14
 -1       151-1.12618E+00-2.21811E+01-3.23366E+00-2.97296E+00-1.72434E-12-3.30332E-13
 -1       152-1.63248E+00-1.19425E+01-2.54394E+00-3.56391E+00-3.34366E-12-1.32019E-12
 -1       153 9.18432E-01 2.47645E-01-1.46488E+00 1.12688E+00-3.87085E-12-2.49861E-12
 -1       154 1.16562E+01 9.28486E+00-1.64253E-03 1.03946E+01-3.29753E-12-3.25556E-12
 -1       155 3.17233E+01 1.07184E+01 1.60643E+00 1.79569E+01-1.99984E-12-3.18806E-12
 -1       156 5.11292E+01 6.11453E+00 2.76608E+00 1.66065E+01-8.66765E-13-2.58005E-12
 -1       157 6.44048E+01 1.70036E+00 3.47410E+00 6.40378E+00-2.60528E-13-1.14908E-12
 -1       158 6.33840E+01 1.94304E+00 3.40741E+00-8.02750E+00-1.70055E-13 9.14158E-13
 -1       159 4.96385E+01 6.59297E+00 2.67221E+00-1.70851E+01-8.97019E-13 2.31515E-12
 -1       160 2.94255E+01 1.08437E+01 1.46571E+00-1.74554E+01-2.04070E-12 3.13988E-12
 -1       161 2.08648E+00 2.43537E+00-1.19862E+00-2.56194E+00-3.53723E-12 2.41296E-12
 -1       162-1.58749E+00-9.37128E+00-2.31981E+00 3.25663E+00-3.13677E-12 1.42938E-12
 -1       163-1.26840E+00-2.01768E+01-3.07418E+00 3.67156E+00-1.60316E-12 3.77406E-13
 -1       164 2.24786E+01 3.68357E+00-5.21225E-02-2.99552E+00-4.21411E-13 2.02845E-13
 -1       165 2.10661E+01 4.23846E+00-4.36357E-02-2.06360E+00-3.88767E-13-2.57499E-13
 -1       166 2.00664E+01 4.51064E+00-3.14150E-02-1.36149E+00-3.04356E-13-5.29953E-13
 -1       167 1.92516E+01 4.64362E+00-2.31663E-02-8.16345E-01-2.28227E-13-6.76933E-13
 -1       168 1.85486E+01 4.73437E+00-1.76583E-02-4.09799E-01-1.49271E-13-7.46642E-13
 -1       169 1.79447E+01 4.81181E+00-1.42905E-02-1.16319E-01-9.09108E-14-7.80607E-13
 -1       170 1.74959E+01 4.88090E+00-1.22485E-02 7.13933E-02-1.54033E-14-7.85573E-13
 -1       171 1.72585E+01 4.93385E+00-1.13469E-02 1.80086E-01 4.24860E-14-7.93749E-13
 -1       172 1.72794E+01 4.95916E+00-1.15863E-02 2.51304E-01 1.08112E-13-7.84397E-13
 -1       173 1.75803E+01 4.94747E+00-1.30900E-02 3.37805E-01 1.69121E-13-7.59026E-13
 -1       174 1.81384E+01 4.89417E+00-1.61607E-02 4.92257E-01 2.21849E-13-6.93171E-13
 -1       175 1.89394E+01 4.78993E+00-2.14557E-02 7.71551E-01 3.18284E-13-5.81754E-13
 -1       176 1.99420E+01 4.61020E+00-3.03816E-02 1.22126E+00 3.87253E-13-4.16351E-13
 -1       177 2.11667E+01 4.27675E+00-4.20986E-02 1.88261E+00 4.37870E-13-1.05579E-13
 -1       178 2.28467E+01 3.46407E+00-5.04080E-02 2.73202E+00 4.20669E-13 4.49973E-13
 -1       179 2.43528E+01 1.05449E+00-3.30716E-01 2.42627E+00 3.16441E-13 1.19504E-12
 -1       180 2.37189E+01 8.09642E-01 5.10169E-04-1.50260E+00-3.65229E-13 7.55375E-13
 -1       181 2.25307E+01 1.57769E-01-9.32502E-03-3.53294E-01-3.17130E-13 5.63096E-13
 -1       182 2.20935E+01 7.18497E-02 1.24193E-02 5.61323E-02-2.47245E-13 3.93266E-13
 -1       183 2.20380E+01 2.50645E-03 7.49690E-03 1.82118E-01-1.87763E-13 2.78574E-13
 -1       184 2.20962E+01-4.98875E-02 1.91922E-03 1.43171E-01-9.29430E-14 1.81579E-13
 -1       185 2.21183E+01-9.60740E-02-9.58494E-04-2.56344E-02-6.89817E-14 1.30876E-13
 -1       186 2.19916E+01-1.27580E-01-1.60505E-03-2.94708E-01-7.11289E-14 1.25087E-13
 -1       187 2.16467E+01-1.25362E-01-7.68440E-04-6.02835E-01-9.66818E-14 5.69239E-14
 -1       188 2.10843E+01-7.06386E-02 7.99598E-04-8.43564E-01-1.27448E-13 3.22095E-14
 -1       189 2.04015E+01 3.61113E-02 2.14147E-03-8.87589E-01-2.70927E-14 4.09291E-14
 -1       190 1.97887E+01 1.59368E-01 2.91779E-03-6.48836E-01-3.53910E-14-2.00266E-13
 -1       191 1.94655E+01 2.37937E-01 3.00389E-03-1.60446E-01-1.14505E-13-2.83115E-13
 -1       192 1.95721E+01 2.25639E-01 3.01384E-03 4.09961E-01-4.80254E-14-3.13308E-13
 -1       193 2.00850E+01 1.29841E-01 2.73125E-03 8.45934E-01-3.80238E-14-3.84122E-13
 -1       194 2.08311E+01 5.09042E-03 1.62484E-03 1.00870E+00-1.94821E-13-4.17666E-13
 -1       195 2.15851E+01-9.09628E-02-6.05479E-05 8.99714E-01-1.01677E-13-5.26823E-13
 -1       196 2.21708E+01-1.32973E-01-1.86667E-03 6.21755E-01-6.08476E-14-5.86576E-13
 -1       197 2.25069E+01-1.28124E-01-3.04204E-03 2.98677E-01-2.75951E-15-5.64758E-13
 -1       198 2.25953E+01-9.77762E-02-3.29157E-03 1.87650E-02 6.13275E-14-4.84038E-13
 -1       199 2.24871E+01-6.11719E-02-2.80810E-03-1.79064E-01 6.52796E-14-6.13803E-13
 -1       200 2.22491E+01-2.94389E-02-1.95461E-03-2.92680E-01 1.28588E-13-5.20070E-13
 -1       201 2.19431E+01-6.54991E-03-1.05001E-03-3.38431E-01 5.59867E-14-4.33250E-13
 -1       202 2.16172E+01 7.68988E-03-2.91763E-04-3.37546E-01 4.00610E-14-2.34822E-13
 -1       203 2.13037E+01 1.51573E-02 2.47003E-04-3.08986E-01-1.14434E-13-1.82907E-13
 -1       204 2.10214E+01 1.79840E-02 5.71524E-04-2.66981E-01-4.63978E-14-3.74253E-13
 -1       205 2.07790E+01 1.79562E-02 7.24799E-04-2.21016E-01-6.80842E-14-3.76246E-13
 -1       206 2.05785E+01 1.63702E-02 7.58339E-04-1.76779E-01 3.55702E-14-4.07916E-13
 -1       207 2.04176E+01 1.40834E-02 7.17624E-04-1.37260E-01 1.59396E-13-2.75761E-13
 -1       208 2.02920E+01 1.16209E-02 6.37185E-04-1.03683E-01 1.35652E-13-4.29944E-14
 -1       209 2.01965E+01 9.27804E-03 5.40690E-04-7.62084E-02-8.30598E-14-6.66932E-14
 -1       210 2.01256E+01 7.20154E-03 4.42988E-04-5.44037E-02-1.88219E-13-1.56261E-13
 -1       211 2.00744E+01 5.44663E-03 3.52509E-04-3.75568E-02-1.47020E-13-2.02875E-13
 -1       212 2.00385E+01 4.01545E-03 2.73350E-04-2.48639E-02 1.49819E-13-2.00914E-13
 -1       213 2.00143E+01 2.88173E-03 2.06868E-04-1.55384E-02 1.04579E-13-2.80164E-13
 -1       214 1.99988E+01 2.00634E-03 1.52796E-04-8.86855E-03-3.14002E-14-1.66478E-13
 -1       215 1.99895E+01 1.34665E-03 1.09989E-04-4.24178E-03-1.23822E-13-2.31196E-13
 -1       216 1.99846E+01 8.61610E-04 7.69113E-05-1.14964E-03-1.12846E-13-3.83138E-13
 -1       217 1.99827E+01 5.14347E-04 5.19312E-05 8.17696E-04 5.31111E-14-2.33447E-13
 -1       218 1.99828E+01 2.73125E-04 3.34849E-05 1.98216E-03-1.12207E-13-3.98231E-13
 -1       219 1.99841E+01 1.11449E-04 2.01598E-05 2.59043E-03-1.34762E-13-5.40154E-13
 -1       220 1.99860E+01 7.63328E-06 1.07249E-05 2.82642E-03-2.32335E-13-5.67762E-13
 -1       221 1.99883E+01-5.59354E-05 4.13616E-06 2.82256E-03 2.42552E-13-4.05276E-13
 -1       222 1.99906E+01-9.36959E-05-4.65341E-07 2.66913E-03 3.77107E-13-1.45014E-13
 -1       223 1.99929E+01-1.17933E-04-3.71290E-06 2.42144E-03 4.23517E-13 3.15014E-14
 -1       224 1.99949E+01-1.39845E-04-5.86332E-06 2.10478E-03 2.56464E-13 1.69039E-13
 -1       225 1.99967E+01-1.70725E-04-6.61777E-06 1.71737E-03 1.80431E-13 1.59462E-13
 -1       226 1.99981E+01-2.21273E-04-6.49664E-06 1.23607E-03 3.74373E-13 3.64278E-13
 -1       227 1.99991E+01-2.86353E-04-4.27477E-06 6.45371E-04-8.14739E-14 5.69179E-13
 -1       228 2.33652E+01 2.60531E-01-4.49841E-02 6.04322E-01 3.31492E-13 1.02803E-12
 -1       229 2.28741E+01 1.32406E-01 9.81440E-03-1.14438E-01 2.48936E-13 7.70922E-13
 -1       230 2.30192E+01 6.83757E-02 1.13465E-02-4.32898E-01 1.40543E-13 5.80063E-13
 -1       231 2.34816E+01 2.29231E-02 5.23230E-03-5.77662E-01 1.07053E-13 4.79831E-13
 -1       232 2.40601E+01-3.18652E-02 1.95150E-03-5.69257E-01 7.51122E-14 3.90528E-13
 -1       233 2.45592E+01-1.06790E-01 2.63181E-03-3.68677E-01-2.93415E-14 3.92563E-13
 -1       234 2.47625E+01-1.91989E-01 6.35689E-03 6.34614E-02 5.01066E-14 3.85449E-13
 -1       235 2.44649E+01-2.43599E-01 9.63727E-03 6.91137E-01 8.95759E-14 3.44901E-13
 -1       236 2.35783E+01-1.85287E-01 6.70631E-03 1.31028E+00 1.33934E-13 2.42858E-13
 -1       237 2.22885E+01 2.92345E-02-6.34332E-03 1.53668E+00 1.34950E-13 1.83650E-13
 -1       238 2.11338E+01 3.01473E-01-2.41250E-02 1.04029E+00 1.02637E-13 5.43211E-14
 -1       239 2.07514E+01 4.44749E-01-3.02740E-02-5.37526E-02 8.32841E-14-1.19015E-13
 -1       240 2.14252E+01 3.13834E-01-1.76374E-02-1.15887E+00 1.64084E-13-3.07915E-13
 -1       241 2.27795E+01 3.68809E-02 1.58653E-03-1.63660E+00 7.44398E-14-4.07271E-13
 -1       242 2.41426E+01-1.75869E-01 1.12220E-02-1.39888E+00 4.55556E-14-4.06052E-13
 -1       243 2.50267E+01-2.39878E-01 9.19788E-03-7.73527E-01 3.33058E-14-5.63409E-13
 -1       244 2.52971E+01-1.96345E-01 2.79188E-03-1.36126E-01 1.17643E-13-5.64174E-13
 -1       245 2.50630E+01-1.17949E-01-1.91853E-03 3.15835E-01 1.77909E-14-5.53994E-13
 -1       246 2.45162E+01-4.95435E-02-3.49249E-03 5.53126E-01-2.16925E-13-3.24801E-13
 -1       247 2.38307E+01-4.79333E-03-2.99329E-03 6.26825E-01-1.35580E-13-1.88964E-13
 -1       248 2.31285E+01 1.88317E-02-1.77512E-03 6.01867E-01 6.21068E-14-1.59926E-13
 -1       249 2.24803E+01 2.82797E-02-6.34830E-04 5.29088E-01 2.62387E-13-3.89888E-13
 -1       250 2.19187E+01 2.97021E-02 1.48355E-04 4.40576E-01 3.42377E-14-5.31611E-13
 -1       251 2.14526E+01 2.72328E-02 5.78778E-04 3.53711E-01-1.16602E-13-2.62213E-13
 -1       252 2.10775E+01 2.32698E-02 7.54763E-04 2.76462E-01-2.46135E-13-5.47123E-14
 -1       253 2.07829E+01 1.90586E-02 7.76324E-04 2.11483E-01-2.11704E-13-1.05050E-13
 -1       254 2.05562E+01 1.51726E-02 7.16941E-04 1.58731E-01 2.23886E-13 5.64732E-15
 -1       255 2.03848E+01 1.18267E-02 6.22859E-04 1.16962E-01 1.14049E-13-1.48788E-13
 -1       256 2.02576E+01 9.05915E-03 5.20292E-04 8.45305E-02 1.67595E-13-2.25095E-13
 -1       257 2.01650E+01 6.82899E-03 4.22721E-04 5.97688E-02-1.07811E-13-4.57758E-13
 -1       258 2.00990E+01 5.06581E-03 3.36163E-04 4.11636E-02-1.58237E-13-2.68166E-13
 -1       259 2.00531E+01 3.69365E-03 2.62539E-04 2.74115E-02 7.84344E-14 3.03262E-14
 -1       260 2.00222E+01 2.64121E-03 2.01677E-04 1.74265E-02 2.05916E-13-1.72792E-13
 -1       261 2.00023E+01 1.84557E-03 1.52441E-04 1.03230E-02-7.93069E-14-3.27735E-13
 -1       262 1.99902E+01 1.25319E-03 1.13319E-04 5.39124E-03 4.46849E-14-2.08390E-13
 -1       263 1.99836E+01 8.19594E-04 8.27255E-05 2.07045E-03 2.07046E-14-2.01251E-14
 -1       264 1.99808E+01 5.08441E-04 5.91568E-05-7.63943E-05-4.77576E-13 2.59942E-14
 -1       265 1.99804E+01 2.90406E-04 4.12614E-05-1.38536E-03 2.63321E-16 1.49345E-13
 -1       266 1.99815E+01 1.42042E-04 2.78637E-05-2.11100E-03 4.95394E-15 2.28703E-13
 -1       267 1.99836E+01 4.47339E-05 1.79618E-05-2.44262E-03 8.39052E-15 4.18550E-13
 -1       268 1.99860E+01-1.62630E-05 1.07130E-05-2.51765E-03 1.25174E-13 2.36506E-13
 -1       269 1.99886E+01-5.27178E-05 5.42616E-06-2.43217E-03 2.73567E-14 2.64356E-13
 -1       270 1.99912E+01-7.43678E-05 1.57009E-06-2.24888E-03 1.54957E-13 2.86895E-13
 -1       271 1.99935E+01-8.96039E-05-9.97849E-07-2.00241E-03 2.15069E-13-1.64452E-13
 -1       272 1.99956E+01-1.06130E-04-1.78402E-06-1.70342E-03 3.05954E-13-2.19477E-13
 -1       273 1.99973E+01-1.32366E-04-1.10904E-08-1.34024E-03-1.70708E-13-4.78765E-14
 -1       274 1.99986E+01-1.79670E-04 2.88247E-07-8.82483E-04-1.84217E-13-2.00351E-13
 -1       275 1.99994E+01-2.02512E-04-5.07652E-06-3.36441E-04-1.70984E-13-2.42986E-13
 -1       276 1.99995E+01-7.01791E-04-4.66254E-06-6.62577E-04 5.12854E-14 6.06345E-14
 -1       277 1.99996E+01-1.64681E-03-1.91473E-06-1.15725E-03 2.77769E-14 1.64421E-13
 -1       278 1.99997E+01-2.84320E-03-8.79380E-07-1.41944E-03 2.10678E-14 6.46378E-14
 -1       279 1.99998E+01-4.12577E-03 8.99504E-07-1.43493E-03 5.02808E-14 5.40545E-13
 -1       280 1.99999E+01-5.30394E-03 3.47401E-06-1.25218E-03-1.27021E-13-5.78684E-13
 -1       281 2.00000E+01-6.27159E-03 5.68063E-06-9.15440E-04-8.57953E-14-2.40002E-13
 -1       282 2.00000E+01-6.89400E-03 7.14769E-06-4.78767E-04-4.78797E-14-1.97375E-13
 -1       283 2.00000E+01-7.10490E-03 7.63783E-06 6.44744E-06 1.45666E-13 1.99890E-13
 -1       284 2.00000E+01-6.88245E-03 7.13314E-06 4.90559E-04 1.62568E-13 2.95290E-13
 -1       285 2.00000E+01-6.25024E-03 5.64982E-06 9.24357E-04-1.60881E-15-5.20904E-14
 -1       286 1.99999E+01-5.29587E-03 3.31740E-06 1.25258E-03 2.31876E-13 5.05460E-14
 -1       287 1.99998E+01-4.09603E-03 8.56946E-07 1.43449E-03 1.43996E-13 9.70795E-14
 -1       288 1.99997E+01-2.81572E-03-1.17452E-06 1.41435E-03-1.76085E-14-7.53815E-13
 -1       289 1.99996E+01-1.63108E-03-4.82257E-06 1.13829E-03-3.27239E-13-4.12881E-13
 -1       290 1.99994E+01-8.98629E-04-6.20389E-06 1.01897E-03-1.35343E-13-1.66202E-13
 -1       291-8.82642E-01-1.05227E+01-9.20056E-01 9.40688E-01 2.25375E-13 8.85320E-13
 -1       292 2.73708E+00-8.58302E+00-7.71051E-01 3.36737E+00 7.59448E-13 1.12210E-12
 -1       293 1.05647E+01-5.23773E+00-4.54082E-01 5.76215E+00 9.74304E-13 1.07156E-12
 -1       294 2.06327E+01-1.15935E+00-8.19437E-02 6.96906E+00 1.26610E-12 1.01483E-12
 -1       295 3.11354E+01 2.59456E+00 3.78011E-01 7.27477E+00 1.22981E-12 1.07003E-12
 -1       296 3.92844E+01 4.70541E+00 5.29354E-01 3.71208E+00 9.92505E-13 4.10033E-13
 -1       297 4.38883E+01 7.07031E+00 7.09315E-01 1.20520E+00 1.13515E-12-1.30632E-13
 -1       298 4.73234E+01 6.70648E+00 1.06682E+00-1.78163E+00 1.00001E-12-7.77087E-13
 -1       299 4.17323E+01 5.54439E+00 7.39128E-01-4.16577E+00 1.04559E-12-1.08247E-12
 -1       300 3.39246E+01 3.17173E+00 4.69394E-01-6.74489E+00 1.21381E-12-1.43502E-12
 -1       301 2.32888E+01 3.49562E-01 5.61654E-02-7.52289E+00 1.36935E-12-1.58842E-12
 -1       302 1.28514E+01-3.51351E+00-4.06637E-01-6.17427E+00 1.28253E-12-1.49386E-12
 -1       303 6.03876E+00-7.03084E+00-4.85443E-01-5.12050E+00 6.43735E-13-1.12540E-12
 -1       304 6.14269E-02-9.43347E+00-7.94628E-01-2.02637E+00 3.16608E-13-9.97022E-13
 -1       305-1.23124E+00-1.10364E+01-1.00162E+00 5.95146E-01-2.96776E-13-9.64201E-13
 -1       306 1.79451E+00-8.26253E+00-6.63228E-01 3.52767E+00-7.00856E-13-1.17020E-12
 -1       307 7.02765E+00-5.94616E+00-5.92984E-01 5.07115E+00-1.37496E-12-1.25939E-12
 -1       308 1.63981E+01-2.52523E+00-1.88495E-01 7.01782E+00-1.37043E-12-1.13382E-12
 -1       309 2.76293E+01 5.40972E-01 1.53387E-01 6.54554E+00-1.21381E-12-9.31810E-13
 -1       310 3.71641E+01 4.75338E+00 6.41810E-01 6.79606E+00-1.12091E-12-1.24828E-12
 -1       311 4.30850E+01 6.39680E+00 7.74802E-01 3.34662E+00-9.26426E-13-7.50566E-13
 -1       312 4.38683E+01 7.46060E+00 7.13279E-01-1.68959E-01-9.71140E-13-2.78586E-13
 -1       313 4.36433E+01 6.09768E+00 8.77426E-01-4.24937E+00-8.83349E-13 3.16386E-13
 -1       314 3.59582E+01 4.16914E+00 5.26401E-01-5.99752E+00-9.84232E-13 6.45428E-13
 -1       315 2.63873E+01 2.00421E+00 2.32729E-01-7.84285E+00-1.17745E-12 1.10231E-12
 -1       316 1.66783E+01-1.37961E+00-1.73046E-01-7.06359E+00-1.38789E-12 1.12099E-12
 -1       317 8.28447E+00-5.25355E+00-5.46962E-01-5.32353E+00-1.13703E-12 1.13982E-12
 -1       318 2.24416E+00-8.80410E+00-8.39028E-01-3.24822E+00-7.81958E-13 1.18949E-12
 -1       319-8.73847E-01-1.09386E+01-9.87105E-01-1.22870E+00-2.66703E-13 1.03567E-12
 -1       320 2.10481E+01 2.96764E+00-1.99709E-02-1.29323E+00-4.01905E-13-2.47227E-13
 -1       321 2.21705E+01 2.13620E+00-1.83269E-02-1.65817E+00-4.47311E-13 3.37647E-14
 -1       322 1.92427E+01 3.78230E+00-1.42128E-02-4.25215E-01-2.18016E-13-5.35879E-13
 -1       323 1.84795E+01 4.06099E+00-1.04117E-02-1.00639E-01-1.38667E-13-5.97993E-13
 -1       324 1.78503E+01 4.29487E+00-7.76502E-03 1.12006E-01-5.55111E-14-6.09471E-13
 -1       325 1.74247E+01 4.47017E+00-6.10406E-03 2.17220E-01 2.67988E-14-6.26579E-13
 -1       326 1.72744E+01 4.55928E+00-5.52077E-03 2.45275E-01 1.10025E-13-6.31638E-13
 -1       327 1.74476E+01 4.53702E+00-6.18564E-03 2.48831E-01 1.69962E-13-6.17472E-13
 -1       328 1.79396E+01 4.39416E+00-8.26254E-03 2.89233E-01 2.41631E-13-5.69617E-13
 -1       329 1.87350E+01 4.12214E+00-1.18716E-02 4.21395E-01 3.19145E-13-4.62991E-13
 -1       330 1.97740E+01 3.70869E+00-1.70181E-02 6.74875E-01 4.14132E-13-3.48828E-13
 -1       331 2.10154E+01 3.09884E+00-2.13958E-02 1.03434E+00 4.66337E-13-1.70216E-13
 -1       332 2.23668E+01 2.14283E+00-2.85282E-02 1.33619E+00 4.86241E-13 1.89879E-13
 -1       333 2.31343E+01 1.16213E+00-2.06556E-02 1.08973E+00 4.30029E-13 5.17347E-13
 -1       334 2.28184E+01 5.11269E-01 9.30796E-03 4.67007E-02 3.43518E-13 3.89027E-13
 -1       335 2.22357E+01 5.88124E-01 1.14579E-02-4.06362E-01-3.60826E-13 9.41147E-14
 -1       336 2.20548E+01 2.08251E-01 5.26936E-03 6.97363E-02-2.68875E-13 7.39838E-14
 -1       337 2.20415E+01-3.84896E-02 1.28671E-03 2.15237E-01-1.75163E-13 7.70454E-14
 -1       338 2.21150E+01-2.41256E-01-1.82649E-03 1.15671E-01-1.06085E-13 6.04275E-14
 -1       339 2.21946E+01-4.02574E-01-3.29858E-03-1.86562E-01-8.46434E-14 1.24643E-14
 -1       340 2.21969E+01-4.74296E-01-3.08934E-03-6.28397E-01-8.09630E-14 2.26551E-14
 -1       341 2.20500E+01-3.83656E-01-1.45839E-03-1.08437E+00-1.07212E-13 8.14065E-14
 -1       342 2.17285E+01-8.68455E-02 9.98250E-04-1.35902E+00-1.09824E-13 7.18119E-14
 -1       343 2.13005E+01 3.57264E-01 2.72104E-03-1.24781E+00-1.63709E-13-2.14417E-14
 -1       344 2.09412E+01 7.58547E-01 4.37291E-03-6.72957E-01-1.42501E-13-9.38880E-14
 -1       345 2.08435E+01 8.91830E-01 4.69379E-03 2.05466E-01-1.86541E-13-2.24859E-13
 -1       346 2.10778E+01 6.73378E-01 4.24789E-03 1.03358E+00-1.45241E-13-2.68093E-13
 -1       347 2.15269E+01 2.35055E-01 2.34830E-03 1.49052E+00-2.01935E-13-3.73840E-13
 -1       348 2.19837E+01-1.88803E-01 1.06550E-04 1.47779E+00-1.52010E-13-3.66093E-13
 -1       349 2.22917E+01-4.41398E-01-2.43921E-03 1.11681E+00-1.12742E-13-3.12841E-13
 -1       350 2.24010E+01-4.99221E-01-3.99913E-03 6.13131E-01-4.81607E-14-3.51948E-13
 -1       351 2.23390E+01-4.24890E-01-4.15028E-03 1.35087E-01 6.12899E-14-3.24694E-13
 -1       352 2.21607E+01-2.96065E-01-3.38338E-03-2.29287E-01 2.56129E-14-4.68708E-13
 -1       353 2.19178E+01-1.67414E-01-2.27501E-03-4.58982E-01 7.65602E-14-3.96186E-13
 -1       354 2.16491E+01-6.50937E-02-1.20222E-03-5.70874E-01 2.04796E-13-3.62864E-13
 -1       355 2.13809E+01 4.73328E-03-3.61620E-04-5.95791E-01 1.22514E-13-2.67831E-13
 -1       356 2.11292E+01 4.59987E-02 2.07449E-04-5.64630E-01-7.52483E-14-3.79318E-13
 -1       357 2.09034E+01 6.59534E-02 5.35533E-04-5.02447E-01-8.51857E-14-3.77546E-13
 -1       358 2.07077E+01 7.17040E-02 6.82863E-04-4.27168E-01 3.66410E-14-3.17154E-13
 -1       359 2.05429E+01 6.89129E-02 7.09815E-04-3.50409E-01 4.94554E-14-1.16271E-13
 -1       360 2.04075E+01 6.16101E-02 6.65347E-04-2.78953E-01 1.41413E-13-7.25252E-14
 -1       361 2.02990E+01 5.24406E-02 5.84633E-04-2.16203E-01 1.95878E-13-1.20176E-13
 -1       362 2.02137E+01 4.30169E-02 4.90773E-04-1.63363E-01 1.57807E-14-1.67220E-13
 -1       363 2.01482E+01 3.42385E-02 3.97681E-04-1.20308E-01-1.85248E-13-3.04065E-13
 -1       364 2.00989E+01 2.65408E-02 3.12869E-04-8.61860E-02-1.44254E-13-6.03716E-14
 -1       365 2.00626E+01 2.00714E-02 2.39706E-04-5.98079E-02 4.11925E-14-9.24705E-15
 -1       366 2.00367E+01 1.48097E-02 1.79048E-04-3.98941E-02 8.02479E-14-1.35915E-13
 -1       367 2.00186E+01 1.06459E-02 1.30318E-04-2.52161E-02 1.80702E-13-7.82319E-14
 -1       368 2.00065E+01 7.43074E-03 9.22114E-05-1.46709E-02-8.66673E-14 5.41765E-14
 -1       369 1.99988E+01 5.00605E-03 6.31398E-05-7.31153E-03-2.18177E-13 2.68328E-13
 -1       370 1.99942E+01 3.22086E-03 4.14905E-05-2.35225E-03-5.87233E-15 1.76128E-13
 -1       371 1.99919E+01 1.93988E-03 2.57645E-05 8.40735E-04-1.17347E-13-9.80948E-14
 -1       372 1.99911E+01 1.04669E-03 1.46391E-05 2.76590E-03-1.16476E-13 2.35455E-14
 -1       373 1.99913E+01 4.43838E-04 6.98378E-06 3.80548E-03-1.69928E-13 1.10059E-13
 -1       374 1.99921E+01 5.11317E-05 1.85182E-06 4.24434E-03-6.56716E-15 2.47966E-13
 -1       375 1.99932E+01-1.97058E-04-1.52848E-06 4.28702E-03 4.36367E-13 2.37582E-13
 -1       376 1.99944E+01-3.54927E-04-3.78715E-06 4.07217E-03 5.33002E-13 6.91433E-14
 -1       377 1.99957E+01-4.68395E-04-5.42513E-06 3.68432E-03 2.82361E-13 5.87352E-14
 -1       378 1.99969E+01-5.76821E-04-6.59771E-06 3.16413E-03 7.81007E-14 1.41928E-13
 -1       379 1.99979E+01-7.14236E-04-8.99946E-06 2.52113E-03 1.10058E-13-1.96054E-14
 -1       380 1.99987E+01-8.15832E-04-8.59936E-06 1.80772E-03 2.62982E-13-1.54845E-13
 -1       381 2.27891E+01 2.59677E-01 9.90470E-03-5.39303E-01 2.41573E-13 3.03140E-13
 -1       382 2.30279E+01 9.84133E-02 3.88942E-03-8.38088E-01 1.71155E-13 2.13787E-13
 -1       383 2.34413E+01-8.19635E-02-1.44989E-03-8.91304E-01 1.02828E-13 1.34008E-13
 -1       384 2.39169E+01-3.15570E-01-5.00976E-03-6.58356E-01-6.32198E-15 1.13240E-13
 -1       385 2.43275E+01-5.77400E-01-6.66024E-03-8.66876E-02 2.44076E-14 1.01512E-13
 -1       386 2.45165E+01-7.45194E-01-6.54688E-03 7.91979E-01 8.95382E-14 2.13641E-13
 -1       387 2.43201E+01-6.00715E-01-7.23381E-03 1.72633E+00 1.50090E-13 2.37109E-13
 -1       388 2.36913E+01 1.84071E-02-8.54456E-03 2.18085E+00 1.95015E-13 2.96310E-13
 -1       389 2.29002E+01 8.90371E-01-1.28886E-02 1.59623E+00 2.53005E-13 1.61469E-13
 -1       390 2.25226E+01 1.38159E+00-1.38392E-02 7.37853E-02 1.95866E-13-1.13319E-13
 -1       391 2.29208E+01 1.02416E+00-1.00300E-02-1.58381E+00 3.64498E-13-3.55084E-13
 -1       392 2.37838E+01 1.58442E-01-5.10425E-03-2.32918E+00 1.20843E-13-4.60789E-13
 -1       393 2.45327E+01-5.35536E-01-3.94808E-03-1.99734E+00 5.40687E-14-5.34741E-13
 -1       394 2.48321E+01-7.60320E-01-7.12543E-03-1.07635E+00 1.46672E-13-4.95301E-13
 -1       395 2.47033E+01-6.37847E-01-9.14341E-03-1.33377E-01 9.20162E-14-5.60444E-13
 -1       396 2.42939E+01-3.92457E-01-8.14845E-03 5.40077E-01 5.55849E-15-3.37134E-13
 -1       397 2.37485E+01-1.71171E-01-5.40842E-03 8.99644E-01-1.91800E-13-2.39712E-13
 -1       398 2.31645E+01-2.23175E-02-2.52748E-03 1.01647E+00-2.11496E-13-3.71243E-13
 -1       399 2.26005E+01 5.88736E-02-3.67535E-04 9.82913E-01 6.53641E-14-2.11531E-13
 -1       400 2.20886E+01 9.31848E-02 9.29766E-04 8.73097E-01 3.69969E-13-2.19831E-13
 -1       401 2.16435E+01 1.00095E-01 1.52918E-03 7.35442E-01 8.28129E-14-1.47964E-13
 -1       402 2.12690E+01 9.31764E-02 1.67844E-03 5.97383E-01-2.83725E-13-1.20032E-13
 -1       403 2.09621E+01 8.05657E-02 1.58345E-03 4.72356E-01-2.46264E-13-1.04187E-13
 -1       404 2.07161E+01 6.66391E-02 1.38015E-03 3.65505E-01-7.81905E-14-2.76782E-13
 -1       405 2.05226E+01 5.35067E-02 1.14663E-03 2.77523E-01 1.27648E-13-2.08351E-13
 -1       406 2.03731E+01 4.20285E-02 9.22488E-04 2.06959E-01 2.04976E-13-1.10900E-13
 -1       407 2.02596E+01 3.24244E-02 7.24832E-04 1.51511E-01 1.08277E-13 1.29556E-14
 -1       408 2.01750E+01 2.46121E-02 5.58751E-04 1.08691E-01 6.64077E-14 1.91178E-13
 -1       409 2.01130E+01 1.83858E-02 4.23462E-04 7.61541E-02-2.32729E-13 7.57449E-14
 -1       410 2.00686E+01 1.35054E-02 3.15664E-04 5.18252E-02 4.23166E-14-3.69541E-14
 -1       411 2.00376E+01 9.73686E-03 2.31265E-04 3.39417E-02 2.52471E-13-6.88763E-14
 -1       412 2.00166E+01 6.86911E-03 1.66211E-04 2.10427E-02 3.45150E-14-5.52354E-14
 -1       413 2.00029E+01 4.71958E-03 1.16822E-04 1.19413E-02-4.18774E-14 1.00807E-13
 -1       414 1.99945E+01 3.13483E-03 7.99042E-05 5.68876E-03-6.40958E-14 2.68904E-13
 -1       415 1.99899E+01 1.98829E-03 5.27688E-05 1.53735E-03-3.92418E-13 1.08365E-13
 -1       416 1.99879E+01 1.17698E-03 3.31950E-05-1.09372E-03-1.33281E-13 1.11256E-13
 -1       417 1.99875E+01 6.18014E-04 1.93731E-05-2.64883E-03-2.59314E-13 4.00365E-13
 -1       418 1.99882E+01 2.45198E-04 9.83927E-06-3.46205E-03 4.38173E-14 5.15277E-13
 -1       419 1.99895E+01 5.86584E-06 3.41377E-06-3.77884E-03 1.93853E-13 5.02761E-13
 -1       420 1.99911E+01-1.42052E-04-8.58915E-07-3.77374E-03 4.89151E-14 2.84732E-13
 -1       421 1.99929E+01-2.32850E-04-3.75749E-06-3.56425E-03 1.78827E-13-6.83320E-15
 -1       422 1.99945E+01-2.95890E-04-5.80811E-06-3.22097E-03 4.41333E-13 1.57704E-13
 -1       423 1.99961E+01-3.54665E-04-6.75130E-06-2.77521E-03 1.81196E-13 3.73960E-14
 -1       424 1.99974E+01-4.32751E-04-6.91394E-06-2.22856E-03-6.84117E-14 2.33388E-13
 -1       425 1.99985E+01-5.40348E-04-6.55517E-06-1.56697E-03-4.37439E-14 2.70289E-13
 -1       426 1.99991E+01-6.47396E-04-5.53039E-06-1.13499E-03-2.15875E-13 2.10333E-13
 -1       427 1.99998E+01-3.00788E-03-5.97057E-07-2.43742E-03 2.26376E-13 3.49833E-13
 -1       428 1.99994E+01-2.03446E-03-5.32383E-06-2.26552E-03 8.77897E-14 1.66602E-13
 -1       429 1.99992E+01-1.31307E-03-7.95062E-06-1.78380E-03-1.40706E-13 2.80707E-13
 -1       430 2.00001E+01-3.91389E-03 2.37051E-06-2.27084E-03 1.90113E-14-3.92969E-13
 -1       431 2.00003E+01-4.69604E-03 4.98430E-06-1.82173E-03 1.05717E-14-3.08555E-13
 -1       432 2.00005E+01-5.26029E-03 6.72249E-06-1.16907E-03 1.69348E-13-7.36803E-14
 -1       433 2.00006E+01-5.55341E-03 7.59522E-06-3.95382E-04-1.33802E-13 6.60121E-14
 -1       434 2.00006E+01-5.54840E-03 7.58203E-06 4.17267E-04-1.42549E-13 1.51559E-13
 -1       435 2.00005E+01-5.24597E-03 6.68833E-06 1.18741E-03-1.14376E-13 1.13437E-13
 -1       436 2.00003E+01-4.68671E-03 4.87529E-06 1.82452E-03-7.82060E-14-6.92580E-14
 -1       437 2.00001E+01-3.90326E-03 2.34246E-06 2.26993E-03 8.85618E-14 3.45687E-13
 -1       438 1.99998E+01-2.98245E-03-4.74190E-07 2.43425E-03 1.11727E-13-5.13029E-13
 -1       439 1.99994E+01-2.01218E-03-5.53175E-06 2.27067E-03 7.78640E-14-7.77544E-13
 -1       440 1.09514E+01-5.60760E+00-1.50191E-02 6.78057E+00-9.44106E-14 7.54632E-13
 -1       441 1.03580E+00-4.56729E+00-7.10635E-02-3.38274E-01-4.38965E-14 1.04045E-12
 -1       442 3.94037E+00-4.52531E+00-1.29210E-02 4.22036E+00-2.00881E-13 9.49740E-13
 -1       443 2.06739E+01-5.68440E+00-6.55702E-03 6.15571E+00 1.30992E-13 2.82725E-13
 -1       444 2.84552E+01-3.07868E+00 7.15013E-03 3.49843E+00 5.31422E-13 1.02793E-13
 -1       445 2.01070E+01 3.43655E+00-1.74989E-02-8.51319E-01-3.22168E-13-4.36653E-13
 -1       446 3.45276E+01 5.59469E+00-3.50392E-02-1.13156E+00 1.10144E-12-3.22353E-13
 -1       447 3.52395E+01 8.01684E+00 5.12969E-03-6.24108E-02 1.16515E-12-2.36494E-13
 -1       448 3.50733E+01 6.59942E+00-2.91414E-03 7.17926E-01 1.00869E-12-1.63078E-13
 -1       449 3.38458E+01 2.06696E+00-1.34571E-02-1.50875E-01 7.13325E-13-1.68920E-13
 -1       450 2.98177E+01-2.46703E+00-1.65881E-02-2.74598E+00 4.61603E-13-3.23103E-13
 -1       451 2.26299E+01-4.89051E+00-3.22323E-02-5.89598E+00 3.42990E-13-7.23477E-13
 -1       452 1.48140E+01-5.75268E+00-3.20466E-02-7.03385E+00 9.35918E-14-8.91432E-13
 -1       453 5.66108E+00-4.57243E+00-2.45268E-03-5.24580E+00 2.02616E-15-1.01238E-12
 -1       454 1.31792E+00-4.32896E+00-7.96404E-02-1.01164E+00-2.25132E-14-1.16096E-12
 -1       455 2.26843E+00-4.31181E+00-6.34045E-02 3.09393E+00-2.84633E-14-1.15649E-12
 -1       456 9.48578E+00-4.85796E+00 3.94952E-02 6.93513E+00-9.15934E-16-8.68229E-13
 -1       457 1.63893E+01-5.52685E+00-7.87633E-03 7.23961E+00-1.43496E-13-5.44932E-13
 -1       458 2.46493E+01-4.11236E+00-4.92361E-03 5.29517E+00-5.16628E-13-2.51757E-13
 -1       459 3.16383E+01 5.42126E-01 1.17965E-02 1.98025E+00-7.13988E-13-2.41696E-13
 -1       460 3.45185E+01 4.41668E+00 3.95694E-02 4.25843E-01-8.26839E-13-3.05436E-13
 -1       461 3.41244E+01 7.68911E+00-5.18221E-02-4.09445E-01-1.01250E-12-1.97287E-13
 -1       462 3.44283E+01 7.33361E+00-2.85521E-02 5.13894E-01-9.75484E-13-4.25493E-13
 -1       463 3.38276E+01 4.36018E+00 3.30423E-03 2.14925E-01-7.92172E-13-4.92328E-13
 -1       464 3.08144E+01-2.35445E-01 2.97810E-02-2.81543E+00-5.86441E-13-3.31679E-14
 -1       465 2.49431E+01-3.43087E+00 1.70738E-03-5.34493E+00-3.60018E-13 2.00145E-13
 -1       466 1.71349E+01-5.26701E+00-4.91391E-02-6.98574E+00-2.20018E-13 4.04364E-13
 -1       467 9.20092E+00-5.63355E+00-8.40492E-02-6.76129E+00-3.26683E-14 7.96176E-13
 -1       468 3.32793E+00-4.96734E+00-7.98158E-02-4.35316E+00-5.99659E-14 1.12819E-12
 -1       469 3.29244E+01 5.91407E-01-3.26858E-03 7.03044E-01 7.12250E-13-2.58404E-14
 -1       470 1.21774E+01-4.41896E+00 9.92052E-02-6.74403E+00-2.41571E-13-7.92338E-13
 -1       471 2.85401E+01-3.09083E+00-4.13472E-02 2.11198E+00-3.67035E-13 1.07900E-13
 -1       472 2.21253E+01 9.39436E-01 4.13465E-03-2.67819E-01 3.41478E-13 4.50141E-14
 -1       473 1.83121E+01 3.49605E+00-3.44166E-03 2.84259E-01-6.08155E-14-5.44030E-13
 -1       474 1.91174E+01 3.10606E+00-4.62301E-03 5.98010E-02-1.45897E-13-5.08871E-13
 -1       475 1.72880E+01 4.03372E+00-2.09497E-03 3.38830E-01 6.56486E-14-5.69709E-13
 -1       476 1.72652E+01 4.08771E+00-2.05551E-03 2.18938E-01 1.33310E-13-5.82610E-13
 -1       477 1.76280E+01 3.95742E+00-2.64771E-03 9.56904E-02 1.96860E-13-5.66105E-13
 -1       478 1.83636E+01 3.63832E+00-3.87970E-03 3.83577E-02 2.70304E-13-4.67240E-13
 -1       479 1.93905E+01 3.14715E+00-5.39278E-03 9.12966E-02 3.32353E-13-3.59434E-13
 -1       480 2.06112E+01 2.48550E+00-5.33236E-03 2.38143E-01 3.86980E-13-2.41153E-13
 -1       481 2.59994E+01-5.37807E+00 4.99367E-03 3.27098E+00-1.08386E-13-1.35274E-13
 -1       482 2.21796E+01 5.08662E-01 4.42944E-03-8.81553E-01 2.49876E-13-6.14634E-16
 -1       483 2.17260E+01 8.06979E-01 1.67349E-03-1.69223E-01-3.04136E-13-9.73099E-14
 -1       484 3.04281E+01 1.47939E+00-1.47459E-01-2.45555E+00 6.67175E-13-6.69985E-13
 -1       485 2.18003E+01 2.43811E-01 1.27780E-03 2.13677E-01-2.09208E-13-6.47282E-14
 -1       486 2.19616E+01-2.06354E-01-5.06360E-04 3.13920E-01-1.49665E-13-6.02948E-14
 -1       487 2.22185E+01-5.94912E-01-1.60219E-03 1.44674E-01-9.34920E-14-5.21646E-14
 -1       488 2.25204E+01-8.76507E-01-1.74052E-03-2.70774E-01-6.30108E-14-4.45379E-14
 -1       489 2.27681E+01-9.22497E-01-5.28199E-04-8.56473E-01-5.91174E-14-2.76434E-14
 -1       490 2.28330E+01-5.81187E-01 2.54959E-04-1.42789E+00-1.13613E-13-3.84892E-15
 -1       491 2.26359E+01 1.84990E-01-8.79663E-04-1.68470E+00-2.07226E-13-4.41993E-14
 -1       492 2.22601E+01 1.13713E+00-4.34626E-03-1.32863E+00-2.21956E-13-5.99517E-14
 -1       493 2.19843E+01 1.77594E+00-1.24371E-03-3.47885E-01-2.20428E-13-8.20260E-14
 -1       494 2.20437E+01 1.66592E+00-2.79673E-03 8.47657E-01-2.49342E-13-1.78933E-13
 -1       495 2.23909E+01 8.92872E-01-3.53052E-03 1.68917E+00-2.02171E-13-2.99938E-13
 -1       496 2.27506E+01-6.05504E-02-2.36534E-04 1.85300E+00-1.86000E-13-2.58924E-13
 -1       497 2.28803E+01-7.44787E-01-5.94847E-04 1.45828E+00-1.23509E-13-1.61898E-13
 -1       498 2.27401E+01-1.00484E+00-1.95214E-03 8.12776E-01-7.53644E-14-1.49483E-13
 -1       499 2.24244E+01-9.33587E-01-2.29988E-03 1.80565E-01-1.20118E-14-1.53367E-13
 -1       500 2.20464E+01-6.98610E-01-1.95598E-03-3.05530E-01-6.99483E-14-1.76574E-13
 -1       501 2.16807E+01-4.31584E-01-1.37987E-03-6.15369E-01 5.70102E-14-2.45489E-13
 -1       502 2.13603E+01-2.03390E-01-7.82251E-04-7.71439E-01 2.07086E-13-2.26468E-13
 -1       503 2.10920E+01-3.78848E-02-3.21649E-04-8.13465E-01 1.89642E-13-2.68566E-13
 -1       504 2.08712E+01 6.70277E-02 1.47420E-09-7.80523E-01-4.45880E-14-2.88468E-13
 -1       505 2.06905E+01 1.23830E-01 1.91978E-04-7.04325E-01-1.46928E-14-2.42171E-13
 -1       506 2.05427E+01 1.46759E-01 2.86596E-04-6.07939E-01-6.06313E-15-1.75452E-13
 -1       507 2.04220E+01 1.48042E-01 3.15717E-04-5.06806E-01 1.65852E-13-2.08932E-13
 -1       508 2.03241E+01 1.36879E-01 3.05019E-04-4.10418E-01 1.78865E-13-9.15146E-15
 -1       509 2.02453E+01 1.19623E-01 2.73040E-04-3.23961E-01 1.73822E-13 5.81098E-14
 -1       510 2.01825E+01 1.00359E-01 2.32138E-04-2.49692E-01 1.00705E-13 1.10866E-13
 -1       511 2.01332E+01 8.15261E-02 1.89936E-04-1.87997E-01-1.45289E-13 1.91708E-13
 -1       512 2.00950E+01 6.44421E-02 1.50650E-04-1.38157E-01-8.71690E-14 1.95614E-13
 -1       513 2.00659E+01 4.96971E-02 1.16257E-04-9.88686E-02-8.87054E-14 1.62856E-13
 -1       514 2.00442E+01 3.74309E-02 8.74272E-05-6.85956E-02-1.39942E-14-3.17100E-14
 -1       515 2.00282E+01 2.75238E-02 6.40608E-05-4.57820E-02 1.28976E-13-9.86240E-14
 -1       516 2.00168E+01 1.97230E-02 4.56557E-05-2.89788E-02 5.00365E-14-1.03155E-13
 -1       517 2.00088E+01 1.37231E-02 3.15242E-05-1.69050E-02 7.05110E-14 2.01461E-13
 -1       518 2.00034E+01 9.21311E-03 2.09356E-05-8.47073E-03-1.56611E-13 2.50223E-13
 -1       519 2.00000E+01 5.90191E-03 1.31973E-05-2.77659E-03-2.65639E-13 1.34647E-13
 -1       520 1.99979E+01 3.53151E-03 7.69069E-06 9.00406E-04-1.33314E-13 2.72976E-13
 -1       521 1.99969E+01 1.88110E-03 3.88209E-06 3.12723E-03-7.84898E-14 1.92541E-13
 -1       522 1.99965E+01 7.66278E-04 1.31774E-06 4.33746E-03 1.16356E-13 3.75918E-13
 -1       523 1.99965E+01 3.52604E-05-3.73262E-07 4.85315E-03 7.45002E-14 3.21582E-13
 -1       524 1.99969E+01-4.36405E-04-1.44034E-06 4.90449E-03 2.69420E-13 1.47989E-13
 -1       525 1.99973E+01-7.51089E-04-2.11857E-06 4.64719E-03 3.45475E-13 2.38524E-13
 -1       526 1.99978E+01-9.93823E-04-2.45971E-06 4.17653E-03 3.09679E-13 3.67924E-14
 -1       527 1.99984E+01-1.23205E-03-3.56904E-06 3.54118E-03-1.22996E-13-1.35389E-13
 -1       528 2.28463E+01-3.67540E-01-2.55483E-03-1.25136E+00 8.43397E-14-3.16923E-15
 -1       529 2.34958E+01-9.56258E-01-4.53953E-03-9.08601E-01-3.25324E-14-2.30373E-14
 -1       530 2.43175E+01-1.52870E+00-6.14880E-03-1.08209E-01-1.22788E-14 6.27150E-14
 -1       531 2.51195E+01-1.69956E+00-1.05360E-02 1.09701E+00-8.12978E-15 1.92936E-13
 -1       532 2.55662E+01-9.12127E-01-2.11655E-02 2.30725E+00 1.16860E-13 3.43671E-13
 -1       533 2.53829E+01 9.31420E-01-2.50585E-02 2.63257E+00 3.17029E-13 3.98851E-13
 -1       534 2.44375E+01 2.88869E+00-1.44039E-01 1.28458E+00 5.12680E-13 2.53104E-13
 -1       535 2.48931E+01 2.82317E+00-3.94667E-02-1.17335E+00 5.24552E-13-1.16036E-13
 -1       536 2.52052E+01 1.19123E+00-4.61945E-02-2.71877E+00 3.83391E-13-3.93741E-13
 -1       537 2.56256E+01-7.38606E-01-2.01209E-02-2.65936E+00 1.27613E-13-5.49210E-13
 -1       538 2.53283E+01-1.69742E+00-9.05974E-03-1.45375E+00-1.10992E-14-4.73582E-13
 -1       539 2.45430E+01-1.63825E+00-7.10600E-03-1.59958E-01 8.69060E-14-3.63384E-13
 -1       540 2.36828E+01-1.12309E+00-5.74682E-03 7.70658E-01-7.35241E-14-1.66716E-13
 -1       541 2.29373E+01-5.73977E-01-4.01039E-03 1.27816E+00-1.32038E-13-1.88000E-13
 -1       542 2.23469E+01-1.66087E-01-2.04072E-03 1.45962E+00-1.92154E-13-1.60297E-13
 -1       543 2.18853E+01 7.94144E-02-4.97739E-04 1.43509E+00-2.56767E-15-1.77952E-13
 -1       544 2.15169E+01 2.00250E-01 5.00904E-04 1.29993E+00 8.72286E-14-2.27889E-13
 -1       545 2.12155E+01 2.41653E-01 9.89799E-04 1.11788E+00 1.35433E-13 1.92940E-13
 -1       546 2.09654E+01 2.38850E-01 1.13496E-03 9.27180E-01-7.60884E-14 4.40673E-13
 -1       547 2.07574E+01 2.14814E-01 1.09061E-03 7.48411E-01-8.29797E-14 1.61784E-13
 -1       548 2.05858E+01 1.82955E-01 9.59548E-04 5.91035E-01-9.62559E-14-1.17217E-14
 -1       549 2.04459E+01 1.50400E-01 8.01271E-04 4.58001E-01 1.28566E-14-1.90785E-13
 -1       550 2.03335E+01 1.20541E-01 6.46447E-04 3.48741E-01 4.57914E-15-2.28063E-13
 -1       551 2.02447E+01 9.47067E-02 5.08668E-04 2.60981E-01 2.29190E-14 1.42195E-14
 -1       552 2.01756E+01 7.31461E-02 3.92382E-04 1.91787E-01-9.54690E-14 7.96727E-14
 -1       553 2.01228E+01 5.55962E-02 2.97489E-04 1.38132E-01-1.31422E-13 2.25547E-13
 -1       554 2.00831E+01 4.15830E-02 2.21840E-04 9.71872E-02-7.28558E-14 5.22080E-14
 -1       555 2.00540E+01 3.05760E-02 1.62593E-04 6.64425E-02 2.22868E-13 2.61834E-13
 -1       556 2.00330E+01 2.20605E-02 1.16902E-04 4.37496E-02 7.40667E-14 3.71419E-13
 -1       557 2.00182E+01 1.55701E-02 8.22056E-05 2.73142E-02-2.68532E-14 3.68765E-13
 -1       558 2.00082E+01 1.06993E-02 5.62648E-05 1.56682E-02-1.32730E-13 4.09945E-13
 -1       559 2.00017E+01 7.10565E-03 3.71910E-05 7.62969E-03-9.92163E-14 2.86623E-13
 -1       560 1.99977E+01 4.50462E-03 2.34285E-05 2.26233E-03-3.82176E-13 3.18559E-13
 -1       561 1.99955E+01 2.66343E-03 1.37123E-05-1.16473E-03-2.33845E-13 5.14952E-13
 -1       562 1.99945E+01 1.39364E-03 7.02374E-06-3.21234E-03-1.14433E-13 7.37424E-14
 -1       563 1.99943E+01 5.43946E-04 2.54605E-06-4.30266E-03 6.76845E-14 1.98526E-13
 -1       564 1.99947E+01-6.81738E-06-3.73931E-07-4.74572E-03 1.15646E-13 3.47313E-13
 -1       565 1.99953E+01-3.56085E-04-2.26026E-06-4.76122E-03 4.22946E-13 2.02848E-13
 -1       566 1.99961E+01-5.82851E-04-3.65805E-06-4.49678E-03 2.14223E-13 1.23074E-13
 -1       567 1.99969E+01-7.57109E-04-6.05351E-06-4.04842E-03 1.81170E-13 6.04878E-13
 -1       568 1.99977E+01-9.33569E-04-7.65559E-06-3.45457E-03-3.51964E-14 7.21642E-13
 -1       569 1.99985E+01-1.12889E-03-5.64625E-06-2.71510E-03 8.96146E-14 6.58635E-13
 -1       570 2.00007E+01-3.57897E-03 1.72749E-06-2.67545E-03 1.75746E-13-4.74345E-13
 -1       571 2.00011E+01-4.07854E-03 2.81388E-06-1.94175E-03 3.87289E-13-1.97387E-14
 -1       572 1.99995E+01-2.16449E-03-1.82525E-06-3.19889E-03 2.45603E-13 2.84132E-13
 -1       573 2.00002E+01-2.92053E-03-1.34166E-06-3.10852E-03 1.28818E-13-6.04652E-14
 -1       574 2.00013E+01-4.38983E-03 3.30720E-06-1.01172E-03 2.53524E-13-2.66182E-13
 -1       575 2.00014E+01-4.49215E-03 3.48781E-06 1.55549E-05-3.87386E-14 2.82305E-15
 -1       576 2.00013E+01-4.37970E-03 3.24738E-06 1.04040E-03-3.46783E-14 3.97479E-13
 -1       577 2.00011E+01-4.06713E-03 2.73273E-06 1.94894E-03 3.70791E-14 3.89686E-14
 -1       578 2.00007E+01-3.56606E-03 1.54816E-06 2.67718E-03-7.17270E-15 9.17702E-14
 -1       579 2.00001E+01-2.89873E-03 1.71612E-07 3.10560E-03-2.69547E-13-6.45695E-14
 -1       580 1.99995E+01-2.13442E-03-2.44289E-06 3.16999E-03-1.77442E-13-8.15268E-13
 -1       581 4.85689E+00-1.63800E+00 1.61257E-01 1.91504E+00-1.75110E-13 8.03566E-13
 -1       582 1.87318E+01-5.28914E+00 9.60925E-02 6.11331E+00-4.22905E-13 1.47521E-13
 -1       583 2.24108E+01 1.12095E-01 6.31660E-04-1.21747E+00 1.74071E-13-2.66914E-14
 -1       584 5.19240E+00-1.58434E+00 1.77322E-01-2.71025E+00 9.20757E-14 9.26870E-13
 -1       585 1.03014E+01-3.14644E+00 1.49891E-01 5.87591E+00-4.24764E-13 7.53106E-13
 -1       586 2.15133E+01 1.65218E+00-6.94266E-03-7.15539E-01-3.83022E-13-1.67907E-13
 -1       587 1.02181E+01-2.98952E+00 1.67627E-01-6.15809E+00 4.17305E-13 6.33139E-13
 -1       588 2.99397E+01 4.92797E+00-1.63793E-01-1.72462E+00-7.51191E-13 5.99104E-14
 -1       589 2.24779E+01-5.33101E+00 5.21555E-02 5.49123E+00 1.47819E-13 7.71952E-16
 -1       590 2.67029E+01-5.09502E+00-3.04590E-02-2.99454E+00-3.58255E-14 3.98293E-15
 -1       591 1.76672E+01 3.82011E+00-2.58714E-03 3.76489E-01 9.32404E-15-5.68004E-13
 -1       592 2.96828E+01 6.21167E+00-1.52757E-01-1.43245E+00 1.00880E-12-3.06821E-13
 -1       593 3.01557E+01-1.66555E+00-1.09815E-01 9.36564E-01 2.60692E-13 1.88086E-13
 -1       594 2.98113E+01 5.91660E+00-1.78304E-01 1.01964E+00 8.75681E-13 4.57100E-14
 -1       595 5.95774E+00-1.65332E+00 1.77190E-01-3.26745E+00-9.61141E-14-9.90152E-13
 -1       596 3.01812E+01 3.10938E+00-1.57667E-01 2.42864E+00 6.09034E-13 1.83666E-13
 -1       597 2.15607E+01-5.60258E+00 4.48814E-02-5.55020E+00-2.39135E-13-3.92495E-13
 -1       598 4.20321E+00-1.44829E+00 1.52786E-01 1.07251E+00 8.26023E-14-1.11111E-12
 -1       599 7.90960E+00-2.35097E+00 1.45098E-01 5.35595E+00 2.89206E-13-9.49102E-13
 -1       600 1.55115E+01-4.49877E+00 1.12154E-01 7.03067E+00 3.13555E-13-4.34344E-13
 -1       601 2.85143E+01 6.93927E+00-2.05454E-01 3.88423E-01-7.91284E-13-2.12720E-13
 -1       602 3.05891E+01 1.45033E+00-1.18090E-01-9.49470E-01-5.06144E-13 1.09912E-14
 -1       603 2.78727E+01-3.66062E+00-4.51990E-02-1.84515E+00-5.36446E-14-3.78926E-13
 -1       604 2.97332E+01 4.91232E+00-1.62487E-01 1.83370E+00-6.94139E-13-4.81337E-13
 -1       605 2.99952E+01 3.32882E-01-1.11667E-01 1.06434E+00-4.88696E-13-7.03909E-13
 -1       606 2.30541E+01-5.43081E+00 2.49292E-02-5.26896E+00 1.76831E-13-1.57371E-13
 -1       607 1.58513E+01-5.18507E+00 7.64713E-02-7.07701E+00 3.62071E-13 2.23117E-13
 -1       608 2.96372E+01-2.81422E+00-8.24543E-02-4.00330E-02 2.67522E-13-3.85587E-13
 -1       609 2.22670E+01 1.36938E+00-1.19246E-03 4.40178E-01 4.20879E-13 9.95549E-14
 -1       610 1.99905E+01 2.66439E+00-8.00369E-03-2.47649E-01-2.45918E-13-4.16786E-13
 -1       611 1.83894E+01-4.67773E+00 8.30410E-02-6.09521E+00-3.73888E-13-5.25743E-13
 -1       612 2.66574E+01 5.63671E+00-1.38993E-01-1.03269E+00-7.13117E-13-1.20973E-13
 -1       613 2.58622E+01-4.70987E+00-1.95175E-02 2.97104E+00 5.15768E-14 2.44620E-13
 -1       614 1.02434E+01-2.06579E+00 1.56574E-01-5.18768E+00-2.06262E-13-8.06820E-13
 -1       615 2.88762E+01-1.61465E+00-7.16711E-02-3.53186E-01-1.99913E-13 1.73049E-13
 -1       616 1.99987E+01-1.40172E-03-4.44053E-06 3.01835E-03-9.51060E-14-1.82931E-13
 -1       617 2.99018E+01 3.18506E+00-1.40632E-01-2.31653E+00 8.00228E-13-5.88168E-13
 -1       618 1.72025E+01 3.54403E+00-4.78241E-04 2.11058E-02 1.40377E-13-5.22632E-13
 -1       619 1.70422E+01 3.58033E+00-7.32752E-04 3.49161E-01 9.68771E-14-5.45344E-13
 -1       620 1.88337E+01 2.76414E+00-1.51729E-03-4.23252E-01 2.47596E-13-3.73746E-13
 -1       621 2.00563E+01 2.12503E+00-1.19265E-03-4.44279E-01 2.98657E-13-2.73714E-13
 -1       622 1.99994E+01-1.78264E-03-4.83106E-08-3.95247E-03 3.46797E-14 3.54330E-13
 -1       623 2.11622E+01 1.27132E+00 2.29269E-03-6.62685E-01 3.02907E-13-1.57551E-13
 -1       624 2.77238E+01 8.40010E-01-1.49402E-01-3.01327E+00 4.98730E-13-5.66425E-13
 -1       625 2.83669E+01-2.10851E+00-6.72415E-02-1.71868E+00 1.93094E-13-7.25208E-13
 -1       626 2.14908E+01 1.38388E-01 3.43097E-05 5.05691E-01-1.65011E-13-1.74704E-13
 -1       627 2.18794E+01-5.17200E-01-6.70267E-04 5.75351E-01-1.08291E-13-1.43815E-13
 -1       628 2.24170E+01-1.10354E+00-1.47429E-03 3.56635E-01-3.99398E-14-8.00183E-14
 -1       629 2.30561E+01-1.49187E+00-9.36100E-04-1.69941E-01-5.90099E-14-3.26973E-14
 -1       630 2.36401E+01-1.41888E+00 1.53596E-03-9.39017E-01-8.90421E-14-2.97397E-15
 -1       631 2.39178E+01-6.11211E-01-5.29164E-03-1.68999E+00-1.37511E-13 3.99089E-14
 -1       632 2.37318E+01 9.08201E-01-6.89290E-03-1.91390E+00-2.38616E-13 1.04202E-13
 -1       633 2.32737E+01 2.49915E+00-2.49010E-02-1.21293E+00-2.74878E-13 1.81261E-14
 -1       634 2.31782E+01 2.95413E+00-2.13562E-02 3.27886E-01-3.84826E-13-1.17138E-13
 -1       635 2.33940E+01 2.16440E+00-1.71832E-02 1.67625E+00-2.91047E-13-1.19539E-13
 -1       636 2.38016E+01 4.51008E-01-1.10569E-02 2.12362E+00-1.54789E-13-1.61426E-13
 -1       637 2.38391E+01-9.49015E-01-3.82346E-03 1.68501E+00-1.26414E-13-9.27059E-14
 -1       638 2.34273E+01-1.59018E+00-2.67108E-03 8.45657E-01-8.36460E-14-1.25735E-13
 -1       639 2.27719E+01-1.58455E+00-1.65729E-03 4.53677E-02-5.98722E-14-1.37813E-13
 -1       640 2.20919E+01-1.23889E+00-1.02706E-03-5.28721E-01-6.79299E-14-9.20679E-14
 -1       641 2.15140E+01-8.02751E-01-6.63560E-04-8.64068E-01-8.57680E-15-6.65120E-14
 -1       642 2.10753E+01-4.13697E-01-3.02250E-04-1.01259E+00 1.06216E-13 2.87751E-14
 -1       643 2.07626E+01-1.21555E-01-1.26079E-04-1.03408E+00 1.05314E-13-8.60245E-14
 -1       644 2.05471E+01 7.13110E-02 7.72549E-07-9.77148E-01 4.74746E-14-2.10681E-13
 -1       645 2.03997E+01 1.82435E-01 6.84513E-05-8.77131E-01 5.55355E-14 1.36979E-14
 -1       646 2.02979E+01 2.34018E-01 9.84644E-05-7.58055E-01-7.64813E-14-2.65090E-14
 -1       647 2.02259E+01 2.46012E-01 1.05955E-04-6.35554E-01-1.75176E-14-1.28932E-13
 -1       648 2.01734E+01 2.33986E-01 1.00782E-04-5.19256E-01 2.14488E-13-2.69737E-13
 -1       649 2.01339E+01 2.09094E-01 8.91584E-05-4.14537E-01 3.32330E-13-3.13322E-13
 -1       650 2.01035E+01 1.78807E-01 7.50595E-05-3.23842E-01 1.69117E-13-1.53487E-13
 -1       651 2.00797E+01 1.47803E-01 6.09614E-05-2.47683E-01-6.83925E-14-5.64710E-16
 -1       652 2.00609E+01 1.18783E-01 4.82172E-05-1.85384E-01 8.59620E-15 2.45689E-13
 -1       653 2.00460E+01 9.31223E-02 3.72381E-05-1.35592E-01-2.13961E-13 3.48127E-13
 -1       654 2.00343E+01 7.13388E-02 2.80640E-05-9.66405E-02-2.27337E-13 2.48649E-13
 -1       655 2.00251E+01 5.34231E-02 2.05735E-05-6.67925E-02-5.28373E-14 2.03964E-13
 -1       656 2.00180E+01 3.90733E-02 1.46499E-05-4.43936E-02-8.43242E-15 2.22576E-14
 -1       657 2.00126E+01 2.78486E-02 1.01060E-05-2.79509E-02 1.26174E-13 6.87761E-14
 -1       658 2.00085E+01 1.92636E-02 6.70604E-06-1.61690E-02-2.23626E-14 1.87453E-13
 -1       659 2.00055E+01 1.28426E-02 4.22461E-06-7.95882E-03-2.22495E-13 4.05059E-13
 -1       660 2.00034E+01 8.15035E-03 2.46102E-06-2.42946E-03-8.84688E-14 3.59138E-13
 -1       661 2.00018E+01 4.80571E-03 1.24294E-06 1.13067E-03-2.20605E-13 5.13685E-13
 -1       662 2.00008E+01 2.48512E-03 4.19079E-07 3.27661E-03 9.18156E-14 4.15295E-13
 -1       663 2.00001E+01 9.19640E-04-1.63906E-07 4.43074E-03-5.19882E-14 1.97739E-13
 -1       664 1.99997E+01-1.11861E-04-5.83326E-07 4.90557E-03 7.09294E-14 3.19072E-13
 -1       665 1.99995E+01-7.89997E-04-6.32169E-07 4.92255E-03 2.04391E-13 2.27744E-13
 -1       666 1.99994E+01-1.25891E-03-9.75416E-07 4.63226E-03-9.11537E-14-2.58827E-13
 -1       667 1.99994E+01-1.64846E-03-4.45584E-06 4.13933E-03-1.66755E-13-5.01815E-13
 -1       668 2.31784E+01-1.85824E+00 2.82626E-03-1.50476E+00-7.31673E-14-8.07568E-15
 -1       669 2.05859E+01-5.04466E+00 5.50730E-02-5.49795E+00 4.83412E-13-1.15894E-13
 -1       670 2.21411E+01-8.34592E-01-6.81834E-04-1.77064E+00 5.00985E-15-3.43256E-14
 -1       671 2.63961E+01-2.73281E+00-1.80482E-02 8.86696E-01-6.81816E-14 2.21301E-13
 -1       672 2.65735E+01-2.62487E+00-3.86350E-02-1.30746E+00-4.96599E-14-6.62385E-13
 -1       673 2.49267E+01-2.90566E+00 3.27083E-03 3.06055E-01-8.12461E-14-4.71874E-13
 -1       674 2.33269E+01-2.12060E+00 2.69694E-03 1.33713E+00-1.55914E-13-2.02672E-13
 -1       675 2.21689E+01-1.16868E+00 1.08965E-05 1.79849E+00-1.21170E-13-1.60448E-13
 -1       676 2.14378E+01-4.23336E-01-4.42634E-04 1.89953E+00-1.02288E-13-1.97885E-13
 -1       677 2.10061E+01 4.88238E-02-3.41349E-04 1.80555E+00-1.61146E-13-2.20547E-13
 -1       678 2.07523E+01 3.00052E-01 6.20505E-05 1.61832E+00-6.78128E-14 1.37918E-14
 -1       679 2.05936E+01 4.03730E-01 3.13753E-04 1.39528E+00-1.59266E-14 1.04510E-13
 -1       680 2.04831E+01 4.20273E-01 4.01785E-04 1.16887E+00-1.25026E-13 1.70373E-13
 -1       681 2.03973E+01 3.91146E-01 4.00787E-04 9.56822E-01 2.24737E-14 2.22186E-14
 -1       682 2.03254E+01 3.41954E-01 3.59718E-04 7.67937E-01-3.09790E-14 1.66937E-13
 -1       683 2.02634E+01 2.87231E-01 3.04429E-04 6.05492E-01 1.85173E-15 7.73385E-14
 -1       684 2.02099E+01 2.34556E-01 2.48219E-04 4.69490E-01 1.02484E-13 1.91170E-14
 -1       685 2.01642E+01 1.87433E-01 1.97081E-04 3.58090E-01-4.10369E-14-1.43961E-13
 -1       686 2.01261E+01 1.47090E-01 1.53225E-04 2.68539E-01-3.45586E-14-2.31403E-15
 -1       687 2.00948E+01 1.13556E-01 1.17109E-04 1.97762E-01-3.78239E-14-6.23157E-14
 -1       688 2.00698E+01 8.62861E-02 8.81829E-05 1.42718E-01-1.31677E-13-2.70177E-13
 -1       689 2.00502E+01 6.45097E-02 6.53755E-05 1.00590E-01 2.83537E-14-1.46242E-13
 -1       690 2.00350E+01 4.73985E-02 4.75742E-05 6.88696E-02-1.01907E-14 1.55532E-13
 -1       691 2.00237E+01 3.41562E-02 3.39185E-05 4.53982E-02 4.63590E-15 1.53026E-13
 -1       692 2.00153E+01 2.40626E-02 2.36077E-05 2.83617E-02-9.25212E-14 1.25527E-13
 -1       693 2.00092E+01 1.64911E-02 1.59465E-05 1.62665E-02-1.02202E-13 1.44621E-14
 -1       694 2.00050E+01 1.09103E-02 1.03559E-05 7.90323E-03-1.27381E-13-1.47833E-14
 -1       695 2.00021E+01 6.87680E-03 6.35866E-06 2.30931E-03-4.01290E-13-1.17968E-13
 -1       696 2.00003E+01 4.02632E-03 3.56738E-06-1.26871E-03-9.40082E-14-1.29791E-13
 -1       697 1.99992E+01 2.06288E-03 1.66954E-06-3.40999E-03-9.60365E-14 5.12169E-14
 -1       698 1.99986E+01 7.47905E-04 4.12686E-07-4.55048E-03 2.22497E-13-1.04503E-13
 -1       699 1.99984E+01-1.10332E-04-3.87006E-07-5.00990E-03 2.44839E-13-4.42000E-14
 -1       700 1.99984E+01-6.66868E-04-9.77455E-07-5.01483E-03 1.05204E-13 3.02898E-13
 -1       701 1.99985E+01-1.04780E-03-6.44862E-07-4.71909E-03-1.97406E-14 5.68700E-13
 -1       702 1.99990E+01-1.40341E-03-2.03475E-06-4.38514E-03-1.38290E-13 5.52871E-13
 -1       703 2.00024E+01-3.59389E-03 1.26414E-06-5.79307E-04 2.75766E-13-2.69243E-13
 -1       704 1.99994E+01-1.89044E-03-1.12191E-06 3.70041E-03-1.18546E-13-7.23450E-13
 -1       705 2.00016E+01-3.15423E-03 9.07966E-07-2.72297E-03 2.76177E-13 1.80944E-14
 -1       706 2.00024E+01-3.58793E-03 1.26391E-06 6.19371E-04 1.03210E-14 7.62526E-14
 -1       707 2.00021E+01-3.44912E-03 1.13410E-06-1.72858E-03 2.53479E-13-1.47456E-13
 -1       708 2.71110E+01-4.38041E+00-1.47959E-02 8.27181E-01-1.15824E-13-4.60194E-13
 -1       709 2.00021E+01-3.43643E-03 8.60285E-07 1.74421E-03-9.98089E-14 2.64811E-13
 -1       710 2.00016E+01-3.13498E-03 1.08885E-06 2.73007E-03 1.10716E-14-7.22247E-14
 -1       711 2.00009E+01-2.69547E-03 1.87549E-06 3.47480E-03-2.19382E-13-1.45570E-13
 -1       712 1.00876E+01-5.62854E-01 1.37219E-01 3.42289E+00-2.53792E-13 5.76088E-13
 -1       713 1.56728E+01-3.01835E+00 9.71371E-02 5.50273E+00-4.16018E-13 3.46036E-13
 -1       714 2.09933E+01 1.53960E+00-1.96258E-03-1.82529E-01-2.82299E-13-2.45018E-13
 -1       715 2.64312E+01 4.96868E+00-1.08207E-01 1.58601E+00-5.58990E-13-3.87784E-13
 -1       716 2.75939E+01-2.29756E+00-5.92485E-02 7.00187E-01-1.53461E-13-7.43301E-13
 -1       717 9.84601E+00-7.74237E-01 1.43169E-01-3.88885E+00 1.38192E-13 5.56132E-13
 -1       718 2.12628E+01 6.80684E-01 9.95380E-04-1.25722E+00 2.09787E-13-1.44607E-13
 -1       719 1.32198E+01-2.31578E+00 1.30898E-01 5.91574E+00 4.39062E-13-5.70322E-13
 -1       720 2.15445E+01 1.80090E-02-5.38956E-05-1.64839E+00 9.84441E-14-9.87389E-14
 -1       721 7.38948E+00-1.02252E-01 1.52307E-01-2.83718E-01-4.47680E-14 7.79425E-13
 -1       722 2.46952E+01-2.76979E+00 2.95117E-03-6.35136E-01-1.12496E-13 1.19869E-13
 -1       723 2.12303E+01 7.80719E-01 1.17449E-05 2.42922E-01-2.24975E-13-2.02344E-13
 -1       724 2.25821E+01-5.02348E+00 3.99695E-02 4.04003E+00-2.99257E-13-1.04913E-13
 -1       725 2.75303E+01-3.73616E+00-3.04530E-02-1.47379E-01-8.07011E-14 1.71609E-13
 -1       726 7.63326E+00 1.85539E-01 1.68251E-01-8.00371E-01 1.72466E-14-9.25156E-13
 -1       727 1.78284E+01 3.25895E+00-1.13235E-03-2.65673E-01 1.95730E-13-4.66291E-13
 -1       728 1.55315E+01-3.42747E+00 1.00326E-01-6.09507E+00 4.70044E-13 1.67914E-13
 -1       729 2.44955E+01-5.03129E+00 3.38260E-02-3.37877E+00-2.84713E-13 1.37043E-16
 -1       730 1.88848E+01 2.54138E+00-7.88939E-04 5.73647E-01-6.64786E-14-4.50106E-13
 -1       731 2.76161E+01 1.62372E+00-1.12569E-01 2.33952E+00-4.00943E-13-6.39336E-13
 -1       732 2.79193E+01 1.76904E+00-1.25699E-01-2.09439E+00-3.93317E-13 1.64202E-13
 -1       733 8.39185E+00-2.03330E-01 1.49370E-01 3.05056E+00 2.80640E-13-8.96117E-13
 -1       734 2.01993E+01-4.45134E+00 5.57457E-02 5.48324E+00 3.46924E-13-6.99441E-15
 -1       735 2.50664E+01-4.96123E+00-5.58391E-03-3.07255E+00 2.48235E-13-3.71366E-13
 -1       736 2.74167E+01-1.28055E+00-6.66103E-02 2.23476E+00 1.47389E-13 3.21354E-13
 -1       737 1.73492E+01 3.37740E+00-8.66622E-04 6.00148E-01 6.06647E-14-5.19916E-13
 -1       738 1.98221E+01 2.05137E+00-7.44804E-04 3.25889E-01-1.52307E-13-3.78978E-13
 -1       739 2.00009E+01-2.71763E-03 7.17344E-07-3.45918E-03 9.63894E-14-1.76501E-13
 -1       740 1.37065E+01-1.45664E+00 7.82916E-02-4.74751E+00 3.39602E-13 1.73445E-13
 -1       741 1.94842E+01-3.46968E+00 5.17445E-02 4.53375E+00-3.34015E-13 7.96550E-14
 -1       742 1.53629E+01-2.74096E+00 9.57687E-02-5.60203E+00-2.86798E-13-5.95444E-13
 -1       743 2.57500E+01 3.35097E+00-9.71176E-02-1.98291E+00-4.74298E-13 1.02520E-13
 -1       744 2.51147E+01 4.93754E+00-9.16248E-02 4.02889E-01-5.55837E-13-2.43046E-13
 -1       745 2.69975E+01-3.52162E+00-3.42360E-02 6.91084E-01-2.22574E-14 2.88491E-13
 -1       746 1.75917E+01-2.91288E+00 6.56747E-02 5.39065E+00 4.25235E-13-2.09900E-13
 -1       747 9.85332E+00-9.33869E-02 1.35033E-01-2.95915E+00-1.13312E-13-8.01463E-13
 -1       748 1.80149E+01 3.00274E+00-8.61045E-04 6.81859E-01 1.00786E-15-4.78390E-13
 -1       749 2.33593E+01-4.64104E+00 1.39781E-02 3.80134E+00 2.71347E-13 9.12504E-14
 -1       750 1.96205E+01-3.63132E+00 4.38380E-02-4.69088E+00 4.79635E-13-1.67396E-13
 -1       751 1.93893E+01 1.83595E+00 3.84456E-04-1.01316E+00 1.78593E-13-2.92190E-13
 -1       752 2.00033E+01-2.71747E-03 3.40706E-07 1.30644E-03 6.36685E-14 2.03643E-13
 -1       753 2.48289E+01-4.11290E+00-1.27056E-02 1.57064E+00-2.53050E-13-4.74221E-13
 -1       754 2.17489E+01-9.43724E-01-9.93858E-04 1.07241E+00-3.14370E-15-1.21028E-13
 -1       755 2.26433E+01-1.75646E+00-2.15081E-03 8.46279E-01 6.38834E-15-3.11728E-14
 -1       756 2.37661E+01-2.27115E+00-6.93400E-03 1.57131E-01-8.27409E-15 2.94955E-14
 -1       757 2.47994E+01-1.96201E+00-1.47184E-02-9.22335E-01-3.34754E-14 1.37344E-13
 -1       758 2.52966E+01-3.84958E-01-3.78102E-02-1.96123E+00-1.26848E-13 1.74502E-13
 -1       759 2.50418E+01 1.55968E+00-7.59243E-02 2.41378E+00-2.42939E-13-4.03066E-13
 -1       760 2.50970E+01-9.02445E-01-2.01347E-02 1.92508E+00-1.10524E-13-4.18927E-13
 -1       761 2.44131E+01-2.16959E+00-5.09746E-03 7.74113E-01-1.10056E-13-2.78143E-13
 -1       762 2.32974E+01-2.31332E+00-1.51829E-03-2.80133E-01-3.63067E-14-1.52554E-13
 -1       763 2.22228E+01-1.85841E+00-7.06542E-04-9.35752E-01 4.80032E-14-3.44424E-14
 -1       764 2.13736E+01-1.22952E+00-6.34617E-04-1.24354E+00-7.70465E-14 1.40801E-13
 -1       765 2.07853E+01-6.61543E-01-4.25167E-05-1.32488E+00 9.53387E-14 1.12297E-13
 -1       766 2.04100E+01-2.29615E-01-4.13869E-05-1.27810E+00 8.67362E-14 5.73406E-14
 -1       767 2.01890E+01 6.11046E-02 2.92991E-05-1.16520E+00 1.06827E-13 5.86905E-14
 -1       768 2.00690E+01 2.34428E-01 5.71944E-05-1.02362E+00 3.58119E-14 5.03432E-14
 -1       769 2.00107E+01 3.21037E-01 6.16367E-05-8.74530E-01-1.82700E-14-1.44602E-13
 -1       770 1.99873E+01 3.48622E-01 5.65674E-05-7.29995E-01-1.60057E-13-1.66652E-13
 -1       771 1.99823E+01 3.39092E-01 4.86393E-05-5.96845E-01 9.18402E-14-6.48859E-14
 -1       772 1.99858E+01 3.08527E-01 4.02356E-05-4.78634E-01 1.93509E-13-1.21581E-13
 -1       773 1.99921E+01 2.68029E-01 3.19942E-05-3.76727E-01 1.96416E-13-4.30018E-13
 -1       774 1.99984E+01 2.24802E-01 2.47567E-05-2.91035E-01 1.81336E-13-4.72502E-13
 -1       775 2.00036E+01 1.83196E-01 1.91370E-05-2.20566E-01 1.07390E-13-1.66731E-13
 -1       776 2.00072E+01 1.45609E-01 1.49932E-05-1.63800E-01 3.80753E-14-1.42815E-13
 -1       777 2.00093E+01 1.13127E-01 1.17213E-05-1.18953E-01-2.03063E-13 6.19277E-14
 -1       778 2.00102E+01 8.59877E-02 8.75490E-06-8.41817E-02-9.98018E-14 2.28005E-13
 -1       779 2.00103E+01 6.39250E-02 6.23972E-06-5.77319E-02-1.42543E-13 2.27868E-13
 -1       780 2.00097E+01 4.64154E-02 4.30507E-06-3.80100E-02 7.96399E-14 1.13347E-13
 -1       781 2.00087E+01 3.28263E-02 2.86955E-06-2.36175E-02 1.01485E-13 1.15070E-13
 -1       782 2.00076E+01 2.25063E-02 1.82712E-06-1.33637E-02 1.85444E-14 2.03787E-13
 -1       783 2.00064E+01 1.48390E-02 1.08529E-06-6.26155E-03-8.17973E-14 4.90626E-13
 -1       784 2.00052E+01 9.27221E-03 5.68942E-07-1.51232E-03-9.37812E-14 5.04933E-13
 -1       785 2.00042E+01 5.32922E-03 2.14064E-07 1.51643E-03-1.91891E-13 5.95764E-13
 -1       786 2.00032E+01 2.60886E-03-6.47779E-08 3.31441E-03 7.27754E-14 3.43352E-13
 -1       787 2.00024E+01 7.79676E-04-1.64803E-07 4.25115E-03-5.50753E-14 3.16719E-13
 -1       788 2.00017E+01-4.26624E-04 1.10981E-07 4.60028E-03 6.10775E-14 5.18469E-14
 -1       789 2.00011E+01-1.24821E-03-1.33465E-06 4.56044E-03-1.98186E-13-4.29527E-13
 -1       790 2.00006E+01-1.84583E-03 2.54716E-06 4.23894E-03-7.54744E-14-1.80929E-13
 -1       791 2.29109E+01-4.39236E+00 7.78910E-03-3.32454E+00 4.31833E-13-2.58167E-13
 -1       792 2.02285E+01-6.85450E-01 2.52969E-03 2.45844E+00-1.39338E-13-4.09887E-14
 -1       793 1.98760E+01 2.15857E-02 2.91091E-05 2.15266E+00-2.59064E-13 5.20685E-14
 -1       794 1.97737E+01 4.09211E-01-1.03677E-04 1.84618E+00-1.48103E-13 1.51681E-13
 -1       795 1.97862E+01 5.82550E-01 9.21809E-05 1.56117E+00-6.37839E-14 6.00098E-14
 -1       796 1.98395E+01 6.25631E-01 1.47328E-04 1.30320E+00 3.06429E-15-1.16481E-14
 -1       797 1.98980E+01 5.96589E-01 1.40204E-04 1.07323E+00-1.92984E-14 1.85489E-13
 -1       798 1.99471E+01 5.32623E-01 1.19556E-04 8.71380E-01-1.27598E-13 1.58344E-13
 -1       799 1.99829E+01 4.55891E-01 9.72678E-05 6.97149E-01 2.16323E-15 1.03186E-13
 -1       800 2.00062E+01 3.78739E-01 7.70386E-05 5.49412E-01-4.45428E-14 1.42668E-13
 -1       801 2.00197E+01 3.07509E-01 5.99965E-05 4.26359E-01 1.86059E-14 4.18342E-13
 -1       802 2.00262E+01 2.44988E-01 4.59608E-05 3.25619E-01-3.23769E-14 4.22101E-13
 -1       803 2.00279E+01 1.91923E-01 3.46696E-05 2.44497E-01 1.78861E-14 2.55875E-13
 -1       804 2.00268E+01 1.47973E-01 2.60922E-05 1.80222E-01 2.50548E-13 1.96694E-13
 -1       805 2.00241E+01 1.12287E-01 1.96296E-05 1.30115E-01-2.09460E-13-1.26985E-13
 -1       806 2.00208E+01 8.38132E-02 1.44194E-05 9.16841E-02-6.38769E-14 1.08806E-13
 -1       807 2.00173E+01 6.14535E-02 1.03464E-05 6.26964E-02 1.05416E-13 3.60894E-14
 -1       808 2.00141E+01 4.41609E-02 7.23757E-06 4.12213E-02-5.53596E-14-4.29285E-14
 -1       809 2.00111E+01 3.09948E-02 4.91395E-06 2.56255E-02-8.98497E-14 1.76583E-13
 -1       810 2.00086E+01 2.11357E-02 3.21654E-06 1.45540E-02-9.20803E-14-2.08883E-14
 -1       811 2.00066E+01 1.38856E-02 2.00148E-06 6.90418E-03-3.73107E-13 2.51392E-13
 -1       812 2.00049E+01 8.66067E-03 1.15099E-06 1.79562E-03-1.90722E-13 1.95778E-13
 -1       813 2.00035E+01 4.97982E-03 5.71304E-07-1.46209E-03-4.69110E-15-8.58079E-14
 -1       814 2.00024E+01 2.45138E-03 1.84124E-07-3.39983E-03 2.53372E-13-2.41553E-13
 -1       815 2.00016E+01 7.58848E-04-7.99228E-08-4.41691E-03 5.02173E-14 6.03159E-15
 -1       816 2.00010E+01-3.52702E-04-1.64788E-07-4.80538E-03 6.91191E-14 1.36033E-14
 -1       817 2.00005E+01-1.08703E-03 1.42293E-07-4.77236E-03-1.91774E-13 2.96438E-13
 -1       818 2.00035E+01-2.76850E-03 5.03666E-07 1.49839E-05 1.08518E-13-2.49715E-13
 -1       819 1.23966E+01-3.49550E-01 9.26980E-02 4.12527E+00 3.89526E-13-6.09394E-13
 -1       820 2.00019E+01-2.30869E-03-6.83666E-07 3.46668E-03-2.86569E-13-4.24625E-13
 -1       821 1.10115E+01 5.79099E-01 7.41196E-02-1.42997E+00 1.10435E-13 4.87228E-13
 -1       822 2.00028E+01-2.57149E-03-4.42264E-07 2.48322E-03-8.35606E-14 1.22990E-13
 -1       823 2.10519E+01-1.80555E+00 4.10703E-03 2.68030E+00-2.40633E-13-2.90015E-13
 -1       824 2.56576E+01-3.48487E+00-1.33875E-02-4.34270E-01 1.23864E-13-6.39046E-13
 -1       825 2.26651E+01-3.13418E+00 1.30636E-02 2.49032E+00-3.09268E-13-3.45643E-13
 -1       826 1.47001E+01-8.74502E-01 6.22972E-02 3.94394E+00-3.72953E-13 4.16965E-13
 -1       827 1.15772E+01 6.83825E-01 6.18750E-02 1.35668E+00-1.62344E-13 3.73451E-13
 -1       828 2.10727E+01-1.34986E+00-2.96348E-03-2.60202E+00-1.02010E-13-1.18434E-13
 -1       829 2.10362E+01-3.83313E+00 4.61932E-02-4.35707E+00-3.11208E-13-2.05715E-13
 -1       830 1.04105E+01 1.05152E+00 9.72828E-02 9.60000E-01 1.64944E-13-7.26998E-13
 -1       831 2.03264E+01 1.22785E+00 3.28470E-04-1.18530E+00 1.94239E-13-1.69159E-13
 -1       832 2.11235E+01-7.19473E-02 5.49840E-04 9.71058E-01-9.53000E-14-1.87840E-13
 -1       833 2.72589E+01-1.08648E+00-4.96072E-02-1.38692E+00-1.12214E-13 1.82788E-13
 -1       834 2.49552E+01-3.91092E+00 1.49436E-02-1.65848E+00-1.90449E-13 7.11368E-14
 -1       835 1.66573E+01 3.11669E+00-1.83944E-04 1.60447E-01 1.16856E-13-5.09323E-13
 -1       836 1.80916E+01 2.45411E+00-5.76081E-04-8.32693E-01 1.55678E-13-3.79104E-13
 -1       837 1.95848E+01 1.49049E+00-1.51449E-03 9.06942E-01-6.74584E-14-3.56718E-13
 -1       838 2.00020E+01-2.35595E-03-6.71512E-07-3.45483E-03 1.48272E-13 1.01048E-13
 -1       839 1.68266E+01 2.97527E+00-8.20811E-04 7.08692E-01 8.87931E-14-5.02874E-13
 -1       840 1.31025E+01 1.55609E-01 4.06731E-02-2.75812E+00 2.52246E-13 3.41558E-13
 -1       841 2.00006E+01-1.58259E-03 2.40702E-06-4.46753E-03-3.19047E-13 2.78963E-13
 -1       842 2.00028E+01-2.59743E-03 4.61462E-07-2.45930E-03 1.56446E-13-1.22166E-13
 -1       843 1.11292E+01 1.12421E+00 7.50026E-02-8.69899E-01 2.64431E-14-6.77410E-13
 -1       844 1.57511E+01-1.10291E+00 4.23195E-02 4.47325E+00 3.89899E-13-3.99996E-13
 -1       845 2.00033E+01-2.72981E-03 6.30684E-07-1.27078E-03 8.66648E-14-2.27222E-13
 -1       846 1.34333E+01-7.79122E-01 7.75789E-02-4.23491E+00-1.85638E-13-5.88734E-13
 -1       847 2.03496E+01-1.13407E-01 2.00756E-04-2.21137E+00 3.84512E-14-1.62611E-13
 -1       848 2.06046E+01-3.67709E+00 4.30774E-02 4.55514E+00 3.14963E-13-3.02293E-14
 -1       849 2.02745E+01 6.41783E-01 1.29755E-05-1.71203E+00 9.46613E-14-1.64042E-13
 -1       850 1.70899E+01 2.93890E+00 9.13743E-04-4.06119E-01 1.17619E-13-4.72256E-13
 -1       851 2.26494E+01-2.77713E+00 1.26064E-02-2.53417E+00-1.85113E-13-3.89723E-14
 -1       852 2.07065E+01 7.14355E-01 8.71275E-05 7.03533E-01-1.51954E-13-2.16984E-13
 -1       853 1.85227E+01 2.03180E+00-1.29259E-03 1.10180E+00-7.29378E-15-4.17029E-13
 -1       854 1.73805E+01-2.15320E+00 2.64378E-02-4.43478E+00 3.89265E-13-6.09842E-14
 -1       855 2.49737E+01-4.06530E+00-6.32823E-03 1.89985E+00 1.09145E-13 1.79193E-13
 -1       856 2.00007E+01-1.94087E-03 2.75568E-06-4.18069E-03-4.76884E-14 1.12541E-13
 -1       857 2.27087E+01-2.52142E+00 1.63262E-02 1.79174E+00 1.10302E-13-8.30334E-14
 -1       858 2.00029E+01-1.52069E-03 5.30788E-07 3.69702E-03-2.13310E-13-4.39242E-13
 -1       859 2.22018E+01-2.59346E+00-1.05679E-03-1.74609E+00 1.86254E-13-1.46780E-13
 -1       860 2.10108E+01-1.67657E+00 9.98322E-04-1.91088E+00 1.65103E-13-1.16170E-13
 -1       861 2.02847E+01-8.96574E-01 1.39131E-03-1.81007E+00 4.18989E-14 4.19987E-15
 -1       862 1.98746E+01-3.11212E-01 1.35459E-04-1.60649E+00 6.28250E-14 6.51521E-14
 -1       863 1.96808E+01 7.89894E-02 6.52902E-05-1.37835E+00 4.19827E-15 2.51941E-16
 -1       864 1.96160E+01 3.12569E-01 5.75748E-05-1.16025E+00 7.95738E-14-6.84664E-14
 -1       865 1.96230E+01 4.32262E-01 4.37890E-05-9.63114E-01-2.30347E-14-9.88021E-14
 -1       866 1.96656E+01 4.74155E-01 2.99896E-05-7.89357E-01-1.04785E-13-2.14406E-13
 -1       867 1.97222E+01 4.66079E-01 1.89148E-05-6.38698E-01 1.49087E-14 3.51874E-15
 -1       868 1.97805E+01 4.28674E-01 1.19527E-05-5.09953E-01 1.25172E-13-2.97134E-14
 -1       869 1.98337E+01 3.76509E-01 7.05838E-06-4.01481E-01-3.50426E-15-1.95032E-13
 -1       870 1.98790E+01 3.19323E-01 2.37812E-06-3.11392E-01 8.04977E-14-3.15515E-13
 -1       871 1.99158E+01 2.63190E-01 8.76974E-08-2.37662E-01 3.57480E-13-3.91403E-13
 -1       872 1.99444E+01 2.11614E-01 5.81569E-07-1.78274E-01 1.73810E-13-3.48364E-13
 -1       873 1.99658E+01 1.66388E-01 1.98113E-06-1.31193E-01 6.18929E-15-3.09187E-13
 -1       874 1.99812E+01 1.28097E-01 1.96345E-06-9.44483E-02-2.14095E-14-2.76703E-13
 -1       875 1.99920E+01 9.65635E-02 1.12901E-06-6.62398E-02-1.52114E-13-2.48492E-13
 -1       876 1.99991E+01 7.12144E-02 5.35657E-07-4.49691E-02-7.32034E-14-1.88015E-13
 -1       877 2.00034E+01 5.12858E-02 2.25805E-07-2.92340E-02 1.74548E-13-3.70578E-13
 -1       878 2.00059E+01 3.59477E-02 6.78200E-08-1.78352E-02 1.24761E-13-1.36944E-13
 -1       879 2.00069E+01 2.43879E-02-1.79559E-08-9.77356E-03 1.51093E-13-5.24857E-14
 -1       880 2.00071E+01 1.58622E-02-6.69398E-08-4.23432E-03-1.49406E-13-1.29055E-13
 -1       881 2.00066E+01 9.71650E-03-9.71178E-08-5.66046E-04 1.24300E-14 7.99266E-14
 -1       882 2.00059E+01 5.39377E-03-1.19780E-07 1.74205E-03-1.47961E-13 2.97441E-13
 -1       883 2.00050E+01 2.42957E-03-8.03721E-08 3.08193E-03 2.57257E-14-6.30766E-14
 -1       884 2.00040E+01 4.47929E-04 6.25857E-07 3.74708E-03-6.74771E-14 4.78957E-15
 -1       885 2.00035E+01-6.52989E-04-7.23439E-07 3.82201E-03-3.29372E-13-3.97880E-13
 -1       886 2.36220E+01-3.30938E+00 7.47586E-03-1.36339E+00 1.21982E-13-3.75585E-13
 -1       887 2.12523E+01-3.38346E+00 2.37512E-02-3.44816E+00 4.04858E-13-1.22389E-13
 -1       888 1.85582E+01 5.66791E-01-6.95555E-04 1.94151E+00-1.76190E-13-1.33141E-13
 -1       889 1.83587E+01 9.60029E-02-9.62302E-04 2.42477E+00-2.10589E-13-5.03910E-15
 -1       890 1.90753E+01 8.40408E-01 3.50390E-05 1.29931E+00-1.19193E-13 1.94951E-13
 -1       891 1.93010E+01 8.10223E-01 4.56810E-05 1.06907E+00-1.50840E-13 2.09440E-13
 -1       892 1.94861E+01 7.33848E-01 3.04452E-05 8.75057E-01-2.26960E-14 2.59160E-13
 -1       893 1.96316E+01 6.37947E-01 2.04820E-05 7.09315E-01 2.92731E-14 1.21547E-13
 -1       894 1.97424E+01 5.38250E-01 1.24510E-05 5.67807E-01-8.90517E-14 1.33780E-13
 -1       895 1.98247E+01 4.43614E-01 7.18953E-06 4.48143E-01-1.04641E-13 8.59662E-14
 -1       896 1.98845E+01 3.58543E-01 4.31856E-06 3.48347E-01 2.74804E-14 8.74232E-14
 -1       897 1.99271E+01 2.84845E-01 3.01414E-06 2.66392E-01-1.23967E-14 3.04429E-14
 -1       898 1.99568E+01 2.22670E-01 2.21679E-06 2.00153E-01 1.31491E-13 1.65867E-13
 -1       899 1.99770E+01 1.71314E-01 2.17054E-06 1.47515E-01 2.45889E-13 2.69498E-13
 -1       900 1.99903E+01 1.29699E-01 1.55510E-06 1.06391E-01-1.50516E-13 8.44578E-14
 -1       901 1.99988E+01 9.65486E-02 1.03440E-06 7.47942E-02-3.61121E-14 1.01717E-13
 -1       902 2.00038E+01 7.05486E-02 6.21530E-07 5.09405E-02 5.99749E-14 5.98483E-14
 -1       903 2.00065E+01 5.04743E-02 3.44862E-07 3.32729E-02-2.57072E-13 1.70420E-13
 -1       904 2.00076E+01 3.52259E-02 1.89905E-07 2.04571E-02-1.45451E-13 2.90607E-13
 -1       905 2.00078E+01 2.38420E-02 1.05255E-07 1.13781E-02-1.43042E-13 4.40467E-13
 -1       906 2.00073E+01 1.55013E-02 5.70922E-08 5.12565E-03-1.85128E-13-5.31599E-14
 -1       907 2.00065E+01 9.51584E-03 2.99000E-08 9.71176E-04 1.66937E-14-1.66236E-14
 -1       908 2.00055E+01 5.31856E-03 1.32250E-08-1.65684E-03 1.35943E-13 5.92313E-14
 -1       909 2.00045E+01 2.44729E-03-2.84342E-08-3.19773E-03 9.09256E-14 4.15221E-13
 -1       910 2.00036E+01 5.27519E-04 3.68307E-09-3.98114E-03 6.86134E-14 2.32184E-13
 -1       911 2.00027E+01-7.36647E-04 1.35460E-06-4.24531E-03-3.11151E-13 4.38335E-13
 -1       912 1.75250E+01 2.56762E+00-1.00121E-03 1.04889E+00 5.22543E-14-4.54285E-13
 -1       913 2.00046E+01-1.79112E-03-1.57581E-07 6.98815E-04-7.14064E-14 1.89647E-13
 -1       914 1.46499E+01 5.05796E-01 2.32766E-02 2.29047E+00-1.26729E-13 2.96697E-13
 -1       915 1.85480E+01-1.75505E+00 1.72305E-02 3.73800E+00-3.34625E-13 1.64687E-13
 -1       916 1.83067E+01-2.25994E+00 4.22128E-02-4.47518E+00-2.68643E-13-3.76518E-13
 -1       917 2.05673E+01-3.09752E-01 1.67008E-03 1.62205E+00-3.64505E-15-1.73144E-13
 -1       918 1.31000E+01 1.06291E+00 3.26467E-02-2.84665E-01 2.77753E-14 2.44867E-13
 -1       919 1.30771E+01 9.83399E-01 4.11256E-02 2.38776E+00 2.21465E-13-5.72639E-13
 -1       920 1.88180E+01 7.81139E-01-1.64656E-04 1.58091E+00-1.75058E-13-1.15151E-14
 -1       921 1.82863E+01-6.21392E-01 3.52056E-03 2.99528E+00-3.31121E-13 4.49388E-14
 -1       922 2.13996E+01-1.42871E+00-5.18529E-05 1.87640E+00 7.56508E-14-1.59797E-13
 -1       923 1.91613E+01 1.26633E+00 1.44469E-04-1.59607E+00 1.00127E-13-2.71686E-13
 -1       924 1.51884E+01 4.59938E-01 2.33977E-02 3.09159E+00 2.37822E-13-4.65605E-13
 -1       925 1.99373E+01 6.13186E-01 8.88580E-04 1.34922E+00-3.25543E-14-2.68580E-13
 -1       926 1.86748E+01 1.18168E+00-1.77770E-04 1.63546E+00 3.49590E-14-3.59504E-13
 -1       927 1.60342E+01 2.61102E+00-1.67884E-03 6.04042E-01 9.42860E-14-4.94736E-13
 -1       928 2.00023E+01-1.46786E-03-2.46311E-06-4.05737E-03-1.31094E-13 3.08104E-13
 -1       929 1.26458E+01 1.49889E+00 4.56365E-02 1.02633E+00 1.40044E-13-6.06107E-13
 -1       930 1.88757E+01-2.19789E+00 2.93728E-02 4.24415E+00 3.07906E-13-1.74572E-13
 -1       931 2.00042E+01-1.76258E-03-2.17198E-06 2.00264E-03 3.97485E-14-5.91067E-14
 -1       932 2.00046E+01-1.79935E-03-9.31877E-07-6.46699E-04 1.89273E-13-2.79868E-13
 -1       933 1.30835E+01 7.79095E-01 4.05928E-02-2.40091E+00-5.05567E-14-6.31580E-13
 -1       934 1.85914E+01-1.02379E-01 1.01176E-02-2.84054E+00-4.81668E-14-3.01226E-13
 -1       935 2.00034E+01-1.73027E-03-4.96687E-07-3.13507E-03-6.58092E-14 2.61764E-14
 -1       936 1.64885E+01-1.19729E-01 1.00847E-02 2.89114E+00-2.05177E-13 3.50599E-13
 -1       937 1.57720E+01-5.70263E-01 1.07840E-02-3.39802E+00 2.21944E-13-9.28641E-15
 -1       938 1.60982E+01 2.63428E+00-4.87763E-04-2.99282E-01 9.79503E-14-5.12014E-13
 -1       939 1.67283E+01 2.21590E+00 1.63464E-03 1.32951E+00 8.49902E-14-4.59427E-13
 -1       940 1.93763E+01-1.04291E+00-4.09626E-03-2.47803E+00 1.44999E-13 3.22116E-14
 -1       941 1.90645E+01-2.95479E-01-5.55205E-04-1.97952E+00 1.45405E-13 8.65855E-14
 -1       942 1.89948E+01 1.63264E-01 1.19906E-04-1.58084E+00 2.69361E-14 9.50474E-14
 -1       943 1.90446E+01 4.33786E-01 5.45576E-05-1.25956E+00 3.20791E-14 1.60316E-13
 -1       944 1.91543E+01 5.70512E-01 8.78647E-06-1.00254E+00-4.83317E-14 4.88873E-14
 -1       945 1.92858E+01 6.17428E-01-1.28488E-06-7.96783E-01-8.55839E-14 1.51564E-13
 -1       946 1.94184E+01 6.05714E-01-1.48219E-05-6.30721E-01 7.32007E-14 2.32903E-13
 -1       947 1.95407E+01 5.58820E-01-1.62560E-05-4.96325E-01 2.09198E-14 1.92011E-13
 -1       948 1.96474E+01 4.93657E-01-1.37849E-05-3.87432E-01-1.46825E-13 7.66041E-14
 -1       949 1.97366E+01 4.21728E-01-1.33319E-05-2.99399E-01 4.31243E-14-6.85336E-14
 -1       950 1.98088E+01 3.50563E-01-1.20316E-05-2.28579E-01 2.26007E-13 1.27023E-13
 -1       951 1.98657E+01 2.84411E-01-9.80076E-06-1.72107E-01 2.09403E-13-9.69159E-14
 -1       952 1.99092E+01 2.25788E-01-3.17422E-06-1.27566E-01 1.06175E-13-1.23460E-13
 -1       953 1.99417E+01 1.75669E-01-6.63161E-07-9.28301E-02-1.17439E-14-1.93060E-13
 -1       954 1.99652E+01 1.33962E-01-2.07781E-06-6.60655E-02-9.63063E-14-9.63404E-14
 -1       955 1.99818E+01 1.00063E-01-2.28621E-06-4.57708E-02-1.46764E-13-2.59031E-13
 -1       956 1.99931E+01 7.31214E-02-1.93056E-06-3.06393E-02 5.69700E-15-2.51358E-13
 -1       957 2.00003E+01 5.21515E-02-1.45520E-06-1.95564E-02 2.55852E-13-3.56923E-13
 -1       958 2.00046E+01 3.61564E-02-1.03746E-06-1.16039E-02-9.27817E-15-4.73074E-13
 -1       959 2.00068E+01 2.42034E-02-7.15869E-07-6.03523E-03-3.03905E-14-4.52051E-13
 -1       960 2.00077E+01 1.54610E-02-4.81031E-07-2.25205E-03 2.33920E-13-1.76845E-13
 -1       961 2.00076E+01 9.21197E-03-3.07742E-07 2.17763E-04 1.16150E-13-5.35096E-14
 -1       962 2.00070E+01 4.85255E-03-2.25085E-08 1.73957E-03-3.14737E-13 1.63382E-13
 -1       963 2.00060E+01 1.89559E-03 1.14654E-06 2.58575E-03-3.42765E-13-1.88705E-13
 -1       964 1.92433E+01 8.13696E-01-5.39689E-05 6.25444E-01 1.94583E-14-1.36341E-14
 -1       965 1.70706E+01 8.07432E-01 1.03545E-04 1.79380E+00-1.82393E-13 1.39058E-13
 -1       966 2.04935E+01-1.85778E+00 8.99980E-03 3.01724E+00 1.91292E-13-1.26798E-13
 -1       967 1.89837E+01 9.24068E-01-4.90395E-05 7.59008E-01-1.10195E-13-2.59229E-14
 -1       968 1.86522E+01 1.01175E+00-3.51304E-05 9.18234E-01-7.11850E-14-6.30974E-14
 -1       969 1.94446E+01 6.96411E-01-4.95755E-05 5.10247E-01-2.92526E-14 7.45860E-14
 -1       970 1.95988E+01 5.82343E-01-4.21967E-05 4.10767E-01 4.82620E-14 1.63018E-14
 -1       971 1.97154E+01 4.77359E-01-3.35183E-05 3.25668E-01-9.45895E-15-6.69275E-14
 -1       972 1.98026E+01 3.84442E-01-2.41024E-05 2.54004E-01-1.07596E-13-1.30224E-13
 -1       973 1.98667E+01 3.04631E-01-9.61818E-06 1.94614E-01-6.27155E-14 1.35274E-13
 -1       974 1.99133E+01 2.37492E-01-4.24755E-06 1.46297E-01 1.35672E-13 2.06738E-13
 -1       975 1.99464E+01 1.82177E-01-6.62774E-06 1.07745E-01 2.50600E-14 3.57577E-13
 -1       976 1.99695E+01 1.37489E-01-5.87868E-06 7.75256E-02-8.68240E-14 3.85478E-13
 -1       977 1.99852E+01 1.01945E-01-4.57587E-06 5.42617E-02 1.10888E-14 3.79331E-13
 -1       978 1.99955E+01 7.41265E-02-3.34138E-06 3.67045E-02-1.62698E-13 3.37554E-13
 -1       979 2.00019E+01 5.27115E-02-2.25635E-06 2.37192E-02-1.38614E-13 3.97862E-13
 -1       980 2.00055E+01 3.65035E-02-1.39438E-06 1.43238E-02-2.01461E-13 4.28048E-13
 -1       981 2.00073E+01 2.44548E-02-7.64406E-07 7.69402E-03 6.34015E-15 2.73057E-13
 -1       982 2.00078E+01 1.56711E-02-3.28008E-07 3.15447E-03 3.06512E-14 1.43798E-13
 -1       983 2.00075E+01 9.40323E-03-3.45679E-08 1.63798E-04-1.33872E-14 1.25644E-13
 -1       984 2.00068E+01 5.03416E-03 1.38931E-07-1.70251E-03 9.32945E-14 1.30781E-13
 -1       985 2.00058E+01 2.06169E-03 3.48571E-07-2.77021E-03-2.78426E-14 4.49647E-13
 -1       986 2.00047E+01 8.56244E-05 1.15514E-06-3.28011E-03-6.17933E-14 4.81810E-13
 -1       987 1.76614E+01 1.69932E+00 9.34893E-04 1.61196E+00 8.45914E-14-3.88941E-13
 -1       988 2.00042E+01-1.78752E-03-1.29593E-06-1.96079E-03 2.15405E-13-7.85987E-14
 -1       989 1.74172E+01 1.86791E+00 3.46769E-04-1.40929E+00 9.62239E-14-3.81995E-13
 -1       990 2.00040E+01-9.23874E-04-6.00728E-07-3.27886E-03-4.84538E-14 2.38111E-13
 -1       991 1.49780E+01 1.13788E+00 3.03745E-03 8.45129E-01-5.54188E-14 2.03766E-13
 -1       992 1.96013E+01-4.94222E-01-8.62346E-04 2.45997E+00 8.55692E-14-2.16502E-13
 -1       993 1.88683E+01 6.59613E-01-1.96343E-04-2.17384E+00 5.72530E-14-3.00831E-13
 -1       994 1.73626E+01-5.61971E-01 1.27481E-02 3.54476E+00 2.31634E-13-3.38444E-13
 -1       995 2.18519E+01-2.95243E+00 1.05225E-02 3.00606E+00 2.20609E-13-1.99983E-14
 -1       996 2.28128E+01-3.73565E+00 1.89902E-02 3.04157E+00 2.30083E-13 1.18088E-14
 -1       997 1.90184E+01 3.95500E-01-4.55786E-03 2.05794E+00 7.63055E-14-3.39869E-13
 -1       998 1.48177E+01 6.91513E-01 1.14641E-02-1.80675E+00 9.74626E-14 1.70266E-13
 -1       999 1.55121E+01 1.92753E+00 1.92697E-02 1.44723E+00 1.05789E-13-5.02671E-13
 -1      1000 1.67285E+01 4.67005E-01 5.03648E-03 2.27427E+00-1.79981E-13 1.71726E-13
 -1      1001 2.01259E+01-2.02410E+00 1.70448E-02-2.95037E+00 1.52377E-13-7.33127E-14
 -1      1002 1.93411E+01-2.03908E+00 2.28440E-02-3.40680E+00 2.05285E-13-2.03616E-13
 -1      1003 2.00053E+01 2.49922E-04-2.83326E-06 2.78874E-03-3.52008E-13-5.24748E-13
 -1      1004 1.61336E+01-3.30025E-01 4.94604E-02-3.57243E+00-1.47043E-13-4.34369E-13
 -1      1005 2.00048E+01-8.40455E-04 3.50306E-06 2.46162E-03-2.34617E-13-2.09214E-13
 -1      1006 2.00051E+01-8.45364E-04-2.66229E-07-2.09299E-03 2.02803E-13 1.98126E-13
 -1      1007 1.82346E+01 1.05150E+00 3.74466E-04 1.11925E+00-1.58925E-13 3.71513E-15
 -1      1008 1.54871E+01 1.17103E+00 5.05453E-04-4.85756E-01-8.86482E-14 1.86354E-13
 -1      1009 2.00055E+01-7.91309E-04-1.44674E-07 1.20183E-03-9.96330E-14 4.73498E-14
 -1      1010 2.00057E+01-7.73072E-04-3.40670E-07-1.25898E-04 1.78835E-13-3.70050E-13
 -1      1011 1.31671E+01 1.65060E+00 2.59216E-02-5.94648E-01 7.04129E-14-5.64120E-13
 -1      1012 1.77123E+01 1.00353E+00 1.89049E-04 1.39052E+00-2.13943E-13 1.56889E-13
 -1      1013 1.46997E+01 1.67772E+00 1.19064E-02 1.64808E+00 1.41885E-13-5.06736E-13
 -1      1014 1.48884E+01 2.27943E+00 1.10396E-02 1.56551E-01 9.88789E-14-5.24742E-13
 -1      1015 1.59307E+01 1.13289E+00-5.13695E-03-2.27658E+00 3.83200E-15-4.41130E-13
 -1      1016 1.78900E+01-1.10052E-01 1.21248E-02-2.27621E+00 9.99058E-14-1.66568E-13
 -1      1017 2.00055E+01-7.98477E-04 2.30859E-07-1.12181E-03 3.08209E-13-4.67149E-13
 -1      1018 1.80677E+01 3.49683E-01-1.83343E-03-1.70701E+00 6.92126E-14-2.11372E-13
 -1      1019 1.83300E+01 6.19852E-01-3.32194E-04-1.27327E+00 9.93017E-14-1.27635E-13
 -1      1020 1.86025E+01 7.45929E-01 7.79568E-06-9.61235E-01-4.19874E-14-1.37353E-13
 -1      1021 1.88563E+01 7.80371E-01-1.17232E-04-7.32566E-01 4.84578E-14 7.90312E-14
 -1      1022 1.90833E+01 7.56057E-01-1.48163E-04-5.59303E-01 7.75137E-14 2.49075E-13
 -1      1023 1.92804E+01 6.94537E-01-1.04867E-04-4.27954E-01 8.86927E-14 3.45643E-13
 -1      1024 1.94461E+01 6.14069E-01-8.57529E-05-3.27087E-01-1.49951E-13 2.96142E-13
 -1      1025 1.95823E+01 5.26539E-01-7.30039E-05-2.48854E-01-1.86690E-13 1.59288E-13
 -1      1026 1.96923E+01 4.39855E-01-5.12076E-05-1.88118E-01 1.73845E-13-1.29382E-13
 -1      1027 1.97788E+01 3.59320E-01-3.79916E-05-1.40679E-01 1.36683E-13-1.66373E-13
 -1      1028 1.98455E+01 2.87532E-01 4.19112E-06-1.04216E-01 1.20269E-13-2.53169E-13
 -1      1029 1.98960E+01 2.25482E-01-1.83727E-05-7.60872E-02-1.16066E-14-3.09686E-13
 -1      1030 1.99332E+01 1.73641E-01-2.61918E-05-5.44412E-02 2.84093E-15-4.03185E-13
 -1      1031 1.99602E+01 1.31041E-01-1.93748E-05-3.81270E-02-1.69317E-13-1.16653E-13
 -1      1032 1.99790E+01 9.68954E-02-1.52361E-05-2.59830E-02-1.85003E-13-1.47118E-13
 -1      1033 1.99917E+01 7.00745E-02-1.14871E-05-1.70522E-02-7.99494E-15-4.51318E-13
 -1      1034 1.99999E+01 4.94110E-02-8.42746E-06-1.05943E-02 8.31895E-14-4.25567E-13
 -1      1035 2.00048E+01 3.37995E-02-6.04002E-06-6.01972E-03 2.65576E-14-2.12367E-13
 -1      1036 2.00073E+01 2.22424E-02-4.22074E-06-2.86040E-03 1.71004E-13-3.04782E-13
 -1      1037 2.00083E+01 1.38698E-02-2.85815E-06-7.48255E-04 2.54313E-13-5.31434E-13
 -1      1038 2.00082E+01 7.94289E-03-1.75386E-06 6.02350E-04-7.11813E-14-6.73331E-13
 -1      1039 2.00075E+01 3.86209E-03-1.77307E-07 1.40511E-03-4.81512E-13-6.28504E-13
 -1      1040 1.93687E+01 7.07862E-01-1.64328E-04 3.06815E-01-3.36728E-14-1.56065E-13
 -1      1041 1.91476E+01 8.33912E-01-1.99166E-04 3.68401E-01-4.65104E-14-1.06404E-13
 -1      1042 1.84967E+01 1.07556E+00-1.94418E-04 5.07963E-01-1.05820E-14-2.32132E-13
 -1      1043 1.95388E+01 5.88896E-01-1.40949E-04 2.50741E-01 1.13014E-13-2.03952E-13
 -1      1044 1.96690E+01 4.80742E-01-9.93025E-05 2.00825E-01 8.32466E-14-2.01238E-13
 -1      1045 1.97671E+01 3.86271E-01-1.80164E-05 1.57918E-01-2.33586E-13-3.83648E-13
 -1      1046 1.98405E+01 3.04981E-01-8.36921E-07 1.21536E-01-1.77261E-13-1.48452E-13
 -1      1047 1.98943E+01 2.36894E-01-3.21891E-05 9.14927E-02 9.25389E-14 2.03045E-13
 -1      1048 1.99330E+01 1.81133E-01-3.67428E-05 6.73505E-02-5.13466E-14 1.79090E-13
 -1      1049 1.99606E+01 1.36086E-01-2.72248E-05 4.82842E-02-5.09826E-14 1.33239E-13
 -1      1050 1.99796E+01 1.00351E-01-2.04275E-05 3.36008E-02 3.00976E-14 5.75167E-14
 -1      1051 1.99922E+01 7.24897E-02-1.49501E-05 2.25191E-02-2.18993E-13-2.18987E-13
 -1      1052 2.00002E+01 5.11336E-02-1.06029E-05 1.43344E-02-3.22321E-13 1.62542E-13
 -1      1053 2.00050E+01 3.50491E-02-7.27985E-06 8.43153E-03 3.31938E-14 1.96987E-13
 -1      1054 2.00074E+01 2.31597E-02-4.80525E-06 4.28868E-03 1.87504E-13 4.72996E-14
 -1      1055 2.00083E+01 1.45481E-02-2.98885E-06 1.47486E-03 7.20168E-15-7.20063E-14
 -1      1056 2.00082E+01 8.44706E-03-1.64282E-06-3.56528E-04-3.65014E-14 5.91995E-14
 -1      1057 2.00075E+01 4.22574E-03-4.70603E-07-1.47574E-03-2.15346E-13 1.90451E-13
 -1      1058 2.00064E+01 1.37924E-03-4.62459E-07-2.08955E-03 1.06812E-13 3.60698E-13
 -1      1059 2.00057E+01 1.67832E-04-5.81629E-07-2.15194E-03 1.33022E-13 3.73448E-13
 -1      1060 1.67039E+01 7.37582E-01 5.78850E-03 2.64267E+00 1.47953E-13-4.43559E-13
 -1      1061 1.64930E+01 1.80299E-02-4.93618E-03-2.60658E+00 1.84968E-13-5.89995E-14
 -1      1062 1.88624E+01 9.60098E-01-2.53509E-04 4.35383E-01-1.24766E-13-2.54621E-13
 -1      1063 1.64219E+01 1.22644E+00 3.06406E-03 7.62922E-01-1.17128E-13 1.72963E-13
 -1      1064 2.00067E+01 1.56090E-03 6.57495E-07 1.62646E-03-4.01342E-13-4.11415E-13
 -1      1065 1.72896E+01 1.23379E+00 3.73606E-04 6.22559E-01-1.16166E-13-1.02362E-14
 -1      1066 1.43931E+01 2.09981E+00 3.55484E-02-2.91189E-02 9.04833E-14-5.29913E-13
 -1      1067 1.80242E+01 1.16804E+00-9.15978E-05 5.94168E-01 4.63092E-15-2.06909E-14
 -1      1068 2.00068E+01 9.15758E-04 1.91997E-06 5.11219E-04-1.72489E-13-2.22081E-13
 -1      1069 1.63037E+01 8.35923E-01-2.19014E-03-1.41023E+00 4.16130E-14 1.67910E-14
 -1      1070 1.91592E+01 8.06150E-01 4.99299E-05 1.37747E-01-9.31981E-14-3.50864E-13
 -1      1071 1.74945E+01 8.64188E-01 2.08750E-05-1.12111E+00 1.61022E-13-1.70896E-13
 -1      1072 1.79928E+01 9.46802E-01-5.40074E-04-7.91938E-01 1.03004E-13-1.33945E-13
 -1      1073 1.83828E+01 9.68172E-01 9.52442E-04-5.67118E-01 1.28762E-13-8.18603E-14
 -1      1074 1.87291E+01 9.13632E-01 7.87935E-06-4.05138E-01 9.88597E-14-1.94538E-13
 -1      1075 1.90115E+01 8.30955E-01-1.37080E-04-2.93844E-01 1.45953E-13-2.48693E-13
 -1      1076 1.92412E+01 7.32766E-01-1.07399E-04-2.13089E-01-5.22958E-14-2.78620E-13
 -1      1077 1.94267E+01 6.28934E-01-8.39339E-05-1.54612E-01-1.76912E-13-2.40425E-13
 -1      1078 1.95745E+01 5.26999E-01-1.10196E-04-1.12246E-01-1.85287E-13-1.15475E-13
 -1      1079 1.96944E+01 4.31236E-01 5.01314E-04-8.18682E-02 1.07165E-13-1.41590E-13
 -1      1080 1.97830E+01 3.46181E-01-3.00379E-05-5.90158E-02 1.61389E-13-2.62767E-13
 -1      1081 1.98483E+01 2.75632E-01 1.07406E-04-4.14982E-02-3.53874E-14-3.59692E-13
 -1      1082 1.98996E+01 2.13387E-01 1.99328E-05-2.87759E-02-4.91159E-14-3.95757E-13
 -1      1083 1.99368E+01 1.62310E-01-2.06458E-06-2.01005E-02-2.67101E-13-5.43607E-13
 -1      1084 1.99632E+01 1.21210E-01 7.85347E-07-1.36908E-02-1.80795E-13-6.33748E-13
 -1      1085 1.99815E+01 8.86758E-02 3.29095E-06-9.03867E-03-1.44834E-13-6.17812E-13
 -1      1086 1.99937E+01 6.33953E-02 4.53771E-06-5.71006E-03 1.13031E-13-5.80210E-13
 -1      1087 2.00013E+01 4.41164E-02 4.96467E-06-3.36600E-03 2.08492E-13-6.83979E-13
 -1      1088 2.00058E+01 2.96964E-02 4.90305E-06-1.74766E-03 3.33693E-14-4.38493E-13
 -1      1089 2.00080E+01 1.91293E-02 4.56443E-06-6.59099E-04-8.17747E-15-4.68973E-13
 -1      1090 2.00087E+01 1.15540E-02 4.15601E-06 4.74111E-05 1.18288E-13-7.18657E-13
 -1      1091 2.00084E+01 6.25128E-03 2.57760E-06 4.84862E-04-1.05974E-13-6.46307E-13
 -1      1092 1.95403E+01 5.65927E-01 9.71142E-05 1.07515E-01 1.57534E-13-8.78260E-14
 -1      1093 1.85327E+01 1.05320E+00-4.66346E-04 1.37608E-01-1.91806E-14-1.96622E-13
 -1      1094 2.00077E+01 3.09206E-03 6.55730E-07 5.93352E-04-2.52295E-13-4.77604E-13
 -1      1095 1.96684E+01 4.61769E-01 3.57243E-04 8.84552E-02 8.22714E-15 2.38915E-14
 -1      1096 1.93738E+01 6.81930E-01 5.83538E-05 1.24298E-01 5.26624E-14-2.11008E-13
 -1      1097 1.97697E+01 3.66187E-01 5.77578E-05 7.01549E-02-2.68160E-13-2.25298E-13
 -1      1098 1.98414E+01 2.89285E-01 2.36614E-04 5.51017E-02-1.37369E-13-4.21805E-13
 -1      1099 1.98936E+01 2.24370E-01-3.31599E-05 4.23867E-02-1.23086E-13-3.61033E-13
 -1      1100 1.99329E+01 1.70748E-01 9.54119E-06 3.15155E-02-7.28570E-14-3.27855E-13
 -1      1101 1.99607E+01 1.27550E-01 1.27727E-05 2.27114E-02-1.23967E-13-7.81211E-14
 -1      1102 1.99799E+01 9.34308E-02 1.08294E-05 1.57969E-02-6.75799E-14 8.16290E-14
 -1      1103 1.99927E+01 6.69480E-02 8.06309E-06 1.05248E-02-3.41344E-13-1.44697E-13
 -1      1104 2.00007E+01 4.67532E-02 5.60568E-06 6.61336E-03-8.49054E-14-4.25385E-13
 -1      1105 2.00055E+01 3.16346E-02 3.67483E-06 3.79068E-03 2.58089E-13-4.72052E-13
 -1      1106 2.00079E+01 2.05361E-02 2.25012E-06 1.81478E-03 2.53203E-13-4.55935E-13
 -1      1107 2.00087E+01 1.25601E-02 1.27831E-06 4.80695E-04-7.59831E-14-3.57816E-13
 -1      1108 2.00085E+01 6.95696E-03 4.62165E-07-3.79470E-04-1.40390E-13-2.29352E-13
 -1      1109 2.00076E+01 3.09290E-03-1.32475E-06-9.01126E-04-2.37287E-13-4.00521E-13
 -1      1110 1.81421E+01 5.89563E-01 1.16744E-04 2.27001E+00 1.36646E-13-3.35862E-13
 -1      1111 1.88845E+01 9.32829E-01-2.97065E-06 1.43862E-01-1.19940E-13-3.85808E-13
 -1      1112 2.00068E+01 8.78204E-04-4.77828E-07-4.16137E-04-1.74347E-14-7.26545E-13
 -1      1113 1.66160E+01 1.24892E+00 2.70284E-03-2.10742E-01-1.94676E-14 7.20924E-14
 -1      1114 2.00064E+01 5.41056E-04 2.82181E-06-1.27869E-03 1.34433E-13-1.50749E-13
 -1      1115 1.81048E+01 1.14750E+00 6.10783E-04 1.14849E-01 1.59129E-13-1.30215E-13
 -1      1116 1.97066E+01 4.15014E-01-9.55429E-04-6.13306E-03 7.53467E-15 1.38715E-14
 -1      1117 1.79595E+01 1.11715E+00-4.46918E-03-2.59275E-01 1.20765E-13-1.66250E-13
 -1      1118 1.98101E+01 3.15414E-01-5.92446E-04 1.10361E-02-2.33338E-14-4.64615E-13
 -1      1119 1.73917E+01 1.14544E+00-8.69072E-04-4.14219E-01 1.10961E-13-1.01544E-13
 -1      1120 1.74804E+01 1.21893E+00-8.15848E-05-5.24278E-03-5.05645E-16-1.39614E-13
 -1      1121 2.90232E+01 9.40548E+00 2.32824E+00-6.48981E+00-4.92939E-14 1.75984E-12
 -1      1122 2.17959E+01 6.62258E+00 2.79367E-01-3.34722E+00-2.85882E-14 3.05429E-13
 -1      1123 2.03779E+01 6.14846E+00 1.16951E-01-2.11569E+00-1.92762E-14-3.31138E-13
 -1      1124 1.95240E+01 5.88055E+00 7.78072E-02-1.34503E+00-1.38639E-14-6.41383E-13
 -1      1125 1.88348E+01 5.66696E+00 5.50443E-02-7.83149E-01-9.47853E-15-8.00984E-13
 -1      1126 1.82427E+01 5.48313E+00 3.43503E-02-3.76314E-01-5.78704E-15-8.80937E-13
 -1      1127 1.77506E+01 5.32971E+00 1.50857E-02-9.80494E-02-3.69843E-15-9.15768E-13
 -1      1128 1.73897E+01 5.21648E+00-1.49526E-03 7.46774E-02-1.38084E-15-9.21564E-13
 -1      1129 1.72083E+01 5.15885E+00-1.21643E-02 1.69138E-01 1.38604E-15-9.19135E-13
 -1      1130 1.72405E+01 5.16784E+00-1.44093E-02 2.28606E-01 3.70537E-15-9.03239E-13
 -1      1131 1.75005E+01 5.24806E+00-6.93426E-03 3.06606E-01 5.38458E-15-8.71379E-13
 -1      1132 1.79737E+01 5.39517E+00 1.01927E-02 4.58832E-01 8.35443E-15-8.07544E-13
 -1      1133 1.86329E+01 5.60040E+00 3.50495E-02 7.41484E-01 1.19765E-14-6.99702E-13
 -1      1134 1.94575E+01 5.85754E+00 6.75924E-02 1.21456E+00 1.57652E-14-5.16009E-13
 -1      1135 2.04632E+01 6.17379E+00 1.16110E-01 1.95301E+00 2.09693E-14-1.57797E-13
 -1      1136 2.18995E+01 6.64264E+00 2.42594E-01 3.15156E+00 2.55906E-14 5.27509E-13
 -1      1137 2.65210E+01 8.39493E+00 1.46192E+00 5.49258E+00 5.27356E-14 1.93717E-12
 -1      1138 2.98329E+01 3.54768E+00 1.13237E+00-4.08853E+00-2.08639E-13 2.68463E-12
 -1      1139 2.20940E+01-1.87840E-01-6.32190E-01-4.47687E-02-6.84522E-14 2.18678E-12
 -1      1140 2.13796E+01-9.05898E-02-2.19547E-01 8.22242E-02-2.79273E-14 1.50941E-12
 -1      1141 2.15466E+01-3.83305E-02-4.25704E-02 5.35108E-02-1.62665E-14 1.04363E-12
 -1      1142 2.18833E+01-8.96677E-03 7.59593E-03 3.67396E-02-2.25415E-14 6.45761E-13
 -1      1143 2.22025E+01 1.17842E-02 3.09482E-02 2.33360E-02-1.51610E-14 4.48114E-13
 -1      1144 2.23388E+01 2.85253E-02 5.06938E-02 7.16418E-03 1.02088E-15 3.50900E-13
 -1      1145 2.21405E+01 3.92338E-02 6.42982E-02-1.42074E-02-8.93469E-15 1.77349E-13
 -1      1146 2.15059E+01 3.85172E-02 6.17050E-02-3.91411E-02 1.38075E-14 8.62505E-14
 -1      1147 2.04485E+01 2.12122E-02 3.37374E-02-6.06706E-02-9.58955E-15-2.07286E-13
 -1      1148 1.91591E+01-1.20998E-02-1.86118E-02-6.79260E-02 1.55611E-14-3.92165E-13
 -1      1149 1.79990E+01-5.01333E-02-7.77600E-02-5.21431E-02 1.81704E-14-2.73899E-13
 -1      1150 1.73785E+01-7.43426E-02-1.15093E-01-1.48198E-02-9.05873E-15-3.68929E-13
 -1      1151 1.75564E+01-7.04262E-02-1.09286E-01 2.98607E-02-7.29972E-15-4.60437E-13
 -1      1152 1.84925E+01-4.07190E-02-6.38141E-02 6.29445E-02 1.45673E-15-4.42910E-13
 -1      1153 1.98710E+01-1.90864E-03-3.87966E-03 7.30775E-02-2.26038E-14-6.14862E-13
 -1      1154 2.12758E+01 2.85475E-02 4.33576E-02 6.21062E-02-1.27875E-14-7.80639E-13
 -1      1155 2.23805E+01 4.24991E-02 6.48259E-02 4.02892E-02-1.04782E-14-8.26610E-13
 -1      1156 2.30380E+01 4.17795E-02 6.31003E-02 1.80531E-02-2.69767E-14-9.43169E-13
 -1      1157 2.32604E+01 3.26693E-02 4.83391E-02 1.35648E-03 2.27513E-14-9.11519E-13
 -1      1158 2.31491E+01 2.10734E-02 3.01838E-02-8.43718E-03-2.21099E-14-6.80673E-13
 -1      1159 2.28284E+01 1.06239E-02 1.43911E-02-1.25678E-02 1.63223E-14-5.07830E-13
 -1      1160 2.24067E+01 2.79679E-03 3.06565E-03-1.30208E-02 2.62648E-16-2.48209E-13
 -1      1161 2.19620E+01-2.28522E-03-3.88470E-03-1.15336E-02-7.31458E-14-3.67772E-13
 -1      1162 2.15431E+01-5.10830E-03-7.44116E-03-9.29569E-03 3.17935E-14-3.37827E-13
 -1      1163 2.11750E+01-6.31197E-03-8.70971E-03-6.99331E-03 1.88485E-14-3.13288E-13
 -1      1164 2.08674E+01-6.47083E-03-8.60247E-03-4.95834E-03 5.57499E-14-3.92919E-13
 -1      1165 2.06199E+01-6.02477E-03-7.76760E-03-3.30901E-03-3.12213E-14-4.82447E-13
 -1      1166 2.04271E+01-5.27908E-03-6.62363E-03-2.05020E-03 3.73345E-15-3.29004E-13
 -1      1167 2.02812E+01-4.43001E-03-5.41992E-03-1.13523E-03-1.55512E-14-2.09465E-13
 -1      1168 2.01739E+01-3.59437E-03-4.29218E-03-5.00297E-04-1.02521E-14-2.23689E-14
 -1      1169 2.00974E+01-2.83496E-03-3.30449E-03-8.17316E-05-3.49289E-15-8.51637E-14
 -1      1170 2.00446E+01-2.17982E-03-2.47810E-03 1.76492E-04-3.54155E-14-3.85973E-13
 -1      1171 2.00097E+01-1.63575E-03-1.81015E-03 3.20326E-04 4.31199E-14-3.99812E-13
 -1      1172 1.99879E+01-1.19742E-03-1.28547E-03 3.85711E-04 3.94530E-14-2.88702E-14
 -1      1173 1.99756E+01-8.53356E-04-8.83688E-04 3.99730E-04-8.89337E-15-2.96111E-13
 -1      1174 1.99697E+01-5.89684E-04-5.83488E-04 3.82153E-04-6.53350E-15-4.00170E-13
 -1      1175 1.99682E+01-3.92304E-04-3.64810E-04 3.46987E-04 8.70303E-16-3.27051E-13
 -1      1176 1.99694E+01-2.48092E-04-2.09918E-04 3.03842E-04-1.25221E-14-4.01431E-13
 -1      1177 1.99723E+01-1.45452E-04-1.03735E-04 2.59053E-04 3.49543E-14-3.85163E-13
 -1      1178 1.99760E+01-7.44975E-05-3.38038E-05 2.16582E-04-5.73620E-14-4.79206E-13
 -1      1179 1.99799E+01-2.69946E-05 9.99084E-06 1.78696E-04-3.95709E-14-1.00993E-12
 -1      1180 1.99839E+01 3.83004E-06 3.58287E-05 1.46466E-04 3.83378E-14-1.13158E-12
 -1      1181 1.99877E+01 2.35429E-05 5.04652E-05 1.20084E-04-1.88236E-15-6.90278E-13
 -1      1182 1.99911E+01 3.67753E-05 5.98849E-05 9.89589E-05 6.96307E-14-4.83243E-14
 -1      1183 1.99941E+01 4.74442E-05 6.99920E-05 8.15066E-05-6.51691E-15 6.18021E-13
 -1      1184 1.99966E+01 5.86792E-05 8.63367E-05 6.42758E-05-1.01716E-14 6.97424E-13
 -1      1185 1.99985E+01 7.07571E-05 1.07993E-04 3.91282E-05 8.54538E-15 1.12767E-12
 -1      1186 1.99997E+01 8.70887E-05 1.02872E-04-1.03250E-05-7.22961E-15 1.13888E-12
 -1      1187 1.99999E+01-3.15837E-05-6.11238E-05-3.43086E-05 1.22520E-13 8.03294E-13
 -1      1188 2.88963E+01 5.20394E-01 2.02240E-01 1.92100E+00-3.44100E-14 3.09297E-12
 -1      1189 2.24190E+01-7.75204E-02-5.87242E-01 9.87916E-02 1.95399E-14 2.46818E-12
 -1      1190 2.21497E+01-4.98508E-02-1.94069E-01 5.38157E-03 1.79336E-14 1.83062E-12
 -1      1191 2.26297E+01-2.78479E-02-5.79567E-02-1.12776E-02 1.30989E-14 1.42240E-12
 -1      1192 2.34538E+01-9.70274E-03-1.59556E-02-2.36167E-02-1.54976E-15 1.19704E-12
 -1      1193 2.44264E+01 1.34500E-02 1.58332E-02-3.68481E-02-2.55503E-15 9.96578E-13
 -1      1194 2.53195E+01 4.33850E-02 6.16922E-02-4.88801E-02 1.52040E-14 8.80448E-13
 -1      1195 2.58148E+01 7.34613E-02 1.19212E-01-5.06388E-02-1.98739E-14 9.45377E-13
 -1      1196 2.55233E+01 8.53967E-02 1.62119E-01-2.77286E-02 1.93769E-15 8.34971E-13
 -1      1197 2.41428E+01 5.57480E-02 1.43863E-01 2.94922E-02 3.29424E-15 6.54490E-13
 -1      1198 2.17731E+01-1.88510E-02 3.14951E-02 1.05668E-01 2.45125E-14 3.93352E-13
 -1      1199 1.91887E+01-9.59190E-02-1.37767E-01 1.53111E-01 9.71619E-15 1.63342E-13
 -1      1200 1.76237E+01-1.22757E-01-2.58750E-01 1.24856E-01-7.34829E-15 1.78690E-13
 -1      1201 1.79823E+01-7.66491E-02-2.39649E-01 2.64306E-02-3.19536E-14 1.02758E-13
 -1      1202 2.01143E+01-7.56229E-03-9.98312E-02-7.91514E-02 2.10830E-14-1.79967E-13
 -1      1203 2.29043E+01 3.86988E-02 4.84851E-02-1.29466E-01-1.60549E-15-4.59660E-13
 -1      1204 2.51875E+01 5.08769E-02 1.24876E-01-1.17957E-01-2.02286E-14-4.56329E-13
 -1      1205 2.63930E+01 4.19763E-02 1.25219E-01-7.47171E-02 4.58774E-14-4.86007E-13
 -1      1206 2.65618E+01 2.66412E-02 8.69976E-02-3.07415E-02 2.90367E-14-6.58832E-13
 -1      1207 2.60297E+01 1.29421E-02 4.44688E-02-3.66679E-04-6.26365E-15-6.78391E-13
 -1      1208 2.51529E+01 3.40370E-03 1.32769E-02 1.54402E-02-4.82962E-14-3.68927E-13
 -1      1209 2.41882E+01-2.21110E-03-4.58464E-03 2.09773E-02 6.21656E-15-1.41002E-13
 -1      1210 2.32821E+01-4.97927E-03-1.25968E-02 2.08134E-02-2.46531E-15-3.39586E-13
 -1      1211 2.25000E+01-5.95921E-03-1.47982E-02 1.81283E-02 3.93509E-14-6.82614E-13
 -1      1212 2.18589E+01-5.93271E-03-1.41134E-02 1.47187E-02 2.44232E-14-8.41568E-13
 -1      1213 2.13516E+01-5.40493E-03-1.22612E-02 1.14444E-02 1.59021E-14-6.41433E-13
 -1      1214 2.09602E+01-4.67478E-03-1.01238E-02 8.63786E-03-4.19166E-14-1.10573E-13
 -1      1215 2.06646E+01-3.90677E-03-8.10095E-03 6.37103E-03 2.11498E-14-9.60889E-14
 -1      1216 2.04455E+01-3.18431E-03-6.34295E-03 4.60393E-03 1.60132E-14-3.43479E-13
 -1      1217 2.02862E+01-2.54435E-03-4.88251E-03 3.25872E-03-3.66651E-14-7.39186E-13
 -1      1218 2.01727E+01-1.99839E-03-3.70187E-03 2.25302E-03 3.16452E-14-9.02388E-13
 -1      1219 2.00938E+01-1.54479E-03-2.76513E-03 1.51306E-03 1.20734E-14-6.85888E-13
 -1      1220 2.00406E+01-1.17565E-03-2.03292E-03 9.77368E-04-1.20301E-14-5.93687E-13
 -1      1221 2.00061E+01-8.80468E-04-1.46827E-03 5.96513E-04-1.78716E-14-4.59758E-13
 -1      1222 1.99851E+01-6.48179E-04-1.03869E-03 3.31548E-04-8.72730E-15-5.66339E-13
 -1      1223 1.99735E+01-4.68194E-04-7.16514E-04 1.52188E-04-2.59013E-14-6.00087E-13
 -1      1224 1.99682E+01-3.30929E-04-4.78727E-04 3.51440E-05 1.08628E-13-9.58727E-13
 -1      1225 1.99672E+01-2.27998E-04-3.06454E-04-3.73202E-05-5.63156E-15-7.34272E-13
 -1      1226 1.99687E+01-1.52222E-04-1.84403E-04-7.85989E-05-2.46071E-14-1.43210E-13
 -1      1227 1.99718E+01-9.75536E-05-1.00287E-04-9.87188E-05 5.75928E-15-1.98721E-13
 -1      1228 1.99757E+01-5.89470E-05-4.42849E-05-1.05120E-04 6.80220E-15-3.21927E-13
 -1      1229 1.99798E+01-3.21907E-05-8.55223E-06-1.03279E-04-2.19105E-14-1.46728E-13
 -1      1230 1.99838E+01-1.37157E-05 1.32719E-05-9.72080E-05 9.31463E-14-2.51452E-13
 -1      1231 1.99876E+01-3.81501E-07 2.66068E-05-8.98305E-05-1.76231E-15-4.05072E-13
 -1      1232 1.99910E+01 1.06628E-05 3.65416E-05-8.31850E-05 2.90631E-14-3.56353E-13
 -1      1233 1.99940E+01 2.21929E-05 4.86459E-05-7.84728E-05 5.32186E-14-8.13702E-13
 -1      1234 1.99966E+01 3.69445E-05 6.86981E-05-7.55363E-05 3.76176E-14-1.45045E-12
 -1      1235 1.99985E+01 5.39489E-05 9.54057E-05-6.89995E-05-2.03094E-14-9.95603E-13
 -1      1236 1.99997E+01 5.28445E-05 9.07126E-05-3.90581E-05 3.53354E-14-2.92178E-13
 -1      1237 1.99999E+01-2.87794E-05-6.34921E-05 3.01209E-05 2.19974E-14-1.34930E-13
 -1      1238 1.99998E+01 8.51194E-05-5.97117E-05 2.72022E-05-4.46431E-14-1.01872E-13
 -1      1239 1.99999E+01-1.35452E-04 9.19697E-05 8.36954E-06-4.62885E-13-6.96814E-14
 -1      1240 1.99998E+01-1.26692E-03 8.24508E-05-4.79580E-05 9.83986E-14 9.76378E-14
 -1      1241 1.99998E+01-2.99009E-03 3.15407E-05-6.72966E-05 3.24682E-15 7.21476E-14
 -1      1242 1.99998E+01-4.90858E-03-1.65218E-05-6.75599E-05 5.66871E-13 7.71726E-14
 -1      1243 1.99998E+01-6.69237E-03-5.27724E-05-5.68228E-05 5.36942E-13-1.17002E-13
 -1      1244 1.99997E+01-8.12330E-03-7.67432E-05-4.11910E-05-1.03432E-13 1.99309E-14
 -1      1245 1.99997E+01-9.05044E-03-9.08025E-05-2.11826E-05-2.31191E-13-1.81397E-13
 -1      1246 1.99997E+01-9.36398E-03-9.52197E-05 2.80327E-07-4.01294E-13 7.52571E-15
 -1      1247 1.99997E+01-9.03404E-03-9.03816E-05 2.17039E-05 9.19543E-14 3.13687E-14
 -1      1248 1.99997E+01-8.09336E-03-7.58786E-05 4.15332E-05 8.13891E-13-9.44610E-14
 -1      1249 1.99998E+01-6.65334E-03-5.15447E-05 5.78400E-05-2.74215E-14 6.53053E-14
 -1      1250 1.99998E+01-4.86833E-03-1.58132E-05 6.74995E-05 5.51266E-13 9.68538E-14
 -1      1251 1.99998E+01-2.95203E-03 3.29186E-05 6.80199E-05-1.02182E-13-2.12033E-14
 -1      1252 1.99999E+01-1.21340E-03 9.11836E-05 5.70651E-05-1.12351E-12-1.28772E-13
 -1      1253 1.99999E+01-1.58806E-04 8.68299E-05-2.71162E-05-1.30064E-12-1.48183E-13
 -1      1254 1.99998E+01 9.34158E-05-6.20166E-05-2.94558E-05-7.00603E-13 3.44687E-14
 -1      1255-1.12437E+00-2.42514E+01-3.73321E+00-2.35787E+00 1.17922E-12 3.11584E-13
 -1      1256-1.94426E+00-1.57639E+01-3.18059E+00-4.35189E+00 2.54774E-12 1.00725E-12
 -1      1257 5.04048E-01-2.37294E+00-1.90979E+00 3.87715E-03 3.41860E-12 2.22811E-12
 -1      1258 1.08108E+01 8.10372E+00-2.13109E-01 9.25329E+00 3.23097E-12 3.24230E-12
 -1      1259 2.90434E+01 1.07891E+01 1.68761E+00 1.67908E+01 2.01350E-12 3.08065E-12
 -1      1260 5.03793E+01 7.48670E+00 3.37128E+00 1.67218E+01 9.38583E-13 2.22022E-12
 -1      1261 6.60326E+01 2.97253E+00 4.38322E+00 7.70054E+00 2.07993E-13 4.46976E-13
 -1      1262 6.78047E+01 2.12417E+00 4.46026E+00-6.01203E+00 2.95704E-13-1.63353E-12
 -1      1263 5.47634E+01 6.36077E+00 3.58498E+00-1.59935E+01 1.13759E-12-3.21876E-12
 -1      1264 3.44726E+01 1.05532E+01 2.13332E+00-1.78938E+01 2.29561E-12-3.92464E-12
 -1      1265 1.50280E+01 9.93961E+00 3.55390E-01-1.18502E+01 3.26161E-12-3.65619E-12
 -1      1266 2.68964E+00 1.68708E+00-1.44071E+00-2.69929E+00 3.34488E-12-2.51776E-12
 -1      1267-1.72822E+00-1.13275E+01-2.82671E+00 3.35768E+00 2.61413E-12-1.23895E-12
 -1      1268-1.48250E+00-2.23524E+01-3.66758E+00 3.46595E+00 1.20837E-12-3.92374E-13
 -1      1269-8.86021E-01-2.53062E+01-3.84530E+00-8.10755E-01-7.48457E-13-1.92069E-13
 -1      1270-1.69274E+00-1.83135E+01-3.30213E+00-3.82360E+00-2.63811E-12-8.53428E-13
 -1      1271-8.80459E-01-6.44911E+00-2.31589E+00-1.94446E+00-3.75944E-12-1.98563E-12
 -1      1272 5.72667E+00 5.23203E+00-7.29419E-01 5.50870E+00-3.72480E-12-3.02114E-12
 -1      1273 2.16724E+01 1.08887E+01 1.03359E+00 1.46830E+01-2.71250E-12-3.36819E-12
 -1      1274 4.26693E+01 9.06289E+00 2.71424E+00 1.82647E+01-1.42797E-12-2.99449E-12
 -1      1275 6.00943E+01 4.28108E+00 3.87705E+00 1.22611E+01-5.65950E-13-1.97786E-12
 -1      1276 6.65957E+01 1.99699E+00 4.20987E+00-8.82718E-01-1.65645E-13-1.09440E-13
 -1      1277 5.87823E+01 4.56482E+00 3.77384E+00-1.33908E+01-5.07705E-13 1.73050E-12
 -1      1278 4.04632E+01 9.46564E+00 2.53118E+00-1.80485E+01-1.45373E-12 2.78844E-12
 -1      1279 2.09759E+01 1.11751E+01 1.04117E+00-1.47019E+01-2.50933E-12 3.27005E-12
 -1      1280 6.80398E+00 6.57420E+00-5.50744E-01-6.68328E+00-3.20943E-12 2.72316E-12
 -1      1281-2.47777E-01-3.74310E+00-1.96469E+00 8.87833E-01-3.56026E-12 2.05735E-12
 -1      1282-1.69904E+00-1.58550E+01-3.06161E+00 4.05446E+00-2.43783E-12 9.49185E-13
 -1      1283-1.03305E+00-2.41167E+01-3.69592E+00 2.05249E+00-6.97165E-13 1.84762E-13
 -1      1284 2.36906E+01 1.92386E+00-7.21229E-01-2.52961E+00-7.86871E-14 1.44895E-12
 -1      1285 2.16354E+01 4.82470E+00-3.70150E-02-2.67967E+00-2.17770E-13 6.32827E-15
 -1      1286 2.22852E+01 4.95543E+00-8.12885E-02-3.63215E+00-2.78222E-13 3.37896E-13
 -1      1287 2.04252E+01 5.10349E+00-1.51270E-02-1.86310E+00-2.15702E-13-4.65315E-13
 -1      1288 2.09394E+01 5.25835E+00 2.17810E-02-2.32607E+00-2.44249E-13-2.60313E-13
 -1      1289 2.18013E+01 3.98564E+00-1.67082E-02-2.40298E+00-3.78707E-13 9.02056E-15
 -1      1290 1.95791E+01 5.13114E+00-5.90807E-03-1.19499E+00-1.67068E-13-7.08322E-13
 -1      1291 1.99887E+01 5.26167E+00 2.35868E-02-1.52063E+00-1.93560E-13-5.97217E-13
 -1      1292 2.05735E+01 4.40740E+00-2.06110E-02-1.69807E+00-3.33570E-13-3.84220E-13
 -1      1293 1.88613E+01 5.10398E+00-4.85171E-03-6.82551E-01-1.26156E-13-8.37734E-13
 -1      1294 1.92154E+01 5.21511E+00 2.01902E-02-9.25216E-01-1.39291E-13-7.83311E-13
 -1      1295 1.96626E+01 4.58669E+00-1.97064E-02-1.08299E+00-2.48536E-13-5.98084E-13
 -1      1296 1.82436E+01 5.07043E+00-6.99729E-03-3.10749E-01-7.84928E-14-8.99534E-13
 -1      1297 1.85467E+01 5.16474E+00 1.57434E-02-4.83751E-01-9.62355E-14-8.67518E-13
 -1      1298 1.89007E+01 4.68919E+00-1.70634E-02-6.07329E-01-1.84621E-13-7.02702E-13
 -1      1299 1.77266E+01 5.04689E+00-1.01187E-02-5.19956E-02-4.63726E-14-9.24599E-13
 -1      1300 1.79732E+01 5.12270E+00 9.83152E-03-1.70132E-01-5.57054E-14-9.17107E-13
 -1      1301 1.82451E+01 4.76756E+00-1.49943E-02-2.57996E-01-1.12157E-13-7.62213E-13
 -1      1302 1.73673E+01 5.04366E+00-1.18537E-02 1.05927E-01-7.45931E-16-9.28826E-13
 -1      1303 1.75276E+01 5.09263E+00 2.91184E-03 3.38746E-02-1.72709E-14-9.24540E-13
 -1      1304 1.77173E+01 4.83747E+00-1.35553E-02-1.82785E-02-5.39785E-14-7.74974E-13
 -1      1305 1.72146E+01 5.06217E+00-1.09651E-02 1.94763E-01 3.08306E-14-9.23732E-13
 -1      1306 1.72642E+01 5.07708E+00-4.10765E-03 1.51028E-01 1.77011E-14-9.29743E-13
 -1      1307 1.73735E+01 4.89672E+00-1.25879E-02 1.28405E-01 1.50383E-14-7.83750E-13
 -1      1308 1.73046E+01 5.09985E+00-6.93174E-03 2.59759E-01 6.89518E-14-9.06493E-13
 -1      1309 1.72276E+01 5.07597E+00-1.00119E-02 2.20587E-01 5.54912E-14-9.18382E-13
 -1      1310 1.72651E+01 4.93555E+00-1.21972E-02 2.16193E-01 7.03410E-14-7.85769E-13
 -1      1311 1.76478E+01 5.15147E+00-2.52094E-04 3.55466E-01 1.03060E-13-8.74243E-13
 -1      1312 1.74425E+01 5.08856E+00-1.37023E-02 2.93490E-01 9.20340E-14-8.95896E-13
 -1      1313 1.74261E+01 4.94361E+00-1.25402E-02 2.92522E-01 1.34376E-13-7.65134E-13
 -1      1314 1.82156E+01 5.21064E+00 8.30713E-03 5.34517E-01 1.36086E-13-7.93561E-13
 -1      1315 1.79002E+01 5.11285E+00-1.48516E-02 4.24725E-01 1.21264E-13-8.41173E-13
 -1      1316 1.78577E+01 4.91418E+00-1.34806E-02 4.10858E-01 1.85430E-13-7.20467E-13
 -1      1317 1.89927E+01 5.27099E+00 1.76337E-02 8.56450E-01 1.98598E-13-6.73645E-13
 -1      1318 1.85742E+01 5.14083E+00-1.44921E-02 6.68109E-01 1.72570E-13-7.40352E-13
 -1      1319 1.85385E+01 4.84131E+00-1.53572E-02 6.25199E-01 2.53126E-13-6.31561E-13
 -1      1320 1.99408E+01 5.31728E+00 2.61899E-02 1.37231E+00 2.41807E-13-4.64278E-13
 -1      1321 1.94360E+01 5.15810E+00-1.47989E-02 1.07751E+00 2.16202E-13-5.94330E-13
 -1      1322 1.94444E+01 4.71048E+00-1.77061E-02 9.87319E-01 3.36264E-13-4.90774E-13
 -1      1323 2.10921E+01 5.31741E+00 3.59169E-02 2.15381E+00 2.76043E-13-7.51829E-14
 -1      1324 2.04720E+01 5.12093E+00-1.97636E-02 1.69995E+00 2.44249E-13-3.09752E-13
 -1      1325 2.05627E+01 4.47905E+00-1.82886E-02 1.53861E+00 3.93647E-13-2.50445E-13
 -1      1326 2.27371E+01 5.06721E+00 4.14104E-02 3.36995E+00 2.37144E-13 6.55517E-13
 -1      1327 2.18190E+01 4.87974E+00-3.24423E-02 2.58618E+00 2.32855E-13 2.09527E-13
 -1      1328 2.20086E+01 3.99018E+00-7.80921E-03 2.28953E+00 4.11018E-13 1.81702E-13
 -1      1329 2.86331E+01 3.22911E+00 8.69663E-01 4.24227E+00 1.19682E-13 2.03587E-12
 -1      1330 2.37086E+01 3.61099E+00-1.68178E-01 3.34625E+00 1.19155E-13 1.07866E-12
 -1      1331 2.39472E+01 2.56437E+00-9.85857E-03 2.74282E+00 3.87811E-13 8.48321E-13
 -1      1332 2.33403E+01 3.22267E-01-7.63814E-01 8.21872E-01 2.12039E-13 1.95388E-12
 -1      1333 2.36965E+01 1.03144E-01-4.03053E-01-1.00548E+00-2.29358E-13 1.52373E-12
 -1      1334 2.26805E+01 2.81775E-01-1.54654E-01-5.64816E-01-2.10706E-13 1.25408E-12
 -1      1335 2.22463E+01 1.41307E-01-6.96314E-02-1.83097E-01-1.67207E-13 1.14087E-12
 -1      1336 2.20421E+01 7.71915E-02-1.08902E-02-1.21616E-01-1.57249E-13 8.94923E-13
 -1      1337 2.28859E+01 3.29521E-01-1.02995E-01-8.35622E-01-3.66686E-13 6.72577E-13
 -1      1338 2.18597E+01 5.21652E-02 4.58088E-03 4.42393E-02-1.26727E-13 7.97612E-13
 -1      1339 2.19192E+01 2.53415E-02 1.39148E-02 5.51826E-02-1.26425E-13 6.14196E-13
 -1      1340 2.21813E+01 1.06653E-01-3.29002E-02-1.27470E-01-2.85237E-13 4.92346E-13
 -1      1341 2.19055E+01 1.31619E-02 1.34246E-02 1.05741E-01-1.02798E-13 5.40783E-13
 -1      1342 2.20356E+01-5.03988E-03 1.07516E-02 1.04570E-01-1.03204E-13 3.81330E-13
 -1      1343 2.20233E+01 2.36685E-02-4.82535E-03 1.27756E-01-2.27176E-13 3.42530E-13
 -1      1344 2.20759E+01-1.45659E-02 9.78424E-03 8.65213E-02-5.01695E-14 3.36599E-13
 -1      1345 2.21692E+01-2.86984E-02 6.89373E-03 7.32050E-02-3.72525E-14 2.65050E-13
 -1      1346 2.20604E+01-2.44630E-02 2.97326E-03 1.69008E-01-1.40236E-13 2.34521E-13
 -1      1347 2.21860E+01-3.85963E-02 8.06500E-03 1.24013E-03-2.57888E-14 2.39263E-13
 -1      1348 2.21611E+01-4.82456E-02 5.97130E-03-2.39776E-02-3.92021E-14 1.93995E-13
 -1      1349 2.21271E+01-6.35268E-02 8.53404E-03 6.42921E-02-8.56129E-14 1.62769E-13
 -1      1350 2.20963E+01-5.69979E-02 8.85308E-03-1.37414E-01-4.49302E-14 1.85141E-13
 -1      1351 2.18926E+01-5.85240E-02 6.60444E-03-1.71495E-01-2.81676E-14 1.27436E-13
 -1      1352 2.20933E+01-9.39652E-02 1.39895E-02-1.56595E-01-7.29399E-14 1.21689E-13
 -1      1353 2.17102E+01-6.18708E-02 9.75875E-03-3.00574E-01-2.94582E-14 1.11040E-13
 -1      1354 2.13080E+01-5.07174E-02 6.54848E-03-3.35003E-01-4.84899E-14 6.56419E-15
 -1      1355 2.18645E+01-1.04166E-01 1.72327E-02-4.49468E-01-8.14375E-14 1.08819E-13
 -1      1356 2.10082E+01-4.37340E-02 8.12337E-03-4.35060E-01-6.53561E-14-4.28928E-14
 -1      1357 2.04567E+01-1.82964E-02 3.72423E-03-4.55581E-01-8.70233E-14-1.36224E-13
 -1      1358 2.14008E+01-7.88328E-02 1.49353E-02-7.30489E-01-1.15201E-13 7.22859E-15
 -1      1359 2.00912E+01 2.83515E-04 2.46055E-03-4.72886E-01-3.93424E-14-1.41866E-13
 -1      1360 1.95196E+01 3.42936E-02-2.34475E-03-4.64627E-01 1.76035E-14-1.60455E-13
 -1      1361 2.07485E+01-1.14156E-02 4.77270E-03-8.79443E-01-8.17068E-14 2.82257E-14
 -1      1362 1.91905E+01 5.79752E-02-5.65020E-03-3.64008E-01 2.71285E-14-2.66079E-13
 -1      1363 1.87769E+01 8.69290E-02-9.44491E-03-3.21573E-01-2.36157E-14-2.40828E-13
 -1      1364 2.00582E+01 8.18825E-02-1.16783E-02-7.84162E-01-1.52569E-14-7.99326E-14
 -1      1365 1.86027E+01 1.02729E-01-1.22132E-02-1.17463E-01-8.88508E-14-2.65813E-13
 -1      1366 1.85013E+01 1.11940E-01-1.32816E-02-5.29678E-02-9.06115E-14-3.68477E-13
 -1      1367 1.95529E+01 1.62557E-01-2.69717E-02-4.14809E-01-7.17048E-14-2.48953E-13
 -1      1368 1.85575E+01 1.09760E-01-1.30836E-02 1.85075E-01-3.38011E-14-3.66557E-13
 -1      1369 1.88183E+01 9.39434E-02-1.08913E-02 2.46117E-01-1.56073E-14-3.83162E-13
 -1      1370 1.94325E+01 1.88739E-01-3.21837E-02 1.26419E-01-7.39669E-14-3.12861E-13
 -1      1371 1.90925E+01 7.53971E-02-8.18081E-03 4.28581E-01-2.95857E-15-4.06074E-13
 -1      1372 1.96338E+01 4.29383E-02-3.65415E-03 4.62784E-01-2.40632E-14-4.24216E-13
 -1      1373 1.97626E+01 1.46135E-01-2.35819E-02 6.40464E-01-4.88463E-14-3.45360E-13
 -1      1374 2.00326E+01 1.99767E-02-1.21404E-03 5.31913E-01-1.14932E-13-4.53401E-13
 -1      1375 2.06854E+01-1.37207E-02 3.87198E-03 5.31746E-01-8.89815E-14-5.30118E-13
 -1      1376 2.04335E+01 5.79070E-02-6.98262E-03 9.43581E-01-1.05391E-13-4.12111E-13
 -1      1377 2.10879E+01-2.90866E-02 3.77891E-03 4.87394E-01-5.49968E-14-6.37171E-13
 -1      1378 2.16799E+01-5.22222E-02 8.09100E-03 4.61657E-01-6.25958E-14-7.07011E-13
 -1      1379 2.12250E+01-3.20249E-02 8.46366E-03 9.66838E-01-1.58905E-13-4.71633E-13
 -1      1380 2.19922E+01-5.58140E-02 5.25535E-03 3.46101E-01-2.70339E-14-7.13034E-13
 -1      1381 2.24118E+01-6.50898E-02 8.19175E-03 3.10086E-01-4.26950E-14-7.27307E-13
 -1      1382 2.19214E+01-8.98004E-02 1.68678E-02 7.66565E-01-7.79351E-14-5.58236E-13
 -1      1383 2.25911E+01-5.97068E-02 4.08545E-03 1.74975E-01-3.80746E-14-7.23546E-13
 -1      1384 2.28043E+01-5.82413E-02 5.78482E-03 1.41288E-01 2.47927E-14-7.52679E-13
 -1      1385 2.23904E+01-1.06542E-01 1.79270E-02 4.60174E-01-5.91905E-14-6.02212E-13
 -1      1386 2.28527E+01-4.90917E-02 2.01931E-03 2.38276E-02 4.92904E-14-7.40015E-13
 -1      1387 2.28837E+01-4.20158E-02 2.85780E-03-1.15835E-03 3.16821E-14-6.66738E-13
 -1      1388 2.25970E+01-9.30178E-02 1.44897E-02 1.55432E-01 3.55610E-14-5.02535E-13
 -1      1389 2.28288E+01-3.31530E-02 2.98742E-04-8.43756E-02 5.70459E-14-6.83722E-13
 -1      1390 2.27291E+01-2.46367E-02 5.92895E-04-9.94961E-02-1.52352E-14-6.45366E-13
 -1      1391 2.25749E+01-6.58418E-02 9.53878E-03-8.43546E-02 6.45933E-14-5.37323E-13
 -1      1392 2.26065E+01-1.79959E-02-6.42925E-04-1.47408E-01 2.66289E-14-5.44538E-13
 -1      1393 2.24305E+01-1.04030E-02-6.89700E-04-1.54288E-01 9.88257E-14-4.41852E-13
 -1      1394 2.23883E+01-3.77766E-02 4.95098E-03-2.39639E-01 8.51411E-14-5.96482E-13
 -1      1395 2.22728E+01-6.32709E-03-8.96824E-04-1.73695E-01 8.18470E-14-3.72848E-13
 -1      1396 2.20651E+01-5.51989E-04-1.16112E-03-1.74810E-01-1.95541E-14-3.66741E-13
 -1      1397 2.21049E+01-1.52698E-02 1.50066E-03-3.18372E-01 9.31564E-14-4.49176E-13
 -1      1398 2.18975E+01 1.40241E-03-7.38801E-04-1.74618E-01-4.81385E-14-2.57569E-13
 -1      1399 2.16886E+01 5.31814E-03-1.13803E-03-1.72255E-01-1.24559E-14-3.17253E-13
 -1      1400 2.17807E+01 1.54920E-05-7.34836E-04-3.39835E-01 5.45738E-14-3.59256E-13
 -1      1401 2.15278E+01 5.81096E-03-4.21937E-04-1.60436E-01-4.94998E-14-2.60784E-13
 -1      1402 2.13362E+01 8.19213E-03-8.89722E-04-1.56323E-01-2.21183E-14-2.33995E-13
 -1      1403 2.14558E+01 8.92189E-03-1.97897E-03-3.24328E-01-4.39396E-14-1.70156E-13
 -1      1404 2.11918E+01 7.81616E-03-1.05067E-04-1.38857E-01 2.62952E-15-3.66842E-13
 -1      1405 2.10263E+01 9.07234E-03-5.87863E-04-1.34146E-01-1.96608E-14-3.49961E-13
 -1      1406 2.11551E+01 1.31202E-02-2.52290E-03-2.88488E-01-7.56132E-14-3.02230E-13
 -1      1407 2.09027E+01 8.26394E-03 1.39529E-04-1.15018E-01-2.93400E-14-3.91959E-13
 -1      1408 2.07660E+01 8.76227E-03-3.18467E-04-1.10397E-01 1.66157E-14-3.97228E-13
 -1      1409 2.08916E+01 1.42453E-02-2.62085E-03-2.44143E-01-6.91734E-14-3.63469E-13
 -1      1410 2.06640E+01 7.80442E-03 2.95518E-04-9.19911E-02 5.03863E-14-3.97903E-13
 -1      1411 2.05550E+01 7.82995E-03-1.12446E-04-8.78265E-02-4.02384E-14-4.11226E-13
 -1      1412 2.06702E+01 1.35773E-02-2.46176E-03-1.98830E-01-1.13906E-15-4.20323E-13
 -1      1413 2.04735E+01 6.88739E-03 3.73949E-04-7.13922E-02 5.35575E-14-3.03709E-13
 -1      1414 2.03893E+01 6.64365E-03 2.83174E-05-6.78383E-02 7.34252E-14-2.63860E-13
 -1      1415 2.04902E+01 1.20039E-02-2.17385E-03-1.56841E-01 1.03512E-13-3.22390E-13
 -1      1416 2.03258E+01 5.80046E-03 3.94995E-04-5.38860E-02 3.53842E-14-1.45275E-13
 -1      1417 2.02625E+01 5.42427E-03 1.14195E-04-5.09717E-02 4.82364E-14-9.64344E-14
 -1      1418 2.03480E+01 1.00894E-02-1.83851E-03-1.20248E-01 1.33886E-13-1.72797E-13
 -1      1419 2.02144E+01 4.71411E-03 3.78628E-04-3.95647E-02-3.63463E-14-3.54152E-14
 -1      1420 2.01682E+01 4.29261E-03 1.58758E-04-3.72498E-02-6.02250E-14-9.16878E-14
 -1      1421 2.02386E+01 8.16458E-03-1.50409E-03-8.97155E-02 4.01178E-14-5.76892E-14
 -1      1422 2.01326E+01 3.72002E-03 3.40971E-04-2.82059E-02-7.67933E-14-6.41775E-14
 -1      1423 2.00999E+01 3.30542E-03 1.74625E-04-2.64170E-02-1.07649E-13-1.57238E-13
 -1      1424 2.01564E+01 6.40477E-03-1.19694E-03-6.50909E-02-1.41741E-13-8.49338E-14
 -1      1425 2.00743E+01 2.85972E-03 2.93612E-04-1.94370E-02-1.25346E-13-2.08281E-13
 -1      1426 2.00519E+01 2.48068E-03 1.71999E-04-1.80897E-02-7.28130E-14-3.43191E-13
 -1      1427 2.00964E+01 4.88766E-03-9.29369E-04-4.57910E-02-1.74603E-13-2.19276E-13
 -1      1428 2.00341E+01 2.14439E-03 2.44187E-04-1.28371E-02 4.95163E-14-3.14902E-13
 -1      1429 2.00195E+01 1.81419E-03 1.58509E-04-1.18479E-02 1.16666E-13-2.98286E-13
 -1      1430 2.00537E+01 3.63302E-03-7.05034E-04-3.10507E-02 2.72129E-14-1.73888E-13
 -1      1431 2.00075E+01 1.56799E-03 1.97307E-04-7.99406E-03 1.19932E-13-2.59517E-13
 -1      1432 1.99986E+01 1.29036E-03 1.39536E-04-7.28729E-03 3.60103E-14-2.27618E-13
 -1      1433 2.00243E+01 2.62861E-03-5.22551E-04-2.00706E-02 1.14457E-13-2.70319E-13
 -1      1434 1.99910E+01 1.11576E-03 1.55432E-04-4.53536E-03-5.12733E-14-2.26503E-13
 -1      1435 1.99861E+01 8.88845E-04 1.18668E-04-4.04577E-03 5.26224E-15-2.80295E-13
 -1      1436 2.00050E+01 1.84636E-03-3.77874E-04-1.20996E-02 2.61917E-14-2.73826E-13
 -1      1437 1.99816E+01 7.69495E-04 1.19578E-04-2.14058E-03-3.24232E-14-3.08491E-13
 -1      1438 1.99795E+01 5.88447E-04 9.81471E-05-1.81402E-03-5.94239E-14-3.63852E-13
 -1      1439 1.99930E+01 1.25231E-03-2.65812E-04-6.47441E-03-6.57105E-14-1.47050E-13
 -1      1440 1.99772E+01 5.10623E-04 8.98538E-05-5.44041E-04-1.77778E-14-3.87733E-13
 -1      1441 1.99769E+01 3.69258E-04 7.92504E-05-3.36892E-04-3.28408E-14-3.29622E-13
 -1      1442 1.99863E+01 8.12289E-04-1.80944E-04-2.63432E-03-1.02276E-13-3.54539E-13
 -1      1443 1.99760E+01 3.21827E-04 6.58454E-05 4.68170E-04 3.04198E-14-2.94265E-13
 -1      1444 1.99769E+01 2.13643E-04 6.25996E-05 5.90201E-04 1.74860E-14-3.08219E-13
 -1      1445 1.99831E+01 4.94809E-04-1.18129E-04-1.20326E-04-5.17148E-14-3.25643E-13
 -1      1446 1.99770E+01 1.87825E-04 4.68709E-05 1.06397E-03-7.64004E-14-3.56865E-13
 -1      1447 1.99785E+01 1.06583E-04 4.83843E-05 1.12718E-03-8.55965E-14-4.49246E-13
 -1      1448 1.99824E+01 2.72403E-04-7.27595E-05 1.43309E-03-2.84320E-14-2.44207E-13
 -1      1449 1.99792E+01 9.56117E-05 3.21466E-05 1.37192E-03-4.46165E-14-4.51433E-13
 -1      1450 1.99810E+01 3.56328E-05 3.65243E-05 1.39598E-03-1.60088E-13-6.78705E-13
 -1      1451 1.99832E+01 1.21930E-04-4.08670E-05 2.30981E-03-9.29768E-14-5.25810E-13
 -1      1452 1.99821E+01 3.43787E-05 2.08892E-05 1.48784E-03-1.70587E-13-7.84301E-13
 -1      1453 1.99840E+01-9.34623E-06 2.67861E-05 1.48701E-03-9.34403E-14-9.16430E-13
 -1      1454 1.99849E+01 2.43609E-05-1.91244E-05 2.72471E-03-2.38264E-13-5.85357E-13
 -1      1455 1.99852E+01-4.74487E-06 1.23860E-05 1.48073E-03 6.98824E-14-8.25873E-13
 -1      1456 1.99870E+01-3.65620E-05 1.88789E-05 1.46491E-03 1.41792E-13-6.49860E-13
 -1      1457 1.99871E+01-3.57513E-05-4.79160E-06 2.83555E-03-5.58800E-15-4.56095E-13
 -1      1458 1.99882E+01-2.90630E-05 6.05845E-06 1.39772E-03 1.55795E-13-4.54657E-13
 -1      1459 1.99900E+01-5.27350E-05 1.25705E-05 1.37322E-03 2.07350E-13-3.07209E-13
 -1      1460 1.99895E+01-7.09729E-05 4.38061E-06 2.75338E-03 3.26639E-13-2.85273E-13
 -1      1461 1.99911E+01-4.47552E-05 1.58550E-06 1.26780E-03 2.32320E-13-2.19141E-13
 -1      1462 1.99927E+01-6.35639E-05 7.89821E-06 1.23790E-03 1.77913E-13 3.33644E-14
 -1      1463 1.99918E+01-9.18241E-05 1.02748E-05 2.55074E-03 4.22824E-13-4.83065E-14
 -1      1464 1.99938E+01-5.73421E-05-8.33750E-07 1.10439E-03 1.16880E-13 1.87386E-13
 -1      1465 1.99951E+01-7.41879E-05 5.41763E-06 1.06955E-03 1.05474E-13 4.00022E-13
 -1      1466 1.99940E+01-1.07681E-04 1.45847E-05 2.26779E-03 3.25529E-13 9.30484E-14
 -1      1467 1.99960E+01-7.21321E-05-2.04249E-07 9.06646E-04 6.45943E-14 3.64205E-13
 -1      1468 1.99971E+01-8.91682E-05 6.12363E-06 8.64240E-04 9.14426E-14 5.03573E-13
 -1      1469 1.99959E+01-1.27870E-04 1.88769E-05 1.91632E-03 1.83230E-13 8.52453E-14
 -1      1470 1.99978E+01-9.35141E-05 4.58997E-06 6.62106E-04 1.76741E-13 7.58479E-13
 -1      1471 1.99986E+01-1.10473E-04 8.03992E-06 6.06006E-04 1.37392E-13 8.13127E-13
 -1      1472 1.99975E+01-1.61527E-04 2.35574E-05 1.48292E-03 2.79965E-13 2.79811E-13
 -1      1473 1.99991E+01-1.30193E-04 7.83685E-06 3.52258E-04-2.18213E-14 9.25810E-13
 -1      1474 1.99995E+01-1.22094E-04-5.61107E-07 2.81950E-04-1.14818E-13 8.35207E-13
 -1      1475 1.99987E+01-2.15149E-04 2.63128E-05 9.48283E-04 2.18810E-13 4.58304E-13
 -1      1476 1.99998E+01-4.04768E-05-7.42704E-06-1.27878E-05-5.47715E-13 5.56071E-13
 -1      1477 1.99996E+01-2.01365E-04 1.13499E-05 2.70484E-04-6.29110E-13 3.32035E-13
 -1      1478 2.28866E+01 7.02234E-02-1.38648E-01 1.87163E-01 1.86497E-13 1.53856E-12
 -1      1479 2.37077E+01 2.23332E-01-2.25884E-01 4.08951E-01 1.71141E-13 1.84153E-12
 -1      1480 2.38244E+01 8.21335E-01-1.01136E-01 1.49744E+00 3.29313E-13 1.19374E-12
 -1      1481 2.26834E+01 3.49244E-02-1.63396E-02-1.05779E-01 1.44006E-13 1.15809E-12
 -1      1482 2.26886E+01 1.20920E-01-5.44068E-02-4.99908E-02 1.33248E-13 1.37820E-12
 -1      1483 2.29817E+01 1.72223E-01-6.02852E-02 2.33121E-01 2.82413E-13 9.23695E-13
 -1      1484 2.30617E+01 1.78492E-02 5.82164E-03-2.51838E-01 6.83013E-14 9.04353E-13
 -1      1485 2.27769E+01 6.16366E-02 4.28191E-03-2.16353E-01 7.76462E-14 1.05328E-12
 -1      1486 2.28706E+01 7.38946E-02-1.76562E-02-2.67911E-01 1.94681E-13 6.90899E-13
 -1      1487 2.37322E+01 2.52564E-03 7.97611E-03-3.16821E-01 5.88943E-14 7.69683E-13
 -1      1488 2.33142E+01 2.94846E-02 1.13201E-02-2.96476E-01 5.27022E-14 8.60839E-13
 -1      1489 2.32037E+01 3.13511E-02-7.18166E-03-5.01617E-01 1.17495E-13 5.34451E-13
 -1      1490 2.44785E+01-1.77729E-02 1.23777E-02-3.03147E-01 3.94493E-14 6.52655E-13
 -1      1491 2.40400E+01-2.71532E-03 8.90635E-03-3.02817E-01 3.16734E-14 7.16031E-13
 -1      1492 2.37520E+01-7.51723E-03-1.17953E-03-5.74897E-01 9.12547E-14 4.51609E-13
 -1      1493 2.50636E+01-4.50013E-02 2.32642E-02-1.85976E-01-2.15609E-14 6.41256E-13
 -1      1494 2.47388E+01-4.56871E-02 9.21858E-03-2.16172E-01 5.77663E-16 6.43756E-13
 -1      1495 2.43256E+01-5.90265E-02 9.71304E-03-4.77289E-01 3.18964E-14 3.86854E-13
 -1      1496 2.52029E+01-7.31482E-02 3.73929E-02 5.75306E-02 4.32154E-14 6.46044E-13
 -1      1497 2.51600E+01-9.75955E-02 1.38525E-02-1.32113E-02-8.02310E-15 6.41359E-13
 -1      1498 2.47194E+01-1.24123E-01 2.60633E-02-1.68091E-01-1.15082E-14 4.13707E-13
 -1      1499 2.46225E+01-8.39467E-02 4.36012E-02 4.05919E-01 5.63178E-14 5.34302E-13
 -1      1500 2.50239E+01-1.38895E-01 1.93439E-02 2.98193E-01 5.25309E-14 5.99108E-13
 -1      1501 2.47127E+01-1.82073E-01 4.17740E-02 3.58948E-01 7.26624E-14 3.56187E-13
 -1      1502 2.32275E+01-5.11476E-02 2.48699E-02 7.41966E-01 9.14329E-14 4.00763E-13
 -1      1503 2.41218E+01-1.30855E-01 1.74312E-02 6.31652E-01 4.96096E-14 4.81858E-13
 -1      1504 2.41354E+01-1.83648E-01 4.37696E-02 9.89840E-01 9.98958E-14 3.04270E-13
 -1      1505 2.13307E+01 3.29544E-02-2.55083E-02 8.50336E-01 9.31889E-14 2.51299E-13
 -1      1506 2.25114E+01-4.03280E-02-8.62325E-04 8.03982E-01 8.85315E-14 3.54730E-13
 -1      1507 2.30121E+01-7.04100E-02 2.06966E-02 1.43163E+00 1.33756E-13 2.02095E-13
 -1      1508 1.97181E+01 1.22603E-01-8.26357E-02 5.56096E-01 2.66037E-14 1.00690E-13
 -1      1509 2.06963E+01 1.06279E-01-3.27911E-02 6.26542E-01 8.13204E-14 1.59123E-13
 -1      1510 2.17063E+01 1.48224E-01-2.25443E-02 1.31330E+00 1.32807E-13 1.39961E-13
 -1      1511 1.92517E+01 1.51358E-01-1.03363E-01-5.99061E-02 6.92692E-14 7.23033E-15
 -1      1512 1.95135E+01 2.16021E-01-5.69309E-02 1.06055E-01 2.69090E-14 5.56083E-14
 -1      1513 2.08564E+01 3.40857E-01-5.86852E-02 5.16647E-01 6.55066E-14-4.01866E-14
 -1      1514 2.02631E+01 8.83301E-02-6.14369E-02-6.66319E-01 6.60947E-14-1.38348E-13
 -1      1515 1.96270E+01 2.05586E-01-5.03645E-02-4.98913E-01 5.69163E-14-8.90885E-14
 -1      1516 2.09689E+01 3.62311E-01-5.94896E-02-6.04930E-01 1.27610E-13-2.14502E-13
 -1      1517 2.22128E+01-8.20581E-03 8.15106E-03-9.13099E-01 1.80225E-14-3.71703E-13
 -1      1518 2.10128E+01 8.69872E-02-1.49168E-02-8.36107E-01 7.76896E-14-2.32314E-13
 -1      1519 2.20079E+01 1.64100E-01-3.43935E-02-1.41027E+00 1.51004E-13-3.60878E-13
 -1      1520 2.41691E+01-7.07168E-02 5.43972E-02-7.64675E-01-1.49516E-14-4.63379E-13
 -1      1521 2.29660E+01-3.82831E-02 2.10394E-02-7.86430E-01 2.27353E-14-3.78531E-13
 -1      1522 2.34162E+01-7.75461E-02-5.67170E-03-1.52842E+00 3.46355E-14-3.91021E-13
 -1      1523 2.54607E+01-8.17834E-02 6.08793E-02-4.12373E-01-9.61037E-16-5.10626E-13
 -1      1524 2.46581E+01-1.03678E-01 3.56426E-02-4.86107E-01-1.58033E-14-5.13464E-13
 -1      1525 2.45846E+01-2.12977E-01 1.04641E-02-1.08886E+00 5.62154E-14-4.85129E-13
 -1      1526 2.59090E+01-6.14218E-02 4.26641E-02-6.45678E-02 8.67709E-14-5.97232E-13
 -1      1527 2.56140E+01-1.05905E-01 2.99408E-02-1.40901E-01 6.71962E-14-4.97970E-13
 -1      1528 2.51880E+01-2.17173E-01 1.42298E-02-4.52616E-01 6.56194E-14-5.74374E-13
 -1      1529 2.56785E+01-3.39094E-02 2.01367E-02 1.75259E-01 1.95156E-15-6.07070E-13
 -1      1530 2.57901E+01-7.60334E-02 1.61211E-02 1.20667E-01 1.13173E-14-6.13131E-13
 -1      1531 2.52141E+01-1.51597E-01 1.14366E-02 9.27250E-02 8.17263E-14-5.54561E-13
 -1      1532 2.50415E+01-1.20592E-02 3.79686E-03 2.96693E-01-1.46997E-13-4.14301E-13
 -1      1533 2.53935E+01-4.13804E-02 4.14944E-03 2.66936E-01-6.07704E-14-5.12390E-13
 -1      1534 2.48198E+01-7.68529E-02 7.15621E-03 4.36147E-01-9.73596E-14-4.64087E-13
 -1      1535 2.42353E+01 1.32346E-03-4.77726E-03 3.30869E-01-6.59431E-14-2.13302E-13
 -1      1536 2.46847E+01-1.47324E-02-2.67179E-03 3.19782E-01-1.07269E-13-3.40439E-13
 -1      1537 2.41949E+01-2.13669E-02 3.68653E-03 5.90442E-01-1.70367E-13-1.98435E-13
 -1      1538 2.34178E+01 7.88899E-03-7.81371E-03 3.14072E-01 8.18271E-14-1.86620E-13
 -1      1539 2.38713E+01 1.66576E-03-5.10721E-03 3.14228E-01 8.64673E-15-1.57926E-13
 -1      1540 2.34921E+01 1.08166E-02 1.47980E-03 6.14177E-01-4.87820E-14-1.35174E-13
 -1      1541 2.26745E+01 1.01526E-02-7.88190E-03 2.73584E-01 1.31184E-13-4.64016E-13
 -1      1542 2.30833E+01 9.95961E-03-5.04708E-03 2.79343E-01 1.07794E-13-2.44464E-13
 -1      1543 2.28097E+01 2.54438E-02 2.55750E-04 5.65149E-01 1.62375E-13-2.34899E-13
 -1      1544 2.20410E+01 1.01068E-02-6.73983E-03 2.26081E-01 3.39316E-14-6.42300E-13
 -1      1545 2.23859E+01 1.30528E-02-3.99977E-03 2.33937E-01 5.15072E-14-5.51255E-13
 -1      1546 2.22000E+01 2.94576E-02-3.63171E-04 4.84587E-01 1.85914E-13-5.10259E-13
 -1      1547 2.15234E+01 9.01402E-03-5.31495E-03 1.80306E-01-5.26775E-14-5.36671E-13
 -1      1548 2.18023E+01 1.32503E-02-2.80260E-03 1.88357E-01-4.03280E-14-5.55172E-13
 -1      1549 2.16834E+01 2.80329E-02-6.48687E-04 3.97055E-01-7.56869E-14-4.24414E-13
 -1      1550 2.11131E+01 7.57402E-03-4.00311E-03 1.40087E-01-1.58887E-13-2.68366E-13
 -1      1551 2.13320E+01 1.20505E-02-1.79483E-03 1.47432E-01-9.42152E-14-4.43072E-13
 -1      1552 2.12614E+01 2.43278E-02-7.55778E-04 3.15141E-01-1.52955E-13-1.31183E-13
 -1      1553 2.07954E+01 6.13374E-03-2.92782E-03 1.06562E-01-1.17493E-13 2.83020E-14
 -1      1554 2.09632E+01 1.03185E-02-1.05339E-03 1.12861E-01-1.50412E-13-2.04058E-13
 -1      1555 2.09261E+01 2.00346E-02-7.66302E-04 2.44127E-01-2.52382E-13-7.50252E-14
 -1      1556 2.05543E+01 4.84299E-03-2.09503E-03 7.95410E-02 1.35429E-13-1.42581E-13
 -1      1557 2.06804E+01 8.50845E-03-5.49189E-04 8.47427E-02 1.39271E-13 3.90807E-14
 -1      1558 2.06654E+01 1.59557E-02-7.24143E-04 1.85317E-01 5.04638E-14-6.34272E-14
 -1      1559 2.03747E+01 3.75034E-03-1.46981E-03 5.82780E-02 4.97225E-14-3.21541E-13
 -1      1560 2.04677E+01 6.83453E-03-2.25265E-04 6.24634E-02 3.74218E-14-2.74188E-13
 -1      1561 2.04667E+01 1.24087E-02-6.54428E-04 1.38078E-01 1.27449E-13-6.02045E-14
 -1      1562 2.02433E+01 2.85639E-03-1.00942E-03 4.18586E-02 8.51935E-14-5.34461E-13
 -1      1563 2.03106E+01 5.38072E-03-2.79072E-05 4.51607E-02 9.49568E-14-3.56236E-13
 -1      1564 2.03179E+01 9.47022E-03-5.72517E-04 1.00976E-01 1.09401E-13-1.36542E-13
 -1      1565 2.01492E+01 2.14155E-03-6.75195E-04 2.93875E-02-4.23826E-14-6.01061E-13
 -1      1566 2.01968E+01 4.16475E-03 8.46677E-05 3.19498E-02-6.41470E-14-6.63054E-13
 -1      1567 2.02085E+01 7.10790E-03-4.88063E-04 7.23620E-02 7.77975E-14-3.92661E-13
 -1      1568 2.00833E+01 1.57980E-03-4.35760E-04 2.00651E-02-8.78899E-14-4.01950E-13
 -1      1569 2.01161E+01 3.17320E-03 1.42304E-04 2.20230E-02-9.47824E-14-5.43746E-13
 -1      1570 2.01297E+01 5.24798E-03-4.07055E-04 5.06543E-02-1.34156E-13-4.44799E-13
 -1      1571 2.00385E+01 1.14489E-03-2.66789E-04 1.32111E-02 6.66876E-14-2.58919E-13
 -1      1572 2.00604E+01 2.38006E-03 1.65386E-04 1.46845E-02 3.23801E-14-2.14791E-13
 -1      1573 2.00742E+01 3.80741E-03-3.33005E-04 3.44487E-02-6.66508E-14-4.20616E-16
 -1      1574 2.00092E+01 8.12938E-04-1.49776E-04 8.26365E-03 1.03858E-13-4.09734E-13
 -1      1575 2.00232E+01 1.75585E-03 1.67497E-04 9.35465E-03 7.80879E-14-2.44265E-13
 -1      1576 2.00361E+01 2.70784E-03-2.67686E-04 2.25535E-02 1.53605E-13-1.02364E-13
 -1      1577 1.99911E+01 5.63226E-04-7.07334E-05 4.76739E-03-6.60305E-14-3.93239E-13
 -1      1578 1.99994E+01 1.27186E-03 1.57564E-04 5.56110E-03 2.94673E-15-4.40073E-13
 -1      1579 2.00111E+01 1.88055E-03-2.11676E-04 1.39846E-02 4.10080E-14-3.20982E-13
 -1      1580 1.99808E+01 3.78298E-04-1.91315E-05 2.35956E-03-4.16239E-14-4.45215E-13
 -1      1581 1.99852E+01 9.02101E-04 1.41386E-04 2.92543E-03-3.50755E-14-3.71728E-13
 -1      1582 1.99953E+01 1.26747E-03-1.64774E-04 7.94519E-03 1.82601E-14-2.15946E-13
 -1      1583 1.99759E+01 2.43755E-04 1.29054E-05 7.54995E-04 1.02934E-13-5.76456E-13
 -1      1584 1.99776E+01 6.23921E-04 1.22652E-04 1.14889E-03 6.74868E-14-4.55431E-13
 -1      1585 1.99862E+01 8.20744E-04-1.26318E-04 3.80026E-03 5.57803E-14-1.28388E-13
 -1      1586 1.99746E+01 1.47897E-04 3.12314E-05-2.67567E-04-2.27228E-13-7.74071E-14
 -1      1587 1.99746E+01 4.18149E-04 1.03638E-04-1.31926E-06-2.53890E-13-4.49404E-13
 -1      1588 1.99817E+01 5.01587E-04-9.54034E-05 1.05092E-03-2.76471E-13 1.15934E-13
 -1      1589 1.99755E+01 8.13110E-05 4.01697E-05-8.77501E-04-5.04192E-15 5.48368E-14
 -1      1590 1.99745E+01 2.68834E-04 8.56693E-05-7.04203E-04 1.71483E-14 3.90742E-14
 -1      1591 1.99802E+01 2.78982E-04-7.10260E-05-6.89617E-04-1.62058E-13 6.93764E-14
 -1      1592 1.99778E+01 3.64940E-05 4.28883E-05-1.20251E-03 3.00764E-14 4.37869E-14
 -1      1593 1.99762E+01 1.62880E-04 6.94501E-05-1.09540E-03-3.20359E-14-2.62367E-14
 -1      1594 1.99807E+01 1.28348E-04-5.21733E-05-1.71700E-03-1.48209E-14 5.66839E-14
 -1      1595 1.99808E+01 7.49644E-06 4.16863E-05-1.33710E-03 1.78454E-14 4.84313E-14
 -1      1596 1.99789E+01 8.96319E-05 5.52746E-05-1.27589E-03 3.89121E-14 1.14361E-13
 -1      1597 1.99824E+01 3.03601E-05-3.78765E-05-2.25353E-03 1.50131E-14 3.60373E-13
 -1      1598 1.99840E+01-1.03980E-05 3.82214E-05-1.34945E-03 7.59562E-14 4.28973E-14
 -1      1599 1.99821E+01 4.04556E-05 4.31768E-05-1.31914E-03-3.16097E-15 3.61307E-14
 -1      1600 1.99847E+01-3.00905E-05-2.72323E-05-2.46301E-03 7.28077E-14 3.01555E-13
 -1      1601 1.99872E+01-2.09737E-05 3.37079E-05-1.28685E-03 5.92550E-14-6.52779E-14
 -1      1602 1.99854E+01 8.31504E-06 3.30376E-05-1.27675E-03 6.94016E-14 8.23117E-14
 -1      1603 1.99872E+01-6.48280E-05-1.93937E-05-2.46258E-03 1.02336E-13 1.91311E-13
 -1      1604 1.99903E+01-2.74046E-05 2.91530E-05-1.17962E-03 3.24470E-14-4.45346E-14
 -1      1605 1.99886E+01-1.26965E-05 2.46845E-05-1.18276E-03 7.28869E-14-1.45712E-14
 -1      1606 1.99899E+01-8.32491E-05-1.35151E-05-2.33208E-03 5.71895E-14 2.48718E-13
 -1      1607 1.99931E+01-3.24179E-05 2.57270E-05-1.04382E-03 1.38342E-13-3.03919E-13
 -1      1608 1.99915E+01-2.77677E-05 1.80928E-05-1.05655E-03 1.07588E-13-2.01353E-13
 -1      1609 1.99923E+01-9.31595E-05-8.61357E-06-2.12067E-03 1.99936E-13 1.28968E-13
 -1      1610 1.99955E+01-3.85515E-05 2.51375E-05-8.83008E-04 2.02285E-13-6.97981E-13
 -1      1611 1.99942E+01-4.17601E-05 1.36724E-05-9.04937E-04 2.23024E-13-3.82894E-13
 -1      1612 1.99946E+01-1.01363E-04-3.31045E-06-1.85146E-03 2.62062E-13-2.18500E-13
 -1      1613 1.99975E+01-4.86030E-05 2.85163E-05-6.88607E-04-1.08307E-13-6.67718E-13
 -1      1614 1.99964E+01-5.97914E-05 1.23104E-05-7.23267E-04-5.22309E-14-7.62789E-13
 -1      1615 1.99965E+01-1.14842E-04 4.03227E-06-1.52468E-03 7.74554E-14-1.22708E-13
 -1      1616 1.99989E+01-6.44738E-05 3.06090E-05-4.40409E-04-1.11320E-13-4.86641E-13
 -1      1617 1.99981E+01-8.65278E-05 1.33537E-05-4.97359E-04-8.94716E-14-5.46829E-13
 -1      1618 1.99980E+01-1.41886E-04 1.30866E-05-1.12060E-03-1.87206E-13-5.46750E-14
 -1      1619 1.99996E+01-8.04791E-05 2.05462E-07-1.47788E-04-7.06589E-14-1.59099E-13
 -1      1620 1.99993E+01-1.09644E-04 9.58205E-06-2.20549E-04-1.00521E-13-3.73907E-13
 -1      1621 1.99991E+01-1.76135E-04 1.83472E-05-6.16634E-04-1.70582E-13-2.88777E-13
 -1      1622 1.99998E+01-4.65589E-05-1.10355E-05-1.01591E-06-7.08106E-15-1.98014E-14
 -1      1623 1.99997E+01-7.18624E-04 1.56720E-05-3.64570E-04-1.64165E-13 1.07514E-13
 -1      1624 1.99997E+01-3.61898E-04-3.65296E-06-2.87474E-04-2.06916E-14-1.12588E-13
 -1      1625 1.99997E+01-1.89980E-03 8.08485E-06-6.18642E-04 5.21739E-14 2.10968E-13
 -1      1626 1.99997E+01-1.20455E-03 1.01943E-05-5.76850E-04-5.49507E-14 1.98135E-13
 -1      1627 1.99996E+01-1.11376E-03 1.86873E-05-9.17019E-04 5.97051E-14 1.79167E-13
 -1      1628 1.99998E+01-3.38724E-03 1.04359E-06-7.42127E-04-4.65435E-14-3.93027E-14
 -1      1629 1.99998E+01-2.51762E-03 5.79652E-06-7.28868E-04 2.66585E-14 8.57773E-14
 -1      1630 1.99997E+01-2.20897E-03 1.30487E-05-1.30165E-03 4.33364E-14 8.12732E-14
 -1      1631 1.99998E+01-4.93952E-03-2.49259E-06-7.38988E-04 4.63530E-13 3.28253E-13
 -1      1632 1.99998E+01-4.05341E-03 1.42981E-06-7.49754E-04 1.10959E-15 3.67602E-13
 -1      1633 1.99998E+01-3.48357E-03 2.29549E-08-1.43912E-03 1.13200E-15 2.59071E-13
 -1      1634 1.99999E+01-6.31363E-03-3.34384E-06-6.35171E-04-1.12196E-14-3.64054E-13
 -1      1635 1.99998E+01-5.55081E-03-3.66308E-07-6.62886E-04 3.74487E-13-2.55382E-13
 -1      1636 1.99999E+01-4.74902E-03-1.12622E-05-1.35235E-03-7.58639E-14-6.88424E-14
 -1      1637 1.99999E+01-7.38495E-03-3.05881E-06-4.54097E-04-1.79560E-13-1.17259E-13
 -1      1638 1.99999E+01-6.81662E-03-1.22006E-06-4.94704E-04-3.19876E-15-1.48927E-13
 -1      1639 1.99999E+01-5.84995E-03-1.92924E-05-1.09056E-03-8.69341E-14-4.05499E-13
 -1      1640 1.99999E+01-8.00547E-03-2.36752E-06-2.24169E-04-2.61044E-13-1.78247E-13
 -1      1641 1.99999E+01-7.70800E-03-1.43280E-06-2.71821E-04-9.32211E-14-1.56146E-13
 -1      1642 1.99999E+01-6.66385E-03-2.46433E-05-7.01012E-04-1.44143E-13-1.66229E-13
 -1      1643 1.99999E+01-8.11101E-03-1.77471E-06 2.82743E-05 8.20090E-14 1.66347E-13
 -1      1644 1.99999E+01-8.11492E-03-1.78126E-06-2.16158E-05-1.83922E-13 7.62522E-14
 -1      1645 2.00000E+01-7.09002E-03-2.72146E-05-2.37411E-04 3.25326E-14-5.50040E-14
 -1      1646 1.99999E+01-7.69091E-03-1.36498E-06 2.77784E-04 2.28467E-13 1.68154E-13
 -1      1647 1.99999E+01-7.99562E-03-2.36236E-06 2.30379E-04 7.67786E-14 2.23115E-13
 -1      1648 2.00000E+01-7.08405E-03-2.71455E-05 2.49884E-04 2.34172E-13 2.51780E-13
 -1      1649 1.99999E+01-6.78927E-03-1.02252E-06 4.98944E-04 2.29116E-13-2.16249E-13
 -1      1650 1.99999E+01-7.36296E-03-3.16020E-06 4.58876E-04 3.05266E-13-2.53112E-14
 -1      1651 1.99999E+01-6.64700E-03-2.43986E-05 7.11475E-04 5.11181E-14 2.64997E-13
 -1      1652 1.99998E+01-5.52905E-03-5.16901E-07 6.63214E-04 1.72187E-13 1.74596E-13
 -1      1653 1.99999E+01-6.29371E-03-3.43510E-06 6.36136E-04 2.24827E-13-1.64684E-13
 -1      1654 1.99999E+01-5.83349E-03-1.91874E-05 1.09496E-03 8.90500E-14-2.17999E-13
 -1      1655 1.99998E+01-4.01948E-03 1.37608E-06 7.49123E-04 2.64782E-13-1.10885E-13
 -1      1656 1.99998E+01-4.90568E-03-2.56916E-06 7.38889E-04 2.61231E-13 2.83590E-13
 -1      1657 1.99999E+01-4.72932E-03-1.08602E-05 1.35285E-03 1.79636E-13 3.29309E-13
 -1      1658 1.99998E+01-2.48840E-03 5.81234E-06 7.27860E-04-3.62332E-13-3.50445E-13
 -1      1659 1.99998E+01-3.35503E-03 8.92922E-07 7.39792E-04 1.00088E-13-3.43093E-13
 -1      1660 1.99998E+01-3.45415E-03 2.29331E-07 1.43624E-03 7.92527E-14-4.26292E-13
 -1      1661 1.99997E+01-1.20367E-03 2.47438E-06 5.73214E-04-9.36658E-13-3.22666E-13
 -1      1662 1.99997E+01-1.87887E-03 7.70562E-06 6.15616E-04-4.39914E-13-3.36349E-13
 -1      1663 1.99997E+01-2.18448E-03 1.26021E-05 1.29446E-03-2.06694E-13-6.16181E-13
 -1      1664 1.99996E+01-4.83494E-04-1.21183E-05 4.25794E-04-7.08728E-13-9.59919E-14
 -1      1665 1.99996E+01-8.44364E-04 6.52336E-06 5.37438E-04-6.84574E-13-2.10577E-13
 -1      1666 1.99995E+01-1.21683E-03 1.84768E-05 1.07941E-03-2.29755E-13-1.95148E-13
 -1      1667 1.99993E+01-5.74573E-04-1.19700E-06 8.36203E-04-1.27938E-13 8.06919E-14
 -1      1668-6.75991E-01-1.48519E+01-1.69694E+00-1.17891E+00 1.04261E-12 6.52367E-13
 -1      1669-6.24066E-01-1.68303E+01-1.85917E+00 1.41886E-01 2.32550E-13 5.01932E-13
 -1      1670 1.18803E+00-8.44551E+00-1.25414E+00 2.03289E-01 1.93157E-12 1.18533E-12
 -1      1671 4.98913E-01-1.35356E+01-1.75362E+00-3.55823E-01 1.30762E-12 8.10137E-13
 -1      1672 7.87437E+00-4.45732E-01-5.19035E-01 4.89624E+00 2.18980E-12 1.84219E-12
 -1      1673 4.19845E+00-6.40573E+00-1.34224E+00 1.63057E+00 1.99907E-12 1.30906E-12
 -1      1674 1.94819E+01 4.83735E+00 2.91086E-01 9.97559E+00 2.02227E-12 2.02660E-12
 -1      1675 1.22718E+01 1.59442E+00-6.48119E-01 6.20182E+00 2.26585E-12 1.92291E-12
 -1      1676 3.39113E+01 6.02471E+00 1.00232E+00 1.23783E+01 1.33826E-12 1.90536E-12
 -1      1677 2.45357E+01 6.08226E+00 1.73972E-01 1.07821E+01 1.82465E-12 2.07256E-12
 -1      1678 4.73047E+01 4.43280E+00 1.44817E+00 8.49267E+00 7.66425E-13 9.35363E-13
 -1      1679 3.87170E+01 5.93975E+00 8.54829E-01 1.05992E+01 1.12918E-12 1.48215E-12
 -1      1680 5.44997E+01 3.87084E+00 1.78159E+00 1.45464E+00 6.36213E-13-3.14249E-13
 -1      1681 5.03473E+01 4.79022E+00 1.43113E+00 6.68068E+00 7.53259E-13 5.76317E-13
 -1      1682 5.37239E+01 4.31612E+00 1.80298E+00-6.50565E+00 7.37882E-13-1.59156E-12
 -1      1683 5.64560E+01 3.48295E+00 1.96347E+00-8.53619E-01 5.35683E-13-7.66637E-13
 -1      1684 4.27225E+01 5.95634E+00 1.15290E+00-1.09049E+01 1.26996E-12-2.31049E-12
 -1      1685 5.04418E+01 4.42102E+00 1.75038E+00-8.20033E+00 8.81073E-13-1.80256E-12
 -1      1686 2.84382E+01 6.38481E+00 3.97933E-01-1.13943E+01 1.91891E-12-2.60902E-12
 -1      1687 3.81355E+01 5.86844E+00 1.23327E+00-1.22637E+01 1.48204E-12-2.51910E-12
 -1      1688 1.51405E+01 3.61552E+00-4.09435E-01-7.86677E+00 2.33524E-12-2.36666E-12
 -1      1689 2.28752E+01 5.88704E+00 4.99932E-01-1.12611E+01 2.12641E-12-2.63700E-12
 -1      1690 5.95552E+00-3.18347E+00-1.11662E+00-2.94073E+00 2.14628E-12-1.64846E-12
 -1      1691 1.03840E+01 2.06800E+00-2.90428E-01-6.50455E+00 2.35456E-12-2.20390E-12
 -1      1692 1.99561E+00-1.08767E+01-1.45340E+00-6.60308E-01 1.31684E-12-8.93063E-13
 -1      1693 3.52005E+00-5.46800E+00-9.08165E-01-2.12395E+00 1.80234E-12-1.37673E-12
 -1      1694-3.61281E-01-1.59294E+01-1.80693E+00-1.73670E-02 3.06200E-13-5.60302E-13
 -1      1695-2.97327E-01-1.26265E+01-1.50236E+00 8.03521E-01 1.11389E-12-7.62501E-13
 -1      1696-7.88771E-01-1.59723E+01-1.79730E+00-8.76118E-01-9.71889E-13-6.02685E-13
 -1      1697-7.73816E-01-1.69379E+01-1.89081E+00 7.80664E-01-4.80727E-14-5.00877E-13
 -1      1698 7.97986E-01-9.84187E+00-1.26836E+00 2.84984E-01-1.95144E-12-1.16969E-12
 -1      1699 3.19769E-01-1.42192E+01-1.67561E+00 2.83848E-01-1.21148E-12-7.91006E-13
 -1      1700 4.44224E+00-2.67047E+00-7.91754E-01 2.95109E+00-2.61946E-12-1.79046E-12
 -1      1701 2.44831E+00-8.19777E+00-1.45019E+00 8.74420E-01-2.31903E-12-1.30707E-12
 -1      1702 1.40648E+01 3.29992E+00-4.18799E-02 8.25388E+00-2.34113E-12-2.09077E-12
 -1      1703 8.48076E+00-1.01431E+00-8.93296E-01 4.49368E+00-2.51821E-12-1.82887E-12
 -1      1704 2.90803E+01 5.68299E+00 7.80217E-01 1.16747E+01-1.65290E-12-2.00961E-12
 -1      1705 1.97913E+01 4.45077E+00-9.93012E-02 8.89346E+00-2.11975E-12-2.05369E-12
 -1      1706 4.30496E+01 5.62799E+00 1.46310E+00 1.16230E+01-1.02002E-12-1.90314E-12
 -1      1707 3.41322E+01 7.03304E+00 7.78604E-01 1.23922E+01-1.47460E-12-2.15894E-12
 -1      1708 5.22563E+01 3.88592E+00 1.65028E+00 5.20412E+00-6.27137E-13-9.91651E-13
 -1      1709 4.65412E+01 5.45314E+00 1.32908E+00 9.57918E+00-8.52235E-13-1.61027E-12
 -1      1710 5.26026E+01 4.18176E+00 1.57849E+00-3.52726E+00-5.67435E-13 2.27068E-13
 -1      1711 5.29943E+01 4.06385E+00 1.58222E+00 2.49819E+00-6.17340E-13-6.35575E-13
 -1      1712 4.60708E+01 5.57481E+00 1.34551E+00-1.03827E+01-8.44512E-13 1.28031E-12
 -1      1713 5.22154E+01 3.92091E+00 1.74088E+00-6.41271E+00-5.41539E-13 6.52089E-13
 -1      1714 3.26485E+01 6.63091E+00 6.68695E-01-1.16948E+01-1.40932E-12 1.77280E-12
 -1      1715 4.17465E+01 5.50719E+00 1.36669E+00-1.13219E+01-9.72916E-13 1.41964E-12
 -1      1716 1.92559E+01 5.53228E+00-4.33778E-02-9.70654E+00-1.90181E-12 2.06435E-12
 -1      1717 2.73229E+01 6.51874E+00 7.50706E-01-1.22460E+01-1.64402E-12 2.06213E-12
 -1      1718 9.25841E+00 5.91689E-01-7.49947E-01-5.19626E+00-2.34457E-12 1.72529E-12
 -1      1719 1.46342E+01 4.27865E+00 4.65283E-02-8.68647E+00-2.09066E-12 1.99196E-12
 -1      1720 3.16390E+00-6.76828E+00-1.36288E+00-1.29011E+00-2.08111E-12 1.32050E-12
 -1      1721 5.67097E+00-1.37493E+00-6.73303E-01-3.79597E+00-2.32081E-12 1.70219E-12
 -1      1722 3.91143E-01-1.36862E+01-1.76674E+00 2.33202E-01-1.21103E-12 7.66314E-13
 -1      1723 9.40948E-01-8.87741E+00-1.29959E+00-1.29100E-01-1.91358E-12 1.19854E-12
 -1      1724-6.09941E-01-1.70270E+01-1.89319E+00-3.95950E-01-4.45199E-14 5.20306E-13
 -1      1725-6.08674E-01-1.50403E+01-1.72159E+00 9.15621E-01-8.94951E-13 6.72740E-13
 -1      1726 2.61389E+01 9.88362E-01 3.08259E-01 7.19011E+00 1.34692E-12 1.10911E-12
 -1      1727 1.54995E+01-3.39825E+00-3.33888E-01 6.30867E+00 1.12199E-12 1.15208E-12
 -1      1728 1.99997E+01-1.31202E-04 1.02277E-05-1.42350E-04-1.67067E-13-2.33683E-13
 -1      1729 1.99995E+01-4.35571E-04 6.23685E-06-4.92561E-04-5.19884E-14-7.24450E-14
 -1      1730 4.32623E-01-1.03887E+01-1.19789E+00 2.07225E+00 5.64437E-13 1.05060E-12
 -1      1731 6.26560E+00-7.40773E+00-8.46982E-01 4.52366E+00 9.26259E-13 1.12443E-12
 -1      1732-1.36758E+00-1.16690E+01-1.33517E+00-1.63267E-01-2.69368E-14 9.91651E-13
 -1      1733 3.64698E+01 4.18501E+00 9.30193E-01 5.79829E+00 1.11595E-12 7.67830E-13
 -1      1734 4.29199E+01 6.64172E+00 1.20040E+00 2.52037E+00 1.07697E-12 1.71696E-13
 -1      1735 4.71278E+01 7.70913E+00 1.53287E+00-1.92511E-01 1.06454E-12-4.02907E-13
 -1      1736 4.58243E+01 6.90921E+00 1.48873E+00-3.11683E+00 1.05382E-12-1.00037E-12
 -1      1737 3.89530E+01 4.95310E+00 1.07686E+00-5.67074E+00 1.14042E-12-1.32994E-12
 -1      1738 2.92032E+01 2.15180E+00 5.37439E-01-7.32373E+00 1.33826E-12-1.55231E-12
 -1      1739 1.80625E+01-1.53922E+00-1.59882E-01-6.90163E+00 1.37601E-12-1.63414E-12
 -1      1740 8.98329E+00-6.04795E+00-7.41130E-01-5.36037E+00 9.82658E-13-1.32599E-12
 -1      1741 2.55529E+00-8.79225E+00-9.17151E-01-3.54767E+00 5.39901E-13-1.10617E-12
 -1      1742-1.12812E+00-1.11489E+01-1.28593E+00-6.73930E-01 4.32709E-14-1.00947E-12
 -1      1743-2.27104E-01-1.03952E+01-1.17294E+00 2.02093E+00-5.70877E-13-1.11067E-12
 -1      1744 4.00642E+00-7.94960E+00-9.46782E-01 4.11489E+00-1.06382E-12-1.24642E-12
 -1      1745 1.15254E+01-4.35505E+00-4.77907E-01 6.10727E+00-1.45040E-12-1.28830E-12
 -1      1746 2.23668E+01-7.34566E-01 1.38968E-01 7.08133E+00-1.33715E-12-1.09524E-12
 -1      1747 3.25687E+01 3.03548E+00 5.75629E-01 6.64129E+00-1.22496E-12-1.16418E-12
 -1      1748 4.14340E+01 6.17680E+00 1.22925E+00 5.28994E+00-1.01710E-12-1.03517E-12
 -1      1749 4.49352E+01 7.70385E+00 1.35343E+00 1.57469E+00-9.85156E-13-4.91468E-13
 -1      1750 4.53241E+01 7.48237E+00 1.41174E+00-2.21485E+00-9.12381E-13-1.80411E-15
 -1      1751 4.07200E+01 5.82721E+00 1.16809E+00-5.24506E+00-9.48408E-13 5.35572E-13
 -1      1752 3.19543E+01 3.49238E+00 6.99540E-01-7.19348E+00-1.10689E-12 8.99392E-13
 -1      1753 2.16960E+01 4.95565E-01 1.36039E-01-7.51974E+00-1.33027E-12 1.23845E-12
 -1      1754 1.23420E+01-3.47026E+00-4.33992E-01-6.16310E+00-1.32339E-12 1.09224E-12
 -1      1755 4.92060E+00-7.53943E+00-9.20370E-01-4.19161E+00-9.85434E-13 1.23420E-12
 -1      1756 2.35322E-01-1.06597E+01-1.24865E+00-2.16514E+00-5.45675E-13 1.17106E-12
 -1      1757 2.43930E+01 1.97000E+00-2.69554E-02-2.33630E+00-2.76463E-13 1.18658E-12
 -1      1758 2.05478E+01 3.70280E+00-3.90147E-02-1.33219E+00-3.44435E-13-3.40349E-13
 -1      1759 2.10536E+01 3.55485E+00-3.72180E-02-1.66379E+00-4.00308E-13-2.06217E-13
 -1      1760 2.16000E+01 3.15165E+00-4.87602E-02-1.86944E+00-4.02011E-13-4.43118E-14
 -1      1761 2.20440E+01 2.77338E+00-1.33457E-01-2.19739E+00-4.32841E-13 1.67845E-13
 -1      1762 2.15903E+01 2.63597E+00-4.54503E-03-1.46618E+00-4.20091E-13-9.77482E-14
 -1      1763 1.88808E+01 4.25174E+00-2.27448E-02-4.20607E-01-1.84785E-13-5.83127E-13
 -1      1764 1.92603E+01 4.21590E+00-1.10254E-02-6.24141E-01-2.30494E-13-5.44603E-13
 -1      1765 1.81984E+01 4.43226E+00-1.83533E-02-1.10413E-01-1.14185E-13-6.21102E-13
 -1      1766 1.85292E+01 4.40519E+00-5.54067E-03-2.60280E-01-1.49008E-13-6.05955E-13
 -1      1767 1.88618E+01 3.92472E+00-1.01595E-02-2.58094E-01-1.81109E-13-5.71109E-13
 -1      1768 1.76623E+01 4.58570E+00-1.48354E-02 9.09349E-02-3.77354E-14-6.31454E-13
 -1      1769 1.79119E+01 4.56236E+00-3.34479E-03-7.50088E-03-7.75317E-14-6.27717E-13
 -1      1770 1.81641E+01 4.17683E+00-8.00296E-03 1.07601E-02-9.06050E-14-6.07016E-13
 -1      1771 1.73357E+01 4.70206E+00-1.14905E-02 1.99160E-01 3.59339E-14-6.46299E-13
 -1      1772 1.74712E+01 4.68351E+00-3.75036E-03 1.39919E-01 6.08671E-15-6.43020E-13
 -1      1773 1.76370E+01 4.38096E+00-5.34664E-03 1.68948E-01-1.44312E-14-6.19947E-13
 -1      1774 1.72778E+01 4.76191E+00-8.31681E-03 2.50305E-01 1.10239E-13-6.45736E-13
 -1      1775 1.72711E+01 4.75162E+00-6.39371E-03 2.10133E-01 7.60386E-14-6.51578E-13
 -1      1776 1.73501E+01 4.51464E+00-3.11181E-03 2.33636E-01 6.56001E-14-6.33762E-13
 -1      1777 1.75218E+01 4.74720E+00-6.04149E-03 2.96834E-01 1.70675E-13-6.27305E-13
 -1      1778 1.73603E+01 4.74922E+00-1.07042E-02 2.49819E-01 1.40617E-13-6.40991E-13
 -1      1779 1.73621E+01 4.55018E+00-2.21694E-03 2.46696E-01 1.37373E-13-6.23376E-13
 -1      1780 1.80529E+01 4.65027E+00-5.52673E-03 3.95078E-01 2.37619E-13-5.68982E-13
 -1      1781 1.77496E+01 4.66718E+00-1.62161E-02 3.15660E-01 2.05023E-13-6.02664E-13
 -1      1782 1.76964E+01 4.46976E+00-2.82612E-03 2.66134E-01 1.99891E-13-5.98298E-13
 -1      1783 1.88547E+01 4.45967E+00-8.13055E-03 6.00573E-01 3.24350E-13-4.63213E-13
 -1      1784 1.84189E+01 4.49953E+00-2.30398E-02 4.61366E-01 2.66889E-13-5.19260E-13
 -1      1785 1.83399E+01 4.26686E+00-4.78154E-03 3.50065E-01 2.69302E-13-5.18158E-13
 -1      1786 1.98741E+01 4.15203E+00-1.64695E-02 9.49008E-01 4.03460E-13-3.33379E-13
 -1      1787 1.93336E+01 4.23275E+00-3.19440E-02 7.30814E-01 3.63551E-13-4.12536E-13
 -1      1788 1.92598E+01 3.93386E+00-6.45212E-03 5.42152E-01 3.66323E-13-4.04801E-13
 -1      1789 2.10845E+01 3.64380E+00-3.62444E-02 1.44656E+00 4.56944E-13-9.62702E-14
 -1      1790 2.04478E+01 3.82059E+00-4.49543E-02 1.13964E+00 4.21309E-13-2.43288E-13
 -1      1791 2.04036E+01 3.44427E+00-4.45491E-03 8.50153E-01 4.34401E-13-2.55487E-13
 -1      1792 2.25934E+01 2.69214E+00-4.91430E-02 1.96510E+00 4.53381E-13 3.51240E-13
 -1      1793 2.17830E+01 3.13815E+00-5.30124E-02 1.64624E+00 4.50945E-13 8.79713E-14
 -1      1794 2.17377E+01 2.69259E+00 3.39854E-03 1.20085E+00 4.66380E-13 9.80119E-15
 -1      1795 2.37134E+01 1.17745E+00-1.17176E-01 1.62981E+00 3.77927E-13 9.00474E-13
 -1      1796 2.31156E+01 2.23938E+00-1.94837E-03 1.93121E+00 4.17780E-13 5.40082E-13
 -1      1797 2.27787E+01 1.68743E+00-1.37876E-02 1.22580E+00 4.63738E-13 3.51798E-13
 -1      1798 2.31884E+01 7.62052E-01-5.04710E-02 8.13697E-01 3.86802E-13 7.79828E-13
 -1      1799 2.33749E+01 2.41756E+00 8.38314E-02-2.50727E+00-3.70230E-13 5.44606E-13
 -1      1800 2.28314E+01 3.13800E-01-2.01418E-03-6.94013E-02 3.01915E-13 5.83623E-13
 -1      1801 2.30790E+01 4.45406E-01-8.48755E-03 3.23645E-01 3.24824E-13 6.99602E-13
 -1      1802 2.29522E+01 8.37598E-01-3.35179E-03 5.62921E-01 3.81317E-13 4.61461E-13
 -1      1803 2.30839E+01 1.68815E+00 7.70552E-02-1.74741E+00-3.98535E-13 3.87752E-13
 -1      1804 2.24555E+01 4.43866E-01 3.26426E-02-4.07791E-01-3.25982E-13 3.21098E-13
 -1      1805 2.21886E+01 2.88062E-01 6.09720E-03-1.52407E-01-2.94084E-13 2.31277E-13
 -1      1806 2.21139E+01 1.82549E-01 2.59584E-02 4.45768E-02-2.57381E-13 2.29657E-13
 -1      1807 2.20581E+01 8.13602E-02 4.49408E-03 1.31329E-01-2.21487E-13 1.70441E-13
 -1      1808 2.20978E+01 3.76228E-01-7.65242E-03-1.48187E-01-3.24796E-13 8.84288E-14
 -1      1809 2.20602E+01 1.02294E-02 1.47951E-02 1.89782E-01-1.77286E-13 1.85661E-13
 -1      1810 2.20667E+01-6.58181E-02-3.37502E-03 1.77867E-01-1.34380E-13 1.28334E-13
 -1      1811 2.20187E+01 7.45893E-02-6.07240E-03 1.54433E-01-2.25525E-13 7.76822E-14
 -1      1812 2.21122E+01-1.25457E-01 6.54314E-03 1.27418E-01-1.07492E-13 1.37166E-13
 -1      1813 2.21045E+01-1.89812E-01-9.92353E-03 3.84352E-02-8.68650E-14 1.08961E-13
 -1      1814 2.20671E+01-1.43174E-01-3.39904E-03 1.75427E-01-1.44293E-13 6.82301E-14
 -1      1815 2.21528E+01-2.37481E-01 1.42770E-03-1.02604E-01-8.02379E-14 1.06229E-13
 -1      1816 2.20758E+01-2.81333E-01-1.28478E-02-2.50611E-01-7.52393E-14 7.43651E-14
 -1      1817 2.21595E+01-3.18740E-01 2.48856E-04-2.71171E-02-1.05735E-13 4.02517E-14
 -1      1818 2.20827E+01-3.01803E-01-2.20115E-03-4.53435E-01-7.46122E-14 8.54358E-14
 -1      1819 2.19064E+01-3.02545E-01-1.04786E-02-6.25759E-01-8.37984E-14 6.43938E-14
 -1      1820 2.22130E+01-4.29632E-01 4.77439E-03-4.03017E-01-8.38106E-14 8.43450E-15
 -1      1821 2.18324E+01-2.73223E-01-5.14688E-03-8.32622E-01-1.02347E-13 8.16942E-14
 -1      1822 2.15624E+01-2.07892E-01-2.25215E-03-9.69464E-01-1.03477E-13 7.80548E-14
 -1      1823 2.21475E+01-4.16312E-01 8.86125E-03-8.59694E-01-9.76645E-14 5.91374E-14
 -1      1824 2.13920E+01-1.14984E-01-6.57604E-03-1.09142E+00-1.13842E-13 8.48852E-14
 -1      1825 2.10774E+01 1.61805E-02 9.22633E-03-1.11903E+00-7.15204E-14 6.83151E-14
 -1      1826 2.19092E+01-2.23422E-01 9.50430E-03-1.23597E+00-1.03757E-13 7.72156E-14
 -1      1827 2.08465E+01 1.54450E-01-4.58986E-03-1.06508E+00-1.01361E-13 2.96638E-14
 -1      1828 2.05734E+01 3.07403E-01 1.78969E-02-9.32587E-01-1.16338E-13-8.28808E-14
 -1      1829 2.15159E+01 1.38214E-01 3.38626E-03-1.32684E+00-1.42819E-13 9.59844E-15
 -1      1830 2.03774E+01 4.32336E-01 2.91766E-03-6.70294E-01-9.60430E-14-1.50117E-13
 -1      1831 2.02373E+01 5.30246E-01 1.84409E-02-3.94565E-01-8.83911E-14-1.98085E-13
 -1      1832 2.10947E+01 5.44748E-01-8.18907E-03-9.82576E-01-1.53191E-13-5.85033E-14
 -1      1833 2.01830E+01 5.71532E-01 1.26899E-02 2.55785E-03-1.30436E-13-2.53478E-13
 -1      1834 2.02328E+01 5.56044E-01 1.07937E-02 3.25453E-01-1.09747E-13-2.66026E-13
 -1      1835 2.08462E+01 8.00276E-01-1.66577E-02-2.41263E-01-1.63349E-13-1.77355E-13
 -1      1836 2.03586E+01 4.88026E-01 1.86594E-02 7.00558E-01-1.04842E-13-3.14393E-13
 -1      1837 2.05887E+01 3.68468E-01 9.71365E-04 9.45826E-01-8.52521E-14-3.26413E-13
 -1      1838 2.09186E+01 7.60136E-01-1.48773E-02 6.31868E-01-1.64975E-13-2.55195E-13
 -1      1839 2.08305E+01 2.31833E-01 1.55482E-02 1.15559E+00-1.29416E-13-3.99819E-13
 -1      1840 2.11702E+01 7.69760E-02-5.50544E-03 1.24407E+00-1.74362E-13-4.19458E-13
 -1      1841 2.12846E+01 4.45839E-01-4.52680E-03 1.28623E+00-1.74819E-13-3.24647E-13
 -1      1842 2.14140E+01-5.52489E-02 5.14012E-03 1.24238E+00-1.88475E-13-3.98442E-13
 -1      1843 2.17670E+01-1.73472E-01-6.91530E-03 1.17726E+00-9.41408E-14-4.09491E-13
 -1      1844 2.17652E+01 3.00756E-02 6.30511E-03 1.50609E+00-1.84995E-13-3.86937E-13
 -1      1845 2.19282E+01-2.52767E-01-6.35876E-03 1.01635E+00-1.04619E-13-3.90294E-13
 -1      1846 2.22126E+01-3.03319E-01-5.74172E-03 8.57312E-01-7.88536E-14-4.26930E-13
 -1      1847 2.21642E+01-3.01045E-01 1.08324E-02 1.30917E+00-1.24465E-13-3.56058E-13
 -1      1848 2.22662E+01-3.22527E-01-1.37434E-02 6.29410E-01-9.17868E-14-4.60537E-13
 -1      1849 2.24383E+01-3.14867E-01-3.97032E-03 4.46354E-01-2.90705E-14-4.58255E-13
 -1      1850 2.23762E+01-4.56034E-01 9.59407E-03 8.66770E-01-9.16801E-14-3.23821E-13
 -1      1851 2.24014E+01-2.93323E-01-1.55444E-02 2.28623E-01 4.92861E-14-4.54511E-13
 -1      1852 2.24561E+01-2.54072E-01-2.47644E-03 7.05162E-02 8.09162E-14-3.92670E-13
 -1      1853 2.23953E+01-4.50773E-01 6.24301E-03 3.69832E-01 2.24942E-14-3.50737E-13
 -1      1854 2.23598E+01-2.15621E-01-1.33084E-02-9.59755E-02 3.54391E-14-4.47340E-13
 -1      1855 2.23173E+01-1.68606E-01-1.41454E-03-2.07759E-01 3.92316E-14-4.98935E-13
 -1      1856 2.22678E+01-3.52924E-01 3.14047E-03-5.35125E-02 1.82684E-14-3.96350E-13
 -1      1857 2.21897E+01-1.29953E-01-9.29337E-03-3.12896E-01 7.87105E-14-5.23943E-13
 -1      1858 2.20806E+01-8.90449E-02-6.49716E-04-3.77225E-01 1.24745E-13-5.00631E-13
 -1      1859 2.20499E+01-2.27566E-01 9.57631E-04-3.50243E-01 5.17969E-14-4.33553E-13
 -1      1860 2.19419E+01-5.81587E-02-5.17221E-03-4.28581E-01 1.64872E-13-4.45123E-13
 -1      1861 2.17960E+01-2.84419E-02-5.68004E-05-4.54510E-01 1.04566E-13-3.84082E-13
 -1      1862 2.17881E+01-1.14743E-01-3.78783E-04-5.19687E-01 1.41510E-13-3.83643E-13
 -1      1863 2.16593E+01-7.22231E-03-1.81080E-03-4.66203E-01 8.69904E-14-3.25952E-13
 -1      1864 2.15007E+01 1.14119E-02 3.99839E-04-4.65548E-01 1.20457E-13-2.66007E-13
 -1      1865 2.15150E+01-3.05957E-02-1.13984E-03-5.86561E-01 1.60495E-13-2.99105E-13
 -1      1866 2.13738E+01 2.41143E-02 5.34388E-04-4.51742E-01-1.57938E-14-3.05177E-13
 -1      1867 2.12192E+01 3.39446E-02 7.26333E-04-4.35150E-01-9.12397E-14-3.05016E-13
 -1      1868 2.12519E+01 2.36974E-02-1.53800E-03-5.82128E-01 3.19355E-14-3.12153E-13
 -1      1869 2.11061E+01 4.02754E-02 1.94266E-03-4.07298E-01-1.23454E-13-3.13051E-13
 -1      1870 2.09657E+01 4.39791E-02 9.25217E-04-3.82838E-01-7.28391E-14-3.68035E-13
 -1      1871 2.10112E+01 5.36002E-02-1.70787E-03-5.34484E-01-6.63740E-14-4.04023E-13
 -1      1872 2.08682E+01 4.60433E-02 2.62503E-03-3.49099E-01-3.08841E-14-3.68438E-13
 -1      1873 2.07467E+01 4.59171E-02 1.01197E-03-3.22213E-01-2.83970E-14-3.37274E-13
 -1      1874 2.07996E+01 6.61579E-02-1.72942E-03-4.65102E-01-3.30902E-14-3.78704E-13
 -1      1875 2.06649E+01 4.53923E-02 2.80875E-03-2.87846E-01-2.35399E-14-2.66442E-13
 -1      1876 2.05638E+01 4.31387E-02 1.01112E-03-2.61846E-01 2.79122E-14-2.68792E-13
 -1      1877 2.06191E+01 6.76300E-02-1.65259E-03-3.88686E-01 5.09950E-14-2.12328E-13
 -1      1878 2.04969E+01 4.12207E-02 2.68526E-03-2.29902E-01 8.57561E-14-2.27553E-13
 -1      1879 2.04154E+01 3.79893E-02 9.49646E-04-2.06561E-01 1.44172E-13-1.55487E-13
 -1      1880 2.04693E+01 6.27574E-02-1.51315E-03-3.14363E-01 1.09184E-13-8.85678E-14
 -1      1881 2.03618E+01 3.54662E-02 2.39654E-03-1.78556E-01 1.81572E-13-2.02445E-13
 -1      1882 2.02979E+01 3.19752E-02 8.51866E-04-1.58627E-01 1.87538E-13-9.79697E-14
 -1      1883 2.03479E+01 5.47965E-02-1.33874E-03-2.47166E-01 1.39245E-13-8.89392E-14
 -1      1884 2.02560E+01 2.93307E-02 2.03877E-03-1.35087E-01 1.00756E-13-1.00335E-13
 -1      1885 2.02071E+01 2.59931E-02 7.37078E-04-1.18699E-01-2.21666E-14-1.43189E-13
 -1      1886 2.02517E+01 4.58175E-02-1.15051E-03-1.89352E-01 1.18312E-13-1.27416E-13
 -1      1887 2.01749E+01 2.35008E-02 1.67197E-03-9.95534E-02-1.47582E-13-1.80997E-13
 -1      1888 2.01385E+01 2.05273E-02 6.19149E-04-8.64815E-02-1.87747E-13-2.07298E-13
 -1      1889 2.01770E+01 3.70377E-02-9.63829E-04-1.41429E-01-8.45987E-14-2.54097E-13
 -1      1890 2.01143E+01 1.83235E-02 1.33027E-03-7.13371E-02-2.05579E-13-1.45777E-13
 -1      1891 2.00879E+01 1.57976E-02 5.07091E-04-6.11843E-02-1.43210E-13-1.07867E-13
 -1      1892 2.01203E+01 2.91007E-02-7.89084E-04-1.02886E-01-1.80686E-13-2.00678E-13
 -1      1893 2.00702E+01 1.39328E-02 1.03045E-03-4.95003E-02-6.09955E-14-9.62527E-14
 -1      1894 2.00516E+01 1.18624E-02 4.06070E-04-4.18079E-02 1.14435E-13-9.04443E-14
 -1      1895 2.00782E+01 2.22851E-02-6.32467E-04-7.26905E-02-4.73403E-14-1.59538E-14
 -1      1896 2.00389E+01 1.03365E-02 7.78316E-04-3.30061E-02 1.21228E-13-1.24329E-13
 -1      1897 2.00262E+01 8.68820E-03 3.18488E-04-2.73193E-02 9.64289E-14-1.62701E-13
 -1      1898 2.00476E+01 1.66491E-02-4.96837E-04-4.95992E-02 7.26252E-14-9.91697E-14
 -1      1899 2.00174E+01 7.47371E-03 5.73178E-04-2.08472E-02 1.30035E-13-1.38865E-13
 -1      1900 2.00092E+01 6.19465E-03 2.44892E-04-1.67507E-02 9.68120E-14-1.03714E-13
 -1      1901 2.00261E+01 1.21272E-02-3.82658E-04-3.23539E-02 1.27414E-13-1.20650E-13
 -1      1902 2.00033E+01 5.25140E-03 4.10818E-04-1.21136E-02-5.76571E-14-2.62400E-14
 -1      1903 1.99984E+01 4.28253E-03 1.84664E-04-9.24723E-03-1.03729E-13-3.97466E-14
 -1      1904 2.00114E+01 8.59225E-03-2.88870E-04-1.97866E-02 5.63772E-14-5.74600E-14
 -1      1905 1.99946E+01 3.56677E-03 2.85455E-04-6.02182E-03-2.21843E-13 2.67207E-14
 -1      1906 1.99920E+01 2.85046E-03 1.36514E-04-4.08483E-03-2.39665E-13-3.44863E-14
 -1      1907 2.00018E+01 5.89476E-03-2.13531E-04-1.08716E-02-1.29273E-13 1.63840E-13
 -1      1908 1.99898E+01 2.31986E-03 1.90918E-04-1.92054E-03-4.66676E-14-8.44336E-14
 -1      1909 1.99887E+01 1.80380E-03 9.88319E-05-6.69113E-04 5.39737E-14-1.72642E-14
 -1      1910 1.99959E+01 3.88467E-03-1.54257E-04-4.74275E-03-1.15559E-13 2.41118E-13
 -1      1911 1.99876E+01 1.42000E-03 1.21303E-04 7.16198E-04-1.55638E-14-1.09054E-13
 -1      1912 1.99875E+01 1.05884E-03 6.99123E-05 1.47464E-03-7.77972E-14-1.56344E-13
 -1      1913 1.99927E+01 2.42357E-03-1.08538E-04-6.90905E-04-8.68090E-14 4.14293E-14
 -1      1914 1.99871E+01 7.88570E-04 7.13163E-05 2.30242E-03-7.81098E-14-1.89638E-13
 -1      1915 1.99877E+01 5.44195E-04 4.80936E-05 2.71622E-03-7.53345E-14-1.77934E-13
 -1      1916 1.99913E+01 1.39000E-03-7.39531E-05 1.84930E-03-1.03116E-13-8.14639E-14
 -1      1917 1.99878E+01 3.59419E-04 3.64102E-05 3.15592E-03-1.41214E-13-1.78614E-13
 -1      1918 1.99887E+01 2.00497E-04 3.18224E-05 3.33631E-03-1.78906E-13-1.74331E-13
 -1      1919 1.99910E+01 6.80928E-04-4.82898E-05 3.31739E-03-1.56863E-13 5.93477E-14
 -1      1920 1.99891E+01 7.79867E-05 1.28017E-05 3.51396E-03-1.19541E-13-8.28536E-14
 -1      1921 1.99902E+01-2.09805E-05 1.96785E-05 3.54157E-03 1.37261E-13-5.27178E-14
 -1      1922 1.99916E+01 2.10918E-04-2.96101E-05 4.04615E-03-6.80066E-14 1.43871E-13
 -1      1923 1.99908E+01-1.00355E-04-2.56064E-06 3.54736E-03 3.62329E-13-1.20480E-13
 -1      1924 1.99919E+01-1.60171E-04 1.03857E-05 3.47772E-03 4.59366E-13-2.49417E-14
 -1      1925 1.99926E+01-9.01024E-05-1.62658E-05 4.27960E-03 1.63392E-13 2.41391E-13
 -1      1926 1.99925E+01-2.12321E-04-1.20577E-05 3.37251E-03 4.88847E-13-2.53500E-15
 -1      1927 1.99937E+01-2.50322E-04 2.82881E-06 3.24038E-03 5.25768E-13 2.51216E-13
 -1      1928 1.99938E+01-2.79674E-04-6.88877E-06 4.18878E-03 5.33878E-13 1.25585E-13
 -1      1929 1.99943E+01-2.88883E-04-1.74164E-05 3.06084E-03 3.46710E-13 1.51679E-13
 -1      1930 1.99953E+01-3.19968E-04-3.78890E-06 2.88337E-03 3.01940E-13 2.43343E-13
 -1      1931 1.99951E+01-4.06020E-04-4.28540E-07 3.88485E-03 3.37558E-13 3.25634E-14
 -1      1932 1.99959E+01-3.56847E-04-1.95996E-05 2.64645E-03 1.46974E-13 1.72604E-13
 -1      1933 1.99968E+01-3.93725E-04-9.41341E-06 2.42576E-03 9.41426E-14 1.91051E-13
 -1      1934 1.99963E+01-5.10277E-04 3.94218E-06 3.43006E-03 2.66829E-13 8.61295E-14
 -1      1935 1.99973E+01-4.39934E-04-1.90939E-05 2.13471E-03 2.42651E-13 2.18323E-14
 -1      1936 1.99980E+01-4.89085E-04-1.36295E-05 1.86082E-03 3.03372E-13 1.08997E-13
 -1      1937 1.99974E+01-6.26370E-04 6.06816E-06 2.84859E-03 6.05281E-14-2.15260E-14
 -1      1938 1.99984E+01-5.25125E-04-1.62509E-05 1.53089E-03 3.97394E-13 1.76275E-15
 -1      1939 1.99989E+01-5.77321E-04-1.79901E-05 1.20902E-03 1.55207E-13 1.50098E-13
 -1      1940 1.99991E+01-8.20385E-04 7.32815E-06 1.41695E-03 3.90795E-14-1.03541E-13
 -1      1941 1.99983E+01-7.48063E-04 1.09740E-05 2.16410E-03 2.12958E-13-1.16570E-13
 -1      1942 2.29049E+01 1.61650E-01 9.60569E-03-5.05799E-01 2.00059E-13 4.42020E-13
 -1      1943 2.28529E+01 2.27344E-01 1.76913E-02-3.07217E-01 2.35865E-13 5.34149E-13
 -1      1944 2.27510E+01 3.70812E-01-6.89699E-03-2.52826E-01 2.96896E-13 3.53252E-13
 -1      1945 2.32534E+01 5.47971E-02 3.76250E-03-7.18867E-01 1.41490E-13 3.34253E-13
 -1      1946 2.30406E+01 1.06496E-01 1.31492E-02-6.19798E-01 1.51284E-13 3.99836E-13
 -1      1947 2.28646E+01 1.67276E-01-7.33138E-03-6.93517E-01 1.98489E-13 2.72466E-13
 -1      1948 2.37383E+01-6.83243E-02-4.35643E-03-7.32153E-01 9.77493E-14 2.58956E-13
 -1      1949 2.34701E+01-9.21776E-03 4.97100E-03-7.25768E-01 1.01301E-13 3.15428E-13
 -1      1950 2.32098E+01 4.15157E-05-7.53284E-03-8.72789E-01 1.44264E-13 1.80675E-13
 -1      1951 2.42100E+01-2.26918E-01-1.10471E-02-5.03886E-01-1.83161E-14 2.41357E-13
 -1      1952 2.39847E+01-1.56562E-01-1.52512E-03-6.15109E-01 3.98683E-14 2.52813E-13
 -1      1953 2.36739E+01-2.00459E-01-5.59772E-03-7.88547E-01 5.68729E-14 1.28543E-13
 -1      1954 2.45043E+01-3.97631E-01-1.32617E-02 1.15729E-02 4.33716E-14 2.55769E-13
 -1      1955 2.44224E+01-3.33697E-01-5.92465E-03-2.43132E-01-2.81788E-14 2.42315E-13
 -1      1956 2.41385E+01-4.39173E-01-4.95474E-04-3.91947E-01-1.06954E-14 1.10809E-13
 -1      1957 2.44524E+01-4.90753E-01-8.07962E-03 7.75328E-01 9.47541E-14 2.78834E-13
 -1      1958 2.46001E+01-4.81042E-01-8.67923E-03 3.95858E-01 7.72524E-14 2.83644E-13
 -1      1959 2.44601E+01-6.42372E-01 7.75546E-03 3.33864E-01 6.94913E-14 1.65889E-13
 -1      1960 2.39371E+01-3.61538E-01 2.03364E-03 1.55026E+00 1.47016E-13 2.36637E-13
 -1      1961 2.43432E+01-4.68004E-01-1.08439E-02 1.16636E+00 1.06522E-13 2.81416E-13
 -1      1962 2.44712E+01-6.44129E-01 1.46654E-02 1.25635E+00 1.24331E-13 2.22555E-13
 -1      1963 2.30135E+01 7.17691E-02 5.79275E-03 1.86958E+00 1.57335E-13 2.09468E-13
 -1      1964 2.35962E+01-1.56333E-01-1.09903E-02 1.71419E+00 1.70251E-13 2.55657E-13
 -1      1965 2.40521E+01-2.64822E-01 1.10496E-02 1.98389E+00 1.69010E-13 2.90795E-13
 -1      1966 2.20538E+01 6.19296E-01-9.93937E-03 1.29714E+00 1.90140E-13 1.01363E-13
 -1      1967 2.25881E+01 4.00262E-01-8.59211E-03 1.57413E+00 1.91493E-13 1.50564E-13
 -1      1968 2.33072E+01 4.63223E-01-6.22159E-03 1.94764E+00 2.31098E-13 2.36592E-13
 -1      1969 2.16468E+01 8.86060E-01-3.29950E-02-2.81874E-02 1.25976E-13-1.23692E-13
 -1      1970 2.18668E+01 8.36784E-01-2.04702E-03 5.94627E-01 1.41519E-13-2.59107E-14
 -1      1971 2.26924E+01 1.09480E+00-3.04124E-02 8.70367E-01 2.10651E-13 4.60005E-14
 -1      1972 2.21566E+01 6.11967E-01-3.56690E-02-1.40095E+00 2.79495E-13-3.20202E-13
 -1      1973 2.18916E+01 8.11959E-01 6.31177E-03-7.85852E-01 2.19977E-13-2.32099E-13
 -1      1974 2.26925E+01 1.19018E+00-2.34041E-02-7.82359E-01 2.81924E-13-2.51318E-13
 -1      1975 2.32694E+01 5.74102E-02-1.25434E-02-1.99430E+00 8.94033E-14-4.42309E-13
 -1      1976 2.26520E+01 3.18887E-01 2.40166E-03-1.73216E+00 1.56875E-13-3.96485E-13
 -1      1977 2.33440E+01 5.82463E-01-1.12056E-02-2.00867E+00 2.45456E-13-4.11570E-13
 -1      1978 2.43484E+01-3.62310E-01 1.22666E-02-1.69713E+00 2.54120E-14-4.81962E-13
 -1      1979 2.36773E+01-2.08313E-01-6.25581E-03-1.81747E+00 4.29643E-14-4.54584E-13
 -1      1980 2.41642E+01-1.68752E-01 4.19034E-03-2.19858E+00 1.03068E-13-4.90155E-13
 -1      1981 2.49587E+01-4.86167E-01 2.09386E-02-9.17824E-01 8.66859E-14-5.51578E-13
 -1      1982 2.44881E+01-4.75692E-01-1.48919E-02-1.23880E+00 8.67934E-14-4.83119E-13
 -1      1983 2.46902E+01-6.29759E-01 2.64765E-03-1.53855E+00 9.70994E-14-5.39980E-13
 -1      1984 2.50290E+01-3.97937E-01 1.59393E-02-1.24981E-01 6.43218E-14-6.01063E-13
 -1      1985 2.48552E+01-4.67218E-01-1.71353E-02-4.53110E-01 5.70134E-14-5.80213E-13
 -1      1986 2.47740E+01-6.93215E-01-4.91379E-03-5.91583E-01 1.34105E-13-5.26272E-13
 -1      1987 2.46969E+01-2.40299E-01 7.15653E-03 4.37162E-01 2.41656E-14-4.36190E-13
 -1      1988 2.47832E+01-3.23110E-01-1.44506E-02 2.01648E-01 7.25704E-14-4.54774E-13
 -1      1989 2.45039E+01-5.15692E-01-8.11788E-03 2.18363E-01 5.33098E-14-4.66995E-13
 -1      1990 2.41393E+01-1.01623E-01 5.43396E-04 7.33172E-01-2.40691E-13-3.38863E-13
 -1      1991 2.43949E+01-1.65038E-01-9.47756E-03 6.05830E-01-8.29102E-14-3.74876E-13
 -1      1992 2.40266E+01-2.84338E-01-6.83821E-03 7.30499E-01-9.56648E-14-2.37658E-13
 -1      1993 2.34967E+01-9.56229E-03-2.69707E-03 8.25562E-01-1.63084E-13-3.16487E-13
 -1      1994 2.38322E+01-4.74405E-02-4.48166E-03 7.82073E-01-2.02539E-13-3.49434E-13
 -1      1995 2.34608E+01-9.92863E-02-4.12604E-03 9.63870E-01-1.89120E-13-3.19094E-13
 -1      1996 2.28595E+01 4.00600E-02-3.53732E-03 7.93860E-01 6.89096E-14-2.07991E-13
 -1      1997 2.32103E+01 2.23505E-02-5.91795E-04 8.02315E-01-4.71871E-14-2.30741E-13
 -1      1998 2.28844E+01 1.60635E-02-1.90874E-03 1.00205E+00-1.00365E-13-2.90344E-13
 -1      1999 2.22781E+01 6.06091E-02-3.17735E-03 7.00861E-01 3.46115E-13-3.25877E-13
 -1      2000 2.26055E+01 5.56337E-02 1.90687E-03 7.35668E-01 2.02014E-13-2.33942E-13
 -1      2001 2.23437E+01 7.40046E-02-6.56301E-04 9.28363E-01 2.16370E-13-1.87808E-13
 -1      2002 2.17751E+01 6.42929E-02-2.42636E-03 5.86775E-01 7.08433E-14-3.42698E-13
 -1      2003 2.20605E+01 6.61651E-02 3.20001E-03 6.31308E-01 2.03392E-13-3.57345E-13
 -1      2004 2.18628E+01 9.46646E-02-1.60854E-04 8.03662E-01 2.52788E-13-2.36247E-13
 -1      2005 2.13557E+01 5.95327E-02-1.67704E-03 4.73838E-01-2.37809E-13-2.04359E-13
 -1      2006 2.15936E+01 6.44647E-02 3.63361E-03 5.18749E-01-1.88284E-13-3.39110E-13
 -1      2007 2.14516E+01 9.46786E-02-8.79624E-05 6.65451E-01-1.18587E-13-1.27206E-13
 -1      2008 2.10158E+01 5.13463E-02-1.06935E-03 3.72569E-01-2.50099E-13-3.40748E-14
 -1      2009 2.12077E+01 5.71950E-02 3.54377E-03 4.13315E-01-1.85325E-13-9.00836E-14
 -1      2010 2.11102E+01 8.49703E-02-1.83352E-04 5.33868E-01-2.58034E-13-3.88124E-14
 -1      2011 2.07464E+01 4.24207E-02-6.24432E-04 2.86726E-01-1.71469E-13-2.04793E-13
 -1      2012 2.08975E+01 4.81022E-02 3.18375E-03 3.21575E-01-1.72701E-13-1.15629E-13
 -1      2013 2.08337E+01 7.18162E-02-3.06031E-04 4.18030E-01-1.29957E-13-2.29336E-13
 -1      2014 2.05371E+01 3.40447E-02-3.19114E-04 2.16534E-01 1.93725E-13-5.76262E-14
 -1      2015 2.06536E+01 3.90862E-02 2.71765E-03 2.45245E-01-7.69979E-15-1.90467E-13
 -1      2016 2.06142E+01 5.84510E-02-3.96611E-04 3.20761E-01 3.29901E-15-2.78707E-13
 -1      2017 2.03774E+01 2.67387E-02-1.20182E-04 1.60585E-01 1.94674E-13-8.63200E-14
 -1      2018 2.04656E+01 3.09916E-02 2.24008E-03 1.83627E-01 1.57991E-13-3.26713E-14
 -1      2019 2.04433E+01 4.63402E-02-4.40915E-04 2.41638E-01 1.47904E-13-1.40263E-13
 -1      2020 2.02575E+01 2.06302E-02 2.61760E-06 1.16868E-01 9.94271E-14-1.03149E-13
 -1      2021 2.03231E+01 2.41048E-02 1.79931E-03 1.34991E-01 1.06988E-13-5.85091E-14
 -1      2022 2.03125E+01 3.60040E-02-4.44746E-04 1.78766E-01 1.45371E-13-7.06936E-14
 -1      2023 2.01693E+01 1.56623E-02 7.31395E-05 8.32873E-02-4.78707E-14-1.35471E-13
 -1      2024 2.02171E+01 1.84373E-02 1.41570E-03 9.72972E-02 1.24492E-13-9.51600E-14
 -1      2025 2.02140E+01 2.74958E-02-4.19918E-04 1.29744E-01 1.16992E-13 1.10498E-13
 -1      2026 2.01056E+01 1.17024E-02 1.08956E-04 5.79023E-02-1.58819E-13-1.53803E-13
 -1      2027 2.01397E+01 1.38797E-02 1.09414E-03 6.85618E-02-1.69411E-13-2.08672E-13
 -1      2028 2.01413E+01 2.06616E-02-3.77981E-04 9.21549E-02-1.18832E-13 1.22891E-13
 -1      2029 2.00606E+01 8.59787E-03 1.22489E-04 3.90218E-02-4.32673E-15-4.48499E-14
 -1      2030 2.00844E+01 1.02796E-02 8.31614E-04 4.70042E-02-1.02513E-13-1.40381E-13
 -1      2031 2.00887E+01 1.52727E-02-3.28118E-04 6.37921E-02-1.10662E-13 2.00813E-14
 -1      2032 2.00298E+01 6.19998E-03 1.22299E-04 2.52213E-02 2.50216E-13-9.66064E-14
 -1      2033 2.00458E+01 7.47966E-03 6.21631E-04 3.10992E-02 2.07455E-13-2.89675E-14
 -1      2034 2.00514E+01 1.10899E-02-2.76773E-04 4.27403E-02 1.72202E-13-5.60248E-14
 -1      2035 2.00094E+01 4.37480E-03 1.14191E-04 1.53295E-02-6.41534E-14-2.36976E-13
 -1      2036 2.00198E+01 5.33383E-03 4.56566E-04 1.95779E-02 1.33711E-13-8.66042E-14
 -1      2037 2.00258E+01 7.89066E-03-2.27978E-04 2.73904E-02 1.36538E-13-4.44070E-14
 -1      2038 1.99965E+01 3.00646E-03 1.02035E-04 8.40082E-03 2.45191E-14-9.73031E-14
 -1      2039 2.00029E+01 3.71348E-03 3.28854E-04 1.14061E-02-7.73961E-14-1.35944E-13
 -1      2040 2.00087E+01 5.47963E-03-1.83952E-04 1.64213E-02-1.19737E-14-1.18343E-14
 -1      2041 1.99891E+01 1.99751E-03 8.83352E-05 3.68355E-03-7.68623E-14 1.26067E-13
 -1      2042 1.99926E+01 2.50917E-03 2.31562E-04 5.75492E-03 2.91588E-14 3.33508E-14
 -1      2043 1.99980E+01 3.69109E-03-1.45695E-04 8.76734E-03-4.68234E-14 2.04471E-13
 -1      2044 1.99854E+01 1.26751E-03 7.46395E-05 5.88328E-04-5.31055E-13 1.97486E-14
 -1      2045 1.99869E+01 1.62981E-03 1.58617E-04 1.96992E-03-2.91753E-13 5.64767E-14
 -1      2046 1.99917E+01 2.38759E-03-1.13417E-04 3.58218E-03-1.86101E-13 1.80832E-13
 -1      2047 1.99842E+01 7.50949E-04 6.18397E-05-1.34051E-03-9.19351E-14 1.44676E-13
 -1      2048 1.99845E+01 1.00078E-03 1.04852E-04-4.58711E-04-2.66200E-13-3.90179E-14
 -1      2049 1.99885E+01 1.45694E-03-8.68377E-05 2.03046E-04-2.69593E-13 1.16088E-13
 -1      2050 1.99846E+01 3.95048E-04 5.03796E-05-2.44997E-03-8.70480E-14 3.19892E-13
 -1      2051 1.99840E+01 5.61700E-04 6.59608E-05-1.92234E-03-1.39190E-13 2.22468E-13
 -1      2052 1.99874E+01 8.08662E-04-6.54042E-05-1.88153E-03-2.22259E-13 2.53948E-13
 -1      2053 1.99859E+01 1.57598E-04 4.03942E-05-2.99958E-03-3.77437E-14 5.31344E-13
 -1      2054 1.99849E+01 2.64095E-04 3.84042E-05-2.71648E-03-1.61800E-14 4.30385E-13
 -1      2055 1.99876E+01 3.70436E-04-4.84376E-05-3.05990E-03-1.26171E-13 4.11444E-13
 -1      2056 1.99878E+01 4.95244E-06 3.18009E-05-3.17890E-03 1.54316E-13 3.66968E-13
 -1      2057 1.99866E+01 6.93062E-05 1.93048E-05-3.05973E-03 8.50377E-14 4.17773E-13
 -1      2058 1.99887E+01 8.47991E-05-3.52296E-05-3.62116E-03 1.39375E-13 5.10819E-13
 -1      2059 1.99899E+01-8.98740E-05 2.43586E-05-3.12165E-03 1.83295E-14 3.23311E-13
 -1      2060 1.99886E+01-5.35399E-05 6.34070E-06-3.10921E-03 8.83789E-14 3.23001E-13
 -1      2061 1.99902E+01-9.39050E-05-2.50983E-05-3.77486E-03 1.26255E-13 4.02792E-13
 -1      2062 1.99921E+01-1.49070E-04 1.77004E-05-2.91651E-03 1.40158E-13 8.09216E-14
 -1      2063 1.99908E+01-1.29444E-04-2.34405E-06-2.97280E-03 3.39505E-14 1.41617E-13
 -1      2064 1.99920E+01-2.02351E-04-1.74143E-05-3.66672E-03 9.64615E-14 7.68314E-14
 -1      2065 1.99941E+01-1.91602E-04 1.16422E-05-2.61470E-03 3.22126E-13-2.67544E-14
 -1      2066 1.99929E+01-1.79544E-04-8.20511E-06-2.71816E-03 3.90247E-13 2.04958E-13
 -1      2067 1.99937E+01-2.71026E-04-1.15889E-05-3.39070E-03 3.60996E-13 9.87822E-14
 -1      2068 1.99959E+01-2.33525E-04 6.45058E-06-2.23642E-03 1.99851E-13-5.92390E-14
 -1      2069 1.99948E+01-2.21521E-04-1.19605E-05-2.37928E-03 1.97115E-13-8.84297E-14
 -1      2070 1.99953E+01-3.24784E-04-6.45742E-06-2.99718E-03 2.83416E-13 1.18639E-13
 -1      2071 1.99974E+01-2.90182E-04 2.32968E-06-1.77593E-03-1.75416E-13 1.15615E-13
 -1      2072 1.99965E+01-2.71401E-04-1.36210E-05-1.96343E-03 3.99160E-14-3.91767E-14
 -1      2073 1.99968E+01-3.87177E-04-1.66621E-06-2.50340E-03 5.54102E-14 7.91473E-14
 -1      2074 1.99986E+01-3.71173E-04-4.34131E-06-1.21160E-03-1.02947E-13 2.50354E-15
 -1      2075 1.99979E+01-3.38747E-04-1.20582E-05-1.45874E-03-9.43251E-14 8.48858E-14
 -1      2076 1.99980E+01-4.77555E-04 1.58586E-06-1.90384E-03-6.49498E-14 2.29285E-13
 -1      2077 1.99993E+01-4.39991E-04-1.15158E-05-7.17645E-04-1.77837E-13-8.66727E-14
 -1      2078 1.99988E+01-4.18711E-04-9.43953E-06-1.01113E-03-2.19550E-13-7.68127E-14
 -1      2079 1.99988E+01-5.79063E-04 4.79443E-06-1.35075E-03-1.27668E-13 3.73708E-13
 -1      2080 1.99993E+01-6.65526E-04 1.71203E-06-8.95405E-04-1.07265E-13 1.23852E-13
 -1      2081 1.99998E+01-3.55301E-03 6.33345E-06-1.92926E-03 2.08321E-13 4.16539E-13
 -1      2082 1.99997E+01-2.93721E-03-6.83098E-06-1.92329E-03 1.59640E-13 2.87383E-13
 -1      2083 1.99996E+01-2.43309E-03 1.84841E-06-1.84588E-03 1.52806E-13 1.02783E-13
 -1      2084 1.99995E+01-1.85767E-03-1.14840E-05-1.69630E-03 3.40500E-14 1.35116E-13
 -1      2085 1.99996E+01-2.51661E-03-7.77940E-07-2.37353E-03 2.01816E-13 2.13325E-13
 -1      2086 1.99994E+01-1.48828E-03-1.80476E-06-1.47018E-03-8.88894E-14 1.62218E-13
 -1      2087 1.99993E+01-1.01316E-03-1.17759E-05-1.20034E-03-4.18006E-14 1.51960E-13
 -1      2088 1.99991E+01-9.79564E-04-8.78172E-06-1.45373E-03-1.15914E-13 3.10027E-13
 -1      2089 1.99993E+01-1.66979E-03 1.76402E-06-2.02762E-03-1.15342E-13 2.66559E-13
 -1      2090 2.00000E+01-4.58447E-03 1.13156E-05-1.74842E-03-7.28642E-14-5.20930E-13
 -1      2091 1.99999E+01-4.01546E-03 2.20197E-06-1.85492E-03 4.64575E-14 1.65811E-13
 -1      2092 1.99999E+01-3.47640E-03-5.11195E-06-2.36837E-03 6.25489E-14 3.25736E-14
 -1      2093 2.00002E+01-5.45138E-03 1.58477E-05-1.35111E-03-4.15421E-14-3.35866E-13
 -1      2094 2.00001E+01-4.98355E-03 9.88169E-06-1.54717E-03-7.61104E-14-3.82126E-13
 -1      2095 2.00002E+01-4.33976E-03-1.00775E-05-2.05774E-03 4.87532E-14-4.07442E-13
 -1      2096 2.00003E+01-6.03999E-03 1.88434E-05-8.03844E-04 5.07110E-14-9.36919E-14
 -1      2097 2.00002E+01-5.73804E-03 1.57691E-05-1.05794E-03 8.20743E-14-7.61908E-14
 -1      2098 2.00004E+01-5.02796E-03-1.34947E-05-1.50294E-03 1.08254E-13-2.24818E-13
 -1      2099 2.00003E+01-6.29117E-03 1.99939E-05-1.73811E-04-3.74638E-14 5.11861E-14
 -1      2100 2.00003E+01-6.18868E-03 1.91221E-05-4.56330E-04 1.30570E-14-5.11232E-14
 -1      2101 2.00005E+01-5.46589E-03-1.56219E-05-7.85930E-04 5.59093E-14-4.52199E-14
 -1      2102 2.00003E+01-6.18062E-03 1.90154E-05 4.73059E-04 6.37973E-14 1.51186E-13
 -1      2103 2.00003E+01-6.28861E-03 2.00442E-05 1.91183E-04 1.29137E-14 1.77744E-13
 -1      2104 2.00005E+01-5.61299E-03-1.63054E-05 1.10474E-05-2.17097E-13 4.08089E-14
 -1      2105 2.00002E+01-5.72051E-03 1.57716E-05 1.07124E-03-3.60401E-14 1.19068E-13
 -1      2106 2.00003E+01-6.02733E-03 1.86852E-05 8.19037E-04-4.02831E-14 1.92939E-13
 -1      2107 2.00005E+01-5.45606E-03-1.54830E-05 8.06259E-04-9.68934E-14 1.31020E-13
 -1      2108 2.00001E+01-4.97447E-03 9.81039E-06 1.54823E-03 1.05618E-13-3.17733E-14
 -1      2109 2.00002E+01-5.43653E-03 1.56355E-05 1.35746E-03-5.06957E-14-9.17173E-15
 -1      2110 2.00004E+01-5.01505E-03-1.34423E-05 1.51333E-03-9.33908E-14-3.72755E-15
 -1      2111 1.99999E+01-3.99647E-03 1.88949E-06 1.85431E-03 1.03737E-13 2.81319E-13
 -1      2112 2.00000E+01-4.57525E-03 1.12226E-05 1.74812E-03 1.66607E-13 3.91174E-13
 -1      2113 2.00002E+01-4.32950E-03-1.00171E-05 2.05864E-03 3.68071E-14 1.65339E-13
 -1      2114 1.99997E+01-2.90971E-03-6.95534E-06 1.91848E-03 1.21464E-13-7.56984E-13
 -1      2115 1.99998E+01-3.52542E-03 6.30826E-06 1.92721E-03 1.43482E-13-1.84495E-13
 -1      2116 1.99999E+01-3.45747E-03-4.70837E-06 2.36639E-03 1.24533E-13-1.47069E-14
 -1      2117 1.99995E+01-1.81722E-03-6.99105E-06 1.69848E-03-7.07712E-14-5.12021E-13
 -1      2118 1.99996E+01-2.40830E-03 3.31310E-06 1.83854E-03 1.19840E-13-8.20390E-13
 -1      2119 1.99996E+01-2.49366E-03-1.83830E-07 2.36397E-03 7.35652E-14-8.06355E-13
 -1      2120 1.09100E+01-5.36009E+00-1.30675E-01 6.40650E+00 4.71290E-13 8.36817E-13
 -1      2121 6.83106E+00-6.84694E+00-3.81868E-01 5.04936E+00 2.44471E-13 9.74970E-13
 -1      2122 1.88403E-01-7.23113E+00-3.84161E-01 4.97527E-01 9.70335E-14 8.84182E-13
 -1      2123 1.95490E-01-7.47844E+00-4.28982E-01-1.02429E+00-1.64813E-13 1.00903E-12
 -1      2124 3.55978E+00-6.37243E+00-2.67626E-01 4.03137E+00 2.53686E-13 1.05582E-12
 -1      2125 1.55376E+00-7.15137E+00-3.90771E-01 2.45283E+00 3.69149E-14 9.24316E-13
 -1      2126 2.07486E+01-3.46221E+00 2.62608E-02 6.57228E+00 6.76736E-13 6.23612E-13
 -1      2127 1.56447E+01-5.41111E+00-2.82519E-01 5.95661E+00 4.88498E-13 6.87700E-13
 -1      2128 2.95715E+01-3.05512E-01 1.73383E-01 5.32460E+00 9.10771E-13 5.46008E-13
 -1      2129 2.44946E+01-2.31049E+00-1.71703E-01 5.18507E+00 8.51930E-13 5.25469E-13
 -1      2130 1.96605E+01 4.03093E+00-2.85113E-02-8.31467E-01-2.68735E-13-4.93595E-13
 -1      2131 2.00889E+01 3.96481E+00-2.08515E-02-1.10036E+00-3.20790E-13-4.24268E-13
 -1      2132 2.05730E+01 3.21788E+00-1.76709E-02-1.07296E+00-3.54758E-13-3.48707E-13
 -1      2133 1.96747E+01 3.62903E+00-9.25429E-03-6.29235E-01-2.58584E-13-4.84689E-13
 -1      2134 3.87809E+01 6.21662E+00 2.17991E-01 3.46004E-01 1.11039E-12-2.10748E-13
 -1      2135 3.67796E+01 4.93429E+00 1.23294E-01 9.45934E-01 9.97646E-13 1.47660E-14
 -1      2136 4.07991E+01 7.20130E+00 3.79920E-01-5.17875E-01 1.09124E-12-4.31488E-13
 -1      2137 3.90192E+01 7.30524E+00 1.24509E-01 3.22726E-01 1.11305E-12-1.81896E-13
 -1      2138 3.79593E+01 5.78651E+00 1.29649E-01-1.35715E+00 9.92484E-13-5.76705E-13
 -1      2139 4.04963E+01 6.54249E+00 3.46069E-01-7.61406E-01 1.03828E-12-4.66238E-13
 -1      2140 3.57538E+01 7.80063E+00 3.21982E-01 3.35663E-01 1.11161E-12-2.15342E-13
 -1      2141 3.37440E+01 2.23559E+00 4.23328E-02-3.13876E+00 9.28965E-13-7.93698E-13
 -1      2142 3.71755E+01 3.76722E+00 2.26395E-01-2.26882E+00 8.77132E-13-6.17506E-13
 -1      2143 2.66554E+01-1.46316E+00-1.28359E-01-4.99804E+00 8.36275E-13-9.18265E-13
 -1      2144 3.14509E+01 2.39286E-01 1.48458E-01-4.66762E+00 8.40272E-13-8.43992E-13
 -1      2145 1.77003E+01-4.25188E+00-3.09393E-01-6.05395E+00 7.67608E-13-1.11111E-12
 -1      2146 2.28817E+01-2.29800E+00 3.69229E-02-6.64835E+00 8.81795E-13-1.12166E-12
 -1      2147 1.03768E+01-6.00414E+00-2.06395E-01-6.11364E+00 4.03233E-13-1.00246E-12
 -1      2148 1.40482E+01-4.69878E+00-1.22018E-01-6.71890E+00 7.10987E-13-1.16659E-12
 -1      2149 1.86106E+01-5.53831E+00-9.28678E-02-6.47929E+00 2.31093E-13-8.62421E-13
 -1      2150 2.84115E+00-6.93208E+00-4.16661E-01-3.45303E+00 1.40665E-13-1.00397E-12
 -1      2151 5.83262E+00-5.83062E+00-2.37218E-01-5.23081E+00 3.02480E-13-1.03278E-12
 -1      2152 1.40076E-01-7.43208E+00-4.64950E-01 1.89580E-02-1.52187E-13-1.05749E-12
 -1      2153 7.92250E-01-6.66933E+00-3.46066E-01-1.68924E+00 1.52489E-13-1.04017E-12
 -1      2154 2.07852E+00-6.05557E+00-2.74340E-01 3.43337E+00-3.73479E-13-1.12299E-12
 -1      2155 6.13374E-01-7.41431E+00-4.69798E-01 1.64281E+00-1.42983E-13-1.05776E-12
 -1      2156 1.60101E+00-4.60532E+00-1.92197E-01 1.03878E+00-3.09267E-14-1.18294E-12
 -1      2157 8.61152E+00-5.43915E+00-1.71865E-01 6.22397E+00-6.67466E-13-1.01603E-12
 -1      2158 5.68282E+00-6.22772E+00-2.55427E-01 5.19553E+00-3.22076E-13-1.02068E-12
 -1      2159 1.64314E+01-4.05579E+00-3.22754E-02 7.16758E+00-7.63167E-13-8.00693E-13
 -1      2160 1.18282E+01-5.66593E+00-3.16583E-01 6.25782E+00-6.90836E-13-8.96741E-13
 -1      2161 1.29417E+01-5.38962E+00-4.27606E-02 7.07412E+00-8.51541E-14-7.27793E-13
 -1      2162 2.56825E+01-1.81874E+00-9.72961E-03 5.85895E+00-8.88734E-13-5.96856E-13
 -1      2163 2.05129E+01-3.40195E+00-1.82181E-01 6.04965E+00-8.96727E-13-6.95610E-13
 -1      2164 3.42833E+01 2.74989E+00 3.74333E-01 4.47474E+00-9.40935E-13-7.33080E-13
 -1      2165 2.97183E+01 5.55758E-01 4.76778E-02 4.31850E+00-9.39970E-13-5.73097E-13
 -1      2166 3.81552E+01 5.31882E+00 2.36191E-01 2.01731E+00-8.82683E-13-5.17364E-13
 -1      2167 3.57715E+01 4.21153E+00 1.90616E-01 3.30058E+00-9.48477E-13-7.43849E-13
 -1      2168 3.35231E+01 2.70496E+00 2.05711E-01 1.23837E+00-7.78586E-13-2.82829E-13
 -1      2169 3.84885E+01 7.42357E+00 1.48543E-01 8.41448E-02-9.91707E-13-2.54581E-13
 -1      2170 3.84000E+01 6.82956E+00 2.34390E-01 1.03516E+00-9.86045E-13-4.48142E-13
 -1      2171 3.87404E+01 6.44108E+00 2.71994E-01-1.42701E+00-9.51184E-13-8.59313E-14
 -1      2172 3.84805E+01 7.22661E+00 1.18162E-01-8.65221E-02-9.88876E-13-3.23894E-13
 -1      2173 3.47164E+01 3.94070E+00 7.64734E-02-2.55424E+00-8.70137E-13 8.18234E-14
 -1      2174 3.80884E+01 5.15384E+00 2.98218E-01-2.07226E+00-8.58480E-13-8.79297E-14
 -1      2175 3.46483E+01 6.23983E+00 2.65835E-01 3.91877E-01-8.59868E-13-4.56329E-13
 -1      2176 2.85788E+01 5.61808E-01-2.89879E-03-5.17904E+00-8.54206E-13 5.51559E-13
 -1      2177 3.29010E+01 1.97279E+00 1.82211E-01-4.47206E+00-8.21794E-13 3.43947E-13
 -1      2178 2.07414E+01-2.56361E+00-2.01983E-01-6.19191E+00-8.43769E-13 6.91447E-13
 -1      2179 2.55187E+01-6.92496E-01 1.35003E-01-6.56486E+00-8.12850E-13 6.31439E-13
 -1      2180 1.26635E+01-5.22545E+00-3.53705E-01-6.16612E+00-6.49147E-13 7.43211E-13
 -1      2181 1.70050E+01-3.29201E+00-3.09418E-02-7.04090E+00-8.28337E-13 7.28251E-13
 -1      2182 5.66156E+00-6.98905E+00-4.57828E-01-4.92577E+00-3.69316E-13 1.01052E-12
 -1      2183 8.96025E+00-5.35885E+00-1.98791E-01-6.13848E+00-5.83533E-13 9.50434E-13
 -1      2184 1.25700E+00-7.62431E+00-4.61223E-01-2.65071E+00-1.76803E-13 1.06004E-12
 -1      2185 3.01328E+00-6.70544E+00-3.27211E-01-4.02247E+00-4.17999E-13 1.16951E-12
 -1      2186 3.54978E+01 2.53706E+00 1.08914E-01 2.34277E+00 8.44824E-13 1.95843E-13
 -1      2187 3.21563E+01 1.19813E+00 7.55419E-02 3.72426E+00 9.22429E-13 4.82836E-13
 -1      2188 3.11503E+01-1.01920E+00 1.93628E-01 2.13066E+00 6.49591E-13 8.01026E-14
 -1      2189 2.47426E+01-4.44624E+00 4.34006E-02 4.82059E+00 3.46112E-13 2.15938E-13
 -1      2190 2.24762E+01 1.04519E+00-2.13439E-02-1.04692E+00-3.83849E-13 2.90087E-13
 -1      2191 3.44513E+01 3.37368E+00 2.04725E-01-1.95456E-01 8.93452E-13-1.75138E-13
 -1      2192 2.22065E+01 1.24944E+00-2.10112E-02-1.00923E+00-4.08821E-13 8.62505E-14
 -1      2193 7.31274E+00-5.32866E+00-9.62169E-02 5.54615E+00-1.79023E-13 9.23317E-13
 -1      2194 2.20601E+00-4.86249E+00-1.69265E-01 1.98045E+00-6.52534E-14 9.95537E-13
 -1      2195 1.99994E+01-1.45638E-03-8.76696E-06 1.65057E-03-1.22333E-14-3.73777E-13
 -1      2196 1.58611E+01-5.87302E+00-3.46712E-02 6.56256E+00 6.95555E-14 5.56288E-13
 -1      2197 1.93315E+00-5.13744E+00-2.20018E-01-2.35979E+00-9.64506E-14 1.15480E-12
 -1      2198 6.08250E+00-5.63762E+00-2.00327E-01-5.56919E+00-4.52416E-14 9.78245E-13
 -1      2199 1.31099E+01-5.64248E+00-1.17327E-01-6.91052E+00-1.34670E-13 6.10609E-13
 -1      2200 2.11816E+01-4.38172E+00 1.67545E-02-6.21910E+00-3.29736E-13 3.41449E-13
 -1      2201 3.30396E+01 2.27380E+00 2.13386E-01-1.39800E+00-7.25572E-13-2.47580E-13
 -1      2202 3.50617E+01 6.42074E+00 2.48034E-01 1.03943E-02-9.55569E-13-2.67231E-13
 -1      2203 2.06605E+01-4.89076E+00 4.18332E-02 6.31235E+00-3.65763E-13-4.27103E-13
 -1      2204 5.60401E+00-4.83327E+00-1.02868E-01 5.14108E+00-4.27436E-14-1.07570E-12
 -1      2205 9.44751E+00-5.62247E+00-1.25907E-01-6.06021E+00 1.66589E-13-9.69710E-13
 -1      2206 1.31740E+01-5.37527E+00-1.15014E-01-6.80879E+00-1.17795E-13-8.10754E-13
 -1      2207 9.08786E+00-4.37183E+00 1.12327E-01-6.13493E+00-7.20812E-14-9.26703E-13
 -1      2208 2.66298E+01-3.57551E+00 1.00781E-01-4.48294E+00 4.37317E-13-5.56943E-13
 -1      2209 3.52277E+01 4.65574E+00 2.47942E-01 2.61132E-01 8.49043E-13-1.87739E-13
 -1      2210 3.56193E+01 7.17688E+00 2.19256E-01-6.21879E-01 1.13631E-12-2.47385E-13
 -1      2211 3.23623E+01 1.45802E-02 1.93929E-01-1.45381E+00 6.34204E-13-3.05866E-13
 -1      2212 3.22597E+00-4.74371E+00-1.41771E-01-3.18482E+00 1.56541E-14-1.10889E-12
 -1      2213 2.83202E+01-1.48356E+00 7.41643E-02 4.13031E+00-7.57616E-13-3.54716E-13
 -1      2214 2.70565E+01-3.33972E+00 1.43194E-01 3.78104E+00-4.75037E-13-4.40759E-14
 -1      2215 2.97613E+01-1.58007E+00-1.68675E-01 1.95113E+00-5.34345E-13-9.75886E-14
 -1      2216 3.50562E+01 7.91730E+00 1.97709E-01 5.88147E-02-9.90097E-13-3.15505E-13
 -1      2217 2.82359E+01-1.68085E+00 1.66187E-01-4.12303E+00-5.16032E-13 1.39833E-13
 -1      2218 2.24748E+01 5.74761E-01 6.71506E-03-4.16231E-01 2.92462E-13 1.76028E-13
 -1      2219 2.25088E+01 7.68213E-01 2.05824E-02-8.88004E-02 3.37674E-13 2.19846E-13
 -1      2220 1.80657E+01 3.88794E+00-1.31325E-02 1.95615E-01-5.66389E-14-5.83643E-13
 -1      2221 1.84110E+01 3.78380E+00-7.50738E-04 8.88092E-02-1.00832E-13-5.81971E-13
 -1      2222 1.87845E+01 3.57527E+00-1.46392E-02-2.28712E-02-1.39845E-13-5.60371E-13
 -1      2223 1.91905E+01 3.44420E+00-5.14498E-03-1.83904E-01-1.84157E-13-5.24847E-13
 -1      2224 1.87148E+01 3.30435E+00-2.35823E-03 1.77607E-01-1.01528E-13-5.27327E-13
 -1      2225 1.72741E+01 4.29078E+00-8.61199E-03 2.89511E-01 9.29813E-14-6.05128E-13
 -1      2226 1.73661E+01 4.25420E+00-1.68967E-03 2.77045E-01 4.27254E-14-6.01529E-13
 -1      2227 1.73574E+01 4.30903E+00-5.69889E-03 2.32271E-01 1.56253E-13-6.01632E-13
 -1      2228 1.72709E+01 4.32085E+00-5.58057E-03 2.33554E-01 1.21418E-13-6.12773E-13
 -1      2229 1.72820E+01 4.07168E+00 5.23764E-03 2.81148E-01 1.03910E-13-5.79354E-13
 -1      2230 1.77924E+01 4.17467E+00-3.73085E-03 1.91840E-01 2.20698E-13-5.74894E-13
 -1      2231 1.75304E+01 4.23914E+00-1.03635E-02 1.75453E-01 1.82813E-13-5.96016E-13
 -1      2232 1.74540E+01 4.03555E+00 5.92765E-03 1.55752E-01 1.62975E-13-5.72648E-13
 -1      2233 1.85618E+01 3.87832E+00-4.41846E-03 2.29504E-01 2.97081E-13-4.74064E-13
 -1      2234 1.81366E+01 4.00379E+00-1.52314E-02 1.68793E-01 2.49014E-13-5.25378E-13
 -1      2235 1.80016E+01 3.81297E+00 4.77279E-03 6.22396E-02 2.26568E-13-5.20543E-13
 -1      2236 1.95909E+01 3.41870E+00-9.61001E-03 3.80053E-01 3.83609E-13-3.51588E-13
 -1      2237 1.90457E+01 3.61716E+00-1.95262E-02 2.63017E-01 3.22148E-13-4.13204E-13
 -1      2238 1.88832E+01 3.41080E+00 3.30981E-03 5.94032E-02 2.94437E-13-4.16495E-13
 -1      2239 2.07978E+01 2.77253E+00-2.04489E-02 6.21599E-01 4.37587E-13-2.06913E-13
 -1      2240 2.01738E+01 3.07527E+00-2.26452E-02 4.63937E-01 3.96971E-13-2.96794E-13
 -1      2241 2.00042E+01 2.84660E+00 4.32569E-03 1.60179E-01 3.63466E-13-3.01273E-13
 -1      2242 2.70018E+01-4.36600E+00-6.14737E-02 3.44314E+00 2.17049E-13-1.97897E-14
 -1      2243 2.34379E+01-5.37811E+00 1.60489E-02 4.59110E+00 9.18710E-15 1.32117E-14
 -1      2244 2.26163E+01 2.76786E-01 3.79029E-03-8.68693E-01 2.01322E-13 1.00591E-13
 -1      2245 2.25187E+01 4.19488E-01 2.10028E-02-6.97729E-01 2.37179E-13 1.51780E-13
 -1      2246 2.21084E+01 7.10560E-01-8.14102E-03-5.89969E-01 3.00653E-13 3.50041E-14
 -1      2247 2.19907E+01 7.37916E-01 1.62970E-02-3.07108E-01-3.29166E-13-6.97771E-15
 -1      2248 2.18897E+01 4.70689E-01-7.55219E-03-4.24674E-02-2.84809E-13-1.22795E-14
 -1      2249 3.21462E+01 3.39641E+00-1.67222E-01-1.70402E+00 9.02500E-13-4.88998E-13
 -1      2250 3.17511E+01 1.11481E+00-7.16288E-02-1.07185E+00 7.05047E-13-3.60767E-13
 -1      2251 2.19529E+01 2.66251E-01 1.91356E-02 1.27638E-01-2.33530E-13 1.56099E-14
 -1      2252 2.19225E+01 7.18501E-02-6.56772E-03 2.17447E-01-1.83912E-13 8.79331E-15
 -1      2253 2.17419E+01 5.14014E-01-4.83194E-03 3.64751E-02-2.64579E-13-7.21088E-14
 -1      2254 2.20234E+01-8.74896E-02 1.48799E-02 2.53710E-01-1.56734E-13 1.63532E-14
 -1      2255 2.20356E+01-2.51656E-01-9.83949E-03 2.14726E-01-1.17725E-13-4.04039E-15
 -1      2256 2.18552E+01 7.24558E-03-8.17173E-03 2.76033E-01-1.82746E-13-5.85707E-14
 -1      2257 2.21823E+01-3.88855E-01 1.07812E-02 1.22892E-01-9.59018E-14-1.78069E-15
 -1      2258 2.21989E+01-5.23626E-01-1.29315E-02-2.34075E-02-7.95421E-14-3.23168E-14
 -1      2259 2.20697E+01-4.08981E-01-7.62225E-03 2.41100E-01-1.25613E-13-6.34613E-14
 -1      2260 2.23647E+01-6.20605E-01 6.35346E-03-2.31443E-01-6.17963E-14-3.71777E-14
 -1      2261 2.23484E+01-6.89772E-01-1.26775E-02-4.53852E-01-6.65427E-14-3.53988E-14
 -1      2262 2.23583E+01-7.40752E-01-4.40095E-03-5.25724E-02-8.33854E-14-4.08145E-14
 -1      2263 2.24783E+01-6.99675E-01-5.76580E-05-7.38610E-01-7.19425E-14-9.61064E-15
 -1      2264 2.24017E+01-6.44523E-01-6.31756E-03-9.74893E-01-8.64530E-14 1.09804E-14
 -1      2265 2.26472E+01-8.98827E-01 2.25644E-03-5.58244E-01-6.17932E-14-2.89902E-14
 -1      2266 2.24241E+01-5.13959E-01-9.22921E-03-1.24445E+00-1.04665E-13 2.58268E-14
 -1      2267 2.22845E+01-2.92597E-01 6.10068E-03-1.39447E+00-1.03131E-13 2.36005E-14
 -1      2268 2.28197E+01-7.41927E-01 1.06275E-02-1.14859E+00-8.55000E-14-2.13929E-14
 -1      2269 2.21568E+01-1.09118E-02-1.75663E-02-1.50540E+00-1.60169E-13 2.05023E-15
 -1      2270 2.19868E+01 3.38673E-01 1.82171E-02-1.45854E+00-1.84209E-13-3.65446E-14
 -1      2271 2.27610E+01-1.82643E-01 1.27918E-02-1.57966E+00-1.59108E-13-1.38767E-14
 -1      2272 2.17622E+01 6.81481E-01-1.81908E-02-1.27819E+00-1.76449E-13-5.75308E-14
 -1      2273 2.16286E+01 1.00588E+00 2.04528E-02-9.85886E-01-1.81724E-13-6.04974E-14
 -1      2274 2.24627E+01 6.69023E-01 2.38651E-03-1.54291E+00-2.24303E-13-6.52635E-14
 -1      2275 2.14643E+01 1.23492E+00-3.66094E-03-5.16440E-01-1.93217E-13-1.00497E-13
 -1      2276 2.14296E+01 1.34351E+00 9.66863E-03-5.75370E-02-1.98114E-13-1.57380E-13
 -1      2277 2.21146E+01 1.44604E+00-1.20877E-02-8.64543E-01-2.24181E-13-7.79065E-14
 -1      2278 2.14643E+01 1.30470E+00 1.32535E-02 5.12622E-01-2.04788E-13-1.91164E-13
 -1      2279 2.15560E+01 1.12607E+00-8.05716E-03 9.41989E-01-1.79986E-13-1.85217E-13
 -1      2280 2.19981E+01 1.71651E+00-1.22874E-02 2.55730E-01-2.27692E-13-1.12272E-13
 -1      2281 2.17600E+01 8.49164E-01 2.08302E-02 1.34715E+00-1.87537E-13-2.78672E-13
 -1      2282 2.19359E+01 4.95669E-01-1.91888E-02 1.57561E+00-1.94489E-13-2.95673E-13
 -1      2283 2.22134E+01 1.27186E+00-1.03486E-02 1.29953E+00-2.29826E-13-2.53623E-13
 -1      2284 2.21527E+01 1.50037E-01 1.49552E-02 1.66714E+00-2.26658E-13-2.97894E-13
 -1      2285 2.23411E+01-1.80755E-01-1.63760E-02 1.64875E+00-1.83940E-13-2.87564E-13
 -1      2286 2.25930E+01 4.29424E-01 7.47550E-03 1.80494E+00-1.96923E-13-2.85243E-13
 -1      2287 2.24306E+01-4.33229E-01 1.41817E-03 1.47100E+00-1.60137E-13-2.69550E-13
 -1      2288 2.25686E+01-6.19278E-01-8.34434E-03 1.27617E+00-1.10024E-13-2.55907E-13
 -1      2289 2.28455E+01-3.87002E-01 1.40528E-02 1.67536E+00-1.59219E-13-2.28476E-13
 -1      2290 2.25050E+01-7.20053E-01-9.89480E-03 9.70519E-01-1.04072E-13-2.40881E-13
 -1      2291 2.25641E+01-7.52102E-01-1.01913E-03 7.08435E-01-5.41494E-14-2.34838E-13
 -1      2292 2.28310E+01-8.65937E-01 9.24844E-03 1.13928E+00-9.59177E-14-1.60963E-13
 -1      2293 2.23994E+01-7.31599E-01-1.43655E-02 4.02401E-01-1.49624E-14-2.34269E-13
 -1      2294 2.23829E+01-6.65105E-01 3.29754E-03 1.57883E-01 3.95491E-14-2.17691E-13
 -1      2295 2.25896E+01-9.66995E-01 2.26135E-03 4.91282E-01-4.65927E-14-1.38505E-13
 -1      2296 2.21813E+01-5.82798E-01-1.34095E-02-8.07808E-02-2.55299E-14-2.42999E-13
 -1      2297 2.21083E+01-4.79136E-01 4.68156E-03-2.65321E-01-2.44756E-14-3.23666E-13
 -1      2298 2.22335E+01-8.17571E-01-2.19756E-03-7.07350E-02-3.66636E-14-1.96340E-13
 -1      2299 2.19127E+01-3.83213E-01-9.97810E-03-4.19195E-01 6.27384E-14-3.69322E-13
 -1      2300 2.18047E+01-2.82988E-01 4.31746E-03-5.34605E-01 6.86751E-14-3.32998E-13
 -1      2301 2.18576E+01-5.67899E-01-3.91332E-03-4.68217E-01-3.19114E-14-1.70764E-13
 -1      2302 2.16343E+01-2.00049E-01-6.11798E-03-6.13317E-01 1.09671E-13-2.80167E-13
 -1      2303 2.15096E+01-1.21595E-01 3.32812E-03-6.68739E-01 1.90712E-13-3.09867E-13
 -1      2304 2.15138E+01-3.20327E-01-3.91486E-03-6.99429E-01 1.47662E-13-2.77576E-13
 -1      2305 2.13686E+01-6.09850E-02-2.83490E-03-6.91362E-01 2.06214E-13-2.86920E-13
 -1      2306 2.12404E+01-7.95454E-03 2.30729E-03-7.02523E-01 1.34762E-13-3.08025E-13
 -1      2307 2.12199E+01-1.23210E-01-3.29068E-03-7.96592E-01 2.07756E-13-2.20047E-13
 -1      2308 2.11262E+01 3.07441E-02-4.34939E-04-6.88223E-01 3.41330E-14-2.81655E-13
 -1      2309 2.10035E+01 6.18014E-02 1.50494E-03-6.70767E-01-4.13282E-14-2.93534E-13
 -1      2310 2.09761E+01 1.22851E-02-2.59588E-03-7.99534E-01 7.06309E-14-2.86118E-13
 -1      2311 2.09114E+01 8.29963E-02 1.11553E-03-6.35179E-01-5.30591E-14-2.95063E-13
 -1      2312 2.07996E+01 9.77402E-02 9.49670E-04-6.01821E-01-2.78181E-14-2.95359E-13
 -1      2313 2.07759E+01 9.33479E-02-2.03935E-03-7.43763E-01-2.98914E-14-2.88987E-13
 -1      2314 2.07255E+01 1.06576E-01 1.98008E-03-5.56301E-01-2.91041E-14-2.70124E-13
 -1      2315 2.06274E+01 1.10442E-01 5.95132E-04-5.16193E-01 5.79787E-14-2.30938E-13
 -1      2316 2.06120E+01 1.33366E-01-1.64702E-03-6.56644E-01-1.78687E-14-2.27282E-13
 -1      2317 2.05677E+01 1.11365E-01 2.34878E-03-4.68305E-01 1.13603E-13-2.32083E-13
 -1      2318 2.04843E+01 1.08671E-01 3.80259E-04-4.27428E-01 1.33440E-13-1.48856E-13
 -1      2319 2.04781E+01 1.45611E-01-1.37590E-03-5.57355E-01 9.11921E-14-1.92518E-13
 -1      2320 2.04364E+01 1.05029E-01 2.38916E-03-3.81788E-01 1.24486E-13-5.60373E-14
 -1      2321 2.03674E+01 9.88624E-02 2.54051E-04-3.43674E-01 1.67675E-13-2.92715E-14
 -1      2322 2.03692E+01 1.40822E-01-1.17776E-03-4.58287E-01 1.81296E-13-1.30435E-13
 -1      2323 2.03293E+01 9.29640E-02 2.23216E-03-3.02783E-01 1.71230E-13-8.53724E-14
 -1      2324 2.02735E+01 8.53670E-02 1.80535E-04-2.69226E-01 1.90118E-13-5.64462E-14
 -1      2325 2.02812E+01 1.26779E-01-1.01874E-03-3.66712E-01 1.59839E-13 1.48318E-14
 -1      2326 2.02433E+01 7.86958E-02 1.97224E-03-2.34158E-01 1.66206E-13-3.90953E-14
 -1      2327 2.01993E+01 7.09248E-02 1.36744E-04-2.05815E-01 5.32260E-14-1.39336E-14
 -1      2328 2.02108E+01 1.08698E-01-8.79949E-04-2.86298E-01 1.55902E-13 9.27353E-14
 -1      2329 2.01757E+01 6.43659E-02 1.67287E-03-1.76741E-01-8.98285E-14-2.13690E-14
 -1      2330 2.01416E+01 5.71291E-02 1.09131E-04-1.53570E-01-1.37630E-13-9.91238E-14
 -1      2331 2.01552E+01 8.98318E-02-7.52874E-04-2.18326E-01-5.15308E-14 1.97353E-13
 -1      2332 2.01235E+01 5.11617E-02 1.37374E-03-1.30132E-01-1.19895E-13-1.11274E-13
 -1      2333 2.00977E+01 4.48063E-02 9.01554E-05-1.11703E-01-9.59858E-14 4.52608E-14
 -1      2334 2.01118E+01 7.20510E-02-6.35094E-04-1.62603E-01-7.79776E-14 1.57617E-13
 -1      2335 2.00840E+01 3.96470E-02 1.09755E-03-9.32694E-02-9.26341E-14 5.98277E-14
 -1      2336 2.00649E+01 3.42930E-02 7.57620E-05-7.89691E-02-1.41287E-14 1.17382E-13
 -1      2337 2.00786E+01 5.63017E-02-5.27185E-04-1.18100E-01-1.01030E-13 1.92892E-13
 -1      2338 2.00547E+01 2.99963E-02 8.55565E-04-6.47996E-02 5.96604E-15-5.44383E-16
 -1      2339 2.00409E+01 2.56294E-02 6.39057E-05-5.39589E-02 2.98936E-14-9.29588E-14
 -1      2340 2.00535E+01 4.29444E-02-4.30330E-04-8.33852E-02-6.71927E-14 7.12821E-14
 -1      2341 2.00334E+01 2.21562E-02 6.51538E-04-4.33093E-02 1.02147E-13-9.76587E-14
 -1      2342 2.00238E+01 1.86894E-02 5.36707E-05-3.52817E-02 1.73515E-13-8.31994E-14
 -1      2343 2.00349E+01 3.19868E-02-3.45290E-04-5.69057E-02 5.91332E-14-4.82829E-14
 -1      2344 2.00184E+01 1.59528E-02 4.84667E-04-2.74612E-02 1.06502E-13-1.51702E-13
 -1      2345 2.00119E+01 1.32666E-02 4.47120E-05-2.16628E-02-2.72723E-15-6.09749E-14
 -1      2346 2.00215E+01 2.32423E-02-2.72254E-04-3.71551E-02 8.23514E-14-1.63239E-13
 -1      2347 2.00082E+01 1.11606E-02 3.51661E-04-1.60629E-02-2.90419E-14 1.49391E-13
 -1      2348 2.00040E+01 9.12708E-03 3.69022E-05-1.19900E-02-3.59223E-14 2.17166E-13
 -1      2349 2.00120E+01 1.64325E-02-2.10886E-04-2.27665E-02 9.39547E-14 7.52749E-14
 -1      2350 2.00015E+01 7.54301E-03 2.48097E-04-8.09452E-03-1.42927E-13 2.43766E-13
 -1      2351 1.99990E+01 6.03944E-03 3.01656E-05-5.32730E-03-1.25599E-13 2.35001E-13
 -1      2352 2.00055E+01 1.12510E-02-1.60388E-04-1.25544E-02-3.35333E-14 2.16168E-13
 -1      2353 1.99974E+01 4.87564E-03 1.69240E-04-2.71139E-03-1.96226E-13 1.40318E-13
 -1      2354 1.99961E+01 3.79138E-03 2.44163E-05-9.09690E-04-2.16043E-13 2.72649E-14
 -1      2355 2.00013E+01 7.39864E-03-1.19630E-04-5.52423E-03-2.46574E-13 1.80244E-13
 -1      2356 1.99952E+01 2.95755E-03 1.10532E-04 7.67176E-04-1.08997E-13 1.12233E-14
 -1      2357 1.99946E+01 2.19697E-03 1.95340E-05 1.87193E-03-9.65333E-14 5.21542E-14
 -1      2358 1.99987E+01 4.60326E-03-8.73246E-05-8.65722E-04-1.87105E-13 2.44947E-13
 -1      2359 1.99942E+01 1.61576E-03 6.78570E-05 2.87617E-03-1.40824E-13 7.77420E-14
 -1      2360 1.99942E+01 1.09854E-03 1.53536E-05 3.49075E-03-1.31535E-13 1.74377E-13
 -1      2361 1.99972E+01 2.62763E-03-6.21546E-05 2.06523E-03-1.22643E-13 2.06142E-13
 -1      2362 1.99940E+01 7.05278E-04 3.76606E-05 4.02555E-03-4.22397E-14 2.07469E-13
 -1      2363 1.99943E+01 3.65171E-04 1.16618E-05 4.30478E-03 6.94403E-14 2.74433E-13
 -1      2364 1.99965E+01 1.27121E-03-4.28729E-05 3.76796E-03 2.11374E-14 2.98806E-13
 -1      2365 1.99944E+01 1.06549E-04 1.69901E-05 4.52060E-03 6.53955E-14 3.27091E-13
 -1      2366 1.99949E+01-1.10628E-04 8.21313E-06 4.57630E-03 2.64776E-13 4.06414E-13
 -1      2367 1.99964E+01 3.67718E-04-2.83616E-05 4.61938E-03 1.03930E-13 3.63323E-13
 -1      2368 1.99951E+01-2.78485E-04 3.50018E-06 4.58022E-03 3.20888E-13 3.21542E-13
 -1      2369 1.99957E+01-4.17129E-04 4.78926E-06 4.48889E-03 3.65028E-13 1.31212E-13
 -1      2370 1.99966E+01-2.19483E-04-1.76490E-05 4.89487E-03 1.67349E-13 2.49059E-13
 -1      2371 1.99959E+01-5.30580E-04-4.64159E-06 4.35277E-03 3.80691E-13-1.27020E-14
 -1      2372 1.99965E+01-6.27691E-04 1.11057E-06 4.16218E-03 2.98557E-13 8.79237E-14
 -1      2373 1.99971E+01-6.02340E-04-9.87260E-06 4.78665E-03 2.69614E-13 8.73176E-14
 -1      2374 1.99968E+01-7.17390E-04-8.84244E-06 3.92906E-03 4.02245E-13 3.85766E-14
 -1      2375 1.99973E+01-8.02648E-04-2.37779E-06 3.66363E-03 3.25999E-13 1.27653E-13
 -1      2376 1.99976E+01-8.74236E-04-4.60709E-06 4.41998E-03 3.57636E-13 2.30143E-13
 -1      2377 1.99976E+01-8.95384E-04-1.08314E-05 3.35599E-03-2.03606E-14 7.45524E-14
 -1      2378 1.99981E+01-9.87891E-04-7.14866E-06 3.02246E-03-8.80368E-14 1.55747E-14
 -1      2379 1.99981E+01-1.10647E-03-8.23500E-07 3.86592E-03 7.31095E-14-1.46991E-14
 -1      2380 2.33740E+01-3.84038E-01-1.46756E-02-9.50193E-01 2.86073E-14 3.51351E-14
 -1      2381 2.31609E+01-1.83494E-01 1.23092E-02-1.06081E+00 8.32171E-14 6.14205E-14
 -1      2382 2.38954E+01-8.14053E-01-2.44001E-02-4.84639E-01 3.15026E-15 2.22710E-14
 -1      2383 2.37172E+01-5.88338E-01 1.17648E-02-7.70544E-01-1.96570E-14 2.46851E-14
 -1      2384 2.31352E+01-6.76302E-01-1.64220E-02-1.09925E+00 2.46981E-14-2.55876E-14
 -1      2385 2.43966E+01-1.16338E+00-2.81397E-02 3.62953E-01 3.16761E-14 1.37046E-13
 -1      2386 2.43237E+01-1.01028E+00 9.04985E-03-8.44771E-02 1.12020E-14 8.09656E-14
 -1      2387 2.38746E+01-1.25752E+00-1.53633E-02-5.32177E-01-2.91772E-14 2.44337E-14
 -1      2388 2.47066E+01-1.11483E+00-2.12430E-02 1.43355E+00 9.10678E-14 2.17582E-13
 -1      2389 2.48030E+01-1.21496E+00-3.42674E-03 9.49074E-01 3.48888E-14 2.10381E-13
 -1      2390 2.47069E+01-1.62206E+00-7.94341E-03 4.78849E-01-3.06482E-15 1.18823E-13
 -1      2391 2.46277E+01-3.20707E-01-2.35035E-03 2.24808E+00 1.70381E-13 3.27047E-13
 -1      2392 2.49059E+01-8.24964E-01-2.84445E-02 1.99907E+00 1.24443E-13 2.87219E-13
 -1      2393 2.53687E+01-1.31327E+00-8.94993E-04 1.71443E+00 5.62250E-14 2.83103E-13
 -1      2394 2.41672E+01 1.09702E+00 1.47146E-02 2.08749E+00 2.97914E-13 2.84457E-13
 -1      2395 2.44873E+01 3.41119E-01-5.55327E-02 2.35915E+00 2.53525E-13 3.26458E-13
 -1      2396 2.55114E+01 4.97022E-02-1.04214E-02 2.52864E+00 2.30010E-13 3.74884E-13
 -1      2397 2.36536E+01 2.08770E+00-4.97356E-02 6.43667E-01 3.53620E-13 5.90118E-14
 -1      2398 2.38241E+01 1.67442E+00-8.35083E-02 1.36969E+00 3.69191E-13 1.68211E-13
 -1      2399 2.51242E+01 2.00758E+00-9.20208E-03 2.05031E+00 4.15834E-13 3.19727E-13
 -1      2400 2.38798E+01 1.84421E+00-4.81196E-02-1.35879E+00 4.39225E-13-2.65060E-13
 -1      2401 2.37254E+01 2.19509E+00-9.66516E-03-5.67460E-01 3.73757E-13-1.59664E-13
 -1      2402 2.48339E+01 3.01736E+00-2.23606E-02-3.05982E-03 5.22631E-13 7.56869E-14
 -1      2403 2.45014E+01 5.17557E-01-6.13867E-02-2.49651E+00 2.16636E-13-4.17749E-13
 -1      2404 2.41168E+01 1.24962E+00-1.00006E-02-2.14972E+00 3.75755E-13-3.66873E-13
 -1      2405 2.50560E+01 2.00042E+00-4.32753E-02-1.95046E+00 4.63074E-13-2.36774E-13
 -1      2406 2.50192E+01-7.19287E-01-3.36544E-02-2.26640E+00 1.14182E-13-5.05185E-13
 -1      2407 2.47225E+01-1.66554E-01 7.80753E-03-2.45705E+00 1.68353E-13-4.51238E-13
 -1      2408 2.55623E+01 1.90440E-01-6.22807E-03-2.73915E+00 2.31880E-13-4.92446E-13
 -1      2409 2.50410E+01-1.21947E+00-2.50848E-03-1.25790E+00 6.37181E-14-4.52457E-13
 -1      2410 2.48900E+01-1.06980E+00-1.70104E-02-1.72942E+00 2.73041E-14-4.73573E-13
 -1      2411 2.54820E+01-1.22320E+00-1.41348E-02-2.07897E+00 7.14429E-14-5.14930E-13
 -1      2412 2.46114E+01-1.09079E+00 8.64499E-03-1.56524E-01 1.04352E-13-4.04388E-13
 -1      2413 2.46437E+01-1.21491E+00-2.91008E-02-6.23108E-01 1.34118E-13-3.72905E-13
 -1      2414 2.49289E+01-1.67557E+00-6.29131E-03-7.90178E-01 4.63466E-14-4.49421E-13
 -1      2415 2.39898E+01-7.08161E-01 9.07042E-03 6.43799E-01-4.94717E-14-2.60724E-13
 -1      2416 2.41621E+01-9.14252E-01-2.56877E-02 3.15180E-01 3.05277E-14-3.16484E-13
 -1      2417 2.40886E+01-1.39277E+00-1.37010E-02 3.27021E-01 8.94250E-15-2.77689E-13
 -1      2418 2.33498E+01-3.36027E-01 5.98409E-03 1.08093E+00-1.58764E-13-2.00573E-13
 -1      2419 2.35992E+01-5.14343E-01-1.69539E-02 9.06712E-01-7.07724E-14-2.19286E-13
 -1      2420 2.32849E+01-8.58837E-01-1.41495E-02 1.04196E+00-1.06352E-13-1.67440E-13
 -1      2421 2.27645E+01-7.22294E-02 3.22488E-03 1.23367E+00-2.12679E-13-2.43494E-13
 -1      2422 2.30425E+01-1.90479E-01-8.23101E-03 1.17846E+00-1.54244E-13-1.93872E-13
 -1      2423 2.26236E+01-3.76928E-01-1.05530E-02 1.38038E+00-1.37089E-13-1.88400E-13
 -1      2424 2.22520E+01 8.01329E-02 1.60046E-03 1.20680E+00 2.49446E-14-2.31613E-13
 -1      2425 2.25271E+01 1.58774E-02-1.72687E-03 1.22592E+00-1.13429E-13-2.61564E-13
 -1      2426 2.21036E+01-4.80365E-02-6.71965E-03 1.45386E+00-1.10840E-13-1.47761E-13
 -1      2427 2.18116E+01 1.50808E-01 8.90744E-04 1.08527E+00 1.91390E-13-2.10797E-13
 -1      2428 2.20652E+01 1.23783E-01 2.32448E-03 1.14267E+00 7.83442E-14-2.59454E-13
 -1      2429 2.16920E+01 1.36181E-01-4.04628E-03 1.37064E+00 4.07207E-14-2.52116E-13
 -1      2430 2.14377E+01 1.71164E-01 6.56224E-04 9.25691E-01 1.30990E-13 7.26286E-14
 -1      2431 2.16606E+01 1.66120E-01 4.41522E-03 9.97454E-01 2.64213E-13 1.75668E-15
 -1      2432 2.13584E+01 2.17667E-01-2.56038E-03 1.20996E+00 1.15418E-13-2.77283E-14
 -1      2433 2.11246E+01 1.64490E-01 6.13516E-04 7.61319E-01-1.63607E-13 1.32755E-13
 -1      2434 2.13136E+01 1.70753E-01 5.16470E-03 8.33605E-01-2.32412E-14 1.49186E-13
 -1      2435 2.10831E+01 2.37109E-01-1.86056E-03 1.02242E+00 4.32072E-14 3.49903E-13
 -1      2436 2.08663E+01 1.45492E-01 6.20352E-04 6.09376E-01-1.86725E-13 3.09376E-14
 -1      2437 2.10221E+01 1.56550E-01 5.11088E-03 6.75230E-01-1.84274E-13 8.90816E-14
 -1      2438 2.08544E+01 2.23826E-01-1.55901E-03 8.37102E-01-1.04927E-13 3.56495E-13
 -1      2439 2.06565E+01 1.22518E-01 6.18387E-04 4.77248E-01-4.44646E-14-1.60092E-13
 -1      2440 2.07820E+01 1.34775E-01 4.63889E-03 5.33882E-01-1.35234E-13-1.29768E-13
 -1      2441 2.06650E+01 1.96081E-01-1.41332E-03 6.68794E-01-8.15492E-14 5.31206E-14
 -1      2442 2.04888E+01 9.98682E-02 5.92087E-04 3.66775E-01 3.38816E-14-2.47900E-13
 -1      2443 2.05880E+01 1.11528E-01 3.99392E-03 4.13695E-01-7.74110E-15-2.37844E-13
 -1      2444 2.05098E+01 1.64145E-01-1.30431E-03 5.23549E-01-1.80409E-14-5.67367E-14
 -1      2445 2.03570E+01 7.94967E-02 5.44004E-04 2.76942E-01 1.35752E-13-1.94925E-13
 -1      2446 2.04339E+01 8.97872E-02 3.31776E-03 3.14792E-01 8.03448E-14-2.46948E-13
 -1      2447 2.03843E+01 1.33252E-01-1.18740E-03 4.02463E-01 3.01040E-15-2.56130E-13
 -1      2448 2.02551E+01 6.20898E-02 4.82068E-04 2.05441E-01 5.22677E-14 2.02832E-15
 -1      2449 2.03137E+01 7.07808E-02 2.68445E-03 2.35350E-01 1.10488E-13-5.91440E-14
 -1      2450 2.02844E+01 1.05732E-01-1.05483E-03 3.04059E-01 2.03185E-15-1.03478E-13
 -1      2451 2.01776E+01 4.76920E-02 4.14253E-04 1.49548E-01 1.26819E-15 1.74461E-13
 -1      2452 2.02214E+01 5.48228E-02 2.12712E-03 1.72769E-01 4.02971E-14 8.68141E-14
 -1      2453 2.02062E+01 8.23504E-02-9.12936E-04 2.25702E-01-2.25852E-14 6.09195E-14
 -1      2454 2.01197E+01 3.60541E-02 3.46807E-04 1.06565E-01-1.65656E-13 1.27302E-13
 -1      2455 2.01519E+01 4.17820E-02 1.65561E-03 1.24304E-01 9.96490E-15 2.53188E-13
 -1      2456 2.01459E+01 6.30853E-02-7.70780E-04 1.64394E-01-1.25958E-13 1.61265E-13
 -1      2457 2.00772E+01 2.68164E-02 2.83886E-04 7.40330E-02 4.40815E-14-2.42557E-15
 -1      2458 2.01004E+01 3.13385E-02 1.26748E-03 8.73687E-02-1.47728E-13 1.00007E-13
 -1      2459 2.01003E+01 4.75602E-02-6.36105E-04 1.17200E-01-1.09329E-13 1.13654E-13
 -1      2460 2.00468E+01 1.95993E-02 2.27779E-04 4.98128E-02 1.96149E-13 8.73705E-14
 -1      2461 2.00631E+01 2.31146E-02 9.54627E-04 5.96711E-02 1.79229E-13 1.36142E-13
 -1      2462 2.00665E+01 3.52700E-02-5.14226E-04 8.14480E-02 5.93473E-14 1.10488E-13
 -1      2463 2.00255E+01 1.40445E-02 1.79426E-04 3.20975E-02 6.07833E-14 9.84120E-14
 -1      2464 2.00366E+01 1.67366E-02 7.06866E-04 3.92523E-02 1.92747E-13 1.24791E-13
 -1      2465 2.00418E+01 2.56924E-02-4.07878E-04 5.48080E-02 2.05813E-13 3.87029E-13
 -1      2466 2.00111E+01 9.83251E-03 1.38910E-04 1.93968E-02-6.78417E-14 3.00745E-13
 -1      2467 2.00184E+01 1.18632E-02 5.13765E-04 2.44810E-02-2.98915E-14 1.58089E-13
 -1      2468 2.00243E+01 1.83397E-02-3.17699E-04 3.53091E-02-4.21795E-15 2.70697E-13
 -1      2469 2.00017E+01 6.68901E-03 1.05772E-04 1.05028E-02-1.01847E-13 2.96508E-13
 -1      2470 2.00063E+01 8.19594E-03 3.65539E-04 1.40256E-02-6.66720E-14 3.38007E-13
 -1      2471 2.00123E+01 1.27797E-02-2.43047E-04 2.13214E-02-9.83426E-14 4.20968E-13
 -1      2472 1.99960E+01 4.38373E-03 7.92385E-05 4.45216E-03-1.57626E-13 2.17903E-13
 -1      2473 1.99986E+01 5.48170E-03 2.53495E-04 6.81703E-03-6.00823E-14 3.16806E-13
 -1      2474 2.00042E+01 8.64259E-03-1.82559E-04 1.15217E-02-1.16317E-13 3.27048E-13
 -1      2475 1.99929E+01 2.72674E-03 5.83870E-05 4.87825E-04-2.85386E-13 2.52228E-13
 -1      2476 1.99941E+01 3.51000E-03 1.70177E-04 2.00975E-03-3.37016E-13 2.68104E-13
 -1      2477 1.99992E+01 5.61891E-03-1.34487E-04 4.85236E-03-2.02141E-13 2.19202E-13
 -1      2478 1.99916E+01 1.56330E-03 4.22576E-05-1.97627E-03-2.87433E-13 4.54072E-13
 -1      2479 1.99919E+01 2.10829E-03 1.09326E-04-1.05510E-03-2.17490E-13 3.53322E-13
 -1      2480 1.99962E+01 3.45394E-03-9.69614E-05 4.81213E-04-3.28574E-13 4.90691E-13
 -1      2481 1.99914E+01 7.68628E-04 2.99113E-05-3.38610E-03-1.12532E-14 2.67994E-13
 -1      2482 1.99911E+01 1.13680E-03 6.57854E-05-2.88274E-03-2.35619E-13 2.77312E-13
 -1      2483 1.99947E+01 1.94052E-03-6.81578E-05-2.23624E-03-2.01699E-13 2.70974E-13
 -1      2484 1.99919E+01 2.42742E-04 2.04579E-05-4.07410E-03 1.46329E-13 3.43258E-13
 -1      2485 1.99913E+01 4.83223E-04 3.53681E-05-3.85342E-03 1.48987E-13 3.56603E-13
 -1      2486 1.99942E+01 9.11783E-04-4.64061E-05-3.79037E-03-9.42365E-15 1.00641E-13
 -1      2487 1.99929E+01-9.44301E-05 1.30604E-05-4.28133E-03 1.01251E-13 3.48494E-13
 -1      2488 1.99921E+01 5.76837E-05 1.47288E-05-4.24667E-03 1.84488E-13 4.69931E-13
 -1      2489 1.99944E+01 2.34035E-04-3.02423E-05-4.54631E-03 9.52929E-14 2.47340E-13
 -1      2490 1.99941E+01-3.07537E-04 6.97320E-06-4.17524E-03 3.17325E-13 1.51654E-13
 -1      2491 1.99932E+01-2.11983E-04 1.22770E-06-4.26100E-03 2.63976E-13 1.96895E-13
 -1      2492 1.99949E+01-1.99896E-04-1.84293E-05-4.76816E-03 2.78104E-13 2.77122E-13
 -1      2493 1.99953E+01-4.49849E-04 1.67241E-06-3.86381E-03 3.10725E-13 1.57975E-13
 -1      2494 1.99945E+01-3.84762E-04-7.26029E-06-4.02999E-03 2.05509E-13 1.08968E-13
 -1      2495 1.99957E+01-4.76428E-04-9.89300E-06-4.63880E-03 2.81292E-13 1.48960E-13
 -1      2496 1.99965E+01-5.66576E-04-2.11965E-06-3.40502E-03 2.48238E-13 3.38583E-13
 -1      2497 1.99957E+01-5.12917E-04-1.30666E-05-3.63499E-03 3.24639E-13 3.56255E-13
 -1      2498 1.99965E+01-6.63863E-04-2.62252E-06-4.27878E-03 1.87909E-13 3.31359E-13
 -1      2499 1.99976E+01-6.95078E-04-6.18529E-06-2.82254E-03 3.54088E-14 5.18870E-13
 -1      2500 1.99969E+01-6.33203E-04-1.62050E-05-3.11252E-03 8.81275E-14 3.80050E-13
 -1      2501 1.99974E+01-8.29309E-04 5.32415E-06-3.75528E-03 9.01558E-14 7.21921E-13
 -1      2502 1.99985E+01-8.51961E-04-1.17096E-05-2.12492E-03-7.83182E-14 4.38338E-13
 -1      2503 1.99979E+01-7.68660E-04-1.52414E-05-2.47014E-03 2.40963E-14 4.86964E-13
 -1      2504 1.99982E+01-1.01310E-03 9.69576E-06-3.08474E-03 6.33177E-14 6.79334E-13
 -1      2505 1.99988E+01-9.15121E-04-1.06042E-05-1.68104E-03-8.91219E-14 3.12105E-13
 -1      2506 2.00005E+01-4.11252E-03 1.54597E-05-2.23578E-03 1.14535E-13-3.73743E-13
 -1      2507 2.00004E+01-3.74634E-03-1.07455E-06-2.47462E-03 8.74234E-14-5.16659E-13
 -1      2508 2.00008E+01-4.64380E-03 1.58575E-05-1.54162E-03 2.87510E-13-5.61821E-14
 -1      2509 2.00007E+01-4.37717E-03 5.79194E-06-1.88719E-03 2.35292E-13-6.97781E-14
 -1      2510 2.00009E+01-3.85609E-03-9.13948E-06-2.31965E-03 3.20158E-13-1.12077E-13
 -1      2511 1.99997E+01-2.57317E-03 1.07275E-05-2.80536E-03 2.51549E-13 2.95417E-13
 -1      2512 1.99994E+01-2.10754E-03-1.45799E-05-2.72748E-03 1.70089E-13 2.57465E-13
 -1      2513 2.00002E+01-3.39526E-03 1.32451E-05-2.67912E-03 2.40130E-14-2.05887E-13
 -1      2514 1.99999E+01-2.97494E-03-8.68743E-06-2.76464E-03 1.29026E-13 1.59149E-13
 -1      2515 1.99999E+01-2.55397E-03 2.79836E-06-3.15904E-03 2.05681E-13 1.20723E-13
 -1      2516 2.00004E+01-3.26735E-03-7.97393E-06-2.91294E-03 1.31014E-13-3.56920E-13
 -1      2517 2.00010E+01-4.94675E-03 1.52616E-05-6.90148E-04 5.20268E-14 4.62707E-16
 -1      2518 2.00009E+01-4.80787E-03 1.04776E-05-1.09965E-03 1.74550E-13-1.81111E-13
 -1      2519 2.00012E+01-4.26743E-03-1.06404E-05-1.48343E-03 3.11675E-13-2.61244E-13
 -1      2520 2.00010E+01-4.99829E-03 1.34907E-05 2.28254E-04-1.56128E-13 1.59084E-13
 -1      2521 2.00010E+01-5.00059E-03 1.36541E-05-2.01835E-04-1.70779E-13 5.61294E-14
 -1      2522 2.00013E+01-4.47722E-03-1.13774E-05-5.00197E-04 1.15542E-13-2.08005E-13
 -1      2523 2.00009E+01-4.79587E-03 1.04216E-05 1.12291E-03-3.28957E-14 2.26227E-13
 -1      2524 2.00010E+01-4.93924E-03 1.52407E-05 7.15441E-04-1.17215E-13 3.05073E-13
 -1      2525 2.00013E+01-4.47216E-03-1.13262E-05 5.30394E-04-8.08548E-14 3.03378E-13
 -1      2526 2.00007E+01-4.36693E-03 5.70870E-06 1.89186E-03-5.15369E-14-1.62029E-14
 -1      2527 2.00008E+01-4.63124E-03 1.57068E-05 1.55473E-03-7.32163E-14 5.23395E-14
 -1      2528 2.00012E+01-4.25584E-03-1.06485E-05 1.50129E-03 2.35447E-14 1.44175E-13
 -1      2529 2.00004E+01-3.73454E-03-1.34694E-06 2.47504E-03 1.09345E-14 2.42107E-13
 -1      2530 2.00005E+01-4.10147E-03 1.52268E-05 2.23809E-03-6.63674E-14 1.81055E-14
 -1      2531 2.00009E+01-3.84336E-03-9.01614E-06 2.32388E-03 5.97023E-14-4.43982E-14
 -1      2532 1.99999E+01-2.95231E-03-8.60255E-06 2.76199E-03-6.03523E-14-2.12427E-13
 -1      2533 2.00002E+01-3.38025E-03 1.30276E-05 2.67859E-03-9.93833E-14 9.04986E-14
 -1      2534 2.00004E+01-3.25234E-03-8.53891E-06 2.91349E-03-1.79032E-13 1.13643E-13
 -1      2535 1.99994E+01-2.08326E-03-1.25733E-05 2.70233E-03-9.32865E-14-8.00494E-13
 -1      2536 1.99997E+01-2.54655E-03 9.48351E-06 2.79812E-03-8.73381E-14-6.74543E-13
 -1      2537 1.99998E+01-2.52634E-03 3.89528E-06 3.14942E-03-1.82933E-13-4.37820E-13
 -1      2538 4.26139E+00-3.07591E+00 3.94509E-02 3.11149E+00-1.69184E-13 8.12406E-13
 -1      2539 3.02625E+00-3.00558E+00 7.24536E-02 7.03121E-01-1.14402E-13 9.30700E-13
 -1      2540 1.94769E+01-5.65800E+00-2.18897E-02 6.25677E+00-1.50463E-13 1.86257E-13
 -1      2541 1.51189E+01-5.27709E+00 9.79927E-02 6.39370E+00-2.87853E-13 3.74124E-13
 -1      2542 2.29281E+01-1.74892E-02-4.51915E-03-1.05722E+00 1.31653E-13 4.88871E-14
 -1      2543 2.27437E+01 1.40560E-01 1.51705E-02-1.01777E+00 1.73729E-13 9.38230E-14
 -1      2544 2.25932E+01-1.40996E-01-1.38706E-02-1.24919E+00 1.37720E-13-1.61099E-14
 -1      2545 1.99990E+01-1.39787E-03-8.10280E-06 2.06193E-03 1.13413E-13-3.21037E-13
 -1      2546 3.16117E+00-2.92310E+00 8.01809E-02-1.46175E+00 5.56499E-15 1.00947E-12
 -1      2547 4.23826E+00-3.18270E+00 5.73747E-02-3.61526E+00 2.41751E-14 1.03867E-12
 -1      2548 1.04505E+01-4.42992E+00 8.22418E-03 6.39473E+00-2.50189E-13 7.30471E-13
 -1      2549 7.28913E+00-3.71628E+00 1.09188E-01 4.95835E+00-3.37480E-13 8.60978E-13
 -1      2550 2.18235E+01 1.87702E+00-1.07930E-02-1.14092E+00-4.00794E-13-7.58629E-14
 -1      2551 2.18582E+01 1.10689E+00-1.01408E-02-5.64145E-01-3.73877E-13-3.35202E-14
 -1      2552 2.16202E+01 1.24476E+00 3.91074E-03-4.38235E-01-3.43753E-13-1.20298E-13
 -1      2553 2.12960E+01 2.32065E+00-3.35586E-03-1.01694E+00-3.94211E-13-1.99420E-13
 -1      2554 6.90132E+00-3.74088E+00 9.72546E-02-5.26732E+00 2.25486E-13 8.36747E-13
 -1      2555 9.71811E+00-4.27732E+00 6.94947E-02-6.59675E+00 1.93068E-13 6.93973E-13
 -1      2556 3.17288E+01 6.23737E+00-1.86349E-01-1.03879E+00-8.82849E-13-7.31359E-14
 -1      2557 3.23372E+01 4.66207E+00-5.38965E-02-8.19512E-01-7.67747E-13-1.38889E-13
 -1      2558 2.33081E+01-4.88325E+00-5.32482E-02 5.40893E+00-1.88849E-13-9.92539E-14
 -1      2559 1.95342E+01-5.33102E+00 3.45919E-02 6.27379E+00-1.22680E-14-2.76806E-13
 -1      2560 2.48468E+01-4.95790E+00-1.01182E-02-4.33570E+00 1.30840E-13-3.17468E-13
 -1      2561 2.78851E+01-3.94198E+00-1.27631E-01-2.95227E+00 2.34895E-13-1.43607E-13
 -1      2562 1.75326E+01 4.13801E+00-1.12836E-02 2.94108E-01 2.03899E-14-6.01304E-13
 -1      2563 1.77736E+01 4.06292E+00 2.08075E-04 2.41485E-01-2.63086E-14-5.89733E-13
 -1      2564 1.79904E+01 3.66129E+00-3.09904E-04 3.36846E-01-2.65009E-14-5.50908E-13
 -1      2565 1.74806E+01 3.93373E+00 2.72640E-03 3.63031E-01 3.45498E-14-5.77436E-13
 -1      2566 3.23352E+01 6.92674E+00-1.89733E-01-5.37339E-01 1.09068E-12-2.71855E-13
 -1      2567 3.20767E+01 5.91034E+00-1.55356E-01-1.40609E+00 1.06987E-12-3.47472E-13
 -1      2568 3.00979E+01-1.96472E+00-4.59262E-02-7.19364E-01 3.57072E-13-2.95319E-14
 -1      2569 3.16269E+01 4.32014E-02-1.56444E-01 2.67069E-01 4.84390E-13 2.18436E-14
 -1      2570 3.22134E+01 6.25652E+00-1.37223E-01 1.06221E+00 9.45688E-13-5.81757E-14
 -1      2571 3.22076E+01 6.92778E+00-1.47140E-01 2.87545E-01 1.02790E-12-1.25067E-13
 -1      2572 3.70088E+00-2.91441E+00 7.08649E-02-2.11022E+00-6.76403E-14-1.07009E-12
 -1      2573 5.70465E+00-3.14085E+00 6.76824E-02-4.29038E+00-5.52058E-14-9.81215E-13
 -1      2574 3.20644E+01 2.57378E+00-1.18164E-01 1.26780E+00 6.37546E-13 3.94684E-14
 -1      2575 3.23022E+01 4.64988E+00-2.12064E-01 1.37929E+00 7.98750E-13-7.43849E-15
 -1      2576 1.82927E+01-5.54310E+00 2.44764E-02-6.33230E+00-7.63278E-14-6.45891E-13
 -1      2577 2.19882E+01-5.32112E+00-1.96700E-03-5.81873E+00 4.89053E-14-5.50324E-13
 -1      2578 2.43167E+01-5.38962E+00 6.23686E-02-4.32652E+00-1.35447E-13-2.22031E-13
 -1      2579 3.19037E+00-2.83521E+00 2.92794E-02 2.15131E+00 1.94844E-14-1.09102E-12
 -1      2580 2.80408E+00-2.83496E+00 4.14808E-02-5.98165E-02 3.79766E-14-1.11183E-12
 -1      2581 8.41967E+00-3.68556E+00 1.61138E-02 6.16499E+00 1.43136E-13-8.96283E-13
 -1      2582 5.25512E+00-3.21269E+00 8.68966E-02 4.18459E+00 1.35142E-13-1.04883E-12
 -1      2583 1.57566E+01-5.04646E+00 1.18362E-03 7.20904E+00 5.62328E-14-4.74870E-13
 -1      2584 1.26777E+01-4.56359E+00 1.20822E-01 6.84853E+00 1.66533E-13-6.34007E-13
 -1      2585 3.13785E+01 7.18030E+00-1.40909E-01 5.98241E-01-8.58258E-13-3.35301E-13
 -1      2586 3.10769E+01 7.31383E+00-1.87430E-01-1.17880E-01-8.88956E-13-1.87558E-13
 -1      2587 3.23273E+01 2.82971E+00-8.94550E-02-1.45111E-01-6.69964E-13-1.48714E-13
 -1      2588 3.11482E+01 9.83856E-01-6.70548E-02 4.37192E-01-6.12135E-13-1.19960E-13
 -1      2589 2.65436E+01-3.56018E+00-2.83462E-02-3.45818E+00-1.54071E-13-1.21653E-13
 -1      2590 2.89747E+01-2.16395E+00-1.07416E-01-2.35728E+00-2.97165E-13-2.25625E-13
 -1      2591 3.16571E+01 4.64126E+00-9.93459E-02 1.19689E+00-7.35967E-13-5.16281E-13
 -1      2592 3.17403E+01 5.96720E+00-1.85724E-01 1.04853E+00-8.20288E-13-4.98795E-13
 -1      2593 3.05402E+01 4.14556E-02-3.63750E-02-6.71892E-01-4.88207E-13-4.50473E-13
 -1      2594 3.15438E+01 2.16468E+00-1.75316E-01 5.62944E-01-6.50480E-13-5.88252E-13
 -1      2595 2.92735E+01-1.64147E+00 1.74909E-02-3.65452E-01-2.76314E-13-5.17114E-13
 -1      2596 2.02247E+01-5.28158E+00-1.34034E-03-6.03928E+00 1.32117E-14 1.00336E-13
 -1      2597 2.37805E+01-4.57126E+00-5.21764E-02-5.33359E+00-5.79814E-14-2.98650E-14
 -1      2598 1.25800E+01-5.26000E+00 1.40535E-02-6.88163E+00 1.74138E-13 4.81351E-13
 -1      2599 1.63701E+01-5.27244E+00-8.90602E-03-7.10328E+00 8.85958E-14 3.04149E-13
 -1      2600 3.09141E+01-1.26780E+00-1.39898E-01 4.14273E-01 5.17524E-13-2.25431E-13
 -1      2601 2.91150E+01-2.90807E+00-4.31365E-02 1.55157E+00 3.91090E-13-1.26232E-13
 -1      2602 2.25567E+01 9.21838E-01-1.10944E-03 2.31601E-01 3.83863E-13 2.42542E-13
 -1      2603 2.27102E+01 1.28177E+00-3.84586E-03 7.65844E-01 4.23023E-13 2.94549E-13
 -1      2604 2.22915E+01 1.75874E+00-1.55106E-02 8.78208E-01 4.54248E-13 1.46832E-13
 -1      2605 2.21640E+01 1.14344E+00-1.04055E-02 7.01967E-02 3.88878E-13 7.62116E-14
 -1      2606 1.95575E+01 2.89459E+00-2.67890E-03-9.26184E-02-1.95260E-13-4.63797E-13
 -1      2607 1.96095E+01 3.21021E+00-1.72016E-02-3.42337E-01-2.26184E-13-4.76477E-13
 -1      2608 2.00511E+01 3.03204E+00-1.30286E-02-5.43364E-01-2.81123E-13-4.28509E-13
 -1      2609 2.23953E+01-5.56436E+00 4.14078E-02 4.78256E+00-2.47885E-13-1.23929E-14
 -1      2610 2.80575E+01-4.05941E+00 2.10289E-02 1.60254E+00 7.02771E-14-1.97065E-13
 -1      2611 2.16648E+01 2.21781E+00-1.43129E-02 7.67926E-01 4.35792E-13-3.40283E-14
 -1      2612 2.56827E+01-4.54323E+00 3.44878E-02-3.65202E+00 5.63161E-14-2.56697E-13
 -1      2613 3.06358E+01 3.29011E+00-4.82164E-02-1.35353E+00-6.28719E-13 2.91711E-14
 -1      2614 7.61029E+00-2.37689E+00 1.50022E-01-4.53356E+00 2.78749E-13 8.09436E-13
 -1      2615 3.03735E+01-5.48618E-01-3.12932E-02-1.28443E+00 4.93591E-13-5.25330E-13
 -1      2616 2.94097E+01 6.16000E+00-9.12513E-02 1.14297E+00-7.40630E-13-3.44273E-13
 -1      2617 1.90564E+01-5.04822E+00 8.34041E-02 6.32048E+00 2.18464E-13-2.43266E-13
 -1      2618 1.16587E+01-3.46564E+00 1.44720E-01 6.33583E+00 3.04257E-13-7.22755E-13
 -1      2619 1.99989E+01-1.21413E-03-5.41015E-06-2.24698E-03-6.46495E-14 5.38294E-13
 -1      2620 1.99990E+01-1.56256E-03 2.04494E-06-2.48737E-03 9.14050E-14 4.71672E-13
 -1      2621 1.68807E+01-5.22255E+00 7.89947E-02-6.55096E+00-1.77081E-13-7.08177E-13
 -1      2622 1.97233E+01-5.35193E+00-5.46281E-02-5.83401E+00-3.11376E-13-4.61284E-13
 -1      2623 1.53760E+01-4.32200E+00 1.60471E-01-6.50557E+00-2.91545E-13-6.50827E-13
 -1      2624 4.91782E+00-1.66980E+00 1.60987E-01-4.17741E-01-7.03673E-14 9.11993E-13
 -1      2625 7.47237E+00-2.41991E+00 1.59763E-01 4.00967E+00-2.88589E-13 8.23230E-13
 -1      2626 1.46326E+01-4.25213E+00 1.55690E-01 6.13054E+00-4.19415E-13 4.01984E-13
 -1      2627 3.05797E+01 7.57558E-01-3.76340E-02 1.67532E+00 4.45005E-13 1.62148E-13
 -1      2628 4.97459E+00-1.63207E+00 1.50901E-01-1.15960E+00-3.28904E-15-1.07536E-12
 -1      2629 2.22587E+01 2.96101E-01-1.05059E-02-1.06172E+00 2.13708E-13-9.72833E-15
 -1      2630 3.03095E+01 4.83162E+00-3.69174E-02 1.85356E+00 7.52592E-13 1.15380E-13
 -1      2631 1.29012E+01-4.27059E+00 8.75991E-02-6.62472E+00 3.78808E-13 4.28046E-13
 -1      2632 3.00142E+01 6.53476E+00-1.23614E-01-7.76515E-01-8.28920E-13-1.37099E-13
 -1      2633 2.83052E+01 5.33554E+00-1.37124E-01-1.30376E+00-7.39797E-13-2.62360E-14
 -1      2634 2.76174E+01 6.29764E+00-1.42745E-01-4.25086E-01-7.50511E-13-1.68407E-13
 -1      2635 2.55116E+01-4.46267E+00 2.89080E-02 4.05878E+00-2.03726E-13 3.49165E-14
 -1      2636 2.43962E+01-4.94262E+00 7.87160E-02 4.26925E+00 8.33361E-14 1.42830E-13
 -1      2637 2.68537E+01-4.07443E+00-1.54123E-01 2.47272E+00-1.40526E-13 1.91264E-13
 -1      2638 2.08252E+01 2.56132E+00-1.08598E-02-8.13889E-01-3.58436E-13-3.13157E-13
 -1      2639 2.88034E+01-3.36593E+00 4.51603E-03-1.05529E+00 1.39472E-13 7.53286E-14
 -1      2640 8.24420E+00-3.26426E+00 1.29726E-01-5.23649E+00-1.17795E-13-9.12492E-13
 -1      2641 1.09593E+01-3.34155E+00 5.61544E-02-5.86641E+00-2.41029E-13-7.88591E-13
 -1      2642 8.11686E+00-1.89053E+00 1.59683E-01-4.33676E+00-1.26427E-13-9.04221E-13
 -1      2643 3.00629E+01 6.39481E+00-3.68021E-02-2.37347E-01 9.36584E-13-1.09236E-13
 -1      2644 6.00454E+00-1.91016E+00 1.63203E-01 3.27605E+00 1.72251E-13-1.04863E-12
 -1      2645 3.02525E+01-7.41910E-01-3.41312E-02 6.96577E-01-4.57320E-13-3.58047E-14
 -1      2646 2.87825E+01-2.16076E+00 8.84729E-03 9.86592E-01-2.96213E-13 1.12382E-13
 -1      2647 2.96574E+01-1.93688E-01-1.30681E-01-6.74146E-01-3.59615E-13 8.81795E-14
 -1      2648 3.01512E+01 2.73465E+00-5.92742E-02 1.47052E+00-6.18422E-13-5.26634E-13
 -1      2649 1.99987E+01-1.12574E-03-1.44971E-05 2.40573E-03 1.12640E-13-1.63154E-13
 -1      2650 1.99991E+01-1.69197E-03 5.35672E-06 2.64870E-03-2.63385E-15-5.21622E-13
 -1      2651 1.99991E+01-1.76183E-03-3.21061E-06 3.10065E-03-1.09069E-13-5.13395E-13
 -1      2652 1.99983E+01-1.05730E-03-1.53312E-05 2.76893E-03-2.21990E-14 1.91766E-14
 -1      2653 1.95601E+01-5.37906E+00 6.96917E-02-6.25997E+00 2.78361E-13 8.44706E-14
 -1      2654 2.14678E+01 1.98123E+00 1.07778E-02 3.61876E-01 3.94671E-13-7.03292E-14
 -1      2655 1.99990E+01-1.64647E-03-7.21380E-06-2.98093E-03 1.95303E-13 4.28510E-13
 -1      2656 1.99986E+01-1.30834E-03 3.33768E-06 3.27553E-03-1.45740E-13-1.94258E-13
 -1      2657 3.00968E+01 4.94542E+00-3.48722E-02-1.98435E+00 9.16711E-13-4.87332E-13
 -1      2658 3.19271E+01 4.32450E+00-1.11921E-01-1.73513E+00 9.77107E-13-4.64601E-13
 -1      2659 1.74198E+01 3.74473E+00-3.25650E-03 5.54142E-02 1.71966E-13-5.41166E-13
 -1      2660 1.72296E+01 3.80628E+00-6.70676E-03 1.24963E-01 1.33311E-13-5.51130E-13
 -1      2661 1.71458E+01 3.82424E+00-7.65071E-03 2.78501E-01 1.16487E-13-5.67475E-13
 -1      2662 1.71736E+01 3.80440E+00-1.28927E-03 3.45729E-01 8.08020E-14-5.52295E-13
 -1      2663 1.71325E+01 3.58230E+00 1.10877E-02 1.85960E-01 1.17059E-13-5.48053E-13
 -1      2664 1.91235E+01 2.95217E+00-1.47610E-03-1.67502E-01 2.90061E-13-3.72491E-13
 -1      2665 1.85800E+01 3.18477E+00-1.32177E-02-1.85716E-01 2.58676E-13-4.18094E-13
 -1      2666 2.03359E+01 2.29859E+00-1.99766E-03-1.09433E-01 3.43904E-13-2.62133E-13
 -1      2667 1.97116E+01 2.62170E+00-1.07912E-02-1.67484E-01 3.11898E-13-3.15246E-13
 -1      2668 1.94488E+01 2.45854E+00 3.65207E-03-4.38586E-01 2.70602E-13-3.17119E-13
 -1      2669 1.99994E+01-1.96391E-03-1.11853E-06-3.57059E-03 1.24747E-13 2.71044E-13
 -1      2670 1.99988E+01-1.49121E-03-9.20150E-06-3.34837E-03 1.17707E-13 4.02712E-13
 -1      2671 1.99985E+01-1.36849E-03-1.56488E-05-3.72562E-03-2.41840E-14 5.61625E-13
 -1      2672 2.16774E+01 8.67611E-01 1.09533E-04-7.77436E-01 2.82195E-13-7.54276E-14
 -1      2673 2.16618E+01 1.12784E+00 1.19205E-02-4.56589E-01 3.13382E-13-5.12656E-14
 -1      2674 3.02006E+01 2.35323E+00-1.19944E-01-2.30763E+00 7.22533E-13-6.20184E-13
 -1      2675 2.86588E+01 1.82650E+00-2.43032E-01-2.76518E+00 6.17201E-13-5.66908E-13
 -1      2676 2.91459E+01 1.16500E+00-1.12969E-01-2.74903E+00 5.54265E-13-6.24084E-13
 -1      2677 2.91870E+01-4.56742E-01-1.77660E-01-2.04854E+00 4.27131E-13-7.21784E-13
 -1      2678 2.90863E+01-2.42300E+00-4.24386E-02-9.17756E-01 2.15487E-13-6.09179E-13
 -1      2679 2.82563E+01-5.27903E-01-4.20984E-02-2.34018E+00 3.53967E-13-6.04794E-13
 -1      2680 2.16691E+01 2.25134E-01 1.54771E-02 3.46738E-01-1.83101E-13-1.22090E-13
 -1      2681 2.17277E+01-6.29557E-02-8.18945E-03 4.14169E-01-1.53768E-13-1.24840E-13
 -1      2682 2.19471E+01-3.22547E-01 1.69479E-02 4.30910E-01-1.32578E-13-1.03204E-13
 -1      2683 2.20493E+01-5.85959E-01-1.06467E-02 3.63055E-01-9.90946E-14-1.15477E-13
 -1      2684 2.16517E+01-2.03455E-01-1.16103E-02 5.53592E-01-1.41199E-13-1.57838E-13
 -1      2685 2.23426E+01-8.10933E-01 1.61027E-02 2.37612E-01-6.34030E-14-6.84091E-14
 -1      2686 2.24652E+01-1.01841E+00-1.34721E-02 4.46022E-02-5.07471E-14-5.71944E-14
 -1      2687 2.21117E+01-8.26381E-01-1.33457E-02 4.79646E-01-7.84523E-14-1.24189E-13
 -1      2688 2.28033E+01-1.15509E+00 1.21747E-02-2.28519E-01-5.22463E-14-2.43685E-14
 -1      2689 2.29034E+01-1.22139E+00-1.26072E-02-5.14340E-01-5.16605E-14-1.30631E-14
 -1      2690 2.27060E+01-1.31237E+00-1.03003E-02 1.08596E-01-5.13073E-14-4.88907E-14
 -1      2691 2.31987E+01-1.16961E+00 2.23732E-03-8.94924E-01-7.27261E-14-1.96859E-15
 -1      2692 2.32286E+01-9.78675E-01-3.85584E-03-1.18867E+00-1.04604E-13 1.76778E-14
 -1      2693 2.33370E+01-1.46292E+00 8.29964E-05-5.44892E-01-7.58994E-14-1.45148E-14
 -1      2694 2.33446E+01-6.44681E-01-1.87490E-02-1.53910E+00-1.35186E-13 1.27462E-14
 -1      2695 2.32846E+01-1.41482E-01 9.93254E-03-1.69133E+00-1.74622E-13 2.55828E-15
 -1      2696 2.38036E+01-1.00121E+00 1.30853E-02-1.32501E+00-1.08856E-13 2.80201E-15
 -1      2697 2.31387E+01 4.59215E-01-3.83567E-02-1.77335E+00-2.13437E-13-3.62514E-15
 -1      2698 2.30198E+01 1.12627E+00 1.72802E-02-1.61143E+00-2.40677E-13 1.28907E-14
 -1      2699 2.38718E+01 1.83028E-01 1.12299E-02-1.85103E+00-1.93473E-13 8.86795E-14
 -1      2700 2.27573E+01 1.71633E+00-3.93658E-02-1.24806E+00-2.48591E-13-1.88863E-14
 -1      2701 2.26436E+01 2.18306E+00-8.98786E-04-7.65801E-01-2.50217E-13-3.49622E-14
 -1      2702 2.35604E+01 1.65660E+00-1.22891E-02-1.60064E+00-2.50895E-13 6.89960E-14
 -1      2703 2.25749E+01 2.38532E+00-5.76813E-03-6.35891E-03-3.09669E-13-8.24046E-14
 -1      2704 2.25960E+01 2.29475E+00-1.65001E-02 5.78869E-01-3.37845E-13-1.48391E-13
 -1      2705 2.32269E+01 2.79446E+00-1.88775E-02-4.29273E-01-3.26997E-13-5.84715E-14
 -1      2706 2.27308E+01 1.97773E+00 6.51807E-03 1.24525E+00-2.80491E-13-1.76551E-13
 -1      2707 2.28598E+01 1.42122E+00-4.04975E-02 1.66678E+00-2.22183E-13-1.87201E-13
 -1      2708 2.32834E+01 2.56128E+00-2.58212E-02 9.94467E-01-3.40122E-13-1.48498E-13
 -1      2709 2.31134E+01 7.66004E-01 1.54996E-02 1.90476E+00-1.91671E-13-2.21791E-13
 -1      2710 2.32313E+01 1.08973E-01-3.37449E-02 1.96219E+00-1.51088E-13-2.09786E-13
 -1      2711 2.36521E+01 1.31486E+00-2.20077E-03 1.96140E+00-2.10418E-13-1.15795E-13
 -1      2712 2.32946E+01-4.43448E-01 5.12661E-03 1.77574E+00-1.39361E-13-1.73508E-13
 -1      2713 2.33326E+01-8.82728E-01-1.44215E-02 1.55562E+00-1.07556E-13-1.33779E-13
 -1      2714 2.38653E+01-2.25439E-01 1.34163E-02 1.93924E+00-1.39596E-13-1.32178E-13
 -1      2715 2.31462E+01-1.15581E+00-8.56967E-03 1.15802E+00-1.14937E-13-1.57862E-13
 -1      2716 2.30813E+01-1.29332E+00 1.09112E-03 8.27964E-01-6.45195E-14-1.39626E-13
 -1      2717 2.36523E+01-1.26428E+00 8.08264E-03 1.26773E+00-1.21836E-13-1.38881E-13
 -1      2718 2.27493E+01-1.31095E+00-1.35014E-02 4.31623E-01-6.32036E-14-1.42030E-13
 -1      2719 2.26103E+01-1.23528E+00 9.38226E-03 1.20322E-01-4.70637E-14-1.52823E-13
 -1      2720 2.30927E+01-1.59453E+00-2.00347E-03 4.35514E-01-5.90931E-14-9.51215E-14
 -1      2721 2.22555E+01-1.11000E+00-1.17435E-02-1.73948E-01-4.55627E-14-1.64904E-13
 -1      2722 2.20863E+01-9.41478E-01 1.12402E-02-4.07817E-01-2.88058E-14-1.58791E-13
 -1      2723 2.24095E+01-1.42254E+00-8.04894E-03-2.53354E-01-7.74381E-14-1.51753E-13
 -1      2724 2.17805E+01-7.71959E-01-7.96264E-03-5.85792E-01-4.09993E-14-1.40044E-13
 -1      2725 2.16131E+01-5.94162E-01 9.57007E-03-7.31797E-01-1.96650E-14-8.72798E-14
 -1      2726 2.17777E+01-1.03165E+00-9.79768E-03-7.05952E-01-2.25180E-14-1.16332E-13
 -1      2727 2.13796E+01-4.38291E-01-4.40691E-03-8.15122E-01 8.12657E-14-7.33349E-14
 -1      2728 2.12299E+01-2.91821E-01 6.91020E-03-8.86296E-01 1.84738E-13-6.60535E-14
 -1      2729 2.12735E+01-6.16448E-01-8.44186E-03-9.44947E-01 2.85598E-14 1.36007E-14
 -1      2730 2.10635E+01-1.72636E-01-1.80641E-03-9.03792E-01 1.86169E-13-1.25138E-13
 -1      2731 2.09356E+01-6.87836E-02 4.37312E-03-9.20010E-01 1.65117E-13-1.85748E-13
 -1      2732 2.09036E+01-2.73396E-01-6.30438E-03-1.02756E+00 1.20663E-13-1.59957E-14
 -1      2733 2.08215E+01 1.09624E-02-8.09894E-05-8.96251E-01 1.18866E-13-2.54942E-13
 -1      2734 2.07145E+01 7.56064E-02 2.44090E-03-8.76498E-01 5.57497E-16-2.65526E-13
 -1      2735 2.06446E+01-2.88813E-02-4.30905E-03-1.00808E+00 6.20548E-14-1.66795E-13
 -1      2736 2.06375E+01 1.22196E-01 9.82534E-04-8.29758E-01-1.44684E-14-1.88352E-13
 -1      2737 2.05483E+01 1.56387E-01 1.12405E-03-7.89315E-01 2.12271E-14-1.11896E-13
 -1      2738 2.04668E+01 1.24449E-01-2.80474E-03-9.28401E-01 7.15598E-14-1.71095E-13
 -1      2739 2.04962E+01 1.78573E-01 1.57383E-03-7.32157E-01-1.76057E-14-1.31733E-13
 -1      2740 2.04222E+01 1.91541E-01 3.05805E-04-6.82143E-01-3.29905E-14-1.33363E-13
 -1      2741 2.03445E+01 2.06617E-01-1.80350E-03-8.18055E-01-2.35305E-14 6.01351E-14
 -1      2742 2.03863E+01 1.97414E-01 1.84194E-03-6.22754E-01-4.04665E-14-1.14754E-13
 -1      2743 2.03251E+01 1.96884E-01-1.55861E-04-5.70650E-01 7.14781E-14-1.74713E-13
 -1      2744 2.02590E+01 2.38875E-01-1.18345E-03-6.96756E-01-3.40902E-14-5.50346E-14
 -1      2745 2.02998E+01 1.92824E-01 1.89279E-03-5.14050E-01 1.63405E-13-2.48941E-13
 -1      2746 2.02495E+01 1.84562E-01-3.81747E-04-4.64489E-01 2.14409E-13-1.95581E-13
 -1      2747 2.01975E+01 2.39125E-01-8.14870E-04-5.77053E-01 7.51511E-14-2.16651E-13
 -1      2748 2.02310E+01 1.75152E-01 1.80409E-03-4.13470E-01 2.60408E-13-1.46291E-13
 -1      2749 2.01901E+01 1.63144E-01-4.61999E-04-3.69003E-01 2.22615E-13-9.65022E-14
 -1      2750 2.01520E+01 2.20822E-01-5.99074E-04-4.66387E-01 3.02235E-13-3.12603E-13
 -1      2751 2.01763E+01 1.51450E-01 1.63379E-03-3.24832E-01 2.11210E-13 1.37662E-14
 -1      2752 2.01434E+01 1.38267E-01-4.59026E-04-2.86579E-01 1.57502E-13-7.50292E-15
 -1      2753 2.01173E+01 1.93334E-01-4.70182E-04-3.68620E-01 2.77813E-13-2.90850E-13
 -1      2754 2.01328E+01 1.26206E-01 1.42390E-03-2.49531E-01 4.32347E-14 5.31642E-14
 -1      2755 2.01068E+01 1.13393E-01-4.13324E-04-2.17688E-01-7.76923E-14 1.82005E-13
 -1      2756 2.00904E+01 1.62767E-01-3.87558E-04-2.85197E-01 1.04199E-14-8.86797E-14
 -1      2757 2.00985E+01 1.02069E-01 1.20320E-03-1.87432E-01-7.54808E-14 2.29428E-13
 -1      2758 2.00782E+01 9.04632E-02-3.49655E-04-1.61643E-01-4.71493E-14 2.74320E-13
 -1      2759 2.00692E+01 1.32822E-01-3.27880E-04-2.16009E-01-3.21860E-14 1.24074E-13
 -1      2760 2.00718E+01 8.04395E-02 9.90199E-04-1.37508E-01-1.50075E-13 3.05812E-13
 -1      2761 2.00562E+01 7.04185E-02-2.82610E-04-1.17123E-01-1.49400E-13 2.62476E-13
 -1      2762 2.00525E+01 1.05545E-01-2.79733E-04-1.60024E-01-7.26886E-14 2.90138E-13
 -1      2763 2.00512E+01 6.19083E-02 7.96001E-04-9.82831E-02-1.85584E-13 1.75863E-13
 -1      2764 2.00394E+01 5.35594E-02-2.20201E-04-8.25264E-02-1.21473E-13 5.05084E-14
 -1      2765 2.00393E+01 8.18828E-02-2.38155E-04-1.15721E-01-2.45273E-13 3.05009E-13
 -1      2766 2.00355E+01 4.65633E-02 6.26180E-04-6.81256E-02-1.93288E-14 2.84140E-14
 -1      2767 2.00268E+01 3.98051E-02-1.66126E-04-5.62101E-02 4.74944E-14-3.83800E-14
 -1      2768 2.00290E+01 6.20891E-02-2.00927E-04-8.13885E-02-1.31027E-13 2.12811E-13
 -1      2769 2.00238E+01 3.42058E-02 4.82381E-04-4.54329E-02 6.32135E-14-5.66228E-14
 -1      2770 2.00175E+01 2.88702E-02-1.21408E-04-3.66221E-02 1.22703E-14-9.19245E-15
 -1      2771 2.00209E+01 4.60076E-02-1.67229E-04-5.53277E-02-2.01061E-14 9.93869E-14
 -1      2772 2.00152E+01 2.44948E-02 3.63816E-04-2.87354E-02 1.21943E-13 8.01736E-14
 -1      2773 2.00108E+01 2.03784E-02-8.57080E-05-2.23755E-02 1.52105E-13 1.67837E-13
 -1      2774 2.00148E+01 3.32661E-02-1.37038E-04-3.59624E-02 5.71344E-14 2.48599E-14
 -1      2775 2.00091E+01 1.70360E-02 2.68337E-04-1.67449E-02 1.66214E-14 2.26523E-13
 -1      2776 2.00061E+01 1.39308E-02-5.80713E-05-1.22776E-02-9.37104E-14 2.29802E-13
 -1      2777 2.00102E+01 2.34011E-02-1.10502E-04-2.18974E-02 9.07085E-14 1.31806E-13
 -1      2778 2.00048E+01 1.14344E-02 1.93107E-04-8.37149E-03-1.72046E-13 2.93677E-13
 -1      2779 2.00028E+01 9.14536E-03-3.72998E-05-5.33419E-03-2.05409E-13 2.39753E-13
 -1      2780 2.00067E+01 1.59319E-02-8.76339E-05-1.19406E-02-1.54965E-13 2.74547E-13
 -1      2781 2.00019E+01 7.32406E-03 1.35061E-04-2.71862E-03-1.77130E-13 1.74396E-13
 -1      2782 2.00007E+01 5.67748E-03-2.21703E-05-7.38478E-04-1.22211E-13 3.23633E-13
 -1      2783 2.00042E+01 1.04034E-02-6.82941E-05-5.10254E-03-1.62825E-13 3.79157E-13
 -1      2784 2.00001E+01 4.38178E-03 9.12075E-05 9.32274E-04-2.29010E-13 4.17924E-13
 -1      2785 1.99994E+01 3.22857E-03-1.15616E-05 2.14871E-03-1.51031E-13 2.80618E-13
 -1      2786 2.00024E+01 6.40802E-03-5.22316E-05-5.82830E-04-1.75991E-13 4.56081E-13
 -1      2787 1.99990E+01 2.33166E-03 5.88184E-05 3.14360E-03-6.06117E-15 2.50566E-13
 -1      2788 1.99987E+01 1.54703E-03-4.51993E-06 3.82153E-03 1.02826E-13 3.31967E-13
 -1      2789 2.00012E+01 3.59393E-03-3.91264E-05 2.25091E-03-4.88931E-14 4.59620E-13
 -1      2790 1.99984E+01 9.43536E-04 3.55086E-05 4.34463E-03 4.53134E-14 2.93194E-13
 -1      2791 1.99984E+01 4.24693E-04-2.65187E-07 4.65201E-03-2.35270E-14 1.67889E-13
 -1      2792 2.00004E+01 1.66557E-03-2.86427E-05 3.88646E-03 5.60177E-14 3.28651E-13
 -1      2793 1.99982E+01 2.79496E-05 1.93002E-05 4.85378E-03-7.00403E-15 2.55261E-13
 -1      2794 1.99983E+01-3.09373E-04 1.82933E-06 4.91140E-03 2.06648E-13 1.92305E-13
 -1      2795 1.99998E+01 3.78741E-04-2.04312E-05 4.69043E-03-1.38713E-14 2.72162E-13
 -1      2796 1.99982E+01-5.70502E-04 8.70406E-06 4.89787E-03 2.80043E-13 9.36547E-14
 -1      2797 1.99984E+01-7.94696E-04 2.53513E-06 4.78800E-03 2.97630E-13 1.78011E-13
 -1      2798 1.99995E+01-4.67425E-04-1.41396E-05 4.92902E-03 1.56682E-13 2.91715E-13
 -1      2799 1.99984E+01-9.78246E-04 2.31327E-06 4.63090E-03 1.92449E-13 5.32472E-14
 -1      2800 1.99986E+01-1.14537E-03 1.99106E-06 4.40538E-03 9.46606E-14-1.79830E-13
 -1      2801 1.99994E+01-1.03449E-03-9.13993E-06 4.78695E-03 6.78939E-14 2.30527E-14
 -1      2802 1.99986E+01-1.30543E-03-1.58322E-06 4.14887E-03 4.84380E-14-3.09878E-13
 -1      2803 1.99989E+01-1.45541E-03 1.04142E-06 3.83232E-03-5.31158E-14-4.31519E-13
 -1      2804 1.99993E+01-1.45388E-03-4.31186E-06 4.39453E-03-1.20212E-13-4.19433E-13
 -1      2805 2.37606E+01-1.75427E+00-1.95402E-02-8.15367E-01-4.44332E-14 3.50595E-14
 -1      2806 2.33939E+01-1.33521E+00 3.26179E-02-1.17229E+00-5.95659E-14 2.07380E-14
 -1      2807 1.83570E+01-5.01803E+00 9.31656E-02-6.23673E+00 4.12337E-13 6.09998E-14
 -1      2808 2.15481E+01-5.33800E+00-3.27199E-02-5.45277E+00 3.14859E-13-1.03457E-13
 -1      2809 2.28334E+01-9.40098E-01-1.02048E-02-1.35000E+00-2.03882E-14-1.66382E-14
 -1      2810 2.25385E+01-5.44260E-01 2.38747E-02-1.48912E+00 5.09258E-14-3.59088E-15
 -1      2811 2.25694E+01-1.38391E+00-3.18862E-02-1.65769E+00-3.38833E-14-3.02020E-14
 -1      2812 2.59833E+01-1.78672E+00-3.44728E-02 1.59646E+00 3.00454E-14 2.93654E-13
 -1      2813 2.57646E+01-2.19549E+00 1.59608E-03 1.00302E+00-5.68465E-14 2.19623E-13
 -1      2814 2.72114E+01 3.34422E+00-1.18803E-01 1.90660E+00 5.83006E-13 2.33671E-13
 -1      2815 2.74720E+01 1.80922E+00-1.43955E-01 2.55686E+00 4.40759E-13 2.85251E-13
 -1      2816 2.69322E+01 4.38273E+00-1.39101E-01-1.26779E+00 7.57117E-13-1.55646E-13
 -1      2817 2.68651E+01 4.70996E+00-1.40333E-01 3.96013E-02 7.43516E-13 2.08236E-14
 -1      2818 2.71483E+01 3.40250E+00-1.30012E-01-2.18144E+00 7.05047E-13-3.41858E-13
 -1      2819 2.65139E+01-9.98036E-02-1.19486E-01-2.71276E+00 2.76307E-13-5.73067E-13
 -1      2820 2.63735E+01 1.18890E+00-6.39745E-02-2.85980E+00 4.81691E-13-5.01519E-13
 -1      2821 2.59938E+01-2.16281E+00 2.86255E-03-1.37271E+00-4.47817E-14-5.62723E-13
 -1      2822 2.62370E+01-1.58607E+00 2.83690E-03-2.00130E+00 3.89029E-14-5.85371E-13
 -1      2823 2.47723E+01-2.20316E+00 2.91565E-02 4.17724E-02 3.81856E-16-4.46884E-13
 -1      2824 2.51310E+01-2.32882E+00-2.38439E-02-5.67692E-01-2.90011E-14-5.15881E-13
 -1      2825 2.56578E+01-2.85393E+00-4.63143E-02-4.75221E-01-7.18496E-14-5.65946E-13
 -1      2826 2.35523E+01-1.55407E+00 2.95758E-02 1.02451E+00-1.11542E-13-2.06201E-13
 -1      2827 2.39403E+01-1.93498E+00-2.13898E-02 5.98778E-01-4.11234E-14-2.97520E-13
 -1      2828 2.40219E+01-2.56690E+00-3.14159E-02 8.57867E-01-1.19750E-13-3.11056E-13
 -1      2829 2.25891E+01-8.21999E-01 1.99912E-02 1.51908E+00-1.25634E-13-1.99562E-13
 -1      2830 2.29361E+01-1.18822E+00-1.16528E-02 1.29349E+00-7.99109E-14-1.43709E-13
 -1      2831 2.26631E+01-1.67840E+00-2.87946E-02 1.58764E+00-1.28310E-13-1.61522E-13
 -1      2832 2.19145E+01-2.65176E-01 1.08837E-02 1.66856E+00-1.71449E-13-1.77375E-13
 -1      2833 2.21969E+01-5.24870E-01-4.44401E-03 1.59360E+00-1.15075E-13-1.80588E-13
 -1      2834 2.17478E+01-8.14742E-01-2.06407E-02 1.86008E+00-1.02917E-13-2.02125E-13
 -1      2835 2.14575E+01 7.94023E-02 4.70982E-03 1.61456E+00-9.62568E-14-1.83253E-13
 -1      2836 2.16834E+01-7.26070E-02-5.21040E-06 1.63465E+00-1.78871E-13-2.06779E-13
 -1      2837 2.11920E+01-1.96772E-01-1.22181E-02 1.85813E+00-1.25376E-13-1.93341E-13
 -1      2838 2.11401E+01 2.56591E-01 1.30962E-03 1.45613E+00 1.28105E-14-6.61575E-14
 -1      2839 2.13238E+01 1.83792E-01 2.54108E-03 1.52765E+00-3.11556E-14-8.87937E-14
 -1      2840 2.08650E+01 1.70257E-01-6.17684E-03 1.71442E+00-1.30237E-13-1.57802E-13
 -1      2841 2.09068E+01 3.24093E-01-3.54205E-04 1.25490E+00 2.83367E-14 6.76944E-14
 -1      2842 2.10594E+01 3.01045E-01 3.86236E-03 1.34839E+00 5.94217E-14-1.70477E-14
 -1      2843 2.06668E+01 3.50157E-01-2.71602E-03 1.50754E+00-2.56480E-14 9.82512E-14
 -1      2844 2.07252E+01 3.28351E-01-1.03060E-03 1.04691E+00-8.09455E-14 3.03840E-13
 -1      2845 2.08532E+01 3.32939E-01 4.36465E-03 1.14436E+00-1.28904E-14 1.89108E-13
 -1      2846 2.05356E+01 4.11157E-01-1.08737E-03 1.28181E+00-9.08819E-14 1.49714E-13
 -1      2847 2.05778E+01 3.00603E-01-1.18589E-03 8.51734E-01 8.81511E-15 9.25912E-14
 -1      2848 2.06852E+01 3.18497E-01 4.35538E-03 9.43243E-01-6.07728E-15 2.87246E-13
 -1      2849 2.04385E+01 4.05056E-01-4.74473E-04 1.06204E+00-4.76326E-14 1.15637E-13
 -1      2850 2.04560E+01 2.59723E-01-1.09829E-03 6.78710E-01-1.02617E-13 8.79961E-14
 -1      2851 2.05453E+01 2.82493E-01 4.04913E-03 7.59580E-01-1.30950E-14 1.34003E-13
 -1      2852 2.03597E+01 3.65837E-01-3.33567E-04 8.61337E-01 1.38478E-14 7.79079E-14
 -1      2853 2.03550E+01 2.16153E-01-9.20649E-04 5.31043E-01 2.25426E-14 4.45593E-15
 -1      2854 2.04283E+01 2.39251E-01 3.59167E-03 5.99716E-01-5.96939E-14 4.83198E-14
 -1      2855 2.02925E+01 3.13781E-01-3.66149E-04 6.85608E-01-7.42806E-14 1.21158E-13
 -1      2856 2.02721E+01 1.75153E-01-7.28586E-04 4.08484E-01 3.29988E-14-1.33530E-13
 -1      2857 2.03312E+01 1.96367E-01 3.07848E-03 4.65146E-01 6.93927E-14-1.38881E-13
 -1      2858 2.02346E+01 2.60027E-01-4.30815E-04 5.36426E-01 8.89479E-14 7.00390E-14
 -1      2859 2.02049E+01 1.39013E-01-5.55160E-04 3.08982E-01-5.69756E-15-1.16279E-13
 -1      2860 2.02518E+01 1.57448E-01 2.56898E-03 3.54699E-01-5.87794E-14-2.04237E-13
 -1      2861 2.01850E+01 2.10130E-01-4.73476E-04 4.12823E-01 1.31970E-14-9.94601E-14
 -1      2862 2.01513E+01 1.08405E-01-4.11602E-04 2.29689E-01-6.50745E-14 1.82250E-14
 -1      2863 2.01879E+01 1.23871E-01 2.09738E-03 2.65892E-01 3.43756E-14-6.09104E-14
 -1      2864 2.01431E+01 1.66446E-01-4.82029E-04 3.12471E-01-3.96064E-14-1.33879E-13
 -1      2865 2.01092E+01 8.31815E-02-2.98526E-04 1.67552E-01-1.46454E-13 4.96897E-14
 -1      2866 2.01373E+01 9.58388E-02 1.68056E-03 1.95742E-01-1.08763E-13 1.69019E-14
 -1      2867 2.01086E+01 1.29586E-01-4.60959E-04 2.32434E-01-2.63462E-14 1.09903E-13
 -1      2868 2.00768E+01 6.28196E-02-2.12070E-04 1.19631E-01-8.37319E-14-6.15433E-14
 -1      2869 2.00980E+01 7.29791E-02 1.32392E-03 1.41231E-01-1.04981E-13-9.33386E-15
 -1      2870 2.00807E+01 9.92799E-02-4.19305E-04 1.69646E-01-6.31244E-14-2.15610E-13
 -1      2871 2.00524E+01 4.66655E-02-1.47357E-04 8.32597E-02 7.73139E-14 2.21230E-14
 -1      2872 2.00681E+01 5.46847E-02 1.02614E-03 9.95458E-02-6.30397E-14-3.41950E-14
 -1      2873 2.00586E+01 7.48565E-02-3.66662E-04 1.21170E-01-7.83670E-14-2.65370E-13
 -1      2874 2.00343E+01 3.40493E-02-9.98424E-05 5.61092E-02 1.57201E-14 3.67735E-13
 -1      2875 2.00456E+01 4.02821E-02 7.82572E-04 6.81820E-02 1.51772E-13 1.82522E-13
 -1      2876 2.00415E+01 5.55078E-02-3.10842E-04 8.43433E-02-2.67900E-15-2.40652E-14
 -1      2877 2.00211E+01 2.43434E-02-6.54987E-05 3.62026E-02 1.82004E-14 2.58012E-13
 -1      2878 2.00292E+01 2.91154E-02 5.86948E-04 4.49872E-02 1.04596E-14 3.17920E-13
 -1      2879 2.00284E+01 4.04174E-02-2.56728E-04 5.68300E-02 8.32367E-15 2.21690E-13
 -1      2880 2.00119E+01 1.69899E-02-4.10277E-05 2.18995E-02-1.30948E-13 2.43340E-13
 -1      2881 2.00174E+01 2.05870E-02 4.32379E-04 2.81572E-02-1.03760E-14 2.68551E-13
 -1      2882 2.00187E+01 2.88249E-02-2.07184E-04 3.66446E-02-5.67812E-14 1.77257E-13
 -1      2883 2.00056E+01 1.15090E-02-2.38632E-05 1.18631E-02-1.16692E-13 1.97239E-13
 -1      2884 2.00092E+01 1.41753E-02 3.12124E-04 1.62096E-02-1.00872E-13 3.08731E-13
 -1      2885 2.00117E+01 2.00562E-02-1.63739E-04 2.21348E-02-1.25290E-13 4.88057E-14
 -1      2886 2.00014E+01 7.49736E-03-1.20698E-05 5.02166E-03-2.34461E-13 6.51775E-14
 -1      2887 2.00037E+01 9.43672E-03 2.20021E-04 7.94704E-03-7.42883E-14 7.71812E-14
 -1      2888 2.00067E+01 1.35328E-02-1.26881E-04 1.19506E-02-9.21436E-14-2.68462E-15
 -1      2889 1.99989E+01 4.62078E-03-4.21224E-06 5.29497E-04-2.80168E-13 1.57374E-13
 -1      2890 2.00002E+01 6.00135E-03 1.50632E-04 2.41780E-03-4.03271E-13 1.72181E-13
 -1      2891 2.00032E+01 8.76822E-03-9.64183E-05 5.00750E-03-3.09261E-13-3.47571E-14
 -1      2892 1.99974E+01 2.60634E-03 7.57523E-07-2.26942E-03-7.11049E-14-3.45517E-14
 -1      2893 1.99981E+01 3.56491E-03 9.92808E-05-1.12239E-03-1.11273E-13 1.60851E-13
 -1      2894 2.00010E+01 5.35997E-03-7.17834E-05 4.49106E-04-2.51439E-13-1.38865E-13
 -1      2895 1.99968E+01 1.23327E-03 3.58429E-06-3.87479E-03-6.99473E-14 1.62343E-13
 -1      2896 1.99970E+01 1.88013E-03 6.20468E-05-3.24550E-03-9.64993E-14 6.93500E-14
 -1      2897 1.99996E+01 2.97931E-03-5.22349E-05-2.38955E-03-1.11330E-13-1.45675E-14
 -1      2898 1.99967E+01 3.24061E-04 4.78019E-06-4.65878E-03 8.30848E-14 7.70572E-14
 -1      2899 1.99966E+01 7.47671E-04 3.57113E-05-4.38237E-03 8.66677E-14 7.21965E-14
 -1      2900 1.99988E+01 1.36031E-03-3.69955E-05-4.01482E-03 9.51728E-14-5.12208E-14
 -1      2901 1.99969E+01-2.63919E-04 4.70522E-06-4.89041E-03 3.62214E-13 1.16486E-13
 -1      2902 1.99966E+01 7.44866E-06 1.76923E-05-4.84937E-03 2.03345E-13 7.75159E-14
 -1      2903 1.99984E+01 2.88993E-04-2.53186E-05-4.80352E-03 1.97696E-13-8.31987E-14
 -1      2904 1.99972E+01-6.46326E-04 3.20337E-06-4.75576E-03 2.03497E-13 2.79956E-13
 -1      2905 1.99969E+01-4.70023E-04 5.81591E-06-4.87058E-03 2.86571E-13 2.39713E-13
 -1      2906 1.99983E+01-4.06507E-04-1.64144E-05-5.02787E-03 1.70127E-13 9.53364E-14
 -1      2907 1.99977E+01-9.14386E-04-7.09993E-07-4.37097E-03 6.23842E-14 5.18115E-13
 -1      2908 1.99973E+01-7.92985E-04-3.17472E-06-4.59335E-03 1.19774E-13 3.33213E-13
 -1      2909 1.99984E+01-8.61677E-04-6.57246E-06-4.87770E-03 3.12964E-14 4.73477E-13
 -1      2910 1.99983E+01-1.18082E-03-5.96792E-06-3.92065E-03-4.05414E-14 5.57712E-13
 -1      2911 1.99980E+01-1.07377E-03-1.27089E-05-4.22312E-03 6.04974E-14 6.10025E-13
 -1      2912 1.99988E+01-1.21169E-03 9.59385E-06-4.55143E-03-4.84333E-14 6.09380E-13
 -1      2913 1.99992E+01-1.57078E-03 2.21452E-05-4.16012E-03-6.51474E-14 4.57439E-13
 -1      2914 2.00019E+01-4.02966E-03 8.34792E-06-2.75065E-04 1.88447E-13-2.01114E-13
 -1      2915 2.00018E+01-3.98267E-03 5.48681E-06-8.00220E-04 3.01839E-13-2.69284E-13
 -1      2916 1.99989E+01-1.55619E-03-5.34207E-06 3.60696E-03-1.16499E-13-5.53639E-13
 -1      2917 1.99990E+01-1.65441E-03-2.75599E-06 3.35120E-03-1.20759E-13-4.78589E-13
 -1      2918 1.99994E+01-1.77862E-03-6.45205E-06 3.92021E-03-1.70162E-13-6.09124E-13
 -1      2919 2.00014E+01-3.59584E-03 1.33554E-05-2.32159E-03 2.61959E-13-1.49259E-14
 -1      2920 2.00011E+01-3.36819E-03-3.12098E-06-2.69820E-03 2.44001E-13-1.38380E-13
 -1      2921 2.00018E+01-3.97490E-03 5.35061E-06 8.34473E-04-3.24151E-14 3.41349E-13
 -1      2922 2.00019E+01-4.02662E-03 8.46183E-06 3.10541E-04 3.11659E-14 9.82318E-14
 -1      2923 2.00024E+01-3.60657E-03-6.67169E-06 2.01654E-05 1.29796E-13-1.83678E-13
 -1      2924 2.00017E+01-3.90243E-03 1.09519E-05-1.36147E-03 2.63712E-13-2.25127E-13
 -1      2925 2.00016E+01-3.75967E-03 1.79021E-06-1.83729E-03 3.01362E-13-1.23885E-13
 -1      2926 2.00019E+01-3.31641E-03-6.62730E-06-2.23458E-03 2.07746E-13-7.44286E-14
 -1      2927 2.00022E+01-3.53694E-03-6.64616E-06-1.15848E-03 2.59283E-13-2.45498E-13
 -1      2928 2.80703E+01-3.70200E+00-1.25409E-01 4.85620E-01 7.44751E-14-3.98404E-13
 -1      2929 2.67110E+01-4.72827E+00 5.75223E-02 1.93269E+00-1.10335E-13-2.34077E-13
 -1      2930 2.79666E+01-3.22527E+00 1.70358E-02-4.24156E-01 4.13402E-14-6.27581E-13
 -1      2931 2.00016E+01-3.74759E-03 1.48766E-06 1.84831E-03-2.71724E-14 1.53750E-13
 -1      2932 2.00017E+01-3.89082E-03 1.08270E-05 1.38368E-03-4.33044E-14 3.22155E-13
 -1      2933 2.00022E+01-3.52673E-03-6.72108E-06 1.18627E-03-5.37356E-14 2.30106E-13
 -1      2934 2.00011E+01-3.35268E-03-3.45109E-06 2.70212E-03 4.01219E-14-8.58480E-14
 -1      2935 2.00014E+01-3.58076E-03 1.32716E-05 2.32859E-03 1.04311E-13 8.07635E-15
 -1      2936 2.00019E+01-3.29961E-03-6.23708E-06 2.24628E-03-6.68942E-14 7.80405E-14
 -1      2937 2.00004E+01-2.81518E-03-1.40498E-05 3.29536E-03-2.62281E-13-8.32157E-14
 -1      2938 2.00008E+01-3.10701E-03 1.90187E-05 3.05092E-03-6.84026E-14-2.75178E-14
 -1      2939 2.00012E+01-2.92328E-03-3.82456E-06 3.10142E-03-1.10357E-13-1.45784E-13
 -1      2940 9.87079E+00-1.90292E+00 4.66716E-02 4.63669E+00-3.48083E-13 6.76709E-13
 -1      2941 7.65558E+00-1.01440E+00 1.82332E-01 2.65476E+00-2.20490E-13 6.67383E-13
 -1      2942 1.69356E+01-4.16252E+00 3.37337E-02 5.77643E+00-4.07702E-13 2.33313E-13
 -1      2943 1.32616E+01-3.05685E+00 1.68298E-01 5.64151E+00-4.36540E-13 5.01335E-13
 -1      2944 2.12436E+01 1.59822E+00-6.56977E-03-4.46918E-01-3.30916E-13-2.13345E-13
 -1      2945 2.13437E+01 1.16673E+00-8.36844E-03-1.70898E-01-3.00854E-13-1.82550E-13
 -1      2946 2.13910E+01 1.69783E+00-1.50227E-03 7.80436E-06 3.60133E-13-1.02209E-13
 -1      2947 2.81011E+01 5.03793E+00-9.70250E-02 1.78030E+00-6.11483E-13-4.54886E-13
 -1      2948 2.73935E+01 5.91998E+00-1.78060E-01 9.65119E-01-6.94861E-13-3.01720E-13
 -1      2949 2.79384E+01-2.79531E+00 3.42907E-02-4.62105E-01-1.20449E-13-5.71224E-13
 -1      2950 2.84628E+01-1.19133E+00-1.90733E-01 7.33629E-01-3.28258E-13-6.99663E-13
 -1      2951 7.65751E+00-1.14687E+00 1.87164E-01-3.29886E+00 1.21333E-13 7.19147E-13
 -1      2952 9.83745E+00-1.91001E+00 1.04390E-01-4.97497E+00 2.87687E-13 5.96828E-13
 -1      2953 2.18478E+01 3.69387E-01-6.68685E-04-1.24332E+00 1.89721E-13-8.11437E-14
 -1      2954 2.17463E+01 6.26044E-01 1.52449E-02-1.05814E+00 2.29919E-13-6.87844E-14
 -1      2955 2.11893E+01 9.68793E-01-6.00673E-03-9.68417E-01 2.64534E-13-1.51997E-13
 -1      2956 1.41093E+01-3.47652E+00 5.24246E-02 6.46216E+00 3.90438E-13-5.05290E-13
 -1      2957 1.07394E+01-2.28728E+00 1.79878E-01 5.62644E+00 3.83429E-13-7.55063E-13
 -1      2958 2.22096E+01-2.09603E-01-4.20600E-03-1.45832E+00 9.94426E-14-4.65948E-14
 -1      2959 2.20111E+01 1.05077E-01 1.76281E-02-1.41874E+00 1.40996E-13-5.48097E-14
 -1      2960 2.13652E+01 3.38342E-01-1.25083E-02-1.46135E+00 1.53367E-13-1.21722E-13
 -1      2961 2.17811E+01-4.30501E-01-2.23008E-02-1.72393E+00 5.80635E-14-6.71052E-14
 -1      2962 6.05562E+00-8.94513E-01 1.19184E-01 8.22665E-01-8.66043E-14 8.17846E-13
 -1      2963 6.18625E+00-8.94291E-01 1.20926E-01-1.51638E+00-9.70057E-15 8.83682E-13
 -1      2964 2.49131E+01-2.27434E+00-2.75700E-02 2.29841E-01-6.82145E-14 1.42262E-13
 -1      2965 2.45570E+01-2.07787E+00 3.11851E-02-3.34336E-01-5.41745E-14 9.39444E-14
 -1      2966 2.38343E+01-2.36311E+00-3.08151E-02-1.10590E+00-8.58341E-14 5.04536E-14
 -1      2967 2.54704E+01-2.81329E+00-2.68428E-02 9.22905E-02-9.92453E-14 1.82154E-13
 -1      2968 2.14898E+01 8.21386E-01 1.07648E-02 2.51064E-02-2.52311E-13-1.48982E-13
 -1      2969 2.15094E+01 4.92519E-01-7.53104E-03 2.28940E-01-2.14035E-13-1.51674E-13
 -1      2970 2.13329E+01 4.53803E-01-7.81697E-03 3.83540E-01-2.01906E-13-1.87520E-13
 -1      2971 2.10989E+01 1.15900E+00-3.67135E-03 4.26230E-02-2.57803E-13-2.15075E-13
 -1      2972 2.40001E+01-5.37248E+00-4.71949E-02 3.79803E+00-1.98813E-13-9.94586E-14
 -1      2973 2.07252E+01-5.01874E+00 9.95855E-02 5.00126E+00-3.34927E-13 4.71151E-15
 -1      2974 2.50002E+01-4.88650E+00 2.38106E-02 2.54604E+00-2.04781E-13-2.05412E-13
 -1      2975 2.73174E+01-4.26306E+00 3.17229E-02-1.43885E+00-5.20903E-14 1.15311E-13
 -1      2976 2.85830E+01-2.83170E+00-1.39411E-01 3.58634E-01 9.83068E-14 1.94900E-13
 -1      2977 5.92704E+00-5.95953E-01 1.58984E-01 1.23882E-01 3.58845E-14-1.01849E-12
 -1      2978 6.70029E+00-7.47247E-01 1.44332E-01-2.02281E+00-4.23689E-14-9.47464E-13
 -1      2979 1.81089E+01 3.44620E+00-4.96516E-04-1.14884E-01 2.39982E-13-4.66407E-13
 -1      2980 1.77133E+01 3.59379E+00-1.13325E-02-7.76522E-02 1.93750E-13-5.15334E-13
 -1      2981 1.75257E+01 3.42070E+00 1.02420E-02-1.26811E-01 1.62223E-13-4.96879E-13
 -1      2982 1.83355E+01 3.02649E+00 5.82920E-03-3.52448E-01 2.23218E-13-4.21714E-13
 -1      2983 1.28950E+01-3.15923E+00 1.32252E-01-6.14089E+00 4.04538E-13 3.85705E-13
 -1      2984 1.55953E+01-4.32819E+00 7.56161E-02-6.65305E+00 3.92630E-13 2.13177E-13
 -1      2985 1.80895E+01-4.29990E+00 9.95653E-02-5.84654E+00 4.82364E-13 3.94268E-14
 -1      2986 2.32857E+01-5.20922E+00 1.18704E-01-4.36275E+00-2.77320E-13-1.84533E-13
 -1      2987 2.52758E+01-5.18280E+00-9.21394E-02-3.26289E+00-1.60177E-13-5.30131E-15
 -1      2988 2.05744E+01 2.46951E+00-4.82067E-03-5.33215E-01-3.08181E-13-3.34999E-13
 -1      2989 1.85801E+01 3.00937E+00-1.02881E-02 4.26048E-01-5.99145E-14-4.99959E-13
 -1      2990 1.90143E+01 2.82744E+00 2.04263E-03 3.14466E-01-1.12817E-13-4.85805E-13
 -1      2991 2.88970E+01 1.17435E+00-4.96146E-02 1.79742E+00-4.56385E-13-6.64802E-13
 -1      2992 2.85235E+01 3.14622E+00-1.98784E-01 2.02409E+00-5.30020E-13-5.08760E-13
 -1      2993 2.87364E+01 3.32307E+00-1.83947E-01-1.88329E+00-5.88307E-13 1.20737E-13
 -1      2994 2.93871E+01 1.64236E+00-8.91664E-02-1.63284E+00-4.53262E-13 1.22513E-13
 -1      2995 7.95691E+00-1.31699E+00 7.52745E-02 4.19818E+00 2.73642E-13-9.12659E-13
 -1      2996 6.36995E+00-7.80797E-01 1.55059E-01 2.05809E+00 1.89734E-13-1.00669E-12
 -1      2997 8.00238E+00 9.83905E-03 1.90364E-01 1.11289E+00 1.42180E-13-9.17183E-13
 -1      2998 2.11885E+01-4.96824E+00 1.79219E-02 5.52991E+00 2.56115E-13-7.91381E-15
 -1      2999 1.80161E+01-4.43649E+00 9.92286E-02 6.21703E+00 3.22298E-13-2.11803E-13
 -1      3000 2.42186E+01-5.06961E+00 7.65131E-02-4.06724E+00 1.99660E-13-2.60278E-13
 -1      3001 2.61399E+01-4.47350E+00-1.35713E-01-2.54968E+00 9.60135E-14-3.55493E-13
 -1      3002 2.29468E+01-5.03630E+00 6.32997E-02-4.36885E+00 3.63432E-13-2.52649E-13
 -1      3003 1.99994E+01-2.01617E-03-1.06258E-05 3.43549E-03-1.09562E-13-8.32011E-13
 -1      3004 2.86621E+01 7.18807E-01-1.11457E-01 2.40148E+00 3.73479E-13 2.37102E-13
 -1      3005 2.64270E+01-7.61779E-02-4.01538E-02 2.40018E+00 2.55178E-13 3.74635E-13
 -1      3006 2.65036E+01-1.14267E+00-5.65645E-02 2.23815E+00 1.12660E-13 3.43808E-13
 -1      3007 2.87559E+01-1.45025E+00-6.72677E-02 1.72828E+00 1.92416E-13 2.38365E-13
 -1      3008 1.72033E+01 3.49441E+00 8.57911E-03 4.81146E-01 8.38642E-14-5.24973E-13
 -1      3009 1.73007E+01 3.69359E+00-1.09582E-02 4.63635E-01 6.25229E-14-5.43504E-13
 -1      3010 1.75257E+01 3.60226E+00 2.97532E-03 4.86677E-01 2.82805E-14-5.47748E-13
 -1      3011 2.76083E+01-2.47980E+00-3.56945E-02 1.01860E+00 3.57804E-14 2.46591E-13
 -1      3012 1.99998E+01-2.31368E-03 1.30733E-05-3.52043E-03 1.01772E-13 1.23063E-13
 -1      3013 1.07637E+01-1.23761E+00 1.82333E-01 4.59501E+00 3.64403E-13-7.58602E-13
 -1      3014 1.94548E+01 2.57481E+00-7.77079E-03 1.90120E-01-1.48165E-13-4.43359E-13
 -1      3015 1.99032E+01 2.36455E+00-3.54674E-03 4.03587E-02-2.05193E-13-4.02012E-13
 -1      3016 1.93493E+01 2.30166E+00-1.41946E-04 4.53666E-01-1.10045E-13-4.16025E-13
 -1      3017 2.00012E+01-2.94894E-03-6.40406E-06-3.09503E-03 2.36254E-13-1.27737E-15
 -1      3018 2.00008E+01-3.12658E-03 1.89438E-05-3.04836E-03 1.25709E-13-3.37636E-13
 -1      3019 2.00005E+01-2.83489E-03-1.40847E-05-3.29013E-03 1.40278E-13-1.66924E-13
 -1      3020 1.99998E+01-2.37216E-03 1.31798E-05 3.40220E-03-1.60918E-13-3.63018E-13
 -1      3021 8.56240E+00-4.33565E-01 1.72841E-01-2.19885E+00 2.08167E-15 7.18259E-13
 -1      3022 2.68911E+01-2.00812E+00-4.46338E-02 1.54428E+00 4.03635E-14 2.76584E-13
 -1      3023 2.66699E+01 4.13710E+00-3.21727E-01 1.17149E+00 6.79248E-13 1.86573E-13
 -1      3024 2.69412E+01-1.28355E+00-3.26486E-02-2.29280E+00 1.36405E-13-6.26919E-13
 -1      3025 2.72611E+01-2.43664E+00-1.13560E-01-1.46496E+00 6.87644E-14-6.84175E-13
 -1      3026 1.21959E+01-2.18118E+00 1.50972E-01-5.37950E+00 3.76213E-13 4.34139E-13
 -1      3027 1.44903E+01-2.45174E+00 6.30593E-02-5.35262E+00 4.16320E-13 1.74291E-13
 -1      3028 1.17810E+01-1.14990E+00 9.31850E-02-4.41687E+00 2.44832E-13 3.82888E-13
 -1      3029 1.91821E+01-4.36972E+00 6.73925E-02 5.23066E+00-3.42143E-13 1.51511E-13
 -1      3030 1.76141E+01-3.24629E+00 7.10679E-02 5.01886E+00-3.45453E-13 2.18658E-13
 -1      3031 2.09653E+01-4.20024E+00 4.37726E-02 4.19878E+00-3.21281E-13-1.04911E-13
 -1      3032 1.39799E+01-3.48178E+00 1.61795E-01-6.14457E+00-2.71977E-13-6.96609E-13
 -1      3033 1.65650E+01-3.81325E+00-8.85786E-03-5.78405E+00-3.40186E-13-5.61287E-13
 -1      3034 1.28048E+01-2.35662E+00 1.32023E-01-5.47755E+00-2.32439E-13-6.88866E-13
 -1      3035 2.77782E+01 4.03507E+00-1.31259E-01-1.83657E+00-6.22002E-13 6.41154E-14
 -1      3036 2.68722E+01 2.70606E+00-6.40063E-02-2.03083E+00-4.37816E-13 1.09406E-13
 -1      3037 2.61945E+01 4.48401E+00-1.48252E-01-1.49277E+00-6.18727E-13-2.82378E-14
 -1      3038 8.79612E+00-2.90487E-01 1.92077E-01 1.65315E+00-8.73433E-14 6.31384E-13
 -1      3039 2.00002E+01-2.31292E-03 3.26621E-07 3.62697E-03-1.89961E-13-2.14866E-13
 -1      3040 1.29367E+01-1.80207E+00 1.71113E-01 4.58073E+00-3.63133E-13 5.41719E-13
 -1      3041 2.66029E+01-3.66998E+00-3.27523E-03-1.21198E+00 6.52187E-14-5.29438E-13
 -1      3042 2.08759E+01 1.85402E+00-6.68789E-03-2.16095E-01 3.45254E-13-1.83594E-13
 -1      3043 2.71390E+01 3.29578E+00-1.18962E-01 1.97416E+00-4.66016E-13-4.94230E-13
 -1      3044 2.77607E+01-3.55235E-01-5.48493E-02 1.59333E+00-2.85327E-13-6.82704E-13
 -1      3045 2.68111E+01 5.63994E+00-1.77822E-01 3.71844E-01-6.59667E-13-2.54729E-13
 -1      3046 2.59276E+01 5.31536E+00-1.21350E-01-3.47861E-01-6.51368E-13-1.71585E-13
 -1      3047 2.58424E+01 5.06587E+00-4.86744E-02 1.02183E+00-5.64243E-13-2.99082E-13
 -1      3048 2.77406E+01-3.31494E+00-2.35338E-02 1.43722E+00-1.82319E-13 2.21115E-13
 -1      3049 2.65021E+01-3.97583E+00 2.21858E-02 1.97704E+00-2.42445E-14 2.56344E-13
 -1      3050 2.76906E+01-2.69336E+00-1.36360E-01 1.57602E-01-9.53248E-14 2.54408E-13
 -1      3051 1.67326E+01-3.66223E+00 1.14366E-01 6.15182E+00 3.80071E-13-3.35364E-13
 -1      3052 1.54784E+01-2.60928E+00 9.17521E-02 5.71562E+00 4.13163E-13-4.09159E-13
 -1      3053 1.88189E+01-3.73268E+00 3.97623E-02 5.40343E+00 3.99805E-13-1.03154E-13
 -1      3054 8.13144E+00-8.23776E-01 2.00604E-01-3.07615E+00-1.06457E-13-8.88178E-13
 -1      3055 9.86543E+00-1.11626E+00 1.00907E-01-4.00922E+00-1.67685E-13-8.10130E-13
 -1      3056 8.72034E+00 7.64243E-03 1.40716E-01-1.97222E+00-2.84286E-14-8.57370E-13
 -1      3057 1.78194E+01 3.40005E+00-1.17231E-02 5.24666E-01 5.94563E-15-5.21753E-13
 -1      3058 1.81826E+01 3.25548E+00 4.27923E-03 4.79773E-01-3.16617E-14-5.04796E-13
 -1      3059 1.84501E+01 2.77408E+00 7.63948E-04 6.36070E-01-3.04771E-14-4.62692E-13
 -1      3060 1.76852E+01 3.19783E+00 4.21234E-03 6.50240E-01 2.27633E-14-5.04714E-13
 -1      3061 2.61726E+01-4.47782E+00 9.44141E-03-1.76348E+00-1.60948E-13 6.67313E-14
 -1      3062 2.15368E+01-4.89791E+00 5.75526E-02-4.84587E+00-3.11098E-13-2.51129E-13
 -1      3063 2.05082E+01 2.11176E+00 1.06425E-03-2.28917E-01-2.57092E-13-3.27310E-13
 -1      3064 2.86254E+01 1.97386E-01-6.72823E-02-1.26872E+00-3.09586E-13 1.71405E-13
 -1      3065 2.44225E+01-4.73536E+00-5.34568E-02 3.36952E+00 1.68074E-13 1.76768E-13
 -1      3066 2.30424E+01-4.95712E+00 5.53537E-02 4.55152E+00 2.27790E-13 6.00076E-14
 -1      3067 2.18663E+01-4.59204E+00 3.80856E-02 4.68470E+00 3.00655E-13 3.89203E-14
 -1      3068 2.06084E+01 1.69725E+00 8.52268E-04-5.52993E-01 3.05769E-13-2.23224E-13
 -1      3069 1.76389E+01-3.51375E+00 6.67477E-02-5.40459E+00 4.86888E-13-1.13590E-14
 -1      3070 1.99852E+01-4.37313E+00 1.31661E-02-5.12410E+00 4.91510E-13-1.51077E-13
 -1      3071 1.97347E+01 1.98659E+00 3.19198E-03-7.27697E-01 2.36050E-13-2.80524E-13
 -1      3072 1.90890E+01 2.29028E+00-9.02273E-03-7.16517E-01 2.09009E-13-3.32599E-13
 -1      3073 2.00027E+01-3.08024E-03-1.41094E-06 1.52365E-03-3.54961E-14 3.17599E-13
 -1      3074 2.00028E+01-3.14642E-03 5.56834E-06 9.60241E-04-1.18928E-14 1.28738E-13
 -1      3075 2.58223E+01-4.40042E+00-7.69837E-02 1.26818E+00-1.90174E-13-4.56447E-13
 -1      3076 2.38352E+01-4.48138E+00 4.65237E-02 2.77669E+00-2.45554E-13-2.48747E-13
 -1      3077 2.18501E+01-6.84668E-01 2.06911E-02 8.04705E-01-6.72318E-14-1.14360E-13
 -1      3078 2.20904E+01-1.05692E+00-1.01502E-02 7.22931E-01-3.41614E-14-1.07556E-13
 -1      3079 2.25673E+01-1.37558E+00 2.30552E-02 5.80843E-01-2.17027E-14-3.62392E-14
 -1      3080 2.28500E+01-1.66120E+00-1.59040E-02 3.48192E-01-4.25777E-14-3.98600E-14
 -1      3081 2.21311E+01-1.37976E+00-2.39995E-02 9.77115E-01 4.53609E-15-8.45601E-14
 -1      3082 2.34194E+01-1.81790E+00 2.00862E-02 8.84469E-04-5.05292E-14 3.93088E-15
 -1      3083 2.36888E+01-1.85209E+00-1.23956E-02-3.53298E-01-6.16052E-14-1.00440E-14
 -1      3084 2.31020E+01-2.05350E+00-3.60587E-02 5.29082E-01-1.22595E-14 2.59029E-14
 -1      3085 2.42262E+01-1.68284E+00 2.74334E-03-8.98632E-01-6.35264E-14 7.75300E-14
 -1      3086 2.43797E+01-1.24304E+00-2.64339E-03-1.27514E+00-8.17770E-14 9.46387E-14
 -1      3087 2.42572E+01-2.11905E+00-2.08499E-02-3.91911E-01-2.31794E-14 9.17634E-14
 -1      3088 2.45831E+01-5.77014E-01-5.32532E-02-1.78676E+00-1.28351E-13 1.26114E-13
 -1      3089 2.45457E+01 4.06615E-01 4.95265E-03-1.94139E+00-2.09652E-13 1.60164E-13
 -1      3090 2.51273E+01-1.22445E+00-1.84490E-03-1.41844E+00-6.79864E-14 1.61602E-13
 -1      3091 2.46499E+01 1.94607E+00-7.23393E-02-1.91115E+00-3.28028E-13 1.23589E-13
 -1      3092 2.44567E+01 3.00113E+00-4.52822E-02-1.57056E+00-3.84894E-13 8.23716E-14
 -1      3093 2.41222E+01 3.76936E+00-5.37519E-02-5.23657E-01-4.33618E-13-1.07471E-13
 -1      3094 2.41007E+01 3.91575E+00-3.53017E-02 3.47936E-01-4.50924E-13-1.98883E-13
 -1      3095 2.41775E+01 3.45194E+00-7.69261E-02 1.12986E+00-4.16160E-13-2.07816E-13
 -1      3096 2.42421E+01 2.02621E+00-8.43605E-03 2.04414E+00-2.93099E-13-2.47883E-13
 -1      3097 2.43838E+01 8.52086E-01-7.91378E-02 2.19182E+00-1.80365E-13-2.60042E-13
 -1      3098 2.44610E+01-1.08951E-01 5.48260E-03 1.99876E+00-1.52399E-13-2.37374E-13
 -1      3099 2.44389E+01-9.70958E-01-2.62097E-02 1.75682E+00-1.24612E-13-2.15442E-13
 -1      3100 2.51613E+01 2.71545E-01-1.17591E-02 2.13788E+00-1.81466E-13-3.75137E-13
 -1      3101 2.40887E+01-1.53707E+00-1.47773E-02 1.20897E+00-1.49447E-13-1.71742E-13
 -1      3102 2.39103E+01-1.85696E+00 7.37470E-03 8.00168E-01-8.65113E-14-1.75895E-13
 -1      3103 2.47322E+01-1.55969E+00-2.84282E-02 1.35052E+00-1.12537E-13-3.58484E-13
 -1      3104 2.33439E+01-1.97977E+00-2.00335E-02 2.68771E-01-6.49604E-14-1.46772E-13
 -1      3105 2.30542E+01-1.90525E+00 1.82665E-02-1.07350E-01-3.62592E-14-1.38447E-13
 -1      3106 2.37962E+01-2.29423E+00-2.51430E-02 2.21579E-01-8.21166E-14-2.02898E-13
 -1      3107 2.24937E+01-1.75123E+00-1.32378E-02-4.54721E-01-1.17317E-14-9.40795E-14
 -1      3108 2.21857E+01-1.50556E+00 1.90905E-02-7.16557E-01-2.85251E-14-2.31150E-14
 -1      3109 2.26984E+01-2.11485E+00-2.07902E-02-6.24948E-01 9.37141E-15-9.81355E-14
 -1      3110 2.17361E+01-1.25719E+00-6.95702E-03-8.94903E-01-1.04863E-13 4.39538E-14
 -1      3111 2.14682E+01-9.84271E-01 1.46171E-02-1.04093E+00-3.27475E-14 2.39553E-14
 -1      3112 2.17445E+01-1.56760E+00-1.98876E-02-1.10235E+00-2.76013E-14 3.75356E-14
 -1      3113 2.11551E+01-7.46079E-01-2.24399E-03-1.10058E+00 4.90439E-14 1.10310E-14
 -1      3114 2.09475E+01-5.16648E-01 9.77889E-03-1.15967E+00 9.09505E-14 1.23662E-14
 -1      3115 2.10395E+01-9.61127E-01-1.50828E-02-1.29091E+00-3.10510E-15 1.61899E-13
 -1      3116 2.07480E+01-3.29347E-01 1.58889E-04-1.14913E+00 7.01001E-14 4.84511E-15
 -1      3117 2.05971E+01-1.63005E-01 5.65517E-03-1.15026E+00 6.98486E-14-4.66083E-14
 -1      3118 2.05709E+01-4.55915E-01-1.04642E-02-1.30509E+00 1.11609E-13 8.70682E-14
 -1      3119 2.04801E+01-3.38715E-02 1.27655E-03-1.10170E+00 7.51764E-14-9.43069E-15
 -1      3120 2.03741E+01 7.30052E-02 2.81313E-03-1.06767E+00 5.86521E-14-6.27273E-14
 -1      3121 2.02833E+01-9.01889E-02-6.58962E-03-1.22333E+00 6.84282E-14 6.37837E-14
 -1      3122 2.03113E+01 1.51690E-01 1.71927E-03-1.00137E+00 4.72111E-14-5.51570E-14
 -1      3123 2.02373E+01 2.11503E-01 9.87835E-04-9.48353E-01 8.21881E-14-3.64999E-14
 -1      3124 2.01200E+01 1.44576E-01-3.81467E-03-1.09504E+00 6.10556E-14 4.03894E-14
 -1      3125 2.02077E+01 2.52065E-01 1.83714E-03-8.76247E-01 1.96637E-14-3.66348E-14
 -1      3126 2.01553E+01 2.78284E-01-1.02095E-04-8.15168E-01-7.45307E-14-1.00744E-13
 -1      3127 2.00353E+01 2.76188E-01-2.03075E-03-9.49112E-01 3.43419E-14-8.23791E-14
 -1      3128 2.01446E+01 2.92575E-01 1.81294E-03-7.44195E-01-1.47883E-13-5.49022E-14
 -1      3129 2.01066E+01 2.96697E-01-6.96854E-04-6.82169E-01-1.05165E-13-1.31305E-13
 -1      3130 1.99970E+01 3.34196E-01-9.66193E-04-8.01954E-01-9.29382E-14-1.39383E-13
 -1      3131 2.01059E+01 2.94345E-01 1.71760E-03-6.16298E-01-6.73777E-15-1.62994E-13
 -1      3132 2.00773E+01 2.85168E-01-9.70081E-04-5.57732E-01 1.42455E-13-1.55902E-13
 -1      3133 1.99842E+01 3.43691E-01-3.70709E-04-6.62912E-01-7.75462E-14-1.52016E-13
 -1      3134 2.00811E+01 2.73306E-01 1.57928E-03-4.99056E-01 2.36649E-13-1.76036E-13
 -1      3135 2.00591E+01 2.57102E-01-1.04324E-03-4.46419E-01 2.56086E-13-2.15226E-13
 -1      3136 1.99840E+01 3.23851E-01-6.67179E-05-5.37133E-01 1.81364E-13-8.44270E-14
 -1      3137 2.00644E+01 2.40667E-01 1.41476E-03-3.95783E-01 2.67817E-13-3.67120E-13
 -1      3138 2.00470E+01 2.21635E-01-9.99997E-04-3.50193E-01 1.98856E-13-3.80354E-13
 -1      3139 1.99891E+01 2.88385E-01 6.60162E-05-4.27046E-01 1.56480E-13-2.23925E-13
 -1      3140 2.00522E+01 2.03830E-01 1.23779E-03-3.07629E-01 8.55030E-14-2.63854E-13
 -1      3141 2.00383E+01 1.84601E-01-8.96023E-04-2.69303E-01-2.20581E-14-2.56558E-13
 -1      3142 1.99955E+01 2.46517E-01 1.04833E-04-3.33266E-01 2.14344E-13-4.97965E-13
 -1      3143 2.00427E+01 1.67358E-01 1.05950E-03-2.34342E-01 5.84943E-15-3.98946E-14
 -1      3144 2.00316E+01 1.49456E-01-7.66063E-04-2.02935E-01 7.38925E-14 6.01086E-14
 -1      3145 2.00011E+01 2.04069E-01 9.86339E-05-2.55232E-01 1.46125E-13-2.97119E-13
 -1      3146 2.00350E+01 1.33839E-01 8.87920E-04-1.74819E-01 1.25756E-14 6.01475E-14
 -1      3147 2.00261E+01 1.18040E-01-6.31465E-04-1.49662E-01-1.14474E-13 1.18643E-13
 -1      3148 2.00054E+01 1.64436E-01 7.49026E-05-1.91678E-01 5.64020E-14-1.67056E-13
 -1      3149 2.00285E+01 1.04534E-01 7.29197E-04-1.27497E-01-2.66623E-13 1.85744E-13
 -1      3150 2.00214E+01 9.11238E-02-5.05222E-04-1.07765E-01-2.44963E-13 2.23752E-13
 -1      3151 2.00082E+01 1.29367E-01 4.68398E-05-1.40943E-01-7.08818E-14-1.35488E-13
 -1      3152 2.00229E+01 7.98409E-02 5.87459E-04-9.06218E-02-1.24855E-13 2.15951E-13
 -1      3153 2.00174E+01 6.88012E-02-3.94096E-04-7.54570E-02-4.58193E-14 2.43517E-13
 -1      3154 2.00097E+01 9.95311E-02 2.10771E-05-1.01204E-01-1.64490E-13 2.05616E-13
 -1      3155 2.00182E+01 5.96368E-02 4.64468E-04-6.24526E-02-1.18993E-13 2.92070E-13
 -1      3156 2.00139E+01 5.07789E-02-3.00124E-04-5.10347E-02-9.60643E-14 1.30998E-13
 -1      3157 2.00101E+01 7.49136E-02 9.49118E-07-7.06593E-02-9.88716E-14 2.60362E-13
 -1      3158 2.00143E+01 4.35150E-02 3.60331E-04-4.13684E-02-3.13412E-15 6.30215E-14
 -1      3159 2.00110E+01 3.65708E-02-2.22992E-04-3.29549E-02 3.01658E-14 5.85037E-14
 -1      3160 2.00098E+01 5.51189E-02-1.30520E-05-4.76324E-02-5.59752E-14 1.33738E-13
 -1      3161 2.00110E+01 3.09422E-02 2.74164E-04-2.59261E-02 7.60693E-14 1.20751E-13
 -1      3162 2.00085E+01 2.56169E-02-1.61367E-04-1.98705E-02 3.69283E-14 1.34697E-13
 -1      3163 2.00090E+01 3.95666E-02-2.17560E-05-3.06263E-02 1.22833E-13 1.39406E-13
 -1      3164 2.00083E+01 2.13503E-02 2.04393E-04-1.48844E-02-3.05642E-14 1.72579E-13
 -1      3165 2.00065E+01 1.73549E-02-1.13357E-04-1.06416E-02-1.06630E-13 2.95692E-13
 -1      3166 2.00080E+01 2.76133E-02-2.62110E-05-1.83462E-02 1.56887E-14 1.09899E-13
 -1      3167 2.00062E+01 1.41919E-02 1.49025E-04-7.20638E-03-2.23405E-13 4.65202E-13
 -1      3168 2.00048E+01 1.12613E-02-7.68588E-05-4.32908E-03-1.34361E-13 4.67197E-13
 -1      3169 2.00068E+01 1.86235E-02-2.74954E-05-9.70351E-03-4.43875E-14 3.21310E-13
 -1      3170 2.00045E+01 8.97082E-03 1.05940E-04-2.04770E-03-8.68952E-14 5.08842E-13
 -1      3171 2.00035E+01 6.87253E-03-4.98057E-05-1.77530E-04-1.66179E-13 5.45556E-13
 -1      3172 2.00057E+01 1.20120E-02-2.65933E-05-3.80613E-03-6.40133E-14 5.47137E-13
 -1      3173 2.00031E+01 5.25526E-03 7.30854E-05 1.26340E-03-1.82741E-13 5.97482E-13
 -1      3174 2.00025E+01 3.79142E-03-3.03272E-05 2.40683E-03-2.66504E-14 5.61648E-13
 -1      3175 2.00046E+01 7.26335E-03-2.43253E-05 6.06537E-05-2.04222E-13 5.16752E-13
 -1      3176 2.00021E+01 2.67984E-03 4.85776E-05 3.24929E-03 3.53578E-14 3.70323E-13
 -1      3177 2.00017E+01 1.68574E-03-1.68682E-05 3.88013E-03-9.33340E-15 2.90125E-13
 -1      3178 2.00036E+01 3.93801E-03-2.13466E-05 2.45699E-03-5.98240E-14 4.56232E-13
 -1      3179 2.00013E+01 9.41528E-04 3.07246E-05 4.30617E-03-2.57156E-14 2.95396E-13
 -1      3180 2.00010E+01 2.82532E-04-7.68085E-06 4.58327E-03 5.54946E-14 3.03309E-13
 -1      3181 2.00027E+01 1.66916E-03-1.81490E-05 3.81185E-03 2.21542E-14 3.40395E-13
 -1      3182 2.00007E+01-2.08834E-04 1.76469E-05 4.72797E-03 6.06900E-14 1.50615E-13
 -1      3183 2.00006E+01-6.43156E-04-1.53623E-06 4.76499E-03 1.25192E-13 1.26470E-13
 -1      3184 2.00020E+01 1.57786E-04-1.49938E-05 4.44442E-03-2.52497E-14 2.64667E-13
 -1      3185 2.00003E+01-9.76019E-04 8.96195E-06 4.71873E-03-3.57142E-14-8.13748E-14
 -1      3186 2.00002E+01-1.27458E-03 6.09420E-07 4.59245E-03-1.95250E-13-2.88282E-13
 -1      3187 2.00013E+01-8.57136E-04-1.40132E-05 4.59554E-03-5.73658E-14-2.43739E-13
 -1      3188 2.00000E+01-1.51604E-03 3.19918E-06 4.40885E-03-1.31689E-13-1.85720E-13
 -1      3189 2.00000E+01-1.74867E-03-4.62815E-06 4.17578E-03-1.88271E-13-1.73868E-13
 -1      3190 2.00008E+01-1.56221E-03-8.78959E-06 4.41240E-03-1.10940E-13-3.35295E-13
 -1      3191 2.18549E+01-4.59803E+00 6.63700E-02-4.33473E+00 4.54043E-13-2.07058E-13
 -1      3192 2.37134E+01-4.80005E+00-8.72762E-02-3.27590E+00 3.32803E-13-3.40858E-13
 -1      3193 2.13550E+01-4.02529E+00 5.74722E-02-4.04328E+00 4.45251E-13-2.09027E-13
 -1      3194 2.88471E+01 3.45396E+00-1.23560E-01-2.40818E+00 7.57311E-13-4.75939E-13
 -1      3195 2.50403E+01-3.43292E+00 5.70732E-02 8.94416E-01-1.79482E-13-4.64245E-13
 -1      3196 2.58947E+01-3.45305E+00-1.26026E-02 1.14937E-01-1.52813E-13-5.88803E-13
 -1      3197 2.08696E+01-5.30533E-01 1.38397E-02 2.16177E+00-1.21928E-13-1.27639E-13
 -1      3198 2.12380E+01-9.41229E-01 1.14353E-02 2.14110E+00-1.50067E-13-1.32468E-13
 -1      3199 2.04578E+01 4.54255E-02 4.62648E-03 1.97237E+00-2.11896E-13-2.50155E-14
 -1      3200 2.06778E+01-2.04330E-01 8.66401E-03 2.03318E+00-1.85455E-13-8.10166E-14
 -1      3201 2.00078E+01-3.42220E-01-1.54276E-02 2.30588E+00-2.22032E-13-1.22506E-14
 -1      3202 2.02688E+01 3.57064E-01 2.43847E-05 1.73036E+00-1.35599E-13 5.94564E-14
 -1      3203 2.04002E+01 2.29173E-01 6.30100E-03 1.82859E+00-1.76257E-13 4.45969E-15
 -1      3204 1.98081E+01 2.11682E-01-7.19712E-03 1.99870E+00-1.83433E-13 1.52042E-13
 -1      3205 2.01903E+01 4.91794E-01-1.95714E-03 1.47845E+00-4.32832E-14 7.51027E-14
 -1      3206 2.02739E+01 4.43098E-01 4.88941E-03 1.59038E+00-6.89602E-14 5.67148E-14
 -1      3207 1.97771E+01 4.96193E-01-1.96008E-03 1.70257E+00-1.17957E-13 8.46041E-14
 -1      3208 2.01596E+01 5.19868E-01-2.66967E-03 1.23696E+00-1.00672E-13 5.81697E-14
 -1      3209 2.02187E+01 5.17357E-01 3.96240E-03 1.34920E+00-1.71061E-14 2.37312E-14
 -1      3210 1.98157E+01 6.05843E-01 4.87734E-04 1.43108E+00-3.17933E-15-1.20793E-14
 -1      3211 2.01453E+01 4.90127E-01-2.73766E-03 1.01604E+00-1.32284E-15 6.47814E-14
 -1      3212 2.01919E+01 5.11672E-01 3.36666E-03 1.12098E+00-5.30384E-14 6.38089E-14
 -1      3213 1.98731E+01 6.13070E-01 1.31931E-03 1.18709E+00-2.45498E-14 7.03564E-14
 -1      3214 2.01341E+01 4.33467E-01-2.49903E-03 8.20515E-01-9.18180E-14 1.23022E-13
 -1      3215 2.01734E+01 4.65427E-01 2.94917E-03 9.14231E-01-7.53348E-14 5.78231E-14
 -1      3216 1.99266E+01 5.66260E-01 1.38378E-03 9.71174E-01-5.43964E-14 2.34260E-13
 -1      3217 2.01214E+01 3.67961E-01-2.14316E-03 6.51959E-01-1.62668E-14 2.73364E-14
 -1      3218 2.01555E+01 4.02535E-01 2.60749E-03 7.32898E-01-6.68693E-15 1.51453E-13
 -1      3219 1.99681E+01 4.95457E-01 1.14305E-03 7.83150E-01-8.70241E-14 1.54484E-13
 -1      3220 2.01067E+01 3.03422E-01-1.76729E-03 5.09889E-01 4.71798E-14 1.23470E-13
 -1      3221 2.01363E+01 3.36475E-01 2.28993E-03 5.77972E-01 2.61026E-14 7.64669E-14
 -1      3222 1.99966E+01 4.18088E-01 8.29112E-04 6.22217E-01-4.39178E-15 6.62462E-14
 -1      3223 2.00910E+01 2.44679E-01-1.41766E-03 3.92504E-01-6.25869E-16 2.04955E-13
 -1      3224 2.01163E+01 2.74259E-01 1.98050E-03 4.48533E-01 5.04087E-14 2.63103E-13
 -1      3225 2.00142E+01 3.43555E-01 5.41594E-04 4.86905E-01-2.44275E-14 2.57612E-13
 -1      3226 2.00755E+01 1.93685E-01-1.11365E-03 2.97242E-01-4.02427E-14 1.90580E-13
 -1      3227 2.00967E+01 2.19088E-01 1.68156E-03 3.42486E-01 2.88422E-14 1.75803E-13
 -1      3228 2.00235E+01 2.76434E-01 3.14539E-04 3.75113E-01 1.45638E-14 4.08355E-13
 -1      3229 2.00609E+01 1.50795E-01-8.60304E-04 2.21212E-01 4.53898E-15 9.58373E-14
 -1      3230 2.00784E+01 1.72001E-01 1.40142E-03 2.57126E-01-3.61887E-14 2.01053E-13
 -1      3231 2.00271E+01 2.18477E-01 1.50200E-04 2.84296E-01-4.73645E-14 3.86737E-13
 -1      3232 2.00480E+01 1.15551E-01-6.54541E-04 1.61501E-01 9.09358E-15-7.66252E-14
 -1      3233 2.00621E+01 1.32874E-01 1.14736E-03 1.89548E-01 1.25133E-13-4.94770E-14
 -1      3234 2.00272E+01 1.69870E-01 4.05850E-05 2.11711E-01 1.70331E-13 1.87307E-13
 -1      3235 2.00370E+01 8.71381E-02-4.90357E-04 1.15353E-01-7.39515E-14-1.55354E-13
 -1      3236 2.00481E+01 1.01033E-01 9.23000E-04 1.36904E-01-2.19431E-13-2.10705E-13
 -1      3237 2.00251E+01 1.30000E-01-2.60288E-05 1.54629E-01 1.57030E-14 5.70084E-14
 -1      3238 2.00278E+01 6.46155E-02-3.61714E-04 8.02591E-02-3.50560E-14 1.58842E-13
 -1      3239 2.00364E+01 7.55795E-02 7.29742E-04 9.65521E-02 5.50486E-14 5.98225E-14
 -1      3240 2.00221E+01 9.78983E-02-6.29894E-05 1.10459E-01-1.39828E-13-7.57388E-14
 -1      3241 2.00205E+01 4.70378E-02-2.62399E-04 5.40210E-02 2.89603E-14 7.24321E-14
 -1      3242 2.00269E+01 5.55571E-02 5.67326E-04 6.61276E-02 5.37951E-14 8.12578E-14
 -1      3243 2.00187E+01 7.24799E-02-7.99516E-05 7.68371E-02 2.83104E-14 5.22446E-14
 -1      3244 2.00147E+01 3.35267E-02-1.86664E-04 3.47623E-02-9.12518E-14 4.29687E-14
 -1      3245 2.00195E+01 4.00457E-02 4.33617E-04 4.35894E-02-3.51203E-14-6.86188E-14
 -1      3246 2.00153E+01 5.26640E-02-8.37532E-05 5.16802E-02 4.17354E-14-1.11501E-15
 -1      3247 2.00102E+01 2.33040E-02-1.29615E-04 2.09173E-02-1.07807E-13-1.17216E-14
 -1      3248 2.00137E+01 2.82129E-02 3.25499E-04 2.72161E-02-6.32568E-14 6.64832E-14
 -1      3249 2.00123E+01 3.74508E-02-7.98052E-05 3.32072E-02-9.38807E-14 9.17145E-14
 -1      3250 2.00068E+01 1.56995E-02-8.72451E-05 1.12023E-02-1.54332E-13-3.52411E-14
 -1      3251 2.00093E+01 1.93320E-02 2.39608E-04 1.55839E-02-1.23825E-13-8.59755E-14
 -1      3252 2.00096E+01 2.59565E-02-7.17534E-05 1.99248E-02-8.89517E-14 8.50939E-14
 -1      3253 2.00044E+01 1.01475E-02-5.63090E-05 4.58376E-03-3.61024E-13 5.06698E-14
 -1      3254 2.00061E+01 1.27840E-02 1.72552E-04 7.53680E-03-2.61705E-13 1.58638E-13
 -1      3255 2.00074E+01 1.74203E-02-6.19258E-05 1.06055E-02-2.66599E-13 6.21533E-14
 -1      3256 2.00026E+01 6.17830E-03-3.41927E-05 2.44106E-04-1.87087E-13 1.95936E-14
 -1      3257 2.00037E+01 8.05042E-03 1.21105E-04 2.15255E-03-3.08693E-13 5.68692E-14
 -1      3258 2.00055E+01 1.11999E-02-5.17633E-05 4.25906E-03-2.78412E-13 2.68669E-13
 -1      3259 2.00014E+01 3.40745E-03-1.88166E-05-2.45174E-03-6.93040E-14-5.92878E-14
 -1      3260 2.00021E+01 4.70421E-03 8.23566E-05-1.29166E-03-1.03632E-13-1.29316E-13
 -1      3261 2.00040E+01 6.76224E-03-4.21096E-05 1.01315E-04-9.96465E-14 5.01502E-14
 -1      3262 2.00005E+01 1.52313E-03-8.55641E-06-3.98739E-03 2.74236E-13-2.39449E-13
 -1      3263 2.00009E+01 2.39736E-03 5.37765E-05-3.35180E-03 1.11209E-13-1.40921E-13
 -1      3264 2.00028E+01 3.67072E-03-3.34211E-05-2.47709E-03 1.54472E-13-1.81933E-13
 -1      3265 2.00000E+01 2.74041E-04-2.14775E-06-4.72243E-03 1.58553E-13-2.00233E-14
 -1      3266 2.00002E+01 8.48683E-04 3.32322E-05-4.44643E-03 2.40985E-13-1.14436E-14
 -1      3267 2.00019E+01 1.57124E-03-2.59226E-05-3.94018E-03 1.26187E-13-1.01731E-13
 -1      3268 1.99997E+01-5.42002E-04 1.31537E-06-4.91600E-03 5.00783E-14 1.28353E-13
 -1      3269 1.99997E+01-1.68460E-04 1.88846E-05-4.88216E-03 1.52393E-13-3.66731E-14
 -1      3270 2.00012E+01 1.78492E-04-1.95365E-05-4.63279E-03 9.69029E-14-5.32370E-14
 -1      3271 1.99995E+01-1.08736E-03 9.61795E-07-4.74649E-03-1.33169E-13 4.66894E-13
 -1      3272 1.99995E+01-8.41248E-04 6.71012E-06-4.87447E-03-4.79336E-14 2.51641E-13
 -1      3273 2.00007E+01-7.32771E-04-1.17377E-05-4.80432E-03-5.72540E-14 1.18869E-13
 -1      3274 2.62914E+01 1.69053E+00-5.41136E-02 2.38614E+00-3.32318E-13-5.62939E-13
 -1      3275 2.56547E+01 3.09899E+00-1.52358E-01 2.02046E+00-3.74673E-13-4.06050E-13
 -1      3276 2.69156E+01-3.33149E+00 1.04103E-02-3.87552E-01-8.56260E-14-6.52277E-13
 -1      3277 2.00029E+01-3.17660E-03 2.52213E-06 3.17782E-04 8.30290E-14-2.56704E-13
 -1      3278 2.00029E+01-3.17934E-03 2.56306E-06-2.82472E-04 1.96100E-13-2.59332E-13
 -1      3279 2.00034E+01-2.73914E-03-1.12009E-06 6.62712E-04 5.55679E-14-1.59228E-13
 -1      3280 1.26522E+01-1.39221E+00 6.50285E-02 5.00831E+00 4.15792E-13-5.88959E-13
 -1      3281 1.04264E+01-2.74326E-01 1.25033E-01 3.62186E+00 3.42906E-13-7.58837E-13
 -1      3282 2.00014E+01-2.51241E-03-1.06142E-05 3.44670E-03-2.70834E-13-3.37778E-13
 -1      3283 2.00018E+01-2.71409E-03 1.19820E-05 3.09148E-03-1.58713E-13-9.64082E-14
 -1      3284 9.26999E+00 2.52507E-01 1.07869E-01-8.82200E-01 2.12156E-14 6.12760E-13
 -1      3285 1.03068E+01-1.02449E-01 7.53907E-02-2.60672E+00 1.25665E-13 5.61357E-13
 -1      3286 2.70459E+01-3.15581E+00 2.18673E-02 4.01755E-01-9.02750E-14 1.76869E-13
 -1      3287 2.00022E+01-2.86604E-03-6.62089E-06 2.59943E-03-4.21083E-14 3.35717E-14
 -1      3288 2.00025E+01-2.99152E-03 8.39837E-06 2.10855E-03-9.40983E-14 2.82876E-13
 -1      3289 2.00031E+01-2.63782E-03-1.74072E-06 1.90527E-03 7.39845E-15 2.32863E-13
 -1      3290 2.00024E+01-2.44717E-03 1.65567E-06 2.98851E-03-1.59339E-13-1.65621E-13
 -1      3291 2.16767E+01-1.43559E+00 2.86093E-02 2.20229E+00-1.68900E-13-2.10503E-13
 -1      3292 2.22478E+01-2.00485E+00 7.48775E-03 2.02784E+00-1.62805E-13-2.26326E-13
 -1      3293 2.05514E+01-1.25918E+00-2.40317E-02 2.57424E+00-1.85046E-13-1.94593E-13
 -1      3294 2.55742E+01-4.06912E+00 6.22603E-02-1.63868E+00 1.88083E-13-4.96173E-13
 -1      3295 2.64133E+01-3.00897E+00-1.10438E-01 8.15901E-02-1.67366E-14-6.80071E-13
 -1      3296 2.44730E+01-4.02012E+00 2.66948E-02-1.91663E+00 2.84304E-13-4.44866E-13
 -1      3297 2.30699E+01-2.51907E+00 5.56316E-02 1.85834E+00-2.45973E-13-2.81626E-13
 -1      3298 2.38452E+01-3.06750E+00 7.76572E-03 1.42458E+00-2.04293E-13-3.87057E-13
 -1      3299 2.35861E+01-3.63845E+00-3.37519E-02 2.02009E+00-2.89780E-13-4.07258E-13
 -1      3300 2.16890E+01-2.51581E+00-4.26003E-02 2.61832E+00-2.73257E-13-2.93448E-13
 -1      3301 1.50259E+01-1.99348E+00 3.29820E-02 4.75911E+00-4.23189E-13 4.07008E-13
 -1      3302 1.25082E+01-7.00685E-01 1.12831E-01 3.68904E+00-3.32158E-13 4.91274E-13
 -1      3303 1.07000E+01-7.82958E-03 2.54153E-02 2.34925E+00-1.85869E-13 4.43465E-13
 -1      3304 9.58580E+00 3.42294E-01 1.08510E-01 5.72248E-01-1.08337E-13 5.37792E-13
 -1      3305 1.13784E+01 6.51656E-01 1.11432E-01-1.45183E-02-2.13501E-14 4.40752E-13
 -1      3306 2.21533E+01-1.63767E+00 5.44696E-03-2.09802E+00-8.31488E-14-8.32223E-14
 -1      3307 2.16645E+01-1.01837E+00 3.50888E-02-2.15861E+00-4.60413E-14-7.47508E-14
 -1      3308 1.99514E+01-4.09413E+00 1.63853E-01-5.14490E+00-3.49484E-13-3.58475E-13
 -1      3309 2.24531E+01-4.54828E+00-5.13040E-02-3.91434E+00-2.94695E-13-1.06080E-13
 -1      3310 2.04225E+01 1.80911E+00 3.24495E-03 6.37106E-02-2.08658E-13-3.13115E-13
 -1      3311 9.34060E+00 4.28444E-01 9.79477E-02 1.96289E+00 2.02935E-13-7.98098E-13
 -1      3312 9.02010E+00 6.09141E-01 1.13606E-01 9.11689E-02 9.29959E-14-8.15417E-13
 -1      3313 2.07519E+01 1.26421E+00 5.47211E-03-9.17746E-01 2.48846E-13-1.78179E-13
 -1      3314 2.01809E+01 1.67512E+00-1.89777E-03-8.16244E-01 2.49855E-13-2.24727E-13
 -1      3315 1.98643E+01 1.52949E+00 1.98213E-03-1.09578E+00 1.88832E-13-2.29149E-13
 -1      3316 2.07975E+01 9.43048E-01-1.03386E-03-1.22272E+00 2.03531E-13-1.61048E-13
 -1      3317 2.13341E+01 6.65494E-02 1.60185E-02 7.24303E-01-1.27417E-13-1.87140E-13
 -1      3318 2.15065E+01-3.20680E-01-6.06406E-03 7.79685E-01-8.85675E-14-1.78157E-13
 -1      3319 2.13808E+01-5.26695E-01-1.84292E-02 1.03411E+00-4.58140E-14-1.56383E-13
 -1      3320 2.75818E+01 2.27765E-01-1.22159E-01-1.78381E+00-2.40745E-13 1.73042E-13
 -1      3321 2.82202E+01-1.28987E+00-2.00080E-02-9.29299E-01-1.40311E-13 1.92124E-13
 -1      3322 2.60087E+01-3.93811E+00-7.02247E-02-9.59740E-01-1.44717E-13 9.56943E-14
 -1      3323 2.57009E+01-3.41807E+00-3.01537E-02-4.00937E-01-1.27613E-13 1.27093E-13
 -1      3324 2.49305E+01-3.21809E+00 7.14023E-02-1.08927E+00-1.52178E-13 1.00453E-13
 -1      3325 2.49406E+01-4.33525E+00 1.17947E-01-2.42526E+00-2.42903E-13 3.29944E-14
 -1      3326 1.69286E+01 3.32037E+00-5.24066E-03 8.38457E-02 1.29746E-13-5.13515E-13
 -1      3327 1.68531E+01 3.33986E+00-3.79988E-03 2.60261E-01 1.00071E-13-5.30816E-13
 -1      3328 2.00002E+01-2.26266E-03-4.83482E-06-3.74129E-03 4.61364E-14 3.91148E-14
 -1      3329 1.87234E+01 2.14811E+00-2.12702E-03-9.32557E-01 1.68776E-13-3.47167E-13
 -1      3330 1.84886E+01 2.61410E+00 5.39471E-03-6.25022E-01 2.05771E-13-3.80008E-13
 -1      3331 1.79360E+01 2.83633E+00-1.42479E-02-5.47218E-01 1.72925E-13-4.16118E-13
 -1      3332 1.12846E+01 4.13836E-01 1.22848E-01 2.58714E+00 2.71538E-13-6.96332E-13
 -1      3333 1.92131E+01 2.01131E+00-7.22127E-03 7.35179E-01-6.64484E-14-3.94718E-13
 -1      3334 1.97121E+01 1.78146E+00 5.90607E-03 6.16461E-01-1.03529E-13-3.76110E-13
 -1      3335 2.00018E+01-2.73810E-03 1.25275E-05-3.07916E-03 2.83747E-13 9.50564E-14
 -1      3336 2.00014E+01-2.54636E-03-1.31677E-05-3.44208E-03 1.46477E-13 7.26078E-14
 -1      3337 2.26966E+01-4.06465E+00 2.89835E-02 3.18881E+00-2.80949E-13-2.20222E-13
 -1      3338 2.55904E+01 1.40957E+00-5.68003E-02-2.07791E+00-2.81431E-13 1.62481E-13
 -1      3339 2.51269E+01 3.38694E+00-7.78292E-02 1.56167E+00-3.86559E-13-3.26281E-13
 -1      3340 2.05396E+01 1.39908E+00-2.75580E-03 2.82796E-01-1.94700E-13-2.80868E-13
 -1      3341 1.69140E+01 3.26137E+00-1.24058E-02 5.19926E-01 9.46235E-14-5.16182E-13
 -1      3342 1.71086E+01 3.17784E+00 3.44052E-03 6.54172E-01 7.57920E-14-5.10013E-13
 -1      3343 1.67555E+01 3.07091E+00 1.42911E-02 4.40913E-01 1.01115E-13-5.10091E-13
 -1      3344 1.70070E+01-2.19613E+00 7.32926E-02 4.36078E+00-4.04655E-13 3.05714E-13
 -1      3345 1.17194E+01-2.81195E-01 1.29102E-01-3.26731E+00 1.91788E-13 4.34312E-13
 -1      3346 1.32974E+01-6.54131E-01 4.00460E-02-3.69964E+00 2.72946E-13 2.44901E-13
 -1      3347 1.19566E+01 3.15285E-01 1.52970E-02-2.14782E+00 1.83296E-13 4.22912E-13
 -1      3348 2.55229E+01-2.15084E+00-1.57866E-02 8.20838E-01 6.67348E-15-5.72037E-13
 -1      3349 2.63657E+01-1.41557E+00 1.39310E-02 1.45295E+00-1.29348E-13-6.56804E-13
 -1      3350 1.99995E+01-1.30336E-03-6.59907E-06-4.60369E-03-2.38844E-13 5.02323E-13
 -1      3351 2.00006E+01-1.33899E-03-2.48736E-07-4.62648E-03-2.95918E-13 3.60125E-13
 -1      3352 1.99998E+01-1.49745E-03-4.28915E-06-4.42081E-03-3.00433E-13 4.36105E-13
 -1      3353 2.61132E+01 1.54610E-01-1.13580E-01 2.05588E+00-2.40363E-13-5.69321E-13
 -1      3354 2.00025E+01-3.01260E-03 8.55896E-06-2.08871E-03 2.20336E-13-7.43735E-14
 -1      3355 2.00022E+01-2.88226E-03-3.82438E-06-2.58716E-03 2.27914E-13-7.27381E-14
 -1      3356 2.00024E+01-2.47472E-03-2.07880E-06-2.96656E-03 1.70014E-13-7.45623E-14
 -1      3357 2.00002E+01-2.15118E-03 4.96765E-06 3.83257E-03-2.77408E-13-2.04337E-13
 -1      3358 1.07551E+01 1.03351E+00 6.67601E-02-2.23626E-02 1.03972E-13-7.10848E-13
 -1      3359 9.56371E+00 6.83367E-01 1.48611E-01-8.00156E-01 1.71686E-14-8.07049E-13
 -1      3360 1.03897E+01 4.95375E-01 6.91779E-02-1.86646E+00-5.34702E-14-7.37105E-13
 -1      3361 2.11748E+01-3.27268E+00 3.68946E-02 3.49032E+00-2.88151E-13-1.62578E-13
 -1      3362 1.46916E+01-1.65776E+00 1.22153E-01 5.13814E+00 4.10755E-13-4.70977E-13
 -1      3363 1.41338E+01-7.42577E-01 6.61294E-02 4.37492E+00 3.73118E-13-5.04229E-13
 -1      3364 1.65214E+01-2.04986E+00 1.14727E-02 4.90221E+00 4.23279E-13-3.00426E-13
 -1      3365 2.00029E+01-3.15594E-03 5.46369E-06-9.22315E-04 1.70599E-13-1.97475E-13
 -1      3366 2.00027E+01-3.09160E-03-3.63528E-07-1.49802E-03 1.44296E-13-1.84037E-13
 -1      3367 2.00031E+01-2.66085E-03-1.36193E-06-1.87114E-03 9.84236E-14-8.36820E-14
 -1      3368 2.00034E+01-2.74517E-03-9.50346E-07-6.29954E-04 1.39088E-13-2.21273E-13
 -1      3369 1.31376E+01-3.65686E-02 1.07214E-01 2.69792E+00-2.51615E-13 3.79932E-13
 -1      3370 1.20569E+01-1.33759E+00 1.77694E-01-4.67277E+00-1.93685E-13-6.93820E-13
 -1      3371 1.41348E+01-1.82598E+00 8.78262E-03-4.87148E+00-2.48648E-13-5.78926E-13
 -1      3372 1.16184E+01-4.40570E-01 9.95725E-02-3.66864E+00-1.33581E-13-7.07823E-13
 -1      3373 2.12758E+01-4.99199E-01 5.45720E-03-2.01280E+00 1.54976E-14-1.06656E-13
 -1      3374 2.09875E+01-1.60408E-02 1.65009E-02-1.91387E+00 6.11938E-14-1.29210E-13
 -1      3375 2.05989E+01-7.65209E-01-3.42611E-02-2.42105E+00-2.09034E-14-1.43141E-13
 -1      3376 1.82404E+01-3.31217E+00 6.60515E-02-5.07934E+00-2.98067E-13-4.08916E-13
 -1      3377 2.73369E+01-2.31118E+00-7.78840E-03-3.64702E-01-5.94715E-14 2.03171E-13
 -1      3378 2.04793E+01-4.03548E+00 8.20422E-02 5.00690E+00 3.46098E-13-3.06387E-14
 -1      3379 1.90612E+01-3.33209E+00 4.15541E-02 5.03367E+00 3.59546E-13-1.00156E-13
 -1      3380 2.18983E+01-4.20958E+00 8.58102E-03 4.17959E+00 2.97644E-13 3.71248E-14
 -1      3381 2.30907E+01-3.97690E+00 1.72390E-02-3.06073E+00-2.38316E-13-8.03674E-14
 -1      3382 2.09254E+01 3.17594E-01 3.54499E-03-1.68553E+00 9.23723E-14-1.50750E-13
 -1      3383 2.07879E+01 6.84673E-01 9.70969E-03-1.47370E+00 1.51207E-13-1.57593E-13
 -1      3384 2.02845E+01 9.34440E-01-4.76693E-03-1.45084E+00 1.45956E-13-1.58998E-13
 -1      3385 2.02751E+01 2.52735E-01-1.43691E-02-1.96109E+00 6.50983E-14-1.64623E-13
 -1      3386 1.71390E+01 3.21920E+00-1.03624E-02-1.84382E-01 1.25134E-13-4.94373E-13
 -1      3387 1.69018E+01 3.04720E+00 1.66768E-02-1.29186E-01 1.18713E-13-4.94717E-13
 -1      3388 1.74808E+01 3.10024E+00 3.85840E-03-3.36404E-01 1.54722E-13-4.69724E-13
 -1      3389 2.36562E+01-2.86616E+00-1.88003E-02-1.61361E+00-1.44686E-13 2.69433E-14
 -1      3390 2.30023E+01-2.22492E+00 6.00045E-02-1.96541E+00-1.30785E-13-1.83673E-14
 -1      3391 2.17124E+01-2.12585E+00-5.23019E-02-2.59325E+00-1.45493E-13-6.67695E-14
 -1      3392 2.35699E+01-3.41756E+00-5.53580E-02-2.14209E+00-1.80290E-13 1.11161E-14
 -1      3393 2.09874E+01 7.66882E-01 1.02790E-02 4.68291E-01-1.95645E-13-2.09271E-13
 -1      3394 2.11037E+01 4.08128E-01-4.23800E-03 6.07517E-01-1.67882E-13-2.05518E-13
 -1      3395 2.08839E+01 3.08220E-01-1.12601E-02 8.42803E-01-1.33839E-13-2.00635E-13
 -1      3396 2.65044E+01 4.72766E-01-1.15662E-01-1.97887E+00-2.30326E-13 1.37855E-13
 -1      3397 1.82376E+01 2.50784E+00-1.15594E-02 8.86500E-01 6.01049E-15-4.49959E-13
 -1      3398 1.87244E+01 2.29620E+00 7.15461E-03 8.34092E-01-3.57697E-14-4.28096E-13
 -1      3399 1.90679E+01 1.76385E+00 3.49455E-03 1.01014E+00-4.71826E-14-3.85813E-13
 -1      3400 1.55255E+01-1.80264E+00 3.83391E-02-4.64860E+00 3.55188E-13 3.51941E-14
 -1      3401 1.66167E+01-2.74956E+00 8.87593E-02-5.20005E+00 4.58494E-13 4.15015E-14
 -1      3402 1.83704E+01-2.95078E+00-1.00631E-02-4.55553E+00 4.43961E-13-1.01287E-13
 -1      3403 2.54468E+01-4.38624E+00 4.73724E-03 2.45177E+00 8.15320E-14 2.20768E-13
 -1      3404 2.42136E+01-4.30360E+00 2.61534E-02 2.93274E+00 1.65173E-13 1.33745E-13
 -1      3405 2.58942E+01-3.83806E+00-5.36189E-02 1.25659E+00 5.06084E-14 2.53651E-13
 -1      3406 2.00009E+01-2.30228E-03 2.14333E-05-3.82031E-03 9.09081E-15-2.13706E-14
 -1      3407 2.00000E+01-1.88751E-03-1.34792E-05-4.05764E-03-4.75067E-14 2.13747E-13
 -1      3408 1.99998E+01-1.68575E-03-1.79690E-05-4.29477E-03-1.70119E-13 2.73411E-13
 -1      3409 2.00013E+01-2.15149E-03-2.78880E-06-3.84079E-03 3.92978E-14 1.58285E-13
 -1      3410 2.00008E+01-2.25839E-03 7.83484E-06 3.85670E-03-1.96640E-13-1.78050E-13
 -1      3411 2.00013E+01-2.07096E-03 3.15655E-06 3.86821E-03-1.88318E-13-4.37151E-13
 -1      3412 2.54975E+01 4.35974E+00-8.92347E-02-8.46010E-01-5.64132E-13-6.18186E-14
 -1      3413 2.27654E+01-2.06474E+00 4.46735E-02 1.27405E+00 5.77286E-14-3.66695E-14
 -1      3414 2.33195E+01-2.46602E+00 2.52852E-03 9.80224E-01 5.45050E-14-2.61215E-14
 -1      3415 2.44390E+01-3.05877E+00 1.98122E-02 9.29677E-01 6.47277E-14 6.93282E-14
 -1      3416 2.50957E+01-2.93247E+00-2.18346E-03 3.86338E-01 3.03195E-14 1.16135E-13
 -1      3417 2.02459E+01 1.37049E+00-6.04933E-03 5.21451E-01-1.49436E-13-2.80148E-13
 -1      3418 2.00017E+01-1.71872E-03 1.91183E-06 3.99417E-03-9.45078E-14-3.08812E-13
 -1      3419 2.00024E+01-1.92839E-03-7.89697E-06 3.58474E-03-2.47569E-13-5.07598E-13
 -1      3420 2.00020E+01-1.35253E-03 7.93758E-06 4.12551E-03-1.77127E-13-3.21463E-13
 -1      3421 2.50998E+01-2.72884E+00 2.90392E-02 2.32827E-01 2.66870E-14-5.17489E-13
 -1      3422 2.27987E+01-2.48606E+00 2.52253E-04-1.02766E+00 6.48253E-14-1.38871E-13
 -1      3423 2.22672E+01-2.16204E+00 3.11394E-02-1.31620E+00 1.29793E-13-1.02722E-13
 -1      3424 2.16465E+01-1.79605E+00 1.38999E-04-1.43989E+00 1.08656E-13-9.12630E-14
 -1      3425 2.12358E+01-1.41539E+00 2.04347E-02-1.55484E+00 4.64299E-14-2.82116E-14
 -1      3426 2.14949E+01-2.17966E+00-3.70745E-02-1.85102E+00 1.93626E-13-1.34044E-13
 -1      3427 2.08526E+01-1.07412E+00 4.73772E-03-1.53703E+00-3.42608E-17 5.53555E-14
 -1      3428 2.05627E+01-7.57842E-01 1.23413E-02-1.55338E+00 7.13762E-14 8.20663E-14
 -1      3429 2.05839E+01-1.30778E+00-2.11739E-02-1.86490E+00 9.59357E-14-7.97739E-14
 -1      3430 2.03469E+01-4.89617E-01 5.46259E-03-1.47297E+00 1.02036E-13 8.36668E-14
 -1      3431 2.01587E+01-2.60343E-01 6.00560E-03-1.43484E+00 1.17510E-13 7.23796E-14
 -1      3432 2.00386E+01-6.19021E-01-1.49265E-02-1.71022E+00 5.15072E-14 3.87886E-14
 -1      3433 2.00564E+01-7.46741E-02 4.90971E-03-1.33262E+00 4.61924E-14 1.90171E-14
 -1      3434 1.99434E+01 7.37253E-02 2.38287E-03-1.26828E+00 6.95390E-14 2.45048E-14
 -1      3435 1.97551E+01-1.23485E-01-8.81673E-03-1.49221E+00 2.52415E-14 2.86866E-14
 -1      3436 1.99091E+01 1.88781E-01 3.92411E-03-1.16520E+00 8.52609E-14-3.23421E-14
 -1      3437 1.98462E+01 2.73873E-01 3.40135E-04-1.09067E+00 2.03218E-14-2.18117E-15
 -1      3438 1.96375E+01 1.92233E-01-4.64095E-03-1.26848E+00 4.57466E-14-5.95731E-15
 -1      3439 1.98497E+01 3.35639E-01 3.00515E-03-9.94670E-01 2.86298E-15 3.02525E-14
 -1      3440 1.98178E+01 3.75339E-01-7.51527E-04-9.18756E-01-3.72776E-14-6.78058E-14
 -1      3441 1.96153E+01 3.71214E-01-2.06781E-03-1.06071E+00 5.04697E-14-9.32097E-14
 -1      3442 1.98401E+01 3.99933E-01 2.30454E-03-8.32609E-01-7.11916E-14-1.49765E-13
 -1      3443 1.98259E+01 4.09243E-01-1.28568E-03-7.60202E-01-8.41989E-14-1.71117E-13
 -1      3444 1.96437E+01 4.53229E-01-6.08402E-04-8.75280E-01-9.82974E-14-2.19620E-13
 -1      3445 1.98559E+01 4.09651E-01 1.81034E-03-6.84685E-01-6.67355E-14-1.32336E-13
 -1      3446 1.98511E+01 4.00091E-01-1.48670E-03-6.18541E-01 5.76651E-14-3.46001E-14
 -1      3447 1.96951E+01 4.70745E-01 1.78113E-04-7.13108E-01-3.11264E-14-7.48188E-14
 -1      3448 1.98820E+01 3.86101E-01 1.45995E-03-5.53593E-01 1.73906E-13-5.72507E-14
 -1      3449 1.98817E+01 3.66053E-01-1.48954E-03-4.95109E-01 1.77732E-13-1.00860E-13
 -1      3450 1.97533E+01 4.48231E-01 5.49814E-04-5.73464E-01 8.65243E-14-1.45134E-14
 -1      3451 1.99102E+01 3.44611E-01 1.20235E-03-4.40205E-01 1.04107E-13-1.87104E-13
 -1      3452 1.99115E+01 3.19847E-01-1.38147E-03-3.89863E-01 7.78918E-14-2.64382E-13
 -1      3453 1.98091E+01 4.03457E-01 6.74664E-04-4.54925E-01 6.41985E-14-1.13476E-13
 -1      3454 1.99359E+01 2.95608E-01 1.00199E-03-3.44203E-01 1.21621E-13-3.96887E-13
 -1      3455 1.99375E+01 2.69863E-01-1.21931E-03-3.01868E-01 1.95230E-13-4.36290E-13
 -1      3456 1.98583E+01 3.48692E-01 6.65148E-04-3.55724E-01 1.85889E-14-2.61147E-13
 -1      3457 1.99575E+01 2.45742E-01 8.39218E-04-2.64503E-01 2.69134E-13-4.24792E-13
 -1      3458 1.99586E+01 2.21261E-01-1.03719E-03-2.29653E-01 1.92235E-13-3.02711E-13
 -1      3459 1.98990E+01 2.91898E-01 5.86997E-04-2.73896E-01 2.48411E-13-3.32380E-13
 -1      3460 1.99743E+01 1.98947E-01 7.01138E-04-1.99583E-01 1.10474E-13-2.89845E-13
 -1      3461 1.99749E+01 1.76966E-01-8.54647E-04-1.71463E-01 1.21402E-13-1.99122E-13
 -1      3462 1.99313E+01 2.37907E-01 4.88363E-04-2.07418E-01 2.29977E-13-3.66563E-13
 -1      3463 1.99868E+01 1.57327E-01 5.80678E-04-1.47662E-01 4.61960E-14-1.91349E-13
 -1      3464 1.99869E+01 1.38392E-01-6.85315E-04-1.25398E-01-6.42629E-14-1.50746E-13
 -1      3465 1.99560E+01 1.89378E-01 3.86314E-04-1.54266E-01 1.00767E-13-3.34961E-13
 -1      3466 1.99956E+01 1.21733E-01 4.75431E-04-1.06863E-01-7.88559E-14-4.20124E-14
 -1      3467 1.99952E+01 1.05932E-01-5.37699E-04-8.95549E-02-7.46245E-14-4.38176E-14
 -1      3468 1.99741E+01 1.47509E-01 2.91629E-04-1.12432E-01-2.30719E-14-2.37650E-13
 -1      3469 2.00014E+01 9.22043E-02 3.83994E-04-7.53629E-02-1.56125E-13 7.21823E-15
 -1      3470 2.00007E+01 7.93595E-02-4.13241E-04-6.21580E-02-1.27905E-13-2.34296E-14
 -1      3471 1.99870E+01 1.12510E-01 2.11183E-04-8.00246E-02-7.61310E-14-2.80148E-13
 -1      3472 2.00049E+01 6.83244E-02 3.05317E-04-5.14879E-02-1.13675E-13 3.86873E-15
 -1      3473 2.00041E+01 5.81237E-02-3.10533E-04-4.16087E-02 7.64757E-15-1.50287E-14
 -1      3474 1.99958E+01 8.40033E-02 1.46637E-04-5.53468E-02-9.11775E-14-1.93056E-13
 -1      3475 2.00068E+01 4.94523E-02 2.38811E-04-3.37425E-02 1.54397E-13-1.14060E-13
 -1      3476 2.00059E+01 4.15268E-02-2.27822E-04-2.65046E-02 1.61427E-13-9.64194E-14
 -1      3477 2.00014E+01 6.13154E-02 9.64567E-05-3.68979E-02 1.65561E-14-3.45340E-13
 -1      3478 2.00075E+01 3.48581E-02 1.83707E-04-2.08294E-02 8.78371E-14-6.67769E-14
 -1      3479 2.00066E+01 2.88297E-02-1.62826E-04-1.56485E-02 7.72024E-14 4.32506E-14
 -1      3480 2.00047E+01 4.36474E-02 5.89877E-05-2.33765E-02 1.51993E-13-2.45178E-13
 -1      3481 2.00074E+01 2.38093E-02 1.38827E-04-1.16547E-02 1.07612E-13 8.91490E-14
 -1      3482 2.00066E+01 1.93214E-02-1.12918E-04-8.04544E-03 9.26411E-14 1.86214E-13
 -1      3483 2.00064E+01 3.01752E-02 3.21075E-05-1.36838E-02 1.73341E-13-4.65927E-14
 -1      3484 2.00069E+01 1.56239E-02 1.02875E-04-5.31825E-03-6.70412E-14 2.52733E-13
 -1      3485 2.00061E+01 1.23573E-02-7.54656E-05-2.88668E-03-9.48404E-14 2.27344E-13
 -1      3486 2.00070E+01 2.01178E-02 1.36310E-05-6.91363E-03-2.47446E-14-9.95304E-14
 -1      3487 2.00061E+01 9.69667E-03 7.45693E-05-1.09540E-03-5.60962E-14 2.50722E-13
 -1      3488 2.00054E+01 7.37567E-03-4.80404E-05 4.71314E-04-1.25372E-13 4.09313E-13
 -1      3489 2.00068E+01 1.27738E-02 1.57658E-06-2.33386E-03-5.71541E-14-1.09935E-13
 -1      3490 2.00051E+01 5.50826E-03 5.27013E-05 1.58523E-03-1.67519E-13 4.33566E-13
 -1      3491 2.00045E+01 3.90092E-03-2.85302E-05 2.53010E-03 9.62356E-15 3.68144E-13
 -1      3492 2.00062E+01 7.53577E-03-5.74107E-06 6.35721E-04-7.41728E-14 2.24734E-13
 -1      3493 2.00042E+01 2.62348E-03 3.61468E-05 3.16461E-03 1.41288E-13 7.32478E-14
 -1      3494 2.00037E+01 1.53865E-03-1.48053E-05 3.67164E-03 2.68746E-14 3.06443E-14
 -1      3495 2.00054E+01 3.89144E-03-9.69419E-06 2.44579E-03-7.79518E-14 9.81739E-14
 -1      3496 2.00032E+01 6.79689E-04 2.31500E-05 3.97567E-03-1.00421E-13 1.31111E-13
 -1      3497 2.00028E+01-2.57591E-05-1.64345E-06 4.17280E-03-6.15174E-16 1.65724E-15
 -1      3498 2.00044E+01 1.41755E-03-1.13128E-05 3.43965E-03 2.65630E-14 6.09355E-14
 -1      3499 2.00026E+01-4.97490E-04 1.29579E-05 4.19640E-03-1.88971E-13-1.64001E-13
 -1      3500 2.00023E+01-9.79188E-04 4.08020E-06 4.19507E-03-2.82411E-13-3.71663E-13
 -1      3501 2.00031E+01-1.10748E-03-1.03484E-05 3.77204E-03-2.42724E-13-3.99053E-13
 -1      3502 2.00037E+01-1.17232E-04-1.27179E-05 3.80044E-03-2.43458E-13-1.97590E-13
 -1      3503 2.44007E+01-3.50224E+00-6.82937E-02-9.70306E-01 1.19885E-13-5.11771E-13
 -1      3504 2.40901E+01-2.80625E+00-7.53210E-03-2.96066E-01-2.16728E-14-3.72325E-13
 -1      3505 2.35286E+01-2.73400E+00 3.85304E-02-7.79278E-01 2.76697E-14-2.57955E-13
 -1      3506 2.34437E+01-3.73081E+00 7.54389E-02-2.26921E+00 3.07221E-13-2.98401E-13
 -1      3507 2.05800E+01-3.43882E+00 9.19615E-02-4.04023E+00 4.27266E-13-1.89425E-13
 -1      3508 2.18593E+01-3.95979E+00-5.94391E-02-3.41680E+00 4.10408E-13-1.80111E-13
 -1      3509 2.25650E+01-3.37776E+00 2.83860E-02-2.40016E+00 2.82540E-13-2.04244E-13
 -1      3510 1.93704E+01-2.82510E+00 3.73618E-02-4.00984E+00 3.84703E-13-1.41798E-13
 -1      3511 1.91661E+01 4.79418E-01-5.09622E-03 1.89517E+00-1.73912E-13 2.85492E-15
 -1      3512 1.92306E+01 3.07135E-01 1.17092E-02 2.05040E+00-2.18678E-13-4.25465E-14
 -1      3513 1.91334E+01 5.02415E-02-2.89779E-03 2.28516E+00-2.32883E-13 1.08727E-14
 -1      3514 1.93262E+01-2.75069E-01 2.06917E-02 2.45046E+00-1.74025E-13 2.14239E-14
 -1      3515 1.84576E+01 3.34637E-01-3.38429E-03 2.17675E+00-1.85413E-13-9.85597E-14
 -1      3516 1.94514E+01 7.26120E-01-4.91299E-03 1.30430E+00-1.84518E-14 9.70592E-14
 -1      3517 1.94306E+01 7.16293E-01 4.08141E-03 1.42856E+00-5.03464E-14 1.26676E-13
 -1      3518 1.95936E+01 6.97549E-01-4.32575E-03 1.07391E+00-1.03136E-13 2.30872E-13
 -1      3519 1.95687E+01 7.21311E-01 2.63098E-03 1.18432E+00-6.50404E-14 1.65488E-13
 -1      3520 1.92007E+01 8.30394E-01 3.96133E-03 1.18247E+00-1.31669E-13 2.27146E-13
 -1      3521 1.97115E+01 6.28173E-01-3.69797E-03 8.75502E-01-2.75180E-14 2.50543E-13
 -1      3522 1.96904E+01 6.67989E-01 1.90767E-03 9.72630E-01 2.70750E-15 3.20242E-13
 -1      3523 1.94043E+01 7.76314E-01 3.56956E-03 9.70819E-01-7.42647E-14 2.26767E-13
 -1      3524 1.98030E+01 5.42508E-01-3.09874E-03 7.05027E-01-9.32253E-15 1.05478E-13
 -1      3525 1.97881E+01 5.87856E-01 1.56094E-03 7.89270E-01-3.48190E-14 1.41895E-13
 -1      3526 1.95674E+01 6.89247E-01 2.94743E-03 7.91154E-01 3.68256E-15 2.04161E-13
 -1      3527 1.98710E+01 4.54662E-01-2.55522E-03 5.59978E-01-9.64833E-14 1.57428E-13
 -1      3528 1.98619E+01 4.99578E-01 1.37682E-03 6.31809E-01-2.34458E-14 1.22446E-13
 -1      3529 1.96935E+01 5.90630E-01 2.31417E-03 6.37628E-01-1.42505E-14 1.00049E-13
 -1      3530 1.99197E+01 3.72267E-01-2.07556E-03 4.38272E-01-4.40725E-14 2.52843E-13
 -1      3531 1.99152E+01 4.13603E-01 1.24369E-03 4.98437E-01-1.02827E-13 1.38900E-13
 -1      3532 1.97883E+01 4.92779E-01 1.74907E-03 5.07115E-01-1.24306E-13 1.05611E-13
 -1      3533 1.99534E+01 2.98976E-01-1.66119E-03 3.37729E-01-4.43068E-14 2.36156E-13
 -1      3534 1.99523E+01 3.35309E-01 1.11743E-03 3.87248E-01 1.46118E-14 2.43001E-13
 -1      3535 1.98580E+01 4.02386E-01 1.28386E-03 3.97460E-01-2.17913E-14 7.94843E-14
 -1      3536 1.99761E+01 2.36056E-01-1.31149E-03 2.55980E-01-8.41057E-15 1.28947E-13
 -1      3537 1.99770E+01 2.66995E-01 9.86080E-04 2.96055E-01-5.03810E-14 2.37678E-13
 -1      3538 1.99082E+01 3.22597E-01 9.19961E-04 3.06670E-01 1.64931E-14 5.82518E-14
 -1      3539 1.99908E+01 1.83407E-01-1.02240E-03 1.90566E-01 2.15934E-13 2.41692E-13
 -1      3540 1.99928E+01 2.09139E-01 8.52450E-04 2.22467E-01 1.18527E-13 1.97624E-13
 -1      3541 1.99435E+01 2.54358E-01 6.41215E-04 2.32660E-01 6.61413E-14 5.61945E-14
 -1      3542 1.99998E+01 1.40251E-01-7.85783E-04 1.39078E-01 3.52734E-14 1.27128E-13
 -1      3543 2.00024E+01 1.61234E-01 7.21106E-04 1.64055E-01 2.45931E-13 3.10086E-13
 -1      3544 1.99679E+01 1.97378E-01 4.36532E-04 1.73308E-01 1.70275E-13 1.81350E-13
 -1      3545 2.00050E+01 1.05523E-01-5.95358E-04 9.92156E-02-1.57568E-13 6.33408E-14
 -1      3546 2.00077E+01 1.22331E-01 5.96218E-04 1.18454E-01-1.68889E-13-2.13478E-14
 -1      3547 1.99843E+01 1.50741E-01 2.88094E-04 1.26513E-01 6.94533E-14 1.60843E-13
 -1      3548 2.00077E+01 7.80340E-02-4.44517E-04 6.88622E-02 3.02145E-14 5.48911E-14
 -1      3549 2.00103E+01 9.12821E-02 4.83040E-04 8.34349E-02-8.08772E-14 1.16271E-13
 -1      3550 1.99949E+01 1.13254E-01 1.81976E-04 9.02329E-02-1.19616E-13 8.64187E-14
 -1      3551 2.00087E+01 5.66077E-02-3.26454E-04 4.61549E-02-2.44205E-15 3.20263E-14
 -1      3552 2.00110E+01 6.68908E-02 3.84016E-04 5.69975E-02 9.84726E-14 2.50888E-14
 -1      3553 2.00014E+01 8.36110E-02 1.08989E-04 6.25770E-02 3.28984E-14 2.89026E-14
 -1      3554 2.00087E+01 4.01670E-02-2.35107E-04 2.94932E-02-2.68896E-13 2.39912E-13
 -1      3555 2.00106E+01 4.80231E-02 2.99432E-04 3.74039E-02-2.17752E-13 9.05968E-14
 -1      3556 2.00052E+01 6.05303E-02 5.94841E-05 4.18770E-02-8.09866E-14 1.13904E-13
 -1      3557 2.00080E+01 2.77572E-02-1.65411E-04 1.75290E-02-8.30507E-14 2.13917E-13
 -1      3558 2.00097E+01 3.36596E-02 2.29033E-04 2.31743E-02-1.21098E-13 2.83587E-13
 -1      3559 2.00070E+01 4.28423E-02 2.67713E-05 2.66866E-02-1.98692E-13 2.01557E-13
 -1      3560 2.00071E+01 1.85536E-02-1.13081E-04 9.15112E-03-2.77253E-13 2.79919E-13
 -1      3561 2.00084E+01 2.29087E-02 1.71765E-04 1.30759E-02-6.41051E-14 2.28160E-13
 -1      3562 2.00076E+01 2.95112E-02 6.00708E-06 1.57815E-02-1.51779E-13 4.13006E-13
 -1      3563 2.00060E+01 1.18586E-02-7.44910E-05 3.46208E-03-1.79337E-13 3.30079E-14
 -1      3564 2.00071E+01 1.50085E-02 1.26113E-04 6.10362E-03-2.89323E-13 1.12937E-13
 -1      3565 2.00074E+01 1.96418E-02-6.41442E-06 8.14999E-03-1.58800E-13 1.98364E-13
 -1      3566 2.00050E+01 7.09210E-03-4.66247E-05-2.49000E-04-9.82559E-15 1.79103E-14
 -1      3567 2.00058E+01 9.32012E-03 9.04214E-05 1.45352E-03-7.71396E-14 1.14809E-13
 -1      3568 2.00068E+01 1.24768E-02-1.31393E-05 2.97359E-03-1.10591E-13-8.00960E-14
 -1      3569 2.00040E+01 3.77880E-03-2.70105E-05-2.53437E-03 2.58203E-13 1.30800E-14
 -1      3570 2.00046E+01 5.31631E-03 6.30702E-05-1.50516E-03 1.24517E-13 4.72643E-14
 -1      3571 2.00059E+01 7.38657E-03-1.60817E-05-3.96658E-04 7.84091E-14-4.58813E-14
 -1      3572 2.00031E+01 1.53273E-03-1.37114E-05-3.81421E-03-1.94626E-15 2.09203E-13
 -1      3573 2.00036E+01 2.56716E-03 4.25679E-05-3.25756E-03 1.97545E-13 1.27606E-13
 -1      3574 2.00050E+01 3.85529E-03-1.66222E-05-2.46513E-03 1.45027E-13 2.61276E-13
 -1      3575 2.00023E+01 4.25939E-05-5.01452E-06-4.39993E-03 9.77128E-14 1.27822E-13
 -1      3576 2.00026E+01 7.24545E-04 2.75467E-05-4.16833E-03 3.49914E-14 9.67901E-14
 -1      3577 2.00040E+01 1.46378E-03-1.57547E-05-3.61572E-03 6.11120E-14 2.93194E-13
 -1      3578 2.00016E+01-9.36377E-04 9.94087E-07-4.51237E-03-2.06674E-13 2.81396E-13
 -1      3579 2.00019E+01-4.96420E-04 1.48885E-05-4.50281E-03-8.72554E-14 2.63141E-13
 -1      3580 2.00030E+01-1.23331E-04-1.26458E-05-4.13255E-03-9.19000E-14 3.98974E-13
 -1      3581 1.74053E+01 2.95740E+00-1.42915E-02 8.17554E-01 5.97690E-14-4.87560E-13
 -1      3582 1.77965E+01 2.79286E+00 7.33629E-03 8.61824E-01 2.21281E-14-4.69603E-13
 -1      3583 1.80283E+01 2.30641E+00 3.98058E-03 1.08744E+00 1.74663E-14-4.40229E-13
 -1      3584 2.00040E+01-2.26453E-03-1.90915E-06 9.97528E-04 3.01806E-14 1.02467E-13
 -1      3585 2.00041E+01-2.28916E-03-7.78690E-08 3.60005E-04-3.38447E-14 9.98580E-15
 -1      3586 1.45777E+01-1.89175E-01 7.66239E-03 3.04156E+00-2.24863E-13 3.54397E-13
 -1      3587 1.31750E+01 6.11238E-01 6.14727E-02 1.86204E+00-1.57811E-13 3.39628E-13
 -1      3588 1.89207E+01-2.61761E+00 1.08329E-02 4.14595E+00-3.57252E-13 1.58248E-13
 -1      3589 1.66204E+01-1.37441E+00 1.36154E-02 3.87873E+00-3.39891E-13 3.24910E-13
 -1      3590 1.98943E+01-1.78998E+00 2.39099E-02 3.19686E+00-3.13381E-13-1.02178E-13
 -1      3591 2.06846E+01-2.47079E+00 3.98271E-02 3.18740E+00-3.31637E-13-1.15598E-13
 -1      3592 1.70524E+01-2.37371E+00 1.61962E-01-5.01192E+00-2.76723E-13-4.96179E-13
 -1      3593 1.94036E+01-3.14063E+00-4.51117E-02-4.43793E+00-2.96228E-13-2.69465E-13
 -1      3594 1.58584E+01-1.55435E+00 6.36022E-02-4.47239E+00-2.20352E-13-5.02529E-13
 -1      3595 2.08853E+01-1.58267E-01 1.98405E-02 1.28040E+00-4.94068E-14-1.72417E-13
 -1      3596 2.11757E+01-6.50606E-01-3.87181E-04 1.35878E+00 1.41100E-14-1.57155E-13
 -1      3597 1.22171E+01 8.07779E-01-5.95610E-03 5.02712E-01-6.76338E-14 3.05964E-13
 -1      3598 1.21720E+01 8.57819E-01 9.34544E-02-8.47529E-01 5.21267E-14 3.37973E-13
 -1      3599 1.26811E+01 3.38394E-01 5.94859E-02 3.20948E+00 3.08052E-13-5.77122E-13
 -1      3600 1.17317E+01 1.00141E+00 6.25547E-02 1.73663E+00 1.99236E-13-6.44471E-13
 -1      3601 1.92974E+01 6.73877E-01-5.34342E-03 1.57386E+00-1.13637E-13 4.43799E-14
 -1      3602 1.92999E+01 6.03073E-01 6.76648E-03 1.71315E+00-1.31172E-13 6.91241E-14
 -1      3603 1.86969E+01 6.79248E-01 1.67074E-03 1.75709E+00-1.80024E-13-9.03344E-14
 -1      3604 1.89594E+01 8.16583E-01 3.70901E-03 1.43759E+00-1.55137E-13 9.35037E-14
 -1      3605 1.93000E+01-6.67292E-01 4.68577E-03 2.72452E+00-2.02859E-13-1.69777E-14
 -1      3606 1.97252E+01-1.18397E+00 3.60123E-02 2.86302E+00-3.01306E-13-1.34238E-13
 -1      3607 1.83896E+01-1.16936E+00 4.85114E-03 3.34660E+00-3.10151E-13 1.18818E-13
 -1      3608 1.83191E+01-2.65116E-01-4.26112E-03 2.69902E+00-2.70250E-13 2.90106E-14
 -1      3609 2.16289E+01-1.13076E+00 2.69450E-02 1.44664E+00 4.01233E-14-1.32112E-13
 -1      3610 2.20541E+01-1.63061E+00-3.73316E-03 1.37694E+00 4.58266E-14-1.04490E-13
 -1      3611 2.19412E+01-2.02845E+00-3.57606E-02 1.84776E+00 9.02030E-14-1.13317E-13
 -1      3612 2.01495E+01 1.09747E+00-5.17648E-04 8.12214E-01-1.00251E-13-2.89602E-13
 -1      3613 2.61697E+01-6.00765E-01-2.81407E-02-1.66176E+00-1.28612E-13 1.66752E-13
 -1      3614 2.21042E+01-3.16595E+00 1.25509E-01-3.36998E+00-2.39017E-13-1.21953E-13
 -1      3615 1.97580E+01 1.24994E+00 4.48262E-04-1.38597E+00 1.48625E-13-2.10754E-13
 -1      3616 1.92873E+01 1.56514E+00 6.68587E-03-1.30157E+00 1.38358E-13-2.73128E-13
 -1      3617 1.97350E+01 9.48041E-01 3.59916E-03-1.64662E+00 1.02602E-13-2.14355E-13
 -1      3618 2.57706E+01-1.65647E+00-8.78289E-02-1.09025E+00-7.31793E-14 1.59955E-13
 -1      3619 2.36015E+01-3.29975E+00-2.15354E-02 1.88955E+00 1.18724E-13 4.96825E-14
 -1      3620 1.53552E+01-3.45357E-01-2.84903E-03 3.73927E+00 3.11125E-13-4.35880E-13
 -1      3621 1.39709E+01 8.43271E-02 7.89560E-02 3.55459E+00 3.15600E-13-5.13211E-13
 -1      3622 1.41337E+01 7.10390E-01 2.66367E-02 2.78690E+00 2.26087E-13-5.14044E-13
 -1      3623 2.59699E+01-2.61429E+00 1.32907E-02-2.29863E-01-1.79128E-14 1.51025E-13
 -1      3624 1.97295E+01 1.03980E+00-1.24660E-02 1.12809E+00-4.53164E-14-3.04992E-13
 -1      3625 2.03435E+01 6.82905E-01 9.63826E-03 1.01317E+00-9.33193E-14-2.45602E-13
 -1      3626 2.05423E+01 2.56504E-01 1.92142E-04 1.16595E+00-8.19991E-14-2.21479E-13
 -1      3627 1.85761E+01 1.59189E+00-1.20249E-02 1.36551E+00 1.43893E-14-3.83244E-13
 -1      3628 1.91579E+01 1.34375E+00 5.38376E-03 1.26567E+00-1.52756E-14-3.55326E-13
 -1      3629 1.93289E+01 8.99456E-01 7.64568E-03 1.50295E+00 1.23157E-14-3.25079E-13
 -1      3630 2.27552E+01-3.01150E+00-5.14942E-02-1.57850E+00 1.37855E-13-2.63602E-13
 -1      3631 1.63332E+01 2.84676E+00-1.13915E-02 3.69774E-01 1.13162E-13-5.03333E-13
 -1      3632 1.64525E+01 2.79085E+00 1.47040E-03 6.60586E-01 9.07171E-14-5.05064E-13
 -1      3633 2.00007E+01-1.74233E-03 1.97234E-05-4.31210E-03-1.19302E-13 1.47612E-13
 -1      3634 1.30034E+01 6.06948E-01 3.15715E-02-1.49034E+00 1.42175E-13 2.98758E-13
 -1      3635 2.00014E+01-1.54840E-03-7.35549E-06-4.27246E-03-2.12089E-13 2.27836E-13
 -1      3636 2.00014E+01-1.24409E-03 2.86675E-06-4.41348E-03-2.47326E-13 3.40362E-13
 -1      3637 2.00025E+01-1.10798E-03-5.56706E-06-4.15360E-03-3.08504E-13 3.66204E-13
 -1      3638 1.71788E+01 2.78705E+00 7.71756E-03 8.91503E-01 7.06593E-14-4.79878E-13
 -1      3639 1.16685E+01 1.28033E+00 9.86693E-02 1.02852E+00 1.58318E-13-6.54032E-13
 -1      3640 1.18189E+01 1.29664E+00 4.54011E-02 1.50643E-01 8.86478E-14-6.23800E-13
 -1      3641 1.28631E+01 1.22699E+00 4.35744E-02 1.65681E+00 1.82391E-13-6.11112E-13
 -1      3642 1.83198E+01-2.46661E+00 9.41517E-02 4.75945E+00 3.62189E-13-1.75148E-13
 -1      3643 1.72768E+01-1.68566E+00 2.34659E-02 4.41907E+00 3.54047E-13-2.87294E-13
 -1      3644 2.00038E+01-2.24590E-03 4.49066E-06 1.65362E-03 9.99934E-14 8.19958E-14
 -1      3645 2.00044E+01-1.75838E-03 3.31366E-06 1.34812E-03-3.20444E-14 5.64254E-14
 -1      3646 2.00035E+01-2.18223E-03-8.89817E-06 2.24210E-03-1.52526E-14 5.44167E-14
 -1      3647 2.08997E+01-8.94485E-01-2.64450E-02 1.76025E+00 3.83474E-14-1.65833E-13
 -1      3648 2.00041E+01-2.29178E-03 3.24782E-07-3.19908E-04 1.10829E-13-1.99393E-13
 -1      3649 2.00040E+01-2.27535E-03-1.40787E-06-9.53641E-04 1.37596E-13-3.35995E-13
 -1      3650 2.00046E+01-1.77587E-03 3.63828E-06 2.33535E-05 3.80416E-14-5.72946E-14
 -1      3651 1.16532E+01 4.01491E-01 1.30245E-01-2.63944E+00-9.40012E-14-7.20923E-13
 -1      3652 1.30755E+01-4.09641E-02 1.48738E-03-3.25891E+00-1.23209E-13-6.06633E-13
 -1      3653 1.20230E+01 9.42015E-01 3.76652E-02-1.70158E+00-3.77129E-15-6.58119E-13
 -1      3654 1.98851E+01-7.30947E-01 2.29658E-02-2.74301E+00-8.36939E-14-2.13361E-13
 -1      3655 1.94991E+01-9.36854E-02 1.53585E-02-2.50422E+00-2.94014E-15-2.35555E-13
 -1      3656 2.00031E+01-2.16535E-03 3.58106E-06-2.79755E-03 2.13000E-14-9.21817E-14
 -1      3657 2.00026E+01-2.05379E-03-5.22396E-06-3.28355E-03 3.72444E-14-2.96819E-14
 -1      3658 1.74434E+01-8.72376E-01 2.29355E-02 3.30207E+00-2.43713E-13 2.72506E-13
 -1      3659 1.57229E+01-4.71491E-01 5.02726E-02 3.32925E+00-2.62661E-13 3.79793E-13
 -1      3660 1.56366E+01 1.52962E-01 1.88782E-02 2.60828E+00-1.75102E-13 3.08620E-13
 -1      3661 1.73058E+01-3.95383E-01-1.88684E-02 2.94128E+00-2.68866E-13 2.03097E-13
 -1      3662 2.00029E+01-2.02812E-03 6.64463E-06 3.08216E-03-1.83867E-13-2.71468E-13
 -1      3663 1.75726E+01 2.70485E+00-1.51870E-04-6.38945E-01 1.34780E-13-4.21044E-13
 -1      3664 1.37898E+01 8.39394E-01 4.79933E-02 1.05921E+00-5.68642E-14 2.96173E-13
 -1      3665 2.06479E+01-2.60229E+00 2.81144E-02-3.54734E+00-2.23675E-13-1.97182E-13
 -1      3666 2.01982E+01 1.32208E-01-1.79048E-02 1.48977E+00-2.39232E-14-2.14639E-13
 -1      3667 1.43820E+01-2.54954E-01-9.36388E-03-3.12730E+00 2.32443E-13 1.57790E-13
 -1      3668 1.49094E+01-9.64495E-01 8.46396E-02-4.01808E+00 2.44856E-13 3.11487E-14
 -1      3669 1.64056E+01-1.39411E+00-3.07506E-02-3.93092E+00 2.69412E-13 7.50094E-15
 -1      3670 1.63867E+01 2.84140E+00-1.28065E-02-6.25866E-02 1.06169E-13-5.14166E-13
 -1      3671 1.61238E+01 2.63842E+00 2.19155E-02 1.50506E-01 9.80789E-14-5.05745E-13
 -1      3672 1.66342E+01 2.79984E+00 1.20742E-02-3.60594E-01 1.07712E-13-4.92299E-13
 -1      3673 1.95957E+01-2.97989E+00-8.90256E-03 4.41105E+00 3.09235E-13-9.93441E-14
 -1      3674 2.00029E+01-1.57343E-03 2.19587E-06-3.59229E-03-1.41568E-14 1.29741E-13
 -1      3675 2.00022E+01-1.90642E-03 7.45520E-06-3.75701E-03 3.69034E-14 1.46278E-13
 -1      3676 1.85805E+01 1.85988E+00-8.07841E-03-1.21291E+00 1.20299E-13-3.32903E-13
 -1      3677 1.98840E+01-1.74994E+00 4.62041E-02-3.44357E+00-1.87805E-13-2.29020E-13
 -1      3678 1.83434E+01-1.13139E+00 1.02715E-03-3.60671E+00-1.55181E-13-3.27299E-13
 -1      3679 2.00036E+01-1.61596E-03 3.79612E-06 2.86086E-03-9.18581E-14-3.47466E-13
 -1      3680 2.18626E+01-2.91546E+00 4.94167E-02-2.51658E+00 2.88162E-13-1.06379E-13
 -1      3681 1.63907E+01 2.43046E+00 1.28214E-02 9.88697E-01 9.21177E-14-4.89599E-13
 -1      3682 1.67428E+01 2.56635E+00-1.76864E-02 1.01170E+00 9.45511E-14-4.78922E-13
 -1      3683 1.71654E+01 2.39723E+00 1.01643E-02 1.18252E+00 7.05617E-14-4.49915E-13
 -1      3684 2.02594E+01-1.35315E+00 1.93102E-02-2.18188E+00 1.52742E-13-2.47706E-14
 -1      3685 1.98792E+01-9.52479E-01 1.14301E-02-2.11019E+00 9.15257E-14 2.89374E-14
 -1      3686 1.97035E+01-5.89139E-01 1.35505E-02-1.90492E+00 9.91859E-14 8.49439E-14
 -1      3687 1.94887E+01-3.01888E-01 3.25302E-03-1.78582E+00 1.06315E-13 7.42029E-14
 -1      3688 1.91925E+01-6.65474E-01-1.00550E-02-2.22301E+00 1.48210E-13 1.16214E-13
 -1      3689 1.94505E+01-6.46257E-02 9.65665E-03-1.59915E+00 4.03362E-14 1.39673E-13
 -1      3690 1.93443E+01 1.18423E-01-2.89888E-04-1.47698E+00 1.29968E-14 9.94850E-14
 -1      3691 1.90111E+01-7.07345E-02-7.78576E-03-1.77592E+00 7.88179E-14 6.13468E-14
 -1      3692 1.93711E+01 2.63932E-01 6.54233E-03-1.32164E+00 1.45012E-18 1.39231E-13
 -1      3693 1.93315E+01 3.68748E-01-1.85220E-03-1.20958E+00 6.73287E-14 1.09628E-13
 -1      3694 1.90127E+01 2.96650E-01-3.39216E-03-1.41717E+00 2.46685E-14 1.06813E-13
 -1      3695 1.93894E+01 4.47407E-01 4.42551E-03-1.08239E+00 7.73035E-14-2.81852E-15
 -1      3696 1.93872E+01 4.96730E-01-2.40657E-03-9.83659E-01 4.25793E-16 9.66643E-15
 -1      3697 1.90992E+01 5.02596E-01-8.08688E-04-1.12853E+00 2.34955E-14 1.20281E-13
 -1      3698 1.94562E+01 5.29189E-01 2.95515E-03-8.80075E-01-6.21813E-14-4.34883E-14
 -1      3699 1.94731E+01 5.41364E-01-2.50334E-03-7.94346E-01-9.59900E-14-4.14672E-14
 -1      3700 1.92231E+01 5.95388E-01 5.22406E-04-8.97823E-01-8.68301E-14 3.80585E-14
 -1      3701 1.95425E+01 5.43270E-01 2.01645E-03-7.09733E-01 8.04177E-15 6.02909E-14
 -1      3702 1.95674E+01 5.31853E-01-2.39034E-03-6.36119E-01 6.92908E-14 1.33419E-13
 -1      3703 1.93564E+01 6.13437E-01 1.18251E-03-7.12294E-01 2.15930E-14 2.33114E-13
 -1      3704 1.96314E+01 5.15098E-01 1.41189E-03-5.67042E-01 2.32865E-14 1.23568E-13
 -1      3705 1.96577E+01 4.90158E-01-2.16668E-03-5.04491E-01 4.91179E-14 9.48978E-14
 -1      3706 1.94842E+01 5.84206E-01 1.43923E-03-5.62356E-01 3.05764E-14 1.68203E-13
 -1      3707 1.97135E+01 4.63336E-01 1.02563E-03-4.48217E-01-4.62045E-14 4.84537E-15
 -1      3708 1.97379E+01 4.31951E-01-1.89945E-03-3.95659E-01-9.23658E-14-5.85375E-14
 -1      3709 1.95984E+01 5.28026E-01 1.44781E-03-4.40936E-01-6.27108E-14 1.63008E-13
 -1      3710 1.97847E+01 4.00946E-01 7.75796E-04-3.50028E-01 6.78474E-15-1.15396E-13
 -1      3711 1.98055E+01 3.67844E-01-1.62206E-03-3.06421E-01 4.85845E-14-1.25741E-13
 -1      3712 1.96958E+01 4.59240E-01 1.32824E-03-3.42633E-01-5.95116E-14-3.34352E-14
 -1      3713 1.98436E+01 3.36494E-01 6.06106E-04-2.69668E-01 1.31854E-13-7.43539E-14
 -1      3714 1.98604E+01 3.04593E-01-1.35674E-03-2.33960E-01 3.47212E-13-1.14977E-13
 -1      3715 1.97759E+01 3.87445E-01 1.15738E-03-2.63353E-01 1.17913E-13-4.65475E-16
 -1      3716 1.98905E+01 2.75139E-01 4.88803E-04-2.04649E-01 3.05968E-13-2.72847E-13
 -1      3717 1.99035E+01 2.46111E-01-1.10881E-03-1.75858E-01 2.05529E-13-2.22270E-13
 -1      3718 1.98398E+01 3.18542E-01 9.69953E-04-1.99797E-01 2.21380E-13 3.49198E-14
 -1      3719 1.99266E+01 2.19843E-01 3.99424E-04-1.52770E-01 1.26572E-13-2.73766E-13
 -1      3720 1.99363E+01 1.94538E-01-8.85333E-04-1.29898E-01 7.00140E-14-2.63470E-13
 -1      3721 1.98895E+01 2.55905E-01 7.76004E-04-1.49385E-01 1.29777E-13-7.53650E-14
 -1      3722 1.99537E+01 1.71987E-01 3.28386E-04-1.11927E-01-7.46561E-15-3.09023E-13
 -1      3723 1.99605E+01 1.50633E-01-6.95625E-04-9.40283E-02-5.23722E-14-2.42384E-13
 -1      3724 1.99270E+01 2.01342E-01 6.08998E-04-1.09833E-01 9.71365E-14-1.99368E-13
 -1      3725 1.99732E+01 1.31829E-01 2.69306E-04-8.02208E-02-5.16753E-14-2.15541E-13
 -1      3726 1.99779E+01 1.14269E-01-5.38694E-04-6.64406E-02-1.04939E-13-2.18634E-13
 -1      3727 1.99546E+01 1.55263E-01 4.61036E-04-7.91498E-02-7.21460E-14-8.82035E-14
 -1      3728 1.99869E+01 9.89722E-02 2.18566E-04-5.60018E-02-1.63675E-13-3.24383E-13
 -1      3729 1.99899E+01 8.48631E-02-4.08676E-04-4.55770E-02-7.34132E-14-2.46904E-13
 -1      3730 1.99743E+01 1.17335E-01 3.41732E-04-5.56769E-02-1.37940E-13-2.31527E-13
 -1      3731 1.99961E+01 7.27007E-02 1.75085E-04-3.78227E-02-4.11209E-14-2.96592E-13
 -1      3732 1.99979E+01 6.16097E-02-3.03293E-04-3.00804E-02 6.17466E-14-3.53433E-13
 -1      3733 1.99880E+01 8.68128E-02 2.44989E-04-3.80148E-02-4.29155E-14-2.87143E-13
 -1      3734 2.00019E+01 5.21427E-02 1.38805E-04-2.44268E-02 2.47361E-13-3.28699E-13
 -1      3735 2.00028E+01 4.36028E-02-2.19973E-04-1.87919E-02 2.13876E-13-2.43959E-13
 -1      3736 1.99970E+01 6.27809E-02 1.69792E-04-2.49498E-02 1.07236E-13-2.93246E-13
 -1      3737 2.00053E+01 3.63842E-02 1.08636E-04-1.47573E-02 8.25180E-14-2.61456E-13
 -1      3738 2.00056E+01 2.99424E-02-1.55498E-04-1.07498E-02 7.01892E-14-2.58811E-13
 -1      3739 2.00026E+01 4.42427E-02 1.13038E-04-1.54665E-02 1.62010E-13-3.99495E-13
 -1      3740 2.00070E+01 2.45518E-02 8.37312E-05-7.94364E-03-1.45134E-14-2.70379E-13
 -1      3741 2.00069E+01 1.97944E-02-1.06613E-04-5.17088E-03-1.28061E-13-3.07781E-13
 -1      3742 2.00058E+01 3.02292E-02 7.13175E-05-8.73373E-03-2.87243E-14-5.28042E-13
 -1      3743 2.00075E+01 1.58557E-02 6.34288E-05-3.28080E-03 5.13522E-14-2.01396E-13
 -1      3744 2.00071E+01 1.24205E-02-7.03298E-05-1.42794E-03 1.59696E-13-6.03766E-14
 -1      3745 2.00073E+01 1.98547E-02 4.15133E-05-4.07994E-03 8.35287E-14-3.22473E-13
 -1      3746 2.00072E+01 9.60875E-03 4.71403E-05-2.08296E-04 8.62695E-14-4.00926E-15
 -1      3747 2.00067E+01 7.18726E-03-4.40383E-05 9.72389E-04-2.73067E-14 7.77244E-14
 -1      3748 2.00076E+01 1.23414E-02 2.09186E-05-9.70766E-04 1.97064E-13-1.29808E-13
 -1      3749 2.00065E+01 5.22889E-03 3.43582E-05 1.71120E-03-2.56783E-13 1.75496E-13
 -1      3750 2.00059E+01 3.56437E-03-2.52913E-05 2.41062E-03-2.45590E-13 6.34135E-14
 -1      3751 2.00073E+01 7.02638E-03 7.26929E-06 1.01191E-03-1.20177E-13 1.09239E-13
 -1      3752 2.00055E+01 2.23172E-03 2.40830E-05 2.81242E-03-1.59151E-13-6.42900E-14
 -1      3753 2.00050E+01 1.12884E-03-8.71316E-06 3.16871E-03-1.23414E-13-6.67459E-14
 -1      3754 2.00064E+01 3.35607E-03-1.87525E-06 2.18865E-03-3.35163E-13 4.88359E-14
 -1      3755 1.94309E+01 7.20920E-01-3.80346E-03 6.70387E-01-1.06969E-14 1.28832E-13
 -1      3756 1.93603E+01 7.74856E-01 2.28885E-04 7.47664E-01-8.32500E-14 5.24776E-14
 -1      3757 1.78033E+01 6.59937E-01-1.49119E-02 1.87193E+00-1.78509E-13 2.17604E-14
 -1      3758 1.77132E+01 4.68780E-01 1.01277E-02 2.10997E+00-2.03871E-13 3.77370E-14
 -1      3759 2.10084E+01-1.58627E+00 3.19695E-02 2.39732E+00 1.30818E-13-1.58140E-13
 -1      3760 2.16254E+01-2.24840E+00 2.65240E-03 2.42097E+00 1.55527E-13-1.29789E-13
 -1      3761 1.92266E+01 8.22777E-01-4.76014E-03 8.20928E-01-9.53126E-14 9.45409E-14
 -1      3762 1.91368E+01 8.68813E-01 5.10727E-04 9.10680E-01-1.22915E-13 3.94991E-14
 -1      3763 1.91280E+01 8.74425E-01 4.88975E-03 6.91455E-01-5.53916E-14-3.53112E-14
 -1      3764 1.89663E+01 9.02523E-01-6.08245E-03 9.98525E-01-1.19128E-13 6.86617E-14
 -1      3765 1.88575E+01 9.29059E-01 1.26559E-03 1.10459E+00-1.15448E-13 6.57527E-14
 -1      3766 1.88369E+01 9.75205E-01 6.28929E-03 8.37294E-01-9.29248E-14-4.47690E-14
 -1      3767 1.95883E+01 6.13268E-01-3.07454E-03 5.41346E-01-8.34372E-14 1.19858E-13
 -1      3768 1.95348E+01 6.68245E-01 2.27400E-04 6.07865E-01-1.01761E-14 9.73314E-14
 -1      3769 1.93550E+01 7.59343E-01 3.82202E-03 5.67183E-01 3.13619E-14 3.48770E-14
 -1      3770 1.97077E+01 5.09545E-01-2.49140E-03 4.31224E-01-6.28807E-14 1.37869E-14
 -1      3771 1.96683E+01 5.61473E-01 2.95739E-04 4.87934E-01-3.89738E-14 3.16313E-14
 -1      3772 1.95301E+01 6.42630E-01 2.95013E-03 4.59903E-01 1.26111E-14 8.30522E-14
 -1      3773 1.97969E+01 4.15043E-01-2.01069E-03 3.38348E-01-4.75397E-15-1.99139E-14
 -1      3774 1.97685E+01 4.61762E-01 3.65076E-04 3.85996E-01-5.80327E-14-4.13499E-15
 -1      3775 1.96634E+01 5.32275E-01 2.24509E-03 3.67643E-01 5.15600E-15-1.45333E-14
 -1      3776 1.98625E+01 3.32205E-01-1.60506E-03 2.61205E-01-3.95409E-14 1.90776E-14
 -1      3777 1.98426E+01 3.72794E-01 4.05917E-04 3.00589E-01-2.48340E-14-7.93819E-15
 -1      3778 1.97636E+01 4.32700E-01 1.69778E-03 2.89298E-01-6.81980E-14-1.67753E-13
 -1      3779 1.99100E+01 2.61609E-01-1.26832E-03 1.98130E-01-1.17399E-14 1.31670E-13
 -1      3780 1.98964E+01 2.95990E-01 4.16923E-04 2.30158E-01-5.35223E-14 8.12983E-14
 -1      3781 1.98380E+01 3.45844E-01 1.26946E-03 2.23830E-01-7.80225E-14 1.42036E-14
 -1      3782 1.99438E+01 2.02726E-01-9.92298E-04 1.47452E-01 1.88272E-13 2.22287E-13
 -1      3783 1.99348E+01 2.31250E-01 4.01681E-04 1.73041E-01 1.21290E-13 1.48444E-13
 -1      3784 1.98924E+01 2.72011E-01 9.45181E-04 1.70016E-01 3.86645E-14 1.65542E-13
 -1      3785 1.99674E+01 1.54589E-01-7.67456E-04 1.07463E-01-2.95839E-14 3.16867E-13
 -1      3786 1.99617E+01 1.77792E-01 3.64177E-04 1.27554E-01 1.42655E-13 3.58350E-13
 -1      3787 1.99315E+01 2.10492E-01 6.79527E-04 1.26638E-01 6.23865E-14 2.66388E-13
 -1      3788 1.99834E+01 1.15945E-01-5.85017E-04 7.64393E-02-8.62099E-14 2.21432E-13
 -1      3789 1.99800E+01 1.34495E-01 3.17775E-04 9.19521E-02-1.27430E-13 2.77592E-13
 -1      3790 1.99591E+01 1.60285E-01 4.80194E-04 9.23173E-02-3.69721E-14 4.07036E-13
 -1      3791 1.99940E+01 8.54054E-02-4.38915E-04 5.27958E-02-1.34801E-15 2.29294E-13
 -1      3792 1.99921E+01 1.00006E-01 2.69771E-04 6.45605E-02-2.75640E-14 2.05298E-13
 -1      3793 1.99781E+01 1.20024E-01 3.36350E-04 6.56280E-02-4.49322E-14 3.56673E-13
 -1      3794 2.00006E+01 6.16532E-02-3.23251E-04 3.51204E-02-1.42303E-13 3.30821E-13
 -1      3795 1.99998E+01 7.29613E-02 2.22268E-04 4.38756E-02-1.43755E-14 2.42180E-13
 -1      3796 1.99908E+01 8.82347E-02 2.29792E-04 4.52681E-02-3.86998E-14 3.27998E-13
 -1      3797 2.00045E+01 4.34798E-02-2.33138E-04 2.21738E-02-1.72801E-13 3.47971E-13
 -1      3798 2.00043E+01 5.20941E-02 1.78747E-04 2.85577E-02-1.44391E-13 3.46443E-13
 -1      3799 1.99990E+01 6.35412E-02 1.51990E-04 3.00416E-02-1.43454E-13 3.74478E-13
 -1      3800 2.00065E+01 2.98102E-02-1.64127E-04 1.29039E-02-2.09682E-13 3.91667E-13
 -1      3801 2.00067E+01 3.62594E-02 1.40662E-04 1.74527E-02-2.07865E-13 3.38974E-13
 -1      3802 2.00039E+01 4.46766E-02 9.63150E-05 1.88892E-02-1.92312E-13 4.35184E-13
 -1      3803 2.00072E+01 1.97147E-02-1.12201E-04 6.43992E-03-5.46402E-14 1.67906E-13
 -1      3804 2.00077E+01 2.44532E-02 1.08372E-04 9.59435E-03-4.61168E-14 3.88944E-13
 -1      3805 2.00065E+01 3.05124E-02 5.72726E-05 1.09081E-02-8.57806E-14 3.18123E-13
 -1      3806 2.00071E+01 1.24064E-02-7.38685E-05 2.07750E-03-2.31607E-15 7.57262E-14
 -1      3807 2.00077E+01 1.58171E-02 8.17193E-05 4.19195E-03-1.00878E-13 7.39135E-14
 -1      3808 2.00076E+01 2.00730E-02 3.05537E-05 5.34884E-03-4.93777E-15 1.79667E-13
 -1      3809 2.00065E+01 7.23150E-03-4.61855E-05-7.41782E-04-1.22431E-14 9.49915E-14
 -1      3810 2.00071E+01 9.63114E-03 6.02557E-05 6.11970E-04 6.71362E-14 7.24861E-14
 -1      3811 2.00077E+01 1.25329E-02 1.28480E-05 1.60388E-03 6.05035E-14 1.28706E-13
 -1      3812 2.00057E+01 3.65387E-03-2.67114E-05-2.45132E-03 7.91975E-14 2.66309E-13
 -1      3813 2.00062E+01 5.30132E-03 4.33604E-05-1.64269E-03 6.18553E-14 9.66969E-14
 -1      3814 2.00071E+01 7.20651E-03 1.63405E-06-8.09006E-04-2.37751E-15 1.44882E-13
 -1      3815 2.00047E+01 1.23891E-03-1.31392E-05-3.38047E-03 2.51590E-15 3.35695E-13
 -1      3816 2.00052E+01 2.34363E-03 3.03247E-05-2.95417E-03 2.15788E-14 3.75126E-13
 -1      3817 2.00062E+01 3.53226E-03-4.92096E-06-2.26431E-03 3.52371E-14 1.65717E-13
 -1      3818 2.00037E+01-3.56875E-04-2.23638E-06-3.76862E-03-2.08133E-13 4.83005E-13
 -1      3819 2.00042E+01 3.61153E-04 1.88773E-05-3.61026E-03-1.51415E-14 3.75309E-13
 -1      3820 2.00052E+01 1.05478E-03-8.69871E-06-3.04661E-03-2.82528E-14 5.15886E-13
 -1      3821 1.75552E+01 2.10817E+00-1.75354E-02 1.33032E+00 7.25407E-14-4.24748E-13
 -1      3822 1.81117E+01 1.87192E+00 5.20489E-03 1.35356E+00 3.71969E-14-4.04732E-13
 -1      3823 1.81639E+01 1.44588E+00 4.18972E-03 1.63537E+00 5.04386E-14-3.75040E-13
 -1      3824 1.72040E+01 1.95964E+00 6.30278E-03 1.49394E+00 7.69007E-14-4.20653E-13
 -1      3825 2.00035E+01-2.20152E-03-2.78079E-06-2.20229E-03 2.04558E-13-8.86292E-14
 -1      3826 2.00038E+01-1.74157E-03 4.18485E-06-2.54992E-03 9.29722E-14 5.96719E-14
 -1      3827 2.00038E+01-2.26299E-03 1.91919E-06-1.61780E-03 1.63082E-13-1.76365E-13
 -1      3828 1.82583E+01 1.54677E+00-1.29774E-02-1.52230E+00 9.47760E-14-3.39429E-13
 -1      3829 1.78176E+01 2.17668E+00 1.85984E-02-1.10441E+00 1.27195E-13-3.71125E-13
 -1      3830 2.00032E+01-1.20984E-03 1.83965E-07-3.65808E-03-4.99874E-14 2.40036E-13
 -1      3831 2.00034E+01-7.93123E-04 7.58471E-06-3.75232E-03-2.43322E-13 3.10051E-13
 -1      3832 2.00043E+01-4.41277E-04-1.28255E-05-3.29216E-03-8.31409E-14 3.93002E-13
 -1      3833 2.00037E+01-1.34149E-03-7.81251E-06-3.21971E-03-1.62722E-14 7.83905E-14
 -1      3834 1.47145E+01 8.09519E-01-1.22569E-02 1.53964E+00-9.83858E-14 2.29977E-13
 -1      3835 1.40695E+01 1.09285E+00 1.60889E-02 3.05312E-01 1.30195E-14 1.99910E-13
 -1      3836 2.01382E+01-3.58029E-01 2.54567E-02 2.00664E+00 3.39156E-14-1.95944E-13
 -1      3837 2.05269E+01-9.64311E-01 1.06647E-02 2.17585E+00 8.11742E-14-2.01299E-13
 -1      3838 1.99142E+01-1.21351E+00-4.24078E-02 2.73892E+00 1.34008E-13-1.63756E-13
 -1      3839 1.96424E+01 2.77339E-01 1.31810E-02-2.18240E+00 5.17811E-14-2.31150E-13
 -1      3840 1.95850E+01 6.55142E-01 1.21970E-03-1.93180E+00 7.29911E-14-2.19119E-13
 -1      3841 1.90293E+01 9.82682E-01 1.01983E-02-1.87802E+00 8.41577E-14-2.87742E-13
 -1      3842 1.87182E+01 2.40580E-01-8.87558E-03-2.49861E+00 1.15732E-14-3.07551E-13
 -1      3843 1.79405E+01-1.42526E+00-3.35436E-02 3.89919E+00 2.71510E-13-2.65760E-13
 -1      3844 1.66465E+01-7.59320E-01 6.97561E-02 3.96198E+00 3.11443E-13-3.71436E-13
 -1      3845 1.62673E+01-5.53568E-02 2.35764E-02 3.36369E+00 2.27573E-13-4.10037E-13
 -1      3846 2.13609E+01-3.26816E+00 5.85367E-02 3.73095E+00 2.55218E-13-1.97290E-14
 -1      3847 2.04607E+01-2.63715E+00 2.76534E-02 3.66948E+00 2.50683E-13-9.36091E-14
 -1      3848 2.00014E+01-1.72974E-03-5.49079E-06-4.12151E-03-5.75948E-14 2.10401E-13
 -1      3849 1.71879E+01 2.38598E+00-1.84399E-02-8.98271E-01 1.01362E-13-4.12154E-13
 -1      3850 2.38596E+01-3.99344E+00-5.06241E-03 2.52967E+00 1.69025E-13 8.53870E-14
 -1      3851 2.31074E+01-4.18912E+00 2.38112E-02 3.45922E+00 2.40225E-13 3.96549E-14
 -1      3852 1.95261E+01 5.23395E-01 1.37134E-02 1.69540E+00 2.50935E-14-3.01189E-13
 -1      3853 1.98283E+01 3.22504E-02 4.65005E-03 1.85259E+00 2.61787E-14-2.61676E-13
 -1      3854 1.92618E+01-5.33525E-02-1.29085E-02 2.25620E+00 7.46792E-14-2.97547E-13
 -1      3855 1.88087E+01 7.87951E-01-1.30615E-02 1.83681E+00 6.41520E-14-3.45698E-13
 -1      3856 1.38990E+01 8.39254E-01-4.76709E-03-1.13063E+00 6.54832E-14 1.65925E-13
 -1      3857 1.40710E+01 5.08826E-01 7.64165E-02-2.26488E+00 1.89877E-13 2.33683E-13
 -1      3858 2.17844E+01-3.71283E+00 3.94830E-02 3.82497E+00 2.53114E-13-1.51563E-14
 -1      3859 2.22463E+01-3.31850E+00-4.32817E-03 2.99674E+00 2.36151E-13 1.51641E-14
 -1      3860 1.57234E+01 2.23298E+00-1.91941E-02 1.02731E+00 1.00583E-13-4.98443E-13
 -1      3861 1.61459E+01 2.06273E+00 8.52134E-03 1.37562E+00 9.12772E-14-4.86985E-13
 -1      3862 2.00044E+01-1.77523E-03 3.41655E-06-1.30573E-03 1.94364E-13-1.82971E-13
 -1      3863 1.75007E+01 2.55102E-01-1.76273E-02 2.34918E+00-1.74097E-13 6.30576E-14
 -1      3864 1.74643E+01-4.98499E-02 9.06286E-03 2.63944E+00-2.66427E-13 1.32176E-13
 -1      3865 1.66032E+01 1.68839E-01 1.41471E-03 2.56914E+00-2.13419E-13 2.76557E-13
 -1      3866 1.69207E+01 6.33117E-01 7.56687E-03 2.02511E+00-1.68803E-13 1.19510E-13
 -1      3867 2.12328E+01-2.33666E+00 1.37446E-02-2.33902E+00 1.93300E-13-4.68033E-14
 -1      3868 2.06360E+01-1.81069E+00 2.53475E-02-2.36740E+00 1.65232E-13-4.62920E-14
 -1      3869 1.85403E+01-2.00479E+00 9.13026E-02-3.86919E+00 2.82356E-13-1.60610E-13
 -1      3870 2.02097E+01-2.74422E+00-1.09976E-03-3.42549E+00 3.12065E-13-1.58542E-13
 -1      3871 1.97055E+01-1.53121E+00-3.31537E-03-2.70796E+00 1.53979E-13-2.25312E-14
 -1      3872 2.00056E+01 1.07106E-03-7.72006E-06 2.70631E-03-3.34636E-13-4.60791E-13
 -1      3873 2.00047E+01 4.04192E-04 1.07473E-05 3.24561E-03-2.08275E-13-3.24009E-13
 -1      3874 2.00044E+01-2.10022E-04-7.31851E-07 3.28789E-03-2.82363E-13-4.43079E-13
 -1      3875 1.49454E+01-4.88430E-01 1.18723E-01-3.89665E+00-1.70666E-13-5.20074E-13
 -1      3876 1.70609E+01-1.30708E+00 2.02983E-02-4.01392E+00-2.09944E-13-4.29580E-13
 -1      3877 2.00042E+01-7.00577E-04 6.97481E-06 3.13052E-03-2.31502E-13-4.24281E-13
 -1      3878 2.00039E+01-1.19363E-03-1.06231E-07 3.07760E-03-2.21278E-13-4.00015E-13
 -1      3879 2.00045E+01-1.30391E-03-2.30429E-06 2.25048E-03-1.14723E-13-1.29598E-13
 -1      3880 2.00050E+01-3.22694E-04-6.41583E-06 2.62330E-03-3.02182E-13-2.80622E-13
 -1      3881 2.00042E+01-1.30585E-03 9.94712E-07-2.61663E-03 9.64267E-14 1.65296E-13
 -1      3882 2.00046E+01-8.51605E-04 9.79093E-06-2.67785E-03 7.57242E-14 2.71634E-13
 -1      3883 2.00046E+01-1.33227E-03-7.52199E-06-2.03944E-03 2.25586E-13 3.84444E-14
 -1      3884 1.84698E+01 1.04085E+00 8.70830E-03 1.01658E+00-1.18397E-13-7.08953E-14
 -1      3885 1.86430E+01 9.32872E-01-7.94099E-03 1.21411E+00-1.81743E-13 7.96412E-14
 -1      3886 1.85210E+01 9.22117E-01 3.17125E-03 1.34358E+00-1.75623E-13-1.47370E-14
 -1      3887 1.52393E+01 1.14723E+00 1.52567E-03 1.16330E-01-6.61797E-14 1.59044E-13
 -1      3888 1.44447E+01 1.12315E+00 3.38497E-02-3.85096E-01-2.95163E-15 1.77385E-13
 -1      3889 1.50851E+01 9.10270E-01-2.14990E-02-1.12543E+00 2.29192E-14 1.66667E-13
 -1      3890 2.00048E+01-1.28590E-03-5.59487E-06 1.57875E-03-1.13490E-13-5.70600E-15
 -1      3891 2.00050E+01-1.29047E-03-3.34104E-06 9.54597E-04-8.90057E-14 1.60162E-13
 -1      3892 2.00052E+01-7.79535E-04 1.24972E-05 1.83472E-03-2.07787E-13-1.01349E-13
 -1      3893 1.81039E+01 1.27817E+00-2.22343E-03-1.79567E+00 7.29842E-14-3.59161E-13
 -1      3894 2.00051E+01-1.28990E-03-2.51337E-06 2.76885E-04 7.30534E-14-5.38209E-14
 -1      3895 2.00051E+01-1.29338E-03-3.80028E-06-3.76862E-04 1.67471E-13-3.22364E-13
 -1      3896 2.00056E+01-7.26936E-04 1.43993E-05 5.37020E-04 9.29586E-14-5.41432E-14
 -1      3897 1.23096E+01 1.44373E+00 1.05742E-01-7.08257E-01 5.44022E-14-6.04648E-13
 -1      3898 1.29606E+01 1.20856E+00-7.73470E-03-1.47336E+00 1.61037E-14-6.03701E-13
 -1      3899 1.29138E+01 1.54961E+00 3.61026E-02 2.18974E-01 1.01852E-13-5.83138E-13
 -1      3900 1.57775E+01 4.85444E-01 2.49008E-02 2.25498E+00-1.66052E-13 2.26644E-13
 -1      3901 1.52224E+01 1.01235E-01 1.46375E-02-2.54129E+00 1.98596E-13 1.06699E-13
 -1      3902 1.74703E+01-1.39046E+00-2.33936E-02-3.51720E+00 2.25934E-13-9.53699E-14
 -1      3903 1.58160E+01 8.14436E-01 1.05397E-02 1.60797E+00-1.58481E-13 1.99870E-13
 -1      3904 1.66912E+01 2.27334E+00-2.80774E-03-8.90509E-01 9.56917E-14-4.38097E-13
 -1      3905 1.73477E+01-2.03819E-01 1.60556E-02-3.16045E+00-9.02837E-14-3.58403E-13
 -1      3906 1.82510E+01 8.73206E-01-1.12399E-02 1.49146E+00-2.06351E-13 3.57321E-14
 -1      3907 1.81359E+01 7.98462E-01 7.59785E-03 1.65981E+00-1.62405E-13 3.50540E-14
 -1      3908 1.80065E+01 1.04190E+00 1.15728E-02 1.25141E+00-1.73529E-13 8.89874E-14
 -1      3909 1.48448E+01 1.04179E+00-9.50498E-03 2.35934E+00 1.83082E-13-4.80484E-13
 -1      3910 1.40290E+01 1.34890E+00 5.71452E-02 2.01388E+00 1.78298E-13-5.38819E-13
 -1      3911 1.46511E+01 2.06801E-01 6.37834E-02-3.08420E+00-9.45528E-14-5.30326E-13
 -1      3912 1.55250E+01 2.43698E+00 1.79635E-03-6.27218E-02 1.03358E-13-5.20115E-13
 -1      3913 1.54989E+01 2.41587E+00-4.64667E-03 3.74338E-01 9.43939E-14-5.05317E-13
 -1      3914 1.51724E+01 2.10916E+00 1.25527E-02 8.21631E-01 1.07695E-13-5.13454E-13
 -1      3915 1.59843E+01 3.38013E-01-1.80996E-02-2.90953E+00-7.43485E-14-4.21647E-13
 -1      3916 1.73362E+01 4.81227E-01 1.86692E-02-2.59171E+00-3.42504E-14-3.90025E-13
 -1      3917 1.98370E+01-1.95463E+00 7.24322E-02 3.60004E+00 2.56065E-13-1.36906E-13
 -1      3918 1.89991E+01-1.22375E+00 3.07796E-02 3.33359E+00 2.20443E-13-2.09779E-13
 -1      3919 1.74850E+01 8.41295E-01-1.00046E-02-2.26559E+00 2.07113E-14-3.79051E-13
 -1      3920 1.74371E+01 9.23578E-01 1.42826E-02 1.58352E+00-2.14864E-13 1.72929E-13
 -1      3921 1.37093E+01 1.55952E+00 1.70697E-02 1.34471E+00 1.48680E-13-5.61089E-13
 -1      3922 2.10383E+01-2.47881E+00-4.11172E-02 3.03829E+00 2.01222E-13-9.28008E-14
 -1      3923 1.85740E+01-5.75364E-01-8.46830E-03-2.40298E+00 1.26281E-13-6.37873E-14
 -1      3924 1.84524E+01-2.11812E-01-8.14245E-03-2.11141E+00 1.23231E-13-3.59231E-14
 -1      3925 2.00051E+01-1.30886E-03-4.56594E-06-8.94898E-04 2.79931E-13-2.70335E-13
 -1      3926 2.00049E+01-1.30352E-03-1.49500E-06-1.53732E-03 2.47329E-13-2.43315E-13
 -1      3927 2.00053E+01-7.81305E-04 1.17094E-05-1.59848E-03 2.79112E-13-1.53558E-13
 -1      3928 2.00056E+01-7.44847E-04 1.22261E-05-6.22110E-04 1.85892E-13-4.75381E-13
 -1      3929 1.60076E+01 9.63731E-01-6.53291E-03 1.38303E+00-1.21428E-13 2.00950E-13
 -1      3930 2.27241E+01-3.04750E+00 3.02827E-02 2.35456E+00 1.78032E-13-3.16101E-14
 -1      3931 2.23608E+01-2.68875E+00 4.24160E-02 2.37360E+00 1.78286E-13-7.84754E-14
 -1      3932 1.85782E+01 4.38599E-02 1.07483E-02-1.84297E+00 9.00900E-14-7.86268E-14
 -1      3933 1.85307E+01 2.42843E-01-6.42413E-03-1.64045E+00 5.05591E-14-7.80556E-14
 -1      3934 1.79680E+01 1.08083E-01-3.76988E-03-1.98596E+00 7.51413E-14-1.94571E-13
 -1      3935 1.86699E+01 4.04515E-01 8.36301E-03-1.42850E+00 6.66051E-14-5.63678E-14
 -1      3936 1.86835E+01 5.14448E-01-5.78727E-03-1.26886E+00 6.95515E-14-4.39782E-14
 -1      3937 1.82077E+01 4.91594E-01 2.38990E-03-1.48368E+00 1.12512E-13-1.50224E-13
 -1      3938 1.88263E+01 5.99059E-01 5.32455E-03-1.11049E+00 5.69383E-14-1.63384E-14
 -1      3939 1.88728E+01 6.48196E-01-5.05887E-03-9.84770E-01-4.02109E-14-5.19478E-14
 -1      3940 1.84770E+01 6.86967E-01 2.67132E-03-1.11307E+00 3.15213E-14-1.32075E-13
 -1      3941 1.90057E+01 6.81439E-01 3.13969E-03-8.66836E-01-7.63464E-14 4.30804E-14
 -1      3942 1.90652E+01 6.91263E-01-4.31225E-03-7.67272E-01-4.27012E-14 8.82323E-14
 -1      3943 1.87400E+01 7.66953E-01 3.04779E-03-8.43881E-01-1.55037E-14 4.20220E-14
 -1      3944 1.91838E+01 6.90779E-01 1.89985E-03-6.76980E-01-9.43974E-15 2.40988E-13
 -1      3945 1.92457E+01 6.74618E-01-3.60839E-03-5.97460E-01 6.40397E-14 2.54238E-13
 -1      3946 1.89795E+01 7.72472E-01 3.01691E-03-6.43868E-01 7.45079E-14 1.18029E-13
 -1      3947 1.93481E+01 6.52942E-01 1.11892E-03-5.28175E-01 3.29631E-14 2.51495E-13
 -1      3948 1.94060E+01 6.21714E-01-2.97652E-03-4.64270E-01 6.95271E-14 2.33412E-13
 -1      3949 1.91908E+01 7.28919E-01 2.84522E-03-4.92050E-01 5.43728E-14 2.70728E-13
 -1      3950 1.94920E+01 5.88441E-01 6.47813E-04-4.10629E-01-7.72645E-14 2.52412E-13
 -1      3951 1.95428E+01 5.49896E-01-2.44233E-03-3.59058E-01-1.66095E-13 2.37338E-13
 -1      3952 1.93708E+01 6.57357E-01 2.50865E-03-3.76392E-01 1.17145E-14 3.20626E-13
 -1      3953 1.96135E+01 5.11603E-01 3.86631E-04-3.17215E-01-1.67852E-13 1.36665E-13
 -1      3954 1.96562E+01 4.70928E-01-2.00382E-03-2.75603E-01-5.07590E-14 3.25834E-14
 -1      3955 1.95205E+01 5.72847E-01 2.14476E-03-2.87124E-01-2.25580E-13 2.41511E-13
 -1      3956 1.97132E+01 4.32022E-01 2.42605E-04-2.42969E-01 1.33908E-13-1.13106E-13
 -1      3957 1.97479E+01 3.92734E-01-1.61334E-03-2.09550E-01 2.28871E-13 1.52788E-15
 -1      3958 1.96423E+01 4.85233E-01 1.76488E-03-2.17778E-01 1.91136E-14-3.18886E-14
 -1      3959 1.97928E+01 3.55916E-01 1.60816E-04-1.84016E-01 1.84616E-13-1.96011E-14
 -1      3960 1.98202E+01 3.19799E-01-1.28581E-03-1.57393E-01 1.74121E-13-1.16154E-13
 -1      3961 1.97395E+01 4.01269E-01 1.45153E-03-1.63958E-01 1.68297E-13-1.27209E-13
 -1      3962 1.98548E+01 2.86734E-01 1.18962E-04-1.37727E-01 1.15869E-13-2.01874E-13
 -1      3963 1.98757E+01 2.54998E-01-1.01883E-03-1.16638E-01 8.75850E-14-2.02487E-13
 -1      3964 1.98154E+01 3.24588E-01 1.18062E-03-1.22089E-01 9.50247E-14-2.38689E-13
 -1      3965 1.99020E+01 2.26307E-01 9.60415E-05-1.01486E-01 6.85360E-14-2.44248E-13
 -1      3966 1.99175E+01 1.99313E-01-8.00410E-04-8.50164E-02 2.54738E-14-2.52833E-13
 -1      3967 1.98732E+01 2.57502E-01 9.48195E-04-8.97956E-02 6.72906E-14-2.84281E-13
 -1      3968 1.99370E+01 1.75201E-01 7.66138E-05-7.34071E-02 1.81223E-14-2.57702E-13
 -1      3969 1.99483E+01 1.52787E-01-6.21624E-04-6.06806E-02-3.97991E-14-2.34767E-13
 -1      3970 1.99164E+01 2.00308E-01 6.94419E-04-6.50410E-02 2.64440E-14-3.85430E-13
 -1      3971 1.99624E+01 1.32963E-01 6.66647E-05-5.19390E-02-1.66411E-13-1.39254E-13
 -1      3972 1.99703E+01 1.14773E-01-4.72106E-04-4.22607E-02-1.48881E-13-1.20160E-13
 -1      3973 1.99480E+01 1.52879E-01 5.26550E-04-4.60901E-02-8.97060E-14-3.28946E-13
 -1      3974 1.99802E+01 9.88562E-02 5.68545E-05-3.57792E-02-1.51618E-13-8.84263E-14
 -1      3975 1.99855E+01 8.44189E-02-3.51307E-04-2.85320E-02-6.73279E-14-2.01761E-13
 -1      3976 1.99706E+01 1.14347E-01 3.84092E-04-3.19089E-02-1.75251E-13-2.01970E-14
 -1      3977 1.99923E+01 7.19048E-02 5.03160E-05-2.37912E-02 2.35295E-14-2.41618E-13
 -1      3978 1.99956E+01 6.06732E-02-2.56233E-04-1.84565E-02 1.16896E-13-3.69807E-13
 -1      3979 1.99860E+01 8.37449E-02 2.72768E-04-2.14052E-02-9.48006E-14-4.27378E-13
 -1      3980 2.00000E+01 5.10284E-02 4.43022E-05-1.50507E-02 1.45113E-13-3.87400E-13
 -1      3981 2.00020E+01 4.24610E-02-1.82738E-04-1.12003E-02 2.88808E-14-3.94677E-13
 -1      3982 1.99962E+01 5.99142E-02 1.88046E-04-1.37376E-02 3.88039E-14-4.93715E-13
 -1      3983 2.00047E+01 3.51743E-02 3.83380E-05-8.80707E-03 4.41177E-15-4.09544E-13
 -1      3984 2.00056E+01 2.87694E-02-1.26883E-04-6.09152E-03 8.58559E-14-3.43885E-13
 -1      3985 2.00026E+01 4.17122E-02 1.24795E-04-8.24263E-03 5.09004E-14-3.62795E-13
 -1      3986 2.00071E+01 2.33767E-02 3.25073E-05-4.45543E-03 9.91046E-14-2.94498E-13
 -1      3987 2.00074E+01 1.86886E-02-8.52096E-05-2.59392E-03 1.70460E-13-2.42323E-13
 -1      3988 2.00062E+01 2.80822E-02 7.86397E-05-4.39238E-03 1.04964E-13-1.83959E-13
 -1      3989 2.00080E+01 1.47840E-02 2.69975E-05-1.51469E-03 2.14377E-13-2.78082E-13
 -1      3990 2.00079E+01 1.14294E-02-5.47505E-05-2.84871E-04 1.99108E-13-2.99379E-13
 -1      3991 2.00079E+01 1.80861E-02 4.58483E-05-1.76959E-03 2.14422E-13-4.10033E-13
 -1      3992 2.00079E+01 8.66749E-03 2.20502E-05 3.92359E-04 2.91007E-14-3.18233E-13
 -1      3993 2.00075E+01 6.32372E-03-3.28286E-05 1.16339E-03-1.47768E-13-2.72449E-13
 -1      3994 2.00083E+01 1.09157E-02 2.32793E-05-4.81810E-05 1.16039E-13-6.34971E-13
 -1      3995 2.00072E+01 4.41823E-03 1.85771E-05 1.55630E-03-3.69179E-13-2.76176E-13
 -1      3996 2.00067E+01 2.83166E-03-1.46743E-05 1.99390E-03-4.47176E-13-3.66782E-13
 -1      3997 2.00078E+01 5.89019E-03 7.64049E-06 1.02188E-03-2.99290E-13-6.74515E-13
 -1      3998 1.94785E+01 6.41857E-01-2.70134E-03 3.61170E-01 8.05698E-15-3.43647E-15
 -1      3999 1.94021E+01 7.01520E-01-9.20122E-04 4.06136E-01-5.58025E-14-2.82814E-14
 -1      4000 1.92894E+01 7.61194E-01-3.36971E-03 4.42425E-01-2.00148E-14-7.44326E-14
 -1      4001 1.91894E+01 8.22715E-01-1.28741E-03 4.93710E-01 5.88219E-14-4.46092E-14
 -1      4002 1.92702E+01 7.75498E-01 4.07948E-03 3.37351E-01-7.25776E-14-1.56554E-13
 -1      4003 1.68122E+01 1.51794E+00 2.21035E-02-1.79011E+00 6.38370E-14-4.05616E-13
 -1      4004 1.87283E+01 9.93247E-01-5.58965E-03 6.38982E-01-8.05752E-14-1.58473E-13
 -1      4005 1.85631E+01 1.04290E+00-2.01126E-03 7.07547E-01-4.08915E-14-1.78241E-13
 -1      4006 1.96231E+01 5.30382E-01-2.19018E-03 2.90018E-01 4.93234E-14-6.34067E-14
 -1      4007 1.95655E+01 5.85441E-01-6.00300E-04 3.29008E-01 8.16919E-14-3.62585E-14
 -1      4008 1.94628E+01 6.51898E-01 3.12620E-03 2.78502E-01 6.76205E-14-1.94239E-13
 -1      4009 1.97327E+01 4.30325E-01-1.75804E-03 2.28838E-01-5.08964E-14-1.62284E-13
 -1      4010 1.96899E+01 4.79277E-01-3.47589E-04 2.62020E-01 3.51151E-14-6.73439E-14
 -1      4011 1.96106E+01 5.37503E-01 2.36787E-03 2.25428E-01 7.59322E-14-2.00313E-13
 -1      4012 1.98146E+01 3.43470E-01-1.38042E-03 1.77308E-01-1.00441E-13-7.33453E-14
 -1      4013 1.97833E+01 3.85662E-01-1.60327E-04 2.05077E-01-1.75631E-13-1.55718E-13
 -1      4014 1.97232E+01 4.35576E-01 1.89150E-03 1.79168E-01-5.86292E-14-2.80542E-13
 -1      4015 1.98750E+01 2.69629E-01-1.08920E-03 1.34714E-01-2.55117E-14 1.26369E-13
 -1      4016 1.98525E+01 3.05317E-01-1.64532E-05 1.57451E-01-7.95431E-14 2.93243E-14
 -1      4017 1.98077E+01 3.47073E-01 1.44943E-03 1.39395E-01-1.77602E-13-3.53743E-13
 -1      4018 1.99189E+01 2.08252E-01-8.71080E-04 1.00225E-01 5.60246E-14 2.48585E-13
 -1      4019 1.99030E+01 2.37792E-01 4.01676E-05 1.18509E-01 1.08043E-13 2.39732E-13
 -1      4020 1.98701E+01 2.71965E-01 1.02783E-03 1.06208E-01-7.63562E-14 6.86152E-14
 -1      4021 1.99502E+01 1.58253E-01-6.81191E-04 7.28736E-02-6.30094E-14 2.20589E-13
 -1      4022 1.99393E+01 1.82196E-01 6.95569E-05 8.73039E-02-8.55611E-15 2.05478E-13
 -1      4023 1.99156E+01 2.09791E-01 7.43533E-04 7.92018E-02 5.85518E-14 2.03777E-13
 -1      4024 1.99721E+01 1.18175E-01-5.20198E-04 5.15878E-02-1.70045E-14 1.95658E-13
 -1      4025 1.99648E+01 1.37295E-01 8.87601E-05 6.27544E-02-8.61144E-15 2.08669E-13
 -1      4026 1.99482E+01 1.59176E-01 5.48189E-04 5.76003E-02-4.28566E-14 1.50827E-13
 -1      4027 1.99870E+01 8.65878E-02-3.89324E-04 3.53741E-02-8.96045E-14 1.39526E-13
 -1      4028 1.99823E+01 1.01594E-01 9.06098E-05 4.38488E-02 6.20859E-14 1.92218E-13
 -1      4029 1.99710E+01 1.18610E-01 3.91350E-04 4.07630E-02-3.18780E-14 5.38137E-14
 -1      4030 1.99967E+01 6.21056E-02-2.85512E-04 2.32708E-02-1.66574E-13 6.15528E-14
 -1      4031 1.99938E+01 7.36864E-02 8.52586E-05 2.95752E-02-2.03342E-13 8.68814E-14
 -1      4032 1.99865E+01 8.66847E-02 2.72038E-04 2.79150E-02-7.98854E-14-5.31331E-14
 -1      4033 2.00026E+01 4.34492E-02-2.04761E-04 1.44294E-02-2.51476E-13 3.30988E-13
 -1      4034 2.00010E+01 5.22350E-02 7.60018E-05 1.90195E-02-2.31336E-13 2.72547E-13
 -1      4035 1.99966E+01 6.19835E-02 1.83859E-04 1.83120E-02-3.28250E-13-7.13889E-14
 -1      4036 2.00060E+01 2.94821E-02-1.43067E-04 8.12606E-03-1.97499E-14 2.59987E-13
 -1      4037 2.00053E+01 3.60281E-02 6.49872E-05 1.13879E-02-8.91274E-14 3.41413E-13
 -1      4038 2.00028E+01 4.31971E-02 1.19776E-04 1.12940E-02-8.85538E-14 1.39927E-13
 -1      4039 2.00075E+01 1.92227E-02-9.67975E-05 3.75878E-03 8.74021E-14 1.12670E-13
 -1      4040 2.00074E+01 2.40058E-02 5.37405E-05 6.01110E-03 5.81396E-14 1.61554E-13
 -1      4041 2.00063E+01 2.91641E-02 7.40513E-05 6.29266E-03 9.55271E-14 1.18563E-13
 -1      4042 2.00079E+01 1.18417E-02-6.27909E-05 8.38701E-04-7.68879E-15 1.09999E-14
 -1      4043 2.00081E+01 1.52628E-02 4.32128E-05 2.33857E-03 3.77491E-14 4.49609E-14
 -1      4044 2.00079E+01 1.88824E-02 4.21780E-05 2.83172E-03 9.18779E-14 3.01961E-14
 -1      4045 2.00075E+01 6.65015E-03-3.84281E-05-1.02187E-03 4.94284E-14 1.91137E-13
 -1      4046 2.00079E+01 9.04111E-03 3.39257E-05-7.16811E-05 6.13762E-15 7.91833E-14
 -1      4047 2.00083E+01 1.15059E-02 2.06264E-05 5.22860E-04 1.50482E-14-8.35667E-15
 -1      4048 2.00066E+01 3.08604E-03-2.06586E-05-2.12222E-03-1.53704E-13 3.60994E-13
 -1      4049 2.00072E+01 4.71580E-03 2.60103E-05-1.56593E-03-2.62623E-14 2.47076E-13
 -1      4050 2.00078E+01 6.33219E-03 6.73894E-06-9.42287E-04-1.17951E-13 1.10811E-13
 -1      4051 2.00056E+01 7.08061E-04-3.55383E-06-2.68310E-03 4.28324E-14 3.64933E-13
 -1      4052 2.00061E+01 1.77654E-03 1.85425E-05-2.41265E-03 3.55318E-14 4.77421E-13
 -1      4053 2.00069E+01 2.79390E-03-4.14392E-07-1.80291E-03-1.02168E-13 2.61875E-13
 -1      4054 1.59124E+01 1.93716E+00-8.37543E-03-1.20034E+00 6.55448E-14-4.59577E-13
 -1      4055 2.00049E+01-4.00151E-04 1.92744E-06-2.70754E-03 3.94137E-14 3.60794E-13
 -1      4056 2.00052E+01 1.65764E-04 1.03786E-05-2.69725E-03 4.27046E-14 4.32500E-13
 -1      4057 2.00060E+01 7.74870E-04-7.79365E-06-2.12307E-03 1.24552E-13 3.74253E-13
 -1      4058 2.00054E+01-3.70057E-04-1.17606E-05-2.13060E-03 1.47983E-13 2.75857E-13
 -1      4059 1.69351E+01 4.10178E-02-3.16274E-02 3.09554E+00 1.87002E-13-3.99162E-13
 -1      4060 1.60490E+01 6.42454E-01 5.65605E-02 2.84579E+00 1.91204E-13-4.63457E-13
 -1      4061 1.86221E+01-4.92537E-01 3.88767E-02 2.97684E+00 1.68078E-13-2.52218E-13
 -1      4062 1.56221E+01 2.99222E-01-2.84730E-02-2.20653E+00 1.15329E-13 6.13494E-14
 -1      4063 1.62593E+01-1.42320E-01 7.49454E-02-2.95362E+00 2.19776E-13-5.70188E-14
 -1      4064 1.90442E+01 8.81874E-01-4.27371E-03 5.34458E-01 5.36108E-15-1.21463E-13
 -1      4065 1.89150E+01 9.40555E-01-1.70570E-03 5.93025E-01-1.04208E-13-1.02999E-13
 -1      4066 1.90209E+01 9.03079E-01 5.31361E-03 4.01632E-01-4.61742E-14-1.53764E-13
 -1      4067 1.60170E+01 1.32324E+00-3.79299E-03 2.04422E+00 1.16715E-13-4.68767E-13
 -1      4068 1.66451E+01 1.49796E+00-1.07567E-02 1.93338E+00 1.09002E-13-4.46289E-13
 -1      4069 1.47626E+01 1.00747E+00 8.26285E-02-2.33251E+00-2.28918E-14-5.26988E-13
 -1      4070 1.67079E+01 1.02367E+00-2.43855E-03 1.26368E+00-1.50827E-13 2.07234E-13
 -1      4071 1.58109E+01 1.21568E+00 3.42486E-02 8.00066E-01-7.33435E-14 2.40921E-13
 -1      4072 1.77203E+01-1.02029E+00-2.22602E-02-3.07665E+00 2.27353E-13-1.13503E-13
 -1      4073 1.52148E+01 1.78016E+00 4.52973E-03-1.03313E+00 6.01303E-14-4.81047E-13
 -1      4074 1.82194E+01 1.03073E-01 1.50431E-02 2.61462E+00 1.33142E-13-3.16242E-13
 -1      4075 1.44808E+01 1.40657E+00 4.84605E-04-1.52927E+00 3.28140E-14-5.21293E-13
 -1      4076 2.00071E+01 2.71891E-03-5.81251E-06 1.52920E-03-4.12228E-13-4.48477E-13
 -1      4077 2.00064E+01 1.80258E-03 1.42322E-05 2.08025E-03-4.11919E-13-2.76314E-13
 -1      4078 2.00060E+01 9.01781E-04 5.67531E-07 2.20777E-03-3.83490E-13-3.88477E-13
 -1      4079 1.70275E+01 1.08521E+00-1.82385E-02 1.09184E+00-2.10118E-13 1.63557E-13
 -1      4080 1.74720E+01 1.12089E+00-2.93811E-03 9.96645E-01-1.79477E-13 3.89162E-14
 -1      4081 1.69260E+01 1.25326E+00 2.50929E-02 6.88194E-01-1.14791E-13 3.12010E-14
 -1      4082 1.77386E+01 1.12762E+00-1.07499E-02 8.84242E-01-1.52210E-13 2.38182E-14
 -1      4083 1.44980E+01 1.90444E+00 2.18237E-02 8.17482E-01 1.24393E-13-5.39963E-13
 -1      4084 1.35308E+01 1.78258E+00 2.59254E-02 4.91444E-01 1.11806E-13-5.69076E-13
 -1      4085 1.87002E+01 1.02572E+00 6.88632E-03 4.71720E-01-7.53901E-14-2.53640E-13
 -1      4086 1.72343E+01 1.23738E+00 1.01075E-02 2.08497E+00 1.17347E-13-4.09050E-13
 -1      4087 1.83208E+01 1.07978E+00-7.96161E-03 7.62187E-01-5.77092E-14-8.45634E-14
 -1      4088 1.81099E+01 1.10838E+00-3.71998E-03 8.48392E-01-8.29667E-14-3.16185E-14
 -1      4089 1.82897E+01 1.13317E+00 1.00121E-02 5.49812E-01-2.35687E-14-1.46009E-13
 -1      4090 1.58965E+01 1.18264E+00-1.28094E-02 1.75403E-01-1.13700E-13 1.50781E-13
 -1      4091 2.05749E+01-2.73038E+00-1.80544E-02-3.18028E+00 2.72883E-13-9.41452E-14
 -1      4092 2.00061E+01 1.87962E-06-1.15920E-05 8.48396E-04-1.06485E-13-4.36886E-14
 -1      4093 2.00062E+01 2.21715E-05-6.75325E-06 2.04597E-04 5.40089E-14-2.40749E-13
 -1      4094 1.37953E+01 1.84139E+00 1.99490E-02-3.23660E-01 7.75846E-14-5.39499E-13
 -1      4095 1.56874E+01 7.89429E-01 3.85610E-02-1.56417E+00 4.16739E-14 1.40505E-13
 -1      4096 1.63309E+01 4.23868E-01-2.95772E-02-1.95377E+00 5.74365E-14-1.06239E-14
 -1      4097 1.58430E+01 9.80592E-01-1.77768E-02-9.66832E-01-6.96817E-15 1.79060E-13
 -1      4098 1.56556E+01 1.18554E+00-3.86293E-04 2.19734E+00 1.38621E-13-4.55561E-13
 -1      4099 2.00061E+01 3.23907E-04-7.65856E-06 1.44074E-03-2.62085E-13-2.94993E-13
 -1      4100 2.00068E+01 1.29227E-03 1.31651E-05 1.06094E-03-3.47473E-13-4.53217E-13
 -1      4101 1.92618E+01 7.51517E-01-3.06124E-03 2.24709E-01-4.99030E-14-2.39277E-13
 -1      4102 1.91506E+01 8.14526E-01-2.72060E-03 2.47860E-01-8.27155E-14-2.11004E-13
 -1      4103 1.97576E+01-2.00970E+00 3.90752E-02-3.18226E+00 1.39235E-13-1.78448E-13
 -1      4104 1.81944E+01-1.02961E+00-7.24950E-04-2.90557E+00 2.25257E-13-1.01202E-13
 -1      4105 1.79998E+01-5.54708E-01 2.34777E-03-2.59461E+00 1.71122E-13-5.21683E-14
 -1      4106 1.46844E+01 1.95601E+00-1.99507E-02 8.53203E-01 1.19592E-13-5.30174E-13
 -1      4107 1.51617E+01 1.84348E+00 4.62047E-02 1.54694E+00 1.20941E-13-5.01702E-13
 -1      4108 1.77631E+01 6.21946E-01-1.41244E-04-1.40391E+00 1.04121E-13-1.99741E-13
 -1      4109 1.78955E+01 7.24177E-01-1.10062E-02-1.19418E+00 1.30194E-13-2.05969E-13
 -1      4110 1.81557E+01 7.93392E-01 2.98822E-03-1.02907E+00 7.80123E-14-1.50688E-13
 -1      4111 1.82847E+01 8.32923E-01-8.27487E-03-8.82567E-01-1.47744E-14-1.55211E-13
 -1      4112 1.77798E+01 9.15969E-01 1.11208E-02-9.48487E-01 1.44818E-13-1.97358E-13
 -1      4113 1.84989E+01 8.55316E-01 1.82040E-03-7.61008E-01 1.68218E-14-1.02018E-13
 -1      4114 1.86142E+01 8.54198E-01-8.69737E-03-6.56995E-01 1.26989E-13 3.20346E-14
 -1      4115 1.82218E+01 9.61429E-01 8.07443E-03-6.74917E-01 1.07519E-13-7.50802E-14
 -1      4116 1.87958E+01 8.48998E-01 1.25298E-03-5.64878E-01 8.46329E-14-6.55616E-14
 -1      4117 1.89024E+01 8.22489E-01-6.02606E-03-4.87279E-01 8.55082E-14 6.60301E-14
 -1      4118 1.85894E+01 9.55404E-01 1.21846E-02-4.79422E-01 1.00628E-13-1.51606E-13
 -1      4119 1.90490E+01 7.93685E-01 1.57965E-04-4.23027E-01 1.19968E-13 3.90931E-15
 -1      4120 1.91432E+01 7.53431E-01-4.55675E-03-3.64665E-01 1.36795E-13 1.03362E-13
 -1      4121 1.89005E+01 8.85407E-01 1.09407E-02-3.46199E-01 1.23113E-13-2.20259E-13
 -1      4122 1.92615E+01 7.13302E-01-1.70937E-04-3.17863E-01 2.99868E-14 9.37913E-14
 -1      4123 1.93415E+01 6.66349E-01-3.45511E-03-2.73169E-01-5.97310E-14 5.93657E-14
 -1      4124 1.91500E+01 7.92335E-01 8.63629E-03-2.51107E-01 5.92424E-14-2.60580E-13
 -1      4125 1.94364E+01 6.20981E-01-3.38540E-04-2.38848E-01-1.93424E-13 3.68281E-14
 -1      4126 1.95027E+01 5.72385E-01-2.63458E-03-2.04196E-01-2.31740E-13 2.20641E-14
 -1      4127 1.93522E+01 6.88806E-01 6.70975E-03-1.82260E-01-1.25934E-13-2.71556E-13
 -1      4128 1.95780E+01 5.26408E-01-3.86851E-04-1.78912E-01-1.84674E-13-9.79544E-15
 -1      4129 1.96318E+01 4.79481E-01-1.98812E-03-1.51819E-01-2.38839E-14-1.56706E-13
 -1      4130 1.95144E+01 5.83875E-01 5.05339E-03-1.32436E-01-1.96692E-13-1.53086E-13
 -1      4131 1.96910E+01 4.36036E-01-3.15785E-04-1.33143E-01 1.12631E-13-2.05349E-13
 -1      4132 1.97346E+01 3.93263E-01-1.08499E-03-1.11499E-01 1.55443E-13-1.80688E-13
 -1      4133 1.96415E+01 4.82462E-01 2.89450E-03-9.67105E-02-3.81353E-14-1.48038E-13
 -1      4134 1.97793E+01 3.52839E-01-3.58227E-04-9.92088E-02 7.86530E-14-2.16762E-13
 -1      4135 1.98120E+01 3.15466E-01-1.07615E-03-8.26245E-02 1.40543E-13-2.44590E-13
 -1      4136 1.97440E+01 3.88872E-01 1.56722E-03-7.05288E-02 1.27871E-13-1.58278E-13
 -1      4137 1.98469E+01 2.80871E-01-1.44024E-04-7.24438E-02 1.25360E-13-2.35200E-13
 -1      4138 1.98713E+01 2.48201E-01-9.93548E-04-5.99014E-02-1.01065E-14-3.26458E-13
 -1      4139 1.98200E+01 3.11921E-01 1.46909E-03-4.99599E-02 1.19789E-13-3.16493E-13
 -1      4140 1.98973E+01 2.19251E-01-2.02870E-04-5.22344E-02-6.60571E-14-2.70415E-13
 -1      4141 1.99158E+01 1.92180E-01-6.39097E-04-4.23850E-02-4.68602E-14-3.18246E-13
 -1      4142 1.98778E+01 2.45799E-01 1.44698E-03-3.48231E-02-5.40439E-14-3.86990E-13
 -1      4143 1.99346E+01 1.67763E-01-2.03247E-04-3.70820E-02-1.24407E-13-3.93910E-13
 -1      4144 1.99480E+01 1.45676E-01-4.72099E-04-2.96203E-02-1.52972E-13-3.81147E-13
 -1      4145 1.99214E+01 1.88945E-01 1.23317E-03-2.44158E-02-1.64185E-13-4.76662E-13
 -1      4146 1.99614E+01 1.25974E-01-1.47635E-04-2.57984E-02-1.80798E-13-3.42444E-13
 -1      4147 1.99708E+01 1.08314E-01-3.39439E-04-2.01875E-02-2.15232E-13-3.89946E-13
 -1      4148 1.99523E+01 1.42561E-01 9.04009E-04-1.68872E-02-1.91335E-13-6.10210E-13
 -1      4149 1.99800E+01 9.26908E-02-1.03729E-04-1.74561E-02-2.17999E-13-3.54001E-13
 -1      4150 1.99864E+01 7.88397E-02-2.39191E-04-1.32824E-02-1.06199E-13-5.09386E-13
 -1      4151 1.99740E+01 1.05470E-01 6.38273E-04-1.13764E-02-2.18458E-13-6.54385E-13
 -1      4152 1.99925E+01 6.66826E-02-6.99355E-05-1.13640E-02 6.12994E-16-3.93581E-13
 -1      4153 1.99966E+01 5.60226E-02-1.64356E-04-8.30573E-03 6.96470E-14-4.62241E-13
 -1      4154 1.99887E+01 7.63621E-02 4.36046E-04-7.39704E-03 4.29860E-14-5.32515E-13
 -1      4155 2.00005E+01 4.67415E-02-4.45207E-05-6.98686E-03 1.47094E-13-4.44871E-13
 -1      4156 2.00029E+01 3.86938E-02-1.09291E-04-4.78644E-03 8.18162E-14-4.07920E-13
 -1      4157 1.99982E+01 5.39408E-02 2.86440E-04-4.56512E-03 1.26675E-13-6.02529E-13
 -1      4158 2.00052E+01 3.17460E-02-2.59990E-05-3.90419E-03 2.38665E-14-2.46229E-13
 -1      4159 2.00065E+01 2.57912E-02-6.94978E-05-2.35565E-03 1.66444E-13-3.55675E-13
 -1      4160 2.00040E+01 3.69950E-02 1.78472E-04-2.58416E-03 8.05809E-14-6.26384E-13
 -1      4161 2.00076E+01 2.06965E-02-1.30100E-05-1.78702E-03 1.31195E-13-3.75848E-13
 -1      4162 2.00081E+01 1.63837E-02-4.13636E-05-7.27032E-04 1.40009E-13-4.92356E-13
 -1      4163 2.00071E+01 2.44387E-02 1.02633E-04-1.22855E-03 4.92942E-14-3.50019E-13
 -1      4164 2.00084E+01 1.27295E-02-4.29583E-06-3.79781E-04 1.94440E-13-7.14341E-13
 -1      4165 2.00084E+01 9.67708E-03-2.17759E-05 3.19413E-04 4.59753E-14-6.76094E-13
 -1      4166 2.00084E+01 1.53291E-02 5.11421E-05-3.27599E-04 4.06572E-14-6.42782E-13
 -1      4167 2.00083E+01 7.11597E-03 1.52664E-06 5.15025E-04-1.96248E-13-5.98857E-13
 -1      4168 2.00079E+01 5.01415E-03-7.63526E-06 9.44253E-04-3.54686E-13-6.56730E-13
 -1      4169 2.00086E+01 8.86858E-03 1.79339E-05 2.48107E-04 2.14984E-15-5.62271E-13
 -1      4170 1.96028E+01 5.19782E-01-1.96509E-03 1.55052E-01 1.38869E-13-2.49237E-13
 -1      4171 1.95382E+01 5.74691E-01-1.28429E-03 1.75869E-01 1.71932E-13-1.71753E-13
 -1      4172 1.86938E+01 9.99219E-01-4.77912E-03 2.93014E-01-1.05400E-13-2.33894E-13
 -1      4173 1.85080E+01 1.05539E+00-5.16549E-03 3.16473E-01 3.08350E-14-1.85043E-13
 -1      4174 2.00072E+01 2.30915E-03-4.90771E-06 1.10074E-03-3.59719E-13-4.39721E-13
 -1      4175 2.00072E+01 1.97299E-03-7.27452E-06 5.55268E-04-2.87688E-13-3.77666E-13
 -1      4176 2.00076E+01 3.51525E-03 6.13777E-06 9.64950E-04-3.61947E-13-4.78557E-13
 -1      4177 1.97173E+01 4.20290E-01-1.34570E-03 1.23916E-01-1.33000E-13-2.94754E-13
 -1      4178 1.96675E+01 4.68282E-01-1.14123E-03 1.41995E-01 1.04553E-13-1.69447E-13
 -1      4179 1.96158E+01 5.18439E-01 4.46610E-03 9.87487E-02 1.07703E-13-6.53134E-14
 -1      4180 1.94543E+01 6.30894E-01-2.51020E-03 1.89137E-01 1.23566E-13-2.16816E-13
 -1      4181 1.93694E+01 6.90954E-01-1.89196E-03 2.11487E-01 4.40818E-14-2.23550E-13
 -1      4182 1.92890E+01 7.53427E-01 8.43935E-03 1.32567E-01-4.01643E-14-3.22688E-13
 -1      4183 1.94740E+01 6.30849E-01 6.42403E-03 1.16781E-01 1.31091E-13-6.54737E-14
 -1      4184 1.98028E+01 3.34255E-01-1.05128E-03 9.68705E-02-2.10130E-13-2.63330E-13
 -1      4185 1.97661E+01 3.76103E-01-5.48791E-04 1.12926E-01-2.89019E-13-2.81380E-13
 -1      4186 1.97268E+01 4.14975E-01 2.37910E-03 7.92934E-02-1.70848E-13-5.02046E-14
 -1      4187 1.98657E+01 2.61786E-01-9.79346E-04 7.42458E-02-6.17693E-14-1.66618E-13
 -1      4188 1.98399E+01 2.96994E-01-1.68087E-04 8.80500E-02-1.74548E-13-2.33399E-13
 -1      4189 1.98096E+01 3.28111E-01 1.32691E-03 6.23832E-02-1.78174E-13-3.10977E-13
 -1      4190 1.99124E+01 2.01323E-01-8.17742E-04 5.51683E-02-9.49388E-14-1.79643E-14
 -1      4191 1.98937E+01 2.30332E-01-1.73775E-04 6.62340E-02 5.74825E-15-9.49011E-14
 -1      4192 1.98705E+01 2.58149E-01 1.30035E-03 4.85094E-02-1.17953E-13-4.67996E-13
 -1      4193 1.99460E+01 1.52204E-01-6.35325E-04 3.99975E-02-5.46625E-14-3.92140E-14
 -1      4194 1.99329E+01 1.75747E-01-9.82329E-05 4.87877E-02-2.88314E-14-9.22729E-15
 -1      4195 1.99168E+01 1.98950E-01 1.38849E-03 3.67758E-02-1.29402E-13-2.97425E-13
 -1      4196 1.99696E+01 1.13007E-01-4.80054E-04 2.81754E-02-4.33031E-14 5.48175E-14
 -1      4197 1.99606E+01 1.31735E-01-3.65113E-05 3.50266E-02-8.84714E-14 7.50929E-14
 -1      4198 1.99494E+01 1.50154E-01 1.06534E-03 2.69443E-02-7.78084E-14-2.35871E-13
 -1      4199 1.99856E+01 8.22486E-02-3.54888E-04 1.91413E-02-9.40580E-14-5.48649E-14
 -1      4200 1.99798E+01 9.68866E-02 1.54699E-06 2.43763E-02 2.39692E-14 1.12636E-13
 -1      4201 1.99721E+01 1.11182E-01 7.60701E-04 1.90847E-02-1.07984E-13-2.89520E-15
 -1      4202 1.99961E+01 5.85173E-02-2.56498E-04 1.23954E-02-3.87843E-13-6.44691E-14
 -1      4203 1.99925E+01 6.97610E-02 2.19980E-05 1.63114E-02-3.19132E-13-1.76451E-13
 -1      4204 1.99875E+01 8.06424E-02 5.22322E-04 1.30036E-02-1.96232E-13 2.71114E-14
 -1      4205 2.00026E+01 4.05254E-02-1.80620E-04 7.48098E-03-8.55380E-15-9.42798E-14
 -1      4206 2.00005E+01 4.90089E-02 3.14598E-05 1.03443E-02-1.63652E-13-6.23695E-14
 -1      4207 1.99975E+01 5.71308E-02 3.44869E-04 8.43052E-03-2.24781E-13-3.19010E-13
 -1      4208 2.00063E+01 2.71347E-02-1.23239E-04 3.99710E-03 2.12003E-13-2.44160E-13
 -1      4209 2.00053E+01 3.34155E-02 3.42350E-05 6.03837E-03 1.54740E-13-5.05857E-14
 -1      4210 2.00036E+01 3.93529E-02 2.16494E-04 5.08450E-03 9.02178E-14-3.89146E-13
 -1      4211 2.00080E+01 1.73649E-02-8.07303E-05 1.60477E-03 1.31026E-13-2.76223E-13
 -1      4212 2.00077E+01 2.19207E-02 3.31034E-05 3.01751E-03 2.47608E-13-1.97349E-13
 -1      4213 2.00069E+01 2.61622E-02 1.26067E-04 2.70601E-03 2.50679E-13-4.70167E-13
 -1      4214 2.00084E+01 1.03890E-02-4.98745E-05 2.66121E-05-5.33112E-14-1.64574E-13
 -1      4215 2.00085E+01 1.36208E-02 2.98853E-05 9.68582E-04-1.02310E-14-2.41702E-13
 -1      4216 2.00084E+01 1.65717E-02 6.43386E-05 1.07019E-03 7.44062E-14-3.92767E-13
 -1      4217 2.00079E+01 5.52107E-03-2.82165E-05-9.57778E-04-2.16311E-13-1.02389E-13
 -1      4218 2.00084E+01 7.76028E-03 2.57108E-05-3.61789E-04-1.31484E-13-1.33896E-13
 -1      4219 2.00086E+01 9.75012E-03 2.39654E-05-9.98262E-06-7.89681E-14-2.63357E-13
 -1      4220 2.00070E+01 2.21749E-03-4.55935E-06-1.50786E-03-6.54417E-14 3.57399E-14
 -1      4221 2.00076E+01 3.71093E-03 1.97159E-05-1.16920E-03-2.09812E-13-7.00403E-14
 -1      4222 2.00080E+01 5.00690E-03-6.89144E-07-6.84979E-04-2.19560E-13-2.42796E-13
 -1      4223 1.78855E+01 1.15025E+00-2.48207E-03 1.92285E+00 1.15061E-13-3.60752E-13
 -1      4224 1.84301E+01 8.99271E-01 7.85401E-03 1.94473E+00 8.25616E-14-3.46852E-13
 -1      4225 1.85712E+01 4.97503E-01-1.93267E-03 2.16609E+00 1.13108E-13-3.41000E-13
 -1      4226 2.00057E+01 2.80417E-04-6.13295E-06 2.03894E-03-2.84323E-13-2.62135E-13
 -1      4227 1.90134E+01 8.76721E-01-3.79200E-03 2.59888E-01-8.93505E-14-2.39019E-13
 -1      4228 1.88691E+01 9.39153E-01-3.82313E-03 2.83150E-01-1.37316E-13-3.69291E-13
 -1      4229 1.87464E+01 1.00901E+00 1.35938E-02 1.44097E-01-7.35552E-14-3.21122E-13
 -1      4230 1.90515E+01 8.81851E-01 1.09358E-02 1.43226E-01-1.21736E-13-3.50230E-13
 -1      4231 1.73165E+01-3.22650E-02 3.14362E-02-2.41110E+00 1.21305E-13-8.83911E-14
 -1      4232 1.88007E+01 1.94117E-02-2.09748E-02 2.39657E+00 1.15982E-13-2.80233E-13
 -1      4233 1.70719E+01 3.69584E-01 1.08048E-02-1.89300E+00 5.81694E-14-1.25778E-13
 -1      4234 2.00068E+01 9.46902E-04 1.64783E-05 6.38512E-05-6.29198E-14-4.09637E-13
 -1      4235 2.00062E+01 1.34487E-05-1.49845E-05-2.87509E-04 5.90072E-14-5.08294E-13
 -1      4236 2.00061E+01 1.25207E-05-7.93879E-06-7.60761E-04 8.62113E-14-6.30167E-13
 -1      4237 1.64678E+01 1.21593E+00-1.39747E-02 2.57737E-01-3.13115E-14 8.77857E-14
 -1      4238 1.61413E+01 1.25162E+00 3.81051E-02-3.31858E-01-5.65499E-14 1.57826E-13
 -1      4239 2.00059E+01-1.67731E-04-1.20430E-05-1.21111E-03 1.83435E-13-3.59883E-13
 -1      4240 2.00057E+01-1.79323E-04-3.55369E-06-1.67949E-03 1.87962E-13 5.31677E-14
 -1      4241 2.00061E+01 3.79157E-04 7.96159E-06-1.71359E-03 1.76428E-13 2.08540E-13
 -1      4242 2.00066E+01 7.58467E-04 1.69979E-05-8.50113E-04 9.94512E-15-6.09183E-13
 -1      4243 1.77059E+01 1.21594E+00 1.49376E-02 6.08605E-01-5.82290E-14 3.84120E-14
 -1      4244 1.72072E+01 5.71494E-01-5.50834E-03-1.60840E+00 7.73051E-14-1.66118E-13
 -1      4245 1.46707E+01 2.23959E+00 5.43556E-02 7.19131E-02 9.34803E-14-5.25055E-13
 -1      4246 2.00080E+01 4.64091E-03-2.55447E-06 5.34065E-04-1.09912E-13-5.60769E-13
 -1      4247 1.83480E+01 1.11838E+00 1.23144E-02 1.27582E-01 9.12861E-14-1.54882E-13
 -1      4248 1.82835E+01 1.10893E+00-5.87652E-03 3.23395E-01 7.97327E-14-1.02778E-13
 -1      4249 1.80494E+01 1.15227E+00-4.79203E-03 3.53133E-01 9.86016E-14-4.03547E-14
 -1      4250 2.00073E+01 1.96236E-03-2.79805E-06 1.19931E-04-1.41599E-13-6.28954E-13
 -1      4251 1.49250E+01 1.60299E+00-2.44426E-02-1.22698E+00 4.78107E-14-4.96639E-13
 -1      4252 1.69790E+01 8.65530E-01 1.73698E-02-1.26096E+00 1.17359E-13-6.52299E-14
 -1      4253 1.64000E+01 1.03814E+00-1.44901E-02-7.74282E-01 1.69873E-15 6.44207E-14
 -1      4254 2.00064E+01 9.77973E-04 2.11857E-06-1.66882E-03 1.54900E-13 2.02642E-13
 -1      4255 1.69089E+01 1.21995E+00-1.55381E-02 2.24990E-01-2.76181E-14 3.01788E-15
 -1      4256 2.00070E+01 1.77577E-03-5.91625E-06-1.10225E-03-4.79469E-14-2.54853E-13
 -1      4257 1.75029E+01 6.71299E-01 2.12515E-02 2.48273E+00 1.44156E-13-3.89873E-13
 -1      4258 1.97379E+01 3.90815E-01-4.86430E-04 3.40342E-02-1.17345E-13-1.20592E-13
 -1      4259 1.96875E+01 4.40552E-01 5.82709E-04 3.94104E-02-2.03152E-14 1.02169E-13
 -1      4260 1.79685E+01 1.03582E+00-1.78308E-03-5.17778E-01 1.40479E-13-1.10338E-13
 -1      4261 1.81739E+01 1.04560E+00 1.20495E-03-4.19801E-01 1.28950E-13-9.94297E-14
 -1      4262 1.84154E+01 1.01515E+00-6.29685E-03-2.05671E-01 3.80830E-14-1.53849E-13
 -1      4263 1.85903E+01 9.75365E-01-1.01476E-02-1.43047E-01 4.50639E-14-2.15543E-13
 -1      4264 1.87690E+01 9.21743E-01-8.07259E-03-1.27968E-01 1.80417E-14-2.75696E-13
 -1      4265 1.89142E+01 8.76338E-01-8.25663E-03-8.12973E-02 6.10948E-16-2.95528E-13
 -1      4266 1.90554E+01 8.17079E-01-6.73733E-03-7.52240E-02 8.11926E-15-3.23019E-13
 -1      4267 1.91740E+01 7.65987E-01-6.23476E-03-4.19268E-02-5.25954E-14-3.71098E-13
 -1      4268 1.92848E+01 7.05880E-01-5.34495E-03-4.15017E-02-2.99183E-14-2.95768E-13
 -1      4269 1.93805E+01 6.53450E-01-4.59692E-03-1.80233E-02-3.07283E-14-2.52057E-13
 -1      4270 1.94668E+01 5.96017E-01-4.09798E-03-2.07287E-02-1.86965E-15-1.42977E-13
 -1      4271 1.95433E+01 5.45571E-01-3.16765E-03-4.23346E-03-4.43831E-14-7.39470E-14
 -1      4272 1.96981E+01 4.22330E-01-8.76708E-04-4.48747E-02 3.38239E-14 3.25677E-14
 -1      4273 1.97436E+01 3.79122E-01-1.38789E-03-3.41502E-02 9.92014E-14-1.16106E-13
 -1      4274 1.97967E+01 3.31534E-01-2.23690E-05-2.23923E-02 1.23865E-13-3.66743E-13
 -1      4275 1.98285E+01 2.96171E-01-1.52744E-04-1.66114E-02-6.30604E-14-4.63146E-13
 -1      4276 1.98673E+01 2.49923E-01-9.30021E-04 2.89000E-03-9.91437E-14-4.07687E-13
 -1      4277 1.98929E+01 2.19364E-01-7.74558E-04 6.56525E-03-5.84662E-14-4.32242E-13
 -1      4278 1.99130E+01 1.91429E-01-1.03812E-03 2.67610E-03-8.86902E-14-4.62375E-13
 -1      4279 1.99319E+01 1.67001E-01-6.24400E-04 5.58624E-03-2.31852E-13-4.60747E-13
 -1      4280 1.99463E+01 1.44440E-01-8.10491E-04 2.32244E-03-2.39901E-13-3.22333E-13
 -1      4281 1.99599E+01 1.24832E-01-4.40339E-04 4.47691E-03-1.49748E-13-3.45415E-13
 -1      4282 1.99699E+01 1.06944E-01-5.91697E-04 1.83667E-03-1.47511E-13-2.38518E-13
 -1      4283 1.99793E+01 9.14627E-02-2.93173E-04 3.39527E-03-1.29941E-13-3.06891E-13
 -1      4284 1.99860E+01 7.75325E-02-4.16857E-04 1.33485E-03-1.58477E-13-3.89685E-13
 -1      4285 1.99923E+01 6.55267E-02-1.85498E-04 2.44964E-03-2.67304E-14-4.55128E-13
 -1      4286 1.99965E+01 5.48728E-02-2.84001E-04 8.88471E-04 5.52692E-14-7.02462E-13
 -1      4287 2.00005E+01 4.57325E-02-1.09542E-04 1.67738E-03 1.19293E-13-6.77497E-13
 -1      4288 2.00030E+01 3.77350E-02-1.85820E-04 5.26851E-04 2.62656E-13-6.79818E-13
 -1      4289 2.00054E+01 3.09081E-02-5.75848E-05 1.07760E-03 1.31721E-13-5.99825E-13
 -1      4290 2.00067E+01 2.50221E-02-1.15057E-04 2.53649E-04 1.29516E-13-4.53816E-13
 -1      4291 2.00078E+01 2.00254E-02-2.33345E-05 6.31001E-04 1.01658E-13-4.98370E-13
 -1      4292 2.00083E+01 1.57847E-02-6.54769E-05 5.95570E-05-7.47113E-14-4.45496E-13
 -1      4293 2.00087E+01 1.22062E-02-1.95119E-06 3.11454E-04-1.58392E-14-5.17618E-13
 -1      4294 2.00086E+01 9.21981E-03-3.22189E-05-7.02173E-05 1.71887E-16-4.74405E-13
 -1      4295 2.00085E+01 6.71701E-03 1.00937E-05 9.15639E-05-3.18428E-14-4.22039E-13
 -1      4296 1.98242E+01 3.01707E-01-7.25655E-04 3.28817E-02-8.67291E-14-4.57958E-13
 -1      4297 1.97887E+01 3.39700E-01-9.10303E-04 3.93719E-02-1.43461E-13-3.42827E-13
 -1      4298 1.73970E+01 1.00269E+00-9.54769E-03-7.73149E-01 1.47085E-13-8.53997E-14
 -1      4299 1.76632E+01 1.03646E+00-1.10641E-02-6.12818E-01 1.31404E-13-9.40558E-14
 -1      4300 1.77048E+01 1.14051E+00 5.65432E-03-3.35817E-01 1.19308E-13-1.45638E-13
 -1      4301 2.00081E+01 4.66777E-03-1.27984E-05-1.47806E-04-1.27004E-13-6.25423E-13
 -1      4302 1.70090E+01 1.04531E+00-9.21191E-03-6.98597E-01 6.59182E-14-1.35253E-14
 -1      4303 2.00072E+01 1.95297E-03-1.30858E-05-6.99786E-04-7.28145E-14-6.73656E-13
 -1      4304 1.77248E+01 1.19046E+00-7.09655E-03 3.07680E-01 2.13847E-14-3.08104E-14
 -1      4305 1.73503E+01 1.22116E+00-9.03083E-03 2.98370E-01-6.59199E-14-1.49876E-14
 -1      4306 1.70920E+01 1.24141E+00 1.06018E-02-1.04702E-01-2.21568E-14-2.81936E-14
 -1      4307 1.78279E+01 1.19269E+00 1.01233E-02 5.62063E-02 7.83651E-14-1.89234E-13
 -1      4308 1.96103E+01 4.94295E-01-2.38780E-03-7.97177E-03-6.67905E-14-3.76377E-14
 -1      4309 2.00077E+01 3.18943E-03 1.28953E-05-1.22398E-04-1.86454E-13-6.38528E-13
 -1      4310 1.97634E+01 3.66589E-01 7.81914E-04 3.02815E-03 1.63267E-14-2.17168E-13
 -1      4311 1.96697E+01 4.47470E-01-1.78182E-03 1.69021E-03 1.58740E-14 3.60887E-14
 -1      4312 1.70393E+01 1.20842E+00 1.15337E-02-3.25971E-01 2.90099E-14-1.76029E-14
 -1      4313 1.98399E+01 2.83856E-01-5.62340E-04 6.12447E-03-1.19330E-13-4.27368E-13
 -1      4314 1.81965E+01 1.05672E+00-7.27494E-03-2.39639E-01 1.39204E-13-1.18250E-13
 -1      4315 1.74563E+01 1.17390E+00 2.18055E-03-2.03140E-01 6.38239E-14-1.58392E-13
 -1      4316 1.77178E+01 1.15926E+00-7.04058E-03-1.41851E-01 6.42787E-14-1.94188E-13
 -1      4317 1.80215E+01 1.12282E+00-6.53993E-03-7.50200E-02 1.22156E-13-1.87590E-13
 -3
    1PSTEP                         3           1           1          
  100CL  101 1.000000000        4317                     0    1           1
 -4  TOSTRAIN    6    1
 -5  EXX         1    4    1    1
 -5  EYY         1    4    2    2
 -5  EZZ         1    4    3    3
 -5  EXY         1    4    1    2
 -5  EYZ         1    4    2    3
 -5  EZX         1    4    3    1
 -1         1 4.47705E-05 2.92924E-05-3.13713E-05-6.84434E-05-1.71791E-17 1.85089E-17
 -1         2 3.68329E-05-1.11918E-04 2.02462E-05-7.42455E-07 1.56874E-18 3.64330E-19
 -1         3 9.52375E-05-2.85707E-05-2.85719E-05 4.14298E-10-1.16362E-19-1.69668E-18
 -1         4 9.52375E-05-2.85708E-05-2.85719E-05-3.73619E-10 2.34746E-19 1.85733E-18
 -1         5 1.47158E-04-2.15230E-05-4.46669E-05 3.79541E-05-2.49769E-19 1.88862E-17
 -1         6 1.48393E-04 2.73425E-10-4.60443E-05-5.29784E-05-1.11311E-18 1.84687E-17
 -1         7 9.65613E-05-8.30651E-07-4.11522E-05-2.67815E-05-1.62736E-19 3.70172E-18
 -1         8 8.99819E-05-3.13256E-08-3.82113E-05-1.60469E-05-2.10382E-19-8.73566E-19
 -1         9 8.59833E-05 2.32529E-08-3.66052E-05-1.03905E-05-1.86850E-19-3.42629E-18
 -1        10 8.28609E-05 2.55861E-08-3.53206E-05-6.37776E-06-1.28775E-19-4.73519E-18
 -1        11 8.01398E-05 3.72316E-08-3.42169E-05-3.41119E-06-9.75941E-20-5.38557E-18
 -1        12 7.78179E-05 5.36063E-08-3.32891E-05-1.33123E-06-4.08958E-20-5.71291E-18
 -1        13 7.59416E-05 7.40615E-08-3.25518E-05 4.42137E-08-3.82091E-20-5.79545E-18
 -1        14 7.47422E-05 9.15542E-08-3.20909E-05 8.26166E-07 5.61821E-21-5.82595E-18
 -1        15 7.43987E-05 1.01354E-07-3.19708E-05 1.24258E-06 3.43346E-20-5.74289E-18
 -1        16 7.50232E-05 1.00277E-07-3.22312E-05 1.59887E-06 6.26143E-20-5.61592E-18
 -1        17 7.66259E-05 8.64707E-08-3.28742E-05 2.24863E-06 7.82579E-20-5.36790E-18
 -1        18 7.90545E-05 6.70710E-08-3.38435E-05 3.51516E-06 1.11994E-19-4.82219E-18
 -1        19 8.22457E-05 4.25661E-08-3.51183E-05 5.78547E-06 1.83938E-19-4.05939E-18
 -1        20 8.60483E-05 2.21579E-08-3.66472E-05 9.41042E-06 2.11917E-19-2.52692E-18
 -1        21 9.06594E-05 2.95091E-09-3.84954E-05 1.50138E-05 2.63586E-19 3.67606E-19
 -1        22 9.82332E-05-4.58119E-07-4.11419E-05 2.46480E-05 3.12343E-20 6.11165E-18
 -1        23 1.20441E-04-4.06690E-05-3.76812E-05-3.60911E-06-7.73341E-19 1.45217E-17
 -1        24 1.03493E-04-3.09166E-05-3.21561E-05 5.56756E-07-1.91731E-19 1.10256E-17
 -1        25 1.02455E-04-3.08511E-05-3.08882E-05 4.63182E-07-5.39156E-20 7.65529E-18
 -1        26 1.03468E-04-3.11114E-05-3.09932E-05 2.77108E-07-7.09618E-20 5.14576E-18
 -1        27 1.05003E-04-3.15348E-05-3.14211E-05 1.93241E-07-1.10545E-19 3.10072E-18
 -1        28 1.06096E-04-3.18352E-05-3.17247E-05 1.07010E-07 4.42831E-20 2.33220E-18
 -1        29 1.05967E-04-3.17836E-05-3.16549E-05-8.29758E-09-7.31352E-20 1.70795E-18
 -1        30 1.03999E-04-3.11920E-05-3.10487E-05-1.58884E-07 1.43951E-19 8.68090E-19
 -1        31 9.99641E-05-2.99883E-05-2.98669E-05-3.19345E-07 4.80426E-20-3.15361E-19
 -1        32 9.43328E-05-2.83085E-05-2.82683E-05-4.28323E-07-2.10620E-19-2.03419E-18
 -1        33 8.84244E-05-2.65436E-05-2.66305E-05-4.11318E-07 4.25655E-19-2.18275E-18
 -1        34 8.41106E-05-2.52530E-05-2.54582E-05-2.34104E-07-1.62435E-19-1.59548E-18
 -1        35 8.30312E-05-2.49296E-05-2.51749E-05 5.01698E-08-1.13941E-19-2.72804E-18
 -1        36 8.57240E-05-2.57354E-05-2.59178E-05 3.18478E-07 1.07798E-19-2.79723E-18
 -1        37 9.13135E-05-2.74068E-05-2.74637E-05 4.59017E-07-2.09570E-19-3.05157E-18
 -1        38 9.80092E-05-2.94052E-05-2.93461E-05 4.42675E-07 2.61108E-20-4.30732E-18
 -1        39 1.04016E-04-3.11951E-05-3.10749E-05 3.20957E-07-9.05167E-20-5.18792E-18
 -1        40 1.08208E-04-3.24431E-05-3.23200E-05 1.70041E-07-3.14682E-19-5.33655E-18
 -1        41 1.10283E-04-3.30612E-05-3.29693E-05 4.43139E-08 2.14340E-19-6.21076E-18
 -1        42 1.10525E-04-3.31354E-05-3.30826E-05-3.61427E-08 1.07552E-19-4.73028E-18
 -1        43 1.09479E-04-3.28270E-05-3.28062E-05-7.49019E-08-4.88874E-19-3.77278E-18
 -1        44 1.07701E-04-3.23004E-05-3.22998E-05-8.46593E-08 4.92515E-19-2.24289E-18
 -1        45 1.05634E-04-3.16863E-05-3.16958E-05-7.80969E-08-5.93546E-19-1.52815E-18
 -1        46 1.03576E-04-3.10739E-05-3.10866E-05-6.44499E-08-9.36800E-20-2.64007E-18
 -1        47 1.01703E-04-3.05151E-05-3.05272E-05-4.92794E-08 3.27862E-19-2.04069E-18
 -1        48 1.00095E-04-3.00346E-05-3.00446E-05-3.54080E-08 7.61895E-21-2.26566E-18
 -1        49 9.87750E-05-2.96391E-05-2.96466E-05-2.39531E-08 4.75938E-19-2.44393E-18
 -1        50 9.77279E-05-2.93249E-05-2.93300E-05-1.51033E-08-4.59797E-19-2.73569E-18
 -1        51 9.69225E-05-2.90827E-05-2.90860E-05-8.61003E-09 2.54100E-21-1.57268E-18
 -1        52 9.63205E-05-2.89014E-05-2.89032E-05-4.06355E-09-6.04263E-20-3.45687E-19
 -1        53 9.58833E-05-2.87694E-05-2.87703E-05-1.03492E-09-3.33567E-20-4.44808E-19
 -1        54 9.55757E-05-2.86763E-05-2.86765E-05 8.61013E-10-4.81602E-19-1.24005E-18
 -1        55 9.53671E-05-2.86130E-05-2.86128E-05 1.94365E-09-1.76752E-19-3.01429E-18
 -1        56 9.52324E-05-2.85719E-05-2.85715E-05 2.46460E-09 7.30521E-19-1.39809E-18
 -1        57 9.51513E-05-2.85471E-05-2.85465E-05 2.61445E-09-2.48242E-19-8.35331E-19
 -1        58 9.51080E-05-2.85337E-05-2.85331E-05 2.53289E-09 1.73313E-19-2.33625E-18
 -1        59 9.50905E-05-2.85281E-05-2.85275E-05 2.31929E-09-1.96057E-19-2.71393E-18
 -1        60 9.50898E-05-2.85276E-05-2.85271E-05 2.04212E-09 1.02592E-19-2.09922E-18
 -1        61 9.50995E-05-2.85303E-05-2.85298E-05 1.74689E-09-3.48785E-20-2.26622E-18
 -1        62 9.51150E-05-2.85348E-05-2.85344E-05 1.46233E-09 9.84473E-20-2.25642E-18
 -1        63 9.51332E-05-2.85401E-05-2.85398E-05 1.20533E-09-6.77557E-19-4.92540E-18
 -1        64 9.51521E-05-2.85457E-05-2.85455E-05 9.84453E-10-8.53814E-20-7.65397E-18
 -1        65 9.51705E-05-2.85512E-05-2.85510E-05 8.02436E-10 1.67308E-19-5.39390E-18
 -1        66 9.51875E-05-2.85563E-05-2.85561E-05 6.57529E-10 3.70554E-19-2.74928E-18
 -1        67 9.52028E-05-2.85608E-05-2.85607E-05 5.43340E-10 1.19141E-19 1.40180E-18
 -1        68 9.52160E-05-2.85647E-05-2.85646E-05 4.45994E-10 4.34385E-20 4.34796E-18
 -1        69 9.52266E-05-2.85679E-05-2.85678E-05 3.34369E-10 1.83958E-19 5.77758E-18
 -1        70 9.52341E-05-2.85702E-05-2.85700E-05 1.15058E-10 4.40805E-21 7.59749E-18
 -1        71 9.52375E-05-2.85713E-05-2.85712E-05-2.12497E-10 2.94855E-19 7.00447E-18
 -1        72 1.10996E-04-3.32318E-05-3.69315E-05-2.40550E-06 2.77747E-19 1.71875E-17
 -1        73 1.06042E-04-3.15792E-05-3.29059E-05-4.55511E-07 1.12731E-19 1.28356E-17
 -1        74 1.06671E-04-3.19772E-05-3.22323E-05-2.15673E-07 1.41920E-19 9.73994E-18
 -1        75 1.09770E-04-3.29434E-05-3.29687E-05-2.15845E-07-7.02607E-21 7.85364E-18
 -1        76 1.14087E-04-3.42229E-05-3.42096E-05-2.56630E-07-2.41322E-20 6.60143E-18
 -1        77 1.18580E-04-3.55586E-05-3.54848E-05-3.03606E-07 6.33186E-20 5.62279E-18
 -1        78 1.21942E-04-3.65776E-05-3.63673E-05-3.03696E-07-1.48504E-19 5.51549E-18
 -1        79 1.22466E-04-3.67774E-05-3.63741E-05-1.72483E-07 7.76888E-20 5.63354E-18
 -1        80 1.18442E-04-3.56337E-05-3.50926E-05 1.69050E-07-6.70149E-20 4.57112E-18
 -1        81 1.09283E-04-3.29200E-05-3.24949E-05 6.79687E-07 2.02285E-19 3.33339E-18
 -1        82 9.70482E-05-2.91861E-05-2.92485E-05 1.07295E-06 2.69318E-19 1.62217E-18
 -1        83 8.67915E-05-2.59650E-05-2.66568E-05 9.63455E-07-1.95661E-19 1.13534E-18
 -1        84 8.39531E-05-2.49836E-05-2.60029E-05 2.85484E-07 8.99542E-20 8.14316E-19
 -1        85 9.04702E-05-2.69564E-05-2.76737E-05-5.66046E-07 6.29931E-20-4.49986E-22
 -1        86 1.02876E-04-3.07984E-05-3.08853E-05-9.97491E-07-3.77401E-21-2.17507E-18
 -1        87 1.15293E-04-3.46305E-05-3.42442E-05-9.08800E-07-3.13592E-19-3.04058E-18
 -1        88 1.23531E-04-3.71398E-05-3.66267E-05-5.49205E-07 3.50840E-20-2.57659E-18
 -1        89 1.26536E-04-3.80269E-05-3.76275E-05-1.95520E-07 2.59232E-19-3.86036E-18
 -1        90 1.25403E-04-3.76577E-05-3.74373E-05 3.33528E-08 2.80544E-19-4.36008E-18
 -1        91 1.21867E-04-3.65736E-05-3.64966E-05 1.39424E-07-5.44416E-19-3.41911E-18
 -1        92 1.17388E-04-3.52177E-05-3.52244E-05 1.66112E-07-8.54625E-20-1.16754E-18
 -1        93 1.12901E-04-3.38672E-05-3.39103E-05 1.53424E-07 1.42166E-19-9.66696E-19
 -1        94 1.08882E-04-3.26612E-05-3.27133E-05 1.26455E-07 1.94459E-19-3.54561E-18
 -1        95 1.05509E-04-3.16505E-05-3.16987E-05 9.78401E-08 2.72572E-19-4.88767E-18
 -1        96 1.02794E-04-3.08374E-05-3.08774E-05 7.27315E-08 1.94303E-19-4.97944E-18
 -1        97 1.00674E-04-3.02023E-05-3.02335E-05 5.25285E-08-3.17278E-19-2.29925E-18
 -1        98 9.90545E-05-2.97171E-05-2.97407E-05 3.70234E-08-1.26657E-19 6.40855E-19
 -1        99 9.78426E-05-2.93538E-05-2.93713E-05 2.54655E-08 1.86301E-19-1.98103E-18
 -1       100 9.69522E-05-2.90868E-05-2.90994E-05 1.70255E-08 1.27002E-20-3.10651E-18
 -1       101 9.63109E-05-2.88943E-05-2.89034E-05 1.09678E-08-2.64131E-19-5.60557E-18
 -1       102 9.58589E-05-2.87587E-05-2.87650E-05 6.69449E-09 1.99451E-19-4.85785E-18
 -1       103 9.55489E-05-2.86655E-05-2.86698E-05 3.73992E-09 5.87545E-20-3.52952E-18
 -1       104 9.53434E-05-2.86037E-05-2.86066E-05 1.74865E-09 3.61904E-20-2.72812E-18
 -1       105 9.52135E-05-2.85646E-05-2.85665E-05 4.52182E-10 3.11751E-19-3.56520E-18
 -1       106 9.51373E-05-2.85416E-05-2.85428E-05-3.50708E-10-4.50592E-19-3.61276E-18
 -1       107 9.50982E-05-2.85298E-05-2.85304E-05-8.09516E-10-1.10098E-19-4.43018E-18
 -1       108 9.50839E-05-2.85255E-05-2.85257E-05-1.03432E-09 5.12742E-19-6.86820E-18
 -1       109 9.50856E-05-2.85259E-05-2.85259E-05-1.10544E-09-1.73876E-19-1.52352E-18
 -1       110 9.50970E-05-2.85292E-05-2.85292E-05-1.08084E-09-2.28410E-19-9.20836E-19
 -1       111 9.51136E-05-2.85342E-05-2.85340E-05-1.00182E-09 2.75141E-19-1.03560E-18
 -1       112 9.51325E-05-2.85398E-05-2.85397E-05-8.97326E-10-3.40658E-19-1.80123E-18
 -1       113 9.51519E-05-2.85456E-05-2.85454E-05-7.87296E-10 3.47113E-19-3.62284E-19
 -1       114 9.51705E-05-2.85512E-05-2.85510E-05-6.85146E-10 4.72745E-19-2.27372E-18
 -1       115 9.51877E-05-2.85563E-05-2.85562E-05-5.99213E-10-9.61877E-20-2.17367E-18
 -1       116 9.52030E-05-2.85609E-05-2.85608E-05-5.32957E-10 5.04904E-19-3.03009E-18
 -1       117 9.52162E-05-2.85649E-05-2.85647E-05-4.84302E-10 2.37747E-19-8.16677E-18
 -1       118 9.52269E-05-2.85681E-05-2.85678E-05-4.35830E-10-1.93788E-20-7.33001E-18
 -1       119 9.52343E-05-2.85703E-05-2.85700E-05-3.06601E-10-1.75531E-19-4.37997E-18
 -1       120 9.52375E-05-2.85714E-05-2.85712E-05 9.25080E-11 4.20518E-19-1.39141E-19
 -1       121 9.52371E-05-2.85710E-05-2.85711E-05 2.14764E-10-8.50399E-19-7.98485E-19
 -1       122 9.52381E-05-2.85743E-05-2.85700E-05-1.93322E-10-2.22794E-18 5.74405E-19
 -1       123 9.52402E-05-2.85812E-05-2.85680E-05-3.93366E-10 9.21653E-19 1.15477E-18
 -1       124 9.52428E-05-2.85900E-05-2.85655E-05-4.39547E-10-2.57738E-19 4.09506E-19
 -1       125 9.52454E-05-2.85988E-05-2.85629E-05-3.97273E-10 6.09996E-18 4.37087E-19
 -1       126 9.52477E-05-2.86064E-05-2.85607E-05-3.12699E-10 6.35399E-19-6.66630E-19
 -1       127 9.52494E-05-2.86121E-05-2.85590E-05-1.96197E-10-9.87811E-19-2.95669E-19
 -1       128 9.52502E-05-2.86150E-05-2.85581E-05-6.55606E-11-3.39369E-18-2.09629E-19
 -1       129 9.52502E-05-2.86150E-05-2.85582E-05 6.90791E-11-8.43468E-19 6.62260E-19
 -1       130 9.52493E-05-2.86120E-05-2.85591E-05 1.98736E-10 3.43911E-18-1.06624E-19
 -1       131 9.52476E-05-2.86063E-05-2.85607E-05 3.17303E-10 2.17993E-18-9.82927E-19
 -1       132 9.52454E-05-2.85986E-05-2.85630E-05 3.97918E-10 1.46371E-18 2.05057E-18
 -1       133 9.52427E-05-2.85898E-05-2.85655E-05 4.37204E-10 2.47605E-18-6.25180E-19
 -1       134 9.52401E-05-2.85811E-05-2.85680E-05 4.21893E-10-3.25220E-18-3.73339E-19
 -1       135 9.52381E-05-2.85743E-05-2.85700E-05 2.68782E-10-8.91448E-18-1.40940E-18
 -1       136 9.52373E-05-2.85712E-05-2.85711E-05-4.37151E-10-7.72505E-18-1.94191E-19
 -1       137 2.63087E-05-8.98500E-05 1.60969E-05-2.49310E-05 1.17352E-17 3.19146E-18
 -1       138 7.42001E-06-3.58002E-05 3.74153E-06-1.99148E-05 1.94030E-17 9.10285E-18
 -1       139 1.48883E-05 1.63638E-05-1.69992E-05 2.80474E-05 2.14968E-17 1.75014E-17
 -1       140 7.18907E-05 2.34804E-05-3.90088E-05 8.58649E-05 1.63067E-17 1.95665E-17
 -1       141 1.68070E-04-1.44324E-05-5.86097E-05 1.12037E-04 8.60056E-18 1.71037E-17
 -1       142 2.68306E-04-6.82250E-05-7.41586E-05 8.32274E-05 2.68742E-18 9.02217E-18
 -1       143 3.16709E-04-9.76048E-05-8.04306E-05 5.80534E-06 5.50598E-19-3.99524E-18
 -1       144 2.84403E-04-7.77818E-05-7.63433E-05-7.50096E-05 3.67300E-18-1.54658E-17
 -1       145 1.95837E-04-2.71915E-05-6.36475E-05-1.13295E-04 1.02686E-17-2.28051E-17
 -1       146 9.31482E-05 1.84587E-05-4.44218E-05-9.79112E-05 1.74455E-17-2.39249E-17
 -1       147 2.52937E-05 2.51011E-05-2.35130E-05-4.59720E-05 2.12724E-17-1.92361E-17
 -1       148 5.98050E-06-1.54271E-05-2.84155E-06 6.16302E-06 1.90002E-17-1.10610E-17
 -1       149 1.93455E-05-7.32776E-05 1.27475E-05 2.65367E-05 1.24884E-17-3.85098E-18
 -1       150 3.56439E-05-1.09812E-04 1.98094E-05 1.00476E-05 1.61630E-18-5.36145E-19
 -1       151 3.09440E-05-9.93959E-05 1.78977E-05-1.84040E-05-1.06741E-17-2.04486E-18
 -1       152 1.29212E-05-5.09029E-05 7.27890E-06-2.20623E-05-2.06977E-17-8.17281E-18
 -1       153 6.11239E-06 1.95990E-06-8.64143E-06 6.97591E-06-2.39621E-17-1.54692E-17
 -1       154 4.22442E-05 2.75642E-05-2.99237E-05 6.43474E-05-2.04135E-17-2.01530E-17
 -1       155 1.33456E-04 3.42615E-06-5.29813E-05 1.11162E-04-1.23792E-17-1.97359E-17
 -1       156 2.30786E-04-4.78764E-05-6.86049E-05 1.02802E-04-5.36638E-18-1.59683E-17
 -1       157 2.99297E-04-8.88729E-05-7.78926E-05 3.96425E-05-1.61296E-18-7.11317E-18
 -1       158 2.94185E-04-8.61637E-05-7.70985E-05-4.96941E-05-1.05271E-18 5.65903E-18
 -1       159 2.23138E-04-4.33345E-05-6.76059E-05-1.05765E-04-5.55304E-18 1.43331E-17
 -1       160 1.22537E-04 7.50640E-06-5.05479E-05-1.08057E-04-1.26326E-17 1.94373E-17
 -1       161 8.16884E-06 1.03286E-05-1.21675E-05-1.58596E-05-2.18962E-17 1.49366E-17
 -1       162 9.14207E-06-3.90433E-05 4.60867E-06 2.01601E-05-1.94187E-17 8.84811E-18
 -1       163 2.71757E-05-8.98765E-05 1.59971E-05 2.27287E-05-9.92384E-18 2.33622E-18
 -1       164 1.01853E-04-1.44970E-05-3.76227E-05-1.85437E-05-2.60876E-18 1.25575E-18
 -1       165 9.43221E-05-9.84894E-06-3.63571E-05-1.27747E-05-2.40660E-18-1.59405E-18
 -1       166 8.91553E-05-7.14213E-06-3.52596E-05-8.42828E-06-1.88413E-18-3.28065E-18
 -1       167 8.50737E-05-5.35672E-06-3.42464E-05-5.05357E-06-1.41283E-18-4.19056E-18
 -1       168 8.15887E-05-3.92822E-06-3.33455E-05-2.53685E-06-9.24063E-19-4.62207E-18
 -1       169 7.85971E-05-2.70143E-06-3.25773E-05-7.20072E-07-5.62767E-19-4.83234E-18
 -1       170 7.63587E-05-1.73427E-06-3.20252E-05 4.41959E-07-9.53491E-20-4.86306E-18
 -1       171 7.51512E-05-1.14428E-06-3.17574E-05 1.11482E-06 2.63008E-19-4.91369E-18
 -1       172 7.52150E-05-1.05327E-06-3.18246E-05 1.55569E-06 6.69263E-19-4.85580E-18
 -1       173 7.66666E-05-1.53662E-06-3.22449E-05 2.09118E-06 1.04694E-18-4.69873E-18
 -1       174 7.94049E-05-2.58338E-06-3.29807E-05 3.04731E-06 1.37336E-18-4.29107E-18
 -1       175 8.33753E-05-4.21639E-06-3.40012E-05 4.77627E-06 1.97034E-18-3.60133E-18
 -1       176 8.84193E-05-6.49181E-06-3.52192E-05 7.56019E-06 2.39726E-18-2.57743E-18
 -1       177 9.47442E-05-9.81251E-06-3.65482E-05 1.16543E-05 2.71060E-18-6.53592E-19
 -1       178 1.03917E-04-1.60705E-05-3.78269E-05 1.69125E-05 2.60418E-18 2.78568E-18
 -1       179 1.14932E-04-2.92958E-05-3.78709E-05 1.50198E-05 1.95894E-18 7.39772E-18
 -1       180 1.11790E-04-3.00294E-05-3.50383E-05-9.30184E-06-2.26102E-18 4.67612E-18
 -1       181 1.07077E-04-3.14222E-05-3.24565E-05-2.18706E-06-1.96317E-18 3.48583E-18
 -1       182 1.05087E-04-3.12378E-05-3.16057E-05 3.47486E-07-1.53057E-18 2.43452E-18
 -1       183 1.04928E-04-3.14816E-05-3.14507E-05 1.12740E-06-1.16234E-18 1.72450E-18
 -1       184 1.05288E-04-3.18063E-05-3.14856E-05 8.86295E-07-5.75360E-19 1.12406E-18
 -1       185 1.05464E-04-3.20538E-05-3.14649E-05-1.58689E-07-4.27027E-19 8.10189E-19
 -1       186 1.04906E-04-3.20218E-05-3.12419E-05-1.82438E-06-4.40325E-19 7.74346E-19
 -1       187 1.03260E-04-3.15198E-05-3.07485E-05-3.73183E-06-5.98502E-19 3.52382E-19
 -1       188 1.00501E-04-3.04579E-05-3.00157E-05-5.22206E-06-7.88963E-19 1.99377E-19
 -1       189 9.70952E-05-2.89760E-05-2.91863E-05-5.49460E-06-1.67717E-19 2.53375E-19
 -1       190 9.40002E-05-2.75149E-05-2.84834E-05-4.01660E-06-2.19104E-19-1.23975E-18
 -1       191 9.23488E-05-2.66792E-05-2.81335E-05-9.93238E-07-7.08851E-19-1.75262E-18
 -1       192 9.28738E-05-2.68900E-05-2.82681E-05 2.53785E-06-2.97312E-19-1.93952E-18
 -1       193 9.54537E-05-2.80785E-05-2.88654E-05 5.23674E-06-2.35384E-19-2.37790E-18
 -1       194 9.91863E-05-2.97369E-05-2.97583E-05 6.24432E-06-1.20604E-18-2.58554E-18
 -1       195 1.02916E-04-3.12689E-05-3.07062E-05 5.56966E-06-6.29438E-19-3.26129E-18
 -1       196 1.05768E-04-3.23032E-05-3.14916E-05 3.84896E-06-3.76672E-19-3.63118E-18
 -1       197 1.07363E-04-3.27584E-05-3.19841E-05 1.84895E-06-1.70879E-20-3.49612E-18
 -1       198 1.07741E-04-3.27400E-05-3.21551E-05 1.16165E-07 3.79638E-19-2.99643E-18
 -1       199 1.07173E-04-3.24118E-05-3.20505E-05-1.10849E-06 4.04109E-19-3.79973E-18
 -1       200 1.05993E-04-3.19218E-05-3.17516E-05-1.81183E-06 7.96019E-19-3.21948E-18
 -1       201 1.04502E-04-3.13770E-05-3.13430E-05-2.09505E-06 3.46585E-19-2.68202E-18
 -1       202 1.02929E-04-3.08447E-05-3.08941E-05-2.08957E-06 2.47996E-19-1.45366E-18
 -1       203 1.01424E-04-3.03621E-05-3.04544E-05-1.91277E-06-7.08402E-19-1.13228E-18
 -1       204 1.00075E-04-2.99457E-05-3.00535E-05-1.65274E-06-2.87225E-19-2.31681E-18
 -1       205 9.89209E-05-2.95998E-05-2.97065E-05-1.36819E-06-4.21474E-19-2.32914E-18
 -1       206 9.79682E-05-2.93209E-05-2.94176E-05-1.09435E-06 2.20196E-19-2.52519E-18
 -1       207 9.72055E-05-2.91019E-05-2.91847E-05-8.49703E-07 9.86737E-19-1.70709E-18
 -1       208 9.66111E-05-2.89342E-05-2.90022E-05-6.41850E-07 8.39754E-19-2.66156E-19
 -1       209 9.61596E-05-2.88087E-05-2.88628E-05-4.71767E-07-5.14180E-19-4.12863E-19
 -1       210 9.58251E-05-2.87172E-05-2.87590E-05-3.36785E-07-1.16516E-18-9.67328E-19
 -1       211 9.55840E-05-2.86523E-05-2.86838E-05-2.32495E-07-9.10123E-19-1.25589E-18
 -1       212 9.54154E-05-2.86077E-05-2.86309E-05-1.53919E-07 9.27452E-19-1.24375E-18
 -1       213 9.53019E-05-2.85785E-05-2.85950E-05-9.61900E-08 6.47392E-19-1.73435E-18
 -1       214 9.52291E-05-2.85603E-05-2.85718E-05-5.49006E-08-1.94382E-19-1.03058E-18
 -1       215 9.51859E-05-2.85501E-05-2.85578E-05-2.62587E-08-7.66517E-19-1.43121E-18
 -1       216 9.51633E-05-2.85454E-05-2.85503E-05-7.11680E-09-6.98568E-19-2.37180E-18
 -1       217 9.51549E-05-2.85443E-05-2.85472E-05 5.06193E-09 3.28783E-19-1.44515E-18
 -1       218 9.51557E-05-2.85456E-05-2.85471E-05 1.22705E-08-6.94612E-19-2.46524E-18
 -1       219 9.51620E-05-2.85482E-05-2.85487E-05 1.60360E-08-8.34241E-19-3.34381E-18
 -1       220 9.51715E-05-2.85514E-05-2.85514E-05 1.74969E-08-1.43826E-18-3.51472E-18
 -1       221 9.51825E-05-2.85550E-05-2.85546E-05 1.74730E-08 1.50151E-18-2.50885E-18
 -1       222 9.51937E-05-2.85585E-05-2.85579E-05 1.65232E-08 2.33447E-18-8.97707E-19
 -1       223 9.52045E-05-2.85618E-05-2.85611E-05 1.49899E-08 2.62177E-18 1.95008E-19
 -1       224 9.52142E-05-2.85649E-05-2.85640E-05 1.30296E-08 1.58763E-18 1.04643E-18
 -1       225 9.52226E-05-2.85675E-05-2.85665E-05 1.06313E-08 1.11696E-18 9.87147E-19
 -1       226 9.52294E-05-2.85698E-05-2.85684E-05 7.65184E-09 2.31755E-18 2.25505E-18
 -1       227 9.52344E-05-2.85715E-05-2.85698E-05 3.99515E-09-5.04362E-19 3.52349E-18
 -1       228 1.10955E-04-3.20739E-05-3.39652E-05 3.74104E-06 2.05206E-18 6.36403E-18
 -1       229 1.08721E-04-3.20608E-05-3.28197E-05-7.08428E-07 1.54104E-18 4.77237E-18
 -1       230 1.09502E-04-3.25752E-05-3.29283E-05-2.67984E-06 8.70035E-19 3.59089E-18
 -1       231 1.11777E-04-3.34434E-05-3.35529E-05-3.57600E-06 6.62709E-19 2.97039E-18
 -1       232 1.14615E-04-3.45261E-05-3.43168E-05-3.52397E-06 4.64982E-19 2.41757E-18
 -1       233 1.17097E-04-3.55968E-05-3.49194E-05-2.28229E-06-1.81642E-19 2.43016E-18
 -1       234 1.18182E-04-3.62983E-05-3.50704E-05 3.92856E-07 3.10186E-19 2.38611E-18
 -1       235 1.16834E-04-3.61236E-05-3.45559E-05 4.27847E-06 5.54539E-19 2.13511E-18
 -1       236 1.12533E-04-3.45751E-05-3.33866E-05 8.11123E-06 8.29111E-19 1.50338E-18
 -1       237 1.06103E-04-3.16924E-05-3.19126E-05 9.51278E-06 8.35421E-19 1.13690E-18
 -1       238 1.00241E-04-2.87210E-05-3.07366E-05 6.43992E-06 6.35367E-19 3.36285E-19
 -1       239 9.82243E-05-2.74838E-05-3.04244E-05-3.32754E-07 5.15598E-19-7.36763E-19
 -1       240 1.01602E-04-2.90878E-05-3.11397E-05-7.17399E-06 1.01576E-18-1.90609E-18
 -1       241 1.08419E-04-3.23687E-05-3.25872E-05-1.01313E-05 4.60816E-19-2.52126E-18
 -1       242 1.15200E-04-3.53429E-05-3.41847E-05-8.65971E-06 2.82006E-19-2.51366E-18
 -1       243 1.19504E-04-3.69079E-05-3.53660E-05-4.78850E-06 2.06173E-19-3.48778E-18
 -1       244 1.20739E-04-3.70777E-05-3.58449E-05-8.42684E-07 7.28263E-19-3.49251E-18
 -1       245 1.19519E-04-3.63633E-05-3.56450E-05 1.95517E-06 1.10131E-19-3.42948E-18
 -1       246 1.16820E-04-3.52541E-05-3.49690E-05 3.42412E-06-1.34287E-18-2.01066E-18
 -1       247 1.13491E-04-3.40625E-05-3.40513E-05 3.88034E-06-8.39305E-19-1.16979E-18
 -1       248 1.10112E-04-3.29486E-05-3.30761E-05 3.72584E-06 3.84470E-19-9.90021E-19
 -1       249 1.07009E-04-3.19791E-05-3.21581E-05 3.27531E-06 1.62430E-18-2.41359E-18
 -1       250 1.04332E-04-3.11712E-05-3.13542E-05 2.72738E-06 2.11948E-19-3.29093E-18
 -1       251 1.02116E-04-3.05177E-05-3.06827E-05 2.18964E-06-7.21823E-19-1.62322E-18
 -1       252 1.00335E-04-3.00011E-05-3.01404E-05 1.71143E-06-1.52370E-18-3.38694E-19
 -1       253 9.89380E-05-2.96003E-05-2.97134E-05 1.30918E-06-1.31055E-18-6.50309E-19
 -1       254 9.78638E-05-2.92947E-05-2.93842E-05 9.82619E-07 1.38596E-18 3.49592E-20
 -1       255 9.70527E-05-2.90657E-05-2.91351E-05 7.24054E-07 7.06018E-19-9.21066E-19
 -1       256 9.64512E-05-2.88971E-05-2.89499E-05 5.23284E-07 1.03749E-18-1.39344E-18
 -1       257 9.60135E-05-2.87753E-05-2.88149E-05 3.69998E-07-6.67399E-19-2.83374E-18
 -1       258 9.57018E-05-2.86892E-05-2.87185E-05 2.54822E-07-9.79565E-19-1.66008E-18
 -1       259 9.54854E-05-2.86301E-05-2.86513E-05 1.69690E-07 4.85547E-19 1.87734E-19
 -1       260 9.53398E-05-2.85909E-05-2.86060E-05 1.07879E-07 1.27472E-18-1.06966E-18
 -1       261 9.52460E-05-2.85661E-05-2.85766E-05 6.39045E-08-4.90948E-19-2.02884E-18
 -1       262 9.51894E-05-2.85516E-05-2.85586E-05 3.33744E-08 2.76621E-19-1.29003E-18
 -1       263 9.51587E-05-2.85442E-05-2.85488E-05 1.28171E-08 1.28171E-19-1.24584E-19
 -1       264 9.51457E-05-2.85416E-05-2.85444E-05-4.72917E-10-2.95642E-18 1.60917E-19
 -1       265 9.51442E-05-2.85421E-05-2.85436E-05-8.57605E-09 1.63008E-21 9.24514E-19
 -1       266 9.51499E-05-2.85444E-05-2.85451E-05-1.30681E-08 3.06672E-20 1.41578E-18
 -1       267 9.51598E-05-2.85478E-05-2.85479E-05-1.51210E-08 5.19413E-20 2.59102E-18
 -1       268 9.51716E-05-2.85516E-05-2.85514E-05-1.55855E-08 7.74885E-19 1.46408E-18
 -1       269 9.51841E-05-2.85555E-05-2.85551E-05-1.50563E-08 1.69351E-19 1.63649E-18
 -1       270 9.51962E-05-2.85592E-05-2.85587E-05-1.39216E-08 9.59258E-19 1.77601E-18
 -1       271 9.52075E-05-2.85626E-05-2.85621E-05-1.23958E-08 1.33138E-18-1.01804E-18
 -1       272 9.52174E-05-2.85657E-05-2.85650E-05-1.05450E-08 1.89400E-18-1.35867E-18
 -1       273 9.52256E-05-2.85682E-05-2.85674E-05-8.29675E-09-1.05677E-18-2.96378E-19
 -1       274 9.52318E-05-2.85703E-05-2.85692E-05-5.46299E-09-1.14039E-18-1.24027E-18
 -1       275 9.52357E-05-2.85716E-05-2.85704E-05-2.08273E-09-1.05847E-18-1.50420E-18
 -1       276 9.52369E-05-2.85741E-05-2.85698E-05-4.10166E-09 3.17481E-19 3.75356E-19
 -1       277 9.52387E-05-2.85787E-05-2.85686E-05-7.16394E-09 1.71952E-19 1.01784E-18
 -1       278 9.52409E-05-2.85846E-05-2.85670E-05-8.78702E-09 1.30420E-19 4.00139E-19
 -1       279 9.52432E-05-2.85908E-05-2.85653E-05-8.88289E-09 3.11262E-19 3.34623E-18
 -1       280 9.52452E-05-2.85966E-05-2.85637E-05-7.75156E-09-7.86322E-19-3.58233E-18
 -1       281 9.52469E-05-2.86012E-05-2.85624E-05-5.66701E-09-5.31114E-19-1.48573E-18
 -1       282 9.52479E-05-2.86043E-05-2.85615E-05-2.96379E-09-2.96398E-19-1.22184E-18
 -1       283 9.52482E-05-2.86053E-05-2.85612E-05 3.99127E-11 9.01744E-19 1.23741E-18
 -1       284 9.52479E-05-2.86042E-05-2.85615E-05 3.03679E-09 1.00637E-18 1.82798E-18
 -1       285 9.52468E-05-2.86011E-05-2.85624E-05 5.72221E-09-9.95931E-21-3.22465E-19
 -1       286 9.52452E-05-2.85965E-05-2.85637E-05 7.75409E-09 1.43542E-18 3.12904E-19
 -1       287 9.52432E-05-2.85907E-05-2.85653E-05 8.88017E-09 8.91404E-19 6.00968E-19
 -1       288 9.52409E-05-2.85845E-05-2.85670E-05 8.75549E-09-1.09005E-19-4.66648E-18
 -1       289 9.52386E-05-2.85786E-05-2.85686E-05 7.04655E-09-2.02577E-18-2.55593E-18
 -1       290 9.52365E-05-2.85748E-05-2.85693E-05 6.30789E-09-8.37835E-19-1.02887E-18
 -1       291 1.21438E-05-4.75330E-05 1.19122E-05 5.82331E-06 1.39512E-18 5.48083E-18
 -1       292 2.63967E-05-4.36801E-05 4.67968E-06 2.08456E-05 4.70146E-18 6.94631E-18
 -1       293 5.84394E-05-3.93854E-05-9.77228E-06 3.56705E-05 6.03172E-18 6.63349E-18
 -1       294 1.00024E-04-3.48790E-05-2.82093E-05 4.31418E-05 7.83802E-18 6.28287E-18
 -1       295 1.44017E-04-3.26641E-05-4.63856E-05 4.50343E-05 7.61324E-18 6.62443E-18
 -1       296 1.79590E-04-3.44701E-05-6.03218E-05 2.29795E-05 6.14401E-18 2.53856E-18
 -1       297 1.97878E-04-3.00427E-05-6.94203E-05 7.46079E-06 7.02699E-18-8.08705E-19
 -1       298 2.14245E-04-3.71932E-05-7.21054E-05-1.10291E-05 6.19086E-18-4.81062E-18
 -1       299 1.89749E-04-3.42716E-05-6.40185E-05-2.57881E-05 6.47287E-18-6.70045E-18
 -1       300 1.56344E-04-3.40309E-05-5.07596E-05-4.17541E-05 7.51419E-18-8.88368E-18
 -1       301 1.10320E-04-3.16854E-05-3.35017E-05-4.65702E-05 8.47668E-18-9.83363E-18
 -1       302 6.67972E-05-3.45092E-05-1.52762E-05-3.82217E-05 7.93966E-18-9.24780E-18
 -1       303 3.94936E-05-4.14135E-05-8.94384E-07-3.16983E-05 3.98529E-18-6.96677E-18
 -1       304 1.49041E-05-4.38739E-05 9.60469E-06-1.25442E-05 1.96046E-18-6.17201E-18
 -1       305 1.13341E-05-4.93644E-05 1.27556E-05 3.68424E-06-1.83698E-18-5.96894E-18
 -1       306 2.12964E-05-4.09615E-05 6.08180E-06 2.18379E-05-4.33850E-18-7.24414E-18
 -1       307 4.28066E-05-3.75074E-05-4.36872E-06 3.13928E-05-8.51162E-18-7.79630E-18
 -1       308 8.19630E-05-3.51815E-05-2.07160E-05 4.34437E-05-8.48303E-18-7.01894E-18
 -1       309 1.30576E-04-3.71135E-05-3.95128E-05 4.05200E-05-7.51403E-18-5.76829E-18
 -1       310 1.69265E-04-3.13733E-05-5.68259E-05 4.20708E-05-6.93903E-18-7.72663E-18
 -1       311 1.94922E-04-3.21959E-05-6.69988E-05 2.07172E-05-5.73484E-18-4.64608E-18
 -1       312 1.97220E-04-2.81613E-05-6.99304E-05-1.04594E-06-6.01160E-18-1.72451E-18
 -1       313 1.97861E-04-3.45645E-05-6.68803E-05-2.63056E-05-5.46829E-18 1.95876E-18
 -1       314 1.64522E-04-3.22679E-05-5.48182E-05-3.71275E-05-6.09289E-18 3.99588E-18
 -1       315 1.22458E-04-2.84847E-05-3.94510E-05-4.85510E-05-7.28946E-18 6.82476E-18
 -1       316 8.16386E-05-3.01485E-05-2.26793E-05-4.37270E-05-8.59230E-18 6.93889E-18
 -1       317 4.77363E-05-3.60705E-05-6.93447E-06-3.29552E-05-7.03990E-18 7.05621E-18
 -1       318 2.44624E-05-4.39316E-05 5.37597E-06-2.01080E-05-4.84079E-18 7.36352E-18
 -1       319 1.28755E-05-4.94299E-05 1.21744E-05-7.60626E-06-1.65097E-18 6.41109E-18
 -1       320 9.60183E-05-1.59086E-05-3.44033E-05-8.00571E-06-2.48799E-18-1.53042E-18
 -1       321 1.02548E-04-2.14736E-05-3.48112E-05-1.02649E-05-2.76908E-18 2.09038E-19
 -1       322 8.62491E-05-9.45836E-06-3.29606E-05-2.63228E-06-1.34962E-18-3.31735E-18
 -1       323 8.22112E-05-7.04639E-06-3.22503E-05-6.23006E-07-8.58417E-19-3.70186E-18
 -1       324 7.88770E-05-5.03758E-06-3.16729E-05 6.93370E-07-3.43640E-19-3.77291E-18
 -1       325 7.65976E-05-3.59721E-06-3.13075E-05 1.34470E-06 1.65897E-19-3.87882E-18
 -1       326 7.57538E-05-2.95903E-06-3.12173E-05 1.51837E-06 6.81109E-19-3.91014E-18
 -1       327 7.66113E-05-3.31150E-06-3.14361E-05 1.54038E-06 1.05215E-18-3.82244E-18
 -1       328 7.91613E-05-4.69167E-06-3.19448E-05 1.79049E-06 1.49581E-18-3.52621E-18
 -1       329 8.33425E-05-7.11810E-06-3.27096E-05 2.60863E-06 1.97566E-18-2.86613E-18
 -1       330 8.88882E-05-1.05639E-05-3.36278E-05 4.17780E-06 2.56368E-18-2.15941E-18
 -1       331 9.56772E-05-1.52351E-05-3.45508E-05 6.40304E-06 2.88685E-18-1.05372E-18
 -1       332 1.03488E-04-2.17079E-05-3.51496E-05 8.27163E-06 3.01006E-18 1.17543E-18
 -1       333 1.08532E-04-2.74855E-05-3.48075E-05 6.74595E-06 2.66208E-18 3.20261E-18
 -1       334 1.07915E-04-3.01764E-05-3.32838E-05 2.89100E-07 2.12652E-18 2.40825E-18
 -1       335 1.05028E-04-2.89811E-05-3.25510E-05-2.51557E-06-2.23370E-18 5.82614E-19
 -1       336 1.04718E-04-3.05227E-05-3.17793E-05 4.31701E-07-1.66446E-18 4.58002E-19
 -1       337 1.05013E-04-3.16730E-05-3.14268E-05 1.33242E-06-1.08434E-18 4.76947E-19
 -1       338 1.05657E-04-3.27391E-05-3.12569E-05 7.16060E-07-6.56716E-19 3.74078E-19
 -1       339 1.06268E-04-3.36188E-05-3.11471E-05-1.15491E-06-5.23986E-19 7.71592E-20
 -1       340 1.06382E-04-3.39640E-05-3.10470E-05-3.89008E-06-5.01199E-19 1.40246E-19
 -1       341 1.05550E-04-3.33248E-05-3.09588E-05-6.71276E-06-6.63688E-19 5.03944E-19
 -1       342 1.03592E-04-3.14556E-05-3.09118E-05-8.41299E-06-6.79865E-19 4.44553E-19
 -1       343 1.00917E-04-2.87320E-05-3.09268E-05-7.72455E-06-1.01343E-18-1.32733E-19
 -1       344 9.86299E-05-2.63101E-05-3.09788E-05-4.16592E-06-8.82155E-19-5.81213E-19
 -1       345 9.79739E-05-2.55363E-05-3.10281E-05 1.27193E-06-1.15476E-18-1.39198E-18
 -1       346 9.94023E-05-2.69106E-05-3.10529E-05 6.39837E-06-8.99116E-19-1.65962E-18
 -1       347 1.02170E-04-2.96367E-05-3.10773E-05 9.22702E-06-1.25008E-18-2.31425E-18
 -1       348 1.04954E-04-3.23045E-05-3.11351E-05 9.14823E-06-9.41010E-19-2.26630E-18
 -1       349 1.06785E-04-3.39438E-05-3.12264E-05 6.91361E-06-6.97925E-19-1.93664E-18
 -1       350 1.07390E-04-3.43729E-05-3.13072E-05 3.79557E-06-2.98132E-19-2.17873E-18
 -1       351 1.06989E-04-3.39302E-05-3.13256E-05 8.36252E-07 3.79416E-19-2.01001E-18
 -1       352 1.05955E-04-3.30631E-05-3.12513E-05-1.41940E-06 1.58556E-19-2.90153E-18
 -1       353 1.04613E-04-3.21051E-05-3.10828E-05-2.84132E-06 4.73944E-19-2.45258E-18
 -1       354 1.03186E-04-3.12356E-05-3.08401E-05-3.53398E-06 1.26779E-18-2.24630E-18
 -1       355 1.01807E-04-3.05210E-05-3.05526E-05-3.68823E-06 7.58419E-19-1.65800E-18
 -1       356 1.00549E-04-2.99658E-05-3.02493E-05-3.49533E-06-4.65822E-19-2.34816E-18
 -1       357 9.94450E-05-2.95487E-05-2.99537E-05-3.11038E-06-5.27340E-19-2.33719E-18
 -1       358 9.85046E-05-2.92419E-05-2.96816E-05-2.64437E-06 2.26826E-19-1.96333E-18
 -1       359 9.77237E-05-2.90198E-05-2.94420E-05-2.16920E-06 3.06152E-19-7.19773E-19
 -1       360 9.70898E-05-2.88612E-05-2.92385E-05-1.72685E-06 8.75417E-19-4.48965E-19
 -1       361 9.65860E-05-2.87496E-05-2.90706E-05-1.33840E-06 1.21258E-18-7.43944E-19
 -1       362 9.61936E-05-2.86726E-05-2.89358E-05-1.01130E-06 9.76898E-20-1.03517E-18
 -1       363 9.58942E-05-2.86206E-05-2.88301E-05-7.44766E-07-1.14677E-18-1.88231E-18
 -1       364 9.56706E-05-2.85867E-05-2.87491E-05-5.33533E-07-8.93000E-19-3.73729E-19
 -1       365 9.55073E-05-2.85657E-05-2.86884E-05-3.70239E-07 2.55001E-19-5.72437E-20
 -1       366 9.53912E-05-2.85535E-05-2.86441E-05-2.46963E-07 4.96773E-19-8.41379E-19
 -1       367 9.53112E-05-2.85475E-05-2.86126E-05-1.56100E-07 1.11863E-18-4.84293E-19
 -1       368 9.52582E-05-2.85454E-05-2.85909E-05-9.08201E-08-5.36512E-19 3.35378E-19
 -1       369 9.52250E-05-2.85459E-05-2.85765E-05-4.52619E-08-1.35062E-18 1.66108E-18
 -1       370 9.52060E-05-2.85479E-05-2.85676E-05-1.45616E-08-3.63525E-20 1.09031E-18
 -1       371 9.51969E-05-2.85507E-05-2.85626E-05 5.20455E-09-7.26433E-19-6.07254E-19
 -1       372 9.51944E-05-2.85538E-05-2.85602E-05 1.71222E-08-7.21045E-19 1.45758E-19
 -1       373 9.51961E-05-2.85569E-05-2.85596E-05 2.35577E-08-1.05194E-18 6.81318E-19
 -1       374 9.52004E-05-2.85599E-05-2.85602E-05 2.62745E-08-4.06539E-20 1.53503E-18
 -1       375 9.52060E-05-2.85627E-05-2.85614E-05 2.65387E-08 2.70132E-18 1.47074E-18
 -1       376 9.52122E-05-2.85652E-05-2.85630E-05 2.52087E-08 3.29954E-18 4.28030E-19
 -1       377 9.52183E-05-2.85675E-05-2.85646E-05 2.28077E-08 1.74795E-18 3.63599E-19
 -1       378 9.52240E-05-2.85697E-05-2.85662E-05 1.95875E-08 4.83481E-19 8.78599E-19
 -1       379 9.52292E-05-2.85718E-05-2.85675E-05 1.56070E-08 6.81314E-19-1.21367E-19
 -1       380 9.52330E-05-2.85734E-05-2.85684E-05 1.11907E-08 1.62798E-18-9.58565E-19
 -1       381 1.08134E-04-3.13334E-05-3.28796E-05-3.33855E-06 1.49545E-18 1.87658E-18
 -1       382 1.09511E-04-3.24340E-05-3.30191E-05-5.18816E-06 1.05953E-18 1.32344E-18
 -1       383 1.11744E-04-3.38758E-05-3.33774E-05-5.51760E-06 6.36558E-19 8.29578E-19
 -1       384 1.14348E-04-3.56625E-05-3.37400E-05-4.07554E-06-3.91372E-20 7.01004E-19
 -1       385 1.16680E-04-3.74936E-05-3.39605E-05-5.36638E-07 1.51093E-19 6.28405E-19
 -1       386 1.17819E-04-3.85627E-05-3.39901E-05 4.90273E-06 5.54277E-19 1.32254E-18
 -1       387 1.16678E-04-3.75932E-05-3.39193E-05 1.06868E-05 9.29122E-19 1.46783E-18
 -1       388 1.12802E-04-3.37449E-05-3.39118E-05 1.35005E-05 1.20724E-18 1.83431E-18
 -1       389 1.07795E-04-2.84563E-05-3.40479E-05 9.88142E-06 1.56624E-18 9.99572E-19
 -1       390 1.05297E-04-2.55764E-05-3.42148E-05 4.56766E-07 1.21251E-18-7.01499E-19
 -1       391 1.07698E-04-2.78528E-05-3.42549E-05-9.80456E-06 2.25642E-18-2.19812E-18
 -1       392 1.13037E-04-3.32151E-05-3.42275E-05-1.44187E-05 7.48066E-19-2.85252E-18
 -1       393 1.17593E-04-3.75913E-05-3.43005E-05-1.23645E-05 3.34715E-19-3.31031E-18
 -1       394 1.19344E-04-3.90848E-05-3.44221E-05-6.66310E-06 9.07980E-19-3.06615E-18
 -1       395 1.18559E-04-3.83148E-05-3.44228E-05-8.25669E-07 5.69630E-19-3.46942E-18
 -1       396 1.16258E-04-3.65628E-05-3.41838E-05 3.34333E-06 3.44140E-20-2.08702E-18
 -1       397 1.13340E-04-3.47338E-05-3.37076E-05 5.56922E-06-1.18733E-18-1.48394E-18
 -1       398 1.10343E-04-3.31948E-05-3.30723E-05 6.29245E-06-1.30926E-18-2.29816E-18
 -1       399 1.07538E-04-3.20055E-05-3.23723E-05 6.08470E-06 4.04635E-19-1.30948E-18
 -1       400 1.05049E-04-3.11127E-05-3.16838E-05 5.40489E-06 2.29029E-18-1.36086E-18
 -1       401 1.02919E-04-3.04448E-05-3.10550E-05 4.55274E-06 5.12652E-19-9.15968E-19
 -1       402 1.01146E-04-2.99430E-05-3.05095E-05 3.69809E-06-1.75639E-18-7.43053E-19
 -1       403 9.97023E-05-2.95645E-05-3.00535E-05 2.92411E-06-1.52449E-18-6.44969E-19
 -1       404 9.85508E-05-2.92790E-05-2.96830E-05 2.26265E-06-4.84037E-19-1.71341E-18
 -1       405 9.76485E-05-2.90648E-05-2.93889E-05 1.71800E-06 7.90204E-19-1.28979E-18
 -1       406 9.69535E-05-2.89056E-05-2.91601E-05 1.28118E-06 1.26890E-18-6.86522E-19
 -1       407 9.64271E-05-2.87890E-05-2.89852E-05 9.37925E-07 6.70286E-19 8.02016E-20
 -1       408 9.60354E-05-2.87050E-05-2.88539E-05 6.72852E-07 4.11096E-19 1.18348E-18
 -1       409 9.57495E-05-2.86460E-05-2.87572E-05 4.71430E-07-1.44070E-18 4.68897E-19
 -1       410 9.55452E-05-2.86056E-05-2.86873E-05 3.20823E-07 2.61960E-19-2.28764E-19
 -1       411 9.54029E-05-2.85791E-05-2.86380E-05 2.10115E-07 1.56291E-18-4.26377E-19
 -1       412 9.53070E-05-2.85626E-05-2.86041E-05 1.30265E-07 2.13664E-19-3.41933E-19
 -1       413 9.52450E-05-2.85533E-05-2.85818E-05 7.39226E-08-2.59241E-19 6.24041E-19
 -1       414 9.52075E-05-2.85488E-05-2.85677E-05 3.52162E-08-3.96784E-19 1.66464E-18
 -1       415 9.51872E-05-2.85476E-05-2.85596E-05 9.51692E-09-2.42925E-18 6.70831E-19
 -1       416 9.51786E-05-2.85485E-05-2.85556E-05-6.77062E-09-8.25072E-19 6.88727E-19
 -1       417 9.51776E-05-2.85506E-05-2.85544E-05-1.63975E-08-1.60528E-18 2.47845E-18
 -1       418 9.51815E-05-2.85534E-05-2.85549E-05-2.14318E-08 2.71250E-19 3.18981E-18
 -1       419 9.51881E-05-2.85564E-05-2.85564E-05-2.33928E-08 1.20004E-18 3.11233E-18
 -1       420 9.51961E-05-2.85594E-05-2.85586E-05-2.33613E-08 3.02808E-19 1.76263E-18
 -1       421 9.52045E-05-2.85623E-05-2.85609E-05-2.20644E-08 1.10703E-18-4.23008E-20
 -1       422 9.52126E-05-2.85650E-05-2.85632E-05-1.99393E-08 2.73206E-18 9.76266E-19
 -1       423 9.52200E-05-2.85675E-05-2.85654E-05-1.71799E-08 1.12169E-18 2.31499E-19
 -1       424 9.52265E-05-2.85698E-05-2.85672E-05-1.37959E-08-4.23501E-19 1.44478E-18
 -1       425 9.52318E-05-2.85719E-05-2.85686E-05-9.70030E-09-2.70796E-19 1.67322E-18
 -1       426 9.52346E-05-2.85732E-05-2.85692E-05-7.02612E-09-1.33637E-18 1.30206E-18
 -1       427 9.52414E-05-2.85855E-05-2.85668E-05-1.50888E-08 1.40137E-18 2.16563E-18
 -1       428 9.52382E-05-2.85803E-05-2.85677E-05-1.40247E-08 5.43460E-19 1.03135E-18
 -1       429 9.52361E-05-2.85765E-05-2.85684E-05-1.10426E-08-8.71038E-19 1.73771E-18
 -1       430 9.52442E-05-2.85902E-05-2.85660E-05-1.40576E-08 1.17689E-19-2.43267E-18
 -1       431 9.52464E-05-2.85943E-05-2.85652E-05-1.12773E-08 6.54440E-20-1.91010E-18
 -1       432 9.52479E-05-2.85972E-05-2.85646E-05-7.23712E-09 1.04834E-18-4.56116E-19
 -1       433 9.52487E-05-2.85987E-05-2.85643E-05-2.44760E-09-8.28296E-19 4.08647E-19
 -1       434 9.52487E-05-2.85987E-05-2.85643E-05 2.58308E-09-8.82446E-19 9.38223E-19
 -1       435 9.52479E-05-2.85971E-05-2.85646E-05 7.35064E-09-7.08043E-19 7.02231E-19
 -1       436 9.52464E-05-2.85942E-05-2.85652E-05 1.12947E-08-4.84132E-19-4.28740E-19
 -1       437 9.52441E-05-2.85902E-05-2.85660E-05 1.40520E-08 5.48240E-19 2.13997E-18
 -1       438 9.52413E-05-2.85853E-05-2.85669E-05 1.50692E-08 6.91642E-19-3.17589E-18
 -1       439 9.52382E-05-2.85802E-05-2.85677E-05 1.40565E-08 4.82015E-19-4.81336E-18
 -1       440 6.01817E-05-4.23262E-05-7.70550E-06 4.19750E-05-5.84453E-19 4.67160E-18
 -1       441 1.15586E-05-2.31272E-05 4.70660E-06-2.09407E-06-2.71734E-19 6.44126E-18
 -1       442 2.52469E-05-2.71598E-05 7.74100E-07 2.61260E-05-1.24350E-18 5.87947E-18
 -1       443 1.06577E-04-5.65933E-05-2.14447E-05 3.81068E-05 8.11140E-19 1.75018E-18
 -1       444 1.39889E-04-5.53208E-05-3.62181E-05 2.16570E-05 3.28982E-18 6.36228E-19
 -1       445 9.08631E-05-1.23347E-05-3.37169E-05-5.27007E-06-1.99437E-18-2.70309E-18
 -1       446 1.56475E-04-2.26337E-05-5.74845E-05-7.00487E-06 6.81872E-18-1.99545E-18
 -1       447 1.56347E-04-1.21740E-05-6.17703E-05-3.86353E-07 7.21301E-18-1.46401E-18
 -1       448 1.57592E-04-1.86747E-05-5.95463E-05 4.44430E-06 6.24464E-18-1.00945E-18
 -1       449 1.58237E-04-3.84893E-05-5.13681E-05-9.33988E-07 4.41585E-18-1.04556E-18
 -1       450 1.45537E-04-5.43207E-05-3.91513E-05-1.69989E-05 2.85760E-18-2.00037E-18
 -1       451 1.14794E-04-5.55706E-05-2.54955E-05-3.64990E-05 2.12341E-18-4.47869E-18
 -1       452 7.88068E-05-4.85108E-05-1.30974E-05-4.35429E-05 5.79371E-19-5.51835E-18
 -1       453 3.34931E-05-2.98572E-05-1.56690E-06-3.24740E-05 1.22820E-20-6.26730E-18
 -1       454 1.25738E-05-2.23831E-05 3.92225E-06-6.26255E-06-1.39337E-19-7.18697E-18
 -1       455 1.70523E-05-2.36825E-05 2.61720E-06 1.91529E-05-1.76130E-19-7.15933E-18
 -1       456 5.20539E-05-3.67407E-05-6.42309E-06 4.29318E-05-6.24687E-21-5.37458E-18
 -1       457 8.59511E-05-4.97204E-05-1.55553E-05 4.48166E-05-8.88220E-19-3.37342E-18
 -1       458 1.23260E-04-5.47889E-05-2.93620E-05 3.27796E-05-3.19818E-18-1.55854E-18
 -1       459 1.49867E-04-4.26329E-05-4.59159E-05 1.22587E-05-4.41990E-18-1.49607E-18
 -1       460 1.58008E-04-2.83368E-05-5.54332E-05 2.63617E-06-5.11830E-18-1.89090E-18
 -1       461 1.51587E-04-1.20603E-05-5.99803E-05-2.53466E-06-6.26804E-18-1.22132E-18
 -1       462 1.53508E-04-1.42205E-05-5.97958E-05 3.18125E-06-6.03871E-18-2.63401E-18
 -1       463 1.54850E-04-2.75671E-05-5.45383E-05 1.33049E-06-4.90390E-18-3.04762E-18
 -1       464 1.47029E-04-4.51842E-05-4.35423E-05-1.74289E-05-3.63037E-18-2.05194E-19
 -1       465 1.23675E-04-5.19729E-05-3.07236E-05-3.30877E-05-2.22854E-18 1.23900E-18
 -1       466 8.91894E-05-4.94893E-05-1.71882E-05-4.32451E-05-1.36150E-18 2.50309E-18
 -1       467 5.19819E-05-3.98506E-05-5.49648E-06-4.18556E-05-2.02335E-19 4.92862E-18
 -1       468 2.30575E-05-2.82942E-05 1.96193E-06-2.69481E-05-3.71106E-19 6.98400E-18
 -1       469 1.55943E-04-4.42139E-05-4.78953E-05 4.35218E-06 4.40914E-18-1.60301E-19
 -1       470 6.41588E-05-3.85807E-05-1.06111E-05-4.17487E-05-1.49554E-18-4.90517E-18
 -1       471 1.40380E-04-5.54307E-05-3.65530E-05 1.30742E-05-2.27214E-18 6.68203E-19
 -1       472 1.04011E-04-2.71400E-05-3.29299E-05-1.65793E-06 2.11391E-18 2.78660E-19
 -1       473 8.22109E-05-9.50732E-06-3.11709E-05 1.75970E-06-3.76477E-19-3.36781E-18
 -1       474 8.66047E-05-1.25132E-05-3.17699E-05 3.70197E-07-9.03169E-19-3.15015E-18
 -1       475 7.65645E-05-5.48597E-06-3.04696E-05 2.09752E-06 4.06396E-19-3.52677E-18
 -1       476 7.63786E-05-5.19634E-06-3.05139E-05 1.35533E-06 8.25250E-19-3.60663E-18
 -1       477 7.82934E-05-6.33427E-06-3.08490E-05 5.92369E-07 1.21866E-18-3.50446E-18
 -1       478 8.22536E-05-8.90284E-06-3.14498E-05 2.37452E-07 1.67331E-18-2.89244E-18
 -1       479 8.78476E-05-1.27066E-05-3.22224E-05 5.65170E-07 2.05742E-18-2.22507E-18
 -1       480 9.46054E-05-1.76012E-05-3.30206E-05 1.47422E-06 2.39559E-18-1.49285E-18
 -1       481 1.31483E-04-6.27591E-05-2.94353E-05 2.02489E-05-6.71009E-19-8.37424E-19
 -1       482 1.04884E-04-2.92693E-05-3.23907E-05-5.45723E-06 1.54685E-18-3.80503E-21
 -1       483 1.02302E-04-2.71968E-05-3.21820E-05-1.04757E-06-1.88274E-18-6.02394E-19
 -1       484 1.42993E-04-3.62134E-05-4.62844E-05-1.52011E-05 4.13003E-18-4.14771E-18
 -1       485 1.03461E-04-2.99841E-05-3.14854E-05 1.32276E-06-1.29509E-18-4.00697E-19
 -1       486 1.04875E-04-3.23556E-05-3.10813E-05 1.94332E-06-9.26499E-19-3.73254E-19
 -1       487 1.06655E-04-3.45713E-05-3.08985E-05 8.95601E-07-5.78760E-19-3.22924E-19
 -1       488 1.08495E-04-3.63434E-05-3.09282E-05-1.67622E-06-3.90067E-19-2.75712E-19
 -1       489 1.09738E-04-3.69180E-05-3.12106E-05-5.30198E-06-3.65965E-19-1.71126E-19
 -1       490 1.09558E-04-3.53865E-05-3.17871E-05-8.83933E-06-7.03322E-19-2.38252E-20
 -1       491 1.07527E-04-3.14548E-05-3.26054E-05-1.04291E-05-1.28283E-18-2.73615E-19
 -1       492 1.04382E-04-2.63791E-05-3.34454E-05-8.22485E-06-1.37402E-18-3.71129E-19
 -1       493 1.02152E-04-2.29475E-05-3.39491E-05-2.15357E-06-1.36455E-18-5.07778E-19
 -1       494 1.02594E-04-2.35540E-05-3.38842E-05 5.24740E-06-1.54354E-18-1.10767E-18
 -1       495 1.05353E-04-2.77302E-05-3.32794E-05 1.04568E-05-1.25154E-18-1.85675E-18
 -1       496 1.08423E-04-3.27888E-05-3.24154E-05 1.14710E-05-1.15143E-18-1.60286E-18
 -1       497 1.10019E-04-3.62319E-05-3.16250E-05 9.02748E-06-7.64580E-19-1.00223E-18
 -1       498 1.09725E-04-3.72681E-05-3.10597E-05 5.03147E-06-4.66541E-19-9.25369E-19
 -1       499 1.08120E-04-3.64772E-05-3.07121E-05 1.11778E-06-7.43590E-20-9.49414E-19
 -1       500 1.05984E-04-3.48188E-05-3.05062E-05-1.89138E-06-4.33014E-19-1.09308E-18
 -1       501 1.03860E-04-3.30256E-05-3.03625E-05-3.80943E-06 3.52920E-19-1.51969E-18
 -1       502 1.02007E-04-3.14821E-05-3.02279E-05-4.77557E-06 1.28196E-18-1.40195E-18
 -1       503 1.00493E-04-3.03113E-05-3.00788E-05-5.03574E-06 1.17397E-18-1.66255E-18
 -1       504 9.92911E-05-2.94969E-05-2.99118E-05-4.83181E-06-2.76020E-19-1.78575E-18
 -1       505 9.83490E-05-2.89684E-05-2.97338E-05-4.36011E-06-9.09552E-20-1.49916E-18
 -1       506 9.76121E-05-2.86482E-05-2.95549E-05-3.76343E-06-3.75338E-20-1.08613E-18
 -1       507 9.70358E-05-2.84698E-05-2.93843E-05-3.13737E-06 1.02670E-18-1.29339E-18
 -1       508 9.65855E-05-2.83831E-05-2.92285E-05-2.54068E-06 1.10726E-18-5.66519E-20
 -1       509 9.62348E-05-2.83526E-05-2.90914E-05-2.00548E-06 1.07604E-18 3.59727E-19
 -1       510 9.59636E-05-2.83546E-05-2.89745E-05-1.54572E-06 6.23414E-19 6.86312E-19
 -1       511 9.57558E-05-2.83738E-05-2.88773E-05-1.16379E-06-8.99405E-19 1.18676E-18
 -1       512 9.55984E-05-2.84005E-05-2.87985E-05-8.55256E-07-5.39618E-19 1.21094E-18
 -1       513 9.54809E-05-2.84291E-05-2.87361E-05-6.12044E-07-5.49128E-19 1.00816E-18
 -1       514 9.53948E-05-2.84564E-05-2.86876E-05-4.24639E-07-8.66306E-20-1.96300E-19
 -1       515 9.53329E-05-2.84807E-05-2.86507E-05-2.83413E-07 7.98426E-19-6.10530E-19
 -1       516 9.52896E-05-2.85015E-05-2.86233E-05-1.79393E-07 3.09750E-19-6.38581E-19
 -1       517 9.52602E-05-2.85187E-05-2.86034E-05-1.04650E-07 4.36497E-19 1.24714E-18
 -1       518 9.52412E-05-2.85325E-05-2.85894E-05-5.24378E-08-9.69499E-19 1.54900E-18
 -1       519 9.52296E-05-2.85433E-05-2.85798E-05-1.71884E-08-1.64443E-18 8.33530E-19
 -1       520 9.52233E-05-2.85517E-05-2.85735E-05 5.57394E-09-8.25277E-19 1.68985E-18
 -1       521 9.52206E-05-2.85580E-05-2.85696E-05 1.93591E-08-4.85889E-19 1.19192E-18
 -1       522 9.52203E-05-2.85628E-05-2.85675E-05 2.68510E-08 7.20299E-19 2.32711E-18
 -1       523 9.52216E-05-2.85663E-05-2.85665E-05 3.00433E-08 4.61192E-19 1.99075E-18
 -1       524 9.52237E-05-2.85690E-05-2.85663E-05 3.03611E-08 1.66784E-18 9.16123E-19
 -1       525 9.52264E-05-2.85712E-05-2.85665E-05 2.87683E-08 2.13866E-18 1.47658E-18
 -1       526 9.52292E-05-2.85731E-05-2.85669E-05 2.58547E-08 1.91706E-18 2.27762E-19
 -1       527 9.52321E-05-2.85750E-05-2.85674E-05 2.19216E-08-7.61407E-19-8.38121E-19
 -1       528 1.09320E-04-3.43841E-05-3.21246E-05-7.74652E-06 5.22102E-19-1.96216E-20
 -1       529 1.13257E-04-3.81126E-05-3.22210E-05-5.62467E-06-2.01392E-19-1.42613E-19
 -1       530 1.17990E-04-4.20101E-05-3.25847E-05-6.69866E-07-7.60096E-20 3.88238E-19
 -1       531 1.22060E-04-4.39632E-05-3.35073E-05 6.79100E-06-5.03273E-20 1.19437E-18
 -1       532 1.23077E-04-4.08364E-05-3.53209E-05 1.42829E-05 7.23416E-19 2.12749E-18
 -1       533 1.19576E-04-3.17901E-05-3.77112E-05 1.62969E-05 1.96256E-18 2.46907E-18
 -1       534 1.12448E-04-2.09494E-05-3.97234E-05 7.95217E-06 3.17370E-18 1.56685E-18
 -1       535 1.14562E-04-2.20615E-05-3.97826E-05-7.26360E-06 3.24725E-18-7.18277E-19
 -1       536 1.18389E-04-3.02689E-05-3.79291E-05-1.68305E-05 2.37340E-18-2.43744E-18
 -1       537 1.23111E-04-4.00965E-05-3.56487E-05-1.64627E-05 7.89991E-19-3.39987E-18
 -1       538 1.23049E-04-4.42533E-05-3.38015E-05-8.99942E-06-6.87089E-20-2.93170E-18
 -1       539 1.19222E-04-4.28524E-05-3.27549E-05-9.90219E-07 5.37991E-19-2.24952E-18
 -1       540 1.14388E-04-3.91725E-05-3.22556E-05 4.77074E-06-4.55147E-19-1.03205E-18
 -1       541 1.10051E-04-3.54951E-05-3.19667E-05 7.91245E-06-8.17374E-19-1.16381E-18
 -1       542 1.06654E-04-3.27121E-05-3.16966E-05 9.03573E-06-1.18952E-18-9.92316E-19
 -1       543 1.04103E-04-3.08859E-05-3.13806E-05 8.88386E-06-1.58951E-20-1.10161E-18
 -1       544 1.02175E-04-2.97856E-05-3.10221E-05 8.04716E-06 5.39987E-19-1.41074E-18
 -1       545 1.00679E-04-2.91585E-05-3.06483E-05 6.92022E-06 8.38395E-19 1.19439E-18
 -1       546 9.94922E-05-2.88147E-05-3.02863E-05 5.73968E-06-4.71022E-19 2.72798E-18
 -1       547 9.85365E-05-2.86321E-05-2.99552E-05 4.63302E-06-5.13683E-19 1.00152E-18
 -1       548 9.77650E-05-2.85385E-05-2.96651E-05 3.65879E-06-5.95871E-19-7.25629E-20
 -1       549 9.71455E-05-2.84934E-05-2.94195E-05 2.83524E-06 7.95894E-20-1.18105E-18
 -1       550 9.66531E-05-2.84748E-05-2.92170E-05 2.15887E-06 2.83473E-20-1.41182E-18
 -1       551 9.62671E-05-2.84707E-05-2.90538E-05 1.61560E-06 1.41879E-19 8.80252E-20
 -1       552 9.59690E-05-2.84745E-05-2.89249E-05 1.18726E-06-5.90999E-19 4.93212E-19
 -1       553 9.57428E-05-2.84825E-05-2.88248E-05 8.55106E-07-8.13565E-19 1.39624E-18
 -1       554 9.55742E-05-2.84925E-05-2.87485E-05 6.01635E-07-4.51012E-19 3.23193E-19
 -1       555 9.54511E-05-2.85031E-05-2.86914E-05 4.11311E-07 1.37966E-18 1.62088E-18
 -1       556 9.53633E-05-2.85136E-05-2.86495E-05 2.70831E-07 4.58508E-19 2.29926E-18
 -1       557 9.53025E-05-2.85234E-05-2.86193E-05 1.69088E-07-1.66234E-19 2.28283E-18
 -1       558 9.52618E-05-2.85323E-05-2.85982E-05 9.69934E-08-8.21661E-19 2.53776E-18
 -1       559 9.52358E-05-2.85400E-05-2.85838E-05 4.72314E-08-6.14196E-19 1.77433E-18
 -1       560 9.52205E-05-2.85467E-05-2.85744E-05 1.40049E-08-2.36585E-18 1.97203E-18
 -1       561 9.52127E-05-2.85523E-05-2.85687E-05-7.21025E-09-1.44761E-18 3.18780E-18
 -1       562 9.52098E-05-2.85569E-05-2.85655E-05-1.98859E-08-7.08394E-19 4.56500E-19
 -1       563 9.52103E-05-2.85607E-05-2.85641E-05-2.66355E-08 4.18999E-19 1.22897E-18
 -1       564 9.52128E-05-2.85639E-05-2.85638E-05-2.93783E-08 7.15903E-19 2.15003E-18
 -1       565 9.52163E-05-2.85664E-05-2.85643E-05-2.94742E-08 2.61823E-18 1.25572E-18
 -1       566 9.52204E-05-2.85686E-05-2.85651E-05-2.78372E-08 1.32614E-18 7.61889E-19
 -1       567 9.52246E-05-2.85707E-05-2.85660E-05-2.50616E-08 1.12153E-18 3.74448E-18
 -1       568 9.52287E-05-2.85726E-05-2.85669E-05-2.13854E-08-2.17882E-19 4.46730E-18
 -1       569 9.52326E-05-2.85747E-05-2.85677E-05-1.68078E-08 5.54757E-19 4.07727E-18
 -1       570 9.52465E-05-2.85895E-05-2.85673E-05-1.65623E-08 1.08795E-18-2.93642E-18
 -1       571 9.52491E-05-2.85924E-05-2.85671E-05-1.20203E-08 2.39750E-18-1.22192E-19
 -1       572 9.52387E-05-2.85810E-05-2.85676E-05-1.98026E-08 1.52040E-18 1.75891E-18
 -1       573 9.52430E-05-2.85855E-05-2.85675E-05-1.92432E-08 7.97444E-19-3.74308E-19
 -1       574 9.52507E-05-2.85942E-05-2.85670E-05-6.26305E-09 1.56944E-18-1.64780E-18
 -1       575 9.52512E-05-2.85948E-05-2.85670E-05 9.62923E-11-2.39811E-19 1.74760E-20
 -1       576 9.52506E-05-2.85942E-05-2.85670E-05 6.44054E-09-2.14675E-19 2.46058E-18
 -1       577 9.52490E-05-2.85923E-05-2.85671E-05 1.20649E-08 2.29537E-19 2.41235E-19
 -1       578 9.52465E-05-2.85894E-05-2.85673E-05 1.65730E-08-4.44024E-20 5.68101E-19
 -1       579 9.52429E-05-2.85854E-05-2.85675E-05 1.92251E-08-1.66862E-18-3.99716E-19
 -1       580 9.52386E-05-2.85808E-05-2.85676E-05 1.96238E-08-1.09845E-18-5.04690E-18
 -1       581 2.52377E-05-1.49688E-05-3.83053E-06 1.18550E-05-1.08402E-18 4.97431E-18
 -1       582 9.66175E-05-5.20833E-05-1.87462E-05 3.78443E-05-2.61797E-18 9.13234E-19
 -1       583 1.06557E-04-3.14826E-05-3.21726E-05-7.53674E-06 1.07758E-18-1.65233E-19
 -1       584 2.67357E-05-1.52155E-05-4.30999E-06-1.67777E-05 5.69974E-19 5.73780E-18
 -1       585 5.33349E-05-2.99134E-05-9.50754E-06 3.63747E-05-2.62961E-18 4.66223E-18
 -1       586 1.00094E-04-2.28559E-05-3.31266E-05-4.42953E-06-2.37110E-18-1.03942E-18
 -1       587 5.26889E-05-2.90726E-05-9.52831E-06-3.81215E-05 2.58334E-18 3.91933E-18
 -1       588 1.35764E-04-1.90705E-05-5.05909E-05-1.06762E-05-4.64995E-18 3.70868E-19
 -1       589 1.14579E-04-5.75716E-05-2.42472E-05 3.39933E-05 9.15113E-19 4.77780E-21
 -1       590 1.34479E-04-6.23656E-05-3.10135E-05-1.85376E-05-2.21711E-19 2.46169E-20
 -1       591 7.86757E-05-7.04410E-06-3.07084E-05 2.33065E-06 5.77200E-20-3.51621E-18
 -1       592 1.32691E-04-1.26064E-05-5.20052E-05-8.86756E-06 6.24517E-18-1.89929E-18
 -1       593 1.46135E-04-5.08539E-05-4.12231E-05 5.79778E-06 1.61382E-18 1.16435E-18
 -1       594 1.33761E-04-1.41586E-05-5.18890E-05 6.31207E-06 5.42096E-18 2.83055E-19
 -1       595 3.04790E-05-1.66372E-05-5.30540E-06-2.02271E-05-5.94961E-19-6.12977E-18
 -1       596 1.39503E-04-2.80842E-05-4.83088E-05 1.50344E-05 3.77004E-18 1.13698E-18
 -1       597 1.10610E-04-5.75441E-05-2.25836E-05-3.43584E-05-1.48030E-18-2.42968E-18
 -1       598 2.18660E-05-1.31195E-05-3.20805E-06 6.63936E-06 5.11363E-19-6.87791E-18
 -1       599 4.08160E-05-2.27018E-05-7.24996E-06 3.31559E-05 1.79031E-18-5.87550E-18
 -1       600 8.01308E-05-4.37422E-05-1.51984E-05 4.35232E-05 1.94092E-18-2.68883E-18
 -1       601 1.26163E-04-7.39712E-06-5.16263E-05 2.40452E-06-4.89850E-18-1.31685E-18
 -1       602 1.43759E-04-3.66237E-05-4.63330E-05-5.87767E-06-3.13323E-18 6.82920E-20
 -1       603 1.38021E-04-5.71851E-05-3.48040E-05-1.14223E-05-3.32103E-19-2.34570E-18
 -1       604 1.34801E-04-1.88518E-05-5.02673E-05 1.13515E-05-4.29700E-18-2.97973E-18
 -1       605 1.42518E-04-4.11057E-05-4.38576E-05 6.58876E-06-3.02518E-18-4.35772E-18
 -1       606 1.17504E-04-5.88311E-05-2.50575E-05-3.26173E-05 1.09458E-18-9.74220E-19
 -1       607 8.27806E-05-4.74448E-05-1.48734E-05-4.38101E-05 2.24120E-18 1.38117E-18
 -1       608 1.45267E-04-5.56221E-05-3.87111E-05-2.47823E-07 1.65606E-18-2.38699E-18
 -1       609 1.04079E-04-2.52874E-05-3.37720E-05 2.72491E-06 2.60544E-18 6.16291E-19
 -1       610 9.13980E-05-1.58589E-05-3.24022E-05-1.53306E-06-1.52235E-18-2.58010E-18
 -1       611 9.41325E-05-4.86641E-05-1.91927E-05-3.77323E-05-2.31452E-18-3.25466E-18
 -1       612 1.19086E-04-1.10419E-05-4.67963E-05-6.39286E-06-4.41442E-18-7.48827E-19
 -1       613 1.29910E-04-5.93461E-05-3.03106E-05 1.83921E-05 3.19331E-19 1.51435E-18
 -1       614 5.15057E-05-2.46943E-05-1.09368E-05-3.21142E-05-1.27677E-18-4.99474E-18
 -1       615 1.39915E-04-4.88381E-05-3.92863E-05-2.18639E-06-1.23753E-18 1.07128E-18
 -1       616 9.52340E-05-2.85763E-05-2.85676E-05 1.86850E-08-5.88752E-19-1.13243E-18
 -1       617 1.38040E-04-2.73489E-05-4.79366E-05-1.43404E-05 4.95382E-18-3.64102E-18
 -1       618 7.68545E-05-7.69802E-06-2.96402E-05 1.30655E-07 8.69000E-19-3.23534E-18
 -1       619 7.60394E-05-7.29571E-06-2.94642E-05 2.16148E-06 5.99715E-19-3.37594E-18
 -1       620 8.57376E-05-1.37405E-05-3.08613E-05-2.62013E-06 1.53273E-18-2.31367E-18
 -1       621 9.24721E-05-1.85309E-05-3.16933E-05-2.75030E-06 1.84883E-18-1.69442E-18
 -1       622 9.52376E-05-2.85790E-05-2.85680E-05-2.44677E-08 2.14684E-19 2.19347E-18
 -1       623 9.89528E-05-2.41810E-05-3.20369E-05-4.10233E-06 1.87514E-18-9.75315E-19
 -1       624 1.31032E-04-3.53920E-05-4.15169E-05-1.86536E-05 3.08734E-18-3.50643E-18
 -1       625 1.38189E-04-5.04686E-05-3.78322E-05-1.06395E-05 1.19535E-18-4.48949E-18
 -1       626 1.02139E-04-3.00422E-05-3.08987E-05 3.13047E-06-1.02150E-18-1.08150E-18
 -1       627 1.04927E-04-3.37182E-05-3.05206E-05 3.56169E-06-6.70375E-19-8.90285E-19
 -1       628 1.08326E-04-3.72771E-05-3.04548E-05 2.20774E-06-2.47247E-19-4.95350E-19
 -1       629 1.11923E-04-4.00401E-05-3.08105E-05-1.05202E-06-3.65299E-19-2.02411E-19
 -1       630 1.14597E-04-4.05304E-05-3.17373E-05-5.81296E-06-5.51217E-19-1.84122E-20
 -1       631 1.14775E-04-3.70713E-05-3.33203E-05-1.04618E-05-8.51257E-19 2.47052E-19
 -1       632 1.11721E-04-2.95680E-05-3.52328E-05-1.18479E-05-1.47714E-18 6.45052E-19
 -1       633 1.07293E-04-2.13119E-05-3.69370E-05-7.50859E-06-1.70160E-18 1.12199E-19
 -1       634 1.06183E-04-1.90140E-05-3.74336E-05 2.02977E-06-2.38226E-18-7.25136E-19
 -1       635 1.08333E-04-2.30888E-05-3.65939E-05 1.03768E-05-1.80170E-18-7.40008E-19
 -1       636 1.12712E-04-3.18388E-05-3.46992E-05 1.31462E-05-9.58217E-19-9.99302E-19
 -1       637 1.14881E-04-3.85695E-05-3.27184E-05 1.04310E-05-7.82561E-19-5.73892E-19
 -1       638 1.13834E-04-4.10361E-05-3.12086E-05 5.23502E-06-5.17810E-19-7.78359E-19
 -1       639 1.10703E-04-4.00743E-05-3.02755E-05 2.80848E-07-3.70639E-19-8.53128E-19
 -1       640 1.06971E-04-3.74579E-05-2.97950E-05-3.27303E-06-4.20521E-19-5.69945E-19
 -1       641 1.03595E-04-3.45560E-05-2.95907E-05-5.34899E-06-5.30940E-20-4.11742E-19
 -1       642 1.00950E-04-3.20771E-05-2.95180E-05-6.26843E-06 6.57526E-19 1.78131E-19
 -1       643 9.90435E-05-3.02396E-05-2.94879E-05-6.40142E-06 6.51943E-19-5.32533E-19
 -1       644 9.77412E-05-2.90134E-05-2.94548E-05-6.04901E-06 2.93890E-19-1.30421E-18
 -1       645 9.68807E-05-2.82738E-05-2.94027E-05-5.42986E-06 3.43791E-19 8.47967E-20
 -1       646 9.63222E-05-2.78828E-05-2.93308E-05-4.69272E-06-4.73456E-19-1.64103E-19
 -1       647 9.59621E-05-2.77228E-05-2.92451E-05-3.93438E-06-1.08443E-19-7.98151E-19
 -1       648 9.57293E-05-2.77050E-05-2.91529E-05-3.21444E-06 1.32779E-18-1.66980E-18
 -1       649 9.55770E-05-2.77672E-05-2.90610E-05-2.56618E-06 2.05728E-18-1.93961E-18
 -1       650 9.54755E-05-2.78680E-05-2.89744E-05-2.00473E-06 1.04691E-18-9.50157E-19
 -1       651 9.54064E-05-2.79816E-05-2.88962E-05-1.53328E-06-4.23382E-19-3.49590E-21
 -1       652 9.53583E-05-2.80929E-05-2.88279E-05-1.14762E-06 5.32146E-20 1.52093E-18
 -1       653 9.53241E-05-2.81938E-05-2.87700E-05-8.39381E-07-1.32452E-18 2.15507E-18
 -1       654 9.52993E-05-2.82807E-05-2.87222E-05-5.98251E-07-1.40733E-18 1.53926E-18
 -1       655 9.52812E-05-2.83529E-05-2.86835E-05-4.13478E-07-3.27088E-19 1.26263E-18
 -1       656 9.52679E-05-2.84111E-05-2.86529E-05-2.74818E-07-5.22007E-20 1.37785E-19
 -1       657 9.52582E-05-2.84568E-05-2.86291E-05-1.73029E-07 7.81079E-19 4.25757E-19
 -1       658 9.52511E-05-2.84919E-05-2.86111E-05-1.00094E-07-1.38435E-19 1.16042E-18
 -1       659 9.52460E-05-2.85182E-05-2.85976E-05-4.92689E-08-1.37735E-18 2.50751E-18
 -1       660 9.52424E-05-2.85374E-05-2.85879E-05-1.50395E-08-5.47664E-19 2.22323E-18
 -1       661 9.52400E-05-2.85512E-05-2.85809E-05 6.99938E-09-1.36565E-18 3.17995E-18
 -1       662 9.52383E-05-2.85607E-05-2.85761E-05 2.02838E-08 5.68382E-19 2.57088E-18
 -1       663 9.52373E-05-2.85672E-05-2.85729E-05 2.74284E-08-3.21832E-19 1.22410E-18
 -1       664 9.52368E-05-2.85715E-05-2.85708E-05 3.03678E-08 4.39087E-19 1.97521E-18
 -1       665 9.52367E-05-2.85744E-05-2.85695E-05 3.04729E-08 1.26528E-18 1.40984E-18
 -1       666 9.52368E-05-2.85765E-05-2.85687E-05 2.86759E-08-5.64285E-19-1.60226E-18
 -1       667 9.52374E-05-2.85784E-05-2.85682E-05 2.56244E-08-1.03229E-18-3.10647E-18
 -1       668 1.13024E-04-4.19647E-05-3.04439E-05-9.31516E-06-4.52946E-19-4.99915E-20
 -1       669 1.05156E-04-5.35093E-05-2.19395E-05-3.40349E-05 2.99259E-18-7.17470E-19
 -1       670 1.06627E-04-3.56035E-05-3.04412E-05-1.09611E-05 3.10133E-20-2.12491E-19
 -1       671 1.29626E-04-5.06963E-05-3.38907E-05 5.48907E-06-4.22076E-19 1.36996E-18
 -1       672 1.30345E-04-5.04063E-05-3.43963E-05-8.09381E-06-3.07423E-19-4.10047E-18
 -1       673 1.22845E-04-4.94508E-05-3.14431E-05 1.89463E-06-5.02945E-19-2.92112E-18
 -1       674 1.14106E-04-4.34261E-05-3.02819E-05 8.27747E-06-9.65182E-19-1.25464E-18
 -1       675 1.07236E-04-3.72349E-05-3.00002E-05 1.11335E-05-7.50098E-19-9.93252E-19
 -1       676 1.02690E-04-3.26406E-05-3.00227E-05 1.17590E-05-6.33209E-19-1.22500E-18
 -1       677 9.99599E-05-2.97758E-05-3.00801E-05 1.11772E-05-9.97569E-19-1.36529E-18
 -1       678 9.83917E-05-2.82174E-05-3.00745E-05 1.00182E-05-4.19794E-19 8.53772E-20
 -1       679 9.74876E-05-2.74974E-05-2.99947E-05 8.63748E-06-9.85931E-20 6.46968E-19
 -1       680 9.69378E-05-2.72609E-05-2.98601E-05 7.23584E-06-7.73969E-19 1.05469E-18
 -1       681 9.65706E-05-2.72769E-05-2.96958E-05 5.92318E-06 1.39123E-19 1.37544E-19
 -1       682 9.62987E-05-2.74085E-05-2.95231E-05 4.75390E-06-1.91775E-19 1.03342E-18
 -1       683 9.60816E-05-2.75804E-05-2.93566E-05 3.74828E-06 1.14632E-20 4.78762E-19
 -1       684 9.59019E-05-2.77546E-05-2.92051E-05 2.90637E-06 6.34427E-19 1.18343E-19
 -1       685 9.57520E-05-2.79138E-05-2.90728E-05 2.21675E-06-2.54038E-19-8.91188E-19
 -1       686 9.56280E-05-2.80513E-05-2.89609E-05 1.66239E-06-2.13934E-19-1.43249E-20
 -1       687 9.55273E-05-2.81663E-05-2.88686E-05 1.22424E-06-2.34148E-19-3.85764E-19
 -1       688 9.54471E-05-2.82604E-05-2.87940E-05 8.83492E-07-8.15143E-19-1.67252E-18
 -1       689 9.53847E-05-2.83360E-05-2.87349E-05 6.22698E-07 1.75523E-19-9.05307E-19
 -1       690 9.53372E-05-2.83959E-05-2.86890E-05 4.26336E-07-6.30855E-20 9.62819E-19
 -1       691 9.53019E-05-2.84426E-05-2.86539E-05 2.81036E-07 2.86984E-20 9.47306E-19
 -1       692 9.52764E-05-2.84787E-05-2.86275E-05 1.75572E-07-5.72751E-19 7.77072E-19
 -1       693 9.52584E-05-2.85061E-05-2.86081E-05 1.00697E-07-6.32677E-19 8.95274E-20
 -1       694 9.52463E-05-2.85266E-05-2.85941E-05 4.89248E-08-7.88549E-19-9.15158E-20
 -1       695 9.52385E-05-2.85418E-05-2.85843E-05 1.42957E-08-2.48418E-18-7.30276E-19
 -1       696 9.52338E-05-2.85527E-05-2.85776E-05-7.85395E-09-5.81956E-19-8.03468E-19
 -1       697 9.52313E-05-2.85605E-05-2.85732E-05-2.11094E-08-5.94512E-19 3.17057E-19
 -1       698 9.52304E-05-2.85659E-05-2.85705E-05-2.81696E-08 1.37736E-18-6.46922E-19
 -1       699 9.52305E-05-2.85696E-05-2.85689E-05-3.10137E-08 1.51567E-18-2.73619E-19
 -1       700 9.52312E-05-2.85723E-05-2.85681E-05-3.10442E-08 6.51263E-19 1.87508E-18
 -1       701 9.52325E-05-2.85743E-05-2.85678E-05-2.92134E-08-1.22204E-19 3.52053E-18
 -1       702 9.52353E-05-2.85767E-05-2.85680E-05-2.71461E-08-8.56080E-19 3.42254E-18
 -1       703 9.52545E-05-2.85919E-05-2.85697E-05-3.58618E-09 1.70712E-18-1.66674E-18
 -1       704 9.52379E-05-2.85796E-05-2.85679E-05 2.29073E-08-7.33859E-19-4.47850E-18
 -1       705 9.52503E-05-2.85888E-05-2.85692E-05-1.68565E-08 1.70966E-18 1.12013E-19
 -1       706 9.52544E-05-2.85919E-05-2.85697E-05 3.83420E-09 6.38921E-20 4.72040E-19
 -1       707 9.52531E-05-2.85909E-05-2.85695E-05-1.07008E-08 1.56916E-18-9.12826E-19
 -1       708 1.35379E-04-5.95680E-05-3.25428E-05 5.12065E-06-7.17040E-19-2.84892E-18
 -1       709 9.52530E-05-2.85908E-05-2.85695E-05 1.07975E-08-6.17865E-19 1.63931E-18
 -1       710 9.52502E-05-2.85887E-05-2.85692E-05 1.69005E-08 6.85387E-20-4.47105E-19
 -1       711 9.52462E-05-2.85855E-05-2.85688E-05 2.15106E-08-1.35808E-18-9.01146E-19
 -1       712 4.86441E-05-1.72871E-05-1.29533E-05 2.11893E-05-1.57111E-18 3.56625E-18
 -1       713 7.88057E-05-3.69016E-05-1.76153E-05 3.40645E-05-2.57531E-18 2.14225E-18
 -1       714 9.77716E-05-2.26562E-05-3.21993E-05-1.12994E-06-1.74756E-18-1.51678E-18
 -1       715 1.18919E-04-1.39439E-05-4.53722E-05 9.81816E-06-3.46029E-18-2.40058E-18
 -1       716 1.34766E-04-5.02760E-05-3.64198E-05 4.33449E-06-9.49994E-19-4.60140E-18
 -1       717 4.77873E-05-1.79571E-05-1.22779E-05-2.40739E-05 8.55477E-19 3.44271E-18
 -1       718 1.00278E-04-2.71355E-05-3.13431E-05-7.78280E-06 1.29868E-18-8.95185E-19
 -1       719 6.60726E-05-3.00999E-05-1.49538E-05 3.66212E-05 2.71792E-18-3.53070E-18
 -1       720 1.02567E-04-3.06920E-05-3.08038E-05-1.02043E-05 6.09416E-19-6.11243E-19
 -1       721 3.51165E-05-1.12609E-05-9.68505E-06-1.75635E-06-2.77137E-19 4.82496E-18
 -1       722 1.21549E-04-4.84726E-05-3.13080E-05-3.93179E-06-6.96417E-19 7.42039E-19
 -1       723 9.99815E-05-2.66113E-05-3.14443E-05 1.50380E-06-1.39270E-18-1.25261E-18
 -1       724 1.14653E-04-5.62385E-05-2.48933E-05 2.50097E-05-1.85254E-18-6.49476E-19
 -1       725 1.36478E-04-5.70768E-05-3.41367E-05-9.12346E-07-4.99564E-19 1.06235E-18
 -1       726 3.58434E-05-1.02615E-05-1.03685E-05-4.95468E-06 1.06772E-19-5.72705E-18
 -1       727 8.02433E-05-9.94876E-06-3.01302E-05-1.64465E-06 1.21166E-18-2.88656E-18
 -1       728 7.87125E-05-3.86524E-05-1.68137E-05-3.77314E-05 2.90980E-18 1.03942E-18
 -1       729 1.23785E-04-5.90004E-05-2.76450E-05-2.09162E-05-1.76250E-18 8.13946E-22
 -1       730 8.62982E-05-1.48753E-05-3.06126E-05 3.55115E-06-4.11534E-19-2.78637E-18
 -1       731 1.29347E-04-3.15588E-05-4.23073E-05 1.44827E-05-2.48204E-18-3.95775E-18
 -1       732 1.30602E-04-3.12812E-05-4.30105E-05-1.29653E-05-2.43490E-18 1.01649E-18
 -1       733 4.00383E-05-1.31700E-05-1.09866E-05 1.88844E-05 1.73730E-18-5.54748E-18
 -1       734 1.02466E-04-5.01326E-05-2.22316E-05 3.39439E-05 2.14757E-18-4.33443E-20
 -1       735 1.26459E-04-5.94261E-05-2.87483E-05-1.90205E-05 1.53677E-18-2.29890E-18
 -1       736 1.32480E-04-4.51695E-05-3.76546E-05 1.38342E-05 9.12374E-19 1.98936E-18
 -1       737 7.77915E-05-8.70044E-06-2.96135E-05 3.71520E-06 3.75543E-19-3.21853E-18
 -1       738 9.14613E-05-1.85478E-05-3.12513E-05 2.01741E-06-9.42856E-19-2.34605E-18
 -1       739 9.52462E-05-2.85857E-05-2.85688E-05-2.14140E-08 5.96696E-19-1.09262E-18
 -1       740 6.72382E-05-2.66290E-05-1.71270E-05-2.93893E-05 2.10231E-18 1.07369E-18
 -1       741 9.76646E-05-4.44307E-05-2.26315E-05 2.80661E-05-2.06771E-18 4.93119E-19
 -1       742 7.69353E-05-3.51359E-05-1.75753E-05-3.46792E-05-1.77554E-18-3.68610E-18
 -1       743 1.17971E-04-2.06900E-05-4.20353E-05-1.22751E-05-2.93615E-18 6.34639E-19
 -1       744 1.12671E-04-1.22351E-05-4.33681E-05 2.49408E-06-3.44094E-18-1.50458E-18
 -1       745 1.33639E-04-5.52886E-05-3.37000E-05 4.27814E-06-1.37785E-19 1.78594E-18
 -1       746 8.78374E-05-3.90957E-05-2.06570E-05 3.33707E-05 2.63238E-18-1.29939E-18
 -1       747 4.68611E-05-1.47138E-05-1.32997E-05-1.83185E-05-7.01469E-19-4.96142E-18
 -1       748 8.14969E-05-1.14356E-05-3.00293E-05 4.22103E-06 6.23808E-21-2.96146E-18
 -1       749 1.17845E-04-5.54905E-05-2.66738E-05 2.35321E-05 1.67976E-18 5.64888E-19
 -1       750 9.85557E-05-4.53838E-05-2.26329E-05-2.90388E-05 2.96918E-18-1.03625E-18
 -1       751 8.97068E-05-1.89570E-05-3.03200E-05-6.27197E-06 1.10558E-18-1.80879E-18
 -1       752 9.52578E-05-2.85891E-05-2.85723E-05 8.08750E-09 3.94138E-19 1.26065E-18
 -1       753 1.24127E-04-5.50369E-05-2.96548E-05 9.72301E-06-1.56651E-18-2.93564E-18
 -1       754 1.04916E-04-3.55624E-05-2.97264E-05 6.63871E-06-1.94611E-20-7.49223E-19
 -1       755 1.10337E-04-4.07086E-05-2.98485E-05 5.23887E-06 3.95475E-20-1.92972E-19
 -1       756 1.16426E-04-4.47567E-05-3.07401E-05 9.72713E-07-5.12240E-20 1.82589E-19
 -1       757 1.20916E-04-4.47495E-05-3.26949E-05-5.70969E-06-2.07239E-19 8.50223E-19
 -1       758 1.21064E-04-3.79171E-05-3.57681E-05-1.21409E-05-7.85266E-19 1.08025E-18
 -1       759 1.17127E-04-2.82385E-05-3.83637E-05 1.49424E-05-1.50391E-18-2.49516E-18
 -1       760 1.20828E-04-4.01215E-05-3.46595E-05 1.19172E-05-6.84197E-19-2.59337E-18
 -1       761 1.19360E-04-4.52000E-05-3.18007E-05 4.79213E-06-6.81296E-19-1.72185E-18
 -1       762 1.14247E-04-4.42956E-05-2.99844E-05-1.73416E-06-2.24757E-19-9.44374E-19
 -1       763 1.08479E-04-4.05954E-05-2.90954E-05-5.79275E-06 2.97160E-19-2.13215E-19
 -1       764 1.03536E-04-3.63877E-05-2.87803E-05-7.69813E-06-4.76954E-19 8.71626E-19
 -1       765 9.99227E-05-3.28434E-05-2.87484E-05-8.20165E-06 5.90192E-19 6.95172E-19
 -1       766 9.75186E-05-3.02505E-05-2.88293E-05-7.91204E-06 5.36939E-19 3.54965E-19
 -1       767 9.60507E-05-2.85505E-05-2.89286E-05-7.21315E-06 6.61308E-19 3.63322E-19
 -1       768 9.52319E-05-2.75538E-05-2.90047E-05-6.33667E-06 2.21692E-19 3.11648E-19
 -1       769 9.48302E-05-2.70580E-05-2.90450E-05-5.41375E-06-1.13100E-19-8.95154E-19
 -1       770 9.46796E-05-2.68933E-05-2.90511E-05-4.51902E-06-9.90827E-19-1.03166E-18
 -1       771 9.46696E-05-2.69316E-05-2.90304E-05-3.69475E-06 5.68534E-19-4.01675E-19
 -1       772 9.47296E-05-2.70820E-05-2.89917E-05-2.96297E-06 1.19791E-18-7.52642E-19
 -1       773 9.48174E-05-2.72838E-05-2.89429E-05-2.33212E-06 1.21591E-18-2.66202E-18
 -1       774 9.49094E-05-2.74987E-05-2.88902E-05-1.80165E-06 1.12256E-18-2.92501E-18
 -1       775 9.49934E-05-2.77042E-05-2.88382E-05-1.36541E-06 6.64795E-19-1.03215E-18
 -1       776 9.50643E-05-2.78883E-05-2.87896E-05-1.01400E-06 2.35704E-19-8.84092E-19
 -1       777 9.51209E-05-2.80461E-05-2.87463E-05-7.36375E-07-1.25705E-18 3.83362E-19
 -1       778 9.51640E-05-2.81766E-05-2.87089E-05-5.21125E-07-6.17821E-19 1.41146E-18
 -1       779 9.51956E-05-2.82817E-05-2.86774E-05-3.57388E-07-8.82409E-19 1.41061E-18
 -1       780 9.52179E-05-2.83642E-05-2.86515E-05-2.35300E-07 4.93009E-19 7.01670E-19
 -1       781 9.52327E-05-2.84276E-05-2.86308E-05-1.46204E-07 6.28242E-19 7.12336E-19
 -1       782 9.52421E-05-2.84751E-05-2.86144E-05-8.27276E-08 1.14799E-19 1.26154E-18
 -1       783 9.52473E-05-2.85099E-05-2.86018E-05-3.87620E-08-5.06364E-19 3.03721E-18
 -1       784 9.52498E-05-2.85348E-05-2.85922E-05-9.36198E-09-5.80550E-19 3.12578E-18
 -1       785 9.52503E-05-2.85520E-05-2.85850E-05 9.38743E-09-1.18790E-18 3.68806E-18
 -1       786 9.52496E-05-2.85636E-05-2.85797E-05 2.05178E-08 4.50514E-19 2.12551E-18
 -1       787 9.52483E-05-2.85711E-05-2.85759E-05 2.63166E-08-3.40942E-19 1.96064E-18
 -1       788 9.52466E-05-2.85758E-05-2.85732E-05 2.84779E-08 3.78099E-19 3.20957E-19
 -1       789 9.52450E-05-2.85789E-05-2.85712E-05 2.82313E-08-1.22687E-18-2.65898E-18
 -1       790 9.52437E-05-2.85811E-05-2.85697E-05 2.62410E-08-4.67222E-19-1.12004E-18
 -1       791 1.15363E-04-5.36569E-05-2.64179E-05-2.05805E-05 2.67319E-18-1.59817E-18
 -1       792 9.73018E-05-3.21655E-05-2.79066E-05 1.52189E-05-8.62569E-19-2.53738E-19
 -1       793 9.46169E-05-2.82916E-05-2.84250E-05 1.33260E-05-1.60373E-18 3.22327E-19
 -1       794 9.35760E-05-2.62994E-05-2.88332E-05 1.14288E-05-9.16825E-19 9.38978E-19
 -1       795 9.33877E-05-2.54921E-05-2.90978E-05 9.66441E-06-3.94853E-19 3.71489E-19
 -1       796 9.35799E-05-2.53632E-05-2.92352E-05 8.06742E-06 1.89695E-20-7.21074E-20
 -1       797 9.39001E-05-2.55851E-05-2.92774E-05 6.64382E-06-1.19466E-19 1.14827E-18
 -1       798 9.42252E-05-2.59598E-05-2.92562E-05 5.39425E-06-7.89894E-19 9.80226E-19
 -1       799 9.45052E-05-2.63762E-05-2.91978E-05 4.31568E-06 1.33916E-20 6.38772E-19
 -1       800 9.47266E-05-2.67769E-05-2.91210E-05 3.40113E-06-2.75741E-19 8.83181E-19
 -1       801 9.48927E-05-2.71354E-05-2.90386E-05 2.63937E-06 1.15180E-19 2.58974E-18
 -1       802 9.50126E-05-2.74423E-05-2.89586E-05 2.01574E-06-2.00428E-19 2.61301E-18
 -1       803 9.50967E-05-2.76974E-05-2.88853E-05 1.51355E-06 1.10723E-19 1.58399E-18
 -1       804 9.51542E-05-2.79051E-05-2.88209E-05 1.11566E-06 1.55101E-18 1.21763E-18
 -1       805 9.51925E-05-2.80712E-05-2.87662E-05 8.05475E-07-1.29666E-18-7.86096E-19
 -1       806 9.52174E-05-2.82021E-05-2.87208E-05 5.67568E-07-3.95428E-19 6.73559E-19
 -1       807 9.52328E-05-2.83036E-05-2.86839E-05 3.88121E-07 6.52578E-19 2.23410E-19
 -1       808 9.52420E-05-2.83812E-05-2.86546E-05 2.55180E-07-3.42703E-19-2.65748E-19
 -1       809 9.52469E-05-2.84398E-05-2.86316E-05 1.58634E-07-5.56212E-19 1.09313E-18
 -1       810 9.52490E-05-2.84831E-05-2.86139E-05 9.00959E-08-5.70021E-19-1.29309E-19
 -1       811 9.52495E-05-2.85147E-05-2.86006E-05 4.27402E-08-2.30971E-18 1.55624E-18
 -1       812 9.52488E-05-2.85371E-05-2.85907E-05 1.11157E-08-1.18066E-18 1.21196E-18
 -1       813 9.52476E-05-2.85527E-05-2.85835E-05-9.05102E-09-2.90401E-20-5.31192E-19
 -1       814 9.52462E-05-2.85632E-05-2.85784E-05-2.10466E-08 1.56850E-18-1.49533E-18
 -1       815 9.52446E-05-2.85701E-05-2.85748E-05-2.73428E-08 3.10869E-19 3.73384E-20
 -1       816 9.52432E-05-2.85745E-05-2.85723E-05-2.97476E-08 4.27880E-19 8.42111E-20
 -1       817 9.52421E-05-2.85773E-05-2.85706E-05-2.95432E-08-1.18717E-18 1.83509E-18
 -1       818 9.52587E-05-2.85896E-05-2.85725E-05 9.27575E-11 6.71777E-19-1.54586E-18
 -1       819 5.93985E-05-1.95064E-05-1.67687E-05 2.55374E-05 2.41134E-18-3.77242E-18
 -1       820 9.52506E-05-2.85852E-05-2.85709E-05 2.14604E-08-1.77400E-18-2.62863E-18
 -1       821 5.15027E-05-1.30790E-05-1.62051E-05-8.85217E-06 6.83648E-19 3.01620E-18
 -1       822 9.52552E-05-2.85877E-05-2.85718E-05 1.53723E-08-5.17280E-19 7.61365E-19
 -1       823 1.02820E-04-3.86778E-05-2.74752E-05 1.65924E-05-1.48964E-18-1.79533E-18
 -1       824 1.27177E-04-5.32292E-05-3.17391E-05-2.68834E-06 7.66780E-19-3.95598E-18
 -1       825 1.12388E-04-4.73221E-05-2.78392E-05 1.54163E-05-1.91452E-18-2.13970E-18
 -1       826 7.11608E-05-2.52534E-05-1.94542E-05 2.44149E-05-2.30876E-18 2.58123E-18
 -1       827 5.40643E-05-1.33710E-05-1.72211E-05 8.39848E-06-1.00499E-18 2.31182E-18
 -1       828 1.02279E-04-3.65276E-05-2.81896E-05-1.61078E-05-6.31478E-19-7.33164E-19
 -1       829 1.05582E-04-4.83707E-05-2.43559E-05-2.69724E-05-1.92651E-18-1.27346E-18
 -1       830 4.79325E-05-1.00038E-05-1.59110E-05 5.94286E-06 1.02109E-18-4.50047E-18
 -1       831 9.50377E-05-2.31912E-05-3.07902E-05-7.33758E-06 1.20243E-18-1.04717E-18
 -1       832 1.00690E-04-3.05198E-05-3.00710E-05 6.01131E-06-5.89951E-19-1.16282E-18
 -1       833 1.31427E-04-4.40442E-05-3.76254E-05-8.58568E-06-6.94673E-19 1.13153E-18
 -1       834 1.24400E-04-5.42951E-05-2.99921E-05-1.02668E-05-1.17896E-18 4.40362E-19
 -1       835 7.48683E-05-8.95450E-06-2.82494E-05 9.93241E-07 7.23393E-19-3.15295E-18
 -1       836 8.26457E-05-1.41581E-05-2.93538E-05-5.15476E-06 9.63722E-19-2.34684E-18
 -1       837 9.11340E-05-2.08786E-05-3.01148E-05 5.61440E-06-4.17600E-19-2.20825E-18
 -1       838 9.52509E-05-2.85855E-05-2.85709E-05-2.13871E-08 9.17875E-19 6.25532E-19
 -1       839 7.58773E-05-9.86885E-06-2.82922E-05 4.38714E-06 5.49672E-19-3.11303E-18
 -1       840 6.21123E-05-1.80349E-05-1.87464E-05-1.70741E-05 1.56152E-18 2.11443E-18
 -1       841 9.52431E-05-2.85798E-05-2.85700E-05-2.76561E-08-1.97505E-18 1.72691E-18
 -1       842 9.52553E-05-2.85879E-05-2.85718E-05-1.52242E-08 9.68477E-19-7.56263E-19
 -1       843 5.12829E-05-1.06526E-05-1.71477E-05-5.38509E-06 1.63691E-19-4.19350E-18
 -1       844 7.65202E-05-2.78139E-05-2.07244E-05 2.76916E-05 2.41368E-18-2.47617E-18
 -1       845 9.52579E-05-2.85892E-05-2.85723E-05-7.86676E-09 5.36496E-19-1.40661E-18
 -1       846 6.49705E-05-2.30114E-05-1.77080E-05-2.62161E-05-1.14920E-18-3.64457E-18
 -1       847 9.70647E-05-2.96112E-05-2.89079E-05-1.36894E-05 2.38032E-19-1.00664E-18
 -1       848 1.03308E-04-4.70066E-05-2.39770E-05 2.81985E-05 1.94974E-18-1.87128E-19
 -1       849 9.56285E-05-2.59075E-05-2.98804E-05-1.05983E-05 5.86000E-19-1.01550E-18
 -1       850 7.71810E-05-1.04207E-05-2.86083E-05-2.51407E-06 7.28117E-19-2.92349E-18
 -1       851 1.11804E-04-4.55987E-05-2.83289E-05-1.56877E-05-1.14594E-18-2.41247E-19
 -1       852 9.75820E-05-2.61792E-05-3.06009E-05 4.35520E-06-9.40666E-19-1.34324E-18
 -1       853 8.53024E-05-1.67839E-05-2.93697E-05 6.82067E-06-4.51532E-20-2.58161E-18
 -1       854 8.58025E-05-3.51204E-05-2.16274E-05-2.74534E-05 2.40973E-18-3.77512E-19
 -1       855 1.24739E-04-5.50263E-05-2.98993E-05 1.17610E-05 6.75649E-19 1.10930E-18
 -1       856 9.52441E-05-2.85816E-05-2.85696E-05-2.58805E-08-2.95214E-19 6.96685E-19
 -1       857 1.11716E-04-4.44712E-05-2.87613E-05 1.10917E-05 6.82821E-19-5.13998E-19
 -1       858 9.52540E-05-2.85828E-05-2.85734E-05 2.28863E-08-1.32049E-18-2.71912E-18
 -1       859 1.09430E-04-4.40652E-05-2.80170E-05-1.08091E-05 1.15300E-18-9.08647E-19
 -1       860 1.02445E-04-3.80005E-05-2.76156E-05-1.18292E-05 1.02206E-18-7.19150E-19
 -1       861 9.78728E-05-3.32496E-05-2.76908E-05-1.12052E-05 2.59377E-19 2.60008E-20
 -1       862 9.50852E-05-2.98744E-05-2.79470E-05-9.94496E-06 3.88916E-19 4.03323E-19
 -1       863 9.36050E-05-2.77393E-05-2.82279E-05-8.53263E-06 2.59895E-20 1.55965E-21
 -1       864 9.29631E-05-2.65346E-05-2.84692E-05-7.18253E-06 4.92600E-19-4.23839E-19
 -1       865 9.28252E-05-2.59745E-05-2.86501E-05-5.96214E-06-1.42596E-19-6.11632E-19
 -1       866 9.29682E-05-2.58358E-05-2.87709E-05-4.88650E-06-6.48667E-19-1.32728E-18
 -1       867 9.32495E-05-2.59552E-05-2.88403E-05-3.95384E-06 9.22918E-20 2.17828E-20
 -1       868 9.35802E-05-2.62165E-05-2.88701E-05-3.15685E-06 7.74872E-19-1.83940E-19
 -1       869 9.39083E-05-2.65410E-05-2.88717E-05-2.48536E-06-2.16931E-20-1.20734E-18
 -1       870 9.42059E-05-2.68780E-05-2.88548E-05-1.92766E-06 4.98319E-19-1.95319E-18
 -1       871 9.44611E-05-2.71978E-05-2.88271E-05-1.47124E-06 2.21297E-18-2.42297E-18
 -1       872 9.46708E-05-2.74843E-05-2.87942E-05-1.10360E-06 1.07597E-18-2.15654E-18
 -1       873 9.48374E-05-2.77302E-05-2.87602E-05-8.12149E-07 3.83147E-20-1.91402E-18
 -1       874 9.49657E-05-2.79346E-05-2.87276E-05-5.84680E-07-1.32535E-19-1.71292E-18
 -1       875 9.50619E-05-2.81001E-05-2.86979E-05-4.10056E-07-9.41657E-19-1.53828E-18
 -1       876 9.51319E-05-2.82310E-05-2.86718E-05-2.78380E-07-4.53164E-19-1.16390E-18
 -1       877 9.51812E-05-2.83321E-05-2.86496E-05-1.80972E-07 1.08054E-18-2.29406E-18
 -1       878 9.52147E-05-2.84086E-05-2.86312E-05-1.10408E-07 7.72333E-19-8.47746E-19
 -1       879 9.52362E-05-2.84652E-05-2.86162E-05-6.05030E-08 9.35340E-19-3.24911E-19
 -1       880 9.52491E-05-2.85060E-05-2.86042E-05-2.62125E-08-9.24892E-19-7.98911E-19
 -1       881 9.52559E-05-2.85347E-05-2.85948E-05-3.50410E-09 7.69474E-20 4.94784E-19
 -1       882 9.52584E-05-2.85542E-05-2.85875E-05 1.07841E-08-9.15948E-19 1.84130E-18
 -1       883 9.52583E-05-2.85670E-05-2.85820E-05 1.90786E-08 1.59254E-19-3.90474E-19
 -1       884 9.52565E-05-2.85750E-05-2.85778E-05 2.31962E-08-4.17715E-19 2.96497E-20
 -1       885 9.52555E-05-2.85795E-05-2.85754E-05 2.36601E-08-2.03897E-18-2.46307E-18
 -1       886 1.17203E-04-4.95153E-05-2.89824E-05-8.44002E-06 7.55125E-19-2.32506E-18
 -1       887 1.06001E-04-4.65060E-05-2.54138E-05-2.13458E-05 2.50627E-18-7.57641E-19
 -1       888 8.75637E-05-2.38117E-05-2.73247E-05 1.20189E-05-1.09070E-18-8.24206E-19
 -1       889 8.72867E-05-2.57682E-05-2.63685E-05 1.50105E-05-1.30365E-18-3.11922E-20
 -1       890 8.96341E-05-2.32485E-05-2.84508E-05 8.04334E-06-7.37863E-19 1.20684E-18
 -1       891 9.07521E-05-2.37147E-05-2.87301E-05 6.61803E-06-9.33770E-19 1.29653E-18
 -1       892 9.17426E-05-2.43428E-05-2.88855E-05 5.41702E-06-1.40499E-19 1.60433E-18
 -1       893 9.25723E-05-2.50073E-05-2.89563E-05 4.39100E-06 1.81215E-19 7.52434E-19
 -1       894 9.32423E-05-2.56403E-05-2.89722E-05 3.51499E-06-5.51272E-19 8.28161E-19
 -1       895 9.37695E-05-2.62086E-05-2.89547E-05 2.77422E-06-6.47776E-19 5.32172E-19
 -1       896 9.41761E-05-2.66991E-05-2.89187E-05 2.15643E-06 1.70117E-19 5.41191E-19
 -1       897 9.44842E-05-2.71109E-05-2.88742E-05 1.64910E-06-7.67412E-20 1.88456E-19
 -1       898 9.47144E-05-2.74494E-05-2.88278E-05 1.23904E-06 8.13994E-19 1.02679E-18
 -1       899 9.48839E-05-2.77228E-05-2.87833E-05 9.13187E-07 1.52217E-18 1.66832E-18
 -1       900 9.50068E-05-2.79400E-05-2.87429E-05 6.58614E-07-9.31766E-19 5.22834E-19
 -1       901 9.50943E-05-2.81099E-05-2.87076E-05 4.63012E-07-2.23551E-19 6.29679E-19
 -1       902 9.51554E-05-2.82409E-05-2.86776E-05 3.15346E-07 3.71273E-19 3.70489E-19
 -1       903 9.51969E-05-2.83403E-05-2.86528E-05 2.05975E-07-1.59140E-18 1.05498E-18
 -1       904 9.52241E-05-2.84146E-05-2.86326E-05 1.26639E-07-9.00414E-19 1.79900E-18
 -1       905 9.52410E-05-2.84690E-05-2.86166E-05 7.04359E-08-8.85500E-19 2.72670E-18
 -1       906 9.52507E-05-2.85080E-05-2.86040E-05 3.17302E-08-1.14603E-18-3.29085E-19
 -1       907 9.52554E-05-2.85354E-05-2.85943E-05 6.01204E-09 1.03342E-19-1.02908E-19
 -1       908 9.52568E-05-2.85540E-05-2.85869E-05-1.02566E-08 8.41552E-19 3.66670E-19
 -1       909 9.52562E-05-2.85662E-05-2.85814E-05-1.97955E-08 5.62872E-19 2.57041E-18
 -1       910 9.52543E-05-2.85740E-05-2.85773E-05-2.46451E-08 4.24750E-19 1.43733E-18
 -1       911 9.52518E-05-2.85787E-05-2.85742E-05-2.62805E-08-1.92617E-18 2.71350E-18
 -1       912 7.97858E-05-1.28075E-05-2.87085E-05 6.49311E-06 3.23479E-19-2.81224E-18
 -1       913 9.52627E-05-2.85866E-05-2.85755E-05 4.32600E-09-4.42040E-19 1.17401E-18
 -1       914 6.90057E-05-1.85532E-05-2.15402E-05 1.41791E-05-7.84514E-19 1.83669E-18
 -1       915 9.08065E-05-3.48792E-05-2.39079E-05 2.31400E-05-2.07149E-18 1.01949E-18
 -1       916 9.03427E-05-3.69743E-05-2.27229E-05-2.77035E-05-1.66304E-18-2.33085E-18
 -1       917 9.83798E-05-3.08593E-05-2.89314E-05 1.00413E-05-2.25620E-20-1.07184E-18
 -1       918 6.08160E-05-1.36995E-05-2.00773E-05-1.76221E-06 1.71943E-19 1.51586E-18
 -1       919 6.08082E-05-1.40574E-05-1.98906E-05 1.47814E-05 1.37097E-18-3.54493E-18
 -1       920 8.84940E-05-2.31630E-05-2.79996E-05 9.78659E-06-1.08369E-18-7.12844E-20
 -1       921 8.79604E-05-2.90874E-05-2.52189E-05 1.85422E-05-2.04979E-18 2.78196E-19
 -1       922 1.03944E-04-3.73741E-05-2.85301E-05 1.16158E-05 4.68313E-19-9.89219E-19
 -1       923 8.94352E-05-2.13434E-05-2.91817E-05-9.88045E-06 6.19836E-19-1.68186E-18
 -1       924 7.16352E-05-1.95409E-05-2.22433E-05 1.91384E-05 1.47224E-18-2.88232E-18
 -1       925 9.40622E-05-2.55632E-05-2.93536E-05 8.35231E-06-2.01527E-19-1.66264E-18
 -1       926 8.72398E-05-2.10510E-05-2.83673E-05 1.01243E-05 2.16412E-19-2.22550E-18
 -1       927 7.26258E-05-1.04702E-05-2.66441E-05 3.73931E-06 5.83676E-19-3.06265E-18
 -1       928 9.52513E-05-2.85817E-05-2.85727E-05-2.51171E-08-8.11534E-19 1.90731E-18
 -1       929 5.80117E-05-1.09931E-05-1.99894E-05 6.35346E-06 8.66942E-19-3.75211E-18
 -1       930 9.29820E-05-3.74733E-05-2.36855E-05 2.62733E-05 1.90610E-18-1.08069E-18
 -1       931 9.52606E-05-2.85858E-05-2.85749E-05 1.23973E-08 2.46062E-19-3.65898E-19
 -1       932 9.52627E-05-2.85866E-05-2.85755E-05-4.00338E-09 1.17169E-18-1.73252E-18
 -1       933 6.11315E-05-1.50388E-05-1.96105E-05-1.48627E-05-3.12958E-19-3.90978E-18
 -1       934 8.86623E-05-2.70611E-05-2.63647E-05-1.75843E-05-2.98166E-19-1.86473E-18
 -1       935 9.52566E-05-2.85845E-05-2.85738E-05-1.94076E-08-4.07390E-19 1.62045E-19
 -1       936 7.86731E-05-2.41395E-05-2.33359E-05 1.78975E-05-1.27014E-18 2.17037E-18
 -1       937 7.59041E-05-2.52624E-05-2.16654E-05-2.10353E-05 1.37395E-18-5.74824E-20
 -1       938 7.28955E-05-1.04525E-05-2.67630E-05-1.85270E-06 6.06359E-19-3.16961E-18
 -1       939 7.64908E-05-1.33480E-05-2.70554E-05 8.23032E-06 5.26133E-19-2.84407E-18
 -1       940 9.37639E-05-3.26408E-05-2.62101E-05-1.53402E-05 8.97613E-19 1.99407E-19
 -1       941 9.12061E-05-2.86412E-05-2.68155E-05-1.22542E-05 9.00125E-19 5.36006E-19
 -1       942 9.02179E-05-2.63581E-05-2.73681E-05-9.78618E-06 1.66747E-19 5.88388E-19
 -1       943 9.00686E-05-2.51410E-05-2.78260E-05-7.79730E-06 1.98585E-19 9.92430E-19
 -1       944 9.03961E-05-2.46466E-05-2.81783E-05-6.20623E-06-2.99196E-19 3.02636E-19
 -1       945 9.09552E-05-2.46110E-05-2.84332E-05-4.93247E-06-5.29805E-19 9.38251E-19
 -1       946 9.16033E-05-2.48562E-05-2.86059E-05-3.90446E-06 4.53147E-19 1.44178E-18
 -1       947 9.22528E-05-2.52543E-05-2.87137E-05-3.07249E-06 1.29504E-19 1.18864E-18
 -1       948 9.28536E-05-2.57169E-05-2.87729E-05-2.39839E-06-9.08917E-19 4.74216E-19
 -1       949 9.33813E-05-2.61869E-05-2.87976E-05-1.85342E-06 2.66960E-19-4.24256E-19
 -1       950 9.38268E-05-2.66289E-05-2.87992E-05-1.41502E-06 1.39909E-18 7.86332E-19
 -1       951 9.41922E-05-2.70252E-05-2.87859E-05-1.06542E-06 1.29631E-18-5.99955E-19
 -1       952 9.44832E-05-2.73666E-05-2.87643E-05-7.89692E-07 6.57273E-19-7.64277E-19
 -1       953 9.47094E-05-2.76516E-05-2.87391E-05-5.74662E-07-7.27004E-20-1.19513E-18
 -1       954 9.48812E-05-2.78838E-05-2.87131E-05-4.08977E-07-5.96182E-19-5.96393E-19
 -1       955 9.50086E-05-2.80690E-05-2.86884E-05-2.83343E-07-9.08537E-19-1.60352E-18
 -1       956 9.51006E-05-2.82133E-05-2.86660E-05-1.89672E-07 3.52671E-20-1.55603E-18
 -1       957 9.51649E-05-2.83235E-05-2.86463E-05-1.21064E-07 1.58385E-18-2.20952E-18
 -1       958 9.52083E-05-2.84058E-05-2.86296E-05-7.18336E-08-5.74363E-20-2.92855E-18
 -1       959 9.52361E-05-2.84659E-05-2.86158E-05-3.73609E-08-1.88131E-19-2.79841E-18
 -1       960 9.52526E-05-2.85088E-05-2.86045E-05-1.39412E-08 1.44808E-18-1.09476E-18
 -1       961 9.52611E-05-2.85384E-05-2.85954E-05 1.34806E-09 7.19025E-19-3.31250E-19
 -1       962 9.52643E-05-2.85583E-05-2.85883E-05 1.07687E-08-1.94837E-18 1.01141E-18
 -1       963 9.52639E-05-2.85710E-05-2.85827E-05 1.60070E-08-2.12188E-18-1.16818E-18
 -1       964 9.04723E-05-2.36156E-05-2.86531E-05 3.87179E-06 1.20456E-19-8.44018E-20
 -1       965 8.01348E-05-2.05417E-05-2.55395E-05 1.11045E-05-1.12910E-18 8.60836E-19
 -1       966 1.00229E-04-3.81359E-05-2.65797E-05 1.86781E-05 1.18419E-18-7.84944E-19
 -1       967 8.90785E-05-2.27192E-05-2.84399E-05 4.69862E-06-6.82162E-19-1.60475E-19
 -1       968 8.73745E-05-2.18280E-05-2.80915E-05 5.68430E-06-4.40669E-19-3.90603E-19
 -1       969 9.15984E-05-2.44617E-05-2.87731E-05 3.15867E-06-1.81088E-19 4.61723E-19
 -1       970 9.24956E-05-2.52251E-05-2.88304E-05 2.54284E-06 2.98765E-19 1.00916E-19
 -1       971 9.32012E-05-2.58917E-05-2.88470E-05 2.01604E-06-5.85552E-20-4.14313E-19
 -1       972 9.37489E-05-2.64587E-05-2.88387E-05 1.57241E-06-6.66071E-19-8.06151E-19
 -1       973 9.41683E-05-2.69304E-05-2.88163E-05 1.20476E-06-3.88239E-19 8.37408E-19
 -1       974 9.44857E-05-2.73166E-05-2.87868E-05 9.05649E-07 8.39876E-19 1.27981E-18
 -1       975 9.47226E-05-2.76273E-05-2.87551E-05 6.66993E-07 1.55133E-19 2.21357E-18
 -1       976 9.48965E-05-2.78731E-05-2.87243E-05 4.79921E-07-5.37482E-19 2.38629E-18
 -1       977 9.50220E-05-2.80648E-05-2.86959E-05 3.35906E-07 6.86451E-20 2.34824E-18
 -1       978 9.51107E-05-2.82120E-05-2.86709E-05 2.27218E-07-1.00718E-18 2.08962E-18
 -1       979 9.51717E-05-2.83231E-05-2.86494E-05 1.46833E-07-8.58089E-19 2.46296E-18
 -1       980 9.52123E-05-2.84055E-05-2.86315E-05 8.86712E-08-1.24714E-18 2.64982E-18
 -1       981 9.52379E-05-2.84654E-05-2.86168E-05 4.76297E-08 3.92486E-20 1.69035E-18
 -1       982 9.52529E-05-2.85080E-05-2.86050E-05 1.95277E-08 1.89745E-19 8.90178E-19
 -1       983 9.52606E-05-2.85374E-05-2.85956E-05 1.01399E-09-8.28734E-20 7.77798E-19
 -1       984 9.52632E-05-2.85572E-05-2.85883E-05-1.05394E-08 5.77537E-19 8.09595E-19
 -1       985 9.52627E-05-2.85699E-05-2.85826E-05-1.71489E-08-1.72359E-19 2.78353E-18
 -1       986 9.52603E-05-2.85777E-05-2.85782E-05-2.03054E-08-3.82530E-19 2.98263E-18
 -1       987 8.16730E-05-1.71399E-05-2.76537E-05 9.97879E-06 5.23665E-19-2.40773E-18
 -1       988 9.52607E-05-2.85860E-05-2.85749E-05-1.21382E-08 1.33346E-18-4.86563E-19
 -1       989 8.02703E-05-1.59875E-05-2.75486E-05-8.72420E-06 5.95674E-19-2.36473E-18
 -1       990 9.52587E-05-2.85816E-05-2.85759E-05-2.02977E-08-2.99952E-19 1.47402E-18
 -1       991 6.96940E-05-1.59830E-05-2.30083E-05 5.23175E-06-3.43061E-19 1.26141E-18
 -1       992 9.40466E-05-3.03540E-05-2.72999E-05 1.52284E-05 5.29715E-19-1.34025E-18
 -1       993 8.89070E-05-2.38134E-05-2.78980E-05-1.34571E-05 3.54422E-19-1.86229E-18
 -1       994 8.34638E-05-2.74980E-05-2.39402E-05 2.19438E-05 1.43392E-18-2.09514E-18
 -1       995 1.08259E-04-4.52912E-05-2.69492E-05 1.86089E-05 1.36567E-18-1.23809E-19
 -1       996 1.13942E-04-5.04057E-05-2.71627E-05 1.88288E-05 1.42433E-18 7.30996E-20
 -1       997 9.00052E-05-2.52793E-05-2.77558E-05 1.27396E-05 4.72368E-19-2.10395E-18
 -1       998 6.95561E-05-1.78916E-05-2.21014E-05-1.11846E-05 6.03346E-19 1.05402E-18
 -1       999 7.10860E-05-1.30090E-05-2.48220E-05 8.95903E-06 6.54882E-19-3.11177E-18
 -1      1000 7.89851E-05-2.16812E-05-2.45410E-05 1.40788E-05-1.11417E-18 1.06307E-18
 -1      1001 9.87048E-05-3.84142E-05-2.57785E-05-1.82642E-05 9.43280E-19-4.53836E-19
 -1      1002 9.49807E-05-3.73726E-05-2.46084E-05-2.10897E-05 1.27081E-18-1.26050E-18
 -1      1003 9.52628E-05-2.85778E-05-2.85793E-05 1.72636E-08-2.17910E-18-3.24844E-18
 -1      1004 7.72274E-05-2.46902E-05-2.23410E-05-2.21150E-05-9.10271E-19-2.68894E-18
 -1      1005 9.52622E-05-2.85823E-05-2.85771E-05 1.52386E-08-1.45239E-18-1.29513E-18
 -1      1006 9.52634E-05-2.85827E-05-2.85775E-05-1.29566E-08 1.25545E-18 1.22650E-18
 -1      1007 8.53286E-05-2.10428E-05-2.75497E-05 6.92869E-06-9.83822E-19 2.29988E-20
 -1      1008 7.20745E-05-1.65488E-05-2.37949E-05-3.00706E-06-5.48778E-19 1.15362E-18
 -1      1009 9.52653E-05-2.85830E-05-2.85781E-05 7.43991E-09-6.16776E-19 2.93118E-19
 -1      1010 9.52662E-05-2.85832E-05-2.85784E-05-7.79367E-10 1.10707E-18-2.29078E-18
 -1      1011 6.03056E-05-1.09872E-05-2.10447E-05-3.68116E-06 4.35881E-19-3.49216E-18
 -1      1012 8.29104E-05-2.05248E-05-2.67360E-05 8.60798E-06-1.32441E-18 9.71216E-19
 -1      1013 6.75847E-05-1.30274E-05-2.33396E-05 1.02024E-05 8.78336E-19-3.13694E-18
 -1      1014 6.76251E-05-1.04305E-05-2.44729E-05 9.69124E-07 6.12108E-19-3.24840E-18
 -1      1015 7.42493E-05-1.73561E-05-2.44010E-05-1.40931E-05 2.37252E-20-2.73080E-18
 -1      1016 8.53305E-05-2.60986E-05-2.53422E-05-1.40908E-05 6.18462E-19-1.03115E-18
 -1      1017 9.52654E-05-2.85831E-05-2.85781E-05-6.94451E-09 1.90796E-18-2.89187E-18
 -1      1018 8.55396E-05-2.41432E-05-2.63192E-05-1.05672E-05 4.28459E-19-1.30850E-18
 -1      1019 8.64006E-05-2.32335E-05-2.70728E-05-7.88215E-06 6.14724E-19-7.90122E-19
 -1      1020 8.75177E-05-2.30230E-05-2.76406E-05-5.95050E-06-2.59922E-19-8.50279E-19
 -1      1021 8.86773E-05-2.32214E-05-2.80530E-05-4.53493E-06 2.99977E-19 4.89241E-19
 -1      1022 8.97929E-05-2.36614E-05-2.83426E-05-3.46235E-06 4.79846E-19 1.54189E-18
 -1      1023 9.08195E-05-2.42360E-05-2.85362E-05-2.64924E-06 5.49050E-19 2.13970E-18
 -1      1024 9.17234E-05-2.48559E-05-2.86578E-05-2.02482E-06-9.28266E-19 1.83326E-18
 -1      1025 9.24972E-05-2.54674E-05-2.87273E-05-1.54053E-06-1.15570E-18 9.86071E-19
 -1      1026 9.31445E-05-2.60372E-05-2.87605E-05-1.16454E-06 1.07618E-18-8.00937E-19
 -1      1027 9.36716E-05-2.65444E-05-2.87690E-05-8.70870E-07 8.46132E-19-1.02993E-18
 -1      1028 9.40918E-05-2.69816E-05-2.87615E-05-6.45144E-07 7.44522E-19-1.56724E-18
 -1      1029 9.44207E-05-2.73491E-05-2.87450E-05-4.71016E-07-7.18505E-20-1.91710E-18
 -1      1030 9.46720E-05-2.76491E-05-2.87242E-05-3.37017E-07 1.75867E-20-2.49591E-18
 -1      1031 9.48613E-05-2.78905E-05-2.87018E-05-2.36024E-07-1.04816E-18-7.22136E-19
 -1      1032 9.49998E-05-2.80800E-05-2.86800E-05-1.60847E-07-1.14526E-18-9.10733E-19
 -1      1033 9.50986E-05-2.82259E-05-2.86598E-05-1.05561E-07-4.94925E-20-2.79387E-18
 -1      1034 9.51670E-05-2.83360E-05-2.86419E-05-6.55835E-08 5.14983E-19-2.63446E-18
 -1      1035 9.52124E-05-2.84173E-05-2.86265E-05-3.72650E-08 1.64404E-19-1.31465E-18
 -1      1036 9.52411E-05-2.84759E-05-2.86137E-05-1.77073E-08 1.05859E-18-1.88675E-18
 -1      1037 9.52576E-05-2.85172E-05-2.86031E-05-4.63205E-09 1.57432E-18-3.28983E-18
 -1      1038 9.52658E-05-2.85453E-05-2.85945E-05 3.72883E-09-4.40646E-19-4.16824E-18
 -1      1039 9.52682E-05-2.85637E-05-2.85876E-05 8.69830E-09-2.98079E-18-3.89074E-18
 -1      1040 9.12207E-05-2.42985E-05-2.86815E-05 1.89933E-06-2.08450E-19-9.66115E-19
 -1      1041 8.99882E-05-2.33825E-05-2.85460E-05 2.28058E-06-2.87922E-19-6.58694E-19
 -1      1042 8.65435E-05-2.13019E-05-2.79614E-05 3.14453E-06-6.55067E-20-1.43701E-18
 -1      1043 9.22006E-05-2.51080E-05-2.87545E-05 1.55221E-06 6.99611E-19-1.26256E-18
 -1      1044 9.29752E-05-2.58092E-05-2.87858E-05 1.24320E-06 5.15337E-19-1.24576E-18
 -1      1045 9.35775E-05-2.63994E-05-2.87907E-05 9.77590E-07-1.44601E-18-2.37496E-18
 -1      1046 9.40429E-05-2.68913E-05-2.87793E-05 7.52366E-07-1.09733E-18-9.18989E-19
 -1      1047 9.43962E-05-2.72923E-05-2.87589E-05 5.66383E-07 5.72860E-19 1.25695E-18
 -1      1048 9.46605E-05-2.76132E-05-2.87347E-05 4.16932E-07-3.17860E-19 1.10865E-18
 -1      1049 9.48560E-05-2.78671E-05-2.87097E-05 2.98903E-07-3.15606E-19 8.24811E-19
 -1      1050 9.49975E-05-2.80644E-05-2.86857E-05 2.08005E-07 1.86318E-19 3.56055E-19
 -1      1051 9.50974E-05-2.82151E-05-2.86639E-05 1.39404E-07-1.35567E-18-1.35563E-18
 -1      1052 9.51661E-05-2.83282E-05-2.86448E-05 8.87365E-08-1.99532E-18 1.00621E-18
 -1      1053 9.52116E-05-2.84116E-05-2.86286E-05 5.21952E-08 2.05486E-19 1.21945E-18
 -1      1054 9.52403E-05-2.84717E-05-2.86151E-05 2.65490E-08 1.16074E-18 2.92807E-19
 -1      1055 9.52568E-05-2.85140E-05-2.86041E-05 9.13008E-09 4.45818E-20-4.45753E-19
 -1      1056 9.52650E-05-2.85429E-05-2.85952E-05-2.20708E-09-2.25961E-19 3.66473E-19
 -1      1057 9.52676E-05-2.85620E-05-2.85881E-05-9.13555E-09-1.33309E-18 1.17898E-18
 -1      1058 9.52666E-05-2.85740E-05-2.85825E-05-1.29353E-08 6.61219E-19 2.23289E-18
 -1      1059 9.52652E-05-2.85788E-05-2.85799E-05-1.33215E-08 8.23470E-19 2.31182E-18
 -1      1060 7.84803E-05-2.03587E-05-2.48888E-05 1.63594E-05 9.15906E-19-2.74584E-18
 -1      1061 7.85192E-05-2.34685E-05-2.36106E-05-1.61360E-05 1.14504E-18-3.65232E-19
 -1      1062 8.84495E-05-2.23740E-05-2.83190E-05 2.69523E-06-7.72358E-19-1.57622E-18
 -1      1063 7.64429E-05-1.76240E-05-2.51973E-05 4.72285E-06-7.25078E-19 1.07072E-18
 -1      1064 9.52679E-05-2.85736E-05-2.85833E-05 1.00686E-08-2.48450E-18-2.54685E-18
 -1      1065 8.05686E-05-1.88249E-05-2.64603E-05 3.85393E-06-7.19121E-19-6.33663E-20
 -1      1066 6.54881E-05-1.06133E-05-2.33921E-05-1.80260E-07 5.60133E-19-3.28042E-18
 -1      1067 8.41608E-05-2.01866E-05-2.74179E-05 3.67819E-06 2.86680E-20-1.28087E-19
 -1      1068 9.52690E-05-2.85767E-05-2.85824E-05 3.16469E-09-1.06779E-18-1.37479E-18
 -1      1069 7.64455E-05-1.93073E-05-2.44956E-05-8.73001E-06 2.57602E-19 1.03944E-19
 -1      1070 9.00828E-05-2.35316E-05-2.85217E-05 8.52718E-07-5.76941E-19-2.17202E-18
 -1      1071 8.20726E-05-2.08770E-05-2.62266E-05-6.94018E-06 9.96805E-19-1.05793E-18
 -1      1072 8.43284E-05-2.11947E-05-2.70592E-05-4.90248E-06 6.37641E-19-8.29184E-19
 -1      1073 8.61525E-05-2.16521E-05-2.76397E-05-3.51073E-06 7.97097E-19-5.06754E-19
 -1      1074 8.78811E-05-2.24053E-05-2.80611E-05-2.50800E-06 6.11988E-19-1.20428E-18
 -1      1075 8.93440E-05-2.32021E-05-2.83470E-05-1.81904E-06 9.03516E-19-1.53953E-18
 -1      1076 9.05782E-05-2.39980E-05-2.85348E-05-1.31912E-06-3.23736E-19-1.72479E-18
 -1      1077 9.16096E-05-2.47574E-05-2.86513E-05-9.57121E-07-1.09517E-18-1.48834E-18
 -1      1078 9.24591E-05-2.54539E-05-2.87169E-05-6.94854E-07-1.14701E-18-7.14848E-19
 -1      1079 9.31661E-05-2.60821E-05-2.87485E-05-5.06803E-07 6.63401E-19-8.76509E-19
 -1      1080 9.37104E-05-2.66130E-05-2.87562E-05-3.65336E-07 9.99074E-19-1.62665E-18
 -1      1081 9.41220E-05-2.70424E-05-2.87480E-05-2.56894E-07-2.19065E-19-2.22666E-18
 -1      1082 9.44551E-05-2.74119E-05-2.87327E-05-1.78137E-07-3.04051E-19-2.44993E-18
 -1      1083 9.47052E-05-2.77082E-05-2.87130E-05-1.24432E-07-1.65348E-18-3.36519E-18
 -1      1084 9.48898E-05-2.79417E-05-2.86920E-05-8.47524E-08-1.11921E-18-3.92320E-18
 -1      1085 9.50233E-05-2.81227E-05-2.86717E-05-5.59537E-08-8.96593E-19-3.82455E-18
 -1      1086 9.51173E-05-2.82605E-05-2.86529E-05-3.53480E-08 6.99714E-19-3.59178E-18
 -1      1087 9.51815E-05-2.83633E-05-2.86363E-05-2.08371E-08 1.29067E-18-4.23416E-18
 -1      1088 9.52233E-05-2.84383E-05-2.86221E-05-1.08189E-08 2.06572E-19-2.71448E-18
 -1      1089 9.52489E-05-2.84918E-05-2.86102E-05-4.08014E-09-5.06224E-20-2.90317E-18
 -1      1090 9.52630E-05-2.85289E-05-2.86004E-05 2.93497E-10 7.32258E-19-4.44883E-18
 -1      1091 9.52692E-05-2.85537E-05-2.85924E-05 3.00152E-09-6.56027E-19-4.00095E-18
 -1      1092 9.22402E-05-2.52199E-05-2.87227E-05 6.65571E-07 9.75213E-19-5.43684E-19
 -1      1093 8.67470E-05-2.14594E-05-2.79821E-05 8.51857E-07-1.18737E-19-1.21718E-18
 -1      1094 9.52702E-05-2.85677E-05-2.85868E-05 3.67313E-09-1.56182E-18-2.95659E-18
 -1      1095 9.29987E-05-2.58993E-05-2.87556E-05 5.47580E-07 5.09300E-20 1.47900E-19
 -1      1096 9.12817E-05-2.44296E-05-2.86507E-05 7.69461E-07 3.26005E-19-1.30624E-18
 -1      1097 9.36181E-05-2.64987E-05-2.87652E-05 4.34292E-07-1.66004E-18-1.39470E-18
 -1      1098 9.40691E-05-2.69676E-05-2.87570E-05 3.41106E-07-8.50379E-19-2.61117E-18
 -1      1099 9.44110E-05-2.73510E-05-2.87401E-05 2.62394E-07-7.61961E-19-2.23497E-18
 -1      1100 9.46746E-05-2.76625E-05-2.87194E-05 1.95096E-07-4.51020E-19-2.02958E-18
 -1      1101 9.48688E-05-2.79079E-05-2.86975E-05 1.40595E-07-7.67413E-19-4.83607E-19
 -1      1102 9.50089E-05-2.80978E-05-2.86761E-05 9.77901E-08-4.18352E-19 5.05323E-19
 -1      1103 9.51075E-05-2.82422E-05-2.86566E-05 6.51534E-08-2.11308E-18-8.95743E-19
 -1      1104 9.51749E-05-2.83499E-05-2.86393E-05 4.09398E-08-5.25605E-19-2.63334E-18
 -1      1105 9.52190E-05-2.84286E-05-2.86244E-05 2.34661E-08 1.59769E-18-2.92223E-18
 -1      1106 9.52462E-05-2.84849E-05-2.86120E-05 1.12343E-08 1.56745E-18-2.82245E-18
 -1      1107 9.52615E-05-2.85240E-05-2.86018E-05 2.97573E-09-4.70371E-19-2.21505E-18
 -1      1108 9.52685E-05-2.85504E-05-2.85935E-05-2.34910E-09-8.69082E-19-1.41980E-18
 -1      1109 9.52701E-05-2.85676E-05-2.85868E-05-5.57840E-09-1.46892E-18-2.47941E-18
 -1      1110 8.55485E-05-2.31100E-05-2.67590E-05 1.40525E-05 8.45905E-19-2.07915E-18
 -1      1111 8.85938E-05-2.25359E-05-2.83105E-05 8.90577E-07-7.42487E-19-2.38833E-18
 -1      1112 9.52692E-05-2.85770E-05-2.85824E-05-2.57608E-09-1.07929E-19-4.49766E-18
 -1      1113 7.73357E-05-1.77938E-05-2.55084E-05-1.30460E-06-1.20509E-19 4.46287E-19
 -1      1114 9.52677E-05-2.85780E-05-2.85813E-05-7.91570E-09 8.32202E-19-9.33210E-19
 -1      1115 8.45734E-05-2.04006E-05-2.75005E-05 7.10967E-07 9.85086E-19-8.06091E-19
 -1      1116 9.32496E-05-2.61747E-05-2.87497E-05-3.79666E-08 4.66431E-20 8.58717E-20
 -1      1117 8.39317E-05-2.03302E-05-2.72736E-05-1.60504E-06 7.47592E-19-1.02917E-18
 -1      1118 9.38842E-05-2.67974E-05-2.87536E-05 6.83184E-08-1.44447E-19-2.87619E-18
 -1      1119 8.11824E-05-1.93895E-05-2.64857E-05-2.56421E-06 6.86900E-19-6.28608E-19
 -1      1120 8.14987E-05-1.91674E-05-2.67137E-05-3.24553E-08-3.13067E-21-8.64278E-19
 -1      1121 1.21443E-04 2.73425E-10-4.38112E-05-4.01750E-05-3.05779E-19 1.08943E-17
 -1      1122 9.39299E-05 8.41255E-11-3.92675E-05-2.07209E-05-1.77030E-19 1.89063E-18
 -1      1123 8.80869E-05 4.92148E-11-3.73378E-05-1.30971E-05-1.19432E-19-2.04987E-18
 -1      1124 8.44594E-05 3.55121E-11-3.59217E-05-8.32636E-06-8.59738E-20-3.97045E-18
 -1      1125 8.15153E-05 2.65200E-11-3.47404E-05-4.84807E-06-5.87100E-20-4.95846E-18
 -1      1126 7.89881E-05 1.92639E-11-3.37305E-05-2.32956E-06-3.57342E-20-5.45342E-18
 -1      1127 7.68912E-05 1.30114E-11-3.29000E-05-6.06973E-07-2.28170E-20-5.66904E-18
 -1      1128 7.53583E-05 8.04368E-12-3.23017E-05 4.62289E-07-8.60268E-21-5.70492E-18
 -1      1129 7.45920E-05 5.00242E-12-3.20111E-05 1.04705E-06 8.58944E-21-5.68988E-18
 -1      1130 7.47357E-05 4.52219E-12-3.20806E-05 1.41518E-06 2.29493E-20-5.59148E-18
 -1      1131 7.58482E-05 6.99082E-12-3.25309E-05 1.89804E-06 3.33519E-20-5.39425E-18
 -1      1132 7.78671E-05 1.23669E-11-3.33355E-05 2.84039E-06 5.17749E-20-4.99907E-18
 -1      1133 8.06777E-05 2.06739E-11-3.44522E-05 4.59014E-06 7.39036E-20-4.33148E-18
 -1      1134 8.41904E-05 3.21851E-11-3.58425E-05 7.51871E-06 9.77264E-20-3.19435E-18
 -1      1135 8.84581E-05 4.89962E-11-3.74999E-05 1.20900E-05 1.29914E-19-9.76854E-19
 -1      1136 9.44472E-05 8.17773E-11-3.96193E-05 1.95097E-05 1.58183E-19 3.26552E-18
 -1      1137 1.12209E-04 1.84104E-10-4.29184E-05 3.40017E-05 3.26743E-19 1.19923E-17
 -1      1138 1.35376E-04-2.73424E-05-4.22943E-05-2.53100E-05-1.29173E-18 1.66196E-17
 -1      1139 1.06381E-04-3.15543E-05-3.43050E-05-2.77139E-07-4.23834E-19 1.35372E-17
 -1      1140 1.02250E-04-3.06600E-05-3.14583E-05 5.09007E-07-1.72848E-19 9.34407E-18
 -1      1141 1.02718E-04-3.09025E-05-3.09288E-05 3.31258E-07-1.00694E-19 6.46064E-18
 -1      1142 1.04208E-04-3.13154E-05-3.12128E-05 2.27436E-07-1.39542E-19 3.99755E-18
 -1      1143 1.05665E-04-3.17059E-05-3.15873E-05 1.44461E-07-9.38527E-20 2.77401E-18
 -1      1144 1.06262E-04-3.18491E-05-3.17119E-05 4.43497E-08 6.31635E-21 2.17223E-18
 -1      1145 1.05283E-04-3.15344E-05-3.13792E-05-8.79508E-08-5.53053E-20 1.09790E-18
 -1      1146 1.02266E-04-3.06274E-05-3.04839E-05-2.42302E-07 8.54775E-20 5.33922E-19
 -1      1147 9.72952E-05-2.91593E-05-2.90817E-05-3.75580E-07-5.93651E-20-1.28325E-18
 -1      1148 9.12775E-05-2.74011E-05-2.74414E-05-4.20494E-07 9.63310E-20-2.42765E-18
 -1      1149 8.58921E-05-2.58405E-05-2.60115E-05-3.22791E-07 1.12483E-19-1.69555E-18
 -1      1150 8.30252E-05-2.50160E-05-2.52682E-05-9.17414E-08-5.60696E-20-2.28384E-18
 -1      1151 8.38586E-05-2.52598E-05-2.55003E-05 1.84852E-07-4.51839E-20-2.85037E-18
 -1      1152 8.82088E-05-2.65206E-05-2.66636E-05 3.89657E-07 9.01627E-21-2.74185E-18
 -1      1153 9.46319E-05-2.83907E-05-2.84029E-05 4.52385E-07-1.39928E-19-3.80630E-18
 -1      1154 1.01210E-04-3.03199E-05-3.02283E-05 3.84467E-07-7.91562E-20-4.83253E-18
 -1      1155 1.06421E-04-3.18624E-05-3.17242E-05 2.49409E-07-6.48609E-20-5.11706E-18
 -1      1156 1.09555E-04-3.28026E-05-3.26706E-05 1.11758E-07-1.66998E-19-5.83865E-18
 -1      1157 1.10648E-04-3.31427E-05-3.30457E-05 8.39724E-09 1.40842E-19-5.64274E-18
 -1      1158 1.10161E-04-3.30129E-05-3.29565E-05-5.22301E-08-1.36874E-19-4.21369E-18
 -1      1159 1.08671E-04-3.25820E-05-3.25587E-05-7.78005E-08 1.01040E-19-3.14371E-18
 -1      1160 1.06690E-04-3.20006E-05-3.19989E-05-8.06047E-08 1.62644E-21-1.53652E-18
 -1      1161 1.04590E-04-3.13797E-05-3.13896E-05-7.13983E-08-4.52808E-19-2.27671E-18
 -1      1162 1.02604E-04-3.07895E-05-3.08039E-05-5.75448E-08 1.96817E-19-2.09131E-18
 -1      1163 1.00855E-04-3.02677E-05-3.02825E-05-4.32919E-08 1.16680E-19-1.93940E-18
 -1      1164 9.93900E-05-2.98291E-05-2.98423E-05-3.06945E-08 3.45118E-19-2.43235E-18
 -1      1165 9.82097E-05-2.94746E-05-2.94854E-05-2.04844E-08-1.93275E-19-2.98659E-18
 -1      1166 9.72889E-05-2.91972E-05-2.92056E-05-1.26917E-08 2.31114E-20-2.03669E-18
 -1      1167 9.65913E-05-2.89865E-05-2.89927E-05-7.02759E-09-9.62693E-20-1.29669E-18
 -1      1168 9.60776E-05-2.88309E-05-2.88352E-05-3.09708E-09-6.34656E-20-1.38474E-19
 -1      1169 9.57105E-05-2.87193E-05-2.87222E-05-5.05958E-10-2.16225E-20-5.27204E-19
 -1      1170 9.54569E-05-2.86419E-05-2.86438E-05 1.09257E-09-2.19238E-19-2.38935E-18
 -1      1171 9.52890E-05-2.85904E-05-2.85915E-05 1.98297E-09 2.66932E-19-2.47502E-18
 -1      1172 9.51841E-05-2.85580E-05-2.85586E-05 2.38774E-09 2.44233E-19-1.78721E-19
 -1      1173 9.51242E-05-2.85393E-05-2.85395E-05 2.47452E-09-5.50541E-20-1.83307E-18
 -1      1174 9.50956E-05-2.85301E-05-2.85301E-05 2.36571E-09-4.04456E-20-2.47724E-18
 -1      1175 9.50878E-05-2.85274E-05-2.85272E-05 2.14802E-09 5.38758E-21-2.02460E-18
 -1      1176 9.50932E-05-2.85286E-05-2.85284E-05 1.88093E-09-7.75178E-20-2.48505E-18
 -1      1177 9.51065E-05-2.85324E-05-2.85321E-05 1.60366E-09 2.16384E-19-2.38434E-18
 -1      1178 9.51238E-05-2.85374E-05-2.85371E-05 1.34075E-09-3.55098E-19-2.96652E-18
 -1      1179 9.51426E-05-2.85429E-05-2.85427E-05 1.10621E-09-2.44963E-19-6.25195E-18
 -1      1180 9.51614E-05-2.85485E-05-2.85483E-05 9.06695E-10 2.37329E-19-7.00501E-18
 -1      1181 9.51792E-05-2.85538E-05-2.85536E-05 7.43375E-10-1.16527E-20-4.27315E-18
 -1      1182 9.51955E-05-2.85586E-05-2.85584E-05 6.12603E-10 4.31047E-19-2.99150E-19
 -1      1183 9.52097E-05-2.85628E-05-2.85627E-05 5.04564E-10-4.03428E-20 3.82584E-18
 -1      1184 9.52217E-05-2.85664E-05-2.85663E-05 3.97898E-10-6.29673E-20 4.31739E-18
 -1      1185 9.52309E-05-2.85692E-05-2.85689E-05 2.42222E-10 5.29000E-20 6.98083E-18
 -1      1186 9.52364E-05-2.85707E-05-2.85706E-05-6.39166E-11-4.47547E-20 7.05019E-18
 -1      1187 9.52377E-05-2.85713E-05-2.85715E-05-2.12387E-10 7.58460E-19 4.97277E-18
 -1      1188 1.36569E-04-3.90913E-05-4.10609E-05 1.18919E-05-2.13029E-19 1.91468E-17
 -1      1189 1.07707E-04-3.15574E-05-3.47128E-05 6.11567E-07 1.20993E-19 1.52791E-17
 -1      1190 1.05823E-04-3.16025E-05-3.24953E-05 3.33145E-08 1.11008E-19 1.13324E-17
 -1      1191 1.07883E-04-3.23780E-05-3.25644E-05-6.98135E-08 8.10902E-20 8.80533E-18
 -1      1192 1.11722E-04-3.35289E-05-3.35676E-05-1.46198E-07-9.59364E-21 7.41032E-18
 -1      1193 1.16274E-04-3.48534E-05-3.48387E-05-2.28107E-07-1.58186E-20 6.16931E-18
 -1      1194 1.20419E-04-3.60522E-05-3.59389E-05-3.02591E-07 9.41199E-20 5.45045E-18
 -1      1195 1.22652E-04-3.66988E-05-3.64155E-05-3.13478E-07-1.23032E-19 5.85234E-18
 -1      1196 1.21186E-04-3.62868E-05-3.58119E-05-1.71653E-07 1.19908E-20 5.16886E-18
 -1      1197 1.14681E-04-3.44298E-05-3.38844E-05 1.82571E-07 2.03950E-20 4.05157E-18
 -1      1198 1.03663E-04-3.12391E-05-3.09275E-05 6.54135E-07 1.51745E-19 2.43480E-18
 -1      1199 9.17084E-05-2.76723E-05-2.79314E-05 9.47829E-07 6.01261E-20 1.01093E-18
 -1      1200 8.44673E-05-2.53916E-05-2.62335E-05 7.72920E-07-4.55148E-20 1.10623E-18
 -1      1201 8.60819E-05-2.57116E-05-2.67207E-05 1.63618E-07-1.97802E-19 6.36069E-19
 -1      1202 9.59358E-05-2.86281E-05-2.91993E-05-4.89985E-07 1.30503E-19-1.11395E-18
 -1      1203 1.08944E-04-3.26054E-05-3.25449E-05-8.01454E-07-9.93940E-21-2.84561E-18
 -1      1204 1.19689E-04-3.59182E-05-3.54601E-05-7.30211E-07-1.25229E-19-2.82507E-18
 -1      1205 1.25442E-04-3.76833E-05-3.71680E-05-4.62534E-07 2.83988E-19-3.00866E-18
 -1      1206 1.26322E-04-3.79428E-05-3.75692E-05-1.90304E-07 1.79753E-19-4.07848E-18
 -1      1207 1.23869E-04-3.71872E-05-3.69921E-05-2.26992E-09-3.87749E-20-4.19956E-18
 -1      1208 1.19752E-04-3.59355E-05-3.58744E-05 9.55823E-08-2.98976E-19-2.28387E-18
 -1      1209 1.15192E-04-3.45586E-05-3.45733E-05 1.29860E-07 3.84832E-20-8.72894E-19
 -1      1210 1.10892E-04-3.32659E-05-3.33130E-05 1.28845E-07-1.52607E-20-2.10215E-18
 -1      1211 1.07172E-04-3.21501E-05-3.22048E-05 1.12223E-07 2.43601E-19-4.22570E-18
 -1      1212 1.04119E-04-3.12351E-05-3.12858E-05 9.11156E-08 1.51191E-19-5.20970E-18
 -1      1213 1.01699E-04-3.05105E-05-3.05529E-05 7.08463E-08 9.84395E-20-3.97077E-18
 -1      1214 9.98316E-05-2.99509E-05-2.99847E-05 5.34724E-08-2.59484E-19-6.84502E-19
 -1      1215 9.84200E-05-2.95279E-05-2.95538E-05 3.94397E-08 1.30928E-19-5.94836E-19
 -1      1216 9.73732E-05-2.92140E-05-2.92335E-05 2.85005E-08 9.91310E-20-2.12630E-18
 -1      1217 9.66115E-05-2.89854E-05-2.89999E-05 2.01730E-08-2.26974E-19-4.57591E-18
 -1      1218 9.60687E-05-2.88224E-05-2.88329E-05 1.39473E-08 1.95899E-19-5.58621E-18
 -1      1219 9.56911E-05-2.87089E-05-2.87164E-05 9.36659E-09 7.47391E-20-4.24597E-18
 -1      1220 9.54361E-05-2.86322E-05-2.86375E-05 6.05038E-09-7.44722E-20-3.67520E-18
 -1      1221 9.52707E-05-2.85823E-05-2.85859E-05 3.69270E-09-1.10634E-19-2.84612E-18
 -1      1222 9.51696E-05-2.85517E-05-2.85542E-05 2.05244E-09-5.40263E-20-3.50591E-18
 -1      1223 9.51134E-05-2.85347E-05-2.85362E-05 9.42114E-10-1.60341E-19-3.71482E-18
 -1      1224 9.50878E-05-2.85269E-05-2.85278E-05 2.17558E-10 6.72457E-19-5.93498E-18
 -1      1225 9.50825E-05-2.85252E-05-2.85256E-05-2.31030E-10-3.48620E-20-4.54550E-18
 -1      1226 9.50897E-05-2.85272E-05-2.85274E-05-4.86565E-10-1.52330E-19-8.86539E-19
 -1      1227 9.51042E-05-2.85315E-05-2.85315E-05-6.11116E-10 3.56527E-20-1.23018E-18
 -1      1228 9.51223E-05-2.85369E-05-2.85368E-05-6.50742E-10 4.21088E-20-1.99288E-18
 -1      1229 9.51417E-05-2.85426E-05-2.85425E-05-6.39345E-10-1.35636E-19-9.08317E-19
 -1      1230 9.51609E-05-2.85484E-05-2.85482E-05-6.01764E-10 5.76620E-19-1.55661E-18
 -1      1231 9.51789E-05-2.85537E-05-2.85536E-05-5.56094E-10-1.09095E-20-2.50759E-18
 -1      1232 9.51953E-05-2.85586E-05-2.85585E-05-5.14955E-10 1.79914E-19-2.20600E-18
 -1      1233 9.52097E-05-2.85629E-05-2.85627E-05-4.85784E-10 3.29448E-19-5.03720E-18
 -1      1234 9.52217E-05-2.85665E-05-2.85663E-05-4.67605E-10 2.32871E-19-8.97899E-18
 -1      1235 9.52309E-05-2.85692E-05-2.85690E-05-4.27140E-10-1.25725E-19-6.16326E-18
 -1      1236 9.52364E-05-2.85709E-05-2.85706E-05-2.41789E-10 2.18743E-19-1.80872E-18
 -1      1237 9.52377E-05-2.85713E-05-2.85715E-05 1.86462E-10 1.36174E-19-8.35280E-19
 -1      1238 9.52370E-05-2.85706E-05-2.85715E-05 1.68394E-10-2.76362E-19-6.30636E-19
 -1      1239 9.52375E-05-2.85720E-05-2.85706E-05 5.18115E-11-2.86548E-18-4.31361E-19
 -1      1240 9.52391E-05-2.85774E-05-2.85690E-05-2.96883E-10 6.09134E-19 6.04424E-19
 -1      1241 9.52415E-05-2.85855E-05-2.85667E-05-4.16598E-10 2.00994E-20 4.46628E-19
 -1      1242 9.52441E-05-2.85945E-05-2.85642E-05-4.18228E-10 3.50920E-18 4.77735E-19
 -1      1243 9.52466E-05-2.86029E-05-2.85618E-05-3.51760E-10 3.32392E-18-7.24297E-19
 -1      1244 9.52486E-05-2.86096E-05-2.85598E-05-2.54992E-10-6.40296E-19 1.23382E-19
 -1      1245 9.52499E-05-2.86140E-05-2.85586E-05-1.31130E-10-1.43118E-18-1.12293E-18
 -1      1246 9.52503E-05-2.86155E-05-2.85581E-05 1.73536E-12-2.48420E-18 4.65877E-20
 -1      1247 9.52499E-05-2.86139E-05-2.85586E-05 1.34357E-10 5.69241E-19 1.94187E-19
 -1      1248 9.52485E-05-2.86095E-05-2.85599E-05 2.57110E-10 5.03837E-18-5.84759E-19
 -1      1249 9.52465E-05-2.86027E-05-2.85618E-05 3.58057E-10-1.69752E-19 4.04271E-19
 -1      1250 9.52441E-05-2.85943E-05-2.85642E-05 4.17854E-10 3.41260E-18 5.99571E-19
 -1      1251 9.52414E-05-2.85853E-05-2.85668E-05 4.21075E-10-6.32553E-19-1.31259E-19
 -1      1252 9.52390E-05-2.85771E-05-2.85691E-05 3.53260E-10-6.95507E-18-7.97159E-19
 -1      1253 9.52376E-05-2.85721E-05-2.85706E-05-1.67862E-10-8.05160E-18-9.17326E-19
 -1      1254 9.52369E-05-2.85706E-05-2.85715E-05-1.82346E-10-4.33706E-18 2.13378E-19
 -1      1255 3.46239E-05-1.08544E-04 1.84739E-05-1.45964E-05 7.30015E-18 1.92891E-18
 -1      1256 1.78052E-05-6.77450E-05 1.01517E-05-2.69403E-05 1.57734E-17 6.23522E-18
 -1      1257 8.51841E-06-9.29152E-06-6.42437E-06 2.40014E-08 2.11623E-17 1.37931E-17
 -1      1258 4.02079E-05 2.34495E-05-2.80356E-05 5.72823E-05 2.00001E-17 2.00730E-17
 -1      1259 1.20478E-04 7.47544E-06-4.88673E-05 1.03943E-04 1.24641E-17 1.90718E-17
 -1      1260 2.24390E-04-4.11356E-05-6.66121E-05 1.03516E-04 5.81065E-18 1.37440E-17
 -1      1261 3.03933E-04-8.64392E-05-7.77063E-05 4.76700E-05 1.28760E-18 2.76726E-18
 -1      1262 3.13473E-04-9.31206E-05-7.86591E-05-3.72173E-05 1.83031E-18-1.01127E-17
 -1      1263 2.46570E-04-5.30655E-05-7.02490E-05-9.90074E-05 7.04244E-18-1.99273E-17
 -1      1264 1.46032E-04-2.04100E-06-5.41638E-05-1.10771E-04 1.42115E-17-2.42946E-17
 -1      1265 5.68546E-05 2.53552E-05-3.39756E-05-7.33584E-05 2.01916E-17-2.26310E-17
 -1      1266 1.24558E-05 6.24955E-06-1.31130E-05-1.67099E-05 2.07083E-17-1.55871E-17
 -1      1267 1.19906E-05-4.74332E-05 5.19046E-06 2.07856E-05 1.61826E-17-7.66946E-18
 -1      1268 3.01120E-05-9.90830E-05 1.65852E-05 2.14559E-05 7.47972E-18-2.42876E-18
 -1      1269 3.74258E-05-1.13747E-04 1.91065E-05-5.01896E-06-4.63263E-18-1.18892E-18
 -1      1270 2.28189E-05-8.00718E-05 1.28560E-05-2.36699E-05-1.63299E-17-5.28316E-18
 -1      1271 8.32876E-06-2.61438E-05-5.57215E-07-1.20371E-05-2.32697E-17-1.22921E-17
 -1      1272 2.08375E-05 1.77755E-05-1.91287E-05 3.41015E-05-2.30613E-17-1.87050E-17
 -1      1273 8.61699E-05 1.94138E-05-4.15939E-05 9.08950E-05-1.67916E-17-2.08489E-17
 -1      1274 1.86363E-04-2.16770E-05-6.09781E-05 1.13067E-04-8.84006E-18-1.85365E-17
 -1      1275 2.74509E-04-7.10015E-05-7.35027E-05 7.59020E-05-3.50365E-18-1.22422E-17
 -1      1276 3.08256E-04-9.16414E-05-7.79426E-05-5.46445E-06-1.02555E-18-6.77626E-19
 -1      1277 2.68003E-04-6.76287E-05-7.25252E-05-8.28956E-05-3.14292E-18 1.07133E-17
 -1      1278 1.75544E-04-1.63461E-05-5.92737E-05-1.11729E-04-8.99973E-18 1.72625E-17
 -1      1279 8.24333E-05 2.17619E-05-4.09720E-05-9.10116E-05-1.55337E-17 2.02390E-17
 -1      1280 2.37950E-05 2.23725E-05-2.17343E-05-4.13727E-05-1.98680E-17 1.68568E-17
 -1      1281 6.97409E-06-1.46636E-05-3.65443E-06 5.49611E-06-2.20398E-17 1.27360E-17
 -1      1282 1.89330E-05-6.86988E-05 1.04980E-05 2.50990E-05-1.50941E-17 5.87608E-18
 -1      1283 3.48130E-05-1.08086E-04 1.83286E-05 1.27059E-05-4.31521E-18 1.14381E-18
 -1      1284 1.11095E-04-2.36522E-05-4.00266E-05-1.56595E-05-4.87150E-19 8.97029E-18
 -1      1285 9.61861E-05-7.88007E-06-3.79764E-05-1.65884E-05-1.34805E-18 3.91753E-20
 -1      1286 9.91568E-05-8.12256E-06-3.93022E-05-2.24848E-05-1.72244E-18 2.09185E-18
 -1      1287 8.99939E-05-4.85497E-06-3.65416E-05-1.15335E-05-1.33529E-18-2.88049E-18
 -1      1288 9.21684E-05-4.90481E-06-3.73216E-05-1.43995E-05-1.51195E-18-1.61145E-18
 -1      1289 9.81459E-05-1.21416E-05-3.69181E-05-1.48756E-05-2.34432E-18 5.59042E-20
 -1      1290 8.59120E-05-3.52768E-06-3.53285E-05-7.39755E-06-1.03423E-18-4.38485E-18
 -1      1291 8.76338E-05-3.53336E-06-3.59596E-05-9.41341E-06-1.19834E-18-3.69706E-18
 -1      1292 9.17022E-05-8.37365E-06-3.57852E-05-1.05118E-05-2.06492E-18-2.37852E-18
 -1      1293 8.25312E-05-2.63309E-06-3.42592E-05-4.22532E-06-7.80858E-19-5.18599E-18
 -1      1294 8.40229E-05-2.64555E-06-3.48046E-05-5.72753E-06-8.62280E-19-4.84903E-18
 -1      1295 8.71073E-05-6.21994E-06-3.47357E-05-6.70423E-06-1.53857E-18-3.70238E-18
 -1      1296 7.96406E-05-1.90731E-06-3.33390E-05-1.92368E-06-4.85932E-19-5.56855E-18
 -1      1297 8.09171E-05-1.92382E-06-3.37986E-05-2.99465E-06-5.95676E-19-5.37035E-18
 -1      1298 8.33287E-05-4.64708E-06-3.37811E-05-3.75965E-06-1.14290E-18-4.35007E-18
 -1      1299 7.72172E-05-1.27650E-06-3.25818E-05-3.21878E-07-2.87091E-19-5.72371E-18
 -1      1300 7.82543E-05-1.29619E-06-3.29473E-05-1.05320E-06-3.44848E-19-5.67734E-18
 -1      1301 8.00919E-05-3.34027E-06-3.29466E-05-1.59712E-06-6.94316E-19-4.71846E-18
 -1      1302 7.55131E-05-7.76057E-07-3.20721E-05 6.55736E-07-4.61898E-21-5.74987E-18
 -1      1303 7.61853E-05-7.92932E-07-3.23007E-05 2.09700E-07-1.06964E-19-5.72335E-18
 -1      1304 7.74768E-05-2.25551E-06-3.22857E-05-1.13153E-07-3.34141E-19-4.79746E-18
 -1      1305 7.47583E-05-4.71034E-07-3.18762E-05 1.20568E-06 1.90855E-19-5.71835E-18
 -1      1306 7.49633E-05-4.80703E-07-3.19356E-05 9.34934E-07 1.09598E-19-5.75556E-18
 -1      1307 7.57535E-05-1.48356E-06-3.18745E-05 7.94886E-07 9.31008E-20-4.85179E-18
 -1      1308 7.51271E-05-4.25912E-07-3.20393E-05 1.60803E-06 4.26878E-19-5.61163E-18
 -1      1309 7.47992E-05-4.25328E-07-3.19099E-05 1.36554E-06 3.43512E-19-5.68523E-18
 -1      1310 7.51812E-05-1.14431E-06-3.17732E-05 1.33834E-06 4.35444E-19-4.86429E-18
 -1      1311 7.66785E-05-6.80043E-07-3.25716E-05 2.20050E-06 6.37975E-19-5.41197E-18
 -1      1312 7.58099E-05-6.67100E-07-3.22525E-05 1.81684E-06 5.69709E-19-5.54602E-18
 -1      1313 7.59371E-05-1.33554E-06-3.20164E-05 1.81085E-06 8.31846E-19-4.73657E-18
 -1      1314 7.92855E-05-1.22163E-06-3.34265E-05 3.30891E-06 8.42480E-19-4.91251E-18
 -1      1315 7.79560E-05-1.20356E-06-3.29465E-05 2.62925E-06 7.50683E-19-5.20727E-18
 -1      1316 7.80355E-05-2.09083E-06-3.25954E-05 2.54341E-06 1.14790E-18-4.46005E-18
 -1      1317 8.28863E-05-2.05768E-06-3.45785E-05 5.30184E-06 1.22936E-18-4.17019E-18
 -1      1318 8.11252E-05-2.03370E-06-3.39476E-05 4.13591E-06 1.06827E-18-4.58312E-18
 -1      1319 8.13843E-05-3.40775E-06-3.34729E-05 3.87028E-06 1.56697E-18-3.90967E-18
 -1      1320 8.73227E-05-3.20389E-06-3.59583E-05 8.49527E-06 1.49692E-18-2.87409E-18
 -1      1321 8.52050E-05-3.18222E-06-3.52050E-05 6.67033E-06 1.33831E-18-3.67918E-18
 -1      1322 8.58884E-05-5.32156E-06-3.45913E-05 6.11198E-06 2.08162E-18-3.03815E-18
 -1      1323 9.27912E-05-4.86196E-06-3.75569E-05 1.33331E-05 1.70899E-18-4.65471E-19
 -1      1324 9.01985E-05-4.83212E-06-3.66555E-05 1.05235E-05 1.51201E-18-1.91747E-18
 -1      1325 9.15449E-05-8.02030E-06-3.58610E-05 9.52473E-06 2.43681E-18-1.55033E-18
 -1      1326 1.00974E-04-8.41122E-06-3.95233E-05 2.08616E-05 1.46812E-18 4.05813E-18
 -1      1327 9.69751E-05-7.88674E-06-3.82955E-05 1.60097E-05 1.44154E-18 1.29707E-18
 -1      1328 9.91136E-05-1.24288E-05-3.71783E-05 1.41733E-05 2.54446E-18 1.12481E-18
 -1      1329 1.30493E-04-2.67700E-05-4.13762E-05 2.62617E-05 7.40836E-19 1.26030E-17
 -1      1330 1.07980E-04-1.64339E-05-3.98288E-05 2.07149E-05 7.37660E-19 6.67737E-18
 -1      1331 1.10385E-04-2.19849E-05-3.79206E-05 1.69793E-05 2.40073E-18 5.25182E-18
 -1      1332 1.11775E-04-3.07175E-05-3.74409E-05 5.08778E-06 1.31264E-18 1.20948E-17
 -1      1333 1.13269E-04-3.27852E-05-3.59188E-05-6.22441E-06-1.41984E-18 9.43266E-18
 -1      1334 1.07821E-04-3.08380E-05-3.35397E-05-3.49648E-06-1.30443E-18 7.76330E-18
 -1      1335 1.05832E-04-3.10080E-05-3.23138E-05-1.13346E-06-1.03505E-18 7.06253E-18
 -1      1336 1.04868E-04-3.11056E-05-3.16509E-05-7.52858E-07-9.73479E-19 5.54007E-18
 -1      1337 1.08657E-04-3.09778E-05-3.36553E-05-5.17290E-06-2.26994E-18 4.16359E-18
 -1      1338 1.04013E-04-3.09863E-05-3.12808E-05 2.73862E-07-7.84498E-19 4.93762E-18
 -1      1339 1.04321E-04-3.12123E-05-3.12830E-05 3.41607E-07-7.82632E-19 3.80220E-18
 -1      1340 1.05520E-04-3.11327E-05-3.19966E-05-7.89099E-07-1.76572E-18 3.04789E-18
 -1      1341 1.04274E-04-3.12501E-05-3.12485E-05 6.54586E-07-6.36365E-19 3.34769E-18
 -1      1342 1.04923E-04-3.15188E-05-3.14210E-05 6.47337E-07-6.38880E-19 2.36060E-18
 -1      1343 1.04846E-04-3.13422E-05-3.15186E-05 7.90873E-07-1.40633E-18 2.12043E-18
 -1      1344 1.05130E-04-3.16204E-05-3.14696E-05 5.35608E-07-3.10573E-19 2.08373E-18
 -1      1345 1.05599E-04-3.18168E-05-3.15965E-05 4.53174E-07-2.30615E-19 1.64080E-18
 -1      1346 1.05080E-04-3.16356E-05-3.14658E-05 1.04624E-06-8.68128E-19 1.45179E-18
 -1      1347 1.05691E-04-3.18896E-05-3.16007E-05 7.67701E-09-1.59646E-19 1.48115E-18
 -1      1348 1.05590E-04-3.18970E-05-3.15614E-05-1.48433E-07-2.42682E-19 1.20092E-18
 -1      1349 1.05446E-04-3.19248E-05-3.14787E-05 3.97999E-07-5.29981E-19 1.00762E-18
 -1      1350 1.05289E-04-3.18502E-05-3.14426E-05-8.50659E-07-2.78141E-19 1.14611E-18
 -1      1351 1.04325E-04-3.15633E-05-3.11601E-05-1.06163E-06-1.74373E-19 7.88905E-19
 -1      1352 1.05320E-04-3.20293E-05-3.13610E-05-9.69400E-07-4.51535E-19 7.53313E-19
 -1      1353 1.03456E-04-3.13231E-05-3.08797E-05-1.86070E-06-1.82350E-19 6.87367E-19
 -1      1354 1.01530E-04-3.06909E-05-3.03364E-05-2.07383E-06-3.00167E-19 4.06311E-20
 -1      1355 1.04241E-04-3.17557E-05-3.10042E-05-2.78242E-06-5.04137E-19 6.73636E-19
 -1      1356 1.00090E-04-3.02315E-05-2.99105E-05-2.69323E-06-4.04586E-19-2.65492E-19
 -1      1357 9.74338E-05-2.93163E-05-2.91800E-05-2.82026E-06-5.38713E-19-8.43354E-19
 -1      1358 1.02000E-04-3.09693E-05-3.03888E-05-4.52208E-06-7.13159E-19 4.47538E-20
 -1      1359 9.56687E-05-2.87039E-05-2.86905E-05-2.92739E-06-2.43548E-19-8.78241E-19
 -1      1360 9.29046E-05-2.77184E-05-2.79452E-05-2.87626E-06 1.08976E-19-9.93278E-19
 -1      1361 9.88117E-05-2.97018E-05-2.96016E-05-5.44417E-06-5.05802E-19 1.74720E-19
 -1      1362 9.13088E-05-2.71309E-05-2.75248E-05-2.25338E-06 1.67944E-19-1.64716E-18
 -1      1363 8.93033E-05-2.63968E-05-2.69934E-05-1.99069E-06-1.46206E-19-1.49086E-18
 -1      1364 9.54148E-05-2.82479E-05-2.88271E-05-4.85433E-06-9.44574E-20-4.94826E-19
 -1      1365 8.84551E-05-2.60687E-05-2.67802E-05-7.27151E-07-5.50029E-19-1.64551E-18
 -1      1366 8.79605E-05-2.58784E-05-2.66536E-05-3.27896E-07-5.60941E-19-2.28104E-18
 -1      1367 9.29153E-05-2.71201E-05-2.82933E-05-2.56786E-06-4.43905E-19-1.54115E-18
 -1      1368 8.82310E-05-2.59694E-05-2.67298E-05 1.14570E-06-2.09250E-19-2.26915E-18
 -1      1369 8.94925E-05-2.64204E-05-2.70694E-05 1.52358E-06-9.66279E-20-2.37196E-18
 -1      1370 9.23119E-05-2.68159E-05-2.81836E-05 7.82595E-07-4.57901E-19-1.93676E-18
 -1      1371 9.08207E-05-2.69043E-05-2.74217E-05 2.65312E-06-1.83039E-20-2.51381E-18
 -1      1372 9.34381E-05-2.78386E-05-2.81270E-05 2.86485E-06-1.48962E-19-2.62617E-18
 -1      1373 9.39325E-05-2.75027E-05-2.85533E-05 3.96478E-06-3.02391E-19-2.13794E-18
 -1      1374 9.53667E-05-2.85212E-05-2.86524E-05 3.29279E-06-7.11482E-19-2.80675E-18
 -1      1375 9.85160E-05-2.96214E-05-2.95125E-05 3.29176E-06-5.50838E-19-3.28170E-18
 -1      1376 9.72296E-05-2.89050E-05-2.93067E-05 5.84121E-06-6.52417E-19-2.55114E-18
 -1      1377 1.00455E-04-3.02695E-05-3.00660E-05 3.01720E-06-3.40458E-19-3.94442E-18
 -1      1378 1.03301E-04-3.12315E-05-3.08581E-05 2.85788E-06-3.87491E-19-4.37675E-18
 -1      1379 1.01105E-04-3.04861E-05-3.02354E-05 5.98519E-06-9.83706E-19-2.91964E-18
 -1      1380 1.04797E-04-3.16907E-05-3.13127E-05 2.14253E-06-1.67342E-19-4.41405E-18
 -1      1381 1.06804E-04-3.23384E-05-3.18848E-05 1.91958E-06-2.64294E-19-4.50232E-18
 -1      1382 1.04492E-04-3.17681E-05-3.11077E-05 4.74540E-06-4.82451E-19-3.45574E-18
 -1      1383 1.07656E-04-3.25632E-05-3.21683E-05 1.08318E-06-2.35700E-19-4.47907E-18
 -1      1384 1.08667E-04-3.28632E-05-3.24668E-05 8.74640E-07 1.53485E-19-4.65944E-18
 -1      1385 1.06748E-04-3.25193E-05-3.17487E-05 2.84869E-06-3.66421E-19-3.72798E-18
 -1      1386 1.08890E-04-3.28834E-05-3.25670E-05 1.47504E-07 3.05124E-19-4.58105E-18
 -1      1387 1.09026E-04-3.28952E-05-3.26174E-05-7.17074E-09 1.96125E-19-4.12742E-18
 -1      1388 1.07717E-04-3.27451E-05-3.20796E-05 9.62201E-07 2.20143E-19-3.11093E-18
 -1      1389 1.08755E-04-3.27708E-05-3.25638E-05-5.22325E-07 3.53140E-19-4.23257E-18
 -1      1390 1.08268E-04-3.25883E-05-3.24321E-05-6.15928E-07-9.43118E-20-3.99512E-18
 -1      1391 1.07580E-04-3.25770E-05-3.21103E-05-5.22195E-07 3.99852E-19-3.32628E-18
 -1      1392 1.07676E-04-3.23797E-05-3.22723E-05-9.12526E-07 1.64842E-19-3.37094E-18
 -1      1393 1.06828E-04-3.20921E-05-3.20320E-05-9.55113E-07 6.11776E-19-2.73528E-18
 -1      1394 1.06658E-04-3.21703E-05-3.19058E-05-1.48348E-06 5.27070E-19-3.69251E-18
 -1      1395 1.06072E-04-3.18472E-05-3.18136E-05-1.07526E-06 5.06671E-19-2.30811E-18
 -1      1396 1.05074E-04-3.15225E-05-3.15263E-05-1.08215E-06-1.21049E-19-2.27029E-18
 -1      1397 1.05281E-04-3.16533E-05-3.15495E-05-1.97088E-06 5.76684E-19-2.78062E-18
 -1      1398 1.04273E-04-3.12744E-05-3.12876E-05-1.08097E-06-2.98001E-19-1.59447E-18
 -1      1399 1.03273E-04-3.09568E-05-3.09968E-05-1.06634E-06-7.71081E-20-1.96395E-18
 -1      1400 1.03719E-04-3.11142E-05-3.11188E-05-2.10374E-06 3.37838E-19-2.22396E-18
 -1      1401 1.02506E-04-3.07258E-05-3.07643E-05-9.93176E-07-3.06427E-19-1.61438E-18
 -1      1402 1.01590E-04-3.04400E-05-3.04962E-05-9.67713E-07-1.36923E-19-1.44854E-18
 -1      1403 1.02160E-04-3.06058E-05-3.06733E-05-2.00775E-06-2.72008E-19-1.05334E-18
 -1      1404 1.00902E-04-3.02366E-05-3.02857E-05-8.59594E-07 1.62773E-20-2.27093E-18
 -1      1405 1.00113E-04-2.99935E-05-3.00533E-05-8.30427E-07-1.21710E-19-2.16643E-18
 -1      1406 1.00723E-04-3.01554E-05-3.02523E-05-1.78588E-06-4.68082E-19-1.87095E-18
 -1      1407 9.95245E-05-2.98218E-05-2.98721E-05-7.12014E-07-1.81628E-19-2.42641E-18
 -1      1408 9.88735E-05-2.96235E-05-2.96797E-05-6.83412E-07 1.02859E-19-2.45903E-18
 -1      1409 9.94674E-05-2.97736E-05-2.98780E-05-1.51136E-06-4.28215E-19-2.25005E-18
 -1      1410 9.83884E-05-2.94833E-05-2.95297E-05-5.69469E-07 3.11916E-19-2.46321E-18
 -1      1411 9.78701E-05-2.93269E-05-2.93761E-05-5.43688E-07-2.49095E-19-2.54568E-18
 -1      1412 9.84138E-05-2.94607E-05-2.95600E-05-1.23085E-06-7.05089E-21-2.60200E-18
 -1      1413 9.74824E-05-2.92156E-05-2.92559E-05-4.41952E-07 3.31545E-19-1.88010E-18
 -1      1414 9.70822E-05-2.90959E-05-2.91369E-05-4.19952E-07 4.54536E-19-1.63342E-18
 -1      1415 9.75585E-05-2.92115E-05-2.92993E-05-9.70920E-07 6.40788E-19-1.99575E-18
 -1      1416 9.67807E-05-2.90098E-05-2.90433E-05-3.33580E-07 2.19045E-19-8.99320E-19
 -1      1417 9.64803E-05-2.89208E-05-2.89537E-05-3.15539E-07 2.98606E-19-5.96975E-19
 -1      1418 9.68836E-05-2.90180E-05-2.90918E-05-7.44390E-07 8.28820E-19-1.06970E-18
 -1      1419 9.62517E-05-2.88558E-05-2.88826E-05-2.44924E-07-2.25000E-19-2.19237E-19
 -1      1420 9.60326E-05-2.87915E-05-2.88171E-05-2.30594E-07-3.72822E-19-5.67591E-19
 -1      1421 9.63647E-05-2.88712E-05-2.89311E-05-5.55382E-07 2.48348E-19-3.57123E-19
 -1      1422 9.58637E-05-2.87436E-05-2.87645E-05-1.74608E-07-4.75388E-19-3.97289E-19
 -1      1423 9.57088E-05-2.86986E-05-2.87180E-05-1.63534E-07-6.66397E-19-9.73379E-19
 -1      1424 9.59756E-05-2.87627E-05-2.88098E-05-4.02944E-07-8.77445E-19-5.25780E-19
 -1      1425 9.55874E-05-2.86644E-05-2.86802E-05-1.20324E-07-7.75950E-19-1.28936E-18
 -1      1426 9.54817E-05-2.86341E-05-2.86484E-05-1.11984E-07-4.50747E-19-2.12452E-18
 -1      1427 9.56913E-05-2.86845E-05-2.87205E-05-2.83468E-07-1.08087E-18-1.35742E-18
 -1      1428 9.53971E-05-2.86103E-05-2.86220E-05-7.94676E-08 3.06529E-19-1.94939E-18
 -1      1429 9.53282E-05-2.85909E-05-2.86011E-05-7.33442E-08 7.22221E-19-1.84653E-18
 -1      1430 9.54895E-05-2.86298E-05-2.86567E-05-1.92219E-07 1.68460E-19-1.07645E-18
 -1      1431 9.52715E-05-2.85750E-05-2.85835E-05-4.94870E-08 7.42438E-19-1.60653E-18
 -1      1432 9.52295E-05-2.85635E-05-2.85707E-05-4.51118E-08 2.22921E-19-1.40906E-18
 -1      1433 9.53510E-05-2.85929E-05-2.86124E-05-1.24247E-07 7.08543E-19-1.67341E-18
 -1      1434 9.51934E-05-2.85535E-05-2.85594E-05-2.80761E-08-3.17406E-19-1.40216E-18
 -1      1435 9.51705E-05-2.85475E-05-2.85523E-05-2.50452E-08 3.25758E-20-1.73516E-18
 -1      1436 9.52599E-05-2.85693E-05-2.85830E-05-7.49022E-08 1.62139E-19-1.69511E-18
 -1      1437 9.51493E-05-2.85417E-05-2.85457E-05-1.32512E-08-2.00715E-19-1.90971E-18
 -1      1438 9.51394E-05-2.85394E-05-2.85425E-05-1.12297E-08-3.67862E-19-2.25242E-18
 -1      1439 9.52035E-05-2.85551E-05-2.85645E-05-4.00797E-08-4.06779E-19-9.10308E-19
 -1      1440 9.51285E-05-2.85365E-05-2.85391E-05-3.36787E-09-1.10053E-19-2.40025E-18
 -1      1441 9.51272E-05-2.85367E-05-2.85385E-05-2.08552E-09-2.03300E-19-2.04052E-18
 -1      1442 9.51718E-05-2.85477E-05-2.85538E-05-1.63077E-08-6.33135E-19-2.19476E-18
 -1      1443 9.51235E-05-2.85358E-05-2.85373E-05 2.89819E-09 1.88313E-19-1.82164E-18
 -1      1444 9.51275E-05-2.85374E-05-2.85384E-05 3.65363E-09 1.08247E-19-1.90803E-18
 -1      1445 9.51572E-05-2.85448E-05-2.85486E-05-7.44874E-10-3.20139E-19-2.01588E-18
 -1      1446 9.51283E-05-2.85378E-05-2.85386E-05 6.58647E-09-4.72955E-19-2.20916E-18
 -1      1447 9.51354E-05-2.85402E-05-2.85406E-05 6.97779E-09-5.29883E-19-2.78105E-18
 -1      1448 9.51541E-05-2.85449E-05-2.85470E-05 8.87151E-09-1.76007E-19-1.51176E-18
 -1      1449 9.51390E-05-2.85413E-05-2.85417E-05 8.49284E-09-2.76197E-19-2.79459E-18
 -1      1450 9.51475E-05-2.85442E-05-2.85442E-05 8.64178E-09-9.91022E-19-4.20151E-18
 -1      1451 9.51581E-05-2.85468E-05-2.85478E-05 1.42988E-08-5.75571E-19-3.25501E-18
 -1      1452 9.51526E-05-2.85457E-05-2.85458E-05 9.21044E-09-1.05601E-18-4.85520E-18
 -1      1453 9.51617E-05-2.85486E-05-2.85484E-05 9.20531E-09-5.78440E-19-5.67314E-18
 -1      1454 9.51664E-05-2.85498E-05-2.85500E-05 1.68673E-08-1.47497E-18-3.62364E-18
 -1      1455 9.51674E-05-2.85503E-05-2.85502E-05 9.16644E-09 4.32605E-19-5.11255E-18
 -1      1456 9.51763E-05-2.85531E-05-2.85527E-05 9.06847E-09 8.77762E-19-4.02294E-18
 -1      1457 9.51769E-05-2.85532E-05-2.85530E-05 1.75534E-08-3.45924E-20-2.82344E-18
 -1      1458 9.51821E-05-2.85548E-05-2.85546E-05 8.65255E-09 9.64447E-19-2.81454E-18
 -1      1459 9.51904E-05-2.85574E-05-2.85570E-05 8.50088E-09 1.28359E-18-1.90177E-18
 -1      1460 9.51881E-05-2.85567E-05-2.85563E-05 1.70447E-08 2.02205E-18-1.76598E-18
 -1      1461 9.51960E-05-2.85590E-05-2.85587E-05 7.84830E-09 1.43817E-18-1.35659E-18
 -1      1462 9.52034E-05-2.85613E-05-2.85609E-05 7.66322E-09 1.10137E-18 2.06542E-19
 -1      1463 9.51992E-05-2.85602E-05-2.85595E-05 1.57903E-08 2.61748E-18-2.99040E-19
 -1      1464 9.52084E-05-2.85628E-05-2.85624E-05 6.83668E-09 7.23541E-19 1.16001E-18
 -1      1465 9.52148E-05-2.85648E-05-2.85643E-05 6.62100E-09 6.52934E-19 2.47632E-18
 -1      1466 9.52095E-05-2.85634E-05-2.85626E-05 1.40387E-08 2.01518E-18 5.76014E-19
 -1      1467 9.52192E-05-2.85661E-05-2.85656E-05 5.61257E-09 3.99870E-19 2.25460E-18
 -1      1468 9.52243E-05-2.85677E-05-2.85671E-05 5.35006E-09 5.66073E-19 3.11736E-18
 -1      1469 9.52187E-05-2.85662E-05-2.85653E-05 1.18629E-08 1.13428E-18 5.27709E-19
 -1      1470 9.52278E-05-2.85688E-05-2.85681E-05 4.09875E-09 1.09411E-18 4.69535E-18
 -1      1471 9.52315E-05-2.85699E-05-2.85692E-05 3.75147E-09 8.50519E-19 5.03365E-18
 -1      1472 9.52263E-05-2.85686E-05-2.85675E-05 9.17995E-09 1.73311E-18 1.73216E-18
 -1      1473 9.52339E-05-2.85708E-05-2.85699E-05 2.18064E-09-1.35084E-19 5.73121E-18
 -1      1474 9.52357E-05-2.85712E-05-2.85705E-05 1.74540E-09-7.10775E-19 5.17033E-18
 -1      1475 9.52322E-05-2.85706E-05-2.85691E-05 5.87032E-09 1.35454E-18 2.83712E-18
 -1      1476 9.52372E-05-2.85713E-05-2.85711E-05-7.91623E-11-3.39062E-18 3.44234E-18
 -1      1477 9.52363E-05-2.85718E-05-2.85705E-05 1.67443E-09-3.89449E-18 2.05545E-18
 -1      1478 1.09082E-04-3.21627E-05-3.34557E-05 1.15863E-06 1.15456E-18 9.52440E-18
 -1      1479 1.12897E-04-3.24819E-05-3.52628E-05 2.53160E-06 1.05948E-18 1.13998E-17
 -1      1480 1.12421E-04-2.99793E-05-3.56899E-05 9.26988E-06 2.03860E-18 7.38983E-18
 -1      1481 1.07990E-04-3.22152E-05-3.25326E-05-6.54822E-07 8.91489E-19 7.16913E-18
 -1      1482 1.07946E-04-3.17588E-05-3.28442E-05-3.09467E-07 8.24851E-19 8.53170E-18
 -1      1483 1.09277E-04-3.19247E-05-3.33641E-05 1.44313E-06 1.74817E-18 5.71811E-18
 -1      1484 1.09784E-04-3.28687E-05-3.29431E-05-1.55900E-06 4.22822E-19 5.59833E-18
 -1      1485 1.08367E-04-3.22510E-05-3.26061E-05-1.33933E-06 4.80671E-19 6.52030E-18
 -1      1486 1.08827E-04-3.22952E-05-3.28620E-05-1.65850E-06 1.20517E-18 4.27704E-18
 -1      1487 1.12995E-04-3.39025E-05-3.38688E-05-1.96127E-06 3.64582E-19 4.76472E-18
 -1      1488 1.10962E-04-3.31818E-05-3.32943E-05-1.83533E-06 3.26253E-19 5.32908E-18
 -1      1489 1.10459E-04-3.29886E-05-3.32271E-05-3.10525E-06 7.27350E-19 3.30851E-18
 -1      1490 1.16572E-04-3.50715E-05-3.48849E-05-1.87663E-06 2.44210E-19 4.04024E-18
 -1      1491 1.14468E-04-3.43686E-05-3.42966E-05-1.87458E-06 1.96075E-19 4.43263E-18
 -1      1492 1.13117E-04-3.39655E-05-3.39263E-05-3.55888E-06 5.64914E-19 2.79566E-18
 -1      1493 1.19381E-04-3.60526E-05-3.56300E-05-1.15128E-06-1.33480E-19 3.96969E-18
 -1      1494 1.17856E-04-3.55719E-05-3.52320E-05-1.33821E-06 3.57342E-21 3.98513E-18
 -1      1495 1.15907E-04-3.50458E-05-3.46203E-05-2.95464E-06 1.97451E-19 2.39483E-18
 -1      1496 1.20065E-04-3.64058E-05-3.57215E-05 3.56142E-07 2.67530E-19 3.99935E-18
 -1      1497 1.19929E-04-3.64274E-05-3.57375E-05-8.17844E-08-4.96639E-20 3.97031E-18
 -1      1498 1.17852E-04-3.59418E-05-3.50121E-05-1.04056E-06-7.12566E-20 2.56105E-18
 -1      1499 1.17308E-04-3.56370E-05-3.48474E-05 2.51283E-06 3.48627E-19 3.30756E-18
 -1      1500 1.19332E-04-3.64375E-05-3.54579E-05 1.84596E-06 3.25181E-19 3.70876E-18
 -1      1501 1.17880E-04-3.62305E-05-3.48448E-05 2.22206E-06 4.49827E-19 2.20495E-18
 -1      1502 1.10645E-04-3.34612E-05-3.29907E-05 4.59312E-06 5.66003E-19 2.48096E-18
 -1      1503 1.15028E-04-3.51077E-05-3.41897E-05 3.91022E-06 3.07096E-19 2.98293E-18
 -1      1504 1.15130E-04-3.54162E-05-3.40084E-05 6.12758E-06 6.18413E-19 1.88359E-18
 -1      1505 1.01564E-04-3.02790E-05-3.06410E-05 5.26399E-06 5.76882E-19 1.55568E-18
 -1      1506 1.07256E-04-3.23499E-05-3.21056E-05 4.97703E-06 5.48054E-19 2.19593E-18
 -1      1507 1.09652E-04-3.32393E-05-3.26753E-05 8.86247E-06 8.28016E-19 1.25107E-18
 -1      1508 9.38384E-05-2.74668E-05-2.87373E-05 3.44250E-06 1.64682E-19 6.23363E-19
 -1      1509 9.84487E-05-2.90132E-05-2.98741E-05 3.87859E-06 5.03402E-19 9.84993E-19
 -1      1510 1.03184E-04-3.02710E-05-3.13281E-05 8.12993E-06 8.22138E-19 8.66462E-19
 -1      1511 9.16060E-05-2.66340E-05-2.82108E-05-3.70847E-07 4.28850E-19 4.47472E-20
 -1      1512 9.26941E-05-2.67664E-05-2.84561E-05 6.56529E-07 1.66601E-19 3.44239E-19
 -1      1513 9.89131E-05-2.80879E-05-3.05613E-05 3.19829E-06 4.05491E-19-2.48763E-19
 -1      1514 9.64524E-05-2.84388E-05-2.93660E-05-4.12483E-06 4.09157E-19-8.56562E-19
 -1      1515 9.32399E-05-2.69876E-05-2.85720E-05-3.08851E-06 3.52339E-19-5.51445E-19
 -1      1516 9.94194E-05-2.81453E-05-3.07565E-05-3.74480E-06 7.89964E-19-1.32786E-18
 -1      1517 1.05775E-04-3.17833E-05-3.16820E-05-5.65252E-06 1.11568E-19-2.30097E-18
 -1      1518 9.99582E-05-2.95828E-05-3.02136E-05-5.17590E-06 4.80929E-19-1.43805E-18
 -1      1519 1.04614E-04-3.06094E-05-3.18381E-05-8.73024E-06 9.34780E-19-2.23400E-18
 -1      1520 1.15114E-04-3.49418E-05-3.41673E-05-4.73370E-06-9.25582E-20-2.86858E-18
 -1      1521 1.09386E-04-3.30209E-05-3.26537E-05-4.86838E-06 1.40733E-19-2.34321E-18
 -1      1522 1.11625E-04-3.38129E-05-3.33679E-05-9.46166E-06 2.14412E-19-2.42061E-18
 -1      1523 1.21271E-04-3.68488E-05-3.59657E-05-2.55278E-06-5.95570E-21-3.16107E-18
 -1      1524 1.17517E-04-3.57705E-05-3.49080E-05-3.00924E-06-9.78323E-20-3.17865E-18
 -1      1525 1.17359E-04-3.61500E-05-3.47668E-05-6.74055E-06 3.47998E-19-3.00321E-18
 -1      1526 1.23403E-04-3.73664E-05-3.67220E-05-3.99705E-07 5.37151E-19-3.69717E-18
 -1      1527 1.22080E-04-3.71385E-05-3.62975E-05-8.72246E-07 4.15986E-19-3.08264E-18
 -1      1528 1.20233E-04-3.70374E-05-3.56049E-05-2.80191E-06 4.06205E-19-3.55566E-18
 -1      1529 1.22298E-04-3.68739E-05-3.65393E-05 1.08494E-06 1.20835E-20-3.75805E-18
 -1      1530 1.22895E-04-3.72280E-05-3.66576E-05 7.46984E-07 7.00523E-20-3.79557E-18
 -1      1531 1.20267E-04-3.67584E-05-3.57491E-05 5.74012E-07 5.05930E-19-3.43300E-18
 -1      1532 1.19257E-04-3.58364E-05-3.57382E-05 1.83667E-06-9.09981E-19-2.56472E-18
 -1      1533 1.20975E-04-3.64794E-05-3.61976E-05 1.65246E-06-3.76195E-19-3.17193E-18
 -1      1534 1.18289E-04-3.58331E-05-3.53130E-05 2.69996E-06-6.02704E-19-2.87290E-18
 -1      1535 1.15411E-04-3.46087E-05-3.46465E-05 2.04824E-06-4.08219E-19-1.32042E-18
 -1      1536 1.17571E-04-3.53302E-05-3.52555E-05 1.97960E-06-6.64048E-19-2.10751E-18
 -1      1537 1.15239E-04-3.46712E-05-3.45161E-05 3.65512E-06-1.05465E-18-1.22842E-18
 -1      1538 1.11513E-04-3.34053E-05-3.35025E-05 1.94426E-06 5.06549E-19-1.15527E-18
 -1      1539 1.13678E-04-3.40867E-05-3.41286E-05 1.94522E-06 5.35252E-20-9.77622E-19
 -1      1540 1.11849E-04-3.35107E-05-3.35685E-05 3.80205E-06-3.01984E-19-8.36796E-19
 -1      1541 1.07971E-04-3.23326E-05-3.24442E-05 1.69361E-06 8.12095E-19-2.87246E-18
 -1      1542 1.09913E-04-3.29215E-05-3.30144E-05 1.72927E-06 6.67295E-19-1.51332E-18
 -1      1543 1.08581E-04-3.24645E-05-3.26205E-05 3.49854E-06 1.00518E-18-1.45414E-18
 -1      1544 1.04952E-04-3.14294E-05-3.15336E-05 1.39955E-06 2.10054E-19-3.97616E-18
 -1      1545 1.06587E-04-3.19120E-05-3.20176E-05 1.44818E-06 3.18855E-19-3.41251E-18
 -1      1546 1.05673E-04-3.15735E-05-3.17581E-05 2.99983E-06 1.15090E-18-3.15874E-18
 -1      1547 1.02487E-04-3.06972E-05-3.07859E-05 1.11618E-06-3.26096E-19-3.32225E-18
 -1      1548 1.03806E-04-3.10790E-05-3.11784E-05 1.16602E-06-2.49650E-19-3.43678E-18
 -1      1549 1.03215E-04-3.08418E-05-3.10194E-05 2.45796E-06-4.68538E-19-2.62732E-18
 -1      1550 1.00533E-04-3.01198E-05-3.01914E-05 8.67208E-07-9.83584E-19-1.66131E-18
 -1      1551 1.01566E-04-3.04143E-05-3.05000E-05 9.12677E-07-5.83238E-19-2.74283E-18
 -1      1552 1.01211E-04-3.02565E-05-3.04117E-05 1.95087E-06-9.46864E-19-8.12085E-19
 -1      1553 9.90213E-05-2.96744E-05-2.97305E-05 6.59668E-07-7.27340E-19 1.75202E-19
 -1      1554 9.98116E-05-2.98968E-05-2.99672E-05 6.98664E-07-9.31126E-19-1.26321E-18
 -1      1555 9.96203E-05-2.97979E-05-2.99266E-05 1.51126E-06-1.56237E-18-4.64441E-19
 -1      1556 9.78739E-05-2.93373E-05-2.93802E-05 4.92397E-07 8.38371E-19-8.82646E-19
 -1      1557 9.84668E-05-2.95021E-05-2.95582E-05 5.24598E-07 8.62152E-19 2.41930E-19
 -1      1558 9.83850E-05-2.94450E-05-2.95483E-05 1.14720E-06 3.12395E-19-3.92645E-19
 -1      1559 9.70191E-05-2.90868E-05-2.91191E-05 3.60769E-07 3.07805E-19-1.99049E-18
 -1      1560 9.74557E-05-2.92067E-05-2.92504E-05 3.86678E-07 2.31660E-19-1.69735E-18
 -1      1561 9.74436E-05-2.91781E-05-2.92590E-05 8.54771E-07 7.88967E-19-3.72694E-19
 -1      1562 9.63942E-05-2.89040E-05-2.89279E-05 2.59125E-07 5.27388E-19-3.30857E-18
 -1      1563 9.67094E-05-2.89895E-05-2.90229E-05 2.79566E-07 5.87829E-19-2.20527E-18
 -1      1564 9.67391E-05-2.89796E-05-2.90418E-05 6.25088E-07 6.77240E-19-8.45263E-19
 -1      1565 9.59464E-05-2.87734E-05-2.87908E-05 1.81923E-07-2.62368E-19-3.72085E-18
 -1      1566 9.61692E-05-2.88329E-05-2.88581E-05 1.97784E-07-3.97100E-19-4.10462E-18
 -1      1567 9.62215E-05-2.88347E-05-2.88818E-05 4.47955E-07 4.81604E-19-2.43076E-18
 -1      1568 9.56331E-05-2.86823E-05-2.86948E-05 1.24212E-07-5.44081E-19-2.48826E-18
 -1      1569 9.57864E-05-2.87224E-05-2.87412E-05 1.36333E-07-5.86749E-19-3.36605E-18
 -1      1570 9.58486E-05-2.87311E-05-2.87661E-05 3.13574E-07-8.30489E-19-2.75352E-18
 -1      1571 9.54202E-05-2.86206E-05-2.86294E-05 8.17832E-08 4.12828E-19-1.60283E-18
 -1      1572 9.55223E-05-2.86467E-05-2.86604E-05 9.09040E-08 2.00448E-19-1.32966E-18
 -1      1573 9.55863E-05-2.86588E-05-2.86844E-05 2.13254E-07-4.12601E-19-2.60396E-21
 -1      1574 9.52810E-05-2.85805E-05-2.85865E-05 5.11559E-08 6.42932E-19-2.53645E-18
 -1      1575 9.53458E-05-2.85965E-05-2.86063E-05 5.79098E-08 4.83401E-19-1.51212E-18
 -1      1576 9.54068E-05-2.86098E-05-2.86282E-05 1.39617E-07 9.50887E-19-6.33685E-19
 -1      1577 9.51948E-05-2.85559E-05-2.85598E-05 2.95124E-08-4.08760E-19-2.43434E-18
 -1      1578 9.52332E-05-2.85647E-05-2.85716E-05 3.44258E-08 1.82413E-20-2.72426E-18
 -1      1579 9.52883E-05-2.85780E-05-2.85909E-05 8.65715E-08 2.53859E-19-1.98703E-18
 -1      1580 9.51460E-05-2.85421E-05-2.85446E-05 1.46068E-08-2.57672E-19-2.75609E-18
 -1      1581 9.51661E-05-2.85462E-05-2.85509E-05 1.81098E-08-2.17134E-19-2.30117E-18
 -1      1582 9.52142E-05-2.85585E-05-2.85673E-05 4.91845E-08 1.13038E-19-1.33681E-18
 -1      1583 9.51228E-05-2.85358E-05-2.85372E-05 4.67378E-09 6.37209E-19-3.56854E-18
 -1      1584 9.51306E-05-2.85367E-05-2.85398E-05 7.11218E-09 4.17775E-19-2.81934E-18
 -1      1585 9.51713E-05-2.85476E-05-2.85535E-05 2.35254E-08 3.45307E-19-7.94782E-19
 -1      1586 9.51167E-05-2.85344E-05-2.85351E-05-1.65637E-09-1.40665E-18-4.79187E-19
 -1      1587 9.51164E-05-2.85333E-05-2.85353E-05-8.16685E-12-1.57170E-18-2.78203E-18
 -1      1588 9.51502E-05-2.85427E-05-2.85464E-05 6.50569E-09-1.71149E-18 7.17687E-19
 -1      1589 9.51213E-05-2.85361E-05-2.85364E-05-5.43215E-09-3.12119E-20 3.39465E-19
 -1      1590 9.51162E-05-2.85338E-05-2.85350E-05-4.35936E-09 1.06156E-19 2.41887E-19
 -1      1591 9.51435E-05-2.85417E-05-2.85439E-05-4.26906E-09-1.00321E-18 4.29473E-19
 -1      1592 9.51322E-05-2.85396E-05-2.85395E-05-7.44410E-09 1.86187E-19 2.71061E-19
 -1      1593 9.51244E-05-2.85367E-05-2.85373E-05-6.78104E-09-1.98318E-19-1.62418E-19
 -1      1594 9.51460E-05-2.85432E-05-2.85443E-05-1.06290E-08-9.17484E-20 3.50900E-19
 -1      1595 9.51464E-05-2.85440E-05-2.85437E-05-8.27727E-09 1.10471E-19 2.99813E-19
 -1      1596 9.51374E-05-2.85409E-05-2.85411E-05-7.89836E-09 2.40885E-19 7.07950E-19
 -1      1597 9.51541E-05-2.85460E-05-2.85465E-05-1.39504E-08 9.29383E-20 2.23088E-18
 -1      1598 9.51619E-05-2.85487E-05-2.85484E-05-8.35376E-09 4.70205E-19 2.65555E-19
 -1      1599 9.51526E-05-2.85457E-05-2.85457E-05-8.16610E-09-1.95679E-20 2.23667E-19
 -1      1600 9.51652E-05-2.85496E-05-2.85496E-05-1.52472E-08 4.50714E-19 1.86677E-18
 -1      1601 9.51773E-05-2.85533E-05-2.85530E-05-7.96622E-09 3.66816E-19-4.04102E-19
 -1      1602 9.51684E-05-2.85505E-05-2.85504E-05-7.90369E-09 4.29629E-19 5.09549E-19
 -1      1603 9.51775E-05-2.85535E-05-2.85532E-05-1.52445E-08 6.33506E-19 1.18431E-18
 -1      1604 9.51919E-05-2.85577E-05-2.85574E-05-7.30244E-09 2.00863E-19-2.75691E-19
 -1      1605 9.51836E-05-2.85552E-05-2.85550E-05-7.32182E-09 4.51205E-19-9.02026E-20
 -1      1606 9.51899E-05-2.85573E-05-2.85569E-05-1.44367E-08 3.54030E-19 1.53968E-18
 -1      1607 9.52052E-05-2.85617E-05-2.85614E-05-6.46172E-09 8.56404E-19-1.88140E-18
 -1      1608 9.51978E-05-2.85595E-05-2.85592E-05-6.54055E-09 6.66024E-19-1.24647E-18
 -1      1609 9.52017E-05-2.85609E-05-2.85604E-05-1.31280E-08 1.23770E-18 7.98370E-19
 -1      1610 9.52167E-05-2.85652E-05-2.85648E-05-5.46624E-09 1.25224E-18-4.32084E-18
 -1      1611 9.52103E-05-2.85633E-05-2.85630E-05-5.60199E-09 1.38062E-18-2.37030E-18
 -1      1612 9.52124E-05-2.85641E-05-2.85635E-05-1.14614E-08 1.62229E-18-1.35262E-18
 -1      1613 9.52261E-05-2.85681E-05-2.85676E-05-4.26281E-09-6.70472E-19-4.13349E-18
 -1      1614 9.52210E-05-2.85666E-05-2.85661E-05-4.47737E-09-3.23334E-19-4.72203E-18
 -1      1615 9.52215E-05-2.85670E-05-2.85662E-05-9.43852E-09 4.79486E-19-7.59622E-19
 -1      1616 9.52328E-05-2.85702E-05-2.85696E-05-2.72634E-09-6.89127E-19-3.01254E-18
 -1      1617 9.52293E-05-2.85692E-05-2.85686E-05-3.07889E-09-5.53872E-19-3.38513E-18
 -1      1618 9.52288E-05-2.85693E-05-2.85683E-05-6.93705E-09-1.15889E-18-3.38464E-19
 -1      1619 9.52364E-05-2.85713E-05-2.85708E-05-9.14877E-10-4.37412E-19-9.84896E-19
 -1      1620 9.52348E-05-2.85709E-05-2.85702E-05-1.36530E-09-6.22275E-19-2.31466E-18
 -1      1621 9.52340E-05-2.85710E-05-2.85698E-05-3.81726E-09-1.05598E-18-1.78767E-18
 -1      1622 9.52371E-05-2.85713E-05-2.85711E-05-6.28896E-12-4.38351E-20-1.22580E-19
 -1      1623 9.52376E-05-2.85744E-05-2.85699E-05-2.25686E-09-1.01626E-18 6.65561E-19
 -1      1624 9.52371E-05-2.85727E-05-2.85705E-05-1.77960E-09-1.28091E-19-6.96970E-19
 -1      1625 9.52396E-05-2.85801E-05-2.85683E-05-3.82969E-09 3.22981E-19 1.30599E-18
 -1      1626 9.52384E-05-2.85768E-05-2.85692E-05-3.57098E-09-3.40171E-19 1.22655E-18
 -1      1627 9.52378E-05-2.85762E-05-2.85692E-05-5.67678E-09 3.69603E-19 1.10913E-18
 -1      1628 9.52419E-05-2.85873E-05-2.85663E-05-4.59412E-09-2.88127E-19-2.43303E-19
 -1      1629 9.52405E-05-2.85831E-05-2.85675E-05-4.51204E-09 1.65029E-19 5.31003E-19
 -1      1630 9.52398E-05-2.85815E-05-2.85678E-05-8.05780E-09 2.68273E-19 5.03120E-19
 -1      1631 9.52444E-05-2.85947E-05-2.85641E-05-4.57469E-09 2.86947E-18 2.03204E-18
 -1      1632 9.52430E-05-2.85905E-05-2.85654E-05-4.64133E-09 6.86888E-21 2.27563E-18
 -1      1633 9.52421E-05-2.85877E-05-2.85662E-05-8.90881E-09 7.00762E-21 1.60377E-18
 -1      1634 9.52465E-05-2.86013E-05-2.85622E-05-3.93201E-09-6.94546E-20-2.25367E-18
 -1      1635 9.52453E-05-2.85976E-05-2.85633E-05-4.10358E-09 2.31826E-18-1.58094E-18
 -1      1636 9.52442E-05-2.85938E-05-2.85645E-05-8.37170E-09-4.69634E-19-4.26167E-19
 -1      1637 9.52481E-05-2.86064E-05-2.85607E-05-2.81108E-09-1.11156E-18-7.25887E-19
 -1      1638 9.52472E-05-2.86037E-05-2.85615E-05-3.06245E-09-1.98019E-20-9.21928E-19
 -1      1639 9.52460E-05-2.85991E-05-2.85630E-05-6.75107E-09-5.38163E-19-2.51023E-18
 -1      1640 9.52490E-05-2.86094E-05-2.85599E-05-1.38771E-09-1.61598E-18-1.10343E-18
 -1      1641 9.52486E-05-2.86080E-05-2.85603E-05-1.68270E-09-5.77083E-19-9.66619E-19
 -1      1642 9.52474E-05-2.86030E-05-2.85619E-05-4.33959E-09-8.92313E-19-1.02903E-18
 -1      1643 9.52492E-05-2.86099E-05-2.85597E-05 1.75032E-10 5.07675E-19 1.02977E-18
 -1      1644 9.52492E-05-2.86099E-05-2.85597E-05-1.33812E-10-1.13856E-18 4.72037E-19
 -1      1645 9.52480E-05-2.86051E-05-2.85614E-05-1.46969E-09 2.01392E-19-3.40501E-19
 -1      1646 9.52485E-05-2.86079E-05-2.85603E-05 1.71962E-09 1.41432E-18 1.04095E-18
 -1      1647 9.52490E-05-2.86093E-05-2.85599E-05 1.42616E-09 4.75296E-19 1.38119E-18
 -1      1648 9.52480E-05-2.86051E-05-2.85614E-05 1.54690E-09 1.44963E-18 1.55863E-18
 -1      1649 9.52472E-05-2.86036E-05-2.85615E-05 3.08870E-09 1.41834E-18-1.33869E-18
 -1      1650 9.52480E-05-2.86063E-05-2.85608E-05 2.84066E-09 1.88974E-18-1.56689E-19
 -1      1651 9.52473E-05-2.86030E-05-2.85620E-05 4.40437E-09 3.16445E-19 1.64046E-18
 -1      1652 9.52452E-05-2.85975E-05-2.85633E-05 4.10561E-09 1.06592E-18 1.08083E-18
 -1      1653 9.52464E-05-2.86012E-05-2.85623E-05 3.93798E-09 1.39178E-18-1.01947E-18
 -1      1654 9.52460E-05-2.85990E-05-2.85631E-05 6.77834E-09 5.51262E-19-1.34952E-18
 -1      1655 9.52429E-05-2.85903E-05-2.85654E-05 4.63743E-09 1.63913E-18-6.86433E-19
 -1      1656 9.52443E-05-2.85945E-05-2.85642E-05 4.57408E-09 1.61715E-18 1.75556E-18
 -1      1657 9.52442E-05-2.85937E-05-2.85645E-05 8.37478E-09 1.11203E-18 2.03858E-18
 -1      1658 9.52405E-05-2.85829E-05-2.85675E-05 4.50580E-09-2.24301E-18-2.16942E-18
 -1      1659 9.52419E-05-2.85871E-05-2.85663E-05 4.57966E-09 6.19592E-19-2.12391E-18
 -1      1660 9.52420E-05-2.85876E-05-2.85662E-05 8.89099E-09 4.90612E-19-2.63895E-18
 -1      1661 9.52384E-05-2.85767E-05-2.85693E-05 3.54847E-09-5.79836E-18-1.99746E-18
 -1      1662 9.52395E-05-2.85800E-05-2.85683E-05 3.81096E-09-2.72328E-18-2.08216E-18
 -1      1663 9.52398E-05-2.85814E-05-2.85678E-05 8.01329E-09-1.27954E-18-3.81445E-18
 -1      1664 9.52369E-05-2.85732E-05-2.85702E-05 2.63587E-09-4.38736E-18-5.94236E-19
 -1      1665 9.52375E-05-2.85749E-05-2.85697E-05 3.32700E-09-4.23784E-18-1.30357E-18
 -1      1666 9.52376E-05-2.85766E-05-2.85689E-05 6.68206E-09-1.42229E-18-1.20806E-18
 -1      1667 9.52354E-05-2.85731E-05-2.85695E-05 5.17650E-09-7.91995E-19 4.99521E-19
 -1      1668 2.04223E-05-6.73337E-05 1.41021E-05-7.29800E-06 6.45439E-18 4.03844E-18
 -1      1669 2.37276E-05-7.65970E-05 1.60817E-05 8.78344E-07 1.43964E-18 3.10713E-18
 -1      1670 1.95139E-05-4.01223E-05 4.39573E-06 1.25846E-06 1.19584E-17 7.33753E-18
 -1      1671 2.42175E-05-6.26627E-05 1.02733E-05-2.20272E-06 8.09425E-18 5.01504E-18
 -1      1672 3.88752E-05-1.26302E-05-1.30839E-05 3.03101E-05 1.35551E-17 1.14045E-17
 -1      1673 3.10611E-05-3.45838E-05-3.23834E-06 1.00940E-05 1.23777E-17 8.10356E-18
 -1      1674 8.54447E-05-5.21217E-06-3.33557E-05 6.17536E-05 1.25183E-17 1.25471E-17
 -1      1675 5.70851E-05-9.01272E-06-2.28951E-05 3.83922E-05 1.40277E-17 1.19050E-17
 -1      1676 1.51444E-04-2.11875E-05-5.22786E-05 7.66277E-05 8.28398E-18 1.17958E-17
 -1      1677 1.07899E-04-6.33647E-06-4.29116E-05 6.67464E-05 1.12943E-17 1.28300E-17
 -1      1678 2.16859E-04-4.85384E-05-6.70147E-05 5.25737E-05 4.74415E-18 5.79032E-18
 -1      1679 1.74660E-04-2.82467E-05-5.97248E-05 6.56140E-05 6.99035E-18 9.17591E-18
 -1      1680 2.51447E-04-6.19692E-05-7.49027E-05 9.00491E-06 3.93870E-18-1.94500E-18
 -1      1681 2.30861E-04-5.11586E-05-7.19529E-05 4.13566E-05 4.66292E-18 3.56855E-18
 -1      1682 2.47087E-04-5.87712E-05-7.43287E-05-4.02731E-05 4.56763E-18-9.85226E-18
 -1      1683 2.61058E-04-6.68709E-05-7.62773E-05-5.28431E-06 3.31635E-18-4.74593E-18
 -1      1684 1.93284E-04-3.43156E-05-6.40512E-05-6.75067E-05 7.86184E-18-1.43030E-17
 -1      1685 2.31383E-04-5.35078E-05-7.00403E-05-5.07639E-05 5.45447E-18-1.11588E-17
 -1      1686 1.25730E-04-1.07906E-05-4.78522E-05-7.05361E-05 1.18779E-17-1.61512E-17
 -1      1687 1.71452E-04-2.82962E-05-5.69901E-05-7.59181E-05 9.17421E-18-1.55956E-17
 -1      1688 6.75173E-05-3.82757E-06-2.87439E-05-4.86991E-05 1.44563E-17-1.46520E-17
 -1      1689 9.98052E-05-5.35951E-06-3.87083E-05-6.97117E-05 1.31629E-17-1.63240E-17
 -1      1690 3.45026E-05-2.20721E-05-9.27733E-06-1.82045E-05 1.32883E-17-1.02038E-17
 -1      1691 4.69080E-05-4.57171E-06-1.91715E-05-4.02663E-05 1.45757E-17-1.36440E-17
 -1      1692 2.71173E-05-5.25684E-05 5.76634E-06-4.08762E-06 8.15100E-18-5.52837E-18
 -1      1693 2.58709E-05-2.97694E-05-1.54181E-06-1.31483E-05 1.11580E-17-8.52263E-18
 -1      1694 2.36173E-05-7.27570E-05 1.46680E-05-1.07510E-07 1.89566E-18-3.46839E-18
 -1      1695 1.87682E-05-5.75552E-05 1.13085E-05 4.97417E-06 6.89485E-18-4.72020E-18
 -1      1696 2.16291E-05-7.23641E-05 1.53858E-05-5.42359E-06-6.01605E-18-3.73076E-18
 -1      1697 2.32133E-05-7.68501E-05 1.62986E-05 4.83268E-06-2.97309E-19-3.10099E-18
 -1      1698 1.96717E-05-4.61941E-05 6.88005E-06 1.76419E-06-1.20795E-17-7.24107E-18
 -1      1699 2.42296E-05-6.57737E-05 1.18772E-05 1.75715E-06-7.49878E-18-4.89670E-18
 -1      1700 2.60995E-05-1.79315E-05-6.30135E-06 1.82686E-05-1.62139E-17-1.10838E-17
 -1      1701 2.54414E-05-4.04629E-05 1.30788E-06 5.41307E-06-1.43555E-17-8.09171E-18
 -1      1702 6.23208E-05-4.31881E-06-2.50062E-05 5.10954E-05-1.44936E-17-1.29452E-17
 -1      1703 4.31097E-05-1.56693E-05-1.49201E-05 2.78180E-05-1.55888E-17-1.13214E-17
 -1      1704 1.29244E-04-1.55960E-05-4.59465E-05 7.22718E-05-1.02317E-17-1.24395E-17
 -1      1705 8.80278E-05-6.93725E-06-3.51044E-05 5.50547E-05-1.31222E-17-1.27123E-17
 -1      1706 1.94868E-04-3.67895E-05-6.25722E-05 7.19521E-05-6.31484E-18-1.17797E-17
 -1      1707 1.51375E-04-1.63819E-05-5.50998E-05 7.67137E-05-9.12805E-18-1.33662E-17
 -1      1708 2.40931E-04-5.85051E-05-7.23447E-05 3.22160E-05-3.88238E-18-6.13887E-18
 -1      1709 2.11936E-04-4.24188E-05-6.79487E-05 5.92997E-05-5.27585E-18-9.96704E-18
 -1      1710 2.42260E-04-5.74884E-05-7.36039E-05-2.18354E-05-3.51307E-18 1.40544E-18
 -1      1711 2.44288E-04-5.86148E-05-7.39773E-05 1.54650E-05-3.82181E-18-3.93426E-18
 -1      1712 2.09499E-04-4.11908E-05-6.73723E-05-6.42738E-05-5.22789E-18 7.92484E-18
 -1      1713 2.40556E-04-5.84094E-05-7.19048E-05-3.96977E-05-3.35234E-18 4.03696E-18
 -1      1714 1.45041E-04-1.60202E-05-5.29291E-05-7.23966E-05-8.72402E-18 1.09750E-17
 -1      1715 1.88973E-04-3.53656E-05-6.09973E-05-7.00878E-05-6.02325E-18 8.78966E-18
 -1      1716 8.38534E-05-1.10224E-06-3.56182E-05-6.00881E-05-1.17746E-17 1.27783E-17
 -1      1717 1.19724E-04-9.06352E-06-4.47704E-05-7.58084E-05-1.01763E-17 1.27639E-17
 -1      1718 4.43138E-05-9.33739E-06-1.76428E-05-3.21673E-05-1.45131E-17 1.06785E-17
 -1      1719 6.35081E-05-5.98021E-07-2.67969E-05-5.37734E-05-1.29444E-17 1.23294E-17
 -1      1720 2.66821E-05-3.48028E-05-1.34077E-06-7.98637E-06-1.28825E-17 8.17471E-18
 -1      1721 2.99306E-05-1.36868E-05-9.34340E-06-2.34989E-05-1.43657E-17 1.05375E-17
 -1      1722 2.39382E-05-6.32071E-05 1.05798E-05 1.44363E-06-7.49624E-18 4.74370E-18
 -1      1723 1.90193E-05-4.17610E-05 5.14929E-06-7.99190E-07-1.18449E-17 7.41937E-18
 -1      1724 2.41243E-05-7.75049E-05 1.61804E-05-2.45112E-06-2.75603E-19 3.22105E-18
 -1      1725 2.10471E-05-6.82914E-05 1.41576E-05 5.66813E-06-5.53917E-18 4.16444E-18
 -1      1726 1.22618E-04-3.30751E-05-3.72853E-05 4.45102E-05 8.33777E-18 6.86605E-18
 -1      1727 7.91386E-05-3.78473E-05-1.88774E-05 3.90537E-05 6.94567E-18 7.13244E-18
 -1      1728 9.52367E-05-2.85716E-05-2.85707E-05-8.81215E-10-1.03422E-18-1.44661E-18
 -1      1729 9.52363E-05-2.85728E-05-2.85701E-05-3.04919E-09-3.21833E-19-4.48469E-19
 -1      1730 1.86124E-05-4.83769E-05 8.51878E-06 1.28282E-05 3.49359E-18 6.50394E-18
 -1      1731 4.16286E-05-4.30158E-05-2.40164E-06 2.80036E-05 5.73357E-18 6.96071E-18
 -1      1732 1.20652E-05-5.17058E-05 1.22658E-05-1.01070E-06-1.66707E-19 6.13887E-18
 -1      1733 1.66358E-04-3.35000E-05-5.36489E-05 3.58941E-05 6.90861E-18 4.75185E-18
 -1      1734 1.93178E-04-3.14018E-05-6.50862E-05 1.56023E-05 6.66700E-18 1.06345E-18
 -1      1735 2.11215E-04-3.28052E-05-7.10391E-05-1.19174E-06 6.58992E-18-2.49382E-18
 -1      1736 2.06214E-04-3.46890E-05-6.82443E-05-1.92947E-05 6.52385E-18-6.19181E-18
 -1      1737 1.76876E-04-3.35994E-05-5.75951E-05-3.51046E-05 7.05975E-18-8.23316E-18
 -1      1738 1.35221E-04-3.22400E-05-4.22337E-05-4.53374E-05 8.28441E-18-9.60874E-18
 -1      1739 8.84390E-05-3.29047E-05-2.43660E-05-4.27244E-05 8.51776E-18-1.01170E-17
 -1      1740 5.24763E-05-4.05743E-05-7.72253E-06-3.31832E-05 6.08339E-18-8.20849E-18
 -1      1741 2.60386E-05-4.42081E-05 4.54255E-06-2.19618E-05 3.34324E-18-6.84805E-18
 -1      1742 1.23920E-05-4.96413E-05 1.14151E-05-4.17195E-06 2.67980E-19-6.24941E-18
 -1      1743 1.54445E-05-4.75011E-05 9.58934E-06 1.25105E-05-3.53319E-18-6.87579E-18
 -1      1744 3.17873E-05-4.22261E-05 1.12463E-06 2.54731E-05-6.58610E-18-7.71605E-18
 -1      1745 6.17870E-05-3.65205E-05-1.25191E-05 3.78069E-05-8.97855E-18-7.97503E-18
 -1      1746 1.07360E-04-3.56491E-05-3.02415E-05 4.38368E-05-8.27763E-18-6.78050E-18
 -1      1747 1.49930E-04-3.28944E-05-4.81220E-05 4.11128E-05-7.58306E-18-7.20825E-18
 -1      1748 1.86725E-04-3.15341E-05-6.21618E-05 3.27473E-05-6.29653E-18-6.40653E-18
 -1      1749 2.01038E-04-2.94416E-05-6.87537E-05 9.74810E-06-6.09779E-18-3.04170E-18
 -1      1750 2.03123E-04-3.11351E-05-6.87152E-05-1.37110E-05-5.64802E-18-1.10114E-20
 -1      1751 1.83912E-04-3.20916E-05-6.09337E-05-3.24694E-05-5.87100E-18 3.31613E-18
 -1      1752 1.46175E-04-3.00179E-05-4.73070E-05-4.45310E-05-6.85271E-18 5.56670E-18
 -1      1753 1.02412E-04-2.88288E-05-3.10544E-05-4.65508E-05-8.23485E-18 7.66650E-18
 -1      1754 6.43490E-05-3.35365E-05-1.47406E-05-3.81525E-05-8.19250E-18 6.76144E-18
 -1      1755 3.55169E-05-4.16167E-05-6.41526E-07-2.59481E-05-6.10203E-18 7.64040E-18
 -1      1756 1.81325E-05-4.93129E-05 8.94601E-06-1.34032E-05-3.37797E-18 7.25018E-18
 -1      1757 1.13381E-04-2.54277E-05-3.77898E-05-1.44628E-05-1.71135E-18 7.34547E-18
 -1      1758 9.26127E-05-1.16659E-05-3.48295E-05-8.24691E-06-2.13221E-18-2.10694E-18
 -1      1759 9.52299E-05-1.30955E-05-3.53321E-05-1.02997E-05-2.47813E-18-1.27664E-18
 -1      1760 9.84243E-05-1.57796E-05-3.55916E-05-1.15727E-05-2.48863E-18-2.74280E-19
 -1      1761 1.01200E-04-1.80942E-05-3.60889E-05-1.36029E-05-2.67950E-18 1.03904E-18
 -1      1762 9.90516E-05-1.82845E-05-3.46306E-05-9.07637E-06-2.60057E-18-6.05099E-19
 -1      1763 8.38673E-05-6.69373E-06-3.31548E-05-2.60376E-06-1.14392E-18-3.60983E-18
 -1      1764 8.57086E-05-7.42322E-06-3.35899E-05-3.86373E-06-1.42686E-18-3.37135E-18
 -1      1765 8.03535E-05-4.86553E-06-3.24169E-05-6.83509E-07-7.06852E-19-3.84493E-18
 -1      1766 8.19491E-05-5.48530E-06-3.27898E-05-1.61126E-06-9.22425E-19-3.75111E-18
 -1      1767 8.42260E-05-8.24182E-06-3.26006E-05-1.59772E-06-1.12115E-18-3.53543E-18
 -1      1768 7.75762E-05-3.37393E-06-3.18535E-05 5.62930E-07-2.33599E-19-3.90900E-18
 -1      1769 7.87821E-05-3.85818E-06-3.21221E-05-4.64340E-08-4.79950E-19-3.88588E-18
 -1      1770 8.05404E-05-6.04763E-06-3.19538E-05 6.66102E-08-5.60888E-19-3.75772E-18
 -1      1771 7.58503E-05-2.35816E-06-3.15373E-05 1.23290E-06 2.22446E-19-4.00090E-18
 -1      1772 7.65108E-05-2.65108E-06-3.16674E-05 8.66165E-07 3.76764E-20-3.98060E-18
 -1      1773 7.77350E-05-4.32644E-06-3.14797E-05 1.04587E-06-8.93355E-20-3.83776E-18
 -1      1774 7.54843E-05-1.99489E-06-3.15249E-05 1.54951E-06 6.82430E-19-3.99741E-18
 -1      1775 7.54644E-05-2.03709E-06-3.14915E-05 1.30082E-06 4.70715E-19-4.03357E-18
 -1      1776 7.61745E-05-3.28311E-06-3.12502E-05 1.44632E-06 4.06096E-19-3.92329E-18
 -1      1777 7.66642E-05-2.41686E-06-3.18417E-05 1.83754E-06 1.05656E-18-3.88332E-18
 -1      1778 7.58989E-05-2.16981E-06-3.16360E-05 1.54650E-06 8.70487E-19-3.96803E-18
 -1      1779 7.61798E-05-3.13239E-06-3.13139E-05 1.52716E-06 8.50402E-19-3.85900E-18
 -1      1780 7.93306E-05-3.63776E-06-3.24593E-05 2.44572E-06 1.47097E-18-3.52228E-18
 -1      1781 7.78777E-05-3.10872E-06-3.21012E-05 1.95408E-06 1.26920E-18-3.73077E-18
 -1      1782 7.78871E-05-3.99195E-06-3.16794E-05 1.64750E-06 1.23742E-18-3.70375E-18
 -1      1783 8.34249E-05-5.68711E-06-3.33449E-05 3.71784E-06 2.00787E-18-2.86752E-18
 -1      1784 8.13139E-05-4.85340E-06-3.28503E-05 2.85607E-06 1.65216E-18-3.21446E-18
 -1      1785 8.12442E-05-5.87465E-06-3.23182E-05 2.16707E-06 1.66711E-18-3.20763E-18
 -1      1786 8.87306E-05-8.59644E-06-3.44014E-05 5.87481E-06 2.49761E-18-2.06376E-18
 -1      1787 8.60634E-05-7.41777E-06-3.38183E-05 4.52409E-06 2.25054E-18-2.55382E-18
 -1      1788 8.61027E-05-8.77211E-06-3.31645E-05 3.35618E-06 2.26771E-18-2.50590E-18
 -1      1789 9.52489E-05-1.27176E-05-3.54988E-05 8.95492E-06 2.82871E-18-5.95941E-19
 -1      1790 9.19767E-05-1.09537E-05-3.48832E-05 7.05493E-06 2.60812E-18-1.50605E-18
 -1      1791 9.22461E-05-1.27404E-05-3.40896E-05 5.26285E-06 2.68915E-18-1.58157E-18
 -1      1792 1.03812E-04-1.93863E-05-3.63562E-05 1.21649E-05 2.80665E-18 2.17428E-18
 -1      1793 9.93214E-05-1.60993E-05-3.58541E-05 1.01910E-05 2.79158E-18 5.44536E-19
 -1      1794 9.96617E-05-1.82369E-05-3.48843E-05 7.43386E-06 2.88712E-18 6.06687E-20
 -1      1795 1.11406E-04-2.81020E-05-3.61163E-05 1.00893E-05 2.33961E-18 5.57443E-18
 -1      1796 1.06878E-04-2.23558E-05-3.62307E-05 1.19551E-05 2.58624E-18 3.34350E-18
 -1      1797 1.06079E-04-2.44859E-05-3.50173E-05 7.58827E-06 2.87074E-18 2.17780E-18
 -1      1798 1.09404E-04-2.94254E-05-3.44553E-05 5.03717E-06 2.39454E-18 4.82751E-18
 -1      1799 1.07735E-04-2.20002E-05-3.64471E-05-1.55212E-05-2.29189E-18 3.37140E-18
 -1      1800 1.08275E-04-3.11191E-05-3.30741E-05-4.29627E-07 1.86898E-18 3.61291E-18
 -1      1801 1.09276E-04-3.08370E-05-3.36468E-05 2.00352E-06 2.01078E-18 4.33086E-18
 -1      1802 1.08104E-04-2.87955E-05-3.40014E-05 3.48475E-06 2.36047E-18 2.85665E-18
 -1      1803 1.07402E-04-2.50483E-05-3.50218E-05-1.08173E-05-2.46712E-18 2.40033E-18
 -1      1804 1.06250E-04-3.00123E-05-3.25580E-05-2.52442E-06-2.01798E-18 1.98775E-18
 -1      1805 1.05240E-04-3.03350E-05-3.20805E-05-9.43473E-07-1.82051E-18 1.43171E-18
 -1      1806 1.05007E-04-3.07591E-05-3.17285E-05 2.75951E-07-1.59331E-18 1.42171E-18
 -1      1807 1.04916E-04-3.11305E-05-3.16064E-05 8.12990E-07-1.37111E-18 1.05511E-18
 -1      1808 1.04701E-04-2.97658E-05-3.21422E-05-9.17351E-07-2.01064E-18 5.47425E-19
 -1      1809 1.05013E-04-3.14870E-05-3.14588E-05 1.17484E-06-1.09748E-18 1.14933E-18
 -1      1810 1.05178E-04-3.18324E-05-3.14459E-05 1.10108E-06-8.31874E-19 7.94437E-19
 -1      1811 1.04753E-04-3.10914E-05-3.15907E-05 9.56013E-07-1.39610E-18 4.80896E-19
 -1      1812 1.05466E-04-3.21957E-05-3.13785E-05 7.88777E-07-6.65424E-19 8.49124E-19
 -1      1813 1.05545E-04-3.24676E-05-3.13540E-05 2.37932E-07-5.37737E-19 6.74521E-19
 -1      1814 1.05291E-04-3.22014E-05-3.13361E-05 1.08598E-06-8.93239E-19 4.22382E-19
 -1      1815 1.05827E-04-3.27797E-05-3.13008E-05-6.35169E-07-4.96709E-19 6.57605E-19
 -1      1816 1.05543E-04-3.28582E-05-3.11961E-05-1.55140E-06-4.65772E-19 4.60354E-19
 -1      1817 1.05976E-04-3.31746E-05-3.11999E-05-1.67868E-07-6.54555E-19 2.49177E-19
 -1      1818 1.05590E-04-3.29807E-05-3.11261E-05-2.80698E-06-4.61891E-19 5.28888E-19
 -1      1819 1.04764E-04-3.27206E-05-3.09126E-05-3.87375E-06-5.18755E-19 3.98625E-19
 -1      1820 1.06383E-04-3.37856E-05-3.10964E-05-2.49487E-06-5.18831E-19 5.22143E-20
 -1      1821 1.04362E-04-3.24829E-05-3.08234E-05-5.15433E-06-6.33574E-19 5.05728E-19
 -1      1822 1.02978E-04-3.17901E-05-3.05171E-05-6.00144E-06-6.40572E-19 4.83193E-19
 -1      1823 1.06046E-04-3.36344E-05-3.10023E-05-5.32191E-06-6.04590E-19 3.66088E-19
 -1      1824 1.02040E-04-3.10981E-05-3.04270E-05-6.75640E-06-7.04731E-19 5.25471E-19
 -1      1825 1.00332E-04-3.00467E-05-3.00898E-05-6.92731E-06-4.42746E-19 4.22901E-19
 -1      1826 1.04635E-04-3.23763E-05-3.09344E-05-7.65126E-06-6.42302E-19 4.78005E-19
 -1      1827 9.90551E-05-2.90387E-05-3.00233E-05-6.59335E-06-6.27479E-19 1.83621E-19
 -1      1828 9.75040E-05-2.79524E-05-2.97445E-05-5.77316E-06-7.20190E-19-5.13084E-19
 -1      1829 1.02254E-04-3.00837E-05-3.09183E-05-8.21376E-06-8.84115E-19 5.94180E-20
 -1      1830 9.64134E-05-2.70560E-05-2.97143E-05-4.14944E-06-5.94558E-19-9.29308E-19
 -1      1831 9.55840E-05-2.64117E-05-2.95800E-05-2.44255E-06-5.47183E-19-1.22624E-18
 -1      1832 9.96846E-05-2.75296E-05-3.09526E-05-6.08261E-06-9.48339E-19-3.62163E-19
 -1      1833 9.52748E-05-2.61294E-05-2.95889E-05 1.58343E-08-8.07447E-19-1.56916E-18
 -1      1834 9.55370E-05-2.62716E-05-2.96470E-05 2.01471E-06-6.79387E-19-1.64682E-18
 -1      1835 9.81482E-05-2.59457E-05-3.10029E-05-1.49353E-06-1.01120E-18-1.09791E-18
 -1      1836 9.62220E-05-2.67865E-05-2.96921E-05 4.33679E-06-6.49039E-19-1.94624E-18
 -1      1837 9.75137E-05-2.76592E-05-2.99342E-05 5.85511E-06-5.27748E-19-2.02065E-18
 -1      1838 9.85475E-05-2.62427E-05-3.10404E-05 3.91156E-06-1.02126E-18-1.57978E-18
 -1      1839 9.88397E-05-2.86762E-05-3.00151E-05 7.15366E-06-8.01148E-19-2.47508E-18
 -1      1840 1.00708E-04-2.98687E-05-3.03793E-05 7.70141E-06-1.07938E-18-2.59665E-18
 -1      1841 1.00725E-04-2.82771E-05-3.10651E-05 7.96237E-06-1.08222E-18-2.00972E-18
 -1      1842 1.02043E-04-3.08619E-05-3.04880E-05 7.69093E-06-1.16675E-18-2.46655E-18
 -1      1843 1.03910E-04-3.19119E-05-3.08808E-05 7.28780E-06-5.82780E-19-2.53494E-18
 -1      1844 1.03592E-04-3.09589E-05-3.11061E-05 9.32340E-06-1.14520E-18-2.39533E-18
 -1      1845 1.04790E-04-3.25206E-05-3.09952E-05 6.29172E-06-6.47649E-19-2.41610E-18
 -1      1846 1.06216E-04-3.31685E-05-3.13264E-05 5.30717E-06-4.88149E-19-2.64290E-18
 -1      1847 1.05958E-04-3.31121E-05-3.11814E-05 8.10440E-06-7.70499E-19-2.20417E-18
 -1      1848 1.06510E-04-3.33251E-05-3.14135E-05 3.89635E-06-5.68214E-19-2.85094E-18
 -1      1849 1.07305E-04-3.35484E-05-3.16238E-05 2.76314E-06-1.79961E-19-2.83682E-18
 -1      1850 1.07191E-04-3.41513E-05-3.12688E-05 5.36572E-06-5.67542E-19-2.00460E-18
 -1      1851 1.07115E-04-3.33766E-05-3.16570E-05 1.41529E-06 3.05111E-19-2.81364E-18
 -1      1852 1.07300E-04-3.32865E-05-3.17290E-05 4.36529E-07 5.00911E-19-2.43082E-18
 -1      1853 1.07279E-04-3.41487E-05-3.13196E-05 2.28944E-06 1.39258E-19-2.17123E-18
 -1      1854 1.06802E-04-3.29503E-05-3.16979E-05-5.94134E-07 2.19385E-19-2.76925E-18
 -1      1855 1.06516E-04-3.26828E-05-3.16478E-05-1.28613E-06 2.42857E-19-3.08864E-18
 -1      1856 1.06537E-04-3.34962E-05-3.12920E-05-3.31268E-07 1.13086E-19-2.45359E-18
 -1      1857 1.05864E-04-3.23051E-05-3.15582E-05-1.93698E-06 4.87251E-19-3.24346E-18
 -1      1858 1.05274E-04-3.19667E-05-3.14195E-05-2.33520E-06 7.72236E-19-3.09914E-18
 -1      1859 1.05323E-04-3.25849E-05-3.11702E-05-2.16817E-06 3.20648E-19-2.68390E-18
 -1      1860 1.04576E-04-3.16151E-05-3.12871E-05-2.65312E-06 1.02063E-18-2.75553E-18
 -1      1861 1.03831E-04-3.12725E-05-3.10968E-05-2.81363E-06 6.47311E-19-2.37765E-18
 -1      1862 1.03917E-04-3.16717E-05-3.09637E-05-3.21711E-06 8.76016E-19-2.37493E-18
 -1      1863 1.03152E-04-3.09737E-05-3.09402E-05-2.88602E-06 5.38511E-19-2.01780E-18
 -1      1864 1.02368E-04-3.06616E-05-3.07297E-05-2.88197E-06 7.45683E-19-1.64671E-18
 -1      1865 1.02498E-04-3.08798E-05-3.06974E-05-3.63109E-06 9.93541E-19-1.85160E-18
 -1      1866 1.01745E-04-3.04199E-05-3.05659E-05-2.79650E-06-9.77711E-20-1.88919E-18
 -1      1867 1.00994E-04-3.01526E-05-3.03582E-05-2.69379E-06-5.64817E-19-1.88819E-18
 -1      1868 1.01168E-04-3.02448E-05-3.04010E-05-3.60365E-06 1.97696E-19-1.93238E-18
 -1      1869 1.00445E-04-2.99626E-05-3.01999E-05-2.52137E-06-7.64242E-19-1.93793E-18
 -1      1870 9.97724E-05-2.97428E-05-3.00094E-05-2.36995E-06-4.50909E-19-2.27831E-18
 -1      1871 9.99794E-05-2.97584E-05-3.01008E-05-3.30871E-06-4.10887E-19-2.50110E-18
 -1      1872 9.93027E-05-2.95962E-05-2.98650E-05-2.16109E-06-1.91188E-19-2.28080E-18
 -1      1873 9.87267E-05-2.94209E-05-2.96989E-05-1.99465E-06-1.75792E-19-2.08789E-18
 -1      1874 9.89535E-05-2.93962E-05-2.98164E-05-2.87920E-06-2.04843E-19-2.34436E-18
 -1      1875 9.83356E-05-2.93092E-05-2.95728E-05-1.78191E-06-1.45724E-19-1.64940E-18
 -1      1876 9.78599E-05-2.91729E-05-2.94337E-05-1.62095E-06 1.72789E-19-1.66395E-18
 -1      1877 9.80919E-05-2.91314E-05-2.95603E-05-2.40615E-06 3.15684E-19-1.31441E-18
 -1      1878 9.75416E-05-2.90888E-05-2.93274E-05-1.42321E-06 5.30870E-19-1.40866E-18
 -1      1879 9.71605E-05-2.89853E-05-2.92146E-05-1.27871E-06 8.92496E-19-9.62536E-19
 -1      1880 9.73854E-05-2.89408E-05-2.93387E-05-1.94606E-06 6.75903E-19-5.48277E-19
 -1      1881 9.69070E-05-2.89229E-05-2.91276E-05-1.10535E-06 1.12402E-18-1.25323E-18
 -1      1882 9.66099E-05-2.88460E-05-2.90387E-05-9.81976E-07 1.16095E-18-6.06479E-19
 -1      1883 9.68184E-05-2.88056E-05-2.91531E-05-1.53008E-06 8.61996E-19-5.50576E-19
 -1      1884 9.64121E-05-2.88003E-05-2.89693E-05-8.36255E-07 6.23725E-19-6.21122E-19
 -1      1885 9.61861E-05-2.87446E-05-2.89009E-05-7.34801E-07-1.37221E-19-8.86408E-19
 -1      1886 9.63728E-05-2.87112E-05-2.90019E-05-1.17218E-06 7.32410E-19-7.88763E-19
 -1      1887 9.60350E-05-2.87118E-05-2.88469E-05-6.16283E-07-9.13601E-19-1.12046E-18
 -1      1888 9.58675E-05-2.86724E-05-2.87957E-05-5.35361E-07-1.16224E-18-1.28327E-18
 -1      1889 9.60295E-05-2.86466E-05-2.88818E-05-8.75512E-07-5.23707E-19-1.57298E-18
 -1      1890 9.57544E-05-2.86494E-05-2.87546E-05-4.41610E-07-1.27263E-18-9.02429E-19
 -1      1891 9.56335E-05-2.86225E-05-2.87172E-05-3.78760E-07-8.86537E-19-6.67751E-19
 -1      1892 9.57706E-05-2.86036E-05-2.87886E-05-6.36915E-07-1.11853E-18-1.24229E-18
 -1      1893 9.55509E-05-2.86068E-05-2.86867E-05-3.06430E-07-3.77591E-19-5.95850E-19
 -1      1894 9.54662E-05-2.85892E-05-2.86601E-05-2.58811E-07 7.08409E-19-5.59893E-19
 -1      1895 9.55795E-05-2.85761E-05-2.87180E-05-4.49989E-07-2.93059E-19-9.87617E-20
 -1      1896 9.54074E-05-2.85789E-05-2.86380E-05-2.04324E-07 7.50458E-19-7.69657E-19
 -1      1897 9.53502E-05-2.85680E-05-2.86198E-05-1.69120E-07 5.96941E-19-1.00720E-18
 -1      1898 9.54419E-05-2.85595E-05-2.86656E-05-3.07043E-07 4.49584E-19-6.13908E-19
 -1      1899 9.53096E-05-2.85616E-05-2.86043E-05-1.29054E-07 8.04981E-19-8.59642E-19
 -1      1900 9.52729E-05-2.85555E-05-2.85923E-05-1.03695E-07 5.99312E-19-6.42037E-19
 -1      1901 9.53456E-05-2.85504E-05-2.86278E-05-2.00286E-07 7.88751E-19-7.46883E-19
 -1      1902 9.52459E-05-2.85518E-05-2.85817E-05-7.49891E-08-3.56925E-19-1.62438E-19
 -1      1903 9.52240E-05-2.85490E-05-2.85744E-05-5.72448E-08-6.42135E-19-2.46051E-19
 -1      1904 9.52804E-05-2.85464E-05-2.86013E-05-1.22489E-07 3.49002E-19-3.55705E-19
 -1      1905 9.52071E-05-2.85472E-05-2.85675E-05-3.72779E-08-1.37331E-18 1.65414E-19
 -1      1906 9.51956E-05-2.85466E-05-2.85634E-05-2.52870E-08-1.48364E-18-2.13487E-19
 -1      1907 9.52385E-05-2.85456E-05-2.85834E-05-6.73004E-08-8.00260E-19 1.01425E-18
 -1      1908 9.51858E-05-2.85460E-05-2.85592E-05-1.18891E-08-2.88895E-19-5.22684E-19
 -1      1909 9.51814E-05-2.85468E-05-2.85573E-05-4.14213E-09 3.34123E-19-1.06873E-19
 -1      1910 9.52133E-05-2.85469E-05-2.85719E-05-2.93599E-08-7.15363E-19 1.49264E-18
 -1      1911 9.51767E-05-2.85471E-05-2.85551E-05 4.43361E-09-9.63476E-20-6.75095E-19
 -1      1912 9.51769E-05-2.85486E-05-2.85547E-05 9.12870E-09-4.81602E-19-9.67843E-19
 -1      1913 9.51999E-05-2.85493E-05-2.85649E-05-4.27703E-09-5.37389E-19 2.56467E-19
 -1      1914 9.51755E-05-2.85494E-05-2.85538E-05 1.42531E-08-4.83537E-19-1.17395E-18
 -1      1915 9.51786E-05-2.85513E-05-2.85544E-05 1.68147E-08-4.66356E-19-1.10150E-18
 -1      1916 9.51946E-05-2.85522E-05-2.85613E-05 1.14481E-08-6.38338E-19-5.04301E-19
 -1      1917 9.51794E-05-2.85523E-05-2.85543E-05 1.95367E-08-8.74179E-19-1.10570E-18
 -1      1918 9.51840E-05-2.85544E-05-2.85554E-05 2.06534E-08-1.10751E-18-1.07919E-18
 -1      1919 9.51946E-05-2.85553E-05-2.85598E-05 2.05363E-08-9.71057E-19 3.67390E-19
 -1      1920 9.51861E-05-2.85555E-05-2.85559E-05 2.17531E-08-7.40017E-19-5.12903E-19
 -1      1921 9.51915E-05-2.85576E-05-2.85573E-05 2.19240E-08 8.49709E-19-3.26348E-19
 -1      1922 9.51978E-05-2.85584E-05-2.85599E-05 2.50476E-08-4.20993E-19 8.90630E-19
 -1      1923 9.51943E-05-2.85587E-05-2.85581E-05 2.19598E-08 2.24299E-18-7.45826E-19
 -1      1924 9.51999E-05-2.85607E-05-2.85596E-05 2.15287E-08 2.84369E-18-1.54401E-19
 -1      1925 9.52030E-05-2.85613E-05-2.85608E-05 2.64927E-08 1.01147E-18 1.49433E-18
 -1      1926 9.52029E-05-2.85618E-05-2.85605E-05 2.08775E-08 3.02620E-18-1.56928E-20
 -1      1927 9.52083E-05-2.85636E-05-2.85620E-05 2.00595E-08 3.25476E-18 1.55515E-18
 -1      1928 9.52090E-05-2.85639E-05-2.85622E-05 2.59305E-08 3.30496E-18 7.77432E-19
 -1      1929 9.52113E-05-2.85646E-05-2.85629E-05 1.89481E-08 2.14630E-18 9.38962E-19
 -1      1930 9.52162E-05-2.85662E-05-2.85643E-05 1.78494E-08 1.86915E-18 1.50641E-18
 -1      1931 9.52152E-05-2.85663E-05-2.85638E-05 2.40491E-08 2.08964E-18 2.01583E-19
 -1      1932 9.52190E-05-2.85672E-05-2.85651E-05 1.63828E-08 9.09839E-19 1.06850E-18
 -1      1933 9.52232E-05-2.85687E-05-2.85663E-05 1.50166E-08 5.82788E-19 1.18270E-18
 -1      1934 9.52213E-05-2.85686E-05-2.85654E-05 2.12337E-08 1.65180E-18 5.33183E-19
 -1      1935 9.52258E-05-2.85696E-05-2.85670E-05 1.32149E-08 1.50212E-18 1.35152E-19
 -1      1936 9.52292E-05-2.85709E-05-2.85679E-05 1.15193E-08 1.87802E-18 6.74746E-19
 -1      1937 9.52267E-05-2.85707E-05-2.85668E-05 1.76341E-08 3.74698E-19-1.33256E-19
 -1      1938 9.52311E-05-2.85716E-05-2.85684E-05 9.47696E-09 2.46006E-18 1.09122E-20
 -1      1939 9.52336E-05-2.85726E-05-2.85691E-05 7.48440E-09 9.60806E-19 9.29176E-19
 -1      1940 9.52347E-05-2.85740E-05-2.85689E-05 8.77157E-09 2.41920E-19-6.40970E-19
 -1      1941 9.52313E-05-2.85726E-05-2.85679E-05 1.33968E-08 1.31831E-18-7.21624E-19
 -1      1942 1.08826E-04-3.19652E-05-3.29064E-05-3.13113E-06 1.23845E-18 2.73631E-18
 -1      1943 1.08473E-04-3.15897E-05-3.28876E-05-1.90182E-06 1.46011E-18 3.30662E-18
 -1      1944 1.07818E-04-3.07257E-05-3.30639E-05-1.56511E-06 1.83793E-18 2.18680E-18
 -1      1945 1.10647E-04-3.29636E-05-3.32796E-05-4.45013E-06 8.75892E-19 2.06918E-18
 -1      1946 1.09546E-04-3.24268E-05-3.30047E-05-3.83685E-06 9.36524E-19 2.47516E-18
 -1      1947 1.08651E-04-3.18567E-05-3.29376E-05-4.29320E-06 1.22875E-18 1.68670E-18
 -1      1948 1.13144E-04-3.42311E-05-3.38351E-05-4.53238E-06 6.05116E-19 1.60308E-18
 -1      1949 1.11769E-04-3.35798E-05-3.34919E-05-4.49285E-06 6.27101E-19 1.95265E-18
 -1      1950 1.10533E-04-3.31459E-05-3.31927E-05-5.40298E-06 8.93065E-19 1.11847E-18
 -1      1951 1.15626E-04-3.56505E-05-3.43142E-05-3.11929E-06-1.13380E-19 1.49413E-18
 -1      1952 1.14439E-04-3.50073E-05-3.40475E-05-3.80782E-06 2.46804E-19 1.56503E-18
 -1      1953 1.13027E-04-3.47665E-05-3.35602E-05-4.88148E-06 3.52068E-19 7.95741E-19
 -1      1954 1.17274E-04-3.68807E-05-3.45012E-05 7.16418E-08 2.68483E-19 1.58333E-18
 -1      1955 1.16782E-04-3.64697E-05-3.44406E-05-1.50510E-06-1.74449E-19 1.50005E-18
 -1      1956 1.15573E-04-3.65742E-05-3.38586E-05-2.42634E-06-6.62274E-20 6.85958E-19
 -1      1957 1.17152E-04-3.72573E-05-3.42694E-05 4.79965E-06 5.86570E-19 1.72611E-18
 -1      1958 1.17843E-04-3.74212E-05-3.44971E-05 2.45055E-06 4.78230E-19 1.75589E-18
 -1      1959 1.17383E-04-3.80130E-05-3.39884E-05 2.06678E-06 4.30174E-19 1.02693E-18
 -1      1960 1.14500E-04-3.59204E-05-3.36698E-05 9.59683E-06 9.10101E-19 1.46489E-18
 -1      1961 1.16604E-04-3.69891E-05-3.41591E-05 7.22030E-06 6.59428E-19 1.74212E-18
 -1      1962 1.17429E-04-3.80470E-05-3.39688E-05 7.77739E-06 7.69675E-19 1.37773E-18
 -1      1963 1.09477E-04-3.25430E-05-3.29514E-05 1.15736E-05 9.73995E-19 1.29675E-18
 -1      1964 1.12602E-04-3.44376E-05-3.35379E-05 1.06116E-05 1.05394E-18 1.58263E-18
 -1      1965 1.14896E-04-3.56369E-05-3.39292E-05 1.22812E-05 1.04625E-18 1.80016E-18
 -1      1966 1.04148E-04-2.85422E-05-3.24375E-05 8.02990E-06 1.17706E-18 6.27466E-19
 -1      1967 1.07003E-04-3.03505E-05-3.28815E-05 9.74462E-06 1.18545E-18 9.32067E-19
 -1      1968 1.10334E-04-3.10813E-05-3.39874E-05 1.20568E-05 1.43061E-18 1.46464E-18
 -1      1969 1.01861E-04-2.66575E-05-3.23469E-05-1.74493E-07 7.79853E-19-7.65711E-19
 -1      1970 1.02935E-04-2.72507E-05-3.24434E-05 3.68102E-06 8.76097E-19-1.60390E-19
 -1      1971 1.06539E-04-2.71610E-05-3.41266E-05 5.38799E-06 1.30406E-18 2.84762E-19
 -1      1972 1.04684E-04-2.86872E-05-3.26964E-05-8.67253E-06 1.73022E-18-1.98219E-18
 -1      1973 1.03077E-04-2.74162E-05-3.24036E-05-4.86480E-06 1.36171E-18-1.43678E-18
 -1      1974 1.06393E-04-2.67170E-05-3.42296E-05-4.84317E-06 1.74523E-18-1.55579E-18
 -1      1975 1.10742E-04-3.29506E-05-3.33837E-05-1.23456E-05 5.53443E-19-2.73809E-18
 -1      1976 1.07408E-04-3.08449E-05-3.28041E-05-1.07229E-05 9.71123E-19-2.45444E-18
 -1      1977 1.10346E-04-3.05590E-05-3.42341E-05-1.24347E-05 1.51952E-18-2.54780E-18
 -1      1978 1.16445E-04-3.65263E-05-3.42074E-05-1.05060E-05 1.57303E-19-2.98361E-18
 -1      1979 1.13055E-04-3.48077E-05-3.35569E-05-1.12510E-05 2.65972E-19-2.81411E-18
 -1      1980 1.15303E-04-3.53299E-05-3.42593E-05-1.36103E-05 6.38039E-19-3.03428E-18
 -1      1981 1.19516E-04-3.80003E-05-3.48611E-05-5.68176E-06 5.36622E-19-3.41454E-18
 -1      1982 1.17311E-04-3.72269E-05-3.43744E-05-7.66879E-06 5.37310E-19-2.99073E-18
 -1      1983 1.18468E-04-3.82743E-05-3.43594E-05-9.52437E-06 6.01082E-19-3.34273E-18
 -1      1984 1.19731E-04-3.76734E-05-3.51113E-05-7.73695E-07 3.98178E-19-3.72087E-18
 -1      1985 1.19050E-04-3.77079E-05-3.49216E-05-2.80497E-06 3.52948E-19-3.59180E-18
 -1      1986 1.18969E-04-3.86855E-05-3.44246E-05-3.66218E-06 8.30158E-19-3.25788E-18
 -1      1987 1.17937E-04-3.64357E-05-3.49039E-05 2.70624E-06 1.49594E-19-2.70022E-18
 -1      1988 1.18497E-04-3.69225E-05-3.50118E-05 1.24829E-06 4.49258E-19-2.81528E-18
 -1      1989 1.17433E-04-3.74496E-05-3.43075E-05 1.35177E-06 3.30032E-19-2.89092E-18
 -1      1990 1.15094E-04-3.49695E-05-3.43370E-05 4.53869E-06-1.49000E-18-2.09772E-18
 -1      1991 1.16415E-04-3.56222E-05-3.46592E-05 3.75038E-06-5.13256E-19-2.32066E-18
 -1      1992 1.14829E-04-3.56680E-05-3.39501E-05 4.52214E-06-5.92215E-19-1.47122E-18
 -1      1993 1.11906E-04-3.36084E-05-3.35659E-05 5.11062E-06-1.00957E-18-1.95921E-18
 -1      1994 1.13561E-04-3.42656E-05-3.39996E-05 4.84141E-06-1.25382E-18-2.16316E-18
 -1      1995 1.11866E-04-3.39824E-05-3.33933E-05 5.96682E-06-1.17074E-18-1.97534E-18
 -1      1996 1.08803E-04-3.24606E-05-3.27305E-05 4.91437E-06 4.26584E-19-1.28756E-18
 -1      1997 1.10494E-04-3.30503E-05-3.31923E-05 4.96671E-06-2.92111E-19-1.42839E-18
 -1      1998 1.08953E-04-3.26128E-05-3.27241E-05 6.20315E-06-6.21310E-19-1.79736E-18
 -1      1999 1.06004E-04-3.15327E-05-3.19276E-05 4.33866E-06 2.14262E-18-2.01734E-18
 -1      2000 1.07563E-04-3.20313E-05-3.23639E-05 4.55413E-06 1.25056E-18-1.44822E-18
 -1      2001 1.06294E-04-3.15662E-05-3.20284E-05 5.74701E-06 1.33943E-18-1.16263E-18
 -1      2002 1.03602E-04-3.07976E-05-3.12106E-05 3.63242E-06 4.38553E-19-2.12147E-18
 -1      2003 1.04951E-04-3.12045E-05-3.15942E-05 3.90810E-06 1.25909E-18-2.21214E-18
 -1      2004 1.03974E-04-3.07816E-05-3.13686E-05 4.97505E-06 1.56488E-18-1.46248E-18
 -1      2005 1.01611E-04-3.02222E-05-3.06011E-05 2.93328E-06-1.47215E-18-1.26508E-18
 -1      2006 1.02729E-04-3.05462E-05-3.09227E-05 3.21130E-06-1.16557E-18-2.09926E-18
 -1      2007 1.02015E-04-3.01942E-05-3.07808E-05 4.11946E-06-7.34108E-19-7.87464E-19
 -1      2008 1.00003E-04-2.97765E-05-3.01010E-05 2.30638E-06-1.54823E-18-2.10939E-19
 -1      2009 1.00902E-04-3.00295E-05-3.03616E-05 2.55862E-06-1.14725E-18-5.57661E-19
 -1      2010 1.00404E-04-2.97526E-05-3.02797E-05 3.30490E-06-1.59735E-18-2.40268E-19
 -1      2011 9.87328E-05-2.94349E-05-2.97013E-05 1.77497E-06-1.06147E-18-1.26777E-18
 -1      2012 9.94388E-05-2.96291E-05-2.99072E-05 1.99070E-06-1.06911E-18-7.15799E-19
 -1      2013 9.91058E-05-2.94200E-05-2.98664E-05 2.58780E-06-8.04498E-19-1.41970E-18
 -1      2014 9.77477E-05-2.91762E-05-2.93889E-05 1.34045E-06 1.19925E-18-3.56734E-19
 -1      2015 9.82910E-05-2.93230E-05-2.95481E-05 1.51818E-06-4.76671E-20-1.17908E-18
 -1      2016 9.80800E-05-2.91700E-05-2.95343E-05 1.98566E-06 2.04231E-20-1.72533E-18
 -1      2017 9.69971E-05-2.89830E-05-2.91493E-05 9.94100E-07 1.20512E-18-5.34362E-19
 -1      2018 9.74076E-05-2.90921E-05-2.92701E-05 1.13674E-06 9.78039E-19-2.02251E-19
 -1      2019 9.72834E-05-2.89834E-05-2.92730E-05 1.49585E-06 9.15595E-19-8.68295E-19
 -1      2020 9.64350E-05-2.88411E-05-2.89688E-05 7.23471E-07 6.15500E-19-6.38543E-19
 -1      2021 9.67396E-05-2.89208E-05-2.90588E-05 8.35656E-07 6.62304E-19-3.62199E-19
 -1      2022 9.66752E-05-2.88457E-05-2.90713E-05 1.10665E-06 8.99913E-19-4.37627E-19
 -1      2023 9.60217E-05-2.87388E-05-2.88353E-05 5.15588E-07-2.96341E-19-8.38629E-19
 -1      2024 9.62435E-05-2.87958E-05-2.89012E-05 6.02316E-07 7.70663E-19-5.89086E-19
 -1      2025 9.62186E-05-2.87457E-05-2.89185E-05 8.03175E-07 7.24237E-19 6.84035E-19
 -1      2026 9.57239E-05-2.86667E-05-2.87384E-05 3.58443E-07-9.83163E-19-9.52111E-19
 -1      2027 9.58820E-05-2.87065E-05-2.87856E-05 4.24430E-07-1.04873E-18-1.29178E-18
 -1      2028 9.58821E-05-2.86744E-05-2.88046E-05 5.70483E-07-7.35626E-19 7.60757E-19
 -1      2029 9.55142E-05-2.86172E-05-2.86697E-05 2.41564E-07-2.67845E-20-2.77642E-19
 -1      2030 9.56241E-05-2.86442E-05-2.87027E-05 2.90978E-07-6.34607E-19-8.69026E-19
 -1      2031 9.56390E-05-2.86249E-05-2.87215E-05 3.94904E-07-6.85053E-19 1.24313E-19
 -1      2032 9.53708E-05-2.85846E-05-2.86222E-05 1.56132E-07 1.54895E-18-5.98040E-19
 -1      2033 9.54448E-05-2.86022E-05-2.86446E-05 1.92519E-07 1.28425E-18-1.79323E-19
 -1      2034 9.54675E-05-2.85917E-05-2.86620E-05 2.64583E-07 1.06601E-18-3.46820E-19
 -1      2035 9.52763E-05-2.85641E-05-2.85905E-05 9.48969E-08-3.97140E-19-1.46700E-18
 -1      2036 9.53240E-05-2.85749E-05-2.86051E-05 1.21197E-07 8.27735E-19-5.36121E-19
 -1      2037 9.53499E-05-2.85703E-05-2.86206E-05 1.69560E-07 8.45232E-19-2.74900E-19
 -1      2038 9.52172E-05-2.85523E-05-2.85703E-05 5.20050E-08 1.51785E-19-6.02352E-19
 -1      2039 9.52461E-05-2.85583E-05-2.85793E-05 7.06091E-08-4.79119E-19-8.41557E-19
 -1      2040 9.52721E-05-2.85575E-05-2.85926E-05 1.01656E-07-7.41232E-20-7.32601E-20
 -1      2041 9.51832E-05-2.85465E-05-2.85583E-05 2.28029E-08-4.75814E-19 7.80416E-19
 -1      2042 9.51989E-05-2.85492E-05-2.85633E-05 3.56257E-08 1.80507E-19 2.06458E-19
 -1      2043 9.52234E-05-2.85507E-05-2.85745E-05 5.42740E-08-2.89859E-19 1.26577E-18
 -1      2044 9.51666E-05-2.85446E-05-2.85520E-05 3.64203E-09-3.28749E-18 1.22253E-19
 -1      2045 9.51734E-05-2.85452E-05-2.85544E-05 1.21948E-08-1.80609E-18 3.49618E-19
 -1      2046 9.51952E-05-2.85480E-05-2.85635E-05 2.21754E-08-1.15206E-18 1.11943E-18
 -1      2047 9.51616E-05-2.85453E-05-2.85496E-05-8.29841E-09-5.69122E-19 8.95613E-19
 -1      2048 9.51625E-05-2.85446E-05-2.85501E-05-2.83964E-09-1.64790E-18-2.41539E-19
 -1      2049 9.51813E-05-2.85479E-05-2.85575E-05 1.25695E-09-1.66891E-18 7.18642E-19
 -1      2050 9.51640E-05-2.85476E-05-2.85497E-05-1.51665E-08-5.38868E-19 1.98029E-18
 -1      2051 9.51612E-05-2.85461E-05-2.85491E-05-1.19002E-08-8.61652E-19 1.37718E-18
 -1      2052 9.51770E-05-2.85495E-05-2.85549E-05-1.16476E-08-1.37589E-18 1.57206E-18
 -1      2053 9.51708E-05-2.85506E-05-2.85514E-05-1.85688E-08-2.33652E-19 3.28927E-18
 -1      2054 9.51660E-05-2.85487E-05-2.85501E-05-1.68163E-08-1.00162E-19 2.66429E-18
 -1      2055 9.51788E-05-2.85519E-05-2.85545E-05-1.89422E-08-7.81058E-19 2.54704E-18
 -1      2056 9.51801E-05-2.85541E-05-2.85539E-05-1.96789E-08 9.55290E-19 2.27170E-18
 -1      2057 9.51742E-05-2.85520E-05-2.85523E-05-1.89412E-08 5.26424E-19 2.58621E-18
 -1      2058 9.51843E-05-2.85549E-05-2.85556E-05-2.24167E-08 8.62800E-19 3.16221E-18
 -1      2059 9.51903E-05-2.85575E-05-2.85568E-05-1.93245E-08 1.13468E-19 2.00145E-18
 -1      2060 9.51840E-05-2.85554E-05-2.85551E-05-1.92475E-08 5.47108E-19 1.99953E-18
 -1      2061 9.51918E-05-2.85579E-05-2.85575E-05-2.33682E-08 7.81577E-19 2.49347E-18
 -1      2062 9.52005E-05-2.85608E-05-2.85598E-05-1.80546E-08 8.67645E-19 5.00943E-19
 -1      2063 9.51944E-05-2.85589E-05-2.85581E-05-1.84030E-08 2.10170E-19 8.76675E-19
 -1      2064 9.52001E-05-2.85609E-05-2.85597E-05-2.26987E-08 5.97143E-19 4.75623E-19
 -1      2065 9.52101E-05-2.85639E-05-2.85626E-05-1.61862E-08 1.99411E-18-1.65623E-19
 -1      2066 9.52045E-05-2.85621E-05-2.85610E-05-1.68267E-08 2.41581E-18 1.26879E-18
 -1      2067 9.52084E-05-2.85637E-05-2.85621E-05-2.09901E-08 2.23474E-18 6.11509E-19
 -1      2068 9.52188E-05-2.85667E-05-2.85652E-05-1.38445E-08 1.23717E-18-3.66718E-19
 -1      2069 9.52138E-05-2.85651E-05-2.85638E-05-1.47289E-08 1.22024E-18-5.47422E-19
 -1      2070 9.52163E-05-2.85663E-05-2.85643E-05-1.85539E-08 1.75448E-18 7.34431E-19
 -1      2071 9.52261E-05-2.85691E-05-2.85673E-05-1.09938E-08-1.08591E-18 7.15709E-19
 -1      2072 9.52219E-05-2.85677E-05-2.85661E-05-1.21545E-08 2.47099E-19-2.42522E-19
 -1      2073 9.52233E-05-2.85687E-05-2.85663E-05-1.54972E-08 3.43015E-19 4.89960E-19
 -1      2074 9.52318E-05-2.85711E-05-2.85689E-05-7.50040E-09-6.37288E-19 1.54981E-20
 -1      2075 9.52287E-05-2.85701E-05-2.85680E-05-9.03032E-09-5.83917E-19 5.25483E-19
 -1      2076 9.52292E-05-2.85708E-05-2.85679E-05-1.17857E-08-4.02070E-19 1.41939E-18
 -1      2077 9.52352E-05-2.85724E-05-2.85698E-05-4.44256E-09-1.10089E-18-5.36545E-19
 -1      2078 9.52331E-05-2.85717E-05-2.85692E-05-6.25937E-09-1.35912E-18-4.75507E-19
 -1      2079 9.52333E-05-2.85725E-05-2.85689E-05-8.36176E-09-7.90326E-19 2.31343E-18
 -1      2080 9.52358E-05-2.85736E-05-2.85695E-05-5.54298E-09-6.64024E-19 7.66705E-19
 -1      2081 9.52424E-05-2.85881E-05-2.85661E-05-1.19430E-08 1.28961E-18 2.57857E-18
 -1      2082 9.52410E-05-2.85850E-05-2.85669E-05-1.19061E-08 9.88247E-19 1.77904E-18
 -1      2083 9.52397E-05-2.85825E-05-2.85674E-05-1.14269E-08 9.45940E-19 6.36276E-19
 -1      2084 9.52383E-05-2.85795E-05-2.85681E-05-1.05009E-08 2.10786E-19 8.36433E-19
 -1      2085 9.52398E-05-2.85829E-05-2.85673E-05-1.46933E-08 1.24934E-18 1.32059E-18
 -1      2086 9.52375E-05-2.85777E-05-2.85685E-05-9.10112E-09-5.50267E-19 1.00421E-18
 -1      2087 9.52364E-05-2.85753E-05-2.85691E-05-7.43067E-09-2.58766E-19 9.40706E-19
 -1      2088 9.52353E-05-2.85748E-05-2.85688E-05-8.99931E-09-7.17564E-19 1.91921E-18
 -1      2089 9.52373E-05-2.85784E-05-2.85681E-05-1.25519E-08-7.14024E-19 1.65013E-18
 -1      2090 9.52448E-05-2.85933E-05-2.85649E-05-1.08236E-08-4.51064E-19-3.22481E-18
 -1      2091 9.52436E-05-2.85905E-05-2.85656E-05-1.14828E-08 2.87594E-19 1.02645E-18
 -1      2092 9.52428E-05-2.85879E-05-2.85664E-05-1.46613E-08 3.87207E-19 2.01646E-19
 -1      2093 9.52467E-05-2.85977E-05-2.85638E-05-8.36402E-09-2.57166E-19-2.07917E-18
 -1      2094 9.52457E-05-2.85953E-05-2.85644E-05-9.57774E-09-4.71160E-19-2.36554E-18
 -1      2095 9.52453E-05-2.85924E-05-2.85656E-05-1.27384E-08 3.01805E-19-2.52226E-18
 -1      2096 9.52479E-05-2.86006E-05-2.85631E-05-4.97617E-09 3.13925E-19-5.79997E-19
 -1      2097 9.52473E-05-2.85991E-05-2.85635E-05-6.54917E-09 5.08079E-19-4.71658E-19
 -1      2098 9.52472E-05-2.85959E-05-2.85649E-05-9.30393E-09 6.70142E-19-1.39173E-18
 -1      2099 9.52485E-05-2.86018E-05-2.85628E-05-1.07597E-09-2.31919E-19 3.16866E-19
 -1      2100 9.52483E-05-2.86013E-05-2.85629E-05-2.82490E-09 8.08288E-20-3.16477E-19
 -1      2101 9.52483E-05-2.85982E-05-2.85644E-05-4.86528E-09 3.46105E-19-2.79932E-19
 -1      2102 9.52483E-05-2.86013E-05-2.85629E-05 2.92846E-09 3.94935E-19 9.35916E-19
 -1      2103 9.52485E-05-2.86018E-05-2.85628E-05 1.18351E-09 7.99423E-20 1.10032E-18
 -1      2104 9.52487E-05-2.85989E-05-2.85643E-05 6.83884E-11-1.34393E-18 2.52626E-19
 -1      2105 9.52473E-05-2.85990E-05-2.85635E-05 6.63149E-09-2.23105E-19 7.37085E-19
 -1      2106 9.52479E-05-2.86005E-05-2.85631E-05 5.07023E-09-2.49372E-19 1.19438E-18
 -1      2107 9.52483E-05-2.85981E-05-2.85644E-05 4.99112E-09-5.99816E-19 8.11074E-19
 -1      2108 9.52457E-05-2.85953E-05-2.85644E-05 9.58430E-09 6.53828E-19-1.96692E-19
 -1      2109 9.52467E-05-2.85976E-05-2.85638E-05 8.40330E-09-3.13830E-19-5.67774E-20
 -1      2110 9.52471E-05-2.85958E-05-2.85649E-05 9.36822E-09-5.78133E-19-2.30753E-20
 -1      2111 9.52435E-05-2.85904E-05-2.85656E-05 1.14790E-08 6.42182E-19 1.74150E-18
 -1      2112 9.52448E-05-2.85933E-05-2.85649E-05 1.08217E-08 1.03137E-18 2.42155E-18
 -1      2113 9.52452E-05-2.85923E-05-2.85656E-05 1.27440E-08 2.27853E-19 1.02353E-18
 -1      2114 9.52410E-05-2.85849E-05-2.85669E-05 1.18763E-08 7.51922E-19-4.68609E-18
 -1      2115 9.52424E-05-2.85880E-05-2.85661E-05 1.19304E-08 8.88225E-19-1.14211E-18
 -1      2116 9.52427E-05-2.85878E-05-2.85664E-05 1.46491E-08 7.70919E-19-9.10424E-20
 -1      2117 9.52382E-05-2.85793E-05-2.85681E-05 1.05144E-08-4.38108E-19-3.16965E-18
 -1      2118 9.52397E-05-2.85824E-05-2.85674E-05 1.13815E-08 7.41868E-19-5.07860E-18
 -1      2119 9.52398E-05-2.85827E-05-2.85673E-05 1.46341E-08 4.55404E-19-4.99172E-18
 -1      2120 5.97965E-05-4.09233E-05-8.55078E-06 3.96593E-05 2.91803E-18 5.18053E-18
 -1      2121 4.28557E-05-4.18176E-05-1.79572E-06 3.12579E-05 1.51365E-18 6.03564E-18
 -1      2122 1.17761E-05-3.41543E-05 8.23170E-06 3.07993E-06 6.00546E-19 5.47353E-18
 -1      2123 1.22272E-05-3.52781E-05 8.36144E-06-6.34083E-06-1.02036E-18 6.24644E-18
 -1      2124 2.64371E-05-3.50480E-05 2.74367E-06 2.49561E-05 1.57082E-18 6.53613E-18
 -1      2125 1.81733E-05-3.57155E-05 6.13577E-06 1.51842E-05 2.28275E-19 5.72213E-18
 -1      2126 1.03711E-04-4.61650E-05-2.45698E-05 4.06856E-05 4.18942E-18 3.86035E-18
 -1      2127 8.26323E-05-4.77132E-05-1.59647E-05 3.68742E-05 3.02348E-18 4.25719E-18
 -1      2128 1.41005E-04-4.39474E-05-4.09829E-05 3.29618E-05 5.63785E-18 3.37881E-18
 -1      2129 1.20187E-04-4.57494E-05-3.25093E-05 3.20981E-05 5.27405E-18 3.25303E-18
 -1      2130 8.79039E-05-8.85085E-06-3.39807E-05-5.14718E-06-1.66360E-18-3.05562E-18
 -1      2131 9.00272E-05-9.78858E-06-3.44617E-05-6.81175E-06-1.98585E-18-2.62644E-18
 -1      2132 9.33947E-05-1.40415E-05-3.40711E-05-6.64214E-06-2.19612E-18-2.15862E-18
 -1      2133 8.85180E-05-1.08124E-05-3.33351E-05-3.89527E-06-1.60075E-18-3.00044E-18
 -1      2134 1.75479E-04-2.61098E-05-6.32441E-05 2.14193E-06 6.87367E-18-1.30464E-18
 -1      2135 1.67916E-04-2.92218E-05-5.90042E-05 5.85578E-06 6.17572E-18 9.23266E-20
 -1      2136 1.83451E-04-2.45353E-05-6.67629E-05-3.20589E-06 6.75551E-18-2.67091E-18
 -1      2137 1.75192E-04-2.11327E-05-6.55849E-05 1.99783E-06 6.89019E-18-1.12613E-18
 -1      2138 1.72307E-04-2.68580E-05-6.18766E-05-8.40140E-06 6.14417E-18-3.56982E-18
 -1      2139 1.82999E-04-2.71915E-05-6.55503E-05-4.71346E-06 6.42771E-18-2.88626E-18
 -1      2140 1.58652E-04-1.43909E-05-6.06873E-05 2.07792E-06 6.88130E-18-1.33312E-18
 -1      2141 1.57432E-04-3.76205E-05-5.11979E-05-1.94304E-05 5.75072E-18-4.91321E-18
 -1      2142 1.71321E-04-3.54921E-05-5.74115E-05-1.40451E-05 5.43001E-18-3.82224E-18
 -1      2143 1.29204E-04-4.48632E-05-3.66002E-05-3.09403E-05 5.17601E-18-5.68444E-18
 -1      2144 1.49212E-04-4.40025E-05-4.45648E-05-2.88948E-05 5.20184E-18-5.22450E-18
 -1      2145 9.08033E-05-4.50912E-05-2.06853E-05-3.74768E-05 4.75185E-18-6.87875E-18
 -1      2146 1.12191E-04-4.36838E-05-2.92295E-05-4.11565E-05 5.45828E-18-6.94355E-18
 -1      2147 5.82855E-05-4.31203E-05-7.22947E-06-3.78463E-05 2.49621E-18-6.20568E-18
 -1      2148 7.37831E-05-4.22697E-05-1.39374E-05-4.15932E-05 4.40203E-18-7.22180E-18
 -1      2149 9.66666E-05-5.28268E-05-1.91170E-05-4.01099E-05 1.43064E-18-5.33874E-18
 -1      2150 2.40275E-05-3.64734E-05 3.86008E-06-2.13759E-05 8.70962E-19-6.21510E-18
 -1      2151 3.64427E-05-3.57583E-05-1.13247E-06-3.23812E-05 1.87321E-18-6.39362E-18
 -1      2152 1.19485E-05-3.49267E-05 8.20309E-06 1.17359E-07-9.42112E-19-6.54629E-18
 -1      2153 1.37946E-05-3.23961E-05 6.74790E-06-1.04572E-05 9.43806E-19-6.43957E-18
 -1      2154 1.89404E-05-3.14134E-05 4.37512E-06 2.12542E-05-2.31176E-18-6.95160E-18
 -1      2155 1.41838E-05-3.55113E-05 7.47849E-06 1.01697E-05-8.85149E-19-6.54799E-18
 -1      2156 1.44774E-05-2.39427E-05 3.37664E-06 6.43054E-06-1.91535E-19-7.32345E-18
 -1      2157 4.90230E-05-3.79574E-05-5.35036E-06 3.85293E-05-4.13140E-18-6.28980E-18
 -1      2158 3.63227E-05-3.74092E-05-4.37900E-07 3.21628E-05-1.99392E-18-6.31865E-18
 -1      2159 8.40847E-05-4.27406E-05-1.78331E-05 4.43707E-05-4.72390E-18-4.95684E-18
 -1      2160 6.48711E-05-4.34257E-05-1.03107E-05 3.87389E-05-4.27709E-18-5.55124E-18
 -1      2161 6.93876E-05-4.40919E-05-1.09923E-05 4.37922E-05-5.27278E-19-4.50537E-18
 -1      2162 1.24910E-04-4.53361E-05-3.41375E-05 3.62697E-05-5.50148E-18-3.69476E-18
 -1      2163 1.02801E-04-4.52436E-05-2.53118E-05 3.74502E-05-5.55061E-18-4.30632E-18
 -1      2164 1.58790E-04-3.64162E-05-5.11220E-05 2.77008E-05-5.82478E-18-4.53798E-18
 -1      2165 1.40653E-04-3.98763E-05-4.30216E-05 2.67336E-05-5.81890E-18-3.54780E-18
 -1      2166 1.73756E-04-2.95172E-05-6.09810E-05 1.24881E-05-5.46400E-18-3.20221E-18
 -1      2167 1.64052E-04-3.13195E-05-5.62109E-05 2.04322E-05-5.87131E-18-4.60362E-18
 -1      2168 1.55476E-04-3.53032E-05-5.07748E-05 7.66611E-06-4.81951E-18-1.75082E-18
 -1      2169 1.72461E-04-1.98454E-05-6.48813E-05 5.20896E-07-6.13887E-18-1.57601E-18
 -1      2170 1.72766E-04-2.26703E-05-6.34976E-05 6.40811E-06-6.10372E-18-2.77361E-18
 -1      2171 1.74888E-04-2.50602E-05-6.32498E-05-8.83385E-06-5.88815E-18-5.31937E-19
 -1      2172 1.72748E-04-2.07285E-05-6.47332E-05-5.35613E-07-6.12151E-18-2.00524E-18
 -1      2173 1.59577E-04-3.09388E-05-5.48602E-05-1.58120E-05-5.38649E-18 5.06102E-19
 -1      2174 1.73584E-04-3.02959E-05-6.03545E-05-1.28283E-05-5.31450E-18-5.43795E-19
 -1      2175 1.55698E-04-2.01639E-05-5.71458E-05 2.42590E-06-5.32297E-18-2.82464E-18
 -1      2176 1.35291E-04-3.81475E-05-4.16433E-05-3.20607E-05-5.28824E-18 3.41524E-18
 -1      2177 1.53593E-04-3.78675E-05-4.89520E-05-2.76842E-05-5.08739E-18 2.12902E-18
 -1      2178 1.02719E-04-4.15496E-05-2.69300E-05-3.83309E-05-5.22365E-18 4.28090E-18
 -1      2179 1.22314E-04-3.99457E-05-3.48231E-05-4.06396E-05-5.03180E-18 3.90948E-18
 -1      2180 6.82727E-05-4.24686E-05-1.23101E-05-3.81712E-05-4.01959E-18 4.60066E-18
 -1      2181 8.57233E-05-3.99249E-05-1.97373E-05-4.35866E-05-5.12878E-18 4.50749E-18
 -1      2182 3.75982E-05-4.07151E-05-2.83714E-07-3.04928E-05-2.28657E-18 6.25555E-18
 -1      2183 5.06073E-05-3.80347E-05-6.09148E-06-3.80001E-05-3.61302E-18 5.88362E-18
 -1      2184 1.75365E-05-3.74431E-05 6.89985E-06-1.64092E-05-1.09437E-18 6.56239E-18
 -1      2185 2.43956E-05-3.57679E-05 3.71637E-06-2.49010E-05-2.58769E-18 7.23980E-18
 -1      2186 1.65257E-04-3.87854E-05-5.38168E-05 1.45029E-05 5.22969E-18 1.21253E-18
 -1      2187 1.51306E-04-4.03402E-05-4.72895E-05 2.30550E-05 5.71027E-18 2.98833E-18
 -1      2188 1.49514E-04-4.96304E-05-4.21224E-05 1.31898E-05 4.02129E-18 4.95514E-19
 -1      2189 1.24112E-04-5.65812E-05-2.87882E-05 2.98418E-05 2.14299E-18 1.33747E-18
 -1      2190 1.05567E-04-2.71012E-05-3.37036E-05-6.48091E-06-2.37619E-18 1.79580E-18
 -1      2191 1.58942E-04-3.34434E-05-5.30608E-05-1.20997E-06 5.53155E-18-1.08420E-18
 -1      2192 1.03990E-04-2.57438E-05-3.36085E-05-6.24764E-06-2.53079E-18 5.33935E-19
 -1      2193 4.25724E-05-3.56839E-05-3.29258E-06 3.43333E-05-1.10792E-18 5.71599E-18
 -1      2194 1.76930E-05-2.60644E-05 2.98895E-06 1.22599E-05-4.03929E-19 6.16301E-18
 -1      2195 9.52371E-05-2.85774E-05-2.85685E-05 1.02178E-08-7.57297E-20-2.31386E-18
 -1      2196 8.39688E-05-5.05760E-05-1.44339E-05 4.06254E-05 4.30716E-19 3.44364E-18
 -1      2197 1.68590E-05-2.69113E-05 3.52985E-06-1.46082E-05-5.96946E-19 7.14938E-18
 -1      2198 3.73042E-05-3.52489E-05-1.58949E-06-3.44760E-05-2.79944E-19 6.05544E-18
 -1      2199 7.06562E-05-4.54297E-05-1.12264E-05-4.27794E-05-8.33480E-19 3.77994E-18
 -1      2200 1.07100E-04-5.11486E-05-2.39200E-05-3.84992E-05-2.04093E-18 2.11377E-18
 -1      2201 1.53778E-04-3.66767E-05-4.94316E-05-8.65429E-06-4.49182E-18-1.53228E-18
 -1      2202 1.57434E-04-1.98675E-05-5.80795E-05 6.43456E-08-5.91589E-18-1.65383E-18
 -1      2203 1.05310E-04-5.28640E-05-2.23290E-05 3.90764E-05-2.26412E-18-2.64391E-18
 -1      2204 3.37374E-05-3.08743E-05-1.59091E-06 3.18257E-05-2.64910E-19-6.65916E-18
 -1      2205 5.32001E-05-4.00902E-05-6.06391E-06-3.75156E-05 1.03169E-18-6.00292E-18
 -1      2206 7.05767E-05-4.42522E-05-1.16888E-05-4.21497E-05-7.28872E-19-5.01909E-18
 -1      2207 4.93605E-05-3.39613E-05-6.20230E-06-3.79781E-05-4.46810E-19-5.73674E-18
 -1      2208 1.31773E-04-5.52128E-05-3.24548E-05-2.77515E-05 2.70712E-18-3.44806E-18
 -1      2209 1.60746E-04-2.85093E-05-5.57957E-05 1.61653E-06 5.25647E-18-1.16192E-18
 -1      2210 1.59050E-04-1.70223E-05-6.00933E-05-3.84973E-06 7.03419E-18-1.53144E-18
 -1      2211 1.53808E-04-4.64395E-05-4.53292E-05-8.99981E-06 3.92600E-18-1.89354E-18
 -1      2212 2.23410E-05-2.69951E-05 1.49311E-06-1.97155E-05 9.69853E-20-6.86478E-18
 -1      2213 1.36871E-04-4.76279E-05-3.79848E-05 2.55686E-05-4.69044E-18-2.19509E-18
 -1      2214 1.33407E-04-5.47602E-05-3.31993E-05 2.34064E-05-2.94111E-18-2.72956E-19
 -1      2215 1.44219E-04-4.97993E-05-4.10621E-05 1.20784E-05-3.30790E-18-6.03511E-19
 -1      2216 1.55341E-04-1.26613E-05-6.04492E-05 3.64091E-07-6.12955E-18-1.95310E-18
 -1      2217 1.36620E-04-4.85784E-05-3.71444E-05-2.55235E-05-3.19458E-18 8.65244E-19
 -1      2218 1.06192E-04-2.93794E-05-3.28959E-05-2.57667E-06 1.81047E-18 1.08970E-18
 -1      2219 1.06058E-04-2.85267E-05-3.31549E-05-5.49717E-07 2.09037E-18 1.36095E-18
 -1      2220 8.04915E-05-7.27532E-06-3.14248E-05 1.21095E-06-3.50622E-19-3.61303E-18
 -1      2221 8.22669E-05-8.28222E-06-3.17104E-05 5.49771E-07-6.24199E-19-3.60268E-18
 -1      2222 8.43633E-05-9.78897E-06-3.20122E-05-1.41584E-07-8.65709E-19-3.46896E-18
 -1      2223 8.64705E-05-1.10067E-05-3.23598E-05-1.13846E-06-1.14002E-18-3.24906E-18
 -1      2224 8.44008E-05-1.09970E-05-3.14671E-05 1.09947E-06-6.28507E-19-3.26440E-18
 -1      2225 7.61402E-05-4.23268E-06-3.08480E-05 1.79221E-06 5.75599E-19-3.74603E-18
 -1      2226 7.66207E-05-4.54819E-06-3.08942E-05 1.71504E-06 2.64491E-19-3.72375E-18
 -1      2227 7.65069E-05-4.26902E-06-3.09792E-05 1.43787E-06 9.67279E-19-3.72439E-18
 -1      2228 7.60777E-05-4.08923E-06-3.08719E-05 1.44581E-06 7.51638E-19-3.79336E-18
 -1      2229 7.64710E-05-5.30708E-06-3.04803E-05 1.74044E-06 6.43251E-19-3.58648E-18
 -1      2230 7.87673E-05-5.53301E-06-3.13993E-05 1.18758E-06 1.36623E-18-3.55887E-18
 -1      2231 7.74370E-05-4.84227E-06-3.11487E-05 1.08614E-06 1.13170E-18-3.68962E-18
 -1      2232 7.73407E-05-5.72586E-06-3.06711E-05 9.64182E-07 1.00889E-18-3.54497E-18
 -1      2233 8.28553E-05-8.04233E-06-3.20783E-05 1.42074E-06 1.83907E-18-2.93468E-18
 -1      2234 8.06667E-05-6.82197E-06-3.17016E-05 1.04491E-06 1.54151E-18-3.25235E-18
 -1      2235 8.02679E-05-7.56637E-06-3.11409E-05 3.85293E-07 1.40257E-18-3.22241E-18
 -1      2236 8.84199E-05-1.16937E-05-3.29166E-05 2.35271E-06 2.37472E-18-2.17649E-18
 -1      2237 8.55543E-05-9.95569E-06-3.24685E-05 1.62820E-06 1.99425E-18-2.55793E-18
 -1      2238 8.50425E-05-1.07388E-05-3.18328E-05 3.67734E-07 1.82271E-18-2.57831E-18
 -1      2239 9.51057E-05-1.64794E-05-3.37693E-05 3.84799E-06 2.70887E-18-1.28088E-18
 -1      2240 9.17049E-05-1.41433E-05-3.33208E-05 2.87199E-06 2.45744E-18-1.83729E-18
 -1      2241 9.11851E-05-1.50283E-05-3.26233E-05 9.91586E-07 2.25003E-18-1.86502E-18
 -1      2242 1.34905E-04-5.92767E-05-3.26296E-05 2.13146E-05 1.34339E-18-1.22396E-19
 -1      2243 1.19269E-04-5.91157E-05-2.57233E-05 2.84211E-05 5.67512E-20 8.16328E-20
 -1      2244 1.07296E-04-3.09964E-05-3.26864E-05-5.37762E-06 1.24628E-18 6.22705E-19
 -1      2245 1.06603E-04-3.02020E-05-3.26688E-05-4.31928E-06 1.46826E-18 9.39598E-19
 -1      2246 1.04275E-04-2.81882E-05-3.26373E-05-3.65219E-06 1.86118E-18 2.16695E-19
 -1      2247 1.03640E-04-2.79248E-05-3.23919E-05-1.90114E-06-2.03769E-18-4.31937E-20
 -1      2248 1.03575E-04-2.90188E-05-3.19793E-05-2.62893E-07-1.76310E-18-7.60146E-20
 -1      2249 1.48464E-04-2.95109E-05-5.15715E-05-1.05487E-05 5.58724E-18-3.02708E-18
 -1      2250 1.49705E-04-3.99477E-05-4.72924E-05-6.63526E-06 4.36465E-18-2.23320E-18
 -1      2251 1.04130E-04-3.01208E-05-3.16506E-05 7.90141E-07-1.44566E-18 9.66362E-20
 -1      2252 1.04300E-04-3.09663E-05-3.14518E-05 1.34610E-06-1.13850E-18 5.44401E-20
 -1      2253 1.02805E-04-2.86052E-05-3.18171E-05 2.25798E-07-1.63786E-18-4.46388E-19
 -1      2254 1.04977E-04-3.18999E-05-3.12662E-05 1.57059E-06-9.70261E-19 1.01232E-19
 -1      2255 1.05305E-04-3.26637E-05-3.11667E-05 1.32926E-06-7.28773E-19-2.50082E-20
 -1      2256 1.04074E-04-3.11756E-05-3.12710E-05 1.70878E-06-1.13129E-18-3.62580E-19
 -1      2257 1.06170E-04-3.35561E-05-3.10822E-05 7.60761E-07-5.93679E-19-1.10247E-20
 -1      2258 1.06476E-04-3.41877E-05-3.10263E-05-1.44904E-07-4.92404E-19-2.00058E-19
 -1      2259 1.05689E-04-3.34647E-05-3.09801E-05 1.49252E-06-7.77606E-19-3.92857E-19
 -1      2260 1.07376E-04-3.49140E-05-3.10328E-05-1.43274E-06-3.82548E-19-2.30149E-19
 -1      2261 1.07425E-04-3.51929E-05-3.10013E-05-2.80956E-06-4.11929E-19-2.19135E-19
 -1      2262 1.07533E-04-3.54615E-05-3.09031E-05-3.25448E-07-5.16196E-19-2.52661E-19
 -1      2263 1.08039E-04-3.54436E-05-3.11126E-05-4.57235E-06-4.45361E-19-5.94943E-20
 -1      2264 1.07605E-04-3.50626E-05-3.11118E-05-6.03505E-06-5.35183E-19 6.79719E-20
 -1      2265 1.09125E-04-3.66365E-05-3.10584E-05-3.45580E-06-3.82530E-19-1.79463E-19
 -1      2266 1.07529E-04-3.44687E-05-3.13442E-05-7.70373E-06-6.47927E-19 1.59880E-19
 -1      2267 1.06526E-04-3.32371E-05-3.13880E-05-8.63245E-06-6.38430E-19 1.46100E-19
 -1      2268 1.09710E-04-3.61478E-05-3.14891E-05-7.11029E-06-5.29283E-19-1.32433E-19
 -1      2269 1.05549E-04-3.16794E-05-3.17206E-05-9.31916E-06-9.91523E-19 1.26906E-20
 -1      2270 1.04189E-04-2.98230E-05-3.18067E-05-9.02908E-06-1.14034E-18-2.26224E-19
 -1      2271 1.08628E-04-3.34037E-05-3.21938E-05-9.77883E-06-9.84957E-19-8.59027E-20
 -1      2272 1.02682E-04-2.78178E-05-3.21491E-05-7.91263E-06-1.09231E-18-3.56141E-19
 -1      2273 1.01527E-04-2.61373E-05-3.22375E-05-6.10310E-06-1.12497E-18-3.74506E-19
 -1      2274 1.06006E-04-2.89071E-05-3.30339E-05-9.55136E-06-1.38855E-18-4.04012E-19
 -1      2275 1.00452E-04-2.47774E-05-3.24448E-05-3.19701E-06-1.19611E-18-6.22123E-19
 -1      2276 1.00112E-04-2.42298E-05-3.24869E-05-3.56182E-07-1.22641E-18-9.74250E-19
 -1      2277 1.03259E-04-2.46892E-05-3.37157E-05-5.35193E-06-1.38778E-18-4.82278E-19
 -1      2278 1.00328E-04-2.44694E-05-3.24640E-05 3.17337E-06-1.26772E-18-1.18340E-18
 -1      2279 1.01051E-04-2.54206E-05-3.24413E-05 5.83136E-06-1.11420E-18-1.14658E-18
 -1      2280 1.02318E-04-2.32345E-05-3.39366E-05 1.58309E-06-1.40951E-18-6.95012E-19
 -1      2281 1.02376E-04-2.70718E-05-3.21996E-05 8.33952E-06-1.16094E-18-1.72511E-18
 -1      2282 1.03776E-04-2.89493E-05-3.21365E-05 9.75378E-06-1.20398E-18-1.83035E-18
 -1      2283 1.03976E-04-2.56622E-05-3.35997E-05 8.04473E-06-1.42273E-18-1.57005E-18
 -1      2284 1.05254E-04-3.09537E-05-3.17899E-05 1.03204E-05-1.40312E-18-1.84410E-18
 -1      2285 1.06668E-04-3.27532E-05-3.17357E-05 1.02066E-05-1.13867E-18-1.78016E-18
 -1      2286 1.06962E-04-3.02415E-05-3.28536E-05 1.11735E-05-1.21906E-18-1.76579E-18
 -1      2287 1.07429E-04-3.41088E-05-3.14181E-05 9.10621E-06-9.91325E-19-1.66865E-18
 -1      2288 1.08366E-04-3.51779E-05-3.13959E-05 7.90010E-06-6.81104E-19-1.58418E-18
 -1      2289 1.09321E-04-3.44993E-05-3.20166E-05 1.03713E-05-9.85640E-19-1.41437E-18
 -1      2290 1.08210E-04-3.55647E-05-3.11685E-05 6.00797E-06-6.44258E-19-1.49117E-18
 -1      2291 1.08524E-04-3.58144E-05-3.11648E-05 4.38555E-06-3.35208E-19-1.45376E-18
 -1      2292 1.09943E-04-3.67525E-05-3.13347E-05 7.05268E-06-5.93777E-19-9.96435E-19
 -1      2293 1.07729E-04-3.54624E-05-3.10224E-05 2.49106E-06-9.26244E-20-1.45024E-18
 -1      2294 1.07531E-04-3.51475E-05-3.10098E-05 9.77373E-07 2.44831E-19-1.34761E-18
 -1      2295 1.08948E-04-3.68788E-05-3.08787E-05 3.04127E-06-2.88430E-19-8.57410E-19
 -1      2296 1.06477E-04-3.44436E-05-3.09188E-05-5.00072E-07-1.58041E-19-1.50428E-18
 -1      2297 1.05955E-04-3.38716E-05-3.08765E-05-1.64246E-06-1.51520E-19-2.00365E-18
 -1      2298 1.07045E-04-3.56522E-05-3.06046E-05-4.37883E-07-2.26966E-19-1.21544E-18
 -1      2299 1.04908E-04-3.31144E-05-3.08039E-05-2.59502E-06 3.88381E-19-2.28628E-18
 -1      2300 1.04230E-04-3.25033E-05-3.07248E-05-3.30946E-06 4.25130E-19-2.06142E-18
 -1      2301 1.04901E-04-3.39238E-05-3.04325E-05-2.89849E-06-1.97548E-19-1.05711E-18
 -1      2302 1.03315E-04-3.18501E-05-3.06495E-05-3.79673E-06 6.78916E-19-1.73437E-18
 -1      2303 1.02596E-04-3.13118E-05-3.05385E-05-4.13981E-06 1.18060E-18-1.91822E-18
 -1      2304 1.02910E-04-3.22537E-05-3.02950E-05-4.32980E-06 9.14097E-19-1.71833E-18
 -1      2305 1.01846E-04-3.08129E-05-3.04530E-05-4.27986E-06 1.27657E-18-1.77617E-18
 -1      2306 1.01153E-04-3.03847E-05-3.03211E-05-4.34895E-06 8.34242E-19-1.90682E-18
 -1      2307 1.01228E-04-3.08962E-05-3.01538E-05-4.93128E-06 1.28611E-18-1.36220E-18
 -1      2308 1.00558E-04-3.00332E-05-3.02262E-05-4.26043E-06 2.11300E-19-1.74358E-18
 -1      2309 9.99261E-05-2.97128E-05-3.00861E-05-4.15237E-06-2.55841E-19-1.81712E-18
 -1      2310 9.98723E-05-2.99036E-05-2.99958E-05-4.94950E-06 4.37239E-19-1.77121E-18
 -1      2311 9.94580E-05-2.94798E-05-2.99867E-05-3.93206E-06-3.28461E-19-1.82658E-18
 -1      2312 9.89047E-05-2.92496E-05-2.98488E-05-3.72556E-06-1.72207E-19-1.82842E-18
 -1      2313 9.88025E-05-2.92324E-05-2.98229E-05-4.60425E-06-1.85042E-19-1.78897E-18
 -1      2314 9.85376E-05-2.91031E-05-2.97506E-05-3.44377E-06-1.80167E-19-1.67220E-18
 -1      2315 9.80670E-05-2.89426E-05-2.96226E-05-3.19548E-06 3.58916E-19-1.42962E-18
 -1      2316 9.79643E-05-2.88083E-05-2.96441E-05-4.06494E-06-1.10616E-19-1.40698E-18
 -1      2317 9.77790E-05-2.88555E-05-2.95304E-05-2.89903E-06 7.03259E-19-1.43671E-18
 -1      2318 9.73886E-05-2.87464E-05-2.94168E-05-2.64598E-06 8.26060E-19-9.21489E-19
 -1      2319 9.73088E-05-2.85591E-05-2.94690E-05-3.45030E-06 5.64522E-19-1.19178E-18
 -1      2320 9.71630E-05-2.86982E-05-2.93336E-05-2.36345E-06 7.70625E-19-3.46898E-19
 -1      2321 9.68461E-05-2.86259E-05-2.92363E-05-2.12750E-06 1.03799E-18-1.81204E-19
 -1      2322 9.67966E-05-2.84266E-05-2.93056E-05-2.83702E-06 1.12231E-18-8.07457E-19
 -1      2323 9.66700E-05-2.86023E-05-2.91640E-05-1.87437E-06 1.06000E-18-5.28496E-19
 -1      2324 9.64182E-05-2.85559E-05-2.90832E-05-1.66664E-06 1.17692E-18-3.49429E-19
 -1      2325 9.63974E-05-2.83679E-05-2.91591E-05-2.27012E-06 9.89483E-19 9.18161E-20
 -1      2326 9.62816E-05-2.85471E-05-2.90221E-05-1.44955E-06 1.02890E-18-2.42019E-19
 -1      2327 9.60854E-05-2.85185E-05-2.89568E-05-1.27409E-06 3.29494E-19-8.62554E-20
 -1      2328 9.60878E-05-2.83537E-05-2.90320E-05-1.77232E-06 9.65105E-19 5.74075E-19
 -1      2329 9.59805E-05-2.85183E-05-2.89064E-05-1.09411E-06-5.56081E-19-1.32284E-19
 -1      2330 9.58308E-05-2.85019E-05-2.88549E-05-9.50672E-07-8.51998E-19-6.13623E-19
 -1      2331 9.58497E-05-2.83643E-05-2.89250E-05-1.35154E-06-3.19000E-19 1.22171E-18
 -1      2332 9.57512E-05-2.85062E-05-2.88144E-05-8.05578E-07-7.42206E-19-6.88839E-19
 -1      2333 9.56393E-05-2.84978E-05-2.87746E-05-6.91497E-07-5.94198E-19 2.80186E-19
 -1      2334 9.56686E-05-2.83872E-05-2.88371E-05-1.00659E-06-4.82719E-19 9.75726E-19
 -1      2335 9.55798E-05-2.85042E-05-2.87428E-05-5.77382E-07-5.73449E-19 3.70362E-19
 -1      2336 9.54981E-05-2.85010E-05-2.87128E-05-4.88856E-07-8.74636E-20 7.26648E-19
 -1      2337 9.55326E-05-2.84148E-05-2.87666E-05-7.31093E-07-6.25423E-19 1.19409E-18
 -1      2338 9.54543E-05-2.85079E-05-2.86883E-05-4.01140E-07 3.69326E-20-3.37001E-21
 -1      2339 9.53962E-05-2.85079E-05-2.86662E-05-3.34031E-07 1.85056E-19-5.75459E-19
 -1      2340 9.54321E-05-2.84427E-05-2.87113E-05-5.16194E-07-4.15955E-19 4.41270E-19
 -1      2341 9.53647E-05-2.85146E-05-2.86477E-05-2.68105E-07 6.32337E-19-6.04554E-19
 -1      2342 9.53245E-05-2.85165E-05-2.86318E-05-2.18411E-07 1.07414E-18-5.15044E-19
 -1      2343 9.53593E-05-2.84685E-05-2.86687E-05-3.52274E-07 3.66062E-19-2.98894E-19
 -1      2344 9.53024E-05-2.85225E-05-2.86182E-05-1.69998E-07 6.59299E-19-9.39106E-19
 -1      2345 9.52758E-05-2.85253E-05-2.86072E-05-1.34103E-07-1.68829E-20-3.77464E-19
 -1      2346 9.53077E-05-2.84911E-05-2.86366E-05-2.30008E-07 5.09794E-19-1.01053E-18
 -1      2347 9.52607E-05-2.85305E-05-2.85974E-05-9.94370E-08-1.79783E-19 9.24799E-19
 -1      2348 9.52440E-05-2.85337E-05-2.85900E-05-7.42240E-08-2.22376E-19 1.34436E-18
 -1      2349 9.52721E-05-2.85100E-05-2.86131E-05-1.40936E-07 5.81624E-19 4.65987E-19
 -1      2350 9.52342E-05-2.85380E-05-2.85832E-05-5.01089E-08-8.84786E-19 1.50903E-18
 -1      2351 9.52246E-05-2.85413E-05-2.85785E-05-3.29785E-08-7.77517E-19 1.45477E-18
 -1      2352 9.52486E-05-2.85255E-05-2.85962E-05-7.77174E-08-2.07587E-19 1.33818E-18
 -1      2353 9.52186E-05-2.85448E-05-2.85739E-05-1.67848E-08-1.21473E-18 8.68638E-19
 -1      2354 9.52139E-05-2.85478E-05-2.85711E-05-5.63141E-09-1.33741E-18 1.68783E-19
 -1      2355 9.52338E-05-2.85379E-05-2.85844E-05-3.41976E-08-1.52641E-18 1.11580E-18
 -1      2356 9.52106E-05-2.85506E-05-2.85682E-05 4.74919E-09-6.74744E-19 6.94778E-20
 -1      2357 9.52093E-05-2.85533E-05-2.85668E-05 1.15881E-08-5.97587E-19 3.22859E-19
 -1      2358 9.52253E-05-2.85475E-05-2.85765E-05-5.35923E-09-1.15827E-18 1.51634E-18
 -1      2359 9.52079E-05-2.85555E-05-2.85651E-05 1.78048E-08-8.71768E-19 4.81260E-19
 -1      2360 9.52087E-05-2.85579E-05-2.85646E-05 2.16094E-08-8.14261E-19 1.07948E-18
 -1      2361 9.52211E-05-2.85548E-05-2.85715E-05 1.27848E-08-7.59222E-19 1.27612E-18
 -1      2362 9.52085E-05-2.85596E-05-2.85637E-05 2.49201E-08-2.61484E-19 1.28433E-18
 -1      2363 9.52105E-05-2.85616E-05-2.85638E-05 2.66486E-08 4.29868E-19 1.69887E-18
 -1      2364 9.52199E-05-2.85604E-05-2.85685E-05 2.33254E-08 1.30851E-19 1.84975E-18
 -1      2365 9.52111E-05-2.85629E-05-2.85635E-05 2.79847E-08 4.04829E-19 2.02485E-18
 -1      2366 9.52139E-05-2.85647E-05-2.85639E-05 2.83295E-08 1.63909E-18 2.51590E-18
 -1      2367 9.52206E-05-2.85645E-05-2.85670E-05 2.85962E-08 6.43376E-19 2.24914E-18
 -1      2368 9.52149E-05-2.85657E-05-2.85640E-05 2.83537E-08 1.98645E-18 1.99050E-18
 -1      2369 9.52180E-05-2.85672E-05-2.85646E-05 2.77883E-08 2.25970E-18 8.12266E-19
 -1      2370 9.52224E-05-2.85676E-05-2.85664E-05 3.03016E-08 1.03597E-18 1.54180E-18
 -1      2371 9.52193E-05-2.85681E-05-2.85648E-05 2.69457E-08 2.35666E-18-7.86311E-20
 -1      2372 9.52223E-05-2.85694E-05-2.85655E-05 2.57659E-08 1.84821E-18 5.44289E-19
 -1      2373 9.52249E-05-2.85701E-05-2.85664E-05 2.96316E-08 1.66904E-18 5.40538E-19
 -1      2374 9.52237E-05-2.85702E-05-2.85658E-05 2.43228E-08 2.49009E-18 2.38807E-19
 -1      2375 9.52266E-05-2.85715E-05-2.85665E-05 2.26796E-08 2.01809E-18 7.90231E-19
 -1      2376 9.52277E-05-2.85721E-05-2.85667E-05 2.73618E-08 2.21394E-18 1.42470E-18
 -1      2377 9.52281E-05-2.85723E-05-2.85668E-05 2.07752E-08-1.26042E-19 4.61515E-19
 -1      2378 9.52306E-05-2.85734E-05-2.85674E-05 1.87105E-08-5.44990E-19 9.64147E-20
 -1      2379 9.52307E-05-2.85740E-05-2.85672E-05 2.39319E-08 4.52582E-19-9.09944E-20
 -1      2380 1.11874E-04-3.51992E-05-3.29127E-05-5.88215E-06 1.77089E-19 2.17502E-19
 -1      2381 1.10535E-04-3.39784E-05-3.27662E-05-6.56693E-06 5.15155E-19 3.80225E-19
 -1      2382 1.14986E-04-3.79779E-05-3.30896E-05-3.00015E-06 1.94950E-20 1.37870E-19
 -1      2383 1.13763E-04-3.67002E-05-3.29852E-05-4.77004E-06-1.21688E-19 1.52810E-19
 -1      2384 1.11157E-04-3.62473E-05-3.21623E-05-6.80489E-06 1.52894E-19-1.58398E-19
 -1      2385 1.17877E-04-4.03520E-05-3.33244E-05 2.24685E-06 1.96088E-19 8.48380E-19
 -1      2386 1.17257E-04-3.95719E-05-3.32617E-05-5.22953E-07 6.93508E-20 5.01215E-19
 -1      2387 1.15507E-04-4.00728E-05-3.23833E-05-3.29443E-06-1.80623E-19 1.51256E-19
 -1      2388 1.19274E-04-4.05736E-05-3.38037E-05 8.87437E-06 5.63747E-19 1.34693E-18
 -1      2389 1.19850E-04-4.12135E-05-3.37136E-05 5.87522E-06 2.15980E-19 1.30236E-18
 -1      2390 1.19980E-04-4.30083E-05-3.30162E-05 2.96430E-06-1.89755E-20 7.35570E-19
 -1      2391 1.17737E-04-3.67063E-05-3.47355E-05 1.39167E-05 1.05475E-18 2.02459E-18
 -1      2392 1.19819E-04-3.94676E-05-3.45368E-05 1.23752E-05 7.70362E-19 1.77802E-18
 -1      2393 1.22681E-04-4.24934E-05-3.43692E-05 1.06131E-05 3.48064E-19 1.75255E-18
 -1      2394 1.13494E-04-2.93218E-05-3.60217E-05 1.29225E-05 1.84420E-18 1.76092E-18
 -1      2395 1.16198E-04-3.32782E-05-3.57337E-05 1.46042E-05 1.56946E-18 2.02092E-18
 -1      2396 1.21427E-04-3.61933E-05-3.65655E-05 1.56535E-05 1.42386E-18 2.32068E-18
 -1      2397 1.09725E-04-2.37784E-05-3.70101E-05 3.98460E-06 2.18905E-18 3.65329E-19
 -1      2398 1.11175E-04-2.59417E-05-3.68241E-05 8.47901E-06 2.28545E-18 1.04132E-18
 -1      2399 1.16784E-04-2.63187E-05-3.88036E-05 1.26924E-05 2.57424E-18 1.97925E-18
 -1      2400 1.11147E-04-2.52633E-05-3.69777E-05-8.41158E-06 2.71900E-18-1.64084E-18
 -1      2401 1.09856E-04-2.34268E-05-3.70753E-05-3.51285E-06 2.31375E-18-9.88382E-19
 -1      2402 1.13978E-04-2.10767E-05-3.98940E-05-1.89418E-08 3.23535E-18 4.68581E-19
 -1      2403 1.16021E-04-3.24497E-05-3.60336E-05-1.54546E-05 1.34106E-18-2.58608E-18
 -1      2404 1.13071E-04-2.84876E-05-3.62853E-05-1.33078E-05 2.32606E-18-2.27112E-18
 -1      2405 1.16518E-04-2.62067E-05-3.88581E-05-1.20743E-05 2.86672E-18-1.46572E-18
 -1      2406 1.20215E-04-3.91188E-05-3.48744E-05-1.40301E-05 7.06846E-19-3.12733E-18
 -1      2407 1.17953E-04-3.61221E-05-3.50427E-05-1.52103E-05 1.04219E-18-2.79338E-18
 -1      2408 1.21462E-04-3.56018E-05-3.68193E-05-1.69566E-05 1.43546E-18-3.04848E-18
 -1      2409 1.20988E-04-4.15763E-05-3.40427E-05-7.78700E-06 3.94449E-19-2.80093E-18
 -1      2410 1.20077E-04-4.06272E-05-3.41099E-05-1.07060E-05 1.69029E-19-2.93165E-18
 -1      2411 1.23110E-04-4.22074E-05-3.47227E-05-1.28698E-05 4.42270E-19-3.18766E-18
 -1      2412 1.18743E-04-4.03658E-05-3.35598E-05-9.68957E-07 6.45988E-19-2.50336E-18
 -1      2413 1.19128E-04-4.09490E-05-3.36083E-05-3.85733E-06 8.30264E-19-2.30846E-18
 -1      2414 1.21112E-04-4.35826E-05-3.32490E-05-4.89158E-06 2.86909E-19-2.78213E-18
 -1      2415 1.15236E-04-3.76563E-05-3.32163E-05 3.98542E-06-3.06245E-19-1.61401E-18
 -1      2416 1.16400E-04-3.88341E-05-3.33335E-05 1.95111E-06 1.88988E-19-1.95919E-18
 -1      2417 1.16717E-04-4.10249E-05-3.24878E-05 2.02441E-06 5.53582E-20-1.71903E-18
 -1      2418 1.11661E-04-3.49656E-05-3.28484E-05 6.69148E-06-9.82826E-19-1.24165E-18
 -1      2419 1.13136E-04-3.61381E-05-3.30590E-05 5.61298E-06-4.38115E-19-1.35749E-18
 -1      2420 1.12128E-04-3.73337E-05-3.21047E-05 6.45022E-06-6.58370E-19-1.03653E-18
 -1      2421 1.08501E-04-3.28692E-05-3.24021E-05 7.63703E-06-1.31659E-18-1.50734E-18
 -1      2422 1.10010E-04-3.38131E-05-3.26849E-05 7.29522E-06-9.54838E-19-1.20017E-18
 -1      2423 1.08285E-04-3.40992E-05-3.18312E-05 8.54518E-06-8.48644E-19-1.16629E-18
 -1      2424 1.05845E-04-3.14093E-05-3.18955E-05 7.47069E-06 1.54419E-19-1.43380E-18
 -1      2425 1.07252E-04-3.21035E-05-3.22125E-05 7.58906E-06-7.02177E-19-1.61920E-18
 -1      2426 1.05333E-04-3.17957E-05-3.15399E-05 9.00007E-06-6.86152E-19-9.14713E-19
 -1      2427 1.03648E-04-3.04426E-05-3.13706E-05 6.71831E-06 1.18480E-18-1.30494E-18
 -1      2428 1.04892E-04-3.09356E-05-3.16874E-05 7.07367E-06 4.84989E-19-1.60614E-18
 -1      2429 1.03106E-04-3.03342E-05-3.12023E-05 8.48492E-06 2.52081E-19-1.56072E-18
 -1      2430 1.01839E-04-2.98112E-05-3.08668E-05 5.73047E-06 8.10895E-19 4.49606E-19
 -1      2431 1.02902E-04-3.01590E-05-3.11600E-05 6.17471E-06 1.63560E-18 1.08745E-20
 -1      2432 1.01399E-04-2.94718E-05-3.08352E-05 7.49025E-06 7.14491E-19-1.71651E-19
 -1      2433 1.00358E-04-2.93956E-05-3.04101E-05 4.71293E-06-1.01280E-18 8.21814E-19
 -1      2434 1.01242E-04-2.96423E-05-3.06674E-05 5.16041E-06-1.43872E-19 9.23535E-19
 -1      2435 1.00060E-04-2.89870E-05-3.04663E-05 6.32928E-06 2.67472E-19 2.16607E-18
 -1      2436 9.91545E-05-2.91170E-05-3.00139E-05 3.77233E-06-1.15592E-18 1.91519E-19
 -1      2437 9.98743E-05-2.92934E-05-3.02309E-05 4.18000E-06-1.14074E-18 5.51458E-19
 -1      2438 9.89890E-05-2.87239E-05-3.01191E-05 5.18206E-06-6.49548E-19 2.20687E-18
 -1      2439 9.81882E-05-2.89267E-05-2.96813E-05 2.95439E-06-2.75258E-19-9.91047E-19
 -1      2440 9.87628E-05-2.90534E-05-2.98590E-05 3.30498E-06-8.37165E-19-8.03323E-19
 -1      2441 9.81266E-05-2.85857E-05-2.98083E-05 4.14015E-06-5.04828E-19 3.28842E-19
 -1      2442 9.74223E-05-2.87950E-05-2.94096E-05 2.27051E-06 2.09743E-19-1.53462E-18
 -1      2443 9.78729E-05-2.88860E-05-2.95517E-05 2.56097E-06-4.79202E-20-1.47237E-18
 -1      2444 9.74330E-05-2.85162E-05-2.95404E-05 3.24102E-06-1.11681E-19-3.51227E-19
 -1      2445 9.68239E-05-2.87037E-05-2.91924E-05 1.71440E-06 8.40367E-19-1.20668E-18
 -1      2446 9.71713E-05-2.87685E-05-2.93038E-05 1.94871E-06 4.97372E-19-1.52873E-18
 -1      2447 9.68794E-05-2.84842E-05-2.93164E-05 2.49144E-06 1.86364E-20-1.58557E-18
 -1      2448 9.63635E-05-2.86409E-05-2.90223E-05 1.27178E-06 3.23561E-19 1.25562E-20
 -1      2449 9.66268E-05-2.86863E-05-2.91079E-05 1.45693E-06 6.83974E-19-3.66130E-19
 -1      2450 9.64429E-05-2.84727E-05-2.91338E-05 1.88227E-06 1.25785E-20-6.40581E-19
 -1      2451 9.60151E-05-2.85986E-05-2.88913E-05 9.25771E-07 7.85077E-21 1.08000E-18
 -1      2452 9.62113E-05-2.86298E-05-2.89560E-05 1.06952E-06 2.49458E-19 5.37421E-19
 -1      2453 9.61035E-05-2.84725E-05-2.89879E-05 1.39720E-06-1.39813E-19 3.77121E-19
 -1      2454 9.57560E-05-2.85712E-05-2.87923E-05 6.59686E-07-1.02549E-18 7.88061E-19
 -1      2455 9.58994E-05-2.85918E-05-2.88402E-05 7.69501E-07 6.16872E-20 1.56736E-18
 -1      2456 9.58439E-05-2.84784E-05-2.88737E-05 1.01768E-06-7.79742E-19 9.98309E-19
 -1      2457 9.55672E-05-2.85545E-05-2.87187E-05 4.58299E-07 2.72886E-19-1.50154E-20
 -1      2458 9.56698E-05-2.85675E-05-2.87536E-05 5.40854E-07-9.14509E-19 6.19090E-19
 -1      2459 9.56488E-05-2.84874E-05-2.87857E-05 7.25524E-07-6.76797E-19 7.03570E-19
 -1      2460 9.54326E-05-2.85453E-05-2.86652E-05 3.08365E-07 1.21426E-18 5.40865E-19
 -1      2461 9.55041E-05-2.85529E-05-2.86900E-05 3.69392E-07 1.10951E-18 8.42784E-19
 -1      2462 9.55050E-05-2.84977E-05-2.87192E-05 5.04202E-07 3.67388E-19 6.83974E-19
 -1      2463 9.53392E-05-2.85412E-05-2.86271E-05 1.98699E-07 3.76278E-19 6.09217E-19
 -1      2464 9.53876E-05-2.85451E-05-2.86443E-05 2.42990E-07 1.19319E-18 7.72517E-19
 -1      2465 9.54012E-05-2.85083E-05-2.86698E-05 3.39287E-07 1.27408E-18 2.39589E-18
 -1      2466 9.52767E-05-2.85406E-05-2.86007E-05 1.20075E-07-4.19973E-19 1.86175E-18
 -1      2467 9.53080E-05-2.85419E-05-2.86122E-05 1.51549E-07-1.85043E-19 9.78648E-19
 -1      2468 9.53283E-05-2.85184E-05-2.86339E-05 2.18580E-07-2.61111E-20 1.67574E-18
 -1      2469 9.52367E-05-2.85422E-05-2.85830E-05 6.50171E-08-6.30483E-19 1.83552E-18
 -1      2470 9.52557E-05-2.85419E-05-2.85903E-05 8.68252E-08-4.12732E-19 2.09243E-18
 -1      2471 9.52786E-05-2.85278E-05-2.86084E-05 1.31990E-07-6.08787E-19 2.60599E-18
 -1      2472 9.52129E-05-2.85450E-05-2.85717E-05 2.75610E-08-9.75781E-19 1.34892E-18
 -1      2473 9.52233E-05-2.85437E-05-2.85761E-05 4.22007E-08-3.71938E-19 1.96118E-18
 -1      2474 9.52462E-05-2.85361E-05-2.85907E-05 7.13249E-08-7.20056E-19 2.02458E-18
 -1      2475 9.52004E-05-2.85484E-05-2.85649E-05 3.01987E-09-1.76668E-18 1.56141E-18
 -1      2476 9.52050E-05-2.85466E-05-2.85673E-05 1.24413E-08-2.08629E-18 1.65969E-18
 -1      2477 9.52263E-05-2.85433E-05-2.85789E-05 3.00384E-08-1.25135E-18 1.35696E-18
 -1      2478 9.51957E-05-2.85520E-05-2.85614E-05-1.22341E-08-1.77935E-18 2.81092E-18
 -1      2479 9.51963E-05-2.85500E-05-2.85623E-05-6.53160E-09-1.34637E-18 2.18723E-18
 -1      2480 9.52153E-05-2.85494E-05-2.85714E-05 2.97894E-09-2.03403E-18 3.03761E-18
 -1      2481 9.51960E-05-2.85555E-05-2.85601E-05-2.09616E-08-6.96630E-20 1.65901E-18
 -1      2482 9.51942E-05-2.85534E-05-2.85601E-05-1.78455E-08-1.45860E-18 1.71670E-18
 -1      2483 9.52104E-05-2.85546E-05-2.85670E-05-1.38434E-08-1.24861E-18 1.67746E-18
 -1      2484 9.51993E-05-2.85588E-05-2.85602E-05-2.52206E-08 9.05844E-19 2.12493E-18
 -1      2485 9.51961E-05-2.85568E-05-2.85596E-05-2.38545E-08 9.22300E-19 2.20754E-18
 -1      2486 9.52095E-05-2.85588E-05-2.85647E-05-2.34642E-08-5.83369E-20 6.23014E-19
 -1      2487 9.52045E-05-2.85618E-05-2.85611E-05-2.65035E-08 6.26792E-19 2.15734E-18
 -1      2488 9.52005E-05-2.85599E-05-2.85602E-05-2.62889E-08 1.14207E-18 2.90910E-18
 -1      2489 9.52112E-05-2.85623E-05-2.85639E-05-2.81438E-08 5.89908E-19 1.53115E-18
 -1      2490 9.52103E-05-2.85644E-05-2.85625E-05-2.58467E-08 1.96439E-18 9.38811E-19
 -1      2491 9.52062E-05-2.85628E-05-2.85615E-05-2.63776E-08 1.63414E-18 1.21887E-18
 -1      2492 9.52143E-05-2.85651E-05-2.85640E-05-2.95172E-08 1.72159E-18 1.71552E-18
 -1      2493 9.52164E-05-2.85669E-05-2.85641E-05-2.39189E-08 1.92353E-18 9.77943E-19
 -1      2494 9.52124E-05-2.85654E-05-2.85630E-05-2.49475E-08 1.27220E-18 6.74561E-19
 -1      2495 9.52183E-05-2.85675E-05-2.85646E-05-2.87164E-08 1.74133E-18 9.22136E-19
 -1      2496 9.52222E-05-2.85691E-05-2.85656E-05-2.10787E-08 1.53671E-18 2.09599E-18
 -1      2497 9.52185E-05-2.85678E-05-2.85647E-05-2.25023E-08 2.00967E-18 2.20539E-18
 -1      2498 9.52225E-05-2.85696E-05-2.85655E-05-2.64877E-08 1.16324E-18 2.05127E-18
 -1      2499 9.52275E-05-2.85713E-05-2.85670E-05-1.74729E-08 2.19197E-19 3.21205E-18
 -1      2500 9.52242E-05-2.85700E-05-2.85662E-05-1.92680E-08 5.45551E-19 2.35269E-18
 -1      2501 9.52267E-05-2.85716E-05-2.85665E-05-2.32469E-08 5.58108E-19 4.46904E-18
 -1      2502 9.52321E-05-2.85733E-05-2.85681E-05-1.31542E-08-4.84827E-19 2.71352E-18
 -1      2503 9.52294E-05-2.85721E-05-2.85675E-05-1.52913E-08 1.49167E-19 3.01454E-18
 -1      2504 9.52307E-05-2.85736E-05-2.85673E-05-1.90960E-08 3.91967E-19 4.20540E-18
 -1      2505 9.52339E-05-2.85741E-05-2.85685E-05-1.04064E-08-5.51707E-19 1.93208E-18
 -1      2506 9.52466E-05-2.85918E-05-2.85663E-05-1.38405E-08 7.09026E-19-2.31365E-18
 -1      2507 9.52452E-05-2.85898E-05-2.85666E-05-1.53191E-08 5.41192E-19-3.19836E-18
 -1      2508 9.52486E-05-2.85947E-05-2.85659E-05-9.54336E-09 1.77982E-18-3.47794E-19
 -1      2509 9.52476E-05-2.85933E-05-2.85661E-05-1.16826E-08 1.45657E-18-4.31960E-19
 -1      2510 9.52478E-05-2.85910E-05-2.85672E-05-1.43597E-08 1.98193E-18-6.93811E-19
 -1      2511 9.52402E-05-2.85832E-05-2.85672E-05-1.73665E-08 1.55721E-18 1.82877E-18
 -1      2512 9.52382E-05-2.85806E-05-2.85676E-05-1.68844E-08 1.05293E-18 1.59383E-18
 -1      2513 9.52437E-05-2.85878E-05-2.85667E-05-1.65850E-08 1.48652E-19-1.27454E-18
 -1      2514 9.52420E-05-2.85855E-05-2.85671E-05-1.71144E-08 7.98733E-19 9.85206E-19
 -1      2515 9.52410E-05-2.85834E-05-2.85676E-05-1.95559E-08 1.27327E-18 7.47330E-19
 -1      2516 9.52447E-05-2.85876E-05-2.85674E-05-1.80325E-08 8.11040E-19-2.20950E-18
 -1      2517 9.52497E-05-2.85964E-05-2.85657E-05-4.27234E-09 3.22070E-19 2.86437E-21
 -1      2518 9.52492E-05-2.85956E-05-2.85658E-05-6.80736E-09 1.08055E-18-1.12117E-18
 -1      2519 9.52499E-05-2.85934E-05-2.85671E-05-9.18313E-09 1.92941E-18-1.61723E-18
 -1      2520 9.52499E-05-2.85967E-05-2.85656E-05 1.41300E-09-9.66505E-19 9.84804E-19
 -1      2521 9.52499E-05-2.85967E-05-2.85656E-05-1.24945E-09-1.05721E-18 3.47468E-19
 -1      2522 9.52509E-05-2.85947E-05-2.85670E-05-3.09646E-09 7.15260E-19-1.28765E-18
 -1      2523 9.52492E-05-2.85956E-05-2.85658E-05 6.95134E-09-2.03640E-19 1.40045E-18
 -1      2524 9.52497E-05-2.85963E-05-2.85657E-05 4.42892E-09-7.25614E-19 1.88855E-18
 -1      2525 9.52509E-05-2.85946E-05-2.85670E-05 3.28339E-09-5.00530E-19 1.87805E-18
 -1      2526 9.52476E-05-2.85932E-05-2.85661E-05 1.17115E-08-3.19038E-19-1.00303E-19
 -1      2527 9.52485E-05-2.85947E-05-2.85659E-05 9.62450E-09-4.53244E-19 3.24006E-19
 -1      2528 9.52498E-05-2.85934E-05-2.85671E-05 9.29372E-09 1.45753E-19 8.92509E-19
 -1      2529 9.52451E-05-2.85897E-05-2.85666E-05 1.53217E-08 6.76899E-20 1.49876E-18
 -1      2530 9.52465E-05-2.85918E-05-2.85663E-05 1.38548E-08-4.10846E-19 1.12082E-19
 -1      2531 9.52477E-05-2.85910E-05-2.85672E-05 1.43859E-08 3.69585E-19-2.74846E-19
 -1      2532 9.52419E-05-2.85854E-05-2.85671E-05 1.70980E-08-3.73609E-19-1.31502E-18
 -1      2533 9.52436E-05-2.85878E-05-2.85668E-05 1.65817E-08-6.15230E-19 5.60229E-19
 -1      2534 9.52446E-05-2.85875E-05-2.85674E-05 1.80359E-08-1.10829E-18 7.03504E-19
 -1      2535 9.52382E-05-2.85805E-05-2.85676E-05 1.67287E-08-5.77488E-19-4.95544E-18
 -1      2536 9.52401E-05-2.85831E-05-2.85673E-05 1.73217E-08-5.40665E-19-4.17574E-18
 -1      2537 9.52409E-05-2.85832E-05-2.85676E-05 1.94964E-08-1.13244E-18-2.71031E-18
 -1      2538 2.46302E-05-2.07913E-05-1.50568E-06 1.92616E-05-1.04725E-18 5.02883E-18
 -1      2539 1.86009E-05-1.87390E-05 3.15480E-07 4.35265E-06-7.08172E-19 5.76194E-18
 -1      2540 1.00861E-04-5.47357E-05-1.98455E-05 3.87324E-05-9.31736E-19 1.15298E-18
 -1      2541 7.93937E-05-4.68675E-05-1.35932E-05 3.95801E-05-1.78195E-18 2.31595E-18
 -1      2542 1.09213E-04-3.28313E-05-3.27510E-05-6.54467E-06 8.14995E-19 3.02636E-19
 -1      2543 1.08081E-04-3.18433E-05-3.26196E-05-6.30048E-06 1.07546E-18 5.80807E-19
 -1      2544 1.07808E-04-3.29276E-05-3.21406E-05-7.73307E-06 8.52555E-19-9.97315E-20
 -1      2545 9.52356E-05-2.85767E-05-2.85681E-05 1.27643E-08 7.02082E-19-1.98737E-18
 -1      2546 1.91145E-05-1.85500E-05 4.17067E-08-9.04893E-06 3.43842E-20 6.24941E-18
 -1      2547 2.46470E-05-2.12923E-05-1.23474E-06-2.23802E-05 1.49713E-19 6.43004E-18
 -1      2548 5.60810E-05-3.60359E-05-8.56168E-06 3.95865E-05-1.54880E-18 4.52167E-18
 -1      2549 3.98631E-05-2.82656E-05-4.58413E-06 3.06945E-05-2.08900E-18 5.32953E-18
 -1      2550 1.01256E-04-2.22229E-05-3.39093E-05-7.06285E-06-2.48112E-18-4.69627E-19
 -1      2551 1.02520E-04-2.59406E-05-3.28555E-05-3.49232E-06-2.31448E-18-2.07502E-19
 -1      2552 1.01169E-04-2.49641E-05-3.26456E-05-2.71288E-06-2.12799E-18-7.44702E-19
 -1      2553 9.80993E-05-1.93674E-05-3.37541E-05-6.29532E-06-2.44037E-18-1.23450E-18
 -1      2554 3.80686E-05-2.78117E-05-4.05180E-06-3.26072E-05 1.39591E-18 5.17982E-18
 -1      2555 5.22879E-05-3.43505E-05-7.44163E-06-4.08370E-05 1.19516E-18 4.29594E-18
 -1      2556 1.42445E-04-1.53588E-05-5.51247E-05-6.43063E-06-5.46569E-18-4.52527E-19
 -1      2557 1.47404E-04-2.39187E-05-5.31128E-05-5.07317E-06-4.75270E-18-8.59527E-19
 -1      2558 1.18043E-04-5.64748E-05-2.65748E-05 3.34839E-05-1.16933E-18-6.14205E-19
 -1      2559 1.00586E-04-5.33413E-05-2.01256E-05 3.88377E-05-7.58094E-20-1.71365E-18
 -1      2560 1.25415E-04-5.90901E-05-2.84609E-05-2.68400E-05 8.10187E-19-1.96512E-18
 -1      2561 1.38600E-04-5.84248E-05-3.48122E-05-1.82759E-05 1.45414E-18-8.89173E-19
 -1      2562 7.75934E-05-5.32568E-06-3.10118E-05 1.82067E-06 1.26224E-19-3.72235E-18
 -1      2563 7.88319E-05-6.04396E-06-3.11941E-05 1.49491E-06-1.62862E-19-3.65073E-18
 -1      2564 8.04385E-05-8.26538E-06-3.09324E-05 2.08523E-06-1.64052E-19-3.41039E-18
 -1      2565 7.76176E-05-6.24421E-06-3.05790E-05 2.24734E-06 2.13879E-19-3.57461E-18
 -1      2566 1.44353E-04-1.29375E-05-5.69919E-05-3.32639E-06 6.75170E-18-1.68292E-18
 -1      2567 1.44525E-04-1.74574E-05-5.50070E-05-8.70437E-06 6.62295E-18-2.15093E-18
 -1      2568 1.46196E-04-5.22872E-05-4.04090E-05-4.45320E-06 2.21046E-18-1.82747E-19
 -1      2569 1.50766E-04-4.47521E-05-4.59880E-05 1.65328E-06 2.99850E-18 1.35314E-19
 -1      2570 1.44655E-04-1.60301E-05-5.56104E-05 6.57556E-06 5.85427E-18-3.60307E-19
 -1      2571 1.43683E-04-1.28113E-05-5.66084E-05 1.78004E-06 6.36312E-18-7.74201E-19
 -1      2572 2.16854E-05-1.92664E-05-7.86067E-07-1.30632E-05-4.18646E-19-6.62464E-18
 -1      2573 3.15552E-05-2.32026E-05-3.34028E-06-2.65595E-05-3.41778E-19-6.07471E-18
 -1      2574 1.49180E-04-3.33814E-05-5.00459E-05 7.84830E-06 3.94675E-18 2.44369E-19
 -1      2575 1.47480E-04-2.37008E-05-5.37986E-05 8.53847E-06 4.94498E-18-4.59515E-20
 -1      2576 9.49917E-05-5.25631E-05-1.80971E-05-3.91999E-05-4.72856E-19-3.99835E-18
 -1      2577 1.12310E-04-5.67476E-05-2.38195E-05-3.60207E-05 3.03026E-19-3.40677E-18
 -1      2578 1.23404E-04-6.04921E-05-2.67417E-05-2.67832E-05-8.38563E-19-1.37442E-18
 -1      2579 1.92007E-05-1.81005E-05-3.67953E-07 1.33177E-05 1.20702E-19-6.75382E-18
 -1      2580 1.73434E-05-1.75649E-05 2.41645E-07-3.70293E-07 2.35078E-19-6.88299E-18
 -1      2581 4.53357E-05-2.96014E-05-6.68629E-06 3.81642E-05 8.85573E-19-5.54828E-18
 -1      2582 2.94898E-05-2.29300E-05-2.50397E-06 2.59046E-05 8.36551E-19-6.49251E-18
 -1      2583 8.22392E-05-4.65419E-05-1.52946E-05 4.46274E-05 3.48131E-19-2.93963E-18
 -1      2584 6.67166E-05-4.00149E-05-1.10162E-05 4.23957E-05 1.03063E-18-3.92483E-18
 -1      2585 1.39365E-04-1.04332E-05-5.57549E-05 3.70340E-06-5.31301E-18-2.07555E-18
 -1      2586 1.37805E-04-9.30011E-06-5.57365E-05-7.29732E-07-5.50317E-18-1.16107E-18
 -1      2587 1.50025E-04-3.25793E-05-5.06503E-05-8.98309E-07-4.14729E-18-9.20725E-19
 -1      2588 1.47015E-04-3.97167E-05-4.62223E-05 2.70643E-06-3.78941E-18-7.42848E-19
 -1      2589 1.31525E-04-5.48322E-05-3.29684E-05-2.14078E-05-9.53759E-19-7.53224E-19
 -1      2590 1.41220E-04-5.15435E-05-3.88126E-05-1.45927E-05-1.83965E-18-1.39676E-18
 -1      2591 1.44260E-04-2.29813E-05-5.23279E-05 7.40929E-06-4.55619E-18-3.19586E-18
 -1      2592 1.42885E-04-1.66628E-05-5.47523E-05 6.49091E-06-5.07775E-18-3.08765E-18
 -1      2593 1.45422E-04-4.33795E-05-4.38613E-05-4.15933E-06-3.02227E-18-2.78886E-18
 -1      2594 1.47367E-04-3.45041E-05-4.89898E-05 3.48489E-06-4.02679E-18-3.64139E-18
 -1      2595 1.41718E-04-4.96608E-05-3.93911E-05-2.26232E-06-1.71053E-18-3.20115E-18
 -1      2596 1.03855E-04-5.40409E-05-2.13538E-05-3.73860E-05 8.15269E-20 6.21087E-19
 -1      2597 1.19845E-04-5.56654E-05-2.76902E-05-3.30175E-05-3.59142E-19-1.85077E-19
 -1      2598 6.73991E-05-4.30392E-05-1.03903E-05-4.26005E-05 1.07848E-18 2.97976E-18
 -1      2599 8.54974E-05-4.84799E-05-1.58961E-05-4.39727E-05 5.48454E-19 1.88285E-18
 -1      2600 1.49221E-04-5.00003E-05-4.30181E-05 2.56455E-06 3.20373E-18-1.39570E-18
 -1      2601 1.42859E-04-5.53792E-05-3.76439E-05 9.60494E-06 2.42114E-18-7.81600E-19
 -1      2602 1.06097E-04-2.78325E-05-3.35460E-05 1.43372E-06 2.37630E-18 1.50145E-18
 -1      2603 1.06318E-04-2.63340E-05-3.42926E-05 4.74094E-06 2.61866E-18 1.82340E-18
 -1      2604 1.03659E-04-2.34478E-05-3.44313E-05 5.43653E-06 2.81200E-18 9.08972E-19
 -1      2605 1.03924E-04-2.62030E-05-3.33459E-05 4.34551E-07 2.40733E-18 4.71791E-19
 -1      2606 8.89996E-05-1.41517E-05-3.20872E-05-5.73352E-07-1.20875E-18-2.87112E-18
 -1      2607 8.88173E-05-1.27023E-05-3.26816E-05-2.11923E-06-1.40019E-18-2.94963E-18
 -1      2608 9.11683E-05-1.41874E-05-3.30379E-05-3.36368E-06-1.74028E-18-2.65268E-18
 -1      2609 1.14534E-04-5.85494E-05-2.38470E-05 2.96063E-05-1.53461E-18-7.67624E-20
 -1      2610 1.39376E-04-5.94427E-05-3.41828E-05 9.92049E-06 4.35004E-19-1.21994E-18
 -1      2611 1.00018E-04-2.03683E-05-3.41862E-05 4.75383E-06 2.69775E-18-2.10647E-19
 -1      2612 1.28740E-04-5.83733E-05-3.00350E-05-2.26077E-05 3.48448E-19-1.58903E-18
 -1      2613 1.41254E-04-2.80294E-05-4.86952E-05-8.37900E-06-3.89169E-18 1.80630E-19
 -1      2614 3.94207E-05-2.24047E-05-6.76190E-06-2.80649E-05 1.72541E-18 5.01062E-18
 -1      2615 1.45464E-04-4.59585E-05-4.27561E-05-7.95122E-06 3.05567E-18-3.25218E-18
 -1      2616 1.31377E-04-1.25502E-05-5.12484E-05 7.07551E-06-4.58499E-18-2.13124E-18
 -1      2617 9.78373E-05-5.13817E-05-1.96145E-05 3.91268E-05 1.35250E-18-1.50594E-18
 -1      2618 6.02618E-05-3.33651E-05-1.10152E-05 3.92218E-05 1.88317E-18-4.47445E-18
 -1      2619 9.52344E-05-2.85756E-05-2.85681E-05-1.39099E-08-4.00211E-19 3.33230E-18
 -1      2620 9.52356E-05-2.85775E-05-2.85678E-05-1.53980E-08 5.65841E-19 2.91987E-18
 -1      2621 8.77322E-05-4.90974E-05-1.62783E-05-4.05536E-05-1.09670E-18-4.38392E-18
 -1      2622 1.01644E-04-5.35834E-05-2.07906E-05-3.61153E-05-1.92753E-18-2.85559E-18
 -1      2623 7.91640E-05-4.27759E-05-1.50273E-05-4.02725E-05-1.80503E-18-4.02912E-18
 -1      2624 2.55736E-05-1.52069E-05-3.87342E-06-2.58602E-06-4.35666E-19 5.64547E-18
 -1      2625 3.88115E-05-2.24264E-05-6.45702E-06 2.48218E-05-1.78660E-18 5.09617E-18
 -1      2626 7.55309E-05-4.13743E-05-1.40878E-05 3.79510E-05-2.59616E-18 2.48848E-18
 -1      2627 1.44589E-04-4.00241E-05-4.49467E-05 1.03710E-05 2.75476E-18 1.00373E-18
 -1      2628 2.58045E-05-1.50939E-05-4.05645E-06-7.17846E-06-2.04347E-20-6.65683E-18
 -1      2629 1.05586E-04-3.03732E-05-3.22712E-05-6.57255E-06 1.32295E-18-6.02254E-20
 -1      2630 1.37481E-04-2.02388E-05-5.03774E-05 1.14744E-05 4.65868E-18 7.14261E-19
 -1      2631 6.74101E-05-3.88916E-05-1.19123E-05-4.10102E-05 2.34522E-18 2.64973E-18
 -1      2632 1.33766E-04-1.15830E-05-5.28015E-05-4.80699E-06-5.13175E-18-8.48621E-19
 -1      2633 1.27360E-04-1.48327E-05-4.87111E-05-8.07090E-06-4.57948E-18-1.62313E-19
 -1      2634 1.22718E-04-9.26067E-06-4.91297E-05-2.63148E-06-4.64576E-18-1.04254E-18
 -1      2635 1.27818E-04-5.77373E-05-2.99323E-05 2.51258E-05-1.26113E-18 2.16417E-19
 -1      2636 1.23121E-04-5.85004E-05-2.74160E-05 2.64287E-05 5.15949E-19 8.84249E-19
 -1      2637 1.33916E-04-5.75443E-05-3.32758E-05 1.53073E-05-8.69850E-19 1.18426E-18
 -1      2638 9.55242E-05-1.75380E-05-3.34611E-05-5.03836E-06-2.21889E-18-1.93860E-18
 -1      2639 1.41961E-04-5.71824E-05-3.63177E-05-6.53276E-06 8.63497E-19 4.66503E-19
 -1      2640 4.37360E-05-2.75069E-05-6.49646E-06-3.24164E-05-7.29295E-19-5.64929E-18
 -1      2641 5.68804E-05-3.16485E-05-1.06151E-05-3.63159E-05-1.49215E-18-4.88230E-18
 -1      2642 4.11244E-05-2.08262E-05-8.13437E-06-2.68466E-05-7.82658E-19-5.59783E-18
 -1      2643 1.34074E-04-1.24429E-05-5.22577E-05-1.46929E-06 5.79815E-18-6.76230E-19
 -1      2644 3.10887E-05-1.79071E-05-5.07196E-06 2.02803E-05 1.06641E-18-6.49124E-18
 -1      2645 1.45168E-04-4.67021E-05-4.23206E-05 4.31214E-06-2.83100E-18-2.21287E-19
 -1      2646 1.40134E-04-5.14198E-05-3.79889E-05 6.10747E-06-1.83366E-18 6.95838E-19
 -1      2647 1.41689E-04-4.31034E-05-4.27133E-05-4.17328E-06-2.22600E-18 5.45913E-19
 -1      2648 1.39755E-04-2.99664E-05-4.72621E-05 9.10322E-06-3.82817E-18-3.26023E-18
 -1      2649 9.52334E-05-2.85749E-05-2.85680E-05 1.48926E-08 6.97296E-19-1.01000E-18
 -1      2650 9.52363E-05-2.85782E-05-2.85677E-05 1.63967E-08-1.63048E-20-3.22909E-18
 -1      2651 9.52363E-05-2.85785E-05-2.85676E-05 1.91945E-08-6.75189E-19-3.17816E-18
 -1      2652 9.52315E-05-2.85740E-05-2.85675E-05 1.71410E-08-1.37423E-19 1.18713E-19
 -1      2653 1.00728E-04-5.36572E-05-1.99268E-05-3.87522E-05 1.72287E-18 5.22990E-19
 -1      2654 9.93817E-05-2.12492E-05-3.34472E-05 2.24018E-06 2.44320E-18-4.35375E-19
 -1      2655 9.52355E-05-2.85778E-05-2.85676E-05-1.84534E-08 1.20902E-18 2.65268E-18
 -1      2656 9.52331E-05-2.85756E-05-2.85675E-05 2.02771E-08-9.02202E-19-1.20255E-18
 -1      2657 1.36303E-04-1.93960E-05-5.02264E-05-1.22841E-05 5.67491E-18-3.01671E-18
 -1      2658 1.46016E-04-2.48574E-05-5.23210E-05-1.07413E-05 6.04909E-18-2.87610E-18
 -1      2659 7.76066E-05-7.04878E-06-3.02506E-05 3.43040E-07 1.06455E-18-3.35007E-18
 -1      2660 7.66179E-05-6.47904E-06-3.00832E-05 7.73578E-07 8.25256E-19-3.41176E-18
 -1      2661 7.61942E-05-6.27231E-06-2.99936E-05 1.72406E-06 7.21111E-19-3.51294E-18
 -1      2662 7.63461E-05-6.41570E-06-2.99747E-05 2.14023E-06 5.00203E-19-3.41897E-18
 -1      2663 7.64499E-05-7.43229E-06-2.95398E-05 1.15118E-06 7.24651E-19-3.39271E-18
 -1      2664 8.68488E-05-1.32592E-05-3.15436E-05-1.03692E-06 1.79562E-18-2.30589E-18
 -1      2665 8.39455E-05-1.13584E-05-3.11555E-05-1.14967E-06 1.60133E-18-2.58820E-18
 -1      2666 9.35567E-05-1.81028E-05-3.23445E-05-6.77445E-07 2.12893E-18-1.62273E-18
 -1      2667 9.01350E-05-1.56597E-05-3.19561E-05-1.03681E-06 1.93080E-18-1.95152E-18
 -1      2668 8.90957E-05-1.60818E-05-3.12787E-05-2.71505E-06 1.67516E-18-1.96312E-18
 -1      2669 9.52381E-05-2.85799E-05-2.85678E-05-2.21037E-08 7.72245E-19 1.67789E-18
 -1      2670 9.52347E-05-2.85769E-05-2.85677E-05-2.07280E-08 7.28664E-19 2.49298E-18
 -1      2671 9.52329E-05-2.85758E-05-2.85674E-05-2.30633E-08-1.49710E-19 3.47673E-18
 -1      2672 1.01986E-04-2.68364E-05-3.22066E-05-4.81270E-06 1.74692E-18-4.66930E-19
 -1      2673 1.01523E-04-2.55918E-05-3.24999E-05-2.82650E-06 1.93999E-18-3.17359E-19
 -1      2674 1.40622E-04-3.17665E-05-4.70766E-05-1.42853E-05 4.47276E-18-3.83939E-18
 -1      2675 1.34208E-04-3.18964E-05-4.47077E-05-1.71178E-05 3.82075E-18-3.50947E-18
 -1      2676 1.37287E-04-3.59280E-05-4.38392E-05-1.70178E-05 3.43101E-18-3.86332E-18
 -1      2677 1.39892E-04-4.36169E-05-4.18892E-05-1.26814E-05 2.64417E-18-4.46820E-18
 -1      2678 1.42028E-04-5.30293E-05-3.82925E-05-5.68134E-06 1.33397E-18-3.77120E-18
 -1      2679 1.35368E-04-4.28198E-05-3.98125E-05-1.44868E-05 2.19117E-18-3.74399E-18
 -1      2680 1.02843E-04-2.99059E-05-3.12038E-05 2.14647E-06-1.13348E-18-7.55795E-19
 -1      2681 1.03567E-04-3.13276E-05-3.09886E-05 2.56390E-06-9.51895E-19-7.72823E-19
 -1      2682 1.04946E-04-3.29131E-05-3.08115E-05 2.66754E-06-8.20722E-19-6.38882E-19
 -1      2683 1.05849E-04-3.42741E-05-3.07126E-05 2.24749E-06-6.13442E-19-7.14855E-19
 -1      2684 1.03411E-04-3.18833E-05-3.06957E-05 3.42700E-06-8.74087E-19-9.77092E-19
 -1      2685 1.07529E-04-3.58026E-05-3.06828E-05 1.47093E-06-3.92495E-19-4.23483E-19
 -1      2686 1.08451E-04-3.69235E-05-3.07025E-05 2.76109E-07-3.14149E-19-3.54061E-19
 -1      2687 1.06494E-04-3.55043E-05-3.04712E-05 2.96924E-06-4.85657E-19-7.68787E-19
 -1      2688 1.10220E-04-3.80940E-05-3.08681E-05-1.41464E-06-3.23431E-19-1.50853E-19
 -1      2689 1.10827E-04-3.85173E-05-3.10344E-05-3.18401E-06-3.19805E-19-8.08681E-20
 -1      2690 1.10013E-04-3.86719E-05-3.06114E-05 6.72259E-07-3.17617E-19-3.02655E-19
 -1      2691 1.12138E-04-3.87137E-05-3.14595E-05-5.54001E-06-4.50211E-19-1.21869E-20
 -1      2692 1.12016E-04-3.78386E-05-3.18040E-05-7.35846E-06-6.47547E-19 1.09433E-19
 -1      2693 1.13218E-04-4.03050E-05-3.12483E-05-3.37314E-06-4.69855E-19-8.98527E-20
 -1      2694 1.12113E-04-3.63926E-05-3.25178E-05-9.52777E-06-8.36870E-19 7.89068E-20
 -1      2695 1.11067E-04-3.39516E-05-3.30143E-05-1.04701E-05-1.08100E-18 1.58347E-20
 -1      2696 1.14762E-04-3.87916E-05-3.25126E-05-8.20242E-06-6.73870E-19 1.73443E-20
 -1      2697 1.09583E-04-3.08137E-05-3.38939E-05-1.09779E-05-1.32128E-18-2.24398E-20
 -1      2698 1.07984E-04-2.75469E-05-3.44121E-05-9.97553E-06-1.48990E-18 7.97998E-20
 -1      2699 1.13398E-04-3.32470E-05-3.43105E-05-1.14588E-05-1.19767E-18 5.48963E-19
 -1      2700 1.05972E-04-2.42812E-05-3.51498E-05-7.72611E-06-1.53889E-18-1.16915E-19
 -1      2701 1.04709E-04-2.19511E-05-3.54709E-05-4.74067E-06-1.54895E-18-2.16433E-19
 -1      2702 1.09844E-04-2.57516E-05-3.60828E-05-9.90870E-06-1.55317E-18 4.27123E-19
 -1      2703 1.04100E-04-2.08830E-05-3.56850E-05-3.93647E-08-1.91700E-18-5.10122E-19
 -1      2704 1.04345E-04-2.13290E-05-3.56367E-05 3.58348E-06-2.09142E-18-9.18607E-19
 -1      2705 1.06639E-04-1.98474E-05-3.72633E-05-2.65740E-06-2.02426E-18-3.61969E-19
 -1      2706 1.05407E-04-2.30641E-05-3.52668E-05 7.70870E-06-1.73636E-18-1.09292E-18
 -1      2707 1.06884E-04-2.58313E-05-3.48800E-05 1.03182E-05-1.37544E-18-1.15886E-18
 -1      2708 1.07251E-04-2.10286E-05-3.70439E-05 6.15623E-06-2.10550E-18-9.19276E-19
 -1      2709 1.08947E-04-2.93936E-05-3.40396E-05 1.17914E-05-1.18654E-18-1.37299E-18
 -1      2710 1.10518E-04-3.26205E-05-3.35040E-05 1.21469E-05-9.35309E-19-1.29868E-18
 -1      2711 1.10754E-04-2.75243E-05-3.56776E-05 1.21420E-05-1.30258E-18-7.16841E-19
 -1      2712 1.11553E-04-3.53970E-05-3.26201E-05 1.09927E-05-8.62710E-19-1.07410E-18
 -1      2713 1.12389E-04-3.75151E-05-3.21399E-05 9.63002E-06-6.65821E-19-8.28154E-19
 -1      2714 1.13947E-04-3.51859E-05-3.37073E-05 1.20048E-05-8.64172E-19-8.18244E-19
 -1      2715 1.11884E-04-3.85576E-05-3.14557E-05 7.16872E-06-7.11518E-19-9.77242E-19
 -1      2716 1.11757E-04-3.91334E-05-3.11204E-05 5.12549E-06-3.99408E-19-8.64349E-19
 -1      2717 1.14425E-04-3.98209E-05-3.19444E-05 7.84784E-06-7.54223E-19-8.59739E-19
 -1      2718 1.10222E-04-3.87224E-05-3.06905E-05 2.67195E-06-3.91260E-19-8.79233E-19
 -1      2719 1.09419E-04-3.81961E-05-3.04911E-05 7.44853E-07-2.91347E-19-9.46046E-19
 -1      2720 1.12246E-04-4.05798E-05-3.07212E-05 2.69604E-06-3.65816E-19-5.88847E-19
 -1      2721 1.07581E-04-3.70625E-05-3.02637E-05-1.07682E-06-2.82058E-19-1.02084E-18
 -1      2722 1.06502E-04-3.60511E-05-3.01533E-05-2.52458E-06-1.78321E-19-9.82988E-19
 -1      2723 1.08756E-04-3.87761E-05-3.00197E-05-1.56838E-06-4.79381E-19-9.39424E-19
 -1      2724 1.04831E-04-3.47796E-05-3.00501E-05-3.62633E-06-2.53806E-19-8.66940E-19
 -1      2725 1.03755E-04-3.37189E-05-2.99815E-05-4.53017E-06-1.21736E-19-5.40303E-19
 -1      2726 1.05191E-04-3.60096E-05-2.96838E-05-4.37018E-06-1.39397E-19-7.20150E-19
 -1      2727 1.02440E-04-3.26231E-05-2.99372E-05-5.04599E-06 5.03074E-19-4.53978E-19
 -1      2728 1.01502E-04-3.17279E-05-2.98786E-05-5.48660E-06 1.14361E-18-4.08902E-19
 -1      2729 1.02195E-04-3.33141E-05-2.95502E-05-5.84967E-06 1.76798E-19 8.41946E-20
 -1      2730 1.00551E-04-3.09101E-05-2.98526E-05-5.59490E-06 1.15247E-18-7.74662E-19
 -1      2731 9.97853E-05-3.02418E-05-2.97889E-05-5.69530E-06 1.02215E-18-1.14987E-18
 -1      2732 9.99406E-05-3.11552E-05-2.95018E-05-6.36111E-06 7.46960E-19-9.90212E-20
 -1      2733 9.91346E-05-2.96927E-05-2.97611E-05-5.54822E-06 7.35839E-19-1.57821E-18
 -1      2734 9.85287E-05-2.92355E-05-2.96885E-05-5.42594E-06 3.45105E-21-1.64373E-18
 -1      2735 9.83550E-05-2.96237E-05-2.94715E-05-6.24052E-06 3.84149E-19-1.03254E-18
 -1      2736 9.80977E-05-2.89016E-05-2.96520E-05-5.13659E-06-8.95659E-20-1.16599E-18
 -1      2737 9.76242E-05-2.86117E-05-2.95728E-05-4.88624E-06 1.31406E-19-6.92689E-19
 -1      2738 9.72871E-05-2.86416E-05-2.94294E-05-5.74725E-06 4.42989E-19-1.05916E-18
 -1      2739 9.73437E-05-2.84322E-05-2.95279E-05-4.53240E-06-1.08988E-19-8.15489E-19
 -1      2740 9.69746E-05-2.82629E-05-2.94468E-05-4.22279E-06-2.04227E-19-8.25580E-19
 -1      2741 9.65861E-05-2.80771E-05-2.93674E-05-5.06415E-06-1.45665E-19 3.72265E-19
 -1      2742 9.67931E-05-2.81859E-05-2.93966E-05-3.85514E-06-2.50507E-19-7.10381E-19
 -1      2743 9.65053E-05-2.80981E-05-2.93179E-05-3.53259E-06 4.42483E-19-1.08156E-18
 -1      2744 9.61318E-05-2.78022E-05-2.92883E-05-4.31325E-06-2.11035E-19-3.40690E-19
 -1      2745 9.63874E-05-2.80842E-05-2.92661E-05-3.18221E-06 1.01155E-18-1.54106E-18
 -1      2746 9.61630E-05-2.80484E-05-2.91933E-05-2.87541E-06 1.32729E-18-1.21074E-18
 -1      2747 9.58381E-05-2.77137E-05-2.91991E-05-3.57223E-06 4.65221E-19-1.34117E-18
 -1      2748 9.60853E-05-2.80700E-05-2.91431E-05-2.55958E-06 1.61205E-18-9.05608E-19
 -1      2749 9.59110E-05-2.80655E-05-2.90783E-05-2.28431E-06 1.37809E-18-5.97395E-19
 -1      2750 9.56471E-05-2.77361E-05-2.91068E-05-2.88716E-06 1.87098E-18-1.93516E-18
 -1      2751 9.58588E-05-2.81044E-05-2.90318E-05-2.01087E-06 1.30749E-18 8.52193E-20
 -1      2752 9.57241E-05-2.81172E-05-2.89760E-05-1.77406E-06 9.75013E-19-4.64466E-20
 -1      2753 9.55211E-05-2.78177E-05-2.90174E-05-2.28194E-06 1.71980E-18-1.80050E-18
 -1      2754 9.56882E-05-2.81622E-05-2.89347E-05-1.54472E-06 2.67644E-19 3.29112E-19
 -1      2755 9.55851E-05-2.81834E-05-2.88879E-05-1.34759E-06-4.80952E-19 1.12670E-18
 -1      2756 9.54364E-05-2.79249E-05-2.89349E-05-1.76551E-06 6.45042E-20-5.48969E-19
 -1      2757 9.55598E-05-2.82279E-05-2.88523E-05-1.16029E-06-4.67262E-19 1.42027E-18
 -1      2758 9.54818E-05-2.82519E-05-2.88141E-05-1.00065E-06-2.91877E-19 1.69817E-18
 -1      2759 9.53783E-05-2.80373E-05-2.88616E-05-1.33720E-06-1.99247E-19 7.68080E-19
 -1      2760 9.54637E-05-2.82924E-05-2.87842E-05-8.51239E-07-9.29037E-19 1.89312E-18
 -1      2761 9.54054E-05-2.83160E-05-2.87536E-05-7.25045E-07-9.24859E-19 1.62485E-18
 -1      2762 9.53376E-05-2.81434E-05-2.87985E-05-9.90626E-07-4.49977E-19 1.79609E-18
 -1      2763 9.53922E-05-2.83509E-05-2.87292E-05-6.08419E-07-1.14885E-18 1.08867E-18
 -1      2764 9.53495E-05-2.83724E-05-2.87053E-05-5.10878E-07-7.51973E-19 3.12671E-19
 -1      2765 9.53086E-05-2.82373E-05-2.87457E-05-7.16366E-07-1.51836E-18 1.88815E-18
 -1      2766 9.53398E-05-2.84013E-05-2.86857E-05-4.21730E-07-1.19654E-19 1.75896E-19
 -1      2767 9.53091E-05-2.84199E-05-2.86674E-05-3.47968E-07 2.94013E-19-2.37590E-19
 -1      2768 9.52876E-05-2.83169E-05-2.87025E-05-5.03834E-07-8.11122E-19 1.31740E-18
 -1      2769 9.53019E-05-2.84432E-05-2.86520E-05-2.81251E-07 3.91322E-19-3.50522E-19
 -1      2770 9.52804E-05-2.84588E-05-2.86383E-05-2.26708E-07 7.59588E-20-5.69056E-20
 -1      2771 9.52723E-05-2.83820E-05-2.86679E-05-3.42505E-07-1.24466E-19 6.15252E-19
 -1      2772 9.52751E-05-2.84771E-05-2.86264E-05-1.77886E-07 7.54883E-19 4.96313E-19
 -1      2773 9.52605E-05-2.84897E-05-2.86164E-05-1.38515E-07 9.41601E-19 1.03899E-18
 -1      2774 9.52612E-05-2.84340E-05-2.86407E-05-2.22624E-07 3.53689E-19 1.53895E-19
 -1      2775 9.52566E-05-2.85037E-05-2.86075E-05-1.03659E-07 1.02894E-19 1.40228E-18
 -1      2776 9.52471E-05-2.85137E-05-2.86003E-05-7.60039E-08-5.80112E-19 1.42259E-18
 -1      2777 9.52532E-05-2.84743E-05-2.86199E-05-1.35555E-07 5.61529E-19 8.15941E-19
 -1      2778 9.52443E-05-2.85241E-05-2.85937E-05-5.18235E-08-1.06504E-18 1.81800E-18
 -1      2779 9.52385E-05-2.85319E-05-2.85887E-05-3.30212E-08-1.27158E-18 1.48418E-18
 -1      2780 9.52474E-05-2.85050E-05-2.86042E-05-7.39178E-08-9.59310E-19 1.69958E-18
 -1      2781 9.52366E-05-2.85395E-05-2.85840E-05-1.68296E-08-1.09652E-18 1.07959E-18
 -1      2782 9.52334E-05-2.85454E-05-2.85807E-05-4.57153E-09-7.56545E-19 2.00344E-18
 -1      2783 9.52433E-05-2.85278E-05-2.85926E-05-3.15871E-08-1.00796E-18 2.34716E-18
 -1      2784 9.52320E-05-2.85508E-05-2.85773E-05 5.77122E-09-1.41768E-18 2.58715E-18
 -1      2785 9.52307E-05-2.85552E-05-2.85752E-05 1.33016E-08-9.34953E-19 1.73716E-18
 -1      2786 9.52405E-05-2.85443E-05-2.85843E-05-3.60800E-09-1.08947E-18 2.82336E-18
 -1      2787 9.52298E-05-2.85589E-05-2.85730E-05 1.94604E-08-3.75215E-20 1.55113E-18
 -1      2788 9.52296E-05-2.85622E-05-2.85718E-05 2.36571E-08 6.36542E-19 2.05504E-18
 -1      2789 9.52386E-05-2.85559E-05-2.85784E-05 1.39342E-08-3.02672E-19 2.84527E-18
 -1      2790 9.52290E-05-2.85647E-05-2.85703E-05 2.68954E-08 2.80511E-19 1.81501E-18
 -1      2791 9.52296E-05-2.85670E-05-2.85697E-05 2.87982E-08-1.45644E-19 1.03931E-18
 -1      2792 9.52374E-05-2.85640E-05-2.85745E-05 2.40591E-08 3.46776E-19 2.03450E-18
 -1      2793 9.52293E-05-2.85687E-05-2.85688E-05 3.00472E-08-4.33583E-20 1.58019E-18
 -1      2794 9.52304E-05-2.85705E-05-2.85685E-05 3.04039E-08 1.27925E-18 1.19046E-18
 -1      2795 9.52368E-05-2.85694E-05-2.85718E-05 2.90360E-08-8.58700E-20 1.68481E-18
 -1      2796 9.52303E-05-2.85716E-05-2.85680E-05 3.03202E-08 1.73360E-18 5.79767E-19
 -1      2797 9.52316E-05-2.85729E-05-2.85680E-05 2.96400E-08 1.84247E-18 1.10197E-18
 -1      2798 9.52365E-05-2.85730E-05-2.85702E-05 3.05130E-08 9.69937E-19 1.80586E-18
 -1      2799 9.52317E-05-2.85737E-05-2.85677E-05 2.86675E-08 1.19135E-18 3.29625E-19
 -1      2800 9.52331E-05-2.85749E-05-2.85678E-05 2.72714E-08 5.85994E-19-1.11324E-18
 -1      2801 9.52366E-05-2.85755E-05-2.85691E-05 2.96335E-08 4.20295E-19 1.42707E-19
 -1      2802 9.52334E-05-2.85757E-05-2.85676E-05 2.56835E-08 2.99854E-19-1.91829E-18
 -1      2803 9.52348E-05-2.85767E-05-2.85677E-05 2.37239E-08-3.28812E-19-2.67131E-18
 -1      2804 9.52371E-05-2.85774E-05-2.85684E-05 2.72042E-08-7.44168E-19-2.59649E-18
 -1      2805 1.15680E-04-4.22695E-05-3.15307E-05-5.04751E-06-2.75061E-19 2.17038E-19
 -1      2806 1.13261E-04-3.98246E-05-3.13572E-05-7.25706E-06-3.68743E-19 1.28377E-19
 -1      2807 9.44497E-05-5.02527E-05-1.86120E-05-3.86083E-05 2.55253E-18 3.77591E-19
 -1      2808 1.10283E-04-5.61554E-05-2.33132E-05-3.37552E-05 1.94923E-18-6.40463E-19
 -1      2809 1.10088E-04-3.70812E-05-3.13247E-05-8.35711E-06-1.26215E-19-1.02999E-19
 -1      2810 1.08069E-04-3.48236E-05-3.13066E-05-9.21839E-06 3.15253E-19-2.22288E-20
 -1      2811 1.09496E-04-3.87865E-05-3.04168E-05-1.02619E-05-2.09756E-19-1.86963E-19
 -1      2812 1.26332E-04-4.55780E-05-3.47308E-05 9.88286E-06 1.86010E-19 1.81785E-18
 -1      2813 1.25823E-04-4.72636E-05-3.36625E-05 6.20916E-06-3.51906E-19 1.35957E-18
 -1      2814 1.24970E-04-2.27789E-05-4.42167E-05 1.18028E-05 3.60900E-18 1.44649E-18
 -1      2815 1.28440E-04-3.04248E-05-4.25159E-05 1.58282E-05 2.72845E-18 1.76580E-18
 -1      2816 1.22186E-04-1.74056E-05-4.53980E-05-7.84823E-06 4.68685E-18-9.63500E-19
 -1      2817 1.21401E-04-1.57498E-05-4.57755E-05 2.45151E-07 4.60278E-18 1.28908E-19
 -1      2818 1.24603E-04-2.23952E-05-4.42631E-05-1.35042E-05 4.36476E-18-2.11613E-18
 -1      2819 1.26570E-04-3.81816E-05-3.83034E-05-1.67933E-05 1.71053E-18-3.54757E-18
 -1      2820 1.23981E-04-3.19237E-05-3.96796E-05-1.77035E-05 2.98193E-18-3.10461E-18
 -1      2821 1.26866E-04-4.74372E-05-3.40307E-05-8.49771E-06-2.77215E-19-3.48353E-18
 -1      2822 1.27200E-04-4.50382E-05-3.52021E-05-1.23890E-05 2.40822E-19-3.62372E-18
 -1      2823 1.21069E-04-4.59220E-05-3.21028E-05 2.58591E-07 2.36656E-21-2.76643E-18
 -1      2824 1.23033E-04-4.69570E-05-3.26881E-05-3.51428E-06-1.79528E-19-3.19355E-18
 -1      2825 1.26323E-04-5.01779E-05-3.27975E-05-2.94185E-06-4.44788E-19-3.50347E-18
 -1      2826 1.14332E-04-4.10888E-05-3.12853E-05 6.34221E-06-6.90496E-19-1.27648E-18
 -1      2827 1.16796E-04-4.33841E-05-3.15381E-05 3.70672E-06-2.54573E-19-1.84179E-18
 -1      2828 1.18102E-04-4.64955E-05-3.07996E-05 5.31060E-06-7.41293E-19-1.92558E-18
 -1      2829 1.08713E-04-3.62129E-05-3.10006E-05 9.40385E-06-7.77735E-19-1.23538E-18
 -1      2830 1.10934E-04-3.84075E-05-3.11239E-05 8.00730E-06-4.94687E-19-8.89624E-19
 -1      2831 1.10358E-04-4.03271E-05-3.01153E-05 9.82827E-06-7.94295E-19-9.99893E-19
 -1      2832 1.04718E-04-3.25848E-05-3.08758E-05 1.03292E-05-1.06135E-18-1.09804E-18
 -1      2833 1.06456E-04-3.42029E-05-3.09812E-05 9.86517E-06-7.12360E-19-1.11793E-18
 -1      2834 1.04754E-04-3.49185E-05-3.00026E-05 1.15148E-05-6.37104E-19-1.25125E-18
 -1      2835 1.02058E-04-3.02822E-05-3.07445E-05 9.99490E-06-5.95874E-19-1.13442E-18
 -1      2836 1.03358E-04-3.13220E-05-3.08726E-05 1.01193E-05-1.10730E-18-1.28006E-18
 -1      2837 1.01213E-04-3.11938E-05-3.00513E-05 1.15027E-05-7.76134E-19-1.19687E-18
 -1      2838 1.00299E-04-2.89801E-05-3.05604E-05 9.01415E-06 7.93030E-20-4.09547E-19
 -1      2839 1.01276E-04-2.95910E-05-3.07130E-05 9.45691E-06-1.92867E-19-5.49675E-19
 -1      2840 9.91229E-05-2.89876E-05-3.00798E-05 1.06131E-05-8.06230E-19-9.76870E-19
 -1      2841 9.90939E-05-2.83231E-05-3.03316E-05 7.76844E-06 1.75418E-19 4.19060E-19
 -1      2842 9.98473E-05-2.86568E-05-3.04965E-05 8.34716E-06 3.67849E-19-1.05533E-19
 -1      2843 9.79169E-05-2.78527E-05-3.00371E-05 9.33236E-06-1.58774E-19 6.08222E-19
 -1      2844 9.82237E-05-2.80424E-05-3.00814E-05 6.48086E-06-5.01091E-19 1.88092E-18
 -1      2845 9.88193E-05-2.82112E-05-3.02452E-05 7.08416E-06-7.97973E-20 1.17067E-18
 -1      2846 9.72027E-05-2.73771E-05-2.99291E-05 7.93502E-06-5.62602E-19 9.26804E-19
 -1      2847 9.75618E-05-2.79637E-05-2.98320E-05 5.27264E-06 5.45699E-20 5.73184E-19
 -1      2848 9.80399E-05-2.80399E-05-2.99846E-05 5.83912E-06-3.76198E-20 1.77819E-18
 -1      2849 9.67481E-05-2.72683E-05-2.97787E-05 6.57456E-06-2.94869E-19 7.15846E-19
 -1      2850 9.70399E-05-2.79845E-05-2.95991E-05 4.20153E-06-6.35248E-19 5.44738E-19
 -1      2851 9.74252E-05-2.80110E-05-2.97347E-05 4.70216E-06-8.10645E-20 8.29545E-19
 -1      2852 9.64287E-05-2.73427E-05-2.96095E-05 5.33208E-06 8.57242E-20 4.82287E-19
 -1      2853 9.66213E-05-2.80480E-05-2.93918E-05 3.28741E-06 1.39550E-19 2.75845E-20
 -1      2854 9.69305E-05-2.80491E-05-2.95079E-05 3.71253E-06-3.69533E-19 2.99123E-19
 -1      2855 9.61834E-05-2.74946E-05-2.94393E-05 4.24424E-06-4.59832E-19 7.50023E-19
 -1      2856 9.62847E-05-2.81251E-05-2.92138E-05 2.52871E-06 2.04278E-19-8.26614E-19
 -1      2857 9.65304E-05-2.81139E-05-2.93105E-05 2.87947E-06 4.29574E-19-8.59742E-19
 -1      2858 9.59844E-05-2.76677E-05-2.92801E-05 3.32073E-06 5.50630E-19 4.33574E-19
 -1      2859 9.60159E-05-2.82014E-05-2.90653E-05 1.91274E-06-3.52706E-20-7.19824E-19
 -1      2860 9.62087E-05-2.81851E-05-2.91439E-05 2.19576E-06-3.63872E-19-1.26432E-18
 -1      2861 9.58193E-05-2.78344E-05-2.91381E-05 2.55557E-06 8.16958E-20-6.15705E-19
 -1      2862 9.58041E-05-2.82707E-05-2.89443E-05 1.42189E-06-4.02842E-19 1.12821E-19
 -1      2863 9.59530E-05-2.82530E-05-2.90068E-05 1.64600E-06 2.12801E-19-3.77065E-19
 -1      2864 9.56826E-05-2.79826E-05-2.90160E-05 1.93434E-06-2.45183E-19-8.28776E-19
 -1      2865 9.56397E-05-2.83309E-05-2.88477E-05 1.03723E-06-9.06622E-19 3.07603E-19
 -1      2866 9.57528E-05-2.83137E-05-2.88965E-05 1.21174E-06-6.73296E-19 1.04631E-19
 -1      2867 9.55709E-05-2.81089E-05-2.89139E-05 1.43888E-06-1.63095E-19 6.80352E-19
 -1      2868 9.55145E-05-2.83817E-05-2.87719E-05 7.40573E-07-5.18341E-19-3.80983E-19
 -1      2869 9.55988E-05-2.83659E-05-2.88094E-05 8.74289E-07-6.49880E-19-5.77810E-20
 -1      2870 9.54812E-05-2.82134E-05-2.88306E-05 1.05019E-06-3.90770E-19-1.33473E-18
 -1      2871 9.54210E-05-2.84238E-05-2.87136E-05 5.15417E-07 4.78610E-19 1.36952E-19
 -1      2872 9.54826E-05-2.84097E-05-2.87419E-05 6.16236E-07-3.90246E-19-2.11684E-19
 -1      2873 9.54108E-05-2.82982E-05-2.87638E-05 7.50103E-07-4.85129E-19-1.64277E-18
 -1      2874 9.53527E-05-2.84581E-05-2.86695E-05 3.47343E-07 9.73150E-20 2.27645E-18
 -1      2875 9.53967E-05-2.84459E-05-2.86904E-05 4.22079E-07 9.39540E-19 1.12990E-18
 -1      2876 9.53567E-05-2.83659E-05-2.87114E-05 5.22125E-07-1.65842E-20-1.48975E-19
 -1      2877 9.53041E-05-2.84856E-05-2.86367E-05 2.24112E-07 1.12669E-19 1.59722E-18
 -1      2878 9.53346E-05-2.84753E-05-2.86519E-05 2.78492E-07 6.47501E-20 1.96808E-18
 -1      2879 9.53160E-05-2.84192E-05-2.86710E-05 3.51805E-07 5.15275E-20 1.37237E-18
 -1      2880 9.52705E-05-2.85075E-05-2.86129E-05 1.35569E-07-8.10633E-19 1.50639E-18
 -1      2881 9.52910E-05-2.84989E-05-2.86236E-05 1.74306E-07-6.42323E-20 1.66246E-18
 -1      2882 9.52863E-05-2.84606E-05-2.86403E-05 2.26848E-07-3.51503E-19 1.09731E-18
 -1      2883 9.52482E-05-2.85245E-05-2.85959E-05 7.34385E-08-7.22381E-19 1.22101E-18
 -1      2884 9.52613E-05-2.85175E-05-2.86034E-05 1.00345E-07-6.24448E-19 1.91119E-18
 -1      2885 9.52652E-05-2.84923E-05-2.86175E-05 1.37025E-07-7.75602E-19 3.02131E-19
 -1      2886 9.52342E-05-2.85378E-05-2.85842E-05 3.10865E-08-1.45143E-18 4.03480E-19
 -1      2887 9.52419E-05-2.85321E-05-2.85892E-05 4.91960E-08-4.59880E-19 4.77789E-19
 -1      2888 9.52507E-05-2.85163E-05-2.86009E-05 7.39796E-08-5.70413E-19-1.66191E-20
 -1      2889 9.52261E-05-2.85478E-05-2.85764E-05 3.27784E-09-1.73437E-18 9.74219E-19
 -1      2890 9.52301E-05-2.85433E-05-2.85795E-05 1.49673E-08-2.49644E-18 1.06588E-18
 -1      2891 9.52411E-05-2.85342E-05-2.85890E-05 3.09988E-08-1.91447E-18-2.15163E-19
 -1      2892 9.52222E-05-2.85554E-05-2.85715E-05-1.40488E-08-4.40173E-19-2.13892E-19
 -1      2893 9.52237E-05-2.85518E-05-2.85733E-05-6.94812E-09-6.88830E-19 9.95743E-19
 -1      2894 9.52352E-05-2.85472E-05-2.85808E-05 2.78018E-09-1.55653E-18-8.59637E-19
 -1      2895 9.52211E-05-2.85610E-05-2.85686E-05-2.39868E-08-4.33007E-19 1.00498E-18
 -1      2896 9.52209E-05-2.85582E-05-2.85695E-05-2.00912E-08-5.97377E-19 4.29310E-19
 -1      2897 9.52319E-05-2.85566E-05-2.85753E-05-1.47924E-08-6.89188E-19-9.01797E-20
 -1      2898 9.52218E-05-2.85651E-05-2.85671E-05-2.88400E-08 5.14334E-19 4.77020E-19
 -1      2899 9.52206E-05-2.85630E-05-2.85674E-05-2.71290E-08 5.36515E-19 4.46931E-19
 -1      2900 9.52304E-05-2.85632E-05-2.85718E-05-2.48536E-08 5.89165E-19-3.17081E-19
 -1      2901 9.52235E-05-2.85682E-05-2.85665E-05-3.02740E-08 2.24228E-18 7.21102E-19
 -1      2902 9.52218E-05-2.85665E-05-2.85665E-05-3.00199E-08 1.25880E-18 4.79860E-19
 -1      2903 9.52301E-05-2.85677E-05-2.85697E-05-2.97361E-08 1.22383E-18-5.15039E-19
 -1      2904 9.52259E-05-2.85706E-05-2.85666E-05-2.94404E-08 1.25974E-18 1.73306E-18
 -1      2905 9.52239E-05-2.85692E-05-2.85663E-05-3.01512E-08 1.77401E-18 1.48394E-18
 -1      2906 9.52307E-05-2.85709E-05-2.85685E-05-3.11249E-08 1.05317E-18 5.90177E-19
 -1      2907 9.52285E-05-2.85725E-05-2.85669E-05-2.70584E-08 3.86188E-19 3.20738E-18
 -1      2908 9.52265E-05-2.85714E-05-2.85665E-05-2.84350E-08 7.41457E-19 2.06275E-18
 -1      2909 9.52317E-05-2.85732E-05-2.85679E-05-3.01953E-08 1.93740E-19 2.93105E-18
 -1      2910 9.52318E-05-2.85746E-05-2.85674E-05-2.42707E-08-2.50970E-19 3.45250E-18
 -1      2911 9.52299E-05-2.85736E-05-2.85670E-05-2.61431E-08 3.74508E-19 3.77635E-18
 -1      2912 9.52340E-05-2.85755E-05-2.85679E-05-2.81755E-08-2.99825E-19 3.77235E-18
 -1      2913 9.52366E-05-2.85778E-05-2.85680E-05-2.57531E-08-4.03293E-19 2.83177E-18
 -1      2914 9.52528E-05-2.85933E-05-2.85683E-05-1.70278E-09 1.16658E-18-1.24499E-18
 -1      2915 9.52525E-05-2.85930E-05-2.85683E-05-4.95374E-09 1.86853E-18-1.66699E-18
 -1      2916 9.52349E-05-2.85772E-05-2.85676E-05 2.23288E-08-7.21184E-19-3.42729E-18
 -1      2917 9.52359E-05-2.85779E-05-2.85677E-05 2.07455E-08-7.47556E-19-2.96269E-18
 -1      2918 9.52377E-05-2.85790E-05-2.85680E-05 2.42680E-08-1.05339E-18-3.77077E-18
 -1      2919 9.52498E-05-2.85906E-05-2.85682E-05-1.43718E-08 1.62165E-18-9.23985E-20
 -1      2920 9.52483E-05-2.85891E-05-2.85682E-05-1.67031E-08 1.51048E-18-8.56641E-19
 -1      2921 9.52525E-05-2.85930E-05-2.85683E-05 5.16578E-09-2.00665E-19 2.11311E-18
 -1      2922 9.52528E-05-2.85933E-05-2.85683E-05 1.92240E-09 1.92932E-19 6.08102E-19
 -1      2923 9.52545E-05-2.85920E-05-2.85697E-05 1.24833E-10 8.03496E-19-1.13706E-18
 -1      2924 9.52519E-05-2.85925E-05-2.85683E-05-8.42816E-09 1.63250E-18-1.39364E-18
 -1      2925 9.52510E-05-2.85916E-05-2.85683E-05-1.13737E-08 1.86558E-18-7.66910E-19
 -1      2926 9.52517E-05-2.85899E-05-2.85694E-05-1.38331E-08 1.28605E-18-4.60749E-19
 -1      2927 9.52538E-05-2.85915E-05-2.85696E-05-7.17157E-09 1.60509E-18-1.51975E-18
 -1      2928 1.39136E-04-5.75498E-05-3.54090E-05 3.00622E-06 4.61024E-19-2.46624E-18
 -1      2929 1.33868E-04-6.07564E-05-3.11301E-05 1.19643E-05-6.83026E-19-1.44906E-18
 -1      2930 1.37757E-04-5.53350E-05-3.52636E-05-2.62573E-06 2.55897E-19-3.88513E-18
 -1      2931 9.52510E-05-2.85915E-05-2.85683E-05 1.14419E-08-1.68210E-19 9.51786E-19
 -1      2932 9.52519E-05-2.85924E-05-2.85683E-05 8.56564E-09-2.68075E-19 1.99430E-18
 -1      2933 9.52537E-05-2.85914E-05-2.85696E-05 7.34357E-09-3.32649E-19 1.42447E-18
 -1      2934 9.52482E-05-2.85890E-05-2.85683E-05 1.67274E-08 2.48374E-19-5.31440E-19
 -1      2935 9.52498E-05-2.85905E-05-2.85682E-05 1.44151E-08 6.45733E-19 4.99965E-20
 -1      2936 9.52516E-05-2.85898E-05-2.85694E-05 1.39055E-08-4.14107E-19 4.83108E-19
 -1      2937 9.52443E-05-2.85855E-05-2.85681E-05 2.03999E-08-1.62364E-18-5.15145E-19
 -1      2938 9.52465E-05-2.85874E-05-2.85681E-05 1.88866E-08-4.23445E-19-1.70348E-19
 -1      2939 9.52482E-05-2.85871E-05-2.85690E-05 1.91993E-08-6.83165E-19-9.02473E-19
 -1      2940 4.96555E-05-2.32293E-05-1.11604E-05 2.87033E-05-2.15475E-18 4.18921E-18
 -1      2941 3.76438E-05-1.60275E-05-8.61916E-06 1.64342E-05-1.36497E-18 4.13140E-18
 -1      2942 8.65440E-05-4.40634E-05-1.80866E-05 3.57588E-05-2.52384E-18 1.44440E-18
 -1      2943 6.72772E-05-3.37421E-05-1.37769E-05 3.49236E-05-2.70225E-18 3.10353E-18
 -1      2944 9.88861E-05-2.27280E-05-3.26624E-05-2.76664E-06-2.04853E-18-1.32071E-18
 -1      2945 9.99821E-05-2.49232E-05-3.21977E-05-1.05794E-06-1.86243E-18-1.13007E-18
 -1      2946 9.94388E-05-2.24716E-05-3.29912E-05 4.83127E-11 2.22940E-18-6.32724E-19
 -1      2947 1.26756E-04-1.60156E-05-4.78034E-05 1.10209E-05-3.78539E-18-2.81612E-18
 -1      2948 1.22243E-04-1.06888E-05-4.84386E-05 5.97455E-06-4.30145E-18-1.86784E-18
 -1      2949 1.36984E-04-5.32720E-05-3.57555E-05-2.86065E-06-7.45640E-19-3.53594E-18
 -1      2950 1.37512E-04-4.60617E-05-3.98675E-05 4.54152E-06-2.03206E-18-4.33141E-18
 -1      2951 3.78354E-05-1.66680E-05-8.40966E-06-2.04215E-05 7.51212E-19 4.45158E-18
 -1      2952 4.94245E-05-2.32979E-05-1.08278E-05-3.07975E-05 1.78083E-18 3.69455E-18
 -1      2953 1.03510E-04-2.94512E-05-3.17420E-05-7.69675E-06 1.17447E-18-5.02320E-19
 -1      2954 1.02638E-04-2.81068E-05-3.18879E-05-6.55041E-06 1.42331E-18-4.25811E-19
 -1      2955 9.95260E-05-2.56485E-05-3.16830E-05-5.99496E-06 1.63759E-18-9.40933E-19
 -1      2956 7.20788E-05-3.67859E-05-1.49401E-05 4.00039E-05 2.41690E-18-3.12809E-18
 -1      2957 5.41504E-05-2.64907E-05-1.12179E-05 3.48303E-05 2.37339E-18-4.67414E-18
 -1      2958 1.06065E-04-3.27201E-05-3.14486E-05-9.02768E-06 6.15598E-19-2.88447E-19
 -1      2959 1.04640E-04-3.09693E-05-3.15106E-05-8.78265E-06 8.72836E-19-3.39298E-19
 -1      2960 1.01274E-04-2.88927E-05-3.10646E-05-9.04642E-06 9.49415E-19-7.53519E-19
 -1      2961 1.04367E-04-3.31341E-05-3.06071E-05-1.06719E-05 3.59441E-19-4.15417E-19
 -1      2962 2.99439E-05-1.30807E-05-6.80547E-06 5.09269E-06-5.36119E-19 5.06250E-18
 -1      2963 3.05632E-05-1.32688E-05-6.98410E-06-9.38709E-06-6.00335E-20 5.47035E-18
 -1      2964 1.21922E-04-4.63810E-05-3.24724E-05 1.42282E-06-4.22279E-19 8.80669E-19
 -1      2965 1.19862E-04-4.50206E-05-3.19646E-05-2.06970E-06-3.35367E-19 5.81558E-19
 -1      2966 1.16917E-04-4.52579E-05-3.08199E-05-6.84602E-06-5.31368E-19 3.12330E-19
 -1      2967 1.25345E-04-4.97446E-05-3.24952E-05 5.71322E-07-6.14383E-19 1.12761E-18
 -1      2968 1.01144E-04-2.68037E-05-3.18219E-05 1.55421E-07-1.56193E-18-9.22271E-19
 -1      2969 1.01733E-04-2.83716E-05-3.14672E-05 1.41725E-06-1.32498E-18-9.38934E-19
 -1      2970 1.00948E-04-2.83035E-05-3.11611E-05 2.37430E-06-1.24989E-18-1.16084E-18
 -1      2971 9.88203E-05-2.46170E-05-3.18144E-05 2.63857E-07-1.59592E-18-1.33142E-18
 -1      2972 1.22029E-04-5.98017E-05-2.68357E-05 2.35116E-05-1.23074E-18-6.15687E-19
 -1      2973 1.05719E-04-5.36484E-05-2.19636E-05 3.09602E-05-2.07332E-18 2.91168E-20
 -1      2974 1.25995E-04-5.90176E-05-2.86204E-05 1.57612E-05-1.26769E-18-1.27171E-18
 -1      2975 1.36128E-04-5.93705E-05-3.27837E-05-8.90715E-06-3.22428E-19 7.13943E-19
 -1      2976 1.40354E-04-5.41180E-05-3.74515E-05 2.22012E-06 6.08593E-19 1.20660E-18
 -1      2977 2.88483E-05-1.15322E-05-6.85878E-06 7.66887E-07 2.22161E-19-6.30489E-18
 -1      2978 3.27674E-05-1.33363E-05-7.81705E-06-1.25222E-05-2.62316E-19-5.86507E-18
 -1      2979 8.13105E-05-9.45871E-06-3.07954E-05-7.11185E-07 1.48560E-18-2.88728E-18
 -1      2980 7.92314E-05-8.17531E-06-3.04927E-05-4.80704E-07 1.19941E-18-3.19016E-18
 -1      2981 7.85544E-05-8.76230E-06-2.98747E-05-7.85022E-07 1.00424E-18-3.07592E-18
 -1      2982 8.29801E-05-1.17901E-05-3.04894E-05-2.18182E-06 1.38183E-18-2.61061E-18
 -1      2983 6.57292E-05-3.36544E-05-1.32785E-05-3.80150E-05 2.50446E-18 2.38789E-18
 -1      2984 8.03386E-05-4.29975E-05-1.57358E-05-4.11856E-05 2.43056E-18 1.31968E-18
 -1      2985 9.21407E-05-4.64600E-05-1.92252E-05-3.61928E-05 2.98600E-18 2.44104E-19
 -1      2986 1.18157E-04-5.82407E-05-2.52583E-05-2.70075E-05-1.71651E-18-1.14233E-18
 -1      2987 1.27897E-04-6.06567E-05-2.91431E-05-2.01988E-05-9.91611E-19-3.28225E-20
 -1      2988 9.44524E-05-1.76256E-05-3.29428E-05-3.30086E-06-1.90778E-18-2.07380E-18
 -1      2989 8.41922E-05-1.21979E-05-3.08911E-05 2.63744E-06-3.70899E-19-3.09499E-18
 -1      2990 8.65020E-05-1.37022E-05-3.11927E-05 1.94670E-06-6.98389E-19-3.00736E-18
 -1      2991 1.35998E-04-3.56184E-05-4.31953E-05 1.11269E-05-2.82507E-18-4.11531E-18
 -1      2992 1.31615E-04-2.54818E-05-4.61890E-05 1.25301E-05-3.28098E-18-3.14959E-18
 -1      2993 1.32356E-04-2.49651E-05-4.66752E-05-1.16585E-05-3.64182E-18 7.47295E-19
 -1      2994 1.37720E-04-3.40334E-05-4.47524E-05-1.01081E-05-2.80590E-18 7.58518E-19
 -1      2995 3.96639E-05-1.77459E-05-9.12715E-06 2.59887E-05 1.69407E-18-5.64992E-18
 -1      2996 3.12270E-05-1.30395E-05-7.24612E-06 1.27406E-05 1.17457E-18-6.23162E-18
 -1      2997 3.78206E-05-1.16571E-05-1.05395E-05 6.88932E-06 8.80147E-19-5.67777E-18
 -1      2998 1.07969E-04-5.39531E-05-2.30864E-05 3.42328E-05 1.58565E-18-4.89691E-20
 -1      2999 9.19873E-05-4.70052E-05-1.89270E-05 3.84864E-05 1.99508E-18-1.31121E-18
 -1      3000 1.22460E-04-5.88484E-05-2.69914E-05-2.51782E-05 1.23603E-18-1.61116E-18
 -1      3001 1.31060E-04-5.84512E-05-3.15982E-05-1.57837E-05 5.94352E-19-2.20070E-18
 -1      3002 1.16375E-04-5.68539E-05-2.52849E-05-2.70453E-05 2.25004E-18-1.56402E-18
 -1      3003 9.52381E-05-2.85802E-05-2.85677E-05 2.12673E-08-6.78239E-19-5.15054E-18
 -1      3004 1.35619E-04-3.73638E-05-4.25035E-05 1.48663E-05 2.31198E-18 1.46770E-18
 -1      3005 1.26009E-04-3.80583E-05-3.78353E-05 1.48582E-05 1.57969E-18 2.31919E-18
 -1      3006 1.27921E-04-4.32228E-05-3.64993E-05 1.38552E-05 6.97399E-19 2.12836E-18
 -1      3007 1.39101E-04-4.78898E-05-3.93284E-05 1.06989E-05 1.19117E-18 1.47564E-18
 -1      3008 7.69161E-05-7.94831E-06-2.95273E-05 2.97852E-06 5.19159E-19-3.24983E-18
 -1      3009 7.71231E-05-7.11104E-06-3.00440E-05 2.87012E-06 3.87047E-19-3.36455E-18
 -1      3010 7.83053E-05-7.88730E-06-3.01686E-05 3.01277E-06 1.75069E-19-3.39082E-18
 -1      3011 1.35062E-04-5.11980E-05-3.60678E-05 6.30565E-06 2.21499E-19 1.52651E-18
 -1      3012 9.52406E-05-2.85822E-05-2.85678E-05-2.17931E-08 6.30018E-19 7.61819E-19
 -1      3013 5.27632E-05-2.15306E-05-1.27404E-05 2.84453E-05 2.25581E-18-4.69627E-18
 -1      3014 8.89745E-05-1.55204E-05-3.15078E-05 1.17694E-06-9.17213E-19-2.74461E-18
 -1      3015 9.14044E-05-1.71684E-05-3.18280E-05 2.49839E-07-1.27024E-18-2.48864E-18
 -1      3016 8.88516E-05-1.66813E-05-3.09306E-05 2.80841E-06-6.81230E-19-2.57539E-18
 -1      3017 9.52483E-05-2.85872E-05-2.85690E-05-1.91597E-08 1.46252E-18-7.90754E-21
 -1      3018 9.52466E-05-2.85876E-05-2.85681E-05-1.88708E-08 7.78197E-19-2.09013E-18
 -1      3019 9.52444E-05-2.85856E-05-2.85681E-05-2.03674E-08 8.68387E-19-1.03334E-18
 -1      3020 9.52407E-05-2.85825E-05-2.85677E-05 2.10613E-08-9.96156E-19-2.24725E-18
 -1      3021 4.11458E-05-1.45435E-05-1.07896E-05-1.36119E-05 1.29702E-20 4.44629E-18
 -1      3022 1.30985E-04-4.79146E-05-3.57597E-05 9.55980E-06 2.49875E-19 1.71221E-18
 -1      3023 1.21549E-04-1.79398E-05-4.55421E-05 7.25210E-06 4.20478E-18 1.15498E-18
 -1      3024 1.30172E-04-4.45529E-05-3.68092E-05-1.41935E-05 8.44492E-19-3.88100E-18
 -1      3025 1.33458E-04-5.03852E-05-3.60042E-05-9.06879E-06 4.25687E-19-4.23543E-18
 -1      3026 6.09759E-05-2.80249E-05-1.35878E-05-3.33017E-05 2.32902E-18 2.68764E-18
 -1      3027 7.24138E-05-3.24655E-05-1.68977E-05-3.31352E-05 2.57720E-18 1.07896E-18
 -1      3028 5.76094E-05-2.24388E-05-1.47435E-05-2.73426E-05 1.51571E-18 2.37021E-18
 -1      3029 9.74895E-05-4.83075E-05-2.08396E-05 3.23803E-05-2.11790E-18 9.37930E-19
 -1      3030 8.84127E-05-4.07231E-05-2.01870E-05 3.10691E-05-2.13855E-18 1.35366E-18
 -1      3031 1.05773E-04-5.00142E-05-2.37417E-05 2.59924E-05-1.98891E-18-6.49449E-19
 -1      3032 7.13137E-05-3.67823E-05-1.42268E-05-3.80378E-05-1.68390E-18-4.31246E-18
 -1      3033 8.43410E-05-4.18099E-05-1.82589E-05-3.58060E-05-2.10604E-18-3.47485E-18
 -1      3034 6.41531E-05-2.97031E-05-1.42973E-05-3.39086E-05-1.43879E-18-4.26460E-18
 -1      3035 1.26700E-04-2.02810E-05-4.60725E-05-1.13693E-05-3.85040E-18 3.96835E-19
 -1      3036 1.24189E-04-2.54114E-05-4.25595E-05-1.25718E-05-2.71040E-18 6.77256E-19
 -1      3037 1.18542E-04-1.58566E-05-4.45325E-05-9.24096E-06-3.83007E-18-1.74753E-19
 -1      3038 4.20269E-05-1.42236E-05-1.12363E-05 1.02338E-05-5.40698E-19 3.90842E-18
 -1      3039 9.52422E-05-2.85827E-05-2.85684E-05 2.24526E-08-1.17595E-18-1.33012E-18
 -1      3040 6.39331E-05-2.73067E-05-1.50917E-05 2.83569E-05-2.24797E-18 3.35340E-18
 -1      3041 1.31928E-04-5.54756E-05-3.27769E-05-7.50274E-06 4.03770E-19-3.27738E-18
 -1      3042 9.67699E-05-2.09845E-05-3.25031E-05-1.33773E-06 2.13729E-18-1.13653E-18
 -1      3043 1.24695E-04-2.29058E-05-4.40447E-05 1.22210E-05-2.88478E-18-3.05948E-18
 -1      3044 1.32779E-04-4.12713E-05-3.94118E-05 9.86344E-06-1.76635E-18-4.22638E-18
 -1      3045 1.19869E-04-1.11907E-05-4.72054E-05 2.30189E-06-4.08365E-18-1.57690E-18
 -1      3046 1.16045E-04-1.15548E-05-4.52106E-05-2.15343E-06-4.03230E-18-1.06219E-18
 -1      3047 1.15892E-04-1.27250E-05-4.43865E-05 6.32562E-06-3.49274E-18-1.85148E-18
 -1      3048 1.36867E-04-5.53812E-05-3.50058E-05 8.89707E-06-1.12864E-18 1.36891E-18
 -1      3049 1.31849E-04-5.68243E-05-3.20747E-05 1.22388E-05-1.50137E-19 1.58686E-18
 -1      3050 1.35902E-04-5.21887E-05-3.63596E-05 9.75629E-07-5.90091E-19 1.57474E-18
 -1      3051 8.47475E-05-4.15063E-05-1.81274E-05 3.80827E-05 2.35274E-18-2.07608E-18
 -1      3052 7.73032E-05-3.46682E-05-1.79476E-05 3.53824E-05 2.55767E-18-2.53279E-18
 -1      3053 9.48895E-05-4.47156E-05-2.13624E-05 3.34498E-05 2.47503E-18-6.38610E-19
 -1      3054 3.96114E-05-1.58257E-05-9.48426E-06-1.90428E-05-6.58992E-19-5.49851E-18
 -1      3055 4.84288E-05-1.95532E-05-1.20183E-05-2.48190E-05-1.03799E-18-5.01507E-18
 -1      3056 4.13135E-05-1.26223E-05-1.17985E-05-1.22090E-05-1.75998E-19-5.30751E-18
 -1      3057 8.00140E-05-9.24888E-06-3.03694E-05 3.24793E-06 3.68060E-20-3.22990E-18
 -1      3058 8.19272E-05-1.04790E-05-3.06055E-05 2.97002E-06-1.96001E-19-3.12493E-18
 -1      3059 8.38935E-05-1.31484E-05-3.03166E-05 3.93757E-06-1.88668E-19-2.86428E-18
 -1      3060 7.96408E-05-1.00428E-05-2.98128E-05 4.02529E-06 1.40916E-19-3.12442E-18
 -1      3061 1.31015E-04-5.87258E-05-3.09476E-05-1.09168E-05-9.96349E-19 4.13034E-19
 -1      3062 1.09471E-04-5.41725E-05-2.34958E-05-2.99982E-05-1.92573E-18-1.55467E-18
 -1      3063 9.46399E-05-1.92430E-05-3.23092E-05-1.41711E-06-1.59152E-18-2.02620E-18
 -1      3064 1.36126E-04-3.98574E-05-4.14958E-05-7.85398E-06-1.91641E-18 1.06101E-18
 -1      3065 1.23139E-04-5.73622E-05-2.83790E-05 2.08589E-05 1.04047E-18 1.09426E-18
 -1      3066 1.16728E-04-5.66021E-05-2.55725E-05 2.81761E-05 1.41031E-18 3.71530E-19
 -1      3067 1.10631E-04-5.31589E-05-2.44962E-05 2.90006E-05 1.86114E-18 2.40981E-19
 -1      3068 9.57095E-05-2.13597E-05-3.18612E-05-3.42329E-06 1.89285E-18-1.38187E-18
 -1      3069 8.89190E-05-4.20259E-05-1.98609E-05-3.34570E-05 3.01406E-18-7.03567E-20
 -1      3070 1.01396E-04-4.93935E-05-2.22402E-05-3.17206E-05 3.04265E-18-9.35257E-19
 -1      3071 9.11322E-05-1.87370E-05-3.10152E-05-4.50479E-06 1.46126E-18-1.73658E-18
 -1      3072 8.76409E-05-1.63510E-05-3.05847E-05-4.43558E-06 1.29387E-18-2.05894E-18
 -1      3073 9.52554E-05-2.85900E-05-2.85709E-05 9.43213E-09-2.19738E-19 1.96609E-18
 -1      3074 9.52562E-05-2.85905E-05-2.85710E-05 5.94435E-09-7.36222E-20 7.96948E-19
 -1      3075 1.29359E-04-5.77334E-05-3.09692E-05 7.85065E-06-1.17732E-18-2.82560E-18
 -1      3076 1.19837E-04-5.54567E-05-2.74268E-05 1.71890E-05-1.52012E-18-1.53983E-18
 -1      3077 1.04997E-04-3.45043E-05-3.01378E-05 4.98151E-06-4.16198E-19-7.07942E-19
 -1      3078 1.06717E-04-3.65762E-05-3.00962E-05 4.47529E-06-2.11476E-19-6.65822E-19
 -1      3079 1.09395E-04-3.88223E-05-3.01641E-05 3.59569E-06-1.34349E-19-2.24331E-19
 -1      3080 1.11205E-04-4.05306E-05-3.03454E-05 2.15548E-06-2.63577E-19-2.46753E-19
 -1      3081 1.07392E-04-3.81519E-05-2.97591E-05 6.04881E-06 2.80811E-20-5.23465E-19
 -1      3082 1.14089E-04-4.21417E-05-3.07637E-05 5.47529E-09-3.12805E-19 2.43323E-20
 -1      3083 1.15467E-04-4.26429E-05-3.12543E-05-2.18708E-06-3.81383E-19-6.21709E-20
 -1      3084 1.12995E-04-4.27299E-05-3.02410E-05 3.27527E-06-7.58922E-20 1.60354E-19
 -1      3085 1.17763E-04-4.26263E-05-3.21918E-05-5.56296E-06-3.93262E-19 4.79947E-19
 -1      3086 1.17873E-04-4.07436E-05-3.30650E-05-7.89370E-06-5.06238E-19 5.85856E-19
 -1      3087 1.18567E-04-4.47140E-05-3.17252E-05-2.42612E-06-1.43493E-19 5.68075E-19
 -1      3088 1.17963E-04-3.77903E-05-3.45480E-05-1.10609E-05-7.94550E-19 7.80713E-19
 -1      3089 1.16297E-04-3.31362E-05-3.56226E-05-1.20181E-05-1.29781E-18 9.91474E-19
 -1      3090 1.21406E-04-4.17243E-05-3.41558E-05-8.78079E-06-4.20869E-19 1.00037E-18
 -1      3091 1.14704E-04-2.58438E-05-3.83387E-05-1.18309E-05-2.03067E-18 7.65056E-19
 -1      3092 1.12238E-04-2.05824E-05-3.94411E-05-9.72253E-06-2.38270E-18 5.09914E-19
 -1      3093 1.09560E-04-1.64342E-05-4.01011E-05-3.24169E-06-2.68430E-18-6.65318E-19
 -1      3094 1.09222E-04-1.57327E-05-4.01916E-05 2.15389E-06-2.79137E-18-1.23117E-18
 -1      3095 1.10310E-04-1.79916E-05-3.98370E-05 6.99438E-06-2.57620E-18-1.28648E-18
 -1      3096 1.12556E-04-2.49709E-05-3.75663E-05 1.26542E-05-1.81440E-18-1.53453E-18
 -1      3097 1.15009E-04-3.06634E-05-3.64281E-05 1.35684E-05-1.11655E-18-1.60977E-18
 -1      3098 1.16629E-04-3.54710E-05-3.47626E-05 1.23733E-05-9.43409E-19-1.46946E-18
 -1      3099 1.17800E-04-3.94989E-05-3.36504E-05 1.08755E-05-7.71421E-19-1.33369E-18
 -1      3100 1.19445E-04-3.46349E-05-3.63887E-05 1.32345E-05-1.12336E-18-2.32227E-18
 -1      3101 1.16925E-04-4.17107E-05-3.22870E-05 7.48411E-06-9.25149E-19-1.06317E-18
 -1      3102 1.16501E-04-4.30108E-05-3.14696E-05 4.95342E-06-5.35547E-19-1.08887E-18
 -1      3103 1.20041E-04-4.27182E-05-3.32390E-05 8.36037E-06-6.96632E-19-2.21919E-18
 -1      3104 1.14018E-04-4.27472E-05-3.06155E-05 1.66382E-06-4.02134E-19-9.08590E-19
 -1      3105 1.12478E-04-4.20333E-05-3.01258E-05-6.64545E-07-2.24462E-19-8.57045E-19
 -1      3106 1.16629E-04-4.48836E-05-3.08369E-05 1.37168E-06-5.08341E-19-1.25604E-18
 -1      3107 1.09634E-04-4.04542E-05-2.96952E-05-2.81494E-06-7.26240E-20-5.82394E-19
 -1      3108 1.07770E-04-3.88904E-05-2.94521E-05-4.43583E-06-1.76585E-19-1.43094E-19
 -1      3109 1.11139E-04-4.24673E-05-2.95041E-05-3.86873E-06 5.80069E-20-6.07507E-19
 -1      3110 1.05311E-04-3.70282E-05-2.92887E-05-5.53988E-06-6.49151E-19 2.72094E-19
 -1      3111 1.03615E-04-3.53768E-05-2.91932E-05-6.44387E-06-2.02721E-19 1.48293E-19
 -1      3112 1.05813E-04-3.85000E-05-2.89189E-05-6.82405E-06-1.70865E-19 2.32363E-19
 -1      3113 1.01808E-04-3.37712E-05-2.91665E-05-6.81309E-06 3.03603E-19 6.82858E-20
 -1      3114 1.00474E-04-3.23992E-05-2.91403E-05-7.17894E-06 5.63027E-19 7.65518E-20
 -1      3115 1.01583E-04-3.46117E-05-2.87552E-05-7.99135E-06-1.92220E-20 1.00223E-18
 -1      3116 9.92701E-05-3.12085E-05-2.91687E-05-7.11368E-06 4.33953E-19 2.99928E-20
 -1      3117 9.83062E-05-3.02087E-05-2.91646E-05-7.12067E-06 4.32396E-19-2.88528E-19
 -1      3118 9.86230E-05-3.15431E-05-2.87855E-05-8.07914E-06 6.90915E-19 5.38992E-19
 -1      3119 9.75709E-05-2.94204E-05-2.92028E-05-6.82006E-06 4.65378E-19-5.83799E-20
 -1      3120 9.69111E-05-2.87622E-05-2.91967E-05-6.60936E-06 3.63084E-19-3.88312E-19
 -1      3121 9.67252E-05-2.93962E-05-2.88786E-05-7.57302E-06 4.23603E-19 3.94852E-19
 -1      3122 9.65015E-05-2.82963E-05-2.92247E-05-6.19894E-06 2.92259E-19-3.41448E-19
 -1      3123 9.60645E-05-2.79047E-05-2.92079E-05-5.87076E-06 5.08784E-19-2.25952E-19
 -1      3124 9.56085E-05-2.80490E-05-2.89676E-05-6.77881E-06 3.77963E-19 2.50030E-19
 -1      3125 9.58644E-05-2.76705E-05-2.92195E-05-5.42439E-06 1.21727E-19-2.26787E-19
 -1      3126 9.55802E-05-2.74680E-05-2.91913E-05-5.04628E-06-4.61381E-19-6.23653E-19
 -1      3127 9.50147E-05-2.73038E-05-2.90261E-05-5.87545E-06 2.12593E-19-5.09966E-19
 -1      3128 9.55063E-05-2.73874E-05-2.91874E-05-4.60692E-06-9.15467E-19-3.39870E-19
 -1      3129 9.53227E-05-2.73098E-05-2.91508E-05-4.22295E-06-6.51018E-19-8.12838E-19
 -1      3130 9.47479E-05-2.69744E-05-2.90492E-05-4.96448E-06-5.75332E-19-8.62845E-19
 -1      3131 9.53192E-05-2.73235E-05-2.91350E-05-3.81518E-06-4.17102E-20-1.00901E-18
 -1      3132 9.52001E-05-2.73225E-05-2.90938E-05-3.45263E-06 8.81866E-19-9.65108E-19
 -1      3133 9.46724E-05-2.69117E-05-2.90416E-05-4.10374E-06-4.80048E-19-9.41052E-19
 -1      3134 9.52317E-05-2.73881E-05-2.90702E-05-3.08940E-06 1.46497E-18-1.08974E-18
 -1      3135 9.51535E-05-2.74300E-05-2.90281E-05-2.76355E-06 1.58529E-18-1.33235E-18
 -1      3136 9.46995E-05-2.70064E-05-2.90116E-05-3.32511E-06 1.12273E-18-5.22643E-19
 -1      3137 9.51989E-05-2.75194E-05-2.90005E-05-2.45009E-06 1.65791E-18-2.27265E-18
 -1      3138 9.51466E-05-2.75817E-05-2.89599E-05-2.16786E-06 1.23102E-18-2.35457E-18
 -1      3139 9.47742E-05-2.71827E-05-2.89675E-05-2.64362E-06 9.68683E-19-1.38620E-18
 -1      3140 9.51938E-05-2.76772E-05-2.89313E-05-1.90437E-06 5.29304E-19-1.63338E-18
 -1      3141 9.51581E-05-2.77458E-05-2.88941E-05-1.66712E-06-1.36550E-19-1.58822E-18
 -1      3142 9.48641E-05-2.73912E-05-2.89166E-05-2.06308E-06 1.32689E-18-3.08264E-18
 -1      3143 9.52010E-05-2.78371E-05-2.88665E-05-1.45069E-06 3.62108E-20-2.46967E-19
 -1      3144 9.51761E-05-2.79038E-05-2.88337E-05-1.25626E-06 4.57430E-19 3.72101E-19
 -1      3145 9.49518E-05-2.76014E-05-2.88641E-05-1.58001E-06 9.04581E-19-1.83931E-18
 -1      3146 9.52123E-05-2.79854E-05-2.88084E-05-1.08222E-06 7.78486E-20 3.72342E-19
 -1      3147 9.51945E-05-2.80457E-05-2.87803E-05-9.26479E-07-7.08650E-19 7.34455E-19
 -1      3148 9.50289E-05-2.77963E-05-2.88137E-05-1.18658E-06 3.49155E-19-1.03415E-18
 -1      3149 9.52233E-05-2.81154E-05-2.87580E-05-7.89265E-07-1.65053E-18 1.14984E-18
 -1      3150 9.52105E-05-2.81673E-05-2.87346E-05-6.67116E-07-1.51643E-18 1.38513E-18
 -1      3151 9.50923E-05-2.79672E-05-2.87677E-05-8.72501E-07-4.38792E-19-8.38738E-19
 -1      3152 9.52324E-05-2.82248E-05-2.87155E-05-5.60992E-07-7.72910E-19 1.33684E-18
 -1      3153 9.52230E-05-2.82680E-05-2.86964E-05-4.67115E-07-2.83643E-19 1.50749E-18
 -1      3154 9.51419E-05-2.81113E-05-2.87273E-05-6.26502E-07-1.01827E-18 1.27286E-18
 -1      3155 9.52391E-05-2.83142E-05-2.86805E-05-3.86611E-07-7.36626E-19 1.80805E-18
 -1      3156 9.52322E-05-2.83491E-05-2.86653E-05-3.15929E-07-5.94684E-19 8.10939E-19
 -1      3157 9.51792E-05-2.82291E-05-2.86929E-05-4.37415E-07-6.12062E-19 1.61176E-18
 -1      3158 9.52434E-05-2.83851E-05-2.86523E-05-2.56090E-07-1.94017E-20 3.90133E-19
 -1      3159 9.52384E-05-2.84126E-05-2.86404E-05-2.04006E-07 1.86741E-19 3.62166E-19
 -1      3160 9.52061E-05-2.83229E-05-2.86642E-05-2.94867E-07-3.46513E-19 8.27903E-19
 -1      3161 9.52459E-05-2.84402E-05-2.86301E-05-1.60495E-07 4.70905E-19 7.47509E-19
 -1      3162 9.52423E-05-2.84614E-05-2.86209E-05-1.23008E-07 2.28604E-19 8.33840E-19
 -1      3163 9.52246E-05-2.83959E-05-2.86410E-05-1.89592E-07 7.60393E-19 8.62991E-19
 -1      3164 9.52470E-05-2.84820E-05-2.86129E-05-9.21416E-08-1.89207E-19 1.06835E-18
 -1      3165 9.52443E-05-2.84979E-05-2.86060E-05-6.58768E-08-6.60089E-19 1.83047E-18
 -1      3166 9.52368E-05-2.84513E-05-2.86224E-05-1.13572E-07 9.71206E-20 6.80325E-19
 -1      3167 9.52470E-05-2.85129E-05-2.85998E-05-4.46109E-08-1.38298E-18 2.87982E-18
 -1      3168 9.52451E-05-2.85246E-05-2.85948E-05-2.67991E-08-8.31758E-19 2.89217E-18
 -1      3169 9.52441E-05-2.84925E-05-2.86079E-05-6.00694E-08-2.74780E-19 1.98906E-18
 -1      3170 9.52463E-05-2.85352E-05-2.85901E-05-1.26762E-08-5.37922E-19 3.14998E-18
 -1      3171 9.52451E-05-2.85436E-05-2.85865E-05-1.09900E-09-1.02873E-18 3.37725E-18
 -1      3172 9.52481E-05-2.85223E-05-2.85968E-05-2.35618E-08-3.96273E-19 3.38704E-18
 -1      3173 9.52453E-05-2.85510E-05-2.85830E-05 7.82107E-09-1.13125E-18 3.69870E-18
 -1      3174 9.52445E-05-2.85569E-05-2.85805E-05 1.48994E-08-1.64979E-19 3.47687E-18
 -1      3175 9.52496E-05-2.85434E-05-2.85885E-05 3.75475E-10-1.26423E-18 3.19894E-18
 -1      3176 9.52441E-05-2.85617E-05-2.85780E-05 2.01147E-08 2.18882E-19 2.29248E-18
 -1      3177 9.52436E-05-2.85657E-05-2.85763E-05 2.40198E-08-5.77782E-20 1.79601E-18
 -1      3178 9.52496E-05-2.85578E-05-2.85823E-05 1.52099E-08-3.70339E-19 2.82429E-18
 -1      3179 9.52429E-05-2.85688E-05-2.85745E-05 2.66572E-08-1.59192E-19 1.82864E-18
 -1      3180 9.52426E-05-2.85716E-05-2.85733E-05 2.83726E-08 3.43538E-19 1.87763E-18
 -1      3181 9.52487E-05-2.85673E-05-2.85778E-05 2.35972E-08 1.37145E-19 2.10721E-18
 -1      3182 9.52418E-05-2.85735E-05-2.85721E-05 2.92684E-08 3.75700E-19 9.32380E-19
 -1      3183 9.52417E-05-2.85753E-05-2.85713E-05 2.94976E-08 7.75000E-19 7.82911E-19
 -1      3184 9.52472E-05-2.85735E-05-2.85745E-05 2.75130E-08-1.56308E-19 1.63842E-18
 -1      3185 9.52409E-05-2.85765E-05-2.85704E-05 2.92112E-08-2.21088E-19-5.03749E-19
 -1      3186 9.52410E-05-2.85778E-05-2.85699E-05 2.84295E-08-1.20869E-18-1.78461E-18
 -1      3187 9.52457E-05-2.85774E-05-2.85722E-05 2.84486E-08-3.55122E-19-1.50886E-18
 -1      3188 9.52402E-05-2.85786E-05-2.85692E-05 2.72929E-08-8.15216E-19-1.14970E-18
 -1      3189 9.52405E-05-2.85797E-05-2.85689E-05 2.58501E-08-1.16549E-18-1.07633E-18
 -1      3190 9.52442E-05-2.85800E-05-2.85704E-05 2.73149E-08-6.86773E-19-2.07563E-18
 -1      3191 1.10545E-04-5.32114E-05-2.43366E-05-2.68340E-05 2.81069E-18-1.28179E-18
 -1      3192 1.19903E-04-5.66089E-05-2.74346E-05-2.02794E-05 2.06028E-18-2.11005E-18
 -1      3193 1.07359E-04-4.97572E-05-2.44830E-05-2.50298E-05 2.75630E-18-1.29398E-18
 -1      3194 1.32610E-04-2.45862E-05-4.67328E-05-1.49078E-05 4.68854E-18-2.94609E-18
 -1      3195 1.24062E-04-5.22006E-05-3.05959E-05 5.53686E-06-1.11108E-18-2.87390E-18
 -1      3196 1.28259E-04-5.34176E-05-3.21196E-05 7.11515E-07-9.46003E-19-3.64497E-18
 -1      3197 1.00117E-04-3.23599E-05-2.89900E-05 1.33824E-05-7.54796E-19-7.90144E-19
 -1      3198 1.02461E-04-3.48383E-05-2.89409E-05 1.32545E-05-9.28983E-19-8.20037E-19
 -1      3199 9.73466E-05-2.90157E-05-2.92683E-05 1.22099E-05-1.31174E-18-1.54858E-19
 -1      3200 9.87453E-05-3.05251E-05-2.92066E-05 1.25863E-05-1.14805E-18-5.01532E-19
 -1      3201 9.57861E-05-3.01901E-05-2.81671E-05 1.42745E-05-1.37448E-18-7.58359E-20
 -1      3202 9.60079E-05-2.72551E-05-2.94654E-05 1.07117E-05-8.39421E-19 3.68063E-19
 -1      3203 9.68076E-05-2.80609E-05-2.94406E-05 1.13198E-05-1.09111E-18 2.76074E-20
 -1      3204 9.40321E-05-2.72790E-05-2.86340E-05 1.23729E-05-1.13553E-18 9.41212E-19
 -1      3205 9.54447E-05-2.64987E-05-2.95552E-05 9.15229E-06-2.67944E-19 4.64922E-19
 -1      3206 9.59025E-05-2.68598E-05-2.95725E-05 9.84523E-06-4.26896E-19 3.51091E-19
 -1      3207 9.34704E-05-2.58873E-05-2.89711E-05 1.05397E-05-7.30210E-19 5.23739E-19
 -1      3208 9.52592E-05-2.63200E-05-2.95548E-05 7.65740E-06-6.23210E-19 3.60099E-19
 -1      3209 9.55348E-05-2.64259E-05-2.96041E-05 8.35218E-06-1.05895E-19 1.46907E-19
 -1      3210 9.34941E-05-2.54238E-05-2.91713E-05 8.85906E-06-1.96818E-20-7.47767E-20
 -1      3211 9.52339E-05-2.64412E-05-2.94923E-05 6.28980E-06-8.18878E-21 4.01028E-19
 -1      3212 9.54161E-05-2.64138E-05-2.95605E-05 6.93939E-06-3.28333E-19 3.95008E-19
 -1      3213 9.37563E-05-2.54727E-05-2.92597E-05 7.34864E-06-1.51975E-19 4.35539E-19
 -1      3214 9.52610E-05-2.66953E-05-2.93941E-05 5.07938E-06-5.68397E-19 7.61564E-19
 -1      3215 9.53947E-05-2.66070E-05-2.94700E-05 5.65952E-06-4.66358E-19 3.57953E-19
 -1      3216 9.40779E-05-2.57721E-05-2.92690E-05 6.01203E-06-3.36740E-19 1.45018E-18
 -1      3217 9.52935E-05-2.69896E-05-2.92807E-05 4.03594E-06-1.00699E-19 1.69225E-19
 -1      3218 9.53998E-05-2.68805E-05-2.93562E-05 4.53699E-06-4.13954E-20 9.37565E-19
 -1      3219 9.43768E-05-2.61682E-05-2.92282E-05 4.84807E-06-5.38721E-19 9.56327E-19
 -1      3220 9.53153E-05-2.72765E-05-2.91658E-05 3.15646E-06 2.92065E-19 7.64336E-19
 -1      3221 9.54033E-05-2.71672E-05-2.92359E-05 3.57792E-06 1.61587E-19 4.73367E-19
 -1      3222 9.46237E-05-2.65769E-05-2.91600E-05 3.85182E-06-2.71873E-20 4.10095E-19
 -1      3223 9.53240E-05-2.75343E-05-2.90578E-05 2.42979E-06-3.87451E-21 1.26877E-18
 -1      3224 9.53975E-05-2.74345E-05-2.91200E-05 2.77663E-06 3.12054E-19 1.62873E-18
 -1      3225 9.48141E-05-2.69565E-05-2.90799E-05 3.01417E-06-1.51218E-19 1.59474E-18
 -1      3226 9.53224E-05-2.77553E-05-2.89612E-05 1.84007E-06-2.49122E-19 1.17978E-18
 -1      3227 9.53832E-05-2.76687E-05-2.90146E-05 2.12015E-06 1.78547E-19 1.08830E-18
 -1      3228 9.49547E-05-2.72891E-05-2.89984E-05 2.32213E-06 9.01572E-20 2.52791E-18
 -1      3229 9.53141E-05-2.79392E-05-2.88780E-05 1.36941E-06 2.80984E-20 5.93278E-19
 -1      3230 9.53637E-05-2.78664E-05-2.89225E-05 1.59173E-06-2.24025E-19 1.24462E-18
 -1      3231 9.50550E-05-2.75700E-05-2.89216E-05 1.75993E-06-2.93209E-19 2.39409E-18
 -1      3232 9.53027E-05-2.80889E-05-2.88082E-05 9.99771E-07 5.62936E-20-4.74346E-19
 -1      3233 9.53422E-05-2.80290E-05-2.88445E-05 1.17339E-06 7.74632E-19-3.06286E-19
 -1      3234 9.51247E-05-2.78014E-05-2.88527E-05 1.31059E-06 1.05443E-18 1.15952E-18
 -1      3235 9.52905E-05-2.82086E-05-2.87511E-05 7.14088E-07-4.57795E-19-9.61713E-19
 -1      3236 9.53213E-05-2.81603E-05-2.87800E-05 8.47503E-07-1.35838E-18-1.30437E-18
 -1      3237 9.51721E-05-2.79883E-05-2.87932E-05 9.57224E-07 9.72089E-20 3.52909E-19
 -1      3238 9.52789E-05-2.83030E-05-2.87052E-05 4.96842E-07-2.17013E-19 9.83307E-19
 -1      3239 9.53024E-05-2.82646E-05-2.87279E-05 5.97703E-07 3.40777E-19 3.70330E-19
 -1      3240 9.52035E-05-2.81367E-05-2.87431E-05 6.83795E-07-8.65602E-19-4.68859E-19
 -1      3241 9.52687E-05-2.83763E-05-2.86691E-05 3.34415E-07 1.79278E-19 4.48389E-19
 -1      3242 9.52862E-05-2.83462E-05-2.86866E-05 4.09361E-07 3.33018E-19 5.03024E-19
 -1      3243 9.52236E-05-2.82528E-05-2.87020E-05 4.75658E-07 1.75255E-19 3.23419E-19
 -1      3244 9.52603E-05-2.84325E-05-2.86412E-05 2.15195E-07-5.64892E-19 2.65997E-19
 -1      3245 9.52730E-05-2.84092E-05-2.86544E-05 2.69839E-07-2.17411E-19-4.24783E-19
 -1      3246 9.52360E-05-2.83424E-05-2.86690E-05 3.19925E-07 2.58362E-19-6.90247E-21
 -1      3247 9.52536E-05-2.84748E-05-2.86199E-05 1.29488E-07-6.67377E-19-7.25625E-20
 -1      3248 9.52625E-05-2.84571E-05-2.86297E-05 1.68480E-07-3.91590E-19 4.11562E-19
 -1      3249 9.52431E-05-2.84105E-05-2.86428E-05 2.05568E-07-5.81166E-19 5.67756E-19
 -1      3250 9.52484E-05-2.85063E-05-2.86040E-05 6.93476E-08-9.55390E-19-2.18159E-19
 -1      3251 9.52544E-05-2.84930E-05-2.86112E-05 9.64717E-08-7.66535E-19-5.32229E-19
 -1      3252 9.52468E-05-2.84614E-05-2.86226E-05 1.23344E-07-5.50653E-19 5.26772E-19
 -1      3253 9.52445E-05-2.85293E-05-2.85924E-05 2.83757E-08-2.23491E-18 3.13670E-19
 -1      3254 9.52484E-05-2.85195E-05-2.85975E-05 4.66564E-08-1.62008E-18 9.82046E-19
 -1      3255 9.52483E-05-2.84989E-05-2.86071E-05 6.56532E-08-1.65037E-18 3.84759E-19
 -1      3256 9.52417E-05-2.85457E-05-2.85841E-05 1.51114E-09-1.15816E-18 1.21294E-19
 -1      3257 9.52441E-05-2.85386E-05-2.85877E-05 1.33253E-08-1.91096E-18 3.52047E-19
 -1      3258 9.52484E-05-2.85259E-05-2.85955E-05 2.63656E-08-1.72350E-18 1.66319E-18
 -1      3259 9.52398E-05-2.85571E-05-2.85783E-05-1.51774E-08-4.29024E-19-3.67020E-19
 -1      3260 9.52410E-05-2.85521E-05-2.85807E-05-7.99602E-09-6.41533E-19-8.00525E-19
 -1      3261 9.52476E-05-2.85449E-05-2.85870E-05 6.27187E-10-6.16859E-19 3.10454E-19
 -1      3262 9.52385E-05-2.85649E-05-2.85744E-05-2.46838E-08 1.69765E-18-1.48231E-18
 -1      3263 9.52390E-05-2.85614E-05-2.85759E-05-2.07493E-08 6.88439E-19-8.72368E-19
 -1      3264 9.52464E-05-2.85580E-05-2.85809E-05-1.53344E-08 9.56256E-19-1.12625E-18
 -1      3265 9.52377E-05-2.85701E-05-2.85718E-05-2.92341E-08 9.81521E-19-1.23954E-19
 -1      3266 9.52377E-05-2.85677E-05-2.85727E-05-2.75255E-08 1.49181E-18-7.08413E-20
 -1      3267 9.52450E-05-2.85667E-05-2.85765E-05-2.43916E-08 7.81159E-19-6.29766E-19
 -1      3268 9.52373E-05-2.85735E-05-2.85702E-05-3.04324E-08 3.10008E-19 7.94567E-19
 -1      3269 9.52370E-05-2.85719E-05-2.85707E-05-3.02229E-08 9.43387E-19-2.27024E-19
 -1      3270 9.52437E-05-2.85723E-05-2.85735E-05-2.86792E-08 5.99875E-19-3.29562E-19
 -1      3271 9.52373E-05-2.85759E-05-2.85692E-05-2.93830E-08-8.24379E-19 2.89029E-18
 -1      3272 9.52367E-05-2.85747E-05-2.85694E-05-3.01753E-08-2.96732E-19 1.55777E-18
 -1      3273 9.52424E-05-2.85759E-05-2.85714E-05-2.97411E-08-3.54430E-19 7.35857E-19
 -1      3274 1.22859E-04-2.94317E-05-4.02318E-05 1.47713E-05-2.05728E-18-3.48493E-18
 -1      3275 1.17956E-04-2.16748E-05-4.18022E-05 1.25076E-05-2.31928E-18-2.51362E-18
 -1      3276 1.32914E-04-5.43300E-05-3.36420E-05-2.39913E-06-5.30097E-19-4.03796E-18
 -1      3277 9.52566E-05-2.85907E-05-2.85711E-05 1.96722E-09 5.13989E-19-1.58912E-18
 -1      3278 9.52566E-05-2.85908E-05-2.85711E-05-1.74864E-09 1.21395E-18-1.60539E-18
 -1      3279 9.52583E-05-2.85893E-05-2.85724E-05 4.10250E-09 3.43992E-19-9.85696E-19
 -1      3280 6.21445E-05-2.47970E-05-1.57760E-05 3.10038E-05 2.57392E-18-3.64605E-18
 -1      3281 4.98628E-05-1.63798E-05-1.39076E-05 2.24211E-05 2.12272E-18-4.69786E-18
 -1      3282 9.52482E-05-2.85853E-05-2.85698E-05 2.13367E-08-1.67659E-18-2.09101E-18
 -1      3283 9.52506E-05-2.85870E-05-2.85701E-05 1.91377E-08-9.82512E-19-5.96812E-19
 -1      3284 4.36280E-05-1.21945E-05-1.30899E-05-5.46124E-06 1.31346E-19 3.79323E-18
 -1      3285 4.91184E-05-1.53195E-05-1.42186E-05-1.61368E-05 7.77934E-19 3.47516E-18
 -1      3286 1.33267E-04-5.36959E-05-3.40246E-05 2.48705E-06-5.58856E-19 1.09492E-18
 -1      3287 9.52526E-05-2.85882E-05-2.85705E-05 1.60917E-08-2.60670E-19 2.07825E-19
 -1      3288 9.52542E-05-2.85892E-05-2.85707E-05 1.30529E-08-5.82513E-19 1.75114E-18
 -1      3289 9.52565E-05-2.85884E-05-2.85720E-05 1.17945E-08 4.57999E-20 1.44153E-18
 -1      3290 9.52531E-05-2.85865E-05-2.85714E-05 1.85003E-08-9.86387E-19-1.02527E-18
 -1      3291 1.05232E-04-3.78437E-05-2.87796E-05 1.36332E-05-1.04557E-18-1.30311E-18
 -1      3292 1.08796E-04-4.13402E-05-2.88829E-05 1.25533E-05-1.00785E-18-1.40106E-18
 -1      3293 9.96970E-05-3.53209E-05-2.76748E-05 1.59358E-05-1.14552E-18-1.20463E-18
 -1      3294 1.27506E-04-5.60003E-05-3.04251E-05-1.01442E-05 1.16434E-18-3.07155E-18
 -1      3295 1.30234E-04-5.19040E-05-3.39607E-05 5.05082E-07-1.03576E-19-4.20997E-18
 -1      3296 1.22243E-04-5.41431E-05-2.90913E-05-1.18648E-05 1.75995E-18-2.75394E-18
 -1      3297 1.13376E-04-4.50321E-05-2.90934E-05 1.15040E-05-1.52268E-18-1.74341E-18
 -1      3298 1.17920E-04-4.86829E-05-2.96455E-05 8.81883E-06-1.26465E-18-2.39607E-18
 -1      3299 1.17561E-04-5.09722E-05-2.86573E-05 1.25053E-05-1.79387E-18-2.52111E-18
 -1      3300 1.06936E-04-4.29034E-05-2.75931E-05 1.62087E-05-1.69162E-18-1.81659E-18
 -1      3301 7.43527E-05-3.10055E-05-1.84607E-05 2.94612E-05-2.61974E-18 2.51961E-18
 -1      3302 6.04028E-05-2.13667E-05-1.63306E-05 2.28369E-05-2.05623E-18 3.04127E-18
 -1      3303 5.09274E-05-1.53594E-05-1.51536E-05 1.45430E-05-1.15060E-18 2.74513E-18
 -1      3304 4.50026E-05-1.22190E-05-1.36663E-05 3.54249E-06-6.70645E-19 3.32905E-18
 -1      3305 5.30927E-05-1.33109E-05-1.66552E-05-8.98750E-08-1.32170E-19 2.72845E-18
 -1      3306 1.07824E-04-3.94539E-05-2.92822E-05-1.29878E-05-5.14738E-19-5.15181E-19
 -1      3307 1.04569E-04-3.58488E-05-2.93274E-05-1.33628E-05-2.85020E-19-4.62741E-19
 -1      3308 1.00622E-04-4.82320E-05-2.18730E-05-3.18494E-05-2.16332E-18-2.21917E-18
 -1      3309 1.13490E-04-5.36610E-05-2.58226E-05-2.42316E-05-1.82430E-18-6.56676E-19
 -1      3310 9.46609E-05-2.05648E-05-3.17440E-05 3.94399E-07-1.29169E-18-1.93833E-18
 -1      3311 4.37271E-05-1.14434E-05-1.34894E-05 1.21512E-05 1.25627E-18-4.94074E-18
 -1      3312 4.19204E-05-1.01475E-05-1.32151E-05 5.64379E-07 5.75691E-19-5.04789E-18
 -1      3313 9.70046E-05-2.36333E-05-3.14255E-05-5.68128E-06 1.54047E-18-1.10301E-18
 -1      3314 9.37092E-05-2.08504E-05-3.12319E-05-5.05294E-06 1.54672E-18-1.39116E-18
 -1      3315 9.24039E-05-2.10971E-05-3.05531E-05-6.78338E-06 1.16896E-18-1.41854E-18
 -1      3316 9.76900E-05-2.52185E-05-3.10628E-05-7.56919E-06 1.25995E-18-9.96965E-19
 -1      3317 1.01473E-04-3.01832E-05-3.04960E-05 4.48378E-06-7.88774E-19-1.15849E-18
 -1      3318 1.02878E-04-3.22419E-05-3.02943E-05 4.82662E-06-5.48276E-19-1.10287E-18
 -1      3319 1.02592E-04-3.30257E-05-2.98793E-05 6.40163E-06-2.83609E-19-9.68083E-19
 -1      3320 1.31191E-04-3.81435E-05-4.03097E-05-1.10426E-05-1.49046E-18 1.07118E-18
 -1      3321 1.36253E-04-4.64282E-05-3.85671E-05-5.75280E-06-8.68606E-19 1.18934E-18
 -1      3322 1.29577E-04-5.58079E-05-3.18639E-05-5.94125E-06-8.95860E-19 5.92394E-19
 -1      3323 1.27311E-04-5.29491E-05-3.19763E-05-2.48199E-06-7.89977E-19 7.86761E-19
 -1      3324 1.23212E-04-5.10412E-05-3.06777E-05-6.74312E-06-9.42066E-19 6.21841E-19
 -1      3325 1.24789E-04-5.64420E-05-2.88745E-05-1.50135E-05-1.50375E-18 2.04281E-19
 -1      3326 7.58766E-05-8.36498E-06-2.89521E-05 5.19045E-07 8.03189E-19-3.17890E-18
 -1      3327 7.54872E-05-8.16635E-06-2.88652E-05 1.61114E-06 6.19488E-19-3.28600E-18
 -1      3328 9.52421E-05-2.85824E-05-2.85684E-05-2.31604E-08 2.85606E-19 2.42139E-19
 -1      3329 8.60933E-05-1.65156E-05-2.98266E-05-5.77297E-06 1.04481E-18-2.14913E-18
 -1      3330 8.42990E-05-1.39719E-05-3.01211E-05-3.86918E-06 1.27382E-18-2.35243E-18
 -1      3331 8.13780E-05-1.20962E-05-2.97426E-05-3.38754E-06 1.07048E-18-2.57597E-18
 -1      3332 5.29697E-05-1.43258E-05-1.61271E-05 1.60156E-05 1.68096E-18-4.31076E-18
 -1      3333 8.86282E-05-1.78594E-05-3.03550E-05 4.55111E-06-4.11347E-19-2.44349E-18
 -1      3334 9.13139E-05-1.96855E-05-3.06770E-05 3.81619E-06-6.40894E-19-2.32830E-18
 -1      3335 9.52508E-05-2.85871E-05-2.85701E-05-1.90614E-08 1.75653E-18 5.88444E-19
 -1      3336 9.52483E-05-2.85855E-05-2.85698E-05-2.13081E-08 9.06761E-19 4.49477E-19
 -1      3337 1.13844E-04-5.18206E-05-2.64791E-05 1.97403E-05-1.73920E-18-1.36328E-18
 -1      3338 1.19927E-04-2.97643E-05-3.88419E-05-1.28633E-05-1.74219E-18 1.00575E-18
 -1      3339 1.14924E-04-1.96561E-05-4.11046E-05 9.66750E-06-2.39303E-18-2.01986E-18
 -1      3340 9.58128E-05-2.26760E-05-3.13541E-05 1.75064E-06-1.20529E-18-1.73870E-18
 -1      3341 7.59013E-05-8.61474E-06-2.88810E-05 3.21859E-06 5.85764E-19-3.19541E-18
 -1      3342 7.69249E-05-9.31323E-06-2.89643E-05 4.04963E-06 4.69188E-19-3.15722E-18
 -1      3343 7.53805E-05-9.33339E-06-2.82553E-05 2.72946E-06 6.25949E-19-3.15771E-18
 -1      3344 8.40181E-05-3.48581E-05-2.08093E-05 2.69953E-05-2.50502E-18 1.89251E-18
 -1      3345 5.60238E-05-1.82654E-05-1.57255E-05-2.02262E-05 1.18726E-18 2.68859E-18
 -1      3346 6.41983E-05-2.21684E-05-1.78712E-05-2.29026E-05 1.68966E-18 1.51598E-18
 -1      3347 5.64641E-05-1.56014E-05-1.74585E-05-1.32961E-05 1.13469E-18 2.61807E-18
 -1      3348 1.24633E-04-4.66808E-05-3.34638E-05 5.08138E-06 4.12929E-20-3.54117E-18
 -1      3349 1.27553E-04-4.44260E-05-3.55767E-05 8.99444E-06-8.00764E-19-4.06597E-18
 -1      3350 9.52378E-05-2.85770E-05-2.85689E-05-2.84990E-08-1.47856E-18 3.10962E-18
 -1      3351 9.52426E-05-2.85786E-05-2.85703E-05-2.86401E-08-1.83187E-18 2.22934E-18
 -1      3352 9.52391E-05-2.85782E-05-2.85690E-05-2.73669E-08-1.85982E-18 2.69970E-18
 -1      3353 1.24290E-04-3.64061E-05-3.80663E-05 1.27269E-05-1.48795E-18-3.52437E-18
 -1      3354 9.52543E-05-2.85894E-05-2.85707E-05-1.29301E-08 1.36398E-18-4.60407E-19
 -1      3355 9.52527E-05-2.85883E-05-2.85705E-05-1.60157E-08 1.41090E-18-4.50284E-19
 -1      3356 9.52531E-05-2.85867E-05-2.85713E-05-1.83644E-08 1.05247E-18-4.61576E-19
 -1      3357 9.52421E-05-2.85819E-05-2.85686E-05 2.37254E-08-1.71729E-18-1.26494E-18
 -1      3358 4.96428E-05-1.05383E-05-1.65229E-05-1.38435E-07 6.43626E-19-4.40049E-18
 -1      3359 4.43530E-05-1.06206E-05-1.39310E-05-4.95335E-06 1.06283E-19-4.99601E-18
 -1      3360 4.86685E-05-1.25824E-05-1.52208E-05-1.15543E-05-3.31011E-19-4.56286E-18
 -1      3361 1.05455E-04-4.58866E-05-2.53988E-05 2.16067E-05-1.78381E-18-1.00644E-18
 -1      3362 7.21536E-05-2.90566E-05-1.80381E-05 3.18075E-05 2.54279E-18-2.91559E-18
 -1      3363 6.82702E-05-2.38217E-05-1.88154E-05 2.70828E-05 2.30981E-18-3.12142E-18
 -1      3364 8.15855E-05-3.33797E-05-2.06191E-05 3.03470E-05 2.62032E-18-1.85977E-18
 -1      3365 9.52562E-05-2.85905E-05-2.85710E-05-5.70957E-09 1.05609E-18-1.22247E-18
 -1      3366 9.52554E-05-2.85900E-05-2.85709E-05-9.27343E-09 8.93263E-19-1.13928E-18
 -1      3367 9.52566E-05-2.85885E-05-2.85720E-05-1.15832E-08 6.09289E-19-5.18031E-19
 -1      3368 9.52583E-05-2.85894E-05-2.85724E-05-3.89972E-09 8.61021E-19-1.36979E-18
 -1      3369 6.24590E-05-1.90953E-05-1.82052E-05 1.67014E-05-1.55763E-18 2.35184E-18
 -1      3370 5.90708E-05-2.38475E-05-1.44671E-05-2.89267E-05-1.19887E-18-4.29509E-18
 -1      3371 6.99045E-05-2.89003E-05-1.75422E-05-3.01568E-05-1.53927E-18-3.58390E-18
 -1      3372 5.58129E-05-1.88379E-05-1.54942E-05-2.27106E-05-8.26916E-19-4.38181E-18
 -1      3373 1.02019E-04-3.27789E-05-2.96549E-05-1.24602E-05 9.59397E-20-6.60251E-19
 -1      3374 9.99400E-05-3.00821E-05-2.98807E-05-1.18477E-05 3.78819E-19-7.99874E-19
 -1      3375 9.92319E-05-3.30219E-05-2.84969E-05-1.49875E-05-1.29402E-19-8.86109E-19
 -1      3376 9.14962E-05-4.19243E-05-2.10115E-05-3.14435E-05-1.84516E-18-2.53141E-18
 -1      3377 1.33488E-04-5.00472E-05-3.57881E-05-2.25768E-06-3.68162E-19 1.25769E-18
 -1      3378 1.03168E-04-4.85900E-05-2.31005E-05 3.09951E-05 2.14246E-18-1.89682E-19
 -1      3379 9.54684E-05-4.31568E-05-2.22723E-05 3.11608E-05 2.22574E-18-6.20028E-19
 -1      3380 1.10279E-04-5.13412E-05-2.52288E-05 2.58737E-05 1.84248E-18 2.29814E-19
 -1      3381 1.15612E-04-5.19490E-05-2.72233E-05-1.89474E-05-1.47532E-18-4.97511E-19
 -1      3382 9.91859E-05-2.83861E-05-3.03302E-05-1.04343E-05 5.71829E-19-9.33214E-19
 -1      3383 9.79979E-05-2.64505E-05-3.06288E-05-9.12293E-06 9.36045E-19-9.75576E-19
 -1      3384 9.52648E-05-2.45214E-05-3.03355E-05-8.98137E-06 9.03538E-19-9.84275E-19
 -1      3385 9.62074E-05-2.77403E-05-2.93938E-05-1.21401E-05 4.02990E-19-1.01910E-18
 -1      3386 7.70302E-05-9.13995E-06-2.91325E-05-1.14141E-06 7.74641E-19-3.06040E-18
 -1      3387 7.61079E-05-9.65880E-06-2.84192E-05-7.99722E-07 7.34892E-19-3.06253E-18
 -1      3388 7.88074E-05-1.02150E-05-2.93831E-05-2.08250E-06 9.57802E-19-2.90782E-18
 -1      3389 1.16770E-04-4.74162E-05-2.97896E-05-9.98903E-06-8.95684E-19 1.66794E-19
 -1      3390 1.12628E-04-4.35410E-05-2.93963E-05-1.21668E-05-8.09627E-19-1.13701E-19
 -1      3391 1.06504E-04-4.10662E-05-2.82299E-05-1.60534E-05-9.00657E-19-4.13326E-19
 -1      3392 1.17199E-04-4.98663E-05-2.90527E-05-1.32605E-05-1.11608E-18 6.88214E-20
 -1      3393 9.88300E-05-2.63449E-05-3.10287E-05 2.89895E-06-1.21113E-18-1.29549E-18
 -1      3394 9.99166E-05-2.81986E-05-3.07513E-05 3.76082E-06-1.03927E-18-1.27225E-18
 -1      3395 9.90231E-05-2.83504E-05-3.03281E-05 5.21735E-06-8.28529E-19-1.24203E-18
 -1      3396 1.25702E-04-3.54470E-05-3.90896E-05-1.22502E-05-1.42582E-18 8.53412E-19
 -1      3397 8.32795E-05-1.40951E-05-2.96914E-05 5.48785E-06 3.72074E-20-2.78546E-18
 -1      3398 8.58735E-05-1.58251E-05-2.99954E-05 5.16342E-06-2.21433E-19-2.65012E-18
 -1      3399 8.82747E-05-1.88455E-05-2.97430E-05 6.25327E-06-2.92085E-19-2.38836E-18
 -1      3400 7.64513E-05-3.08180E-05-1.94215E-05-2.87771E-05 2.19879E-18 2.17899E-19
 -1      3401 8.29283E-05-3.69581E-05-1.93875E-05-3.21908E-05 2.83830E-18 2.56863E-19
 -1      3402 9.17081E-05-4.02804E-05-2.20760E-05-2.82009E-05 2.74829E-18-6.27016E-19
 -1      3403 1.27435E-04-5.72462E-05-3.00640E-05 1.51776E-05 5.04726E-19 1.36663E-18
 -1      3404 1.21413E-04-5.51215E-05-2.83183E-05 1.81550E-05 1.02253E-18 8.27942E-19
 -1      3405 1.28865E-04-5.51916E-05-3.17641E-05 7.77890E-06 3.13298E-19 1.57024E-18
 -1      3406 9.52454E-05-2.85836E-05-2.85693E-05-2.36495E-08 5.62765E-20-1.32294E-19
 -1      3407 9.52406E-05-2.85803E-05-2.85687E-05-2.51187E-08-2.94089E-19 1.32320E-18
 -1      3408 9.52396E-05-2.85791E-05-2.85688E-05-2.65867E-08-1.05312E-18 1.69254E-18
 -1      3409 9.52475E-05-2.85836E-05-2.85703E-05-2.37763E-08 2.43272E-19 9.79858E-19
 -1      3410 9.52452E-05-2.85834E-05-2.85693E-05 2.38748E-08-1.21730E-18-1.10222E-18
 -1      3411 9.52472E-05-2.85832E-05-2.85703E-05 2.39460E-08-1.16578E-18-2.70618E-18
 -1      3412 1.15316E-04-1.55369E-05-4.30781E-05-5.23721E-06-3.49232E-18-3.82687E-19
 -1      3413 1.11293E-04-4.24180E-05-2.93597E-05 7.88698E-06 3.57362E-19-2.26998E-19
 -1      3414 1.14564E-04-4.50601E-05-2.97786E-05 6.06805E-06 3.37410E-19-1.61704E-19
 -1      3415 1.20717E-04-4.95067E-05-3.04488E-05 5.75514E-06 4.00686E-19 4.29171E-19
 -1      3416 1.23696E-04-4.98120E-05-3.16722E-05 2.39162E-06 1.87671E-19 7.18932E-19
 -1      3417 9.44599E-05-2.23879E-05-3.09094E-05 3.22803E-06-9.25079E-19-1.73425E-18
 -1      3418 9.52488E-05-2.85821E-05-2.85714E-05 2.47258E-08-5.85048E-19-1.91169E-18
 -1      3419 9.52522E-05-2.85840E-05-2.85721E-05 2.21913E-08-1.53257E-18-3.14228E-18
 -1      3420 9.52495E-05-2.85807E-05-2.85723E-05 2.55389E-08-1.09650E-18-1.99001E-18
 -1      3421 1.23380E-04-4.88929E-05-3.18203E-05 1.44131E-06 1.65198E-19-3.20351E-18
 -1      3422 1.12116E-04-4.44083E-05-2.90168E-05-6.36172E-06 4.01288E-19-8.59672E-19
 -1      3423 1.09078E-04-4.21501E-05-2.85733E-05-8.14792E-06 8.03478E-19-6.35897E-19
 -1      3424 1.05644E-04-3.94764E-05-2.83571E-05-8.91363E-06 6.72635E-19-5.64966E-19
 -1      3425 1.03116E-04-3.71061E-05-2.82176E-05-9.62522E-06 2.87422E-19-1.74648E-19
 -1      3426 1.05523E-04-4.10334E-05-2.77697E-05-1.14587E-05 1.19864E-18-8.29795E-19
 -1      3427 1.00826E-04-3.49111E-05-2.82324E-05-9.51494E-06-2.11758E-22 3.42678E-19
 -1      3428 9.89828E-05-3.30017E-05-2.82339E-05-9.61614E-06 4.41854E-19 5.08031E-19
 -1      3429 9.99169E-05-3.56028E-05-2.76381E-05-1.15446E-05 5.93889E-19-4.93837E-19
 -1      3430 9.75816E-05-3.14063E-05-2.83415E-05-9.11840E-06 6.31650E-19 5.17938E-19
 -1      3431 9.63572E-05-3.00465E-05-2.83976E-05-8.88236E-06 7.27443E-19 4.48065E-19
 -1      3432 9.63274E-05-3.15529E-05-2.78133E-05-1.05871E-05 3.18853E-19 2.40121E-19
 -1      3433 9.56064E-05-2.90146E-05-2.85220E-05-8.24955E-06 2.85953E-19 1.17724E-19
 -1      3434 9.48600E-05-2.81430E-05-2.85846E-05-7.85126E-06 4.30479E-19 1.51696E-19
 -1      3435 9.42610E-05-2.87970E-05-2.80872E-05-9.23750E-06 1.56257E-19 1.77584E-19
 -1      3436 9.45299E-05-2.75482E-05-2.86926E-05-7.21316E-06 5.27806E-19-2.00213E-19
 -1      3437 9.41142E-05-2.70481E-05-2.87414E-05-6.75180E-06 1.25802E-19-1.35023E-20
 -1      3438 9.32441E-05-2.71316E-05-2.83503E-05-7.85247E-06 2.83193E-19-3.68784E-20
 -1      3439 9.40386E-05-2.67627E-05-2.88219E-05-6.15748E-06 1.77231E-20 1.87277E-19
 -1      3440 9.38352E-05-2.65227E-05-2.88509E-05-5.68753E-06-2.30766E-19-4.19751E-19
 -1      3441 9.28790E-05-2.62513E-05-2.85621E-05-6.56633E-06 3.12432E-19-5.77012E-19
 -1      3442 9.39021E-05-2.64419E-05-2.89034E-05-5.15425E-06-4.40710E-19-9.27117E-19
 -1      3443 9.38264E-05-2.63721E-05-2.89135E-05-4.70601E-06-5.21231E-19-1.05929E-18
 -1      3444 9.28950E-05-2.59034E-05-2.87128E-05-5.41840E-06-6.08508E-19-1.35955E-18
 -1      3445 9.39639E-05-2.64174E-05-2.89421E-05-4.23852E-06-4.13125E-19-8.19222E-19
 -1      3446 9.39595E-05-2.64514E-05-2.89373E-05-3.82906E-06 3.56975E-19-2.14191E-19
 -1      3447 9.31136E-05-2.58945E-05-2.88076E-05-4.41448E-06-1.92687E-19-4.63164E-19
 -1      3448 9.41227E-05-2.65664E-05-2.89475E-05-3.42700E-06 1.07656E-18-3.54409E-19
 -1      3449 9.41539E-05-2.66572E-05-2.89324E-05-3.06496E-06 1.10025E-18-6.24374E-19
 -1      3450 9.34222E-05-2.60853E-05-2.88567E-05-3.55001E-06 5.35627E-19-8.98450E-20
 -1      3451 9.43164E-05-2.68038E-05-2.89297E-05-2.72508E-06 6.44469E-19-1.15826E-18
 -1      3452 9.43616E-05-2.69199E-05-2.89085E-05-2.41344E-06 4.82187E-19-1.63665E-18
 -1      3453 9.37520E-05-2.63785E-05-2.88719E-05-2.81620E-06 3.97419E-19-7.02470E-19
 -1      3454 9.45093E-05-2.70737E-05-2.88974E-05-2.13078E-06 7.52891E-19-2.45692E-18
 -1      3455 9.45566E-05-2.71953E-05-2.88734E-05-1.86871E-06 1.20857E-18-2.70084E-18
 -1      3456 9.40641E-05-2.67095E-05-2.88639E-05-2.20210E-06 1.15074E-19-1.61663E-18
 -1      3457 9.46833E-05-2.73417E-05-2.88577E-05-1.63740E-06 1.66607E-18-2.62966E-18
 -1      3458 9.47265E-05-2.74572E-05-2.88333E-05-1.42166E-06 1.19002E-18-1.87393E-18
 -1      3459 9.43393E-05-2.70380E-05-2.88413E-05-1.69554E-06 1.53778E-18-2.05759E-18
 -1      3460 9.48307E-05-2.75884E-05-2.88156E-05-1.23551E-06 6.83884E-19-1.79428E-18
 -1      3461 9.48671E-05-2.76917E-05-2.87925E-05-1.06144E-06 7.51538E-19-1.23266E-18
 -1      3462 9.45704E-05-2.73411E-05-2.88108E-05-1.28401E-06 1.42367E-18-2.26920E-18
 -1      3463 9.49498E-05-2.78043E-05-2.87746E-05-9.14100E-07 2.85975E-19-1.18454E-18
 -1      3464 9.49789E-05-2.78927E-05-2.87537E-05-7.76271E-07-3.97818E-19-9.33189E-19
 -1      3465 9.47574E-05-2.76073E-05-2.87773E-05-9.54981E-07 6.23799E-19-2.07357E-18
 -1      3466 9.50426E-05-2.79862E-05-2.87368E-05-6.61532E-07-4.88156E-19-2.60077E-19
 -1      3467 9.50648E-05-2.80594E-05-2.87185E-05-5.54387E-07-4.61961E-19-2.71252E-19
 -1      3468 9.49039E-05-2.78325E-05-2.87438E-05-6.96006E-07-1.42826E-19-1.47117E-18
 -1      3469 9.51126E-05-2.81349E-05-2.87033E-05-4.66532E-07-9.66489E-19 4.46843E-20
 -1      3470 9.51289E-05-2.81940E-05-2.86878E-05-3.84788E-07-7.91791E-19-1.45041E-19
 -1      3471 9.50153E-05-2.80174E-05-2.87126E-05-4.95390E-07-4.71287E-19-1.73425E-18
 -1      3472 9.51636E-05-2.82536E-05-2.86747E-05-3.18734E-07-7.03702E-19 2.39493E-20
 -1      3473 9.51751E-05-2.83001E-05-2.86618E-05-2.57578E-07 4.73421E-20-9.30346E-20
 -1      3474 9.50978E-05-2.81656E-05-2.86847E-05-3.42623E-07-5.64432E-19-1.19511E-18
 -1      3475 9.51995E-05-2.83460E-05-2.86507E-05-2.08882E-07 9.55793E-19-7.06084E-19
 -1      3476 9.52072E-05-2.83818E-05-2.86403E-05-1.64076E-07 9.99311E-19-5.96882E-19
 -1      3477 9.51570E-05-2.82816E-05-2.86606E-05-2.28416E-07 1.02490E-19-2.13782E-18
 -1      3478 9.52238E-05-2.84164E-05-2.86311E-05-1.28944E-07 5.43753E-19-4.13381E-19
 -1      3479 9.52286E-05-2.84434E-05-2.86228E-05-9.68718E-08 4.77920E-19 2.67742E-19
 -1      3480 9.51981E-05-2.83704E-05-2.86402E-05-1.44712E-07 9.40907E-19-1.51777E-18
 -1      3481 9.52393E-05-2.84689E-05-2.86154E-05-7.21482E-08 6.66172E-19 5.51875E-19
 -1      3482 9.52420E-05-2.84887E-05-2.86090E-05-4.98051E-08 5.73492E-19 1.15275E-18
 -1      3483 9.52254E-05-2.84369E-05-2.86235E-05-8.47092E-08 1.07306E-18-2.88431E-19
 -1      3484 9.52484E-05-2.85070E-05-2.86031E-05-3.29225E-08-4.15017E-19 1.56454E-18
 -1      3485 9.52497E-05-2.85212E-05-2.85982E-05-1.78699E-08-5.87107E-19 1.40737E-18
 -1      3486 9.52425E-05-2.84856E-05-2.86101E-05-4.27987E-08-1.53181E-19-6.16141E-19
 -1      3487 9.52530E-05-2.85340E-05-2.85936E-05-6.78107E-09-3.47262E-19 1.55209E-18
 -1      3488 9.52533E-05-2.85439E-05-2.85899E-05 2.91766E-09-7.76113E-19 2.53384E-18
 -1      3489 9.52523E-05-2.85203E-05-2.85994E-05-1.44477E-08-3.53811E-19-6.80549E-19
 -1      3490 9.52545E-05-2.85526E-05-2.85864E-05 9.81333E-09-1.03702E-18 2.68398E-18
 -1      3491 9.52542E-05-2.85593E-05-2.85836E-05 1.56625E-08 5.95744E-20 2.27899E-18
 -1      3492 9.52569E-05-2.85444E-05-2.85911E-05 3.93541E-09-4.59165E-19 1.39121E-18
 -1      3493 9.52541E-05-2.85649E-05-2.85809E-05 1.95904E-08 8.74640E-19 4.53439E-19
 -1      3494 9.52534E-05-2.85693E-05-2.85789E-05 2.27292E-08 1.66366E-19 1.89703E-19
 -1      3495 9.52581E-05-2.85606E-05-2.85847E-05 1.51406E-08-4.82559E-19 6.07743E-19
 -1      3496 9.52525E-05-2.85728E-05-2.85769E-05 2.46113E-08-6.21654E-19 8.11640E-19
 -1      3497 9.52517E-05-2.85756E-05-2.85755E-05 2.58316E-08-3.80822E-21 1.02591E-20
 -1      3498 9.52571E-05-2.85710E-05-2.85798E-05 2.12930E-08 1.64438E-19 3.77220E-19
 -1      3499 9.52511E-05-2.85775E-05-2.85744E-05 2.59777E-08-1.16982E-18-1.01525E-18
 -1      3500 9.52503E-05-2.85793E-05-2.85733E-05 2.59695E-08-1.74826E-18-2.30077E-18
 -1      3501 9.52546E-05-2.85812E-05-2.85744E-05 2.33507E-08-1.50258E-18-2.47033E-18
 -1      3502 9.52558E-05-2.85772E-05-2.85766E-05 2.35265E-08-1.50712E-18-1.22318E-18
 -1      3503 1.21294E-04-5.14379E-05-3.01801E-05-6.00665E-06 7.42135E-19-3.16811E-18
 -1      3504 1.18735E-04-4.77668E-05-3.04414E-05-1.83279E-06-1.34162E-19-2.30488E-18
 -1      3505 1.15892E-04-4.66864E-05-2.95231E-05-4.82410E-06 1.71291E-19-1.59686E-18
 -1      3506 1.16858E-04-5.13645E-05-2.78020E-05-1.40475E-05 1.90184E-18-1.84726E-18
 -1      3507 1.02781E-04-4.59066E-05-2.40494E-05-2.50110E-05 2.64499E-18-1.17261E-18
 -1      3508 1.09834E-04-4.99988E-05-2.58537E-05-2.11516E-05 2.54061E-18-1.11497E-18
 -1      3509 1.12237E-04-4.83609E-05-2.72752E-05-1.48581E-05 1.74907E-18-1.26436E-18
 -1      3510 9.62224E-05-4.11782E-05-2.34582E-05-2.48228E-05 2.38143E-18-8.77771E-19
 -1      3511 9.05897E-05-2.50900E-05-2.80893E-05 1.17320E-05-1.07660E-18 1.76721E-20
 -1      3512 9.11186E-05-2.60264E-05-2.78552E-05 1.26930E-05-1.35372E-18-2.63384E-19
 -1      3513 9.10437E-05-2.70900E-05-2.74190E-05 1.41462E-05-1.44166E-18 6.73067E-20
 -1      3514 9.23928E-05-2.89482E-05-2.71173E-05 1.51695E-05-1.07730E-18 1.32626E-19
 -1      3515 8.74201E-05-2.47697E-05-2.68622E-05 1.34751E-05-1.14780E-18-6.10132E-19
 -1      3516 9.15954E-05-2.43230E-05-2.88484E-05 8.07422E-06-1.14225E-19 6.00843E-19
 -1      3517 9.14977E-05-2.43530E-05-2.87619E-05 8.84347E-06-3.11669E-19 7.84184E-19
 -1      3518 9.23127E-05-2.46631E-05-2.90080E-05 6.64804E-06-6.38463E-19 1.42921E-18
 -1      3519 9.21499E-05-2.45242E-05-2.89731E-05 7.33150E-06-4.02631E-19 1.02445E-18
 -1      3520 9.02399E-05-2.34809E-05-2.85970E-05 7.32006E-06-8.15093E-19 1.40614E-18
 -1      3521 9.29722E-05-2.51627E-05-2.90743E-05 5.41977E-06-1.70349E-19 1.55098E-18
 -1      3522 9.28067E-05-2.49509E-05-2.90743E-05 6.02104E-06 1.67605E-20 1.98245E-18
 -1      3523 9.12873E-05-2.40288E-05-2.88124E-05 6.00983E-06-4.59734E-19 1.40380E-18
 -1      3524 9.35296E-05-2.57023E-05-2.90798E-05 4.36446E-06-5.77106E-20 6.52960E-19
 -1      3525 9.33869E-05-2.54716E-05-2.91010E-05 4.88595E-06-2.15547E-19 8.78400E-19
 -1      3526 9.21893E-05-2.46755E-05-2.89241E-05 4.89762E-06 2.27969E-20 1.26385E-18
 -1      3527 9.39779E-05-2.62184E-05-2.90488E-05 3.46653E-06-5.97278E-19 9.74553E-19
 -1      3528 9.38649E-05-2.59972E-05-2.90813E-05 3.91120E-06-1.45141E-19 7.58000E-19
 -1      3529 9.29315E-05-2.53243E-05-2.89663E-05 3.94722E-06-8.82172E-20 6.19352E-19
 -1      3530 9.43267E-05-2.66810E-05-2.89984E-05 2.71311E-06-2.72830E-19 1.56522E-18
 -1      3531 9.42418E-05-2.64826E-05-2.90353E-05 3.08556E-06-6.36550E-19 8.59857E-19
 -1      3532 9.35236E-05-2.59250E-05-2.89647E-05 3.13928E-06-7.69515E-19 6.53786E-19
 -1      3533 9.45916E-05-2.70788E-05-2.89399E-05 2.09071E-06-2.74280E-19 1.46192E-18
 -1      3534 9.45301E-05-2.69081E-05-2.89769E-05 2.39725E-06 9.04539E-20 1.50429E-18
 -1      3535 9.39853E-05-2.64543E-05-2.89373E-05 2.46047E-06-1.34899E-19 4.92046E-19
 -1      3536 9.47889E-05-2.74113E-05-2.88807E-05 1.58464E-06-5.20654E-20 7.98240E-19
 -1      3537 9.47457E-05-2.72686E-05-2.89153E-05 1.83272E-06-3.11882E-19 1.47134E-18
 -1      3538 9.43387E-05-2.69054E-05-2.88967E-05 1.89843E-06 1.02100E-19 3.60606E-19
 -1      3539 9.49336E-05-2.76834E-05-2.88251E-05 1.17969E-06 1.33673E-18 1.49619E-18
 -1      3540 9.49039E-05-2.75665E-05-2.88559E-05 1.37717E-06 7.33739E-19 1.22339E-18
 -1      3541 9.46050E-05-2.72805E-05-2.88511E-05 1.44028E-06 4.09446E-19 3.47871E-19
 -1      3542 9.50380E-05-2.79022E-05-2.87753E-05 8.60959E-07 2.18359E-19 7.86980E-19
 -1      3543 9.50182E-05-2.78081E-05-2.88018E-05 1.01558E-06 1.52243E-18 1.91958E-18
 -1      3544 9.48027E-05-2.75863E-05-2.88055E-05 1.07286E-06 1.05408E-18 1.12264E-18
 -1      3545 9.51122E-05-2.80753E-05-2.87322E-05 6.14192E-07-9.75418E-19 3.92109E-19
 -1      3546 9.50993E-05-2.80008E-05-2.87544E-05 7.33287E-07-1.04550E-18-1.32153E-19
 -1      3547 9.49475E-05-2.78316E-05-2.87629E-05 7.83178E-07 4.29949E-19 9.95694E-19
 -1      3548 9.51639E-05-2.82102E-05-2.86960E-05 4.26290E-07 1.87042E-19 3.39802E-19
 -1      3549 9.51558E-05-2.81521E-05-2.87142E-05 5.16502E-07-5.00669E-19 7.19773E-19
 -1      3550 9.50517E-05-2.80251E-05-2.87250E-05 5.58585E-07-7.40482E-19 5.34973E-19
 -1      3551 9.51991E-05-2.83138E-05-2.86663E-05 2.85721E-07-1.51175E-20 1.98258E-19
 -1      3552 9.51943E-05-2.82691E-05-2.86808E-05 3.52842E-07 6.09592E-19 1.55311E-19
 -1      3553 9.51253E-05-2.81755E-05-2.86924E-05 3.87382E-07 2.03657E-19 1.78921E-19
 -1      3554 9.52223E-05-2.83922E-05-2.86423E-05 1.82577E-07-1.66459E-18 1.48517E-18
 -1      3555 9.52197E-05-2.83584E-05-2.86538E-05 2.31548E-07-1.34799E-18 5.60837E-19
 -1      3556 9.51762E-05-2.82907E-05-2.86650E-05 2.59239E-07-5.01346E-19 7.05117E-19
 -1      3557 9.52369E-05-2.84505E-05-2.86233E-05 1.08513E-07-5.14123E-19 1.32425E-18
 -1      3558 9.52358E-05-2.84253E-05-2.86322E-05 1.43460E-07-7.49654E-19 1.75554E-18
 -1      3559 9.52103E-05-2.83775E-05-2.86425E-05 1.65203E-07-1.23000E-18 1.24773E-18
 -1      3560 9.52456E-05-2.84931E-05-2.86086E-05 5.66498E-08-1.71633E-18 1.73283E-18
 -1      3561 9.52453E-05-2.84746E-05-2.86154E-05 8.09461E-08-3.96841E-19 1.41242E-18
 -1      3562 9.52322E-05-2.84418E-05-2.86245E-05 9.76951E-08-9.39583E-19 2.55670E-18
 -1      3563 9.52501E-05-2.85235E-05-2.85974E-05 2.14319E-08-1.11018E-18 2.04334E-19
 -1      3564 9.52504E-05-2.85103E-05-2.86024E-05 3.77843E-08-1.79105E-18 6.99137E-19
 -1      3565 9.52455E-05-2.84885E-05-2.86102E-05 5.04523E-08-9.83049E-19 1.22797E-18
 -1      3566 9.52518E-05-2.85447E-05-2.85889E-05-1.54143E-09-6.08251E-20 1.10873E-19
 -1      3567 9.52524E-05-2.85355E-05-2.85926E-05 8.99797E-09-4.77531E-19 7.10723E-19
 -1      3568 9.52527E-05-2.85217E-05-2.85990E-05 1.84079E-08-6.84609E-19-4.95833E-19
 -1      3569 9.52517E-05-2.85591E-05-2.85826E-05-1.56890E-08 1.59840E-18 8.09712E-20
 -1      3570 9.52524E-05-2.85528E-05-2.85853E-05-9.31765E-09 7.70822E-19 2.92588E-19
 -1      3571 9.52558E-05-2.85447E-05-2.85905E-05-2.45550E-09 4.85390E-19-2.84027E-19
 -1      3572 9.52506E-05-2.85685E-05-2.85781E-05-2.36118E-08-1.20482E-20 1.29506E-18
 -1      3573 9.52513E-05-2.85644E-05-2.85800E-05-2.01658E-08 1.22290E-18 7.89944E-19
 -1      3574 9.52562E-05-2.85601E-05-2.85841E-05-1.52603E-08 8.97785E-19 1.61742E-18
 -1      3575 9.52489E-05-2.85745E-05-2.85748E-05-2.72376E-08 6.04888E-19 7.91278E-19
 -1      3576 9.52496E-05-2.85718E-05-2.85761E-05-2.58040E-08 2.16614E-19 5.99177E-19
 -1      3577 9.52550E-05-2.85701E-05-2.85793E-05-2.23830E-08 3.78312E-19 1.81501E-18
 -1      3578 9.52470E-05-2.85782E-05-2.85724E-05-2.79337E-08-1.27941E-18 1.74198E-18
 -1      3579 9.52476E-05-2.85765E-05-2.85733E-05-2.78746E-08-5.40152E-19 1.62897E-18
 -1      3580 9.52528E-05-2.85764E-05-2.85757E-05-2.55825E-08-5.68905E-19 2.46984E-18
 -1      3581 7.86779E-05-1.07614E-05-2.91576E-05 5.06105E-06 3.69998E-19-3.01823E-18
 -1      3582 8.07448E-05-1.21346E-05-2.93784E-05 5.33510E-06 1.36982E-19-2.90707E-18
 -1      3583 8.25483E-05-1.47774E-05-2.90306E-05 6.73176E-06 1.08123E-19-2.72523E-18
 -1      3584 9.52602E-05-2.85879E-05-2.85739E-05 6.17517E-09 1.86832E-19 6.34320E-19
 -1      3585 9.52607E-05-2.85881E-05-2.85740E-05 2.22860E-09-2.09515E-19 6.18169E-20
 -1      3586 6.96770E-05-2.17371E-05-2.05186E-05 1.88287E-05-1.39201E-18 2.19387E-18
 -1      3587 6.17769E-05-1.59985E-05-1.94019E-05 1.15269E-05-9.76932E-19 2.10244E-18
 -1      3588 9.38227E-05-3.95099E-05-2.32386E-05 2.56654E-05-2.21160E-18 9.79647E-19
 -1      3589 8.10886E-05-3.03076E-05-2.17151E-05 2.40112E-05-2.10411E-18 2.01136E-18
 -1      3590 9.72575E-05-3.69782E-05-2.57494E-05 1.97901E-05-1.93997E-18-6.32532E-19
 -1      3591 1.01971E-04-4.13720E-05-2.58301E-05 1.97315E-05-2.05302E-18-7.15615E-19
 -1      3592 8.43614E-05-3.58953E-05-2.01983E-05-3.10262E-05-1.71297E-18-3.07163E-18
 -1      3593 9.69492E-05-4.26104E-05-2.34476E-05-2.74729E-05-1.83377E-18-1.66813E-18
 -1      3594 7.76459E-05-3.01474E-05-2.01315E-05-2.76862E-05-1.36404E-18-3.11089E-18
 -1      3595 9.96517E-05-3.06182E-05-2.95156E-05 7.92628E-06-3.05850E-19-1.06734E-18
 -1      3596 1.01767E-04-3.33486E-05-2.93234E-05 8.41149E-06 8.73494E-20-9.72862E-19
 -1      3597 5.70314E-05-1.35980E-05-1.86354E-05 3.11203E-06-4.18687E-19 1.89412E-18
 -1      3598 5.66028E-05-1.34372E-05-1.81690E-05-5.24661E-06 3.22685E-19 2.09225E-18
 -1      3599 5.98179E-05-1.65895E-05-1.83160E-05 1.98682E-05 1.90699E-18-3.57263E-18
 -1      3600 5.43451E-05-1.20803E-05-1.78922E-05 1.07506E-05 1.23336E-18-3.98958E-18
 -1      3601 9.09376E-05-2.43512E-05-2.85559E-05 9.74292E-06-7.03467E-19 2.74732E-19
 -1      3602 9.10333E-05-2.47092E-05-2.84007E-05 1.06052E-05-8.12017E-19 4.27910E-19
 -1      3603 8.80601E-05-2.34777E-05-2.76723E-05 1.08772E-05-1.11443E-18-5.59214E-19
 -1      3604 8.91111E-05-2.32017E-05-2.82338E-05 8.89939E-06-9.60371E-19 5.78832E-19
 -1      3605 9.28512E-05-3.07557E-05-2.65958E-05 1.68661E-05-1.25579E-18-1.05102E-19
 -1      3606 9.55693E-05-3.38682E-05-2.63159E-05 1.77234E-05-1.86522E-18-8.31002E-19
 -1      3607 8.92330E-05-3.18461E-05-2.45772E-05 2.07170E-05-1.91999E-18 7.35542E-19
 -1      3608 8.76186E-05-2.74265E-05-2.58117E-05 1.67082E-05-1.67298E-18 1.79591E-19
 -1      3609 1.04572E-04-3.63215E-05-2.91548E-05 8.95541E-06 2.48384E-19-8.17837E-19
 -1      3610 1.07355E-04-3.92654E-05-2.91943E-05 8.52388E-06 2.83687E-19-6.46842E-19
 -1      3611 1.07431E-04-4.09527E-05-2.86170E-05 1.14385E-05 5.58397E-19-7.01489E-19
 -1      3612 9.43827E-05-2.35582E-05-3.03552E-05 5.02799E-06-6.20604E-19-1.79278E-18
 -1      3613 1.25516E-04-4.02059E-05-3.66611E-05-1.02871E-05-7.96185E-19 1.03228E-18
 -1      3614 1.09602E-04-4.68327E-05-2.64570E-05-2.08618E-05-1.47963E-18-7.54941E-19
 -1      3615 9.22994E-05-2.22742E-05-3.00092E-05-8.57983E-06 9.20061E-19-1.30467E-18
 -1      3616 8.95986E-05-2.01097E-05-2.97573E-05-8.05737E-06 8.56504E-19-1.69079E-18
 -1      3617 9.26168E-05-2.36836E-05-2.95301E-05-1.01933E-05 6.35154E-19-1.32696E-18
 -1      3618 1.25209E-04-4.45776E-05-3.48670E-05-6.74917E-06-4.53030E-19 9.90182E-19
 -1      3619 1.17133E-04-4.93988E-05-2.91051E-05 1.16972E-05 7.34953E-19 3.07579E-19
 -1      3620 7.36175E-05-2.35765E-05-2.14562E-05 2.31479E-05 1.92602E-18-2.69833E-18
 -1      3621 6.62950E-05-1.96697E-05-1.97030E-05 2.20046E-05 1.95370E-18-3.17704E-18
 -1      3622 6.62503E-05-1.68462E-05-2.10790E-05 1.72522E-05 1.39959E-18-3.18212E-18
 -1      3623 1.27382E-04-4.95679E-05-3.33019E-05-1.42296E-06-1.10922E-19 9.34939E-19
 -1      3624 9.24823E-05-2.32158E-05-2.97298E-05 6.98339E-06-2.80530E-19-1.88805E-18
 -1      3625 9.58845E-05-2.58240E-05-2.99919E-05 6.27197E-06-5.77692E-19-1.52039E-18
 -1      3626 9.74540E-05-2.81250E-05-2.97117E-05 7.21779E-06-5.07614E-19-1.37106E-18
 -1      3627 8.62008E-05-1.89397E-05-2.88687E-05 8.45318E-06 8.90766E-20-2.37246E-18
 -1      3628 8.93008E-05-2.09773E-05-2.92625E-05 7.83508E-06-9.45658E-20-2.19963E-18
 -1      3629 9.07463E-05-2.33405E-05-2.88612E-05 9.30396E-06 7.62396E-20-2.01239E-18
 -1      3630 1.12734E-04-4.67743E-05-2.84504E-05-9.77167E-06 8.53386E-19-1.63183E-18
 -1      3631 7.37266E-05-9.76090E-06-2.74542E-05 2.28908E-06 7.00529E-19-3.11587E-18
 -1      3632 7.43563E-05-1.02159E-05-2.74835E-05 4.08934E-06 5.61584E-19-3.12659E-18
 -1      3633 9.52437E-05-2.85807E-05-2.85698E-05-2.66940E-08-7.38535E-19 9.13787E-19
 -1      3634 6.10086E-05-1.57311E-05-1.92930E-05-9.22590E-06 8.80127E-19 1.84947E-18
 -1      3635 9.52471E-05-2.85808E-05-2.85713E-05-2.64486E-08-1.31293E-18 1.41041E-18
 -1      3636 9.52467E-05-2.85794E-05-2.85717E-05-2.73216E-08-1.53107E-18 2.10700E-18
 -1      3637 9.52515E-05-2.85803E-05-2.85734E-05-2.57128E-08-1.90979E-18 2.26698E-18
 -1      3638 7.78111E-05-1.12805E-05-2.84858E-05 5.51883E-06 4.37415E-19-2.97067E-18
 -1      3639 5.35944E-05-1.07134E-05-1.80285E-05 6.36702E-06 9.80063E-19-4.04871E-18
 -1      3640 5.43633E-05-1.07745E-05-1.85203E-05 9.32552E-07 5.48778E-19-3.86168E-18
 -1      3641 5.94379E-05-1.25953E-05-1.99212E-05 1.02565E-05 1.12909E-18-3.78306E-18
 -1      3642 9.06263E-05-3.80514E-05-2.21990E-05 2.94633E-05 2.24211E-18-1.08423E-18
 -1      3643 8.46450E-05-3.27416E-05-2.21613E-05 2.73561E-05 2.19175E-18-1.77849E-18
 -1      3644 9.52593E-05-2.85875E-05-2.85736E-05 1.02367E-08 6.19006E-19 5.07593E-19
 -1      3645 9.52616E-05-2.85861E-05-2.85752E-05 8.34548E-09-1.98370E-19 3.49300E-19
 -1      3646 9.52578E-05-2.85868E-05-2.85733E-05 1.38797E-08-9.44209E-20 3.36866E-19
 -1      3647 1.00838E-04-3.40784E-05-2.87048E-05 1.08968E-05 2.37392E-19-1.02659E-18
 -1      3648 9.52607E-05-2.85882E-05-2.85740E-05-1.98038E-09 6.86085E-19-1.23434E-18
 -1      3649 9.52603E-05-2.85879E-05-2.85739E-05-5.90349E-09 8.51786E-19-2.07997E-18
 -1      3650 9.52627E-05-2.85865E-05-2.85755E-05 1.44569E-10 2.35495E-19-3.54681E-19
 -1      3651 5.47320E-05-1.49217E-05-1.66008E-05-1.63394E-05-5.81912E-19-4.46280E-18
 -1      3652 6.23207E-05-1.88765E-05-1.86137E-05-2.01742E-05-7.62727E-19-3.75537E-18
 -1      3653 5.58530E-05-1.27438E-05-1.83421E-05-1.05336E-05-2.33530E-20-4.07402E-18
 -1      3654 9.57022E-05-3.19208E-05-2.72537E-05-1.69805E-05-5.18100E-19-1.32080E-18
 -1      3655 9.29650E-05-2.83240E-05-2.76489E-05-1.55023E-05-1.81996E-20-1.45819E-18
 -1      3656 9.52561E-05-2.85862E-05-2.85728E-05-1.73182E-08 1.31857E-19-5.70649E-19
 -1      3657 9.52537E-05-2.85850E-05-2.85723E-05-2.03267E-08 2.30560E-19-1.83745E-19
 -1      3658 8.42773E-05-2.91061E-05-2.35637E-05 2.04414E-05-1.50870E-18 1.68695E-18
 -1      3659 7.54727E-05-2.47783E-05-2.15483E-05 2.06097E-05-1.62600E-18 2.35109E-18
 -1      3660 7.42147E-05-2.16366E-05-2.24667E-05 1.61465E-05-1.08396E-18 1.91051E-18
 -1      3661 8.30004E-05-2.65784E-05-2.42476E-05 1.82079E-05-1.66441E-18 1.25727E-18
 -1      3662 9.52549E-05-2.85853E-05-2.85727E-05 1.90801E-08-1.13822E-18-1.68052E-18
 -1      3663 7.98151E-05-1.22232E-05-2.89685E-05-3.95538E-06 8.34347E-19-2.60647E-18
 -1      3664 6.43981E-05-1.57712E-05-2.06703E-05 6.55703E-06-3.52015E-19 1.83347E-18
 -1      3665 1.02001E-04-4.19290E-05-2.56456E-05-2.19597E-05-1.38469E-18-1.22065E-18
 -1      3666 9.60185E-05-2.81994E-05-2.91287E-05 9.22236E-06-1.48097E-19-1.32872E-18
 -1      3667 6.88631E-05-2.17463E-05-2.02260E-05-1.93595E-05 1.43895E-18 9.76788E-19
 -1      3668 7.22542E-05-2.60129E-05-1.95183E-05-2.48738E-05 1.51581E-18 1.92885E-19
 -1      3669 8.01576E-05-3.00313E-05-2.15915E-05-2.43343E-05 1.66780E-18 4.64280E-20
 -1      3670 7.39911E-05-9.86083E-06-2.75297E-05-3.87441E-07 6.57238E-19-3.18294E-18
 -1      3671 7.29794E-05-1.05013E-05-2.66988E-05 9.31707E-07 6.07158E-19-3.13080E-18
 -1      3672 7.51936E-05-1.04479E-05-2.77055E-05-2.23225E-06 6.66785E-19-3.04756E-18
 -1      3673 9.75824E-05-4.21711E-05-2.37792E-05 2.73065E-05 1.91432E-18-6.14972E-19
 -1      3674 9.52540E-05-2.85830E-05-2.85733E-05-2.22380E-08-8.76370E-20 8.03160E-19
 -1      3675 9.52512E-05-2.85836E-05-2.85718E-05-2.32577E-08 2.28450E-19 9.05531E-19
 -1      3676 8.58331E-05-1.76754E-05-2.92390E-05-7.50848E-06 7.44710E-19-2.06083E-18
 -1      3677 9.71195E-05-3.68047E-05-2.56857E-05-2.13173E-05-1.16261E-18-1.41775E-18
 -1      3678 8.89642E-05-3.15938E-05-2.45836E-05-2.23273E-05-9.60641E-19-2.02616E-18
 -1      3679 9.52575E-05-2.85843E-05-2.85742E-05 1.77101E-08-5.68645E-19-2.15098E-18
 -1      3680 1.08202E-04-4.51860E-05-2.68320E-05-1.55789E-05 1.78387E-18-6.58555E-19
 -1      3681 7.45604E-05-1.18600E-05-2.68263E-05 6.12051E-06 5.70254E-19-3.03085E-18
 -1      3682 7.60865E-05-1.16723E-05-2.76687E-05 6.26289E-06 5.85315E-19-2.96475E-18
 -1      3683 7.83008E-05-1.31211E-05-2.78982E-05 7.32035E-06 4.36811E-19-2.78518E-18
 -1      3684 9.83788E-05-3.54132E-05-2.69170E-05-1.35069E-05 9.45537E-19-1.53339E-19
 -1      3685 9.60073E-05-3.29508E-05-2.69838E-05-1.30631E-05 5.66594E-19 1.79136E-19
 -1      3686 9.46487E-05-3.09727E-05-2.72418E-05-1.17924E-05 6.14008E-19 5.25844E-19
 -1      3687 9.32299E-05-2.92832E-05-2.73942E-05-1.10551E-05 6.58140E-19 4.59352E-19
 -1      3688 9.23581E-05-3.05725E-05-2.65151E-05-1.37615E-05 9.17492E-19 7.19425E-19
 -1      3689 9.26997E-05-2.81079E-05-2.76481E-05-9.89949E-06 2.49700E-19 8.64643E-19
 -1      3690 9.19471E-05-2.70704E-05-2.78053E-05-9.14319E-06 8.04563E-20 6.15860E-19
 -1      3691 9.06410E-05-2.74844E-05-2.70947E-05-1.09938E-05 4.87920E-19 3.79765E-19
 -1      3692 9.18570E-05-2.64255E-05-2.80189E-05-8.18159E-06 9.09899E-24 8.61905E-19
 -1      3693 9.15307E-05-2.58579E-05-2.81520E-05-7.48790E-06 4.16796E-19 6.78648E-19
 -1      3694 9.01175E-05-2.57435E-05-2.76009E-05-8.77293E-06 1.52710E-19 6.61224E-19
 -1      3695 9.16851E-05-2.55750E-05-2.83173E-05-6.70051E-06 4.78545E-19-1.74480E-20
 -1      3696 9.16140E-05-2.53272E-05-2.84171E-05-6.08931E-06 2.63581E-21 5.98399E-20
 -1      3697 9.02317E-05-2.48901E-05-2.80064E-05-6.98612E-06 1.45448E-19 7.44598E-19
 -1      3698 9.18883E-05-2.52788E-05-2.85365E-05-5.44808E-06-3.84932E-19-2.69213E-19
 -1      3699 9.19593E-05-2.52372E-05-2.86040E-05-4.91738E-06-5.94224E-19-2.56702E-19
 -1      3700 9.06871E-05-2.46271E-05-2.83096E-05-5.55795E-06-5.37520E-19 2.35600E-19
 -1      3701 9.22806E-05-2.53338E-05-2.86844E-05-4.39358E-06 4.97825E-20 3.73229E-19
 -1      3702 9.24215E-05-2.54173E-05-2.87245E-05-3.93788E-06 4.28943E-19 8.25928E-19
 -1      3703 9.12955E-05-2.47326E-05-2.85228E-05-4.40944E-06 1.33671E-19 1.44309E-18
 -1      3704 9.27448E-05-2.55940E-05-2.87739E-05-3.51026E-06 1.44154E-19 7.64947E-19
 -1      3705 9.29109E-05-2.57452E-05-2.87930E-05-3.12304E-06 3.04063E-19 5.87462E-19
 -1      3706 9.19454E-05-2.50547E-05-2.86623E-05-3.48125E-06 1.89283E-19 1.04125E-18
 -1      3707 9.32107E-05-2.59573E-05-2.88192E-05-2.77468E-06-2.86028E-19 2.99952E-20
 -1      3708 9.33756E-05-2.61374E-05-2.88231E-05-2.44932E-06-5.71788E-19-3.62375E-19
 -1      3709 9.25695E-05-2.54854E-05-2.87452E-05-2.72960E-06-3.88210E-19 1.00910E-18
 -1      3710 9.36392E-05-2.63558E-05-2.88330E-05-2.16684E-06 4.20008E-20-7.14358E-19
 -1      3711 9.37889E-05-2.65397E-05-2.88268E-05-1.89689E-06 3.00762E-19-7.78397E-19
 -1      3712 9.31316E-05-2.59519E-05-2.87866E-05-2.12106E-06-3.68405E-19-2.06980E-19
 -1      3713 9.40117E-05-2.67465E-05-2.88258E-05-1.66937E-06 8.16240E-19-4.60286E-19
 -1      3714 9.41402E-05-2.69196E-05-2.88136E-05-1.44832E-06 2.14941E-18-7.11761E-19
 -1      3715 9.36159E-05-2.64080E-05-2.87993E-05-1.63028E-06 7.29940E-19-2.88148E-21
 -1      3716 9.43229E-05-2.71055E-05-2.88057E-05-1.26688E-06 1.89409E-18-1.68906E-18
 -1      3717 9.44285E-05-2.72600E-05-2.87904E-05-1.08864E-06 1.27232E-18-1.37596E-18
 -1      3718 9.40190E-05-2.68272E-05-2.87931E-05-1.23684E-06 1.37045E-18 2.16170E-19
 -1      3719 9.45741E-05-2.74203E-05-2.87788E-05-9.45717E-07 7.83542E-19-1.69474E-18
 -1      3720 9.46581E-05-2.75528E-05-2.87625E-05-8.04132E-07 4.33420E-19-1.63101E-18
 -1      3721 9.43450E-05-2.71960E-05-2.87754E-05-9.24762E-07 8.03380E-19-4.66545E-19
 -1      3722 9.47713E-05-2.76867E-05-2.87494E-05-6.92880E-07-4.62157E-20-1.91300E-18
 -1      3723 9.48359E-05-2.77967E-05-2.87335E-05-5.82080E-07-3.24209E-19-1.50048E-18
 -1      3724 9.46018E-05-2.75092E-05-2.87518E-05-6.79921E-07 6.01321E-19-1.23418E-18
 -1      3725 9.49219E-05-2.79058E-05-2.87202E-05-4.96605E-07-3.19895E-19-1.33430E-18
 -1      3726 9.49704E-05-2.79950E-05-2.87057E-05-4.11299E-07-6.49619E-19-1.35345E-18
 -1      3727 9.47993E-05-2.77678E-05-2.87261E-05-4.89975E-07-4.46618E-19-5.46022E-19
 -1      3728 9.50342E-05-2.80818E-05-2.86931E-05-3.46678E-07-1.01323E-18-2.00809E-18
 -1      3729 9.50695E-05-2.81524E-05-2.86802E-05-2.82143E-07-4.54462E-19-1.52845E-18
 -1      3730 9.49477E-05-2.79765E-05-2.87007E-05-3.44667E-07-8.53915E-19-1.43326E-18
 -1      3731 9.51155E-05-2.82200E-05-2.86689E-05-2.34141E-07-2.54558E-19-1.83605E-18
 -1      3732 9.51405E-05-2.82746E-05-2.86579E-05-1.86212E-07 3.82241E-19-2.18792E-18
 -1      3733 9.50565E-05-2.81412E-05-2.86771E-05-2.35330E-07-2.65668E-19-1.77755E-18
 -1      3734 9.51727E-05-2.83261E-05-2.86480E-05-1.51213E-07 1.53128E-18-2.03480E-18
 -1      3735 9.51896E-05-2.83675E-05-2.86388E-05-1.16331E-07 1.32400E-18-1.51022E-18
 -1      3736 9.51340E-05-2.82685E-05-2.86560E-05-1.54451E-07 6.63841E-19-1.81533E-18
 -1      3737 9.52113E-05-2.84059E-05-2.86305E-05-9.13548E-08 5.10826E-19-1.61854E-18
 -1      3738 9.52222E-05-2.84366E-05-2.86229E-05-6.65463E-08 4.34505E-19-1.60216E-18
 -1      3739 9.51873E-05-2.83647E-05-2.86379E-05-9.57450E-08 1.00292E-18-2.47306E-18
 -1      3740 9.52361E-05-2.84646E-05-2.86161E-05-4.91749E-08-8.98448E-20-1.67378E-18
 -1      3741 9.52426E-05-2.84868E-05-2.86100E-05-3.20102E-08-7.92757E-19-1.90531E-18
 -1      3742 9.52226E-05-2.84359E-05-2.86226E-05-5.40659E-08-1.77817E-19-3.26883E-18
 -1      3743 9.52508E-05-2.85067E-05-2.86044E-05-2.03097E-08 3.17894E-19-1.24673E-18
 -1      3744 9.52543E-05-2.85223E-05-2.85997E-05-8.83961E-09 9.88596E-19-3.73760E-19
 -1      3745 9.52445E-05-2.84874E-05-2.86100E-05-2.52568E-08 5.17083E-19-1.99626E-18
 -1      3746 9.52585E-05-2.85360E-05-2.85952E-05-1.28945E-09 5.34049E-19-2.48192E-20
 -1      3747 9.52599E-05-2.85467E-05-2.85915E-05 6.01955E-09-1.69041E-19 4.81151E-19
 -1      3748 9.52569E-05-2.85236E-05-2.85999E-05-6.00950E-09 1.21992E-18-8.03573E-19
 -1      3749 9.52614E-05-2.85558E-05-2.85880E-05 1.05932E-08-1.58961E-18 1.08640E-18
 -1      3750 9.52614E-05-2.85629E-05-2.85851E-05 1.49229E-08-1.52032E-18 3.92560E-19
 -1      3751 9.52626E-05-2.85483E-05-2.85918E-05 6.26418E-09-7.43954E-19 6.76242E-19
 -1      3752 9.52612E-05-2.85687E-05-2.85824E-05 1.74102E-08-9.85223E-19-3.97986E-19
 -1      3753 9.52603E-05-2.85732E-05-2.85802E-05 1.96158E-08-7.63988E-19-4.13189E-19
 -1      3754 9.52639E-05-2.85646E-05-2.85854E-05 1.35488E-08-2.07482E-18 3.02318E-19
 -1      3755 9.15034E-05-2.43200E-05-2.88064E-05 4.15002E-06-6.62189E-20 7.97533E-19
 -1      3756 9.10845E-05-2.39681E-05-2.87634E-05 4.62839E-06-5.15357E-19 3.24861E-19
 -1      3757 8.38561E-05-2.22694E-05-2.64470E-05 1.15881E-05-1.10506E-18 1.34706E-19
 -1      3758 8.36643E-05-2.30867E-05-2.59260E-05 1.30617E-05-1.26206E-18 2.33609E-19
 -1      3759 1.02260E-04-3.76114E-05-2.75937E-05 1.48406E-05 8.09824E-19-9.78958E-19
 -1      3760 1.06186E-04-4.16039E-05-2.76688E-05 1.49869E-05 9.62799E-19-8.03460E-19
 -1      3761 9.03865E-05-2.35417E-05-2.86646E-05 5.08193E-06-5.90030E-19 5.85253E-19
 -1      3762 8.98859E-05-2.32019E-05-2.85771E-05 5.63754E-06-7.60904E-19 2.44518E-19
 -1      3763 8.98295E-05-2.31687E-05-2.85516E-05 4.28043E-06-3.42900E-19-2.18593E-19
 -1      3764 8.90351E-05-2.27883E-05-2.84130E-05 6.18135E-06-7.37459E-19 4.25048E-19
 -1      3765 8.84688E-05-2.25171E-05-2.82605E-05 6.83791E-06-7.14677E-19 4.07040E-19
 -1      3766 8.82972E-05-2.22749E-05-2.82730E-05 5.18325E-06-5.75249E-19-2.77142E-19
 -1      3767 9.24061E-05-2.50586E-05-2.88741E-05 3.35119E-06-5.16516E-19 7.41977E-19
 -1      3768 9.20678E-05-2.47250E-05-2.88604E-05 3.76297E-06-6.29945E-20 6.02528E-19
 -1      3769 9.10766E-05-2.40396E-05-2.87166E-05 3.51113E-06 1.94145E-19 2.15906E-19
 -1      3770 9.31220E-05-2.57239E-05-2.88937E-05 2.66948E-06-3.89261E-19 8.53473E-20
 -1      3771 9.28559E-05-2.54243E-05-2.88982E-05 3.02054E-06-2.41266E-19 1.95813E-19
 -1      3772 9.20781E-05-2.48442E-05-2.88041E-05 2.84702E-06 7.80685E-20 5.14133E-19
 -1      3773 9.36810E-05-2.63020E-05-2.88838E-05 2.09454E-06-2.94291E-20-1.23276E-19
 -1      3774 9.34757E-05-2.60424E-05-2.88987E-05 2.38950E-06-3.59250E-19-2.55977E-20
 -1      3775 9.28715E-05-2.55591E-05-2.88402E-05 2.27588E-06 3.19181E-20-8.99681E-20
 -1      3776 9.41111E-05-2.67908E-05-2.88572E-05 1.61698E-06-2.44777E-19 1.18099E-19
 -1      3777 9.39555E-05-2.65720E-05-2.88772E-05 1.86079E-06-1.53735E-19-4.91411E-20
 -1      3778 9.34920E-05-2.61757E-05-2.88438E-05 1.79089E-06-4.22178E-19-1.03847E-18
 -1      3779 9.44376E-05-2.71953E-05-2.88226E-05 1.22652E-06-7.26759E-20 8.15098E-19
 -1      3780 9.43213E-05-2.70146E-05-2.88443E-05 1.42479E-06-3.31328E-19 5.03276E-19
 -1      3781 9.39708E-05-2.66950E-05-2.88280E-05 1.38561E-06-4.82997E-19 8.79270E-20
 -1      3782 9.46823E-05-2.75244E-05-2.87855E-05 9.12796E-07 1.16549E-18 1.37606E-18
 -1      3783 9.45967E-05-2.73777E-05-2.88067E-05 1.07120E-06 7.50843E-19 9.18940E-19
 -1      3784 9.43358E-05-2.71238E-05-2.88018E-05 1.05248E-06 2.39352E-19 1.02479E-18
 -1      3785 9.48631E-05-2.77876E-05-2.87493E-05 6.65244E-07-1.83139E-19 1.96156E-18
 -1      3786 9.48010E-05-2.76705E-05-2.87689E-05 7.89617E-07 8.83104E-19 2.21836E-18
 -1      3787 9.46103E-05-2.74722E-05-2.87710E-05 7.83949E-07 3.86202E-19 1.64907E-18
 -1      3788 9.49944E-05-2.79948E-05-2.87162E-05 4.73196E-07-5.33680E-19 1.37077E-18
 -1      3789 9.49502E-05-2.79028E-05-2.87334E-05 5.69227E-07-7.88850E-19 1.71843E-18
 -1      3790 9.48137E-05-2.77504E-05-2.87397E-05 5.71488E-07-2.28875E-19 2.51974E-18
 -1      3791 9.50881E-05-2.81555E-05-2.86869E-05 3.26831E-07-8.34485E-21 1.41944E-18
 -1      3792 9.50572E-05-2.80843E-05-2.87017E-05 3.99660E-07-1.70634E-19 1.27089E-18
 -1      3793 9.49619E-05-2.79691E-05-2.87100E-05 4.06269E-07-2.78152E-19 2.20797E-18
 -1      3794 9.51535E-05-2.82783E-05-2.86620E-05 2.17412E-07-8.80923E-19 2.04794E-18
 -1      3795 9.51325E-05-2.82240E-05-2.86743E-05 2.71611E-07-8.89912E-20 1.49921E-18
 -1      3796 9.50681E-05-2.81385E-05-2.86833E-05 2.80231E-07-2.39570E-19 2.03046E-18
 -1      3797 9.51978E-05-2.83705E-05-2.86411E-05 1.37267E-07-1.06972E-18 2.15411E-18
 -1      3798 9.51840E-05-2.83298E-05-2.86512E-05 1.76786E-07-8.93848E-19 2.14465E-18
 -1      3799 9.51422E-05-2.82676E-05-2.86600E-05 1.85972E-07-8.88052E-19 2.31820E-18
 -1      3800 9.52267E-05-2.84385E-05-2.86241E-05 7.98811E-08-1.29803E-18 2.42461E-18
 -1      3801 9.52181E-05-2.84086E-05-2.86322E-05 1.08040E-07-1.28678E-18 2.09841E-18
 -1      3802 9.51925E-05-2.83643E-05-2.86403E-05 1.16933E-07-1.19050E-18 2.69399E-18
 -1      3803 9.52444E-05-2.84877E-05-2.86104E-05 3.98662E-08-3.38249E-19 1.03942E-18
 -1      3804 9.52395E-05-2.84661E-05-2.86168E-05 5.93936E-08-2.85485E-19 2.40775E-18
 -1      3805 9.52253E-05-2.84355E-05-2.86240E-05 6.75261E-08-5.31023E-19 1.96933E-18
 -1      3806 9.52543E-05-2.85224E-05-2.85997E-05 1.28607E-08-1.43376E-20 4.68781E-19
 -1      3807 9.52519E-05-2.85072E-05-2.86046E-05 2.59501E-08-6.24486E-19 4.57560E-19
 -1      3808 9.52455E-05-2.84867E-05-2.86108E-05 3.31118E-08-3.05672E-20 1.11223E-18
 -1      3809 9.52588E-05-2.85462E-05-2.85913E-05-4.59198E-09-7.57906E-20 5.88043E-19
 -1      3810 9.52581E-05-2.85358E-05-2.85951E-05 3.78839E-09 4.15605E-19 4.48723E-19
 -1      3811 9.52567E-05-2.85227E-05-2.86002E-05 9.92878E-09 3.74545E-19 7.96749E-19
 -1      3812 9.52598E-05-2.85621E-05-2.85848E-05-1.51749E-08 4.90271E-19 1.64858E-18
 -1      3813 9.52602E-05-2.85552E-05-2.85877E-05-1.01690E-08 3.82914E-19 5.98600E-19
 -1      3814 9.52618E-05-2.85473E-05-2.85919E-05-5.00813E-09-1.47180E-20 8.96888E-19
 -1      3815 9.52586E-05-2.85722E-05-2.85799E-05-2.09267E-08 1.55746E-20 2.07811E-18
 -1      3816 9.52595E-05-2.85678E-05-2.85821E-05-1.82877E-08 1.33583E-19 2.32221E-18
 -1      3817 9.52628E-05-2.85635E-05-2.85854E-05-1.40172E-08 2.18134E-19 1.02586E-18
 -1      3818 9.52561E-05-2.85784E-05-2.85762E-05-2.33296E-08-1.28844E-18 2.99003E-18
 -1      3819 9.52574E-05-2.85757E-05-2.85778E-05-2.23492E-08-9.37330E-20 2.32334E-18
 -1      3820 9.52613E-05-2.85738E-05-2.85804E-05-1.88600E-08-1.74898E-19 3.19358E-18
 -1      3821 8.06094E-05-1.50148E-05-2.81740E-05 8.23532E-06 4.49062E-19-2.62939E-18
 -1      3822 8.35646E-05-1.69674E-05-2.85233E-05 8.37917E-06 2.30267E-19-2.50548E-18
 -1      3823 8.44233E-05-1.90693E-05-2.79940E-05 1.01237E-05 3.12239E-19-2.32168E-18
 -1      3824 7.91151E-05-1.52545E-05-2.73466E-05 9.24818E-06 4.76056E-19-2.60404E-18
 -1      3825 9.52579E-05-2.85869E-05-2.85733E-05-1.36332E-08 1.26631E-18-5.48657E-19
 -1      3826 9.52587E-05-2.85852E-05-2.85744E-05-1.57852E-08 5.75542E-19 3.69398E-19
 -1      3827 9.52594E-05-2.85876E-05-2.85736E-05-1.00149E-08 1.00956E-18-1.09178E-18
 -1      3828 8.47533E-05-1.86992E-05-2.83548E-05-9.42375E-06 5.86710E-19-2.10122E-18
 -1      3829 8.17095E-05-1.51151E-05-2.84747E-05-6.83681E-06 7.87397E-19-2.29744E-18
 -1      3830 9.52550E-05-2.85818E-05-2.85743E-05-2.26453E-08-3.09446E-19 1.48594E-18
 -1      3831 9.52553E-05-2.85800E-05-2.85751E-05-2.32287E-08-1.50628E-18 1.91936E-18
 -1      3832 9.52594E-05-2.85797E-05-2.85771E-05-2.03801E-08-5.14681E-19 2.43287E-18
 -1      3833 9.52576E-05-2.85831E-05-2.85748E-05-1.99316E-08-1.00733E-19 4.85275E-19
 -1      3834 6.89299E-05-1.71483E-05-2.22355E-05 9.53112E-06-6.09049E-19 1.42365E-18
 -1      3835 6.54134E-05-1.49182E-05-2.15839E-05 1.89003E-06 8.06021E-20 1.23753E-18
 -1      3836 9.63711E-05-3.05101E-05-2.81361E-05 1.24221E-05 2.09955E-19-1.21299E-18
 -1      3837 9.91096E-05-3.39314E-05-2.78958E-05 1.34695E-05 5.02512E-19-1.24614E-18
 -1      3838 9.66235E-05-3.41668E-05-2.69172E-05 1.69552E-05 8.29573E-19-1.01372E-18
 -1      3839 9.31202E-05-2.67587E-05-2.83940E-05-1.35101E-05 3.20549E-19-1.43093E-18
 -1      3840 9.23242E-05-2.48606E-05-2.89087E-05-1.19588E-05 4.51852E-19-1.35645E-18
 -1      3841 8.91973E-05-2.25198E-05-2.85400E-05-1.16258E-05 5.20977E-19-1.78126E-18
 -1      3842 8.88035E-05-2.55820E-05-2.71263E-05-1.54676E-05 7.16537E-20-1.90389E-18
 -1      3843 8.75149E-05-3.23683E-05-2.37529E-05 2.41378E-05 1.68078E-18-1.64520E-18
 -1      3844 8.02543E-05-2.74962E-05-2.23639E-05 2.45266E-05 1.92799E-18-2.29936E-18
 -1      3845 7.75089E-05-2.35363E-05-2.30477E-05 2.08228E-05 1.40879E-18-2.53833E-18
 -1      3846 1.06304E-04-4.61618E-05-2.55680E-05 2.30963E-05 1.57992E-18-1.22132E-19
 -1      3847 1.01160E-04-4.18269E-05-2.53305E-05 2.27158E-05 1.55187E-18-5.79490E-19
 -1      3848 9.52475E-05-2.85817E-05-2.85711E-05-2.55141E-08-3.56540E-19 1.30248E-18
 -1      3849 7.84649E-05-1.31660E-05-2.80505E-05-5.56072E-06 6.27481E-19-2.55143E-18
 -1      3850 1.19329E-04-5.30943E-05-2.84044E-05 1.56598E-05 1.04635E-18 5.28585E-19
 -1      3851 1.15986E-04-5.29928E-05-2.69127E-05 2.14142E-05 1.48715E-18 2.45477E-19
 -1      3852 9.22140E-05-2.54216E-05-2.85768E-05 1.04953E-05 1.55340E-19-1.86450E-18
 -1      3853 9.43678E-05-2.81792E-05-2.83501E-05 1.14684E-05 1.62061E-19-1.61990E-18
 -1      3854 9.18173E-05-2.77524E-05-2.75020E-05 1.39669E-05 4.62301E-19-1.84196E-18
 -1      3855 8.84584E-05-2.30988E-05-2.80575E-05 1.13707E-05 3.97129E-19-2.14004E-18
 -1      3856 6.49938E-05-1.58525E-05-2.10774E-05-6.99911E-06 4.05371E-19 1.02713E-18
 -1      3857 6.61686E-05-1.77876E-05-2.04644E-05-1.40207E-05 1.17542E-18 1.44662E-18
 -1      3858 1.08983E-04-4.88572E-05-2.56286E-05 2.36784E-05 1.56691E-18-9.38321E-20
 -1      3859 1.10681E-04-4.75765E-05-2.70603E-05 1.85513E-05 1.46188E-18 9.38685E-20
 -1      3860 7.17110E-05-1.18014E-05-2.57434E-05 6.35954E-06 6.22654E-19-3.08560E-18
 -1      3861 7.39262E-05-1.32552E-05-2.59717E-05 8.51576E-06 5.65054E-19-3.01467E-18
 -1      3862 9.52617E-05-2.85862E-05-2.85752E-05-8.08311E-09 1.20321E-18-1.13268E-18
 -1      3863 8.29975E-05-2.37611E-05-2.54494E-05 1.45426E-05-1.07775E-18 3.90359E-19
 -1      3864 8.32214E-05-2.51993E-05-2.48346E-05 1.63394E-05-1.64931E-18 8.18239E-19
 -1      3865 7.88196E-05-2.29169E-05-2.39533E-05 1.59042E-05-1.32116E-18 1.71202E-18
 -1      3866 7.96597E-05-2.11685E-05-2.50409E-05 1.25364E-05-1.04497E-18 7.39827E-19
 -1      3867 1.04427E-04-4.14791E-05-2.69290E-05-1.44797E-05 1.19662E-18-2.89735E-19
 -1      3868 1.00817E-04-3.81386E-05-2.67726E-05-1.46554E-05 1.02287E-18-2.86565E-19
 -1      3869 9.10209E-05-3.61632E-05-2.31874E-05-2.39521E-05 1.74792E-18-9.94258E-19
 -1      3870 1.00159E-04-4.19372E-05-2.49560E-05-2.12054E-05 1.93183E-18-9.81446E-19
 -1      3871 9.60277E-05-3.54374E-05-2.59790E-05-1.67635E-05 9.53190E-19-1.39478E-19
 -1      3872 9.52632E-05-2.85743E-05-2.85810E-05 1.67534E-08-2.07155E-18-2.85252E-18
 -1      3873 9.52597E-05-2.85762E-05-2.85786E-05 2.00919E-08-1.28932E-18-2.00577E-18
 -1      3874 9.52592E-05-2.85787E-05-2.85774E-05 2.03536E-08-1.74796E-18-2.74287E-18
 -1      3875 7.16968E-05-2.38461E-05-2.00875E-05-2.41221E-05-1.05653E-18-3.21949E-18
 -1      3876 8.30808E-05-3.06259E-05-2.24089E-05-2.48481E-05-1.29966E-18-2.65929E-18
 -1      3877 9.52589E-05-2.85807E-05-2.85763E-05 1.93794E-08-1.43311E-18-2.62650E-18
 -1      3878 9.52582E-05-2.85826E-05-2.85752E-05 1.90518E-08-1.36982E-18-2.47628E-18
 -1      3879 9.52614E-05-2.85841E-05-2.85760E-05 1.39315E-08-7.10189E-19-8.02272E-19
 -1      3880 9.52625E-05-2.85801E-05-2.85782E-05 1.62395E-08-1.87065E-18-1.73719E-18
 -1      3881 9.52601E-05-2.85837E-05-2.85756E-05-1.61982E-08 5.96927E-19 1.02326E-18
 -1      3882 9.52611E-05-2.85820E-05-2.85767E-05-1.65772E-08 4.68769E-19 1.68154E-18
 -1      3883 9.52620E-05-2.85844E-05-2.85762E-05-1.26251E-08 1.39649E-18 2.37989E-19
 -1      3884 8.64522E-05-2.14415E-05-2.78309E-05 6.29310E-06-7.32934E-19-4.38876E-19
 -1      3885 8.74548E-05-2.21792E-05-2.80033E-05 7.51592E-06-1.12508E-18 4.93016E-19
 -1      3886 8.68734E-05-2.20721E-05-2.77608E-05 8.31739E-06-1.08719E-18-9.12292E-20
 -1      3887 7.09271E-05-1.63096E-05-2.34021E-05 7.20137E-07-4.09686E-19 9.84563E-19
 -1      3888 6.71313E-05-1.53352E-05-2.20786E-05-2.38393E-06-1.82741E-20 1.09810E-18
 -1      3889 7.05639E-05-1.71847E-05-2.29528E-05-6.96696E-06 1.41880E-19 1.03174E-18
 -1      3890 9.52629E-05-2.85844E-05-2.85765E-05 9.77323E-09-7.02559E-19-3.53229E-20
 -1      3891 9.52639E-05-2.85848E-05-2.85768E-05 5.90941E-09-5.50987E-19 9.91478E-19
 -1      3892 9.52638E-05-2.85825E-05-2.85776E-05 1.13578E-08-1.28630E-18-6.27396E-19
 -1      3893 8.43860E-05-1.97730E-05-2.76992E-05-1.11160E-05 4.51803E-19-2.22338E-18
 -1      3894 9.52644E-05-2.85849E-05-2.85769E-05 1.71405E-09 4.52235E-19-3.33177E-19
 -1      3895 9.52644E-05-2.85849E-05-2.85769E-05-2.33296E-09 1.03672E-18-1.99559E-18
 -1      3896 9.52658E-05-2.85829E-05-2.85783E-05 3.32441E-09 5.75458E-19-3.35172E-19
 -1      3897 5.64038E-05-1.08614E-05-1.91442E-05-4.38445E-06 3.36773E-19-3.74309E-18
 -1      3898 6.00018E-05-1.27491E-05-2.02785E-05-9.12080E-06 9.96885E-20-3.73722E-18
 -1      3899 5.92289E-05-1.11207E-05-2.04901E-05 1.35555E-06 6.30510E-19-3.60990E-18
 -1      3900 7.44020E-05-2.02633E-05-2.31142E-05 1.39594E-05-1.02794E-18 1.40303E-18
 -1      3901 7.23223E-05-2.12852E-05-2.18213E-05-1.57318E-05 1.22940E-18 6.60520E-19
 -1      3902 8.52118E-05-3.15454E-05-2.30826E-05-2.17732E-05 1.39864E-18-5.90395E-19
 -1      3903 7.41357E-05-1.87311E-05-2.37076E-05 9.95412E-06-9.81073E-19 1.23730E-18
 -1      3904 7.62384E-05-1.30152E-05-2.71056E-05-5.51267E-06 5.92380E-19-2.71203E-18
 -1      3905 8.28762E-05-2.57759E-05-2.44148E-05-1.95647E-05-5.58899E-19-2.21868E-18
 -1      3906 8.56780E-05-2.18986E-05-2.73738E-05 9.23287E-06-1.27741E-18 2.21199E-19
 -1      3907 8.52101E-05-2.21172E-05-2.70130E-05 1.02750E-05-1.00536E-18 2.17002E-19
 -1      3908 8.42404E-05-2.07787E-05-2.71569E-05 7.74681E-06-1.07423E-18 5.50875E-19
 -1      3909 6.92150E-05-1.62324E-05-2.27404E-05 1.46054E-05 1.13337E-18-2.97442E-18
 -1      3910 6.47959E-05-1.36997E-05-2.16963E-05 1.24669E-05 1.10374E-18-3.33554E-18
 -1      3911 6.93807E-05-2.00365E-05-2.09219E-05-1.90926E-05-5.85326E-19-3.28299E-18
 -1      3912 7.04447E-05-1.05765E-05-2.56515E-05-3.88278E-07 6.39828E-19-3.21976E-18
 -1      3913 7.03596E-05-1.06305E-05-2.56146E-05 2.31733E-06 5.84345E-19-3.12815E-18
 -1      3914 6.92185E-05-1.16492E-05-2.46282E-05 5.08629E-06 6.66686E-19-3.17853E-18
 -1      3915 7.56587E-05-2.11993E-05-2.34038E-05-1.80114E-05-4.60257E-19-2.61020E-18
 -1      3916 8.18393E-05-2.25012E-05-2.53646E-05-1.60439E-05-2.12036E-19-2.41445E-18
 -1      3917 9.71507E-05-3.77498E-05-2.52013E-05 2.22860E-05 1.58517E-18-8.47503E-19
 -1      3918 9.21760E-05-3.30129E-05-2.52467E-05 2.06365E-05 1.36465E-18-1.29864E-18
 -1      3919 8.20746E-05-2.09582E-05-2.62281E-05-1.40251E-05 1.28206E-19-2.34651E-18
 -1      3920 8.16939E-05-2.05325E-05-2.61615E-05 9.80272E-06-1.33011E-18 1.07051E-18
 -1      3921 6.30299E-05-1.21828E-05-2.17313E-05 8.32439E-06 9.20397E-19-3.47342E-18
 -1      3922 1.03782E-04-4.17998E-05-2.67093E-05 1.88084E-05 1.24566E-18-5.74487E-19
 -1      3923 8.92818E-05-2.92620E-05-2.57527E-05-1.48756E-05 7.81740E-19-3.94871E-19
 -1      3924 8.81830E-05-2.73576E-05-2.60968E-05-1.30706E-05 7.62862E-19-2.22383E-19
 -1      3925 9.52641E-05-2.85849E-05-2.85768E-05-5.53984E-09 1.73290E-18-1.67350E-18
 -1      3926 9.52631E-05-2.85846E-05-2.85765E-05-9.51673E-09 1.53109E-18-1.50624E-18
 -1      3927 9.52644E-05-2.85827E-05-2.85778E-05-9.89535E-09 1.72784E-18-9.50600E-19
 -1      3928 9.52658E-05-2.85830E-05-2.85783E-05-3.85115E-09 1.15076E-18-2.94283E-18
 -1      3929 7.48594E-05-1.82695E-05-2.42759E-05 8.56162E-06-7.51694E-19 1.24397E-18
 -1      3930 1.12520E-04-4.70181E-05-2.79652E-05 1.45759E-05 1.10210E-18-1.95651E-19
 -1      3931 1.10260E-04-4.48082E-05-2.79009E-05 1.46937E-05 1.10367E-18-4.85800E-19
 -1      3932 8.83898E-05-2.63468E-05-2.65518E-05-1.14089E-05 5.57702E-19-4.86737E-19
 -1      3933 8.79035E-05-2.53068E-05-2.68499E-05-1.01552E-05 3.12985E-19-4.83201E-19
 -1      3934 8.54129E-05-2.51485E-05-2.58409E-05-1.22941E-05 4.65160E-19-1.20449E-18
 -1      3935 8.83146E-05-2.47570E-05-2.72094E-05-8.84307E-06 4.12317E-19-3.48943E-19
 -1      3936 8.82424E-05-2.42327E-05-2.74532E-05-7.85486E-06 4.30557E-19-2.72247E-19
 -1      3937 8.59979E-05-2.36736E-05-2.67020E-05-9.18466E-06 6.96500E-19-9.29957E-19
 -1      3938 8.87857E-05-2.40497E-05-2.77252E-05-6.87446E-06 3.52476E-19-1.01143E-19
 -1      3939 8.89519E-05-2.38673E-05-2.79113E-05-6.09620E-06-2.48924E-19-3.21581E-19
 -1      3940 8.70006E-05-2.31283E-05-2.73644E-05-6.89045E-06 1.95132E-19-8.17610E-19
 -1      3941 8.95252E-05-2.39105E-05-2.81095E-05-5.36612E-06-4.72621E-19 2.66688E-19
 -1      3942 8.98055E-05-2.39382E-05-2.82441E-05-4.74978E-06-2.64341E-19 5.46200E-19
 -1      3943 8.81381E-05-2.31236E-05-2.78526E-05-5.22403E-06-9.59756E-20 2.60135E-19
 -1      3944 9.03621E-05-2.41188E-05-2.83833E-05-4.19083E-06-5.84366E-20 1.49183E-18
 -1      3945 9.06875E-05-2.42762E-05-2.84748E-05-3.69856E-06 3.96436E-19 1.57385E-18
 -1      3946 8.92706E-05-2.34394E-05-2.82027E-05-3.98585E-06 4.61239E-19 7.30653E-19
 -1      3947 9.11994E-05-2.45325E-05-2.85676E-05-3.26965E-06 2.04057E-19 1.55687E-18
 -1      3948 9.15256E-05-2.47581E-05-2.86252E-05-2.87405E-06 4.30406E-19 1.44493E-18
 -1      3949 9.03393E-05-2.39484E-05-2.84432E-05-3.04603E-06 3.36593E-19 1.67593E-18
 -1      3950 9.19773E-05-2.50445E-05-2.86832E-05-2.54199E-06-4.78304E-19 1.56255E-18
 -1      3951 9.22791E-05-2.52963E-05-2.87155E-05-2.22274E-06-1.02821E-18 1.46924E-18
 -1      3952 9.12994E-05-2.45459E-05-2.85998E-05-2.33005E-06 7.25183E-20 1.98482E-18
 -1      3953 9.26661E-05-2.55836E-05-2.87483E-05-1.96371E-06-1.03908E-18 8.46023E-19
 -1      3954 9.29312E-05-2.58350E-05-2.87626E-05-1.70611E-06-3.14222E-19 2.01706E-19
 -1      3955 9.21334E-05-2.51617E-05-2.86946E-05-1.77743E-06-1.39645E-18 1.49507E-18
 -1      3956 9.32549E-05-2.61048E-05-2.87777E-05-1.50409E-06 8.28953E-19-7.00182E-19
 -1      3957 9.34787E-05-2.63388E-05-2.87800E-05-1.29722E-06 1.41682E-18 9.45816E-21
 -1      3958 9.28393E-05-2.57524E-05-2.87453E-05-1.34815E-06 1.18322E-19-1.97406E-19
 -1      3959 9.37429E-05-2.65809E-05-2.87832E-05-1.13915E-06 1.14286E-18-1.21340E-19
 -1      3960 9.39268E-05-2.67899E-05-2.87775E-05-9.74338E-07 1.07789E-18-7.19046E-19
 -1      3961 9.34225E-05-2.62906E-05-2.87657E-05-1.01498E-06 1.04184E-18-7.87485E-19
 -1      3962 9.41371E-05-2.69988E-05-2.87731E-05-8.52593E-07 7.17283E-19-1.24970E-18
 -1      3963 9.42834E-05-2.71781E-05-2.87630E-05-7.22047E-07 5.42193E-19-1.25349E-18
 -1      3964 9.38938E-05-2.67638E-05-2.87658E-05-7.55788E-07 5.88248E-19-1.47760E-18
 -1      3965 9.44482E-05-2.73540E-05-2.87543E-05-6.28245E-07 4.24271E-19-1.51201E-18
 -1      3966 9.45618E-05-2.75034E-05-2.87422E-05-5.26292E-07 1.57695E-19-1.56515E-18
 -1      3967 9.42650E-05-2.71654E-05-2.87536E-05-5.55877E-07 4.16561E-19-1.75984E-18
 -1      3968 9.46879E-05-2.76473E-05-2.87314E-05-4.54425E-07 1.12186E-19-1.59530E-18
 -1      3969 9.47744E-05-2.77691E-05-2.87188E-05-3.75642E-07-2.46375E-19-1.45332E-18
 -1      3970 9.45527E-05-2.74991E-05-2.87348E-05-4.02635E-07 1.63701E-19-2.38599E-18
 -1      3971 9.48692E-05-2.78847E-05-2.87074E-05-3.21527E-07-1.03017E-18-8.62052E-19
 -1      3972 9.49334E-05-2.79818E-05-2.86952E-05-2.61614E-07-9.21643E-19-7.43850E-19
 -1      3973 9.47715E-05-2.77700E-05-2.87131E-05-2.85320E-07-5.55323E-19-2.03633E-18
 -1      3974 9.50027E-05-2.80726E-05-2.86842E-05-2.21490E-07-9.38585E-19-5.47401E-19
 -1      3975 9.50491E-05-2.81483E-05-2.86730E-05-1.76627E-07-4.16791E-19-1.24900E-18
 -1      3976 9.49340E-05-2.79854E-05-2.86909E-05-1.97532E-07-1.08489E-18-1.25029E-19
 -1      3977 9.50986E-05-2.82181E-05-2.86629E-05-1.47279E-07 1.45659E-19-1.49573E-18
 -1      3978 9.51310E-05-2.82759E-05-2.86531E-05-1.14255E-07 7.23639E-19-2.28928E-18
 -1      3979 9.50515E-05-2.81531E-05-2.86698E-05-1.32509E-07-5.86861E-19-2.64568E-18
 -1      3980 9.51653E-05-2.83285E-05-2.86442E-05-9.31711E-08 8.98317E-19-2.39819E-18
 -1      3981 9.51872E-05-2.83718E-05-2.86358E-05-6.93350E-08 1.78786E-19-2.44324E-18
 -1      3982 9.51343E-05-2.82810E-05-2.86507E-05-8.50425E-08 2.40214E-19-3.05633E-18
 -1      3983 9.52100E-05-2.84106E-05-2.86281E-05-5.45199E-08 2.73110E-20-2.53527E-18
 -1      3984 9.52240E-05-2.84423E-05-2.86212E-05-3.77094E-08 5.31489E-19-2.12881E-18
 -1      3985 9.51906E-05-2.83767E-05-2.86341E-05-5.10258E-08 3.15098E-19-2.24587E-18
 -1      3986 9.52384E-05-2.84703E-05-2.86148E-05-2.75813E-08 6.13504E-19-1.82308E-18
 -1      3987 9.52467E-05-2.84929E-05-2.86091E-05-1.60576E-08 1.05523E-18-1.50010E-18
 -1      3988 9.52273E-05-2.84466E-05-2.86200E-05-2.71909E-08 6.49780E-19-1.13879E-18
 -1      3989 9.52550E-05-2.85125E-05-2.86038E-05-9.37666E-09 1.32710E-18-1.72146E-18
 -1      3990 9.52594E-05-2.85282E-05-2.85993E-05-1.76349E-09 1.23257E-18-1.85330E-18
 -1      3991 9.52496E-05-2.84966E-05-2.86083E-05-1.09546E-08 1.32738E-18-2.53830E-18
 -1      3992 9.52634E-05-2.85415E-05-2.85950E-05 2.42889E-09 1.80147E-19-1.97001E-18
 -1      3993 9.52650E-05-2.85520E-05-2.85914E-05 7.20196E-09-9.14756E-19-1.68659E-18
 -1      3994 9.52618E-05-2.85313E-05-2.85987E-05-2.98264E-10 7.18334E-19-3.93077E-18
 -1      3995 9.52663E-05-2.85608E-05-2.85880E-05 9.63427E-09-2.28540E-18-1.70966E-18
 -1      3996 9.52661E-05-2.85675E-05-2.85852E-05 1.23432E-08-2.76823E-18-2.27056E-18
 -1      3997 9.52669E-05-2.85546E-05-2.85910E-05 6.32595E-09-1.85275E-18-4.17557E-18
 -1      3998 9.18419E-05-2.47662E-05-2.87563E-05 2.23581E-06 4.98765E-20-2.12736E-20
 -1      3999 9.13903E-05-2.43755E-05-2.87239E-05 2.51417E-06-3.45444E-19-1.75076E-19
 -1      4000 9.07719E-05-2.39268E-05-2.86598E-05 2.73882E-06-1.23901E-19-4.60773E-19
 -1      4001 9.02048E-05-2.34939E-05-2.85949E-05 3.05630E-06 3.64136E-19-2.76152E-19
 -1      4002 9.06492E-05-2.38419E-05-2.86173E-05 2.08836E-06-4.49290E-19-9.69145E-19
 -1      4003 7.78580E-05-1.68207E-05-2.60807E-05-1.10816E-05 3.95186E-19-2.51096E-18
 -1      4004 8.77717E-05-2.20171E-05-2.82003E-05 3.95560E-06-4.98799E-19-9.81023E-19
 -1      4005 8.69088E-05-2.15497E-05-2.80182E-05 4.38005E-06-2.53138E-19-1.10339E-18
 -1      4006 9.26888E-05-2.55042E-05-2.88011E-05 1.79535E-06 3.05336E-19-3.92517E-19
 -1      4007 9.23338E-05-2.51621E-05-2.87900E-05 2.03671E-06 5.05711E-19-2.24458E-19
 -1      4008 9.17443E-05-2.47042E-05-2.87204E-05 1.72406E-06 4.18603E-19-1.20243E-18
 -1      4009 9.33528E-05-2.61378E-05-2.88126E-05 1.41661E-06-3.15073E-19-1.00461E-18
 -1      4010 9.30771E-05-2.58456E-05-2.88147E-05 1.62203E-06 2.17380E-19-4.16891E-19
 -1      4011 9.26126E-05-2.54590E-05-2.87717E-05 1.39551E-06 4.70057E-19-1.24003E-18
 -1      4012 9.38664E-05-2.66690E-05-2.88038E-05 1.09762E-06-6.21780E-19-4.54042E-19
 -1      4013 9.36553E-05-2.64251E-05-2.88135E-05 1.26953E-06-1.08724E-18-9.63968E-19
 -1      4014 9.32951E-05-2.61045E-05-2.87893E-05 1.10914E-06-3.62942E-19-1.73669E-18
 -1      4015 9.42595E-05-2.71074E-05-2.87833E-05 8.33945E-07-1.57930E-19 7.82284E-19
 -1      4016 9.40997E-05-2.69068E-05-2.87970E-05 9.74697E-07-4.92409E-19 1.81531E-19
 -1      4017 9.38244E-05-2.66460E-05-2.87856E-05 8.62918E-07-1.09944E-18-2.18984E-18
 -1      4018 9.45558E-05-2.74627E-05-2.87573E-05 6.20439E-07 3.46819E-19 1.53886E-18
 -1      4019 9.44366E-05-2.73006E-05-2.87724E-05 7.33625E-07 6.68838E-19 1.48405E-18
 -1      4020 9.42294E-05-2.70922E-05-2.87694E-05 6.57479E-07-4.72681E-19 4.24761E-19
 -1      4021 9.47761E-05-2.77458E-05-2.87297E-05 4.51122E-07-3.90058E-19 1.36555E-18
 -1      4022 9.46886E-05-2.76172E-05-2.87446E-05 5.40453E-07-5.29664E-20 1.27201E-18
 -1      4023 9.45353E-05-2.74529E-05-2.87470E-05 4.90297E-07 3.62463E-19 1.26148E-18
 -1      4024 9.49374E-05-2.79681E-05-2.87029E-05 3.19353E-07-1.05266E-19 1.21121E-18
 -1      4025 9.48742E-05-2.78675E-05-2.87168E-05 3.88479E-07-5.33089E-20 1.29176E-18
 -1      4026 9.47633E-05-2.77402E-05-2.87222E-05 3.56574E-07-2.65303E-19 9.33693E-19
 -1      4027 9.50530E-05-2.81400E-05-2.86784E-05 2.18982E-07-5.54695E-19 8.63731E-19
 -1      4028 9.50083E-05-2.80624E-05-2.86908E-05 2.71445E-07 3.84341E-19 1.18992E-18
 -1      4029 9.49302E-05-2.79658E-05-2.86976E-05 2.52342E-07-1.97340E-19 3.33133E-19
 -1      4030 9.51339E-05-2.82705E-05-2.86567E-05 1.44057E-07-1.03117E-18 3.81041E-19
 -1      4031 9.51032E-05-2.82118E-05-2.86674E-05 1.83085E-07-1.25878E-18 5.37837E-19
 -1      4032 9.50497E-05-2.81398E-05-2.86747E-05 1.72807E-07-4.94529E-19-3.28919E-19
 -1      4033 9.51888E-05-2.83680E-05-2.86382E-05 8.93247E-08-1.55676E-18 2.04897E-18
 -1      4034 9.51684E-05-2.83243E-05-2.86472E-05 1.17740E-07-1.43208E-18 1.68719E-18
 -1      4035 9.51332E-05-2.82717E-05-2.86543E-05 1.13360E-07-2.03203E-18-4.41931E-19
 -1      4036 9.52246E-05-2.84393E-05-2.86227E-05 5.03042E-08-1.22261E-19 1.60945E-18
 -1      4037 9.52116E-05-2.84075E-05-2.86301E-05 7.04966E-08-5.51741E-19 2.11351E-18
 -1      4038 9.51897E-05-2.83700E-05-2.86366E-05 6.99153E-08-5.48190E-19 8.66212E-19
 -1      4039 9.52465E-05-2.84905E-05-2.86101E-05 2.32687E-08 5.41061E-19 6.97483E-19
 -1      4040 9.52389E-05-2.84678E-05-2.86160E-05 3.72116E-08 3.59912E-19 1.00010E-18
 -1      4041 9.52264E-05-2.84417E-05-2.86218E-05 3.89545E-08 5.91358E-19 7.33962E-19
 -1      4042 9.52587E-05-2.85262E-05-2.85999E-05 5.19196E-09-4.75973E-20 6.80946E-20
 -1      4043 9.52548E-05-2.85104E-05-2.86046E-05 1.44769E-08 2.33685E-19 2.78329E-19
 -1      4044 9.52487E-05-2.84929E-05-2.86095E-05 1.75297E-08 5.68768E-19 1.86928E-19
 -1      4045 9.52642E-05-2.85504E-05-2.85918E-05-6.32584E-09 3.05985E-19 1.18323E-18
 -1      4046 9.52628E-05-2.85397E-05-2.85955E-05-4.43740E-10 3.79948E-20 4.90183E-19
 -1      4047 9.52609E-05-2.85285E-05-2.85996E-05 3.23675E-09 9.31557E-20-5.17318E-20
 -1      4048 9.52652E-05-2.85662E-05-2.85854E-05-1.31375E-08-9.51502E-19 2.23473E-18
 -1      4049 9.52655E-05-2.85593E-05-2.85883E-05-9.69386E-09-1.62576E-19 1.52952E-18
 -1      4050 9.52662E-05-2.85524E-05-2.85916E-05-5.83321E-09-7.30173E-19 6.85975E-19
 -1      4051 9.52635E-05-2.85760E-05-2.85804E-05-1.66096E-08 2.65153E-19 2.25911E-18
 -1      4052 9.52647E-05-2.85718E-05-2.85826E-05-1.49354E-08 2.19959E-19 2.95546E-18
 -1      4053 9.52669E-05-2.85680E-05-2.85853E-05-1.11609E-08-6.32470E-19 1.62113E-18
 -1      4054 7.30181E-05-1.34955E-05-2.55393E-05-7.43066E-06 4.05754E-19-2.84500E-18
 -1      4055 9.52620E-05-2.85803E-05-2.85779E-05-1.67609E-08 2.43990E-19 2.23349E-18
 -1      4056 9.52628E-05-2.85781E-05-2.85791E-05-1.66972E-08 2.64362E-19 2.67738E-18
 -1      4057 9.52657E-05-2.85763E-05-2.85812E-05-1.31428E-08 7.71036E-19 2.31680E-18
 -1      4058 9.52643E-05-2.85809E-05-2.85786E-05-1.31894E-08 9.16085E-19 1.70769E-18
 -1      4059 8.06297E-05-2.39524E-05-2.44021E-05 1.91629E-05 1.15763E-18-2.47099E-18
 -1      4060 7.54252E-05-1.99486E-05-2.35756E-05 1.76168E-05 1.18364E-18-2.86902E-18
 -1      4061 8.93246E-05-2.90039E-05-2.57142E-05 1.84280E-05 1.04048E-18-1.56136E-18
 -1      4062 7.40041E-05-2.08517E-05-2.28803E-05-1.36595E-05 7.13936E-19 3.79782E-19
 -1      4063 7.75215E-05-2.40124E-05-2.26674E-05-1.82843E-05 1.36051E-18-3.52971E-19
 -1      4064 8.94328E-05-2.30005E-05-2.84861E-05 3.30855E-06 3.31877E-20-7.51911E-19
 -1      4065 8.87301E-05-2.25401E-05-2.83732E-05 3.67111E-06-6.45097E-19-6.37614E-19
 -1      4066 8.92782E-05-2.28800E-05-2.84376E-05 2.48629E-06-2.85840E-19-9.51870E-19
 -1      4067 7.43864E-05-1.65748E-05-2.47898E-05 1.26547E-05 7.22522E-19-2.90189E-18
 -1      4068 7.71378E-05-1.66302E-05-2.59699E-05 1.19686E-05 6.74777E-19-2.76274E-18
 -1      4069 6.87409E-05-1.64100E-05-2.21352E-05-1.44393E-05-1.41703E-19-3.26231E-18
 -1      4070 7.81024E-05-1.89903E-05-2.53424E-05 7.82278E-06-9.33692E-19 1.28288E-18
 -1      4071 7.35043E-05-1.68469E-05-2.41606E-05 4.95279E-06-4.54030E-19 1.49142E-18
 -1      4072 8.58717E-05-3.01414E-05-2.39632E-05-1.90459E-05 1.40743E-18-7.02654E-19
 -1      4073 6.99017E-05-1.32649E-05-2.42569E-05-6.39555E-06 3.72236E-19-2.97790E-18
 -1      4074 8.65902E-05-2.55583E-05-2.61033E-05 1.61857E-05 8.24209E-19-1.95769E-18
 -1      4075 6.69462E-05-1.39896E-05-2.26940E-05-9.46692E-06 2.03129E-19-3.22705E-18
 -1      4076 9.52679E-05-2.85686E-05-2.85854E-05 9.46649E-09-2.55189E-18-2.77628E-18
 -1      4077 9.52659E-05-2.85720E-05-2.85831E-05 1.28777E-08-2.54997E-18-1.71051E-18
 -1      4078 9.52654E-05-2.85757E-05-2.85813E-05 1.36671E-08-2.37399E-18-2.40486E-18
 -1      4079 7.95591E-05-1.91313E-05-2.59622E-05 6.75902E-06-1.30073E-18 1.01250E-18
 -1      4080 8.16027E-05-1.96182E-05-2.65752E-05 6.16971E-06-1.11105E-18 2.40911E-19
 -1      4081 7.87738E-05-1.82480E-05-2.58509E-05 4.26025E-06-7.10611E-19 1.93148E-19
 -1      4082 8.28739E-05-1.99558E-05-2.70029E-05 5.47388E-06-9.42254E-19 1.47447E-19
 -1      4083 6.62864E-05-1.16739E-05-2.33282E-05 5.06060E-06 7.70051E-19-3.34264E-18
 -1      4084 6.18489E-05-1.08783E-05-2.17528E-05 3.04227E-06 6.92130E-19-3.52286E-18
 -1      4085 8.75736E-05-2.18401E-05-2.81472E-05 2.92017E-06-4.66700E-19-1.57015E-18
 -1      4086 8.02861E-05-1.87426E-05-2.63400E-05 1.29069E-05 7.26447E-19-2.53221E-18
 -1      4087 8.57109E-05-2.10194E-05-2.77531E-05 4.71830E-06-3.57248E-19-5.23488E-19
 -1      4088 8.46595E-05-2.05880E-05-2.74724E-05 5.25195E-06-5.13602E-19-1.95734E-19
 -1      4089 8.54608E-05-2.07464E-05-2.76993E-05 3.40360E-06-1.45900E-19-9.03864E-19
 -1      4090 7.40264E-05-1.70594E-05-2.44598E-05 1.08583E-06-7.03861E-19 9.33402E-19
 -1      4091 1.01902E-04-4.23688E-05-2.55782E-05-1.96875E-05 1.68927E-18-5.82812E-19
 -1      4092 9.52672E-05-2.85801E-05-2.85802E-05 5.25198E-09-6.59191E-19-2.70453E-19
 -1      4093 9.52677E-05-2.85802E-05-2.85804E-05 1.26655E-09 3.34341E-19-1.49035E-18
 -1      4094 6.30330E-05-1.09676E-05-2.22432E-05-2.00361E-06 4.80274E-19-3.33975E-18
 -1      4095 7.35189E-05-1.87064E-05-2.33546E-05-9.68296E-06 2.57974E-19 8.69791E-19
 -1      4096 7.72029E-05-2.12692E-05-2.40762E-05-1.20948E-05 3.55559E-19-6.57708E-20
 -1      4097 7.40674E-05-1.79380E-05-2.41184E-05-5.98515E-06-4.31358E-20 1.10846E-18
 -1      4098 7.28575E-05-1.67192E-05-2.40606E-05 1.36026E-05 8.58137E-19-2.82013E-18
 -1      4099 9.52667E-05-2.85786E-05-2.85806E-05 8.91887E-09-1.62243E-18-1.82615E-18
 -1      4100 9.52685E-05-2.85750E-05-2.85829E-05 6.56771E-09-2.15103E-18-2.80563E-18
 -1      4101 9.06534E-05-2.39338E-05-2.86050E-05 1.39106E-06-3.08923E-19-1.48124E-18
 -1      4102 9.00338E-05-2.34755E-05-2.85346E-05 1.53437E-06-5.12049E-19-1.30621E-18
 -1      4103 9.68988E-05-3.78509E-05-2.51680E-05-1.96997E-05 8.61927E-19-1.10468E-18
 -1      4104 8.81121E-05-3.08939E-05-2.45246E-05-1.79869E-05 1.39445E-18-6.26480E-19
 -1      4105 8.65024E-05-2.83588E-05-2.49104E-05-1.60619E-05 1.05933E-18-3.22945E-19
 -1      4106 6.71599E-05-1.16349E-05-2.38670E-05 5.28173E-06 7.40332E-19-3.28204E-18
 -1      4107 6.94991E-05-1.29471E-05-2.40731E-05 9.57628E-06 7.48678E-19-3.10577E-18
 -1      4108 8.36980E-05-2.24140E-05-2.62651E-05-8.69089E-06 6.44557E-19-1.23649E-18
 -1      4109 8.41977E-05-2.21008E-05-2.66519E-05-7.39254E-06 8.05963E-19-1.27505E-18
 -1      4110 8.53182E-05-2.21630E-05-2.70560E-05-6.37043E-06 4.82935E-19-9.32831E-19
 -1      4111 8.58919E-05-2.21429E-05-2.73503E-05-5.46351E-06-9.14607E-20-9.60829E-19
 -1      4112 8.33411E-05-2.10538E-05-2.66552E-05-5.87158E-06 8.96493E-19-1.22174E-18
 -1      4113 8.68653E-05-2.23566E-05-2.76402E-05-4.71100E-06 1.04136E-19-6.31542E-19
 -1      4114 8.74310E-05-2.25116E-05-2.78534E-05-4.06711E-06 7.86122E-19 1.98310E-19
 -1      4115 8.53854E-05-2.14644E-05-2.73661E-05-4.17806E-06 6.65595E-19-4.64782E-19
 -1      4116 8.82893E-05-2.28101E-05-2.80581E-05-3.49686E-06 5.23918E-19-4.05857E-19
 -1      4117 8.88451E-05-2.30782E-05-2.82071E-05-3.01649E-06 5.29337E-19 4.08758E-19
 -1      4118 8.71387E-05-2.20241E-05-2.78631E-05-2.96785E-06 6.22935E-19-9.38512E-19
 -1      4119 8.95753E-05-2.34336E-05-2.83459E-05-2.61874E-06 7.42657E-19 2.41998E-20
 -1      4120 9.00883E-05-2.37532E-05-2.84455E-05-2.25745E-06 8.46827E-19 6.39861E-19
 -1      4121 8.87219E-05-2.28001E-05-2.82135E-05-2.14313E-06 7.62130E-19-1.36351E-18
 -1      4122 9.07028E-05-2.41195E-05-2.85363E-05-1.96772E-06 1.85633E-19 5.80613E-19
 -1      4123 9.11552E-05-2.44526E-05-2.85990E-05-1.69105E-06-3.69763E-19 3.67501E-19
 -1      4124 9.00461E-05-2.35964E-05-2.84479E-05-1.55447E-06 3.66739E-19-1.61311E-18
 -1      4125 9.16678E-05-2.48088E-05-2.86551E-05-1.47858E-06-1.19739E-18 2.27984E-19
 -1      4126 9.20559E-05-2.51316E-05-2.86912E-05-1.26407E-06-1.43458E-18 1.36587E-19
 -1      4127 9.11599E-05-2.43756E-05-2.85981E-05-1.12828E-06-7.79593E-19-1.68106E-18
 -1      4128 9.24771E-05-2.54613E-05-2.87224E-05-1.10755E-06-1.14322E-18-6.06386E-20
 -1      4129 9.28026E-05-2.57593E-05-2.87399E-05-9.39830E-07-1.47853E-19-9.70088E-19
 -1      4130 9.20843E-05-2.51045E-05-2.86877E-05-8.19842E-07-1.21762E-18-9.47677E-19
 -1      4131 9.31441E-05-2.60531E-05-2.87544E-05-8.24220E-07 6.97238E-19-1.27121E-18
 -1      4132 9.34140E-05-2.63180E-05-2.87592E-05-6.90229E-07 9.62266E-19-1.11855E-18
 -1      4133 9.28377E-05-2.57660E-05-2.87348E-05-5.98684E-07-2.36076E-19-9.16428E-19
 -1      4134 9.36834E-05-2.65754E-05-2.87618E-05-6.14150E-07 4.86899E-19-1.34186E-18
 -1      4135 9.38939E-05-2.67992E-05-2.87587E-05-5.11485E-07 8.70026E-19-1.51413E-18
 -1      4136 9.34611E-05-2.63561E-05-2.87537E-05-4.36607E-07 7.91581E-19-9.79818E-19
 -1      4137 9.41082E-05-2.70151E-05-2.87547E-05-4.48462E-07 7.76036E-19-1.45600E-18
 -1      4138 9.42719E-05-2.72042E-05-2.87468E-05-3.70818E-07-6.25639E-20-2.02093E-18
 -1      4139 9.39335E-05-2.68311E-05-2.87530E-05-3.09276E-07 7.41552E-19-1.95924E-18
 -1      4140 9.44360E-05-2.73803E-05-2.87389E-05-3.23356E-07-4.08925E-19-1.67400E-18
 -1      4141 9.45633E-05-2.75350E-05-2.87287E-05-2.62383E-07-2.90087E-19-1.97010E-18
 -1      4142 9.43028E-05-2.72284E-05-2.87410E-05-2.15572E-07-3.34558E-19-2.39565E-18
 -1      4143 9.46873E-05-2.76788E-05-2.87186E-05-2.29555E-07-7.70136E-19-2.43849E-18
 -1      4144 9.47833E-05-2.78028E-05-2.87076E-05-1.83364E-07-9.46972E-19-2.35948E-18
 -1      4145 9.45922E-05-2.75612E-05-2.87232E-05-1.51145E-07-1.01638E-18-2.95077E-18
 -1      4146 9.48745E-05-2.79162E-05-2.86970E-05-1.59704E-07-1.11923E-18-2.11989E-18
 -1      4147 9.49448E-05-2.80135E-05-2.86861E-05-1.24970E-07-1.33239E-18-2.41395E-18
 -1      4148 9.48061E-05-2.78258E-05-2.87027E-05-1.04540E-07-1.18446E-18-3.77749E-18
 -1      4149 9.50107E-05-2.81014E-05-2.86758E-05-1.08061E-07-1.34952E-18-2.19143E-18
 -1      4150 9.50610E-05-2.81762E-05-2.86657E-05-8.22241E-08-6.57421E-19-3.15334E-18
 -1      4151 9.49626E-05-2.80329E-05-2.86819E-05-7.04253E-08-1.35236E-18-4.05095E-18
 -1      4152 9.51073E-05-2.82431E-05-2.86563E-05-7.03488E-08 3.79474E-21-2.43645E-18
 -1      4153 9.51422E-05-2.82996E-05-2.86474E-05-5.14164E-08 4.31148E-19-2.86149E-18
 -1      4154 9.50744E-05-2.81922E-05-2.86622E-05-4.57912E-08 2.66104E-19-3.29652E-18
 -1      4155 9.51737E-05-2.83495E-05-2.86391E-05-4.32520E-08 9.10584E-19-2.75396E-18
 -1      4156 9.51970E-05-2.83912E-05-2.86314E-05-2.96304E-08 5.06481E-19-2.52522E-18
 -1      4157 9.51520E-05-2.83124E-05-2.86445E-05-2.82603E-08 7.84176E-19-3.72994E-18
 -1      4158 9.52175E-05-2.84276E-05-2.86243E-05-2.41688E-08 1.47745E-19-1.52427E-18
 -1      4159 9.52322E-05-2.84578E-05-2.86179E-05-1.45826E-08 1.03037E-18-2.20180E-18
 -1      4160 9.52039E-05-2.84012E-05-2.86291E-05-1.59972E-08 4.98834E-19-3.87762E-18
 -1      4161 9.52447E-05-2.84837E-05-2.86119E-05-1.10625E-08 8.12157E-19-2.32668E-18
 -1      4162 9.52533E-05-2.85049E-05-2.86066E-05-4.50068E-09 8.66721E-19-3.04792E-18
 -1      4163 9.52369E-05-2.84654E-05-2.86160E-05-7.60532E-09 3.05155E-19-2.16678E-18
 -1      4164 9.52602E-05-2.85229E-05-2.86017E-05-2.35103E-09 1.20368E-18-4.42211E-18
 -1      4165 9.52644E-05-2.85373E-05-2.85974E-05 1.97732E-09 2.84609E-19-4.18534E-18
 -1      4166 9.52563E-05-2.85106E-05-2.86051E-05-2.02799E-09 2.51687E-19-3.97913E-18
 -1      4167 9.52674E-05-2.85494E-05-2.85934E-05 3.18825E-09-1.21487E-18-3.70721E-18
 -1      4168 9.52687E-05-2.85589E-05-2.85900E-05 5.84538E-09-2.19568E-18-4.06547E-18
 -1      4169 9.52662E-05-2.85415E-05-2.85963E-05 1.53590E-09 1.33085E-20-3.48072E-18
 -1      4170 9.26072E-05-2.55261E-05-2.87560E-05 9.59846E-07 8.59664E-19-1.54290E-18
 -1      4171 9.22199E-05-2.51732E-05-2.87388E-05 1.08871E-06 1.06434E-18-1.06323E-18
 -1      4172 8.75975E-05-2.19404E-05-2.81556E-05 1.81390E-06-6.52477E-19-1.44791E-18
 -1      4173 8.66332E-05-2.14070E-05-2.79724E-05 1.95912E-06 1.90884E-19-1.14550E-18
 -1      4174 9.52691E-05-2.85707E-05-2.85851E-05 6.81409E-09-2.22683E-18-2.72208E-18
 -1      4175 9.52695E-05-2.85723E-05-2.85845E-05 3.43737E-09-1.78093E-18-2.33793E-18
 -1      4176 9.52692E-05-2.85655E-05-2.85873E-05 5.97350E-09-2.24062E-18-2.96250E-18
 -1      4177 9.32936E-05-2.61643E-05-2.87744E-05 7.67096E-07-8.23334E-19-1.82467E-18
 -1      4178 9.29875E-05-2.58649E-05-2.87709E-05 8.79015E-07 6.47235E-19-1.04896E-18
 -1      4179 9.26615E-05-2.55602E-05-2.87419E-05 6.11301E-07 6.66734E-19-4.04321E-19
 -1      4180 9.17418E-05-2.47840E-05-2.87051E-05 1.17085E-06 7.64933E-19-1.34220E-18
 -1      4181 9.12506E-05-2.43775E-05-2.86666E-05 1.30920E-06 2.72887E-19-1.38388E-18
 -1      4182 9.07641E-05-2.39801E-05-2.85919E-05 8.20651E-07-2.48636E-19-1.99759E-18
 -1      4183 9.18230E-05-2.48251E-05-2.86906E-05 7.22931E-07 8.11515E-19-4.05313E-19
 -1      4184 9.38230E-05-2.66965E-05-2.87722E-05 5.99674E-07-1.30080E-18-1.63014E-18
 -1      4185 9.35876E-05-2.64455E-05-2.87771E-05 6.99066E-07-1.78917E-18-1.74188E-18
 -1      4186 9.33411E-05-2.62085E-05-2.87627E-05 4.90864E-07-1.05763E-18-3.10790E-19
 -1      4187 9.42261E-05-2.71316E-05-2.87582E-05 4.59617E-07-3.82382E-19-1.03144E-18
 -1      4188 9.40516E-05-2.69282E-05-2.87678E-05 5.45071E-07-1.08054E-18-1.44485E-18
 -1      4189 9.38606E-05-2.67388E-05-2.87618E-05 3.86182E-07-1.10298E-18-1.92510E-18
 -1      4190 9.45344E-05-2.74864E-05-2.87378E-05 3.41518E-07-5.87716E-19-1.11208E-19
 -1      4191 9.44031E-05-2.73225E-05-2.87495E-05 4.10020E-07 3.55844E-20-5.87483E-19
 -1      4192 9.42506E-05-2.71589E-05-2.87490E-05 3.00296E-07-7.30188E-19-2.89712E-18
 -1      4193 9.47646E-05-2.77686E-05-2.87148E-05 2.47603E-07-3.38387E-19-2.42753E-19
 -1      4194 9.46675E-05-2.76385E-05-2.87271E-05 3.02019E-07-1.78480E-19-5.71213E-20
 -1      4195 9.45556E-05-2.75071E-05-2.87301E-05 2.27660E-07-8.01062E-19-1.84121E-18
 -1      4196 9.49326E-05-2.79892E-05-2.86917E-05 1.74419E-07-2.68067E-19 3.39346E-19
 -1      4197 9.48626E-05-2.78878E-05-2.87036E-05 2.16832E-07-5.47680E-19 4.64861E-19
 -1      4198 9.47812E-05-2.77857E-05-2.87086E-05 1.66798E-07-4.81671E-19-1.46016E-18
 -1      4199 9.50527E-05-2.81588E-05-2.86701E-05 1.18494E-07-5.82264E-19-3.39640E-19
 -1      4200 9.50033E-05-2.80812E-05-2.86809E-05 1.50901E-07 1.48381E-19 6.97269E-19
 -1      4201 9.49455E-05-2.80033E-05-2.86868E-05 1.18143E-07-6.68475E-19-1.79227E-20
 -1      4202 9.51365E-05-2.82869E-05-2.86507E-05 7.67331E-08-2.40093E-18-3.99094E-19
 -1      4203 9.51026E-05-2.82285E-05-2.86602E-05 1.00975E-07-1.97558E-18-1.09232E-18
 -1      4204 9.50626E-05-2.81703E-05-2.86663E-05 8.04982E-08-1.21477E-18 1.67832E-19
 -1      4205 9.51930E-05-2.83819E-05-2.86339E-05 4.63108E-08-5.29521E-20-5.83637E-19
 -1      4206 9.51706E-05-2.83389E-05-2.86421E-05 6.40361E-08-1.01308E-18-3.86097E-19
 -1      4207 9.51440E-05-2.82963E-05-2.86478E-05 5.21889E-08-1.39150E-18-1.97482E-18
 -1      4208 9.52294E-05-2.84510E-05-2.86197E-05 2.47440E-08 1.31240E-18-1.51146E-18
 -1      4209 9.52154E-05-2.84199E-05-2.86265E-05 3.73804E-08 9.57912E-19-3.13150E-19
 -1      4210 9.51986E-05-2.83894E-05-2.86317E-05 3.14755E-08 5.58491E-19-2.40900E-18
 -1      4211 9.52514E-05-2.85000E-05-2.86080E-05 9.93429E-09 8.11114E-19-1.70995E-18
 -1      4212 9.52433E-05-2.84781E-05-2.86136E-05 1.86798E-08 1.53281E-18-1.22169E-18
 -1      4213 9.52335E-05-2.84569E-05-2.86181E-05 1.67515E-08 1.55182E-18-2.91056E-18
 -1      4214 9.52631E-05-2.85338E-05-2.85985E-05 1.64742E-10-3.30021E-19-1.01879E-18
 -1      4215 9.52592E-05-2.85188E-05-2.86029E-05 5.99598E-09-6.33350E-20-1.49625E-18
 -1      4216 9.52542E-05-2.85046E-05-2.86068E-05 6.62500E-09 4.60610E-19-2.43142E-18
 -1      4217 9.52680E-05-2.85564E-05-2.85908E-05-5.92910E-09-1.33907E-18-6.33840E-19
 -1      4218 9.52668E-05-2.85465E-05-2.85943E-05-2.23965E-09-8.13946E-19-8.28880E-19
 -1      4219 9.52651E-05-2.85373E-05-2.85975E-05-6.17972E-11-4.88850E-19-1.63031E-18
 -1      4220 9.52683E-05-2.85709E-05-2.85846E-05-9.33437E-09-4.05115E-19 2.21247E-19
 -1      4221 9.52689E-05-2.85646E-05-2.85875E-05-7.23792E-09-1.29883E-18-4.33583E-19
 -1      4222 9.52692E-05-2.85590E-05-2.85900E-05-4.24034E-09-1.35918E-18-1.50302E-18
 -1      4223 8.35295E-05-2.00698E-05-2.72058E-05 1.19033E-05 7.12289E-19-2.23323E-18
 -1      4224 8.64666E-05-2.20577E-05-2.75760E-05 1.20388E-05 5.11098E-19-2.14718E-18
 -1      4225 8.77263E-05-2.41585E-05-2.72502E-05 1.34091E-05 7.00198E-19-2.11095E-18
 -1      4226 9.52651E-05-2.85783E-05-2.85801E-05 1.26220E-08-1.76010E-18-1.62274E-18
 -1      4227 8.92930E-05-2.29817E-05-2.84325E-05 1.60883E-06-5.53122E-19-1.47964E-18
 -1      4228 8.85169E-05-2.24783E-05-2.83158E-05 1.75283E-06-8.50053E-19-2.28609E-18
 -1      4229 8.78079E-05-2.19952E-05-2.81573E-05 8.92026E-07-4.55342E-19-1.98790E-18
 -1      4230 8.94459E-05-2.30327E-05-2.84241E-05 8.86634E-07-7.53602E-19-2.16809E-18
 -1      4231 8.24605E-05-2.49363E-05-2.45420E-05-1.49258E-05 7.50936E-19-5.47193E-19
 -1      4232 8.95292E-05-2.67357E-05-2.69857E-05 1.48359E-05 7.17988E-19-1.73478E-18
 -1      4233 8.07512E-05-2.26439E-05-2.48649E-05-1.17186E-05 3.60095E-19-7.78635E-19
 -1      4234 9.52691E-05-2.85767E-05-2.85824E-05 3.95270E-10-3.89503E-19-2.53585E-18
 -1      4235 9.52676E-05-2.85802E-05-2.85804E-05-1.77982E-09 3.65283E-19-3.14658E-18
 -1      4236 9.52673E-05-2.85801E-05-2.85802E-05-4.70948E-09 5.33689E-19-3.90104E-18
 -1      4237 7.67010E-05-1.77153E-05-2.53290E-05 1.59551E-06-1.93832E-19 5.43435E-19
 -1      4238 7.50207E-05-1.71533E-05-2.46655E-05-2.05436E-06-3.50066E-19 9.77023E-19
 -1      4239 9.52666E-05-2.85807E-05-2.85797E-05-7.49734E-09 1.13555E-18-2.22785E-18
 -1      4240 9.52656E-05-2.85804E-05-2.85794E-05-1.03968E-08 1.16358E-18 3.29133E-19
 -1      4241 9.52665E-05-2.85783E-05-2.85806E-05-1.06080E-08 1.09217E-18 1.29096E-18
 -1      4242 9.52684E-05-2.85773E-05-2.85819E-05-5.26261E-09 6.15650E-20-3.77113E-18
 -1      4243 8.25554E-05-1.95253E-05-2.69601E-05 3.76755E-06-3.60464E-19 2.37788E-19
 -1      4244 8.11304E-05-2.18524E-05-2.54243E-05-9.95676E-06 4.78555E-19-1.02835E-18
 -1      4245 6.65832E-05-1.03710E-05-2.38987E-05 4.45176E-07 5.78687E-19-3.25033E-18
 -1      4246 9.52697E-05-2.85608E-05-2.85895E-05 3.30612E-09-6.80408E-19-3.47143E-18
 -1      4247 8.57559E-05-2.09033E-05-2.77504E-05 7.89792E-07 5.65104E-19-9.58795E-19
 -1      4248 8.54883E-05-2.08302E-05-2.77314E-05 2.00197E-06 4.93584E-19-6.36242E-19
 -1      4249 8.43105E-05-2.02911E-05-2.74538E-05 2.18606E-06 6.10391E-19-2.49814E-19
 -1      4250 9.52699E-05-2.85725E-05-2.85846E-05 7.42427E-10-8.76567E-19-3.89352E-18
 -1      4251 6.88162E-05-1.36531E-05-2.37278E-05-7.59561E-06 2.95972E-19-3.07444E-18
 -1      4252 7.95910E-05-2.01589E-05-2.54094E-05-7.80596E-06 7.26510E-19-4.03803E-19
 -1      4253 7.66329E-05-1.84644E-05-2.49807E-05-4.79317E-06 1.05201E-20 3.98794E-19
 -1      4254 9.52672E-05-2.85759E-05-2.85820E-05-1.03308E-08 9.58902E-19 1.25445E-18
 -1      4255 7.87979E-05-1.83241E-05-2.59723E-05 1.39279E-06-1.70970E-19 1.86835E-20
 -1      4256 9.52687E-05-2.85729E-05-2.85839E-05-6.82348E-09-2.96814E-19-1.57766E-18
 -1      4257 8.23579E-05-2.18379E-05-2.58620E-05 1.53693E-05 8.92405E-19-2.41350E-18
 -1      4258 9.34322E-05-2.63352E-05-2.87576E-05 2.10688E-07-7.26419E-19-7.46523E-19
 -1      4259 9.31198E-05-2.60280E-05-2.87516E-05 2.43969E-07-1.25761E-19 6.32475E-19
 -1      4260 8.40873E-05-2.07343E-05-2.71576E-05-3.20529E-06 8.69632E-19-6.83044E-19
 -1      4261 8.50467E-05-2.09853E-05-2.74506E-05-2.59877E-06 7.98264E-19-6.15518E-19
 -1      4262 8.62512E-05-2.14647E-05-2.77879E-05-1.27320E-06 2.35751E-19-9.52398E-19
 -1      4263 8.71466E-05-2.18985E-05-2.79993E-05-8.85529E-07 2.78967E-19-1.33431E-18
 -1      4264 8.80707E-05-2.24120E-05-2.81680E-05-7.92182E-07 1.11686E-19-1.70669E-18
 -1      4265 8.88273E-05-2.28354E-05-2.83115E-05-5.03269E-07 3.78311E-21-1.82946E-18
 -1      4266 8.95826E-05-2.33216E-05-2.84214E-05-4.65673E-07 5.02622E-20-1.99964E-18
 -1      4267 9.02196E-05-2.37350E-05-2.85155E-05-2.59547E-07-3.25591E-19-2.29728E-18
 -1      4268 9.08316E-05-2.41807E-05-2.85836E-05-2.56916E-07-1.85208E-19-1.83094E-18
 -1      4269 9.13611E-05-2.45682E-05-2.86418E-05-1.11573E-07-1.90223E-19-1.56035E-18
 -1      4270 9.18534E-05-2.49657E-05-2.86807E-05-1.28321E-07-1.15740E-20-8.85097E-19
 -1      4271 9.22886E-05-2.53166E-05-2.87135E-05-2.62071E-08-2.74752E-19-4.57767E-19
 -1      4272 9.31985E-05-2.61278E-05-2.87477E-05-2.77796E-07 2.09386E-19 2.01609E-19
 -1      4273 9.34773E-05-2.63978E-05-2.87533E-05-2.11406E-07 6.14104E-19-7.18750E-19
 -1      4274 9.37965E-05-2.67023E-05-2.87548E-05-1.38619E-07 7.66783E-19-2.27031E-18
 -1      4275 9.39988E-05-2.69159E-05-2.87503E-05-1.02833E-07-3.90374E-19-2.86710E-18
 -1      4276 9.42504E-05-2.71904E-05-2.87433E-05 1.78905E-08-6.13747E-19-2.52378E-18
 -1      4277 9.44159E-05-2.73727E-05-2.87355E-05 4.06420E-08-3.61933E-19-2.67578E-18
 -1      4278 9.45516E-05-2.75340E-05-2.87255E-05 1.65663E-08-5.49035E-19-2.86232E-18
 -1      4279 9.46760E-05-2.76780E-05-2.87157E-05 3.45815E-08-1.43527E-18-2.85224E-18
 -1      4280 9.47772E-05-2.78057E-05-2.87049E-05 1.43770E-08-1.48510E-18-1.99540E-18
 -1      4281 9.48692E-05-2.79190E-05-2.86945E-05 2.77142E-08-9.27009E-19-2.13828E-18
 -1      4282 9.49427E-05-2.80183E-05-2.86840E-05 1.13699E-08-9.13162E-19-1.47654E-18
 -1      4283 9.50092E-05-2.81059E-05-2.86739E-05 2.10184E-08-8.04395E-19-1.89980E-18
 -1      4284 9.50611E-05-2.81816E-05-2.86641E-05 8.26333E-09-9.81046E-19-2.41233E-18
 -1      4285 9.51079E-05-2.82481E-05-2.86549E-05 1.51644E-08-1.65474E-19-2.81746E-18
 -1      4286 9.51436E-05-2.83048E-05-2.86462E-05 5.50006E-09 3.42143E-19-4.34857E-18
 -1      4287 9.51753E-05-2.83542E-05-2.86380E-05 1.03838E-08 7.38480E-19-4.19403E-18
 -1      4288 9.51989E-05-2.83958E-05-2.86305E-05 3.26146E-09 1.62596E-18-4.20840E-18
 -1      4289 9.52195E-05-2.84318E-05-2.86235E-05 6.67087E-09 8.15416E-19-3.71320E-18
 -1      4290 9.52342E-05-2.84616E-05-2.86172E-05 1.57021E-09 8.01766E-19-2.80934E-18
 -1      4291 9.52468E-05-2.84872E-05-2.86113E-05 3.90620E-09 6.29312E-19-3.08515E-18
 -1      4292 9.52552E-05-2.85080E-05-2.86061E-05 3.68686E-10-4.62499E-19-2.75783E-18
 -1      4293 9.52620E-05-2.85257E-05-2.86013E-05 1.92805E-09-9.80520E-20-3.20430E-18
 -1      4294 9.52660E-05-2.85398E-05-2.85971E-05-4.34679E-10 1.06406E-21-2.93679E-18
 -1      4295 9.52689E-05-2.85516E-05-2.85931E-05 5.66824E-10-1.97122E-19-2.61262E-18
 -1      4296 9.39710E-05-2.68826E-05-2.87548E-05 2.03553E-07-5.36895E-19-2.83498E-18
 -1      4297 9.37480E-05-2.66507E-05-2.87592E-05 2.43731E-07-8.88093E-19-2.12226E-18
 -1      4298 8.14240E-05-2.00645E-05-2.63307E-05-4.78616E-06 9.10527E-19-5.28663E-19
 -1      4299 8.26456E-05-2.02818E-05-2.67665E-05-3.79364E-06 8.13454E-19-5.82250E-19
 -1      4300 8.26710E-05-1.98696E-05-2.68949E-05-2.07887E-06 7.38573E-19-9.01570E-19
 -1      4301 9.52700E-05-2.85607E-05-2.85897E-05-9.14988E-10-7.86213E-19-3.87167E-18
 -1      4302 7.95150E-05-1.93077E-05-2.58357E-05-4.32465E-06 4.08068E-19-8.37280E-20
 -1      4303 9.52696E-05-2.85724E-05-2.85846E-05-4.33201E-09-4.50756E-19-4.17025E-18
 -1      4304 8.27132E-05-1.96421E-05-2.70556E-05 1.90469E-06 1.32382E-19-1.90732E-19
 -1      4305 8.08889E-05-1.89582E-05-2.65737E-05 1.84705E-06-4.08077E-19-9.27799E-20
 -1      4306 7.96018E-05-1.85208E-05-2.61401E-05-6.48158E-07-1.37160E-19-1.74532E-19
 -1      4307 8.31764E-05-1.98034E-05-2.71240E-05 3.47944E-07 4.85117E-19-1.17145E-18
 -1      4308 9.26797E-05-2.56575E-05-2.87322E-05-4.93491E-08-4.13465E-19-2.32995E-19
 -1      4309 9.52703E-05-2.85673E-05-2.85869E-05-7.57702E-10-1.15424E-18-3.95279E-18
 -1      4310 9.35865E-05-2.64888E-05-2.87534E-05 1.87457E-08 1.01070E-19-1.34438E-18
 -1      4311 9.30288E-05-2.59663E-05-2.87474E-05 1.04632E-08 9.82678E-20 2.23406E-19
 -1      4312 7.93967E-05-1.86039E-05-2.60132E-05-2.01791E-06 1.79586E-19-1.08970E-19
 -1      4313 9.40709E-05-2.69902E-05-2.87509E-05 3.79134E-08-7.38711E-19-2.64561E-18
 -1      4314 8.51509E-05-2.09526E-05-2.75393E-05-1.48348E-06 8.61742E-19-7.32027E-19
 -1      4315 8.14451E-05-1.93507E-05-2.66042E-05-1.25753E-06 3.95098E-19-9.80523E-19
 -1      4316 8.27242E-05-1.97807E-05-2.70007E-05-8.78128E-07 3.97916E-19-1.20212E-18
 -1      4317 8.42221E-05-2.03889E-05-2.73802E-05-4.64409E-07 7.56200E-19-1.16127E-18
 -3
    1PSTEP                         4           1           1          
  100CL  101 1.000000000        4317                     0    1           1
 -4  ERROR       1    1
 -5  STR(%)      1    1    0    0
 -1         1 2.30936E+01
 -1         2 2.44466E+01
 -1         3 2.84327E-04
 -1         4 3.35261E-04
 -1         5 1.27009E+01
 -1         6 1.21421E+01
 -1         7 1.21421E+01
 -1         8 3.69442E+00
 -1         9 2.20407E+00
 -1        10 1.66833E+00
 -1        11 1.37779E+00
 -1        12 1.14183E+00
 -1        13 9.46067E-01
 -1        14 6.93730E-01
 -1        15 4.75197E-01
 -1        16 8.35935E-01
 -1        17 1.15818E+00
 -1        18 1.48285E+00
 -1        19 1.82052E+00
 -1        20 2.35337E+00
 -1        21 3.56791E+00
 -1        22 7.90015E+00
 -1        23 1.21421E+01
 -1        24 3.55278E+00
 -1        25 2.20830E+00
 -1        26 1.11965E+00
 -1        27 4.41390E-01
 -1        28 4.31996E-01
 -1        29 6.08008E-01
 -1        30 9.52211E-01
 -1        31 1.32167E+00
 -1        32 2.27772E+00
 -1        33 3.07130E+00
 -1        34 3.23561E+00
 -1        35 3.30733E+00
 -1        36 3.30733E+00
 -1        37 2.88795E+00
 -1        38 1.93174E+00
 -1        39 1.34301E+00
 -1        40 9.99543E-01
 -1        41 9.99543E-01
 -1        42 9.29881E-01
 -1        43 9.29881E-01
 -1        44 8.55817E-01
 -1        45 7.20589E-01
 -1        46 5.72383E-01
 -1        47 4.53955E-01
 -1        48 3.77903E-01
 -1        49 3.21366E-01
 -1        50 2.62637E-01
 -1        51 2.07499E-01
 -1        52 1.58989E-01
 -1        53 1.18272E-01
 -1        54 9.20154E-02
 -1        55 7.71271E-02
 -1        56 6.29893E-02
 -1        57 5.02751E-02
 -1        58 3.92794E-02
 -1        59 3.00530E-02
 -1        60 2.24995E-02
 -1        61 1.84215E-02
 -1        62 1.50743E-02
 -1        63 1.20584E-02
 -1        64 9.41946E-03
 -1        65 7.15149E-03
 -1        66 5.39102E-03
 -1        67 3.87703E-03
 -1        68 3.26313E-03
 -1        69 2.73989E-03
 -1        70 2.03391E-03
 -1        71 1.55453E-03
 -1        72 1.27009E+01
 -1        73 2.78820E+00
 -1        74 1.60355E+00
 -1        75 1.18105E+00
 -1        76 9.54613E-01
 -1        77 1.17454E+00
 -1        78 1.38599E+00
 -1        79 1.77385E+00
 -1        80 1.78851E+00
 -1        81 2.48806E+00
 -1        82 3.74296E+00
 -1        83 4.76781E+00
 -1        84 5.44876E+00
 -1        85 5.44876E+00
 -1        86 4.59828E+00
 -1        87 2.53119E+00
 -1        88 1.59494E+00
 -1        89 1.71523E+00
 -1        90 1.85752E+00
 -1        91 1.85752E+00
 -1        92 1.71786E+00
 -1        93 1.45287E+00
 -1        94 1.21485E+00
 -1        95 9.71640E-01
 -1        96 7.47645E-01
 -1        97 5.56324E-01
 -1        98 4.04983E-01
 -1        99 3.12606E-01
 -1       100 2.35917E-01
 -1       101 1.74222E-01
 -1       102 1.25806E-01
 -1       103 8.86097E-02
 -1       104 6.05878E-02
 -1       105 4.71412E-02
 -1       106 3.87464E-02
 -1       107 3.12294E-02
 -1       108 2.47136E-02
 -1       109 1.92075E-02
 -1       110 1.69246E-02
 -1       111 1.45447E-02
 -1       112 1.21861E-02
 -1       113 9.97528E-03
 -1       114 7.97006E-03
 -1       115 6.31656E-03
 -1       116 4.86783E-03
 -1       117 3.53365E-03
 -1       118 2.72832E-03
 -1       119 2.01854E-03
 -1       120 1.11553E-03
 -1       121 5.25255E-04
 -1       122 5.25255E-04
 -1       123 3.66978E-04
 -1       124 1.40318E-04
 -1       125 2.47995E-04
 -1       126 3.52599E-04
 -1       127 4.10573E-04
 -1       128 4.25855E-04
 -1       129 4.25855E-04
 -1       130 4.08810E-04
 -1       131 3.46489E-04
 -1       132 2.45007E-04
 -1       133 1.42940E-04
 -1       134 3.70175E-04
 -1       135 6.94514E-04
 -1       136 8.36479E-04
 -1       137 2.50505E+01
 -1       138 4.74268E+01
 -1       139 4.74268E+01
 -1       140 1.91138E+01
 -1       141 1.35746E+01
 -1       142 1.36263E+01
 -1       143 1.36263E+01
 -1       144 1.27582E+01
 -1       145 1.27582E+01
 -1       146 1.45014E+01
 -1       147 4.02614E+01
 -1       148 4.02614E+01
 -1       149 2.58941E+01
 -1       150 2.58941E+01
 -1       151 2.59116E+01
 -1       152 2.86344E+01
 -1       153 2.99066E+01
 -1       154 2.81360E+01
 -1       155 1.32261E+01
 -1       156 1.29978E+01
 -1       157 1.29978E+01
 -1       158 1.29856E+01
 -1       159 1.22910E+01
 -1       160 1.20597E+01
 -1       161 4.89153E+01
 -1       162 4.89153E+01
 -1       163 2.43087E+01
 -1       164 5.91267E+00
 -1       165 2.62743E+00
 -1       166 1.91215E+00
 -1       167 1.51822E+00
 -1       168 1.22541E+00
 -1       169 1.00026E+00
 -1       170 8.01928E-01
 -1       171 5.13684E-01
 -1       172 6.01066E-01
 -1       173 9.58958E-01
 -1       174 1.27208E+00
 -1       175 1.54901E+00
 -1       176 1.96316E+00
 -1       177 2.68122E+00
 -1       178 3.83859E+00
 -1       179 1.27009E+01
 -1       180 3.55278E+00
 -1       181 2.20830E+00
 -1       182 1.11965E+00
 -1       183 4.48225E-01
 -1       184 2.99696E-01
 -1       185 4.31996E-01
 -1       186 6.08008E-01
 -1       187 9.88761E-01
 -1       188 1.54286E+00
 -1       189 2.27772E+00
 -1       190 3.07130E+00
 -1       191 3.23561E+00
 -1       192 3.30733E+00
 -1       193 2.88795E+00
 -1       194 1.94701E+00
 -1       195 1.34301E+00
 -1       196 9.63001E-01
 -1       197 9.99543E-01
 -1       198 9.02947E-01
 -1       199 9.29881E-01
 -1       200 8.55817E-01
 -1       201 7.20589E-01
 -1       202 5.98372E-01
 -1       203 5.11297E-01
 -1       204 4.25924E-01
 -1       205 3.38185E-01
 -1       206 2.62637E-01
 -1       207 2.07499E-01
 -1       208 1.62483E-01
 -1       209 1.25537E-01
 -1       210 9.44227E-02
 -1       211 7.71271E-02
 -1       212 6.29893E-02
 -1       213 5.02751E-02
 -1       214 3.92794E-02
 -1       215 3.00530E-02
 -1       216 2.32404E-02
 -1       217 1.84215E-02
 -1       218 1.50743E-02
 -1       219 1.20584E-02
 -1       220 9.46444E-03
 -1       221 7.47778E-03
 -1       222 5.75170E-03
 -1       223 4.44735E-03
 -1       224 3.27233E-03
 -1       225 2.73989E-03
 -1       226 2.03391E-03
 -1       227 1.55453E-03
 -1       228 2.78820E+00
 -1       229 1.60355E+00
 -1       230 1.18105E+00
 -1       231 9.54613E-01
 -1       232 8.75154E-01
 -1       233 1.17454E+00
 -1       234 1.38599E+00
 -1       235 1.77385E+00
 -1       236 1.78851E+00
 -1       237 2.50051E+00
 -1       238 3.74296E+00
 -1       239 4.76781E+00
 -1       240 5.44876E+00
 -1       241 4.59828E+00
 -1       242 2.53119E+00
 -1       243 1.59494E+00
 -1       244 1.54081E+00
 -1       245 1.71523E+00
 -1       246 1.85752E+00
 -1       247 1.71786E+00
 -1       248 1.45287E+00
 -1       249 1.21485E+00
 -1       250 9.94836E-01
 -1       251 7.86952E-01
 -1       252 6.01495E-01
 -1       253 4.45913E-01
 -1       254 3.22707E-01
 -1       255 2.35917E-01
 -1       256 1.74222E-01
 -1       257 1.27195E-01
 -1       258 9.18949E-02
 -1       259 6.48083E-02
 -1       260 4.71412E-02
 -1       261 3.87464E-02
 -1       262 3.12294E-02
 -1       263 2.47136E-02
 -1       264 1.92075E-02
 -1       265 1.69246E-02
 -1       266 1.45447E-02
 -1       267 1.21861E-02
 -1       268 9.97528E-03
 -1       269 7.97006E-03
 -1       270 6.31656E-03
 -1       271 4.86783E-03
 -1       272 3.57706E-03
 -1       273 2.72832E-03
 -1       274 2.01854E-03
 -1       275 1.17693E-03
 -1       276 6.15403E-04
 -1       277 6.15403E-04
 -1       278 5.16860E-04
 -1       279 4.02278E-04
 -1       280 6.13807E-04
 -1       281 7.37604E-04
 -1       282 7.84628E-04
 -1       283 7.84628E-04
 -1       284 7.83920E-04
 -1       285 7.31084E-04
 -1       286 6.09680E-04
 -1       287 4.02245E-04
 -1       288 5.11265E-04
 -1       289 5.11265E-04
 -1       290 8.36479E-04
 -1       291 2.96259E+01
 -1       292 2.92284E+01
 -1       293 4.74268E+01
 -1       294 2.04480E+01
 -1       295 1.10237E+01
 -1       296 1.35746E+01
 -1       297 1.36263E+01
 -1       298 1.22214E+01
 -1       299 1.27582E+01
 -1       300 1.15682E+01
 -1       301 1.45014E+01
 -1       302 4.02614E+01
 -1       303 3.41863E+01
 -1       304 2.95566E+01
 -1       305 2.95566E+01
 -1       306 3.23326E+01
 -1       307 3.23326E+01
 -1       308 2.99066E+01
 -1       309 1.32261E+01
 -1       310 1.18280E+01
 -1       311 1.29978E+01
 -1       312 1.29856E+01
 -1       313 1.22910E+01
 -1       314 1.20597E+01
 -1       315 1.17369E+01
 -1       316 2.52238E+01
 -1       317 4.89153E+01
 -1       318 3.10811E+01
 -1       319 2.96259E+01
 -1       320 1.59220E+00
 -1       321 2.59592E+00
 -1       322 1.18355E+00
 -1       323 1.05086E+00
 -1       324 9.37824E-01
 -1       325 7.14550E-01
 -1       326 3.96863E-01
 -1       327 7.93422E-01
 -1       328 1.15101E+00
 -1       329 1.36446E+00
 -1       330 1.57619E+00
 -1       331 1.84718E+00
 -1       332 1.85395E+00
 -1       333 1.67371E+00
 -1       334 1.20390E+00
 -1       335 1.04689E+00
 -1       336 6.49982E-01
 -1       337 4.38305E-01
 -1       338 3.97686E-01
 -1       339 4.55510E-01
 -1       340 7.44174E-01
 -1       341 1.17854E+00
 -1       342 1.55240E+00
 -1       343 1.94122E+00
 -1       344 2.10479E+00
 -1       345 2.05045E+00
 -1       346 2.10468E+00
 -1       347 1.79538E+00
 -1       348 1.38286E+00
 -1       349 9.02493E-01
 -1       350 4.89878E-01
 -1       351 5.08244E-01
 -1       352 6.24211E-01
 -1       353 6.91950E-01
 -1       354 6.66842E-01
 -1       355 5.92720E-01
 -1       356 5.27043E-01
 -1       357 4.65051E-01
 -1       358 3.90078E-01
 -1       359 3.13748E-01
 -1       360 2.43160E-01
 -1       361 1.81944E-01
 -1       362 1.31343E-01
 -1       363 9.44227E-02
 -1       364 6.91056E-02
 -1       365 4.98818E-02
 -1       366 3.86888E-02
 -1       367 3.23397E-02
 -1       368 2.63917E-02
 -1       369 2.10658E-02
 -1       370 1.64528E-02
 -1       371 1.27855E-02
 -1       372 1.08721E-02
 -1       373 9.02341E-03
 -1       374 7.26548E-03
 -1       375 5.75170E-03
 -1       376 4.47326E-03
 -1       377 3.36898E-03
 -1       378 2.51802E-03
 -1       379 1.86133E-03
 -1       380 1.36554E-03
 -1       381 1.00314E+00
 -1       382 1.06553E+00
 -1       383 1.15036E+00
 -1       384 1.15015E+00
 -1       385 9.82464E-01
 -1       386 1.10987E+00
 -1       387 1.59507E+00
 -1       388 2.41658E+00
 -1       389 2.91143E+00
 -1       390 3.08612E+00
 -1       391 2.93987E+00
 -1       392 2.83856E+00
 -1       393 1.87727E+00
 -1       394 1.11487E+00
 -1       395 1.09067E+00
 -1       396 1.34175E+00
 -1       397 1.36169E+00
 -1       398 1.35453E+00
 -1       399 1.22666E+00
 -1       400 1.08888E+00
 -1       401 9.19780E-01
 -1       402 7.42919E-01
 -1       403 5.79196E-01
 -1       404 4.38255E-01
 -1       405 3.22707E-01
 -1       406 2.31304E-01
 -1       407 1.72324E-01
 -1       408 1.27195E-01
 -1       409 9.18949E-02
 -1       410 6.48083E-02
 -1       411 4.44000E-02
 -1       412 2.94456E-02
 -1       413 2.53916E-02
 -1       414 2.13094E-02
 -1       415 1.74628E-02
 -1       416 1.39934E-02
 -1       417 1.09604E-02
 -1       418 9.18118E-03
 -1       419 7.72501E-03
 -1       420 6.28429E-03
 -1       421 5.19986E-03
 -1       422 4.19964E-03
 -1       423 3.24585E-03
 -1       424 2.36365E-03
 -1       425 1.79212E-03
 -1       426 1.17693E-03
 -1       427 6.39038E-04
 -1       428 1.20533E-03
 -1       429 1.20533E-03
 -1       430 8.21586E-04
 -1       431 9.90051E-04
 -1       432 1.06212E-03
 -1       433 1.06212E-03
 -1       434 1.05743E-03
 -1       435 1.05743E-03
 -1       436 9.85024E-04
 -1       437 8.17768E-04
 -1       438 6.33409E-04
 -1       439 1.07938E-03
 -1       440 2.92284E+01
 -1       441 3.17482E+01
 -1       442 3.17482E+01
 -1       443 1.63878E+01
 -1       444 9.08251E+00
 -1       445 1.59220E+00
 -1       446 9.70915E+00
 -1       447 1.16433E+01
 -1       448 1.12911E+01
 -1       449 8.40580E+00
 -1       450 7.62482E+00
 -1       451 1.42629E+01
 -1       452 2.30644E+01
 -1       453 2.61649E+01
 -1       454 3.54250E+01
 -1       455 3.54250E+01
 -1       456 3.23326E+01
 -1       457 1.96643E+01
 -1       458 1.10701E+01
 -1       459 7.97370E+00
 -1       460 9.08111E+00
 -1       461 1.03305E+01
 -1       462 1.06400E+01
 -1       463 9.74246E+00
 -1       464 6.60328E+00
 -1       465 1.05503E+01
 -1       466 1.79939E+01
 -1       467 3.10811E+01
 -1       468 3.01650E+01
 -1       469 6.97949E+00
 -1       470 1.94926E+01
 -1       471 5.60977E+00
 -1       472 1.81419E+00
 -1       473 1.06387E+00
 -1       474 1.06387E+00
 -1       475 6.79814E-01
 -1       476 7.34540E-01
 -1       477 1.08670E+00
 -1       478 1.34701E+00
 -1       479 1.40928E+00
 -1       480 1.84718E+00
 -1       481 8.40897E+00
 -1       482 1.23014E+00
 -1       483 9.43154E-01
 -1       484 4.87339E+00
 -1       485 7.77736E-01
 -1       486 6.90179E-01
 -1       487 7.23037E-01
 -1       488 8.75983E-01
 -1       489 1.09507E+00
 -1       490 1.37100E+00
 -1       491 1.53874E+00
 -1       492 1.96380E+00
 -1       493 1.85810E+00
 -1       494 1.95405E+00
 -1       495 1.72773E+00
 -1       496 1.41329E+00
 -1       497 1.24274E+00
 -1       498 9.11648E-01
 -1       499 8.52086E-01
 -1       500 6.88409E-01
 -1       501 7.09035E-01
 -1       502 6.80055E-01
 -1       503 6.14694E-01
 -1       504 5.58206E-01
 -1       505 4.96888E-01
 -1       506 4.25843E-01
 -1       507 3.51232E-01
 -1       508 2.80312E-01
 -1       509 2.17133E-01
 -1       510 1.63443E-01
 -1       511 1.19481E-01
 -1       512 8.45973E-02
 -1       513 5.76902E-02
 -1       514 3.74922E-02
 -1       515 2.55715E-02
 -1       516 1.87609E-02
 -1       517 1.65920E-02
 -1       518 1.41905E-02
 -1       519 1.17898E-02
 -1       520 9.53126E-03
 -1       521 7.66827E-03
 -1       522 6.59401E-03
 -1       523 5.44962E-03
 -1       524 4.32185E-03
 -1       525 3.38102E-03
 -1       526 2.53493E-03
 -1       527 1.81547E-03
 -1       528 1.52723E+00
 -1       529 1.66273E+00
 -1       530 1.84063E+00
 -1       531 2.21129E+00
 -1       532 2.25430E+00
 -1       533 3.90789E+00
 -1       534 7.42152E+00
 -1       535 3.99863E+00
 -1       536 4.87240E+00
 -1       537 2.91070E+00
 -1       538 2.22207E+00
 -1       539 1.91121E+00
 -1       540 1.76398E+00
 -1       541 1.62380E+00
 -1       542 1.42039E+00
 -1       543 1.27908E+00
 -1       544 1.14307E+00
 -1       545 9.74688E-01
 -1       546 7.98238E-01
 -1       547 6.33243E-01
 -1       548 4.89223E-01
 -1       549 3.69185E-01
 -1       550 2.72442E-01
 -1       551 1.96504E-01
 -1       552 1.38212E-01
 -1       553 9.43654E-02
 -1       554 6.20365E-02
 -1       555 4.26948E-02
 -1       556 3.03398E-02
 -1       557 2.53916E-02
 -1       558 2.13094E-02
 -1       559 1.74628E-02
 -1       560 1.39934E-02
 -1       561 1.09604E-02
 -1       562 9.18118E-03
 -1       563 7.72501E-03
 -1       564 6.28429E-03
 -1       565 4.97204E-03
 -1       566 3.86698E-03
 -1       567 2.86927E-03
 -1       568 2.28816E-03
 -1       569 1.67981E-03
 -1       570 1.23219E-03
 -1       571 1.32611E-03
 -1       572 1.31002E-03
 -1       573 1.35850E-03
 -1       574 1.32611E-03
 -1       575 1.30991E-03
 -1       576 1.31927E-03
 -1       577 1.31927E-03
 -1       578 1.22457E-03
 -1       579 1.33896E-03
 -1       580 1.07731E-03
 -1       581 3.17482E+01
 -1       582 1.35670E+01
 -1       583 1.36670E+00
 -1       584 3.01650E+01
 -1       585 2.04323E+01
 -1       586 1.59220E+00
 -1       587 2.23377E+01
 -1       588 6.62147E+00
 -1       589 9.36854E+00
 -1       590 6.48755E+00
 -1       591 9.64233E-01
 -1       592 7.52395E+00
 -1       593 4.74638E+00
 -1       594 7.85385E+00
 -1       595 2.61649E+01
 -1       596 7.34890E+00
 -1       597 1.07612E+01
 -1       598 3.54250E+01
 -1       599 2.40665E+01
 -1       600 1.50723E+01
 -1       601 8.23531E+00
 -1       602 4.41122E+00
 -1       603 6.04044E+00
 -1       604 6.56136E+00
 -1       605 4.42321E+00
 -1       606 9.49084E+00
 -1       607 1.43185E+01
 -1       608 4.71854E+00
 -1       609 1.84718E+00
 -1       610 1.33643E+00
 -1       611 1.17505E+01
 -1       612 6.92100E+00
 -1       613 5.47826E+00
 -1       614 1.55539E+01
 -1       615 2.97302E+00
 -1       616 1.16289E-03
 -1       617 3.98961E+00
 -1       618 1.14789E+00
 -1       619 9.44888E-01
 -1       620 1.49492E+00
 -1       621 1.49492E+00
 -1       622 2.21862E-03
 -1       623 1.70367E+00
 -1       624 4.87240E+00
 -1       625 3.06211E+00
 -1       626 9.99092E-01
 -1       627 1.03967E+00
 -1       628 1.12619E+00
 -1       629 1.36203E+00
 -1       630 1.59416E+00
 -1       631 1.72720E+00
 -1       632 2.10220E+00
 -1       633 3.56942E+00
 -1       634 2.03853E+00
 -1       635 2.54188E+00
 -1       636 1.72773E+00
 -1       637 1.66446E+00
 -1       638 1.51251E+00
 -1       639 1.33148E+00
 -1       640 1.02718E+00
 -1       641 9.00786E-01
 -1       642 7.93290E-01
 -1       643 6.80055E-01
 -1       644 6.14694E-01
 -1       645 5.39646E-01
 -1       646 4.53763E-01
 -1       647 3.68563E-01
 -1       648 2.90522E-01
 -1       649 2.22759E-01
 -1       650 1.68479E-01
 -1       651 1.26328E-01
 -1       652 9.25445E-02
 -1       653 6.60621E-02
 -1       654 4.57418E-02
 -1       655 3.04801E-02
 -1       656 1.92763E-02
 -1       657 1.22281E-02
 -1       658 9.58733E-03
 -1       659 9.12378E-03
 -1       660 8.22124E-03
 -1       661 7.09895E-03
 -1       662 5.90461E-03
 -1       663 4.89965E-03
 -1       664 4.09725E-03
 -1       665 3.27143E-03
 -1       666 2.47966E-03
 -1       667 2.05287E-03
 -1       668 2.67228E+00
 -1       669 7.86621E+00
 -1       670 2.15245E+00
 -1       671 3.15580E+00
 -1       672 2.84544E+00
 -1       673 3.21688E+00
 -1       674 2.71698E+00
 -1       675 2.23309E+00
 -1       676 1.76402E+00
 -1       677 1.52219E+00
 -1       678 1.29180E+00
 -1       679 1.06631E+00
 -1       680 8.61223E-01
 -1       681 6.82892E-01
 -1       682 5.32511E-01
 -1       683 4.08605E-01
 -1       684 3.08470E-01
 -1       685 2.28940E-01
 -1       686 1.66796E-01
 -1       687 1.18998E-01
 -1       688 8.28138E-02
 -1       689 5.58756E-02
 -1       690 3.61831E-02
 -1       691 2.20809E-02
 -1       692 1.48976E-02
 -1       693 1.30345E-02
 -1       694 1.15593E-02
 -1       695 9.88926E-03
 -1       696 8.19891E-03
 -1       697 6.59363E-03
 -1       698 5.52418E-03
 -1       699 4.57741E-03
 -1       700 3.64076E-03
 -1       701 2.83513E-03
 -1       702 2.59897E-03
 -1       703 1.56504E-03
 -1       704 1.90450E-03
 -1       705 1.58563E-03
 -1       706 1.56435E-03
 -1       707 1.58563E-03
 -1       708 5.63975E+00
 -1       709 1.56435E-03
 -1       710 1.55063E-03
 -1       711 2.05287E-03
 -1       712 1.59198E+01
 -1       713 1.13418E+01
 -1       714 1.54992E+00
 -1       715 5.08685E+00
 -1       716 4.25712E+00
 -1       717 1.45340E+01
 -1       718 1.36670E+00
 -1       719 1.24127E+01
 -1       720 1.63788E+00
 -1       721 1.53540E+01
 -1       722 3.00303E+00
 -1       723 1.66716E+00
 -1       724 7.16065E+00
 -1       725 4.43334E+00
 -1       726 1.54330E+01
 -1       727 1.44424E+00
 -1       728 1.08448E+01
 -1       729 8.14882E+00
 -1       730 1.18963E+00
 -1       731 3.32125E+00
 -1       732 3.86094E+00
 -1       733 1.69092E+01
 -1       734 7.95440E+00
 -1       735 5.84070E+00
 -1       736 3.79589E+00
 -1       737 1.07591E+00
 -1       738 1.66716E+00
 -1       739 2.21862E-03
 -1       740 9.06417E+00
 -1       741 6.42730E+00
 -1       742 1.11344E+01
 -1       743 4.83556E+00
 -1       744 4.62961E+00
 -1       745 3.28002E+00
 -1       746 7.65770E+00
 -1       747 1.05991E+01
 -1       748 1.18963E+00
 -1       749 4.62537E+00
 -1       750 6.51031E+00
 -1       751 1.72297E+00
 -1       752 1.86934E-03
 -1       753 4.07753E+00
 -1       754 1.55485E+00
 -1       755 1.72938E+00
 -1       756 2.39707E+00
 -1       757 2.98457E+00
 -1       758 2.60225E+00
 -1       759 3.30066E+00
 -1       760 2.69852E+00
 -1       761 2.39848E+00
 -1       762 1.71384E+00
 -1       763 1.63345E+00
 -1       764 1.36518E+00
 -1       765 1.11971E+00
 -1       766 8.80069E-01
 -1       767 7.49472E-01
 -1       768 6.18857E-01
 -1       769 5.06661E-01
 -1       770 4.04770E-01
 -1       771 3.16827E-01
 -1       772 2.43421E-01
 -1       773 1.85304E-01
 -1       774 1.39123E-01
 -1       775 1.03228E-01
 -1       776 7.46023E-02
 -1       777 5.29528E-02
 -1       778 3.65639E-02
 -1       779 2.43645E-02
 -1       780 1.54640E-02
 -1       781 9.12356E-03
 -1       782 5.50684E-03
 -1       783 5.40461E-03
 -1       784 5.35419E-03
 -1       785 4.93773E-03
 -1       786 4.31801E-03
 -1       787 3.64443E-03
 -1       788 3.17008E-03
 -1       789 3.07802E-03
 -1       790 2.77969E-03
 -1       791 4.14738E+00
 -1       792 2.81198E+00
 -1       793 2.02292E+00
 -1       794 1.52321E+00
 -1       795 1.17223E+00
 -1       796 9.13736E-01
 -1       797 7.27273E-01
 -1       798 5.64512E-01
 -1       799 4.28830E-01
 -1       800 3.19355E-01
 -1       801 2.33111E-01
 -1       802 1.71631E-01
 -1       803 1.25953E-01
 -1       804 9.07397E-02
 -1       805 6.39382E-02
 -1       806 4.38353E-02
 -1       807 2.90019E-02
 -1       808 1.82619E-02
 -1       809 1.06629E-02
 -1       810 7.36810E-03
 -1       811 7.45541E-03
 -1       812 6.98663E-03
 -1       813 6.20545E-03
 -1       814 5.27760E-03
 -1       815 4.38022E-03
 -1       816 3.72196E-03
 -1       817 3.02060E-03
 -1       818 1.68236E-03
 -1       819 1.02858E+01
 -1       820 2.66258E-03
 -1       821 1.09151E+01
 -1       822 1.86934E-03
 -1       823 3.65624E+00
 -1       824 3.85425E+00
 -1       825 4.49964E+00
 -1       826 9.36322E+00
 -1       827 1.09151E+01
 -1       828 3.36174E+00
 -1       829 8.28828E+00
 -1       830 8.89852E+00
 -1       831 1.30241E+00
 -1       832 1.52114E+00
 -1       833 2.98457E+00
 -1       834 5.41235E+00
 -1       835 1.69823E+00
 -1       836 1.97712E+00
 -1       837 1.35044E+00
 -1       838 2.17143E-03
 -1       839 1.45136E+00
 -1       840 5.56655E+00
 -1       841 2.62229E-03
 -1       842 1.81326E-03
 -1       843 8.88426E+00
 -1       844 6.35060E+00
 -1       845 1.79820E-03
 -1       846 9.13193E+00
 -1       847 2.50361E+00
 -1       848 4.85428E+00
 -1       849 1.64187E+00
 -1       850 1.70024E+00
 -1       851 5.77377E+00
 -1       852 1.66716E+00
 -1       853 1.45642E+00
 -1       854 6.29448E+00
 -1       855 3.35055E+00
 -1       856 2.24921E-03
 -1       857 3.09315E+00
 -1       858 2.86631E-03
 -1       859 2.71387E+00
 -1       860 1.88860E+00
 -1       861 1.52419E+00
 -1       862 1.24346E+00
 -1       863 9.61388E-01
 -1       864 7.28945E-01
 -1       865 5.80594E-01
 -1       866 4.66700E-01
 -1       867 3.84688E-01
 -1       868 3.08686E-01
 -1       869 2.41873E-01
 -1       870 1.85304E-01
 -1       871 1.38795E-01
 -1       872 1.01468E-01
 -1       873 7.21768E-02
 -1       874 5.01125E-02
 -1       875 3.42128E-02
 -1       876 2.23696E-02
 -1       877 1.37552E-02
 -1       878 7.72777E-03
 -1       879 3.84120E-03
 -1       880 3.51026E-03
 -1       881 3.97543E-03
 -1       882 3.95948E-03
 -1       883 3.64443E-03
 -1       884 3.17008E-03
 -1       885 3.07802E-03
 -1       886 3.34777E+00
 -1       887 5.25284E+00
 -1       888 1.96479E+00
 -1       889 2.32541E+00
 -1       890 1.16566E+00
 -1       891 9.06977E-01
 -1       892 6.99631E-01
 -1       893 5.34680E-01
 -1       894 4.04465E-01
 -1       895 3.02280E-01
 -1       896 2.22738E-01
 -1       897 1.61436E-01
 -1       898 1.14752E-01
 -1       899 7.98787E-02
 -1       900 5.52065E-02
 -1       901 3.69311E-02
 -1       902 2.36482E-02
 -1       903 1.43394E-02
 -1       904 7.85435E-03
 -1       905 4.30037E-03
 -1       906 4.54158E-03
 -1       907 4.78809E-03
 -1       908 4.58284E-03
 -1       909 4.11140E-03
 -1       910 3.50107E-03
 -1       911 3.01349E-03
 -1       912 1.45642E+00
 -1       913 1.68357E-03
 -1       914 6.58106E+00
 -1       915 6.42730E+00
 -1       916 8.00123E+00
 -1       917 1.95570E+00
 -1       918 6.58106E+00
 -1       919 5.91071E+00
 -1       920 1.48245E+00
 -1       921 3.32573E+00
 -1       922 2.28434E+00
 -1       923 2.38990E+00
 -1       924 4.01286E+00
 -1       925 1.63822E+00
 -1       926 1.63822E+00
 -1       927 2.33490E+00
 -1       928 2.63946E-03
 -1       929 5.40418E+00
 -1       930 4.84390E+00
 -1       931 2.41581E-03
 -1       932 1.67952E-03
 -1       933 6.44897E+00
 -1       934 3.69695E+00
 -1       935 2.21420E-03
 -1       936 4.06809E+00
 -1       937 5.29065E+00
 -1       938 2.66235E+00
 -1       939 2.08088E+00
 -1       940 4.33688E+00
 -1       941 1.94067E+00
 -1       942 1.23512E+00
 -1       943 9.18180E-01
 -1       944 7.13484E-01
 -1       945 5.80594E-01
 -1       946 4.65065E-01
 -1       947 3.66891E-01
 -1       948 2.85325E-01
 -1       949 2.18737E-01
 -1       950 1.65054E-01
 -1       951 1.22364E-01
 -1       952 8.89029E-02
 -1       953 6.31115E-02
 -1       954 4.35633E-02
 -1       955 2.95940E-02
 -1       956 1.95480E-02
 -1       957 1.22463E-02
 -1       958 7.06423E-03
 -1       959 3.87033E-03
 -1       960 2.16744E-03
 -1       961 2.80972E-03
 -1       962 2.98138E-03
 -1       963 2.84921E-03
 -1       964 5.99145E-01
 -1       965 3.31381E+00
 -1       966 4.30483E+00
 -1       967 7.90813E-01
 -1       968 1.04559E+00
 -1       969 4.54910E-01
 -1       970 3.43940E-01
 -1       971 2.58033E-01
 -1       972 1.91377E-01
 -1       973 1.39880E-01
 -1       974 1.00529E-01
 -1       975 7.06282E-02
 -1       976 4.84573E-02
 -1       977 3.30200E-02
 -1       978 2.16406E-02
 -1       979 1.34312E-02
 -1       980 7.68186E-03
 -1       981 3.92917E-03
 -1       982 2.72369E-03
 -1       983 3.30325E-03
 -1       984 3.40061E-03
 -1       985 3.19290E-03
 -1       986 2.79945E-03
 -1       987 1.63020E+00
 -1       988 2.11167E-03
 -1       989 3.31722E+00
 -1       990 2.50373E-03
 -1       991 4.37013E+00
 -1       992 3.96424E+00
 -1       993 3.37900E+00
 -1       994 4.30483E+00
 -1       995 4.01073E+00
 -1       996 3.70472E+00
 -1       997 1.95570E+00
 -1       998 4.19216E+00
 -1       999 2.79116E+00
 -1      1000 3.62218E+00
 -1      1001 5.19952E+00
 -1      1002 5.29065E+00
 -1      1003 2.50126E-03
 -1      1004 5.88202E+00
 -1      1005 2.51586E-03
 -1      1006 2.21420E-03
 -1      1007 1.51761E+00
 -1      1008 4.37013E+00
 -1      1009 2.48365E-03
 -1      1010 1.75570E-03
 -1      1011 6.44897E+00
 -1      1012 2.14754E+00
 -1      1013 4.00912E+00
 -1      1014 2.41789E+00
 -1      1015 6.44897E+00
 -1      1016 2.91927E+00
 -1      1017 1.79499E-03
 -1      1018 2.33322E+00
 -1      1019 1.19080E+00
 -1      1020 9.18180E-01
 -1      1021 7.02870E-01
 -1      1022 5.38907E-01
 -1      1023 4.11308E-01
 -1      1024 3.12878E-01
 -1      1025 2.37015E-01
 -1      1026 1.78191E-01
 -1      1027 1.32083E-01
 -1      1028 9.63390E-02
 -1      1029 6.96682E-02
 -1      1030 4.90753E-02
 -1      1031 3.36126E-02
 -1      1032 2.25731E-02
 -1      1033 1.56278E-02
 -1      1034 1.04488E-02
 -1      1035 6.62750E-03
 -1      1036 3.87033E-03
 -1      1037 1.93157E-03
 -1      1038 2.06165E-03
 -1      1039 2.28579E-03
 -1      1040 3.44872E-01
 -1      1041 4.51910E-01
 -1      1042 7.82510E-01
 -1      1043 2.62690E-01
 -1      1044 1.98856E-01
 -1      1045 1.48311E-01
 -1      1046 1.09061E-01
 -1      1047 7.88554E-02
 -1      1048 5.59796E-02
 -1      1049 3.85834E-02
 -1      1050 2.61896E-02
 -1      1051 1.73750E-02
 -1      1052 1.09703E-02
 -1      1053 6.83484E-03
 -1      1054 3.96683E-03
 -1      1055 1.99511E-03
 -1      1056 2.34314E-03
 -1      1057 2.55087E-03
 -1      1058 2.48135E-03
 -1      1059 2.32251E-03
 -1      1060 3.96424E+00
 -1      1061 5.19952E+00
 -1      1062 5.93157E-01
 -1      1063 2.89269E+00
 -1      1064 2.49492E-03
 -1      1065 1.71004E+00
 -1      1066 4.69426E+00
 -1      1067 1.18299E+00
 -1      1068 1.80784E-03
 -1      1069 2.91927E+00
 -1      1070 3.60610E-01
 -1      1071 2.18012E+00
 -1      1072 1.08385E+00
 -1      1073 7.88598E-01
 -1      1074 5.99497E-01
 -1      1075 4.23943E-01
 -1      1076 3.12908E-01
 -1      1077 2.42034E-01
 -1      1078 1.88340E-01
 -1      1079 1.44664E-01
 -1      1080 1.30308E-01
 -1      1081 8.40522E-02
 -1      1082 6.13131E-02
 -1      1083 4.27804E-02
 -1      1084 2.97402E-02
 -1      1085 2.05611E-02
 -1      1086 1.39877E-02
 -1      1087 9.10647E-03
 -1      1088 5.55515E-03
 -1      1089 3.03099E-03
 -1      1090 1.28587E-03
 -1      1091 1.58440E-03
 -1      1092 2.35242E-01
 -1      1093 6.27028E-01
 -1      1094 1.59632E-03
 -1      1095 1.78686E-01
 -1      1096 2.94963E-01
 -1      1097 1.17746E-01
 -1      1098 8.84621E-02
 -1      1099 7.37467E-02
 -1      1100 5.66053E-02
 -1      1101 4.10691E-02
 -1      1102 2.90694E-02
 -1      1103 1.98088E-02
 -1      1104 1.28976E-02
 -1      1105 7.87679E-03
 -1      1106 4.32862E-03
 -1      1107 1.95800E-03
 -1      1108 1.73339E-03
 -1      1109 1.93837E-03
 -1      1110 2.90938E+00
 -1      1111 4.63402E-01
 -1      1112 1.79499E-03
 -1      1113 1.85100E+00
 -1      1114 1.83572E-03
 -1      1115 9.47238E-01
 -1      1116 1.30308E-01
 -1      1117 9.47238E-01
 -1      1118 1.30308E-01
 -1      1119 1.31978E+00
 -1      1120 1.31978E+00
 -1      1121 1.21421E+01
 -1      1122 7.91829E+00
 -1      1123 2.94925E+00
 -1      1124 1.93620E+00
 -1      1125 1.52306E+00
 -1      1126 1.25981E+00
 -1      1127 1.04395E+00
 -1      1128 8.19898E-01
 -1      1129 5.84463E-01
 -1      1130 6.55566E-01
 -1      1131 9.97056E-01
 -1      1132 1.32051E+00
 -1      1133 1.65168E+00
 -1      1134 2.08695E+00
 -1      1135 2.96064E+00
 -1      1136 5.73403E+00
 -1      1137 1.03005E+01
 -1      1138 1.21421E+01
 -1      1139 7.84747E+00
 -1      1140 2.88054E+00
 -1      1141 1.66397E+00
 -1      1142 7.80519E-01
 -1      1143 4.36693E-01
 -1      1144 5.20002E-01
 -1      1145 7.80109E-01
 -1      1146 1.13694E+00
 -1      1147 1.79969E+00
 -1      1148 2.67451E+00
 -1      1149 3.15345E+00
 -1      1150 3.27147E+00
 -1      1151 3.30733E+00
 -1      1152 3.09764E+00
 -1      1153 2.40985E+00
 -1      1154 1.63737E+00
 -1      1155 1.17127E+00
 -1      1156 9.99543E-01
 -1      1157 9.64712E-01
 -1      1158 9.29881E-01
 -1      1159 8.92849E-01
 -1      1160 7.88203E-01
 -1      1161 6.46486E-01
 -1      1162 5.13169E-01
 -1      1163 4.15929E-01
 -1      1164 3.49634E-01
 -1      1165 2.92002E-01
 -1      1166 2.35068E-01
 -1      1167 1.83244E-01
 -1      1168 1.38630E-01
 -1      1169 1.05143E-01
 -1      1170 8.45713E-02
 -1      1171 7.00582E-02
 -1      1172 5.66322E-02
 -1      1173 4.47773E-02
 -1      1174 3.46662E-02
 -1      1175 2.62762E-02
 -1      1176 2.04605E-02
 -1      1177 1.67479E-02
 -1      1178 1.35664E-02
 -1      1179 1.07389E-02
 -1      1180 8.28547E-03
 -1      1181 6.27125E-03
 -1      1182 4.63403E-03
 -1      1183 3.57008E-03
 -1      1184 3.00151E-03
 -1      1185 2.38690E-03
 -1      1186 1.79422E-03
 -1      1187 9.44897E-04
 -1      1188 1.27009E+01
 -1      1189 7.74456E+00
 -1      1190 2.19587E+00
 -1      1191 1.39230E+00
 -1      1192 1.06783E+00
 -1      1193 1.06458E+00
 -1      1194 1.28027E+00
 -1      1195 1.57992E+00
 -1      1196 1.78118E+00
 -1      1197 2.13829E+00
 -1      1198 3.11551E+00
 -1      1199 4.25538E+00
 -1      1200 5.10828E+00
 -1      1201 5.44876E+00
 -1      1202 5.02352E+00
 -1      1203 3.56474E+00
 -1      1204 2.06307E+00
 -1      1205 1.65509E+00
 -1      1206 1.78638E+00
 -1      1207 1.85752E+00
 -1      1208 1.78769E+00
 -1      1209 1.58536E+00
 -1      1210 1.33386E+00
 -1      1211 1.09324E+00
 -1      1212 8.59642E-01
 -1      1213 6.51984E-01
 -1      1214 4.80653E-01
 -1      1215 3.58794E-01
 -1      1216 2.74262E-01
 -1      1217 2.05069E-01
 -1      1218 1.50014E-01
 -1      1219 1.07208E-01
 -1      1220 7.45987E-02
 -1      1221 5.38645E-02
 -1      1222 4.29438E-02
 -1      1223 3.49879E-02
 -1      1224 2.79715E-02
 -1      1225 2.19605E-02
 -1      1226 1.80660E-02
 -1      1227 1.57347E-02
 -1      1228 1.33654E-02
 -1      1229 1.10807E-02
 -1      1230 8.97267E-03
 -1      1231 7.14331E-03
 -1      1232 5.59219E-03
 -1      1233 4.20074E-03
 -1      1234 3.13099E-03
 -1      1235 2.37343E-03
 -1      1236 1.56703E-03
 -1      1237 6.99926E-04
 -1      1238 4.04791E-04
 -1      1239 5.25255E-04
 -1      1240 4.46117E-04
 -1      1241 2.53648E-04
 -1      1242 1.94157E-04
 -1      1243 3.00297E-04
 -1      1244 3.81586E-04
 -1      1245 4.18214E-04
 -1      1246 4.25855E-04
 -1      1247 4.17332E-04
 -1      1248 3.77649E-04
 -1      1249 2.95748E-04
 -1      1250 1.93974E-04
 -1      1251 2.56557E-04
 -1      1252 5.32344E-04
 -1      1253 7.65496E-04
 -1      1254 5.85870E-04
 -1      1255 2.47485E+01
 -1      1256 3.62387E+01
 -1      1257 4.74268E+01
 -1      1258 3.32703E+01
 -1      1259 1.63442E+01
 -1      1260 1.36005E+01
 -1      1261 1.36263E+01
 -1      1262 1.31922E+01
 -1      1263 1.27582E+01
 -1      1264 1.36298E+01
 -1      1265 2.73814E+01
 -1      1266 4.02614E+01
 -1      1267 3.30777E+01
 -1      1268 2.58941E+01
 -1      1269 2.59028E+01
 -1      1270 2.72730E+01
 -1      1271 2.92705E+01
 -1      1272 2.90213E+01
 -1      1273 2.06811E+01
 -1      1274 1.31120E+01
 -1      1275 1.29978E+01
 -1      1276 1.29917E+01
 -1      1277 1.26383E+01
 -1      1278 1.21753E+01
 -1      1279 1.75767E+01
 -1      1280 3.60045E+01
 -1      1281 4.89153E+01
 -1      1282 3.66120E+01
 -1      1283 2.43777E+01
 -1      1284 1.21421E+01
 -1      1285 4.80355E+00
 -1      1286 9.02741E+00
 -1      1287 2.41575E+00
 -1      1288 3.16093E+00
 -1      1289 4.27005E+00
 -1      1290 1.79024E+00
 -1      1291 2.05811E+00
 -1      1292 2.26979E+00
 -1      1293 1.44800E+00
 -1      1294 1.59327E+00
 -1      1295 1.71518E+00
 -1      1296 1.18362E+00
 -1      1297 1.30160E+00
 -1      1298 1.37181E+00
 -1      1299 9.73164E-01
 -1      1300 1.07105E+00
 -1      1301 1.11283E+00
 -1      1302 7.47829E-01
 -1      1303 8.73998E-01
 -1      1304 9.01094E-01
 -1      1305 4.94440E-01
 -1      1306 6.03707E-01
 -1      1307 6.57806E-01
 -1      1308 7.18501E-01
 -1      1309 5.38131E-01
 -1      1310 5.57375E-01
 -1      1311 1.05857E+00
 -1      1312 8.97447E-01
 -1      1313 7.80012E-01
 -1      1314 1.37746E+00
 -1      1315 1.21513E+00
 -1      1316 1.11552E+00
 -1      1317 1.68476E+00
 -1      1318 1.51593E+00
 -1      1319 1.41054E+00
 -1      1320 2.15827E+00
 -1      1321 1.89184E+00
 -1      1322 1.75609E+00
 -1      1323 3.12456E+00
 -1      1324 2.51730E+00
 -1      1325 2.32219E+00
 -1      1326 5.86937E+00
 -1      1327 3.70325E+00
 -1      1328 3.25991E+00
 -1      1329 1.27009E+01
 -1      1330 1.03005E+01
 -1      1331 8.26976E+00
 -1      1332 1.27009E+01
 -1      1333 7.84747E+00
 -1      1334 3.55278E+00
 -1      1335 2.88054E+00
 -1      1336 2.20830E+00
 -1      1337 2.88054E+00
 -1      1338 1.66397E+00
 -1      1339 1.11965E+00
 -1      1340 1.66397E+00
 -1      1341 7.83936E-01
 -1      1342 4.44807E-01
 -1      1343 7.83936E-01
 -1      1344 3.70543E-01
 -1      1345 3.65846E-01
 -1      1346 3.73960E-01
 -1      1347 4.31996E-01
 -1      1348 5.20002E-01
 -1      1349 3.65846E-01
 -1      1350 6.08008E-01
 -1      1351 7.80109E-01
 -1      1352 5.20002E-01
 -1      1353 9.70486E-01
 -1      1354 1.15522E+00
 -1      1355 7.98384E-01
 -1      1356 1.43226E+00
 -1      1357 1.91029E+00
 -1      1358 1.26581E+00
 -1      1359 2.27772E+00
 -1      1360 2.67451E+00
 -1      1361 1.91029E+00
 -1      1362 3.07130E+00
 -1      1363 3.15345E+00
 -1      1364 2.67451E+00
 -1      1365 3.23561E+00
 -1      1366 3.27147E+00
 -1      1367 3.15345E+00
 -1      1368 3.30733E+00
 -1      1369 3.30733E+00
 -1      1370 3.27147E+00
 -1      1371 3.09764E+00
 -1      1372 2.88795E+00
 -1      1373 3.09764E+00
 -1      1374 2.41748E+00
 -1      1375 1.93937E+00
 -1      1376 2.41748E+00
 -1      1377 1.63737E+00
 -1      1378 1.34301E+00
 -1      1379 1.64501E+00
 -1      1380 1.15300E+00
 -1      1381 9.81272E-01
 -1      1382 1.15300E+00
 -1      1383 9.99543E-01
 -1      1384 9.99543E-01
 -1      1385 9.81272E-01
 -1      1386 9.51245E-01
 -1      1387 9.16414E-01
 -1      1388 9.51245E-01
 -1      1389 9.29881E-01
 -1      1390 9.29881E-01
 -1      1391 9.16414E-01
 -1      1392 8.92849E-01
 -1      1393 8.55817E-01
 -1      1394 8.92849E-01
 -1      1395 7.88203E-01
 -1      1396 7.20589E-01
 -1      1397 7.88203E-01
 -1      1398 6.59480E-01
 -1      1399 5.85377E-01
 -1      1400 6.59480E-01
 -1      1401 5.41840E-01
 -1      1402 4.82626E-01
 -1      1403 5.54834E-01
 -1      1404 4.39939E-01
 -1      1405 4.01913E-01
 -1      1406 4.68611E-01
 -1      1407 3.58044E-01
 -1      1408 3.29775E-01
 -1      1409 3.82054E-01
 -1      1410 2.92002E-01
 -1      1411 2.62637E-01
 -1      1412 3.00411E-01
 -1      1413 2.35068E-01
 -1      1414 2.07499E-01
 -1      1415 2.35068E-01
 -1      1416 1.84991E-01
 -1      1417 1.60736E-01
 -1      1418 1.84991E-01
 -1      1419 1.42263E-01
 -1      1420 1.21904E-01
 -1      1421 1.44010E-01
 -1      1422 1.06347E-01
 -1      1423 9.32191E-02
 -1      1424 1.09980E-01
 -1      1425 8.45713E-02
 -1      1426 7.71271E-02
 -1      1427 8.57749E-02
 -1      1428 7.00582E-02
 -1      1429 6.29893E-02
 -1      1430 7.00582E-02
 -1      1431 5.66322E-02
 -1      1432 5.02751E-02
 -1      1433 5.66322E-02
 -1      1434 4.47773E-02
 -1      1435 3.92794E-02
 -1      1436 4.47773E-02
 -1      1437 3.46662E-02
 -1      1438 3.00530E-02
 -1      1439 3.46662E-02
 -1      1440 2.66467E-02
 -1      1441 2.28699E-02
 -1      1442 2.66467E-02
 -1      1443 2.04605E-02
 -1      1444 1.84215E-02
 -1      1445 2.08310E-02
 -1      1446 1.67479E-02
 -1      1447 1.50743E-02
 -1      1448 1.67479E-02
 -1      1449 1.35664E-02
 -1      1450 1.20584E-02
 -1      1451 1.35664E-02
 -1      1452 1.07614E-02
 -1      1453 9.44195E-03
 -1      1454 1.07614E-02
 -1      1455 8.44862E-03
 -1      1456 7.31463E-03
 -1      1457 8.47111E-03
 -1      1458 6.45159E-03
 -1      1459 5.57136E-03
 -1      1460 6.61474E-03
 -1      1461 4.91919E-03
 -1      1462 4.16219E-03
 -1      1463 5.09953E-03
 -1      1464 3.57468E-03
 -1      1465 3.26773E-03
 -1      1466 3.85984E-03
 -1      1467 3.00151E-03
 -1      1468 2.73989E-03
 -1      1469 3.00611E-03
 -1      1470 2.38690E-03
 -1      1471 2.03391E-03
 -1      1472 2.38690E-03
 -1      1473 1.79422E-03
 -1      1474 1.55453E-03
 -1      1475 1.79422E-03
 -1      1476 1.19551E-03
 -1      1477 1.19551E-03
 -1      1478 2.78820E+00
 -1      1479 7.74456E+00
 -1      1480 7.74456E+00
 -1      1481 1.60355E+00
 -1      1482 2.19587E+00
 -1      1483 2.19587E+00
 -1      1484 1.18105E+00
 -1      1485 1.39230E+00
 -1      1486 1.39230E+00
 -1      1487 9.54613E-01
 -1      1488 1.06783E+00
 -1      1489 1.06783E+00
 -1      1490 1.02485E+00
 -1      1491 9.14884E-01
 -1      1492 9.14884E-01
 -1      1493 1.28027E+00
 -1      1494 1.17454E+00
 -1      1495 1.02485E+00
 -1      1496 1.57992E+00
 -1      1497 1.38599E+00
 -1      1498 1.28027E+00
 -1      1499 1.78118E+00
 -1      1500 1.77385E+00
 -1      1501 1.57992E+00
 -1      1502 2.13829E+00
 -1      1503 1.78851E+00
 -1      1504 1.78118E+00
 -1      1505 3.12173E+00
 -1      1506 2.49429E+00
 -1      1507 2.14451E+00
 -1      1508 4.25538E+00
 -1      1509 3.74296E+00
 -1      1510 3.12173E+00
 -1      1511 5.10828E+00
 -1      1512 4.76781E+00
 -1      1513 4.25538E+00
 -1      1514 5.44876E+00
 -1      1515 5.44876E+00
 -1      1516 5.10828E+00
 -1      1517 4.59828E+00
 -1      1518 5.02352E+00
 -1      1519 5.02352E+00
 -1      1520 2.53119E+00
 -1      1521 3.56474E+00
 -1      1522 3.56474E+00
 -1      1523 1.59494E+00
 -1      1524 2.06307E+00
 -1      1525 2.06307E+00
 -1      1526 1.62802E+00
 -1      1527 1.56787E+00
 -1      1528 1.56787E+00
 -1      1529 1.78638E+00
 -1      1530 1.71523E+00
 -1      1531 1.62802E+00
 -1      1532 1.85752E+00
 -1      1533 1.85752E+00
 -1      1534 1.78638E+00
 -1      1535 1.71786E+00
 -1      1536 1.78769E+00
 -1      1537 1.78769E+00
 -1      1538 1.45287E+00
 -1      1539 1.58536E+00
 -1      1540 1.58536E+00
 -1      1541 1.21485E+00
 -1      1542 1.33386E+00
 -1      1543 1.33386E+00
 -1      1544 9.83238E-01
 -1      1545 1.10484E+00
 -1      1546 1.10484E+00
 -1      1547 7.67299E-01
 -1      1548 8.79296E-01
 -1      1549 8.90894E-01
 -1      1550 5.78909E-01
 -1      1551 6.74570E-01
 -1      1552 6.94223E-01
 -1      1553 4.25448E-01
 -1      1554 5.01118E-01
 -1      1555 5.23704E-01
 -1      1556 3.17656E-01
 -1      1557 3.63845E-01
 -1      1558 3.84310E-01
 -1      1559 2.35917E-01
 -1      1560 2.74262E-01
 -1      1561 2.79312E-01
 -1      1562 1.74222E-01
 -1      1563 2.05069E-01
 -1      1564 2.05069E-01
 -1      1565 1.26500E-01
 -1      1566 1.50708E-01
 -1      1567 1.50708E-01
 -1      1568 9.02523E-02
 -1      1569 1.08850E-01
 -1      1570 1.09545E-01
 -1      1571 6.26981E-02
 -1      1572 7.67090E-02
 -1      1573 7.83516E-02
 -1      1574 4.71412E-02
 -1      1575 5.38645E-02
 -1      1576 5.59747E-02
 -1      1577 3.87464E-02
 -1      1578 4.29438E-02
 -1      1579 4.29438E-02
 -1      1580 3.12294E-02
 -1      1581 3.49879E-02
 -1      1582 3.49879E-02
 -1      1583 2.47136E-02
 -1      1584 2.79715E-02
 -1      1585 2.79715E-02
 -1      1586 1.92075E-02
 -1      1587 2.19605E-02
 -1      1588 2.19605E-02
 -1      1589 1.69246E-02
 -1      1590 1.80660E-02
 -1      1591 1.80660E-02
 -1      1592 1.45447E-02
 -1      1593 1.57347E-02
 -1      1594 1.57347E-02
 -1      1595 1.21861E-02
 -1      1596 1.33654E-02
 -1      1597 1.33654E-02
 -1      1598 9.97528E-03
 -1      1599 1.10807E-02
 -1      1600 1.10807E-02
 -1      1601 7.97006E-03
 -1      1602 8.97267E-03
 -1      1603 8.97267E-03
 -1      1604 6.31656E-03
 -1      1605 7.14331E-03
 -1      1606 7.14331E-03
 -1      1607 4.86783E-03
 -1      1608 5.59219E-03
 -1      1609 5.59219E-03
 -1      1610 3.55536E-03
 -1      1611 4.22245E-03
 -1      1612 4.22245E-03
 -1      1613 2.72832E-03
 -1      1614 3.13099E-03
 -1      1615 3.15269E-03
 -1      1616 2.01854E-03
 -1      1617 2.37343E-03
 -1      1618 2.37343E-03
 -1      1619 1.14623E-03
 -1      1620 1.59774E-03
 -1      1621 1.59774E-03
 -1      1622 8.20390E-04
 -1      1623 5.70329E-04
 -1      1624 5.70329E-04
 -1      1625 4.91191E-04
 -1      1626 5.70329E-04
 -1      1627 6.15403E-04
 -1      1628 3.28589E-04
 -1      1629 4.41919E-04
 -1      1630 5.66132E-04
 -1      1631 3.25137E-04
 -1      1632 2.71298E-04
 -1      1633 4.59569E-04
 -1      1634 4.83203E-04
 -1      1635 4.30901E-04
 -1      1636 5.08043E-04
 -1      1637 5.74089E-04
 -1      1638 5.45102E-04
 -1      1639 6.75705E-04
 -1      1640 6.05241E-04
 -1      1641 5.97601E-04
 -1      1642 7.61116E-04
 -1      1643 6.05241E-04
 -1      1644 6.05241E-04
 -1      1645 7.84628E-04
 -1      1646 5.96365E-04
 -1      1647 6.04887E-04
 -1      1648 7.84274E-04
 -1      1649 5.38786E-04
 -1      1650 5.69947E-04
 -1      1651 7.57502E-04
 -1      1652 4.27344E-04
 -1      1653 4.78085E-04
 -1      1654 6.70382E-04
 -1      1655 2.72593E-04
 -1      1656 3.23626E-04
 -1      1657 5.05963E-04
 -1      1658 4.40720E-04
 -1      1659 3.27103E-04
 -1      1660 4.56755E-04
 -1      1661 6.02889E-04
 -1      1662 4.40720E-04
 -1      1663 5.11265E-04
 -1      1664 8.36479E-04
 -1      1665 7.65496E-04
 -1      1666 6.73872E-04
 -1      1667 1.19551E-03
 -1      1668 2.73382E+01
 -1      1669 2.70363E+01
 -1      1670 3.83276E+01
 -1      1671 2.71394E+01
 -1      1672 4.74268E+01
 -1      1673 4.74268E+01
 -1      1674 1.97809E+01
 -1      1675 3.39374E+01
 -1      1676 1.22992E+01
 -1      1677 1.50687E+01
 -1      1678 1.36005E+01
 -1      1679 1.35746E+01
 -1      1680 1.36263E+01
 -1      1681 1.36263E+01
 -1      1682 1.24898E+01
 -1      1683 1.29238E+01
 -1      1684 1.27582E+01
 -1      1685 1.27582E+01
 -1      1686 1.30348E+01
 -1      1687 1.21632E+01
 -1      1688 2.73814E+01
 -1      1689 1.45014E+01
 -1      1690 4.02614E+01
 -1      1691 4.02614E+01
 -1      1692 3.00402E+01
 -1      1693 3.72238E+01
 -1      1694 2.77253E+01
 -1      1695 2.77253E+01
 -1      1696 2.77341E+01
 -1      1697 2.77253E+01
 -1      1698 3.04835E+01
 -1      1699 2.91221E+01
 -1      1700 3.11196E+01
 -1      1701 3.04835E+01
 -1      1702 2.90213E+01
 -1      1703 2.99066E+01
 -1      1704 1.32261E+01
 -1      1705 2.06811E+01
 -1      1706 1.24129E+01
 -1      1707 1.25271E+01
 -1      1708 1.29978E+01
 -1      1709 1.29978E+01
 -1      1710 1.29856E+01
 -1      1711 1.29917E+01
 -1      1712 1.22910E+01
 -1      1713 1.26383E+01
 -1      1714 1.20597E+01
 -1      1715 1.21753E+01
 -1      1716 1.74152E+01
 -1      1717 1.18983E+01
 -1      1718 3.70695E+01
 -1      1719 2.41587E+01
 -1      1720 4.89153E+01
 -1      1721 4.89153E+01
 -1      1722 2.76949E+01
 -1      1723 3.99982E+01
 -1      1724 2.70363E+01
 -1      1725 2.69673E+01
 -1      1726 1.57358E+01
 -1      1727 3.39374E+01
 -1      1728 8.51095E-04
 -1      1729 8.96169E-04
 -1      1730 2.94271E+01
 -1      1731 3.83276E+01
 -1      1732 2.96259E+01
 -1      1733 1.22992E+01
 -1      1734 1.36005E+01
 -1      1735 1.29238E+01
 -1      1736 1.24898E+01
 -1      1737 1.21632E+01
 -1      1738 1.30348E+01
 -1      1739 2.73814E+01
 -1      1740 3.72238E+01
 -1      1741 3.18714E+01
 -1      1742 2.95566E+01
 -1      1743 3.09446E+01
 -1      1744 3.23326E+01
 -1      1745 3.11196E+01
 -1      1746 2.15664E+01
 -1      1747 1.25271E+01
 -1      1748 1.24129E+01
 -1      1749 1.29917E+01
 -1      1750 1.26383E+01
 -1      1751 1.21753E+01
 -1      1752 1.18983E+01
 -1      1753 1.84803E+01
 -1      1754 3.70695E+01
 -1      1755 3.99982E+01
 -1      1756 3.03535E+01
 -1      1757 9.02741E+00
 -1      1758 1.75217E+00
 -1      1759 2.10981E+00
 -1      1760 2.61168E+00
 -1      1761 4.25430E+00
 -1      1762 2.09406E+00
 -1      1763 1.20448E+00
 -1      1764 1.35088E+00
 -1      1765 1.02556E+00
 -1      1766 1.13814E+00
 -1      1767 1.11721E+00
 -1      1768 8.69876E-01
 -1      1769 9.69043E-01
 -1      1770 9.94344E-01
 -1      1771 6.14117E-01
 -1      1772 7.58239E-01
 -1      1773 8.26187E-01
 -1      1774 4.98964E-01
 -1      1775 4.55273E-01
 -1      1776 5.55706E-01
 -1      1777 8.76190E-01
 -1      1778 6.97244E-01
 -1      1779 5.95142E-01
 -1      1780 1.21155E+00
 -1      1781 1.05498E+00
 -1      1782 9.72216E-01
 -1      1783 1.45673E+00
 -1      1784 1.31827E+00
 -1      1785 1.25774E+00
 -1      1786 1.76967E+00
 -1      1787 1.56260E+00
 -1      1788 1.47032E+00
 -1      1789 2.26420E+00
 -1      1790 1.90517E+00
 -1      1791 1.71168E+00
 -1      1792 2.84627E+00
 -1      1793 2.26758E+00
 -1      1794 1.85056E+00
 -1      1795 7.18732E+00
 -1      1796 2.75615E+00
 -1      1797 1.76383E+00
 -1      1798 2.23095E+00
 -1      1799 4.73273E+00
 -1      1800 1.40372E+00
 -1      1801 1.99605E+00
 -1      1802 1.43880E+00
 -1      1803 3.07435E+00
 -1      1804 1.62759E+00
 -1      1805 1.08327E+00
 -1      1806 8.84815E-01
 -1      1807 5.49103E-01
 -1      1808 8.48435E-01
 -1      1809 4.43265E-01
 -1      1810 3.69000E-01
 -1      1811 5.44144E-01
 -1      1812 3.48691E-01
 -1      1813 4.14841E-01
 -1      1814 4.17996E-01
 -1      1815 4.43753E-01
 -1      1816 5.31759E-01
 -1      1817 4.26598E-01
 -1      1818 6.76091E-01
 -1      1819 8.66468E-01
 -1      1820 5.99842E-01
 -1      1821 1.08365E+00
 -1      1822 1.36070E+00
 -1      1823 9.61359E-01
 -1      1824 1.54763E+00
 -1      1825 1.91506E+00
 -1      1826 1.36547E+00
 -1      1827 2.10947E+00
 -1      1828 2.50626E+00
 -1      1829 1.74681E+00
 -1      1830 2.58804E+00
 -1      1831 2.67020E+00
 -1      1832 2.02300E+00
 -1      1833 2.64303E+00
 -1      1834 2.67889E+00
 -1      1835 2.07762E+00
 -1      1836 2.70601E+00
 -1      1837 2.49632E+00
 -1      1838 2.07757E+00
 -1      1839 2.34167E+00
 -1      1840 1.87120E+00
 -1      1841 1.95003E+00
 -1      1842 1.66493E+00
 -1      1843 1.36293E+00
 -1      1844 1.58912E+00
 -1      1845 1.12275E+00
 -1      1846 9.32747E-01
 -1      1847 1.14267E+00
 -1      1848 7.26439E-01
 -1      1849 7.44711E-01
 -1      1850 6.96186E-01
 -1      1851 7.53893E-01
 -1      1852 7.05595E-01
 -1      1853 4.99061E-01
 -1      1854 7.63579E-01
 -1      1855 7.77046E-01
 -1      1856 5.66227E-01
 -1      1857 8.10915E-01
 -1      1858 7.73883E-01
 -1      1859 6.58080E-01
 -1      1860 7.61329E-01
 -1      1861 6.93715E-01
 -1      1862 6.79396E-01
 -1      1863 6.56654E-01
 -1      1864 5.95546E-01
 -1      1865 6.29781E-01
 -1      1866 5.62707E-01
 -1      1867 5.19170E-01
 -1      1868 5.59881E-01
 -1      1869 4.88174E-01
 -1      1870 4.45488E-01
 -1      1871 4.96047E-01
 -1      1872 4.08001E-01
 -1      1873 3.64132E-01
 -1      1874 4.27565E-01
 -1      1875 3.25966E-01
 -1      1876 2.88192E-01
 -1      1877 3.51913E-01
 -1      1878 2.52898E-01
 -1      1879 2.25329E-01
 -1      1880 2.78454E-01
 -1      1881 1.94721E-01
 -1      1882 1.72213E-01
 -1      1883 2.12552E-01
 -1      1884 1.46913E-01
 -1      1885 1.28440E-01
 -1      1886 1.56644E-01
 -1      1887 1.09980E-01
 -1      1888 9.44227E-02
 -1      1889 1.12883E-01
 -1      1890 8.17642E-02
 -1      1891 7.31164E-02
 -1      1892 8.17642E-02
 -1      1893 6.35045E-02
 -1      1894 5.64355E-02
 -1      1895 5.94937E-02
 -1      1896 5.08390E-02
 -1      1897 4.44819E-02
 -1      1898 4.42853E-02
 -1      1899 4.13074E-02
 -1      1900 3.58095E-02
 -1      1901 3.55142E-02
 -1      1902 3.28356E-02
 -1      1903 2.82224E-02
 -1      1904 2.93657E-02
 -1      1905 2.55594E-02
 -1      1906 2.21531E-02
 -1      1907 2.37288E-02
 -1      1908 1.98466E-02
 -1      1909 1.74372E-02
 -1      1910 1.87593E-02
 -1      1911 1.56035E-02
 -1      1912 1.39299E-02
 -1      1913 1.46192E-02
 -1      1914 1.29732E-02
 -1      1915 1.14653E-02
 -1      1916 1.18288E-02
 -1      1917 1.05409E-02
 -1      1918 9.24393E-03
 -1      1919 9.94775E-03
 -1      1920 8.36496E-03
 -1      1921 7.37163E-03
 -1      1922 8.14445E-03
 -1      1923 6.61474E-03
 -1      1924 5.75170E-03
 -1      1925 6.50859E-03
 -1      1926 5.11248E-03
 -1      1927 4.46030E-03
 -1      1928 5.11248E-03
 -1      1929 3.90817E-03
 -1      1930 3.32066E-03
 -1      1931 3.92112E-03
 -1      1932 2.89518E-03
 -1      1933 2.62896E-03
 -1      1934 2.94350E-03
 -1      1935 2.30061E-03
 -1      1936 1.94762E-03
 -1      1937 2.18968E-03
 -1      1938 1.69972E-03
 -1      1939 1.46004E-03
 -1      1940 1.10101E-03
 -1      1941 1.61344E-03
 -1      1942 1.09209E+00
 -1      1943 1.30334E+00
 -1      1944 1.10352E+00
 -1      1945 1.01007E+00
 -1      1946 1.12329E+00
 -1      1947 1.03434E+00
 -1      1948 1.01276E+00
 -1      1949 1.05248E+00
 -1      1950 1.10795E+00
 -1      1951 1.16235E+00
 -1      1952 1.01265E+00
 -1      1953 1.15025E+00
 -1      1954 1.18423E+00
 -1      1955 1.07850E+00
 -1      1956 1.06631E+00
 -1      1957 1.44186E+00
 -1      1958 1.24793E+00
 -1      1959 1.04617E+00
 -1      1960 1.69179E+00
 -1      1961 1.68446E+00
 -1      1962 1.35247E+00
 -1      1963 2.45855E+00
 -1      1964 2.10255E+00
 -1      1965 2.00583E+00
 -1      1966 3.32719E+00
 -1      1967 2.70597E+00
 -1      1968 2.66401E+00
 -1      1969 3.92696E+00
 -1      1970 3.41454E+00
 -1      1971 2.99878E+00
 -1      1972 4.19431E+00
 -1      1973 3.85384E+00
 -1      1974 3.01300E+00
 -1      1975 3.71842E+00
 -1      1976 4.14366E+00
 -1      1977 2.88922E+00
 -1      1978 2.20423E+00
 -1      1979 3.23777E+00
 -1      1980 2.35791E+00
 -1      1981 1.35491E+00
 -1      1982 1.82303E+00
 -1      1983 1.49607E+00
 -1      1984 1.31574E+00
 -1      1985 1.34280E+00
 -1      1986 1.10277E+00
 -1      1987 1.52849E+00
 -1      1988 1.44128E+00
 -1      1989 1.21621E+00
 -1      1990 1.60961E+00
 -1      1991 1.53846E+00
 -1      1992 1.35172E+00
 -1      1993 1.53620E+00
 -1      1994 1.60603E+00
 -1      1995 1.35811E+00
 -1      1996 1.33976E+00
 -1      1997 1.47226E+00
 -1      1998 1.29060E+00
 -1      1999 1.15186E+00
 -1      2000 1.27087E+00
 -1      2001 1.15777E+00
 -1      2002 9.57308E-01
 -1      2003 1.06731E+00
 -1      2004 1.00433E+00
 -1      2005 7.64935E-01
 -1      2006 8.68877E-01
 -1      2007 8.31349E-01
 -1      2008 5.90345E-01
 -1      2009 6.83074E-01
 -1      2010 6.61057E-01
 -1      2011 4.42084E-01
 -1      2012 5.19875E-01
 -1      2013 5.08725E-01
 -1      2014 3.22707E-01
 -1      2015 3.84310E-01
 -1      2016 3.80481E-01
 -1      2017 2.33611E-01
 -1      2018 2.77005E-01
 -1      2019 2.77005E-01
 -1      2020 1.73273E-01
 -1      2021 2.04120E-01
 -1      2022 2.01814E-01
 -1      2023 1.27195E-01
 -1      2024 1.50708E-01
 -1      2025 1.49759E-01
 -1      2026 9.18949E-02
 -1      2027 1.09545E-01
 -1      2028 1.09545E-01
 -1      2029 6.48083E-02
 -1      2030 7.83516E-02
 -1      2031 7.83516E-02
 -1      2032 4.57706E-02
 -1      2033 5.46041E-02
 -1      2034 5.46041E-02
 -1      2035 3.40960E-02
 -1      2036 3.82934E-02
 -1      2037 3.69228E-02
 -1      2038 2.83105E-02
 -1      2039 3.20690E-02
 -1      2040 2.74186E-02
 -1      2041 2.30115E-02
 -1      2042 2.62694E-02
 -1      2043 2.33505E-02
 -1      2044 1.83352E-02
 -1      2045 2.10882E-02
 -1      2046 1.93861E-02
 -1      2047 1.54590E-02
 -1      2048 1.66004E-02
 -1      2049 1.57281E-02
 -1      2050 1.27526E-02
 -1      2051 1.39425E-02
 -1      2052 1.24769E-02
 -1      2053 1.06836E-02
 -1      2054 1.18630E-02
 -1      2055 1.00708E-02
 -1      2056 8.85015E-03
 -1      2057 9.95554E-03
 -1      2058 8.45310E-03
 -1      2059 7.12717E-03
 -1      2060 8.12978E-03
 -1      2061 7.00465E-03
 -1      2062 5.75821E-03
 -1      2063 6.58496E-03
 -1      2064 5.74207E-03
 -1      2065 4.53373E-03
 -1      2066 5.25810E-03
 -1      2067 4.69975E-03
 -1      2068 3.41145E-03
 -1      2069 4.05684E-03
 -1      2070 3.72274E-03
 -1      2071 2.54599E-03
 -1      2072 2.97036E-03
 -1      2073 2.80475E-03
 -1      2074 1.90533E-03
 -1      2075 2.26022E-03
 -1      2076 2.07788E-03
 -1      2077 1.17693E-03
 -1      2078 1.59774E-03
 -1      2079 1.48453E-03
 -1      2080 8.96169E-04
 -1      2081 5.20658E-04
 -1      2082 5.77949E-04
 -1      2083 8.61095E-04
 -1      2084 9.10366E-04
 -1      2085 9.22183E-04
 -1      2086 9.10366E-04
 -1      2087 9.10366E-04
 -1      2088 1.19113E-03
 -1      2089 1.20533E-03
 -1      2090 7.17697E-04
 -1      2091 6.11932E-04
 -1      2092 7.30312E-04
 -1      2093 8.63827E-04
 -1      2094 8.01929E-04
 -1      2095 9.05819E-04
 -1      2096 9.23373E-04
 -1      2097 8.99861E-04
 -1      2098 1.02608E-03
 -1      2099 9.23373E-04
 -1      2100 9.23373E-04
 -1      2101 1.06212E-03
 -1      2102 9.20673E-04
 -1      2103 9.21027E-04
 -1      2104 1.05977E-03
 -1      2105 8.94255E-04
 -1      2106 9.20673E-04
 -1      2107 1.05743E-03
 -1      2108 7.97352E-04
 -1      2109 8.58054E-04
 -1      2110 1.02122E-03
 -1      2111 6.10006E-04
 -1      2112 7.13724E-04
 -1      2113 9.01396E-04
 -1      2114 5.72337E-04
 -1      2115 5.17827E-04
 -1      2116 7.25589E-04
 -1      2117 7.95320E-04
 -1      2118 7.95320E-04
 -1      2119 8.56392E-04
 -1      2120 3.83276E+01
 -1      2121 2.92284E+01
 -1      2122 3.06871E+01
 -1      2123 3.06871E+01
 -1      2124 3.04883E+01
 -1      2125 3.06871E+01
 -1      2126 1.84179E+01
 -1      2127 3.19073E+01
 -1      2128 1.00531E+01
 -1      2129 1.47652E+01
 -1      2130 1.55521E+00
 -1      2131 1.75217E+00
 -1      2132 1.59220E+00
 -1      2133 1.38788E+00
 -1      2134 1.16677E+01
 -1      2135 1.16419E+01
 -1      2136 1.19323E+01
 -1      2137 1.26348E+01
 -1      2138 1.20246E+01
 -1      2139 1.17562E+01
 -1      2140 1.14672E+01
 -1      2141 9.98700E+00
 -1      2142 1.05820E+01
 -1      2143 1.10631E+01
 -1      2144 9.59651E+00
 -1      2145 2.72621E+01
 -1      2146 1.43822E+01
 -1      2147 2.86254E+01
 -1      2148 3.16629E+01
 -1      2149 1.86637E+01
 -1      2150 2.78607E+01
 -1      2151 3.01756E+01
 -1      2152 3.24908E+01
 -1      2153 3.24908E+01
 -1      2154 3.38788E+01
 -1      2155 3.24908E+01
 -1      2156 3.54250E+01
 -1      2157 3.23326E+01
 -1      2158 3.23326E+01
 -1      2159 2.47854E+01
 -1      2160 2.59984E+01
 -1      2161 2.59984E+01
 -1      2162 1.21481E+01
 -1      2163 2.04883E+01
 -1      2164 9.90084E+00
 -1      2165 1.05999E+01
 -1      2166 1.10395E+01
 -1      2167 1.04545E+01
 -1      2168 8.52740E+00
 -1      2169 1.16580E+01
 -1      2170 1.16642E+01
 -1      2171 1.14655E+01
 -1      2172 1.18128E+01
 -1      2173 1.09011E+01
 -1      2174 1.10167E+01
 -1      2175 1.01912E+01
 -1      2176 9.17007E+00
 -1      2177 9.33147E+00
 -1      2178 1.78870E+01
 -1      2179 1.11436E+01
 -1      2180 3.34546E+01
 -1      2181 2.16088E+01
 -1      2182 3.10811E+01
 -1      2183 3.99982E+01
 -1      2184 2.98954E+01
 -1      2185 3.06231E+01
 -1      2186 1.02771E+01
 -1      2187 9.00158E+00
 -1      2188 8.03100E+00
 -1      2189 1.27351E+01
 -1      2190 2.40211E+00
 -1      2191 8.34432E+00
 -1      2192 1.82141E+00
 -1      2193 3.04883E+01
 -1      2194 3.17482E+01
 -1      2195 9.57927E-04
 -1      2196 2.28081E+01
 -1      2197 3.09566E+01
 -1      2198 3.06231E+01
 -1      2199 2.45375E+01
 -1      2200 1.42721E+01
 -1      2201 8.17287E+00
 -1      2202 9.70579E+00
 -1      2203 1.53672E+01
 -1      2204 3.38788E+01
 -1      2205 2.68394E+01
 -1      2206 2.12785E+01
 -1      2207 2.28287E+01
 -1      2208 1.09439E+01
 -1      2209 9.84845E+00
 -1      2210 1.06762E+01
 -1      2211 8.01531E+00
 -1      2212 3.07949E+01
 -1      2213 9.41796E+00
 -1      2214 8.33994E+00
 -1      2215 6.79173E+00
 -1      2216 1.04852E+01
 -1      2217 8.57681E+00
 -1      2218 1.40867E+00
 -1      2219 1.50904E+00
 -1      2220 1.00085E+00
 -1      2221 1.05737E+00
 -1      2222 1.05737E+00
 -1      2223 1.12371E+00
 -1      2224 1.06387E+00
 -1      2225 5.38338E-01
 -1      2226 6.97182E-01
 -1      2227 7.63981E-01
 -1      2228 5.65701E-01
 -1      2229 7.07177E-01
 -1      2230 1.11886E+00
 -1      2231 9.40061E-01
 -1      2232 9.10620E-01
 -1      2233 1.35574E+00
 -1      2234 1.24901E+00
 -1      2235 1.21686E+00
 -1      2236 1.49273E+00
 -1      2237 1.38687E+00
 -1      2238 1.37815E+00
 -1      2239 1.84718E+00
 -1      2240 1.71168E+00
 -1      2241 1.62823E+00
 -1      2242 8.74574E+00
 -1      2243 1.23984E+01
 -1      2244 1.14784E+00
 -1      2245 1.11664E+00
 -1      2246 1.52217E+00
 -1      2247 9.95021E-01
 -1      2248 7.96568E-01
 -1      2249 7.29127E+00
 -1      2250 5.92644E+00
 -1      2251 7.13859E-01
 -1      2252 6.08021E-01
 -1      2253 8.60445E-01
 -1      2254 5.64242E-01
 -1      2255 5.43933E-01
 -1      2256 7.33958E-01
 -1      2257 5.60362E-01
 -1      2258 5.89274E-01
 -1      2259 7.06608E-01
 -1      2260 6.65747E-01
 -1      2261 8.10079E-01
 -1      2262 7.99510E-01
 -1      2263 9.19623E-01
 -1      2264 1.13681E+00
 -1      2265 9.85527E-01
 -1      2266 1.27477E+00
 -1      2267 1.46170E+00
 -1      2268 1.23303E+00
 -1      2269 1.54557E+00
 -1      2270 1.73998E+00
 -1      2271 1.45487E+00
 -1      2272 1.95251E+00
 -1      2273 2.03429E+00
 -1      2274 1.75127E+00
 -1      2275 1.98144E+00
 -1      2276 1.95428E+00
 -1      2277 1.91095E+00
 -1      2278 2.00225E+00
 -1      2279 2.02936E+00
 -1      2280 1.90608E+00
 -1      2281 1.91620E+00
 -1      2282 1.76155E+00
 -1      2283 1.84089E+00
 -1      2284 1.60434E+00
 -1      2285 1.39807E+00
 -1      2286 1.57051E+00
 -1      2287 1.31280E+00
 -1      2288 1.07262E+00
 -1      2289 1.32801E+00
 -1      2290 9.07071E-01
 -1      2291 7.00763E-01
 -1      2292 1.07719E+00
 -1      2293 6.70982E-01
 -1      2294 6.80165E-01
 -1      2295 8.81867E-01
 -1      2296 5.98326E-01
 -1      2297 6.56310E-01
 -1      2298 7.70247E-01
 -1      2299 6.66623E-01
 -1      2300 7.00492E-01
 -1      2301 6.98722E-01
 -1      2302 6.86003E-01
 -1      2303 6.73449E-01
 -1      2304 6.94545E-01
 -1      2305 6.40768E-01
 -1      2306 6.03707E-01
 -1      2307 6.47375E-01
 -1      2308 5.75463E-01
 -1      2309 5.42624E-01
 -1      2310 5.86450E-01
 -1      2311 5.11965E-01
 -1      2312 4.80970E-01
 -1      2313 5.27547E-01
 -1      2314 4.45447E-01
 -1      2315 4.07960E-01
 -1      2316 4.61365E-01
 -1      2317 3.70655E-01
 -1      2318 3.32490E-01
 -1      2319 3.88537E-01
 -1      2320 2.97030E-01
 -1      2321 2.61736E-01
 -1      2322 3.15772E-01
 -1      2323 2.30146E-01
 -1      2324 1.99538E-01
 -1      2325 2.48722E-01
 -1      2326 1.72694E-01
 -1      2327 1.47393E-01
 -1      2328 1.90288E-01
 -1      2329 1.25412E-01
 -1      2330 1.06952E-01
 -1      2331 1.41462E-01
 -1      2332 8.95100E-02
 -1      2333 7.68515E-02
 -1      2334 1.02039E-01
 -1      2335 6.33979E-02
 -1      2336 5.37860E-02
 -1      2337 7.11438E-02
 -1      2338 4.36870E-02
 -1      2339 3.80905E-02
 -1      2340 4.75912E-02
 -1      2341 3.21301E-02
 -1      2342 2.89556E-02
 -1      2343 3.15319E-02
 -1      2344 2.55503E-02
 -1      2345 2.25763E-02
 -1      2346 2.21662E-02
 -1      2347 2.14919E-02
 -1      2348 1.88289E-02
 -1      2349 1.76764E-02
 -1      2350 1.76282E-02
 -1      2351 1.53217E-02
 -1      2352 1.53913E-02
 -1      2353 1.41213E-02
 -1      2354 1.22876E-02
 -1      2355 1.29901E-02
 -1      2356 1.11584E-02
 -1      2357 1.02017E-02
 -1      2358 1.06605E-02
 -1      2359 9.27018E-03
 -1      2360 8.34584E-03
 -1      2361 8.59976E-03
 -1      2362 7.80871E-03
 -1      2363 6.92975E-03
 -1      2364 7.13114E-03
 -1      2365 6.35755E-03
 -1      2366 5.60066E-03
 -1      2367 6.02182E-03
 -1      2368 5.03677E-03
 -1      2369 4.39755E-03
 -1      2370 4.88573E-03
 -1      2371 3.92714E-03
 -1      2372 3.37500E-03
 -1      2373 3.85143E-03
 -1      2374 2.95195E-03
 -1      2375 2.52647E-03
 -1      2376 2.95797E-03
 -1      2377 2.16674E-03
 -1      2378 1.83840E-03
 -1      2379 2.17520E-03
 -1      2380 1.33869E+00
 -1      2381 1.33879E+00
 -1      2382 1.32260E+00
 -1      2383 1.40644E+00
 -1      2384 1.59498E+00
 -1      2385 1.47525E+00
 -1      2386 1.41155E+00
 -1      2387 1.75168E+00
 -1      2388 1.90318E+00
 -1      2389 1.66058E+00
 -1      2390 2.02596E+00
 -1      2391 2.33544E+00
 -1      2392 1.92469E+00
 -1      2393 2.23280E+00
 -1      2394 3.40966E+00
 -1      2395 3.16224E+00
 -1      2396 3.08109E+00
 -1      2397 5.25382E+00
 -1      2398 5.16648E+00
 -1      2399 5.66470E+00
 -1      2400 3.46925E+00
 -1      2401 3.54238E+00
 -1      2402 5.71008E+00
 -1      2403 3.85548E+00
 -1      2404 3.90613E+00
 -1      2405 4.43551E+00
 -1      2406 2.39398E+00
 -1      2407 2.87463E+00
 -1      2408 3.89155E+00
 -1      2409 1.66847E+00
 -1      2410 2.04967E+00
 -1      2411 2.56638E+00
 -1      2412 1.50094E+00
 -1      2413 1.51304E+00
 -1      2414 2.06664E+00
 -1      2415 1.55287E+00
 -1      2416 1.42732E+00
 -1      2417 1.83759E+00
 -1      2418 1.49275E+00
 -1      2419 1.48278E+00
 -1      2420 1.69389E+00
 -1      2421 1.38746E+00
 -1      2422 1.39104E+00
 -1      2423 1.52209E+00
 -1      2424 1.25287E+00
 -1      2425 1.31681E+00
 -1      2426 1.34974E+00
 -1      2427 1.11597E+00
 -1      2428 1.18486E+00
 -1      2429 1.21108E+00
 -1      2430 9.47234E-01
 -1      2431 1.03178E+00
 -1      2432 1.05888E+00
 -1      2433 7.70579E-01
 -1      2434 8.59009E-01
 -1      2435 8.86463E-01
 -1      2436 6.06219E-01
 -1      2437 6.88081E-01
 -1      2438 7.15741E-01
 -1      2439 4.63739E-01
 -1      2440 5.34209E-01
 -1      2441 5.61233E-01
 -1      2442 3.45946E-01
 -1      2443 4.03720E-01
 -1      2444 4.29204E-01
 -1      2445 2.51873E-01
 -1      2446 2.97574E-01
 -1      2447 3.20813E-01
 -1      2448 1.84414E-01
 -1      2449 2.13904E-01
 -1      2450 2.34473E-01
 -1      2451 1.32703E-01
 -1      2452 1.55268E-01
 -1      2453 1.67358E-01
 -1      2454 9.31301E-02
 -1      2455 1.10780E-01
 -1      2456 1.16289E-01
 -1      2457 6.34224E-02
 -1      2458 7.69657E-02
 -1      2459 7.82009E-02
 -1      2460 4.35474E-02
 -1      2461 5.37516E-02
 -1      2462 5.23657E-02
 -1      2463 2.98927E-02
 -1      2464 3.73699E-02
 -1      2465 3.65173E-02
 -1      2466 2.53916E-02
 -1      2467 2.74186E-02
 -1      2468 2.78657E-02
 -1      2469 2.13094E-02
 -1      2470 2.33505E-02
 -1      2471 2.33505E-02
 -1      2472 1.74628E-02
 -1      2473 1.93861E-02
 -1      2474 1.93861E-02
 -1      2475 1.39934E-02
 -1      2476 1.57281E-02
 -1      2477 1.57281E-02
 -1      2478 1.09604E-02
 -1      2479 1.24769E-02
 -1      2480 1.24769E-02
 -1      2481 9.18118E-03
 -1      2482 1.00708E-02
 -1      2483 1.00708E-02
 -1      2484 7.72501E-03
 -1      2485 8.45310E-03
 -1      2486 8.45310E-03
 -1      2487 6.28429E-03
 -1      2488 7.00465E-03
 -1      2489 7.00465E-03
 -1      2490 5.08595E-03
 -1      2491 5.62817E-03
 -1      2492 5.62817E-03
 -1      2493 4.03331E-03
 -1      2494 4.53342E-03
 -1      2495 4.41951E-03
 -1      2496 3.05756E-03
 -1      2497 3.53445E-03
 -1      2498 3.36813E-03
 -1      2499 2.32591E-03
 -1      2500 2.76700E-03
 -1      2501 2.57872E-03
 -1      2502 1.73596E-03
 -1      2503 2.02173E-03
 -1      2504 1.98398E-03
 -1      2505 1.49872E-03
 -1      2506 1.11112E-03
 -1      2507 1.02689E-03
 -1      2508 1.19411E-03
 -1      2509 1.15808E-03
 -1      2510 1.27915E-03
 -1      2511 9.74530E-04
 -1      2512 1.25768E-03
 -1      2513 1.09004E-03
 -1      2514 9.98771E-04
 -1      2515 1.33426E-03
 -1      2516 1.29535E-03
 -1      2517 1.19411E-03
 -1      2518 1.19411E-03
 -1      2519 1.32611E-03
 -1      2520 1.18367E-03
 -1      2521 1.18601E-03
 -1      2522 1.31801E-03
 -1      2523 1.18835E-03
 -1      2524 1.18835E-03
 -1      2525 1.31459E-03
 -1      2526 1.15215E-03
 -1      2527 1.18835E-03
 -1      2528 1.31927E-03
 -1      2529 1.02117E-03
 -1      2530 1.10480E-03
 -1      2531 1.27192E-03
 -1      2532 9.86184E-04
 -1      2533 1.07836E-03
 -1      2534 1.28176E-03
 -1      2535 1.07834E-03
 -1      2536 8.55361E-04
 -1      2537 1.20814E-03
 -1      2538 3.17482E+01
 -1      2539 3.17482E+01
 -1      2540 1.49774E+01
 -1      2541 2.13977E+01
 -1      2542 1.25853E+00
 -1      2543 1.21612E+00
 -1      2544 1.44696E+00
 -1      2545 1.22246E-03
 -1      2546 3.09566E+01
 -1      2547 3.01650E+01
 -1      2548 2.48303E+01
 -1      2549 2.60903E+01
 -1      2550 2.09406E+00
 -1      2551 1.31954E+00
 -1      2552 1.26768E+00
 -1      2553 1.59220E+00
 -1      2554 2.62514E+01
 -1      2555 2.67094E+01
 -1      2556 8.47598E+00
 -1      2557 7.85129E+00
 -1      2558 1.02193E+01
 -1      2559 1.45164E+01
 -1      2560 1.03752E+01
 -1      2561 7.05618E+00
 -1      2562 8.39392E-01
 -1      2563 9.51029E-01
 -1      2564 1.01405E+00
 -1      2565 8.22023E-01
 -1      2566 9.58362E+00
 -1      2567 8.61655E+00
 -1      2568 6.18560E+00
 -1      2569 6.57609E+00
 -1      2570 9.57247E+00
 -1      2571 9.74856E+00
 -1      2572 3.07949E+01
 -1      2573 2.61649E+01
 -1      2574 7.87735E+00
 -1      2575 9.32000E+00
 -1      2576 1.69128E+01
 -1      2577 1.25121E+01
 -1      2578 8.62439E+00
 -1      2579 3.54250E+01
 -1      2580 3.54250E+01
 -1      2581 2.81995E+01
 -1      2582 2.97457E+01
 -1      2583 1.73683E+01
 -1      2584 2.37025E+01
 -1      2585 9.43763E+00
 -1      2586 9.28289E+00
 -1      2587 6.74616E+00
 -1      2588 6.19246E+00
 -1      2589 8.29540E+00
 -1      2590 6.32186E+00
 -1      2591 8.15191E+00
 -1      2592 8.60066E+00
 -1      2593 5.51324E+00
 -1      2594 7.08284E+00
 -1      2595 5.23183E+00
 -1      2596 1.37424E+01
 -1      2597 1.00206E+01
 -1      2598 2.26998E+01
 -1      2599 1.61562E+01
 -1      2600 5.84901E+00
 -1      2601 6.90052E+00
 -1      2602 1.52554E+00
 -1      2603 1.76045E+00
 -1      2604 1.85056E+00
 -1      2605 1.83069E+00
 -1      2606 1.20015E+00
 -1      2607 1.25999E+00
 -1      2608 1.46431E+00
 -1      2609 1.09880E+01
 -1      2610 6.56375E+00
 -1      2611 1.84718E+00
 -1      2612 7.76564E+00
 -1      2613 5.51635E+00
 -1      2614 2.62514E+01
 -1      2615 4.79596E+00
 -1      2616 7.39833E+00
 -1      2617 1.22204E+01
 -1      2618 1.95694E+01
 -1      2619 1.44257E-03
 -1      2620 1.44257E-03
 -1      2621 1.74075E+01
 -1      2622 1.12559E+01
 -1      2623 1.56215E+01
 -1      2624 3.09566E+01
 -1      2625 2.60903E+01
 -1      2626 1.69996E+01
 -1      2627 6.04764E+00
 -1      2628 3.07949E+01
 -1      2629 1.29842E+00
 -1      2630 7.60137E+00
 -1      2631 1.83281E+01
 -1      2632 8.62574E+00
 -1      2633 6.77123E+00
 -1      2634 7.57815E+00
 -1      2635 8.27419E+00
 -1      2636 7.42340E+00
 -1      2637 5.54401E+00
 -1      2638 1.59220E+00
 -1      2639 5.61696E+00
 -1      2640 2.08594E+01
 -1      2641 1.75232E+01
 -1      2642 2.08594E+01
 -1      2643 7.68890E+00
 -1      2644 2.97457E+01
 -1      2645 5.47336E+00
 -1      2646 4.29139E+00
 -1      2647 3.69212E+00
 -1      2648 5.49229E+00
 -1      2649 1.26422E-03
 -1      2650 1.12113E-03
 -1      2651 1.12010E-03
 -1      2652 1.51211E-03
 -1      2653 1.19047E+01
 -1      2654 1.84718E+00
 -1      2655 1.49491E-03
 -1      2656 1.48918E-03
 -1      2657 5.75678E+00
 -1      2658 6.84938E+00
 -1      2659 1.11730E+00
 -1      2660 9.41216E-01
 -1      2661 8.39714E-01
 -1      2662 8.12351E-01
 -1      2663 1.04639E+00
 -1      2664 1.45210E+00
 -1      2665 1.42097E+00
 -1      2666 1.67105E+00
 -1      2667 1.45210E+00
 -1      2668 1.49492E+00
 -1      2669 1.76432E-03
 -1      2670 1.94921E-03
 -1      2671 2.25339E-03
 -1      2672 1.46691E+00
 -1      2673 1.75893E+00
 -1      2674 4.43150E+00
 -1      2675 4.43100E+00
 -1      2676 4.87289E+00
 -1      2677 3.96775E+00
 -1      2678 3.89032E+00
 -1      2679 3.96725E+00
 -1      2680 8.88414E-01
 -1      2681 8.44636E-01
 -1      2682 8.64925E-01
 -1      2683 8.81354E-01
 -1      2684 1.01938E+00
 -1      2685 9.24616E-01
 -1      2686 1.00109E+00
 -1      2687 1.08293E+00
 -1      2688 1.11900E+00
 -1      2689 1.22855E+00
 -1      2690 1.24411E+00
 -1      2691 1.34461E+00
 -1      2692 1.48258E+00
 -1      2693 1.47809E+00
 -1      2694 1.54910E+00
 -1      2695 1.63297E+00
 -1      2696 1.66068E+00
 -1      2697 1.82047E+00
 -1      2698 2.03300E+00
 -1      2699 1.91470E+00
 -1      2700 2.76661E+00
 -1      2701 2.71376E+00
 -1      2702 2.83581E+00
 -1      2703 1.94832E+00
 -1      2704 1.99629E+00
 -1      2705 2.80397E+00
 -1      2706 2.24796E+00
 -1      2707 2.13480E+00
 -1      2708 2.29021E+00
 -1      2709 1.72773E+00
 -1      2710 1.57051E+00
 -1      2711 2.13480E+00
 -1      2712 1.53888E+00
 -1      2713 1.45360E+00
 -1      2714 1.69609E+00
 -1      2715 1.37763E+00
 -1      2716 1.21208E+00
 -1      2717 1.58849E+00
 -1      2718 1.12156E+00
 -1      2719 1.09178E+00
 -1      2720 1.42200E+00
 -1      2721 9.39633E-01
 -1      2722 8.57795E-01
 -1      2723 1.17933E+00
 -1      2724 7.94598E-01
 -1      2725 8.04911E-01
 -1      2726 9.63983E-01
 -1      2727 7.51162E-01
 -1      2728 7.36673E-01
 -1      2729 8.47038E-01
 -1      2730 6.80055E-01
 -1      2731 6.47375E-01
 -1      2732 7.36673E-01
 -1      2733 6.14694E-01
 -1      2734 5.86450E-01
 -1      2735 6.47375E-01
 -1      2736 5.48926E-01
 -1      2737 5.18267E-01
 -1      2738 5.77170E-01
 -1      2739 4.75325E-01
 -1      2740 4.39803E-01
 -1      2741 4.96704E-01
 -1      2742 3.97203E-01
 -1      2743 3.59897E-01
 -1      2744 4.11163E-01
 -1      2745 3.20877E-01
 -1      2746 2.85417E-01
 -1      2747 3.29542E-01
 -1      2748 2.51536E-01
 -1      2749 2.19946E-01
 -1      2750 2.56641E-01
 -1      2751 1.92806E-01
 -1      2752 1.65961E-01
 -1      2753 1.95619E-01
 -1      2754 1.44885E-01
 -1      2755 1.22904E-01
 -1      2756 1.47403E-01
 -1      2757 1.06013E-01
 -1      2758 8.85709E-02
 -1      2759 1.09436E-01
 -1      2760 7.53297E-02
 -1      2761 6.18761E-02
 -1      2762 7.93033E-02
 -1      2763 5.17160E-02
 -1      2764 4.16170E-02
 -1      2765 5.59019E-02
 -1      2766 3.39862E-02
 -1      2767 2.80258E-02
 -1      2768 3.81109E-02
 -1      2769 2.24239E-02
 -1      2770 1.90186E-02
 -1      2771 2.48782E-02
 -1      2772 1.54945E-02
 -1      2773 1.44101E-02
 -1      2774 1.57522E-02
 -1      2775 1.30897E-02
 -1      2776 1.18889E-02
 -1      2777 1.09077E-02
 -1      2778 1.16572E-02
 -1      2779 1.04568E-02
 -1      2780 9.35556E-03
 -1      2781 1.00055E-02
 -1      2782 8.87625E-03
 -1      2783 8.67251E-03
 -1      2784 8.31511E-03
 -1      2785 7.38361E-03
 -1      2786 7.66010E-03
 -1      2787 6.78644E-03
 -1      2788 6.24931E-03
 -1      2789 6.50178E-03
 -1      2790 5.74683E-03
 -1      2791 5.17464E-03
 -1      2792 5.40213E-03
 -1      2793 4.77344E-03
 -1      2794 4.20955E-03
 -1      2795 4.49845E-03
 -1      2796 3.79664E-03
 -1      2797 3.32622E-03
 -1      2798 3.68434E-03
 -1      2799 2.93034E-03
 -1      2800 2.50729E-03
 -1      2801 2.87554E-03
 -1      2802 2.29390E-03
 -1      2803 1.93417E-03
 -1      2804 2.26626E-03
 -1      2805 2.25645E+00
 -1      2806 2.16751E+00
 -1      2807 1.10923E+01
 -1      2808 8.67852E+00
 -1      2809 1.90759E+00
 -1      2810 1.83984E+00
 -1      2811 2.41236E+00
 -1      2812 2.70505E+00
 -1      2813 2.68355E+00
 -1      2814 7.38521E+00
 -1      2815 5.62839E+00
 -1      2816 5.76129E+00
 -1      2817 7.47274E+00
 -1      2818 6.19818E+00
 -1      2819 3.89155E+00
 -1      2820 4.87240E+00
 -1      2821 2.53375E+00
 -1      2822 2.87807E+00
 -1      2823 2.56404E+00
 -1      2824 2.71947E+00
 -1      2825 3.03116E+00
 -1      2826 2.24048E+00
 -1      2827 2.31410E+00
 -1      2828 2.96693E+00
 -1      2829 1.92844E+00
 -1      2830 1.99854E+00
 -1      2831 2.47504E+00
 -1      2832 1.59221E+00
 -1      2833 1.69391E+00
 -1      2834 1.99856E+00
 -1      2835 1.40064E+00
 -1      2836 1.47129E+00
 -1      2837 1.64311E+00
 -1      2838 1.21743E+00
 -1      2839 1.28544E+00
 -1      2840 1.40700E+00
 -1      2841 1.02050E+00
 -1      2842 1.10469E+00
 -1      2843 1.17906E+00
 -1      2844 8.29731E-01
 -1      2845 9.17955E-01
 -1      2846 9.63769E-01
 -1      2847 6.58068E-01
 -1      2848 7.40565E-01
 -1      2849 7.72058E-01
 -1      2850 5.10867E-01
 -1      2851 5.82877E-01
 -1      2852 6.07701E-01
 -1      2853 3.88895E-01
 -1      2854 4.48914E-01
 -1      2855 4.70558E-01
 -1      2856 2.90456E-01
 -1      2857 3.38827E-01
 -1      2858 3.58537E-01
 -1      2859 2.12722E-01
 -1      2860 2.50691E-01
 -1      2861 2.68705E-01
 -1      2862 1.52504E-01
 -1      2863 1.81650E-01
 -1      2864 1.97868E-01
 -1      2865 1.06682E-01
 -1      2866 1.28605E-01
 -1      2867 1.42897E-01
 -1      2868 7.24251E-02
 -1      2869 8.85896E-02
 -1      2870 1.00906E-01
 -1      2871 4.92852E-02
 -1      2872 5.89560E-02
 -1      2873 6.93447E-02
 -1      2874 3.32614E-02
 -1      2875 3.94390E-02
 -1      2876 4.60293E-02
 -1      2877 2.37362E-02
 -1      2878 2.62103E-02
 -1      2879 2.91320E-02
 -1      2880 1.81035E-02
 -1      2881 2.01446E-02
 -1      2882 1.84893E-02
 -1      2883 1.52486E-02
 -1      2884 1.71719E-02
 -1      2885 1.39660E-02
 -1      2886 1.27764E-02
 -1      2887 1.45111E-02
 -1      2888 1.22969E-02
 -1      2889 1.04248E-02
 -1      2890 1.19413E-02
 -1      2891 1.07243E-02
 -1      2892 8.69005E-03
 -1      2893 9.57964E-03
 -1      2894 9.04409E-03
 -1      2895 7.15932E-03
 -1      2896 7.88740E-03
 -1      2897 7.39627E-03
 -1      2898 5.90423E-03
 -1      2899 6.62459E-03
 -1      2900 6.05890E-03
 -1      2901 4.77473E-03
 -1      2902 5.43085E-03
 -1      2903 5.05080E-03
 -1      2904 3.75387E-03
 -1      2905 4.30640E-03
 -1      2906 4.10909E-03
 -1      2907 2.85220E-03
 -1      2908 3.35106E-03
 -1      2909 3.23795E-03
 -1      2910 2.44357E-03
 -1      2911 2.73412E-03
 -1      2912 2.71705E-03
 -1      2913 2.40880E-03
 -1      2914 1.43747E-03
 -1      2915 1.44557E-03
 -1      2916 1.85998E-03
 -1      2917 1.53369E-03
 -1      2918 1.97868E-03
 -1      2919 1.45587E-03
 -1      2920 1.40891E-03
 -1      2921 1.44181E-03
 -1      2922 1.43713E-03
 -1      2923 1.56469E-03
 -1      2924 1.45587E-03
 -1      2925 1.45587E-03
 -1      2926 1.58563E-03
 -1      2927 1.57533E-03
 -1      2928 5.17914E+00
 -1      2929 7.02436E+00
 -1      2930 4.35093E+00
 -1      2931 1.44181E-03
 -1      2932 1.44181E-03
 -1      2933 1.56435E-03
 -1      2934 1.38760E-03
 -1      2935 1.43495E-03
 -1      2936 1.55749E-03
 -1      2937 1.69591E-03
 -1      2938 1.63872E-03
 -1      2939 1.80175E-03
 -1      2940 1.81760E+01
 -1      2941 2.38340E+01
 -1      2942 1.24544E+01
 -1      2943 1.58870E+01
 -1      2944 1.57106E+00
 -1      2945 1.24654E+00
 -1      2946 1.83069E+00
 -1      2947 5.82411E+00
 -1      2948 6.66108E+00
 -1      2949 5.14878E+00
 -1      2950 4.34016E+00
 -1      2951 2.23495E+01
 -1      2952 1.84359E+01
 -1      2953 1.36670E+00
 -1      2954 1.29842E+00
 -1      2955 1.53518E+00
 -1      2956 1.37425E+01
 -1      2957 1.82396E+01
 -1      2958 1.58256E+00
 -1      2959 1.50229E+00
 -1      2960 1.50229E+00
 -1      2961 1.89516E+00
 -1      2962 2.35511E+01
 -1      2963 2.27595E+01
 -1      2964 2.60716E+00
 -1      2965 2.42183E+00
 -1      2966 2.83766E+00
 -1      2967 3.07942E+00
 -1      2968 1.30516E+00
 -1      2969 1.22245E+00
 -1      2970 1.33313E+00
 -1      2971 1.60854E+00
 -1      2972 7.78481E+00
 -1      2973 1.03638E+01
 -1      2974 6.40020E+00
 -1      2975 5.46044E+00
 -1      2976 4.58986E+00
 -1      2977 2.54290E+01
 -1      2978 2.07989E+01
 -1      2979 1.39563E+00
 -1      2980 1.26547E+00
 -1      2981 1.29607E+00
 -1      2982 1.46958E+00
 -1      2983 1.65913E+01
 -1      2984 1.25817E+01
 -1      2985 9.35552E+00
 -1      2986 9.45502E+00
 -1      2987 7.31818E+00
 -1      2988 1.57106E+00
 -1      2989 1.12675E+00
 -1      2990 1.12675E+00
 -1      2991 3.87223E+00
 -1      2992 4.94131E+00
 -1      2993 5.24121E+00
 -1      2994 4.13608E+00
 -1      2995 2.04878E+01
 -1      2996 2.61671E+01
 -1      2997 1.61711E+01
 -1      2998 8.66147E+00
 -1      2999 1.15134E+01
 -1      3000 7.66577E+00
 -1      3001 5.94057E+00
 -1      3002 6.85345E+00
 -1      3003 1.49090E-03
 -1      3004 5.57239E+00
 -1      3005 3.85189E+00
 -1      3006 3.02510E+00
 -1      3007 4.27113E+00
 -1      3008 1.01040E+00
 -1      3009 8.77861E-01
 -1      3010 1.02007E+00
 -1      3011 4.11461E+00
 -1      3012 1.78856E-03
 -1      3013 1.46609E+01
 -1      3014 1.36551E+00
 -1      3015 1.50179E+00
 -1      3016 1.42840E+00
 -1      3017 1.90212E-03
 -1      3018 1.72540E-03
 -1      3019 1.78856E-03
 -1      3020 1.62173E-03
 -1      3021 1.49440E+01
 -1      3022 3.47585E+00
 -1      3023 7.63768E+00
 -1      3024 2.98640E+00
 -1      3025 2.95377E+00
 -1      3026 1.57010E+01
 -1      3027 9.95450E+00
 -1      3028 1.17991E+01
 -1      3029 9.99714E+00
 -1      3030 8.88454E+00
 -1      3031 6.79398E+00
 -1      3032 1.53135E+01
 -1      3033 1.14425E+01
 -1      3034 1.33441E+01
 -1      3035 5.72851E+00
 -1      3036 4.34825E+00
 -1      3037 5.87828E+00
 -1      3038 1.56369E+01
 -1      3039 1.97868E-03
 -1      3040 1.36308E+01
 -1      3041 5.04891E+00
 -1      3042 1.77543E+00
 -1      3043 4.20405E+00
 -1      3044 3.78919E+00
 -1      3045 6.43246E+00
 -1      3046 5.77530E+00
 -1      3047 4.85823E+00
 -1      3048 4.44489E+00
 -1      3049 4.37914E+00
 -1      3050 3.12652E+00
 -1      3051 1.13650E+01
 -1      3052 1.00352E+01
 -1      3053 7.80605E+00
 -1      3054 1.83820E+01
 -1      3055 1.30765E+01
 -1      3056 1.30160E+01
 -1      3057 1.07693E+00
 -1      3058 1.12675E+00
 -1      3059 1.18963E+00
 -1      3060 1.13277E+00
 -1      3061 6.29108E+00
 -1      3062 9.94968E+00
 -1      3063 1.44317E+00
 -1      3064 3.41698E+00
 -1      3065 5.05182E+00
 -1      3066 6.99695E+00
 -1      3067 6.28989E+00
 -1      3068 1.59929E+00
 -1      3069 8.67758E+00
 -1      3070 7.18826E+00
 -1      3071 1.60894E+00
 -1      3072 1.60894E+00
 -1      3073 1.71684E-03
 -1      3074 1.71684E-03
 -1      3075 4.85864E+00
 -1      3076 5.61909E+00
 -1      3077 1.29726E+00
 -1      3078 1.34052E+00
 -1      3079 1.42779E+00
 -1      3080 1.54570E+00
 -1      3081 1.64212E+00
 -1      3082 1.87955E+00
 -1      3083 1.99561E+00
 -1      3084 2.06323E+00
 -1      3085 2.28936E+00
 -1      3086 2.35589E+00
 -1      3087 2.69082E+00
 -1      3088 2.16473E+00
 -1      3089 2.35223E+00
 -1      3090 2.79341E+00
 -1      3091 3.46888E+00
 -1      3092 4.20249E+00
 -1      3093 4.09951E+00
 -1      3094 3.33407E+00
 -1      3095 3.58574E+00
 -1      3096 2.92127E+00
 -1      3097 2.51419E+00
 -1      3098 2.21312E+00
 -1      3099 2.18149E+00
 -1      3100 2.99959E+00
 -1      3101 2.03147E+00
 -1      3102 1.95550E+00
 -1      3103 2.54850E+00
 -1      3104 1.61318E+00
 -1      3105 1.52266E+00
 -1      3106 2.05616E+00
 -1      3107 1.48247E+00
 -1      3108 1.33032E+00
 -1      3109 1.67364E+00
 -1      3110 1.19618E+00
 -1      3111 1.13298E+00
 -1      3112 1.49932E+00
 -1      3113 1.01025E+00
 -1      3114 9.56498E-01
 -1      3115 1.24244E+00
 -1      3116 8.36680E-01
 -1      3117 7.80062E-01
 -1      3118 9.99888E-01
 -1      3119 7.14764E-01
 -1      3120 6.82083E-01
 -1      3121 8.14771E-01
 -1      3122 6.16776E-01
 -1      3123 5.79251E-01
 -1      3124 6.84165E-01
 -1      3125 5.23154E-01
 -1      3126 4.80212E-01
 -1      3127 5.62759E-01
 -1      3128 4.29266E-01
 -1      3129 3.86666E-01
 -1      3130 4.55716E-01
 -1      3131 3.42695E-01
 -1      3132 3.03674E-01
 -1      3133 3.60798E-01
 -1      3134 2.66971E-01
 -1      3135 2.33090E-01
 -1      3136 2.80124E-01
 -1      3137 2.04032E-01
 -1      3138 1.76892E-01
 -1      3139 2.14362E-01
 -1      3140 1.53801E-01
 -1      3141 1.32725E-01
 -1      3142 1.62213E-01
 -1      3143 1.14778E-01
 -1      3144 9.78861E-02
 -1      3145 1.21175E-01
 -1      3146 8.35734E-02
 -1      3147 7.03322E-02
 -1      3148 8.89150E-02
 -1      3149 5.95074E-02
 -1      3150 4.93473E-02
 -1      3151 6.37775E-02
 -1      3152 4.11528E-02
 -1      3153 3.35220E-02
 -1      3154 4.47583E-02
 -1      3155 2.74223E-02
 -1      3156 2.18204E-02
 -1      3157 3.04642E-02
 -1      3158 1.73702E-02
 -1      3159 1.38461E-02
 -1      3160 1.99142E-02
 -1      3161 1.06758E-02
 -1      3162 9.35545E-03
 -1      3163 1.22938E-02
 -1      3164 7.54709E-03
 -1      3165 7.31531E-03
 -1      3166 7.31520E-03
 -1      3167 7.26419E-03
 -1      3168 6.81292E-03
 -1      3169 5.45573E-03
 -1      3170 6.78771E-03
 -1      3171 6.22657E-03
 -1      3172 5.37940E-03
 -1      3173 6.01834E-03
 -1      3174 5.42117E-03
 -1      3175 5.14596E-03
 -1      3176 5.11131E-03
 -1      3177 4.60883E-03
 -1      3178 4.62787E-03
 -1      3179 4.27204E-03
 -1      3180 3.87084E-03
 -1      3181 3.98122E-03
 -1      3182 3.63366E-03
 -1      3183 3.22075E-03
 -1      3184 3.40725E-03
 -1      3185 3.17472E-03
 -1      3186 2.77884E-03
 -1      3187 3.12405E-03
 -1      3188 2.62967E-03
 -1      3189 2.41628E-03
 -1      3190 2.92885E-03
 -1      3191 6.00679E+00
 -1      3192 4.99404E+00
 -1      3193 5.32885E+00
 -1      3194 6.19818E+00
 -1      3195 3.64721E+00
 -1      3196 3.46149E+00
 -1      3197 2.28800E+00
 -1      3198 2.52253E+00
 -1      3199 1.77256E+00
 -1      3200 1.89347E+00
 -1      3201 2.41745E+00
 -1      3202 1.40751E+00
 -1      3203 1.52270E+00
 -1      3204 1.77307E+00
 -1      3205 1.11927E+00
 -1      3206 1.23201E+00
 -1      3207 1.34772E+00
 -1      3208 8.87480E-01
 -1      3209 9.90025E-01
 -1      3210 1.04298E+00
 -1      3211 7.05082E-01
 -1      3212 7.94248E-01
 -1      3213 8.20504E-01
 -1      3214 5.48512E-01
 -1      3215 6.23702E-01
 -1      3216 6.45892E-01
 -1      3217 4.18717E-01
 -1      3218 4.80670E-01
 -1      3219 4.96671E-01
 -1      3220 3.13912E-01
 -1      3221 3.63980E-01
 -1      3222 3.74092E-01
 -1      3223 2.31026E-01
 -1      3224 2.70791E-01
 -1      3225 2.76233E-01
 -1      3226 1.69214E-01
 -1      3227 2.00285E-01
 -1      3228 2.02371E-01
 -1      3229 1.22476E-01
 -1      3230 1.46375E-01
 -1      3231 1.48792E-01
 -1      3232 8.67767E-02
 -1      3233 1.04869E-01
 -1      3234 1.08346E-01
 -1      3235 5.99069E-02
 -1      3236 7.33760E-02
 -1      3237 7.73389E-02
 -1      3238 4.00092E-02
 -1      3239 4.98554E-02
 -1      3240 5.38867E-02
 -1      3241 2.55414E-02
 -1      3242 3.25925E-02
 -1      3243 3.64186E-02
 -1      3244 1.65798E-02
 -1      3245 2.01714E-02
 -1      3246 2.36319E-02
 -1      3247 1.18487E-02
 -1      3248 1.27803E-02
 -1      3249 1.44624E-02
 -1      3250 9.46372E-03
 -1      3251 1.02013E-02
 -1      3252 9.01552E-03
 -1      3253 8.67233E-03
 -1      3254 9.50737E-03
 -1      3255 7.41175E-03
 -1      3256 7.59277E-03
 -1      3257 8.43795E-03
 -1      3258 7.22102E-03
 -1      3259 6.39954E-03
 -1      3260 7.20218E-03
 -1      3261 6.59604E-03
 -1      3262 5.40089E-03
 -1      3263 5.93561E-03
 -1      3264 5.74152E-03
 -1      3265 4.47882E-03
 -1      3266 4.95220E-03
 -1      3267 4.82891E-03
 -1      3268 3.68136E-03
 -1      3269 4.14969E-03
 -1      3270 4.05109E-03
 -1      3271 2.92787E-03
 -1      3272 3.33068E-03
 -1      3273 3.37128E-03
 -1      3274 3.31096E+00
 -1      3275 4.19375E+00
 -1      3276 4.24260E+00
 -1      3277 1.62335E-03
 -1      3278 1.62370E-03
 -1      3279 1.77585E-03
 -1      3280 1.13493E+01
 -1      3281 1.35975E+01
 -1      3282 2.35772E-03
 -1      3283 2.10660E-03
 -1      3284 1.31345E+01
 -1      3285 1.27245E+01
 -1      3286 3.79457E+00
 -1      3287 1.70998E-03
 -1      3288 1.71684E-03
 -1      3289 1.86934E-03
 -1      3290 2.26596E-03
 -1      3291 2.94466E+00
 -1      3292 3.18661E+00
 -1      3293 3.23411E+00
 -1      3294 4.84748E+00
 -1      3295 4.05569E+00
 -1      3296 4.00082E+00
 -1      3297 3.60831E+00
 -1      3298 3.85826E+00
 -1      3299 4.28859E+00
 -1      3300 4.07794E+00
 -1      3301 1.03525E+01
 -1      3302 1.26415E+01
 -1      3303 1.34174E+01
 -1      3304 1.31345E+01
 -1      3305 1.09151E+01
 -1      3306 3.01701E+00
 -1      3307 2.75709E+00
 -1      3308 1.00194E+01
 -1      3309 8.21855E+00
 -1      3310 1.60854E+00
 -1      3311 1.29039E+01
 -1      3312 1.21657E+01
 -1      3313 1.50304E+00
 -1      3314 1.39866E+00
 -1      3315 1.51269E+00
 -1      3316 1.33455E+00
 -1      3317 1.26011E+00
 -1      3318 1.28040E+00
 -1      3319 1.53799E+00
 -1      3320 3.42276E+00
 -1      3321 2.97879E+00
 -1      3322 4.92284E+00
 -1      3323 4.28408E+00
 -1      3324 4.20769E+00
 -1      3325 6.78058E+00
 -1      3326 1.42306E+00
 -1      3327 1.32156E+00
 -1      3328 2.21862E-03
 -1      3329 1.85005E+00
 -1      3330 1.73602E+00
 -1      3331 1.71068E+00
 -1      3332 9.59218E+00
 -1      3333 1.27004E+00
 -1      3334 1.50880E+00
 -1      3335 1.87853E-03
 -1      3336 2.19503E-03
 -1      3337 5.83015E+00
 -1      3338 3.71890E+00
 -1      3339 3.96513E+00
 -1      3340 1.66716E+00
 -1      3341 1.19813E+00
 -1      3342 1.26364E+00
 -1      3343 1.57480E+00
 -1      3344 7.89526E+00
 -1      3345 1.00503E+01
 -1      3346 7.31536E+00
 -1      3347 8.24081E+00
 -1      3348 3.27639E+00
 -1      3349 3.47782E+00
 -1      3350 2.72871E-03
 -1      3351 2.82145E-03
 -1      3352 2.61063E-03
 -1      3353 3.00989E+00
 -1      3354 1.69945E-03
 -1      3355 1.69945E-03
 -1      3356 1.99235E-03
 -1      3357 2.05287E-03
 -1      3358 8.89139E+00
 -1      3359 1.21586E+01
 -1      3360 9.74166E+00
 -1      3361 5.46347E+00
 -1      3362 9.38163E+00
 -1      3363 8.31822E+00
 -1      3364 7.00415E+00
 -1      3365 1.68162E-03
 -1      3366 1.69191E-03
 -1      3367 1.80573E-03
 -1      3368 1.74028E-03
 -1      3369 1.01391E+01
 -1      3370 1.23429E+01
 -1      3371 1.01332E+01
 -1      3372 9.86550E+00
 -1      3373 2.32803E+00
 -1      3374 2.07074E+00
 -1      3375 2.93267E+00
 -1      3376 9.71134E+00
 -1      3377 3.13230E+00
 -1      3378 6.40434E+00
 -1      3379 6.25599E+00
 -1      3380 4.73983E+00
 -1      3381 6.85032E+00
 -1      3382 1.63987E+00
 -1      3383 1.50428E+00
 -1      3384 1.47214E+00
 -1      3385 2.07274E+00
 -1      3386 1.42407E+00
 -1      3387 1.69924E+00
 -1      3388 1.57224E+00
 -1      3389 4.38840E+00
 -1      3390 4.22302E+00
 -1      3391 4.56775E+00
 -1      3392 5.59306E+00
 -1      3393 1.66716E+00
 -1      3394 1.33313E+00
 -1      3395 1.59415E+00
 -1      3396 3.23160E+00
 -1      3397 1.32303E+00
 -1      3398 1.32303E+00
 -1      3399 1.40343E+00
 -1      3400 7.67932E+00
 -1      3401 8.56966E+00
 -1      3402 6.40239E+00
 -1      3403 4.41440E+00
 -1      3404 3.98796E+00
 -1      3405 3.31529E+00
 -1      3406 2.23391E-03
 -1      3407 2.23391E-03
 -1      3408 2.42409E-03
 -1      3409 2.21032E-03
 -1      3410 2.41628E-03
 -1      3411 2.72113E-03
 -1      3412 4.73258E+00
 -1      3413 2.41127E+00
 -1      3414 2.74511E+00
 -1      3415 2.87381E+00
 -1      3416 3.16756E+00
 -1      3417 1.66716E+00
 -1      3418 2.82300E-03
 -1      3419 2.76445E-03
 -1      3420 2.97217E-03
 -1      3421 3.12636E+00
 -1      3422 2.21386E+00
 -1      3423 2.17366E+00
 -1      3424 1.76102E+00
 -1      3425 1.62689E+00
 -1      3426 2.30124E+00
 -1      3427 1.44468E+00
 -1      3428 1.32195E+00
 -1      3429 1.70639E+00
 -1      3430 1.18158E+00
 -1      3431 1.06177E+00
 -1      3432 1.38382E+00
 -1      3433 9.20728E-01
 -1      3434 8.55430E-01
 -1      3435 1.10243E+00
 -1      3436 7.39209E-01
 -1      3437 6.73901E-01
 -1      3438 8.45166E-01
 -1      3439 5.99726E-01
 -1      3440 5.43628E-01
 -1      3441 6.54769E-01
 -1      3442 4.86681E-01
 -1      3443 4.35735E-01
 -1      3444 5.23647E-01
 -1      3445 3.94729E-01
 -1      3446 3.50757E-01
 -1      3447 4.25694E-01
 -1      3448 3.12756E-01
 -1      3449 2.76053E-01
 -1      3450 3.46687E-01
 -1      3451 2.42647E-01
 -1      3452 2.13589E-01
 -1      3453 2.75279E-01
 -1      3454 1.85304E-01
 -1      3455 1.62213E-01
 -1      3456 2.13589E-01
 -1      3457 1.38959E-01
 -1      3458 1.21011E-01
 -1      3459 1.62050E-01
 -1      3460 1.02348E-01
 -1      3461 8.80351E-02
 -1      3462 1.20131E-01
 -1      3463 7.33895E-02
 -1      3464 6.25648E-02
 -1      3465 8.68224E-02
 -1      3466 5.15326E-02
 -1      3467 4.33382E-02
 -1      3468 6.11446E-02
 -1      3469 3.53884E-02
 -1      3470 2.92887E-02
 -1      3471 4.21627E-02
 -1      3472 2.33670E-02
 -1      3473 1.89168E-02
 -1      3474 2.82912E-02
 -1      3475 1.46096E-02
 -1      3476 1.14394E-02
 -1      3477 1.80624E-02
 -1      3478 8.42567E-03
 -1      3479 6.61731E-03
 -1      3480 1.07415E-02
 -1      3481 4.67402E-03
 -1      3482 4.62290E-03
 -1      3483 5.78449E-03
 -1      3484 4.45744E-03
 -1      3485 4.43223E-03
 -1      3486 3.67573E-03
 -1      3487 4.66481E-03
 -1      3488 4.45658E-03
 -1      3489 3.74285E-03
 -1      3490 4.44861E-03
 -1      3491 4.13875E-03
 -1      3492 3.96746E-03
 -1      3493 3.98122E-03
 -1      3494 3.64443E-03
 -1      3495 3.80196E-03
 -1      3496 3.40725E-03
 -1      3497 3.17008E-03
 -1      3498 3.40725E-03
 -1      3499 3.12405E-03
 -1      3500 3.07802E-03
 -1      3501 2.97217E-03
 -1      3502 3.12405E-03
 -1      3503 3.60101E+00
 -1      3504 2.87313E+00
 -1      3505 2.53081E+00
 -1      3506 3.74758E+00
 -1      3507 5.88158E+00
 -1      3508 4.70011E+00
 -1      3509 4.30031E+00
 -1      3510 5.77366E+00
 -1      3511 1.74400E+00
 -1      3512 1.99386E+00
 -1      3513 2.17417E+00
 -1      3514 2.56869E+00
 -1      3515 2.14510E+00
 -1      3516 1.03970E+00
 -1      3517 1.16894E+00
 -1      3518 8.17125E-01
 -1      3519 9.10357E-01
 -1      3520 1.03632E+00
 -1      3521 6.32072E-01
 -1      3522 7.13452E-01
 -1      3523 8.03304E-01
 -1      3524 4.81755E-01
 -1      3525 5.49596E-01
 -1      3526 6.17155E-01
 -1      3527 3.61910E-01
 -1      3528 4.16648E-01
 -1      3529 4.69572E-01
 -1      3530 2.67695E-01
 -1      3531 3.10817E-01
 -1      3532 3.53372E-01
 -1      3533 1.97184E-01
 -1      3534 2.27924E-01
 -1      3535 2.62509E-01
 -1      3536 1.43695E-01
 -1      3537 1.66533E-01
 -1      3538 1.92087E-01
 -1      3539 1.02746E-01
 -1      3540 1.20352E-01
 -1      3541 1.38094E-01
 -1      3542 7.19085E-02
 -1      3543 8.53092E-02
 -1      3544 9.73153E-02
 -1      3545 4.95209E-02
 -1      3546 5.95723E-02
 -1      3547 6.75426E-02
 -1      3548 3.29665E-02
 -1      3549 4.03832E-02
 -1      3550 4.60688E-02
 -1      3551 2.09551E-02
 -1      3552 2.63251E-02
 -1      3553 3.02897E-02
 -1      3554 1.25012E-02
 -1      3555 1.63007E-02
 -1      3556 1.89938E-02
 -1      3557 7.61122E-03
 -1      3558 9.25865E-03
 -1      3559 1.10969E-02
 -1      3560 5.87789E-03
 -1      3561 5.83423E-03
 -1      3562 6.07736E-03
 -1      3563 5.76411E-03
 -1      3564 5.99849E-03
 -1      3565 4.42097E-03
 -1      3566 5.49677E-03
 -1      3567 5.88736E-03
 -1      3568 4.66484E-03
 -1      3569 4.93022E-03
 -1      3570 5.39414E-03
 -1      3571 4.68547E-03
 -1      3572 4.24581E-03
 -1      3573 4.69450E-03
 -1      3574 4.34712E-03
 -1      3575 3.61152E-03
 -1      3576 3.94064E-03
 -1      3577 3.80623E-03
 -1      3578 3.01705E-03
 -1      3579 3.36773E-03
 -1      3580 3.25728E-03
 -1      3581 1.26616E+00
 -1      3582 1.32303E+00
 -1      3583 1.45642E+00
 -1      3584 1.77646E-03
 -1      3585 1.68297E-03
 -1      3586 7.97214E+00
 -1      3587 8.74806E+00
 -1      3588 6.42730E+00
 -1      3589 7.89526E+00
 -1      3590 5.04177E+00
 -1      3591 5.46347E+00
 -1      3592 9.56781E+00
 -1      3593 8.14475E+00
 -1      3594 8.56658E+00
 -1      3595 1.73842E+00
 -1      3596 1.75528E+00
 -1      3597 8.74806E+00
 -1      3598 8.74806E+00
 -1      3599 8.09828E+00
 -1      3600 7.40461E+00
 -1      3601 1.32734E+00
 -1      3602 1.50283E+00
 -1      3603 1.72362E+00
 -1      3604 1.32406E+00
 -1      3605 3.06885E+00
 -1      3606 3.49098E+00
 -1      3607 4.87652E+00
 -1      3608 2.82557E+00
 -1      3609 1.91960E+00
 -1      3610 2.00686E+00
 -1      3611 2.68875E+00
 -1      3612 1.50880E+00
 -1      3613 2.79341E+00
 -1      3614 7.03102E+00
 -1      3615 1.84615E+00
 -1      3616 2.05643E+00
 -1      3617 2.01588E+00
 -1      3618 2.98457E+00
 -1      3619 3.22185E+00
 -1      3620 5.18173E+00
 -1      3621 7.14935E+00
 -1      3622 4.96178E+00
 -1      3623 3.13230E+00
 -1      3624 1.49433E+00
 -1      3625 1.65269E+00
 -1      3626 1.57968E+00
 -1      3627 1.54732E+00
 -1      3628 1.49433E+00
 -1      3629 1.63822E+00
 -1      3630 3.03082E+00
 -1      3631 2.01656E+00
 -1      3632 1.89313E+00
 -1      3633 2.43575E-03
 -1      3634 6.07380E+00
 -1      3635 2.63088E-03
 -1      3636 2.83003E-03
 -1      3637 2.82647E-03
 -1      3638 1.45389E+00
 -1      3639 7.15135E+00
 -1      3640 7.14422E+00
 -1      3641 5.65744E+00
 -1      3642 6.25080E+00
 -1      3643 5.59725E+00
 -1      3644 2.14257E-03
 -1      3645 2.04969E-03
 -1      3646 2.14257E-03
 -1      3647 2.12002E+00
 -1      3648 1.68094E-03
 -1      3649 1.73886E-03
 -1      3650 1.68155E-03
 -1      3651 8.52402E+00
 -1      3652 7.79045E+00
 -1      3653 7.66662E+00
 -1      3654 3.52935E+00
 -1      3655 3.10028E+00
 -1      3656 2.01373E-03
 -1      3657 2.19282E-03
 -1      3658 5.24770E+00
 -1      3659 6.71566E+00
 -1      3660 5.32458E+00
 -1      3661 3.69691E+00
 -1      3662 2.36783E-03
 -1      3663 1.83868E+00
 -1      3664 6.58106E+00
 -1      3665 6.88750E+00
 -1      3666 1.79696E+00
 -1      3667 5.42860E+00
 -1      3668 7.17741E+00
 -1      3669 5.79256E+00
 -1      3670 2.18029E+00
 -1      3671 2.49862E+00
 -1      3672 2.18129E+00
 -1      3673 4.84909E+00
 -1      3674 2.42683E-03
 -1      3675 2.40545E-03
 -1      3676 2.18351E+00
 -1      3677 5.68148E+00
 -1      3678 5.84909E+00
 -1      3679 2.64106E-03
 -1      3680 3.98336E+00
 -1      3681 2.20789E+00
 -1      3682 1.76612E+00
 -1      3683 1.76865E+00
 -1      3684 3.11274E+00
 -1      3685 2.93053E+00
 -1      3686 1.73243E+00
 -1      3687 1.59207E+00
 -1      3688 3.13877E+00
 -1      3689 1.23929E+00
 -1      3690 1.09825E+00
 -1      3691 1.58789E+00
 -1      3692 9.39784E-01
 -1      3693 8.23562E-01
 -1      3694 1.07665E+00
 -1      3695 7.21214E-01
 -1      3696 6.47039E-01
 -1      3697 8.15832E-01
 -1      3698 5.80594E-01
 -1      3699 5.23647E-01
 -1      3700 6.47039E-01
 -1      3701 4.65883E-01
 -1      3702 4.24877E-01
 -1      3703 5.22830E-01
 -1      3704 3.75789E-01
 -1      3705 3.37788E-01
 -1      3706 4.15978E-01
 -1      3707 2.97005E-01
 -1      3708 2.63599E-01
 -1      3709 3.26108E-01
 -1      3710 2.30305E-01
 -1      3711 2.02020E-01
 -1      3712 2.52031E-01
 -1      3713 1.75179E-01
 -1      3714 1.51924E-01
 -1      3715 1.91895E-01
 -1      3716 1.30579E-01
 -1      3717 1.11916E-01
 -1      3718 1.43709E-01
 -1      3719 9.51854E-02
 -1      3720 8.05399E-02
 -1      3721 1.05633E-01
 -1      3722 6.76442E-02
 -1      3723 5.66120E-02
 -1      3724 7.60072E-02
 -1      3725 4.68379E-02
 -1      3726 3.88881E-02
 -1      3727 5.33374E-02
 -1      3728 3.19034E-02
 -1      3729 2.59818E-02
 -1      3730 3.65787E-02
 -1      3731 2.09588E-02
 -1      3732 1.66516E-02
 -1      3733 2.45710E-02
 -1      3734 1.30008E-02
 -1      3735 9.98706E-03
 -1      3736 1.58971E-02
 -1      3737 7.39600E-03
 -1      3738 5.45271E-03
 -1      3739 9.65528E-03
 -1      3740 3.85577E-03
 -1      3741 3.69030E-03
 -1      3742 5.46728E-03
 -1      3743 2.83885E-03
 -1      3744 3.07144E-03
 -1      3745 3.01889E-03
 -1      3746 3.39257E-03
 -1      3747 3.38460E-03
 -1      3748 2.48858E-03
 -1      3749 3.47043E-03
 -1      3750 3.31290E-03
 -1      3751 2.89555E-03
 -1      3752 3.24682E-03
 -1      3753 3.00964E-03
 -1      3754 2.91529E-03
 -1      3755 5.66913E-01
 -1      3756 6.49388E-01
 -1      3757 2.63930E+00
 -1      3758 2.81961E+00
 -1      3759 3.29459E+00
 -1      3760 3.69899E+00
 -1      3761 7.45222E-01
 -1      3762 8.48895E-01
 -1      3763 6.94979E-01
 -1      3764 9.76284E-01
 -1      3765 1.10562E+00
 -1      3766 9.18202E-01
 -1      3767 4.29688E-01
 -1      3768 4.94795E-01
 -1      3769 5.27028E-01
 -1      3770 3.23110E-01
 -1      3771 3.74203E-01
 -1      3772 3.99425E-01
 -1      3773 2.40385E-01
 -1      3774 2.80156E-01
 -1      3775 3.00986E-01
 -1      3776 1.76406E-01
 -1      3777 2.07057E-01
 -1      3778 2.24705E-01
 -1      3779 1.27316E-01
 -1      3780 1.50658E-01
 -1      3781 1.65628E-01
 -1      3782 9.02040E-02
 -1      3783 1.07640E-01
 -1      3784 1.20204E-01
 -1      3785 6.29174E-02
 -1      3786 7.52535E-02
 -1      3787 8.55787E-02
 -1      3788 4.26942E-02
 -1      3789 5.18319E-02
 -1      3790 5.95427E-02
 -1      3791 2.83341E-02
 -1      3792 3.49756E-02
 -1      3793 4.07387E-02
 -1      3794 1.79900E-02
 -1      3795 2.26444E-02
 -1      3796 2.73303E-02
 -1      3797 1.06428E-02
 -1      3798 1.38853E-02
 -1      3799 1.75359E-02
 -1      3800 5.99112E-03
 -1      3801 7.76811E-03
 -1      3802 1.05565E-02
 -1      3803 4.23537E-03
 -1      3804 4.11477E-03
 -1      3805 5.80552E-03
 -1      3806 3.75589E-03
 -1      3807 3.63264E-03
 -1      3808 3.32643E-03
 -1      3809 3.94304E-03
 -1      3810 4.04567E-03
 -1      3811 3.01347E-03
 -1      3812 3.75600E-03
 -1      3813 3.99172E-03
 -1      3814 3.35193E-03
 -1      3815 3.34698E-03
 -1      3816 3.65215E-03
 -1      3817 3.29675E-03
 -1      3818 2.90647E-03
 -1      3819 3.15026E-03
 -1      3820 2.99617E-03
 -1      3821 1.54331E+00
 -1      3822 1.54331E+00
 -1      3823 1.63421E+00
 -1      3824 1.85554E+00
 -1      3825 1.96247E-03
 -1      3826 2.16294E-03
 -1      3827 1.95494E-03
 -1      3828 2.85356E+00
 -1      3829 2.64717E+00
 -1      3830 2.57159E-03
 -1      3831 2.75861E-03
 -1      3832 2.65159E-03
 -1      3833 2.35896E-03
 -1      3834 5.47559E+00
 -1      3835 5.47559E+00
 -1      3836 2.95997E+00
 -1      3837 3.12429E+00
 -1      3838 4.13454E+00
 -1      3839 2.94130E+00
 -1      3840 2.51043E+00
 -1      3841 2.88445E+00
 -1      3842 3.53798E+00
 -1      3843 4.57437E+00
 -1      3844 5.32772E+00
 -1      3845 4.15885E+00
 -1      3846 4.43251E+00
 -1      3847 4.42731E+00
 -1      3848 2.44434E-03
 -1      3849 2.50873E+00
 -1      3850 3.52764E+00
 -1      3851 4.16505E+00
 -1      3852 1.79696E+00
 -1      3853 1.95570E+00
 -1      3854 2.95997E+00
 -1      3855 1.79696E+00
 -1      3856 5.38661E+00
 -1      3857 4.87935E+00
 -1      3858 4.27950E+00
 -1      3859 3.85773E+00
 -1      3860 2.56303E+00
 -1      3861 2.43602E+00
 -1      3862 1.89560E-03
 -1      3863 2.97380E+00
 -1      3864 3.47396E+00
 -1      3865 3.84514E+00
 -1      3866 3.46799E+00
 -1      3867 3.95670E+00
 -1      3868 3.54406E+00
 -1      3869 5.79256E+00
 -1      3870 5.27174E+00
 -1      3871 4.76820E+00
 -1      3872 2.67523E-03
 -1      3873 2.83567E-03
 -1      3874 2.78964E-03
 -1      3875 7.50697E+00
 -1      3876 6.94162E+00
 -1      3877 2.79694E-03
 -1      3878 2.69109E-03
 -1      3879 2.46583E-03
 -1      3880 2.50856E-03
 -1      3881 2.21420E-03
 -1      3882 2.35896E-03
 -1      3883 2.16294E-03
 -1      3884 1.28160E+00
 -1      3885 1.34163E+00
 -1      3886 1.50003E+00
 -1      3887 4.37013E+00
 -1      3888 5.47559E+00
 -1      3889 4.28115E+00
 -1      3890 2.44973E-03
 -1      3891 2.08361E-03
 -1      3892 2.49975E-03
 -1      3893 3.34811E+00
 -1      3894 1.71964E-03
 -1      3895 1.71761E-03
 -1      3896 2.11968E-03
 -1      3897 7.66662E+00
 -1      3898 6.44897E+00
 -1      3899 5.92658E+00
 -1      3900 5.10162E+00
 -1      3901 4.74140E+00
 -1      3902 5.29065E+00
 -1      3903 3.99616E+00
 -1      3904 2.98978E+00
 -1      3905 4.78949E+00
 -1      3906 1.81500E+00
 -1      3907 2.05617E+00
 -1      3908 1.83257E+00
 -1      3909 4.01099E+00
 -1      3910 4.95991E+00
 -1      3911 6.16550E+00
 -1      3912 2.54012E+00
 -1      3913 2.37639E+00
 -1      3914 2.60452E+00
 -1      3915 6.16550E+00
 -1      3916 5.07296E+00
 -1      3917 4.57437E+00
 -1      3918 4.30483E+00
 -1      3919 4.91399E+00
 -1      3920 2.73067E+00
 -1      3921 4.70665E+00
 -1      3922 4.15778E+00
 -1      3923 3.62807E+00
 -1      3924 2.42997E+00
 -1      3925 1.73725E-03
 -1      3926 1.95333E-03
 -1      3927 2.00459E-03
 -1      3928 1.77534E-03
 -1      3929 3.84197E+00
 -1      3930 3.39894E+00
 -1      3931 3.55194E+00
 -1      3932 2.13694E+00
 -1      3933 1.78417E+00
 -1      3934 2.62624E+00
 -1      3935 1.21296E+00
 -1      3936 1.05449E+00
 -1      3937 1.76201E+00
 -1      3938 9.18180E-01
 -1      3939 8.15832E-01
 -1      3940 1.05449E+00
 -1      3941 7.08177E-01
 -1      3942 6.41732E-01
 -1      3943 8.10525E-01
 -1      3944 5.59750E-01
 -1      3945 5.01986E-01
 -1      3946 6.20889E-01
 -1      3947 4.38186E-01
 -1      3948 3.89099E-01
 -1      3949 4.75107E-01
 -1      3950 3.39884E-01
 -1      3951 2.99101E-01
 -1      3952 3.62093E-01
 -1      3953 2.61170E-01
 -1      3954 2.27876E-01
 -1      3955 2.74946E-01
 -1      3956 1.98464E-01
 -1      3957 1.71622E-01
 -1      3958 2.07603E-01
 -1      3959 1.48569E-01
 -1      3960 1.27224E-01
 -1      3961 1.55137E-01
 -1      3962 1.09351E-01
 -1      3963 9.26210E-02
 -1      3964 1.14211E-01
 -1      3965 7.92856E-02
 -1      3966 6.63899E-02
 -1      3967 8.30036E-02
 -1      3968 5.60934E-02
 -1      3969 4.63193E-02
 -1      3970 5.93717E-02
 -1      3971 3.85880E-02
 -1      3972 3.16033E-02
 -1      3973 4.13439E-02
 -1      3974 2.60836E-02
 -1      3975 2.10605E-02
 -1      3976 2.80928E-02
 -1      3977 1.75879E-02
 -1      3978 1.39370E-02
 -1      3979 1.91004E-02
 -1      3980 1.13476E-02
 -1      3981 8.75653E-03
 -1      3982 1.30383E-02
 -1      3983 6.84586E-03
 -1      3984 5.24892E-03
 -1      3985 8.53817E-03
 -1      3986 3.87033E-03
 -1      3987 3.01889E-03
 -1      3988 5.24892E-03
 -1      3989 2.04951E-03
 -1      3990 2.37065E-03
 -1      3991 2.90095E-03
 -1      3992 2.43569E-03
 -1      3993 2.52151E-03
 -1      3994 1.99661E-03
 -1      3995 2.63358E-03
 -1      3996 2.56750E-03
 -1      3997 2.17372E-03
 -1      3998 3.44406E-01
 -1      3999 3.99891E-01
 -1      4000 4.53410E-01
 -1      4001 5.25528E-01
 -1      4002 3.98391E-01
 -1      4003 4.88310E+00
 -1      4004 7.86662E-01
 -1      4005 9.14051E-01
 -1      4006 2.60361E-01
 -1      4007 3.03315E-01
 -1      4008 3.03781E-01
 -1      4009 1.95116E-01
 -1      4010 2.28444E-01
 -1      4011 2.30773E-01
 -1      4012 1.44095E-01
 -1      4013 1.69844E-01
 -1      4014 1.73583E-01
 -1      4015 1.04795E-01
 -1      4016 1.24470E-01
 -1      4017 1.28686E-01
 -1      4018 7.47418E-02
 -1      4019 8.96923E-02
 -1      4020 9.39583E-02
 -1      4021 5.22184E-02
 -1      4022 6.33039E-02
 -1      4023 6.74175E-02
 -1      4024 3.58017E-02
 -1      4025 4.35203E-02
 -1      4026 4.72815E-02
 -1      4027 2.39151E-02
 -1      4028 2.96048E-02
 -1      4029 3.23865E-02
 -1      4030 1.54031E-02
 -1      4031 1.95078E-02
 -1      4032 2.17823E-02
 -1      4033 9.32606E-03
 -1      4034 1.22007E-02
 -1      4035 1.41726E-02
 -1      4036 5.38201E-03
 -1      4037 7.25835E-03
 -1      4038 8.90255E-03
 -1      4039 3.34526E-03
 -1      4040 3.94800E-03
 -1      4041 5.40084E-03
 -1      4042 2.64918E-03
 -1      4043 2.35940E-03
 -1      4044 2.98097E-03
 -1      4045 2.87187E-03
 -1      4046 2.82319E-03
 -1      4047 2.16912E-03
 -1      4048 2.87188E-03
 -1      4049 2.97574E-03
 -1      4050 2.44700E-03
 -1      4051 2.64040E-03
 -1      4052 2.83712E-03
 -1      4053 2.51611E-03
 -1      4054 4.55566E+00
 -1      4055 2.41312E-03
 -1      4056 2.56098E-03
 -1      4057 2.40193E-03
 -1      4058 2.26835E-03
 -1      4059 4.13454E+00
 -1      4060 3.98855E+00
 -1      4061 4.13454E+00
 -1      4062 4.69584E+00
 -1      4063 5.24508E+00
 -1      4064 5.96151E-01
 -1      4065 6.91985E-01
 -1      4066 5.22533E-01
 -1      4067 3.37770E+00
 -1      4068 3.02256E+00
 -1      4069 6.44897E+00
 -1      4070 3.10325E+00
 -1      4071 3.63141E+00
 -1      4072 5.24508E+00
 -1      4073 4.43343E+00
 -1      4074 3.96424E+00
 -1      4075 6.44897E+00
 -1      4076 2.39035E-03
 -1      4077 2.67206E-03
 -1      4078 2.49809E-03
 -1      4079 2.52012E+00
 -1      4080 1.92879E+00
 -1      4081 2.30137E+00
 -1      4082 1.61383E+00
 -1      4083 4.35169E+00
 -1      4084 5.04922E+00
 -1      4085 6.87834E-01
 -1      4086 2.79722E+00
 -1      4087 1.11429E+00
 -1      4088 1.35030E+00
 -1      4089 9.82750E-01
 -1      4090 3.63141E+00
 -1      4091 5.22618E+00
 -1      4092 2.14575E-03
 -1      4093 1.78177E-03
 -1      4094 5.57162E+00
 -1      4095 3.55571E+00
 -1      4096 4.05940E+00
 -1      4097 3.64470E+00
 -1      4098 3.98668E+00
 -1      4099 2.48928E-03
 -1      4100 2.15138E-03
 -1      4101 3.52741E-01
 -1      4102 4.06260E-01
 -1      4103 5.24508E+00
 -1      4104 5.19952E+00
 -1      4105 4.76820E+00
 -1      4106 3.21350E+00
 -1      4107 3.40014E+00
 -1      4108 2.25667E+00
 -1      4109 1.68546E+00
 -1      4110 1.13732E+00
 -1      4111 1.00101E+00
 -1      4112 1.63199E+00
 -1      4113 8.53389E-01
 -1      4114 7.45734E-01
 -1      4115 9.36223E-01
 -1      4116 6.51184E-01
 -1      4117 5.69202E-01
 -1      4118 6.94048E-01
 -1      4119 4.81425E-01
 -1      4120 4.17625E-01
 -1      4121 5.11720E-01
 -1      4122 3.62108E-01
 -1      4123 3.12893E-01
 -1      4124 3.68425E-01
 -1      4125 2.77456E-01
 -1      4126 2.39524E-01
 -1      4127 2.77471E-01
 -1      4128 2.12677E-01
 -1      4129 1.83265E-01
 -1      4130 2.15187E-01
 -1      4131 1.61427E-01
 -1      4132 1.38374E-01
 -1      4133 1.66502E-01
 -1      4134 1.31195E-01
 -1      4135 1.13323E-01
 -1      4136 1.37486E-01
 -1      4137 9.01956E-02
 -1      4138 7.68602E-02
 -1      4139 1.07180E-01
 -1      4140 6.54906E-02
 -1      4141 5.51942E-02
 -1      4142 7.26826E-02
 -1      4143 4.59278E-02
 -1      4144 3.81965E-02
 -1      4145 5.20467E-02
 -1      4146 3.16764E-02
 -1      4147 2.61566E-02
 -1      4148 3.62603E-02
 -1      4149 2.15671E-02
 -1      4150 1.80944E-02
 -1      4151 2.51506E-02
 -1      4152 1.48077E-02
 -1      4153 1.22183E-02
 -1      4154 1.72744E-02
 -1      4155 9.77766E-03
 -1      4156 7.86699E-03
 -1      4157 1.15471E-02
 -1      4158 6.09133E-03
 -1      4159 4.71274E-03
 -1      4160 7.33081E-03
 -1      4161 3.45066E-03
 -1      4162 2.48128E-03
 -1      4163 4.29307E-03
 -1      4164 1.60872E-03
 -1      4165 1.67376E-03
 -1      4166 2.15843E-03
 -1      4167 1.82302E-03
 -1      4168 1.93509E-03
 -1      4169 1.43513E-03
 -1      4170 2.17049E-01
 -1      4171 2.48966E-01
 -1      4172 6.10093E-01
 -1      4173 7.04769E-01
 -1      4174 2.04562E-03
 -1      4175 1.70208E-03
 -1      4176 1.94106E-03
 -1      4177 1.63499E-01
 -1      4178 1.88771E-01
 -1      4179 2.06964E-01
 -1      4180 2.78826E-01
 -1      4181 3.19917E-01
 -1      4182 3.27787E-01
 -1      4183 2.65102E-01
 -1      4184 1.13404E-01
 -1      4185 1.33028E-01
 -1      4186 1.48216E-01
 -1      4187 8.36588E-02
 -1      4188 9.87616E-02
 -1      4189 1.03104E-01
 -1      4190 6.48631E-02
 -1      4191 7.63011E-02
 -1      4192 8.11044E-02
 -1      4193 4.75943E-02
 -1      4194 5.62924E-02
 -1      4195 6.51760E-02
 -1      4196 3.36294E-02
 -1      4197 3.98262E-02
 -1      4198 4.88372E-02
 -1      4199 2.32222E-02
 -1      4200 2.76295E-02
 -1      4201 3.50692E-02
 -1      4202 1.53896E-02
 -1      4203 1.85919E-02
 -1      4204 2.44391E-02
 -1      4205 9.86622E-03
 -1      4206 1.19339E-02
 -1      4207 1.63532E-02
 -1      4208 5.92181E-03
 -1      4209 7.35582E-03
 -1      4210 1.03872E-02
 -1      4211 3.16187E-03
 -1      4212 4.14773E-03
 -1      4213 6.10271E-03
 -1      4214 2.15057E-03
 -1      4215 1.97655E-03
 -1      4216 3.14331E-03
 -1      4217 2.14213E-03
 -1      4218 2.03826E-03
 -1      4219 1.84569E-03
 -1      4220 2.20986E-03
 -1      4221 2.24462E-03
 -1      4222 1.83588E-03
 -1      4223 2.26979E+00
 -1      4224 2.27380E+00
 -1      4225 2.43254E+00
 -1      4226 2.50539E-03
 -1      4227 4.57656E-01
 -1      4228 5.28279E-01
 -1      4229 5.45215E-01
 -1      4230 4.12006E-01
 -1      4231 4.05940E+00
 -1      4232 3.43681E+00
 -1      4233 2.91927E+00
 -1      4234 1.80141E-03
 -1      4235 1.77534E-03
 -1      4236 1.79499E-03
 -1      4237 2.37185E+00
 -1      4238 3.11057E+00
 -1      4239 1.81535E-03
 -1      4240 2.02496E-03
 -1      4241 2.07911E-03
 -1      4242 1.81535E-03
 -1      4243 1.44652E+00
 -1      4244 2.62624E+00
 -1      4245 3.55607E+00
 -1      4246 1.59036E-03
 -1      4247 7.87133E-01
 -1      4248 8.64874E-01
 -1      4249 1.06511E+00
 -1      4250 1.69566E-03
 -1      4251 5.57162E+00
 -1      4252 2.54969E+00
 -1      4253 2.38513E+00
 -1      4254 2.15853E-03
 -1      4255 1.78052E+00
 -1      4256 1.88704E-03
 -1      4257 3.43681E+00
 -1      4258 1.24027E-01
 -1      4259 1.54497E-01
 -1      4260 1.01554E+00
 -1      4261 8.67918E-01
 -1      4262 7.07813E-01
 -1      4263 6.13262E-01
 -1      4264 5.31449E-01
 -1      4265 4.43672E-01
 -1      4266 3.92277E-01
 -1      4267 3.36759E-01
 -1      4268 3.03935E-01
 -1      4269 2.68498E-01
 -1      4270 2.38638E-01
 -1      4271 2.11791E-01
 -1      4272 1.37486E-01
 -1      4273 1.30308E-01
 -1      4274 1.30308E-01
 -1      4275 1.07180E-01
 -1      4276 7.88995E-02
 -1      4277 6.75299E-02
 -1      4278 5.89592E-02
 -1      4279 4.96929E-02
 -1      4280 4.19248E-02
 -1      4281 3.54047E-02
 -1      4282 2.94048E-02
 -1      4283 2.48152E-02
 -1      4284 2.01850E-02
 -1      4285 1.68983E-02
 -1      4286 1.34426E-02
 -1      4287 1.10020E-02
 -1      4288 8.49163E-03
 -1      4289 6.71597E-03
 -1      4290 4.94189E-03
 -1      4291 3.67981E-03
 -1      4292 2.49449E-03
 -1      4293 1.62193E-03
 -1      4294 1.50963E-03
 -1      4295 1.65889E-03
 -1      4296 1.09385E-01
 -1      4297 1.24027E-01
 -1      4298 1.74995E+00
 -1      4299 1.20181E+00
 -1      4300 1.13351E+00
 -1      4301 1.76138E-03
 -1      4302 2.01556E+00
 -1      4303 1.86668E-03
 -1      4304 1.25139E+00
 -1      4305 1.51491E+00
 -1      4306 1.58539E+00
 -1      4307 1.13351E+00
 -1      4308 1.83513E-01
 -1      4309 1.76735E-03
 -1      4310 1.30308E-01
 -1      4311 1.61675E-01
 -1      4312 1.58539E+00
 -1      4313 8.62572E-02
 -1      4314 8.67918E-01
 -1      4315 1.31978E+00
 -1      4316 1.13351E+00
 -1      4317 9.47238E-01
 -3
 9999
