    1C
    1UUSER                                                              
    1UDATE              27.october.2022                                 
    1UTIME              01:07:10                                        
    1UHOST                                                              
    1UPGM               CalculiX                                        
    1UVERSION           Version 2.17                             
    1UCOMPILETIME       Thu Jul 23 21:43:50 CEST 2020                    
    1UDIR                                                               
    1UDBN                                                               
    1UMAT    1SOLIDMATERIAL                                             
    2C                          4301                                     1
 -1         1 6.60786E+01 3.14154E+01 0.00000E+00
 -1         2 7.83335E+01 2.67908E+01 0.00000E+00
 -1         3 1.50000E+02 0.00000E+00 0.00000E+00
 -1         4 1.50000E+02 5.00000E+01 0.00000E+00
 -1         5 0.00000E+00 0.00000E+00 0.00000E+00
 -1         6 0.00000E+00 5.00000E+01 0.00000E+00
 -1         7 0.00000E+00 4.70500E+01 0.00000E+00
 -1         8 0.00000E+00 4.41000E+01 0.00000E+00
 -1         9 0.00000E+00 4.11500E+01 0.00000E+00
 -1        10 0.00000E+00 3.82000E+01 0.00000E+00
 -1        11 0.00000E+00 3.52500E+01 0.00000E+00
 -1        12 0.00000E+00 3.23500E+01 0.00000E+00
 -1        13 0.00000E+00 2.94000E+01 0.00000E+00
 -1        14 0.00000E+00 2.64500E+01 0.00000E+00
 -1        15 0.00000E+00 2.35000E+01 0.00000E+00
 -1        16 0.00000E+00 2.05500E+01 0.00000E+00
 -1        17 0.00000E+00 1.76000E+01 0.00000E+00
 -1        18 0.00000E+00 1.47000E+01 0.00000E+00
 -1        19 0.00000E+00 1.17500E+01 0.00000E+00
 -1        20 0.00000E+00 8.80000E+00 0.00000E+00
 -1        21 0.00000E+00 5.85000E+00 0.00000E+00
 -1        22 0.00000E+00 2.90000E+00 0.00000E+00
 -1        23 3.15000E+00 5.00000E+01 0.00000E+00
 -1        24 6.15000E+00 5.00000E+01 0.00000E+00
 -1        25 9.15000E+00 5.00000E+01 0.00000E+00
 -1        26 1.21500E+01 5.00000E+01 0.00000E+00
 -1        27 1.51500E+01 5.00000E+01 0.00000E+00
 -1        28 1.81500E+01 5.00000E+01 0.00000E+00
 -1        29 2.11500E+01 5.00000E+01 0.00000E+00
 -1        30 2.41500E+01 5.00000E+01 0.00000E+00
 -1        31 2.71500E+01 5.00000E+01 0.00000E+00
 -1        32 3.01500E+01 5.00000E+01 0.00000E+00
 -1        33 3.31500E+01 5.00000E+01 0.00000E+00
 -1        34 3.61500E+01 5.00000E+01 0.00000E+00
 -1        35 3.91500E+01 5.00000E+01 0.00000E+00
 -1        36 4.21500E+01 5.00000E+01 0.00000E+00
 -1        37 4.51500E+01 5.00000E+01 0.00000E+00
 -1        38 4.81500E+01 5.00000E+01 0.00000E+00
 -1        39 5.11500E+01 5.00000E+01 0.00000E+00
 -1        40 5.41500E+01 5.00000E+01 0.00000E+00
 -1        41 5.71500E+01 5.00000E+01 0.00000E+00
 -1        42 6.01500E+01 5.00000E+01 0.00000E+00
 -1        43 6.31500E+01 5.00000E+01 0.00000E+00
 -1        44 6.61500E+01 5.00000E+01 0.00000E+00
 -1        45 6.91500E+01 5.00000E+01 0.00000E+00
 -1        46 7.21500E+01 5.00000E+01 0.00000E+00
 -1        47 7.51500E+01 5.00000E+01 0.00000E+00
 -1        48 7.81500E+01 5.00000E+01 0.00000E+00
 -1        49 8.11500E+01 5.00000E+01 0.00000E+00
 -1        50 8.41500E+01 5.00000E+01 0.00000E+00
 -1        51 8.71500E+01 5.00000E+01 0.00000E+00
 -1        52 9.01500E+01 5.00000E+01 0.00000E+00
 -1        53 9.31500E+01 5.00000E+01 0.00000E+00
 -1        54 9.61500E+01 5.00000E+01 0.00000E+00
 -1        55 9.91500E+01 5.00000E+01 0.00000E+00
 -1        56 1.02150E+02 5.00000E+01 0.00000E+00
 -1        57 1.05150E+02 5.00000E+01 0.00000E+00
 -1        58 1.08150E+02 5.00000E+01 0.00000E+00
 -1        59 1.11150E+02 5.00000E+01 0.00000E+00
 -1        60 1.14150E+02 5.00000E+01 0.00000E+00
 -1        61 1.17150E+02 5.00000E+01 0.00000E+00
 -1        62 1.20150E+02 5.00000E+01 0.00000E+00
 -1        63 1.23150E+02 5.00000E+01 0.00000E+00
 -1        64 1.26150E+02 5.00000E+01 0.00000E+00
 -1        65 1.29150E+02 5.00000E+01 0.00000E+00
 -1        66 1.32150E+02 5.00000E+01 0.00000E+00
 -1        67 1.35150E+02 5.00000E+01 0.00000E+00
 -1        68 1.38150E+02 5.00000E+01 0.00000E+00
 -1        69 1.41150E+02 5.00000E+01 0.00000E+00
 -1        70 1.44150E+02 5.00000E+01 0.00000E+00
 -1        71 1.47150E+02 5.00000E+01 0.00000E+00
 -1        72 3.15000E+00 0.00000E+00 0.00000E+00
 -1        73 6.15000E+00 0.00000E+00 0.00000E+00
 -1        74 9.15000E+00 0.00000E+00 0.00000E+00
 -1        75 1.21500E+01 0.00000E+00 0.00000E+00
 -1        76 1.51500E+01 0.00000E+00 0.00000E+00
 -1        77 1.81500E+01 0.00000E+00 0.00000E+00
 -1        78 2.11500E+01 0.00000E+00 0.00000E+00
 -1        79 2.41500E+01 0.00000E+00 0.00000E+00
 -1        80 2.71500E+01 0.00000E+00 0.00000E+00
 -1        81 3.01500E+01 0.00000E+00 0.00000E+00
 -1        82 3.31500E+01 0.00000E+00 0.00000E+00
 -1        83 3.61500E+01 0.00000E+00 0.00000E+00
 -1        84 3.91500E+01 0.00000E+00 0.00000E+00
 -1        85 4.21500E+01 0.00000E+00 0.00000E+00
 -1        86 4.51500E+01 0.00000E+00 0.00000E+00
 -1        87 4.81500E+01 0.00000E+00 0.00000E+00
 -1        88 5.11500E+01 0.00000E+00 0.00000E+00
 -1        89 5.41500E+01 0.00000E+00 0.00000E+00
 -1        90 5.71500E+01 0.00000E+00 0.00000E+00
 -1        91 6.01500E+01 0.00000E+00 0.00000E+00
 -1        92 6.31500E+01 0.00000E+00 0.00000E+00
 -1        93 6.61500E+01 0.00000E+00 0.00000E+00
 -1        94 6.91500E+01 0.00000E+00 0.00000E+00
 -1        95 7.21500E+01 0.00000E+00 0.00000E+00
 -1        96 7.51500E+01 0.00000E+00 0.00000E+00
 -1        97 7.81500E+01 0.00000E+00 0.00000E+00
 -1        98 8.11500E+01 0.00000E+00 0.00000E+00
 -1        99 8.41500E+01 0.00000E+00 0.00000E+00
 -1       100 8.71500E+01 0.00000E+00 0.00000E+00
 -1       101 9.01500E+01 0.00000E+00 0.00000E+00
 -1       102 9.31500E+01 0.00000E+00 0.00000E+00
 -1       103 9.61500E+01 0.00000E+00 0.00000E+00
 -1       104 9.91500E+01 0.00000E+00 0.00000E+00
 -1       105 1.02150E+02 0.00000E+00 0.00000E+00
 -1       106 1.05150E+02 0.00000E+00 0.00000E+00
 -1       107 1.08150E+02 0.00000E+00 0.00000E+00
 -1       108 1.11150E+02 0.00000E+00 0.00000E+00
 -1       109 1.14150E+02 0.00000E+00 0.00000E+00
 -1       110 1.17150E+02 0.00000E+00 0.00000E+00
 -1       111 1.20150E+02 0.00000E+00 0.00000E+00
 -1       112 1.23150E+02 0.00000E+00 0.00000E+00
 -1       113 1.26150E+02 0.00000E+00 0.00000E+00
 -1       114 1.29150E+02 0.00000E+00 0.00000E+00
 -1       115 1.32150E+02 0.00000E+00 0.00000E+00
 -1       116 1.35150E+02 0.00000E+00 0.00000E+00
 -1       117 1.38150E+02 0.00000E+00 0.00000E+00
 -1       118 1.41150E+02 0.00000E+00 0.00000E+00
 -1       119 1.44150E+02 0.00000E+00 0.00000E+00
 -1       120 1.47150E+02 0.00000E+00 0.00000E+00
 -1       121 1.50000E+02 2.95000E+00 0.00000E+00
 -1       122 1.50000E+02 5.90000E+00 0.00000E+00
 -1       123 1.50000E+02 8.85000E+00 0.00000E+00
 -1       124 1.50000E+02 1.18000E+01 0.00000E+00
 -1       125 1.50000E+02 1.47500E+01 0.00000E+00
 -1       126 1.50000E+02 1.76500E+01 0.00000E+00
 -1       127 1.50000E+02 2.06000E+01 0.00000E+00
 -1       128 1.50000E+02 2.35500E+01 0.00000E+00
 -1       129 1.50000E+02 2.65000E+01 0.00000E+00
 -1       130 1.50000E+02 2.94500E+01 0.00000E+00
 -1       131 1.50000E+02 3.24000E+01 0.00000E+00
 -1       132 1.50000E+02 3.53000E+01 0.00000E+00
 -1       133 1.50000E+02 3.82500E+01 0.00000E+00
 -1       134 1.50000E+02 4.12000E+01 0.00000E+00
 -1       135 1.50000E+02 4.41500E+01 0.00000E+00
 -1       136 1.50000E+02 4.71000E+01 0.00000E+00
 -1       137 7.81775E+01 2.53212E+01 0.00000E+00
 -1       138 7.77027E+01 2.38868E+01 0.00000E+00
 -1       139 7.69366E+01 2.25949E+01 0.00000E+00
 -1       140 7.59439E+01 2.15235E+01 0.00000E+00
 -1       141 7.47064E+01 2.06570E+01 0.00000E+00
 -1       142 7.33555E+01 2.00892E+01 0.00000E+00
 -1       143 7.19038E+01 1.98141E+01 0.00000E+00
 -1       144 7.03041E+01 1.98669E+01 0.00000E+00
 -1       145 6.88326E+01 2.02528E+01 0.00000E+00
 -1       146 6.74301E+01 2.09801E+01 0.00000E+00
 -1       147 6.62861E+01 2.19407E+01 0.00000E+00
 -1       148 6.53553E+01 2.31492E+01 0.00000E+00
 -1       149 6.47347E+01 2.44551E+01 0.00000E+00
 -1       150 6.43956E+01 2.58605E+01 0.00000E+00
 -1       151 6.43528E+01 2.73100E+01 0.00000E+00
 -1       152 6.46476E+01 2.88643E+01 0.00000E+00
 -1       153 6.52105E+01 3.01833E+01 0.00000E+00
 -1       154 6.71819E+01 3.24268E+01 0.00000E+00
 -1       155 6.84825E+01 3.31839E+01 0.00000E+00
 -1       156 6.98673E+01 3.36355E+01 0.00000E+00
 -1       157 7.14731E+01 3.37894E+01 0.00000E+00
 -1       158 7.29714E+01 3.35965E+01 0.00000E+00
 -1       159 7.44825E+01 3.30425E+01 0.00000E+00
 -1       160 7.57542E+01 3.22183E+01 0.00000E+00
 -1       161 7.69082E+01 3.10243E+01 0.00000E+00
 -1       162 7.76864E+01 2.97302E+01 0.00000E+00
 -1       163 7.81795E+01 2.82509E+01 0.00000E+00
 -1       164 2.59800E+00 4.55750E+01 0.00000E+00
 -1       165 2.59800E+00 4.26250E+01 0.00000E+00
 -1       166 2.59800E+00 3.96750E+01 0.00000E+00
 -1       167 2.59800E+00 3.67250E+01 0.00000E+00
 -1       168 2.59800E+00 3.38250E+01 0.00000E+00
 -1       169 2.59800E+00 3.08750E+01 0.00000E+00
 -1       170 2.59800E+00 2.79250E+01 0.00000E+00
 -1       171 2.59800E+00 2.49750E+01 0.00000E+00
 -1       172 2.59800E+00 2.20250E+01 0.00000E+00
 -1       173 2.59800E+00 1.90750E+01 0.00000E+00
 -1       174 2.59800E+00 1.61750E+01 0.00000E+00
 -1       175 2.59800E+00 1.32250E+01 0.00000E+00
 -1       176 2.59800E+00 1.02750E+01 0.00000E+00
 -1       177 2.59800E+00 7.32500E+00 0.00000E+00
 -1       178 2.59800E+00 4.37500E+00 0.00000E+00
 -1       179 2.87400E+00 2.18750E+00 0.00000E+00
 -1       180 4.65000E+00 4.74020E+01 0.00000E+00
 -1       181 7.65000E+00 4.74020E+01 0.00000E+00
 -1       182 1.06500E+01 4.74020E+01 0.00000E+00
 -1       183 1.36500E+01 4.74020E+01 0.00000E+00
 -1       184 1.66500E+01 4.74020E+01 0.00000E+00
 -1       185 1.96500E+01 4.74020E+01 0.00000E+00
 -1       186 2.26500E+01 4.74020E+01 0.00000E+00
 -1       187 2.56500E+01 4.74020E+01 0.00000E+00
 -1       188 2.86500E+01 4.74020E+01 0.00000E+00
 -1       189 3.16500E+01 4.74020E+01 0.00000E+00
 -1       190 3.46500E+01 4.74020E+01 0.00000E+00
 -1       191 3.76500E+01 4.74020E+01 0.00000E+00
 -1       192 4.06500E+01 4.74020E+01 0.00000E+00
 -1       193 4.36500E+01 4.74020E+01 0.00000E+00
 -1       194 4.66500E+01 4.74020E+01 0.00000E+00
 -1       195 4.96500E+01 4.74020E+01 0.00000E+00
 -1       196 5.26500E+01 4.74020E+01 0.00000E+00
 -1       197 5.56500E+01 4.74020E+01 0.00000E+00
 -1       198 5.86500E+01 4.74020E+01 0.00000E+00
 -1       199 6.16500E+01 4.74020E+01 0.00000E+00
 -1       200 6.46500E+01 4.74020E+01 0.00000E+00
 -1       201 6.76500E+01 4.74020E+01 0.00000E+00
 -1       202 7.06500E+01 4.74020E+01 0.00000E+00
 -1       203 7.36500E+01 4.74020E+01 0.00000E+00
 -1       204 7.66500E+01 4.74020E+01 0.00000E+00
 -1       205 7.96500E+01 4.74020E+01 0.00000E+00
 -1       206 8.26500E+01 4.74020E+01 0.00000E+00
 -1       207 8.56500E+01 4.74020E+01 0.00000E+00
 -1       208 8.86500E+01 4.74020E+01 0.00000E+00
 -1       209 9.16500E+01 4.74020E+01 0.00000E+00
 -1       210 9.46500E+01 4.74020E+01 0.00000E+00
 -1       211 9.76500E+01 4.74020E+01 0.00000E+00
 -1       212 1.00650E+02 4.74020E+01 0.00000E+00
 -1       213 1.03650E+02 4.74020E+01 0.00000E+00
 -1       214 1.06650E+02 4.74020E+01 0.00000E+00
 -1       215 1.09650E+02 4.74020E+01 0.00000E+00
 -1       216 1.12650E+02 4.74020E+01 0.00000E+00
 -1       217 1.15650E+02 4.74020E+01 0.00000E+00
 -1       218 1.18650E+02 4.74020E+01 0.00000E+00
 -1       219 1.21650E+02 4.74020E+01 0.00000E+00
 -1       220 1.24650E+02 4.74020E+01 0.00000E+00
 -1       221 1.27650E+02 4.74020E+01 0.00000E+00
 -1       222 1.30650E+02 4.74020E+01 0.00000E+00
 -1       223 1.33650E+02 4.74020E+01 0.00000E+00
 -1       224 1.36650E+02 4.74020E+01 0.00000E+00
 -1       225 1.39650E+02 4.74020E+01 0.00000E+00
 -1       226 1.42650E+02 4.74020E+01 0.00000E+00
 -1       227 1.45650E+02 4.74020E+01 0.00000E+00
 -1       228 5.87400E+00 2.18750E+00 0.00000E+00
 -1       229 8.87400E+00 2.18750E+00 0.00000E+00
 -1       230 1.18740E+01 2.18750E+00 0.00000E+00
 -1       231 1.48740E+01 2.18750E+00 0.00000E+00
 -1       232 1.78740E+01 2.18750E+00 0.00000E+00
 -1       233 2.08740E+01 2.18750E+00 0.00000E+00
 -1       234 2.38740E+01 2.18750E+00 0.00000E+00
 -1       235 2.68740E+01 2.18750E+00 0.00000E+00
 -1       236 2.98740E+01 2.18750E+00 0.00000E+00
 -1       237 3.28740E+01 2.18750E+00 0.00000E+00
 -1       238 3.58740E+01 2.18750E+00 0.00000E+00
 -1       239 3.88740E+01 2.18750E+00 0.00000E+00
 -1       240 4.18740E+01 2.18750E+00 0.00000E+00
 -1       241 4.48740E+01 2.18750E+00 0.00000E+00
 -1       242 4.78740E+01 2.18750E+00 0.00000E+00
 -1       243 5.08740E+01 2.18750E+00 0.00000E+00
 -1       244 5.38740E+01 2.18750E+00 0.00000E+00
 -1       245 5.68740E+01 2.18750E+00 0.00000E+00
 -1       246 5.98740E+01 2.18750E+00 0.00000E+00
 -1       247 6.28740E+01 2.18750E+00 0.00000E+00
 -1       248 6.58740E+01 2.18750E+00 0.00000E+00
 -1       249 6.88740E+01 2.18750E+00 0.00000E+00
 -1       250 7.18740E+01 2.18750E+00 0.00000E+00
 -1       251 7.48740E+01 2.18750E+00 0.00000E+00
 -1       252 7.78740E+01 2.18750E+00 0.00000E+00
 -1       253 8.08740E+01 2.18750E+00 0.00000E+00
 -1       254 8.38740E+01 2.18750E+00 0.00000E+00
 -1       255 8.68740E+01 2.18750E+00 0.00000E+00
 -1       256 8.98740E+01 2.18750E+00 0.00000E+00
 -1       257 9.28740E+01 2.18750E+00 0.00000E+00
 -1       258 9.58740E+01 2.18750E+00 0.00000E+00
 -1       259 9.88740E+01 2.18750E+00 0.00000E+00
 -1       260 1.01874E+02 2.18750E+00 0.00000E+00
 -1       261 1.04874E+02 2.18750E+00 0.00000E+00
 -1       262 1.07874E+02 2.18750E+00 0.00000E+00
 -1       263 1.10874E+02 2.18750E+00 0.00000E+00
 -1       264 1.13874E+02 2.18750E+00 0.00000E+00
 -1       265 1.16874E+02 2.18750E+00 0.00000E+00
 -1       266 1.19874E+02 2.18750E+00 0.00000E+00
 -1       267 1.22874E+02 2.18750E+00 0.00000E+00
 -1       268 1.25874E+02 2.18750E+00 0.00000E+00
 -1       269 1.28874E+02 2.18750E+00 0.00000E+00
 -1       270 1.31874E+02 2.18750E+00 0.00000E+00
 -1       271 1.34874E+02 2.18750E+00 0.00000E+00
 -1       272 1.37874E+02 2.18750E+00 0.00000E+00
 -1       273 1.40874E+02 2.18750E+00 0.00000E+00
 -1       274 1.43874E+02 2.18750E+00 0.00000E+00
 -1       275 1.46874E+02 2.18750E+00 0.00000E+00
 -1       276 1.47402E+02 4.42500E+00 0.00000E+00
 -1       277 1.47402E+02 7.37500E+00 0.00000E+00
 -1       278 1.47402E+02 1.03250E+01 0.00000E+00
 -1       279 1.47402E+02 1.32750E+01 0.00000E+00
 -1       280 1.47402E+02 1.61750E+01 0.00000E+00
 -1       281 1.47402E+02 1.91250E+01 0.00000E+00
 -1       282 1.47402E+02 2.20750E+01 0.00000E+00
 -1       283 1.47402E+02 2.50250E+01 0.00000E+00
 -1       284 1.47402E+02 2.79750E+01 0.00000E+00
 -1       285 1.47402E+02 3.09250E+01 0.00000E+00
 -1       286 1.47402E+02 3.38250E+01 0.00000E+00
 -1       287 1.47402E+02 3.67750E+01 0.00000E+00
 -1       288 1.47402E+02 3.97250E+01 0.00000E+00
 -1       289 1.47402E+02 4.26750E+01 0.00000E+00
 -1       290 1.46526E+02 4.50385E+01 0.00000E+00
 -1       291 7.94611E+01 2.59280E+01 0.00000E+00
 -1       292 7.91706E+01 2.41967E+01 0.00000E+00
 -1       293 7.83624E+01 2.26224E+01 0.00000E+00
 -1       294 7.73296E+01 2.12352E+01 0.00000E+00
 -1       295 7.60686E+01 2.00285E+01 0.00000E+00
 -1       296 7.45008E+01 1.92554E+01 0.00000E+00
 -1       297 7.28710E+01 1.86781E+01 0.00000E+00
 -1       298 7.10584E+01 1.84613E+01 0.00000E+00
 -1       299 6.92608E+01 1.88871E+01 0.00000E+00
 -1       300 6.74961E+01 1.93914E+01 0.00000E+00
 -1       301 6.60246E+01 2.04677E+01 0.00000E+00
 -1       302 6.47938E+01 2.17540E+01 0.00000E+00
 -1       303 6.39499E+01 2.32817E+01 0.00000E+00
 -1       304 6.33051E+01 2.48538E+01 0.00000E+00
 -1       305 6.31623E+01 2.65495E+01 0.00000E+00
 -1       306 6.31444E+01 2.83444E+01 0.00000E+00
 -1       307 6.38139E+01 2.99997E+01 0.00000E+00
 -1       308 6.46535E+01 3.14977E+01 0.00000E+00
 -1       309 6.58110E+01 3.28148E+01 0.00000E+00
 -1       310 6.71801E+01 3.39255E+01 0.00000E+00
 -1       311 6.87990E+01 3.45624E+01 0.00000E+00
 -1       312 7.05466E+01 3.50027E+01 0.00000E+00
 -1       313 7.23771E+01 3.48954E+01 0.00000E+00
 -1       314 7.42019E+01 3.46151E+01 0.00000E+00
 -1       315 7.57777E+01 3.36478E+01 0.00000E+00
 -1       316 7.73234E+01 3.25803E+01 0.00000E+00
 -1       317 7.83363E+01 3.10021E+01 0.00000E+00
 -1       318 7.90831E+01 2.93740E+01 0.00000E+00
 -1       319 7.94622E+01 2.76480E+01 0.00000E+00
 -1       320 5.19600E+00 4.11500E+01 0.00000E+00
 -1       321 5.19600E+00 4.41000E+01 0.00000E+00
 -1       322 5.19600E+00 3.52750E+01 0.00000E+00
 -1       323 5.19600E+00 3.23250E+01 0.00000E+00
 -1       324 5.19600E+00 2.93750E+01 0.00000E+00
 -1       325 5.19600E+00 2.64250E+01 0.00000E+00
 -1       326 5.19600E+00 2.34750E+01 0.00000E+00
 -1       327 5.19600E+00 2.05250E+01 0.00000E+00
 -1       328 5.19600E+00 1.76250E+01 0.00000E+00
 -1       329 5.19600E+00 1.46750E+01 0.00000E+00
 -1       330 5.19600E+00 1.17250E+01 0.00000E+00
 -1       331 5.19600E+00 8.77500E+00 0.00000E+00
 -1       332 5.19600E+00 5.82500E+00 0.00000E+00
 -1       333 5.53500E+00 4.00625E+00 0.00000E+00
 -1       334 8.53500E+00 4.00625E+00 0.00000E+00
 -1       335 9.15000E+00 4.48040E+01 0.00000E+00
 -1       336 1.21500E+01 4.48040E+01 0.00000E+00
 -1       337 1.51500E+01 4.48040E+01 0.00000E+00
 -1       338 1.81500E+01 4.48040E+01 0.00000E+00
 -1       339 2.11500E+01 4.48040E+01 0.00000E+00
 -1       340 2.41500E+01 4.48040E+01 0.00000E+00
 -1       341 2.71500E+01 4.48040E+01 0.00000E+00
 -1       342 3.01500E+01 4.48040E+01 0.00000E+00
 -1       343 3.31500E+01 4.48040E+01 0.00000E+00
 -1       344 3.61500E+01 4.48040E+01 0.00000E+00
 -1       345 3.91500E+01 4.48040E+01 0.00000E+00
 -1       346 4.21500E+01 4.48040E+01 0.00000E+00
 -1       347 4.51500E+01 4.48040E+01 0.00000E+00
 -1       348 4.81500E+01 4.48040E+01 0.00000E+00
 -1       349 5.11500E+01 4.48040E+01 0.00000E+00
 -1       350 5.41500E+01 4.48040E+01 0.00000E+00
 -1       351 5.71500E+01 4.48040E+01 0.00000E+00
 -1       352 6.01500E+01 4.48040E+01 0.00000E+00
 -1       353 6.31500E+01 4.48040E+01 0.00000E+00
 -1       354 6.61500E+01 4.48040E+01 0.00000E+00
 -1       355 6.91500E+01 4.48040E+01 0.00000E+00
 -1       356 7.21500E+01 4.48040E+01 0.00000E+00
 -1       357 7.51500E+01 4.48040E+01 0.00000E+00
 -1       358 7.81500E+01 4.48040E+01 0.00000E+00
 -1       359 8.11500E+01 4.48040E+01 0.00000E+00
 -1       360 8.41500E+01 4.48040E+01 0.00000E+00
 -1       361 8.71500E+01 4.48040E+01 0.00000E+00
 -1       362 9.01500E+01 4.48040E+01 0.00000E+00
 -1       363 9.31500E+01 4.48040E+01 0.00000E+00
 -1       364 9.61500E+01 4.48040E+01 0.00000E+00
 -1       365 9.91500E+01 4.48040E+01 0.00000E+00
 -1       366 1.02150E+02 4.48040E+01 0.00000E+00
 -1       367 1.05150E+02 4.48040E+01 0.00000E+00
 -1       368 1.08150E+02 4.48040E+01 0.00000E+00
 -1       369 1.11150E+02 4.48040E+01 0.00000E+00
 -1       370 1.14150E+02 4.48040E+01 0.00000E+00
 -1       371 1.17150E+02 4.48040E+01 0.00000E+00
 -1       372 1.20150E+02 4.48040E+01 0.00000E+00
 -1       373 1.23150E+02 4.48040E+01 0.00000E+00
 -1       374 1.26150E+02 4.48040E+01 0.00000E+00
 -1       375 1.29150E+02 4.48040E+01 0.00000E+00
 -1       376 1.32150E+02 4.48040E+01 0.00000E+00
 -1       377 1.35150E+02 4.48040E+01 0.00000E+00
 -1       378 1.38150E+02 4.48040E+01 0.00000E+00
 -1       379 1.41150E+02 4.48040E+01 0.00000E+00
 -1       380 1.43838E+02 4.49212E+01 0.00000E+00
 -1       381 1.15350E+01 4.00625E+00 0.00000E+00
 -1       382 1.45350E+01 4.00625E+00 0.00000E+00
 -1       383 1.75350E+01 4.00625E+00 0.00000E+00
 -1       384 2.05350E+01 4.00625E+00 0.00000E+00
 -1       385 2.35350E+01 4.00625E+00 0.00000E+00
 -1       386 2.65350E+01 4.00625E+00 0.00000E+00
 -1       387 2.95350E+01 4.00625E+00 0.00000E+00
 -1       388 3.25350E+01 4.00625E+00 0.00000E+00
 -1       389 3.55350E+01 4.00625E+00 0.00000E+00
 -1       390 3.85350E+01 4.00625E+00 0.00000E+00
 -1       391 4.15350E+01 4.00625E+00 0.00000E+00
 -1       392 4.45350E+01 4.00625E+00 0.00000E+00
 -1       393 4.75350E+01 4.00625E+00 0.00000E+00
 -1       394 5.05350E+01 4.00625E+00 0.00000E+00
 -1       395 5.35350E+01 4.00625E+00 0.00000E+00
 -1       396 5.65350E+01 4.00625E+00 0.00000E+00
 -1       397 5.95350E+01 4.00625E+00 0.00000E+00
 -1       398 6.25350E+01 4.00625E+00 0.00000E+00
 -1       399 6.55350E+01 4.00625E+00 0.00000E+00
 -1       400 6.85350E+01 4.00625E+00 0.00000E+00
 -1       401 7.15350E+01 4.00625E+00 0.00000E+00
 -1       402 7.45350E+01 4.00625E+00 0.00000E+00
 -1       403 7.75350E+01 4.00625E+00 0.00000E+00
 -1       404 8.05350E+01 4.00625E+00 0.00000E+00
 -1       405 8.35350E+01 4.00625E+00 0.00000E+00
 -1       406 8.65350E+01 4.00625E+00 0.00000E+00
 -1       407 8.95350E+01 4.00625E+00 0.00000E+00
 -1       408 9.25350E+01 4.00625E+00 0.00000E+00
 -1       409 9.55350E+01 4.00625E+00 0.00000E+00
 -1       410 9.85350E+01 4.00625E+00 0.00000E+00
 -1       411 1.01535E+02 4.00625E+00 0.00000E+00
 -1       412 1.04535E+02 4.00625E+00 0.00000E+00
 -1       413 1.07535E+02 4.00625E+00 0.00000E+00
 -1       414 1.10535E+02 4.00625E+00 0.00000E+00
 -1       415 1.13535E+02 4.00625E+00 0.00000E+00
 -1       416 1.16535E+02 4.00625E+00 0.00000E+00
 -1       417 1.19535E+02 4.00625E+00 0.00000E+00
 -1       418 1.22535E+02 4.00625E+00 0.00000E+00
 -1       419 1.25535E+02 4.00625E+00 0.00000E+00
 -1       420 1.28535E+02 4.00625E+00 0.00000E+00
 -1       421 1.31535E+02 4.00625E+00 0.00000E+00
 -1       422 1.34535E+02 4.00625E+00 0.00000E+00
 -1       423 1.37535E+02 4.00625E+00 0.00000E+00
 -1       424 1.40535E+02 4.00625E+00 0.00000E+00
 -1       425 1.43535E+02 4.00625E+00 0.00000E+00
 -1       426 1.45469E+02 4.21562E+00 0.00000E+00
 -1       427 1.44804E+02 1.18000E+01 0.00000E+00
 -1       428 1.44804E+02 8.85000E+00 0.00000E+00
 -1       429 1.45136E+02 6.53281E+00 0.00000E+00
 -1       430 1.44804E+02 1.47000E+01 0.00000E+00
 -1       431 1.44804E+02 1.76500E+01 0.00000E+00
 -1       432 1.44804E+02 2.06000E+01 0.00000E+00
 -1       433 1.44804E+02 2.35500E+01 0.00000E+00
 -1       434 1.44804E+02 2.65000E+01 0.00000E+00
 -1       435 1.44804E+02 2.94500E+01 0.00000E+00
 -1       436 1.44804E+02 3.23500E+01 0.00000E+00
 -1       437 1.44804E+02 3.53000E+01 0.00000E+00
 -1       438 1.44804E+02 3.82500E+01 0.00000E+00
 -1       439 1.44804E+02 4.12000E+01 0.00000E+00
 -1       440 8.00687E+01 2.27411E+01 0.00000E+00
 -1       441 8.08416E+01 2.67871E+01 0.00000E+00
 -1       442 8.08420E+01 2.48063E+01 0.00000E+00
 -1       443 7.92217E+01 2.09045E+01 0.00000E+00
 -1       444 7.76532E+01 1.96349E+01 0.00000E+00
 -1       445 5.19600E+00 3.82125E+01 0.00000E+00
 -1       446 7.42026E+01 1.75080E+01 0.00000E+00
 -1       447 7.21485E+01 1.70331E+01 0.00000E+00
 -1       448 6.98415E+01 1.73314E+01 0.00000E+00
 -1       449 6.79993E+01 1.78124E+01 0.00000E+00
 -1       450 6.58962E+01 1.87481E+01 0.00000E+00
 -1       451 6.42305E+01 1.99831E+01 0.00000E+00
 -1       452 6.31639E+01 2.18507E+01 0.00000E+00
 -1       453 6.23508E+01 2.35440E+01 0.00000E+00
 -1       454 6.18586E+01 2.55858E+01 0.00000E+00
 -1       455 6.16059E+01 2.74315E+01 0.00000E+00
 -1       456 6.20446E+01 2.97523E+01 0.00000E+00
 -1       457 6.31030E+01 3.13824E+01 0.00000E+00
 -1       458 6.42586E+01 3.30119E+01 0.00000E+00
 -1       459 6.55733E+01 3.45068E+01 0.00000E+00
 -1       460 6.75150E+01 3.54502E+01 0.00000E+00
 -1       461 6.93560E+01 3.60394E+01 0.00000E+00
 -1       462 7.15524E+01 3.64940E+01 0.00000E+00
 -1       463 7.33772E+01 3.62137E+01 0.00000E+00
 -1       464 7.58871E+01 3.55931E+01 0.00000E+00
 -1       465 7.74328E+01 3.45257E+01 0.00000E+00
 -1       466 7.91323E+01 3.26270E+01 0.00000E+00
 -1       467 7.99640E+01 3.07634E+01 0.00000E+00
 -1       468 8.05387E+01 2.87890E+01 0.00000E+00
 -1       469 7.58950E+01 1.84043E+01 0.00000E+00
 -1       470 1.00350E+01 6.60425E+00 0.00000E+00
 -1       471 7.79400E+00 3.08500E+01 0.00000E+00
 -1       472 7.79400E+00 3.38000E+01 0.00000E+00
 -1       473 7.79400E+00 2.49500E+01 0.00000E+00
 -1       474 7.79400E+00 2.20000E+01 0.00000E+00
 -1       475 7.79400E+00 1.91000E+01 0.00000E+00
 -1       476 7.79400E+00 1.61500E+01 0.00000E+00
 -1       477 7.79400E+00 1.32000E+01 0.00000E+00
 -1       478 7.79400E+00 1.02500E+01 0.00000E+00
 -1       479 1.30350E+01 6.60425E+00 0.00000E+00
 -1       480 1.06500E+01 4.22060E+01 0.00000E+00
 -1       481 7.76614E+01 1.77517E+01 0.00000E+00
 -1       482 1.36500E+01 4.22060E+01 0.00000E+00
 -1       483 1.66500E+01 4.22060E+01 0.00000E+00
 -1       484 1.96500E+01 4.22060E+01 0.00000E+00
 -1       485 2.26500E+01 4.22060E+01 0.00000E+00
 -1       486 2.56500E+01 4.22060E+01 0.00000E+00
 -1       487 2.86500E+01 4.22060E+01 0.00000E+00
 -1       488 3.16500E+01 4.22060E+01 0.00000E+00
 -1       489 3.46500E+01 4.22060E+01 0.00000E+00
 -1       490 3.76500E+01 4.22060E+01 0.00000E+00
 -1       491 4.06500E+01 4.22060E+01 0.00000E+00
 -1       492 4.36500E+01 4.22060E+01 0.00000E+00
 -1       493 4.66500E+01 4.22060E+01 0.00000E+00
 -1       494 4.96500E+01 4.22060E+01 0.00000E+00
 -1       495 5.26500E+01 4.22060E+01 0.00000E+00
 -1       496 5.56500E+01 4.22060E+01 0.00000E+00
 -1       497 5.86500E+01 4.22060E+01 0.00000E+00
 -1       498 6.16500E+01 4.22060E+01 0.00000E+00
 -1       499 6.46500E+01 4.22060E+01 0.00000E+00
 -1       500 6.76500E+01 4.22060E+01 0.00000E+00
 -1       501 7.06500E+01 4.22060E+01 0.00000E+00
 -1       502 7.36500E+01 4.22060E+01 0.00000E+00
 -1       503 7.66500E+01 4.22060E+01 0.00000E+00
 -1       504 7.96500E+01 4.22060E+01 0.00000E+00
 -1       505 8.26500E+01 4.22060E+01 0.00000E+00
 -1       506 8.56500E+01 4.22060E+01 0.00000E+00
 -1       507 8.86500E+01 4.22060E+01 0.00000E+00
 -1       508 9.16500E+01 4.22060E+01 0.00000E+00
 -1       509 9.46500E+01 4.22060E+01 0.00000E+00
 -1       510 9.76500E+01 4.22060E+01 0.00000E+00
 -1       511 1.00650E+02 4.22060E+01 0.00000E+00
 -1       512 1.03650E+02 4.22060E+01 0.00000E+00
 -1       513 1.06650E+02 4.22060E+01 0.00000E+00
 -1       514 1.09650E+02 4.22060E+01 0.00000E+00
 -1       515 1.12650E+02 4.22060E+01 0.00000E+00
 -1       516 1.15650E+02 4.22060E+01 0.00000E+00
 -1       517 1.18650E+02 4.22060E+01 0.00000E+00
 -1       518 1.21650E+02 4.22060E+01 0.00000E+00
 -1       519 1.24650E+02 4.22060E+01 0.00000E+00
 -1       520 1.27650E+02 4.22060E+01 0.00000E+00
 -1       521 1.30650E+02 4.22060E+01 0.00000E+00
 -1       522 1.33650E+02 4.22060E+01 0.00000E+00
 -1       523 1.36650E+02 4.22060E+01 0.00000E+00
 -1       524 1.39650E+02 4.22060E+01 0.00000E+00
 -1       525 1.90350E+01 6.60425E+00 0.00000E+00
 -1       526 2.20350E+01 6.60425E+00 0.00000E+00
 -1       527 2.50350E+01 6.60425E+00 0.00000E+00
 -1       528 2.80350E+01 6.60425E+00 0.00000E+00
 -1       529 3.10350E+01 6.60425E+00 0.00000E+00
 -1       530 3.40350E+01 6.60425E+00 0.00000E+00
 -1       531 3.70350E+01 6.60425E+00 0.00000E+00
 -1       532 4.00350E+01 6.60425E+00 0.00000E+00
 -1       533 4.30350E+01 6.60425E+00 0.00000E+00
 -1       534 4.60350E+01 6.60425E+00 0.00000E+00
 -1       535 4.90350E+01 6.60425E+00 0.00000E+00
 -1       536 5.20350E+01 6.60425E+00 0.00000E+00
 -1       537 5.50350E+01 6.60425E+00 0.00000E+00
 -1       538 5.80350E+01 6.60425E+00 0.00000E+00
 -1       539 6.10350E+01 6.60425E+00 0.00000E+00
 -1       540 6.40350E+01 6.60425E+00 0.00000E+00
 -1       541 6.70350E+01 6.60425E+00 0.00000E+00
 -1       542 7.00350E+01 6.60425E+00 0.00000E+00
 -1       543 7.30350E+01 6.60425E+00 0.00000E+00
 -1       544 7.60350E+01 6.60425E+00 0.00000E+00
 -1       545 7.90350E+01 6.60425E+00 0.00000E+00
 -1       546 8.20350E+01 6.60425E+00 0.00000E+00
 -1       547 8.50350E+01 6.60425E+00 0.00000E+00
 -1       548 8.80350E+01 6.60425E+00 0.00000E+00
 -1       549 9.10350E+01 6.60425E+00 0.00000E+00
 -1       550 9.40350E+01 6.60425E+00 0.00000E+00
 -1       551 9.70350E+01 6.60425E+00 0.00000E+00
 -1       552 1.00035E+02 6.60425E+00 0.00000E+00
 -1       553 1.03035E+02 6.60425E+00 0.00000E+00
 -1       554 1.06035E+02 6.60425E+00 0.00000E+00
 -1       555 1.09035E+02 6.60425E+00 0.00000E+00
 -1       556 1.12035E+02 6.60425E+00 0.00000E+00
 -1       557 1.15035E+02 6.60425E+00 0.00000E+00
 -1       558 1.18035E+02 6.60425E+00 0.00000E+00
 -1       559 1.21035E+02 6.60425E+00 0.00000E+00
 -1       560 1.24035E+02 6.60425E+00 0.00000E+00
 -1       561 1.27035E+02 6.60425E+00 0.00000E+00
 -1       562 1.30035E+02 6.60425E+00 0.00000E+00
 -1       563 1.33035E+02 6.60425E+00 0.00000E+00
 -1       564 1.36035E+02 6.60425E+00 0.00000E+00
 -1       565 1.39035E+02 6.60425E+00 0.00000E+00
 -1       566 1.42035E+02 6.60425E+00 0.00000E+00
 -1       567 1.42206E+02 1.61750E+01 0.00000E+00
 -1       568 1.42206E+02 1.91250E+01 0.00000E+00
 -1       569 1.42206E+02 1.03250E+01 0.00000E+00
 -1       570 1.42206E+02 1.32500E+01 0.00000E+00
 -1       571 1.42206E+02 2.20750E+01 0.00000E+00
 -1       572 1.42206E+02 2.50250E+01 0.00000E+00
 -1       573 1.42206E+02 2.79750E+01 0.00000E+00
 -1       574 1.42206E+02 3.08750E+01 0.00000E+00
 -1       575 1.42206E+02 3.38250E+01 0.00000E+00
 -1       576 1.42206E+02 3.67750E+01 0.00000E+00
 -1       577 1.42206E+02 3.97250E+01 0.00000E+00
 -1       578 8.25569E+01 2.57971E+01 0.00000E+00
 -1       579 8.15070E+01 2.09641E+01 0.00000E+00
 -1       580 1.60350E+01 6.60425E+00 0.00000E+00
 -1       581 8.23859E+01 2.80447E+01 0.00000E+00
 -1       582 8.22803E+01 2.30293E+01 0.00000E+00
 -1       583 7.92300E+00 4.16780E+01 0.00000E+00
 -1       584 8.17372E+01 3.02087E+01 0.00000E+00
 -1       585 7.01236E+01 3.78642E+01 0.00000E+00
 -1       586 7.79400E+00 2.79000E+01 0.00000E+00
 -1       587 7.07536E+01 1.53151E+01 0.00000E+00
 -1       588 8.09613E+01 3.23259E+01 0.00000E+00
 -1       589 7.35431E+01 1.56812E+01 0.00000E+00
 -1       590 6.85294E+01 1.60745E+01 0.00000E+00
 -1       591 6.63186E+01 1.68664E+01 0.00000E+00
 -1       592 6.41417E+01 1.81225E+01 0.00000E+00
 -1       593 6.22079E+01 2.00663E+01 0.00000E+00
 -1       594 6.13623E+01 2.20275E+01 0.00000E+00
 -1       595 6.07632E+01 2.42415E+01 0.00000E+00
 -1       596 6.01160E+01 2.62874E+01 0.00000E+00
 -1       597 6.02223E+01 2.88949E+01 0.00000E+00
 -1       598 6.13461E+01 3.13645E+01 0.00000E+00
 -1       599 6.24868E+01 3.30439E+01 0.00000E+00
 -1       600 6.36909E+01 3.48367E+01 0.00000E+00
 -1       601 6.57215E+01 3.66719E+01 0.00000E+00
 -1       602 6.80149E+01 3.70591E+01 0.00000E+00
 -1       603 7.27125E+01 3.79662E+01 0.00000E+00
 -1       604 7.50841E+01 3.77310E+01 0.00000E+00
 -1       605 7.76346E+01 3.64707E+01 0.00000E+00
 -1       606 7.95605E+01 3.47202E+01 0.00000E+00
 -1       607 7.59299E+01 1.62924E+01 0.00000E+00
 -1       608 7.61550E+00 6.21462E+00 0.00000E+00
 -1       609 7.94111E+01 1.90669E+01 0.00000E+00
 -1       610 7.79400E+00 3.67375E+01 0.00000E+00
 -1       611 5.95238E+01 3.05070E+01 0.00000E+00
 -1       612 1.41678E+02 4.22645E+01 0.00000E+00
 -1       613 1.03920E+01 2.05500E+01 0.00000E+00
 -1       614 1.03920E+01 2.35000E+01 0.00000E+00
 -1       615 1.03920E+01 1.46750E+01 0.00000E+00
 -1       616 1.03920E+01 1.17250E+01 0.00000E+00
 -1       617 1.15350E+01 9.20225E+00 0.00000E+00
 -1       618 6.17346E+01 3.48498E+01 0.00000E+00
 -1       619 7.52451E+01 1.40006E+01 0.00000E+00
 -1       620 7.99765E+01 3.71127E+01 0.00000E+00
 -1       621 1.51500E+01 3.96080E+01 0.00000E+00
 -1       622 1.81500E+01 3.96080E+01 0.00000E+00
 -1       623 2.11500E+01 3.96080E+01 0.00000E+00
 -1       624 2.41500E+01 3.96080E+01 0.00000E+00
 -1       625 2.71500E+01 3.96080E+01 0.00000E+00
 -1       626 3.01500E+01 3.96080E+01 0.00000E+00
 -1       627 3.31500E+01 3.96080E+01 0.00000E+00
 -1       628 3.61500E+01 3.96080E+01 0.00000E+00
 -1       629 3.91500E+01 3.96080E+01 0.00000E+00
 -1       630 4.21500E+01 3.96080E+01 0.00000E+00
 -1       631 4.51500E+01 3.96080E+01 0.00000E+00
 -1       632 4.81500E+01 3.96080E+01 0.00000E+00
 -1       633 5.11500E+01 3.96080E+01 0.00000E+00
 -1       634 5.41500E+01 3.96080E+01 0.00000E+00
 -1       635 5.71500E+01 3.96080E+01 0.00000E+00
 -1       636 6.01500E+01 3.96080E+01 0.00000E+00
 -1       637 6.31500E+01 3.96080E+01 0.00000E+00
 -1       638 6.61500E+01 3.96080E+01 0.00000E+00
 -1       639 8.11500E+01 3.96080E+01 0.00000E+00
 -1       640 8.41500E+01 3.96080E+01 0.00000E+00
 -1       641 8.71500E+01 3.96080E+01 0.00000E+00
 -1       642 9.01500E+01 3.96080E+01 0.00000E+00
 -1       643 9.31500E+01 3.96080E+01 0.00000E+00
 -1       644 9.61500E+01 3.96080E+01 0.00000E+00
 -1       645 9.91500E+01 3.96080E+01 0.00000E+00
 -1       646 1.02150E+02 3.96080E+01 0.00000E+00
 -1       647 1.05150E+02 3.96080E+01 0.00000E+00
 -1       648 1.08150E+02 3.96080E+01 0.00000E+00
 -1       649 1.11150E+02 3.96080E+01 0.00000E+00
 -1       650 1.14150E+02 3.96080E+01 0.00000E+00
 -1       651 1.17150E+02 3.96080E+01 0.00000E+00
 -1       652 1.20150E+02 3.96080E+01 0.00000E+00
 -1       653 1.23150E+02 3.96080E+01 0.00000E+00
 -1       654 1.26150E+02 3.96080E+01 0.00000E+00
 -1       655 1.29150E+02 3.96080E+01 0.00000E+00
 -1       656 1.32150E+02 3.96080E+01 0.00000E+00
 -1       657 1.35150E+02 3.96080E+01 0.00000E+00
 -1       658 1.38150E+02 3.96080E+01 0.00000E+00
 -1       659 2.35350E+01 9.20225E+00 0.00000E+00
 -1       660 1.39206E+02 1.03250E+01 0.00000E+00
 -1       661 2.05350E+01 9.20225E+00 0.00000E+00
 -1       662 2.95350E+01 9.20225E+00 0.00000E+00
 -1       663 3.25350E+01 9.20225E+00 0.00000E+00
 -1       664 3.55350E+01 9.20225E+00 0.00000E+00
 -1       665 3.85350E+01 9.20225E+00 0.00000E+00
 -1       666 4.15350E+01 9.20225E+00 0.00000E+00
 -1       667 4.45350E+01 9.20225E+00 0.00000E+00
 -1       668 4.75350E+01 9.20225E+00 0.00000E+00
 -1       669 5.05350E+01 9.20225E+00 0.00000E+00
 -1       670 5.35350E+01 9.20225E+00 0.00000E+00
 -1       671 5.65350E+01 9.20225E+00 0.00000E+00
 -1       672 5.95350E+01 9.20225E+00 0.00000E+00
 -1       673 6.25350E+01 9.20225E+00 0.00000E+00
 -1       674 6.55350E+01 9.20225E+00 0.00000E+00
 -1       675 6.85350E+01 9.20225E+00 0.00000E+00
 -1       676 7.15350E+01 9.20225E+00 0.00000E+00
 -1       677 7.45350E+01 9.20225E+00 0.00000E+00
 -1       678 7.75350E+01 9.20225E+00 0.00000E+00
 -1       679 8.05350E+01 9.20225E+00 0.00000E+00
 -1       680 8.35350E+01 9.20225E+00 0.00000E+00
 -1       681 8.65350E+01 9.20225E+00 0.00000E+00
 -1       682 8.95350E+01 9.20225E+00 0.00000E+00
 -1       683 9.25350E+01 9.20225E+00 0.00000E+00
 -1       684 9.55350E+01 9.20225E+00 0.00000E+00
 -1       685 9.85350E+01 9.20225E+00 0.00000E+00
 -1       686 1.01535E+02 9.20225E+00 0.00000E+00
 -1       687 1.04535E+02 9.20225E+00 0.00000E+00
 -1       688 1.07535E+02 9.20225E+00 0.00000E+00
 -1       689 1.10535E+02 9.20225E+00 0.00000E+00
 -1       690 1.13535E+02 9.20225E+00 0.00000E+00
 -1       691 1.16535E+02 9.20225E+00 0.00000E+00
 -1       692 1.19535E+02 9.20225E+00 0.00000E+00
 -1       693 1.22535E+02 9.20225E+00 0.00000E+00
 -1       694 1.25535E+02 9.20225E+00 0.00000E+00
 -1       695 1.28535E+02 9.20225E+00 0.00000E+00
 -1       696 1.31535E+02 9.20225E+00 0.00000E+00
 -1       697 1.34535E+02 9.20225E+00 0.00000E+00
 -1       698 1.36870E+02 9.76363E+00 0.00000E+00
 -1       699 8.19474E+01 1.83713E+01 0.00000E+00
 -1       700 1.39608E+02 2.35500E+01 0.00000E+00
 -1       701 1.40178E+02 3.96665E+01 0.00000E+00
 -1       702 1.39608E+02 1.76500E+01 0.00000E+00
 -1       703 1.39608E+02 2.65000E+01 0.00000E+00
 -1       704 1.39608E+02 2.06000E+01 0.00000E+00
 -1       705 1.39608E+02 2.94000E+01 0.00000E+00
 -1       706 1.39608E+02 3.23500E+01 0.00000E+00
 -1       707 1.39608E+02 3.53000E+01 0.00000E+00
 -1       708 9.78035E+00 3.93914E+01 0.00000E+00
 -1       709 8.38137E+01 2.12777E+01 0.00000E+00
 -1       710 8.46254E+01 2.41926E+01 0.00000E+00
 -1       711 8.45158E+01 2.70764E+01 0.00000E+00
 -1       712 1.75350E+01 9.20225E+00 0.00000E+00
 -1       713 2.65350E+01 9.20225E+00 0.00000E+00
 -1       714 1.24652E+01 3.94997E+01 0.00000E+00
 -1       715 1.03920E+01 1.76125E+01 0.00000E+00
 -1       716 1.45350E+01 9.20225E+00 0.00000E+00
 -1       717 6.89790E+01 1.37545E+01 0.00000E+00
 -1       718 1.03920E+01 3.23250E+01 0.00000E+00
 -1       719 8.38650E+01 2.96673E+01 0.00000E+00
 -1       720 8.18859E+01 3.44738E+01 0.00000E+00
 -1       721 7.79009E+01 1.57106E+01 0.00000E+00
 -1       722 6.67682E+01 1.45464E+01 0.00000E+00
 -1       723 6.42055E+01 1.57186E+01 0.00000E+00
 -1       724 6.17213E+01 1.76484E+01 0.00000E+00
 -1       725 6.00563E+01 2.03015E+01 0.00000E+00
 -1       726 5.94072E+01 2.26865E+01 0.00000E+00
 -1       727 5.87600E+01 2.47323E+01 0.00000E+00
 -1       728 5.81206E+01 2.76746E+01 0.00000E+00
 -1       729 6.33314E+01 3.72753E+01 0.00000E+00
 -1       730 6.05939E+01 3.31704E+01 0.00000E+00
 -1       731 8.30891E+01 3.17845E+01 0.00000E+00
 -1       732 7.96506E+01 1.70257E+01 0.00000E+00
 -1       733 7.23933E+01 1.36315E+01 0.00000E+00
 -1       734 7.86423E+01 3.93383E+01 0.00000E+00
 -1       735 1.03920E+01 3.52625E+01 0.00000E+00
 -1       736 1.03920E+01 2.64500E+01 0.00000E+00
 -1       737 1.39608E+02 1.47250E+01 0.00000E+00
 -1       738 5.87717E+01 3.23130E+01 0.00000E+00
 -1       739 1.03920E+01 2.93875E+01 0.00000E+00
 -1       740 7.72162E+01 1.34188E+01 0.00000E+00
 -1       741 5.74222E+01 2.92868E+01 0.00000E+00
 -1       742 1.38879E+02 3.74540E+01 0.00000E+00
 -1       743 7.40609E+01 1.19489E+01 0.00000E+00
 -1       744 1.29900E+01 1.32000E+01 0.00000E+00
 -1       745 1.96500E+01 3.70100E+01 0.00000E+00
 -1       746 2.26500E+01 3.70100E+01 0.00000E+00
 -1       747 2.56500E+01 3.70100E+01 0.00000E+00
 -1       748 2.86500E+01 3.70100E+01 0.00000E+00
 -1       749 3.16500E+01 3.70100E+01 0.00000E+00
 -1       750 3.46500E+01 3.70100E+01 0.00000E+00
 -1       751 3.76500E+01 3.70100E+01 0.00000E+00
 -1       752 4.06500E+01 3.70100E+01 0.00000E+00
 -1       753 4.36500E+01 3.70100E+01 0.00000E+00
 -1       754 4.66500E+01 3.70100E+01 0.00000E+00
 -1       755 4.96500E+01 3.70100E+01 0.00000E+00
 -1       756 5.26500E+01 3.70100E+01 0.00000E+00
 -1       757 5.56500E+01 3.70100E+01 0.00000E+00
 -1       758 5.86500E+01 3.70100E+01 0.00000E+00
 -1       759 6.16500E+01 3.75577E+01 0.00000E+00
 -1       760 8.56500E+01 3.70100E+01 0.00000E+00
 -1       761 8.86500E+01 3.70100E+01 0.00000E+00
 -1       762 9.16500E+01 3.70100E+01 0.00000E+00
 -1       763 9.46500E+01 3.70100E+01 0.00000E+00
 -1       764 9.76500E+01 3.70100E+01 0.00000E+00
 -1       765 1.00650E+02 3.70100E+01 0.00000E+00
 -1       766 1.03650E+02 3.70100E+01 0.00000E+00
 -1       767 1.06650E+02 3.70100E+01 0.00000E+00
 -1       768 1.09650E+02 3.70100E+01 0.00000E+00
 -1       769 1.12650E+02 3.70100E+01 0.00000E+00
 -1       770 1.15650E+02 3.70100E+01 0.00000E+00
 -1       771 1.18650E+02 3.70100E+01 0.00000E+00
 -1       772 1.21650E+02 3.70100E+01 0.00000E+00
 -1       773 1.24650E+02 3.70100E+01 0.00000E+00
 -1       774 1.27650E+02 3.70100E+01 0.00000E+00
 -1       775 1.30650E+02 3.70100E+01 0.00000E+00
 -1       776 1.33650E+02 3.70100E+01 0.00000E+00
 -1       777 1.36264E+02 3.72320E+01 0.00000E+00
 -1       778 2.20350E+01 1.18003E+01 0.00000E+00
 -1       779 3.40350E+01 1.18003E+01 0.00000E+00
 -1       780 3.10350E+01 1.18003E+01 0.00000E+00
 -1       781 4.00350E+01 1.18003E+01 0.00000E+00
 -1       782 4.30350E+01 1.18003E+01 0.00000E+00
 -1       783 4.60350E+01 1.18003E+01 0.00000E+00
 -1       784 4.90350E+01 1.18003E+01 0.00000E+00
 -1       785 5.20350E+01 1.18003E+01 0.00000E+00
 -1       786 5.50350E+01 1.18003E+01 0.00000E+00
 -1       787 5.80350E+01 1.18003E+01 0.00000E+00
 -1       788 6.10350E+01 1.18003E+01 0.00000E+00
 -1       789 6.40350E+01 1.18003E+01 0.00000E+00
 -1       790 7.00350E+01 1.18003E+01 0.00000E+00
 -1       791 8.20350E+01 1.18003E+01 0.00000E+00
 -1       792 8.50350E+01 1.18003E+01 0.00000E+00
 -1       793 8.80350E+01 1.18003E+01 0.00000E+00
 -1       794 9.10350E+01 1.18003E+01 0.00000E+00
 -1       795 9.40350E+01 1.18003E+01 0.00000E+00
 -1       796 9.70350E+01 1.18003E+01 0.00000E+00
 -1       797 1.00035E+02 1.18003E+01 0.00000E+00
 -1       798 1.03035E+02 1.18003E+01 0.00000E+00
 -1       799 1.06035E+02 1.18003E+01 0.00000E+00
 -1       800 1.09035E+02 1.18003E+01 0.00000E+00
 -1       801 1.12035E+02 1.18003E+01 0.00000E+00
 -1       802 1.15035E+02 1.18003E+01 0.00000E+00
 -1       803 1.18035E+02 1.18003E+01 0.00000E+00
 -1       804 1.21035E+02 1.18003E+01 0.00000E+00
 -1       805 1.24035E+02 1.18003E+01 0.00000E+00
 -1       806 1.27035E+02 1.18003E+01 0.00000E+00
 -1       807 1.30035E+02 1.18003E+01 0.00000E+00
 -1       808 1.33035E+02 1.18003E+01 0.00000E+00
 -1       809 1.37010E+02 2.79500E+01 0.00000E+00
 -1       810 1.37010E+02 3.38250E+01 0.00000E+00
 -1       811 1.37010E+02 2.50000E+01 0.00000E+00
 -1       812 8.20048E+01 1.56403E+01 0.00000E+00
 -1       813 5.97455E+01 3.49738E+01 0.00000E+00
 -1       814 1.37625E+01 1.12011E+01 0.00000E+00
 -1       815 1.90350E+01 1.18003E+01 0.00000E+00
 -1       816 8.60163E+01 2.88305E+01 0.00000E+00
 -1       817 5.77534E+01 2.09556E+01 0.00000E+00
 -1       818 1.37010E+02 3.08875E+01 0.00000E+00
 -1       819 3.70350E+01 1.18003E+01 0.00000E+00
 -1       820 8.28133E+01 3.70613E+01 0.00000E+00
 -1       821 1.66500E+01 3.70100E+01 0.00000E+00
 -1       822 8.48878E+01 1.85357E+01 0.00000E+00
 -1       823 8.45119E+01 3.40349E+01 0.00000E+00
 -1       824 8.61946E+01 2.21851E+01 0.00000E+00
 -1       825 5.62731E+01 2.57325E+01 0.00000E+00
 -1       826 6.78242E+01 1.25921E+01 0.00000E+00
 -1       827 8.71667E+01 2.57332E+01 0.00000E+00
 -1       828 5.90102E+01 1.77960E+01 0.00000E+00
 -1       829 5.71063E+01 2.30014E+01 0.00000E+00
 -1       830 6.15000E+01 1.47997E+01 0.00000E+00
 -1       831 8.50874E+01 3.13161E+01 0.00000E+00
 -1       832 1.29900E+01 2.20250E+01 0.00000E+00
 -1       833 7.96105E+01 1.45296E+01 0.00000E+00
 -1       834 1.29900E+01 2.49750E+01 0.00000E+00
 -1       835 1.29900E+01 1.61375E+01 0.00000E+00
 -1       836 1.37010E+02 1.61875E+01 0.00000E+00
 -1       837 1.39652E+01 3.69017E+01 0.00000E+00
 -1       838 1.29900E+01 3.37938E+01 0.00000E+00
 -1       839 2.80350E+01 1.18003E+01 0.00000E+00
 -1       840 7.90350E+01 1.18003E+01 0.00000E+00
 -1       841 8.49451E+01 1.58047E+01 0.00000E+00
 -1       842 1.35370E+02 1.23616E+01 0.00000E+00
 -1       843 1.37010E+02 1.91375E+01 0.00000E+00
 -1       844 2.50350E+01 1.18003E+01 0.00000E+00
 -1       845 1.37010E+02 2.20688E+01 0.00000E+00
 -1       846 1.29900E+01 1.90812E+01 0.00000E+00
 -1       847 1.36940E+02 1.29756E+01 0.00000E+00
 -1       848 1.29900E+01 3.08563E+01 0.00000E+00
 -1       849 5.55746E+01 2.73447E+01 0.00000E+00
 -1       850 1.63988E+01 1.15007E+01 0.00000E+00
 -1       851 5.66700E+01 3.10928E+01 0.00000E+00
 -1       852 1.36637E+02 3.55285E+01 0.00000E+00
 -1       853 2.41500E+01 3.44120E+01 0.00000E+00
 -1       854 2.71500E+01 3.44120E+01 0.00000E+00
 -1       855 3.01500E+01 3.44120E+01 0.00000E+00
 -1       856 3.31500E+01 3.44120E+01 0.00000E+00
 -1       857 3.61500E+01 3.44120E+01 0.00000E+00
 -1       858 3.91500E+01 3.44120E+01 0.00000E+00
 -1       859 4.21500E+01 3.44120E+01 0.00000E+00
 -1       860 4.51500E+01 3.44120E+01 0.00000E+00
 -1       861 4.81500E+01 3.44120E+01 0.00000E+00
 -1       862 5.11500E+01 3.44120E+01 0.00000E+00
 -1       863 5.41500E+01 3.44120E+01 0.00000E+00
 -1       864 8.73154E+01 3.07324E+01 0.00000E+00
 -1       865 8.77869E+01 1.95562E+01 0.00000E+00
 -1       866 9.01500E+01 3.44120E+01 0.00000E+00
 -1       867 9.31500E+01 3.44120E+01 0.00000E+00
 -1       868 9.61500E+01 3.44120E+01 0.00000E+00
 -1       869 9.91500E+01 3.44120E+01 0.00000E+00
 -1       870 1.02150E+02 3.44120E+01 0.00000E+00
 -1       871 1.05150E+02 3.44120E+01 0.00000E+00
 -1       872 1.08150E+02 3.44120E+01 0.00000E+00
 -1       873 1.11150E+02 3.44120E+01 0.00000E+00
 -1       874 1.14150E+02 3.44120E+01 0.00000E+00
 -1       875 1.17150E+02 3.44120E+01 0.00000E+00
 -1       876 1.20150E+02 3.44120E+01 0.00000E+00
 -1       877 1.23150E+02 3.44120E+01 0.00000E+00
 -1       878 1.26150E+02 3.44120E+01 0.00000E+00
 -1       879 1.29150E+02 3.44120E+01 0.00000E+00
 -1       880 1.32150E+02 3.44120E+01 0.00000E+00
 -1       881 5.45684E+01 2.37198E+01 0.00000E+00
 -1       882 4.45350E+01 1.43982E+01 0.00000E+00
 -1       883 4.15350E+01 1.43982E+01 0.00000E+00
 -1       884 5.05350E+01 1.43982E+01 0.00000E+00
 -1       885 5.35350E+01 1.43982E+01 0.00000E+00
 -1       886 5.65350E+01 1.43982E+01 0.00000E+00
 -1       887 9.25350E+01 1.43982E+01 0.00000E+00
 -1       888 9.55350E+01 1.43982E+01 0.00000E+00
 -1       889 9.85350E+01 1.43982E+01 0.00000E+00
 -1       890 1.01535E+02 1.43982E+01 0.00000E+00
 -1       891 1.04535E+02 1.43982E+01 0.00000E+00
 -1       892 1.07535E+02 1.43982E+01 0.00000E+00
 -1       893 1.10535E+02 1.43982E+01 0.00000E+00
 -1       894 1.13535E+02 1.43982E+01 0.00000E+00
 -1       895 1.16535E+02 1.43982E+01 0.00000E+00
 -1       896 1.19535E+02 1.43982E+01 0.00000E+00
 -1       897 1.22535E+02 1.43982E+01 0.00000E+00
 -1       898 1.25535E+02 1.43982E+01 0.00000E+00
 -1       899 1.28535E+02 1.43982E+01 0.00000E+00
 -1       900 1.31535E+02 1.43982E+01 0.00000E+00
 -1       901 5.76479E+01 3.42329E+01 0.00000E+00
 -1       902 5.61654E+01 1.84941E+01 0.00000E+00
 -1       903 8.67399E+01 3.34512E+01 0.00000E+00
 -1       904 1.34412E+02 2.64750E+01 0.00000E+00
 -1       905 8.95350E+01 1.43982E+01 0.00000E+00
 -1       906 8.72401E+01 1.51015E+01 0.00000E+00
 -1       907 1.29900E+01 2.79188E+01 0.00000E+00
 -1       908 4.75350E+01 1.43982E+01 0.00000E+00
 -1       909 2.11500E+01 3.44120E+01 0.00000E+00
 -1       910 8.91864E+01 2.32727E+01 0.00000E+00
 -1       911 8.88277E+01 2.81124E+01 0.00000E+00
 -1       912 2.35350E+01 1.43982E+01 0.00000E+00
 -1       913 5.53669E+01 2.11070E+01 0.00000E+00
 -1       914 5.85226E+01 1.47981E+01 0.00000E+00
 -1       915 1.81500E+01 3.44120E+01 0.00000E+00
 -1       916 2.05350E+01 1.43982E+01 0.00000E+00
 -1       917 3.25350E+01 1.43982E+01 0.00000E+00
 -1       918 1.55880E+01 1.46687E+01 0.00000E+00
 -1       919 5.48225E+01 2.91506E+01 0.00000E+00
 -1       920 1.34412E+02 2.35438E+01 0.00000E+00
 -1       921 5.38699E+01 2.53320E+01 0.00000E+00
 -1       922 1.34394E+02 3.49702E+01 0.00000E+00
 -1       923 2.95350E+01 1.43982E+01 0.00000E+00
 -1       924 3.85350E+01 1.43982E+01 0.00000E+00
 -1       925 5.63502E+01 1.64462E+01 0.00000E+00
 -1       926 8.75135E+01 1.73288E+01 0.00000E+00
 -1       927 1.33870E+02 1.49596E+01 0.00000E+00
 -1       928 1.34412E+02 1.76625E+01 0.00000E+00
 -1       929 2.65350E+01 1.43982E+01 0.00000E+00
 -1       930 9.08473E+01 2.56519E+01 0.00000E+00
 -1       931 1.55880E+01 2.35000E+01 0.00000E+00
 -1       932 1.59934E+01 1.30847E+01 0.00000E+00
 -1       933 1.34412E+02 2.94125E+01 0.00000E+00
 -1       934 1.56748E+01 3.39021E+01 0.00000E+00
 -1       935 1.55880E+01 2.05562E+01 0.00000E+00
 -1       936 1.56748E+01 3.09646E+01 0.00000E+00
 -1       937 1.75351E+01 1.43983E+01 0.00000E+00
 -1       938 3.55350E+01 1.43982E+01 0.00000E+00
 -1       939 1.34580E+02 3.26497E+01 0.00000E+00
 -1       940 2.86500E+01 3.18140E+01 0.00000E+00
 -1       941 3.16500E+01 3.18140E+01 0.00000E+00
 -1       942 3.46500E+01 3.18140E+01 0.00000E+00
 -1       943 3.76500E+01 3.18140E+01 0.00000E+00
 -1       944 4.06500E+01 3.18140E+01 0.00000E+00
 -1       945 4.36500E+01 3.18140E+01 0.00000E+00
 -1       946 4.66500E+01 3.18140E+01 0.00000E+00
 -1       947 4.96500E+01 3.18140E+01 0.00000E+00
 -1       948 5.26500E+01 3.18140E+01 0.00000E+00
 -1       949 9.09180E+01 2.04989E+01 0.00000E+00
 -1       950 8.94888E+01 3.12622E+01 0.00000E+00
 -1       951 1.96500E+01 3.18140E+01 0.00000E+00
 -1       952 9.46500E+01 3.18140E+01 0.00000E+00
 -1       953 9.76500E+01 3.18140E+01 0.00000E+00
 -1       954 1.00650E+02 3.18140E+01 0.00000E+00
 -1       955 1.03650E+02 3.18140E+01 0.00000E+00
 -1       956 1.06650E+02 3.18140E+01 0.00000E+00
 -1       957 1.09650E+02 3.18140E+01 0.00000E+00
 -1       958 1.12650E+02 3.18140E+01 0.00000E+00
 -1       959 1.15650E+02 3.18140E+01 0.00000E+00
 -1       960 1.18650E+02 3.18140E+01 0.00000E+00
 -1       961 1.21650E+02 3.18140E+01 0.00000E+00
 -1       962 1.24650E+02 3.18140E+01 0.00000E+00
 -1       963 1.27650E+02 3.18140E+01 0.00000E+00
 -1       964 1.30650E+02 3.18140E+01 0.00000E+00
 -1       965 5.20350E+01 1.69963E+01 0.00000E+00
 -1       966 1.00035E+02 1.69963E+01 0.00000E+00
 -1       967 9.70350E+01 1.69963E+01 0.00000E+00
 -1       968 1.76624E+01 3.13893E+01 0.00000E+00
 -1       969 9.40350E+01 1.69963E+01 0.00000E+00
 -1       970 1.03035E+02 1.69963E+01 0.00000E+00
 -1       971 1.06035E+02 1.69963E+01 0.00000E+00
 -1       972 1.09035E+02 1.69963E+01 0.00000E+00
 -1       973 1.12035E+02 1.69963E+01 0.00000E+00
 -1       974 1.15035E+02 1.69963E+01 0.00000E+00
 -1       975 1.18035E+02 1.69963E+01 0.00000E+00
 -1       976 1.21035E+02 1.69963E+01 0.00000E+00
 -1       977 1.24035E+02 1.69963E+01 0.00000E+00
 -1       978 1.27035E+02 1.69963E+01 0.00000E+00
 -1       979 1.30035E+02 1.69963E+01 0.00000E+00
 -1       980 2.50350E+01 1.69963E+01 0.00000E+00
 -1       981 1.34412E+02 2.05938E+01 0.00000E+00
 -1       982 1.56748E+01 2.80271E+01 0.00000E+00
 -1       983 1.55880E+01 1.76125E+01 0.00000E+00
 -1       984 1.32223E+02 1.73294E+01 0.00000E+00
 -1       985 1.90351E+01 1.69963E+01 0.00000E+00
 -1       986 2.26500E+01 3.18140E+01 0.00000E+00
 -1       987 9.10350E+01 1.69963E+01 0.00000E+00
 -1       988 9.20694E+01 3.15381E+01 0.00000E+00
 -1       989 1.56314E+01 2.57635E+01 0.00000E+00
 -1       990 2.56500E+01 3.18140E+01 0.00000E+00
 -1       991 4.30350E+01 1.69963E+01 0.00000E+00
 -1       992 2.20350E+01 1.69963E+01 0.00000E+00
 -1       993 5.31178E+01 2.71379E+01 0.00000E+00
 -1       994 1.31814E+02 2.50094E+01 0.00000E+00
 -1       995 9.25789E+01 2.28781E+01 0.00000E+00
 -1       996 1.82072E+01 2.45819E+01 0.00000E+00
 -1       997 9.18456E+01 2.85305E+01 0.00000E+00
 -1       998 5.33246E+01 1.90544E+01 0.00000E+00
 -1       999 4.00350E+01 1.69963E+01 0.00000E+00
 -1      1000 5.20303E+01 2.35776E+01 0.00000E+00
 -1      1001 2.80350E+01 1.69963E+01 0.00000E+00
 -1      1002 1.32223E+02 2.02606E+01 0.00000E+00
 -1      1003 4.90350E+01 1.69963E+01 0.00000E+00
 -1      1004 5.26775E+01 2.13160E+01 0.00000E+00
 -1      1005 4.60350E+01 1.69963E+01 0.00000E+00
 -1      1006 1.82072E+01 2.16382E+01 0.00000E+00
 -1      1007 3.40350E+01 1.69963E+01 0.00000E+00
 -1      1008 1.31814E+02 2.79469E+01 0.00000E+00
 -1      1009 3.10350E+01 1.69963E+01 0.00000E+00
 -1      1010 5.13839E+01 2.94760E+01 0.00000E+00
 -1      1011 3.31500E+01 2.92160E+01 0.00000E+00
 -1      1012 3.61500E+01 2.92160E+01 0.00000E+00
 -1      1013 3.91500E+01 2.92160E+01 0.00000E+00
 -1      1014 4.21500E+01 2.92160E+01 0.00000E+00
 -1      1015 4.51500E+01 2.92160E+01 0.00000E+00
 -1      1016 4.81500E+01 2.92160E+01 0.00000E+00
 -1      1017 1.82506E+01 2.68455E+01 0.00000E+00
 -1      1018 9.38010E+01 2.62399E+01 0.00000E+00
 -1      1019 9.91500E+01 2.92160E+01 0.00000E+00
 -1      1020 1.02150E+02 2.92160E+01 0.00000E+00
 -1      1021 1.05150E+02 2.92160E+01 0.00000E+00
 -1      1022 1.08150E+02 2.92160E+01 0.00000E+00
 -1      1023 1.11150E+02 2.92160E+01 0.00000E+00
 -1      1024 1.14150E+02 2.92160E+01 0.00000E+00
 -1      1025 1.17150E+02 2.92160E+01 0.00000E+00
 -1      1026 1.20150E+02 2.92160E+01 0.00000E+00
 -1      1027 1.23150E+02 2.92160E+01 0.00000E+00
 -1      1028 1.26150E+02 2.92160E+01 0.00000E+00
 -1      1029 1.29150E+02 2.92160E+01 0.00000E+00
 -1      1030 9.85350E+01 1.95942E+01 0.00000E+00
 -1      1031 1.04535E+02 1.95942E+01 0.00000E+00
 -1      1032 5.12782E+01 2.53836E+01 0.00000E+00
 -1      1033 1.01535E+02 1.95942E+01 0.00000E+00
 -1      1034 1.07535E+02 1.95942E+01 0.00000E+00
 -1      1035 1.10535E+02 1.95942E+01 0.00000E+00
 -1      1036 1.13535E+02 1.95942E+01 0.00000E+00
 -1      1037 1.16535E+02 1.95942E+01 0.00000E+00
 -1      1038 1.19535E+02 1.95942E+01 0.00000E+00
 -1      1039 1.22535E+02 1.95942E+01 0.00000E+00
 -1      1040 1.25535E+02 1.95942E+01 0.00000E+00
 -1      1041 1.28535E+02 1.95942E+01 0.00000E+00
 -1      1042 1.30379E+02 1.99274E+01 0.00000E+00
 -1      1043 9.33070E+01 1.99372E+01 0.00000E+00
 -1      1044 1.86211E+01 1.93172E+01 0.00000E+00
 -1      1045 2.11500E+01 2.92160E+01 0.00000E+00
 -1      1046 3.70350E+01 1.69963E+01 0.00000E+00
 -1      1047 5.03246E+01 1.90544E+01 0.00000E+00
 -1      1048 9.59210E+01 1.97657E+01 0.00000E+00
 -1      1049 3.01500E+01 2.92160E+01 0.00000E+00
 -1      1050 1.79565E+01 2.91174E+01 0.00000E+00
 -1      1051 1.32019E+02 2.26350E+01 0.00000E+00
 -1      1052 9.61500E+01 2.92160E+01 0.00000E+00
 -1      1053 2.08265E+01 2.56639E+01 0.00000E+00
 -1      1054 2.08265E+01 2.27201E+01 0.00000E+00
 -1      1055 9.42255E+01 2.90269E+01 0.00000E+00
 -1      1056 4.92975E+01 2.34991E+01 0.00000E+00
 -1      1057 1.29328E+02 2.35990E+01 0.00000E+00
 -1      1058 2.65350E+01 1.95942E+01 0.00000E+00
 -1      1059 4.45350E+01 1.95942E+01 0.00000E+00
 -1      1060 4.15350E+01 1.95942E+01 0.00000E+00
 -1      1061 2.41500E+01 2.92160E+01 0.00000E+00
 -1      1062 4.98111E+01 2.12767E+01 0.00000E+00
 -1      1063 3.55350E+01 1.95942E+01 0.00000E+00
 -1      1064 2.71500E+01 2.92160E+01 0.00000E+00
 -1      1065 3.25350E+01 1.95942E+01 0.00000E+00
 -1      1066 2.35350E+01 1.95943E+01 0.00000E+00
 -1      1067 2.10781E+01 1.94557E+01 0.00000E+00
 -1      1068 1.29239E+02 2.64075E+01 0.00000E+00
 -1      1069 3.46500E+01 2.66180E+01 0.00000E+00
 -1      1070 3.76500E+01 2.66180E+01 0.00000E+00
 -1      1071 4.06500E+01 2.66180E+01 0.00000E+00
 -1      1072 4.36500E+01 2.66180E+01 0.00000E+00
 -1      1073 4.66500E+01 2.66180E+01 0.00000E+00
 -1      1074 1.29854E+02 2.17632E+01 0.00000E+00
 -1      1075 1.00650E+02 2.66180E+01 0.00000E+00
 -1      1076 4.98839E+01 2.68780E+01 0.00000E+00
 -1      1077 9.57255E+01 2.64289E+01 0.00000E+00
 -1      1078 9.81878E+01 2.65235E+01 0.00000E+00
 -1      1079 1.03650E+02 2.66180E+01 0.00000E+00
 -1      1080 1.06650E+02 2.66180E+01 0.00000E+00
 -1      1081 1.09650E+02 2.66180E+01 0.00000E+00
 -1      1082 1.12650E+02 2.66180E+01 0.00000E+00
 -1      1083 1.15650E+02 2.66180E+01 0.00000E+00
 -1      1084 1.18650E+02 2.66180E+01 0.00000E+00
 -1      1085 1.21650E+02 2.66180E+01 0.00000E+00
 -1      1086 1.24650E+02 2.66180E+01 0.00000E+00
 -1      1087 1.26944E+02 2.65127E+01 0.00000E+00
 -1      1088 1.06035E+02 2.21922E+01 0.00000E+00
 -1      1089 1.00035E+02 2.21922E+01 0.00000E+00
 -1      1090 1.03035E+02 2.21922E+01 0.00000E+00
 -1      1091 1.12035E+02 2.21922E+01 0.00000E+00
 -1      1092 9.45162E+01 2.31831E+01 0.00000E+00
 -1      1093 1.15035E+02 2.21922E+01 0.00000E+00
 -1      1094 1.18035E+02 2.21922E+01 0.00000E+00
 -1      1095 1.21035E+02 2.21922E+01 0.00000E+00
 -1      1096 1.24035E+02 2.21922E+01 0.00000E+00
 -1      1097 3.85350E+01 1.95942E+01 0.00000E+00
 -1      1098 4.79230E+01 1.91365E+01 0.00000E+00
 -1      1099 2.95350E+01 1.95942E+01 0.00000E+00
 -1      1100 3.16500E+01 2.66180E+01 0.00000E+00
 -1      1101 1.09035E+02 2.21922E+01 0.00000E+00
 -1      1102 2.38265E+01 2.56639E+01 0.00000E+00
 -1      1103 4.30350E+01 2.21922E+01 0.00000E+00
 -1      1104 9.74210E+01 2.23637E+01 0.00000E+00
 -1      1105 4.79033E+01 2.49934E+01 0.00000E+00
 -1      1106 4.65769E+01 2.19400E+01 0.00000E+00
 -1      1107 3.70350E+01 2.21922E+01 0.00000E+00
 -1      1108 3.40350E+01 2.21922E+01 0.00000E+00
 -1      1109 1.27035E+02 2.21922E+01 0.00000E+00
 -1      1110 2.80350E+01 2.21922E+01 0.00000E+00
 -1      1111 2.86500E+01 2.66180E+01 0.00000E+00
 -1      1112 2.50350E+01 2.21923E+01 0.00000E+00
 -1      1113 3.91500E+01 2.40200E+01 0.00000E+00
 -1      1114 2.62382E+01 2.61409E+01 0.00000E+00
 -1      1115 1.26125E+02 2.34109E+01 0.00000E+00
 -1      1116 3.10350E+01 2.21922E+01 0.00000E+00
 -1      1117 0.00000E+00 4.85250E+01 0.00000E+00
 -1      1118 0.00000E+00 4.55750E+01 0.00000E+00
 -1      1119 0.00000E+00 4.26250E+01 0.00000E+00
 -1      1120 0.00000E+00 3.96750E+01 0.00000E+00
 -1      1121 0.00000E+00 3.67250E+01 0.00000E+00
 -1      1122 0.00000E+00 3.38000E+01 0.00000E+00
 -1      1123 0.00000E+00 3.08750E+01 0.00000E+00
 -1      1124 0.00000E+00 2.79250E+01 0.00000E+00
 -1      1125 0.00000E+00 2.49750E+01 0.00000E+00
 -1      1126 0.00000E+00 2.20250E+01 0.00000E+00
 -1      1127 0.00000E+00 1.90750E+01 0.00000E+00
 -1      1128 0.00000E+00 1.61500E+01 0.00000E+00
 -1      1129 0.00000E+00 1.32250E+01 0.00000E+00
 -1      1130 0.00000E+00 1.02750E+01 0.00000E+00
 -1      1131 0.00000E+00 7.32500E+00 0.00000E+00
 -1      1132 0.00000E+00 4.37500E+00 0.00000E+00
 -1      1133 0.00000E+00 1.45000E+00 0.00000E+00
 -1      1134 1.57500E+00 5.00000E+01 0.00000E+00
 -1      1135 4.65000E+00 5.00000E+01 0.00000E+00
 -1      1136 7.65000E+00 5.00000E+01 0.00000E+00
 -1      1137 1.06500E+01 5.00000E+01 0.00000E+00
 -1      1138 1.36500E+01 5.00000E+01 0.00000E+00
 -1      1139 1.66500E+01 5.00000E+01 0.00000E+00
 -1      1140 1.96500E+01 5.00000E+01 0.00000E+00
 -1      1141 2.26500E+01 5.00000E+01 0.00000E+00
 -1      1142 2.56500E+01 5.00000E+01 0.00000E+00
 -1      1143 2.86500E+01 5.00000E+01 0.00000E+00
 -1      1144 3.16500E+01 5.00000E+01 0.00000E+00
 -1      1145 3.46500E+01 5.00000E+01 0.00000E+00
 -1      1146 3.76500E+01 5.00000E+01 0.00000E+00
 -1      1147 4.06500E+01 5.00000E+01 0.00000E+00
 -1      1148 4.36500E+01 5.00000E+01 0.00000E+00
 -1      1149 4.66500E+01 5.00000E+01 0.00000E+00
 -1      1150 4.96500E+01 5.00000E+01 0.00000E+00
 -1      1151 5.26500E+01 5.00000E+01 0.00000E+00
 -1      1152 5.56500E+01 5.00000E+01 0.00000E+00
 -1      1153 5.86500E+01 5.00000E+01 0.00000E+00
 -1      1154 6.16500E+01 5.00000E+01 0.00000E+00
 -1      1155 6.46500E+01 5.00000E+01 0.00000E+00
 -1      1156 6.76500E+01 5.00000E+01 0.00000E+00
 -1      1157 7.06500E+01 5.00000E+01 0.00000E+00
 -1      1158 7.36500E+01 5.00000E+01 0.00000E+00
 -1      1159 7.66500E+01 5.00000E+01 0.00000E+00
 -1      1160 7.96500E+01 5.00000E+01 0.00000E+00
 -1      1161 8.26500E+01 5.00000E+01 0.00000E+00
 -1      1162 8.56500E+01 5.00000E+01 0.00000E+00
 -1      1163 8.86500E+01 5.00000E+01 0.00000E+00
 -1      1164 9.16500E+01 5.00000E+01 0.00000E+00
 -1      1165 9.46500E+01 5.00000E+01 0.00000E+00
 -1      1166 9.76500E+01 5.00000E+01 0.00000E+00
 -1      1167 1.00650E+02 5.00000E+01 0.00000E+00
 -1      1168 1.03650E+02 5.00000E+01 0.00000E+00
 -1      1169 1.06650E+02 5.00000E+01 0.00000E+00
 -1      1170 1.09650E+02 5.00000E+01 0.00000E+00
 -1      1171 1.12650E+02 5.00000E+01 0.00000E+00
 -1      1172 1.15650E+02 5.00000E+01 0.00000E+00
 -1      1173 1.18650E+02 5.00000E+01 0.00000E+00
 -1      1174 1.21650E+02 5.00000E+01 0.00000E+00
 -1      1175 1.24650E+02 5.00000E+01 0.00000E+00
 -1      1176 1.27650E+02 5.00000E+01 0.00000E+00
 -1      1177 1.30650E+02 5.00000E+01 0.00000E+00
 -1      1178 1.33650E+02 5.00000E+01 0.00000E+00
 -1      1179 1.36650E+02 5.00000E+01 0.00000E+00
 -1      1180 1.39650E+02 5.00000E+01 0.00000E+00
 -1      1181 1.42650E+02 5.00000E+01 0.00000E+00
 -1      1182 1.45650E+02 5.00000E+01 0.00000E+00
 -1      1183 1.48575E+02 5.00000E+01 0.00000E+00
 -1      1184 1.57500E+00 0.00000E+00 0.00000E+00
 -1      1185 4.65000E+00 0.00000E+00 0.00000E+00
 -1      1186 7.65000E+00 0.00000E+00 0.00000E+00
 -1      1187 1.06500E+01 0.00000E+00 0.00000E+00
 -1      1188 1.36500E+01 0.00000E+00 0.00000E+00
 -1      1189 1.66500E+01 0.00000E+00 0.00000E+00
 -1      1190 1.96500E+01 0.00000E+00 0.00000E+00
 -1      1191 2.26500E+01 0.00000E+00 0.00000E+00
 -1      1192 2.56500E+01 0.00000E+00 0.00000E+00
 -1      1193 2.86500E+01 0.00000E+00 0.00000E+00
 -1      1194 3.16500E+01 0.00000E+00 0.00000E+00
 -1      1195 3.46500E+01 0.00000E+00 0.00000E+00
 -1      1196 3.76500E+01 0.00000E+00 0.00000E+00
 -1      1197 4.06500E+01 0.00000E+00 0.00000E+00
 -1      1198 4.36500E+01 0.00000E+00 0.00000E+00
 -1      1199 4.66500E+01 0.00000E+00 0.00000E+00
 -1      1200 4.96500E+01 0.00000E+00 0.00000E+00
 -1      1201 5.26500E+01 0.00000E+00 0.00000E+00
 -1      1202 5.56500E+01 0.00000E+00 0.00000E+00
 -1      1203 5.86500E+01 0.00000E+00 0.00000E+00
 -1      1204 6.16500E+01 0.00000E+00 0.00000E+00
 -1      1205 6.46500E+01 0.00000E+00 0.00000E+00
 -1      1206 6.76500E+01 0.00000E+00 0.00000E+00
 -1      1207 7.06500E+01 0.00000E+00 0.00000E+00
 -1      1208 7.36500E+01 0.00000E+00 0.00000E+00
 -1      1209 7.66500E+01 0.00000E+00 0.00000E+00
 -1      1210 7.96500E+01 0.00000E+00 0.00000E+00
 -1      1211 8.26500E+01 0.00000E+00 0.00000E+00
 -1      1212 8.56500E+01 0.00000E+00 0.00000E+00
 -1      1213 8.86500E+01 0.00000E+00 0.00000E+00
 -1      1214 9.16500E+01 0.00000E+00 0.00000E+00
 -1      1215 9.46500E+01 0.00000E+00 0.00000E+00
 -1      1216 9.76500E+01 0.00000E+00 0.00000E+00
 -1      1217 1.00650E+02 0.00000E+00 0.00000E+00
 -1      1218 1.03650E+02 0.00000E+00 0.00000E+00
 -1      1219 1.06650E+02 0.00000E+00 0.00000E+00
 -1      1220 1.09650E+02 0.00000E+00 0.00000E+00
 -1      1221 1.12650E+02 0.00000E+00 0.00000E+00
 -1      1222 1.15650E+02 0.00000E+00 0.00000E+00
 -1      1223 1.18650E+02 0.00000E+00 0.00000E+00
 -1      1224 1.21650E+02 0.00000E+00 0.00000E+00
 -1      1225 1.24650E+02 0.00000E+00 0.00000E+00
 -1      1226 1.27650E+02 0.00000E+00 0.00000E+00
 -1      1227 1.30650E+02 0.00000E+00 0.00000E+00
 -1      1228 1.33650E+02 0.00000E+00 0.00000E+00
 -1      1229 1.36650E+02 0.00000E+00 0.00000E+00
 -1      1230 1.39650E+02 0.00000E+00 0.00000E+00
 -1      1231 1.42650E+02 0.00000E+00 0.00000E+00
 -1      1232 1.45650E+02 0.00000E+00 0.00000E+00
 -1      1233 1.48575E+02 0.00000E+00 0.00000E+00
 -1      1234 1.50000E+02 1.47500E+00 0.00000E+00
 -1      1235 1.50000E+02 4.42500E+00 0.00000E+00
 -1      1236 1.50000E+02 7.37500E+00 0.00000E+00
 -1      1237 1.50000E+02 1.03250E+01 0.00000E+00
 -1      1238 1.50000E+02 1.32750E+01 0.00000E+00
 -1      1239 1.50000E+02 1.62000E+01 0.00000E+00
 -1      1240 1.50000E+02 1.91250E+01 0.00000E+00
 -1      1241 1.50000E+02 2.20750E+01 0.00000E+00
 -1      1242 1.50000E+02 2.50250E+01 0.00000E+00
 -1      1243 1.50000E+02 2.79750E+01 0.00000E+00
 -1      1244 1.50000E+02 3.09250E+01 0.00000E+00
 -1      1245 1.50000E+02 3.38500E+01 0.00000E+00
 -1      1246 1.50000E+02 3.67750E+01 0.00000E+00
 -1      1247 1.50000E+02 3.97250E+01 0.00000E+00
 -1      1248 1.50000E+02 4.26750E+01 0.00000E+00
 -1      1249 1.50000E+02 4.56250E+01 0.00000E+00
 -1      1250 1.50000E+02 4.85500E+01 0.00000E+00
 -1      1251 7.82944E+01 2.60519E+01 0.00000E+00
 -1      1252 7.79789E+01 2.45911E+01 0.00000E+00
 -1      1253 7.73544E+01 2.32202E+01 0.00000E+00
 -1      1254 7.64682E+01 2.20332E+01 0.00000E+00
 -1      1255 7.53486E+01 2.10568E+01 0.00000E+00
 -1      1256 7.40459E+01 2.03377E+01 0.00000E+00
 -1      1257 7.26369E+01 1.99132E+01 0.00000E+00
 -1      1258 7.11024E+01 1.97946E+01 0.00000E+00
 -1      1259 6.95579E+01 2.00197E+01 0.00000E+00
 -1      1260 6.81108E+01 2.05768E+01 0.00000E+00
 -1      1261 6.68324E+01 2.14298E+01 0.00000E+00
 -1      1262 6.57876E+01 2.25195E+01 0.00000E+00
 -1      1263 6.50112E+01 2.37861E+01 0.00000E+00
 -1      1264 6.45287E+01 2.51490E+01 0.00000E+00
 -1      1265 6.43365E+01 2.65842E+01 0.00000E+00
 -1      1266 6.44561E+01 2.80955E+01 0.00000E+00
 -1      1267 6.48952E+01 2.95383E+01 0.00000E+00
 -1      1268 6.56113E+01 3.08228E+01 0.00000E+00
 -1      1269 6.66031E+01 3.19506E+01 0.00000E+00
 -1      1270 6.78118E+01 3.28404E+01 0.00000E+00
 -1      1271 6.91631E+01 3.34458E+01 0.00000E+00
 -1      1272 7.06657E+01 3.37589E+01 0.00000E+00
 -1      1273 7.22274E+01 3.37335E+01 0.00000E+00
 -1      1274 7.37429E+01 3.33631E+01 0.00000E+00
 -1      1275 7.51407E+01 3.26649E+01 0.00000E+00
 -1      1276 7.63667E+01 3.16556E+01 0.00000E+00
 -1      1277 7.73323E+01 3.03983E+01 0.00000E+00
 -1      1278 7.79743E+01 2.90043E+01 0.00000E+00
 -1      1279 7.82949E+01 2.75249E+01 0.00000E+00
 -1      1280 1.57500E+00 4.85250E+01 0.00000E+00
 -1      1281 1.29900E+00 4.48375E+01 0.00000E+00
 -1      1282 1.29900E+00 4.63125E+01 0.00000E+00
 -1      1283 1.29900E+00 4.18875E+01 0.00000E+00
 -1      1284 1.29900E+00 4.33625E+01 0.00000E+00
 -1      1285 2.59800E+00 4.41000E+01 0.00000E+00
 -1      1286 1.29900E+00 3.89375E+01 0.00000E+00
 -1      1287 1.29900E+00 4.04125E+01 0.00000E+00
 -1      1288 2.59800E+00 4.11500E+01 0.00000E+00
 -1      1289 1.29900E+00 3.59875E+01 0.00000E+00
 -1      1290 1.29900E+00 3.74625E+01 0.00000E+00
 -1      1291 2.59800E+00 3.82000E+01 0.00000E+00
 -1      1292 1.29900E+00 3.30875E+01 0.00000E+00
 -1      1293 1.29900E+00 3.45375E+01 0.00000E+00
 -1      1294 2.59800E+00 3.52750E+01 0.00000E+00
 -1      1295 1.29900E+00 3.01375E+01 0.00000E+00
 -1      1296 1.29900E+00 3.16125E+01 0.00000E+00
 -1      1297 2.59800E+00 3.23500E+01 0.00000E+00
 -1      1298 1.29900E+00 2.71875E+01 0.00000E+00
 -1      1299 1.29900E+00 2.86625E+01 0.00000E+00
 -1      1300 2.59800E+00 2.94000E+01 0.00000E+00
 -1      1301 1.29900E+00 2.42375E+01 0.00000E+00
 -1      1302 1.29900E+00 2.57125E+01 0.00000E+00
 -1      1303 2.59800E+00 2.64500E+01 0.00000E+00
 -1      1304 1.29900E+00 2.12875E+01 0.00000E+00
 -1      1305 1.29900E+00 2.27625E+01 0.00000E+00
 -1      1306 2.59800E+00 2.35000E+01 0.00000E+00
 -1      1307 1.29900E+00 1.83375E+01 0.00000E+00
 -1      1308 1.29900E+00 1.98125E+01 0.00000E+00
 -1      1309 2.59800E+00 2.05500E+01 0.00000E+00
 -1      1310 1.29900E+00 1.54375E+01 0.00000E+00
 -1      1311 1.29900E+00 1.68875E+01 0.00000E+00
 -1      1312 2.59800E+00 1.76250E+01 0.00000E+00
 -1      1313 1.29900E+00 1.24875E+01 0.00000E+00
 -1      1314 1.29900E+00 1.39625E+01 0.00000E+00
 -1      1315 2.59800E+00 1.47000E+01 0.00000E+00
 -1      1316 1.29900E+00 9.53750E+00 0.00000E+00
 -1      1317 1.29900E+00 1.10125E+01 0.00000E+00
 -1      1318 2.59800E+00 1.17500E+01 0.00000E+00
 -1      1319 1.29900E+00 6.58750E+00 0.00000E+00
 -1      1320 1.29900E+00 8.06250E+00 0.00000E+00
 -1      1321 2.59800E+00 8.80000E+00 0.00000E+00
 -1      1322 1.29900E+00 3.63750E+00 0.00000E+00
 -1      1323 1.29900E+00 5.11250E+00 0.00000E+00
 -1      1324 2.59800E+00 5.85000E+00 0.00000E+00
 -1      1325 1.43700E+00 1.09375E+00 0.00000E+00
 -1      1326 1.43700E+00 2.54375E+00 0.00000E+00
 -1      1327 2.73600E+00 3.28125E+00 0.00000E+00
 -1      1328 3.01200E+00 1.09375E+00 0.00000E+00
 -1      1329 3.90000E+00 4.87010E+01 0.00000E+00
 -1      1330 5.40000E+00 4.87010E+01 0.00000E+00
 -1      1331 6.90000E+00 4.87010E+01 0.00000E+00
 -1      1332 8.40000E+00 4.87010E+01 0.00000E+00
 -1      1333 6.15000E+00 4.74020E+01 0.00000E+00
 -1      1334 9.90000E+00 4.87010E+01 0.00000E+00
 -1      1335 1.14000E+01 4.87010E+01 0.00000E+00
 -1      1336 9.15000E+00 4.74020E+01 0.00000E+00
 -1      1337 1.29000E+01 4.87010E+01 0.00000E+00
 -1      1338 1.44000E+01 4.87010E+01 0.00000E+00
 -1      1339 1.21500E+01 4.74020E+01 0.00000E+00
 -1      1340 1.59000E+01 4.87010E+01 0.00000E+00
 -1      1341 1.74000E+01 4.87010E+01 0.00000E+00
 -1      1342 1.51500E+01 4.74020E+01 0.00000E+00
 -1      1343 1.89000E+01 4.87010E+01 0.00000E+00
 -1      1344 2.04000E+01 4.87010E+01 0.00000E+00
 -1      1345 1.81500E+01 4.74020E+01 0.00000E+00
 -1      1346 2.19000E+01 4.87010E+01 0.00000E+00
 -1      1347 2.34000E+01 4.87010E+01 0.00000E+00
 -1      1348 2.11500E+01 4.74020E+01 0.00000E+00
 -1      1349 2.49000E+01 4.87010E+01 0.00000E+00
 -1      1350 2.64000E+01 4.87010E+01 0.00000E+00
 -1      1351 2.41500E+01 4.74020E+01 0.00000E+00
 -1      1352 2.79000E+01 4.87010E+01 0.00000E+00
 -1      1353 2.94000E+01 4.87010E+01 0.00000E+00
 -1      1354 2.71500E+01 4.74020E+01 0.00000E+00
 -1      1355 3.09000E+01 4.87010E+01 0.00000E+00
 -1      1356 3.24000E+01 4.87010E+01 0.00000E+00
 -1      1357 3.01500E+01 4.74020E+01 0.00000E+00
 -1      1358 3.39000E+01 4.87010E+01 0.00000E+00
 -1      1359 3.54000E+01 4.87010E+01 0.00000E+00
 -1      1360 3.31500E+01 4.74020E+01 0.00000E+00
 -1      1361 3.69000E+01 4.87010E+01 0.00000E+00
 -1      1362 3.84000E+01 4.87010E+01 0.00000E+00
 -1      1363 3.61500E+01 4.74020E+01 0.00000E+00
 -1      1364 3.99000E+01 4.87010E+01 0.00000E+00
 -1      1365 4.14000E+01 4.87010E+01 0.00000E+00
 -1      1366 3.91500E+01 4.74020E+01 0.00000E+00
 -1      1367 4.29000E+01 4.87010E+01 0.00000E+00
 -1      1368 4.44000E+01 4.87010E+01 0.00000E+00
 -1      1369 4.21500E+01 4.74020E+01 0.00000E+00
 -1      1370 4.59000E+01 4.87010E+01 0.00000E+00
 -1      1371 4.74000E+01 4.87010E+01 0.00000E+00
 -1      1372 4.51500E+01 4.74020E+01 0.00000E+00
 -1      1373 4.89000E+01 4.87010E+01 0.00000E+00
 -1      1374 5.04000E+01 4.87010E+01 0.00000E+00
 -1      1375 4.81500E+01 4.74020E+01 0.00000E+00
 -1      1376 5.19000E+01 4.87010E+01 0.00000E+00
 -1      1377 5.34000E+01 4.87010E+01 0.00000E+00
 -1      1378 5.11500E+01 4.74020E+01 0.00000E+00
 -1      1379 5.49000E+01 4.87010E+01 0.00000E+00
 -1      1380 5.64000E+01 4.87010E+01 0.00000E+00
 -1      1381 5.41500E+01 4.74020E+01 0.00000E+00
 -1      1382 5.79000E+01 4.87010E+01 0.00000E+00
 -1      1383 5.94000E+01 4.87010E+01 0.00000E+00
 -1      1384 5.71500E+01 4.74020E+01 0.00000E+00
 -1      1385 6.09000E+01 4.87010E+01 0.00000E+00
 -1      1386 6.24000E+01 4.87010E+01 0.00000E+00
 -1      1387 6.01500E+01 4.74020E+01 0.00000E+00
 -1      1388 6.39000E+01 4.87010E+01 0.00000E+00
 -1      1389 6.54000E+01 4.87010E+01 0.00000E+00
 -1      1390 6.31500E+01 4.74020E+01 0.00000E+00
 -1      1391 6.69000E+01 4.87010E+01 0.00000E+00
 -1      1392 6.84000E+01 4.87010E+01 0.00000E+00
 -1      1393 6.61500E+01 4.74020E+01 0.00000E+00
 -1      1394 6.99000E+01 4.87010E+01 0.00000E+00
 -1      1395 7.14000E+01 4.87010E+01 0.00000E+00
 -1      1396 6.91500E+01 4.74020E+01 0.00000E+00
 -1      1397 7.29000E+01 4.87010E+01 0.00000E+00
 -1      1398 7.44000E+01 4.87010E+01 0.00000E+00
 -1      1399 7.21500E+01 4.74020E+01 0.00000E+00
 -1      1400 7.59000E+01 4.87010E+01 0.00000E+00
 -1      1401 7.74000E+01 4.87010E+01 0.00000E+00
 -1      1402 7.51500E+01 4.74020E+01 0.00000E+00
 -1      1403 7.89000E+01 4.87010E+01 0.00000E+00
 -1      1404 8.04000E+01 4.87010E+01 0.00000E+00
 -1      1405 7.81500E+01 4.74020E+01 0.00000E+00
 -1      1406 8.19000E+01 4.87010E+01 0.00000E+00
 -1      1407 8.34000E+01 4.87010E+01 0.00000E+00
 -1      1408 8.11500E+01 4.74020E+01 0.00000E+00
 -1      1409 8.49000E+01 4.87010E+01 0.00000E+00
 -1      1410 8.64000E+01 4.87010E+01 0.00000E+00
 -1      1411 8.41500E+01 4.74020E+01 0.00000E+00
 -1      1412 8.79000E+01 4.87010E+01 0.00000E+00
 -1      1413 8.94000E+01 4.87010E+01 0.00000E+00
 -1      1414 8.71500E+01 4.74020E+01 0.00000E+00
 -1      1415 9.09000E+01 4.87010E+01 0.00000E+00
 -1      1416 9.24000E+01 4.87010E+01 0.00000E+00
 -1      1417 9.01500E+01 4.74020E+01 0.00000E+00
 -1      1418 9.39000E+01 4.87010E+01 0.00000E+00
 -1      1419 9.54000E+01 4.87010E+01 0.00000E+00
 -1      1420 9.31500E+01 4.74020E+01 0.00000E+00
 -1      1421 9.69000E+01 4.87010E+01 0.00000E+00
 -1      1422 9.84000E+01 4.87010E+01 0.00000E+00
 -1      1423 9.61500E+01 4.74020E+01 0.00000E+00
 -1      1424 9.99000E+01 4.87010E+01 0.00000E+00
 -1      1425 1.01400E+02 4.87010E+01 0.00000E+00
 -1      1426 9.91500E+01 4.74020E+01 0.00000E+00
 -1      1427 1.02900E+02 4.87010E+01 0.00000E+00
 -1      1428 1.04400E+02 4.87010E+01 0.00000E+00
 -1      1429 1.02150E+02 4.74020E+01 0.00000E+00
 -1      1430 1.05900E+02 4.87010E+01 0.00000E+00
 -1      1431 1.07400E+02 4.87010E+01 0.00000E+00
 -1      1432 1.05150E+02 4.74020E+01 0.00000E+00
 -1      1433 1.08900E+02 4.87010E+01 0.00000E+00
 -1      1434 1.10400E+02 4.87010E+01 0.00000E+00
 -1      1435 1.08150E+02 4.74020E+01 0.00000E+00
 -1      1436 1.11900E+02 4.87010E+01 0.00000E+00
 -1      1437 1.13400E+02 4.87010E+01 0.00000E+00
 -1      1438 1.11150E+02 4.74020E+01 0.00000E+00
 -1      1439 1.14900E+02 4.87010E+01 0.00000E+00
 -1      1440 1.16400E+02 4.87010E+01 0.00000E+00
 -1      1441 1.14150E+02 4.74020E+01 0.00000E+00
 -1      1442 1.17900E+02 4.87010E+01 0.00000E+00
 -1      1443 1.19400E+02 4.87010E+01 0.00000E+00
 -1      1444 1.17150E+02 4.74020E+01 0.00000E+00
 -1      1445 1.20900E+02 4.87010E+01 0.00000E+00
 -1      1446 1.22400E+02 4.87010E+01 0.00000E+00
 -1      1447 1.20150E+02 4.74020E+01 0.00000E+00
 -1      1448 1.23900E+02 4.87010E+01 0.00000E+00
 -1      1449 1.25400E+02 4.87010E+01 0.00000E+00
 -1      1450 1.23150E+02 4.74020E+01 0.00000E+00
 -1      1451 1.26900E+02 4.87010E+01 0.00000E+00
 -1      1452 1.28400E+02 4.87010E+01 0.00000E+00
 -1      1453 1.26150E+02 4.74020E+01 0.00000E+00
 -1      1454 1.29900E+02 4.87010E+01 0.00000E+00
 -1      1455 1.31400E+02 4.87010E+01 0.00000E+00
 -1      1456 1.29150E+02 4.74020E+01 0.00000E+00
 -1      1457 1.32900E+02 4.87010E+01 0.00000E+00
 -1      1458 1.34400E+02 4.87010E+01 0.00000E+00
 -1      1459 1.32150E+02 4.74020E+01 0.00000E+00
 -1      1460 1.35900E+02 4.87010E+01 0.00000E+00
 -1      1461 1.37400E+02 4.87010E+01 0.00000E+00
 -1      1462 1.35150E+02 4.74020E+01 0.00000E+00
 -1      1463 1.38900E+02 4.87010E+01 0.00000E+00
 -1      1464 1.40400E+02 4.87010E+01 0.00000E+00
 -1      1465 1.38150E+02 4.74020E+01 0.00000E+00
 -1      1466 1.41900E+02 4.87010E+01 0.00000E+00
 -1      1467 1.43400E+02 4.87010E+01 0.00000E+00
 -1      1468 1.41150E+02 4.74020E+01 0.00000E+00
 -1      1469 1.44900E+02 4.87010E+01 0.00000E+00
 -1      1470 1.46400E+02 4.87010E+01 0.00000E+00
 -1      1471 1.44150E+02 4.74020E+01 0.00000E+00
 -1      1472 1.48575E+02 4.85500E+01 0.00000E+00
 -1      1473 1.47825E+02 4.72510E+01 0.00000E+00
 -1      1474 6.01200E+00 1.09375E+00 0.00000E+00
 -1      1475 4.51200E+00 1.09375E+00 0.00000E+00
 -1      1476 4.37400E+00 2.18750E+00 0.00000E+00
 -1      1477 9.01200E+00 1.09375E+00 0.00000E+00
 -1      1478 7.51200E+00 1.09375E+00 0.00000E+00
 -1      1479 7.37400E+00 2.18750E+00 0.00000E+00
 -1      1480 1.20120E+01 1.09375E+00 0.00000E+00
 -1      1481 1.05120E+01 1.09375E+00 0.00000E+00
 -1      1482 1.03740E+01 2.18750E+00 0.00000E+00
 -1      1483 1.50120E+01 1.09375E+00 0.00000E+00
 -1      1484 1.35120E+01 1.09375E+00 0.00000E+00
 -1      1485 1.33740E+01 2.18750E+00 0.00000E+00
 -1      1486 1.80120E+01 1.09375E+00 0.00000E+00
 -1      1487 1.65120E+01 1.09375E+00 0.00000E+00
 -1      1488 1.63740E+01 2.18750E+00 0.00000E+00
 -1      1489 2.10120E+01 1.09375E+00 0.00000E+00
 -1      1490 1.95120E+01 1.09375E+00 0.00000E+00
 -1      1491 1.93740E+01 2.18750E+00 0.00000E+00
 -1      1492 2.40120E+01 1.09375E+00 0.00000E+00
 -1      1493 2.25120E+01 1.09375E+00 0.00000E+00
 -1      1494 2.23740E+01 2.18750E+00 0.00000E+00
 -1      1495 2.70120E+01 1.09375E+00 0.00000E+00
 -1      1496 2.55120E+01 1.09375E+00 0.00000E+00
 -1      1497 2.53740E+01 2.18750E+00 0.00000E+00
 -1      1498 3.00120E+01 1.09375E+00 0.00000E+00
 -1      1499 2.85120E+01 1.09375E+00 0.00000E+00
 -1      1500 2.83740E+01 2.18750E+00 0.00000E+00
 -1      1501 3.30120E+01 1.09375E+00 0.00000E+00
 -1      1502 3.15120E+01 1.09375E+00 0.00000E+00
 -1      1503 3.13740E+01 2.18750E+00 0.00000E+00
 -1      1504 3.60120E+01 1.09375E+00 0.00000E+00
 -1      1505 3.45120E+01 1.09375E+00 0.00000E+00
 -1      1506 3.43740E+01 2.18750E+00 0.00000E+00
 -1      1507 3.90120E+01 1.09375E+00 0.00000E+00
 -1      1508 3.75120E+01 1.09375E+00 0.00000E+00
 -1      1509 3.73740E+01 2.18750E+00 0.00000E+00
 -1      1510 4.20120E+01 1.09375E+00 0.00000E+00
 -1      1511 4.05120E+01 1.09375E+00 0.00000E+00
 -1      1512 4.03740E+01 2.18750E+00 0.00000E+00
 -1      1513 4.50120E+01 1.09375E+00 0.00000E+00
 -1      1514 4.35120E+01 1.09375E+00 0.00000E+00
 -1      1515 4.33740E+01 2.18750E+00 0.00000E+00
 -1      1516 4.80120E+01 1.09375E+00 0.00000E+00
 -1      1517 4.65120E+01 1.09375E+00 0.00000E+00
 -1      1518 4.63740E+01 2.18750E+00 0.00000E+00
 -1      1519 5.10120E+01 1.09375E+00 0.00000E+00
 -1      1520 4.95120E+01 1.09375E+00 0.00000E+00
 -1      1521 4.93740E+01 2.18750E+00 0.00000E+00
 -1      1522 5.40120E+01 1.09375E+00 0.00000E+00
 -1      1523 5.25120E+01 1.09375E+00 0.00000E+00
 -1      1524 5.23740E+01 2.18750E+00 0.00000E+00
 -1      1525 5.70120E+01 1.09375E+00 0.00000E+00
 -1      1526 5.55120E+01 1.09375E+00 0.00000E+00
 -1      1527 5.53740E+01 2.18750E+00 0.00000E+00
 -1      1528 6.00120E+01 1.09375E+00 0.00000E+00
 -1      1529 5.85120E+01 1.09375E+00 0.00000E+00
 -1      1530 5.83740E+01 2.18750E+00 0.00000E+00
 -1      1531 6.30120E+01 1.09375E+00 0.00000E+00
 -1      1532 6.15120E+01 1.09375E+00 0.00000E+00
 -1      1533 6.13740E+01 2.18750E+00 0.00000E+00
 -1      1534 6.60120E+01 1.09375E+00 0.00000E+00
 -1      1535 6.45120E+01 1.09375E+00 0.00000E+00
 -1      1536 6.43740E+01 2.18750E+00 0.00000E+00
 -1      1537 6.90120E+01 1.09375E+00 0.00000E+00
 -1      1538 6.75120E+01 1.09375E+00 0.00000E+00
 -1      1539 6.73740E+01 2.18750E+00 0.00000E+00
 -1      1540 7.20120E+01 1.09375E+00 0.00000E+00
 -1      1541 7.05120E+01 1.09375E+00 0.00000E+00
 -1      1542 7.03740E+01 2.18750E+00 0.00000E+00
 -1      1543 7.50120E+01 1.09375E+00 0.00000E+00
 -1      1544 7.35120E+01 1.09375E+00 0.00000E+00
 -1      1545 7.33740E+01 2.18750E+00 0.00000E+00
 -1      1546 7.80120E+01 1.09375E+00 0.00000E+00
 -1      1547 7.65120E+01 1.09375E+00 0.00000E+00
 -1      1548 7.63740E+01 2.18750E+00 0.00000E+00
 -1      1549 8.10120E+01 1.09375E+00 0.00000E+00
 -1      1550 7.95120E+01 1.09375E+00 0.00000E+00
 -1      1551 7.93740E+01 2.18750E+00 0.00000E+00
 -1      1552 8.40120E+01 1.09375E+00 0.00000E+00
 -1      1553 8.25120E+01 1.09375E+00 0.00000E+00
 -1      1554 8.23740E+01 2.18750E+00 0.00000E+00
 -1      1555 8.70120E+01 1.09375E+00 0.00000E+00
 -1      1556 8.55120E+01 1.09375E+00 0.00000E+00
 -1      1557 8.53740E+01 2.18750E+00 0.00000E+00
 -1      1558 9.00120E+01 1.09375E+00 0.00000E+00
 -1      1559 8.85120E+01 1.09375E+00 0.00000E+00
 -1      1560 8.83740E+01 2.18750E+00 0.00000E+00
 -1      1561 9.30120E+01 1.09375E+00 0.00000E+00
 -1      1562 9.15120E+01 1.09375E+00 0.00000E+00
 -1      1563 9.13740E+01 2.18750E+00 0.00000E+00
 -1      1564 9.60120E+01 1.09375E+00 0.00000E+00
 -1      1565 9.45120E+01 1.09375E+00 0.00000E+00
 -1      1566 9.43740E+01 2.18750E+00 0.00000E+00
 -1      1567 9.90120E+01 1.09375E+00 0.00000E+00
 -1      1568 9.75120E+01 1.09375E+00 0.00000E+00
 -1      1569 9.73740E+01 2.18750E+00 0.00000E+00
 -1      1570 1.02012E+02 1.09375E+00 0.00000E+00
 -1      1571 1.00512E+02 1.09375E+00 0.00000E+00
 -1      1572 1.00374E+02 2.18750E+00 0.00000E+00
 -1      1573 1.05012E+02 1.09375E+00 0.00000E+00
 -1      1574 1.03512E+02 1.09375E+00 0.00000E+00
 -1      1575 1.03374E+02 2.18750E+00 0.00000E+00
 -1      1576 1.08012E+02 1.09375E+00 0.00000E+00
 -1      1577 1.06512E+02 1.09375E+00 0.00000E+00
 -1      1578 1.06374E+02 2.18750E+00 0.00000E+00
 -1      1579 1.11012E+02 1.09375E+00 0.00000E+00
 -1      1580 1.09512E+02 1.09375E+00 0.00000E+00
 -1      1581 1.09374E+02 2.18750E+00 0.00000E+00
 -1      1582 1.14012E+02 1.09375E+00 0.00000E+00
 -1      1583 1.12512E+02 1.09375E+00 0.00000E+00
 -1      1584 1.12374E+02 2.18750E+00 0.00000E+00
 -1      1585 1.17012E+02 1.09375E+00 0.00000E+00
 -1      1586 1.15512E+02 1.09375E+00 0.00000E+00
 -1      1587 1.15374E+02 2.18750E+00 0.00000E+00
 -1      1588 1.20012E+02 1.09375E+00 0.00000E+00
 -1      1589 1.18512E+02 1.09375E+00 0.00000E+00
 -1      1590 1.18374E+02 2.18750E+00 0.00000E+00
 -1      1591 1.23012E+02 1.09375E+00 0.00000E+00
 -1      1592 1.21512E+02 1.09375E+00 0.00000E+00
 -1      1593 1.21374E+02 2.18750E+00 0.00000E+00
 -1      1594 1.26012E+02 1.09375E+00 0.00000E+00
 -1      1595 1.24512E+02 1.09375E+00 0.00000E+00
 -1      1596 1.24374E+02 2.18750E+00 0.00000E+00
 -1      1597 1.29012E+02 1.09375E+00 0.00000E+00
 -1      1598 1.27512E+02 1.09375E+00 0.00000E+00
 -1      1599 1.27374E+02 2.18750E+00 0.00000E+00
 -1      1600 1.32012E+02 1.09375E+00 0.00000E+00
 -1      1601 1.30512E+02 1.09375E+00 0.00000E+00
 -1      1602 1.30374E+02 2.18750E+00 0.00000E+00
 -1      1603 1.35012E+02 1.09375E+00 0.00000E+00
 -1      1604 1.33512E+02 1.09375E+00 0.00000E+00
 -1      1605 1.33374E+02 2.18750E+00 0.00000E+00
 -1      1606 1.38012E+02 1.09375E+00 0.00000E+00
 -1      1607 1.36512E+02 1.09375E+00 0.00000E+00
 -1      1608 1.36374E+02 2.18750E+00 0.00000E+00
 -1      1609 1.41012E+02 1.09375E+00 0.00000E+00
 -1      1610 1.39512E+02 1.09375E+00 0.00000E+00
 -1      1611 1.39374E+02 2.18750E+00 0.00000E+00
 -1      1612 1.44012E+02 1.09375E+00 0.00000E+00
 -1      1613 1.42512E+02 1.09375E+00 0.00000E+00
 -1      1614 1.42374E+02 2.18750E+00 0.00000E+00
 -1      1615 1.47012E+02 1.09375E+00 0.00000E+00
 -1      1616 1.45512E+02 1.09375E+00 0.00000E+00
 -1      1617 1.45374E+02 2.18750E+00 0.00000E+00
 -1      1618 1.48575E+02 1.47500E+00 0.00000E+00
 -1      1619 1.48701E+02 5.16250E+00 0.00000E+00
 -1      1620 1.48701E+02 3.68750E+00 0.00000E+00
 -1      1621 1.48701E+02 8.11250E+00 0.00000E+00
 -1      1622 1.48701E+02 6.63750E+00 0.00000E+00
 -1      1623 1.47402E+02 5.90000E+00 0.00000E+00
 -1      1624 1.48701E+02 1.10625E+01 0.00000E+00
 -1      1625 1.48701E+02 9.58750E+00 0.00000E+00
 -1      1626 1.47402E+02 8.85000E+00 0.00000E+00
 -1      1627 1.48701E+02 1.40125E+01 0.00000E+00
 -1      1628 1.48701E+02 1.25375E+01 0.00000E+00
 -1      1629 1.47402E+02 1.18000E+01 0.00000E+00
 -1      1630 1.48701E+02 1.69125E+01 0.00000E+00
 -1      1631 1.48701E+02 1.54625E+01 0.00000E+00
 -1      1632 1.47402E+02 1.47250E+01 0.00000E+00
 -1      1633 1.48701E+02 1.98625E+01 0.00000E+00
 -1      1634 1.48701E+02 1.83875E+01 0.00000E+00
 -1      1635 1.47402E+02 1.76500E+01 0.00000E+00
 -1      1636 1.48701E+02 2.28125E+01 0.00000E+00
 -1      1637 1.48701E+02 2.13375E+01 0.00000E+00
 -1      1638 1.47402E+02 2.06000E+01 0.00000E+00
 -1      1639 1.48701E+02 2.57625E+01 0.00000E+00
 -1      1640 1.48701E+02 2.42875E+01 0.00000E+00
 -1      1641 1.47402E+02 2.35500E+01 0.00000E+00
 -1      1642 1.48701E+02 2.87125E+01 0.00000E+00
 -1      1643 1.48701E+02 2.72375E+01 0.00000E+00
 -1      1644 1.47402E+02 2.65000E+01 0.00000E+00
 -1      1645 1.48701E+02 3.16625E+01 0.00000E+00
 -1      1646 1.48701E+02 3.01875E+01 0.00000E+00
 -1      1647 1.47402E+02 2.94500E+01 0.00000E+00
 -1      1648 1.48701E+02 3.45625E+01 0.00000E+00
 -1      1649 1.48701E+02 3.31125E+01 0.00000E+00
 -1      1650 1.47402E+02 3.23750E+01 0.00000E+00
 -1      1651 1.48701E+02 3.75125E+01 0.00000E+00
 -1      1652 1.48701E+02 3.60375E+01 0.00000E+00
 -1      1653 1.47402E+02 3.53000E+01 0.00000E+00
 -1      1654 1.48701E+02 4.04625E+01 0.00000E+00
 -1      1655 1.48701E+02 3.89875E+01 0.00000E+00
 -1      1656 1.47402E+02 3.82500E+01 0.00000E+00
 -1      1657 1.48701E+02 4.34125E+01 0.00000E+00
 -1      1658 1.48701E+02 4.19375E+01 0.00000E+00
 -1      1659 1.47402E+02 4.12000E+01 0.00000E+00
 -1      1660 1.48263E+02 4.60692E+01 0.00000E+00
 -1      1661 1.48263E+02 4.45942E+01 0.00000E+00
 -1      1662 1.46964E+02 4.38568E+01 0.00000E+00
 -1      1663 1.46088E+02 4.62202E+01 0.00000E+00
 -1      1664 7.88193E+01 2.56246E+01 0.00000E+00
 -1      1665 7.88973E+01 2.63594E+01 0.00000E+00
 -1      1666 7.84366E+01 2.40417E+01 0.00000E+00
 -1      1667 7.86740E+01 2.47589E+01 0.00000E+00
 -1      1668 7.76495E+01 2.26087E+01 0.00000E+00
 -1      1669 7.80326E+01 2.32546E+01 0.00000E+00
 -1      1670 7.66367E+01 2.13794E+01 0.00000E+00
 -1      1671 7.71331E+01 2.19151E+01 0.00000E+00
 -1      1672 7.53875E+01 2.03427E+01 0.00000E+00
 -1      1673 7.60062E+01 2.07760E+01 0.00000E+00
 -1      1674 7.39281E+01 1.96723E+01 0.00000E+00
 -1      1675 7.46036E+01 1.99562E+01 0.00000E+00
 -1      1676 7.23874E+01 1.92461E+01 0.00000E+00
 -1      1677 7.31133E+01 1.93837E+01 0.00000E+00
 -1      1678 7.06812E+01 1.91641E+01 0.00000E+00
 -1      1679 7.14811E+01 1.91377E+01 0.00000E+00
 -1      1680 6.90467E+01 1.95699E+01 0.00000E+00
 -1      1681 6.97825E+01 1.93770E+01 0.00000E+00
 -1      1682 6.74631E+01 2.01858E+01 0.00000E+00
 -1      1683 6.81644E+01 1.98221E+01 0.00000E+00
 -1      1684 6.61553E+01 2.12042E+01 0.00000E+00
 -1      1685 6.67274E+01 2.07239E+01 0.00000E+00
 -1      1686 6.50745E+01 2.24516E+01 0.00000E+00
 -1      1687 6.55399E+01 2.18474E+01 0.00000E+00
 -1      1688 6.43423E+01 2.38684E+01 0.00000E+00
 -1      1689 6.46526E+01 2.32155E+01 0.00000E+00
 -1      1690 6.38503E+01 2.53571E+01 0.00000E+00
 -1      1691 6.40199E+01 2.46544E+01 0.00000E+00
 -1      1692 6.37575E+01 2.69297E+01 0.00000E+00
 -1      1693 6.37789E+01 2.62050E+01 0.00000E+00
 -1      1694 6.38960E+01 2.86043E+01 0.00000E+00
 -1      1695 6.37486E+01 2.78272E+01 0.00000E+00
 -1      1696 6.45122E+01 3.00915E+01 0.00000E+00
 -1      1697 6.42308E+01 2.94320E+01 0.00000E+00
 -1      1698 6.53661E+01 3.14565E+01 0.00000E+00
 -1      1699 6.49320E+01 3.08405E+01 0.00000E+00
 -1      1700 6.64964E+01 3.26208E+01 0.00000E+00
 -1      1701 6.59448E+01 3.21151E+01 0.00000E+00
 -1      1702 6.78313E+01 3.35547E+01 0.00000E+00
 -1      1703 6.71810E+01 3.31762E+01 0.00000E+00
 -1      1704 6.93331E+01 3.40989E+01 0.00000E+00
 -1      1705 6.86407E+01 3.38731E+01 0.00000E+00
 -1      1706 7.10098E+01 3.43961E+01 0.00000E+00
 -1      1707 7.02069E+01 3.43191E+01 0.00000E+00
 -1      1708 7.26742E+01 3.42459E+01 0.00000E+00
 -1      1709 7.19251E+01 3.43424E+01 0.00000E+00
 -1      1710 7.43422E+01 3.38288E+01 0.00000E+00
 -1      1711 7.35866E+01 3.41058E+01 0.00000E+00
 -1      1712 7.57660E+01 3.29330E+01 0.00000E+00
 -1      1713 7.51301E+01 3.33451E+01 0.00000E+00
 -1      1714 7.71158E+01 3.18023E+01 0.00000E+00
 -1      1715 7.65388E+01 3.23993E+01 0.00000E+00
 -1      1716 7.80114E+01 3.03661E+01 0.00000E+00
 -1      1717 7.76222E+01 3.10132E+01 0.00000E+00
 -1      1718 7.86313E+01 2.88124E+01 0.00000E+00
 -1      1719 7.83848E+01 2.95521E+01 0.00000E+00
 -1      1720 7.88978E+01 2.72194E+01 0.00000E+00
 -1      1721 7.88208E+01 2.79495E+01 0.00000E+00
 -1      1722 7.66991E+01 2.06318E+01 0.00000E+00
 -1      1723 7.78460E+01 2.19288E+01 0.00000E+00
 -1      1724 1.48437E+02 2.56875E+00 0.00000E+00
 -1      1725 1.47138E+02 3.30625E+00 0.00000E+00
 -1      1726 7.93158E+01 2.50623E+01 0.00000E+00
 -1      1727 7.87665E+01 2.34096E+01 0.00000E+00
 -1      1728 7.94616E+01 2.67880E+01 0.00000E+00
 -1      1729 7.52847E+01 1.96420E+01 0.00000E+00
 -1      1730 7.36859E+01 1.89668E+01 0.00000E+00
 -1      1731 7.19647E+01 1.85697E+01 0.00000E+00
 -1      1732 7.01596E+01 1.86742E+01 0.00000E+00
 -1      1733 6.83784E+01 1.91393E+01 0.00000E+00
 -1      1734 6.67603E+01 1.99296E+01 0.00000E+00
 -1      1735 6.54092E+01 2.11109E+01 0.00000E+00
 -1      1736 6.43718E+01 2.25179E+01 0.00000E+00
 -1      1737 6.36275E+01 2.40677E+01 0.00000E+00
 -1      1738 6.32337E+01 2.57016E+01 0.00000E+00
 -1      1739 6.31533E+01 2.74469E+01 0.00000E+00
 -1      1740 6.34792E+01 2.91720E+01 0.00000E+00
 -1      1741 6.42337E+01 3.07487E+01 0.00000E+00
 -1      1742 6.52322E+01 3.21562E+01 0.00000E+00
 -1      1743 6.64955E+01 3.33701E+01 0.00000E+00
 -1      1744 6.79895E+01 3.42439E+01 0.00000E+00
 -1      1745 6.96728E+01 3.47825E+01 0.00000E+00
 -1      1746 7.14618E+01 3.49491E+01 0.00000E+00
 -1      1747 7.32895E+01 3.47553E+01 0.00000E+00
 -1      1748 7.49898E+01 3.41315E+01 0.00000E+00
 -1      1749 7.65506E+01 3.31140E+01 0.00000E+00
 -1      1750 7.78299E+01 3.17912E+01 0.00000E+00
 -1      1751 7.87097E+01 3.01880E+01 0.00000E+00
 -1      1752 7.92727E+01 2.85110E+01 0.00000E+00
 -1      1753 2.87400E+00 4.77875E+01 0.00000E+00
 -1      1754 3.89700E+00 4.04125E+01 0.00000E+00
 -1      1755 3.89700E+00 4.18875E+01 0.00000E+00
 -1      1756 3.89700E+00 4.33625E+01 0.00000E+00
 -1      1757 3.89700E+00 4.48375E+01 0.00000E+00
 -1      1758 5.19600E+00 4.26250E+01 0.00000E+00
 -1      1759 3.89700E+00 3.45500E+01 0.00000E+00
 -1      1760 3.89700E+00 3.60000E+01 0.00000E+00
 -1      1761 3.89700E+00 3.16000E+01 0.00000E+00
 -1      1762 3.89700E+00 3.30750E+01 0.00000E+00
 -1      1763 5.19600E+00 3.38000E+01 0.00000E+00
 -1      1764 3.89700E+00 2.86500E+01 0.00000E+00
 -1      1765 3.89700E+00 3.01250E+01 0.00000E+00
 -1      1766 5.19600E+00 3.08500E+01 0.00000E+00
 -1      1767 3.89700E+00 2.57000E+01 0.00000E+00
 -1      1768 3.89700E+00 2.71750E+01 0.00000E+00
 -1      1769 5.19600E+00 2.79000E+01 0.00000E+00
 -1      1770 3.89700E+00 2.27500E+01 0.00000E+00
 -1      1771 3.89700E+00 2.42250E+01 0.00000E+00
 -1      1772 5.19600E+00 2.49500E+01 0.00000E+00
 -1      1773 3.89700E+00 1.98000E+01 0.00000E+00
 -1      1774 3.89700E+00 2.12750E+01 0.00000E+00
 -1      1775 5.19600E+00 2.20000E+01 0.00000E+00
 -1      1776 3.89700E+00 1.69000E+01 0.00000E+00
 -1      1777 3.89700E+00 1.83500E+01 0.00000E+00
 -1      1778 5.19600E+00 1.90750E+01 0.00000E+00
 -1      1779 3.89700E+00 1.39500E+01 0.00000E+00
 -1      1780 3.89700E+00 1.54250E+01 0.00000E+00
 -1      1781 5.19600E+00 1.61500E+01 0.00000E+00
 -1      1782 3.89700E+00 1.10000E+01 0.00000E+00
 -1      1783 3.89700E+00 1.24750E+01 0.00000E+00
 -1      1784 5.19600E+00 1.32000E+01 0.00000E+00
 -1      1785 3.89700E+00 8.05000E+00 0.00000E+00
 -1      1786 3.89700E+00 9.52500E+00 0.00000E+00
 -1      1787 5.19600E+00 1.02500E+01 0.00000E+00
 -1      1788 3.89700E+00 5.10000E+00 0.00000E+00
 -1      1789 3.89700E+00 6.57500E+00 0.00000E+00
 -1      1790 5.19600E+00 7.30000E+00 0.00000E+00
 -1      1791 4.20450E+00 3.09687E+00 0.00000E+00
 -1      1792 4.06650E+00 4.19063E+00 0.00000E+00
 -1      1793 5.36550E+00 4.91563E+00 0.00000E+00
 -1      1794 5.70450E+00 3.09687E+00 0.00000E+00
 -1      1795 3.62400E+00 4.64885E+01 0.00000E+00
 -1      1796 8.70450E+00 3.09687E+00 0.00000E+00
 -1      1797 7.20450E+00 3.09687E+00 0.00000E+00
 -1      1798 7.03500E+00 4.00625E+00 0.00000E+00
 -1      1799 4.92300E+00 4.57510E+01 0.00000E+00
 -1      1800 8.40000E+00 4.61030E+01 0.00000E+00
 -1      1801 9.90000E+00 4.61030E+01 0.00000E+00
 -1      1802 1.14000E+01 4.61030E+01 0.00000E+00
 -1      1803 1.29000E+01 4.61030E+01 0.00000E+00
 -1      1804 1.06500E+01 4.48040E+01 0.00000E+00
 -1      1805 1.44000E+01 4.61030E+01 0.00000E+00
 -1      1806 1.59000E+01 4.61030E+01 0.00000E+00
 -1      1807 1.36500E+01 4.48040E+01 0.00000E+00
 -1      1808 1.74000E+01 4.61030E+01 0.00000E+00
 -1      1809 1.89000E+01 4.61030E+01 0.00000E+00
 -1      1810 1.66500E+01 4.48040E+01 0.00000E+00
 -1      1811 2.04000E+01 4.61030E+01 0.00000E+00
 -1      1812 2.19000E+01 4.61030E+01 0.00000E+00
 -1      1813 1.96500E+01 4.48040E+01 0.00000E+00
 -1      1814 2.34000E+01 4.61030E+01 0.00000E+00
 -1      1815 2.49000E+01 4.61030E+01 0.00000E+00
 -1      1816 2.26500E+01 4.48040E+01 0.00000E+00
 -1      1817 2.64000E+01 4.61030E+01 0.00000E+00
 -1      1818 2.79000E+01 4.61030E+01 0.00000E+00
 -1      1819 2.56500E+01 4.48040E+01 0.00000E+00
 -1      1820 2.94000E+01 4.61030E+01 0.00000E+00
 -1      1821 3.09000E+01 4.61030E+01 0.00000E+00
 -1      1822 2.86500E+01 4.48040E+01 0.00000E+00
 -1      1823 3.24000E+01 4.61030E+01 0.00000E+00
 -1      1824 3.39000E+01 4.61030E+01 0.00000E+00
 -1      1825 3.16500E+01 4.48040E+01 0.00000E+00
 -1      1826 3.54000E+01 4.61030E+01 0.00000E+00
 -1      1827 3.69000E+01 4.61030E+01 0.00000E+00
 -1      1828 3.46500E+01 4.48040E+01 0.00000E+00
 -1      1829 3.84000E+01 4.61030E+01 0.00000E+00
 -1      1830 3.99000E+01 4.61030E+01 0.00000E+00
 -1      1831 3.76500E+01 4.48040E+01 0.00000E+00
 -1      1832 4.14000E+01 4.61030E+01 0.00000E+00
 -1      1833 4.29000E+01 4.61030E+01 0.00000E+00
 -1      1834 4.06500E+01 4.48040E+01 0.00000E+00
 -1      1835 4.44000E+01 4.61030E+01 0.00000E+00
 -1      1836 4.59000E+01 4.61030E+01 0.00000E+00
 -1      1837 4.36500E+01 4.48040E+01 0.00000E+00
 -1      1838 4.74000E+01 4.61030E+01 0.00000E+00
 -1      1839 4.89000E+01 4.61030E+01 0.00000E+00
 -1      1840 4.66500E+01 4.48040E+01 0.00000E+00
 -1      1841 5.04000E+01 4.61030E+01 0.00000E+00
 -1      1842 5.19000E+01 4.61030E+01 0.00000E+00
 -1      1843 4.96500E+01 4.48040E+01 0.00000E+00
 -1      1844 5.34000E+01 4.61030E+01 0.00000E+00
 -1      1845 5.49000E+01 4.61030E+01 0.00000E+00
 -1      1846 5.26500E+01 4.48040E+01 0.00000E+00
 -1      1847 5.64000E+01 4.61030E+01 0.00000E+00
 -1      1848 5.79000E+01 4.61030E+01 0.00000E+00
 -1      1849 5.56500E+01 4.48040E+01 0.00000E+00
 -1      1850 5.94000E+01 4.61030E+01 0.00000E+00
 -1      1851 6.09000E+01 4.61030E+01 0.00000E+00
 -1      1852 5.86500E+01 4.48040E+01 0.00000E+00
 -1      1853 6.24000E+01 4.61030E+01 0.00000E+00
 -1      1854 6.39000E+01 4.61030E+01 0.00000E+00
 -1      1855 6.16500E+01 4.48040E+01 0.00000E+00
 -1      1856 6.54000E+01 4.61030E+01 0.00000E+00
 -1      1857 6.69000E+01 4.61030E+01 0.00000E+00
 -1      1858 6.46500E+01 4.48040E+01 0.00000E+00
 -1      1859 6.84000E+01 4.61030E+01 0.00000E+00
 -1      1860 6.99000E+01 4.61030E+01 0.00000E+00
 -1      1861 6.76500E+01 4.48040E+01 0.00000E+00
 -1      1862 7.14000E+01 4.61030E+01 0.00000E+00
 -1      1863 7.29000E+01 4.61030E+01 0.00000E+00
 -1      1864 7.06500E+01 4.48040E+01 0.00000E+00
 -1      1865 7.44000E+01 4.61030E+01 0.00000E+00
 -1      1866 7.59000E+01 4.61030E+01 0.00000E+00
 -1      1867 7.36500E+01 4.48040E+01 0.00000E+00
 -1      1868 7.74000E+01 4.61030E+01 0.00000E+00
 -1      1869 7.89000E+01 4.61030E+01 0.00000E+00
 -1      1870 7.66500E+01 4.48040E+01 0.00000E+00
 -1      1871 8.04000E+01 4.61030E+01 0.00000E+00
 -1      1872 8.19000E+01 4.61030E+01 0.00000E+00
 -1      1873 7.96500E+01 4.48040E+01 0.00000E+00
 -1      1874 8.34000E+01 4.61030E+01 0.00000E+00
 -1      1875 8.49000E+01 4.61030E+01 0.00000E+00
 -1      1876 8.26500E+01 4.48040E+01 0.00000E+00
 -1      1877 8.64000E+01 4.61030E+01 0.00000E+00
 -1      1878 8.79000E+01 4.61030E+01 0.00000E+00
 -1      1879 8.56500E+01 4.48040E+01 0.00000E+00
 -1      1880 8.94000E+01 4.61030E+01 0.00000E+00
 -1      1881 9.09000E+01 4.61030E+01 0.00000E+00
 -1      1882 8.86500E+01 4.48040E+01 0.00000E+00
 -1      1883 9.24000E+01 4.61030E+01 0.00000E+00
 -1      1884 9.39000E+01 4.61030E+01 0.00000E+00
 -1      1885 9.16500E+01 4.48040E+01 0.00000E+00
 -1      1886 9.54000E+01 4.61030E+01 0.00000E+00
 -1      1887 9.69000E+01 4.61030E+01 0.00000E+00
 -1      1888 9.46500E+01 4.48040E+01 0.00000E+00
 -1      1889 9.84000E+01 4.61030E+01 0.00000E+00
 -1      1890 9.99000E+01 4.61030E+01 0.00000E+00
 -1      1891 9.76500E+01 4.48040E+01 0.00000E+00
 -1      1892 1.01400E+02 4.61030E+01 0.00000E+00
 -1      1893 1.02900E+02 4.61030E+01 0.00000E+00
 -1      1894 1.00650E+02 4.48040E+01 0.00000E+00
 -1      1895 1.04400E+02 4.61030E+01 0.00000E+00
 -1      1896 1.05900E+02 4.61030E+01 0.00000E+00
 -1      1897 1.03650E+02 4.48040E+01 0.00000E+00
 -1      1898 1.07400E+02 4.61030E+01 0.00000E+00
 -1      1899 1.08900E+02 4.61030E+01 0.00000E+00
 -1      1900 1.06650E+02 4.48040E+01 0.00000E+00
 -1      1901 1.10400E+02 4.61030E+01 0.00000E+00
 -1      1902 1.11900E+02 4.61030E+01 0.00000E+00
 -1      1903 1.09650E+02 4.48040E+01 0.00000E+00
 -1      1904 1.13400E+02 4.61030E+01 0.00000E+00
 -1      1905 1.14900E+02 4.61030E+01 0.00000E+00
 -1      1906 1.12650E+02 4.48040E+01 0.00000E+00
 -1      1907 1.16400E+02 4.61030E+01 0.00000E+00
 -1      1908 1.17900E+02 4.61030E+01 0.00000E+00
 -1      1909 1.15650E+02 4.48040E+01 0.00000E+00
 -1      1910 1.19400E+02 4.61030E+01 0.00000E+00
 -1      1911 1.20900E+02 4.61030E+01 0.00000E+00
 -1      1912 1.18650E+02 4.48040E+01 0.00000E+00
 -1      1913 1.22400E+02 4.61030E+01 0.00000E+00
 -1      1914 1.23900E+02 4.61030E+01 0.00000E+00
 -1      1915 1.21650E+02 4.48040E+01 0.00000E+00
 -1      1916 1.25400E+02 4.61030E+01 0.00000E+00
 -1      1917 1.26900E+02 4.61030E+01 0.00000E+00
 -1      1918 1.24650E+02 4.48040E+01 0.00000E+00
 -1      1919 1.28400E+02 4.61030E+01 0.00000E+00
 -1      1920 1.29900E+02 4.61030E+01 0.00000E+00
 -1      1921 1.27650E+02 4.48040E+01 0.00000E+00
 -1      1922 1.31400E+02 4.61030E+01 0.00000E+00
 -1      1923 1.32900E+02 4.61030E+01 0.00000E+00
 -1      1924 1.30650E+02 4.48040E+01 0.00000E+00
 -1      1925 1.34400E+02 4.61030E+01 0.00000E+00
 -1      1926 1.35900E+02 4.61030E+01 0.00000E+00
 -1      1927 1.33650E+02 4.48040E+01 0.00000E+00
 -1      1928 1.37400E+02 4.61030E+01 0.00000E+00
 -1      1929 1.38900E+02 4.61030E+01 0.00000E+00
 -1      1930 1.36650E+02 4.48040E+01 0.00000E+00
 -1      1931 1.40400E+02 4.61030E+01 0.00000E+00
 -1      1932 1.41900E+02 4.61030E+01 0.00000E+00
 -1      1933 1.39650E+02 4.48040E+01 0.00000E+00
 -1      1934 1.43244E+02 4.61616E+01 0.00000E+00
 -1      1935 1.44744E+02 4.61616E+01 0.00000E+00
 -1      1936 1.45182E+02 4.49799E+01 0.00000E+00
 -1      1937 1.42494E+02 4.48626E+01 0.00000E+00
 -1      1938 1.17045E+01 3.09687E+00 0.00000E+00
 -1      1939 1.02045E+01 3.09687E+00 0.00000E+00
 -1      1940 1.00350E+01 4.00625E+00 0.00000E+00
 -1      1941 1.47045E+01 3.09687E+00 0.00000E+00
 -1      1942 1.32045E+01 3.09687E+00 0.00000E+00
 -1      1943 1.30350E+01 4.00625E+00 0.00000E+00
 -1      1944 1.77045E+01 3.09687E+00 0.00000E+00
 -1      1945 1.62045E+01 3.09687E+00 0.00000E+00
 -1      1946 1.60350E+01 4.00625E+00 0.00000E+00
 -1      1947 2.07045E+01 3.09687E+00 0.00000E+00
 -1      1948 1.92045E+01 3.09687E+00 0.00000E+00
 -1      1949 1.90350E+01 4.00625E+00 0.00000E+00
 -1      1950 2.37045E+01 3.09687E+00 0.00000E+00
 -1      1951 2.22045E+01 3.09687E+00 0.00000E+00
 -1      1952 2.20350E+01 4.00625E+00 0.00000E+00
 -1      1953 2.67045E+01 3.09687E+00 0.00000E+00
 -1      1954 2.52045E+01 3.09687E+00 0.00000E+00
 -1      1955 2.50350E+01 4.00625E+00 0.00000E+00
 -1      1956 2.97045E+01 3.09687E+00 0.00000E+00
 -1      1957 2.82045E+01 3.09687E+00 0.00000E+00
 -1      1958 2.80350E+01 4.00625E+00 0.00000E+00
 -1      1959 3.27045E+01 3.09687E+00 0.00000E+00
 -1      1960 3.12045E+01 3.09687E+00 0.00000E+00
 -1      1961 3.10350E+01 4.00625E+00 0.00000E+00
 -1      1962 3.57045E+01 3.09687E+00 0.00000E+00
 -1      1963 3.42045E+01 3.09687E+00 0.00000E+00
 -1      1964 3.40350E+01 4.00625E+00 0.00000E+00
 -1      1965 3.87045E+01 3.09687E+00 0.00000E+00
 -1      1966 3.72045E+01 3.09687E+00 0.00000E+00
 -1      1967 3.70350E+01 4.00625E+00 0.00000E+00
 -1      1968 4.17045E+01 3.09687E+00 0.00000E+00
 -1      1969 4.02045E+01 3.09687E+00 0.00000E+00
 -1      1970 4.00350E+01 4.00625E+00 0.00000E+00
 -1      1971 4.47045E+01 3.09687E+00 0.00000E+00
 -1      1972 4.32045E+01 3.09687E+00 0.00000E+00
 -1      1973 4.30350E+01 4.00625E+00 0.00000E+00
 -1      1974 4.77045E+01 3.09687E+00 0.00000E+00
 -1      1975 4.62045E+01 3.09687E+00 0.00000E+00
 -1      1976 4.60350E+01 4.00625E+00 0.00000E+00
 -1      1977 5.07045E+01 3.09687E+00 0.00000E+00
 -1      1978 4.92045E+01 3.09687E+00 0.00000E+00
 -1      1979 4.90350E+01 4.00625E+00 0.00000E+00
 -1      1980 5.37045E+01 3.09687E+00 0.00000E+00
 -1      1981 5.22045E+01 3.09687E+00 0.00000E+00
 -1      1982 5.20350E+01 4.00625E+00 0.00000E+00
 -1      1983 5.67045E+01 3.09687E+00 0.00000E+00
 -1      1984 5.52045E+01 3.09687E+00 0.00000E+00
 -1      1985 5.50350E+01 4.00625E+00 0.00000E+00
 -1      1986 5.97045E+01 3.09687E+00 0.00000E+00
 -1      1987 5.82045E+01 3.09687E+00 0.00000E+00
 -1      1988 5.80350E+01 4.00625E+00 0.00000E+00
 -1      1989 6.27045E+01 3.09687E+00 0.00000E+00
 -1      1990 6.12045E+01 3.09687E+00 0.00000E+00
 -1      1991 6.10350E+01 4.00625E+00 0.00000E+00
 -1      1992 6.57045E+01 3.09687E+00 0.00000E+00
 -1      1993 6.42045E+01 3.09687E+00 0.00000E+00
 -1      1994 6.40350E+01 4.00625E+00 0.00000E+00
 -1      1995 6.87045E+01 3.09687E+00 0.00000E+00
 -1      1996 6.72045E+01 3.09687E+00 0.00000E+00
 -1      1997 6.70350E+01 4.00625E+00 0.00000E+00
 -1      1998 7.17045E+01 3.09687E+00 0.00000E+00
 -1      1999 7.02045E+01 3.09687E+00 0.00000E+00
 -1      2000 7.00350E+01 4.00625E+00 0.00000E+00
 -1      2001 7.47045E+01 3.09687E+00 0.00000E+00
 -1      2002 7.32045E+01 3.09687E+00 0.00000E+00
 -1      2003 7.30350E+01 4.00625E+00 0.00000E+00
 -1      2004 7.77045E+01 3.09687E+00 0.00000E+00
 -1      2005 7.62045E+01 3.09687E+00 0.00000E+00
 -1      2006 7.60350E+01 4.00625E+00 0.00000E+00
 -1      2007 8.07045E+01 3.09687E+00 0.00000E+00
 -1      2008 7.92045E+01 3.09687E+00 0.00000E+00
 -1      2009 7.90350E+01 4.00625E+00 0.00000E+00
 -1      2010 8.37045E+01 3.09687E+00 0.00000E+00
 -1      2011 8.22045E+01 3.09687E+00 0.00000E+00
 -1      2012 8.20350E+01 4.00625E+00 0.00000E+00
 -1      2013 8.67045E+01 3.09687E+00 0.00000E+00
 -1      2014 8.52045E+01 3.09687E+00 0.00000E+00
 -1      2015 8.50350E+01 4.00625E+00 0.00000E+00
 -1      2016 8.97045E+01 3.09687E+00 0.00000E+00
 -1      2017 8.82045E+01 3.09687E+00 0.00000E+00
 -1      2018 8.80350E+01 4.00625E+00 0.00000E+00
 -1      2019 9.27045E+01 3.09687E+00 0.00000E+00
 -1      2020 9.12045E+01 3.09687E+00 0.00000E+00
 -1      2021 9.10350E+01 4.00625E+00 0.00000E+00
 -1      2022 9.57045E+01 3.09687E+00 0.00000E+00
 -1      2023 9.42045E+01 3.09687E+00 0.00000E+00
 -1      2024 9.40350E+01 4.00625E+00 0.00000E+00
 -1      2025 9.87045E+01 3.09687E+00 0.00000E+00
 -1      2026 9.72045E+01 3.09687E+00 0.00000E+00
 -1      2027 9.70350E+01 4.00625E+00 0.00000E+00
 -1      2028 1.01704E+02 3.09687E+00 0.00000E+00
 -1      2029 1.00204E+02 3.09687E+00 0.00000E+00
 -1      2030 1.00035E+02 4.00625E+00 0.00000E+00
 -1      2031 1.04704E+02 3.09687E+00 0.00000E+00
 -1      2032 1.03204E+02 3.09687E+00 0.00000E+00
 -1      2033 1.03035E+02 4.00625E+00 0.00000E+00
 -1      2034 1.07704E+02 3.09687E+00 0.00000E+00
 -1      2035 1.06204E+02 3.09687E+00 0.00000E+00
 -1      2036 1.06035E+02 4.00625E+00 0.00000E+00
 -1      2037 1.10704E+02 3.09687E+00 0.00000E+00
 -1      2038 1.09204E+02 3.09687E+00 0.00000E+00
 -1      2039 1.09035E+02 4.00625E+00 0.00000E+00
 -1      2040 1.13704E+02 3.09687E+00 0.00000E+00
 -1      2041 1.12204E+02 3.09687E+00 0.00000E+00
 -1      2042 1.12035E+02 4.00625E+00 0.00000E+00
 -1      2043 1.16704E+02 3.09687E+00 0.00000E+00
 -1      2044 1.15204E+02 3.09687E+00 0.00000E+00
 -1      2045 1.15035E+02 4.00625E+00 0.00000E+00
 -1      2046 1.19704E+02 3.09687E+00 0.00000E+00
 -1      2047 1.18204E+02 3.09687E+00 0.00000E+00
 -1      2048 1.18035E+02 4.00625E+00 0.00000E+00
 -1      2049 1.22704E+02 3.09687E+00 0.00000E+00
 -1      2050 1.21204E+02 3.09687E+00 0.00000E+00
 -1      2051 1.21035E+02 4.00625E+00 0.00000E+00
 -1      2052 1.25704E+02 3.09687E+00 0.00000E+00
 -1      2053 1.24204E+02 3.09687E+00 0.00000E+00
 -1      2054 1.24035E+02 4.00625E+00 0.00000E+00
 -1      2055 1.28704E+02 3.09687E+00 0.00000E+00
 -1      2056 1.27204E+02 3.09687E+00 0.00000E+00
 -1      2057 1.27035E+02 4.00625E+00 0.00000E+00
 -1      2058 1.31704E+02 3.09687E+00 0.00000E+00
 -1      2059 1.30204E+02 3.09687E+00 0.00000E+00
 -1      2060 1.30035E+02 4.00625E+00 0.00000E+00
 -1      2061 1.34704E+02 3.09687E+00 0.00000E+00
 -1      2062 1.33204E+02 3.09687E+00 0.00000E+00
 -1      2063 1.33035E+02 4.00625E+00 0.00000E+00
 -1      2064 1.37704E+02 3.09687E+00 0.00000E+00
 -1      2065 1.36204E+02 3.09687E+00 0.00000E+00
 -1      2066 1.36035E+02 4.00625E+00 0.00000E+00
 -1      2067 1.40704E+02 3.09687E+00 0.00000E+00
 -1      2068 1.39204E+02 3.09687E+00 0.00000E+00
 -1      2069 1.39035E+02 4.00625E+00 0.00000E+00
 -1      2070 1.43704E+02 3.09687E+00 0.00000E+00
 -1      2071 1.42204E+02 3.09687E+00 0.00000E+00
 -1      2072 1.42035E+02 4.00625E+00 0.00000E+00
 -1      2073 1.46171E+02 3.20156E+00 0.00000E+00
 -1      2074 1.44671E+02 3.20156E+00 0.00000E+00
 -1      2075 1.44502E+02 4.11094E+00 0.00000E+00
 -1      2076 1.46435E+02 4.32031E+00 0.00000E+00
 -1      2077 1.46103E+02 1.25375E+01 0.00000E+00
 -1      2078 1.46103E+02 1.10625E+01 0.00000E+00
 -1      2079 1.46103E+02 9.58750E+00 0.00000E+00
 -1      2080 1.46103E+02 8.11250E+00 0.00000E+00
 -1      2081 1.44804E+02 1.03250E+01 0.00000E+00
 -1      2082 1.46269E+02 6.95391E+00 0.00000E+00
 -1      2083 1.46269E+02 5.47891E+00 0.00000E+00
 -1      2084 1.45302E+02 5.37422E+00 0.00000E+00
 -1      2085 1.44970E+02 7.69141E+00 0.00000E+00
 -1      2086 1.46103E+02 1.54375E+01 0.00000E+00
 -1      2087 1.46103E+02 1.39875E+01 0.00000E+00
 -1      2088 1.44804E+02 1.32500E+01 0.00000E+00
 -1      2089 1.46103E+02 1.83875E+01 0.00000E+00
 -1      2090 1.46103E+02 1.69125E+01 0.00000E+00
 -1      2091 1.44804E+02 1.61750E+01 0.00000E+00
 -1      2092 1.46103E+02 2.13375E+01 0.00000E+00
 -1      2093 1.46103E+02 1.98625E+01 0.00000E+00
 -1      2094 1.44804E+02 1.91250E+01 0.00000E+00
 -1      2095 1.46103E+02 2.42875E+01 0.00000E+00
 -1      2096 1.46103E+02 2.28125E+01 0.00000E+00
 -1      2097 1.44804E+02 2.20750E+01 0.00000E+00
 -1      2098 1.46103E+02 2.72375E+01 0.00000E+00
 -1      2099 1.46103E+02 2.57625E+01 0.00000E+00
 -1      2100 1.44804E+02 2.50250E+01 0.00000E+00
 -1      2101 1.46103E+02 3.01875E+01 0.00000E+00
 -1      2102 1.46103E+02 2.87125E+01 0.00000E+00
 -1      2103 1.44804E+02 2.79750E+01 0.00000E+00
 -1      2104 1.46103E+02 3.30875E+01 0.00000E+00
 -1      2105 1.46103E+02 3.16375E+01 0.00000E+00
 -1      2106 1.44804E+02 3.09000E+01 0.00000E+00
 -1      2107 1.46103E+02 3.60375E+01 0.00000E+00
 -1      2108 1.46103E+02 3.45625E+01 0.00000E+00
 -1      2109 1.44804E+02 3.38250E+01 0.00000E+00
 -1      2110 1.46103E+02 3.89875E+01 0.00000E+00
 -1      2111 1.46103E+02 3.75125E+01 0.00000E+00
 -1      2112 1.44804E+02 3.67750E+01 0.00000E+00
 -1      2113 1.46103E+02 4.19375E+01 0.00000E+00
 -1      2114 1.46103E+02 4.04625E+01 0.00000E+00
 -1      2115 1.44804E+02 3.97250E+01 0.00000E+00
 -1      2116 7.92156E+01 2.26817E+01 0.00000E+00
 -1      2117 7.96197E+01 2.34689E+01 0.00000E+00
 -1      2118 8.01514E+01 2.63576E+01 0.00000E+00
 -1      2119 8.01519E+01 2.72176E+01 0.00000E+00
 -1      2120 8.00063E+01 2.45015E+01 0.00000E+00
 -1      2121 8.01516E+01 2.53671E+01 0.00000E+00
 -1      2122 7.82756E+01 2.10699E+01 0.00000E+00
 -1      2123 7.87921E+01 2.17635E+01 0.00000E+00
 -1      2124 7.68609E+01 1.98317E+01 0.00000E+00
 -1      2125 7.74914E+01 2.04350E+01 0.00000E+00
 -1      2126 3.89700E+00 3.74688E+01 0.00000E+00
 -1      2127 3.89700E+00 3.89437E+01 0.00000E+00
 -1      2128 5.19600E+00 3.96813E+01 0.00000E+00
 -1      2129 5.19600E+00 3.67438E+01 0.00000E+00
 -1      2130 7.35368E+01 1.80931E+01 0.00000E+00
 -1      2131 7.43517E+01 1.83817E+01 0.00000E+00
 -1      2132 7.16035E+01 1.77472E+01 0.00000E+00
 -1      2133 7.25098E+01 1.78556E+01 0.00000E+00
 -1      2134 6.95512E+01 1.81092E+01 0.00000E+00
 -1      2135 7.04500E+01 1.78963E+01 0.00000E+00
 -1      2136 6.77477E+01 1.86019E+01 0.00000E+00
 -1      2137 6.86300E+01 1.83497E+01 0.00000E+00
 -1      2138 6.59604E+01 1.96079E+01 0.00000E+00
 -1      2139 6.66961E+01 1.90698E+01 0.00000E+00
 -1      2140 6.45121E+01 2.08685E+01 0.00000E+00
 -1      2141 6.51276E+01 2.02254E+01 0.00000E+00
 -1      2142 6.35569E+01 2.25662E+01 0.00000E+00
 -1      2143 6.39788E+01 2.18024E+01 0.00000E+00
 -1      2144 6.28279E+01 2.41989E+01 0.00000E+00
 -1      2145 6.31504E+01 2.34129E+01 0.00000E+00
 -1      2146 6.25104E+01 2.60677E+01 0.00000E+00
 -1      2147 6.25818E+01 2.52198E+01 0.00000E+00
 -1      2148 6.23751E+01 2.78879E+01 0.00000E+00
 -1      2149 6.23841E+01 2.69905E+01 0.00000E+00
 -1      2150 6.29292E+01 2.98760E+01 0.00000E+00
 -1      2151 6.25945E+01 2.90483E+01 0.00000E+00
 -1      2152 6.38782E+01 3.14400E+01 0.00000E+00
 -1      2153 6.34585E+01 3.06910E+01 0.00000E+00
 -1      2154 6.50348E+01 3.29133E+01 0.00000E+00
 -1      2155 6.44560E+01 3.22548E+01 0.00000E+00
 -1      2156 6.63767E+01 3.42162E+01 0.00000E+00
 -1      2157 6.56921E+01 3.36608E+01 0.00000E+00
 -1      2158 6.81570E+01 3.50063E+01 0.00000E+00
 -1      2159 6.73475E+01 3.46878E+01 0.00000E+00
 -1      2160 6.99513E+01 3.55211E+01 0.00000E+00
 -1      2161 6.90775E+01 3.53009E+01 0.00000E+00
 -1      2162 7.19647E+01 3.56947E+01 0.00000E+00
 -1      2163 7.10495E+01 3.57483E+01 0.00000E+00
 -1      2164 7.37896E+01 3.54144E+01 0.00000E+00
 -1      2165 7.28772E+01 3.55545E+01 0.00000E+00
 -1      2166 7.24648E+01 3.63538E+01 0.00000E+00
 -1      2167 7.58324E+01 3.46204E+01 0.00000E+00
 -1      2168 7.50445E+01 3.51041E+01 0.00000E+00
 -1      2169 7.73781E+01 3.35530E+01 0.00000E+00
 -1      2170 7.66053E+01 3.40867E+01 0.00000E+00
 -1      2171 7.66600E+01 3.50594E+01 0.00000E+00
 -1      2172 7.87343E+01 3.18145E+01 0.00000E+00
 -1      2173 7.82279E+01 3.26037E+01 0.00000E+00
 -1      2174 7.95236E+01 3.00687E+01 0.00000E+00
 -1      2175 7.91502E+01 3.08827E+01 0.00000E+00
 -1      2176 8.00004E+01 2.82185E+01 0.00000E+00
 -1      2177 7.98109E+01 2.90815E+01 0.00000E+00
 -1      2178 7.51979E+01 1.88298E+01 0.00000E+00
 -1      2179 7.59818E+01 1.92164E+01 0.00000E+00
 -1      2180 7.84374E+01 2.02697E+01 0.00000E+00
 -1      2181 6.42300E+00 4.57510E+01 0.00000E+00
 -1      2182 7.67741E+01 1.90196E+01 0.00000E+00
 -1      2183 7.50488E+01 1.79562E+01 0.00000E+00
 -1      2184 7.17300E+00 4.44520E+01 0.00000E+00
 -1      2185 8.04554E+01 2.37737E+01 0.00000E+00
 -1      2186 8.08418E+01 2.57967E+01 0.00000E+00
 -1      2187 1.45665E+02 4.31193E+01 0.00000E+00
 -1      2188 7.96452E+01 2.18228E+01 0.00000E+00
 -1      2189 8.06901E+01 2.77881E+01 0.00000E+00
 -1      2190 8.02514E+01 2.97762E+01 0.00000E+00
 -1      2191 7.82825E+01 3.35764E+01 0.00000E+00
 -1      2192 7.46322E+01 3.59034E+01 0.00000E+00
 -1      2193 7.04542E+01 3.62667E+01 0.00000E+00
 -1      2194 6.84355E+01 3.57448E+01 0.00000E+00
 -1      2195 6.65442E+01 3.49785E+01 0.00000E+00
 -1      2196 6.49159E+01 3.37594E+01 0.00000E+00
 -1      2197 6.36808E+01 3.21971E+01 0.00000E+00
 -1      2198 6.25738E+01 3.05673E+01 0.00000E+00
 -1      2199 6.18252E+01 2.85919E+01 0.00000E+00
 -1      2200 6.17322E+01 2.65087E+01 0.00000E+00
 -1      2201 6.21047E+01 2.45649E+01 0.00000E+00
 -1      2202 6.27573E+01 2.26974E+01 0.00000E+00
 -1      2203 6.36972E+01 2.09169E+01 0.00000E+00
 -1      2204 6.50633E+01 1.93656E+01 0.00000E+00
 -1      2205 6.69477E+01 1.82803E+01 0.00000E+00
 -1      2206 6.89204E+01 1.75719E+01 0.00000E+00
 -1      2207 7.31756E+01 1.72706E+01 0.00000E+00
 -1      2208 7.09950E+01 1.71822E+01 0.00000E+00
 -1      2209 7.95481E+01 3.16952E+01 0.00000E+00
 -1      2210 1.07850E+01 5.30525E+00 0.00000E+00
 -1      2211 9.28500E+00 5.30525E+00 0.00000E+00
 -1      2212 6.49500E+00 3.01125E+01 0.00000E+00
 -1      2213 6.49500E+00 3.15875E+01 0.00000E+00
 -1      2214 6.49500E+00 3.30625E+01 0.00000E+00
 -1      2215 6.49500E+00 3.45375E+01 0.00000E+00
 -1      2216 7.79400E+00 3.23250E+01 0.00000E+00
 -1      2217 6.49500E+00 2.42125E+01 0.00000E+00
 -1      2218 6.49500E+00 2.56875E+01 0.00000E+00
 -1      2219 6.49500E+00 2.12625E+01 0.00000E+00
 -1      2220 6.49500E+00 2.27375E+01 0.00000E+00
 -1      2221 7.79400E+00 2.34750E+01 0.00000E+00
 -1      2222 6.49500E+00 1.83625E+01 0.00000E+00
 -1      2223 6.49500E+00 1.98125E+01 0.00000E+00
 -1      2224 7.79400E+00 2.05500E+01 0.00000E+00
 -1      2225 6.49500E+00 1.54125E+01 0.00000E+00
 -1      2226 6.49500E+00 1.68875E+01 0.00000E+00
 -1      2227 7.79400E+00 1.76250E+01 0.00000E+00
 -1      2228 6.49500E+00 1.24625E+01 0.00000E+00
 -1      2229 6.49500E+00 1.39375E+01 0.00000E+00
 -1      2230 7.79400E+00 1.46750E+01 0.00000E+00
 -1      2231 6.49500E+00 9.51250E+00 0.00000E+00
 -1      2232 6.49500E+00 1.09875E+01 0.00000E+00
 -1      2233 7.79400E+00 1.17250E+01 0.00000E+00
 -1      2234 1.37850E+01 5.30525E+00 0.00000E+00
 -1      2235 1.22850E+01 5.30525E+00 0.00000E+00
 -1      2236 1.15350E+01 6.60425E+00 0.00000E+00
 -1      2237 9.90000E+00 4.35050E+01 0.00000E+00
 -1      2238 1.14000E+01 4.35050E+01 0.00000E+00
 -1      2239 7.67782E+01 1.80780E+01 0.00000E+00
 -1      2240 7.76573E+01 1.86933E+01 0.00000E+00
 -1      2241 1.29000E+01 4.35050E+01 0.00000E+00
 -1      2242 1.44000E+01 4.35050E+01 0.00000E+00
 -1      2243 1.21500E+01 4.22060E+01 0.00000E+00
 -1      2244 1.59000E+01 4.35050E+01 0.00000E+00
 -1      2245 1.74000E+01 4.35050E+01 0.00000E+00
 -1      2246 1.51500E+01 4.22060E+01 0.00000E+00
 -1      2247 1.89000E+01 4.35050E+01 0.00000E+00
 -1      2248 2.04000E+01 4.35050E+01 0.00000E+00
 -1      2249 1.81500E+01 4.22060E+01 0.00000E+00
 -1      2250 2.19000E+01 4.35050E+01 0.00000E+00
 -1      2251 2.34000E+01 4.35050E+01 0.00000E+00
 -1      2252 2.11500E+01 4.22060E+01 0.00000E+00
 -1      2253 2.49000E+01 4.35050E+01 0.00000E+00
 -1      2254 2.64000E+01 4.35050E+01 0.00000E+00
 -1      2255 2.41500E+01 4.22060E+01 0.00000E+00
 -1      2256 2.79000E+01 4.35050E+01 0.00000E+00
 -1      2257 2.94000E+01 4.35050E+01 0.00000E+00
 -1      2258 2.71500E+01 4.22060E+01 0.00000E+00
 -1      2259 3.09000E+01 4.35050E+01 0.00000E+00
 -1      2260 3.24000E+01 4.35050E+01 0.00000E+00
 -1      2261 3.01500E+01 4.22060E+01 0.00000E+00
 -1      2262 3.39000E+01 4.35050E+01 0.00000E+00
 -1      2263 3.54000E+01 4.35050E+01 0.00000E+00
 -1      2264 3.31500E+01 4.22060E+01 0.00000E+00
 -1      2265 3.69000E+01 4.35050E+01 0.00000E+00
 -1      2266 3.84000E+01 4.35050E+01 0.00000E+00
 -1      2267 3.61500E+01 4.22060E+01 0.00000E+00
 -1      2268 3.99000E+01 4.35050E+01 0.00000E+00
 -1      2269 4.14000E+01 4.35050E+01 0.00000E+00
 -1      2270 3.91500E+01 4.22060E+01 0.00000E+00
 -1      2271 4.29000E+01 4.35050E+01 0.00000E+00
 -1      2272 4.44000E+01 4.35050E+01 0.00000E+00
 -1      2273 4.21500E+01 4.22060E+01 0.00000E+00
 -1      2274 4.59000E+01 4.35050E+01 0.00000E+00
 -1      2275 4.74000E+01 4.35050E+01 0.00000E+00
 -1      2276 4.51500E+01 4.22060E+01 0.00000E+00
 -1      2277 4.89000E+01 4.35050E+01 0.00000E+00
 -1      2278 5.04000E+01 4.35050E+01 0.00000E+00
 -1      2279 4.81500E+01 4.22060E+01 0.00000E+00
 -1      2280 5.19000E+01 4.35050E+01 0.00000E+00
 -1      2281 5.34000E+01 4.35050E+01 0.00000E+00
 -1      2282 5.11500E+01 4.22060E+01 0.00000E+00
 -1      2283 5.49000E+01 4.35050E+01 0.00000E+00
 -1      2284 5.64000E+01 4.35050E+01 0.00000E+00
 -1      2285 5.41500E+01 4.22060E+01 0.00000E+00
 -1      2286 5.79000E+01 4.35050E+01 0.00000E+00
 -1      2287 5.94000E+01 4.35050E+01 0.00000E+00
 -1      2288 5.71500E+01 4.22060E+01 0.00000E+00
 -1      2289 6.09000E+01 4.35050E+01 0.00000E+00
 -1      2290 6.24000E+01 4.35050E+01 0.00000E+00
 -1      2291 6.01500E+01 4.22060E+01 0.00000E+00
 -1      2292 6.39000E+01 4.35050E+01 0.00000E+00
 -1      2293 6.54000E+01 4.35050E+01 0.00000E+00
 -1      2294 6.31500E+01 4.22060E+01 0.00000E+00
 -1      2295 6.69000E+01 4.35050E+01 0.00000E+00
 -1      2296 6.84000E+01 4.35050E+01 0.00000E+00
 -1      2297 6.61500E+01 4.22060E+01 0.00000E+00
 -1      2298 6.99000E+01 4.35050E+01 0.00000E+00
 -1      2299 7.14000E+01 4.35050E+01 0.00000E+00
 -1      2300 6.91500E+01 4.22060E+01 0.00000E+00
 -1      2301 7.29000E+01 4.35050E+01 0.00000E+00
 -1      2302 7.44000E+01 4.35050E+01 0.00000E+00
 -1      2303 7.21500E+01 4.22060E+01 0.00000E+00
 -1      2304 7.59000E+01 4.35050E+01 0.00000E+00
 -1      2305 7.74000E+01 4.35050E+01 0.00000E+00
 -1      2306 7.51500E+01 4.22060E+01 0.00000E+00
 -1      2307 7.89000E+01 4.35050E+01 0.00000E+00
 -1      2308 8.04000E+01 4.35050E+01 0.00000E+00
 -1      2309 7.81500E+01 4.22060E+01 0.00000E+00
 -1      2310 8.19000E+01 4.35050E+01 0.00000E+00
 -1      2311 8.34000E+01 4.35050E+01 0.00000E+00
 -1      2312 8.11500E+01 4.22060E+01 0.00000E+00
 -1      2313 8.49000E+01 4.35050E+01 0.00000E+00
 -1      2314 8.64000E+01 4.35050E+01 0.00000E+00
 -1      2315 8.41500E+01 4.22060E+01 0.00000E+00
 -1      2316 8.79000E+01 4.35050E+01 0.00000E+00
 -1      2317 8.94000E+01 4.35050E+01 0.00000E+00
 -1      2318 8.71500E+01 4.22060E+01 0.00000E+00
 -1      2319 9.09000E+01 4.35050E+01 0.00000E+00
 -1      2320 9.24000E+01 4.35050E+01 0.00000E+00
 -1      2321 9.01500E+01 4.22060E+01 0.00000E+00
 -1      2322 9.39000E+01 4.35050E+01 0.00000E+00
 -1      2323 9.54000E+01 4.35050E+01 0.00000E+00
 -1      2324 9.31500E+01 4.22060E+01 0.00000E+00
 -1      2325 9.69000E+01 4.35050E+01 0.00000E+00
 -1      2326 9.84000E+01 4.35050E+01 0.00000E+00
 -1      2327 9.61500E+01 4.22060E+01 0.00000E+00
 -1      2328 9.99000E+01 4.35050E+01 0.00000E+00
 -1      2329 1.01400E+02 4.35050E+01 0.00000E+00
 -1      2330 9.91500E+01 4.22060E+01 0.00000E+00
 -1      2331 1.02900E+02 4.35050E+01 0.00000E+00
 -1      2332 1.04400E+02 4.35050E+01 0.00000E+00
 -1      2333 1.02150E+02 4.22060E+01 0.00000E+00
 -1      2334 1.05900E+02 4.35050E+01 0.00000E+00
 -1      2335 1.07400E+02 4.35050E+01 0.00000E+00
 -1      2336 1.05150E+02 4.22060E+01 0.00000E+00
 -1      2337 1.08900E+02 4.35050E+01 0.00000E+00
 -1      2338 1.10400E+02 4.35050E+01 0.00000E+00
 -1      2339 1.08150E+02 4.22060E+01 0.00000E+00
 -1      2340 1.11900E+02 4.35050E+01 0.00000E+00
 -1      2341 1.13400E+02 4.35050E+01 0.00000E+00
 -1      2342 1.11150E+02 4.22060E+01 0.00000E+00
 -1      2343 1.14900E+02 4.35050E+01 0.00000E+00
 -1      2344 1.16400E+02 4.35050E+01 0.00000E+00
 -1      2345 1.14150E+02 4.22060E+01 0.00000E+00
 -1      2346 1.17900E+02 4.35050E+01 0.00000E+00
 -1      2347 1.19400E+02 4.35050E+01 0.00000E+00
 -1      2348 1.17150E+02 4.22060E+01 0.00000E+00
 -1      2349 1.20900E+02 4.35050E+01 0.00000E+00
 -1      2350 1.22400E+02 4.35050E+01 0.00000E+00
 -1      2351 1.20150E+02 4.22060E+01 0.00000E+00
 -1      2352 1.23900E+02 4.35050E+01 0.00000E+00
 -1      2353 1.25400E+02 4.35050E+01 0.00000E+00
 -1      2354 1.23150E+02 4.22060E+01 0.00000E+00
 -1      2355 1.26900E+02 4.35050E+01 0.00000E+00
 -1      2356 1.28400E+02 4.35050E+01 0.00000E+00
 -1      2357 1.26150E+02 4.22060E+01 0.00000E+00
 -1      2358 1.29900E+02 4.35050E+01 0.00000E+00
 -1      2359 1.31400E+02 4.35050E+01 0.00000E+00
 -1      2360 1.29150E+02 4.22060E+01 0.00000E+00
 -1      2361 1.32900E+02 4.35050E+01 0.00000E+00
 -1      2362 1.34400E+02 4.35050E+01 0.00000E+00
 -1      2363 1.32150E+02 4.22060E+01 0.00000E+00
 -1      2364 1.35900E+02 4.35050E+01 0.00000E+00
 -1      2365 1.37400E+02 4.35050E+01 0.00000E+00
 -1      2366 1.35150E+02 4.22060E+01 0.00000E+00
 -1      2367 1.38900E+02 4.35050E+01 0.00000E+00
 -1      2368 1.40400E+02 4.35050E+01 0.00000E+00
 -1      2369 1.38150E+02 4.22060E+01 0.00000E+00
 -1      2370 1.97850E+01 5.30525E+00 0.00000E+00
 -1      2371 1.82850E+01 5.30525E+00 0.00000E+00
 -1      2372 2.27850E+01 5.30525E+00 0.00000E+00
 -1      2373 2.12850E+01 5.30525E+00 0.00000E+00
 -1      2374 2.05350E+01 6.60425E+00 0.00000E+00
 -1      2375 2.57850E+01 5.30525E+00 0.00000E+00
 -1      2376 2.42850E+01 5.30525E+00 0.00000E+00
 -1      2377 2.35350E+01 6.60425E+00 0.00000E+00
 -1      2378 2.87850E+01 5.30525E+00 0.00000E+00
 -1      2379 2.72850E+01 5.30525E+00 0.00000E+00
 -1      2380 2.65350E+01 6.60425E+00 0.00000E+00
 -1      2381 3.17850E+01 5.30525E+00 0.00000E+00
 -1      2382 3.02850E+01 5.30525E+00 0.00000E+00
 -1      2383 2.95350E+01 6.60425E+00 0.00000E+00
 -1      2384 3.47850E+01 5.30525E+00 0.00000E+00
 -1      2385 3.32850E+01 5.30525E+00 0.00000E+00
 -1      2386 3.25350E+01 6.60425E+00 0.00000E+00
 -1      2387 3.77850E+01 5.30525E+00 0.00000E+00
 -1      2388 3.62850E+01 5.30525E+00 0.00000E+00
 -1      2389 3.55350E+01 6.60425E+00 0.00000E+00
 -1      2390 4.07850E+01 5.30525E+00 0.00000E+00
 -1      2391 3.92850E+01 5.30525E+00 0.00000E+00
 -1      2392 3.85350E+01 6.60425E+00 0.00000E+00
 -1      2393 4.37850E+01 5.30525E+00 0.00000E+00
 -1      2394 4.22850E+01 5.30525E+00 0.00000E+00
 -1      2395 4.15350E+01 6.60425E+00 0.00000E+00
 -1      2396 4.67850E+01 5.30525E+00 0.00000E+00
 -1      2397 4.52850E+01 5.30525E+00 0.00000E+00
 -1      2398 4.45350E+01 6.60425E+00 0.00000E+00
 -1      2399 4.97850E+01 5.30525E+00 0.00000E+00
 -1      2400 4.82850E+01 5.30525E+00 0.00000E+00
 -1      2401 4.75350E+01 6.60425E+00 0.00000E+00
 -1      2402 5.27850E+01 5.30525E+00 0.00000E+00
 -1      2403 5.12850E+01 5.30525E+00 0.00000E+00
 -1      2404 5.05350E+01 6.60425E+00 0.00000E+00
 -1      2405 5.57850E+01 5.30525E+00 0.00000E+00
 -1      2406 5.42850E+01 5.30525E+00 0.00000E+00
 -1      2407 5.35350E+01 6.60425E+00 0.00000E+00
 -1      2408 5.87850E+01 5.30525E+00 0.00000E+00
 -1      2409 5.72850E+01 5.30525E+00 0.00000E+00
 -1      2410 5.65350E+01 6.60425E+00 0.00000E+00
 -1      2411 6.17850E+01 5.30525E+00 0.00000E+00
 -1      2412 6.02850E+01 5.30525E+00 0.00000E+00
 -1      2413 5.95350E+01 6.60425E+00 0.00000E+00
 -1      2414 6.47850E+01 5.30525E+00 0.00000E+00
 -1      2415 6.32850E+01 5.30525E+00 0.00000E+00
 -1      2416 6.25350E+01 6.60425E+00 0.00000E+00
 -1      2417 6.77850E+01 5.30525E+00 0.00000E+00
 -1      2418 6.62850E+01 5.30525E+00 0.00000E+00
 -1      2419 6.55350E+01 6.60425E+00 0.00000E+00
 -1      2420 7.07850E+01 5.30525E+00 0.00000E+00
 -1      2421 6.92850E+01 5.30525E+00 0.00000E+00
 -1      2422 6.85350E+01 6.60425E+00 0.00000E+00
 -1      2423 7.37850E+01 5.30525E+00 0.00000E+00
 -1      2424 7.22850E+01 5.30525E+00 0.00000E+00
 -1      2425 7.15350E+01 6.60425E+00 0.00000E+00
 -1      2426 7.67850E+01 5.30525E+00 0.00000E+00
 -1      2427 7.52850E+01 5.30525E+00 0.00000E+00
 -1      2428 7.45350E+01 6.60425E+00 0.00000E+00
 -1      2429 7.97850E+01 5.30525E+00 0.00000E+00
 -1      2430 7.82850E+01 5.30525E+00 0.00000E+00
 -1      2431 7.75350E+01 6.60425E+00 0.00000E+00
 -1      2432 8.27850E+01 5.30525E+00 0.00000E+00
 -1      2433 8.12850E+01 5.30525E+00 0.00000E+00
 -1      2434 8.05350E+01 6.60425E+00 0.00000E+00
 -1      2435 8.57850E+01 5.30525E+00 0.00000E+00
 -1      2436 8.42850E+01 5.30525E+00 0.00000E+00
 -1      2437 8.35350E+01 6.60425E+00 0.00000E+00
 -1      2438 8.87850E+01 5.30525E+00 0.00000E+00
 -1      2439 8.72850E+01 5.30525E+00 0.00000E+00
 -1      2440 8.65350E+01 6.60425E+00 0.00000E+00
 -1      2441 9.17850E+01 5.30525E+00 0.00000E+00
 -1      2442 9.02850E+01 5.30525E+00 0.00000E+00
 -1      2443 8.95350E+01 6.60425E+00 0.00000E+00
 -1      2444 9.47850E+01 5.30525E+00 0.00000E+00
 -1      2445 9.32850E+01 5.30525E+00 0.00000E+00
 -1      2446 9.25350E+01 6.60425E+00 0.00000E+00
 -1      2447 9.77850E+01 5.30525E+00 0.00000E+00
 -1      2448 9.62850E+01 5.30525E+00 0.00000E+00
 -1      2449 9.55350E+01 6.60425E+00 0.00000E+00
 -1      2450 1.00785E+02 5.30525E+00 0.00000E+00
 -1      2451 9.92850E+01 5.30525E+00 0.00000E+00
 -1      2452 9.85350E+01 6.60425E+00 0.00000E+00
 -1      2453 1.03785E+02 5.30525E+00 0.00000E+00
 -1      2454 1.02285E+02 5.30525E+00 0.00000E+00
 -1      2455 1.01535E+02 6.60425E+00 0.00000E+00
 -1      2456 1.06785E+02 5.30525E+00 0.00000E+00
 -1      2457 1.05285E+02 5.30525E+00 0.00000E+00
 -1      2458 1.04535E+02 6.60425E+00 0.00000E+00
 -1      2459 1.09785E+02 5.30525E+00 0.00000E+00
 -1      2460 1.08285E+02 5.30525E+00 0.00000E+00
 -1      2461 1.07535E+02 6.60425E+00 0.00000E+00
 -1      2462 1.12785E+02 5.30525E+00 0.00000E+00
 -1      2463 1.11285E+02 5.30525E+00 0.00000E+00
 -1      2464 1.10535E+02 6.60425E+00 0.00000E+00
 -1      2465 1.15785E+02 5.30525E+00 0.00000E+00
 -1      2466 1.14285E+02 5.30525E+00 0.00000E+00
 -1      2467 1.13535E+02 6.60425E+00 0.00000E+00
 -1      2468 1.18785E+02 5.30525E+00 0.00000E+00
 -1      2469 1.17285E+02 5.30525E+00 0.00000E+00
 -1      2470 1.16535E+02 6.60425E+00 0.00000E+00
 -1      2471 1.21785E+02 5.30525E+00 0.00000E+00
 -1      2472 1.20285E+02 5.30525E+00 0.00000E+00
 -1      2473 1.19535E+02 6.60425E+00 0.00000E+00
 -1      2474 1.24785E+02 5.30525E+00 0.00000E+00
 -1      2475 1.23285E+02 5.30525E+00 0.00000E+00
 -1      2476 1.22535E+02 6.60425E+00 0.00000E+00
 -1      2477 1.27785E+02 5.30525E+00 0.00000E+00
 -1      2478 1.26285E+02 5.30525E+00 0.00000E+00
 -1      2479 1.25535E+02 6.60425E+00 0.00000E+00
 -1      2480 1.30785E+02 5.30525E+00 0.00000E+00
 -1      2481 1.29285E+02 5.30525E+00 0.00000E+00
 -1      2482 1.28535E+02 6.60425E+00 0.00000E+00
 -1      2483 1.33785E+02 5.30525E+00 0.00000E+00
 -1      2484 1.32285E+02 5.30525E+00 0.00000E+00
 -1      2485 1.31535E+02 6.60425E+00 0.00000E+00
 -1      2486 1.36785E+02 5.30525E+00 0.00000E+00
 -1      2487 1.35285E+02 5.30525E+00 0.00000E+00
 -1      2488 1.34535E+02 6.60425E+00 0.00000E+00
 -1      2489 1.39785E+02 5.30525E+00 0.00000E+00
 -1      2490 1.38285E+02 5.30525E+00 0.00000E+00
 -1      2491 1.37535E+02 6.60425E+00 0.00000E+00
 -1      2492 1.42785E+02 5.30525E+00 0.00000E+00
 -1      2493 1.41285E+02 5.30525E+00 0.00000E+00
 -1      2494 1.40535E+02 6.60425E+00 0.00000E+00
 -1      2495 1.44336E+02 5.26953E+00 0.00000E+00
 -1      2496 1.43505E+02 1.69125E+01 0.00000E+00
 -1      2497 1.43505E+02 1.54375E+01 0.00000E+00
 -1      2498 1.43505E+02 1.98625E+01 0.00000E+00
 -1      2499 1.43505E+02 1.83875E+01 0.00000E+00
 -1      2500 1.42206E+02 1.76500E+01 0.00000E+00
 -1      2501 1.43505E+02 1.10625E+01 0.00000E+00
 -1      2502 1.43505E+02 9.58750E+00 0.00000E+00
 -1      2503 1.43505E+02 1.39750E+01 0.00000E+00
 -1      2504 1.43505E+02 1.25250E+01 0.00000E+00
 -1      2505 1.42206E+02 1.17875E+01 0.00000E+00
 -1      2506 1.42206E+02 1.47125E+01 0.00000E+00
 -1      2507 1.43505E+02 2.28125E+01 0.00000E+00
 -1      2508 1.43505E+02 2.13375E+01 0.00000E+00
 -1      2509 1.42206E+02 2.06000E+01 0.00000E+00
 -1      2510 1.43505E+02 2.57625E+01 0.00000E+00
 -1      2511 1.43505E+02 2.42875E+01 0.00000E+00
 -1      2512 1.42206E+02 2.35500E+01 0.00000E+00
 -1      2513 1.43505E+02 2.87125E+01 0.00000E+00
 -1      2514 1.43505E+02 2.72375E+01 0.00000E+00
 -1      2515 1.42206E+02 2.65000E+01 0.00000E+00
 -1      2516 1.43505E+02 3.16125E+01 0.00000E+00
 -1      2517 1.43505E+02 3.01625E+01 0.00000E+00
 -1      2518 1.42206E+02 2.94250E+01 0.00000E+00
 -1      2519 1.43505E+02 3.45625E+01 0.00000E+00
 -1      2520 1.43505E+02 3.30875E+01 0.00000E+00
 -1      2521 1.42206E+02 3.23500E+01 0.00000E+00
 -1      2522 1.43505E+02 3.75125E+01 0.00000E+00
 -1      2523 1.43505E+02 3.60375E+01 0.00000E+00
 -1      2524 1.42206E+02 3.53000E+01 0.00000E+00
 -1      2525 1.43505E+02 4.04625E+01 0.00000E+00
 -1      2526 1.43505E+02 3.89875E+01 0.00000E+00
 -1      2527 1.42206E+02 3.82500E+01 0.00000E+00
 -1      2528 8.16995E+01 2.53017E+01 0.00000E+00
 -1      2529 8.16993E+01 2.62921E+01 0.00000E+00
 -1      2530 8.03643E+01 2.09343E+01 0.00000E+00
 -1      2531 8.07878E+01 2.18526E+01 0.00000E+00
 -1      2532 1.67850E+01 5.30525E+00 0.00000E+00
 -1      2533 1.52850E+01 5.30525E+00 0.00000E+00
 -1      2534 1.75350E+01 6.60425E+00 0.00000E+00
 -1      2535 1.44321E+02 4.30606E+01 0.00000E+00
 -1      2536 8.16138E+01 2.74159E+01 0.00000E+00
 -1      2537 8.14623E+01 2.84169E+01 0.00000E+00
 -1      2538 8.11745E+01 2.28852E+01 0.00000E+00
 -1      2539 8.15612E+01 2.39178E+01 0.00000E+00
 -1      2540 8.18936E+01 2.19967E+01 0.00000E+00
 -1      2541 6.55950E+00 4.28890E+01 0.00000E+00
 -1      2542 8.53650E+00 4.32410E+01 0.00000E+00
 -1      2543 9.28650E+00 4.19420E+01 0.00000E+00
 -1      2544 6.55950E+00 4.14140E+01 0.00000E+00
 -1      2545 8.11380E+01 2.94989E+01 0.00000E+00
 -1      2546 8.08506E+01 3.04860E+01 0.00000E+00
 -1      2547 7.08380E+01 3.71791E+01 0.00000E+00
 -1      2548 6.97398E+01 3.69518E+01 0.00000E+00
 -1      2549 6.49500E+00 2.71625E+01 0.00000E+00
 -1      2550 6.49500E+00 2.86375E+01 0.00000E+00
 -1      2551 7.79400E+00 2.93750E+01 0.00000E+00
 -1      2552 7.79400E+00 2.64250E+01 0.00000E+00
 -1      2553 7.02976E+01 1.63232E+01 0.00000E+00
 -1      2554 7.14511E+01 1.61741E+01 0.00000E+00
 -1      2555 8.04627E+01 3.15446E+01 0.00000E+00
 -1      2556 8.00468E+01 3.24765E+01 0.00000E+00
 -1      2557 7.28458E+01 1.63571E+01 0.00000E+00
 -1      2558 7.38729E+01 1.65946E+01 0.00000E+00
 -1      2559 6.82643E+01 1.69435E+01 0.00000E+00
 -1      2560 6.91855E+01 1.67030E+01 0.00000E+00
 -1      2561 6.61074E+01 1.78073E+01 0.00000E+00
 -1      2562 6.71589E+01 1.73394E+01 0.00000E+00
 -1      2563 6.41861E+01 1.90528E+01 0.00000E+00
 -1      2564 6.50189E+01 1.84353E+01 0.00000E+00
 -1      2565 6.26859E+01 2.09585E+01 0.00000E+00
 -1      2566 6.32192E+01 2.00247E+01 0.00000E+00
 -1      2567 6.18565E+01 2.27858E+01 0.00000E+00
 -1      2568 6.22631E+01 2.19391E+01 0.00000E+00
 -1      2569 6.13109E+01 2.49137E+01 0.00000E+00
 -1      2570 6.15570E+01 2.38928E+01 0.00000E+00
 -1      2571 6.08609E+01 2.68594E+01 0.00000E+00
 -1      2572 6.09873E+01 2.59366E+01 0.00000E+00
 -1      2573 6.11334E+01 2.93236E+01 0.00000E+00
 -1      2574 6.09141E+01 2.81632E+01 0.00000E+00
 -1      2575 6.22246E+01 3.13734E+01 0.00000E+00
 -1      2576 6.16953E+01 3.05584E+01 0.00000E+00
 -1      2577 6.33727E+01 3.30279E+01 0.00000E+00
 -1      2578 6.27949E+01 3.22131E+01 0.00000E+00
 -1      2579 6.46321E+01 3.46717E+01 0.00000E+00
 -1      2580 6.39747E+01 3.39243E+01 0.00000E+00
 -1      2581 6.66183E+01 3.60610E+01 0.00000E+00
 -1      2582 6.56474E+01 3.55894E+01 0.00000E+00
 -1      2583 6.86854E+01 3.65493E+01 0.00000E+00
 -1      2584 6.77649E+01 3.62546E+01 0.00000E+00
 -1      2585 7.30449E+01 3.70900E+01 0.00000E+00
 -1      2586 7.21324E+01 3.72301E+01 0.00000E+00
 -1      2587 7.54856E+01 3.66621E+01 0.00000E+00
 -1      2588 7.42306E+01 3.69724E+01 0.00000E+00
 -1      2589 7.75337E+01 3.54982E+01 0.00000E+00
 -1      2590 7.67608E+01 3.60319E+01 0.00000E+00
 -1      2591 7.93464E+01 3.36736E+01 0.00000E+00
 -1      2592 7.84966E+01 3.46230E+01 0.00000E+00
 -1      2593 7.50663E+01 1.69002E+01 0.00000E+00
 -1      2594 7.59124E+01 1.73483E+01 0.00000E+00
 -1      2595 8.07525E+00 5.11044E+00 0.00000E+00
 -1      2596 6.57525E+00 5.11044E+00 0.00000E+00
 -1      2597 6.40575E+00 6.01981E+00 0.00000E+00
 -1      2598 8.82525E+00 6.40944E+00 0.00000E+00
 -1      2599 7.85322E+01 1.93509E+01 0.00000E+00
 -1      2600 7.93164E+01 1.99857E+01 0.00000E+00
 -1      2601 7.21484E+01 1.54981E+01 0.00000E+00
 -1      2602 7.79400E+00 3.52687E+01 0.00000E+00
 -1      2603 6.49500E+00 3.60062E+01 0.00000E+00
 -1      2604 6.49500E+00 3.74750E+01 0.00000E+00
 -1      2605 1.45350E+01 6.60425E+00 0.00000E+00
 -1      2606 6.40575E+00 7.49481E+00 0.00000E+00
 -1      2607 7.85363E+01 1.84093E+01 0.00000E+00
 -1      2608 7.47365E+01 1.59868E+01 0.00000E+00
 -1      2609 8.02609E+01 3.35231E+01 0.00000E+00
 -1      2610 8.20616E+01 2.91267E+01 0.00000E+00
 -1      2611 7.85975E+01 3.55955E+01 0.00000E+00
 -1      2612 7.63593E+01 3.71009E+01 0.00000E+00
 -1      2613 7.38983E+01 3.78486E+01 0.00000E+00
 -1      2614 1.43586E+02 6.56853E+00 0.00000E+00
 -1      2615 8.04590E+01 2.00155E+01 0.00000E+00
 -1      2616 1.43419E+02 7.72713E+00 0.00000E+00
 -1      2617 6.90692E+01 3.74616E+01 0.00000E+00
 -1      2618 8.24714E+01 2.69209E+01 0.00000E+00
 -1      2619 8.24186E+01 2.44132E+01 0.00000E+00
 -1      2620 6.68682E+01 3.68655E+01 0.00000E+00
 -1      2621 6.47062E+01 3.57543E+01 0.00000E+00
 -1      2622 7.70475E+00 8.23231E+00 0.00000E+00
 -1      2623 6.30888E+01 3.39403E+01 0.00000E+00
 -1      2624 6.55950E+00 3.99453E+01 0.00000E+00
 -1      2625 7.14180E+01 3.79152E+01 0.00000E+00
 -1      2626 6.19165E+01 3.22042E+01 0.00000E+00
 -1      2627 6.07842E+01 3.01297E+01 0.00000E+00
 -1      2628 5.98731E+01 2.97010E+01 0.00000E+00
 -1      2629 6.04350E+01 3.09358E+01 0.00000E+00
 -1      2630 6.01691E+01 2.75911E+01 0.00000E+00
 -1      2631 6.04396E+01 2.52645E+01 0.00000E+00
 -1      2632 6.10627E+01 2.31345E+01 0.00000E+00
 -1      2633 6.17851E+01 2.10469E+01 0.00000E+00
 -1      2634 6.31748E+01 1.90944E+01 0.00000E+00
 -1      2635 6.52301E+01 1.74944E+01 0.00000E+00
 -1      2636 6.74240E+01 1.64705E+01 0.00000E+00
 -1      2637 7.67957E+01 1.70220E+01 0.00000E+00
 -1      2638 8.13493E+01 3.12673E+01 0.00000E+00
 -1      2639 6.96415E+01 1.56948E+01 0.00000E+00
 -1      2640 1.42758E+02 4.35929E+01 0.00000E+00
 -1      2641 1.43241E+02 4.17323E+01 0.00000E+00
 -1      2642 1.41942E+02 4.09948E+01 0.00000E+00
 -1      2643 1.41414E+02 4.35342E+01 0.00000E+00
 -1      2644 1.42120E+02 8.46463E+00 0.00000E+00
 -1      2645 1.40664E+02 4.22352E+01 0.00000E+00
 -1      2646 9.09300E+00 1.98250E+01 0.00000E+00
 -1      2647 9.09300E+00 2.12750E+01 0.00000E+00
 -1      2648 9.09300E+00 2.27500E+01 0.00000E+00
 -1      2649 9.09300E+00 2.42250E+01 0.00000E+00
 -1      2650 1.03920E+01 2.20250E+01 0.00000E+00
 -1      2651 9.09300E+00 1.39375E+01 0.00000E+00
 -1      2652 9.09300E+00 1.54125E+01 0.00000E+00
 -1      2653 9.09300E+00 1.09875E+01 0.00000E+00
 -1      2654 9.09300E+00 1.24625E+01 0.00000E+00
 -1      2655 1.03920E+01 1.32000E+01 0.00000E+00
 -1      2656 1.22850E+01 7.90325E+00 0.00000E+00
 -1      2657 1.07850E+01 7.90325E+00 0.00000E+00
 -1      2658 6.27128E+01 3.48432E+01 0.00000E+00
 -1      2659 6.21107E+01 3.39468E+01 0.00000E+00
 -1      2660 8.91450E+00 8.42712E+00 0.00000E+00
 -1      2661 7.43941E+01 1.48409E+01 0.00000E+00
 -1      2662 7.55875E+01 1.51465E+01 0.00000E+00
 -1      2663 7.97685E+01 3.59165E+01 0.00000E+00
 -1      2664 7.88056E+01 3.67917E+01 0.00000E+00
 -1      2665 1.44000E+01 4.09070E+01 0.00000E+00
 -1      2666 1.59000E+01 4.09070E+01 0.00000E+00
 -1      2667 1.74000E+01 4.09070E+01 0.00000E+00
 -1      2668 1.89000E+01 4.09070E+01 0.00000E+00
 -1      2669 1.66500E+01 3.96080E+01 0.00000E+00
 -1      2670 2.04000E+01 4.09070E+01 0.00000E+00
 -1      2671 2.19000E+01 4.09070E+01 0.00000E+00
 -1      2672 1.96500E+01 3.96080E+01 0.00000E+00
 -1      2673 2.34000E+01 4.09070E+01 0.00000E+00
 -1      2674 2.49000E+01 4.09070E+01 0.00000E+00
 -1      2675 2.26500E+01 3.96080E+01 0.00000E+00
 -1      2676 2.64000E+01 4.09070E+01 0.00000E+00
 -1      2677 2.79000E+01 4.09070E+01 0.00000E+00
 -1      2678 2.56500E+01 3.96080E+01 0.00000E+00
 -1      2679 2.94000E+01 4.09070E+01 0.00000E+00
 -1      2680 3.09000E+01 4.09070E+01 0.00000E+00
 -1      2681 2.86500E+01 3.96080E+01 0.00000E+00
 -1      2682 3.24000E+01 4.09070E+01 0.00000E+00
 -1      2683 3.39000E+01 4.09070E+01 0.00000E+00
 -1      2684 3.16500E+01 3.96080E+01 0.00000E+00
 -1      2685 3.54000E+01 4.09070E+01 0.00000E+00
 -1      2686 3.69000E+01 4.09070E+01 0.00000E+00
 -1      2687 3.46500E+01 3.96080E+01 0.00000E+00
 -1      2688 3.84000E+01 4.09070E+01 0.00000E+00
 -1      2689 3.99000E+01 4.09070E+01 0.00000E+00
 -1      2690 3.76500E+01 3.96080E+01 0.00000E+00
 -1      2691 4.14000E+01 4.09070E+01 0.00000E+00
 -1      2692 4.29000E+01 4.09070E+01 0.00000E+00
 -1      2693 4.06500E+01 3.96080E+01 0.00000E+00
 -1      2694 4.44000E+01 4.09070E+01 0.00000E+00
 -1      2695 4.59000E+01 4.09070E+01 0.00000E+00
 -1      2696 4.36500E+01 3.96080E+01 0.00000E+00
 -1      2697 4.74000E+01 4.09070E+01 0.00000E+00
 -1      2698 4.89000E+01 4.09070E+01 0.00000E+00
 -1      2699 4.66500E+01 3.96080E+01 0.00000E+00
 -1      2700 5.04000E+01 4.09070E+01 0.00000E+00
 -1      2701 5.19000E+01 4.09070E+01 0.00000E+00
 -1      2702 4.96500E+01 3.96080E+01 0.00000E+00
 -1      2703 5.34000E+01 4.09070E+01 0.00000E+00
 -1      2704 5.49000E+01 4.09070E+01 0.00000E+00
 -1      2705 5.26500E+01 3.96080E+01 0.00000E+00
 -1      2706 5.64000E+01 4.09070E+01 0.00000E+00
 -1      2707 5.79000E+01 4.09070E+01 0.00000E+00
 -1      2708 5.56500E+01 3.96080E+01 0.00000E+00
 -1      2709 5.94000E+01 4.09070E+01 0.00000E+00
 -1      2710 6.09000E+01 4.09070E+01 0.00000E+00
 -1      2711 5.86500E+01 3.96080E+01 0.00000E+00
 -1      2712 6.24000E+01 4.09070E+01 0.00000E+00
 -1      2713 6.39000E+01 4.09070E+01 0.00000E+00
 -1      2714 6.16500E+01 3.96080E+01 0.00000E+00
 -1      2715 6.54000E+01 4.09070E+01 0.00000E+00
 -1      2716 6.69000E+01 4.09070E+01 0.00000E+00
 -1      2717 6.46500E+01 3.96080E+01 0.00000E+00
 -1      2718 6.88868E+01 4.00351E+01 0.00000E+00
 -1      2719 7.03868E+01 4.00351E+01 0.00000E+00
 -1      2720 7.16812E+01 4.00861E+01 0.00000E+00
 -1      2721 7.31812E+01 4.00861E+01 0.00000E+00
 -1      2722 7.43670E+01 3.99685E+01 0.00000E+00
 -1      2723 7.58670E+01 3.99685E+01 0.00000E+00
 -1      2724 8.04000E+01 4.09070E+01 0.00000E+00
 -1      2725 8.19000E+01 4.09070E+01 0.00000E+00
 -1      2726 8.34000E+01 4.09070E+01 0.00000E+00
 -1      2727 8.49000E+01 4.09070E+01 0.00000E+00
 -1      2728 8.26500E+01 3.96080E+01 0.00000E+00
 -1      2729 8.64000E+01 4.09070E+01 0.00000E+00
 -1      2730 8.79000E+01 4.09070E+01 0.00000E+00
 -1      2731 8.56500E+01 3.96080E+01 0.00000E+00
 -1      2732 8.94000E+01 4.09070E+01 0.00000E+00
 -1      2733 9.09000E+01 4.09070E+01 0.00000E+00
 -1      2734 8.86500E+01 3.96080E+01 0.00000E+00
 -1      2735 9.24000E+01 4.09070E+01 0.00000E+00
 -1      2736 9.39000E+01 4.09070E+01 0.00000E+00
 -1      2737 9.16500E+01 3.96080E+01 0.00000E+00
 -1      2738 9.54000E+01 4.09070E+01 0.00000E+00
 -1      2739 9.69000E+01 4.09070E+01 0.00000E+00
 -1      2740 9.46500E+01 3.96080E+01 0.00000E+00
 -1      2741 9.84000E+01 4.09070E+01 0.00000E+00
 -1      2742 9.99000E+01 4.09070E+01 0.00000E+00
 -1      2743 9.76500E+01 3.96080E+01 0.00000E+00
 -1      2744 1.01400E+02 4.09070E+01 0.00000E+00
 -1      2745 1.02900E+02 4.09070E+01 0.00000E+00
 -1      2746 1.00650E+02 3.96080E+01 0.00000E+00
 -1      2747 1.04400E+02 4.09070E+01 0.00000E+00
 -1      2748 1.05900E+02 4.09070E+01 0.00000E+00
 -1      2749 1.03650E+02 3.96080E+01 0.00000E+00
 -1      2750 1.07400E+02 4.09070E+01 0.00000E+00
 -1      2751 1.08900E+02 4.09070E+01 0.00000E+00
 -1      2752 1.06650E+02 3.96080E+01 0.00000E+00
 -1      2753 1.10400E+02 4.09070E+01 0.00000E+00
 -1      2754 1.11900E+02 4.09070E+01 0.00000E+00
 -1      2755 1.09650E+02 3.96080E+01 0.00000E+00
 -1      2756 1.13400E+02 4.09070E+01 0.00000E+00
 -1      2757 1.14900E+02 4.09070E+01 0.00000E+00
 -1      2758 1.12650E+02 3.96080E+01 0.00000E+00
 -1      2759 1.16400E+02 4.09070E+01 0.00000E+00
 -1      2760 1.17900E+02 4.09070E+01 0.00000E+00
 -1      2761 1.15650E+02 3.96080E+01 0.00000E+00
 -1      2762 1.19400E+02 4.09070E+01 0.00000E+00
 -1      2763 1.20900E+02 4.09070E+01 0.00000E+00
 -1      2764 1.18650E+02 3.96080E+01 0.00000E+00
 -1      2765 1.22400E+02 4.09070E+01 0.00000E+00
 -1      2766 1.23900E+02 4.09070E+01 0.00000E+00
 -1      2767 1.21650E+02 3.96080E+01 0.00000E+00
 -1      2768 1.25400E+02 4.09070E+01 0.00000E+00
 -1      2769 1.26900E+02 4.09070E+01 0.00000E+00
 -1      2770 1.24650E+02 3.96080E+01 0.00000E+00
 -1      2771 1.28400E+02 4.09070E+01 0.00000E+00
 -1      2772 1.29900E+02 4.09070E+01 0.00000E+00
 -1      2773 1.27650E+02 3.96080E+01 0.00000E+00
 -1      2774 1.31400E+02 4.09070E+01 0.00000E+00
 -1      2775 1.32900E+02 4.09070E+01 0.00000E+00
 -1      2776 1.30650E+02 3.96080E+01 0.00000E+00
 -1      2777 1.34400E+02 4.09070E+01 0.00000E+00
 -1      2778 1.35900E+02 4.09070E+01 0.00000E+00
 -1      2779 1.33650E+02 3.96080E+01 0.00000E+00
 -1      2780 1.37400E+02 4.09070E+01 0.00000E+00
 -1      2781 1.38900E+02 4.09070E+01 0.00000E+00
 -1      2782 1.36650E+02 3.96080E+01 0.00000E+00
 -1      2783 2.42850E+01 7.90325E+00 0.00000E+00
 -1      2784 2.27850E+01 7.90325E+00 0.00000E+00
 -1      2785 1.40706E+02 1.03250E+01 0.00000E+00
 -1      2786 1.40620E+02 8.46463E+00 0.00000E+00
 -1      2787 1.39120E+02 8.46463E+00 0.00000E+00
 -1      2788 2.12850E+01 7.90325E+00 0.00000E+00
 -1      2789 1.97850E+01 7.90325E+00 0.00000E+00
 -1      2790 2.20350E+01 9.20225E+00 0.00000E+00
 -1      2791 3.02850E+01 7.90325E+00 0.00000E+00
 -1      2792 2.87850E+01 7.90325E+00 0.00000E+00
 -1      2793 3.32850E+01 7.90325E+00 0.00000E+00
 -1      2794 3.17850E+01 7.90325E+00 0.00000E+00
 -1      2795 3.10350E+01 9.20225E+00 0.00000E+00
 -1      2796 3.62850E+01 7.90325E+00 0.00000E+00
 -1      2797 3.47850E+01 7.90325E+00 0.00000E+00
 -1      2798 3.40350E+01 9.20225E+00 0.00000E+00
 -1      2799 3.92850E+01 7.90325E+00 0.00000E+00
 -1      2800 3.77850E+01 7.90325E+00 0.00000E+00
 -1      2801 3.70350E+01 9.20225E+00 0.00000E+00
 -1      2802 4.22850E+01 7.90325E+00 0.00000E+00
 -1      2803 4.07850E+01 7.90325E+00 0.00000E+00
 -1      2804 4.00350E+01 9.20225E+00 0.00000E+00
 -1      2805 4.52850E+01 7.90325E+00 0.00000E+00
 -1      2806 4.37850E+01 7.90325E+00 0.00000E+00
 -1      2807 4.30350E+01 9.20225E+00 0.00000E+00
 -1      2808 4.82850E+01 7.90325E+00 0.00000E+00
 -1      2809 4.67850E+01 7.90325E+00 0.00000E+00
 -1      2810 4.60350E+01 9.20225E+00 0.00000E+00
 -1      2811 5.12850E+01 7.90325E+00 0.00000E+00
 -1      2812 4.97850E+01 7.90325E+00 0.00000E+00
 -1      2813 4.90350E+01 9.20225E+00 0.00000E+00
 -1      2814 5.42850E+01 7.90325E+00 0.00000E+00
 -1      2815 5.27850E+01 7.90325E+00 0.00000E+00
 -1      2816 5.20350E+01 9.20225E+00 0.00000E+00
 -1      2817 5.72850E+01 7.90325E+00 0.00000E+00
 -1      2818 5.57850E+01 7.90325E+00 0.00000E+00
 -1      2819 5.50350E+01 9.20225E+00 0.00000E+00
 -1      2820 6.02850E+01 7.90325E+00 0.00000E+00
 -1      2821 5.87850E+01 7.90325E+00 0.00000E+00
 -1      2822 5.80350E+01 9.20225E+00 0.00000E+00
 -1      2823 6.32850E+01 7.90325E+00 0.00000E+00
 -1      2824 6.17850E+01 7.90325E+00 0.00000E+00
 -1      2825 6.10350E+01 9.20225E+00 0.00000E+00
 -1      2826 6.62850E+01 7.90325E+00 0.00000E+00
 -1      2827 6.47850E+01 7.90325E+00 0.00000E+00
 -1      2828 6.40350E+01 9.20225E+00 0.00000E+00
 -1      2829 6.92850E+01 7.90325E+00 0.00000E+00
 -1      2830 6.77850E+01 7.90325E+00 0.00000E+00
 -1      2831 6.70350E+01 9.20225E+00 0.00000E+00
 -1      2832 7.22850E+01 7.90325E+00 0.00000E+00
 -1      2833 7.07850E+01 7.90325E+00 0.00000E+00
 -1      2834 7.00350E+01 9.20225E+00 0.00000E+00
 -1      2835 7.52850E+01 7.90325E+00 0.00000E+00
 -1      2836 7.37850E+01 7.90325E+00 0.00000E+00
 -1      2837 7.30350E+01 9.20225E+00 0.00000E+00
 -1      2838 7.82850E+01 7.90325E+00 0.00000E+00
 -1      2839 7.67850E+01 7.90325E+00 0.00000E+00
 -1      2840 7.60350E+01 9.20225E+00 0.00000E+00
 -1      2841 8.12850E+01 7.90325E+00 0.00000E+00
 -1      2842 7.97850E+01 7.90325E+00 0.00000E+00
 -1      2843 7.90350E+01 9.20225E+00 0.00000E+00
 -1      2844 8.42850E+01 7.90325E+00 0.00000E+00
 -1      2845 8.27850E+01 7.90325E+00 0.00000E+00
 -1      2846 8.20350E+01 9.20225E+00 0.00000E+00
 -1      2847 8.72850E+01 7.90325E+00 0.00000E+00
 -1      2848 8.57850E+01 7.90325E+00 0.00000E+00
 -1      2849 8.50350E+01 9.20225E+00 0.00000E+00
 -1      2850 9.02850E+01 7.90325E+00 0.00000E+00
 -1      2851 8.87850E+01 7.90325E+00 0.00000E+00
 -1      2852 8.80350E+01 9.20225E+00 0.00000E+00
 -1      2853 9.32850E+01 7.90325E+00 0.00000E+00
 -1      2854 9.17850E+01 7.90325E+00 0.00000E+00
 -1      2855 9.10350E+01 9.20225E+00 0.00000E+00
 -1      2856 9.62850E+01 7.90325E+00 0.00000E+00
 -1      2857 9.47850E+01 7.90325E+00 0.00000E+00
 -1      2858 9.40350E+01 9.20225E+00 0.00000E+00
 -1      2859 9.92850E+01 7.90325E+00 0.00000E+00
 -1      2860 9.77850E+01 7.90325E+00 0.00000E+00
 -1      2861 9.70350E+01 9.20225E+00 0.00000E+00
 -1      2862 1.02285E+02 7.90325E+00 0.00000E+00
 -1      2863 1.00785E+02 7.90325E+00 0.00000E+00
 -1      2864 1.00035E+02 9.20225E+00 0.00000E+00
 -1      2865 1.05285E+02 7.90325E+00 0.00000E+00
 -1      2866 1.03785E+02 7.90325E+00 0.00000E+00
 -1      2867 1.03035E+02 9.20225E+00 0.00000E+00
 -1      2868 1.08285E+02 7.90325E+00 0.00000E+00
 -1      2869 1.06785E+02 7.90325E+00 0.00000E+00
 -1      2870 1.06035E+02 9.20225E+00 0.00000E+00
 -1      2871 1.11285E+02 7.90325E+00 0.00000E+00
 -1      2872 1.09785E+02 7.90325E+00 0.00000E+00
 -1      2873 1.09035E+02 9.20225E+00 0.00000E+00
 -1      2874 1.14285E+02 7.90325E+00 0.00000E+00
 -1      2875 1.12785E+02 7.90325E+00 0.00000E+00
 -1      2876 1.12035E+02 9.20225E+00 0.00000E+00
 -1      2877 1.17285E+02 7.90325E+00 0.00000E+00
 -1      2878 1.15785E+02 7.90325E+00 0.00000E+00
 -1      2879 1.15035E+02 9.20225E+00 0.00000E+00
 -1      2880 1.20285E+02 7.90325E+00 0.00000E+00
 -1      2881 1.18785E+02 7.90325E+00 0.00000E+00
 -1      2882 1.18035E+02 9.20225E+00 0.00000E+00
 -1      2883 1.23285E+02 7.90325E+00 0.00000E+00
 -1      2884 1.21785E+02 7.90325E+00 0.00000E+00
 -1      2885 1.21035E+02 9.20225E+00 0.00000E+00
 -1      2886 1.26285E+02 7.90325E+00 0.00000E+00
 -1      2887 1.24785E+02 7.90325E+00 0.00000E+00
 -1      2888 1.24035E+02 9.20225E+00 0.00000E+00
 -1      2889 1.29285E+02 7.90325E+00 0.00000E+00
 -1      2890 1.27785E+02 7.90325E+00 0.00000E+00
 -1      2891 1.27035E+02 9.20225E+00 0.00000E+00
 -1      2892 1.32285E+02 7.90325E+00 0.00000E+00
 -1      2893 1.30785E+02 7.90325E+00 0.00000E+00
 -1      2894 1.30035E+02 9.20225E+00 0.00000E+00
 -1      2895 1.35285E+02 7.90325E+00 0.00000E+00
 -1      2896 1.33785E+02 7.90325E+00 0.00000E+00
 -1      2897 1.33035E+02 9.20225E+00 0.00000E+00
 -1      2898 1.37953E+02 8.18394E+00 0.00000E+00
 -1      2899 1.36453E+02 8.18394E+00 0.00000E+00
 -1      2900 1.35703E+02 9.48294E+00 0.00000E+00
 -1      2901 1.38038E+02 1.00443E+01 0.00000E+00
 -1      2902 8.06793E+01 1.87191E+01 0.00000E+00
 -1      2903 8.17272E+01 1.96677E+01 0.00000E+00
 -1      2904 1.40907E+02 2.42875E+01 0.00000E+00
 -1      2905 1.40907E+02 2.28125E+01 0.00000E+00
 -1      2906 1.39914E+02 4.09362E+01 0.00000E+00
 -1      2907 1.40928E+02 4.09655E+01 0.00000E+00
 -1      2908 1.39164E+02 3.96372E+01 0.00000E+00
 -1      2909 1.40907E+02 1.83875E+01 0.00000E+00
 -1      2910 1.40907E+02 1.69125E+01 0.00000E+00
 -1      2911 1.40907E+02 2.72375E+01 0.00000E+00
 -1      2912 1.40907E+02 2.57625E+01 0.00000E+00
 -1      2913 1.39608E+02 2.50250E+01 0.00000E+00
 -1      2914 1.40907E+02 2.13375E+01 0.00000E+00
 -1      2915 1.40907E+02 1.98625E+01 0.00000E+00
 -1      2916 1.39608E+02 1.91250E+01 0.00000E+00
 -1      2917 1.39608E+02 2.20750E+01 0.00000E+00
 -1      2918 1.40907E+02 3.01375E+01 0.00000E+00
 -1      2919 1.40907E+02 2.86875E+01 0.00000E+00
 -1      2920 1.39608E+02 2.79500E+01 0.00000E+00
 -1      2921 1.40907E+02 3.30875E+01 0.00000E+00
 -1      2922 1.40907E+02 3.16125E+01 0.00000E+00
 -1      2923 1.39608E+02 3.08750E+01 0.00000E+00
 -1      2924 1.40907E+02 3.60375E+01 0.00000E+00
 -1      2925 1.40907E+02 3.45625E+01 0.00000E+00
 -1      2926 1.39608E+02 3.38250E+01 0.00000E+00
 -1      2927 8.85168E+00 4.05347E+01 0.00000E+00
 -1      2928 1.02152E+01 4.07987E+01 0.00000E+00
 -1      2929 8.26603E+01 2.11209E+01 0.00000E+00
 -1      2930 8.30470E+01 2.21535E+01 0.00000E+00
 -1      2931 8.34529E+01 2.36110E+01 0.00000E+00
 -1      2932 8.35912E+01 2.49948E+01 0.00000E+00
 -1      2933 8.35364E+01 2.64367E+01 0.00000E+00
 -1      2934 8.34509E+01 2.75606E+01 0.00000E+00
 -1      2935 1.82850E+01 7.90325E+00 0.00000E+00
 -1      2936 1.67850E+01 7.90325E+00 0.00000E+00
 -1      2937 1.90350E+01 9.20225E+00 0.00000E+00
 -1      2938 2.72850E+01 7.90325E+00 0.00000E+00
 -1      2939 2.57850E+01 7.90325E+00 0.00000E+00
 -1      2940 2.50350E+01 9.20225E+00 0.00000E+00
 -1      2941 2.80350E+01 9.20225E+00 0.00000E+00
 -1      2942 1.15576E+01 4.08528E+01 0.00000E+00
 -1      2943 1.30576E+01 4.08528E+01 0.00000E+00
 -1      2944 1.38076E+01 3.95538E+01 0.00000E+00
 -1      2945 1.11228E+01 3.94455E+01 0.00000E+00
 -1      2946 9.09300E+00 1.68813E+01 0.00000E+00
 -1      2947 9.09300E+00 1.83563E+01 0.00000E+00
 -1      2948 1.03920E+01 1.90812E+01 0.00000E+00
 -1      2949 1.03920E+01 1.61437E+01 0.00000E+00
 -1      2950 1.52850E+01 7.90325E+00 0.00000E+00
 -1      2951 1.37850E+01 7.90325E+00 0.00000E+00
 -1      2952 1.30350E+01 9.20225E+00 0.00000E+00
 -1      2953 1.60350E+01 9.20225E+00 0.00000E+00
 -1      2954 6.87542E+01 1.49145E+01 0.00000E+00
 -1      2955 6.98663E+01 1.45348E+01 0.00000E+00
 -1      2956 9.09300E+00 3.15875E+01 0.00000E+00
 -1      2957 9.09300E+00 3.30625E+01 0.00000E+00
 -1      2958 8.31255E+01 2.88560E+01 0.00000E+00
 -1      2959 8.28011E+01 2.99380E+01 0.00000E+00
 -1      2960 8.14236E+01 3.33999E+01 0.00000E+00
 -1      2961 8.07232E+01 3.45970E+01 0.00000E+00
 -1      2962 1.41192E+02 3.96958E+01 0.00000E+00
 -1      2963 7.69154E+01 1.60015E+01 0.00000E+00
 -1      2964 7.77812E+01 1.67311E+01 0.00000E+00
 -1      2965 6.65434E+01 1.57064E+01 0.00000E+00
 -1      2966 6.76488E+01 1.53105E+01 0.00000E+00
 -1      2967 6.78736E+01 1.41505E+01 0.00000E+00
 -1      2968 6.41736E+01 1.69205E+01 0.00000E+00
 -1      2969 6.52621E+01 1.62925E+01 0.00000E+00
 -1      2970 6.19646E+01 1.88573E+01 0.00000E+00
 -1      2971 6.29315E+01 1.78854E+01 0.00000E+00
 -1      2972 6.07093E+01 2.11645E+01 0.00000E+00
 -1      2973 6.11321E+01 2.01839E+01 0.00000E+00
 -1      2974 6.00852E+01 2.34640E+01 0.00000E+00
 -1      2975 6.03847E+01 2.23570E+01 0.00000E+00
 -1      2976 5.94380E+01 2.55099E+01 0.00000E+00
 -1      2977 5.97616E+01 2.44869E+01 0.00000E+00
 -1      2978 5.90836E+01 2.37094E+01 0.00000E+00
 -1      2979 5.91714E+01 2.82847E+01 0.00000E+00
 -1      2980 5.91183E+01 2.69810E+01 0.00000E+00
 -1      2981 7.48818E+00 3.88019E+01 0.00000E+00
 -1      2982 6.45265E+01 3.69736E+01 0.00000E+00
 -1      2983 6.35112E+01 3.60560E+01 0.00000E+00
 -1      2984 6.15404E+01 3.31071E+01 0.00000E+00
 -1      2985 6.09700E+01 3.22674E+01 0.00000E+00
 -1      2986 6.11643E+01 3.40101E+01 0.00000E+00
 -1      2987 8.24132E+01 3.09966E+01 0.00000E+00
 -1      2988 8.20252E+01 3.20552E+01 0.00000E+00
 -1      2989 8.34770E+01 3.07259E+01 0.00000E+00
 -1      2990 7.86560E+01 1.73887E+01 0.00000E+00
 -1      2991 7.95309E+01 1.80463E+01 0.00000E+00
 -1      2992 7.87758E+01 1.63682E+01 0.00000E+00
 -1      2993 7.15735E+01 1.44733E+01 0.00000E+00
 -1      2994 7.29682E+01 1.46563E+01 0.00000E+00
 -1      2995 7.68632E+01 3.85347E+01 0.00000E+00
 -1      2996 7.76461E+01 4.07722E+01 0.00000E+00
 -1      2997 7.91461E+01 4.07722E+01 0.00000E+00
 -1      2998 7.81384E+01 3.79045E+01 0.00000E+00
 -1      2999 9.09300E+00 3.45313E+01 0.00000E+00
 -1      3000 9.09300E+00 3.60000E+01 0.00000E+00
 -1      3001 1.03920E+01 3.37938E+01 0.00000E+00
 -1      3002 1.03920E+01 2.49750E+01 0.00000E+00
 -1      3003 9.09300E+00 2.57000E+01 0.00000E+00
 -1      3004 9.09300E+00 2.71750E+01 0.00000E+00
 -1      3005 6.54869E+01 1.51325E+01 0.00000E+00
 -1      3006 8.24875E+01 3.31292E+01 0.00000E+00
 -1      3007 9.66450E+00 9.72612E+00 0.00000E+00
 -1      3008 7.38192E+01 1.38160E+01 0.00000E+00
 -1      3009 7.93094E+01 3.82255E+01 0.00000E+00
 -1      3010 6.81368E+01 3.87361E+01 0.00000E+00
 -1      3011 1.39608E+02 1.61875E+01 0.00000E+00
 -1      3012 1.40907E+02 1.54500E+01 0.00000E+00
 -1      3013 1.40907E+02 1.39875E+01 0.00000E+00
 -1      3014 8.28806E+01 1.98245E+01 0.00000E+00
 -1      3015 8.07990E+01 1.76985E+01 0.00000E+00
 -1      3016 1.40706E+02 1.17875E+01 0.00000E+00
 -1      3017 6.25330E+01 3.60626E+01 0.00000E+00
 -1      3018 1.41192E+02 3.82207E+01 0.00000E+00
 -1      3019 5.84403E+01 2.62035E+01 0.00000E+00
 -1      3020 1.09635E+01 1.04636E+01 0.00000E+00
 -1      3021 8.42196E+01 2.27352E+01 0.00000E+00
 -1      3022 5.97317E+01 2.14940E+01 0.00000E+00
 -1      3023 6.08888E+01 1.89749E+01 0.00000E+00
 -1      3024 8.45706E+01 2.56345E+01 0.00000E+00
 -1      3025 8.41904E+01 2.83719E+01 0.00000E+00
 -1      3026 6.70824E+01 3.83335E+01 0.00000E+00
 -1      3027 6.59357E+01 3.81400E+01 0.00000E+00
 -1      3028 7.06862E+01 1.36930E+01 0.00000E+00
 -1      3029 6.00589E+01 3.18387E+01 0.00000E+00
 -1      3030 5.91478E+01 3.14100E+01 0.00000E+00
 -1      3031 5.96828E+01 3.27417E+01 0.00000E+00
 -1      3032 9.09300E+00 2.86437E+01 0.00000E+00
 -1      3033 9.09300E+00 3.01187E+01 0.00000E+00
 -1      3034 1.03920E+01 3.08563E+01 0.00000E+00
 -1      3035 1.03920E+01 2.79188E+01 0.00000E+00
 -1      3036 7.98961E+01 3.94732E+01 0.00000E+00
 -1      3037 8.78718E+00 3.80644E+01 0.00000E+00
 -1      3038 8.09312E+01 3.57932E+01 0.00000E+00
 -1      3039 7.65730E+01 1.48556E+01 0.00000E+00
 -1      3040 7.75586E+01 1.45647E+01 0.00000E+00
 -1      3041 7.62306E+01 1.37097E+01 0.00000E+00
 -1      3042 6.29634E+01 1.66835E+01 0.00000E+00
 -1      3043 5.88222E+01 2.90908E+01 0.00000E+00
 -1      3044 5.77714E+01 2.84807E+01 0.00000E+00
 -1      3045 5.84730E+01 2.98969E+01 0.00000E+00
 -1      3046 1.39529E+02 3.85602E+01 0.00000E+00
 -1      3047 1.40542E+02 3.71145E+01 0.00000E+00
 -1      3048 1.39243E+02 3.63770E+01 0.00000E+00
 -1      3049 1.38514E+02 3.85310E+01 0.00000E+00
 -1      3050 7.32271E+01 1.27902E+01 0.00000E+00
 -1      3051 7.46530E+01 1.29748E+01 0.00000E+00
 -1      3052 1.16910E+01 1.24625E+01 0.00000E+00
 -1      3053 1.16910E+01 1.39375E+01 0.00000E+00
 -1      3054 1.89000E+01 3.83090E+01 0.00000E+00
 -1      3055 2.04000E+01 3.83090E+01 0.00000E+00
 -1      3056 2.19000E+01 3.83090E+01 0.00000E+00
 -1      3057 2.34000E+01 3.83090E+01 0.00000E+00
 -1      3058 2.11500E+01 3.70100E+01 0.00000E+00
 -1      3059 2.49000E+01 3.83090E+01 0.00000E+00
 -1      3060 2.64000E+01 3.83090E+01 0.00000E+00
 -1      3061 2.41500E+01 3.70100E+01 0.00000E+00
 -1      3062 2.79000E+01 3.83090E+01 0.00000E+00
 -1      3063 2.94000E+01 3.83090E+01 0.00000E+00
 -1      3064 2.71500E+01 3.70100E+01 0.00000E+00
 -1      3065 3.09000E+01 3.83090E+01 0.00000E+00
 -1      3066 3.24000E+01 3.83090E+01 0.00000E+00
 -1      3067 3.01500E+01 3.70100E+01 0.00000E+00
 -1      3068 3.39000E+01 3.83090E+01 0.00000E+00
 -1      3069 3.54000E+01 3.83090E+01 0.00000E+00
 -1      3070 3.31500E+01 3.70100E+01 0.00000E+00
 -1      3071 3.69000E+01 3.83090E+01 0.00000E+00
 -1      3072 3.84000E+01 3.83090E+01 0.00000E+00
 -1      3073 3.61500E+01 3.70100E+01 0.00000E+00
 -1      3074 3.99000E+01 3.83090E+01 0.00000E+00
 -1      3075 4.14000E+01 3.83090E+01 0.00000E+00
 -1      3076 3.91500E+01 3.70100E+01 0.00000E+00
 -1      3077 4.29000E+01 3.83090E+01 0.00000E+00
 -1      3078 4.44000E+01 3.83090E+01 0.00000E+00
 -1      3079 4.21500E+01 3.70100E+01 0.00000E+00
 -1      3080 4.59000E+01 3.83090E+01 0.00000E+00
 -1      3081 4.74000E+01 3.83090E+01 0.00000E+00
 -1      3082 4.51500E+01 3.70100E+01 0.00000E+00
 -1      3083 4.89000E+01 3.83090E+01 0.00000E+00
 -1      3084 5.04000E+01 3.83090E+01 0.00000E+00
 -1      3085 4.81500E+01 3.70100E+01 0.00000E+00
 -1      3086 5.19000E+01 3.83090E+01 0.00000E+00
 -1      3087 5.34000E+01 3.83090E+01 0.00000E+00
 -1      3088 5.11500E+01 3.70100E+01 0.00000E+00
 -1      3089 5.49000E+01 3.83090E+01 0.00000E+00
 -1      3090 5.64000E+01 3.83090E+01 0.00000E+00
 -1      3091 5.41500E+01 3.70100E+01 0.00000E+00
 -1      3092 5.79000E+01 3.83090E+01 0.00000E+00
 -1      3093 5.94000E+01 3.83090E+01 0.00000E+00
 -1      3094 5.71500E+01 3.70100E+01 0.00000E+00
 -1      3095 6.09000E+01 3.85829E+01 0.00000E+00
 -1      3096 6.24000E+01 3.85829E+01 0.00000E+00
 -1      3097 8.49000E+01 3.83090E+01 0.00000E+00
 -1      3098 8.64000E+01 3.83090E+01 0.00000E+00
 -1      3099 8.79000E+01 3.83090E+01 0.00000E+00
 -1      3100 8.94000E+01 3.83090E+01 0.00000E+00
 -1      3101 8.71500E+01 3.70100E+01 0.00000E+00
 -1      3102 9.09000E+01 3.83090E+01 0.00000E+00
 -1      3103 9.24000E+01 3.83090E+01 0.00000E+00
 -1      3104 9.01500E+01 3.70100E+01 0.00000E+00
 -1      3105 9.39000E+01 3.83090E+01 0.00000E+00
 -1      3106 9.54000E+01 3.83090E+01 0.00000E+00
 -1      3107 9.31500E+01 3.70100E+01 0.00000E+00
 -1      3108 9.69000E+01 3.83090E+01 0.00000E+00
 -1      3109 9.84000E+01 3.83090E+01 0.00000E+00
 -1      3110 9.61500E+01 3.70100E+01 0.00000E+00
 -1      3111 9.99000E+01 3.83090E+01 0.00000E+00
 -1      3112 1.01400E+02 3.83090E+01 0.00000E+00
 -1      3113 9.91500E+01 3.70100E+01 0.00000E+00
 -1      3114 1.02900E+02 3.83090E+01 0.00000E+00
 -1      3115 1.04400E+02 3.83090E+01 0.00000E+00
 -1      3116 1.02150E+02 3.70100E+01 0.00000E+00
 -1      3117 1.05900E+02 3.83090E+01 0.00000E+00
 -1      3118 1.07400E+02 3.83090E+01 0.00000E+00
 -1      3119 1.05150E+02 3.70100E+01 0.00000E+00
 -1      3120 1.08900E+02 3.83090E+01 0.00000E+00
 -1      3121 1.10400E+02 3.83090E+01 0.00000E+00
 -1      3122 1.08150E+02 3.70100E+01 0.00000E+00
 -1      3123 1.11900E+02 3.83090E+01 0.00000E+00
 -1      3124 1.13400E+02 3.83090E+01 0.00000E+00
 -1      3125 1.11150E+02 3.70100E+01 0.00000E+00
 -1      3126 1.14900E+02 3.83090E+01 0.00000E+00
 -1      3127 1.16400E+02 3.83090E+01 0.00000E+00
 -1      3128 1.14150E+02 3.70100E+01 0.00000E+00
 -1      3129 1.17900E+02 3.83090E+01 0.00000E+00
 -1      3130 1.19400E+02 3.83090E+01 0.00000E+00
 -1      3131 1.17150E+02 3.70100E+01 0.00000E+00
 -1      3132 1.20900E+02 3.83090E+01 0.00000E+00
 -1      3133 1.22400E+02 3.83090E+01 0.00000E+00
 -1      3134 1.20150E+02 3.70100E+01 0.00000E+00
 -1      3135 1.23900E+02 3.83090E+01 0.00000E+00
 -1      3136 1.25400E+02 3.83090E+01 0.00000E+00
 -1      3137 1.23150E+02 3.70100E+01 0.00000E+00
 -1      3138 1.26900E+02 3.83090E+01 0.00000E+00
 -1      3139 1.28400E+02 3.83090E+01 0.00000E+00
 -1      3140 1.26150E+02 3.70100E+01 0.00000E+00
 -1      3141 1.29900E+02 3.83090E+01 0.00000E+00
 -1      3142 1.31400E+02 3.83090E+01 0.00000E+00
 -1      3143 1.29150E+02 3.70100E+01 0.00000E+00
 -1      3144 1.32900E+02 3.83090E+01 0.00000E+00
 -1      3145 1.34400E+02 3.83090E+01 0.00000E+00
 -1      3146 1.32150E+02 3.70100E+01 0.00000E+00
 -1      3147 1.35707E+02 3.84200E+01 0.00000E+00
 -1      3148 1.37207E+02 3.84200E+01 0.00000E+00
 -1      3149 1.37572E+02 3.73430E+01 0.00000E+00
 -1      3150 1.34957E+02 3.71210E+01 0.00000E+00
 -1      3151 2.27850E+01 1.05013E+01 0.00000E+00
 -1      3152 2.12850E+01 1.05013E+01 0.00000E+00
 -1      3153 3.47850E+01 1.05013E+01 0.00000E+00
 -1      3154 3.32850E+01 1.05013E+01 0.00000E+00
 -1      3155 3.17850E+01 1.05013E+01 0.00000E+00
 -1      3156 3.02850E+01 1.05013E+01 0.00000E+00
 -1      3157 3.25350E+01 1.18003E+01 0.00000E+00
 -1      3158 4.07850E+01 1.05013E+01 0.00000E+00
 -1      3159 3.92850E+01 1.05013E+01 0.00000E+00
 -1      3160 4.37850E+01 1.05013E+01 0.00000E+00
 -1      3161 4.22850E+01 1.05013E+01 0.00000E+00
 -1      3162 4.15350E+01 1.18003E+01 0.00000E+00
 -1      3163 4.67850E+01 1.05013E+01 0.00000E+00
 -1      3164 4.52850E+01 1.05013E+01 0.00000E+00
 -1      3165 4.45350E+01 1.18003E+01 0.00000E+00
 -1      3166 4.97850E+01 1.05013E+01 0.00000E+00
 -1      3167 4.82850E+01 1.05013E+01 0.00000E+00
 -1      3168 4.75350E+01 1.18003E+01 0.00000E+00
 -1      3169 5.27850E+01 1.05013E+01 0.00000E+00
 -1      3170 5.12850E+01 1.05013E+01 0.00000E+00
 -1      3171 5.05350E+01 1.18003E+01 0.00000E+00
 -1      3172 5.57850E+01 1.05013E+01 0.00000E+00
 -1      3173 5.42850E+01 1.05013E+01 0.00000E+00
 -1      3174 5.35350E+01 1.18003E+01 0.00000E+00
 -1      3175 5.87850E+01 1.05013E+01 0.00000E+00
 -1      3176 5.72850E+01 1.05013E+01 0.00000E+00
 -1      3177 5.65350E+01 1.18003E+01 0.00000E+00
 -1      3178 6.17850E+01 1.05013E+01 0.00000E+00
 -1      3179 6.02850E+01 1.05013E+01 0.00000E+00
 -1      3180 5.95350E+01 1.18003E+01 0.00000E+00
 -1      3181 6.47850E+01 1.05013E+01 0.00000E+00
 -1      3182 6.32850E+01 1.05013E+01 0.00000E+00
 -1      3183 6.25350E+01 1.18003E+01 0.00000E+00
 -1      3184 7.07850E+01 1.05013E+01 0.00000E+00
 -1      3185 6.92850E+01 1.05013E+01 0.00000E+00
 -1      3186 7.42980E+01 1.05756E+01 0.00000E+00
 -1      3187 7.27980E+01 1.05756E+01 0.00000E+00
 -1      3188 7.73756E+01 1.13105E+01 0.00000E+00
 -1      3189 7.58756E+01 1.13105E+01 0.00000E+00
 -1      3190 8.27850E+01 1.05013E+01 0.00000E+00
 -1      3191 8.12850E+01 1.05013E+01 0.00000E+00
 -1      3192 8.57850E+01 1.05013E+01 0.00000E+00
 -1      3193 8.42850E+01 1.05013E+01 0.00000E+00
 -1      3194 8.35350E+01 1.18003E+01 0.00000E+00
 -1      3195 8.87850E+01 1.05013E+01 0.00000E+00
 -1      3196 8.72850E+01 1.05013E+01 0.00000E+00
 -1      3197 8.65350E+01 1.18003E+01 0.00000E+00
 -1      3198 9.17850E+01 1.05013E+01 0.00000E+00
 -1      3199 9.02850E+01 1.05013E+01 0.00000E+00
 -1      3200 8.95350E+01 1.18003E+01 0.00000E+00
 -1      3201 9.47850E+01 1.05013E+01 0.00000E+00
 -1      3202 9.32850E+01 1.05013E+01 0.00000E+00
 -1      3203 9.25350E+01 1.18003E+01 0.00000E+00
 -1      3204 9.77850E+01 1.05013E+01 0.00000E+00
 -1      3205 9.62850E+01 1.05013E+01 0.00000E+00
 -1      3206 9.55350E+01 1.18003E+01 0.00000E+00
 -1      3207 1.00785E+02 1.05013E+01 0.00000E+00
 -1      3208 9.92850E+01 1.05013E+01 0.00000E+00
 -1      3209 9.85350E+01 1.18003E+01 0.00000E+00
 -1      3210 1.03785E+02 1.05013E+01 0.00000E+00
 -1      3211 1.02285E+02 1.05013E+01 0.00000E+00
 -1      3212 1.01535E+02 1.18003E+01 0.00000E+00
 -1      3213 1.06785E+02 1.05013E+01 0.00000E+00
 -1      3214 1.05285E+02 1.05013E+01 0.00000E+00
 -1      3215 1.04535E+02 1.18003E+01 0.00000E+00
 -1      3216 1.09785E+02 1.05013E+01 0.00000E+00
 -1      3217 1.08285E+02 1.05013E+01 0.00000E+00
 -1      3218 1.07535E+02 1.18003E+01 0.00000E+00
 -1      3219 1.12785E+02 1.05013E+01 0.00000E+00
 -1      3220 1.11285E+02 1.05013E+01 0.00000E+00
 -1      3221 1.10535E+02 1.18003E+01 0.00000E+00
 -1      3222 1.15785E+02 1.05013E+01 0.00000E+00
 -1      3223 1.14285E+02 1.05013E+01 0.00000E+00
 -1      3224 1.13535E+02 1.18003E+01 0.00000E+00
 -1      3225 1.18785E+02 1.05013E+01 0.00000E+00
 -1      3226 1.17285E+02 1.05013E+01 0.00000E+00
 -1      3227 1.16535E+02 1.18003E+01 0.00000E+00
 -1      3228 1.21785E+02 1.05013E+01 0.00000E+00
 -1      3229 1.20285E+02 1.05013E+01 0.00000E+00
 -1      3230 1.19535E+02 1.18003E+01 0.00000E+00
 -1      3231 1.24785E+02 1.05013E+01 0.00000E+00
 -1      3232 1.23285E+02 1.05013E+01 0.00000E+00
 -1      3233 1.22535E+02 1.18003E+01 0.00000E+00
 -1      3234 1.27785E+02 1.05013E+01 0.00000E+00
 -1      3235 1.26285E+02 1.05013E+01 0.00000E+00
 -1      3236 1.25535E+02 1.18003E+01 0.00000E+00
 -1      3237 1.30785E+02 1.05013E+01 0.00000E+00
 -1      3238 1.29285E+02 1.05013E+01 0.00000E+00
 -1      3239 1.28535E+02 1.18003E+01 0.00000E+00
 -1      3240 1.33785E+02 1.05013E+01 0.00000E+00
 -1      3241 1.32285E+02 1.05013E+01 0.00000E+00
 -1      3242 1.31535E+02 1.18003E+01 0.00000E+00
 -1      3243 1.38309E+02 2.86750E+01 0.00000E+00
 -1      3244 1.38309E+02 2.72250E+01 0.00000E+00
 -1      3245 8.05633E+01 3.83603E+01 0.00000E+00
 -1      3246 1.38309E+02 3.45625E+01 0.00000E+00
 -1      3247 1.38309E+02 3.30875E+01 0.00000E+00
 -1      3248 1.38309E+02 2.57500E+01 0.00000E+00
 -1      3249 1.38309E+02 2.42750E+01 0.00000E+00
 -1      3250 1.37010E+02 2.64750E+01 0.00000E+00
 -1      3251 8.08277E+01 1.63330E+01 0.00000E+00
 -1      3252 8.19761E+01 1.70058E+01 0.00000E+00
 -1      3253 6.07400E+01 3.49118E+01 0.00000E+00
 -1      3254 6.01697E+01 3.40721E+01 0.00000E+00
 -1      3255 1.26488E+01 1.02017E+01 0.00000E+00
 -1      3256 1.20772E+01 1.14631E+01 0.00000E+00
 -1      3257 1.33763E+01 1.22006E+01 0.00000E+00
 -1      3258 1.41488E+01 1.02017E+01 0.00000E+00
 -1      3259 1.97850E+01 1.05013E+01 0.00000E+00
 -1      3260 1.82850E+01 1.05013E+01 0.00000E+00
 -1      3261 2.05350E+01 1.18003E+01 0.00000E+00
 -1      3262 8.52661E+01 2.79535E+01 0.00000E+00
 -1      3263 8.49407E+01 2.92489E+01 0.00000E+00
 -1      3264 6.95070E+01 1.27774E+01 0.00000E+00
 -1      3265 7.12142E+01 1.27158E+01 0.00000E+00
 -1      3266 5.85803E+01 2.18211E+01 0.00000E+00
 -1      3267 5.89048E+01 2.06286E+01 0.00000E+00
 -1      3268 1.38309E+02 3.16187E+01 0.00000E+00
 -1      3269 1.38309E+02 3.01437E+01 0.00000E+00
 -1      3270 1.37010E+02 2.94188E+01 0.00000E+00
 -1      3271 1.37010E+02 3.23563E+01 0.00000E+00
 -1      3272 3.77850E+01 1.05013E+01 0.00000E+00
 -1      3273 3.62850E+01 1.05013E+01 0.00000E+00
 -1      3274 3.55350E+01 1.18003E+01 0.00000E+00
 -1      3275 3.85350E+01 1.18003E+01 0.00000E+00
 -1      3276 6.24907E+01 3.74165E+01 0.00000E+00
 -1      3277 6.16923E+01 3.62038E+01 0.00000E+00
 -1      3278 8.19816E+01 3.83347E+01 0.00000E+00
 -1      3279 8.34816E+01 3.83347E+01 0.00000E+00
 -1      3280 8.42316E+01 3.70357E+01 0.00000E+00
 -1      3281 8.13949E+01 3.70870E+01 0.00000E+00
 -1      3282 1.59000E+01 3.83090E+01 0.00000E+00
 -1      3283 1.74000E+01 3.83090E+01 0.00000E+00
 -1      3284 1.81500E+01 3.70100E+01 0.00000E+00
 -1      3285 6.41202E+01 1.37594E+01 0.00000E+00
 -1      3286 6.54016E+01 1.31733E+01 0.00000E+00
 -1      3287 8.34176E+01 1.84535E+01 0.00000E+00
 -1      3288 8.43507E+01 1.99067E+01 0.00000E+00
 -1      3289 8.38005E+01 3.29097E+01 0.00000E+00
 -1      3290 8.31989E+01 3.42544E+01 0.00000E+00
 -1      3291 8.50042E+01 2.17314E+01 0.00000E+00
 -1      3292 8.54100E+01 2.31889E+01 0.00000E+00
 -1      3293 1.39407E+02 1.25250E+01 0.00000E+00
 -1      3294 5.71968E+01 2.67036E+01 0.00000E+00
 -1      3295 5.75165E+01 2.52324E+01 0.00000E+00
 -1      3296 6.72962E+01 1.35692E+01 0.00000E+00
 -1      3297 6.84016E+01 1.31733E+01 0.00000E+00
 -1      3298 6.89296E+01 1.21962E+01 0.00000E+00
 -1      3299 8.58961E+01 2.49629E+01 0.00000E+00
 -1      3300 8.58413E+01 2.64048E+01 0.00000E+00
 -1      3301 5.95332E+01 1.90488E+01 0.00000E+00
 -1      3302 6.03658E+01 1.77222E+01 0.00000E+00
 -1      3303 5.79331E+01 2.38669E+01 0.00000E+00
 -1      3304 5.82567E+01 2.28440E+01 0.00000E+00
 -1      3305 5.74298E+01 2.19785E+01 0.00000E+00
 -1      3306 8.23496E+01 3.57676E+01 0.00000E+00
 -1      3307 6.16106E+01 1.62240E+01 0.00000E+00
 -1      3308 6.28527E+01 1.52591E+01 0.00000E+00
 -1      3309 8.44762E+01 3.04917E+01 0.00000E+00
 -1      3310 8.40882E+01 3.15503E+01 0.00000E+00
 -1      3311 1.00862E+01 3.73269E+01 0.00000E+00
 -1      3312 1.16910E+01 2.12875E+01 0.00000E+00
 -1      3313 1.16910E+01 2.27625E+01 0.00000E+00
 -1      3314 7.87557E+01 1.51201E+01 0.00000E+00
 -1      3315 7.96306E+01 1.57776E+01 0.00000E+00
 -1      3316 8.08076E+01 1.50849E+01 0.00000E+00
 -1      3317 7.84133E+01 1.39742E+01 0.00000E+00
 -1      3318 1.16910E+01 2.42375E+01 0.00000E+00
 -1      3319 1.16910E+01 2.57125E+01 0.00000E+00
 -1      3320 1.29900E+01 2.35000E+01 0.00000E+00
 -1      3321 1.29900E+01 1.46687E+01 0.00000E+00
 -1      3322 1.16910E+01 1.54063E+01 0.00000E+00
 -1      3323 1.16910E+01 1.68750E+01 0.00000E+00
 -1      3324 6.32407E+01 3.84417E+01 0.00000E+00
 -1      3325 5.66897E+01 2.43670E+01 0.00000E+00
 -1      3326 6.01500E+01 3.72839E+01 0.00000E+00
 -1      3327 8.55519E+01 3.00733E+01 0.00000E+00
 -1      3328 1.38309E+02 1.69188E+01 0.00000E+00
 -1      3329 1.38309E+02 1.54563E+01 0.00000E+00
 -1      3330 8.55412E+01 2.03604E+01 0.00000E+00
 -1      3331 1.32152E+01 3.82007E+01 0.00000E+00
 -1      3332 1.45576E+01 3.82548E+01 0.00000E+00
 -1      3333 1.53076E+01 3.69558E+01 0.00000E+00
 -1      3334 1.16910E+01 3.30594E+01 0.00000E+00
 -1      3335 1.16910E+01 3.45281E+01 0.00000E+00
 -1      3336 1.14286E+01 3.73811E+01 0.00000E+00
 -1      3337 6.01923E+01 3.59299E+01 0.00000E+00
 -1      3338 2.95350E+01 1.18003E+01 0.00000E+00
 -1      3339 2.87850E+01 1.05013E+01 0.00000E+00
 -1      3340 2.72850E+01 1.05013E+01 0.00000E+00
 -1      3341 6.81796E+01 1.08972E+01 0.00000E+00
 -1      3342 7.20480E+01 1.18746E+01 0.00000E+00
 -1      3343 6.66796E+01 1.08972E+01 0.00000E+00
 -1      3344 6.59296E+01 1.21962E+01 0.00000E+00
 -1      3345 7.97850E+01 1.05013E+01 0.00000E+00
 -1      3346 7.82850E+01 1.05013E+01 0.00000E+00
 -1      3347 8.34750E+01 1.57225E+01 0.00000E+00
 -1      3348 8.34463E+01 1.70880E+01 0.00000E+00
 -1      3349 8.49165E+01 1.71702E+01 0.00000E+00
 -1      3350 1.34953E+02 1.07819E+01 0.00000E+00
 -1      3351 1.34203E+02 1.20809E+01 0.00000E+00
 -1      3352 1.36120E+02 1.10626E+01 0.00000E+00
 -1      3353 1.38309E+02 1.98687E+01 0.00000E+00
 -1      3354 1.38309E+02 1.83937E+01 0.00000E+00
 -1      3355 1.37010E+02 1.76625E+01 0.00000E+00
 -1      3356 2.57850E+01 1.05013E+01 0.00000E+00
 -1      3357 2.42850E+01 1.05013E+01 0.00000E+00
 -1      3358 2.65350E+01 1.18003E+01 0.00000E+00
 -1      3359 8.47997E+01 3.26755E+01 0.00000E+00
 -1      3360 1.38309E+02 2.28094E+01 0.00000E+00
 -1      3361 1.38309E+02 2.13344E+01 0.00000E+00
 -1      3362 1.37010E+02 2.06031E+01 0.00000E+00
 -1      3363 1.37010E+02 2.35344E+01 0.00000E+00
 -1      3364 5.92586E+01 3.36434E+01 0.00000E+00
 -1      3365 1.16910E+01 1.83469E+01 0.00000E+00
 -1      3366 1.16910E+01 1.98156E+01 0.00000E+00
 -1      3367 1.29900E+01 2.05531E+01 0.00000E+00
 -1      3368 1.29900E+01 1.76094E+01 0.00000E+00
 -1      3369 8.36626E+01 3.55481E+01 0.00000E+00
 -1      3370 8.65915E+01 2.72819E+01 0.00000E+00
 -1      3371 5.83818E+01 1.93758E+01 0.00000E+00
 -1      3372 6.27675E+01 1.33000E+01 0.00000E+00
 -1      3373 8.66807E+01 2.39592E+01 0.00000E+00
 -1      3374 1.38274E+02 1.38503E+01 0.00000E+00
 -1      3375 1.38073E+02 1.16503E+01 0.00000E+00
 -1      3376 1.36905E+02 1.13696E+01 0.00000E+00
 -1      3377 1.36975E+02 1.45815E+01 0.00000E+00
 -1      3378 6.47407E+01 3.84417E+01 0.00000E+00
 -1      3379 2.35350E+01 1.18003E+01 0.00000E+00
 -1      3380 1.16910E+01 3.15906E+01 0.00000E+00
 -1      3381 1.29900E+01 3.23250E+01 0.00000E+00
 -1      3382 1.16910E+01 3.01219E+01 0.00000E+00
 -1      3383 8.05350E+01 1.18003E+01 0.00000E+00
 -1      3384 5.68476E+01 2.75096E+01 0.00000E+00
 -1      3385 5.59239E+01 2.65386E+01 0.00000E+00
 -1      3386 5.64984E+01 2.83157E+01 0.00000E+00
 -1      3387 1.69669E+01 1.03515E+01 0.00000E+00
 -1      3388 1.54669E+01 1.03515E+01 0.00000E+00
 -1      3389 1.50806E+01 1.13509E+01 0.00000E+00
 -1      3390 1.77169E+01 1.16505E+01 0.00000E+00
 -1      3391 5.80969E+01 3.07999E+01 0.00000E+00
 -1      3392 5.70461E+01 3.01898E+01 0.00000E+00
 -1      3393 5.77208E+01 3.17029E+01 0.00000E+00
 -1      3394 6.02551E+01 1.62979E+01 0.00000E+00
 -1      3395 1.37758E+02 3.64912E+01 0.00000E+00
 -1      3396 1.38123E+02 3.54142E+01 0.00000E+00
 -1      3397 1.36824E+02 3.46768E+01 0.00000E+00
 -1      3398 1.36451E+02 3.63802E+01 0.00000E+00
 -1      3399 2.34000E+01 3.57110E+01 0.00000E+00
 -1      3400 2.49000E+01 3.57110E+01 0.00000E+00
 -1      3401 2.64000E+01 3.57110E+01 0.00000E+00
 -1      3402 2.79000E+01 3.57110E+01 0.00000E+00
 -1      3403 2.56500E+01 3.44120E+01 0.00000E+00
 -1      3404 2.94000E+01 3.57110E+01 0.00000E+00
 -1      3405 3.09000E+01 3.57110E+01 0.00000E+00
 -1      3406 2.86500E+01 3.44120E+01 0.00000E+00
 -1      3407 3.24000E+01 3.57110E+01 0.00000E+00
 -1      3408 3.39000E+01 3.57110E+01 0.00000E+00
 -1      3409 3.16500E+01 3.44120E+01 0.00000E+00
 -1      3410 3.54000E+01 3.57110E+01 0.00000E+00
 -1      3411 3.69000E+01 3.57110E+01 0.00000E+00
 -1      3412 3.46500E+01 3.44120E+01 0.00000E+00
 -1      3413 3.84000E+01 3.57110E+01 0.00000E+00
 -1      3414 3.99000E+01 3.57110E+01 0.00000E+00
 -1      3415 3.76500E+01 3.44120E+01 0.00000E+00
 -1      3416 4.14000E+01 3.57110E+01 0.00000E+00
 -1      3417 4.29000E+01 3.57110E+01 0.00000E+00
 -1      3418 4.06500E+01 3.44120E+01 0.00000E+00
 -1      3419 4.44000E+01 3.57110E+01 0.00000E+00
 -1      3420 4.59000E+01 3.57110E+01 0.00000E+00
 -1      3421 4.36500E+01 3.44120E+01 0.00000E+00
 -1      3422 4.74000E+01 3.57110E+01 0.00000E+00
 -1      3423 4.89000E+01 3.57110E+01 0.00000E+00
 -1      3424 4.66500E+01 3.44120E+01 0.00000E+00
 -1      3425 5.04000E+01 3.57110E+01 0.00000E+00
 -1      3426 5.19000E+01 3.57110E+01 0.00000E+00
 -1      3427 4.96500E+01 3.44120E+01 0.00000E+00
 -1      3428 5.34000E+01 3.57110E+01 0.00000E+00
 -1      3429 5.49000E+01 3.57110E+01 0.00000E+00
 -1      3430 5.26500E+01 3.44120E+01 0.00000E+00
 -1      3431 8.66659E+01 2.97815E+01 0.00000E+00
 -1      3432 8.62014E+01 3.10242E+01 0.00000E+00
 -1      3433 8.63374E+01 1.90459E+01 0.00000E+00
 -1      3434 8.69908E+01 2.08707E+01 0.00000E+00
 -1      3435 1.21786E+01 3.60821E+01 0.00000E+00
 -1      3436 8.94000E+01 3.57110E+01 0.00000E+00
 -1      3437 9.09000E+01 3.57110E+01 0.00000E+00
 -1      3438 9.24000E+01 3.57110E+01 0.00000E+00
 -1      3439 9.39000E+01 3.57110E+01 0.00000E+00
 -1      3440 9.16500E+01 3.44120E+01 0.00000E+00
 -1      3441 9.54000E+01 3.57110E+01 0.00000E+00
 -1      3442 9.69000E+01 3.57110E+01 0.00000E+00
 -1      3443 9.46500E+01 3.44120E+01 0.00000E+00
 -1      3444 9.84000E+01 3.57110E+01 0.00000E+00
 -1      3445 9.99000E+01 3.57110E+01 0.00000E+00
 -1      3446 9.76500E+01 3.44120E+01 0.00000E+00
 -1      3447 1.01400E+02 3.57110E+01 0.00000E+00
 -1      3448 1.02900E+02 3.57110E+01 0.00000E+00
 -1      3449 1.00650E+02 3.44120E+01 0.00000E+00
 -1      3450 1.04400E+02 3.57110E+01 0.00000E+00
 -1      3451 1.05900E+02 3.57110E+01 0.00000E+00
 -1      3452 1.03650E+02 3.44120E+01 0.00000E+00
 -1      3453 1.07400E+02 3.57110E+01 0.00000E+00
 -1      3454 1.08900E+02 3.57110E+01 0.00000E+00
 -1      3455 1.06650E+02 3.44120E+01 0.00000E+00
 -1      3456 1.10400E+02 3.57110E+01 0.00000E+00
 -1      3457 1.11900E+02 3.57110E+01 0.00000E+00
 -1      3458 1.09650E+02 3.44120E+01 0.00000E+00
 -1      3459 1.13400E+02 3.57110E+01 0.00000E+00
 -1      3460 1.14900E+02 3.57110E+01 0.00000E+00
 -1      3461 1.12650E+02 3.44120E+01 0.00000E+00
 -1      3462 1.16400E+02 3.57110E+01 0.00000E+00
 -1      3463 1.17900E+02 3.57110E+01 0.00000E+00
 -1      3464 1.15650E+02 3.44120E+01 0.00000E+00
 -1      3465 1.19400E+02 3.57110E+01 0.00000E+00
 -1      3466 1.20900E+02 3.57110E+01 0.00000E+00
 -1      3467 1.18650E+02 3.44120E+01 0.00000E+00
 -1      3468 1.22400E+02 3.57110E+01 0.00000E+00
 -1      3469 1.23900E+02 3.57110E+01 0.00000E+00
 -1      3470 1.21650E+02 3.44120E+01 0.00000E+00
 -1      3471 1.25400E+02 3.57110E+01 0.00000E+00
 -1      3472 1.26900E+02 3.57110E+01 0.00000E+00
 -1      3473 1.24650E+02 3.44120E+01 0.00000E+00
 -1      3474 1.28400E+02 3.57110E+01 0.00000E+00
 -1      3475 1.29900E+02 3.57110E+01 0.00000E+00
 -1      3476 1.27650E+02 3.44120E+01 0.00000E+00
 -1      3477 1.31400E+02 3.57110E+01 0.00000E+00
 -1      3478 1.32900E+02 3.57110E+01 0.00000E+00
 -1      3479 1.30650E+02 3.44120E+01 0.00000E+00
 -1      3480 5.54207E+01 2.47261E+01 0.00000E+00
 -1      3481 5.58373E+01 2.33606E+01 0.00000E+00
 -1      3482 4.52850E+01 1.30992E+01 0.00000E+00
 -1      3483 4.37850E+01 1.30992E+01 0.00000E+00
 -1      3484 4.22850E+01 1.30992E+01 0.00000E+00
 -1      3485 4.07850E+01 1.30992E+01 0.00000E+00
 -1      3486 4.30350E+01 1.43982E+01 0.00000E+00
 -1      3487 5.12850E+01 1.30992E+01 0.00000E+00
 -1      3488 4.97850E+01 1.30992E+01 0.00000E+00
 -1      3489 5.42850E+01 1.30992E+01 0.00000E+00
 -1      3490 5.27850E+01 1.30992E+01 0.00000E+00
 -1      3491 5.20350E+01 1.43982E+01 0.00000E+00
 -1      3492 5.72850E+01 1.30992E+01 0.00000E+00
 -1      3493 5.57850E+01 1.30992E+01 0.00000E+00
 -1      3494 5.50350E+01 1.43982E+01 0.00000E+00
 -1      3495 6.12675E+01 1.33000E+01 0.00000E+00
 -1      3496 7.81256E+01 1.26095E+01 0.00000E+00
 -1      3497 7.56385E+01 1.26839E+01 0.00000E+00
 -1      3498 8.49901E+01 1.38025E+01 0.00000E+00
 -1      3499 8.34901E+01 1.38025E+01 0.00000E+00
 -1      3500 9.32850E+01 1.30992E+01 0.00000E+00
 -1      3501 9.17850E+01 1.30992E+01 0.00000E+00
 -1      3502 9.62850E+01 1.30992E+01 0.00000E+00
 -1      3503 9.47850E+01 1.30992E+01 0.00000E+00
 -1      3504 9.40350E+01 1.43982E+01 0.00000E+00
 -1      3505 9.92850E+01 1.30992E+01 0.00000E+00
 -1      3506 9.77850E+01 1.30992E+01 0.00000E+00
 -1      3507 9.70350E+01 1.43982E+01 0.00000E+00
 -1      3508 1.02285E+02 1.30992E+01 0.00000E+00
 -1      3509 1.00785E+02 1.30992E+01 0.00000E+00
 -1      3510 1.00035E+02 1.43982E+01 0.00000E+00
 -1      3511 1.05285E+02 1.30992E+01 0.00000E+00
 -1      3512 1.03785E+02 1.30992E+01 0.00000E+00
 -1      3513 1.03035E+02 1.43982E+01 0.00000E+00
 -1      3514 1.08285E+02 1.30992E+01 0.00000E+00
 -1      3515 1.06785E+02 1.30992E+01 0.00000E+00
 -1      3516 1.06035E+02 1.43982E+01 0.00000E+00
 -1      3517 1.11285E+02 1.30992E+01 0.00000E+00
 -1      3518 1.09785E+02 1.30992E+01 0.00000E+00
 -1      3519 1.09035E+02 1.43982E+01 0.00000E+00
 -1      3520 1.14285E+02 1.30992E+01 0.00000E+00
 -1      3521 1.12785E+02 1.30992E+01 0.00000E+00
 -1      3522 1.12035E+02 1.43982E+01 0.00000E+00
 -1      3523 1.17285E+02 1.30992E+01 0.00000E+00
 -1      3524 1.15785E+02 1.30992E+01 0.00000E+00
 -1      3525 1.15035E+02 1.43982E+01 0.00000E+00
 -1      3526 1.20285E+02 1.30992E+01 0.00000E+00
 -1      3527 1.18785E+02 1.30992E+01 0.00000E+00
 -1      3528 1.18035E+02 1.43982E+01 0.00000E+00
 -1      3529 1.23285E+02 1.30992E+01 0.00000E+00
 -1      3530 1.21785E+02 1.30992E+01 0.00000E+00
 -1      3531 1.21035E+02 1.43982E+01 0.00000E+00
 -1      3532 1.26285E+02 1.30992E+01 0.00000E+00
 -1      3533 1.24785E+02 1.30992E+01 0.00000E+00
 -1      3534 1.24035E+02 1.43982E+01 0.00000E+00
 -1      3535 1.29285E+02 1.30992E+01 0.00000E+00
 -1      3536 1.27785E+02 1.30992E+01 0.00000E+00
 -1      3537 1.27035E+02 1.43982E+01 0.00000E+00
 -1      3538 1.32285E+02 1.30992E+01 0.00000E+00
 -1      3539 1.30785E+02 1.30992E+01 0.00000E+00
 -1      3540 1.30035E+02 1.43982E+01 0.00000E+00
 -1      3541 5.86967E+01 3.46033E+01 0.00000E+00
 -1      3542 5.82098E+01 3.32729E+01 0.00000E+00
 -1      3543 5.69594E+01 1.97249E+01 0.00000E+00
 -1      3544 5.75878E+01 1.81451E+01 0.00000E+00
 -1      3545 8.59137E+01 3.23836E+01 0.00000E+00
 -1      3546 8.56259E+01 3.37431E+01 0.00000E+00
 -1      3547 8.70277E+01 3.20918E+01 0.00000E+00
 -1      3548 1.35711E+02 2.72125E+01 0.00000E+00
 -1      3549 1.35711E+02 2.57375E+01 0.00000E+00
 -1      3550 9.02850E+01 1.30992E+01 0.00000E+00
 -1      3551 8.87850E+01 1.30992E+01 0.00000E+00
 -1      3552 9.10350E+01 1.43982E+01 0.00000E+00
 -1      3553 8.76375E+01 1.34509E+01 0.00000E+00
 -1      3554 8.61375E+01 1.34509E+01 0.00000E+00
 -1      3555 8.60926E+01 1.54531E+01 0.00000E+00
 -1      3556 8.83875E+01 1.47499E+01 0.00000E+00
 -1      3557 1.34776E+01 3.53477E+01 0.00000E+00
 -1      3558 7.93227E+01 1.31649E+01 0.00000E+00
 -1      3559 1.16910E+01 2.71844E+01 0.00000E+00
 -1      3560 1.16910E+01 2.86531E+01 0.00000E+00
 -1      3561 1.29900E+01 2.93875E+01 0.00000E+00
 -1      3562 8.50810E+01 3.55225E+01 0.00000E+00
 -1      3563 4.82850E+01 1.30992E+01 0.00000E+00
 -1      3564 4.67850E+01 1.30992E+01 0.00000E+00
 -1      3565 4.60350E+01 1.43982E+01 0.00000E+00
 -1      3566 4.90350E+01 1.43982E+01 0.00000E+00
 -1      3567 8.61950E+01 3.52306E+01 0.00000E+00
 -1      3568 8.76950E+01 3.52306E+01 0.00000E+00
 -1      3569 2.04000E+01 3.57110E+01 0.00000E+00
 -1      3570 2.19000E+01 3.57110E+01 0.00000E+00
 -1      3571 2.26500E+01 3.44120E+01 0.00000E+00
 -1      3572 8.76905E+01 2.27289E+01 0.00000E+00
 -1      3573 8.81765E+01 2.45030E+01 0.00000E+00
 -1      3574 8.79972E+01 2.69228E+01 0.00000E+00
 -1      3575 8.74220E+01 2.84715E+01 0.00000E+00
 -1      3576 2.42850E+01 1.30992E+01 0.00000E+00
 -1      3577 2.27850E+01 1.30992E+01 0.00000E+00
 -1      3578 5.62366E+01 2.20542E+01 0.00000E+00
 -1      3579 5.65601E+01 2.10313E+01 0.00000E+00
 -1      3580 5.57661E+01 1.98006E+01 0.00000E+00
 -1      3581 5.49676E+01 2.24134E+01 0.00000E+00
 -1      3582 6.00113E+01 1.47989E+01 0.00000E+00
 -1      3583 5.97788E+01 1.32992E+01 0.00000E+00
 -1      3584 5.82788E+01 1.32992E+01 0.00000E+00
 -1      3585 5.87664E+01 1.62971E+01 0.00000E+00
 -1      3586 8.08227E+01 1.31649E+01 0.00000E+00
 -1      3587 1.74000E+01 3.57110E+01 0.00000E+00
 -1      3588 1.89000E+01 3.57110E+01 0.00000E+00
 -1      3589 1.96500E+01 3.44120E+01 0.00000E+00
 -1      3590 2.12850E+01 1.30992E+01 0.00000E+00
 -1      3591 1.97850E+01 1.30992E+01 0.00000E+00
 -1      3592 2.20350E+01 1.43982E+01 0.00000E+00
 -1      3593 3.32850E+01 1.30992E+01 0.00000E+00
 -1      3594 3.17850E+01 1.30992E+01 0.00000E+00
 -1      3595 1.42890E+01 1.39344E+01 0.00000E+00
 -1      3596 1.42890E+01 1.54031E+01 0.00000E+00
 -1      3597 5.57462E+01 3.01217E+01 0.00000E+00
 -1      3598 5.61223E+01 2.92187E+01 0.00000E+00
 -1      3599 5.51986E+01 2.82476E+01 0.00000E+00
 -1      3600 1.34412E+02 2.50094E+01 0.00000E+00
 -1      3601 1.35711E+02 2.42719E+01 0.00000E+00
 -1      3602 1.35711E+02 2.28062E+01 0.00000E+00
 -1      3603 8.80715E+01 2.94224E+01 0.00000E+00
 -1      3604 5.66490E+01 3.56214E+01 0.00000E+00
 -1      3605 5.81490E+01 3.56214E+01 0.00000E+00
 -1      3606 8.84867E+01 2.14144E+01 0.00000E+00
 -1      3607 8.84450E+01 3.39316E+01 0.00000E+00
 -1      3608 5.58990E+01 3.43224E+01 0.00000E+00
 -1      3609 5.75288E+01 1.45982E+01 0.00000E+00
 -1      3610 5.50715E+01 2.55322E+01 0.00000E+00
 -1      3611 5.42192E+01 2.45259E+01 0.00000E+00
 -1      3612 5.47223E+01 2.63383E+01 0.00000E+00
 -1      3613 1.34022E+02 3.59901E+01 0.00000E+00
 -1      3614 1.35329E+02 3.61011E+01 0.00000E+00
 -1      3615 1.35515E+02 3.52494E+01 0.00000E+00
 -1      3616 1.33272E+02 3.46911E+01 0.00000E+00
 -1      3617 3.02850E+01 1.30992E+01 0.00000E+00
 -1      3618 2.87850E+01 1.30992E+01 0.00000E+00
 -1      3619 3.10350E+01 1.43982E+01 0.00000E+00
 -1      3620 4.00350E+01 1.43982E+01 0.00000E+00
 -1      3621 3.92850E+01 1.30992E+01 0.00000E+00
 -1      3622 3.77850E+01 1.30992E+01 0.00000E+00
 -1      3623 5.76802E+01 1.71211E+01 0.00000E+00
 -1      3624 5.74364E+01 1.56222E+01 0.00000E+00
 -1      3625 5.64426E+01 1.54222E+01 0.00000E+00
 -1      3626 5.62578E+01 1.74702E+01 0.00000E+00
 -1      3627 8.62293E+01 1.65668E+01 0.00000E+00
 -1      3628 8.62006E+01 1.79322E+01 0.00000E+00
 -1      3629 8.76502E+01 1.84425E+01 0.00000E+00
 -1      3630 8.73768E+01 1.62151E+01 0.00000E+00
 -1      3631 5.71590E+01 3.26628E+01 0.00000E+00
 -1      3632 1.33453E+02 1.33799E+01 0.00000E+00
 -1      3633 1.32703E+02 1.46789E+01 0.00000E+00
 -1      3634 1.34620E+02 1.36606E+01 0.00000E+00
 -1      3635 1.36155E+02 1.26686E+01 0.00000E+00
 -1      3636 1.35711E+02 1.84000E+01 0.00000E+00
 -1      3637 1.35711E+02 1.69250E+01 0.00000E+00
 -1      3638 2.72850E+01 1.30992E+01 0.00000E+00
 -1      3639 2.57850E+01 1.30992E+01 0.00000E+00
 -1      3640 2.80350E+01 1.43982E+01 0.00000E+00
 -1      3641 9.00168E+01 2.44623E+01 0.00000E+00
 -1      3642 8.90070E+01 2.56926E+01 0.00000E+00
 -1      3643 8.98375E+01 2.68822E+01 0.00000E+00
 -1      3644 1.42890E+01 2.27625E+01 0.00000E+00
 -1      3645 1.42890E+01 2.42375E+01 0.00000E+00
 -1      3646 1.48779E+01 1.21429E+01 0.00000E+00
 -1      3647 1.44917E+01 1.31424E+01 0.00000E+00
 -1      3648 1.57907E+01 1.38767E+01 0.00000E+00
 -1      3649 1.61961E+01 1.22927E+01 0.00000E+00
 -1      3650 1.35711E+02 2.86812E+01 0.00000E+00
 -1      3651 1.34412E+02 2.79438E+01 0.00000E+00
 -1      3652 1.35711E+02 3.01500E+01 0.00000E+00
 -1      3653 5.91977E+01 3.59919E+01 0.00000E+00
 -1      3654 1.43324E+01 3.38479E+01 0.00000E+00
 -1      3655 1.48200E+01 3.54019E+01 0.00000E+00
 -1      3656 1.61624E+01 3.54560E+01 0.00000E+00
 -1      3657 2.50350E+01 1.43982E+01 0.00000E+00
 -1      3658 1.42890E+01 2.12906E+01 0.00000E+00
 -1      3659 1.55880E+01 2.20281E+01 0.00000E+00
 -1      3660 1.42890E+01 1.98188E+01 0.00000E+00
 -1      3661 1.43324E+01 3.23792E+01 0.00000E+00
 -1      3662 1.56748E+01 3.24333E+01 0.00000E+00
 -1      3663 1.43324E+01 3.09104E+01 0.00000E+00
 -1      3664 1.29900E+01 2.64469E+01 0.00000E+00
 -1      3665 1.90350E+01 1.43983E+01 0.00000E+00
 -1      3666 1.82850E+01 1.30993E+01 0.00000E+00
 -1      3667 3.62850E+01 1.30992E+01 0.00000E+00
 -1      3668 3.47850E+01 1.30992E+01 0.00000E+00
 -1      3669 3.40350E+01 1.43982E+01 0.00000E+00
 -1      3670 3.70350E+01 1.43982E+01 0.00000E+00
 -1      3671 1.69669E+01 1.29495E+01 0.00000E+00
 -1      3672 1.34141E+02 1.63111E+01 0.00000E+00
 -1      3673 1.35440E+02 1.55736E+01 0.00000E+00
 -1      3674 1.35702E+02 3.43976E+01 0.00000E+00
 -1      3675 1.69124E+01 3.41570E+01 0.00000E+00
 -1      3676 1.34487E+02 3.38100E+01 0.00000E+00
 -1      3677 1.35795E+02 3.32374E+01 0.00000E+00
 -1      3678 1.35795E+02 3.17686E+01 0.00000E+00
 -1      3679 1.33365E+02 3.35309E+01 0.00000E+00
 -1      3680 2.79000E+01 3.31130E+01 0.00000E+00
 -1      3681 2.94000E+01 3.31130E+01 0.00000E+00
 -1      3682 3.09000E+01 3.31130E+01 0.00000E+00
 -1      3683 3.24000E+01 3.31130E+01 0.00000E+00
 -1      3684 3.01500E+01 3.18140E+01 0.00000E+00
 -1      3685 3.39000E+01 3.31130E+01 0.00000E+00
 -1      3686 3.54000E+01 3.31130E+01 0.00000E+00
 -1      3687 3.31500E+01 3.18140E+01 0.00000E+00
 -1      3688 3.69000E+01 3.31130E+01 0.00000E+00
 -1      3689 3.84000E+01 3.31130E+01 0.00000E+00
 -1      3690 3.61500E+01 3.18140E+01 0.00000E+00
 -1      3691 3.99000E+01 3.31130E+01 0.00000E+00
 -1      3692 4.14000E+01 3.31130E+01 0.00000E+00
 -1      3693 3.91500E+01 3.18140E+01 0.00000E+00
 -1      3694 4.29000E+01 3.31130E+01 0.00000E+00
 -1      3695 4.44000E+01 3.31130E+01 0.00000E+00
 -1      3696 4.21500E+01 3.18140E+01 0.00000E+00
 -1      3697 4.59000E+01 3.31130E+01 0.00000E+00
 -1      3698 4.74000E+01 3.31130E+01 0.00000E+00
 -1      3699 4.51500E+01 3.18140E+01 0.00000E+00
 -1      3700 4.89000E+01 3.31130E+01 0.00000E+00
 -1      3701 5.04000E+01 3.31130E+01 0.00000E+00
 -1      3702 4.81500E+01 3.18140E+01 0.00000E+00
 -1      3703 5.19000E+01 3.31130E+01 0.00000E+00
 -1      3704 5.34000E+01 3.31130E+01 0.00000E+00
 -1      3705 5.11500E+01 3.18140E+01 0.00000E+00
 -1      3706 8.93525E+01 2.00276E+01 0.00000E+00
 -1      3707 9.00522E+01 2.18858E+01 0.00000E+00
 -1      3708 8.84021E+01 3.09973E+01 0.00000E+00
 -1      3709 8.81144E+01 3.23567E+01 0.00000E+00
 -1      3710 8.98194E+01 3.28371E+01 0.00000E+00
 -1      3711 8.91583E+01 2.96873E+01 0.00000E+00
 -1      3712 1.89000E+01 3.31130E+01 0.00000E+00
 -1      3713 2.04000E+01 3.31130E+01 0.00000E+00
 -1      3714 9.39000E+01 3.31130E+01 0.00000E+00
 -1      3715 9.54000E+01 3.31130E+01 0.00000E+00
 -1      3716 9.69000E+01 3.31130E+01 0.00000E+00
 -1      3717 9.84000E+01 3.31130E+01 0.00000E+00
 -1      3718 9.61500E+01 3.18140E+01 0.00000E+00
 -1      3719 9.99000E+01 3.31130E+01 0.00000E+00
 -1      3720 1.01400E+02 3.31130E+01 0.00000E+00
 -1      3721 9.91500E+01 3.18140E+01 0.00000E+00
 -1      3722 1.02900E+02 3.31130E+01 0.00000E+00
 -1      3723 1.04400E+02 3.31130E+01 0.00000E+00
 -1      3724 1.02150E+02 3.18140E+01 0.00000E+00
 -1      3725 1.05900E+02 3.31130E+01 0.00000E+00
 -1      3726 1.07400E+02 3.31130E+01 0.00000E+00
 -1      3727 1.05150E+02 3.18140E+01 0.00000E+00
 -1      3728 1.08900E+02 3.31130E+01 0.00000E+00
 -1      3729 1.10400E+02 3.31130E+01 0.00000E+00
 -1      3730 1.08150E+02 3.18140E+01 0.00000E+00
 -1      3731 1.11900E+02 3.31130E+01 0.00000E+00
 -1      3732 1.13400E+02 3.31130E+01 0.00000E+00
 -1      3733 1.11150E+02 3.18140E+01 0.00000E+00
 -1      3734 1.14900E+02 3.31130E+01 0.00000E+00
 -1      3735 1.16400E+02 3.31130E+01 0.00000E+00
 -1      3736 1.14150E+02 3.18140E+01 0.00000E+00
 -1      3737 1.17900E+02 3.31130E+01 0.00000E+00
 -1      3738 1.19400E+02 3.31130E+01 0.00000E+00
 -1      3739 1.17150E+02 3.18140E+01 0.00000E+00
 -1      3740 1.20900E+02 3.31130E+01 0.00000E+00
 -1      3741 1.22400E+02 3.31130E+01 0.00000E+00
 -1      3742 1.20150E+02 3.18140E+01 0.00000E+00
 -1      3743 1.23900E+02 3.31130E+01 0.00000E+00
 -1      3744 1.25400E+02 3.31130E+01 0.00000E+00
 -1      3745 1.23150E+02 3.18140E+01 0.00000E+00
 -1      3746 1.26900E+02 3.31130E+01 0.00000E+00
 -1      3747 1.28400E+02 3.31130E+01 0.00000E+00
 -1      3748 1.26150E+02 3.18140E+01 0.00000E+00
 -1      3749 1.29900E+02 3.31130E+01 0.00000E+00
 -1      3750 1.31400E+02 3.31130E+01 0.00000E+00
 -1      3751 1.29150E+02 3.18140E+01 0.00000E+00
 -1      3752 5.54100E+01 3.27524E+01 0.00000E+00
 -1      3753 5.49426E+01 1.54222E+01 0.00000E+00
 -1      3754 5.27850E+01 1.56973E+01 0.00000E+00
 -1      3755 5.12850E+01 1.56973E+01 0.00000E+00
 -1      3756 1.00785E+02 1.56973E+01 0.00000E+00
 -1      3757 9.92850E+01 1.56973E+01 0.00000E+00
 -1      3758 9.77850E+01 1.56973E+01 0.00000E+00
 -1      3759 9.62850E+01 1.56973E+01 0.00000E+00
 -1      3760 9.85350E+01 1.69963E+01 0.00000E+00
 -1      3761 8.20199E+01 1.37203E+01 0.00000E+00
 -1      3762 1.66686E+01 3.26457E+01 0.00000E+00
 -1      3763 1.79062E+01 3.29006E+01 0.00000E+00
 -1      3764 1.86562E+01 3.16016E+01 0.00000E+00
 -1      3765 1.66686E+01 3.11769E+01 0.00000E+00
 -1      3766 9.47850E+01 1.56973E+01 0.00000E+00
 -1      3767 9.32850E+01 1.56973E+01 0.00000E+00
 -1      3768 9.55350E+01 1.69963E+01 0.00000E+00
 -1      3769 1.03785E+02 1.56973E+01 0.00000E+00
 -1      3770 1.02285E+02 1.56973E+01 0.00000E+00
 -1      3771 1.01535E+02 1.69963E+01 0.00000E+00
 -1      3772 1.06785E+02 1.56973E+01 0.00000E+00
 -1      3773 1.05285E+02 1.56973E+01 0.00000E+00
 -1      3774 1.04535E+02 1.69963E+01 0.00000E+00
 -1      3775 1.09785E+02 1.56973E+01 0.00000E+00
 -1      3776 1.08285E+02 1.56973E+01 0.00000E+00
 -1      3777 1.07535E+02 1.69963E+01 0.00000E+00
 -1      3778 1.12785E+02 1.56973E+01 0.00000E+00
 -1      3779 1.11285E+02 1.56973E+01 0.00000E+00
 -1      3780 1.10535E+02 1.69963E+01 0.00000E+00
 -1      3781 1.15785E+02 1.56973E+01 0.00000E+00
 -1      3782 1.14285E+02 1.56973E+01 0.00000E+00
 -1      3783 1.13535E+02 1.69963E+01 0.00000E+00
 -1      3784 1.18785E+02 1.56973E+01 0.00000E+00
 -1      3785 1.17285E+02 1.56973E+01 0.00000E+00
 -1      3786 1.16535E+02 1.69963E+01 0.00000E+00
 -1      3787 1.21785E+02 1.56973E+01 0.00000E+00
 -1      3788 1.20285E+02 1.56973E+01 0.00000E+00
 -1      3789 1.19535E+02 1.69963E+01 0.00000E+00
 -1      3790 1.24785E+02 1.56973E+01 0.00000E+00
 -1      3791 1.23285E+02 1.56973E+01 0.00000E+00
 -1      3792 1.22535E+02 1.69963E+01 0.00000E+00
 -1      3793 1.27785E+02 1.56973E+01 0.00000E+00
 -1      3794 1.26285E+02 1.56973E+01 0.00000E+00
 -1      3795 1.25535E+02 1.69963E+01 0.00000E+00
 -1      3796 1.30785E+02 1.56973E+01 0.00000E+00
 -1      3797 1.29285E+02 1.56973E+01 0.00000E+00
 -1      3798 1.28535E+02 1.69963E+01 0.00000E+00
 -1      3799 2.57850E+01 1.56973E+01 0.00000E+00
 -1      3800 2.42850E+01 1.56973E+01 0.00000E+00
 -1      3801 1.35711E+02 1.98656E+01 0.00000E+00
 -1      3802 1.34412E+02 1.91281E+01 0.00000E+00
 -1      3803 1.35711E+02 2.13312E+01 0.00000E+00
 -1      3804 1.43324E+01 2.79729E+01 0.00000E+00
 -1      3805 1.43324E+01 2.94417E+01 0.00000E+00
 -1      3806 1.56748E+01 2.94958E+01 0.00000E+00
 -1      3807 1.42890E+01 1.68750E+01 0.00000E+00
 -1      3808 1.42890E+01 1.83469E+01 0.00000E+00
 -1      3809 1.55880E+01 1.90844E+01 0.00000E+00
 -1      3810 1.33047E+02 1.61445E+01 0.00000E+00
 -1      3811 1.31879E+02 1.58638E+01 0.00000E+00
 -1      3812 1.31129E+02 1.71628E+01 0.00000E+00
 -1      3813 1.33318E+02 1.74959E+01 0.00000E+00
 -1      3814 1.97850E+01 1.56973E+01 0.00000E+00
 -1      3815 1.82851E+01 1.56973E+01 0.00000E+00
 -1      3816 2.19000E+01 3.31130E+01 0.00000E+00
 -1      3817 2.34000E+01 3.31130E+01 0.00000E+00
 -1      3818 2.11500E+01 3.18140E+01 0.00000E+00
 -1      3819 1.35405E+02 1.39676E+01 0.00000E+00
 -1      3820 9.17850E+01 1.56973E+01 0.00000E+00
 -1      3821 9.02850E+01 1.56973E+01 0.00000E+00
 -1      3822 9.25350E+01 1.69963E+01 0.00000E+00
 -1      3823 9.11097E+01 3.29751E+01 0.00000E+00
 -1      3824 9.26097E+01 3.29751E+01 0.00000E+00
 -1      3825 9.33597E+01 3.16761E+01 0.00000E+00
 -1      3826 9.07791E+01 3.14002E+01 0.00000E+00
 -1      3827 1.43107E+01 2.53693E+01 0.00000E+00
 -1      3828 1.43107E+01 2.68411E+01 0.00000E+00
 -1      3829 1.56531E+01 2.68953E+01 0.00000E+00
 -1      3830 1.56097E+01 2.46318E+01 0.00000E+00
 -1      3831 2.49000E+01 3.31130E+01 0.00000E+00
 -1      3832 2.64000E+01 3.31130E+01 0.00000E+00
 -1      3833 2.71500E+01 3.18140E+01 0.00000E+00
 -1      3834 2.41500E+01 3.18140E+01 0.00000E+00
 -1      3835 4.37850E+01 1.56973E+01 0.00000E+00
 -1      3836 4.22850E+01 1.56973E+01 0.00000E+00
 -1      3837 2.27850E+01 1.56973E+01 0.00000E+00
 -1      3838 2.12850E+01 1.56973E+01 0.00000E+00
 -1      3839 2.05350E+01 1.69963E+01 0.00000E+00
 -1      3840 2.35350E+01 1.69963E+01 0.00000E+00
 -1      3841 1.55880E+01 1.61406E+01 0.00000E+00
 -1      3842 5.46600E+01 3.14534E+01 0.00000E+00
 -1      3843 5.39701E+01 2.81443E+01 0.00000E+00
 -1      3844 5.43462E+01 2.72413E+01 0.00000E+00
 -1      3845 5.34939E+01 2.62350E+01 0.00000E+00
 -1      3846 1.33113E+02 2.57422E+01 0.00000E+00
 -1      3847 1.33113E+02 2.42766E+01 0.00000E+00
 -1      3848 9.17485E+01 2.16885E+01 0.00000E+00
 -1      3849 9.08826E+01 2.30754E+01 0.00000E+00
 -1      3850 9.17131E+01 2.42650E+01 0.00000E+00
 -1      3851 8.94110E+01 1.82762E+01 0.00000E+00
 -1      3852 9.09765E+01 1.87476E+01 0.00000E+00
 -1      3853 1.68976E+01 2.40410E+01 0.00000E+00
 -1      3854 1.69193E+01 2.51727E+01 0.00000E+00
 -1      3855 1.32615E+02 3.22319E+01 0.00000E+00
 -1      3856 9.13465E+01 2.70912E+01 0.00000E+00
 -1      3857 9.03367E+01 2.83214E+01 0.00000E+00
 -1      3858 5.43457E+01 2.00807E+01 0.00000E+00
 -1      3859 5.47450E+01 1.87743E+01 0.00000E+00
 -1      3860 4.07850E+01 1.56973E+01 0.00000E+00
 -1      3861 3.92850E+01 1.56973E+01 0.00000E+00
 -1      3862 4.15350E+01 1.69963E+01 0.00000E+00
 -1      3863 5.41926E+01 1.67212E+01 0.00000E+00
 -1      3864 5.29501E+01 2.44548E+01 0.00000E+00
 -1      3865 5.32994E+01 2.36487E+01 0.00000E+00
 -1      3866 1.34496E+02 3.10311E+01 0.00000E+00
 -1      3867 1.34412E+02 2.20688E+01 0.00000E+00
 -1      3868 2.72850E+01 1.56973E+01 0.00000E+00
 -1      3869 2.65350E+01 1.69963E+01 0.00000E+00
 -1      3870 2.87850E+01 1.56973E+01 0.00000E+00
 -1      3871 1.33318E+02 2.04272E+01 0.00000E+00
 -1      3872 1.33318E+02 1.89616E+01 0.00000E+00
 -1      3873 1.32223E+02 1.87950E+01 0.00000E+00
 -1      3874 5.05350E+01 1.69963E+01 0.00000E+00
 -1      3875 4.97850E+01 1.56973E+01 0.00000E+00
 -1      3876 4.82850E+01 1.56973E+01 0.00000E+00
 -1      3877 8.92743E+01 1.71625E+01 0.00000E+00
 -1      3878 5.37362E+01 3.04823E+01 0.00000E+00
 -1      3879 5.36229E+01 2.25179E+01 0.00000E+00
 -1      3880 5.40222E+01 2.12115E+01 0.00000E+00
 -1      3881 5.30010E+01 2.01852E+01 0.00000E+00
 -1      3882 5.23539E+01 2.24468E+01 0.00000E+00
 -1      3883 4.52850E+01 1.56973E+01 0.00000E+00
 -1      3884 4.45350E+01 1.69963E+01 0.00000E+00
 -1      3885 4.67850E+01 1.56973E+01 0.00000E+00
 -1      3886 8.85243E+01 1.58635E+01 0.00000E+00
 -1      3887 1.68976E+01 2.10972E+01 0.00000E+00
 -1      3888 1.68976E+01 2.25691E+01 0.00000E+00
 -1      3889 1.82072E+01 2.31101E+01 0.00000E+00
 -1      3890 3.47850E+01 1.56973E+01 0.00000E+00
 -1      3891 3.32850E+01 1.56973E+01 0.00000E+00
 -1      3892 1.33113E+02 2.86797E+01 0.00000E+00
 -1      3893 1.33113E+02 2.72109E+01 0.00000E+00
 -1      3894 1.31814E+02 2.64781E+01 0.00000E+00
 -1      3895 3.17850E+01 1.56973E+01 0.00000E+00
 -1      3896 3.02850E+01 1.56973E+01 0.00000E+00
 -1      3897 3.25350E+01 1.69963E+01 0.00000E+00
 -1      3898 9.06672E+01 2.98963E+01 0.00000E+00
 -1      3899 5.20169E+01 3.06450E+01 0.00000E+00
 -1      3900 5.31032E+01 2.93133E+01 0.00000E+00
 -1      3901 5.22508E+01 2.83070E+01 0.00000E+00
 -1      3902 5.05169E+01 3.06450E+01 0.00000E+00
 -1      3903 3.24000E+01 3.05150E+01 0.00000E+00
 -1      3904 3.39000E+01 3.05150E+01 0.00000E+00
 -1      3905 3.54000E+01 3.05150E+01 0.00000E+00
 -1      3906 3.69000E+01 3.05150E+01 0.00000E+00
 -1      3907 3.46500E+01 2.92160E+01 0.00000E+00
 -1      3908 3.84000E+01 3.05150E+01 0.00000E+00
 -1      3909 3.99000E+01 3.05150E+01 0.00000E+00
 -1      3910 3.76500E+01 2.92160E+01 0.00000E+00
 -1      3911 4.14000E+01 3.05150E+01 0.00000E+00
 -1      3912 4.29000E+01 3.05150E+01 0.00000E+00
 -1      3913 4.06500E+01 2.92160E+01 0.00000E+00
 -1      3914 4.44000E+01 3.05150E+01 0.00000E+00
 -1      3915 4.59000E+01 3.05150E+01 0.00000E+00
 -1      3916 4.36500E+01 2.92160E+01 0.00000E+00
 -1      3917 4.74000E+01 3.05150E+01 0.00000E+00
 -1      3918 4.89000E+01 3.05150E+01 0.00000E+00
 -1      3919 4.66500E+01 2.92160E+01 0.00000E+00
 -1      3920 1.82289E+01 2.57137E+01 0.00000E+00
 -1      3921 1.69410E+01 2.63045E+01 0.00000E+00
 -1      3922 1.69627E+01 2.74363E+01 0.00000E+00
 -1      3923 1.32531E+02 3.06133E+01 0.00000E+00
 -1      3924 9.23242E+01 2.59459E+01 0.00000E+00
 -1      3925 9.28233E+01 2.73852E+01 0.00000E+00
 -1      3926 5.48374E+01 1.77503E+01 0.00000E+00
 -1      3927 9.84000E+01 3.05150E+01 0.00000E+00
 -1      3928 9.99000E+01 3.05150E+01 0.00000E+00
 -1      3929 1.01400E+02 3.05150E+01 0.00000E+00
 -1      3930 1.02900E+02 3.05150E+01 0.00000E+00
 -1      3931 1.00650E+02 2.92160E+01 0.00000E+00
 -1      3932 1.04400E+02 3.05150E+01 0.00000E+00
 -1      3933 1.05900E+02 3.05150E+01 0.00000E+00
 -1      3934 1.03650E+02 2.92160E+01 0.00000E+00
 -1      3935 1.07400E+02 3.05150E+01 0.00000E+00
 -1      3936 1.08900E+02 3.05150E+01 0.00000E+00
 -1      3937 1.06650E+02 2.92160E+01 0.00000E+00
 -1      3938 1.10400E+02 3.05150E+01 0.00000E+00
 -1      3939 1.11900E+02 3.05150E+01 0.00000E+00
 -1      3940 1.09650E+02 2.92160E+01 0.00000E+00
 -1      3941 1.13400E+02 3.05150E+01 0.00000E+00
 -1      3942 1.14900E+02 3.05150E+01 0.00000E+00
 -1      3943 1.12650E+02 2.92160E+01 0.00000E+00
 -1      3944 1.16400E+02 3.05150E+01 0.00000E+00
 -1      3945 1.17900E+02 3.05150E+01 0.00000E+00
 -1      3946 1.15650E+02 2.92160E+01 0.00000E+00
 -1      3947 1.19400E+02 3.05150E+01 0.00000E+00
 -1      3948 1.20900E+02 3.05150E+01 0.00000E+00
 -1      3949 1.18650E+02 2.92160E+01 0.00000E+00
 -1      3950 1.22400E+02 3.05150E+01 0.00000E+00
 -1      3951 1.23900E+02 3.05150E+01 0.00000E+00
 -1      3952 1.21650E+02 2.92160E+01 0.00000E+00
 -1      3953 1.25400E+02 3.05150E+01 0.00000E+00
 -1      3954 1.26900E+02 3.05150E+01 0.00000E+00
 -1      3955 1.24650E+02 2.92160E+01 0.00000E+00
 -1      3956 1.28400E+02 3.05150E+01 0.00000E+00
 -1      3957 1.29900E+02 3.05150E+01 0.00000E+00
 -1      3958 1.27650E+02 2.92160E+01 0.00000E+00
 -1      3959 9.92850E+01 1.82952E+01 0.00000E+00
 -1      3960 9.77850E+01 1.82952E+01 0.00000E+00
 -1      3961 1.05285E+02 1.82952E+01 0.00000E+00
 -1      3962 1.03785E+02 1.82952E+01 0.00000E+00
 -1      3963 5.25741E+01 2.53578E+01 0.00000E+00
 -1      3964 5.16543E+01 2.44806E+01 0.00000E+00
 -1      3965 5.21980E+01 2.62608E+01 0.00000E+00
 -1      3966 1.73115E+01 1.58325E+01 0.00000E+00
 -1      3967 1.73115E+01 1.73044E+01 0.00000E+00
 -1      3968 1.02285E+02 1.82952E+01 0.00000E+00
 -1      3969 1.00785E+02 1.82952E+01 0.00000E+00
 -1      3970 1.00035E+02 1.95942E+01 0.00000E+00
 -1      3971 1.08285E+02 1.82952E+01 0.00000E+00
 -1      3972 1.06785E+02 1.82952E+01 0.00000E+00
 -1      3973 1.06035E+02 1.95942E+01 0.00000E+00
 -1      3974 1.11285E+02 1.82952E+01 0.00000E+00
 -1      3975 1.09785E+02 1.82952E+01 0.00000E+00
 -1      3976 1.09035E+02 1.95942E+01 0.00000E+00
 -1      3977 1.14285E+02 1.82952E+01 0.00000E+00
 -1      3978 1.12785E+02 1.82952E+01 0.00000E+00
 -1      3979 1.12035E+02 1.95942E+01 0.00000E+00
 -1      3980 1.17285E+02 1.82952E+01 0.00000E+00
 -1      3981 1.15785E+02 1.82952E+01 0.00000E+00
 -1      3982 1.15035E+02 1.95942E+01 0.00000E+00
 -1      3983 1.20285E+02 1.82952E+01 0.00000E+00
 -1      3984 1.18785E+02 1.82952E+01 0.00000E+00
 -1      3985 1.18035E+02 1.95942E+01 0.00000E+00
 -1      3986 1.23285E+02 1.82952E+01 0.00000E+00
 -1      3987 1.21785E+02 1.82952E+01 0.00000E+00
 -1      3988 1.21035E+02 1.95942E+01 0.00000E+00
 -1      3989 1.26285E+02 1.82952E+01 0.00000E+00
 -1      3990 1.24785E+02 1.82952E+01 0.00000E+00
 -1      3991 1.24035E+02 1.95942E+01 0.00000E+00
 -1      3992 1.29285E+02 1.82952E+01 0.00000E+00
 -1      3993 1.27785E+02 1.82952E+01 0.00000E+00
 -1      3994 1.27035E+02 1.95942E+01 0.00000E+00
 -1      3995 1.31301E+02 1.86284E+01 0.00000E+00
 -1      3996 1.30207E+02 1.84618E+01 0.00000E+00
 -1      3997 1.29457E+02 1.97608E+01 0.00000E+00
 -1      3998 1.31301E+02 2.00940E+01 0.00000E+00
 -1      3999 9.21710E+01 1.84667E+01 0.00000E+00
 -1      4000 9.21125E+01 2.02181E+01 0.00000E+00
 -1      4001 9.29430E+01 2.14077E+01 0.00000E+00
 -1      4002 9.36710E+01 1.84667E+01 0.00000E+00
 -1      4003 1.71046E+01 1.84649E+01 0.00000E+00
 -1      4004 1.71046E+01 1.99367E+01 0.00000E+00
 -1      4005 1.84142E+01 2.04777E+01 0.00000E+00
 -1      4006 1.88281E+01 1.81567E+01 0.00000E+00
 -1      4007 1.67642E+01 1.37415E+01 0.00000E+00
 -1      4008 1.65615E+01 1.45335E+01 0.00000E+00
 -1      4009 2.04000E+01 3.05150E+01 0.00000E+00
 -1      4010 2.19000E+01 3.05150E+01 0.00000E+00
 -1      4011 3.77850E+01 1.56973E+01 0.00000E+00
 -1      4012 3.62850E+01 1.56973E+01 0.00000E+00
 -1      4013 3.55350E+01 1.69963E+01 0.00000E+00
 -1      4014 3.85350E+01 1.69963E+01 0.00000E+00
 -1      4015 5.26798E+01 1.80253E+01 0.00000E+00
 -1      4016 5.18246E+01 1.90544E+01 0.00000E+00
 -1      4017 5.11798E+01 1.80253E+01 0.00000E+00
 -1      4018 4.96798E+01 1.80253E+01 0.00000E+00
 -1      4019 9.64780E+01 1.83810E+01 0.00000E+00
 -1      4020 9.49780E+01 1.83810E+01 0.00000E+00
 -1      4021 9.46140E+01 1.98515E+01 0.00000E+00
 -1      4022 9.72280E+01 1.96800E+01 0.00000E+00
 -1      4023 2.94000E+01 3.05150E+01 0.00000E+00
 -1      4024 3.09000E+01 3.05150E+01 0.00000E+00
 -1      4025 3.16500E+01 2.92160E+01 0.00000E+00
 -1      4026 1.68157E+01 2.85722E+01 0.00000E+00
 -1      4027 1.68157E+01 3.00410E+01 0.00000E+00
 -1      4028 1.78095E+01 3.02533E+01 0.00000E+00
 -1      4029 1.81036E+01 2.79814E+01 0.00000E+00
 -1      4030 1.33215E+02 2.30894E+01 0.00000E+00
 -1      4031 1.33215E+02 2.16144E+01 0.00000E+00
 -1      4032 1.32121E+02 2.14478E+01 0.00000E+00
 -1      4033 1.31916E+02 2.38222E+01 0.00000E+00
 -1      4034 9.54000E+01 3.05150E+01 0.00000E+00
 -1      4035 9.69000E+01 3.05150E+01 0.00000E+00
 -1      4036 9.76500E+01 2.92160E+01 0.00000E+00
 -1      4037 9.19575E+01 3.00343E+01 0.00000E+00
 -1      4038 2.95350E+01 1.69963E+01 0.00000E+00
 -1      4039 9.31900E+01 2.45590E+01 0.00000E+00
 -1      4040 4.97669E+01 2.93460E+01 0.00000E+00
 -1      4041 1.95168E+01 2.51229E+01 0.00000E+00
 -1      4042 1.95385E+01 2.62547E+01 0.00000E+00
 -1      4043 1.95168E+01 2.21792E+01 0.00000E+00
 -1      4044 1.95168E+01 2.36510E+01 0.00000E+00
 -1      4045 2.08265E+01 2.41920E+01 0.00000E+00
 -1      4046 1.31232E+02 2.98804E+01 0.00000E+00
 -1      4047 5.15010E+01 2.01852E+01 0.00000E+00
 -1      4048 9.30356E+01 2.87787E+01 0.00000E+00
 -1      4049 9.31475E+01 3.02825E+01 0.00000E+00
 -1      4050 9.44378E+01 3.04205E+01 0.00000E+00
 -1      4051 9.40133E+01 2.76334E+01 0.00000E+00
 -1      4052 1.03035E+02 1.95942E+01 0.00000E+00
 -1      4053 5.02879E+01 2.44413E+01 0.00000E+00
 -1      4054 5.06639E+01 2.35384E+01 0.00000E+00
 -1      4055 1.30482E+02 2.85814E+01 0.00000E+00
 -1      4056 1.30571E+02 2.43042E+01 0.00000E+00
 -1      4057 1.30673E+02 2.31170E+01 0.00000E+00
 -1      4058 2.72850E+01 1.82952E+01 0.00000E+00
 -1      4059 2.57850E+01 1.82952E+01 0.00000E+00
 -1      4060 4.52850E+01 1.82952E+01 0.00000E+00
 -1      4061 4.37850E+01 1.82952E+01 0.00000E+00
 -1      4062 4.22850E+01 1.82952E+01 0.00000E+00
 -1      4063 4.07850E+01 1.82952E+01 0.00000E+00
 -1      4064 4.30350E+01 1.95942E+01 0.00000E+00
 -1      4065 2.34000E+01 3.05150E+01 0.00000E+00
 -1      4066 2.49000E+01 3.05150E+01 0.00000E+00
 -1      4067 2.26500E+01 2.92160E+01 0.00000E+00
 -1      4068 5.09207E+01 2.24272E+01 0.00000E+00
 -1      4069 5.12443E+01 2.12964E+01 0.00000E+00
 -1      4070 5.00678E+01 2.01656E+01 0.00000E+00
 -1      4071 4.95543E+01 2.23879E+01 0.00000E+00
 -1      4072 4.75350E+01 1.69963E+01 0.00000E+00
 -1      4073 3.62850E+01 1.82952E+01 0.00000E+00
 -1      4074 3.47850E+01 1.82952E+01 0.00000E+00
 -1      4075 2.79000E+01 3.05150E+01 0.00000E+00
 -1      4076 2.86500E+01 2.92160E+01 0.00000E+00
 -1      4077 2.64000E+01 3.05150E+01 0.00000E+00
 -1      4078 9.51878E+01 2.91215E+01 0.00000E+00
 -1      4079 1.88033E+01 3.04657E+01 0.00000E+00
 -1      4080 3.32850E+01 1.82952E+01 0.00000E+00
 -1      4081 3.17850E+01 1.82952E+01 0.00000E+00
 -1      4082 3.40350E+01 1.95942E+01 0.00000E+00
 -1      4083 1.95533E+01 2.91667E+01 0.00000E+00
 -1      4084 2.42850E+01 1.82953E+01 0.00000E+00
 -1      4085 2.27850E+01 1.82953E+01 0.00000E+00
 -1      4086 2.50350E+01 1.95943E+01 0.00000E+00
 -1      4087 2.15566E+01 1.82260E+01 0.00000E+00
 -1      4088 2.00566E+01 1.82260E+01 0.00000E+00
 -1      4089 1.98496E+01 1.93865E+01 0.00000E+00
 -1      4090 2.23066E+01 1.95250E+01 0.00000E+00
 -1      4091 1.30526E+02 2.71772E+01 0.00000E+00
 -1      4092 1.30526E+02 2.57084E+01 0.00000E+00
 -1      4093 1.29283E+02 2.50032E+01 0.00000E+00
 -1      4094 1.29194E+02 2.78117E+01 0.00000E+00
 -1      4095 3.39000E+01 2.79170E+01 0.00000E+00
 -1      4096 3.54000E+01 2.79170E+01 0.00000E+00
 -1      4097 3.69000E+01 2.79170E+01 0.00000E+00
 -1      4098 3.84000E+01 2.79170E+01 0.00000E+00
 -1      4099 3.61500E+01 2.66180E+01 0.00000E+00
 -1      4100 3.99000E+01 2.79170E+01 0.00000E+00
 -1      4101 4.14000E+01 2.79170E+01 0.00000E+00
 -1      4102 3.91500E+01 2.66180E+01 0.00000E+00
 -1      4103 4.29000E+01 2.79170E+01 0.00000E+00
 -1      4104 4.44000E+01 2.79170E+01 0.00000E+00
 -1      4105 4.21500E+01 2.66180E+01 0.00000E+00
 -1      4106 4.59000E+01 2.79170E+01 0.00000E+00
 -1      4107 4.74000E+01 2.79170E+01 0.00000E+00
 -1      4108 4.51500E+01 2.66180E+01 0.00000E+00
 -1      4109 1.30936E+02 2.21991E+01 0.00000E+00
 -1      4110 1.31039E+02 2.10119E+01 0.00000E+00
 -1      4111 1.30116E+02 2.08453E+01 0.00000E+00
 -1      4112 1.29591E+02 2.26811E+01 0.00000E+00
 -1      4113 9.99000E+01 2.79170E+01 0.00000E+00
 -1      4114 1.01400E+02 2.79170E+01 0.00000E+00
 -1      4115 4.90169E+01 2.80470E+01 0.00000E+00
 -1      4116 5.06339E+01 2.81770E+01 0.00000E+00
 -1      4117 5.15008E+01 2.70080E+01 0.00000E+00
 -1      4118 4.82669E+01 2.67480E+01 0.00000E+00
 -1      4119 9.47633E+01 2.63344E+01 0.00000E+00
 -1      4120 9.49755E+01 2.77279E+01 0.00000E+00
 -1      4121 9.59378E+01 2.78225E+01 0.00000E+00
 -1      4122 9.71689E+01 2.78697E+01 0.00000E+00
 -1      4123 9.86689E+01 2.78697E+01 0.00000E+00
 -1      4124 9.94189E+01 2.65707E+01 0.00000E+00
 -1      4125 9.69566E+01 2.64762E+01 0.00000E+00
 -1      4126 1.02900E+02 2.79170E+01 0.00000E+00
 -1      4127 1.04400E+02 2.79170E+01 0.00000E+00
 -1      4128 1.02150E+02 2.66180E+01 0.00000E+00
 -1      4129 1.05900E+02 2.79170E+01 0.00000E+00
 -1      4130 1.07400E+02 2.79170E+01 0.00000E+00
 -1      4131 1.05150E+02 2.66180E+01 0.00000E+00
 -1      4132 1.08900E+02 2.79170E+01 0.00000E+00
 -1      4133 1.10400E+02 2.79170E+01 0.00000E+00
 -1      4134 1.08150E+02 2.66180E+01 0.00000E+00
 -1      4135 1.11900E+02 2.79170E+01 0.00000E+00
 -1      4136 1.13400E+02 2.79170E+01 0.00000E+00
 -1      4137 1.11150E+02 2.66180E+01 0.00000E+00
 -1      4138 1.14900E+02 2.79170E+01 0.00000E+00
 -1      4139 1.16400E+02 2.79170E+01 0.00000E+00
 -1      4140 1.14150E+02 2.66180E+01 0.00000E+00
 -1      4141 1.17900E+02 2.79170E+01 0.00000E+00
 -1      4142 1.19400E+02 2.79170E+01 0.00000E+00
 -1      4143 1.17150E+02 2.66180E+01 0.00000E+00
 -1      4144 1.20900E+02 2.79170E+01 0.00000E+00
 -1      4145 1.22400E+02 2.79170E+01 0.00000E+00
 -1      4146 1.20150E+02 2.66180E+01 0.00000E+00
 -1      4147 1.23900E+02 2.79170E+01 0.00000E+00
 -1      4148 1.25400E+02 2.79170E+01 0.00000E+00
 -1      4149 1.23150E+02 2.66180E+01 0.00000E+00
 -1      4150 1.26547E+02 2.78644E+01 0.00000E+00
 -1      4151 1.28047E+02 2.78644E+01 0.00000E+00
 -1      4152 1.28092E+02 2.64601E+01 0.00000E+00
 -1      4153 1.25797E+02 2.65654E+01 0.00000E+00
 -1      4154 1.06785E+02 2.08932E+01 0.00000E+00
 -1      4155 1.05285E+02 2.08932E+01 0.00000E+00
 -1      4156 1.00785E+02 2.08932E+01 0.00000E+00
 -1      4157 9.92850E+01 2.08932E+01 0.00000E+00
 -1      4158 1.03785E+02 2.08932E+01 0.00000E+00
 -1      4159 1.02285E+02 2.08932E+01 0.00000E+00
 -1      4160 1.04535E+02 2.21922E+01 0.00000E+00
 -1      4161 1.12785E+02 2.08932E+01 0.00000E+00
 -1      4162 1.11285E+02 2.08932E+01 0.00000E+00
 -1      4163 9.35476E+01 2.30306E+01 0.00000E+00
 -1      4164 9.41586E+01 2.47115E+01 0.00000E+00
 -1      4165 9.51209E+01 2.48060E+01 0.00000E+00
 -1      4166 9.39116E+01 2.15601E+01 0.00000E+00
 -1      4167 1.15785E+02 2.08932E+01 0.00000E+00
 -1      4168 1.14285E+02 2.08932E+01 0.00000E+00
 -1      4169 1.13535E+02 2.21922E+01 0.00000E+00
 -1      4170 1.18785E+02 2.08932E+01 0.00000E+00
 -1      4171 1.17285E+02 2.08932E+01 0.00000E+00
 -1      4172 1.16535E+02 2.21922E+01 0.00000E+00
 -1      4173 1.21785E+02 2.08932E+01 0.00000E+00
 -1      4174 1.20285E+02 2.08932E+01 0.00000E+00
 -1      4175 1.19535E+02 2.21922E+01 0.00000E+00
 -1      4176 1.24785E+02 2.08932E+01 0.00000E+00
 -1      4177 1.23285E+02 2.08932E+01 0.00000E+00
 -1      4178 1.22535E+02 2.21922E+01 0.00000E+00
 -1      4179 3.92850E+01 1.82952E+01 0.00000E+00
 -1      4180 3.77850E+01 1.82952E+01 0.00000E+00
 -1      4181 3.70350E+01 1.95942E+01 0.00000E+00
 -1      4182 4.91238E+01 1.90955E+01 0.00000E+00
 -1      4183 4.84790E+01 1.80664E+01 0.00000E+00
 -1      4184 4.69790E+01 1.80664E+01 0.00000E+00
 -1      4185 4.88671E+01 2.02066E+01 0.00000E+00
 -1      4186 2.87850E+01 1.82952E+01 0.00000E+00
 -1      4187 2.80350E+01 1.95942E+01 0.00000E+00
 -1      4188 3.02850E+01 1.82952E+01 0.00000E+00
 -1      4189 1.96427E+01 2.05470E+01 0.00000E+00
 -1      4190 5.05810E+01 2.61308E+01 0.00000E+00
 -1      4191 1.97003E+01 2.80307E+01 0.00000E+00
 -1      4192 3.09000E+01 2.79170E+01 0.00000E+00
 -1      4193 3.24000E+01 2.79170E+01 0.00000E+00
 -1      4194 3.31500E+01 2.66180E+01 0.00000E+00
 -1      4195 1.09785E+02 2.08932E+01 0.00000E+00
 -1      4196 1.08285E+02 2.08932E+01 0.00000E+00
 -1      4197 1.07535E+02 2.21922E+01 0.00000E+00
 -1      4198 1.10535E+02 2.21922E+01 0.00000E+00
 -1      4199 2.09882E+01 2.74399E+01 0.00000E+00
 -1      4200 2.23265E+01 2.56639E+01 0.00000E+00
 -1      4201 2.24882E+01 2.74399E+01 0.00000E+00
 -1      4202 2.39882E+01 2.74399E+01 0.00000E+00
 -1      4203 2.09523E+01 2.10879E+01 0.00000E+00
 -1      4204 2.23265E+01 2.41920E+01 0.00000E+00
 -1      4205 4.37850E+01 2.08932E+01 0.00000E+00
 -1      4206 4.22850E+01 2.08932E+01 0.00000E+00
 -1      4207 9.52186E+01 2.14744E+01 0.00000E+00
 -1      4208 4.62290E+01 1.93654E+01 0.00000E+00
 -1      4209 3.10350E+01 1.95942E+01 0.00000E+00
 -1      4210 1.01535E+02 2.21922E+01 0.00000E+00
 -1      4211 9.87280E+01 2.22780E+01 0.00000E+00
 -1      4212 9.79780E+01 2.09790E+01 0.00000E+00
 -1      4213 9.66710E+01 2.10647E+01 0.00000E+00
 -1      4214 4.95907E+01 2.51885E+01 0.00000E+00
 -1      4215 4.86004E+01 2.42462E+01 0.00000E+00
 -1      4216 4.88936E+01 2.59357E+01 0.00000E+00
 -1      4217 4.72500E+01 2.05382E+01 0.00000E+00
 -1      4218 4.55559E+01 2.07671E+01 0.00000E+00
 -1      4219 4.48059E+01 2.20661E+01 0.00000E+00
 -1      4220 2.56500E+01 2.92160E+01 0.00000E+00
 -1      4221 4.00350E+01 1.95942E+01 0.00000E+00
 -1      4222 3.77850E+01 2.08932E+01 0.00000E+00
 -1      4223 3.62850E+01 2.08932E+01 0.00000E+00
 -1      4224 3.55350E+01 2.21922E+01 0.00000E+00
 -1      4225 3.47850E+01 2.08932E+01 0.00000E+00
 -1      4226 3.32850E+01 2.08932E+01 0.00000E+00
 -1      4227 1.27785E+02 2.08932E+01 0.00000E+00
 -1      4228 1.26285E+02 2.08932E+01 0.00000E+00
 -1      4229 1.29194E+02 2.06787E+01 0.00000E+00
 -1      4230 4.79372E+01 2.27195E+01 0.00000E+00
 -1      4231 4.81940E+01 2.16084E+01 0.00000E+00
 -1      4232 1.28136E+02 2.50559E+01 0.00000E+00
 -1      4233 2.87850E+01 2.08932E+01 0.00000E+00
 -1      4234 2.72850E+01 2.08932E+01 0.00000E+00
 -1      4235 2.79000E+01 2.79170E+01 0.00000E+00
 -1      4236 2.94000E+01 2.79170E+01 0.00000E+00
 -1      4237 3.01500E+01 2.66180E+01 0.00000E+00
 -1      4238 1.25535E+02 2.21922E+01 0.00000E+00
 -1      4239 4.72401E+01 2.34667E+01 0.00000E+00
 -1      4240 2.57850E+01 2.08933E+01 0.00000E+00
 -1      4241 2.42850E+01 2.08933E+01 0.00000E+00
 -1      4242 2.65350E+01 2.21923E+01 0.00000E+00
 -1      4243 1.28444E+02 2.19777E+01 0.00000E+00
 -1      4244 3.84000E+01 2.53190E+01 0.00000E+00
 -1      4245 3.99000E+01 2.53190E+01 0.00000E+00
 -1      4246 4.18425E+01 2.44051E+01 0.00000E+00
 -1      4247 4.33425E+01 2.44051E+01 0.00000E+00
 -1      4248 1.28181E+02 2.28956E+01 0.00000E+00
 -1      4249 2.51941E+01 2.76785E+01 0.00000E+00
 -1      4250 2.66941E+01 2.76785E+01 0.00000E+00
 -1      4251 2.74441E+01 2.63795E+01 0.00000E+00
 -1      4252 2.50323E+01 2.59024E+01 0.00000E+00
 -1      4253 4.72766E+01 2.58057E+01 0.00000E+00
 -1      4254 9.59686E+01 2.27734E+01 0.00000E+00
 -1      4255 1.04842E+02 2.44051E+01 0.00000E+00
 -1      4256 1.03342E+02 2.44051E+01 0.00000E+00
 -1      4257 1.06342E+02 2.44051E+01 0.00000E+00
 -1      4258 1.07842E+02 2.44051E+01 0.00000E+00
 -1      4259 1.09342E+02 2.44051E+01 0.00000E+00
 -1      4260 1.10842E+02 2.44051E+01 0.00000E+00
 -1      4261 1.12342E+02 2.44051E+01 0.00000E+00
 -1      4262 1.13842E+02 2.44051E+01 0.00000E+00
 -1      4263 1.15342E+02 2.44051E+01 0.00000E+00
 -1      4264 1.16842E+02 2.44051E+01 0.00000E+00
 -1      4265 1.18342E+02 2.44051E+01 0.00000E+00
 -1      4266 1.19842E+02 2.44051E+01 0.00000E+00
 -1      4267 1.21342E+02 2.44051E+01 0.00000E+00
 -1      4268 1.22842E+02 2.44051E+01 0.00000E+00
 -1      4269 1.24342E+02 2.44051E+01 0.00000E+00
 -1      4270 4.51134E+01 2.42790E+01 0.00000E+00
 -1      4271 1.01842E+02 2.44051E+01 0.00000E+00
 -1      4272 9.65732E+01 2.43963E+01 0.00000E+00
 -1      4273 3.88425E+01 2.18071E+01 0.00000E+00
 -1      4274 3.80925E+01 2.31061E+01 0.00000E+00
 -1      4275 2.21807E+01 2.11572E+01 0.00000E+00
 -1      4276 1.26535E+02 2.49618E+01 0.00000E+00
 -1      4277 1.27727E+02 2.35050E+01 0.00000E+00
 -1      4278 3.17850E+01 2.08932E+01 0.00000E+00
 -1      4279 3.02850E+01 2.08932E+01 0.00000E+00
 -1      4280 3.25350E+01 2.21922E+01 0.00000E+00
 -1      4281 4.03425E+01 2.18071E+01 0.00000E+00
 -1      4282 1.00342E+02 2.44051E+01 0.00000E+00
 -1      4283 4.10925E+01 2.31061E+01 0.00000E+00
 -1      4284 1.26580E+02 2.28016E+01 0.00000E+00
 -1      4285 9.91114E+01 2.43579E+01 0.00000E+00
 -1      4286 1.25388E+02 2.50145E+01 0.00000E+00
 -1      4287 2.29307E+01 2.24562E+01 0.00000E+00
 -1      4288 3.28425E+01 2.44051E+01 0.00000E+00
 -1      4289 3.43425E+01 2.44051E+01 0.00000E+00
 -1      4290 1.25080E+02 2.28016E+01 0.00000E+00
 -1      4291 2.44307E+01 2.39281E+01 0.00000E+00
 -1      4292 2.56366E+01 2.41666E+01 0.00000E+00
 -1      4293 9.78044E+01 2.44436E+01 0.00000E+00
 -1      4294 3.73425E+01 2.44051E+01 0.00000E+00
 -1      4295 3.58425E+01 2.44051E+01 0.00000E+00
 -1      4296 2.95350E+01 2.21922E+01 0.00000E+00
 -1      4297 2.98425E+01 2.44051E+01 0.00000E+00
 -1      4298 2.83425E+01 2.44051E+01 0.00000E+00
 -1      4299 3.13425E+01 2.44051E+01 0.00000E+00
 -1      4300 2.71366E+01 2.41666E+01 0.00000E+00
 -1      4301 4.66134E+01 2.42790E+01 0.00000E+00
 -3
    3C                          2069                                     1
 -1       164    8    0    1
 -2         6         7        23      1117      1280      1134
 -1       165    8    0    1
 -2         7         8       164      1118      1281      1282
 -1       166    8    0    1
 -2         8         9       165      1119      1283      1284
 -1       167    8    0    1
 -2         8       165       164      1284      1285      1281
 -1       168    8    0    1
 -2         9        10       166      1120      1286      1287
 -1       169    8    0    1
 -2         9       166       165      1287      1288      1283
 -1       170    8    0    1
 -2        10        11       167      1121      1289      1290
 -1       171    8    0    1
 -2        10       167       166      1290      1291      1286
 -1       172    8    0    1
 -2        11        12       168      1122      1292      1293
 -1       173    8    0    1
 -2        11       168       167      1293      1294      1289
 -1       174    8    0    1
 -2        12        13       169      1123      1295      1296
 -1       175    8    0    1
 -2        12       169       168      1296      1297      1292
 -1       176    8    0    1
 -2        13        14       170      1124      1298      1299
 -1       177    8    0    1
 -2        13       170       169      1299      1300      1295
 -1       178    8    0    1
 -2        14        15       171      1125      1301      1302
 -1       179    8    0    1
 -2        14       171       170      1302      1303      1298
 -1       180    8    0    1
 -2        15        16       172      1126      1304      1305
 -1       181    8    0    1
 -2        15       172       171      1305      1306      1301
 -1       182    8    0    1
 -2        16        17       173      1127      1307      1308
 -1       183    8    0    1
 -2        16       173       172      1308      1309      1304
 -1       184    8    0    1
 -2        17        18       174      1128      1310      1311
 -1       185    8    0    1
 -2        17       174       173      1311      1312      1307
 -1       186    8    0    1
 -2        18        19       175      1129      1313      1314
 -1       187    8    0    1
 -2        18       175       174      1314      1315      1310
 -1       188    8    0    1
 -2        19        20       176      1130      1316      1317
 -1       189    8    0    1
 -2        19       176       175      1317      1318      1313
 -1       190    8    0    1
 -2        20        21       177      1131      1319      1320
 -1       191    8    0    1
 -2        20       177       176      1320      1321      1316
 -1       192    8    0    1
 -2        21        22       178      1132      1322      1323
 -1       193    8    0    1
 -2        21       178       177      1323      1324      1319
 -1       194    8    0    1
 -2        22         5       179      1133      1325      1326
 -1       195    8    0    1
 -2       178        22       179      1322      1326      1327
 -1       196    8    0    1
 -2         5        72       179      1184      1328      1325
 -1       197    8    0    1
 -2        24        23       180      1135      1329      1330
 -1       198    8    0    1
 -2        25        24       181      1136      1331      1332
 -1       199    8    0    1
 -2        24       180       181      1330      1333      1331
 -1       200    8    0    1
 -2        26        25       182      1137      1334      1335
 -1       201    8    0    1
 -2        25       181       182      1332      1336      1334
 -1       202    8    0    1
 -2        27        26       183      1138      1337      1338
 -1       203    8    0    1
 -2        26       182       183      1335      1339      1337
 -1       204    8    0    1
 -2        28        27       184      1139      1340      1341
 -1       205    8    0    1
 -2        27       183       184      1338      1342      1340
 -1       206    8    0    1
 -2        29        28       185      1140      1343      1344
 -1       207    8    0    1
 -2        28       184       185      1341      1345      1343
 -1       208    8    0    1
 -2        30        29       186      1141      1346      1347
 -1       209    8    0    1
 -2        29       185       186      1344      1348      1346
 -1       210    8    0    1
 -2        31        30       187      1142      1349      1350
 -1       211    8    0    1
 -2        30       186       187      1347      1351      1349
 -1       212    8    0    1
 -2        32        31       188      1143      1352      1353
 -1       213    8    0    1
 -2        31       187       188      1350      1354      1352
 -1       214    8    0    1
 -2        33        32       189      1144      1355      1356
 -1       215    8    0    1
 -2        32       188       189      1353      1357      1355
 -1       216    8    0    1
 -2        34        33       190      1145      1358      1359
 -1       217    8    0    1
 -2        33       189       190      1356      1360      1358
 -1       218    8    0    1
 -2        35        34       191      1146      1361      1362
 -1       219    8    0    1
 -2        34       190       191      1359      1363      1361
 -1       220    8    0    1
 -2        36        35       192      1147      1364      1365
 -1       221    8    0    1
 -2        35       191       192      1362      1366      1364
 -1       222    8    0    1
 -2        37        36       193      1148      1367      1368
 -1       223    8    0    1
 -2        36       192       193      1365      1369      1367
 -1       224    8    0    1
 -2        38        37       194      1149      1370      1371
 -1       225    8    0    1
 -2        37       193       194      1368      1372      1370
 -1       226    8    0    1
 -2        39        38       195      1150      1373      1374
 -1       227    8    0    1
 -2        38       194       195      1371      1375      1373
 -1       228    8    0    1
 -2        40        39       196      1151      1376      1377
 -1       229    8    0    1
 -2        39       195       196      1374      1378      1376
 -1       230    8    0    1
 -2        41        40       197      1152      1379      1380
 -1       231    8    0    1
 -2        40       196       197      1377      1381      1379
 -1       232    8    0    1
 -2        42        41       198      1153      1382      1383
 -1       233    8    0    1
 -2        41       197       198      1380      1384      1382
 -1       234    8    0    1
 -2        43        42       199      1154      1385      1386
 -1       235    8    0    1
 -2        42       198       199      1383      1387      1385
 -1       236    8    0    1
 -2        44        43       200      1155      1388      1389
 -1       237    8    0    1
 -2        43       199       200      1386      1390      1388
 -1       238    8    0    1
 -2        45        44       201      1156      1391      1392
 -1       239    8    0    1
 -2        44       200       201      1389      1393      1391
 -1       240    8    0    1
 -2        46        45       202      1157      1394      1395
 -1       241    8    0    1
 -2        45       201       202      1392      1396      1394
 -1       242    8    0    1
 -2        47        46       203      1158      1397      1398
 -1       243    8    0    1
 -2        46       202       203      1395      1399      1397
 -1       244    8    0    1
 -2        48        47       204      1159      1400      1401
 -1       245    8    0    1
 -2        47       203       204      1398      1402      1400
 -1       246    8    0    1
 -2        49        48       205      1160      1403      1404
 -1       247    8    0    1
 -2        48       204       205      1401      1405      1403
 -1       248    8    0    1
 -2        50        49       206      1161      1406      1407
 -1       249    8    0    1
 -2        49       205       206      1404      1408      1406
 -1       250    8    0    1
 -2        51        50       207      1162      1409      1410
 -1       251    8    0    1
 -2        50       206       207      1407      1411      1409
 -1       252    8    0    1
 -2        52        51       208      1163      1412      1413
 -1       253    8    0    1
 -2        51       207       208      1410      1414      1412
 -1       254    8    0    1
 -2        53        52       209      1164      1415      1416
 -1       255    8    0    1
 -2        52       208       209      1413      1417      1415
 -1       256    8    0    1
 -2        54        53       210      1165      1418      1419
 -1       257    8    0    1
 -2        53       209       210      1416      1420      1418
 -1       258    8    0    1
 -2        55        54       211      1166      1421      1422
 -1       259    8    0    1
 -2        54       210       211      1419      1423      1421
 -1       260    8    0    1
 -2        56        55       212      1167      1424      1425
 -1       261    8    0    1
 -2        55       211       212      1422      1426      1424
 -1       262    8    0    1
 -2        57        56       213      1168      1427      1428
 -1       263    8    0    1
 -2        56       212       213      1425      1429      1427
 -1       264    8    0    1
 -2        58        57       214      1169      1430      1431
 -1       265    8    0    1
 -2        57       213       214      1428      1432      1430
 -1       266    8    0    1
 -2        59        58       215      1170      1433      1434
 -1       267    8    0    1
 -2        58       214       215      1431      1435      1433
 -1       268    8    0    1
 -2        60        59       216      1171      1436      1437
 -1       269    8    0    1
 -2        59       215       216      1434      1438      1436
 -1       270    8    0    1
 -2        61        60       217      1172      1439      1440
 -1       271    8    0    1
 -2        60       216       217      1437      1441      1439
 -1       272    8    0    1
 -2        62        61       218      1173      1442      1443
 -1       273    8    0    1
 -2        61       217       218      1440      1444      1442
 -1       274    8    0    1
 -2        63        62       219      1174      1445      1446
 -1       275    8    0    1
 -2        62       218       219      1443      1447      1445
 -1       276    8    0    1
 -2        64        63       220      1175      1448      1449
 -1       277    8    0    1
 -2        63       219       220      1446      1450      1448
 -1       278    8    0    1
 -2        65        64       221      1176      1451      1452
 -1       279    8    0    1
 -2        64       220       221      1449      1453      1451
 -1       280    8    0    1
 -2        66        65       222      1177      1454      1455
 -1       281    8    0    1
 -2        65       221       222      1452      1456      1454
 -1       282    8    0    1
 -2        67        66       223      1178      1457      1458
 -1       283    8    0    1
 -2        66       222       223      1455      1459      1457
 -1       284    8    0    1
 -2        68        67       224      1179      1460      1461
 -1       285    8    0    1
 -2        67       223       224      1458      1462      1460
 -1       286    8    0    1
 -2        69        68       225      1180      1463      1464
 -1       287    8    0    1
 -2        68       224       225      1461      1465      1463
 -1       288    8    0    1
 -2        70        69       226      1181      1466      1467
 -1       289    8    0    1
 -2        69       225       226      1464      1468      1466
 -1       290    8    0    1
 -2        71        70       227      1182      1469      1470
 -1       291    8    0    1
 -2        70       226       227      1467      1471      1469
 -1       292    8    0    1
 -2         4        71       136      1183      1472      1250
 -1       293    8    0    1
 -2       136        71       227      1472      1470      1473
 -1       294    8    0    1
 -2        72        73       228      1185      1474      1475
 -1       295    8    0    1
 -2        72       228       179      1475      1476      1328
 -1       296    8    0    1
 -2        73        74       229      1186      1477      1478
 -1       297    8    0    1
 -2        73       229       228      1478      1479      1474
 -1       298    8    0    1
 -2        74        75       230      1187      1480      1481
 -1       299    8    0    1
 -2        74       230       229      1481      1482      1477
 -1       300    8    0    1
 -2        75        76       231      1188      1483      1484
 -1       301    8    0    1
 -2        75       231       230      1484      1485      1480
 -1       302    8    0    1
 -2        76        77       232      1189      1486      1487
 -1       303    8    0    1
 -2        76       232       231      1487      1488      1483
 -1       304    8    0    1
 -2        77        78       233      1190      1489      1490
 -1       305    8    0    1
 -2        77       233       232      1490      1491      1486
 -1       306    8    0    1
 -2        78        79       234      1191      1492      1493
 -1       307    8    0    1
 -2        78       234       233      1493      1494      1489
 -1       308    8    0    1
 -2        79        80       235      1192      1495      1496
 -1       309    8    0    1
 -2        79       235       234      1496      1497      1492
 -1       310    8    0    1
 -2        80        81       236      1193      1498      1499
 -1       311    8    0    1
 -2        80       236       235      1499      1500      1495
 -1       312    8    0    1
 -2        81        82       237      1194      1501      1502
 -1       313    8    0    1
 -2        81       237       236      1502      1503      1498
 -1       314    8    0    1
 -2        82        83       238      1195      1504      1505
 -1       315    8    0    1
 -2        82       238       237      1505      1506      1501
 -1       316    8    0    1
 -2        83        84       239      1196      1507      1508
 -1       317    8    0    1
 -2        83       239       238      1508      1509      1504
 -1       318    8    0    1
 -2        84        85       240      1197      1510      1511
 -1       319    8    0    1
 -2        84       240       239      1511      1512      1507
 -1       320    8    0    1
 -2        85        86       241      1198      1513      1514
 -1       321    8    0    1
 -2        85       241       240      1514      1515      1510
 -1       322    8    0    1
 -2        86        87       242      1199      1516      1517
 -1       323    8    0    1
 -2        86       242       241      1517      1518      1513
 -1       324    8    0    1
 -2        87        88       243      1200      1519      1520
 -1       325    8    0    1
 -2        87       243       242      1520      1521      1516
 -1       326    8    0    1
 -2        88        89       244      1201      1522      1523
 -1       327    8    0    1
 -2        88       244       243      1523      1524      1519
 -1       328    8    0    1
 -2        89        90       245      1202      1525      1526
 -1       329    8    0    1
 -2        89       245       244      1526      1527      1522
 -1       330    8    0    1
 -2        90        91       246      1203      1528      1529
 -1       331    8    0    1
 -2        90       246       245      1529      1530      1525
 -1       332    8    0    1
 -2        91        92       247      1204      1531      1532
 -1       333    8    0    1
 -2        91       247       246      1532      1533      1528
 -1       334    8    0    1
 -2        92        93       248      1205      1534      1535
 -1       335    8    0    1
 -2        92       248       247      1535      1536      1531
 -1       336    8    0    1
 -2        93        94       249      1206      1537      1538
 -1       337    8    0    1
 -2        93       249       248      1538      1539      1534
 -1       338    8    0    1
 -2        94        95       250      1207      1540      1541
 -1       339    8    0    1
 -2        94       250       249      1541      1542      1537
 -1       340    8    0    1
 -2        95        96       251      1208      1543      1544
 -1       341    8    0    1
 -2        95       251       250      1544      1545      1540
 -1       342    8    0    1
 -2        96        97       252      1209      1546      1547
 -1       343    8    0    1
 -2        96       252       251      1547      1548      1543
 -1       344    8    0    1
 -2        97        98       253      1210      1549      1550
 -1       345    8    0    1
 -2        97       253       252      1550      1551      1546
 -1       346    8    0    1
 -2        98        99       254      1211      1552      1553
 -1       347    8    0    1
 -2        98       254       253      1553      1554      1549
 -1       348    8    0    1
 -2        99       100       255      1212      1555      1556
 -1       349    8    0    1
 -2        99       255       254      1556      1557      1552
 -1       350    8    0    1
 -2       100       101       256      1213      1558      1559
 -1       351    8    0    1
 -2       100       256       255      1559      1560      1555
 -1       352    8    0    1
 -2       101       102       257      1214      1561      1562
 -1       353    8    0    1
 -2       101       257       256      1562      1563      1558
 -1       354    8    0    1
 -2       102       103       258      1215      1564      1565
 -1       355    8    0    1
 -2       102       258       257      1565      1566      1561
 -1       356    8    0    1
 -2       103       104       259      1216      1567      1568
 -1       357    8    0    1
 -2       103       259       258      1568      1569      1564
 -1       358    8    0    1
 -2       104       105       260      1217      1570      1571
 -1       359    8    0    1
 -2       104       260       259      1571      1572      1567
 -1       360    8    0    1
 -2       105       106       261      1218      1573      1574
 -1       361    8    0    1
 -2       105       261       260      1574      1575      1570
 -1       362    8    0    1
 -2       106       107       262      1219      1576      1577
 -1       363    8    0    1
 -2       106       262       261      1577      1578      1573
 -1       364    8    0    1
 -2       107       108       263      1220      1579      1580
 -1       365    8    0    1
 -2       107       263       262      1580      1581      1576
 -1       366    8    0    1
 -2       108       109       264      1221      1582      1583
 -1       367    8    0    1
 -2       108       264       263      1583      1584      1579
 -1       368    8    0    1
 -2       109       110       265      1222      1585      1586
 -1       369    8    0    1
 -2       109       265       264      1586      1587      1582
 -1       370    8    0    1
 -2       110       111       266      1223      1588      1589
 -1       371    8    0    1
 -2       110       266       265      1589      1590      1585
 -1       372    8    0    1
 -2       111       112       267      1224      1591      1592
 -1       373    8    0    1
 -2       111       267       266      1592      1593      1588
 -1       374    8    0    1
 -2       112       113       268      1225      1594      1595
 -1       375    8    0    1
 -2       112       268       267      1595      1596      1591
 -1       376    8    0    1
 -2       113       114       269      1226      1597      1598
 -1       377    8    0    1
 -2       113       269       268      1598      1599      1594
 -1       378    8    0    1
 -2       114       115       270      1227      1600      1601
 -1       379    8    0    1
 -2       114       270       269      1601      1602      1597
 -1       380    8    0    1
 -2       115       116       271      1228      1603      1604
 -1       381    8    0    1
 -2       115       271       270      1604      1605      1600
 -1       382    8    0    1
 -2       116       117       272      1229      1606      1607
 -1       383    8    0    1
 -2       116       272       271      1607      1608      1603
 -1       384    8    0    1
 -2       117       118       273      1230      1609      1610
 -1       385    8    0    1
 -2       117       273       272      1610      1611      1606
 -1       386    8    0    1
 -2       118       119       274      1231      1612      1613
 -1       387    8    0    1
 -2       118       274       273      1613      1614      1609
 -1       388    8    0    1
 -2       119       120       275      1232      1615      1616
 -1       389    8    0    1
 -2       119       275       274      1616      1617      1612
 -1       390    8    0    1
 -2       120         3       121      1233      1234      1618
 -1       391    8    0    1
 -2       121       122       276      1235      1619      1620
 -1       392    8    0    1
 -2       122       123       277      1236      1621      1622
 -1       393    8    0    1
 -2       122       277       276      1622      1623      1619
 -1       394    8    0    1
 -2       123       124       278      1237      1624      1625
 -1       395    8    0    1
 -2       123       278       277      1625      1626      1621
 -1       396    8    0    1
 -2       124       125       279      1238      1627      1628
 -1       397    8    0    1
 -2       124       279       278      1628      1629      1624
 -1       398    8    0    1
 -2       125       126       280      1239      1630      1631
 -1       399    8    0    1
 -2       125       280       279      1631      1632      1627
 -1       400    8    0    1
 -2       126       127       281      1240      1633      1634
 -1       401    8    0    1
 -2       126       281       280      1634      1635      1630
 -1       402    8    0    1
 -2       127       128       282      1241      1636      1637
 -1       403    8    0    1
 -2       127       282       281      1637      1638      1633
 -1       404    8    0    1
 -2       128       129       283      1242      1639      1640
 -1       405    8    0    1
 -2       128       283       282      1640      1641      1636
 -1       406    8    0    1
 -2       129       130       284      1243      1642      1643
 -1       407    8    0    1
 -2       129       284       283      1643      1644      1639
 -1       408    8    0    1
 -2       130       131       285      1244      1645      1646
 -1       409    8    0    1
 -2       130       285       284      1646      1647      1642
 -1       410    8    0    1
 -2       131       132       286      1245      1648      1649
 -1       411    8    0    1
 -2       131       286       285      1649      1650      1645
 -1       412    8    0    1
 -2       132       133       287      1246      1651      1652
 -1       413    8    0    1
 -2       132       287       286      1652      1653      1648
 -1       414    8    0    1
 -2       133       134       288      1247      1654      1655
 -1       415    8    0    1
 -2       133       288       287      1655      1656      1651
 -1       416    8    0    1
 -2       134       135       289      1248      1657      1658
 -1       417    8    0    1
 -2       134       289       288      1658      1659      1654
 -1       418    8    0    1
 -2       135       136       290      1249      1660      1661
 -1       419    8    0    1
 -2       289       135       290      1657      1661      1662
 -1       420    8    0    1
 -2       136       227       290      1473      1663      1660
 -1       421    8    0    1
 -2         2       137       291      1251      1664      1665
 -1       422    8    0    1
 -2       137       138       292      1252      1666      1667
 -1       423    8    0    1
 -2       138       139       293      1253      1668      1669
 -1       424    8    0    1
 -2       139       140       294      1254      1670      1671
 -1       425    8    0    1
 -2       140       141       295      1255      1672      1673
 -1       426    8    0    1
 -2       141       142       296      1256      1674      1675
 -1       427    8    0    1
 -2       142       143       297      1257      1676      1677
 -1       428    8    0    1
 -2       143       144       298      1258      1678      1679
 -1       429    8    0    1
 -2       144       145       299      1259      1680      1681
 -1       430    8    0    1
 -2       145       146       300      1260      1682      1683
 -1       431    8    0    1
 -2       146       147       301      1261      1684      1685
 -1       432    8    0    1
 -2       147       148       302      1262      1686      1687
 -1       433    8    0    1
 -2       148       149       303      1263      1688      1689
 -1       434    8    0    1
 -2       149       150       304      1264      1690      1691
 -1       435    8    0    1
 -2       150       151       305      1265      1692      1693
 -1       436    8    0    1
 -2       151       152       306      1266      1694      1695
 -1       437    8    0    1
 -2       152       153       307      1267      1696      1697
 -1       438    8    0    1
 -2       153         1       308      1268      1698      1699
 -1       439    8    0    1
 -2         1       154       309      1269      1700      1701
 -1       440    8    0    1
 -2       154       155       310      1270      1702      1703
 -1       441    8    0    1
 -2       155       156       311      1271      1704      1705
 -1       442    8    0    1
 -2       156       157       312      1272      1706      1707
 -1       443    8    0    1
 -2       157       158       313      1273      1708      1709
 -1       444    8    0    1
 -2       158       159       314      1274      1710      1711
 -1       445    8    0    1
 -2       159       160       315      1275      1712      1713
 -1       446    8    0    1
 -2       160       161       316      1276      1714      1715
 -1       447    8    0    1
 -2       161       162       317      1277      1716      1717
 -1       448    8    0    1
 -2       162       163       318      1278      1718      1719
 -1       449    8    0    1
 -2       163         2       319      1279      1720      1721
 -1       450    8    0    1
 -2       294       140       295      1670      1673      1722
 -1       451    8    0    1
 -2       293       139       294      1668      1671      1723
 -1       452    8    0    1
 -2       120       121       275      1618      1724      1615
 -1       453    8    0    1
 -2       121       276       275      1620      1725      1724
 -1       454    8    0    1
 -2       291       137       292      1664      1667      1726
 -1       455    8    0    1
 -2       292       138       293      1666      1669      1727
 -1       456    8    0    1
 -2         2       291       319      1665      1728      1720
 -1       457    8    0    1
 -2       141       296       295      1675      1729      1672
 -1       458    8    0    1
 -2       142       297       296      1677      1730      1674
 -1       459    8    0    1
 -2       143       298       297      1679      1731      1676
 -1       460    8    0    1
 -2       144       299       298      1681      1732      1678
 -1       461    8    0    1
 -2       145       300       299      1683      1733      1680
 -1       462    8    0    1
 -2       146       301       300      1685      1734      1682
 -1       463    8    0    1
 -2       147       302       301      1687      1735      1684
 -1       464    8    0    1
 -2       148       303       302      1689      1736      1686
 -1       465    8    0    1
 -2       149       304       303      1691      1737      1688
 -1       466    8    0    1
 -2       150       305       304      1693      1738      1690
 -1       467    8    0    1
 -2       151       306       305      1695      1739      1692
 -1       468    8    0    1
 -2       152       307       306      1697      1740      1694
 -1       469    8    0    1
 -2       153       308       307      1699      1741      1696
 -1       470    8    0    1
 -2         1       309       308      1701      1742      1698
 -1       471    8    0    1
 -2       154       310       309      1703      1743      1700
 -1       472    8    0    1
 -2       155       311       310      1705      1744      1702
 -1       473    8    0    1
 -2       156       312       311      1707      1745      1704
 -1       474    8    0    1
 -2       157       313       312      1709      1746      1706
 -1       475    8    0    1
 -2       158       314       313      1711      1747      1708
 -1       476    8    0    1
 -2       159       315       314      1713      1748      1710
 -1       477    8    0    1
 -2       160       316       315      1715      1749      1712
 -1       478    8    0    1
 -2       161       317       316      1717      1750      1714
 -1       479    8    0    1
 -2       162       318       317      1719      1751      1716
 -1       480    8    0    1
 -2       163       319       318      1721      1752      1718
 -1       481    8    0    1
 -2        23         7       164      1280      1282      1753
 -1       482    8    0    1
 -2       165       166       320      1288      1754      1755
 -1       483    8    0    1
 -2       164       165       321      1285      1756      1757
 -1       484    8    0    1
 -2       165       320       321      1755      1758      1756
 -1       485    8    0    1
 -2       167       168       322      1294      1759      1760
 -1       486    8    0    1
 -2       168       169       323      1297      1761      1762
 -1       487    8    0    1
 -2       168       323       322      1762      1763      1759
 -1       488    8    0    1
 -2       169       170       324      1300      1764      1765
 -1       489    8    0    1
 -2       169       324       323      1765      1766      1761
 -1       490    8    0    1
 -2       170       171       325      1303      1767      1768
 -1       491    8    0    1
 -2       170       325       324      1768      1769      1764
 -1       492    8    0    1
 -2       171       172       326      1306      1770      1771
 -1       493    8    0    1
 -2       171       326       325      1771      1772      1767
 -1       494    8    0    1
 -2       172       173       327      1309      1773      1774
 -1       495    8    0    1
 -2       172       327       326      1774      1775      1770
 -1       496    8    0    1
 -2       173       174       328      1312      1776      1777
 -1       497    8    0    1
 -2       173       328       327      1777      1778      1773
 -1       498    8    0    1
 -2       174       175       329      1315      1779      1780
 -1       499    8    0    1
 -2       174       329       328      1780      1781      1776
 -1       500    8    0    1
 -2       175       176       330      1318      1782      1783
 -1       501    8    0    1
 -2       175       330       329      1783      1784      1779
 -1       502    8    0    1
 -2       176       177       331      1321      1785      1786
 -1       503    8    0    1
 -2       176       331       330      1786      1787      1782
 -1       504    8    0    1
 -2       177       178       332      1324      1788      1789
 -1       505    8    0    1
 -2       177       332       331      1789      1790      1785
 -1       506    8    0    1
 -2       178       179       333      1327      1791      1792
 -1       507    8    0    1
 -2       332       178       333      1788      1792      1793
 -1       508    8    0    1
 -2       179       228       333      1476      1794      1791
 -1       509    8    0    1
 -2       180        23       164      1329      1753      1795
 -1       510    8    0    1
 -2       228       229       334      1479      1796      1797
 -1       511    8    0    1
 -2       228       334       333      1797      1798      1794
 -1       512    8    0    1
 -2       180       164       321      1795      1757      1799
 -1       513    8    0    1
 -2       182       181       335      1336      1800      1801
 -1       514    8    0    1
 -2       183       182       336      1339      1802      1803
 -1       515    8    0    1
 -2       182       335       336      1801      1804      1802
 -1       516    8    0    1
 -2       184       183       337      1342      1805      1806
 -1       517    8    0    1
 -2       183       336       337      1803      1807      1805
 -1       518    8    0    1
 -2       185       184       338      1345      1808      1809
 -1       519    8    0    1
 -2       184       337       338      1806      1810      1808
 -1       520    8    0    1
 -2       186       185       339      1348      1811      1812
 -1       521    8    0    1
 -2       185       338       339      1809      1813      1811
 -1       522    8    0    1
 -2       187       186       340      1351      1814      1815
 -1       523    8    0    1
 -2       186       339       340      1812      1816      1814
 -1       524    8    0    1
 -2       188       187       341      1354      1817      1818
 -1       525    8    0    1
 -2       187       340       341      1815      1819      1817
 -1       526    8    0    1
 -2       189       188       342      1357      1820      1821
 -1       527    8    0    1
 -2       188       341       342      1818      1822      1820
 -1       528    8    0    1
 -2       190       189       343      1360      1823      1824
 -1       529    8    0    1
 -2       189       342       343      1821      1825      1823
 -1       530    8    0    1
 -2       191       190       344      1363      1826      1827
 -1       531    8    0    1
 -2       190       343       344      1824      1828      1826
 -1       532    8    0    1
 -2       192       191       345      1366      1829      1830
 -1       533    8    0    1
 -2       191       344       345      1827      1831      1829
 -1       534    8    0    1
 -2       193       192       346      1369      1832      1833
 -1       535    8    0    1
 -2       192       345       346      1830      1834      1832
 -1       536    8    0    1
 -2       194       193       347      1372      1835      1836
 -1       537    8    0    1
 -2       193       346       347      1833      1837      1835
 -1       538    8    0    1
 -2       195       194       348      1375      1838      1839
 -1       539    8    0    1
 -2       194       347       348      1836      1840      1838
 -1       540    8    0    1
 -2       196       195       349      1378      1841      1842
 -1       541    8    0    1
 -2       195       348       349      1839      1843      1841
 -1       542    8    0    1
 -2       197       196       350      1381      1844      1845
 -1       543    8    0    1
 -2       196       349       350      1842      1846      1844
 -1       544    8    0    1
 -2       198       197       351      1384      1847      1848
 -1       545    8    0    1
 -2       197       350       351      1845      1849      1847
 -1       546    8    0    1
 -2       199       198       352      1387      1850      1851
 -1       547    8    0    1
 -2       198       351       352      1848      1852      1850
 -1       548    8    0    1
 -2       200       199       353      1390      1853      1854
 -1       549    8    0    1
 -2       199       352       353      1851      1855      1853
 -1       550    8    0    1
 -2       201       200       354      1393      1856      1857
 -1       551    8    0    1
 -2       200       353       354      1854      1858      1856
 -1       552    8    0    1
 -2       202       201       355      1396      1859      1860
 -1       553    8    0    1
 -2       201       354       355      1857      1861      1859
 -1       554    8    0    1
 -2       203       202       356      1399      1862      1863
 -1       555    8    0    1
 -2       202       355       356      1860      1864      1862
 -1       556    8    0    1
 -2       204       203       357      1402      1865      1866
 -1       557    8    0    1
 -2       203       356       357      1863      1867      1865
 -1       558    8    0    1
 -2       205       204       358      1405      1868      1869
 -1       559    8    0    1
 -2       204       357       358      1866      1870      1868
 -1       560    8    0    1
 -2       206       205       359      1408      1871      1872
 -1       561    8    0    1
 -2       205       358       359      1869      1873      1871
 -1       562    8    0    1
 -2       207       206       360      1411      1874      1875
 -1       563    8    0    1
 -2       206       359       360      1872      1876      1874
 -1       564    8    0    1
 -2       208       207       361      1414      1877      1878
 -1       565    8    0    1
 -2       207       360       361      1875      1879      1877
 -1       566    8    0    1
 -2       209       208       362      1417      1880      1881
 -1       567    8    0    1
 -2       208       361       362      1878      1882      1880
 -1       568    8    0    1
 -2       210       209       363      1420      1883      1884
 -1       569    8    0    1
 -2       209       362       363      1881      1885      1883
 -1       570    8    0    1
 -2       211       210       364      1423      1886      1887
 -1       571    8    0    1
 -2       210       363       364      1884      1888      1886
 -1       572    8    0    1
 -2       212       211       365      1426      1889      1890
 -1       573    8    0    1
 -2       211       364       365      1887      1891      1889
 -1       574    8    0    1
 -2       213       212       366      1429      1892      1893
 -1       575    8    0    1
 -2       212       365       366      1890      1894      1892
 -1       576    8    0    1
 -2       214       213       367      1432      1895      1896
 -1       577    8    0    1
 -2       213       366       367      1893      1897      1895
 -1       578    8    0    1
 -2       215       214       368      1435      1898      1899
 -1       579    8    0    1
 -2       214       367       368      1896      1900      1898
 -1       580    8    0    1
 -2       216       215       369      1438      1901      1902
 -1       581    8    0    1
 -2       215       368       369      1899      1903      1901
 -1       582    8    0    1
 -2       217       216       370      1441      1904      1905
 -1       583    8    0    1
 -2       216       369       370      1902      1906      1904
 -1       584    8    0    1
 -2       218       217       371      1444      1907      1908
 -1       585    8    0    1
 -2       217       370       371      1905      1909      1907
 -1       586    8    0    1
 -2       219       218       372      1447      1910      1911
 -1       587    8    0    1
 -2       218       371       372      1908      1912      1910
 -1       588    8    0    1
 -2       220       219       373      1450      1913      1914
 -1       589    8    0    1
 -2       219       372       373      1911      1915      1913
 -1       590    8    0    1
 -2       221       220       374      1453      1916      1917
 -1       591    8    0    1
 -2       220       373       374      1914      1918      1916
 -1       592    8    0    1
 -2       222       221       375      1456      1919      1920
 -1       593    8    0    1
 -2       221       374       375      1917      1921      1919
 -1       594    8    0    1
 -2       223       222       376      1459      1922      1923
 -1       595    8    0    1
 -2       222       375       376      1920      1924      1922
 -1       596    8    0    1
 -2       224       223       377      1462      1925      1926
 -1       597    8    0    1
 -2       223       376       377      1923      1927      1925
 -1       598    8    0    1
 -2       225       224       378      1465      1928      1929
 -1       599    8    0    1
 -2       224       377       378      1926      1930      1928
 -1       600    8    0    1
 -2       226       225       379      1468      1931      1932
 -1       601    8    0    1
 -2       225       378       379      1929      1933      1931
 -1       602    8    0    1
 -2       227       226       380      1471      1934      1935
 -1       603    8    0    1
 -2       290       227       380      1663      1935      1936
 -1       604    8    0    1
 -2       226       379       380      1932      1937      1934
 -1       605    8    0    1
 -2       229       230       381      1482      1938      1939
 -1       606    8    0    1
 -2       229       381       334      1939      1940      1796
 -1       607    8    0    1
 -2       230       231       382      1485      1941      1942
 -1       608    8    0    1
 -2       230       382       381      1942      1943      1938
 -1       609    8    0    1
 -2       231       232       383      1488      1944      1945
 -1       610    8    0    1
 -2       231       383       382      1945      1946      1941
 -1       611    8    0    1
 -2       232       233       384      1491      1947      1948
 -1       612    8    0    1
 -2       232       384       383      1948      1949      1944
 -1       613    8    0    1
 -2       233       234       385      1494      1950      1951
 -1       614    8    0    1
 -2       233       385       384      1951      1952      1947
 -1       615    8    0    1
 -2       234       235       386      1497      1953      1954
 -1       616    8    0    1
 -2       234       386       385      1954      1955      1950
 -1       617    8    0    1
 -2       235       236       387      1500      1956      1957
 -1       618    8    0    1
 -2       235       387       386      1957      1958      1953
 -1       619    8    0    1
 -2       236       237       388      1503      1959      1960
 -1       620    8    0    1
 -2       236       388       387      1960      1961      1956
 -1       621    8    0    1
 -2       237       238       389      1506      1962      1963
 -1       622    8    0    1
 -2       237       389       388      1963      1964      1959
 -1       623    8    0    1
 -2       238       239       390      1509      1965      1966
 -1       624    8    0    1
 -2       238       390       389      1966      1967      1962
 -1       625    8    0    1
 -2       239       240       391      1512      1968      1969
 -1       626    8    0    1
 -2       239       391       390      1969      1970      1965
 -1       627    8    0    1
 -2       240       241       392      1515      1971      1972
 -1       628    8    0    1
 -2       240       392       391      1972      1973      1968
 -1       629    8    0    1
 -2       241       242       393      1518      1974      1975
 -1       630    8    0    1
 -2       241       393       392      1975      1976      1971
 -1       631    8    0    1
 -2       242       243       394      1521      1977      1978
 -1       632    8    0    1
 -2       242       394       393      1978      1979      1974
 -1       633    8    0    1
 -2       243       244       395      1524      1980      1981
 -1       634    8    0    1
 -2       243       395       394      1981      1982      1977
 -1       635    8    0    1
 -2       244       245       396      1527      1983      1984
 -1       636    8    0    1
 -2       244       396       395      1984      1985      1980
 -1       637    8    0    1
 -2       245       246       397      1530      1986      1987
 -1       638    8    0    1
 -2       245       397       396      1987      1988      1983
 -1       639    8    0    1
 -2       246       247       398      1533      1989      1990
 -1       640    8    0    1
 -2       246       398       397      1990      1991      1986
 -1       641    8    0    1
 -2       247       248       399      1536      1992      1993
 -1       642    8    0    1
 -2       247       399       398      1993      1994      1989
 -1       643    8    0    1
 -2       248       249       400      1539      1995      1996
 -1       644    8    0    1
 -2       248       400       399      1996      1997      1992
 -1       645    8    0    1
 -2       249       250       401      1542      1998      1999
 -1       646    8    0    1
 -2       249       401       400      1999      2000      1995
 -1       647    8    0    1
 -2       250       251       402      1545      2001      2002
 -1       648    8    0    1
 -2       250       402       401      2002      2003      1998
 -1       649    8    0    1
 -2       251       252       403      1548      2004      2005
 -1       650    8    0    1
 -2       251       403       402      2005      2006      2001
 -1       651    8    0    1
 -2       252       253       404      1551      2007      2008
 -1       652    8    0    1
 -2       252       404       403      2008      2009      2004
 -1       653    8    0    1
 -2       253       254       405      1554      2010      2011
 -1       654    8    0    1
 -2       253       405       404      2011      2012      2007
 -1       655    8    0    1
 -2       254       255       406      1557      2013      2014
 -1       656    8    0    1
 -2       254       406       405      2014      2015      2010
 -1       657    8    0    1
 -2       255       256       407      1560      2016      2017
 -1       658    8    0    1
 -2       255       407       406      2017      2018      2013
 -1       659    8    0    1
 -2       256       257       408      1563      2019      2020
 -1       660    8    0    1
 -2       256       408       407      2020      2021      2016
 -1       661    8    0    1
 -2       257       258       409      1566      2022      2023
 -1       662    8    0    1
 -2       257       409       408      2023      2024      2019
 -1       663    8    0    1
 -2       258       259       410      1569      2025      2026
 -1       664    8    0    1
 -2       258       410       409      2026      2027      2022
 -1       665    8    0    1
 -2       259       260       411      1572      2028      2029
 -1       666    8    0    1
 -2       259       411       410      2029      2030      2025
 -1       667    8    0    1
 -2       260       261       412      1575      2031      2032
 -1       668    8    0    1
 -2       260       412       411      2032      2033      2028
 -1       669    8    0    1
 -2       261       262       413      1578      2034      2035
 -1       670    8    0    1
 -2       261       413       412      2035      2036      2031
 -1       671    8    0    1
 -2       262       263       414      1581      2037      2038
 -1       672    8    0    1
 -2       262       414       413      2038      2039      2034
 -1       673    8    0    1
 -2       263       264       415      1584      2040      2041
 -1       674    8    0    1
 -2       263       415       414      2041      2042      2037
 -1       675    8    0    1
 -2       264       265       416      1587      2043      2044
 -1       676    8    0    1
 -2       264       416       415      2044      2045      2040
 -1       677    8    0    1
 -2       265       266       417      1590      2046      2047
 -1       678    8    0    1
 -2       265       417       416      2047      2048      2043
 -1       679    8    0    1
 -2       266       267       418      1593      2049      2050
 -1       680    8    0    1
 -2       266       418       417      2050      2051      2046
 -1       681    8    0    1
 -2       267       268       419      1596      2052      2053
 -1       682    8    0    1
 -2       267       419       418      2053      2054      2049
 -1       683    8    0    1
 -2       268       269       420      1599      2055      2056
 -1       684    8    0    1
 -2       268       420       419      2056      2057      2052
 -1       685    8    0    1
 -2       269       270       421      1602      2058      2059
 -1       686    8    0    1
 -2       269       421       420      2059      2060      2055
 -1       687    8    0    1
 -2       270       271       422      1605      2061      2062
 -1       688    8    0    1
 -2       270       422       421      2062      2063      2058
 -1       689    8    0    1
 -2       271       272       423      1608      2064      2065
 -1       690    8    0    1
 -2       271       423       422      2065      2066      2061
 -1       691    8    0    1
 -2       272       273       424      1611      2067      2068
 -1       692    8    0    1
 -2       272       424       423      2068      2069      2064
 -1       693    8    0    1
 -2       273       274       425      1614      2070      2071
 -1       694    8    0    1
 -2       273       425       424      2071      2072      2067
 -1       695    8    0    1
 -2       274       275       426      1617      2073      2074
 -1       696    8    0    1
 -2       425       274       426      2070      2074      2075
 -1       697    8    0    1
 -2       275       276       426      1725      2076      2073
 -1       698    8    0    1
 -2       278       279       427      1629      2077      2078
 -1       699    8    0    1
 -2       277       278       428      1626      2079      2080
 -1       700    8    0    1
 -2       278       427       428      2078      2081      2079
 -1       701    8    0    1
 -2       276       277       429      1623      2082      2083
 -1       702    8    0    1
 -2       426       276       429      2076      2083      2084
 -1       703    8    0    1
 -2       277       428       429      2080      2085      2082
 -1       704    8    0    1
 -2       279       280       430      1632      2086      2087
 -1       705    8    0    1
 -2       279       430       427      2087      2088      2077
 -1       706    8    0    1
 -2       280       281       431      1635      2089      2090
 -1       707    8    0    1
 -2       280       431       430      2090      2091      2086
 -1       708    8    0    1
 -2       281       282       432      1638      2092      2093
 -1       709    8    0    1
 -2       281       432       431      2093      2094      2089
 -1       710    8    0    1
 -2       282       283       433      1641      2095      2096
 -1       711    8    0    1
 -2       282       433       432      2096      2097      2092
 -1       712    8    0    1
 -2       283       284       434      1644      2098      2099
 -1       713    8    0    1
 -2       283       434       433      2099      2100      2095
 -1       714    8    0    1
 -2       284       285       435      1647      2101      2102
 -1       715    8    0    1
 -2       284       435       434      2102      2103      2098
 -1       716    8    0    1
 -2       285       286       436      1650      2104      2105
 -1       717    8    0    1
 -2       285       436       435      2105      2106      2101
 -1       718    8    0    1
 -2       286       287       437      1653      2107      2108
 -1       719    8    0    1
 -2       286       437       436      2108      2109      2104
 -1       720    8    0    1
 -2       287       288       438      1656      2110      2111
 -1       721    8    0    1
 -2       287       438       437      2111      2112      2107
 -1       722    8    0    1
 -2       288       289       439      1659      2113      2114
 -1       723    8    0    1
 -2       288       439       438      2114      2115      2110
 -1       724    8    0    1
 -2       292       293       440      1727      2116      2117
 -1       725    8    0    1
 -2       319       291       441      1728      2118      2119
 -1       726    8    0    1
 -2       291       292       442      1726      2120      2121
 -1       727    8    0    1
 -2       293       294       443      1723      2122      2123
 -1       728    8    0    1
 -2       294       295       444      1722      2124      2125
 -1       729    8    0    1
 -2       166       167       445      1291      2126      2127
 -1       730    8    0    1
 -2       320       166       445      1754      2127      2128
 -1       731    8    0    1
 -2       167       322       445      1760      2129      2126
 -1       732    8    0    1
 -2       296       297       446      1730      2130      2131
 -1       733    8    0    1
 -2       297       298       447      1731      2132      2133
 -1       734    8    0    1
 -2       298       299       448      1732      2134      2135
 -1       735    8    0    1
 -2       299       300       449      1733      2136      2137
 -1       736    8    0    1
 -2       300       301       450      1734      2138      2139
 -1       737    8    0    1
 -2       301       302       451      1735      2140      2141
 -1       738    8    0    1
 -2       302       303       452      1736      2142      2143
 -1       739    8    0    1
 -2       303       304       453      1737      2144      2145
 -1       740    8    0    1
 -2       304       305       454      1738      2146      2147
 -1       741    8    0    1
 -2       305       306       455      1739      2148      2149
 -1       742    8    0    1
 -2       306       307       456      1740      2150      2151
 -1       743    8    0    1
 -2       307       308       457      1741      2152      2153
 -1       744    8    0    1
 -2       308       309       458      1742      2154      2155
 -1       745    8    0    1
 -2       309       310       459      1743      2156      2157
 -1       746    8    0    1
 -2       310       311       460      1744      2158      2159
 -1       747    8    0    1
 -2       311       312       461      1745      2160      2161
 -1       748    8    0    1
 -2       312       313       462      1746      2162      2163
 -1       749    8    0    1
 -2       313       314       463      1747      2164      2165
 -1       750    8    0    1
 -2       313       463       462      2165      2166      2162
 -1       751    8    0    1
 -2       314       315       464      1748      2167      2168
 -1       752    8    0    1
 -2       315       316       465      1749      2169      2170
 -1       753    8    0    1
 -2       315       465       464      2170      2171      2167
 -1       754    8    0    1
 -2       316       317       466      1750      2172      2173
 -1       755    8    0    1
 -2       317       318       467      1751      2174      2175
 -1       756    8    0    1
 -2       318       319       468      1752      2176      2177
 -1       757    8    0    1
 -2       295       296       469      1729      2178      2179
 -1       758    8    0    1
 -2       443       294       444      2122      2125      2180
 -1       759    8    0    1
 -2       180       321       181      1799      2181      1333
 -1       760    8    0    1
 -2       444       295       469      2124      2179      2182
 -1       761    8    0    1
 -2       296       446       469      2131      2183      2178
 -1       762    8    0    1
 -2       335       181       321      1800      2181      2184
 -1       763    8    0    1
 -2       442       292       440      2120      2117      2185
 -1       764    8    0    1
 -2       441       291       442      2118      2121      2186
 -1       765    8    0    1
 -2       439       289       290      2113      1662      2187
 -1       766    8    0    1
 -2       440       293       443      2116      2123      2188
 -1       767    8    0    1
 -2       319       441       468      2119      2189      2176
 -1       768    8    0    1
 -2       467       318       468      2174      2177      2190
 -1       769    8    0    1
 -2       465       316       466      2169      2173      2191
 -1       770    8    0    1
 -2       463       314       464      2164      2168      2192
 -1       771    8    0    1
 -2       461       312       462      2160      2163      2193
 -1       772    8    0    1
 -2       460       311       461      2158      2161      2194
 -1       773    8    0    1
 -2       459       310       460      2156      2159      2195
 -1       774    8    0    1
 -2       458       309       459      2154      2157      2196
 -1       775    8    0    1
 -2       457       308       458      2152      2155      2197
 -1       776    8    0    1
 -2       456       307       457      2150      2153      2198
 -1       777    8    0    1
 -2       455       306       456      2148      2151      2199
 -1       778    8    0    1
 -2       454       305       455      2146      2149      2200
 -1       779    8    0    1
 -2       453       304       454      2144      2147      2201
 -1       780    8    0    1
 -2       452       303       453      2142      2145      2202
 -1       781    8    0    1
 -2       451       302       452      2140      2143      2203
 -1       782    8    0    1
 -2       450       301       451      2138      2141      2204
 -1       783    8    0    1
 -2       449       300       450      2136      2139      2205
 -1       784    8    0    1
 -2       448       299       449      2134      2137      2206
 -1       785    8    0    1
 -2       446       297       447      2130      2133      2207
 -1       786    8    0    1
 -2       447       298       448      2132      2135      2208
 -1       787    8    0    1
 -2       466       317       467      2172      2175      2209
 -1       788    8    0    1
 -2       334       381       470      1940      2210      2211
 -1       789    8    0    1
 -2       323       324       471      1766      2212      2213
 -1       790    8    0    1
 -2       322       323       472      1763      2214      2215
 -1       791    8    0    1
 -2       323       471       472      2213      2216      2214
 -1       792    8    0    1
 -2       325       326       473      1772      2217      2218
 -1       793    8    0    1
 -2       326       327       474      1775      2219      2220
 -1       794    8    0    1
 -2       326       474       473      2220      2221      2217
 -1       795    8    0    1
 -2       327       328       475      1778      2222      2223
 -1       796    8    0    1
 -2       327       475       474      2223      2224      2219
 -1       797    8    0    1
 -2       328       329       476      1781      2225      2226
 -1       798    8    0    1
 -2       328       476       475      2226      2227      2222
 -1       799    8    0    1
 -2       329       330       477      1784      2228      2229
 -1       800    8    0    1
 -2       329       477       476      2229      2230      2225
 -1       801    8    0    1
 -2       330       331       478      1787      2231      2232
 -1       802    8    0    1
 -2       330       478       477      2232      2233      2228
 -1       803    8    0    1
 -2       381       382       479      1943      2234      2235
 -1       804    8    0    1
 -2       381       479       470      2235      2236      2210
 -1       805    8    0    1
 -2       336       335       480      1804      2237      2238
 -1       806    8    0    1
 -2       444       469       481      2182      2239      2240
 -1       807    8    0    1
 -2       337       336       482      1807      2241      2242
 -1       808    8    0    1
 -2       336       480       482      2238      2243      2241
 -1       809    8    0    1
 -2       338       337       483      1810      2244      2245
 -1       810    8    0    1
 -2       337       482       483      2242      2246      2244
 -1       811    8    0    1
 -2       339       338       484      1813      2247      2248
 -1       812    8    0    1
 -2       338       483       484      2245      2249      2247
 -1       813    8    0    1
 -2       340       339       485      1816      2250      2251
 -1       814    8    0    1
 -2       339       484       485      2248      2252      2250
 -1       815    8    0    1
 -2       341       340       486      1819      2253      2254
 -1       816    8    0    1
 -2       340       485       486      2251      2255      2253
 -1       817    8    0    1
 -2       342       341       487      1822      2256      2257
 -1       818    8    0    1
 -2       341       486       487      2254      2258      2256
 -1       819    8    0    1
 -2       343       342       488      1825      2259      2260
 -1       820    8    0    1
 -2       342       487       488      2257      2261      2259
 -1       821    8    0    1
 -2       344       343       489      1828      2262      2263
 -1       822    8    0    1
 -2       343       488       489      2260      2264      2262
 -1       823    8    0    1
 -2       345       344       490      1831      2265      2266
 -1       824    8    0    1
 -2       344       489       490      2263      2267      2265
 -1       825    8    0    1
 -2       346       345       491      1834      2268      2269
 -1       826    8    0    1
 -2       345       490       491      2266      2270      2268
 -1       827    8    0    1
 -2       347       346       492      1837      2271      2272
 -1       828    8    0    1
 -2       346       491       492      2269      2273      2271
 -1       829    8    0    1
 -2       348       347       493      1840      2274      2275
 -1       830    8    0    1
 -2       347       492       493      2272      2276      2274
 -1       831    8    0    1
 -2       349       348       494      1843      2277      2278
 -1       832    8    0    1
 -2       348       493       494      2275      2279      2277
 -1       833    8    0    1
 -2       350       349       495      1846      2280      2281
 -1       834    8    0    1
 -2       349       494       495      2278      2282      2280
 -1       835    8    0    1
 -2       351       350       496      1849      2283      2284
 -1       836    8    0    1
 -2       350       495       496      2281      2285      2283
 -1       837    8    0    1
 -2       352       351       497      1852      2286      2287
 -1       838    8    0    1
 -2       351       496       497      2284      2288      2286
 -1       839    8    0    1
 -2       353       352       498      1855      2289      2290
 -1       840    8    0    1
 -2       352       497       498      2287      2291      2289
 -1       841    8    0    1
 -2       354       353       499      1858      2292      2293
 -1       842    8    0    1
 -2       353       498       499      2290      2294      2292
 -1       843    8    0    1
 -2       355       354       500      1861      2295      2296
 -1       844    8    0    1
 -2       354       499       500      2293      2297      2295
 -1       845    8    0    1
 -2       356       355       501      1864      2298      2299
 -1       846    8    0    1
 -2       355       500       501      2296      2300      2298
 -1       847    8    0    1
 -2       357       356       502      1867      2301      2302
 -1       848    8    0    1
 -2       356       501       502      2299      2303      2301
 -1       849    8    0    1
 -2       358       357       503      1870      2304      2305
 -1       850    8    0    1
 -2       357       502       503      2302      2306      2304
 -1       851    8    0    1
 -2       359       358       504      1873      2307      2308
 -1       852    8    0    1
 -2       358       503       504      2305      2309      2307
 -1       853    8    0    1
 -2       360       359       505      1876      2310      2311
 -1       854    8    0    1
 -2       359       504       505      2308      2312      2310
 -1       855    8    0    1
 -2       361       360       506      1879      2313      2314
 -1       856    8    0    1
 -2       360       505       506      2311      2315      2313
 -1       857    8    0    1
 -2       362       361       507      1882      2316      2317
 -1       858    8    0    1
 -2       361       506       507      2314      2318      2316
 -1       859    8    0    1
 -2       363       362       508      1885      2319      2320
 -1       860    8    0    1
 -2       362       507       508      2317      2321      2319
 -1       861    8    0    1
 -2       364       363       509      1888      2322      2323
 -1       862    8    0    1
 -2       363       508       509      2320      2324      2322
 -1       863    8    0    1
 -2       365       364       510      1891      2325      2326
 -1       864    8    0    1
 -2       364       509       510      2323      2327      2325
 -1       865    8    0    1
 -2       366       365       511      1894      2328      2329
 -1       866    8    0    1
 -2       365       510       511      2326      2330      2328
 -1       867    8    0    1
 -2       367       366       512      1897      2331      2332
 -1       868    8    0    1
 -2       366       511       512      2329      2333      2331
 -1       869    8    0    1
 -2       368       367       513      1900      2334      2335
 -1       870    8    0    1
 -2       367       512       513      2332      2336      2334
 -1       871    8    0    1
 -2       369       368       514      1903      2337      2338
 -1       872    8    0    1
 -2       368       513       514      2335      2339      2337
 -1       873    8    0    1
 -2       370       369       515      1906      2340      2341
 -1       874    8    0    1
 -2       369       514       515      2338      2342      2340
 -1       875    8    0    1
 -2       371       370       516      1909      2343      2344
 -1       876    8    0    1
 -2       370       515       516      2341      2345      2343
 -1       877    8    0    1
 -2       372       371       517      1912      2346      2347
 -1       878    8    0    1
 -2       371       516       517      2344      2348      2346
 -1       879    8    0    1
 -2       373       372       518      1915      2349      2350
 -1       880    8    0    1
 -2       372       517       518      2347      2351      2349
 -1       881    8    0    1
 -2       374       373       519      1918      2352      2353
 -1       882    8    0    1
 -2       373       518       519      2350      2354      2352
 -1       883    8    0    1
 -2       375       374       520      1921      2355      2356
 -1       884    8    0    1
 -2       374       519       520      2353      2357      2355
 -1       885    8    0    1
 -2       376       375       521      1924      2358      2359
 -1       886    8    0    1
 -2       375       520       521      2356      2360      2358
 -1       887    8    0    1
 -2       377       376       522      1927      2361      2362
 -1       888    8    0    1
 -2       376       521       522      2359      2363      2361
 -1       889    8    0    1
 -2       378       377       523      1930      2364      2365
 -1       890    8    0    1
 -2       377       522       523      2362      2366      2364
 -1       891    8    0    1
 -2       379       378       524      1933      2367      2368
 -1       892    8    0    1
 -2       378       523       524      2365      2369      2367
 -1       893    8    0    1
 -2       383       384       525      1949      2370      2371
 -1       894    8    0    1
 -2       384       385       526      1952      2372      2373
 -1       895    8    0    1
 -2       384       526       525      2373      2374      2370
 -1       896    8    0    1
 -2       385       386       527      1955      2375      2376
 -1       897    8    0    1
 -2       385       527       526      2376      2377      2372
 -1       898    8    0    1
 -2       386       387       528      1958      2378      2379
 -1       899    8    0    1
 -2       386       528       527      2379      2380      2375
 -1       900    8    0    1
 -2       387       388       529      1961      2381      2382
 -1       901    8    0    1
 -2       387       529       528      2382      2383      2378
 -1       902    8    0    1
 -2       388       389       530      1964      2384      2385
 -1       903    8    0    1
 -2       388       530       529      2385      2386      2381
 -1       904    8    0    1
 -2       389       390       531      1967      2387      2388
 -1       905    8    0    1
 -2       389       531       530      2388      2389      2384
 -1       906    8    0    1
 -2       390       391       532      1970      2390      2391
 -1       907    8    0    1
 -2       390       532       531      2391      2392      2387
 -1       908    8    0    1
 -2       391       392       533      1973      2393      2394
 -1       909    8    0    1
 -2       391       533       532      2394      2395      2390
 -1       910    8    0    1
 -2       392       393       534      1976      2396      2397
 -1       911    8    0    1
 -2       392       534       533      2397      2398      2393
 -1       912    8    0    1
 -2       393       394       535      1979      2399      2400
 -1       913    8    0    1
 -2       393       535       534      2400      2401      2396
 -1       914    8    0    1
 -2       394       395       536      1982      2402      2403
 -1       915    8    0    1
 -2       394       536       535      2403      2404      2399
 -1       916    8    0    1
 -2       395       396       537      1985      2405      2406
 -1       917    8    0    1
 -2       395       537       536      2406      2407      2402
 -1       918    8    0    1
 -2       396       397       538      1988      2408      2409
 -1       919    8    0    1
 -2       396       538       537      2409      2410      2405
 -1       920    8    0    1
 -2       397       398       539      1991      2411      2412
 -1       921    8    0    1
 -2       397       539       538      2412      2413      2408
 -1       922    8    0    1
 -2       398       399       540      1994      2414      2415
 -1       923    8    0    1
 -2       398       540       539      2415      2416      2411
 -1       924    8    0    1
 -2       399       400       541      1997      2417      2418
 -1       925    8    0    1
 -2       399       541       540      2418      2419      2414
 -1       926    8    0    1
 -2       400       401       542      2000      2420      2421
 -1       927    8    0    1
 -2       400       542       541      2421      2422      2417
 -1       928    8    0    1
 -2       401       402       543      2003      2423      2424
 -1       929    8    0    1
 -2       401       543       542      2424      2425      2420
 -1       930    8    0    1
 -2       402       403       544      2006      2426      2427
 -1       931    8    0    1
 -2       402       544       543      2427      2428      2423
 -1       932    8    0    1
 -2       403       404       545      2009      2429      2430
 -1       933    8    0    1
 -2       403       545       544      2430      2431      2426
 -1       934    8    0    1
 -2       404       405       546      2012      2432      2433
 -1       935    8    0    1
 -2       404       546       545      2433      2434      2429
 -1       936    8    0    1
 -2       405       406       547      2015      2435      2436
 -1       937    8    0    1
 -2       405       547       546      2436      2437      2432
 -1       938    8    0    1
 -2       406       407       548      2018      2438      2439
 -1       939    8    0    1
 -2       406       548       547      2439      2440      2435
 -1       940    8    0    1
 -2       407       408       549      2021      2441      2442
 -1       941    8    0    1
 -2       407       549       548      2442      2443      2438
 -1       942    8    0    1
 -2       408       409       550      2024      2444      2445
 -1       943    8    0    1
 -2       408       550       549      2445      2446      2441
 -1       944    8    0    1
 -2       409       410       551      2027      2447      2448
 -1       945    8    0    1
 -2       409       551       550      2448      2449      2444
 -1       946    8    0    1
 -2       410       411       552      2030      2450      2451
 -1       947    8    0    1
 -2       410       552       551      2451      2452      2447
 -1       948    8    0    1
 -2       411       412       553      2033      2453      2454
 -1       949    8    0    1
 -2       411       553       552      2454      2455      2450
 -1       950    8    0    1
 -2       412       413       554      2036      2456      2457
 -1       951    8    0    1
 -2       412       554       553      2457      2458      2453
 -1       952    8    0    1
 -2       413       414       555      2039      2459      2460
 -1       953    8    0    1
 -2       413       555       554      2460      2461      2456
 -1       954    8    0    1
 -2       414       415       556      2042      2462      2463
 -1       955    8    0    1
 -2       414       556       555      2463      2464      2459
 -1       956    8    0    1
 -2       415       416       557      2045      2465      2466
 -1       957    8    0    1
 -2       415       557       556      2466      2467      2462
 -1       958    8    0    1
 -2       416       417       558      2048      2468      2469
 -1       959    8    0    1
 -2       416       558       557      2469      2470      2465
 -1       960    8    0    1
 -2       417       418       559      2051      2471      2472
 -1       961    8    0    1
 -2       417       559       558      2472      2473      2468
 -1       962    8    0    1
 -2       418       419       560      2054      2474      2475
 -1       963    8    0    1
 -2       418       560       559      2475      2476      2471
 -1       964    8    0    1
 -2       419       420       561      2057      2477      2478
 -1       965    8    0    1
 -2       419       561       560      2478      2479      2474
 -1       966    8    0    1
 -2       420       421       562      2060      2480      2481
 -1       967    8    0    1
 -2       420       562       561      2481      2482      2477
 -1       968    8    0    1
 -2       421       422       563      2063      2483      2484
 -1       969    8    0    1
 -2       421       563       562      2484      2485      2480
 -1       970    8    0    1
 -2       422       423       564      2066      2486      2487
 -1       971    8    0    1
 -2       422       564       563      2487      2488      2483
 -1       972    8    0    1
 -2       423       424       565      2069      2489      2490
 -1       973    8    0    1
 -2       423       565       564      2490      2491      2486
 -1       974    8    0    1
 -2       424       425       566      2072      2492      2493
 -1       975    8    0    1
 -2       424       566       565      2493      2494      2489
 -1       976    8    0    1
 -2       425       426       429      2075      2084      2495
 -1       977    8    0    1
 -2       430       431       567      2091      2496      2497
 -1       978    8    0    1
 -2       431       432       568      2094      2498      2499
 -1       979    8    0    1
 -2       431       568       567      2499      2500      2496
 -1       980    8    0    1
 -2       428       427       569      2081      2501      2502
 -1       981    8    0    1
 -2       427       430       570      2088      2503      2504
 -1       982    8    0    1
 -2       569       427       570      2501      2504      2505
 -1       983    8    0    1
 -2       430       567       570      2497      2506      2503
 -1       984    8    0    1
 -2       432       433       571      2097      2507      2508
 -1       985    8    0    1
 -2       432       571       568      2508      2509      2498
 -1       986    8    0    1
 -2       433       434       572      2100      2510      2511
 -1       987    8    0    1
 -2       433       572       571      2511      2512      2507
 -1       988    8    0    1
 -2       434       435       573      2103      2513      2514
 -1       989    8    0    1
 -2       434       573       572      2514      2515      2510
 -1       990    8    0    1
 -2       435       436       574      2106      2516      2517
 -1       991    8    0    1
 -2       435       574       573      2517      2518      2513
 -1       992    8    0    1
 -2       436       437       575      2109      2519      2520
 -1       993    8    0    1
 -2       436       575       574      2520      2521      2516
 -1       994    8    0    1
 -2       437       438       576      2112      2522      2523
 -1       995    8    0    1
 -2       437       576       575      2523      2524      2519
 -1       996    8    0    1
 -2       438       439       577      2115      2525      2526
 -1       997    8    0    1
 -2       438       577       576      2526      2527      2522
 -1       998    8    0    1
 -2       441       442       578      2186      2528      2529
 -1       999    8    0    1
 -2       440       443       579      2188      2530      2531
 -1      1000    8    0    1
 -2       382       383       580      1946      2532      2533
 -1      1001    8    0    1
 -2       383       525       580      2371      2534      2532
 -1      1002    8    0    1
 -2       439       290       380      2187      1936      2535
 -1      1003    8    0    1
 -2       468       441       581      2189      2536      2537
 -1      1004    8    0    1
 -2       442       440       582      2185      2538      2539
 -1      1005    8    0    1
 -2       440       579       582      2531      2540      2538
 -1      1006    8    0    1
 -2       335       321       583      2184      2541      2542
 -1      1007    8    0    1
 -2       480       335       583      2237      2542      2543
 -1      1008    8    0    1
 -2       321       320       583      1758      2544      2541
 -1      1009    8    0    1
 -2       467       468       584      2190      2545      2546
 -1      1010    8    0    1
 -2       461       462       585      2193      2547      2548
 -1      1011    8    0    1
 -2       324       325       586      1769      2549      2550
 -1      1012    8    0    1
 -2       471       324       586      2212      2550      2551
 -1      1013    8    0    1
 -2       325       473       586      2218      2552      2549
 -1      1014    8    0    1
 -2       447       448       587      2208      2553      2554
 -1      1015    8    0    1
 -2       466       467       588      2209      2555      2556
 -1      1016    8    0    1
 -2       446       447       589      2207      2557      2558
 -1      1017    8    0    1
 -2       448       449       590      2206      2559      2560
 -1      1018    8    0    1
 -2       449       450       591      2205      2561      2562
 -1      1019    8    0    1
 -2       450       451       592      2204      2563      2564
 -1      1020    8    0    1
 -2       451       452       593      2203      2565      2566
 -1      1021    8    0    1
 -2       452       453       594      2202      2567      2568
 -1      1022    8    0    1
 -2       453       454       595      2201      2569      2570
 -1      1023    8    0    1
 -2       454       455       596      2200      2571      2572
 -1      1024    8    0    1
 -2       455       456       597      2199      2573      2574
 -1      1025    8    0    1
 -2       456       457       598      2198      2575      2576
 -1      1026    8    0    1
 -2       457       458       599      2197      2577      2578
 -1      1027    8    0    1
 -2       458       459       600      2196      2579      2580
 -1      1028    8    0    1
 -2       459       460       601      2195      2581      2582
 -1      1029    8    0    1
 -2       460       461       602      2194      2583      2584
 -1      1030    8    0    1
 -2       462       463       603      2166      2585      2586
 -1      1031    8    0    1
 -2       463       464       604      2192      2587      2588
 -1      1032    8    0    1
 -2       464       465       605      2171      2589      2590
 -1      1033    8    0    1
 -2       465       466       606      2191      2591      2592
 -1      1034    8    0    1
 -2       469       446       607      2183      2593      2594
 -1      1035    8    0    1
 -2       333       334       608      1798      2595      2596
 -1      1036    8    0    1
 -2       332       333       608      1793      2596      2597
 -1      1037    8    0    1
 -2       334       470       608      2211      2598      2595
 -1      1038    8    0    1
 -2       443       444       609      2180      2599      2600
 -1      1039    8    0    1
 -2       447       587       589      2554      2601      2557
 -1      1040    8    0    1
 -2       322       472       610      2215      2602      2603
 -1      1041    8    0    1
 -2       322       610       445      2603      2604      2129
 -1      1042    8    0    1
 -2       479       382       580      2234      2533      2605
 -1      1043    8    0    1
 -2       331       332       608      1790      2597      2606
 -1      1044    8    0    1
 -2       609       444       481      2599      2240      2607
 -1      1045    8    0    1
 -2       607       446       589      2593      2558      2608
 -1      1046    8    0    1
 -2       606       466       588      2591      2556      2609
 -1      1047    8    0    1
 -2       584       468       581      2545      2537      2610
 -1      1048    8    0    1
 -2       605       465       606      2589      2592      2611
 -1      1049    8    0    1
 -2       604       464       605      2587      2590      2612
 -1      1050    8    0    1
 -2       603       463       604      2585      2588      2613
 -1      1051    8    0    1
 -2       425       429       566      2495      2614      2492
 -1      1052    8    0    1
 -2       579       443       609      2530      2600      2615
 -1      1053    8    0    1
 -2       429       428       566      2085      2616      2614
 -1      1054    8    0    1
 -2       602       461       585      2583      2548      2617
 -1      1055    8    0    1
 -2       441       578       581      2529      2618      2536
 -1      1056    8    0    1
 -2       578       442       582      2528      2539      2619
 -1      1057    8    0    1
 -2       601       460       602      2581      2584      2620
 -1      1058    8    0    1
 -2       600       459       601      2579      2582      2621
 -1      1059    8    0    1
 -2       331       608       478      2606      2622      2231
 -1      1060    8    0    1
 -2       599       458       600      2577      2580      2623
 -1      1061    8    0    1
 -2       583       320       445      2544      2128      2624
 -1      1062    8    0    1
 -2       585       462       603      2547      2586      2625
 -1      1063    8    0    1
 -2       598       457       599      2575      2578      2626
 -1      1064    8    0    1
 -2       597       456       611      2573      2627      2628
 -1      1065    8    0    1
 -2       456       598       611      2576      2629      2627
 -1      1066    8    0    1
 -2       596       455       597      2571      2574      2630
 -1      1067    8    0    1
 -2       595       454       596      2569      2572      2631
 -1      1068    8    0    1
 -2       594       453       595      2567      2570      2632
 -1      1069    8    0    1
 -2       593       452       594      2565      2568      2633
 -1      1070    8    0    1
 -2       592       451       593      2563      2566      2634
 -1      1071    8    0    1
 -2       591       450       592      2561      2564      2635
 -1      1072    8    0    1
 -2       590       449       591      2559      2562      2636
 -1      1073    8    0    1
 -2       481       469       607      2239      2594      2637
 -1      1074    8    0    1
 -2       588       467       584      2555      2546      2638
 -1      1075    8    0    1
 -2       587       448       590      2553      2560      2639
 -1      1076    8    0    1
 -2       439       380       612      2535      2640      2641
 -1      1077    8    0    1
 -2       577       439       612      2525      2641      2642
 -1      1078    8    0    1
 -2       380       379       612      1937      2643      2640
 -1      1079    8    0    1
 -2       566       428       569      2616      2502      2644
 -1      1080    8    0    1
 -2       612       379       524      2643      2368      2645
 -1      1081    8    0    1
 -2       474       475       613      2224      2646      2647
 -1      1082    8    0    1
 -2       473       474       614      2221      2648      2649
 -1      1083    8    0    1
 -2       474       613       614      2647      2650      2648
 -1      1084    8    0    1
 -2       476       477       615      2230      2651      2652
 -1      1085    8    0    1
 -2       477       478       616      2233      2653      2654
 -1      1086    8    0    1
 -2       477       616       615      2654      2655      2651
 -1      1087    8    0    1
 -2       470       479       617      2236      2656      2657
 -1      1088    8    0    1
 -2       599       600       618      2623      2658      2659
 -1      1089    8    0    1
 -2       608       470       478      2598      2660      2622
 -1      1090    8    0    1
 -2       607       589       619      2608      2661      2662
 -1      1091    8    0    1
 -2       605       606       620      2611      2663      2664
 -1      1092    8    0    1
 -2       483       482       621      2246      2665      2666
 -1      1093    8    0    1
 -2       484       483       622      2249      2667      2668
 -1      1094    8    0    1
 -2       483       621       622      2666      2669      2667
 -1      1095    8    0    1
 -2       485       484       623      2252      2670      2671
 -1      1096    8    0    1
 -2       484       622       623      2668      2672      2670
 -1      1097    8    0    1
 -2       486       485       624      2255      2673      2674
 -1      1098    8    0    1
 -2       485       623       624      2671      2675      2673
 -1      1099    8    0    1
 -2       487       486       625      2258      2676      2677
 -1      1100    8    0    1
 -2       486       624       625      2674      2678      2676
 -1      1101    8    0    1
 -2       488       487       626      2261      2679      2680
 -1      1102    8    0    1
 -2       487       625       626      2677      2681      2679
 -1      1103    8    0    1
 -2       489       488       627      2264      2682      2683
 -1      1104    8    0    1
 -2       488       626       627      2680      2684      2682
 -1      1105    8    0    1
 -2       490       489       628      2267      2685      2686
 -1      1106    8    0    1
 -2       489       627       628      2683      2687      2685
 -1      1107    8    0    1
 -2       491       490       629      2270      2688      2689
 -1      1108    8    0    1
 -2       490       628       629      2686      2690      2688
 -1      1109    8    0    1
 -2       492       491       630      2273      2691      2692
 -1      1110    8    0    1
 -2       491       629       630      2689      2693      2691
 -1      1111    8    0    1
 -2       493       492       631      2276      2694      2695
 -1      1112    8    0    1
 -2       492       630       631      2692      2696      2694
 -1      1113    8    0    1
 -2       494       493       632      2279      2697      2698
 -1      1114    8    0    1
 -2       493       631       632      2695      2699      2697
 -1      1115    8    0    1
 -2       495       494       633      2282      2700      2701
 -1      1116    8    0    1
 -2       494       632       633      2698      2702      2700
 -1      1117    8    0    1
 -2       496       495       634      2285      2703      2704
 -1      1118    8    0    1
 -2       495       633       634      2701      2705      2703
 -1      1119    8    0    1
 -2       497       496       635      2288      2706      2707
 -1      1120    8    0    1
 -2       496       634       635      2704      2708      2706
 -1      1121    8    0    1
 -2       498       497       636      2291      2709      2710
 -1      1122    8    0    1
 -2       497       635       636      2707      2711      2709
 -1      1123    8    0    1
 -2       499       498       637      2294      2712      2713
 -1      1124    8    0    1
 -2       498       636       637      2710      2714      2712
 -1      1125    8    0    1
 -2       500       499       638      2297      2715      2716
 -1      1126    8    0    1
 -2       499       637       638      2713      2717      2715
 -1      1127    8    0    1
 -2       501       500       585      2300      2718      2719
 -1      1128    8    0    1
 -2       502       501       603      2303      2720      2721
 -1      1129    8    0    1
 -2       503       502       604      2306      2722      2723
 -1      1130    8    0    1
 -2       505       504       639      2312      2724      2725
 -1      1131    8    0    1
 -2       506       505       640      2315      2726      2727
 -1      1132    8    0    1
 -2       505       639       640      2725      2728      2726
 -1      1133    8    0    1
 -2       507       506       641      2318      2729      2730
 -1      1134    8    0    1
 -2       506       640       641      2727      2731      2729
 -1      1135    8    0    1
 -2       508       507       642      2321      2732      2733
 -1      1136    8    0    1
 -2       507       641       642      2730      2734      2732
 -1      1137    8    0    1
 -2       509       508       643      2324      2735      2736
 -1      1138    8    0    1
 -2       508       642       643      2733      2737      2735
 -1      1139    8    0    1
 -2       510       509       644      2327      2738      2739
 -1      1140    8    0    1
 -2       509       643       644      2736      2740      2738
 -1      1141    8    0    1
 -2       511       510       645      2330      2741      2742
 -1      1142    8    0    1
 -2       510       644       645      2739      2743      2741
 -1      1143    8    0    1
 -2       512       511       646      2333      2744      2745
 -1      1144    8    0    1
 -2       511       645       646      2742      2746      2744
 -1      1145    8    0    1
 -2       513       512       647      2336      2747      2748
 -1      1146    8    0    1
 -2       512       646       647      2745      2749      2747
 -1      1147    8    0    1
 -2       514       513       648      2339      2750      2751
 -1      1148    8    0    1
 -2       513       647       648      2748      2752      2750
 -1      1149    8    0    1
 -2       515       514       649      2342      2753      2754
 -1      1150    8    0    1
 -2       514       648       649      2751      2755      2753
 -1      1151    8    0    1
 -2       516       515       650      2345      2756      2757
 -1      1152    8    0    1
 -2       515       649       650      2754      2758      2756
 -1      1153    8    0    1
 -2       517       516       651      2348      2759      2760
 -1      1154    8    0    1
 -2       516       650       651      2757      2761      2759
 -1      1155    8    0    1
 -2       518       517       652      2351      2762      2763
 -1      1156    8    0    1
 -2       517       651       652      2760      2764      2762
 -1      1157    8    0    1
 -2       519       518       653      2354      2765      2766
 -1      1158    8    0    1
 -2       518       652       653      2763      2767      2765
 -1      1159    8    0    1
 -2       520       519       654      2357      2768      2769
 -1      1160    8    0    1
 -2       519       653       654      2766      2770      2768
 -1      1161    8    0    1
 -2       521       520       655      2360      2771      2772
 -1      1162    8    0    1
 -2       520       654       655      2769      2773      2771
 -1      1163    8    0    1
 -2       522       521       656      2363      2774      2775
 -1      1164    8    0    1
 -2       521       655       656      2772      2776      2774
 -1      1165    8    0    1
 -2       523       522       657      2366      2777      2778
 -1      1166    8    0    1
 -2       522       656       657      2775      2779      2777
 -1      1167    8    0    1
 -2       524       523       658      2369      2780      2781
 -1      1168    8    0    1
 -2       523       657       658      2778      2782      2780
 -1      1169    8    0    1
 -2       526       527       659      2377      2783      2784
 -1      1170    8    0    1
 -2       566       569       660      2644      2785      2786
 -1      1171    8    0    1
 -2       566       660       565      2786      2787      2494
 -1      1172    8    0    1
 -2       525       526       661      2374      2788      2789
 -1      1173    8    0    1
 -2       526       659       661      2784      2790      2788
 -1      1174    8    0    1
 -2       528       529       662      2383      2791      2792
 -1      1175    8    0    1
 -2       529       530       663      2386      2793      2794
 -1      1176    8    0    1
 -2       529       663       662      2794      2795      2791
 -1      1177    8    0    1
 -2       530       531       664      2389      2796      2797
 -1      1178    8    0    1
 -2       530       664       663      2797      2798      2793
 -1      1179    8    0    1
 -2       531       532       665      2392      2799      2800
 -1      1180    8    0    1
 -2       531       665       664      2800      2801      2796
 -1      1181    8    0    1
 -2       532       533       666      2395      2802      2803
 -1      1182    8    0    1
 -2       532       666       665      2803      2804      2799
 -1      1183    8    0    1
 -2       533       534       667      2398      2805      2806
 -1      1184    8    0    1
 -2       533       667       666      2806      2807      2802
 -1      1185    8    0    1
 -2       534       535       668      2401      2808      2809
 -1      1186    8    0    1
 -2       534       668       667      2809      2810      2805
 -1      1187    8    0    1
 -2       535       536       669      2404      2811      2812
 -1      1188    8    0    1
 -2       535       669       668      2812      2813      2808
 -1      1189    8    0    1
 -2       536       537       670      2407      2814      2815
 -1      1190    8    0    1
 -2       536       670       669      2815      2816      2811
 -1      1191    8    0    1
 -2       537       538       671      2410      2817      2818
 -1      1192    8    0    1
 -2       537       671       670      2818      2819      2814
 -1      1193    8    0    1
 -2       538       539       672      2413      2820      2821
 -1      1194    8    0    1
 -2       538       672       671      2821      2822      2817
 -1      1195    8    0    1
 -2       539       540       673      2416      2823      2824
 -1      1196    8    0    1
 -2       539       673       672      2824      2825      2820
 -1      1197    8    0    1
 -2       540       541       674      2419      2826      2827
 -1      1198    8    0    1
 -2       540       674       673      2827      2828      2823
 -1      1199    8    0    1
 -2       541       542       675      2422      2829      2830
 -1      1200    8    0    1
 -2       541       675       674      2830      2831      2826
 -1      1201    8    0    1
 -2       542       543       676      2425      2832      2833
 -1      1202    8    0    1
 -2       542       676       675      2833      2834      2829
 -1      1203    8    0    1
 -2       543       544       677      2428      2835      2836
 -1      1204    8    0    1
 -2       543       677       676      2836      2837      2832
 -1      1205    8    0    1
 -2       544       545       678      2431      2838      2839
 -1      1206    8    0    1
 -2       544       678       677      2839      2840      2835
 -1      1207    8    0    1
 -2       545       546       679      2434      2841      2842
 -1      1208    8    0    1
 -2       545       679       678      2842      2843      2838
 -1      1209    8    0    1
 -2       546       547       680      2437      2844      2845
 -1      1210    8    0    1
 -2       546       680       679      2845      2846      2841
 -1      1211    8    0    1
 -2       547       548       681      2440      2847      2848
 -1      1212    8    0    1
 -2       547       681       680      2848      2849      2844
 -1      1213    8    0    1
 -2       548       549       682      2443      2850      2851
 -1      1214    8    0    1
 -2       548       682       681      2851      2852      2847
 -1      1215    8    0    1
 -2       549       550       683      2446      2853      2854
 -1      1216    8    0    1
 -2       549       683       682      2854      2855      2850
 -1      1217    8    0    1
 -2       550       551       684      2449      2856      2857
 -1      1218    8    0    1
 -2       550       684       683      2857      2858      2853
 -1      1219    8    0    1
 -2       551       552       685      2452      2859      2860
 -1      1220    8    0    1
 -2       551       685       684      2860      2861      2856
 -1      1221    8    0    1
 -2       552       553       686      2455      2862      2863
 -1      1222    8    0    1
 -2       552       686       685      2863      2864      2859
 -1      1223    8    0    1
 -2       553       554       687      2458      2865      2866
 -1      1224    8    0    1
 -2       553       687       686      2866      2867      2862
 -1      1225    8    0    1
 -2       554       555       688      2461      2868      2869
 -1      1226    8    0    1
 -2       554       688       687      2869      2870      2865
 -1      1227    8    0    1
 -2       555       556       689      2464      2871      2872
 -1      1228    8    0    1
 -2       555       689       688      2872      2873      2868
 -1      1229    8    0    1
 -2       556       557       690      2467      2874      2875
 -1      1230    8    0    1
 -2       556       690       689      2875      2876      2871
 -1      1231    8    0    1
 -2       557       558       691      2470      2877      2878
 -1      1232    8    0    1
 -2       557       691       690      2878      2879      2874
 -1      1233    8    0    1
 -2       558       559       692      2473      2880      2881
 -1      1234    8    0    1
 -2       558       692       691      2881      2882      2877
 -1      1235    8    0    1
 -2       559       560       693      2476      2883      2884
 -1      1236    8    0    1
 -2       559       693       692      2884      2885      2880
 -1      1237    8    0    1
 -2       560       561       694      2479      2886      2887
 -1      1238    8    0    1
 -2       560       694       693      2887      2888      2883
 -1      1239    8    0    1
 -2       561       562       695      2482      2889      2890
 -1      1240    8    0    1
 -2       561       695       694      2890      2891      2886
 -1      1241    8    0    1
 -2       562       563       696      2485      2892      2893
 -1      1242    8    0    1
 -2       562       696       695      2893      2894      2889
 -1      1243    8    0    1
 -2       563       564       697      2488      2895      2896
 -1      1244    8    0    1
 -2       563       697       696      2896      2897      2892
 -1      1245    8    0    1
 -2       564       565       698      2491      2898      2899
 -1      1246    8    0    1
 -2       697       564       698      2895      2899      2900
 -1      1247    8    0    1
 -2       565       660       698      2787      2901      2898
 -1      1248    8    0    1
 -2       579       609       699      2615      2902      2903
 -1      1249    8    0    1
 -2       571       572       700      2512      2904      2905
 -1      1250    8    0    1
 -2       612       524       701      2645      2906      2907
 -1      1251    8    0    1
 -2       524       658       701      2781      2908      2906
 -1      1252    8    0    1
 -2       567       568       702      2500      2909      2910
 -1      1253    8    0    1
 -2       572       573       703      2515      2911      2912
 -1      1254    8    0    1
 -2       572       703       700      2912      2913      2904
 -1      1255    8    0    1
 -2       568       571       704      2509      2914      2915
 -1      1256    8    0    1
 -2       702       568       704      2909      2915      2916
 -1      1257    8    0    1
 -2       571       700       704      2905      2917      2914
 -1      1258    8    0    1
 -2       573       574       705      2518      2918      2919
 -1      1259    8    0    1
 -2       573       705       703      2919      2920      2911
 -1      1260    8    0    1
 -2       574       575       706      2521      2921      2922
 -1      1261    8    0    1
 -2       574       706       705      2922      2923      2918
 -1      1262    8    0    1
 -2       575       576       707      2524      2924      2925
 -1      1263    8    0    1
 -2       575       707       706      2925      2926      2921
 -1      1264    8    0    1
 -2       480       583       708      2543      2927      2928
 -1      1265    8    0    1
 -2       582       579       709      2540      2929      2930
 -1      1266    8    0    1
 -2       578       582       710      2619      2931      2932
 -1      1267    8    0    1
 -2       581       578       711      2618      2933      2934
 -1      1268    8    0    1
 -2       580       525       712      2534      2935      2936
 -1      1269    8    0    1
 -2       525       661       712      2789      2937      2935
 -1      1270    8    0    1
 -2       527       528       713      2380      2938      2939
 -1      1271    8    0    1
 -2       659       527       713      2783      2939      2940
 -1      1272    8    0    1
 -2       528       662       713      2792      2941      2938
 -1      1273    8    0    1
 -2       482       480       714      2243      2942      2943
 -1      1274    8    0    1
 -2       621       482       714      2665      2943      2944
 -1      1275    8    0    1
 -2       480       708       714      2928      2945      2942
 -1      1276    8    0    1
 -2       475       476       715      2227      2946      2947
 -1      1277    8    0    1
 -2       613       475       715      2646      2947      2948
 -1      1278    8    0    1
 -2       476       615       715      2652      2949      2946
 -1      1279    8    0    1
 -2       479       580       716      2605      2950      2951
 -1      1280    8    0    1
 -2       617       479       716      2656      2951      2952
 -1      1281    8    0    1
 -2       580       712       716      2936      2953      2950
 -1      1282    8    0    1
 -2       587       590       717      2639      2954      2955
 -1      1283    8    0    1
 -2       472       471       718      2216      2956      2957
 -1      1284    8    0    1
 -2       584       581       719      2610      2958      2959
 -1      1285    8    0    1
 -2       606       588       720      2609      2960      2961
 -1      1286    8    0    1
 -2       577       612       701      2642      2907      2962
 -1      1287    8    0    1
 -2       481       607       721      2637      2963      2964
 -1      1288    8    0    1
 -2       590       591       722      2636      2965      2966
 -1      1289    8    0    1
 -2       590       722       717      2966      2967      2954
 -1      1290    8    0    1
 -2       591       592       723      2635      2968      2969
 -1      1291    8    0    1
 -2       592       593       724      2634      2970      2971
 -1      1292    8    0    1
 -2       593       594       725      2633      2972      2973
 -1      1293    8    0    1
 -2       594       595       726      2632      2974      2975
 -1      1294    8    0    1
 -2       595       596       727      2631      2976      2977
 -1      1295    8    0    1
 -2       595       727       726      2977      2978      2974
 -1      1296    8    0    1
 -2       596       597       728      2630      2979      2980
 -1      1297    8    0    1
 -2       583       445       708      2624      2981      2927
 -1      1298    8    0    1
 -2       600       601       729      2621      2982      2983
 -1      1299    8    0    1
 -2       598       599       730      2626      2984      2985
 -1      1300    8    0    1
 -2       599       618       730      2659      2986      2984
 -1      1301    8    0    1
 -2       588       584       731      2638      2987      2988
 -1      1302    8    0    1
 -2       584       719       731      2959      2989      2987
 -1      1303    8    0    1
 -2       609       481       732      2607      2990      2991
 -1      1304    8    0    1
 -2       481       721       732      2964      2992      2990
 -1      1305    8    0    1
 -2       589       587       733      2601      2993      2994
 -1      1306    8    0    1
 -2       503       604       734      2723      2995      2996
 -1      1307    8    0    1
 -2       504       503       734      2309      2996      2997
 -1      1308    8    0    1
 -2       604       605       734      2612      2998      2995
 -1      1309    8    0    1
 -2       610       472       735      2602      2999      3000
 -1      1310    8    0    1
 -2       472       718       735      2957      3001      2999
 -1      1311    8    0    1
 -2       473       614       736      2649      3002      3003
 -1      1312    8    0    1
 -2       473       736       586      3003      3004      2552
 -1      1313    8    0    1
 -2       591       723       722      2969      3005      2965
 -1      1314    8    0    1
 -2       588       731       720      2988      3006      2960
 -1      1315    8    0    1
 -2       478       470       617      2660      2657      3007
 -1      1316    8    0    1
 -2       619       589       733      2661      2994      3008
 -1      1317    8    0    1
 -2       605       620       734      2664      3009      2998
 -1      1318    8    0    1
 -2       501       585       603      2719      2625      2720
 -1      1319    8    0    1
 -2       585       500       638      2718      2716      3010
 -1      1320    8    0    1
 -2       567       702       737      2910      3011      3012
 -1      1321    8    0    1
 -2       567       737       570      3012      3013      2506
 -1      1322    8    0    1
 -2       579       699       709      2903      3014      2929
 -1      1323    8    0    1
 -2       699       609       732      2902      2991      3015
 -1      1324    8    0    1
 -2       569       570       660      2505      3016      2785
 -1      1325    8    0    1
 -2       600       729       618      2983      3017      2658
 -1      1326    8    0    1
 -2       576       577       701      2527      2962      3018
 -1      1327    8    0    1
 -2       727       596       728      2976      2980      3019
 -1      1328    8    0    1
 -2       616       478       617      2653      3007      3020
 -1      1329    8    0    1
 -2       582       709       710      2930      3021      2931
 -1      1330    8    0    1
 -2       725       594       726      2972      2975      3022
 -1      1331    8    0    1
 -2       724       593       725      2970      2973      3023
 -1      1332    8    0    1
 -2       578       710       711      2932      3024      2933
 -1      1333    8    0    1
 -2       581       711       719      2934      3025      2958
 -1      1334    8    0    1
 -2       601       602       638      2620      3026      3027
 -1      1335    8    0    1
 -2       587       717       733      2955      3028      2993
 -1      1336    8    0    1
 -2       611       598       738      2629      3029      3030
 -1      1337    8    0    1
 -2       598       730       738      2985      3031      3029
 -1      1338    8    0    1
 -2       471       586       739      2551      3032      3033
 -1      1339    8    0    1
 -2       718       471       739      2956      3033      3034
 -1      1340    8    0    1
 -2       586       736       739      3004      3035      3032
 -1      1341    8    0    1
 -2       639       504       734      2724      2997      3036
 -1      1342    8    0    1
 -2       604       502       603      2722      2721      2613
 -1      1343    8    0    1
 -2       445       610       708      2604      3037      2981
 -1      1344    8    0    1
 -2       620       606       720      2663      2961      3038
 -1      1345    8    0    1
 -2       721       607       740      2963      3039      3040
 -1      1346    8    0    1
 -2       607       619       740      2662      3041      3039
 -1      1347    8    0    1
 -2       723       592       724      2968      2971      3042
 -1      1348    8    0    1
 -2       728       597       741      2979      3043      3044
 -1      1349    8    0    1
 -2       597       611       741      2628      3045      3043
 -1      1350    8    0    1
 -2       576       701       742      3018      3046      3047
 -1      1351    8    0    1
 -2       707       576       742      2924      3047      3048
 -1      1352    8    0    1
 -2       701       658       742      2908      3049      3046
 -1      1353    8    0    1
 -2       619       733       743      3008      3050      3051
 -1      1354    8    0    1
 -2       615       616       744      2655      3052      3053
 -1      1355    8    0    1
 -2       623       622       745      2672      3054      3055
 -1      1356    8    0    1
 -2       624       623       746      2675      3056      3057
 -1      1357    8    0    1
 -2       623       745       746      3055      3058      3056
 -1      1358    8    0    1
 -2       625       624       747      2678      3059      3060
 -1      1359    8    0    1
 -2       624       746       747      3057      3061      3059
 -1      1360    8    0    1
 -2       626       625       748      2681      3062      3063
 -1      1361    8    0    1
 -2       625       747       748      3060      3064      3062
 -1      1362    8    0    1
 -2       627       626       749      2684      3065      3066
 -1      1363    8    0    1
 -2       626       748       749      3063      3067      3065
 -1      1364    8    0    1
 -2       628       627       750      2687      3068      3069
 -1      1365    8    0    1
 -2       627       749       750      3066      3070      3068
 -1      1366    8    0    1
 -2       629       628       751      2690      3071      3072
 -1      1367    8    0    1
 -2       628       750       751      3069      3073      3071
 -1      1368    8    0    1
 -2       630       629       752      2693      3074      3075
 -1      1369    8    0    1
 -2       629       751       752      3072      3076      3074
 -1      1370    8    0    1
 -2       631       630       753      2696      3077      3078
 -1      1371    8    0    1
 -2       630       752       753      3075      3079      3077
 -1      1372    8    0    1
 -2       632       631       754      2699      3080      3081
 -1      1373    8    0    1
 -2       631       753       754      3078      3082      3080
 -1      1374    8    0    1
 -2       633       632       755      2702      3083      3084
 -1      1375    8    0    1
 -2       632       754       755      3081      3085      3083
 -1      1376    8    0    1
 -2       634       633       756      2705      3086      3087
 -1      1377    8    0    1
 -2       633       755       756      3084      3088      3086
 -1      1378    8    0    1
 -2       635       634       757      2708      3089      3090
 -1      1379    8    0    1
 -2       634       756       757      3087      3091      3089
 -1      1380    8    0    1
 -2       636       635       758      2711      3092      3093
 -1      1381    8    0    1
 -2       635       757       758      3090      3094      3092
 -1      1382    8    0    1
 -2       637       636       759      2714      3095      3096
 -1      1383    8    0    1
 -2       641       640       760      2731      3097      3098
 -1      1384    8    0    1
 -2       642       641       761      2734      3099      3100
 -1      1385    8    0    1
 -2       641       760       761      3098      3101      3099
 -1      1386    8    0    1
 -2       643       642       762      2737      3102      3103
 -1      1387    8    0    1
 -2       642       761       762      3100      3104      3102
 -1      1388    8    0    1
 -2       644       643       763      2740      3105      3106
 -1      1389    8    0    1
 -2       643       762       763      3103      3107      3105
 -1      1390    8    0    1
 -2       645       644       764      2743      3108      3109
 -1      1391    8    0    1
 -2       644       763       764      3106      3110      3108
 -1      1392    8    0    1
 -2       646       645       765      2746      3111      3112
 -1      1393    8    0    1
 -2       645       764       765      3109      3113      3111
 -1      1394    8    0    1
 -2       647       646       766      2749      3114      3115
 -1      1395    8    0    1
 -2       646       765       766      3112      3116      3114
 -1      1396    8    0    1
 -2       648       647       767      2752      3117      3118
 -1      1397    8    0    1
 -2       647       766       767      3115      3119      3117
 -1      1398    8    0    1
 -2       649       648       768      2755      3120      3121
 -1      1399    8    0    1
 -2       648       767       768      3118      3122      3120
 -1      1400    8    0    1
 -2       650       649       769      2758      3123      3124
 -1      1401    8    0    1
 -2       649       768       769      3121      3125      3123
 -1      1402    8    0    1
 -2       651       650       770      2761      3126      3127
 -1      1403    8    0    1
 -2       650       769       770      3124      3128      3126
 -1      1404    8    0    1
 -2       652       651       771      2764      3129      3130
 -1      1405    8    0    1
 -2       651       770       771      3127      3131      3129
 -1      1406    8    0    1
 -2       653       652       772      2767      3132      3133
 -1      1407    8    0    1
 -2       652       771       772      3130      3134      3132
 -1      1408    8    0    1
 -2       654       653       773      2770      3135      3136
 -1      1409    8    0    1
 -2       653       772       773      3133      3137      3135
 -1      1410    8    0    1
 -2       655       654       774      2773      3138      3139
 -1      1411    8    0    1
 -2       654       773       774      3136      3140      3138
 -1      1412    8    0    1
 -2       656       655       775      2776      3141      3142
 -1      1413    8    0    1
 -2       655       774       775      3139      3143      3141
 -1      1414    8    0    1
 -2       657       656       776      2779      3144      3145
 -1      1415    8    0    1
 -2       656       775       776      3142      3146      3144
 -1      1416    8    0    1
 -2       658       657       777      2782      3147      3148
 -1      1417    8    0    1
 -2       742       658       777      3049      3148      3149
 -1      1418    8    0    1
 -2       657       776       777      3145      3150      3147
 -1      1419    8    0    1
 -2       661       659       778      2790      3151      3152
 -1      1420    8    0    1
 -2       663       664       779      2798      3153      3154
 -1      1421    8    0    1
 -2       662       663       780      2795      3155      3156
 -1      1422    8    0    1
 -2       663       779       780      3154      3157      3155
 -1      1423    8    0    1
 -2       665       666       781      2804      3158      3159
 -1      1424    8    0    1
 -2       666       667       782      2807      3160      3161
 -1      1425    8    0    1
 -2       666       782       781      3161      3162      3158
 -1      1426    8    0    1
 -2       667       668       783      2810      3163      3164
 -1      1427    8    0    1
 -2       667       783       782      3164      3165      3160
 -1      1428    8    0    1
 -2       668       669       784      2813      3166      3167
 -1      1429    8    0    1
 -2       668       784       783      3167      3168      3163
 -1      1430    8    0    1
 -2       669       670       785      2816      3169      3170
 -1      1431    8    0    1
 -2       669       785       784      3170      3171      3166
 -1      1432    8    0    1
 -2       670       671       786      2819      3172      3173
 -1      1433    8    0    1
 -2       670       786       785      3173      3174      3169
 -1      1434    8    0    1
 -2       671       672       787      2822      3175      3176
 -1      1435    8    0    1
 -2       671       787       786      3176      3177      3172
 -1      1436    8    0    1
 -2       672       673       788      2825      3178      3179
 -1      1437    8    0    1
 -2       672       788       787      3179      3180      3175
 -1      1438    8    0    1
 -2       673       674       789      2828      3181      3182
 -1      1439    8    0    1
 -2       673       789       788      3182      3183      3178
 -1      1440    8    0    1
 -2       675       676       790      2834      3184      3185
 -1      1441    8    0    1
 -2       676       677       743      2837      3186      3187
 -1      1442    8    0    1
 -2       677       678       740      2840      3188      3189
 -1      1443    8    0    1
 -2       679       680       791      2846      3190      3191
 -1      1444    8    0    1
 -2       680       681       792      2849      3192      3193
 -1      1445    8    0    1
 -2       680       792       791      3193      3194      3190
 -1      1446    8    0    1
 -2       681       682       793      2852      3195      3196
 -1      1447    8    0    1
 -2       681       793       792      3196      3197      3192
 -1      1448    8    0    1
 -2       682       683       794      2855      3198      3199
 -1      1449    8    0    1
 -2       682       794       793      3199      3200      3195
 -1      1450    8    0    1
 -2       683       684       795      2858      3201      3202
 -1      1451    8    0    1
 -2       683       795       794      3202      3203      3198
 -1      1452    8    0    1
 -2       684       685       796      2861      3204      3205
 -1      1453    8    0    1
 -2       684       796       795      3205      3206      3201
 -1      1454    8    0    1
 -2       685       686       797      2864      3207      3208
 -1      1455    8    0    1
 -2       685       797       796      3208      3209      3204
 -1      1456    8    0    1
 -2       686       687       798      2867      3210      3211
 -1      1457    8    0    1
 -2       686       798       797      3211      3212      3207
 -1      1458    8    0    1
 -2       687       688       799      2870      3213      3214
 -1      1459    8    0    1
 -2       687       799       798      3214      3215      3210
 -1      1460    8    0    1
 -2       688       689       800      2873      3216      3217
 -1      1461    8    0    1
 -2       688       800       799      3217      3218      3213
 -1      1462    8    0    1
 -2       689       690       801      2876      3219      3220
 -1      1463    8    0    1
 -2       689       801       800      3220      3221      3216
 -1      1464    8    0    1
 -2       690       691       802      2879      3222      3223
 -1      1465    8    0    1
 -2       690       802       801      3223      3224      3219
 -1      1466    8    0    1
 -2       691       692       803      2882      3225      3226
 -1      1467    8    0    1
 -2       691       803       802      3226      3227      3222
 -1      1468    8    0    1
 -2       692       693       804      2885      3228      3229
 -1      1469    8    0    1
 -2       692       804       803      3229      3230      3225
 -1      1470    8    0    1
 -2       693       694       805      2888      3231      3232
 -1      1471    8    0    1
 -2       693       805       804      3232      3233      3228
 -1      1472    8    0    1
 -2       694       695       806      2891      3234      3235
 -1      1473    8    0    1
 -2       694       806       805      3235      3236      3231
 -1      1474    8    0    1
 -2       695       696       807      2894      3237      3238
 -1      1475    8    0    1
 -2       695       807       806      3238      3239      3234
 -1      1476    8    0    1
 -2       696       697       808      2897      3240      3241
 -1      1477    8    0    1
 -2       696       808       807      3241      3242      3237
 -1      1478    8    0    1
 -2       703       705       809      2920      3243      3244
 -1      1479    8    0    1
 -2       734       620       639      3009      3245      3036
 -1      1480    8    0    1
 -2       706       707       810      2926      3246      3247
 -1      1481    8    0    1
 -2       700       703       811      2913      3248      3249
 -1      1482    8    0    1
 -2       703       809       811      3244      3250      3248
 -1      1483    8    0    1
 -2       699       732       812      3015      3251      3252
 -1      1484    8    0    1
 -2       730       618       813      2986      3253      3254
 -1      1485    8    0    1
 -2       616       617       814      3020      3255      3256
 -1      1486    8    0    1
 -2       744       616       814      3052      3256      3257
 -1      1487    8    0    1
 -2       617       716       814      2952      3258      3255
 -1      1488    8    0    1
 -2       712       661       815      2937      3259      3260
 -1      1489    8    0    1
 -2       661       778       815      3152      3261      3259
 -1      1490    8    0    1
 -2       719       711       816      3025      3262      3263
 -1      1491    8    0    1
 -2       733       717       790      3028      3264      3265
 -1      1492    8    0    1
 -2       725       726       817      3022      3266      3267
 -1      1493    8    0    1
 -2       705       706       818      2923      3268      3269
 -1      1494    8    0    1
 -2       809       705       818      3243      3269      3270
 -1      1495    8    0    1
 -2       706       810       818      3247      3271      3268
 -1      1496    8    0    1
 -2       664       665       819      2801      3272      3273
 -1      1497    8    0    1
 -2       779       664       819      3153      3273      3274
 -1      1498    8    0    1
 -2       665       781       819      3159      3275      3272
 -1      1499    8    0    1
 -2       618       729       759      3017      3276      3277
 -1      1500    8    0    1
 -2       640       639       820      2728      3278      3279
 -1      1501    8    0    1
 -2       760       640       820      3097      3279      3280
 -1      1502    8    0    1
 -2       639       620       820      3245      3281      3278
 -1      1503    8    0    1
 -2       585       638       602      3010      3026      2617
 -1      1504    8    0    1
 -2       622       621       821      2669      3282      3283
 -1      1505    8    0    1
 -2       622       821       745      3283      3284      3054
 -1      1506    8    0    1
 -2       722       723       789      3005      3285      3286
 -1      1507    8    0    1
 -2       709       699       822      3014      3287      3288
 -1      1508    8    0    1
 -2       720       731       823      3006      3289      3290
 -1      1509    8    0    1
 -2       710       709       824      3021      3291      3292
 -1      1510    8    0    1
 -2       660       570       737      3016      3013      3293
 -1      1511    8    0    1
 -2       727       728       825      3019      3294      3295
 -1      1512    8    0    1
 -2       717       722       826      2967      3296      3297
 -1      1513    8    0    1
 -2       717       826       790      3297      3298      3264
 -1      1514    8    0    1
 -2       711       710       827      3024      3299      3300
 -1      1515    8    0    1
 -2       724       725       828      3023      3301      3302
 -1      1516    8    0    1
 -2       726       727       829      2978      3303      3304
 -1      1517    8    0    1
 -2       726       829       817      3304      3305      3266
 -1      1518    8    0    1
 -2       620       720       820      3038      3306      3281
 -1      1519    8    0    1
 -2       723       724       830      3042      3307      3308
 -1      1520    8    0    1
 -2       731       719       831      2989      3309      3310
 -1      1521    8    0    1
 -2       708       610       735      3037      3000      3311
 -1      1522    8    0    1
 -2       614       613       832      2650      3312      3313
 -1      1523    8    0    1
 -2       732       721       833      2992      3314      3315
 -1      1524    8    0    1
 -2       812       732       833      3251      3315      3316
 -1      1525    8    0    1
 -2       721       740       833      3040      3317      3314
 -1      1526    8    0    1
 -2       736       614       834      3002      3318      3319
 -1      1527    8    0    1
 -2       614       832       834      3313      3320      3318
 -1      1528    8    0    1
 -2       615       744       835      3053      3321      3322
 -1      1529    8    0    1
 -2       615       835       715      3322      3323      2949
 -1      1530    8    0    1
 -2       637       759       729      3096      3276      3324
 -1      1531    8    0    1
 -2       727       825       829      3295      3325      3303
 -1      1532    8    0    1
 -2       636       758       759      3093      3326      3095
 -1      1533    8    0    1
 -2       719       816       831      3263      3327      3309
 -1      1534    8    0    1
 -2       737       702       836      3011      3328      3329
 -1      1535    8    0    1
 -2       824       709       822      3291      3288      3330
 -1      1536    8    0    1
 -2       621       714       837      2944      3331      3332
 -1      1537    8    0    1
 -2       621       837       821      3332      3333      3282
 -1      1538    8    0    1
 -2       735       718       838      3001      3334      3335
 -1      1539    8    0    1
 -2       714       708       735      2945      3311      3336
 -1      1540    8    0    1
 -2       618       759       758      3277      3326      3337
 -1      1541    8    0    1
 -2       662       780       839      3156      3338      3339
 -1      1542    8    0    1
 -2       662       839       713      3339      3340      2941
 -1      1543    8    0    1
 -2       675       790       826      3185      3298      3341
 -1      1544    8    0    1
 -2       790       676       743      3184      3187      3342
 -1      1545    8    0    1
 -2       674       675       826      2831      3341      3343
 -1      1546    8    0    1
 -2       674       826       789      3343      3344      3181
 -1      1547    8    0    1
 -2       678       679       840      2843      3345      3346
 -1      1548    8    0    1
 -2       699       812       841      3252      3347      3348
 -1      1549    8    0    1
 -2       699       841       822      3348      3349      3287
 -1      1550    8    0    1
 -2       808       697       842      3240      3350      3351
 -1      1551    8    0    1
 -2       697       698       842      2900      3352      3350
 -1      1552    8    0    1
 -2       702       704       843      2916      3353      3354
 -1      1553    8    0    1
 -2       702       843       836      3354      3355      3328
 -1      1554    8    0    1
 -2       659       713       844      2940      3356      3357
 -1      1555    8    0    1
 -2       713       839       844      3340      3358      3356
 -1      1556    8    0    1
 -2       823       731       831      3289      3310      3359
 -1      1557    8    0    1
 -2       704       700       845      2917      3360      3361
 -1      1558    8    0    1
 -2       843       704       845      3353      3361      3362
 -1      1559    8    0    1
 -2       700       811       845      3249      3363      3360
 -1      1560    8    0    1
 -2       730       813       738      3254      3364      3031
 -1      1561    8    0    1
 -2       613       715       846      2948      3365      3366
 -1      1562    8    0    1
 -2       832       613       846      3312      3366      3367
 -1      1563    8    0    1
 -2       715       835       846      3323      3368      3365
 -1      1564    8    0    1
 -2       820       720       823      3306      3290      3369
 -1      1565    8    0    1
 -2       711       827       816      3300      3370      3262
 -1      1566    8    0    1
 -2       733       790       743      3265      3342      3050
 -1      1567    8    0    1
 -2       725       817       828      3267      3371      3301
 -1      1568    8    0    1
 -2       723       830       789      3308      3372      3285
 -1      1569    8    0    1
 -2       826       722       789      3296      3286      3344
 -1      1570    8    0    1
 -2       710       824       827      3292      3373      3299
 -1      1571    8    0    1
 -2       660       737       847      3293      3374      3375
 -1      1572    8    0    1
 -2       698       660       847      2901      3375      3376
 -1      1573    8    0    1
 -2       737       836       847      3329      3377      3374
 -1      1574    8    0    1
 -2       637       729       638      3324      3378      2717
 -1      1575    8    0    1
 -2       638       729       601      3378      2982      3027
 -1      1576    8    0    1
 -2       659       844       778      3357      3379      3151
 -1      1577    8    0    1
 -2       838       718       848      3334      3380      3381
 -1      1578    8    0    1
 -2       718       739       848      3034      3382      3380
 -1      1579    8    0    1
 -2       840       679       791      3345      3191      3383
 -1      1580    8    0    1
 -2       825       728       849      3294      3384      3385
 -1      1581    8    0    1
 -2       728       741       849      3044      3386      3384
 -1      1582    8    0    1
 -2       716       712       850      2953      3387      3388
 -1      1583    8    0    1
 -2       814       716       850      3258      3388      3389
 -1      1584    8    0    1
 -2       712       815       850      3260      3390      3387
 -1      1585    8    0    1
 -2       741       611       851      3045      3391      3392
 -1      1586    8    0    1
 -2       611       738       851      3030      3393      3391
 -1      1587    8    0    1
 -2       724       828       830      3302      3394      3307
 -1      1588    8    0    1
 -2       707       742       852      3048      3395      3396
 -1      1589    8    0    1
 -2       810       707       852      3246      3396      3397
 -1      1590    8    0    1
 -2       742       777       852      3149      3398      3395
 -1      1591    8    0    1
 -2       747       746       853      3061      3399      3400
 -1      1592    8    0    1
 -2       748       747       854      3064      3401      3402
 -1      1593    8    0    1
 -2       747       853       854      3400      3403      3401
 -1      1594    8    0    1
 -2       749       748       855      3067      3404      3405
 -1      1595    8    0    1
 -2       748       854       855      3402      3406      3404
 -1      1596    8    0    1
 -2       750       749       856      3070      3407      3408
 -1      1597    8    0    1
 -2       749       855       856      3405      3409      3407
 -1      1598    8    0    1
 -2       751       750       857      3073      3410      3411
 -1      1599    8    0    1
 -2       750       856       857      3408      3412      3410
 -1      1600    8    0    1
 -2       752       751       858      3076      3413      3414
 -1      1601    8    0    1
 -2       751       857       858      3411      3415      3413
 -1      1602    8    0    1
 -2       753       752       859      3079      3416      3417
 -1      1603    8    0    1
 -2       752       858       859      3414      3418      3416
 -1      1604    8    0    1
 -2       754       753       860      3082      3419      3420
 -1      1605    8    0    1
 -2       753       859       860      3417      3421      3419
 -1      1606    8    0    1
 -2       755       754       861      3085      3422      3423
 -1      1607    8    0    1
 -2       754       860       861      3420      3424      3422
 -1      1608    8    0    1
 -2       756       755       862      3088      3425      3426
 -1      1609    8    0    1
 -2       755       861       862      3423      3427      3425
 -1      1610    8    0    1
 -2       757       756       863      3091      3428      3429
 -1      1611    8    0    1
 -2       756       862       863      3426      3430      3428
 -1      1612    8    0    1
 -2       831       816       864      3327      3431      3432
 -1      1613    8    0    1
 -2       824       822       865      3330      3433      3434
 -1      1614    8    0    1
 -2       714       735       837      3336      3435      3331
 -1      1615    8    0    1
 -2       762       761       866      3104      3436      3437
 -1      1616    8    0    1
 -2       763       762       867      3107      3438      3439
 -1      1617    8    0    1
 -2       762       866       867      3437      3440      3438
 -1      1618    8    0    1
 -2       764       763       868      3110      3441      3442
 -1      1619    8    0    1
 -2       763       867       868      3439      3443      3441
 -1      1620    8    0    1
 -2       765       764       869      3113      3444      3445
 -1      1621    8    0    1
 -2       764       868       869      3442      3446      3444
 -1      1622    8    0    1
 -2       766       765       870      3116      3447      3448
 -1      1623    8    0    1
 -2       765       869       870      3445      3449      3447
 -1      1624    8    0    1
 -2       767       766       871      3119      3450      3451
 -1      1625    8    0    1
 -2       766       870       871      3448      3452      3450
 -1      1626    8    0    1
 -2       768       767       872      3122      3453      3454
 -1      1627    8    0    1
 -2       767       871       872      3451      3455      3453
 -1      1628    8    0    1
 -2       769       768       873      3125      3456      3457
 -1      1629    8    0    1
 -2       768       872       873      3454      3458      3456
 -1      1630    8    0    1
 -2       770       769       874      3128      3459      3460
 -1      1631    8    0    1
 -2       769       873       874      3457      3461      3459
 -1      1632    8    0    1
 -2       771       770       875      3131      3462      3463
 -1      1633    8    0    1
 -2       770       874       875      3460      3464      3462
 -1      1634    8    0    1
 -2       772       771       876      3134      3465      3466
 -1      1635    8    0    1
 -2       771       875       876      3463      3467      3465
 -1      1636    8    0    1
 -2       773       772       877      3137      3468      3469
 -1      1637    8    0    1
 -2       772       876       877      3466      3470      3468
 -1      1638    8    0    1
 -2       774       773       878      3140      3471      3472
 -1      1639    8    0    1
 -2       773       877       878      3469      3473      3471
 -1      1640    8    0    1
 -2       775       774       879      3143      3474      3475
 -1      1641    8    0    1
 -2       774       878       879      3472      3476      3474
 -1      1642    8    0    1
 -2       776       775       880      3146      3477      3478
 -1      1643    8    0    1
 -2       775       879       880      3475      3479      3477
 -1      1644    8    0    1
 -2       829       825       881      3325      3480      3481
 -1      1645    8    0    1
 -2       782       783       882      3165      3482      3483
 -1      1646    8    0    1
 -2       781       782       883      3162      3484      3485
 -1      1647    8    0    1
 -2       782       882       883      3483      3486      3484
 -1      1648    8    0    1
 -2       784       785       884      3171      3487      3488
 -1      1649    8    0    1
 -2       785       786       885      3174      3489      3490
 -1      1650    8    0    1
 -2       785       885       884      3490      3491      3487
 -1      1651    8    0    1
 -2       786       787       886      3177      3492      3493
 -1      1652    8    0    1
 -2       786       886       885      3493      3494      3489
 -1      1653    8    0    1
 -2       788       789       830      3183      3372      3495
 -1      1654    8    0    1
 -2       678       840       740      3346      3496      3188
 -1      1655    8    0    1
 -2       677       740       743      3189      3497      3186
 -1      1656    8    0    1
 -2       791       792       841      3194      3498      3499
 -1      1657    8    0    1
 -2       794       795       887      3203      3500      3501
 -1      1658    8    0    1
 -2       795       796       888      3206      3502      3503
 -1      1659    8    0    1
 -2       795       888       887      3503      3504      3500
 -1      1660    8    0    1
 -2       796       797       889      3209      3505      3506
 -1      1661    8    0    1
 -2       796       889       888      3506      3507      3502
 -1      1662    8    0    1
 -2       797       798       890      3212      3508      3509
 -1      1663    8    0    1
 -2       797       890       889      3509      3510      3505
 -1      1664    8    0    1
 -2       798       799       891      3215      3511      3512
 -1      1665    8    0    1
 -2       798       891       890      3512      3513      3508
 -1      1666    8    0    1
 -2       799       800       892      3218      3514      3515
 -1      1667    8    0    1
 -2       799       892       891      3515      3516      3511
 -1      1668    8    0    1
 -2       800       801       893      3221      3517      3518
 -1      1669    8    0    1
 -2       800       893       892      3518      3519      3514
 -1      1670    8    0    1
 -2       801       802       894      3224      3520      3521
 -1      1671    8    0    1
 -2       801       894       893      3521      3522      3517
 -1      1672    8    0    1
 -2       802       803       895      3227      3523      3524
 -1      1673    8    0    1
 -2       802       895       894      3524      3525      3520
 -1      1674    8    0    1
 -2       803       804       896      3230      3526      3527
 -1      1675    8    0    1
 -2       803       896       895      3527      3528      3523
 -1      1676    8    0    1
 -2       804       805       897      3233      3529      3530
 -1      1677    8    0    1
 -2       804       897       896      3530      3531      3526
 -1      1678    8    0    1
 -2       805       806       898      3236      3532      3533
 -1      1679    8    0    1
 -2       805       898       897      3533      3534      3529
 -1      1680    8    0    1
 -2       806       807       899      3239      3535      3536
 -1      1681    8    0    1
 -2       806       899       898      3536      3537      3532
 -1      1682    8    0    1
 -2       807       808       900      3242      3538      3539
 -1      1683    8    0    1
 -2       807       900       899      3539      3540      3535
 -1      1684    8    0    1
 -2       738       813       901      3364      3541      3542
 -1      1685    8    0    1
 -2       828       817       902      3371      3543      3544
 -1      1686    8    0    1
 -2       823       831       903      3359      3545      3546
 -1      1687    8    0    1
 -2       831       864       903      3432      3547      3545
 -1      1688    8    0    1
 -2       811       809       904      3250      3548      3549
 -1      1689    8    0    1
 -2       793       794       905      3200      3550      3551
 -1      1690    8    0    1
 -2       794       887       905      3501      3552      3550
 -1      1691    8    0    1
 -2       792       793       906      3197      3553      3554
 -1      1692    8    0    1
 -2       841       792       906      3498      3554      3555
 -1      1693    8    0    1
 -2       793       905       906      3551      3556      3553
 -1      1694    8    0    1
 -2       735       838       837      3335      3557      3435
 -1      1695    8    0    1
 -2       740       840       833      3496      3558      3317
 -1      1696    8    0    1
 -2       739       736       907      3035      3559      3560
 -1      1697    8    0    1
 -2       739       907       848      3560      3561      3382
 -1      1698    8    0    1
 -2       619       743       740      3051      3497      3041
 -1      1699    8    0    1
 -2       760       820       823      3280      3369      3562
 -1      1700    8    0    1
 -2       783       784       908      3168      3563      3564
 -1      1701    8    0    1
 -2       882       783       908      3482      3564      3565
 -1      1702    8    0    1
 -2       784       884       908      3488      3566      3563
 -1      1703    8    0    1
 -2       761       760       903      3101      3567      3568
 -1      1704    8    0    1
 -2       746       745       909      3058      3569      3570
 -1      1705    8    0    1
 -2       746       909       853      3570      3571      3399
 -1      1706    8    0    1
 -2       827       824       910      3373      3572      3573
 -1      1707    8    0    1
 -2       816       827       911      3370      3574      3575
 -1      1708    8    0    1
 -2       778       844       912      3379      3576      3577
 -1      1709    8    0    1
 -2       760       823       903      3562      3546      3567
 -1      1710    8    0    1
 -2       817       829       913      3305      3578      3579
 -1      1711    8    0    1
 -2       902       817       913      3543      3579      3580
 -1      1712    8    0    1
 -2       829       881       913      3481      3581      3578
 -1      1713    8    0    1
 -2       788       830       914      3495      3582      3583
 -1      1714    8    0    1
 -2       787       788       914      3180      3583      3584
 -1      1715    8    0    1
 -2       830       828       914      3394      3585      3582
 -1      1716    8    0    1
 -2       840       791       833      3383      3586      3558
 -1      1717    8    0    1
 -2       745       821       915      3284      3587      3588
 -1      1718    8    0    1
 -2       745       915       909      3588      3589      3569
 -1      1719    8    0    1
 -2       815       778       916      3261      3590      3591
 -1      1720    8    0    1
 -2       778       912       916      3577      3592      3590
 -1      1721    8    0    1
 -2       780       779       917      3157      3593      3594
 -1      1722    8    0    1
 -2       835       744       918      3321      3595      3596
 -1      1723    8    0    1
 -2       741       851       919      3392      3597      3598
 -1      1724    8    0    1
 -2       741       919       849      3598      3599      3386
 -1      1725    8    0    1
 -2       811       904       920      3549      3600      3601
 -1      1726    8    0    1
 -2       811       920       845      3601      3602      3363
 -1      1727    8    0    1
 -2       864       816       911      3431      3575      3603
 -1      1728    8    0    1
 -2       758       757       901      3094      3604      3605
 -1      1729    8    0    1
 -2       824       865       910      3434      3606      3572
 -1      1730    8    0    1
 -2       866       761       903      3436      3568      3607
 -1      1731    8    0    1
 -2       757       863       901      3429      3608      3604
 -1      1732    8    0    1
 -2       787       914       886      3584      3609      3492
 -1      1733    8    0    1
 -2       881       825       921      3480      3610      3611
 -1      1734    8    0    1
 -2       825       849       921      3385      3612      3610
 -1      1735    8    0    1
 -2       777       776       922      3150      3613      3614
 -1      1736    8    0    1
 -2       852       777       922      3398      3614      3615
 -1      1737    8    0    1
 -2       776       880       922      3478      3616      3613
 -1      1738    8    0    1
 -2       839       780       923      3338      3617      3618
 -1      1739    8    0    1
 -2       780       917       923      3594      3619      3617
 -1      1740    8    0    1
 -2       781       883       924      3485      3620      3621
 -1      1741    8    0    1
 -2       781       924       819      3621      3622      3275
 -1      1742    8    0    1
 -2       914       828       925      3585      3623      3624
 -1      1743    8    0    1
 -2       886       914       925      3609      3624      3625
 -1      1744    8    0    1
 -2       828       902       925      3544      3626      3623
 -1      1745    8    0    1
 -2       822       841       926      3349      3627      3628
 -1      1746    8    0    1
 -2       865       822       926      3433      3628      3629
 -1      1747    8    0    1
 -2       841       906       926      3555      3630      3627
 -1      1748    8    0    1
 -2       738       901       851      3542      3631      3393
 -1      1749    8    0    1
 -2       900       808       927      3538      3632      3633
 -1      1750    8    0    1
 -2       808       842       927      3351      3634      3632
 -1      1751    8    0    1
 -2       842       698       847      3352      3376      3635
 -1      1752    8    0    1
 -2       836       843       928      3355      3636      3637
 -1      1753    8    0    1
 -2       844       839       929      3358      3638      3639
 -1      1754    8    0    1
 -2       839       923       929      3618      3640      3638
 -1      1755    8    0    1
 -2       827       910       930      3573      3641      3642
 -1      1756    8    0    1
 -2       827       930       911      3642      3643      3574
 -1      1757    8    0    1
 -2       834       832       931      3320      3644      3645
 -1      1758    8    0    1
 -2       744       814       932      3257      3646      3647
 -1      1759    8    0    1
 -2       918       744       932      3595      3647      3648
 -1      1760    8    0    1
 -2       814       850       932      3389      3649      3646
 -1      1761    8    0    1
 -2       904       809       933      3548      3650      3651
 -1      1762    8    0    1
 -2       809       818       933      3270      3652      3650
 -1      1763    8    0    1
 -2       813       618       758      3253      3337      3653
 -1      1764    8    0    1
 -2       837       838       934      3557      3654      3655
 -1      1765    8    0    1
 -2       837       934       821      3655      3656      3333
 -1      1766    8    0    1
 -2       813       758       901      3653      3605      3541
 -1      1767    8    0    1
 -2       844       929       912      3639      3657      3576
 -1      1768    8    0    1
 -2       931       832       935      3644      3658      3659
 -1      1769    8    0    1
 -2       832       846       935      3367      3660      3658
 -1      1770    8    0    1
 -2       934       838       936      3654      3661      3662
 -1      1771    8    0    1
 -2       838       848       936      3381      3663      3661
 -1      1772    8    0    1
 -2       907       736       834      3559      3319      3664
 -1      1773    8    0    1
 -2       815       916       937      3591      3665      3666
 -1      1774    8    0    1
 -2       779       819       938      3274      3667      3668
 -1      1775    8    0    1
 -2       917       779       938      3593      3668      3669
 -1      1776    8    0    1
 -2       819       924       938      3622      3670      3667
 -1      1777    8    0    1
 -2       850       815       937      3390      3666      3671
 -1      1778    8    0    1
 -2       836       928       927      3637      3672      3673
 -1      1779    8    0    1
 -2       810       852       922      3397      3615      3674
 -1      1780    8    0    1
 -2       915       821       934      3587      3656      3675
 -1      1781    8    0    1
 -2       810       922       939      3674      3676      3677
 -1      1782    8    0    1
 -2       818       810       939      3271      3677      3678
 -1      1783    8    0    1
 -2       922       880       939      3616      3679      3676
 -1      1784    8    0    1
 -2       855       854       940      3406      3680      3681
 -1      1785    8    0    1
 -2       856       855       941      3409      3682      3683
 -1      1786    8    0    1
 -2       855       940       941      3681      3684      3682
 -1      1787    8    0    1
 -2       857       856       942      3412      3685      3686
 -1      1788    8    0    1
 -2       856       941       942      3683      3687      3685
 -1      1789    8    0    1
 -2       858       857       943      3415      3688      3689
 -1      1790    8    0    1
 -2       857       942       943      3686      3690      3688
 -1      1791    8    0    1
 -2       859       858       944      3418      3691      3692
 -1      1792    8    0    1
 -2       858       943       944      3689      3693      3691
 -1      1793    8    0    1
 -2       860       859       945      3421      3694      3695
 -1      1794    8    0    1
 -2       859       944       945      3692      3696      3694
 -1      1795    8    0    1
 -2       861       860       946      3424      3697      3698
 -1      1796    8    0    1
 -2       860       945       946      3695      3699      3697
 -1      1797    8    0    1
 -2       862       861       947      3427      3700      3701
 -1      1798    8    0    1
 -2       861       946       947      3698      3702      3700
 -1      1799    8    0    1
 -2       863       862       948      3430      3703      3704
 -1      1800    8    0    1
 -2       862       947       948      3701      3705      3703
 -1      1801    8    0    1
 -2       910       865       949      3606      3706      3707
 -1      1802    8    0    1
 -2       903       864       950      3547      3708      3709
 -1      1803    8    0    1
 -2       866       903       950      3607      3709      3710
 -1      1804    8    0    1
 -2       864       911       950      3603      3711      3708
 -1      1805    8    0    1
 -2       909       915       951      3589      3712      3713
 -1      1806    8    0    1
 -2       868       867       952      3443      3714      3715
 -1      1807    8    0    1
 -2       869       868       953      3446      3716      3717
 -1      1808    8    0    1
 -2       868       952       953      3715      3718      3716
 -1      1809    8    0    1
 -2       870       869       954      3449      3719      3720
 -1      1810    8    0    1
 -2       869       953       954      3717      3721      3719
 -1      1811    8    0    1
 -2       871       870       955      3452      3722      3723
 -1      1812    8    0    1
 -2       870       954       955      3720      3724      3722
 -1      1813    8    0    1
 -2       872       871       956      3455      3725      3726
 -1      1814    8    0    1
 -2       871       955       956      3723      3727      3725
 -1      1815    8    0    1
 -2       873       872       957      3458      3728      3729
 -1      1816    8    0    1
 -2       872       956       957      3726      3730      3728
 -1      1817    8    0    1
 -2       874       873       958      3461      3731      3732
 -1      1818    8    0    1
 -2       873       957       958      3729      3733      3731
 -1      1819    8    0    1
 -2       875       874       959      3464      3734      3735
 -1      1820    8    0    1
 -2       874       958       959      3732      3736      3734
 -1      1821    8    0    1
 -2       876       875       960      3467      3737      3738
 -1      1822    8    0    1
 -2       875       959       960      3735      3739      3737
 -1      1823    8    0    1
 -2       877       876       961      3470      3740      3741
 -1      1824    8    0    1
 -2       876       960       961      3738      3742      3740
 -1      1825    8    0    1
 -2       878       877       962      3473      3743      3744
 -1      1826    8    0    1
 -2       877       961       962      3741      3745      3743
 -1      1827    8    0    1
 -2       879       878       963      3476      3746      3747
 -1      1828    8    0    1
 -2       878       962       963      3744      3748      3746
 -1      1829    8    0    1
 -2       880       879       964      3479      3749      3750
 -1      1830    8    0    1
 -2       879       963       964      3747      3751      3749
 -1      1831    8    0    1
 -2       901       863       851      3608      3752      3631
 -1      1832    8    0    1
 -2       885       886       925      3494      3625      3753
 -1      1833    8    0    1
 -2       884       885       965      3491      3754      3755
 -1      1834    8    0    1
 -2       889       890       966      3510      3756      3757
 -1      1835    8    0    1
 -2       888       889       967      3507      3758      3759
 -1      1836    8    0    1
 -2       889       966       967      3757      3760      3758
 -1      1837    8    0    1
 -2       841       812       791      3347      3761      3499
 -1      1838    8    0    1
 -2       915       934       968      3675      3762      3763
 -1      1839    8    0    1
 -2       951       915       968      3712      3763      3764
 -1      1840    8    0    1
 -2       934       936       968      3662      3765      3762
 -1      1841    8    0    1
 -2       887       888       969      3504      3766      3767
 -1      1842    8    0    1
 -2       888       967       969      3759      3768      3766
 -1      1843    8    0    1
 -2       890       891       970      3513      3769      3770
 -1      1844    8    0    1
 -2       890       970       966      3770      3771      3756
 -1      1845    8    0    1
 -2       891       892       971      3516      3772      3773
 -1      1846    8    0    1
 -2       891       971       970      3773      3774      3769
 -1      1847    8    0    1
 -2       892       893       972      3519      3775      3776
 -1      1848    8    0    1
 -2       892       972       971      3776      3777      3772
 -1      1849    8    0    1
 -2       893       894       973      3522      3778      3779
 -1      1850    8    0    1
 -2       893       973       972      3779      3780      3775
 -1      1851    8    0    1
 -2       894       895       974      3525      3781      3782
 -1      1852    8    0    1
 -2       894       974       973      3782      3783      3778
 -1      1853    8    0    1
 -2       895       896       975      3528      3784      3785
 -1      1854    8    0    1
 -2       895       975       974      3785      3786      3781
 -1      1855    8    0    1
 -2       896       897       976      3531      3787      3788
 -1      1856    8    0    1
 -2       896       976       975      3788      3789      3784
 -1      1857    8    0    1
 -2       897       898       977      3534      3790      3791
 -1      1858    8    0    1
 -2       897       977       976      3791      3792      3787
 -1      1859    8    0    1
 -2       898       899       978      3537      3793      3794
 -1      1860    8    0    1
 -2       898       978       977      3794      3795      3790
 -1      1861    8    0    1
 -2       899       900       979      3540      3796      3797
 -1      1862    8    0    1
 -2       899       979       978      3797      3798      3793
 -1      1863    8    0    1
 -2       912       929       980      3657      3799      3800
 -1      1864    8    0    1
 -2       928       843       981      3636      3801      3802
 -1      1865    8    0    1
 -2       843       845       981      3362      3803      3801
 -1      1866    8    0    1
 -2       848       907       982      3561      3804      3805
 -1      1867    8    0    1
 -2       848       982       936      3805      3806      3663
 -1      1868    8    0    1
 -2       846       835       983      3368      3807      3808
 -1      1869    8    0    1
 -2       846       983       935      3808      3809      3660
 -1      1870    8    0    1
 -2       900       927       984      3633      3810      3811
 -1      1871    8    0    1
 -2       979       900       984      3796      3811      3812
 -1      1872    8    0    1
 -2       927       928       984      3672      3813      3810
 -1      1873    8    0    1
 -2       937       916       985      3665      3814      3815
 -1      1874    8    0    1
 -2       853       909       986      3571      3816      3817
 -1      1875    8    0    1
 -2       909       951       986      3713      3818      3816
 -1      1876    8    0    1
 -2       847       836       927      3377      3673      3819
 -1      1877    8    0    1
 -2       905       887       987      3552      3820      3821
 -1      1878    8    0    1
 -2       887       969       987      3767      3822      3820
 -1      1879    8    0    1
 -2       867       866       988      3440      3823      3824
 -1      1880    8    0    1
 -2       952       867       988      3714      3824      3825
 -1      1881    8    0    1
 -2       866       950       988      3710      3826      3823
 -1      1882    8    0    1
 -2       907       834       989      3664      3827      3828
 -1      1883    8    0    1
 -2       982       907       989      3804      3828      3829
 -1      1884    8    0    1
 -2       834       931       989      3645      3830      3827
 -1      1885    8    0    1
 -2       854       853       990      3403      3831      3832
 -1      1886    8    0    1
 -2       940       854       990      3680      3832      3833
 -1      1887    8    0    1
 -2       853       986       990      3817      3834      3831
 -1      1888    8    0    1
 -2       883       882       991      3486      3835      3836
 -1      1889    8    0    1
 -2       916       912       992      3592      3837      3838
 -1      1890    8    0    1
 -2       985       916       992      3814      3838      3839
 -1      1891    8    0    1
 -2       912       980       992      3800      3840      3837
 -1      1892    8    0    1
 -2       812       833       791      3316      3586      3761
 -1      1893    8    0    1
 -2       835       918       983      3596      3841      3807
 -1      1894    8    0    1
 -2       851       863       948      3752      3704      3842
 -1      1895    8    0    1
 -2       849       919       993      3599      3843      3844
 -1      1896    8    0    1
 -2       849       993       921      3844      3845      3612
 -1      1897    8    0    1
 -2       920       904       994      3600      3846      3847
 -1      1898    8    0    1
 -2       910       949       995      3707      3848      3849
 -1      1899    8    0    1
 -2       910       995       930      3849      3850      3641
 -1      1900    8    0    1
 -2       949       865       987      3706      3851      3852
 -1      1901    8    0    1
 -2       989       931       996      3830      3853      3854
 -1      1902    8    0    1
 -2       880       964       939      3750      3855      3679
 -1      1903    8    0    1
 -2       911       930       997      3643      3856      3857
 -1      1904    8    0    1
 -2       902       913       998      3580      3858      3859
 -1      1905    8    0    1
 -2       924       883       999      3620      3860      3861
 -1      1906    8    0    1
 -2       883       991       999      3836      3862      3860
 -1      1907    8    0    1
 -2       965       885       925      3754      3753      3863
 -1      1908    8    0    1
 -2       881       921      1000      3611      3864      3865
 -1      1909    8    0    1
 -2       933       818       939      3652      3678      3866
 -1      1910    8    0    1
 -2       845       920       981      3602      3867      3803
 -1      1911    8    0    1
 -2       980       929      1001      3799      3868      3869
 -1      1912    8    0    1
 -2       929       923      1001      3640      3870      3868
 -1      1913    8    0    1
 -2       927       842       847      3634      3635      3819
 -1      1914    8    0    1
 -2       928       981      1002      3802      3871      3872
 -1      1915    8    0    1
 -2       928      1002       984      3872      3873      3813
 -1      1916    8    0    1
 -2       884       965      1003      3755      3874      3875
 -1      1917    8    0    1
 -2       884      1003       908      3875      3876      3566
 -1      1918    8    0    1
 -2       865       926       987      3629      3877      3851
 -1      1919    8    0    1
 -2       851       948       919      3842      3878      3597
 -1      1920    8    0    1
 -2       913       881      1004      3581      3879      3880
 -1      1921    8    0    1
 -2       998       913      1004      3858      3880      3881
 -1      1922    8    0    1
 -2       881      1000      1004      3865      3882      3879
 -1      1923    8    0    1
 -2       991       882      1005      3835      3883      3884
 -1      1924    8    0    1
 -2       882       908      1005      3565      3885      3883
 -1      1925    8    0    1
 -2       906       905       926      3556      3886      3630
 -1      1926    8    0    1
 -2       931       935      1006      3659      3887      3888
 -1      1927    8    0    1
 -2       931      1006       996      3888      3889      3853
 -1      1928    8    0    1
 -2       917       938      1007      3669      3890      3891
 -1      1929    8    0    1
 -2       905       987       926      3821      3877      3886
 -1      1930    8    0    1
 -2       904       933      1008      3651      3892      3893
 -1      1931    8    0    1
 -2       904      1008       994      3893      3894      3846
 -1      1932    8    0    1
 -2       923       917      1009      3619      3895      3896
 -1      1933    8    0    1
 -2       917      1007      1009      3891      3897      3895
 -1      1934    8    0    1
 -2       950       911       997      3711      3857      3898
 -1      1935    8    0    1
 -2       919       948      1010      3878      3899      3900
 -1      1936    8    0    1
 -2       993       919      1010      3843      3900      3901
 -1      1937    8    0    1
 -2       948       947      1010      3705      3902      3899
 -1      1938    8    0    1
 -2       942       941      1011      3687      3903      3904
 -1      1939    8    0    1
 -2       943       942      1012      3690      3905      3906
 -1      1940    8    0    1
 -2       942      1011      1012      3904      3907      3905
 -1      1941    8    0    1
 -2       944       943      1013      3693      3908      3909
 -1      1942    8    0    1
 -2       943      1012      1013      3906      3910      3908
 -1      1943    8    0    1
 -2       945       944      1014      3696      3911      3912
 -1      1944    8    0    1
 -2       944      1013      1014      3909      3913      3911
 -1      1945    8    0    1
 -2       946       945      1015      3699      3914      3915
 -1      1946    8    0    1
 -2       945      1014      1015      3912      3916      3914
 -1      1947    8    0    1
 -2       947       946      1016      3702      3917      3918
 -1      1948    8    0    1
 -2       946      1015      1016      3915      3919      3917
 -1      1949    8    0    1
 -2       989       996      1017      3854      3920      3921
 -1      1950    8    0    1
 -2       989      1017       982      3921      3922      3829
 -1      1951    8    0    1
 -2       939       964       933      3855      3923      3866
 -1      1952    8    0    1
 -2       997       930      1018      3856      3924      3925
 -1      1953    8    0    1
 -2       902       998       925      3859      3926      3626
 -1      1954    8    0    1
 -2       954       953      1019      3721      3927      3928
 -1      1955    8    0    1
 -2       955       954      1020      3724      3929      3930
 -1      1956    8    0    1
 -2       954      1019      1020      3928      3931      3929
 -1      1957    8    0    1
 -2       956       955      1021      3727      3932      3933
 -1      1958    8    0    1
 -2       955      1020      1021      3930      3934      3932
 -1      1959    8    0    1
 -2       957       956      1022      3730      3935      3936
 -1      1960    8    0    1
 -2       956      1021      1022      3933      3937      3935
 -1      1961    8    0    1
 -2       958       957      1023      3733      3938      3939
 -1      1962    8    0    1
 -2       957      1022      1023      3936      3940      3938
 -1      1963    8    0    1
 -2       959       958      1024      3736      3941      3942
 -1      1964    8    0    1
 -2       958      1023      1024      3939      3943      3941
 -1      1965    8    0    1
 -2       960       959      1025      3739      3944      3945
 -1      1966    8    0    1
 -2       959      1024      1025      3942      3946      3944
 -1      1967    8    0    1
 -2       961       960      1026      3742      3947      3948
 -1      1968    8    0    1
 -2       960      1025      1026      3945      3949      3947
 -1      1969    8    0    1
 -2       962       961      1027      3745      3950      3951
 -1      1970    8    0    1
 -2       961      1026      1027      3948      3952      3950
 -1      1971    8    0    1
 -2       963       962      1028      3748      3953      3954
 -1      1972    8    0    1
 -2       962      1027      1028      3951      3955      3953
 -1      1973    8    0    1
 -2       964       963      1029      3751      3956      3957
 -1      1974    8    0    1
 -2       963      1028      1029      3954      3958      3956
 -1      1975    8    0    1
 -2       967       966      1030      3760      3959      3960
 -1      1976    8    0    1
 -2       970       971      1031      3774      3961      3962
 -1      1977    8    0    1
 -2      1000       921      1032      3864      3963      3964
 -1      1978    8    0    1
 -2       921       993      1032      3845      3965      3963
 -1      1979    8    0    1
 -2       983       918       985      3841      3966      3967
 -1      1980    8    0    1
 -2       966       970      1033      3771      3968      3969
 -1      1981    8    0    1
 -2       966      1033      1030      3969      3970      3959
 -1      1982    8    0    1
 -2       971       972      1034      3777      3971      3972
 -1      1983    8    0    1
 -2       971      1034      1031      3972      3973      3961
 -1      1984    8    0    1
 -2       972       973      1035      3780      3974      3975
 -1      1985    8    0    1
 -2       972      1035      1034      3975      3976      3971
 -1      1986    8    0    1
 -2       973       974      1036      3783      3977      3978
 -1      1987    8    0    1
 -2       973      1036      1035      3978      3979      3974
 -1      1988    8    0    1
 -2       974       975      1037      3786      3980      3981
 -1      1989    8    0    1
 -2       974      1037      1036      3981      3982      3977
 -1      1990    8    0    1
 -2       975       976      1038      3789      3983      3984
 -1      1991    8    0    1
 -2       975      1038      1037      3984      3985      3980
 -1      1992    8    0    1
 -2       976       977      1039      3792      3986      3987
 -1      1993    8    0    1
 -2       976      1039      1038      3987      3988      3983
 -1      1994    8    0    1
 -2       977       978      1040      3795      3989      3990
 -1      1995    8    0    1
 -2       977      1040      1039      3990      3991      3986
 -1      1996    8    0    1
 -2       978       979      1041      3798      3992      3993
 -1      1997    8    0    1
 -2       978      1041      1040      3993      3994      3989
 -1      1998    8    0    1
 -2       979       984      1042      3812      3995      3996
 -1      1999    8    0    1
 -2      1041       979      1042      3992      3996      3997
 -1      2000    8    0    1
 -2       984      1002      1042      3873      3998      3995
 -1      2001    8    0    1
 -2       949       987      1043      3852      3999      4000
 -1      2002    8    0    1
 -2       995       949      1043      3848      4000      4001
 -1      2003    8    0    1
 -2       987       969      1043      3822      4002      3999
 -1      2004    8    0    1
 -2       935       983      1044      3809      4003      4004
 -1      2005    8    0    1
 -2      1006       935      1044      3887      4004      4005
 -1      2006    8    0    1
 -2       983       985      1044      3967      4006      4003
 -1      2007    8    0    1
 -2       918       932       937      3648      4007      4008
 -1      2008    8    0    1
 -2       986       951      1045      3818      4009      4010
 -1      2009    8    0    1
 -2       938       924      1046      3670      4011      4012
 -1      2010    8    0    1
 -2      1007       938      1046      3890      4012      4013
 -1      2011    8    0    1
 -2       924       999      1046      3861      4014      4011
 -1      2012    8    0    1
 -2       925       998       965      3926      4015      3863
 -1      2013    8    0    1
 -2       965       998      1047      4015      4016      4017
 -1      2014    8    0    1
 -2       965      1047      1003      4017      4018      3874
 -1      2015    8    0    1
 -2       918       937       985      4008      3815      3966
 -1      2016    8    0    1
 -2       969       967      1048      3768      4019      4020
 -1      2017    8    0    1
 -2      1043       969      1048      4002      4020      4021
 -1      2018    8    0    1
 -2       967      1030      1048      3960      4022      4019
 -1      2019    8    0    1
 -2       850       937       932      3671      4007      3649
 -1      2020    8    0    1
 -2       941       940      1049      3684      4023      4024
 -1      2021    8    0    1
 -2       941      1049      1011      4024      4025      3903
 -1      2022    8    0    1
 -2       936       982      1050      3806      4026      4027
 -1      2023    8    0    1
 -2       968       936      1050      3765      4027      4028
 -1      2024    8    0    1
 -2       982      1017      1050      3922      4029      4026
 -1      2025    8    0    1
 -2       981       920      1051      3867      4030      4031
 -1      2026    8    0    1
 -2      1002       981      1051      3871      4031      4032
 -1      2027    8    0    1
 -2       920       994      1051      3847      4033      4030
 -1      2028    8    0    1
 -2       953       952      1052      3718      4034      4035
 -1      2029    8    0    1
 -2       953      1052      1019      4035      4036      3927
 -1      2030    8    0    1
 -2       950       997       988      3898      4037      3826
 -1      2031    8    0    1
 -2       923      1009      1001      3896      4038      3870
 -1      2032    8    0    1
 -2       930       995      1018      3850      4039      3924
 -1      2033    8    0    1
 -2       947      1016      1010      3918      4040      3902
 -1      2034    8    0    1
 -2      1017       996      1053      3920      4041      4042
 -1      2035    8    0    1
 -2       996      1006      1054      3889      4043      4044
 -1      2036    8    0    1
 -2       996      1054      1053      4044      4045      4041
 -1      2037    8    0    1
 -2       933       964      1008      3923      4046      3892
 -1      2038    8    0    1
 -2      1047       998      1004      4016      3881      4047
 -1      2039    8    0    1
 -2       988       997      1055      4037      4048      4049
 -1      2040    8    0    1
 -2       952       988      1055      3825      4049      4050
 -1      2041    8    0    1
 -2       997      1018      1055      3925      4051      4048
 -1      2042    8    0    1
 -2       970      1031      1033      3962      4052      3968
 -1      2043    8    0    1
 -2      1000      1032      1056      3964      4053      4054
 -1      2044    8    0    1
 -2       964      1029      1008      3957      4055      4046
 -1      2045    8    0    1
 -2      1051       994      1057      4033      4056      4057
 -1      2046    8    0    1
 -2       980      1001      1058      3869      4058      4059
 -1      2047    8    0    1
 -2       991      1005      1059      3884      4060      4061
 -1      2048    8    0    1
 -2       999       991      1060      3862      4062      4063
 -1      2049    8    0    1
 -2       991      1059      1060      4061      4064      4062
 -1      2050    8    0    1
 -2       990       986      1061      3834      4065      4066
 -1      2051    8    0    1
 -2       986      1045      1061      4010      4067      4065
 -1      2052    8    0    1
 -2      1004      1000      1062      3882      4068      4069
 -1      2053    8    0    1
 -2      1047      1004      1062      4047      4069      4070
 -1      2054    8    0    1
 -2      1000      1056      1062      4054      4071      4068
 -1      2055    8    0    1
 -2       908      1003      1005      3876      4072      3885
 -1      2056    8    0    1
 -2      1007      1046      1063      4013      4073      4074
 -1      2057    8    0    1
 -2      1049       940      1064      4023      4075      4076
 -1      2058    8    0    1
 -2       940       990      1064      3833      4077      4075
 -1      2059    8    0    1
 -2      1052       952      1055      4034      4050      4078
 -1      2060    8    0    1
 -2       951       968      1050      3764      4028      4079
 -1      2061    8    0    1
 -2      1009      1007      1065      3897      4080      4081
 -1      2062    8    0    1
 -2      1007      1063      1065      4074      4082      4080
 -1      2063    8    0    1
 -2       951      1050      1045      4079      4083      4009
 -1      2064    8    0    1
 -2       992       980      1066      3840      4084      4085
 -1      2065    8    0    1
 -2       980      1058      1066      4059      4086      4084
 -1      2066    8    0    1
 -2       985       992      1067      3839      4087      4088
 -1      2067    8    0    1
 -2      1044       985      1067      4006      4088      4089
 -1      2068    8    0    1
 -2       992      1066      1067      4085      4090      4087
 -1      2069    8    0    1
 -2       994      1008      1068      3894      4091      4092
 -1      2070    8    0    1
 -2      1057       994      1068      4056      4092      4093
 -1      2071    8    0    1
 -2      1008      1029      1068      4055      4094      4091
 -1      2072    8    0    1
 -2      1012      1011      1069      3907      4095      4096
 -1      2073    8    0    1
 -2      1013      1012      1070      3910      4097      4098
 -1      2074    8    0    1
 -2      1012      1069      1070      4096      4099      4097
 -1      2075    8    0    1
 -2      1014      1013      1071      3913      4100      4101
 -1      2076    8    0    1
 -2      1013      1070      1071      4098      4102      4100
 -1      2077    8    0    1
 -2      1015      1014      1072      3916      4103      4104
 -1      2078    8    0    1
 -2      1014      1071      1072      4101      4105      4103
 -1      2079    8    0    1
 -2      1016      1015      1073      3919      4106      4107
 -1      2080    8    0    1
 -2      1015      1072      1073      4104      4108      4106
 -1      2081    8    0    1
 -2      1002      1051      1074      4032      4109      4110
 -1      2082    8    0    1
 -2      1042      1002      1074      3998      4110      4111
 -1      2083    8    0    1
 -2      1051      1057      1074      4057      4112      4109
 -1      2084    8    0    1
 -2      1020      1019      1075      3931      4113      4114
 -1      2085    8    0    1
 -2      1010      1016      1076      4040      4115      4116
 -1      2086    8    0    1
 -2       993      1010      1076      3901      4116      4117
 -1      2087    8    0    1
 -2      1016      1073      1076      4107      4118      4115
 -1      2088    8    0    1
 -2      1055      1018      1077      4051      4119      4120
 -1      2089    8    0    1
 -2      1055      1077      1052      4120      4121      4078
 -1      2090    8    0    1
 -2      1019      1052      1078      4036      4122      4123
 -1      2091    8    0    1
 -2      1075      1019      1078      4113      4123      4124
 -1      2092    8    0    1
 -2      1052      1077      1078      4121      4125      4122
 -1      2093    8    0    1
 -2      1021      1020      1079      3934      4126      4127
 -1      2094    8    0    1
 -2      1020      1075      1079      4114      4128      4126
 -1      2095    8    0    1
 -2      1022      1021      1080      3937      4129      4130
 -1      2096    8    0    1
 -2      1021      1079      1080      4127      4131      4129
 -1      2097    8    0    1
 -2      1023      1022      1081      3940      4132      4133
 -1      2098    8    0    1
 -2      1022      1080      1081      4130      4134      4132
 -1      2099    8    0    1
 -2      1024      1023      1082      3943      4135      4136
 -1      2100    8    0    1
 -2      1023      1081      1082      4133      4137      4135
 -1      2101    8    0    1
 -2      1025      1024      1083      3946      4138      4139
 -1      2102    8    0    1
 -2      1024      1082      1083      4136      4140      4138
 -1      2103    8    0    1
 -2      1026      1025      1084      3949      4141      4142
 -1      2104    8    0    1
 -2      1025      1083      1084      4139      4143      4141
 -1      2105    8    0    1
 -2      1027      1026      1085      3952      4144      4145
 -1      2106    8    0    1
 -2      1026      1084      1085      4142      4146      4144
 -1      2107    8    0    1
 -2      1028      1027      1086      3955      4147      4148
 -1      2108    8    0    1
 -2      1027      1085      1086      4145      4149      4147
 -1      2109    8    0    1
 -2      1029      1028      1087      3958      4150      4151
 -1      2110    8    0    1
 -2      1068      1029      1087      4094      4151      4152
 -1      2111    8    0    1
 -2      1028      1086      1087      4148      4153      4150
 -1      2112    8    0    1
 -2      1031      1034      1088      3973      4154      4155
 -1      2113    8    0    1
 -2      1030      1033      1089      3970      4156      4157
 -1      2114    8    0    1
 -2      1033      1031      1090      4052      4158      4159
 -1      2115    8    0    1
 -2      1031      1088      1090      4155      4160      4158
 -1      2116    8    0    1
 -2      1035      1036      1091      3979      4161      4162
 -1      2117    8    0    1
 -2      1018       995      1092      4039      4163      4164
 -1      2118    8    0    1
 -2      1077      1018      1092      4119      4164      4165
 -1      2119    8    0    1
 -2       995      1043      1092      4001      4166      4163
 -1      2120    8    0    1
 -2      1036      1037      1093      3982      4167      4168
 -1      2121    8    0    1
 -2      1036      1093      1091      4168      4169      4161
 -1      2122    8    0    1
 -2      1037      1038      1094      3985      4170      4171
 -1      2123    8    0    1
 -2      1037      1094      1093      4171      4172      4167
 -1      2124    8    0    1
 -2      1038      1039      1095      3988      4173      4174
 -1      2125    8    0    1
 -2      1038      1095      1094      4174      4175      4170
 -1      2126    8    0    1
 -2      1039      1040      1096      3991      4176      4177
 -1      2127    8    0    1
 -2      1039      1096      1095      4177      4178      4173
 -1      2128    8    0    1
 -2      1046       999      1097      4014      4179      4180
 -1      2129    8    0    1
 -2      1046      1097      1063      4180      4181      4073
 -1      2130    8    0    1
 -2      1003      1047      1098      4018      4182      4183
 -1      2131    8    0    1
 -2      1005      1003      1098      4072      4183      4184
 -1      2132    8    0    1
 -2      1047      1062      1098      4070      4185      4182
 -1      2133    8    0    1
 -2      1058      1001      1099      4058      4186      4187
 -1      2134    8    0    1
 -2      1001      1009      1099      4038      4188      4186
 -1      2135    8    0    1
 -2      1006      1044      1067      4005      4089      4189
 -1      2136    8    0    1
 -2      1032       993      1076      3965      4117      4190
 -1      2137    8    0    1
 -2      1050      1017      1045      4029      4191      4083
 -1      2138    8    0    1
 -2      1011      1049      1100      4025      4192      4193
 -1      2139    8    0    1
 -2      1011      1100      1069      4193      4194      4095
 -1      2140    8    0    1
 -2      1034      1035      1101      3976      4195      4196
 -1      2141    8    0    1
 -2      1088      1034      1101      4154      4196      4197
 -1      2142    8    0    1
 -2      1035      1091      1101      4162      4198      4195
 -1      2143    8    0    1
 -2      1017      1053      1045      4042      4199      4191
 -1      2144    8    0    1
 -2      1045      1053      1102      4199      4200      4201
 -1      2145    8    0    1
 -2      1045      1102      1061      4201      4202      4067
 -1      2146    8    0    1
 -2      1054      1006      1067      4043      4189      4203
 -1      2147    8    0    1
 -2      1053      1054      1102      4045      4204      4200
 -1      2148    8    0    1
 -2      1060      1059      1103      4064      4205      4206
 -1      2149    8    0    1
 -2      1092      1043      1048      4166      4021      4207
 -1      2150    8    0    1
 -2      1059      1005      1098      4060      4184      4208
 -1      2151    8    0    1
 -2      1009      1065      1099      4081      4209      4188
 -1      2152    8    0    1
 -2      1089      1033      1090      4156      4159      4210
 -1      2153    8    0    1
 -2      1030      1089      1104      4157      4211      4212
 -1      2154    8    0    1
 -2      1030      1104      1048      4212      4213      4022
 -1      2155    8    0    1
 -2      1056      1032      1105      4053      4214      4215
 -1      2156    8    0    1
 -2      1032      1076      1105      4190      4216      4214
 -1      2157    8    0    1
 -2      1059      1098      1106      4208      4217      4218
 -1      2158    8    0    1
 -2      1059      1106      1103      4218      4219      4205
 -1      2159    8    0    1
 -2       990      1061      1064      4066      4220      4077
 -1      2160    8    0    1
 -2       999      1060      1097      4063      4221      4179
 -1      2161    8    0    1
 -2      1063      1097      1107      4181      4222      4223
 -1      2162    8    0    1
 -2      1063      1107      1108      4223      4224      4225
 -1      2163    8    0    1
 -2      1063      1108      1065      4225      4226      4082
 -1      2164    8    0    1
 -2      1040      1041      1109      3994      4227      4228
 -1      2165    8    0    1
 -2      1041      1042      1074      3997      4111      4229
 -1      2166    8    0    1
 -2      1062      1056      1106      4071      4230      4231
 -1      2167    8    0    1
 -2      1057      1068      1087      4093      4152      4232
 -1      2168    8    0    1
 -2      1058      1099      1110      4187      4233      4234
 -1      2169    8    0    1
 -2      1049      1064      1111      4076      4235      4236
 -1      2170    8    0    1
 -2      1049      1111      1100      4236      4237      4192
 -1      2171    8    0    1
 -2      1040      1109      1096      4228      4238      4176
 -1      2172    8    0    1
 -2      1056      1105      1106      4215      4239      4230
 -1      2173    8    0    1
 -2      1066      1058      1112      4086      4240      4241
 -1      2174    8    0    1
 -2      1058      1110      1112      4234      4242      4240
 -1      2175    8    0    1
 -2      1109      1041      1074      4227      4229      4243
 -1      2176    8    0    1
 -2      1062      1106      1098      4231      4217      4185
 -1      2177    8    0    1
 -2      1071      1070      1113      4102      4244      4245
 -1      2178    8    0    1
 -2      1072      1071      1103      4105      4246      4247
 -1      2179    8    0    1
 -2      1074      1057      1109      4112      4248      4243
 -1      2180    8    0    1
 -2      1064      1061      1114      4220      4249      4250
 -1      2181    8    0    1
 -2      1111      1064      1114      4235      4250      4251
 -1      2182    8    0    1
 -2      1061      1102      1114      4202      4252      4249
 -1      2183    8    0    1
 -2      1076      1073      1105      4118      4253      4216
 -1      2184    8    0    1
 -2      1092      1048      1104      4207      4213      4254
 -1      2185    8    0    1
 -2      1090      1088      1079      4160      4255      4256
 -1      2186    8    0    1
 -2      1080      1079      1088      4131      4255      4257
 -1      2187    8    0    1
 -2      1081      1080      1101      4134      4258      4259
 -1      2188    8    0    1
 -2      1082      1081      1091      4137      4260      4261
 -1      2189    8    0    1
 -2      1083      1082      1093      4140      4262      4263
 -1      2190    8    0    1
 -2      1084      1083      1094      4143      4264      4265
 -1      2191    8    0    1
 -2      1085      1084      1095      4146      4266      4267
 -1      2192    8    0    1
 -2      1086      1085      1096      4149      4268      4269
 -1      2193    8    0    1
 -2      1103      1106      1072      4219      4270      4247
 -1      2194    8    0    1
 -2      1090      1079      1075      4256      4128      4271
 -1      2195    8    0    1
 -2      1093      1094      1083      4172      4264      4263
 -1      2196    8    0    1
 -2      1077      1092      1104      4165      4254      4272
 -1      2197    8    0    1
 -2      1093      1082      1091      4262      4261      4169
 -1      2198    8    0    1
 -2      1107      1097      1113      4222      4273      4274
 -1      2199    8    0    1
 -2      1095      1096      1085      4178      4268      4267
 -1      2200    8    0    1
 -2      1095      1084      1094      4266      4265      4175
 -1      2201    8    0    1
 -2      1054      1067      1066      4203      4090      4275
 -1      2202    8    0    1
 -2      1057      1087      1115      4232      4276      4277
 -1      2203    8    0    1
 -2      1099      1065      1116      4209      4278      4279
 -1      2204    8    0    1
 -2      1065      1108      1116      4226      4280      4278
 -1      2205    8    0    1
 -2      1097      1060      1113      4221      4281      4273
 -1      2206    8    0    1
 -2      1089      1090      1075      4210      4271      4282
 -1      2207    8    0    1
 -2      1060      1103      1113      4206      4283      4281
 -1      2208    8    0    1
 -2      1103      1071      1113      4246      4245      4283
 -1      2209    8    0    1
 -2      1109      1057      1115      4248      4277      4284
 -1      2210    8    0    1
 -2      1091      1081      1101      4260      4259      4198
 -1      2211    8    0    1
 -2      1080      1088      1101      4257      4197      4258
 -1      2212    8    0    1
 -2      1089      1075      1078      4282      4124      4285
 -1      2213    8    0    1
 -2      1115      1087      1086      4276      4153      4286
 -1      2214    8    0    1
 -2      1054      1066      1112      4275      4241      4287
 -1      2215    8    0    1
 -2      1069      1100      1108      4194      4288      4289
 -1      2216    8    0    1
 -2      1109      1115      1096      4284      4290      4238
 -1      2217    8    0    1
 -2      1114      1102      1112      4252      4291      4292
 -1      2218    8    0    1
 -2      1078      1077      1104      4125      4272      4293
 -1      2219    8    0    1
 -2      1089      1078      1104      4285      4293      4211
 -1      2220    8    0    1
 -2      1086      1096      1115      4269      4290      4286
 -1      2221    8    0    1
 -2      1054      1112      1102      4287      4291      4204
 -1      2222    8    0    1
 -2      1113      1070      1107      4244      4294      4274
 -1      2223    8    0    1
 -2      1108      1107      1069      4224      4295      4289
 -1      2224    8    0    1
 -2      1099      1116      1110      4279      4296      4233
 -1      2225    8    0    1
 -2      1069      1107      1070      4295      4294      4099
 -1      2226    8    0    1
 -2      1110      1116      1111      4296      4297      4298
 -1      2227    8    0    1
 -2      1100      1111      1116      4237      4297      4299
 -1      2228    8    0    1
 -2      1112      1110      1114      4242      4300      4292
 -1      2229    8    0    1
 -2      1108      1100      1116      4288      4299      4280
 -1      2230    8    0    1
 -2      1110      1111      1114      4298      4251      4300
 -1      2231    8    0    1
 -2      1073      1072      1106      4108      4270      4301
 -1      2232    8    0    1
 -2      1105      1073      1106      4253      4301      4239
 -3
    1PSTEP                         1           1           1          
  100CL  101 1.000000000        4301                     0    1           1
 -4  DISP        4    1
 -5  D1          1    2    1    0
 -5  D2          1    2    2    0
 -5  D3          1    2    3    0
 -5  ALL         1    2    0    0    1ALL
 -1         1 5.58548E-03-6.67885E-04-1.34835E-14
 -1         2 9.41457E-03-1.65161E-04-1.92321E-14
 -1         3 1.49878E-02 6.07302E-05-6.71749E-14
 -1         4 1.54047E-02-1.36727E-03-6.87482E-14
 -1         5 0.00000E+00 0.00000E+00 0.00000E+00
 -1         6 0.00000E+00 0.00000E+00 0.00000E+00
 -1         7 0.00000E+00 0.00000E+00 0.00000E+00
 -1         8 0.00000E+00 0.00000E+00 0.00000E+00
 -1         9 0.00000E+00 0.00000E+00 0.00000E+00
 -1        10 0.00000E+00 0.00000E+00 0.00000E+00
 -1        11 0.00000E+00 0.00000E+00 0.00000E+00
 -1        12 0.00000E+00 0.00000E+00 0.00000E+00
 -1        13 0.00000E+00 0.00000E+00 0.00000E+00
 -1        14 0.00000E+00 0.00000E+00 0.00000E+00
 -1        15 0.00000E+00 0.00000E+00 0.00000E+00
 -1        16 0.00000E+00 0.00000E+00 0.00000E+00
 -1        17 0.00000E+00 0.00000E+00 0.00000E+00
 -1        18 0.00000E+00 0.00000E+00 0.00000E+00
 -1        19 0.00000E+00 0.00000E+00 0.00000E+00
 -1        20 0.00000E+00 0.00000E+00 0.00000E+00
 -1        21 0.00000E+00 0.00000E+00 0.00000E+00
 -1        22 0.00000E+00 0.00000E+00 0.00000E+00
 -1        23 4.09250E-04-2.58493E-04 2.43166E-17
 -1        24 7.00177E-04-3.96106E-04-1.02118E-17
 -1        25 9.69824E-04-4.90312E-04-1.02850E-16
 -1        26 1.23449E-03-5.55314E-04-2.54913E-16
 -1        27 1.49893E-03-6.00174E-04-4.65743E-16
 -1        28 1.76551E-03-6.30205E-04-7.35333E-16
 -1        29 2.03556E-03-6.49086E-04-1.06678E-15
 -1        30 2.31000E-03-6.59561E-04-1.46097E-15
 -1        31 2.58959E-03-6.63822E-04-1.91648E-15
 -1        32 2.87511E-03-6.63767E-04-2.43153E-15
 -1        33 3.16748E-03-6.61209E-04-3.00722E-15
 -1        34 3.46781E-03-6.58094E-04-3.63933E-15
 -1        35 3.77738E-03-6.56726E-04-4.33060E-15
 -1        36 4.09762E-03-6.60015E-04-5.08193E-15
 -1        37 4.42980E-03-6.71709E-04-5.89215E-15
 -1        38 4.77457E-03-6.96514E-04-6.76044E-15
 -1        39 5.13118E-03-7.39904E-04-7.68634E-15
 -1        40 5.49632E-03-8.07255E-04-8.67399E-15
 -1        41 5.86305E-03-9.01844E-04-9.73020E-15
 -1        42 6.22050E-03-1.02150E-03-1.08499E-14
 -1        43 6.55589E-03-1.15475E-03-1.20401E-14
 -1        44 6.85984E-03-1.27926E-03-1.33026E-14
 -1        45 7.13329E-03-1.36653E-03-1.46436E-14
 -1        46 7.39063E-03-1.39368E-03-1.60703E-14
 -1        47 7.65437E-03-1.35578E-03-1.75769E-14
 -1        48 7.94377E-03-1.26872E-03-1.91601E-14
 -1        49 8.26596E-03-1.16015E-03-2.08247E-14
 -1        50 8.61549E-03-1.05626E-03-2.25696E-14
 -1        51 8.98037E-03-9.73563E-04-2.43679E-14
 -1        52 9.34848E-03-9.18029E-04-2.62189E-14
 -1        53 9.71114E-03-8.88407E-04-2.81050E-14
 -1        54 1.00637E-02-8.80015E-04-3.00364E-14
 -1        55 1.04045E-02-8.87389E-04-3.20216E-14
 -1        56 1.07339E-02-9.05620E-04-3.40541E-14
 -1        57 1.10532E-02-9.30820E-04-3.61235E-14
 -1        58 1.13641E-02-9.60135E-04-3.82130E-14
 -1        59 1.16683E-02-9.91585E-04-4.03148E-14
 -1        60 1.19671E-02-1.02386E-03-4.24236E-14
 -1        61 1.22620E-02-1.05613E-03-4.45532E-14
 -1        62 1.25539E-02-1.08791E-03-4.67146E-14
 -1        63 1.28435E-02-1.11896E-03-4.89112E-14
 -1        64 1.31316E-02-1.14918E-03-5.11222E-14
 -1        65 1.34187E-02-1.17856E-03-5.33482E-14
 -1        66 1.37050E-02-1.20717E-03-5.55804E-14
 -1        67 1.39909E-02-1.23509E-03-5.78115E-14
 -1        68 1.42766E-02-1.26243E-03-6.00297E-14
 -1        69 1.45621E-02-1.28932E-03-6.22355E-14
 -1        70 1.48477E-02-1.31587E-03-6.44330E-14
 -1        71 1.51333E-02-1.34224E-03-6.66342E-14
 -1        72 4.11689E-04 2.59194E-04 2.97309E-17
 -1        73 7.00060E-04 3.98822E-04 4.22839E-18
 -1        74 9.70450E-04 4.92142E-04-7.65752E-17
 -1        75 1.23544E-03 5.57154E-04-2.14794E-16
 -1        76 1.50005E-03 6.02179E-04-4.12552E-16
 -1        77 1.76673E-03 6.32490E-04-6.69027E-16
 -1        78 2.03682E-03 6.51778E-04-9.84628E-16
 -1        79 2.31121E-03 6.62822E-04-1.35685E-15
 -1        80 2.59059E-03 6.67866E-04-1.78778E-15
 -1        81 2.87559E-03 6.68865E-04-2.28199E-15
 -1        82 3.16691E-03 6.67683E-04-2.83864E-15
 -1        83 3.46527E-03 6.66267E-04-3.45340E-15
 -1        84 3.77139E-03 6.66813E-04-4.12940E-15
 -1        85 4.08586E-03 6.71892E-04-4.86854E-15
 -1        86 4.40885E-03 6.84498E-04-5.67001E-15
 -1        87 4.73970E-03 7.07930E-04-6.53061E-15
 -1        88 5.07642E-03 7.45364E-04-7.45007E-15
 -1        89 5.41516E-03 7.98963E-04-8.42794E-15
 -1        90 5.75005E-03 8.68449E-04-9.46655E-15
 -1        91 6.07372E-03 9.49351E-04-1.05606E-14
 -1        92 6.37921E-03 1.03173E-03-1.17155E-14
 -1        93 6.66296E-03 1.10070E-03-1.29375E-14
 -1        94 6.92761E-03 1.13994E-03-1.42345E-14
 -1        95 7.18266E-03 1.13744E-03-1.56019E-14
 -1        96 7.44145E-03 1.09066E-03-1.70318E-14
 -1        97 7.71583E-03 1.00774E-03-1.85345E-14
 -1        98 8.01178E-03 9.03770E-04-2.01100E-14
 -1        99 8.32838E-03 7.94871E-04-2.17451E-14
 -1       100 8.65986E-03 6.93485E-04-2.34462E-14
 -1       101 8.99880E-03 6.06534E-04-2.52114E-14
 -1       102 9.33859E-03 5.36049E-04-2.70350E-14
 -1       103 9.67460E-03 4.80857E-04-2.89148E-14
 -1       104 1.00042E-02 4.38231E-04-3.08418E-14
 -1       105 1.03264E-02 4.05051E-04-3.28182E-14
 -1       106 1.06414E-02 3.78444E-04-3.48407E-14
 -1       107 1.09498E-02 3.56056E-04-3.69185E-14
 -1       108 1.12525E-02 3.36098E-04-3.90406E-14
 -1       109 1.15506E-02 3.17292E-04-4.11843E-14
 -1       110 1.18451E-02 2.98779E-04-4.33504E-14
 -1       111 1.21369E-02 2.80016E-04-4.55364E-14
 -1       112 1.24265E-02 2.60692E-04-4.77434E-14
 -1       113 1.27146E-02 2.40661E-04-4.99511E-14
 -1       114 1.30017E-02 2.19880E-04-5.21436E-14
 -1       115 1.32881E-02 1.98380E-04-5.43220E-14
 -1       116 1.35740E-02 1.76230E-04-5.64881E-14
 -1       117 1.38597E-02 1.53525E-04-5.86471E-14
 -1       118 1.41452E-02 1.30374E-04-6.08142E-14
 -1       119 1.44308E-02 1.06898E-04-6.29826E-14
 -1       120 1.47164E-02 8.32377E-05-6.51411E-14
 -1       121 1.50111E-02-2.35727E-05-6.72554E-14
 -1       122 1.50344E-02-1.07939E-04-6.73733E-14
 -1       123 1.50579E-02-1.92353E-04-6.74812E-14
 -1       124 1.50816E-02-2.76749E-04-6.75911E-14
 -1       125 1.51056E-02-3.61066E-04-6.76972E-14
 -1       126 1.51293E-02-4.43845E-04-6.78155E-14
 -1       127 1.51537E-02-5.27942E-04-6.79485E-14
 -1       128 1.51781E-02-6.11959E-04-6.80815E-14
 -1       129 1.52027E-02-6.95949E-04-6.81983E-14
 -1       130 1.52274E-02-7.79972E-04-6.82846E-14
 -1       131 1.52523E-02-8.64079E-04-6.83663E-14
 -1       132 1.52769E-02-9.46871E-04-6.84515E-14
 -1       133 1.53021E-02-1.03120E-03-6.85049E-14
 -1       134 1.53276E-02-1.11561E-03-6.85431E-14
 -1       135 1.53533E-02-1.20003E-03-6.86020E-14
 -1       136 1.53792E-02-1.28439E-03-6.86795E-14
 -1       137 9.35684E-03 5.58789E-06-1.91288E-14
 -1       138 9.20132E-03 1.73477E-04-1.88635E-14
 -1       139 8.95687E-03 3.28708E-04-1.84529E-14
 -1       140 8.64303E-03 4.61087E-04-1.79391E-14
 -1       141 8.25395E-03 5.72388E-04-1.73187E-14
 -1       142 7.82919E-03 6.48801E-04-1.66579E-14
 -1       143 7.37414E-03 6.89811E-04-1.59684E-14
 -1       144 6.87519E-03 6.90073E-04-1.52308E-14
 -1       145 6.41528E-03 6.47929E-04-1.45681E-14
 -1       146 5.98118E-03 5.63530E-04-1.39514E-14
 -1       147 5.62811E-03 4.51915E-04-1.34640E-14
 -1       148 5.34250E-03 3.12186E-04-1.30814E-14
 -1       149 5.15341E-03 1.61416E-04-1.28372E-14
 -1       150 5.05132E-03-1.06331E-08-1.27138E-14
 -1       151 5.04068E-03-1.69018E-04-1.27169E-14
 -1       152 5.13477E-03-3.51509E-04-1.28588E-14
 -1       153 5.31192E-03-5.12384E-04-1.31073E-14
 -1       154 5.93445E-03-8.01288E-04-1.39650E-14
 -1       155 6.34675E-03-9.06563E-04-1.45502E-14
 -1       156 6.78819E-03-9.73533E-04-1.51845E-14
 -1       157 7.29895E-03-1.00129E-03-1.59323E-14
 -1       158 7.77556E-03-9.80614E-04-1.66499E-14
 -1       159 8.25030E-03-9.11131E-04-1.73898E-14
 -1       160 8.64692E-03-8.08035E-04-1.80138E-14
 -1       161 9.00028E-03-6.62100E-04-1.85786E-14
 -1       162 9.23403E-03-5.07686E-04-1.89500E-14
 -1       163 9.37684E-03-3.34445E-04-1.91762E-14
 -1       164 2.40204E-04-1.23920E-04-6.24772E-18
 -1       165 2.25441E-04-9.29098E-05-1.55990E-17
 -1       166 2.19811E-04-7.10157E-05-2.10877E-17
 -1       167 2.17004E-04-5.34216E-05-2.44386E-17
 -1       168 2.15432E-04-3.85185E-05-2.61767E-17
 -1       169 2.14498E-04-2.48565E-05-2.69492E-17
 -1       170 2.14003E-04-1.20880E-05-2.70915E-17
 -1       171 2.13852E-04 2.65005E-07-2.71389E-17
 -1       172 2.14019E-04 1.26316E-05-2.71152E-17
 -1       173 2.14534E-04 2.54433E-05-2.64613E-17
 -1       174 2.15471E-04 3.89453E-05-2.51365E-17
 -1       175 2.17096E-04 5.42291E-05-2.28258E-17
 -1       176 2.19959E-04 7.20524E-05-1.93767E-17
 -1       177 2.25603E-04 9.43055E-05-1.34238E-17
 -1       178 2.39138E-04 1.25987E-04-3.28310E-18
 -1       179 2.96897E-04 1.83659E-04 8.07053E-18
 -1       180 4.67634E-04-2.60226E-04-1.90413E-17
 -1       181 7.65554E-04-3.75798E-04-9.62196E-17
 -1       182 1.04968E-03-4.55090E-04-2.29292E-16
 -1       183 1.32798E-03-5.09622E-04-4.20003E-16
 -1       184 1.60431E-03-5.46309E-04-6.67797E-16
 -1       185 1.88102E-03-5.69758E-04-9.74932E-16
 -1       186 2.15962E-03-5.83242E-04-1.34245E-15
 -1       187 2.44121E-03-5.89248E-04-1.77006E-15
 -1       188 2.72667E-03-5.89805E-04-2.25741E-15
 -1       189 3.01684E-03-5.86725E-04-2.80443E-15
 -1       190 3.31257E-03-5.81827E-04-3.40897E-15
 -1       191 3.61481E-03-5.77167E-04-4.06973E-15
 -1       192 3.92450E-03-5.75299E-04-4.79098E-15
 -1       193 4.24258E-03-5.79550E-04-5.57098E-15
 -1       194 4.56970E-03-5.94256E-04-6.41168E-15
 -1       195 4.90592E-03-6.24830E-04-7.30991E-15
 -1       196 5.25024E-03-6.77360E-04-8.26611E-15
 -1       197 5.59996E-03-7.57267E-04-9.28575E-15
 -1       198 5.95030E-03-8.66510E-04-1.03702E-14
 -1       199 6.29457E-03-9.99346E-04-1.15202E-14
 -1       200 6.62591E-03-1.13834E-03-1.27443E-14
 -1       201 6.94079E-03-1.25476E-03-1.40430E-14
 -1       202 7.24259E-03-1.31774E-03-1.54242E-14
 -1       203 7.54163E-03-1.31006E-03-1.68861E-14
 -1       204 7.84982E-03-1.23855E-03-1.84264E-14
 -1       205 8.17406E-03-1.12983E-03-2.00443E-14
 -1       206 8.51366E-03-1.01525E-03-2.17403E-14
 -1       207 8.86278E-03-9.17915E-04-2.35037E-14
 -1       208 9.21440E-03-8.48515E-04-2.53193E-14
 -1       209 9.56283E-03-8.08023E-04-2.71858E-14
 -1       210 9.90457E-03-7.92188E-04-2.90937E-14
 -1       211 1.02380E-02-7.95076E-04-3.10471E-14
 -1       212 1.05630E-02-8.11029E-04-3.30488E-14
 -1       213 1.08800E-02-8.35451E-04-3.50922E-14
 -1       214 1.11902E-02-8.64922E-04-3.71654E-14
 -1       215 1.14945E-02-8.97055E-04-3.92571E-14
 -1       216 1.17940E-02-9.30265E-04-4.13580E-14
 -1       217 1.20899E-02-9.63553E-04-4.34748E-14
 -1       218 1.23828E-02-9.96331E-04-4.56177E-14
 -1       219 1.26736E-02-1.02829E-03-4.77898E-14
 -1       220 1.29627E-02-1.05930E-03-4.99818E-14
 -1       221 1.32506E-02-1.08936E-03-5.21911E-14
 -1       222 1.35376E-02-1.11853E-03-5.44070E-14
 -1       223 1.38241E-02-1.14689E-03-5.66323E-14
 -1       224 1.41102E-02-1.17458E-03-5.88534E-14
 -1       225 1.43961E-02-1.20171E-03-6.10634E-14
 -1       226 1.46819E-02-1.22842E-03-6.32684E-14
 -1       227 1.49676E-02-1.25486E-03-6.54744E-14
 -1       228 6.03203E-04 3.26542E-04-2.74608E-17
 -1       229 8.92220E-04 4.24968E-04-1.15003E-16
 -1       230 1.17159E-03 4.92959E-04-2.57525E-16
 -1       231 1.44712E-03 5.39647E-04-4.56815E-16
 -1       232 1.72204E-03 5.70784E-04-7.14232E-16
 -1       233 1.99827E-03 5.90324E-04-1.03015E-15
 -1       234 2.27706E-03 6.01195E-04-1.40413E-15
 -1       235 2.55930E-03 6.05716E-04-1.83589E-15
 -1       236 2.84574E-03 6.05872E-04-2.32822E-15
 -1       237 3.13705E-03 6.03523E-04-2.88117E-15
 -1       238 3.43387E-03 6.00601E-04-3.49325E-15
 -1       239 3.73678E-03 5.99282E-04-4.16472E-15
 -1       240 4.04622E-03 6.02143E-04-4.89654E-15
 -1       241 4.36231E-03 6.12246E-04-5.68994E-15
 -1       242 4.68462E-03 6.33058E-04-6.54507E-15
 -1       243 5.01186E-03 6.68084E-04-7.45815E-15
 -1       244 5.34161E-03 7.20010E-04-8.43144E-15
 -1       245 5.67015E-03 7.89246E-04-9.46120E-15
 -1       246 5.99286E-03 8.71990E-04-1.05489E-14
 -1       247 6.30523E-03 9.58585E-04-1.17007E-14
 -1       248 6.60463E-03 1.03362E-03-1.29197E-14
 -1       249 6.89215E-03 1.07929E-03-1.42122E-14
 -1       250 7.17318E-03 1.08166E-03-1.55700E-14
 -1       251 7.45577E-03 1.03688E-03-1.69969E-14
 -1       252 7.74735E-03 9.52981E-04-1.84952E-14
 -1       253 8.05185E-03 8.46069E-04-2.00653E-14
 -1       254 8.36889E-03 7.33641E-04-2.16979E-14
 -1       255 8.69497E-03 6.29193E-04-2.33969E-14
 -1       256 9.02544E-03 5.40160E-04-2.51582E-14
 -1       257 9.35602E-03 4.68631E-04-2.69783E-14
 -1       258 9.68355E-03 4.13246E-04-2.88530E-14
 -1       259 1.00062E-02 3.71016E-04-3.07769E-14
 -1       260 1.03231E-02 3.38577E-04-3.27516E-14
 -1       261 1.06344E-02 3.12866E-04-3.47710E-14
 -1       262 1.09403E-02 2.91397E-04-3.68399E-14
 -1       263 1.12416E-02 2.72303E-04-3.89467E-14
 -1       264 1.15391E-02 2.54265E-04-4.10819E-14
 -1       265 1.18334E-02 2.36405E-04-4.32397E-14
 -1       266 1.21252E-02 2.18181E-04-4.54168E-14
 -1       267 1.24151E-02 1.99289E-04-4.76149E-14
 -1       268 1.27037E-02 1.79595E-04-4.98166E-14
 -1       269 1.29912E-02 1.59072E-04-5.20133E-14
 -1       270 1.32779E-02 1.37761E-04-5.41937E-14
 -1       271 1.35642E-02 1.15747E-04-5.63629E-14
 -1       272 1.38502E-02 9.31325E-05-5.85210E-14
 -1       273 1.41360E-02 7.00361E-05-6.06862E-14
 -1       274 1.44217E-02 4.65849E-05-6.28506E-14
 -1       275 1.47074E-02 2.29226E-05-6.50065E-14
 -1       276 1.47753E-02-4.51875E-05-6.54547E-14
 -1       277 1.47987E-02-1.29479E-04-6.55580E-14
 -1       278 1.48223E-02-2.13732E-04-6.56650E-14
 -1       279 1.48461E-02-2.97910E-04-6.57770E-14
 -1       280 1.48698E-02-3.80565E-04-6.58839E-14
 -1       281 1.48941E-02-4.64546E-04-6.59983E-14
 -1       282 1.49186E-02-5.48445E-04-6.61157E-14
 -1       283 1.49431E-02-6.32300E-04-6.62270E-14
 -1       284 1.49677E-02-7.16155E-04-6.63175E-14
 -1       285 1.49925E-02-8.00059E-04-6.63962E-14
 -1       286 1.50169E-02-8.82622E-04-6.64687E-14
 -1       287 1.50420E-02-9.66710E-04-6.65308E-14
 -1       288 1.50674E-02-1.05090E-03-6.65905E-14
 -1       289 1.50930E-02-1.13515E-03-6.66564E-14
 -1       290 1.50302E-02-1.19502E-03-6.60663E-14
 -1       291 9.41841E-03-1.25401E-04-1.98722E-14
 -1       292 9.27117E-03-2.49643E-05-1.96930E-14
 -1       293 9.00894E-03 1.15108E-04-1.92357E-14
 -1       294 8.67129E-03 2.77240E-04-1.86735E-14
 -1       295 8.28451E-03 4.51741E-04-1.80117E-14
 -1       296 7.90122E-03 6.17357E-04-1.72183E-14
 -1       297 7.51806E-03 7.32738E-04-1.64239E-14
 -1       298 7.13385E-03 7.75482E-04-1.55704E-14
 -1       299 6.73879E-03 7.17815E-04-1.47563E-14
 -1       300 6.35296E-03 5.90291E-04-1.39860E-14
 -1       301 5.95353E-03 4.22250E-04-1.33689E-14
 -1       302 5.58952E-03 2.53743E-04-1.28733E-14
 -1       303 5.28688E-03 1.15010E-04-1.25466E-14
 -1       304 5.08836E-03-1.35392E-06-1.23086E-14
 -1       305 5.00802E-03-9.21429E-05-1.22671E-14
 -1       306 5.06264E-03-1.83477E-04-1.22807E-14
 -1       307 5.25304E-03-3.07230E-04-1.25573E-14
 -1       308 5.54151E-03-4.54504E-04-1.29065E-14
 -1       309 5.90495E-03-6.32832E-04-1.33924E-14
 -1       310 6.30625E-03-8.15542E-04-1.39816E-14
 -1       311 6.69129E-03-9.71273E-04-1.47004E-14
 -1       312 7.09119E-03-1.06709E-03-1.55025E-14
 -1       313 7.48784E-03-1.06390E-03-1.63701E-14
 -1       314 7.87996E-03-9.72648E-04-1.72656E-14
 -1       315 8.29787E-03-8.12199E-04-1.80511E-14
 -1       316 8.68858E-03-6.18456E-04-1.88380E-14
 -1       317 9.05166E-03-4.56628E-04-1.93473E-14
 -1       318 9.30360E-03-3.22743E-04-1.97201E-14
 -1       319 9.43016E-03-2.17710E-04-1.98976E-14
 -1       320 4.55927E-04-1.60934E-04-7.45423E-17
 -1       321 4.74397E-04-2.09135E-04-5.84012E-17
 -1       322 4.40802E-04-9.07172E-05-9.10018E-17
 -1       323 4.37563E-04-6.23143E-05-9.43595E-17
 -1       324 4.35692E-04-3.62515E-05-9.60705E-17
 -1       325 4.34836E-04-1.14678E-05-9.66261E-17
 -1       326 4.34866E-04 1.29274E-05-9.62738E-17
 -1       327 4.35787E-04 3.77763E-05-9.49727E-17
 -1       328 4.37696E-04 6.35164E-05-9.20420E-17
 -1       329 4.41026E-04 9.21008E-05-8.71021E-17
 -1       330 4.46606E-04 1.24602E-04-7.97566E-17
 -1       331 4.56420E-04 1.63431E-04-6.84606E-17
 -1       332 4.76005E-04 2.13191E-04-5.08084E-17
 -1       333 5.31588E-04 2.65822E-04-4.23245E-17
 -1       334 8.24203E-04 3.66182E-04-1.33503E-16
 -1       335 8.63609E-04-3.49293E-04-1.95065E-16
 -1       336 1.15068E-03-4.14071E-04-3.66589E-16
 -1       337 1.43472E-03-4.58509E-04-5.94251E-16
 -1       338 1.71743E-03-4.87652E-04-8.78488E-16
 -1       339 2.00017E-03-5.05220E-04-1.22125E-15
 -1       340 2.28400E-03-5.14022E-04-1.62240E-15
 -1       341 2.56977E-03-5.16277E-04-2.08232E-15
 -1       342 2.85819E-03-5.13860E-04-2.60161E-15
 -1       343 3.14996E-03-5.08524E-04-3.17855E-15
 -1       344 3.44573E-03-5.02125E-04-3.81196E-15
 -1       345 3.74623E-03-4.96856E-04-4.50227E-15
 -1       346 4.05223E-03-4.95524E-04-5.25300E-15
 -1       347 4.36460E-03-5.01822E-04-6.06346E-15
 -1       348 4.68422E-03-5.20549E-04-6.93418E-15
 -1       349 5.01196E-03-5.57601E-04-7.86162E-15
 -1       350 5.34832E-03-6.19419E-04-8.84794E-15
 -1       351 5.69282E-03-7.11326E-04-9.89645E-15
 -1       352 6.04287E-03-8.34068E-04-1.10083E-14
 -1       353 6.39280E-03-9.78461E-04-1.21923E-14
 -1       354 6.73506E-03-1.12049E-03-1.34492E-14
 -1       355 7.06519E-03-1.22343E-03-1.47836E-14
 -1       356 7.38751E-03-1.25410E-03-1.62023E-14
 -1       357 7.71304E-03-1.20493E-03-1.76997E-14
 -1       358 8.05006E-03-1.09982E-03-1.92725E-14
 -1       359 8.39770E-03-9.76555E-04-2.09228E-14
 -1       360 8.74902E-03-8.65966E-04-2.26471E-14
 -1       361 9.09714E-03-7.83610E-04-2.44316E-14
 -1       362 9.43815E-03-7.32492E-04-2.62662E-14
 -1       363 9.77083E-03-7.08831E-04-2.81478E-14
 -1       364 1.00954E-02-7.06462E-04-3.00737E-14
 -1       365 1.04128E-02-7.19241E-04-3.20514E-14
 -1       366 1.07239E-02-7.42036E-04-3.40716E-14
 -1       367 1.10296E-02-7.70957E-04-3.61239E-14
 -1       368 1.13309E-02-8.03234E-04-3.82006E-14
 -1       369 1.16286E-02-8.36996E-04-4.02924E-14
 -1       370 1.19234E-02-8.71043E-04-4.24015E-14
 -1       371 1.22158E-02-9.04653E-04-4.45265E-14
 -1       372 1.25063E-02-9.37432E-04-4.66772E-14
 -1       373 1.27955E-02-9.69204E-04-4.88527E-14
 -1       374 1.30836E-02-9.99934E-04-5.10473E-14
 -1       375 1.33709E-02-1.02967E-03-5.32522E-14
 -1       376 1.36577E-02-1.05851E-03-5.54602E-14
 -1       377 1.39441E-02-1.08657E-03-5.76778E-14
 -1       378 1.42301E-02-1.11400E-03-5.98901E-14
 -1       379 1.45161E-02-1.14091E-03-6.20996E-14
 -1       380 1.47732E-02-1.16806E-03-6.40824E-14
 -1       381 1.11026E-03 4.36742E-04-2.77878E-16
 -1       382 1.39218E-03 4.85378E-04-4.77259E-16
 -1       383 1.67243E-03 5.17815E-04-7.33578E-16
 -1       384 1.95280E-03 5.38130E-04-1.04811E-15
 -1       385 2.23453E-03 5.49358E-04-1.42068E-15
 -1       386 2.51857E-03 5.53887E-04-1.85011E-15
 -1       387 2.80564E-03 5.53730E-04-2.33915E-15
 -1       388 3.09641E-03 5.50745E-04-2.88848E-15
 -1       389 3.39145E-03 5.46834E-04-3.49517E-15
 -1       390 3.69133E-03 5.44124E-04-4.16015E-15
 -1       391 3.99651E-03 5.45140E-04-4.88529E-15
 -1       392 4.30731E-03 5.52911E-04-5.67056E-15
 -1       393 4.62373E-03 5.70941E-04-6.51824E-15
 -1       394 4.94530E-03 6.02924E-04-7.42466E-15
 -1       395 5.27075E-03 6.51987E-04-8.39031E-15
 -1       396 5.59784E-03 7.19315E-04-9.41293E-15
 -1       397 5.92321E-03 8.02156E-04-1.04935E-14
 -1       398 6.24289E-03 8.91772E-04-1.16375E-14
 -1       399 6.55362E-03 9.72788E-04-1.28510E-14
 -1       400 6.85487E-03 1.02597E-03-1.41360E-14
 -1       401 7.15014E-03 1.03495E-03-1.54863E-14
 -1       402 7.44592E-03 9.93736E-04-1.69066E-14
 -1       403 7.74850E-03 9.10027E-04-1.83992E-14
 -1       404 8.06083E-03 8.01011E-04-1.99626E-14
 -1       405 8.38193E-03 6.85732E-04-2.15905E-14
 -1       406 8.70836E-03 5.78741E-04-2.32834E-14
 -1       407 9.03624E-03 4.87905E-04-2.50418E-14
 -1       408 9.36241E-03 4.15328E-04-2.68582E-14
 -1       409 9.68486E-03 3.59505E-04-2.87287E-14
 -1       410 1.00025E-02 3.17274E-04-3.06471E-14
 -1       411 1.03152E-02 2.85117E-04-3.26171E-14
 -1       412 1.06229E-02 2.59850E-04-3.46297E-14
 -1       413 1.09262E-02 2.38900E-04-3.66922E-14
 -1       414 1.12256E-02 2.20337E-04-3.87905E-14
 -1       415 1.15218E-02 2.02803E-04-4.09172E-14
 -1       416 1.18153E-02 1.85400E-04-4.30671E-14
 -1       417 1.21067E-02 1.67571E-04-4.52377E-14
 -1       418 1.23965E-02 1.49014E-04-4.74299E-14
 -1       419 1.26850E-02 1.29594E-04-4.96284E-14
 -1       420 1.29725E-02 1.09290E-04-5.18247E-14
 -1       421 1.32594E-02 8.81511E-05-5.40047E-14
 -1       422 1.35459E-02 6.62661E-05-5.61763E-14
 -1       423 1.38320E-02 4.37459E-05-5.83365E-14
 -1       424 1.41179E-02 2.07132E-05-6.05012E-14
 -1       425 1.44037E-02-2.70290E-06-6.26633E-14
 -1       426 1.45895E-02-2.39140E-05-6.40608E-14
 -1       427 1.45868E-02-2.35067E-04-6.38480E-14
 -1       428 1.45630E-02-1.50973E-04-6.37428E-14
 -1       429 1.45762E-02-8.74688E-05-6.39009E-14
 -1       430 1.46104E-02-3.17612E-04-6.39546E-14
 -1       431 1.46346E-02-4.01451E-04-6.40604E-14
 -1       432 1.46591E-02-4.85178E-04-6.41662E-14
 -1       433 1.46836E-02-5.68829E-04-6.42642E-14
 -1       434 1.47081E-02-6.52455E-04-6.43532E-14
 -1       435 1.47328E-02-7.36108E-04-6.44323E-14
 -1       436 1.47572E-02-8.18419E-04-6.45025E-14
 -1       437 1.47821E-02-9.02261E-04-6.45628E-14
 -1       438 1.48073E-02-9.86233E-04-6.46291E-14
 -1       439 1.48327E-02-1.07033E-03-6.47016E-14
 -1       440 9.12253E-03-2.36398E-05-2.01898E-14
 -1       441 9.45832E-03-1.78189E-04-2.06732E-14
 -1       442 9.37423E-03-1.25174E-04-2.06490E-14
 -1       443 8.79121E-03 1.13934E-04-1.97012E-14
 -1       444 8.42156E-03 3.08580E-04-1.88421E-14
 -1       445 4.46238E-04-1.22697E-04-8.47372E-17
 -1       446 7.66055E-03 6.91291E-04-1.70643E-14
 -1       447 7.31309E-03 7.95760E-04-1.60721E-14
 -1       448 6.94101E-03 7.82100E-04-1.50089E-14
 -1       449 6.61809E-03 6.78267E-04-1.41984E-14
 -1       450 6.20481E-03 4.78747E-04-1.33156E-14
 -1       451 5.82412E-03 2.82317E-04-1.26508E-14
 -1       452 5.44985E-03 1.16910E-04-1.22462E-14
 -1       453 5.18650E-03 8.30653E-06-1.19486E-14
 -1       454 5.01512E-03-6.79186E-05-1.17790E-14
 -1       455 4.99555E-03-1.14466E-04-1.16981E-14
 -1       456 5.15730E-03-1.90690E-04-1.18794E-14
 -1       457 5.41802E-03-3.09254E-04-1.22947E-14
 -1       458 5.77592E-03-4.78752E-04-1.27620E-14
 -1       459 6.16838E-03-6.78162E-04-1.33044E-14
 -1       460 6.57656E-03-9.00608E-04-1.41343E-14
 -1       461 6.92586E-03-1.04875E-03-1.49571E-14
 -1       462 7.30141E-03-1.11524E-03-1.59815E-14
 -1       463 7.60444E-03-1.06579E-03-1.68653E-14
 -1       464 8.04692E-03-8.77084E-04-1.81266E-14
 -1       465 8.39069E-03-6.95467E-04-1.89231E-14
 -1       466 8.85698E-03-4.62499E-04-1.98132E-14
 -1       467 9.17561E-03-3.28290E-04-2.02427E-14
 -1       468 9.39133E-03-2.37328E-04-2.05318E-14
 -1       469 8.00749E-03 5.27233E-04-1.79181E-14
 -1       470 9.32168E-04 3.36906E-04-2.38928E-16
 -1       471 6.65300E-04-7.17467E-05-2.05253E-16
 -1       472 6.69804E-04-1.11152E-04-2.00378E-16
 -1       473 6.62100E-04 1.04960E-06-2.07520E-16
 -1       474 6.62962E-04 3.69224E-05-2.05592E-16
 -1       475 6.65482E-04 7.33789E-05-2.01553E-16
 -1       476 6.70104E-04 1.12961E-04-1.94563E-16
 -1       477 6.77630E-04 1.56630E-04-1.83908E-16
 -1       478 6.89845E-04 2.06444E-04-1.67787E-16
 -1       479 1.21883E-03 3.93290E-04-4.21091E-16
 -1       480 9.77541E-04-3.18716E-04-3.07612E-16
 -1       481 8.19394E-03 4.05133E-04-1.88293E-14
 -1       482 1.26418E-03-3.69309E-04-5.14840E-16
 -1       483 1.55029E-03-4.03942E-04-7.77780E-16
 -1       484 1.83598E-03-4.25958E-04-1.09711E-15
 -1       485 2.12170E-03-4.38200E-04-1.47322E-15
 -1       486 2.40796E-03-4.42981E-04-1.90632E-15
 -1       487 2.69520E-03-4.42227E-04-2.39792E-15
 -1       488 2.98385E-03-4.37647E-04-2.94769E-15
 -1       489 3.27433E-03-4.30922E-04-3.55427E-15
 -1       490 3.56710E-03-4.23906E-04-4.21613E-15
 -1       491 3.86275E-03-4.18852E-04-4.93703E-15
 -1       492 4.16211E-03-4.18663E-04-5.71802E-15
 -1       493 4.46642E-03-4.27149E-04-6.55798E-15
 -1       494 4.77756E-03-4.49255E-04-7.45769E-15
 -1       495 5.09815E-03-4.91153E-04-8.41380E-15
 -1       496 5.43128E-03-5.59896E-04-9.42870E-15
 -1       497 5.77917E-03-6.61928E-04-1.05052E-14
 -1       498 6.14030E-03-7.98864E-04-1.16482E-14
 -1       499 6.50663E-03-9.58775E-04-1.28625E-14
 -1       500 6.86585E-03-1.10714E-03-1.41521E-14
 -1       501 7.21177E-03-1.19012E-03-1.55264E-14
 -1       502 7.55404E-03-1.17423E-03-1.69800E-14
 -1       503 7.90679E-03-1.07317E-03-1.85095E-14
 -1       504 8.27145E-03-9.36790E-04-2.01174E-14
 -1       505 8.63672E-03-8.10536E-04-2.18011E-14
 -1       506 8.99146E-03-7.16260E-04-2.35481E-14
 -1       507 9.33154E-03-6.56954E-04-2.53520E-14
 -1       508 9.65796E-03-6.27599E-04-2.72062E-14
 -1       509 9.97370E-03-6.21171E-04-2.91039E-14
 -1       510 1.02817E-02-6.31097E-04-3.10549E-14
 -1       511 1.05842E-02-6.52020E-04-3.30531E-14
 -1       512 1.08828E-02-6.79866E-04-3.50848E-14
 -1       513 1.11784E-02-7.11686E-04-3.71450E-14
 -1       514 1.14718E-02-7.45435E-04-3.92254E-14
 -1       515 1.17634E-02-7.79763E-04-4.13256E-14
 -1       516 1.20536E-02-8.13825E-04-4.34398E-14
 -1       517 1.23427E-02-8.47135E-04-4.55746E-14
 -1       518 1.26309E-02-8.79455E-04-4.77314E-14
 -1       519 1.29185E-02-9.10707E-04-4.99113E-14
 -1       520 1.32055E-02-9.40916E-04-5.21007E-14
 -1       521 1.34921E-02-9.70167E-04-5.42976E-14
 -1       522 1.37784E-02-9.98577E-04-5.65038E-14
 -1       523 1.40645E-02-1.02628E-03-5.87172E-14
 -1       524 1.43504E-02-1.05340E-03-6.09209E-14
 -1       525 1.78875E-03 4.57328E-04-9.50110E-16
 -1       526 2.07338E-03 4.72154E-04-1.30085E-15
 -1       527 2.35879E-03 4.79150E-04-1.70751E-15
 -1       528 2.64562E-03 4.80429E-04-2.17133E-15
 -1       529 2.93442E-03 4.77852E-04-2.69491E-15
 -1       530 3.22571E-03 4.73211E-04-3.27647E-15
 -1       531 3.52002E-03 4.68419E-04-3.91372E-15
 -1       532 3.81794E-03 4.65683E-04-4.60946E-15
 -1       533 4.12010E-03 4.67666E-04-5.36510E-15
 -1       534 4.42723E-03 4.77576E-04-6.18171E-15
 -1       535 4.74005E-03 4.99122E-04-7.05819E-15
 -1       536 5.05913E-03 5.36171E-04-7.99268E-15
 -1       537 5.38443E-03 5.91900E-04-8.98727E-15
 -1       538 5.71465E-03 6.67160E-04-1.00373E-14
 -1       539 6.04654E-03 7.57962E-04-1.11484E-14
 -1       540 6.37508E-03 8.52606E-04-1.23264E-14
 -1       541 6.69567E-03 9.30996E-04-1.35759E-14
 -1       542 7.00775E-03 9.69790E-04-1.48934E-14
 -1       543 7.31644E-03 9.53066E-04-1.62802E-14
 -1       544 7.62951E-03 8.82040E-04-1.77393E-14
 -1       545 7.95145E-03 7.74372E-04-1.92725E-14
 -1       546 8.28103E-03 6.53500E-04-2.08735E-14
 -1       547 8.61332E-03 5.38443E-04-2.25373E-14
 -1       548 8.94353E-03 4.39792E-04-2.42684E-14
 -1       549 9.26869E-03 3.60718E-04-2.60590E-14
 -1       550 9.58778E-03 2.99946E-04-2.79057E-14
 -1       551 9.90093E-03 2.54218E-04-2.98025E-14
 -1       552 1.02088E-02 2.19796E-04-3.17479E-14
 -1       553 1.05122E-02 1.93247E-04-3.37395E-14
 -1       554 1.08118E-02 1.71751E-04-3.57772E-14
 -1       555 1.11084E-02 1.53160E-04-3.78565E-14
 -1       556 1.14025E-02 1.35938E-04-3.99640E-14
 -1       557 1.16945E-02 1.19041E-04-4.20932E-14
 -1       558 1.19850E-02 1.01813E-04-4.42474E-14
 -1       559 1.22741E-02 8.38754E-05-4.64258E-14
 -1       560 1.25624E-02 6.50481E-05-4.86174E-14
 -1       561 1.28498E-02 4.52816E-05-5.08087E-14
 -1       562 1.31367E-02 2.46106E-05-5.29953E-14
 -1       563 1.34232E-02 3.11872E-06-5.51694E-14
 -1       564 1.37094E-02-1.90839E-05-5.73376E-14
 -1       565 1.39955E-02-4.18750E-05-5.95063E-14
 -1       566 1.42813E-02-6.51250E-05-6.16688E-14
 -1       567 1.43752E-02-3.38701E-04-6.21269E-14
 -1       568 1.43996E-02-4.22239E-04-6.22267E-14
 -1       569 1.43274E-02-1.72520E-04-6.19222E-14
 -1       570 1.43512E-02-2.55702E-04-6.20255E-14
 -1       571 1.44242E-02-5.05646E-04-6.23184E-14
 -1       572 1.44487E-02-5.88984E-04-6.24022E-14
 -1       573 1.44733E-02-6.72322E-04-6.24788E-14
 -1       574 1.44976E-02-7.54315E-04-6.25440E-14
 -1       575 1.45223E-02-8.37852E-04-6.26037E-14
 -1       576 1.45473E-02-9.21561E-04-6.26676E-14
 -1       577 1.45725E-02-1.00546E-03-6.27409E-14
 -1       578 9.47190E-03-1.70480E-04-2.16408E-14
 -1       579 9.01158E-03-3.81381E-06-2.09743E-14
 -1       580 1.50417E-03 4.32112E-04-6.57538E-16
 -1       581 9.47320E-03-2.05049E-04-2.15733E-14
 -1       582 9.28100E-03-1.04698E-04-2.14447E-14
 -1       583 7.13484E-04-2.45127E-04-1.70769E-16
 -1       584 9.32614E-03-2.59404E-04-2.12337E-14
 -1       585 7.10415E-03-1.11363E-03-1.53113E-14
 -1       586 6.62848E-04-3.47793E-05-2.07472E-16
 -1       587 7.10098E-03 8.24761E-04-1.54070E-14
 -1       588 9.06281E-03-3.59964E-04-2.08218E-14
 -1       589 7.47917E-03 7.65756E-04-1.67265E-14
 -1       590 6.78651E-03 7.52494E-04-1.44166E-14
 -1       591 6.43449E-03 5.93891E-04-1.34791E-14
 -1       592 6.02899E-03 3.79366E-04-1.26042E-14
 -1       593 5.58746E-03 1.62056E-04-1.18706E-14
 -1       594 5.29314E-03 3.87401E-05-1.15724E-14
 -1       595 5.06098E-03-4.41984E-05-1.13682E-14
 -1       596 4.95931E-03-8.54572E-05-1.11445E-14
 -1       597 5.02346E-03-1.29886E-04-1.11962E-14
 -1       598 5.29391E-03-2.26855E-04-1.16225E-14
 -1       599 5.59472E-03-3.55741E-04-1.20623E-14
 -1       600 5.95588E-03-5.36313E-04-1.25370E-14
 -1       601 6.41510E-03-7.98652E-04-1.33657E-14
 -1       602 6.77458E-03-9.90849E-04-1.43553E-14
 -1       603 7.46142E-03-1.12021E-03-1.65424E-14
 -1       604 7.79610E-03-1.01116E-03-1.77234E-14
 -1       605 8.23028E-03-7.82897E-04-1.90445E-14
 -1       606 8.64785E-03-5.55038E-04-2.00697E-14
 -1       607 7.83665E-03 6.04451E-04-1.79162E-14
 -1       608 7.04243E-04 2.84589E-04-1.26828E-16
 -1       609 8.56700E-03 2.02553E-04-1.97848E-14
 -1       610 6.77129E-04-1.54411E-04-1.92056E-16
 -1       611 5.10050E-03-1.60672E-04-1.09435E-14
 -1       612 1.45442E-02-1.07314E-03-6.24193E-14
 -1       613 8.98008E-04 7.02972E-05-3.52894E-16
 -1       614 8.95468E-04 2.38213E-05-3.57807E-16
 -1       615 9.11804E-04 1.70603E-04-3.31749E-16
 -1       616 9.24996E-04 2.28016E-04-3.12440E-16
 -1       617 1.05022E-03 3.03124E-04-3.58464E-16
 -1       618 5.71492E-03-4.19109E-04-1.17683E-14
 -1       619 7.65416E-03 7.15553E-04-1.75367E-14
 -1       620 8.50725E-03-6.72358E-04-2.03111E-14
 -1       621 1.38482E-03-3.21188E-04-6.74340E-16
 -1       622 1.67135E-03-3.46803E-04-9.70761E-16
 -1       623 1.95796E-03-3.62354E-04-1.32250E-15
 -1       624 2.24448E-03-3.69965E-04-1.73053E-15
 -1       625 2.53091E-03-3.71493E-04-2.19527E-15
 -1       626 2.81732E-03-3.68569E-04-2.71817E-15
 -1       627 3.10380E-03-3.62715E-04-3.29717E-15
 -1       628 3.39048E-03-3.55486E-04-3.93159E-15
 -1       629 3.67765E-03-3.48633E-04-4.62352E-15
 -1       630 3.96581E-03-3.44293E-04-5.37460E-15
 -1       631 4.25598E-03-3.45183E-04-6.18440E-15
 -1       632 4.55000E-03-3.54861E-04-7.05528E-15
 -1       633 4.85107E-03-3.78073E-04-7.98200E-15
 -1       634 5.16409E-03-4.21291E-04-8.96598E-15
 -1       635 5.49552E-03-4.93259E-04-1.00086E-14
 -1       636 5.85123E-03-6.04506E-04-1.11135E-14
 -1       637 6.23097E-03-7.62192E-04-1.22863E-14
 -1       638 6.62202E-03-9.49344E-04-1.35290E-14
 -1       639 8.53570E-03-7.49058E-04-2.09644E-14
 -1       640 8.90291E-03-6.40963E-04-2.26736E-14
 -1       641 9.24488E-03-5.76404E-04-2.44442E-14
 -1       642 9.56546E-03-5.45273E-04-2.62687E-14
 -1       643 9.87131E-03-5.37774E-04-2.81402E-14
 -1       644 1.01681E-02-5.46512E-04-3.00630E-14
 -1       645 1.04599E-02-5.66151E-04-3.20344E-14
 -1       646 1.07490E-02-5.92824E-04-3.40480E-14
 -1       647 1.10367E-02-6.23729E-04-3.60925E-14
 -1       648 1.13237E-02-6.56872E-04-3.81586E-14
 -1       649 1.16103E-02-6.90879E-04-4.02471E-14
 -1       650 1.18968E-02-7.24849E-04-4.23536E-14
 -1       651 1.21831E-02-7.58233E-04-4.44750E-14
 -1       652 1.24694E-02-7.90731E-04-4.66172E-14
 -1       653 1.27555E-02-8.22218E-04-4.87799E-14
 -1       654 1.30416E-02-8.52681E-04-5.09578E-14
 -1       655 1.33276E-02-8.82182E-04-5.31464E-14
 -1       656 1.36135E-02-9.10820E-04-5.53421E-14
 -1       657 1.38993E-02-9.38717E-04-5.75446E-14
 -1       658 1.41851E-02-9.65999E-04-5.97483E-14
 -1       659 2.19584E-03 4.04311E-04-1.56090E-15
 -1       660 1.40417E-02-1.49141E-04-5.97556E-14
 -1       661 1.90938E-03 3.94426E-04-1.17620E-15
 -1       662 2.77000E-03 4.06358E-04-2.49869E-15
 -1       663 3.05835E-03 4.01993E-04-3.05468E-15
 -1       664 3.34807E-03 3.96261E-04-3.66689E-15
 -1       665 3.63970E-03 3.91002E-04-4.33459E-15
 -1       666 3.93398E-03 3.88382E-04-5.06164E-15
 -1       667 4.23199E-03 3.91057E-04-5.84826E-15
 -1       668 4.53520E-03 4.02284E-04-6.69584E-15
 -1       669 4.84550E-03 4.25958E-04-7.60001E-15
 -1       670 5.16490E-03 4.66416E-04-8.56493E-15
 -1       671 5.49473E-03 5.27640E-04-9.58666E-15
 -1       672 5.83424E-03 6.11328E-04-1.06654E-14
 -1       673 6.17881E-03 7.13021E-04-1.18082E-14
 -1       674 6.52013E-03 8.16713E-04-1.30184E-14
 -1       675 6.85149E-03 8.92991E-04-1.43011E-14
 -1       676 7.17380E-03 9.11103E-04-1.56526E-14
 -1       677 7.49692E-03 8.57825E-04-1.70788E-14
 -1       678 7.82914E-03 7.50726E-04-1.85798E-14
 -1       679 8.17192E-03 6.19996E-04-2.01531E-14
 -1       680 8.51633E-03 4.94289E-04-2.17940E-14
 -1       681 8.85494E-03 3.87691E-04-2.34963E-14
 -1       682 9.18356E-03 3.03540E-04-2.52625E-14
 -1       683 9.50190E-03 2.39598E-04-2.70858E-14
 -1       684 9.81152E-03 1.91829E-04-2.89587E-14
 -1       685 1.01144E-02 1.56051E-04-3.08817E-14
 -1       686 1.04125E-02 1.28620E-04-3.28512E-14
 -1       687 1.07071E-02 1.06617E-04-3.48671E-14
 -1       688 1.09993E-02 8.78227E-05-3.69255E-14
 -1       689 1.12898E-02 7.06325E-05-3.90148E-14
 -1       690 1.15790E-02 5.39389E-05-4.11252E-14
 -1       691 1.18673E-02 3.70232E-05-4.32639E-14
 -1       692 1.21549E-02 1.94565E-05-4.54267E-14
 -1       693 1.24420E-02 1.01813E-06-4.76065E-14
 -1       694 1.27287E-02-1.83698E-05-4.97933E-14
 -1       695 1.30152E-02-3.86920E-05-5.19798E-14
 -1       696 1.33014E-02-5.98760E-05-5.41590E-14
 -1       697 1.35874E-02-8.18190E-05-5.63324E-14
 -1       698 1.38146E-02-1.15303E-04-5.80434E-14
 -1       699 8.79598E-03 1.13774E-04-2.11728E-14
 -1       700 1.41895E-02-5.25850E-04-6.04630E-14
 -1       701 1.43788E-02-9.85820E-04-6.12431E-14
 -1       702 1.41403E-02-3.59703E-04-6.02923E-14
 -1       703 1.42141E-02-6.08802E-04-6.05373E-14
 -1       704 1.41649E-02-4.42847E-04-6.03815E-14
 -1       705 1.42382E-02-6.90396E-04-6.06008E-14
 -1       706 1.42628E-02-7.73535E-04-6.06579E-14
 -1       707 1.42875E-02-8.56885E-04-6.07164E-14
 -1       708 8.73353E-04-2.38756E-04-2.82181E-16
 -1       709 9.23330E-03-6.98446E-05-2.22896E-14
 -1       710 9.48432E-03-1.56371E-04-2.28104E-14
 -1       711 9.55610E-03-1.97723E-04-2.27881E-14
 -1       712 1.62297E-03 3.75943E-04-8.48202E-16
 -1       713 2.48261E-03 4.07685E-04-2.00052E-15
 -1       714 1.12817E-03-2.85295E-04-4.56771E-16
 -1       715 9.03248E-04 1.18668E-04-3.44847E-16
 -1       716 1.33651E-03 3.46422E-04-5.76423E-16
 -1       717 6.88635E-03 8.11780E-04-1.45878E-14
 -1       718 9.02864E-04-1.16335E-04-3.52362E-16
 -1       719 9.46589E-03-2.35711E-04-2.24437E-14
 -1       720 8.94309E-03-4.42093E-04-2.13604E-14
 -1       721 8.07404E-03 4.88017E-04-1.89229E-14
 -1       722 6.59420E-03 7.02857E-04-1.36424E-14
 -1       723 6.20868E-03 5.10656E-04-1.26045E-14
 -1       724 5.75849E-03 2.78811E-04-1.16588E-14
 -1       725 5.35078E-03 8.89681E-05-1.10736E-14
 -1       726 5.10355E-03-9.56379E-06-1.08627E-14
 -1       727 4.95392E-03-5.78963E-05-1.06461E-14
 -1       728 4.90052E-03-9.66905E-05-1.04318E-14
 -1       729 6.12563E-03-6.52565E-04-1.23820E-14
 -1       730 5.42454E-03-2.84197E-04-1.13389E-14
 -1       731 9.28206E-03-2.97534E-04-2.20201E-14
 -1       732 8.39915E-03 3.04579E-04-1.98806E-14
 -1       733 7.29722E-03 8.29912E-04-1.61483E-14
 -1       734 8.22228E-03-8.60770E-04-1.95848E-14
 -1       735 9.11206E-04-1.67991E-04-3.42544E-16
 -1       736 8.95401E-04-2.19374E-05-3.59386E-16
 -1       737 1.41160E-02-2.77054E-04-6.01944E-14
 -1       738 5.19053E-03-2.08645E-04-1.06669E-14
 -1       739 8.97789E-04-6.81340E-05-3.57702E-16
 -1       740 7.88486E-03 6.25144E-04-1.85219E-14
 -1       741 4.91716E-03-1.18553E-04-1.01866E-14
 -1       742 1.42363E-02-9.11420E-04-6.02310E-14
 -1       743 7.47353E-03 8.12497E-04-1.69149E-14
 -1       744 1.16169E-03 2.32359E-04-5.00915E-16
 -1       745 1.79589E-03-2.87624E-04-1.17208E-15
 -1       746 2.08211E-03-2.97657E-04-1.55486E-15
 -1       747 2.36786E-03-3.01539E-04-1.99400E-15
 -1       748 2.65275E-03-3.00730E-04-2.48995E-15
 -1       749 2.93649E-03-2.96578E-04-3.04209E-15
 -1       750 3.21884E-03-2.90381E-04-3.64997E-15
 -1       751 3.49968E-03-2.83493E-04-4.31351E-15
 -1       752 3.77904E-03-2.77429E-04-5.03480E-15
 -1       753 4.05730E-03-2.73983E-04-5.81479E-15
 -1       754 4.33550E-03-2.75369E-04-6.65535E-15
 -1       755 4.61584E-03-2.84487E-04-7.55343E-15
 -1       756 4.90249E-03-3.05556E-04-8.50700E-15
 -1       757 5.20257E-03-3.45541E-04-9.51836E-15
 -1       758 5.52701E-03-4.16596E-04-1.05880E-14
 -1       759 5.92407E-03-5.69266E-04-1.17163E-14
 -1       760 9.18832E-03-4.87840E-04-2.35461E-14
 -1       761 9.49781E-03-4.59881E-04-2.53370E-14
 -1       762 9.78891E-03-4.55287E-04-2.71818E-14
 -1       763 1.00710E-02-4.65331E-04-2.90762E-14
 -1       764 1.03492E-02-4.84868E-04-3.10224E-14
 -1       765 1.06265E-02-5.10643E-04-3.30125E-14
 -1       766 1.09043E-02-5.40366E-04-3.50381E-14
 -1       767 1.11833E-02-5.72361E-04-3.70927E-14
 -1       768 1.14635E-02-6.05410E-04-3.91684E-14
 -1       769 1.17450E-02-6.38657E-04-4.12633E-14
 -1       770 1.20276E-02-6.71539E-04-4.33750E-14
 -1       771 1.23109E-02-7.03721E-04-4.55078E-14
 -1       772 1.25949E-02-7.35032E-04-4.76558E-14
 -1       773 1.28795E-02-7.65421E-04-4.98254E-14
 -1       774 1.31644E-02-7.94912E-04-5.20008E-14
 -1       775 1.34495E-02-8.23580E-04-5.41875E-14
 -1       776 1.37349E-02-8.51526E-04-5.63841E-14
 -1       777 1.39855E-02-8.81649E-04-5.83075E-14
 -1       778 2.03277E-03 3.29944E-04-1.41134E-15
 -1       779 3.17784E-03 3.27161E-04-3.41889E-15
 -1       780 2.89178E-03 3.32746E-04-2.83244E-15
 -1       781 3.75136E-03 3.15102E-04-4.76142E-15
 -1       782 4.04041E-03 3.12230E-04-5.51910E-15
 -1       783 4.33295E-03 3.14585E-04-6.33634E-15
 -1       784 4.63138E-03 3.25367E-04-7.21240E-15
 -1       785 4.93904E-03 3.48795E-04-8.14731E-15
 -1       786 5.25984E-03 3.90393E-04-9.13935E-15
 -1       787 5.59691E-03 4.56461E-04-1.01872E-14
 -1       788 5.95065E-03 5.52075E-04-1.12946E-14
 -1       789 6.31297E-03 6.71862E-04-1.24686E-14
 -1       790 7.01664E-03 8.63123E-04-1.50266E-14
 -1       791 8.42324E-03 4.46080E-04-2.10505E-14
 -1       792 8.77520E-03 3.28780E-04-2.27286E-14
 -1       793 9.10972E-03 2.40564E-04-2.44665E-14
 -1       794 9.42826E-03 1.75877E-04-2.62672E-14
 -1       795 9.73428E-03 1.28462E-04-2.81182E-14
 -1       796 1.00315E-02 9.31101E-05-3.00170E-14
 -1       797 1.03231E-02 6.58683E-05-3.19650E-14
 -1       798 1.06114E-02 4.38424E-05-3.39604E-14
 -1       799 1.08979E-02 2.49247E-05-3.59937E-14
 -1       800 1.11835E-02 7.60362E-06-3.80692E-14
 -1       801 1.14687E-02-9.17378E-06-4.01663E-14
 -1       802 1.17538E-02-2.61068E-05-4.22867E-14
 -1       803 1.20389E-02-4.36272E-05-4.44335E-14
 -1       804 1.23242E-02-6.19696E-05-4.65987E-14
 -1       805 1.26095E-02-8.12290E-05-4.87785E-14
 -1       806 1.28950E-02-1.01407E-04-5.09644E-14
 -1       807 1.31805E-02-1.22444E-04-5.31453E-14
 -1       808 1.34661E-02-1.44249E-04-5.53250E-14
 -1       809 1.39794E-02-6.27472E-04-5.86628E-14
 -1       810 1.40281E-02-7.92266E-04-5.87777E-14
 -1       811 1.39549E-02-5.44972E-04-5.86004E-14
 -1       812 8.59967E-03 2.58742E-04-2.11417E-14
 -1       813 5.50218E-03-3.48095E-04-1.10126E-14
 -1       814 1.24725E-03 2.87554E-04-5.40790E-16
 -1       815 1.74609E-03 3.17453E-04-1.04911E-15
 -1       816 9.60459E-03-2.28366E-04-2.36869E-14
 -1       817 5.10258E-03 4.10263E-05-1.02522E-14
 -1       818 1.40038E-02-7.09749E-04-5.87205E-14
 -1       819 3.46416E-03 3.20735E-04-4.06145E-15
 -1       820 8.86576E-03-5.53068E-04-2.19015E-14
 -1       821 1.50977E-03-2.69852E-04-8.44282E-16
 -1       822 9.12029E-03 2.34098E-05-2.28446E-14
 -1       823 9.24077E-03-3.72744E-04-2.28603E-14
 -1       824 9.47168E-03-1.20611E-04-2.36852E-14
 -1       825 4.81249E-03-6.40316E-05-9.77540E-15
 -1       826 6.75760E-03 7.99301E-04-1.40638E-14
 -1       827 9.66691E-03-1.91542E-04-2.43218E-14
 -1       828 5.43445E-03 1.91098E-04-1.06566E-14
 -1       829 4.94122E-03-1.82379E-05-1.00466E-14
 -1       830 5.90217E-03 4.25488E-04-1.15321E-14
 -1       831 9.45356E-03-2.76564E-04-2.31705E-14
 -1       832 1.13454E-03 5.55002E-05-5.45974E-16
 -1       833 8.23650E-03 4.37931E-04-1.98064E-14
 -1       834 1.13281E-03 1.07797E-06-5.50460E-16
 -1       835 1.14847E-03 1.69795E-04-5.22260E-16
 -1       836 1.38811E-02-2.98005E-04-5.83570E-14
 -1       837 1.25395E-03-2.43567E-04-5.97070E-16
 -1       838 1.14786E-03-1.66896E-04-5.35589E-16
 -1       839 2.60566E-03 3.36027E-04-2.30169E-15
 -1       840 8.06185E-03 5.89081E-04-1.94331E-14
 -1       841 8.95298E-03 1.47128E-04-2.28046E-14
 -1       842 1.36931E-02-1.77555E-04-5.70388E-14
 -1       843 1.39058E-02-3.80884E-04-5.84515E-14
 -1       844 2.31933E-03 3.35588E-04-1.82845E-15
 -1       845 1.39304E-02-4.62994E-04-5.85324E-14
 -1       846 1.13964E-03 1.11244E-04-5.36717E-16
 -1       847 1.38477E-02-2.06859E-04-5.82005E-14
 -1       848 1.13926E-03-1.08669E-04-5.45591E-16
 -1       849 4.77432E-03-8.31888E-05-9.54129E-15
 -1       850 1.49644E-03 3.06928E-04-7.73287E-16
 -1       851 4.95750E-03-1.53186E-04-9.92083E-15
 -1       852 1.40068E-02-8.36925E-04-5.85418E-14
 -1       853 2.20794E-03-2.32544E-04-1.79551E-15
 -1       854 2.49184E-03-2.33768E-04-2.26488E-15
 -1       855 2.77395E-03-2.31658E-04-2.78989E-15
 -1       856 3.05368E-03-2.27281E-04-3.37120E-15
 -1       857 3.33049E-03-2.21684E-04-4.00810E-15
 -1       858 3.60394E-03-2.15949E-04-4.69899E-15
 -1       859 3.87371E-03-2.11235E-04-5.44905E-15
 -1       860 4.13973E-03-2.08818E-04-6.25875E-15
 -1       861 4.40254E-03-2.10142E-04-7.12869E-15
 -1       862 4.66371E-03-2.17097E-04-8.05360E-15
 -1       863 4.92699E-03-2.33112E-04-9.03405E-15
 -1       864 9.62950E-03-2.69779E-04-2.44784E-14
 -1       865 9.45135E-03-5.51652E-05-2.45593E-14
 -1       866 9.72826E-03-3.74586E-04-2.62301E-14
 -1       867 9.98908E-03-3.88343E-04-2.80980E-14
 -1       868 1.02498E-02-4.08899E-04-3.00158E-14
 -1       869 1.05128E-02-4.34050E-04-3.19816E-14
 -1       870 1.07791E-02-4.62361E-04-3.39880E-14
 -1       871 1.10489E-02-4.92699E-04-3.60257E-14
 -1       872 1.13217E-02-5.24149E-04-3.80897E-14
 -1       873 1.15974E-02-5.56003E-04-4.01731E-14
 -1       874 1.18753E-02-5.87748E-04-4.22758E-14
 -1       875 1.21552E-02-6.19041E-04-4.43990E-14
 -1       876 1.24365E-02-6.49683E-04-4.65400E-14
 -1       877 1.27190E-02-6.79582E-04-4.86961E-14
 -1       878 1.30024E-02-7.08726E-04-5.08623E-14
 -1       879 1.32866E-02-7.37153E-04-5.30389E-14
 -1       880 1.35712E-02-7.64931E-04-5.52311E-14
 -1       881 4.75315E-03-2.33844E-05-9.18084E-15
 -1       882 4.13768E-03 2.37249E-04-5.98137E-15
 -1       883 3.85582E-03 2.41127E-04-5.19328E-15
 -1       884 4.71349E-03 2.45690E-04-7.73364E-15
 -1       885 5.01581E-03 2.65777E-04-8.69722E-15
 -1       886 5.33556E-03 3.05518E-04-9.71547E-15
 -1       887 9.67129E-03 6.29488E-05-2.72781E-14
 -1       888 9.96044E-03 3.04135E-05-2.91554E-14
 -1       889 1.02437E-02 4.89877E-06-3.10809E-14
 -1       890 1.05240E-02-1.63269E-05-3.30514E-14
 -1       891 1.08034E-02-3.50684E-05-3.50691E-14
 -1       892 1.10829E-02-5.25616E-05-3.71229E-14
 -1       893 1.13631E-02-6.96631E-05-3.92088E-14
 -1       894 1.16441E-02-8.69514E-05-4.13156E-14
 -1       895 1.19260E-02-1.04793E-04-4.34438E-14
 -1       896 1.22087E-02-1.23397E-04-4.55953E-14
 -1       897 1.24922E-02-1.42850E-04-4.77625E-14
 -1       898 1.27762E-02-1.63162E-04-4.99434E-14
 -1       899 1.30607E-02-1.84284E-04-5.21306E-14
 -1       900 1.33456E-02-2.06138E-04-5.43177E-14
 -1       901 5.23514E-03-2.65970E-04-1.02513E-14
 -1       902 5.10500E-03 1.26018E-04-9.66252E-15
 -1       903 9.47239E-03-3.40935E-04-2.41640E-14
 -1       904 1.37208E-02-5.64281E-04-5.67303E-14
 -1       905 9.37155E-03 1.06815E-04-2.54514E-14
 -1       906 9.16453E-03 1.22625E-04-2.41111E-14
 -1       907 1.13436E-03-5.31813E-05-5.50338E-16
 -1       908 4.42247E-03 2.37758E-04-6.82836E-15
 -1       909 1.92295E-03-2.26863E-04-1.38167E-15
 -1       910 9.72592E-03-1.58758E-04-2.54783E-14
 -1       911 9.77535E-03-2.32813E-04-2.53496E-14
 -1       912 2.15807E-03 2.64529E-04-1.65497E-15
 -1       913 4.90540E-03 3.52621E-05-9.42506E-15
 -1       914 5.54298E-03 3.29059E-04-1.04275E-14
 -1       915 1.63772E-03-2.15555E-04-1.02346E-15
 -1       916 1.87211E-03 2.57051E-04-1.26051E-15
 -1       917 3.01133E-03 2.60485E-04-3.17139E-15
 -1       918 1.39981E-03 2.23437E-04-7.32951E-16
 -1       919 4.76364E-03-1.08336E-04-9.28712E-15
 -1       920 1.36964E-02-4.82895E-04-5.66688E-14
 -1       921 4.67941E-03-4.79269E-05-8.95815E-15
 -1       922 1.37888E-02-8.00998E-04-5.68867E-14
 -1       923 2.72798E-03 2.65055E-04-2.60981E-15
 -1       924 3.57483E-03 2.47301E-04-4.46199E-15
 -1       925 5.22617E-03 2.12110E-04-9.69095E-15
 -1       926 9.30586E-03 2.76319E-05-2.43393E-14
 -1       927 1.35723E-02-2.39350E-04-5.60330E-14
 -1       928 1.36467E-02-3.19163E-04-5.65147E-14
 -1       929 2.44349E-03 2.66785E-04-2.10417E-15
 -1       930 9.89253E-03-2.06756E-04-2.65338E-14
 -1       931 1.37451E-03 3.16511E-05-7.79203E-16
 -1       932 1.44726E-03 2.64299E-04-7.54571E-16
 -1       933 1.37451E-02-6.45920E-04-5.67895E-14
 -1       934 1.40074E-03-1.89525E-04-7.70956E-16
 -1       935 1.37869E-03 9.31854E-05-7.70729E-16
 -1       936 1.39027E-03-1.24627E-04-7.83729E-16
 -1       937 1.58627E-03 2.43000E-04-9.21203E-16
 -1       938 3.29354E-03 2.54183E-04-3.78900E-15
 -1       939 1.37875E-02-7.37681E-04-5.69784E-14
 -1       940 2.61698E-03-1.67329E-04-2.54175E-15
 -1       941 2.89558E-03-1.65004E-04-3.09553E-15
 -1       942 3.17055E-03-1.61418E-04-3.70479E-15
 -1       943 3.44104E-03-1.57356E-04-4.36890E-15
 -1       944 3.70623E-03-1.53597E-04-5.08913E-15
 -1       945 3.96521E-03-1.50921E-04-5.86828E-15
 -1       946 4.21706E-03-1.50051E-04-6.70741E-15
 -1       947 4.46084E-03-1.51608E-04-7.60452E-15
 -1       948 4.69604E-03-1.56353E-04-8.55634E-15
 -1       949 9.75641E-03-1.04495E-04-2.64639E-14
 -1       950 9.76735E-03-2.93189E-04-2.57923E-14
 -1       951 1.76829E-03-1.58623E-04-1.21150E-15
 -1       952 1.01576E-02-3.39677E-04-2.90177E-14
 -1       953 1.04042E-02-3.63859E-04-3.09563E-14
 -1       954 1.06579E-02-3.90289E-04-3.29392E-14
 -1       955 1.09177E-02-4.18384E-04-3.49593E-14
 -1       956 1.11828E-02-4.47589E-04-3.70079E-14
 -1       957 1.14522E-02-4.77387E-04-3.90827E-14
 -1       958 1.17253E-02-5.07351E-04-4.11765E-14
 -1       959 1.20013E-02-5.37159E-04-4.32888E-14
 -1       960 1.22796E-02-5.66598E-04-4.54228E-14
 -1       961 1.25599E-02-5.95545E-04-4.75721E-14
 -1       962 1.28416E-02-6.23950E-04-4.97272E-14
 -1       963 1.31244E-02-6.51812E-04-5.18962E-14
 -1       964 1.34081E-02-6.79167E-04-5.40786E-14
 -1       965 4.77729E-03 1.63708E-04-8.25905E-15
 -1       966 1.04440E-02-7.34705E-05-3.21471E-14
 -1       967 1.01738E-02-5.39201E-05-3.01963E-14
 -1       968 1.57878E-03-1.42183E-04-9.86190E-16
 -1       969 9.90246E-03-3.17650E-05-2.82932E-14
 -1       970 1.07148E-02-9.16916E-05-3.41446E-14
 -1       971 1.09871E-02-1.09359E-04-3.61820E-14
 -1       972 1.12613E-02-1.27004E-04-3.82520E-14
 -1       973 1.15376E-02-1.44988E-04-4.03483E-14
 -1       974 1.18156E-02-1.63543E-04-4.24640E-14
 -1       975 1.20954E-02-1.82803E-04-4.45979E-14
 -1       976 1.23765E-02-2.02825E-04-4.67528E-14
 -1       977 1.26588E-02-2.23605E-04-4.89213E-14
 -1       978 1.29420E-02-2.45099E-04-5.11057E-14
 -1       979 1.32259E-02-2.67240E-04-5.33002E-14
 -1       980 2.28503E-03 1.98755E-04-1.90703E-15
 -1       981 1.36716E-02-4.00896E-04-5.65989E-14
 -1       982 1.38410E-03-6.22762E-05-7.89828E-16
 -1       983 1.38704E-03 1.56718E-04-7.55503E-16
 -1       984 1.34362E-02-2.93021E-04-5.49085E-14
 -1       985 1.71561E-03 1.86895E-04-1.11085E-15
 -1       986 2.05235E-03-1.64971E-04-1.59980E-15
 -1       987 9.62637E-03-4.45311E-06-2.64401E-14
 -1       988 9.95680E-03-3.15297E-04-2.73835E-14
 -1       989 1.37811E-03-1.51496E-05-7.86077E-16
 -1       990 2.33560E-03-1.67592E-04-2.04364E-15
 -1       991 3.95395E-03 1.69688E-04-5.62980E-15
 -1       992 2.00048E-03 1.95166E-04-1.48148E-15
 -1       993 4.62781E-03-7.28413E-05-8.71610E-15
 -1       994 1.34628E-02-5.01954E-04-5.47939E-14
 -1       995 9.96073E-03-1.65815E-04-2.75435E-14
 -1       996 1.61939E-03 9.96286E-06-1.05422E-15
 -1       997 9.97363E-03-2.58288E-04-2.71999E-14
 -1       998 4.82046E-03 9.86263E-05-8.71279E-15
 -1       999 3.68116E-03 1.76642E-04-4.86825E-15
 -1      1000 4.58271E-03-9.76430E-06-8.34339E-15
 -1      1001 2.56841E-03 1.98590E-04-2.38802E-15
 -1      1002 1.34614E-02-3.74308E-04-5.49890E-14
 -1      1003 4.49915E-03 1.61060E-04-7.32399E-15
 -1      1004 4.68721E-03 3.67096E-05-8.53132E-15
 -1      1005 4.22594E-03 1.64003E-04-6.44820E-15
 -1      1006 1.62256E-03 7.60972E-05-1.04616E-15
 -1      1007 3.12944E-03 1.90340E-04-3.51646E-15
 -1      1008 1.34870E-02-5.82829E-04-5.48544E-14
 -1      1009 2.85002E-03 1.95522E-04-2.92448E-15
 -1      1010 4.54073E-03-1.07434E-04-8.15621E-15
 -1      1011 3.01931E-03-1.01197E-04-3.40543E-15
 -1      1012 3.28943E-03-9.93567E-05-4.04286E-15
 -1      1013 3.55367E-03-9.77057E-05-4.73448E-15
 -1      1014 3.81074E-03-9.67809E-05-5.48296E-15
 -1      1015 4.05902E-03-9.70957E-05-6.29166E-15
 -1      1016 4.29627E-03-9.89169E-05-7.15877E-15
 -1      1017 1.62425E-03-4.07182E-05-1.06073E-15
 -1      1018 1.01075E-02-2.32457E-04-2.83819E-14
 -1      1019 1.05356E-02-3.24369E-04-3.18942E-14
 -1      1020 1.07860E-02-3.49502E-04-3.38933E-14
 -1      1021 1.10437E-02-3.75823E-04-3.59275E-14
 -1      1022 1.13073E-02-4.02955E-04-3.79895E-14
 -1      1023 1.15757E-02-4.30549E-04-4.00728E-14
 -1      1024 1.18480E-02-4.58315E-04-4.21805E-14
 -1      1025 1.21235E-02-4.86035E-04-4.43040E-14
 -1      1026 1.24014E-02-5.13567E-04-4.64455E-14
 -1      1027 1.26814E-02-5.40825E-04-4.85952E-14
 -1      1028 1.29629E-02-5.67778E-04-5.07562E-14
 -1      1029 1.32456E-02-5.94417E-04-5.29303E-14
 -1      1030 1.03696E-02-1.26758E-04-3.12455E-14
 -1      1031 1.08942E-02-1.62315E-04-3.52430E-14
 -1      1032 4.50765E-03-3.90928E-05-8.11548E-15
 -1      1033 1.06301E-02-1.44354E-04-3.32245E-14
 -1      1034 1.11619E-02-1.80773E-04-3.72976E-14
 -1      1035 1.14329E-02-1.99814E-04-3.93814E-14
 -1      1036 1.17069E-02-2.19492E-04-4.14867E-14
 -1      1037 1.19834E-02-2.39829E-04-4.36135E-14
 -1      1038 1.22620E-02-2.60821E-04-4.57549E-14
 -1      1039 1.25423E-02-2.82438E-04-4.79059E-14
 -1      1040 1.28240E-02-3.04629E-04-5.00769E-14
 -1      1041 1.31068E-02-3.27338E-04-5.22672E-14
 -1      1042 1.32840E-02-3.50692E-04-5.36270E-14
 -1      1043 9.93426E-03-1.04432E-04-2.79243E-14
 -1      1044 1.66748E-03 1.30393E-04-1.08129E-15
 -1      1045 1.90163E-03-9.94764E-05-1.40894E-15
 -1      1046 3.40648E-03 1.83796E-04-4.16440E-15
 -1      1047 4.55878E-03 1.01632E-04-7.75224E-15
 -1      1048 1.01499E-02-1.15560E-04-2.95666E-14
 -1      1049 2.74441E-03-1.02681E-04-2.82388E-15
 -1      1050 1.60021E-03-9.13556E-05-1.02528E-15
 -1      1051 1.34622E-02-4.38239E-04-5.48943E-14
 -1      1052 1.02943E-02-3.00775E-04-2.99372E-14
 -1      1053 1.86596E-03-1.50930E-05-1.36963E-15
 -1      1054 1.86758E-03 5.42003E-05-1.36274E-15
 -1      1055 1.01462E-02-2.83182E-04-2.87027E-14
 -1      1056 4.38189E-03 1.99157E-06-7.48609E-15
 -1      1057 1.32162E-02-4.42839E-04-5.29408E-14
 -1      1058 2.41394E-03 1.33153E-04-2.16722E-15
 -1      1059 4.04722E-03 1.01885E-04-6.07054E-15
 -1      1060 3.78472E-03 1.09552E-04-5.28042E-15
 -1      1061 2.18444E-03-1.02386E-04-1.82579E-15
 -1      1062 4.46047E-03 4.72347E-05-7.62248E-15
 -1      1063 3.24731E-03 1.22980E-04-3.86725E-15
 -1      1064 2.46576E-03-1.03262E-04-2.29753E-15
 -1      1065 2.97268E-03 1.28072E-04-3.24564E-15
 -1      1066 2.13125E-03 1.32223E-04-1.71133E-15
 -1      1067 1.89941E-03 1.32636E-04-1.37786E-15
 -1      1068 1.32312E-02-5.18602E-04-5.29367E-14
 -1      1069 3.14726E-03-4.02531E-05-3.72066E-15
 -1      1070 3.41323E-03-4.09228E-05-4.38430E-15
 -1      1071 3.67263E-03-4.23161E-05-5.10411E-15
 -1      1072 3.92321E-03-4.49520E-05-5.88103E-15
 -1      1073 4.16293E-03-4.92709E-05-6.71687E-15
 -1      1074 1.32501E-02-3.96928E-04-5.32840E-14
 -1      1075 1.06486E-02-2.85390E-04-3.28283E-14
 -1      1076 4.40681E-03-6.02309E-05-7.68441E-15
 -1      1077 1.02538E-02-2.47518E-04-2.96086E-14
 -1      1078 1.04475E-02-2.65848E-04-3.12017E-14
 -1      1079 1.09007E-02-3.08335E-04-3.48449E-14
 -1      1080 1.11598E-02-3.32361E-04-3.68935E-14
 -1      1081 1.14245E-02-3.57152E-04-3.89682E-14
 -1      1082 1.16938E-02-3.82440E-04-4.10640E-14
 -1      1083 1.19668E-02-4.08014E-04-4.31847E-14
 -1      1084 1.22428E-02-4.33722E-04-4.53182E-14
 -1      1085 1.25211E-02-4.59461E-04-4.74594E-14
 -1      1086 1.28014E-02-4.85167E-04-4.96106E-14
 -1      1087 1.30160E-02-5.01936E-04-5.12676E-14
 -1      1088 1.10628E-02-2.30697E-04-3.63495E-14
 -1      1089 1.05465E-02-1.92359E-04-3.23062E-14
 -1      1090 1.08018E-02-2.11035E-04-3.43079E-14
 -1      1091 1.15985E-02-2.72422E-04-4.05102E-14
 -1      1092 1.01162E-02-1.81308E-04-2.87667E-14
 -1      1093 1.18717E-02-2.94257E-04-4.26273E-14
 -1      1094 1.21478E-02-3.16624E-04-4.47607E-14
 -1      1095 1.24262E-02-3.39454E-04-4.69035E-14
 -1      1096 1.27064E-02-3.62690E-04-4.90546E-14
 -1      1097 3.51820E-03 1.16719E-04-4.54512E-15
 -1      1098 4.34883E-03 1.04423E-04-7.02549E-15
 -1      1099 2.69469E-03 1.31602E-04-2.67914E-15
 -1      1100 2.87560E-03-4.00025E-05-3.11146E-15
 -1      1101 1.13286E-02-2.51202E-04-3.84142E-14
 -1      1102 2.14827E-03-1.57872E-05-1.78006E-15
 -1      1103 3.88863E-03 4.70205E-05-5.69696E-15
 -1      1104 1.03325E-02-1.80626E-04-3.06007E-14
 -1      1105 4.26271E-03-2.18282E-05-7.07715E-15
 -1      1106 4.18637E-03 4.28063E-05-6.66862E-15
 -1      1107 3.36674E-03 5.89779E-05-4.22463E-15
 -1      1108 3.09736E-03 6.32196E-05-3.57276E-15
 -1      1109 1.29881E-02-3.86258E-04-5.12336E-14
 -1      1110 2.54548E-03 6.82072E-05-2.43615E-15
 -1      1111 2.59948E-03-3.98244E-05-2.55720E-15
 -1      1112 2.26482E-03 6.87195E-05-1.94995E-15
 -1      1113 3.54553E-03 1.47169E-05-4.73017E-15
 -1      1114 2.37454E-03-2.78774E-05-2.15082E-15
 -1      1115 1.29131E-02-4.11800E-04-5.05984E-14
 -1      1116 2.82330E-03 6.63188E-05-2.97698E-15
 -1      1117 0.00000E+00 0.00000E+00 0.00000E+00
 -1      1118 0.00000E+00 0.00000E+00 0.00000E+00
 -1      1119 0.00000E+00 0.00000E+00 0.00000E+00
 -1      1120 0.00000E+00 0.00000E+00 0.00000E+00
 -1      1121 0.00000E+00 0.00000E+00 0.00000E+00
 -1      1122 0.00000E+00 0.00000E+00 0.00000E+00
 -1      1123 0.00000E+00 0.00000E+00 0.00000E+00
 -1      1124 0.00000E+00 0.00000E+00 0.00000E+00
 -1      1125 0.00000E+00 0.00000E+00 0.00000E+00
 -1      1126 0.00000E+00 0.00000E+00 0.00000E+00
 -1      1127 0.00000E+00 0.00000E+00 0.00000E+00
 -1      1128 0.00000E+00 0.00000E+00 0.00000E+00
 -1      1129 0.00000E+00 0.00000E+00 0.00000E+00
 -1      1130 0.00000E+00 0.00000E+00 0.00000E+00
 -1      1131 0.00000E+00 0.00000E+00 0.00000E+00
 -1      1132 0.00000E+00 0.00000E+00 0.00000E+00
 -1      1133 0.00000E+00 0.00000E+00 0.00000E+00
 -1      1134 2.10549E-04-1.47384E-04 1.10453E-17
 -1      1135 5.49022E-04-3.34212E-04-9.62229E-19
 -1      1136 8.30138E-04-4.52752E-04-6.36020E-17
 -1      1137 1.09961E-03-5.30962E-04-1.86171E-16
 -1      1138 1.36559E-03-5.84136E-04-3.68724E-16
 -1      1139 1.63186E-03-6.20071E-04-6.09295E-16
 -1      1140 1.90058E-03-6.43346E-04-9.09564E-16
 -1      1141 2.17308E-03-6.57073E-04-1.27239E-15
 -1      1142 2.45028E-03-6.63622E-04-1.69686E-15
 -1      1143 2.73298E-03-6.64958E-04-2.18223E-15
 -1      1144 3.02206E-03-6.62860E-04-2.72742E-15
 -1      1145 3.31852E-03-6.59135E-04-3.33151E-15
 -1      1146 3.62355E-03-6.55832E-04-3.99420E-15
 -1      1147 3.93850E-03-6.55495E-04-4.71541E-15
 -1      1148 4.26465E-03-6.61431E-04-5.49616E-15
 -1      1149 4.60296E-03-6.77940E-04-6.33564E-15
 -1      1150 4.95335E-03-7.10375E-04-7.23185E-15
 -1      1151 5.31387E-03-7.64711E-04-8.18833E-15
 -1      1152 5.67955E-03-8.46153E-04-9.21016E-15
 -1      1153 6.04167E-03-9.56274E-04-1.02997E-14
 -1      1154 6.38848E-03-1.08880E-03-1.14559E-14
 -1      1155 6.70861E-03-1.22601E-03-1.26846E-14
 -1      1156 6.99733E-03-1.33987E-03-1.39846E-14
 -1      1157 7.26215E-03-1.40128E-03-1.53662E-14
 -1      1158 7.52195E-03-1.39426E-03-1.68336E-14
 -1      1159 7.79826E-03-1.32513E-03-1.83805E-14
 -1      1160 8.10438E-03-1.21873E-03-2.00031E-14
 -1      1161 8.44072E-03-1.10519E-03-2.17051E-14
 -1      1162 8.79814E-03-1.00749E-03-2.34798E-14
 -1      1163 9.16449E-03-9.36863E-04-2.53036E-14
 -1      1164 9.52956E-03-8.94732E-04-2.71677E-14
 -1      1165 9.88683E-03-8.77144E-04-2.90758E-14
 -1      1166 1.02333E-02-8.78315E-04-3.10321E-14
 -1      1167 1.05683E-02-8.92670E-04-3.30421E-14
 -1      1168 1.08927E-02-9.15655E-04-3.50939E-14
 -1      1169 1.12079E-02-9.43876E-04-3.71708E-14
 -1      1170 1.15155E-02-9.74950E-04-3.92655E-14
 -1      1171 1.18172E-02-1.00729E-03-4.13749E-14
 -1      1172 1.21141E-02-1.03987E-03-4.34950E-14
 -1      1173 1.24076E-02-1.07209E-03-4.56367E-14
 -1      1174 1.26984E-02-1.10361E-03-4.78122E-14
 -1      1175 1.29874E-02-1.13430E-03-5.00154E-14
 -1      1176 1.32750E-02-1.16411E-03-5.22390E-14
 -1      1177 1.35617E-02-1.19310E-03-5.44702E-14
 -1      1178 1.38479E-02-1.22134E-03-5.66989E-14
 -1      1179 1.41337E-02-1.24894E-03-5.89209E-14
 -1      1180 1.44193E-02-1.27601E-03-6.11325E-14
 -1      1181 1.47049E-02-1.30269E-03-6.33352E-14
 -1      1182 1.49904E-02-1.32910E-03-6.55375E-14
 -1      1183 1.52690E-02-1.35477E-03-6.76944E-14
 -1      1184 2.27221E-04 1.59691E-04 1.50840E-17
 -1      1185 5.51222E-04 3.38819E-04 1.07065E-17
 -1      1186 8.31135E-04 4.54944E-04-4.24872E-17
 -1      1187 1.10061E-03 5.32731E-04-1.52710E-16
 -1      1188 1.36663E-03 5.85987E-04-3.21629E-16
 -1      1189 1.63298E-03 6.22155E-04-5.49514E-16
 -1      1190 1.90177E-03 6.45769E-04-8.36150E-16
 -1      1191 2.17426E-03 6.59975E-04-1.17957E-15
 -1      1192 2.45131E-03 6.67192E-04-1.58081E-15
 -1      1193 2.73362E-03 6.69446E-04-2.04256E-15
 -1      1194 3.02188E-03 6.68584E-04-2.56824E-15
 -1      1195 3.31678E-03 6.66457E-04-3.15419E-15
 -1      1196 3.61904E-03 6.65097E-04-3.79951E-15
 -1      1197 3.92931E-03 6.66876E-04-4.50833E-15
 -1      1198 4.24795E-03 6.74618E-04-5.27945E-15
 -1      1199 4.57469E-03 6.91599E-04-6.11028E-15
 -1      1200 4.90824E-03 7.21315E-04-6.99919E-15
 -1      1201 5.24573E-03 7.66832E-04-7.94708E-15
 -1      1202 5.58237E-03 8.29579E-04-8.95668E-15
 -1      1203 5.91164E-03 9.07576E-04-1.00253E-14
 -1      1204 6.22635E-03 9.93598E-04-1.11492E-14
 -1      1205 6.52115E-03 1.07450E-03-1.23352E-14
 -1      1206 6.79542E-03 1.13320E-03-1.35947E-14
 -1      1207 7.05519E-03 1.15387E-03-1.49277E-14
 -1      1208 7.31199E-03 1.12828E-03-1.63278E-14
 -1      1209 7.57856E-03 1.05961E-03-1.77925E-14
 -1      1210 7.86387E-03 9.60941E-04-1.93310E-14
 -1      1211 8.17031E-03 8.49570E-04-2.09377E-14
 -1      1212 8.49441E-03 7.40898E-04-2.26052E-14
 -1      1213 8.82952E-03 6.44891E-04-2.43362E-14
 -1      1214 9.16868E-03 5.65739E-04-2.61297E-14
 -1      1215 9.50636E-03 5.03364E-04-2.79838E-14
 -1      1216 9.83898E-03 4.55351E-04-2.98857E-14
 -1      1217 1.01648E-02 4.18454E-04-3.18352E-14
 -1      1218 1.04833E-02 3.89490E-04-3.38343E-14
 -1      1219 1.07950E-02 3.65764E-04-3.58826E-14
 -1      1220 1.11006E-02 3.45185E-04-3.79819E-14
 -1      1221 1.14011E-02 3.26236E-04-4.01187E-14
 -1      1222 1.16975E-02 3.07875E-04-4.22723E-14
 -1      1223 1.19907E-02 2.89429E-04-4.44461E-14
 -1      1224 1.22814E-02 2.70501E-04-4.66427E-14
 -1      1225 1.25704E-02 2.50883E-04-4.88491E-14
 -1      1226 1.28580E-02 2.30498E-04-5.10462E-14
 -1      1227 1.31448E-02 2.09353E-04-5.32252E-14
 -1      1228 1.34310E-02 1.87507E-04-5.53975E-14
 -1      1229 1.37168E-02 1.65048E-04-5.75648E-14
 -1      1230 1.40024E-02 1.42082E-04-5.97298E-14
 -1      1231 1.42880E-02 1.18725E-04-6.18974E-14
 -1      1232 1.45736E-02 9.51102E-05-6.40605E-14
 -1      1233 1.48521E-02 7.19926E-05-6.61619E-14
 -1      1234 1.49995E-02 1.85901E-05-6.72132E-14
 -1      1235 1.50227E-02-6.57406E-05-6.73140E-14
 -1      1236 1.50461E-02-1.50133E-04-6.74304E-14
 -1      1237 1.50697E-02-2.34540E-04-6.75361E-14
 -1      1238 1.50935E-02-3.18898E-04-6.76469E-14
 -1      1239 1.51174E-02-4.02447E-04-6.77547E-14
 -1      1240 1.51414E-02-4.85887E-04-6.78816E-14
 -1      1241 1.51658E-02-5.69947E-04-6.80134E-14
 -1      1242 1.51904E-02-6.53955E-04-6.81422E-14
 -1      1243 1.52150E-02-7.37965E-04-6.82455E-14
 -1      1244 1.52398E-02-8.22032E-04-6.83246E-14
 -1      1245 1.52645E-02-9.05484E-04-6.84136E-14
 -1      1246 1.52894E-02-9.89045E-04-6.84834E-14
 -1      1247 1.53147E-02-1.07341E-03-6.85219E-14
 -1      1248 1.53404E-02-1.15783E-03-6.85636E-14
 -1      1249 1.53662E-02-1.24222E-03-6.86402E-14
 -1      1250 1.53919E-02-1.32584E-03-6.87252E-14
 -1      1251 9.43639E-03-9.27569E-05-1.92051E-14
 -1      1252 9.31360E-03 5.63825E-05-1.90232E-14
 -1      1253 9.08766E-03 2.11190E-04-1.86870E-14
 -1      1254 8.78234E-03 3.64374E-04-1.82291E-14
 -1      1255 8.41524E-03 5.08640E-04-1.76683E-14
 -1      1256 8.00729E-03 6.29214E-04-1.70239E-14
 -1      1257 7.58170E-03 7.07928E-04-1.63423E-14
 -1      1258 7.12811E-03 7.35047E-04-1.56249E-14
 -1      1259 6.67089E-03 7.02867E-04-1.49264E-14
 -1      1260 6.23325E-03 6.14677E-04-1.42795E-14
 -1      1261 5.83292E-03 4.89414E-04-1.37161E-14
 -1      1262 5.49160E-03 3.45787E-04-1.32710E-14
 -1      1263 5.22798E-03 1.97716E-04-1.29538E-14
 -1      1264 5.06019E-03 5.43153E-05-1.27668E-14
 -1      1265 4.99340E-03-8.79271E-05-1.27050E-14
 -1      1266 5.03983E-03-2.38462E-04-1.27760E-14
 -1      1267 5.19750E-03-3.93576E-04-1.29784E-14
 -1      1268 5.44868E-03-5.50922E-04-1.32953E-14
 -1      1269 5.78415E-03-7.10694E-04-1.37304E-14
 -1      1270 6.17620E-03-8.56231E-04-1.42737E-14
 -1      1271 6.59821E-03-9.68653E-04-1.48933E-14
 -1      1272 7.05421E-03-1.03286E-03-1.55869E-14
 -1      1273 7.52300E-03-1.03456E-03-1.63206E-14
 -1      1274 7.98162E-03-9.70188E-04-1.70496E-14
 -1      1275 8.41466E-03-8.55440E-04-1.77311E-14
 -1      1276 8.80721E-03-7.05962E-04-1.83304E-14
 -1      1277 9.12650E-03-5.44301E-04-1.87945E-14
 -1      1278 9.34215E-03-3.87879E-04-1.90870E-14
 -1      1279 9.44687E-03-2.37468E-04-1.92267E-14
 -1      1280 1.66110E-04-1.09567E-04 2.27682E-18
 -1      1281 1.12514E-04-5.63211E-05-9.22927E-18
 -1      1282 1.17464E-04-6.69639E-05-6.11219E-18
 -1      1283 1.08539E-04-4.27288E-05-1.42302E-17
 -1      1284 1.10342E-04-4.88838E-05-1.26310E-17
 -1      1285 2.26398E-04-1.06103E-04-2.99646E-17
 -1      1286 1.07011E-04-3.27916E-05-1.72659E-17
 -1      1287 1.07838E-04-3.75226E-05-1.63037E-17
 -1      1288 2.19393E-04-8.07948E-05-3.92075E-17
 -1      1289 1.06232E-04-2.45569E-05-1.92988E-17
 -1      1290 1.06668E-04-2.85571E-05-1.87431E-17
 -1      1291 2.16209E-04-6.15826E-05-4.52112E-17
 -1      1292 1.05800E-04-1.74142E-05-2.02475E-17
 -1      1293 1.06047E-04-2.09075E-05-2.00035E-17
 -1      1294 2.14504E-04-4.56208E-05-4.88298E-17
 -1      1295 1.05544E-04-1.07642E-05-2.08302E-17
 -1      1296 1.05686E-04-1.40372E-05-2.07489E-17
 -1      1297 2.13499E-04-3.14850E-05-5.07813E-17
 -1      1298 1.05419E-04-4.47569E-06-2.10606E-17
 -1      1299 1.05483E-04-7.59278E-06-2.10742E-17
 -1      1300 2.12916E-04-1.83675E-05-5.18384E-17
 -1      1301 1.05402E-04 1.66775E-06-2.09522E-17
 -1      1302 1.05400E-04-1.40119E-06-2.09522E-17
 -1      1303 2.12649E-04-5.87963E-06-5.20824E-17
 -1      1304 1.05489E-04 7.86992E-06-2.08302E-17
 -1      1305 1.05422E-04 4.74574E-06-2.08844E-17
 -1      1306 2.12656E-04 6.41430E-06-5.18655E-17
 -1      1307 1.05698E-04 1.43415E-05-2.02204E-17
 -1      1308 1.05553E-04 1.10525E-05-2.03694E-17
 -1      1309 2.12937E-04 1.89303E-05-5.11201E-17
 -1      1310 1.06064E-04 2.11988E-05-1.91768E-17
 -1      1311 1.05812E-04 1.76813E-05-1.95427E-17
 -1      1312 2.13532E-04 3.19942E-05-4.93854E-17
 -1      1313 1.06705E-04 2.89897E-05-1.75776E-17
 -1      1314 1.06260E-04 2.49451E-05-1.81739E-17
 -1      1315 2.14559E-04 4.62267E-05-4.66342E-17
 -1      1316 1.07872E-04 3.81039E-05-1.51924E-17
 -1      1317 1.07039E-04 3.33010E-05-1.60868E-17
 -1      1318 2.16308E-04 6.25104E-05-4.24736E-17
 -1      1319 1.10319E-04 4.96195E-05-1.10995E-17
 -1      1320 1.08540E-04 4.33962E-05-1.28342E-17
 -1      1321 2.19484E-04 8.20406E-05-3.61310E-17
 -1      1322 1.16784E-04 6.70013E-05-4.41812E-18
 -1      1323 1.12161E-04 5.71163E-05-7.69784E-18
 -1      1324 2.26380E-04 1.07914E-04-2.62377E-17
 -1      1325 1.56962E-04 1.09130E-04 5.97666E-18
 -1      1326 1.35357E-04 8.54138E-05-5.14996E-19
 -1      1327 2.55669E-04 1.50554E-04-1.41624E-17
 -1      1328 3.33841E-04 2.18908E-04 3.33392E-18
 -1      1329 4.20107E-04-2.59209E-04-1.08691E-17
 -1      1330 5.72849E-04-3.32882E-04-3.10488E-17
 -1      1331 7.19818E-04-3.91975E-04-6.64751E-17
 -1      1332 8.62898E-04-4.39637E-04-1.16145E-16
 -1      1333 6.11050E-04-3.26271E-04-6.60279E-17
 -1      1334 1.00298E-03-4.78936E-04-1.80127E-16
 -1      1335 1.14105E-03-5.11007E-04-2.58677E-16
 -1      1336 9.04331E-04-4.23638E-04-1.71223E-16
 -1      1337 1.27794E-03-5.37694E-04-3.51553E-16
 -1      1338 1.41419E-03-5.59473E-04-4.59715E-16
 -1      1339 1.18738E-03-4.89137E-04-3.33162E-16
 -1      1340 1.55028E-03-5.77381E-04-5.82081E-16
 -1      1341 1.68649E-03-5.91760E-04-7.18853E-16
 -1      1342 1.46566E-03-5.33277E-04-5.52659E-16
 -1      1343 1.82311E-03-6.03210E-04-8.70750E-16
 -1      1344 1.96031E-03-6.12042E-04-1.03784E-15
 -1      1345 1.74267E-03-5.62130E-04-8.30241E-16
 -1      1346 2.09827E-03-6.18634E-04-1.22015E-15
 -1      1347 2.23710E-03-6.23270E-04-1.41827E-15
 -1      1348 2.02062E-03-5.79603E-04-1.16731E-15
 -1      1349 2.37695E-03-6.26213E-04-1.63136E-15
 -1      1350 2.51790E-03-6.27724E-04-1.85911E-15
 -1      1351 2.30091E-03-5.88504E-04-1.56475E-15
 -1      1352 2.66009E-03-6.28003E-04-2.10251E-15
 -1      1353 2.80360E-03-6.27306E-04-2.36099E-15
 -1      1354 2.58459E-03-5.91021E-04-2.02240E-15
 -1      1355 2.94856E-03-6.25807E-04-2.63366E-15
 -1      1356 3.09508E-03-6.23774E-04-2.92072E-15
 -1      1357 2.87254E-03-5.89003E-04-2.53931E-15
 -1      1358 3.24329E-03-6.21387E-04-3.22275E-15
 -1      1359 3.39331E-03-6.18951E-04-3.53984E-15
 -1      1360 3.16563E-03-5.84198E-04-3.11491E-15
 -1      1361 3.54529E-03-6.16692E-04-3.87129E-15
 -1      1362 3.69937E-03-6.14970E-04-4.21707E-15
 -1      1363 3.46473E-03-5.78469E-04-3.74825E-15
 -1      1364 3.85568E-03-6.14102E-04-4.57818E-15
 -1      1365 4.01434E-03-6.14532E-04-4.95344E-15
 -1      1366 3.77079E-03-5.74053E-04-4.44051E-15
 -1      1367 4.17549E-03-6.16716E-04-5.34335E-15
 -1      1368 4.33920E-03-6.21195E-04-5.74841E-15
 -1      1369 4.08470E-03-5.73842E-04-5.19157E-15
 -1      1370 4.50551E-03-6.28617E-04-6.16826E-15
 -1      1371 4.67441E-03-6.39611E-04-6.60268E-15
 -1      1372 4.40721E-03-5.81677E-04-6.00118E-15
 -1      1373 4.84581E-03-6.55028E-04-7.05120E-15
 -1      1374 5.01949E-03-6.75528E-04-7.51465E-15
 -1      1375 4.73863E-03-6.02566E-04-6.87033E-15
 -1      1376 5.19513E-03-7.02081E-04-7.99294E-15
 -1      1377 5.37224E-03-7.35221E-04-8.48723E-15
 -1      1378 5.07847E-03-6.42622E-04-7.79773E-15
 -1      1379 5.55020E-03-7.75757E-04-8.99771E-15
 -1      1380 5.72815E-03-8.23778E-04-9.52487E-15
 -1      1381 5.42497E-03-7.08289E-04-8.78556E-15
 -1      1382 5.90517E-03-8.79386E-04-1.00678E-14
 -1      1383 6.08012E-03-9.41746E-04-1.06278E-14
 -1      1384 5.77457E-03-8.04272E-04-9.83813E-15
 -1      1385 6.25196E-03-1.00954E-03-1.12051E-14
 -1      1386 6.41955E-03-1.08050E-03-1.18006E-14
 -1      1387 6.12179E-03-9.29706E-04-1.09560E-14
 -1      1388 6.58212E-03-1.15148E-03-1.24137E-14
 -1      1389 6.73918E-03-1.21884E-03-1.30451E-14
 -1      1390 6.45996E-03-1.07321E-03-1.21441E-14
 -1      1391 6.89073E-03-1.27821E-03-1.36963E-14
 -1      1392 7.03753E-03-1.32575E-03-1.43655E-14
 -1      1393 6.78351E-03-1.21003E-03-1.34070E-14
 -1      1394 7.18067E-03-1.35777E-03-1.50567E-14
 -1      1395 7.32206E-03-1.37217E-03-1.57676E-14
 -1      1396 7.09192E-03-1.30680E-03-1.47469E-14
 -1      1397 7.46342E-03-1.36815E-03-1.64987E-14
 -1      1398 7.60696E-03-1.34652E-03-1.72517E-14
 -1      1399 7.39204E-03-1.33597E-03-1.61679E-14
 -1      1400 7.75417E-03-1.30986E-03-1.80234E-14
 -1      1401 7.90637E-03-1.26149E-03-1.88141E-14
 -1      1402 7.69549E-03-1.29151E-03-1.76677E-14
 -1      1403 8.06409E-03-1.20574E-03-1.96250E-14
 -1      1404 8.22732E-03-1.14656E-03-2.04536E-14
 -1      1405 8.01202E-03-1.19269E-03-1.92472E-14
 -1      1406 8.39561E-03-1.08780E-03-2.13026E-14
 -1      1407 8.56804E-03-1.03243E-03-2.21703E-14
 -1      1408 8.34441E-03-1.07241E-03-2.09029E-14
 -1      1409 8.74360E-03-9.82601E-04-2.30528E-14
 -1      1410 8.92114E-03-9.39734E-04-2.39504E-14
 -1      1411 8.68891E-03-9.60533E-04-2.26315E-14
 -1      1412 9.09963E-03-9.04285E-04-2.48606E-14
 -1      1413 9.27809E-03-8.76528E-04-2.57806E-14
 -1      1414 9.03900E-03-8.74496E-04-2.44186E-14
 -1      1415 9.45576E-03-8.55889E-04-2.67141E-14
 -1      1416 9.63200E-03-8.41996E-04-2.76575E-14
 -1      1417 9.38852E-03-8.19328E-04-2.62598E-14
 -1      1418 9.80639E-03-8.33903E-04-2.86113E-14
 -1      1419 9.97860E-03-8.30998E-04-2.95764E-14
 -1      1420 9.73314E-03-7.92303E-04-2.81460E-14
 -1      1421 1.01485E-02-8.32365E-04-3.05542E-14
 -1      1422 1.03159E-02-8.37375E-04-3.15439E-14
 -1      1423 1.00704E-02-7.87469E-04-3.00758E-14
 -1      1424 1.04810E-02-8.45300E-04-3.25465E-14
 -1      1425 1.06437E-02-8.55595E-04-3.35618E-14
 -1      1426 1.03995E-02-7.98522E-04-3.20544E-14
 -1      1427 1.08042E-02-8.67748E-04-3.45843E-14
 -1      1428 1.09627E-02-8.81321E-04-3.56134E-14
 -1      1429 1.07205E-02-8.20106E-04-3.40771E-14
 -1      1430 1.11192E-02-8.95984E-04-3.66504E-14
 -1      1431 1.12740E-02-9.11407E-04-3.76912E-14
 -1      1432 1.10342E-02-8.48145E-04-3.61317E-14
 -1      1433 1.14271E-02-9.27390E-04-3.87382E-14
 -1      1434 1.15789E-02-9.43695E-04-3.97883E-14
 -1      1435 1.13415E-02-8.79753E-04-3.82129E-14
 -1      1436 1.17294E-02-9.60212E-04-4.08406E-14
 -1      1437 1.18787E-02-9.76776E-04-4.19001E-14
 -1      1438 1.16436E-02-9.12993E-04-4.03102E-14
 -1      1439 1.20271E-02-9.93334E-04-4.29592E-14
 -1      1440 1.21745E-02-1.00978E-03-4.40206E-14
 -1      1441 1.19414E-02-9.46625E-04-4.24202E-14
 -1      1442 1.23213E-02-1.02609E-03-4.50934E-14
 -1      1443 1.24673E-02-1.04219E-03-4.61739E-14
 -1      1444 1.22359E-02-9.79904E-04-4.45500E-14
 -1      1445 1.26128E-02-1.05810E-03-4.72593E-14
 -1      1446 1.27578E-02-1.07377E-03-4.83498E-14
 -1      1447 1.25279E-02-1.01242E-03-4.67058E-14
 -1      1448 1.29024E-02-1.08922E-03-4.94499E-14
 -1      1449 1.30467E-02-1.10442E-03-5.05538E-14
 -1      1450 1.28179E-02-1.04399E-03-4.88878E-14
 -1      1451 1.31906E-02-1.11940E-03-5.16617E-14
 -1      1452 1.33343E-02-1.13415E-03-5.27731E-14
 -1      1453 1.31064E-02-1.07456E-03-5.10891E-14
 -1      1454 1.34778E-02-1.14869E-03-5.38844E-14
 -1      1455 1.36211E-02-1.16302E-03-5.49968E-14
 -1      1456 1.33940E-02-1.10417E-03-5.33029E-14
 -1      1457 1.37643E-02-1.17717E-03-5.61101E-14
 -1      1458 1.39074E-02-1.19115E-03-5.72207E-14
 -1      1459 1.36808E-02-1.13292E-03-5.55221E-14
 -1      1460 1.40504E-02-1.20496E-03-5.83297E-14
 -1      1461 1.41933E-02-1.21863E-03-5.94372E-14
 -1      1462 1.39671E-02-1.16092E-03-5.77420E-14
 -1      1463 1.43362E-02-1.23218E-03-6.05445E-14
 -1      1464 1.44791E-02-1.24561E-03-6.16483E-14
 -1      1465 1.42531E-02-1.18830E-03-5.99563E-14
 -1      1466 1.46219E-02-1.25895E-03-6.27518E-14
 -1      1467 1.47648E-02-1.27221E-03-6.38526E-14
 -1      1468 1.45390E-02-1.21518E-03-6.21653E-14
 -1      1469 1.49076E-02-1.28541E-03-6.49549E-14
 -1      1470 1.50504E-02-1.29857E-03-6.60590E-14
 -1      1471 1.48247E-02-1.24170E-03-6.43717E-14
 -1      1472 1.52562E-02-1.31333E-03-6.76635E-14
 -1      1473 1.51734E-02-1.26964E-03-6.70783E-14
 -1      1474 6.41064E-04 3.67486E-04-2.64681E-17
 -1      1475 4.91257E-04 3.00576E-04-4.60786E-18
 -1      1476 4.43855E-04 2.62958E-04-1.77809E-17
 -1      1477 9.26440E-04 4.64257E-04-1.11429E-16
 -1      1478 7.85612E-04 4.20426E-04-6.19215E-17
 -1      1479 7.43426E-04 3.84816E-04-7.82252E-17
 -1      1480 1.20174E-03 5.29943E-04-2.52619E-16
 -1      1481 1.06479E-03 5.00202E-04-1.74841E-16
 -1      1482 1.02970E-03 4.66767E-04-1.93815E-16
 -1      1483 1.47344E-03 5.74776E-04-4.52126E-16
 -1      1484 1.33771E-03 5.54578E-04-3.45115E-16
 -1      1485 1.30847E-03 5.22503E-04-3.65674E-16
 -1      1486 1.74513E-03 6.04608E-04-7.09353E-16
 -1      1487 1.60910E-03 5.91322E-04-5.73313E-16
 -1      1488 1.58438E-03 5.60014E-04-5.94536E-16
 -1      1489 2.01883E-03 6.23282E-04-1.02525E-15
 -1      1490 1.88162E-03 6.15156E-04-8.59881E-16
 -1      1491 1.86032E-03 5.84210E-04-8.81267E-16
 -1      1492 2.29579E-03 6.33604E-04-1.39731E-15
 -1      1493 2.15683E-03 6.29335E-04-1.20413E-15
 -1      1494 2.13804E-03 5.98473E-04-1.22596E-15
 -1      1495 2.57689E-03 6.37809E-04-1.82940E-15
 -1      1496 2.43577E-03 6.36336E-04-1.60577E-15
 -1      1497 2.41870E-03 6.05352E-04-1.62825E-15
 -1      1498 2.86288E-03 6.37824E-04-2.32216E-15
 -1      1499 2.71923E-03 6.38211E-04-2.06821E-15
 -1      1500 2.70316E-03 6.06934E-04-2.09007E-15
 -1      1501 3.15443E-03 6.35475E-04-2.87686E-15
 -1      1502 3.00791E-03 6.36811E-04-2.59202E-15
 -1      1503 2.99213E-03 6.05082E-04-2.61308E-15
 -1      1504 3.45221E-03 6.32674E-04-3.49043E-15
 -1      1505 3.30250E-03 6.33984E-04-3.17570E-15
 -1      1506 3.28627E-03 6.01641E-04-3.19543E-15
 -1      1507 3.75684E-03 6.31595E-04-4.16464E-15
 -1      1508 3.60364E-03 6.31752E-04-3.82005E-15
 -1      1509 3.58618E-03 5.98627E-04-3.83707E-15
 -1      1510 4.06874E-03 6.34829E-04-4.90164E-15
 -1      1511 3.91186E-03 6.32484E-04-4.52524E-15
 -1      1512 3.89234E-03 5.98401E-04-4.54003E-15
 -1      1513 4.38795E-03 6.45468E-04-5.69843E-15
 -1      1514 4.22744E-03 6.39022E-04-5.29215E-15
 -1      1515 4.20501E-03 6.03813E-04-5.30271E-15
 -1      1516 4.71382E-03 6.67033E-04-6.55521E-15
 -1      1517 4.55011E-03 6.54697E-04-6.11962E-15
 -1      1518 4.52402E-03 6.18237E-04-6.12680E-15
 -1      1519 5.04462E-03 7.03087E-04-7.47197E-15
 -1      1520 4.87874E-03 6.83127E-04-7.00658E-15
 -1      1521 4.84849E-03 6.45387E-04-7.01093E-15
 -1      1522 5.37726E-03 7.56345E-04-8.44599E-15
 -1      1523 5.21095E-03 7.27591E-04-7.95171E-15
 -1      1524 5.17661E-03 6.88726E-04-7.95372E-15
 -1      1525 5.70719E-03 8.27148E-04-9.48245E-15
 -1      1526 5.54291E-03 7.89830E-04-8.95654E-15
 -1      1527 5.50539E-03 7.50275E-04-8.95543E-15
 -1      1528 6.02892E-03 9.11457E-04-1.05751E-14
 -1      1529 5.86946E-03 8.68228E-04-1.00213E-14
 -1      1530 5.83077E-03 8.28779E-04-1.00155E-14
 -1      1531 6.33733E-03 9.99194E-04-1.17282E-14
 -1      1532 6.18508E-03 9.55841E-04-1.11441E-14
 -1      1533 6.14828E-03 9.17611E-04-1.11358E-14
 -1      1534 6.62980E-03 1.07449E-03-1.29492E-14
 -1      1535 6.48560E-03 1.03949E-03-1.23298E-14
 -1      1536 6.45433E-03 1.00364E-03-1.23209E-14
 -1      1537 6.90820E-03 1.11928E-03-1.42412E-14
 -1      1538 6.77046E-03 1.10158E-03-1.35861E-14
 -1      1539 6.74806E-03 1.06885E-03-1.35757E-14
 -1      1540 7.17926E-03 1.11977E-03-1.56063E-14
 -1      1541 7.04405E-03 1.12536E-03-1.49153E-14
 -1      1542 7.03259E-03 1.09563E-03-1.48999E-14
 -1      1543 7.45259E-03 1.07252E-03-1.70362E-14
 -1      1544 7.31498E-03 1.10165E-03-1.63134E-14
 -1      1545 7.31466E-03 1.07390E-03-1.62947E-14
 -1      1546 7.73693E-03 9.86193E-04-1.85357E-14
 -1      1547 7.59293E-03 1.03323E-03-1.77763E-14
 -1      1548 7.60202E-03 1.00597E-03-1.77575E-14
 -1      1549 8.03697E-03 8.77320E-04-2.01067E-14
 -1      1550 7.88487E-03 9.33410E-04-1.93130E-14
 -1      1551 7.90031E-03 9.05355E-04-1.92913E-14
 -1      1552 8.35241E-03 7.63687E-04-2.17422E-14
 -1      1553 8.19294E-03 8.20173E-04-2.09156E-14
 -1      1554 8.21119E-03 7.90624E-04-2.08932E-14
 -1      1555 8.67930E-03 6.58770E-04-2.34398E-14
 -1      1556 8.51476E-03 7.09611E-04-2.25834E-14
 -1      1557 8.53263E-03 6.78486E-04-2.25572E-14
 -1      1558 9.01220E-03 5.69817E-04-2.52012E-14
 -1      1559 8.84536E-03 6.12136E-04-2.43135E-14
 -1      1560 8.86061E-03 5.79747E-04-2.42876E-14
 -1      1561 9.34601E-03 4.98668E-04-2.70227E-14
 -1      1562 9.17929E-03 5.32096E-04-2.61039E-14
 -1      1563 9.19076E-03 4.98905E-04-2.60767E-14
 -1      1564 9.67693E-03 4.43744E-04-2.88996E-14
 -1      1565 9.51203E-03 4.69371E-04-2.79541E-14
 -1      1566 9.51948E-03 4.35824E-04-2.79239E-14
 -1      1567 1.00027E-02 4.01916E-04-3.08238E-14
 -1      1568 9.84056E-03 4.21414E-04-2.98561E-14
 -1      1569 9.84433E-03 3.87861E-04-2.98230E-14
 -1      1570 1.03222E-02 3.69756E-04-3.27974E-14
 -1      1571 1.01633E-02 3.84830E-04-3.18044E-14
 -1      1572 1.01640E-02 3.51507E-04-3.17717E-14
 -1      1573 1.06355E-02 3.44190E-04-3.48199E-14
 -1      1574 1.04797E-02 3.56314E-04-3.38028E-14
 -1      1575 1.04780E-02 3.23355E-04-3.37677E-14
 -1      1576 1.09430E-02 3.22754E-04-3.68879E-14
 -1      1577 1.07899E-02 3.33081E-04-3.58476E-14
 -1      1578 1.07867E-02 3.00543E-04-3.58099E-14
 -1      1579 1.12453E-02 3.03608E-04-3.90004E-14
 -1      1580 1.10947E-02 3.12983E-04-3.79397E-14
 -1      1581 1.10904E-02 2.80869E-04-3.78967E-14
 -1      1582 1.15434E-02 2.85464E-04-4.11411E-14
 -1      1583 1.13949E-02 2.94471E-04-4.00676E-14
 -1      1584 1.13898E-02 2.62751E-04-4.00177E-14
 -1      1585 1.18382E-02 2.67470E-04-4.33018E-14
 -1      1586 1.16912E-02 2.76487E-04-4.22193E-14
 -1      1587 1.16858E-02 2.45115E-04-4.21634E-14
 -1      1588 1.21302E-02 2.49103E-04-4.54831E-14
 -1      1589 1.19845E-02 2.58356E-04-4.43904E-14
 -1      1590 1.19789E-02 2.27279E-04-4.43319E-14
 -1      1591 1.24202E-02 2.30072E-04-4.76816E-14
 -1      1592 1.22754E-02 2.39681E-04-4.65806E-14
 -1      1593 1.22699E-02 2.08848E-04-4.65199E-14
 -1      1594 1.27087E-02 2.10249E-04-4.98830E-14
 -1      1595 1.25646E-02 2.20263E-04-4.87828E-14
 -1      1596 1.25592E-02 1.89624E-04-4.87177E-14
 -1      1597 1.29961E-02 1.89613E-04-5.20728E-14
 -1      1598 1.28525E-02 2.00031E-04-5.09787E-14
 -1      1599 1.28473E-02 1.69543E-04-5.09133E-14
 -1      1600 1.32828E-02 1.68206E-04-5.42480E-14
 -1      1601 1.31395E-02 1.79001E-04-5.31626E-14
 -1      1602 1.31344E-02 1.48628E-04-5.30976E-14
 -1      1603 1.35690E-02 1.46110E-04-5.64197E-14
 -1      1604 1.34259E-02 1.57238E-04-5.53354E-14
 -1      1605 1.34210E-02 1.26950E-04-5.52730E-14
 -1      1606 1.38549E-02 1.23430E-04-5.85870E-14
 -1      1607 1.37119E-02 1.34836E-04-5.75031E-14
 -1      1608 1.37071E-02 1.04608E-04-5.74397E-14
 -1      1609 1.41406E-02 1.00280E-04-6.07492E-14
 -1      1610 1.39977E-02 1.11906E-04-5.96669E-14
 -1      1611 1.39931E-02 8.17175E-05-5.96038E-14
 -1      1612 1.44262E-02 7.67874E-05-6.29121E-14
 -1      1613 1.42834E-02 8.85683E-05-6.18320E-14
 -1      1614 1.42788E-02 5.84030E-05-6.17668E-14
 -1      1615 1.47119E-02 5.30982E-05-6.50684E-14
 -1      1616 1.45691E-02 6.49576E-05-6.39918E-14
 -1      1617 1.45645E-02 3.48010E-05-6.39257E-14
 -1      1618 1.48638E-02 2.98469E-05-6.61990E-14
 -1      1619 1.49048E-02-7.65442E-05-6.64112E-14
 -1      1620 1.48932E-02-3.43811E-05-6.63582E-14
 -1      1621 1.49282E-02-1.60878E-04-6.65204E-14
 -1      1622 1.49165E-02-1.18712E-04-6.64674E-14
 -1      1623 1.47869E-02-8.73218E-05-6.55051E-14
 -1      1624 1.49519E-02-2.45185E-04-6.66271E-14
 -1      1625 1.49400E-02-2.03038E-04-6.65718E-14
 -1      1626 1.48104E-02-1.71596E-04-6.56097E-14
 -1      1627 1.49758E-02-3.29423E-04-6.67350E-14
 -1      1628 1.49638E-02-2.87315E-04-6.66828E-14
 -1      1629 1.48341E-02-2.55811E-04-6.57169E-14
 -1      1630 1.49995E-02-4.12142E-04-6.68487E-14
 -1      1631 1.49876E-02-3.70795E-04-6.67907E-14
 -1      1632 1.48579E-02-3.39227E-04-6.58259E-14
 -1      1633 1.50238E-02-4.96193E-04-6.69695E-14
 -1      1634 1.50117E-02-4.54179E-04-6.69097E-14
 -1      1635 1.48819E-02-4.22547E-04-6.59388E-14
 -1      1636 1.50483E-02-5.80170E-04-6.70928E-14
 -1      1637 1.50360E-02-5.38189E-04-6.70297E-14
 -1      1638 1.49063E-02-5.06490E-04-6.60533E-14
 -1      1639 1.50729E-02-6.64113E-04-6.72072E-14
 -1      1640 1.50606E-02-6.22143E-04-6.71525E-14
 -1      1641 1.49308E-02-5.90370E-04-6.61665E-14
 -1      1642 1.50975E-02-7.48070E-04-6.72987E-14
 -1      1643 1.50852E-02-7.06087E-04-6.72560E-14
 -1      1644 1.49554E-02-6.74230E-04-6.62692E-14
 -1      1645 1.51223E-02-8.32086E-04-6.73791E-14
 -1      1646 1.51099E-02-7.90068E-04-6.73397E-14
 -1      1647 1.49800E-02-7.58113E-04-6.63546E-14
 -1      1648 1.51468E-02-9.14766E-04-6.74569E-14
 -1      1649 1.51345E-02-8.73414E-04-6.74188E-14
 -1      1650 1.50046E-02-8.41350E-04-6.64310E-14
 -1      1651 1.51720E-02-9.98969E-04-6.75205E-14
 -1      1652 1.51594E-02-9.56856E-04-6.74921E-14
 -1      1653 1.50294E-02-9.24676E-04-6.65018E-14
 -1      1654 1.51974E-02-1.08325E-03-6.75689E-14
 -1      1655 1.51847E-02-1.04110E-03-6.75466E-14
 -1      1656 1.50546E-02-1.00881E-03-6.65635E-14
 -1      1657 1.52231E-02-1.16759E-03-6.76268E-14
 -1      1658 1.52102E-02-1.12542E-03-6.75949E-14
 -1      1659 1.50801E-02-1.09304E-03-6.66228E-14
 -1      1660 1.52047E-02-1.23970E-03-6.73723E-14
 -1      1661 1.51917E-02-1.19754E-03-6.73321E-14
 -1      1662 1.50615E-02-1.16511E-03-6.63584E-14
 -1      1663 1.49989E-02-1.22496E-03-6.57710E-14
 -1      1664 9.42727E-03-9.67883E-05-1.95054E-14
 -1      1665 9.46423E-03-1.42776E-04-1.95569E-14
 -1      1666 9.24974E-03 1.52406E-05-1.92845E-14
 -1      1667 9.34774E-03-4.05851E-05-1.94181E-14
 -1      1668 8.96550E-03 1.64582E-04-1.88564E-14
 -1      1669 9.10907E-03 9.37728E-05-1.90629E-14
 -1      1670 8.61508E-03 3.32374E-04-1.83277E-14
 -1      1671 8.78229E-03 2.52698E-04-1.85828E-14
 -1      1672 8.21885E-03 5.08286E-04-1.76914E-14
 -1      1673 8.40303E-03 4.25134E-04-1.80039E-14
 -1      1674 7.83040E-03 6.62597E-04-1.69663E-14
 -1      1675 8.01024E-03 5.97378E-04-1.73004E-14
 -1      1676 7.44229E-03 7.60594E-04-1.62209E-14
 -1      1677 7.61777E-03 7.23952E-04-1.65692E-14
 -1      1678 7.04176E-03 7.80563E-04-1.54291E-14
 -1      1679 7.22746E-03 7.83657E-04-1.57962E-14
 -1      1680 6.63863E-03 7.06914E-04-1.46968E-14
 -1      1681 6.82129E-03 7.49308E-04-1.50235E-14
 -1      1682 6.23883E-03 5.64134E-04-1.39973E-14
 -1      1683 6.42803E-03 6.38024E-04-1.43064E-14
 -1      1684 5.84219E-03 3.95384E-04-1.34383E-14
 -1      1685 6.01753E-03 4.74440E-04-1.36804E-14
 -1      1686 5.48329E-03 2.28209E-04-1.29918E-14
 -1      1687 5.64324E-03 3.03760E-04-1.31830E-14
 -1      1688 5.20215E-03 9.34654E-05-1.27024E-14
 -1      1689 5.31832E-03 1.53288E-04-1.28226E-14
 -1      1690 5.02831E-03-2.01714E-05-1.25188E-14
 -1      1691 5.09531E-03 2.72579E-05-1.25811E-14
 -1      1692 4.97680E-03-1.15060E-04-1.24973E-14
 -1      1693 4.98429E-03-7.13716E-05-1.24972E-14
 -1      1694 5.06705E-03-2.17447E-04-1.25751E-14
 -1      1695 5.00581E-03-1.67300E-04-1.25067E-14
 -1      1696 5.27857E-03-3.49159E-04-1.28415E-14
 -1      1697 5.16893E-03-2.88996E-04-1.27183E-14
 -1      1698 5.59092E-03-5.08028E-04-1.32082E-14
 -1      1699 5.43427E-03-4.29823E-04-1.30220E-14
 -1      1700 5.96698E-03-6.91053E-04-1.36970E-14
 -1      1701 5.78794E-03-6.04482E-04-1.34569E-14
 -1      1702 6.37475E-03-8.71080E-04-1.42924E-14
 -1      1703 6.18805E-03-7.88372E-04-1.40004E-14
 -1      1704 6.76505E-03-1.01253E-03-1.49733E-14
 -1      1705 6.58502E-03-9.54804E-04-1.46573E-14
 -1      1706 7.17989E-03-1.08708E-03-1.57490E-14
 -1      1707 6.98655E-03-1.06354E-03-1.53755E-14
 -1      1708 7.58277E-03-1.06262E-03-1.65376E-14
 -1      1709 7.40005E-03-1.08490E-03-1.61803E-14
 -1      1710 7.99215E-03-9.48912E-04-1.73491E-14
 -1      1711 7.79824E-03-1.01356E-03-1.69799E-14
 -1      1712 8.41049E-03-7.83954E-04-1.80519E-14
 -1      1713 8.22578E-03-8.63818E-04-1.77370E-14
 -1      1714 8.80892E-03-5.87061E-04-1.87263E-14
 -1      1715 8.62142E-03-6.77020E-04-1.84390E-14
 -1      1716 9.14752E-03-4.30931E-04-1.91619E-14
 -1      1717 9.00860E-03-5.01102E-04-1.89739E-14
 -1      1718 9.37602E-03-2.99364E-04-1.94510E-14
 -1      1719 9.28401E-03-3.56893E-04-1.93377E-14
 -1      1720 9.47030E-03-1.95134E-04-1.95697E-14
 -1      1721 9.44401E-03-2.40289E-04-1.95386E-14
 -1      1722 8.44549E-03 3.39397E-04-1.83628E-14
 -1      1723 8.83116E-03 1.53904E-04-1.89693E-14
 -1      1724 1.48592E-02-3.17293E-07-6.61327E-14
 -1      1725 1.47413E-02-1.11152E-05-6.52266E-14
 -1      1726 9.38827E-03-1.01101E-04-1.97866E-14
 -1      1727 9.16011E-03 1.40998E-06-1.94718E-14
 -1      1728 9.47692E-03-1.72021E-04-1.98868E-14
 -1      1729 8.05360E-03 5.37332E-04-1.76392E-14
 -1      1730 7.67584E-03 7.03333E-04-1.68454E-14
 -1      1731 7.31431E-03 7.97984E-04-1.60203E-14
 -1      1732 6.95768E-03 7.88203E-04-1.51898E-14
 -1      1733 6.57976E-03 6.75863E-04-1.43975E-14
 -1      1734 6.19343E-03 4.97061E-04-1.36995E-14
 -1      1735 5.79499E-03 3.03806E-04-1.31366E-14
 -1      1736 5.43458E-03 1.39798E-04-1.27207E-14
 -1      1737 5.15746E-03 1.76638E-05-1.24354E-14
 -1      1738 4.99961E-03-6.31599E-05-1.22945E-14
 -1      1739 4.98310E-03-1.29471E-04-1.22804E-14
 -1      1740 5.12081E-03-2.08600E-04-1.24268E-14
 -1      1741 5.38656E-03-3.35438E-04-1.27433E-14
 -1      1742 5.74045E-03-5.05244E-04-1.31649E-14
 -1      1743 6.14351E-03-7.07957E-04-1.37078E-14
 -1      1744 6.53729E-03-9.07593E-04-1.43670E-14
 -1      1745 6.91735E-03-1.05746E-03-1.51300E-14
 -1      1746 7.28523E-03-1.11298E-03-1.59623E-14
 -1      1747 7.65937E-03-1.05427E-03-1.68392E-14
 -1      1748 8.04569E-03-8.99353E-04-1.76763E-14
 -1      1749 8.46178E-03-6.93115E-04-1.84588E-14
 -1      1750 8.86158E-03-4.95039E-04-1.91056E-14
 -1      1751 9.19962E-03-3.46120E-04-1.95393E-14
 -1      1752 9.41198E-03-2.43619E-04-1.98098E-14
 -1      1753 2.84526E-04-1.74610E-04-1.25496E-17
 -1      1754 3.32653E-04-1.14079E-04-6.35071E-17
 -1      1755 3.36723E-04-1.30357E-04-5.80590E-17
 -1      1756 3.42462E-04-1.49404E-04-5.18520E-17
 -1      1757 3.51760E-04-1.71477E-04-4.33545E-17
 -1      1758 4.58817E-04-1.84304E-04-8.45678E-17
 -1      1759 3.24900E-04-6.30731E-05-7.56231E-17
 -1      1760 3.26121E-04-7.41808E-05-7.36986E-17
 -1      1761 3.23241E-04-4.21200E-05-7.82929E-17
 -1      1762 3.23979E-04-5.23117E-05-7.71410E-17
 -1      1763 4.36795E-04-7.63096E-05-1.13299E-16
 -1      1764 3.22311E-04-2.27295E-05-7.94720E-17
 -1      1765 3.22708E-04-3.22592E-05-7.89706E-17
 -1      1766 4.34531E-04-4.91563E-05-1.16403E-16
 -1      1767 3.21946E-04-4.13602E-06-7.96346E-17
 -1      1768 3.22067E-04-1.33586E-05-7.97431E-17
 -1      1769 4.33309E-04-2.38002E-05-1.17771E-16
 -1      1770 3.22090E-04 1.43194E-05-7.92416E-17
 -1      1771 3.21953E-04 5.08551E-06-7.95262E-17
 -1      1772 4.32937E-04 7.28423E-07-1.17866E-16
 -1      1773 3.22766E-04 3.32786E-05-7.76695E-17
 -1      1774 3.22351E-04 2.37133E-05-7.86453E-17
 -1      1775 4.33366E-04 2.52898E-05-1.16728E-16
 -1      1776 3.24054E-04 5.30908E-05-7.49184E-17
 -1      1777 3.23308E-04 4.30181E-05-7.65853E-17
 -1      1778 4.34639E-04 5.05250E-05-1.14153E-16
 -1      1779 3.26268E-04 7.53174E-05-7.03376E-17
 -1      1780 3.24998E-04 6.39198E-05-7.28448E-17
 -1      1781 4.36958E-04 7.75982E-05-1.09748E-16
 -1      1782 3.30032E-04 1.00965E-04-6.36969E-17
 -1      1783 3.27864E-04 8.76807E-05-6.74916E-17
 -1      1784 4.40850E-04 1.08032E-04-1.02931E-16
 -1      1785 3.36966E-04 1.32440E-04-5.29904E-17
 -1      1786 3.32865E-04 1.15909E-04-5.89806E-17
 -1      1787 4.47424E-04 1.43556E-04-9.25096E-17
 -1      1788 3.52287E-04 1.75055E-04-3.69306E-17
 -1      1789 3.43044E-04 1.52143E-04-4.59160E-17
 -1      1790 4.59776E-04 1.87667E-04-7.66395E-17
 -1      1791 4.07096E-04 2.30913E-04-2.52077E-17
 -1      1792 3.77854E-04 1.99996E-04-3.27294E-17
 -1      1793 4.95845E-04 2.40113E-04-6.19893E-17
 -1      1794 5.57832E-04 2.98320E-04-4.96158E-17
 -1      1795 3.39628E-04-1.88669E-04-2.80402E-17
 -1      1796 8.52920E-04 3.99706E-04-1.39550E-16
 -1      1797 7.06428E-04 3.53646E-04-8.78610E-17
 -1      1798 6.73125E-04 3.23250E-04-9.57622E-17
 -1      1799 4.58736E-04-2.33294E-04-5.53756E-17
 -1      1800 8.07006E-04-3.67006E-04-1.60001E-16
 -1      1801 9.52499E-04-4.06362E-04-2.29404E-16
 -1      1802 1.09570E-03-4.39058E-04-3.12725E-16
 -1      1803 1.23788E-03-4.65789E-04-4.10154E-16
 -1      1804 1.00474E-03-3.87965E-04-2.90458E-16
 -1      1805 1.37897E-03-4.87911E-04-5.21596E-16
 -1      1806 1.51956E-03-5.05721E-04-6.47838E-16
 -1      1807 1.29144E-03-4.41554E-04-4.89504E-16
 -1      1808 1.65984E-03-5.20108E-04-7.88730E-16
 -1      1809 1.80009E-03-5.31319E-04-9.43893E-16
 -1      1810 1.57552E-03-4.77302E-04-7.45443E-16
 -1      1811 1.94051E-03-5.39937E-04-1.11357E-15
 -1      1812 2.08124E-03-5.46179E-04-1.29812E-15
 -1      1813 1.85866E-03-4.99720E-04-1.05897E-15
 -1      1814 2.22245E-03-5.50449E-04-1.49820E-15
 -1      1815 2.36425E-03-5.52948E-04-1.71266E-15
 -1      1816 2.14222E-03-5.12081E-04-1.43082E-15
 -1      1817 2.50676E-03-5.53974E-04-1.94181E-15
 -1      1818 2.65008E-03-5.53720E-04-2.18616E-15
 -1      1819 2.42722E-03-5.16861E-04-1.86133E-15
 -1      1820 2.79430E-03-5.52431E-04-2.44538E-15
 -1      1821 2.93954E-03-5.50302E-04-2.71888E-15
 -1      1822 2.71448E-03-5.16057E-04-2.35070E-15
 -1      1823 3.08586E-03-5.47566E-04-3.00678E-15
 -1      1824 3.23341E-03-5.44436E-04-3.30905E-15
 -1      1825 3.00469E-03-5.11425E-04-2.89889E-15
 -1      1826 3.38222E-03-5.41175E-04-3.62572E-15
 -1      1827 3.53248E-03-5.38037E-04-3.95723E-15
 -1      1828 3.29855E-03-5.04708E-04-3.50383E-15
 -1      1829 3.68418E-03-5.35356E-04-4.30342E-15
 -1      1830 3.83755E-03-5.33451E-04-4.66413E-15
 -1      1831 3.59673E-03-4.97868E-04-4.16653E-15
 -1      1832 3.99257E-03-5.32778E-04-5.03910E-15
 -1      1833 4.14943E-03-5.33750E-04-5.42922E-15
 -1      1834 3.89997E-03-4.93353E-04-4.88750E-15
 -1      1835 4.30815E-03-5.36987E-04-5.83467E-15
 -1      1836 4.46882E-03-5.43024E-04-6.25460E-15
 -1      1837 4.20904E-03-4.94389E-04-5.66820E-15
 -1      1838 4.63153E-03-5.52666E-04-6.68852E-15
 -1      1839 4.79617E-03-5.66582E-04-7.13780E-15
 -1      1840 4.52481E-03-5.05268E-04-6.50776E-15
 -1      1841 4.96299E-03-5.85708E-04-7.60294E-15
 -1      1842 5.13148E-03-6.10809E-04-8.08110E-15
 -1      1843 4.84816E-03-5.31526E-04-7.40717E-15
 -1      1844 5.30212E-03-6.42757E-04-8.57464E-15
 -1      1845 5.47385E-03-6.82243E-04-9.08433E-15
 -1      1846 5.17991E-03-5.79758E-04-8.36428E-15
 -1      1847 5.64739E-03-7.29671E-04-9.60976E-15
 -1      1848 5.82099E-03-7.85222E-04-1.01505E-14
 -1      1849 5.52035E-03-6.56624E-04-9.38259E-15
 -1      1850 5.99545E-03-8.48218E-04-1.07091E-14
 -1      1851 6.16856E-03-9.17613E-04-1.12847E-14
 -1      1852 5.86830E-03-7.66273E-04-1.04641E-14
 -1      1853 6.34083E-03-9.91079E-04-1.18768E-14
 -1      1854 6.51030E-03-1.06550E-03-1.24885E-14
 -1      1855 6.21975E-03-9.05606E-04-1.16125E-14
 -1      1856 6.67681E-03-1.13689E-03-1.31189E-14
 -1      1857 6.84012E-03-1.20039E-03-1.37689E-14
 -1      1858 6.56735E-03-1.05797E-03-1.28332E-14
 -1      1859 6.99932E-03-1.25147E-03-1.44384E-14
 -1      1860 7.15702E-03-1.28590E-03-1.51271E-14
 -1      1861 6.90345E-03-1.19018E-03-1.41301E-14
 -1      1862 7.31176E-03-1.30120E-03-1.58355E-14
 -1      1863 7.46818E-03-1.29620E-03-1.65638E-14
 -1      1864 7.22716E-03-1.26241E-03-1.55059E-14
 -1      1865 7.62475E-03-1.27200E-03-1.73143E-14
 -1      1866 7.78526E-03-1.23166E-03-1.80835E-14
 -1      1867 7.54790E-03-1.25113E-03-1.69622E-14
 -1      1868 7.94847E-03-1.17908E-03-1.88718E-14
 -1      1869 8.11546E-03-1.11933E-03-1.96791E-14
 -1      1870 7.87792E-03-1.16556E-03-1.84981E-14
 -1      1871 8.28570E-03-1.05677E-03-2.05062E-14
 -1      1872 8.45777E-03-9.95516E-04-2.13506E-14
 -1      1873 8.22124E-03-1.04134E-03-2.01097E-14
 -1      1874 8.63193E-03-9.38713E-04-2.22128E-14
 -1      1875 8.80596E-03-8.88231E-04-2.30905E-14
 -1      1876 8.57237E-03-9.16946E-04-2.17964E-14
 -1      1877 8.98059E-03-8.45450E-04-2.39823E-14
 -1      1878 9.15381E-03-8.10657E-04-2.48877E-14
 -1      1879 8.92314E-03-8.16705E-04-2.35482E-14
 -1      1880 9.32640E-03-7.83851E-04-2.58070E-14
 -1      1881 9.49703E-03-7.64498E-04-2.67376E-14
 -1      1882 9.26797E-03-7.49047E-04-2.53557E-14
 -1      1883 9.66628E-03-7.51879E-04-2.76797E-14
 -1      1884 9.83345E-03-7.45238E-04-2.86324E-14
 -1      1885 9.60462E-03-7.12405E-04-2.72140E-14
 -1      1886 9.99886E-03-7.43644E-04-2.95985E-14
 -1      1887 1.01623E-02-7.46388E-04-3.05751E-14
 -1      1888 9.93294E-03-7.00850E-04-2.91200E-14
 -1      1889 1.03239E-02-7.52610E-04-3.15616E-14
 -1      1890 1.04837E-02-7.61740E-04-3.25624E-14
 -1      1891 1.02537E-02-7.07649E-04-3.10713E-14
 -1      1892 1.06417E-02-7.73098E-04-3.35709E-14
 -1      1893 1.07982E-02-7.86256E-04-3.45891E-14
 -1      1894 1.05677E-02-7.26878E-04-3.30671E-14
 -1      1895 1.09532E-02-8.00730E-04-3.56159E-14
 -1      1896 1.11067E-02-8.16209E-04-3.66480E-14
 -1      1897 1.08761E-02-7.53916E-04-3.50992E-14
 -1      1898 1.12590E-02-8.32373E-04-3.76876E-14
 -1      1899 1.14101E-02-8.49004E-04-3.87318E-14
 -1      1900 1.11796E-02-7.85420E-04-3.71637E-14
 -1      1901 1.15602E-02-8.65905E-04-3.97792E-14
 -1      1902 1.17093E-02-8.82927E-04-4.08310E-14
 -1      1903 1.14792E-02-8.19102E-04-3.92497E-14
 -1      1904 1.18575E-02-8.99962E-04-4.18846E-14
 -1      1905 1.20051E-02-9.16907E-04-4.29431E-14
 -1      1906 1.17755E-02-8.53473E-04-4.13495E-14
 -1      1907 1.21519E-02-9.33712E-04-4.40075E-14
 -1      1908 1.22981E-02-9.50313E-04-4.50789E-14
 -1      1909 1.20691E-02-8.87616E-04-4.34664E-14
 -1      1910 1.24438E-02-9.66696E-04-4.61558E-14
 -1      1911 1.25891E-02-9.82821E-04-4.72378E-14
 -1      1912 1.23607E-02-9.21013E-04-4.56054E-14
 -1      1913 1.27339E-02-9.98696E-04-4.83270E-14
 -1      1914 1.28784E-02-1.01430E-03-4.94205E-14
 -1      1915 1.26507E-02-9.53411E-04-4.77692E-14
 -1      1916 1.30227E-02-1.02965E-03-5.05177E-14
 -1      1917 1.31666E-02-1.04474E-03-5.16211E-14
 -1      1918 1.29394E-02-9.84728E-04-4.99510E-14
 -1      1919 1.33104E-02-1.05959E-03-5.27260E-14
 -1      1920 1.34540E-02-1.07421E-03-5.38302E-14
 -1      1921 1.32271E-02-1.01499E-03-5.21504E-14
 -1      1922 1.35974E-02-1.08861E-03-5.49405E-14
 -1      1923 1.37407E-02-1.10281E-03-5.60493E-14
 -1      1924 1.35142E-02-1.04428E-03-5.43582E-14
 -1      1925 1.38839E-02-1.11683E-03-5.71547E-14
 -1      1926 1.40270E-02-1.13068E-03-5.82614E-14
 -1      1927 1.38008E-02-1.07272E-03-5.65706E-14
 -1      1928 1.41701E-02-1.14438E-03-5.93684E-14
 -1      1929 1.43131E-02-1.15794E-03-6.04744E-14
 -1      1930 1.40870E-02-1.10043E-03-5.87816E-14
 -1      1931 1.44560E-02-1.17138E-03-6.15800E-14
 -1      1932 1.45989E-02-1.18473E-03-6.26856E-14
 -1      1933 1.43731E-02-1.12757E-03-6.09927E-14
 -1      1934 1.47275E-02-1.19829E-03-6.36750E-14
 -1      1935 1.48703E-02-1.21149E-03-6.47791E-14
 -1      1936 1.49017E-02-1.18158E-03-6.50719E-14
 -1      1937 1.46446E-02-1.15456E-03-6.30901E-14
 -1      1938 1.13855E-03 4.68878E-04-2.83790E-16
 -1      1939 9.96421E-04 4.37597E-04-2.04724E-16
 -1      1940 9.64571E-04 4.08324E-04-2.13764E-16
 -1      1941 1.41892E-03 5.15908E-04-4.84042E-16
 -1      1942 1.27904E-03 4.94770E-04-3.76747E-16
 -1      1943 1.24994E-03 4.66811E-04-3.86233E-16
 -1      1944 1.69742E-03 5.47004E-04-7.41337E-16
 -1      1945 1.55821E-03 5.33202E-04-6.05595E-16
 -1      1946 1.53180E-03 5.06193E-04-6.14607E-16
 -1      1947 1.97628E-03 5.66295E-04-1.05647E-15
 -1      1948 1.83669E-03 5.57949E-04-8.91404E-16
 -1      1949 1.81255E-03 5.31542E-04-9.00172E-16
 -1      1950 2.25691E-03 5.76768E-04-1.42886E-15
 -1      1951 2.11630E-03 5.72495E-04-1.23548E-15
 -1      1952 2.09386E-03 5.46429E-04-1.24321E-15
 -1      1953 2.54033E-03 5.80751E-04-1.85988E-15
 -1      1954 2.39821E-03 5.79452E-04-1.63708E-15
 -1      1955 2.37692E-03 5.53522E-04-1.64392E-15
 -1      1956 2.82732E-03 5.80215E-04-2.35066E-15
 -1      1957 2.68333E-03 5.80938E-04-2.09747E-15
 -1      1958 2.66261E-03 5.54973E-04-2.10316E-15
 -1      1959 3.11854E-03 5.76993E-04-2.90108E-15
 -1      1960 2.97235E-03 5.78829E-04-2.61814E-15
 -1      1961 2.95163E-03 5.52668E-04-2.62191E-15
 -1      1962 3.41462E-03 5.72982E-04-3.50991E-15
 -1      1963 3.26593E-03 5.74964E-04-3.19823E-15
 -1      1964 3.24459E-03 5.48440E-04-3.19933E-15
 -1      1965 3.71609E-03 5.70327E-04-4.17987E-15
 -1      1966 3.56464E-03 5.71344E-04-3.83764E-15
 -1      1967 3.54208E-03 5.44267E-04-3.83587E-15
 -1      1968 4.02336E-03 5.71600E-04-4.90856E-15
 -1      1969 3.86897E-03 5.70307E-04-4.53623E-15
 -1      1970 3.84458E-03 5.42458E-04-4.53179E-15
 -1      1971 4.33658E-03 5.79906E-04-5.69859E-15
 -1      1972 4.17922E-03 5.74686E-04-5.29610E-15
 -1      1973 4.15246E-03 5.45814E-04-5.28741E-15
 -1      1974 4.65549E-03 5.98856E-04-6.54912E-15
 -1      1975 4.49537E-03 5.87856E-04-6.11672E-15
 -1      1976 4.46589E-03 5.57693E-04-6.10494E-15
 -1      1977 4.97917E-03 6.32242E-04-7.45957E-15
 -1      1978 4.81686E-03 6.13582E-04-6.99657E-15
 -1      1979 4.78463E-03 5.81897E-04-6.98156E-15
 -1      1980 5.30584E-03 6.83220E-04-8.42741E-15
 -1      1981 5.14236E-03 6.55473E-04-7.93635E-15
 -1      1982 5.10789E-03 6.22173E-04-7.91710E-15
 -1      1983 5.63268E-03 7.52823E-04-9.45422E-15
 -1      1984 5.46958E-03 7.15847E-04-8.93330E-15
 -1      1985 5.43401E-03 6.81145E-04-8.91111E-15
 -1      1986 5.95596E-03 8.37860E-04-1.05412E-14
 -1      1987 5.79516E-03 7.93898E-04-9.99056E-15
 -1      1988 5.76034E-03 7.58511E-04-9.96357E-15
 -1      1989 6.27173E-03 9.28890E-04-1.16904E-14
 -1      1990 6.11513E-03 8.83492E-04-1.11076E-14
 -1      1991 6.08321E-03 8.48728E-04-1.10777E-14
 -1      1992 6.57723E-03 1.00988E-03-1.29066E-14
 -1      1993 6.42587E-03 9.71751E-04-1.22893E-14
 -1      1994 6.39882E-03 9.39260E-04-1.22564E-14
 -1      1995 6.87269E-03 1.06144E-03-1.41917E-14
 -1      1996 6.72594E-03 1.04033E-03-1.35409E-14
 -1      1997 6.70491E-03 1.01142E-03-1.35040E-14
 -1      1998 7.16227E-03 1.06773E-03-1.55482E-14
 -1      1999 7.01761E-03 1.07067E-03-1.48615E-14
 -1      2000 7.00280E-03 1.04557E-03-1.48215E-14
 -1      2001 7.45279E-03 1.02357E-03-1.69739E-14
 -1      2002 7.30671E-03 1.05156E-03-1.62514E-14
 -1      2003 7.29772E-03 1.02920E-03-1.62076E-14
 -1      2004 7.75068E-03 9.37298E-04-1.84685E-14
 -1      2005 7.60034E-03 9.84696E-04-1.77125E-14
 -1      2006 7.59657E-03 9.63290E-04-1.76648E-14
 -1      2007 8.05916E-03 8.26310E-04-2.00339E-14
 -1      2008 7.90348E-03 8.83723E-04-1.92421E-14
 -1      2009 7.90417E-03 8.61770E-04-1.91924E-14
 -1      2010 8.37758E-03 7.09730E-04-2.16641E-14
 -1      2011 8.21732E-03 7.67811E-04-2.08418E-14
 -1      2012 8.22130E-03 7.44565E-04-2.07889E-14
 -1      2013 8.70279E-03 6.02055E-04-2.33602E-14
 -1      2014 8.53967E-03 6.54284E-04-2.25040E-14
 -1      2015 8.54539E-03 6.29700E-04-2.24487E-14
 -1      2016 9.03084E-03 5.11057E-04-2.51171E-14
 -1      2017 8.86680E-03 5.54343E-04-2.42305E-14
 -1      2018 8.87261E-03 5.28718E-04-2.41736E-14
 -1      2019 9.35828E-03 4.38693E-04-2.69335E-14
 -1      2020 9.19491E-03 4.72647E-04-2.60177E-14
 -1      2021 9.19949E-03 4.46348E-04-2.59576E-14
 -1      2022 9.68264E-03 3.83281E-04-2.88048E-14
 -1      2023 9.52103E-03 4.09070E-04-2.78627E-14
 -1      2024 9.52355E-03 3.82414E-04-2.78011E-14
 -1      2025 1.00025E-02 3.41510E-04-3.07277E-14
 -1      2026 9.84323E-03 3.60909E-04-2.97607E-14
 -1      2027 9.84339E-03 3.34135E-04-2.96960E-14
 -1      2028 1.03172E-02 3.09763E-04-3.26971E-14
 -1      2029 1.01605E-02 3.24577E-04-3.17066E-14
 -1      2030 1.01584E-02 2.97852E-04-3.16404E-14
 -1      2031 1.06268E-02 2.84809E-04-3.47151E-14
 -1      2032 1.04726E-02 2.96590E-04-3.37004E-14
 -1      2033 1.04685E-02 2.70022E-04-3.36318E-14
 -1      2034 1.09316E-02 2.64063E-04-3.67754E-14
 -1      2035 1.07797E-02 2.74023E-04-3.57397E-14
 -1      2036 1.07740E-02 2.47674E-04-3.56679E-14
 -1      2037 1.12322E-02 2.45609E-04-3.88756E-14
 -1      2038 1.10824E-02 2.54627E-04-3.78212E-14
 -1      2039 1.10754E-02 2.28524E-04-3.77465E-14
 -1      2040 1.15293E-02 2.28107E-04-4.10056E-14
 -1      2041 1.13811E-02 2.36789E-04-3.99381E-14
 -1      2042 1.13732E-02 2.10933E-04-3.98582E-14
 -1      2043 1.18234E-02 2.10680E-04-4.31592E-14
 -1      2044 1.16766E-02 2.19414E-04-4.20786E-14
 -1      2045 1.16681E-02 1.93791E-04-4.19952E-14
 -1      2046 1.21152E-02 1.92795E-04-4.53339E-14
 -1      2047 1.19696E-02 2.01811E-04-4.42436E-14
 -1      2048 1.19607E-02 1.76397E-04-4.41557E-14
 -1      2049 1.24053E-02 1.74162E-04-4.75250E-14
 -1      2050 1.22604E-02 1.83578E-04-4.64281E-14
 -1      2051 1.22513E-02 1.58345E-04-4.63362E-14
 -1      2052 1.26939E-02 1.54660E-04-4.97213E-14
 -1      2053 1.25497E-02 1.64520E-04-4.86230E-14
 -1      2054 1.25405E-02 1.39439E-04-4.85297E-14
 -1      2055 1.29816E-02 1.34274E-04-5.19127E-14
 -1      2056 1.28378E-02 1.44573E-04-5.08186E-14
 -1      2057 1.28286E-02 1.19617E-04-5.07227E-14
 -1      2058 1.32685E-02 1.13058E-04-5.40921E-14
 -1      2059 1.31251E-02 1.23764E-04-5.30053E-14
 -1      2060 1.31159E-02 9.89061E-05-5.29104E-14
 -1      2061 1.35549E-02 9.11039E-05-5.62628E-14
 -1      2062 1.34117E-02 1.02166E-04-5.51783E-14
 -1      2063 1.34026E-02 7.73858E-05-5.50856E-14
 -1      2064 1.38410E-02 6.85237E-05-5.84303E-14
 -1      2065 1.36980E-02 7.98849E-05-5.73457E-14
 -1      2066 1.36889E-02 5.51622E-05-5.72526E-14
 -1      2067 1.41269E-02 4.54399E-05-6.05939E-14
 -1      2068 1.39840E-02 5.70374E-05-5.95130E-14
 -1      2069 1.39749E-02 3.23564E-05-5.94200E-14
 -1      2070 1.44127E-02 2.19828E-05-6.27538E-14
 -1      2071 1.42698E-02 3.37501E-05-6.16746E-14
 -1      2072 1.42608E-02 9.09645E-06-6.15830E-14
 -1      2073 1.46484E-02-4.72732E-07-6.45298E-14
 -1      2074 1.45056E-02 1.13775E-05-6.34521E-14
 -1      2075 1.44966E-02-1.32639E-05-6.33602E-14
 -1      2076 1.46824E-02-3.45250E-05-6.47562E-14
 -1      2077 1.47164E-02-2.66428E-04-6.48106E-14
 -1      2078 1.47045E-02-2.24378E-04-6.47570E-14
 -1      2079 1.46926E-02-1.82300E-04-6.47021E-14
 -1      2080 1.46808E-02-1.40203E-04-6.46514E-14
 -1      2081 1.45748E-02-1.93010E-04-6.37952E-14
 -1      2082 1.46874E-02-1.08438E-04-6.47290E-14
 -1      2083 1.46757E-02-6.63099E-05-6.46762E-14
 -1      2084 1.45828E-02-5.56686E-05-6.39782E-14
 -1      2085 1.45695E-02-1.19202E-04-6.38199E-14
 -1      2086 1.47400E-02-3.49026E-04-6.49176E-14
 -1      2087 1.47282E-02-3.07741E-04-6.48623E-14
 -1      2088 1.45985E-02-2.76332E-04-6.39009E-14
 -1      2089 1.47643E-02-4.32940E-04-6.50287E-14
 -1      2090 1.47522E-02-3.90996E-04-6.49731E-14
 -1      2091 1.46224E-02-3.59527E-04-6.40062E-14
 -1      2092 1.47887E-02-5.16764E-04-6.51351E-14
 -1      2093 1.47765E-02-4.74862E-04-6.50822E-14
 -1      2094 1.46468E-02-4.43312E-04-6.41122E-14
 -1      2095 1.48133E-02-6.00533E-04-6.52403E-14
 -1      2096 1.48010E-02-5.58653E-04-6.51878E-14
 -1      2097 1.46712E-02-5.27002E-04-6.42130E-14
 -1      2098 1.48379E-02-6.84291E-04-6.53336E-14
 -1      2099 1.48256E-02-6.42410E-04-6.52901E-14
 -1      2100 1.46958E-02-6.10642E-04-6.43102E-14
 -1      2101 1.48626E-02-7.68085E-04-6.54129E-14
 -1      2102 1.48502E-02-7.26180E-04-6.53741E-14
 -1      2103 1.47204E-02-6.94283E-04-6.43947E-14
 -1      2104 1.48870E-02-8.50532E-04-6.54842E-14
 -1      2105 1.48747E-02-8.09297E-04-6.54491E-14
 -1      2106 1.47449E-02-7.77267E-04-6.44697E-14
 -1      2107 1.49120E-02-9.34504E-04-6.55523E-14
 -1      2108 1.48994E-02-8.92505E-04-6.55197E-14
 -1      2109 1.47695E-02-8.60344E-04-6.45377E-14
 -1      2110 1.49372E-02-1.01859E-03-6.56148E-14
 -1      2111 1.49246E-02-9.76532E-04-6.55820E-14
 -1      2112 1.47946E-02-9.44253E-04-6.46019E-14
 -1      2113 1.49628E-02-1.10277E-03-6.56792E-14
 -1      2114 1.49500E-02-1.06067E-03-6.56467E-14
 -1      2115 1.48199E-02-1.02829E-03-6.46684E-14
 -1      2116 9.06411E-03-8.85605E-06-1.97215E-14
 -1      2117 9.20821E-03-6.44932E-05-1.99496E-14
 -1      2118 9.47668E-03-1.66799E-04-2.02776E-14
 -1      2119 9.48272E-03-1.83990E-04-2.02898E-14
 -1      2120 9.34742E-03-1.16997E-04-2.01761E-14
 -1      2121 9.42864E-03-1.42259E-04-2.02663E-14
 -1      2122 8.70203E-03 1.46109E-04-1.92016E-14
 -1      2123 8.87775E-03 6.47661E-05-1.94843E-14
 -1      2124 8.31162E-03 3.55988E-04-1.84483E-14
 -1      2125 8.50062E-03 2.55934E-04-1.87815E-14
 -1      2126 3.27648E-04-8.63496E-05-7.11237E-17
 -1      2127 3.29753E-04-9.94532E-05-6.76542E-17
 -1      2128 4.46951E-04-1.41330E-04-9.86624E-17
 -1      2129 4.40546E-04-1.06410E-04-1.07675E-16
 -1      2130 7.56712E-03 7.42323E-04-1.67677E-14
 -1      2131 7.72429E-03 6.70719E-04-1.71699E-14
 -1      2132 7.23277E-03 8.25904E-04-1.58465E-14
 -1      2133 7.38259E-03 8.00664E-04-1.62735E-14
 -1      2134 6.88128E-03 7.82113E-04-1.49125E-14
 -1      2135 7.03837E-03 8.18095E-04-1.53154E-14
 -1      2136 6.54220E-03 6.41910E-04-1.41205E-14
 -1      2137 6.70916E-03 7.22543E-04-1.45050E-14
 -1      2138 6.13624E-03 4.27315E-04-1.33659E-14
 -1      2139 6.32187E-03 5.27994E-04-1.36740E-14
 -1      2140 5.74483E-03 2.23512E-04-1.27813E-14
 -1      2141 5.92786E-03 3.15817E-04-1.30280E-14
 -1      2142 5.37351E-03 6.85244E-05-1.24103E-14
 -1      2143 5.53450E-03 1.33672E-04-1.25729E-14
 -1      2144 5.11551E-03-2.92611E-05-1.21382E-14
 -1      2145 5.22678E-03 1.04726E-05-1.22561E-14
 -1      2146 4.97444E-03-8.54981E-05-1.20301E-14
 -1      2147 5.01948E-03-6.62521E-05-1.20519E-14
 -1      2148 4.99343E-03-1.23867E-04-1.19965E-14
 -1      2149 4.96423E-03-1.07503E-04-1.19912E-14
 -1      2150 5.18998E-03-1.98839E-04-1.22272E-14
 -1      2151 5.08280E-03-1.60131E-04-1.20909E-14
 -1      2152 5.48953E-03-3.28182E-04-1.26131E-14
 -1      2153 5.33276E-03-2.62842E-04-1.24393E-14
 -1      2154 5.87419E-03-5.15344E-04-1.30926E-14
 -1      2155 5.68664E-03-4.20316E-04-1.28515E-14
 -1      2156 6.28163E-03-7.32573E-04-1.36655E-14
 -1      2157 6.09113E-03-6.25089E-04-1.33713E-14
 -1      2158 6.67099E-03-9.53533E-04-1.44450E-14
 -1      2159 6.50001E-03-8.58278E-04-1.40865E-14
 -1      2160 7.01876E-03-1.09574E-03-1.52590E-14
 -1      2161 6.85606E-03-1.03714E-03-1.48590E-14
 -1      2162 7.36882E-03-1.13092E-03-1.62031E-14
 -1      2163 7.21576E-03-1.13264E-03-1.57703E-14
 -1      2164 7.69107E-03-1.04347E-03-1.70882E-14
 -1      2165 7.53046E-03-1.10160E-03-1.66431E-14
 -1      2166 7.43800E-03-1.12950E-03-1.64452E-14
 -1      2167 8.10602E-03-8.36031E-04-1.81095E-14
 -1      2168 7.92504E-03-9.34655E-04-1.77138E-14
 -1      2169 8.48890E-03-6.22797E-04-1.89015E-14
 -1      2170 8.29676E-03-7.32918E-04-1.85038E-14
 -1      2171 8.18096E-03-7.78760E-04-1.85433E-14
 -1      2172 8.93367E-03-4.09623E-04-1.95977E-14
 -1      2173 8.74699E-03-4.93098E-04-1.93384E-14
 -1      2174 9.25259E-03-2.84883E-04-1.99876E-14
 -1      2175 9.11384E-03-3.37883E-04-1.98024E-14
 -1      2176 9.44546E-03-2.11595E-04-2.02191E-14
 -1      2177 9.37341E-03-2.38994E-04-2.01273E-14
 -1      2178 7.91277E-03 5.78634E-04-1.75940E-14
 -1      2179 8.08771E-03 4.78507E-04-1.79918E-14
 -1      2180 8.58696E-03 1.76760E-04-1.92857E-14
 -1      2181 6.07675E-04-2.93199E-04-9.39326E-17
 -1      2182 8.17781E-03 4.06638E-04-1.83997E-14
 -1      2183 7.79534E-03 6.23815E-04-1.75125E-14
 -1      2184 6.63920E-04-2.86662E-04-1.32828E-16
 -1      2185 9.28101E-03-1.10258E-04-2.04248E-14
 -1      2186 9.46150E-03-1.63532E-04-2.06661E-14
 -1      2187 1.49314E-02-1.13268E-03-6.53845E-14
 -1      2188 8.95911E-03 3.95189E-06-1.99547E-14
 -1      2189 9.47251E-03-1.93781E-04-2.06065E-14
 -1      2190 9.31548E-03-2.47576E-04-2.03922E-14
 -1      2191 8.60286E-03-5.46062E-04-1.93852E-14
 -1      2192 7.79456E-03-9.96854E-04-1.75117E-14
 -1      2193 7.12882E-03-1.12672E-03-1.54915E-14
 -1      2194 6.78428E-03-1.00024E-03-1.45699E-14
 -1      2195 6.40999E-03-7.87983E-04-1.37398E-14
 -1      2196 6.00250E-03-5.50554E-04-1.30512E-14
 -1      2197 5.60205E-03-3.51032E-04-1.25422E-14
 -1      2198 5.26635E-03-2.07801E-04-1.20987E-14
 -1      2199 5.02859E-03-1.29594E-04-1.17996E-14
 -1      2200 4.95985E-03-9.63711E-05-1.17475E-14
 -1      2201 5.06097E-03-5.80661E-05-1.18728E-14
 -1      2202 5.30393E-03 2.11677E-05-1.21092E-14
 -1      2203 5.64942E-03 1.60788E-04-1.24643E-14
 -1      2204 6.04518E-03 3.58519E-04-1.30011E-14
 -1      2205 6.44867E-03 5.85399E-04-1.37763E-14
 -1      2206 6.80724E-03 7.59985E-04-1.46265E-14
 -1      2207 7.46425E-03 7.79329E-04-1.65879E-14
 -1      2208 7.13455E-03 8.33905E-04-1.55602E-14
 -1      2209 9.02005E-03-3.52879E-04-2.00397E-14
 -1      2210 1.01746E-03 3.89759E-04-2.74981E-16
 -1      2211 8.72666E-04 3.55278E-04-1.99642E-16
 -1      2212 5.47523E-04-5.28571E-05-1.66574E-16
 -1      2213 5.48739E-04-6.89658E-05-1.65124E-16
 -1      2214 5.50362E-04-8.57513E-05-1.62969E-16
 -1      2215 5.52428E-04-1.03282E-04-1.60177E-16
 -1      2216 6.65093E-04-9.13748E-05-2.23278E-16
 -1      2217 5.45836E-04 8.44523E-06-1.67645E-16
 -1      2218 5.45816E-04-6.64956E-06-1.68146E-16
 -1      2219 5.46747E-04 3.90205E-05-1.65558E-16
 -1      2220 5.46144E-04 2.36498E-05-1.66818E-16
 -1      2221 6.60382E-04 1.89675E-05-2.27276E-16
 -1      2222 5.48891E-04 7.04030E-05-1.61736E-16
 -1      2223 5.47654E-04 5.45015E-05-1.63945E-16
 -1      2224 6.61982E-04 5.51074E-05-2.24105E-16
 -1      2225 5.52684E-04 1.04896E-04-1.54973E-16
 -1      2226 5.50559E-04 8.72703E-05-1.58700E-16
 -1      2227 6.65321E-04 9.30986E-05-2.18304E-16
 -1      2228 5.58911E-04 1.43595E-04-1.44782E-16
 -1      2229 5.55437E-04 1.23643E-04-1.50230E-16
 -1      2230 6.70968E-04 1.34733E-04-2.08750E-16
 -1      2231 5.69364E-04 1.88898E-04-1.29562E-16
 -1      2232 5.63504E-04 1.65287E-04-1.37965E-16
 -1      2233 6.80070E-04 1.81550E-04-1.94370E-16
 -1      2234 1.30394E-03 4.42379E-04-4.65977E-16
 -1      2235 1.16104E-03 4.18686E-04-3.63438E-16
 -1      2236 1.07319E-03 3.70274E-04-3.39030E-16
 -1      2237 9.16214E-04-3.37407E-04-2.66483E-16
 -1      2238 1.06068E-03-3.68729E-04-3.54399E-16
 -1      2239 8.06659E-03 4.57190E-04-1.83953E-14
 -1      2240 8.26284E-03 3.38872E-04-1.88605E-14
 -1      2241 1.20439E-03-3.94934E-04-4.55866E-16
 -1      2242 1.34778E-03-4.16421E-04-5.71402E-16
 -1      2243 1.11871E-03-3.48573E-04-4.21131E-16
 -1      2244 1.49067E-03-4.34028E-04-7.01126E-16
 -1      2245 1.63333E-03-4.48032E-04-8.45352E-16
 -1      2246 1.40598E-03-3.90595E-04-6.56010E-16
 -1      2247 1.77580E-03-4.59080E-04-1.00339E-15
 -1      2248 1.91826E-03-4.67390E-04-1.17579E-15
 -1      2249 1.69247E-03-4.18189E-04-9.46766E-16
 -1      2250 2.06078E-03-4.73439E-04-1.36258E-15
 -1      2251 2.20348E-03-4.77415E-04-1.56433E-15
 -1      2252 1.97857E-03-4.34598E-04-1.29417E-15
 -1      2253 2.34644E-03-4.79677E-04-1.78052E-15
 -1      2254 2.48976E-03-4.80396E-04-2.01096E-15
 -1      2255 2.26483E-03-4.42427E-04-1.69885E-15
 -1      2256 2.63350E-03-4.79856E-04-2.25621E-15
 -1      2257 2.77775E-03-4.78222E-04-2.51616E-15
 -1      2258 2.55177E-03-4.43775E-04-2.16166E-15
 -1      2259 2.92255E-03-4.75747E-04-2.79033E-15
 -1      2260 3.06802E-03-4.72602E-04-3.07888E-15
 -1      2261 2.83985E-03-4.40426E-04-2.68196E-15
 -1      2262 3.21416E-03-4.69043E-04-3.38153E-15
 -1      2263 3.36113E-03-4.65270E-04-3.69861E-15
 -1      2264 3.12950E-03-4.34029E-04-3.25978E-15
 -1      2265 3.50890E-03-4.61580E-04-4.03024E-15
 -1      2266 3.65765E-03-4.58221E-04-4.37637E-15
 -1      2267 3.42114E-03-4.26299E-04-3.89436E-15
 -1      2268 3.80739E-03-4.55575E-04-4.73669E-15
 -1      2269 3.95829E-03-4.53972E-04-5.11193E-15
 -1      2270 3.71529E-03-4.19240E-04-4.58612E-15
 -1      2271 4.11039E-03-4.53907E-04-5.50214E-15
 -1      2272 4.26388E-03-4.55842E-04-5.90767E-15
 -1      2273 4.01263E-03-4.15388E-04-5.33727E-15
 -1      2274 4.41890E-03-4.60402E-04-6.32826E-15
 -1      2275 4.57559E-03-4.68235E-04-6.76235E-15
 -1      2276 4.31419E-03-4.18084E-04-6.14748E-15
 -1      2277 4.73427E-03-4.80075E-04-7.21103E-15
 -1      2278 4.89495E-03-4.96812E-04-7.67623E-15
 -1      2279 4.62154E-03-4.31747E-04-7.01743E-15
 -1      2280 5.05824E-03-5.19188E-04-8.15473E-15
 -1      2281 5.22384E-03-5.48339E-04-8.64764E-15
 -1      2282 4.93706E-03-4.62089E-04-7.94463E-15
 -1      2283 5.39271E-03-5.84805E-04-9.15578E-15
 -1      2284 5.56397E-03-6.29758E-04-9.67966E-15
 -1      2285 5.26395E-03-5.16120E-04-8.93068E-15
 -1      2286 5.73880E-03-6.83184E-04-1.02196E-14
 -1      2287 5.91534E-03-7.45557E-04-1.07764E-14
 -1      2288 5.60546E-03-6.01470E-04-9.97676E-15
 -1      2289 6.09462E-03-8.15752E-04-1.13495E-14
 -1      2290 6.27381E-03-8.92288E-04-1.19398E-14
 -1      2291 5.96251E-03-7.23716E-04-1.10879E-14
 -1      2292 6.45330E-03-9.72392E-04-1.25490E-14
 -1      2293 6.63007E-03-1.05081E-03-1.31763E-14
 -1      2294 6.33006E-03-8.79772E-04-1.22670E-14
 -1      2295 6.80358E-03-1.12311E-03-1.38238E-14
 -1      2296 6.97349E-03-1.18149E-03-1.44913E-14
 -1      2297 6.69554E-03-1.04641E-03-1.35189E-14
 -1      2298 7.13778E-03-1.22190E-03-1.51788E-14
 -1      2299 7.30268E-03-1.23890E-03-1.58852E-14
 -1      2300 7.04476E-03-1.17493E-03-1.48516E-14
 -1      2301 7.46497E-03-1.23166E-03-1.66118E-14
 -1      2302 7.63198E-03-1.20193E-03-1.73596E-14
 -1      2303 7.38043E-03-1.21205E-03-1.62650E-14
 -1      2304 7.80122E-03-1.15329E-03-1.81272E-14
 -1      2305 7.97518E-03-1.09287E-03-1.89117E-14
 -1      2306 7.72221E-03-1.14400E-03-1.77557E-14
 -1      2307 8.15258E-03-1.02522E-03-1.97174E-14
 -1      2308 8.33150E-03-9.57635E-04-2.05423E-14
 -1      2309 8.08142E-03-1.01120E-03-1.93264E-14
 -1      2310 8.51164E-03-8.93509E-04-2.13825E-14
 -1      2311 8.69007E-03-8.35840E-04-2.22399E-14
 -1      2312 8.44985E-03-8.69580E-04-2.09714E-14
 -1      2313 8.86748E-03-7.86410E-04-2.31147E-14
 -1      2314 9.04155E-03-7.45496E-04-2.40033E-14
 -1      2315 8.81298E-03-7.54707E-04-2.26832E-14
 -1      2316 9.21341E-03-7.13532E-04-2.49065E-14
 -1      2317 9.38186E-03-6.89498E-04-2.58219E-14
 -1      2318 9.16203E-03-6.76905E-04-2.44582E-14
 -1      2319 9.54793E-03-6.73064E-04-2.67494E-14
 -1      2320 9.71116E-03-6.63040E-04-2.76889E-14
 -1      2321 9.49565E-03-6.33434E-04-2.62867E-14
 -1      2322 9.87229E-03-6.58747E-04-2.86395E-14
 -1      2323 1.00312E-02-6.59190E-04-2.96038E-14
 -1      2324 9.81651E-03-6.17065E-04-2.81626E-14
 -1      2325 1.01884E-02-6.63625E-04-3.05800E-14
 -1      2326 1.03440E-02-6.71319E-04-3.15662E-14
 -1      2327 1.01280E-02-6.20430E-04-3.00872E-14
 -1      2328 1.04981E-02-6.81614E-04-3.25633E-14
 -1      2329 1.06511E-02-6.93996E-04-3.35704E-14
 -1      2330 1.04329E-02-6.37315E-04-3.20598E-14
 -1      2331 1.08028E-02-7.07952E-04-3.45864E-14
 -1      2332 1.09536E-02-7.23130E-04-3.56096E-14
 -1      2333 1.07333E-02-6.62917E-04-3.40732E-14
 -1      2334 1.11034E-02-7.39162E-04-3.66401E-14
 -1      2335 1.12524E-02-7.55812E-04-3.76767E-14
 -1      2336 1.10302E-02-6.93709E-04-3.61181E-14
 -1      2337 1.14007E-02-7.72834E-04-3.87177E-14
 -1      2338 1.15483E-02-7.90073E-04-3.97640E-14
 -1      2339 1.13247E-02-7.27219E-04-3.81873E-14
 -1      2340 1.16954E-02-8.07377E-04-4.08131E-14
 -1      2341 1.18419E-02-8.24646E-04-4.18667E-14
 -1      2342 1.16172E-02-7.61786E-04-4.02760E-14
 -1      2343 1.19879E-02-8.41796E-04-4.29251E-14
 -1      2344 1.21335E-02-8.58766E-04-4.39884E-14
 -1      2345 1.19082E-02-7.96353E-04-4.23833E-14
 -1      2346 1.22787E-02-8.75516E-04-4.50577E-14
 -1      2347 1.24236E-02-8.92012E-04-4.61323E-14
 -1      2348 1.21978E-02-8.30291E-04-4.45094E-14
 -1      2349 1.25682E-02-9.08245E-04-4.72122E-14
 -1      2350 1.27125E-02-9.24196E-04-4.82974E-14
 -1      2351 1.24865E-02-8.63269E-04-4.66575E-14
 -1      2352 1.28566E-02-9.39876E-04-4.93868E-14
 -1      2353 1.30005E-02-9.55278E-04-5.04802E-14
 -1      2354 1.27745E-02-8.95153E-04-4.88243E-14
 -1      2355 1.31442E-02-9.70421E-04-5.15764E-14
 -1      2356 1.32878E-02-9.85306E-04-5.26763E-14
 -1      2357 1.30618E-02-9.25937E-04-5.10067E-14
 -1      2358 1.34313E-02-9.99958E-04-5.37785E-14
 -1      2359 1.35746E-02-1.01438E-03-5.48826E-14
 -1      2360 1.33486E-02-9.55690E-04-5.32011E-14
 -1      2361 1.37178E-02-1.02860E-03-5.59892E-14
 -1      2362 1.38610E-02-1.04263E-03-5.70910E-14
 -1      2363 1.36351E-02-9.84522E-04-5.54033E-14
 -1      2364 1.40041E-02-1.05649E-03-5.81956E-14
 -1      2365 1.41472E-02-1.07019E-03-5.93008E-14
 -1      2366 1.39213E-02-1.01256E-03-5.76122E-14
 -1      2367 1.42902E-02-1.08376E-03-6.04063E-14
 -1      2368 1.44331E-02-1.09720E-03-6.15124E-14
 -1      2369 1.42074E-02-1.03996E-03-5.98198E-14
 -1      2370 1.87122E-03 4.99850E-04-1.01611E-15
 -1      2371 1.72964E-03 4.90178E-04-8.57306E-16
 -1      2372 2.15485E-03 5.12320E-04-1.37726E-15
 -1      2373 2.01293E-03 5.07164E-04-1.18971E-15
 -1      2374 1.93083E-03 4.67549E-04-1.13452E-15
 -1      2375 2.43985E-03 5.17519E-04-1.79529E-15
 -1      2376 2.29713E-03 5.15709E-04-1.57875E-15
 -1      2377 2.21611E-03 4.77719E-04-1.51313E-15
 -1      2378 2.72695E-03 5.17502E-04-2.27220E-15
 -1      2379 2.58309E-03 5.18055E-04-2.02658E-15
 -1      2380 2.50241E-03 4.81162E-04-1.94843E-15
 -1      2381 3.01681E-03 5.14111E-04-2.80774E-15
 -1      2382 2.87149E-03 5.16123E-04-2.53236E-15
 -1      2383 2.79034E-03 4.79830E-04-2.44187E-15
 -1      2384 3.30998E-03 5.09177E-04-3.40082E-15
 -1      2385 3.16294E-03 5.11725E-04-3.09731E-15
 -1      2386 3.08045E-03 4.75511E-04-2.99404E-15
 -1      2387 3.60701E-03 5.04715E-04-4.05343E-15
 -1      2388 3.45797E-03 5.06758E-04-3.71938E-15
 -1      2389 3.37327E-03 4.70022E-04-3.60344E-15
 -1      2390 3.90842E-03 5.03108E-04-4.76396E-15
 -1      2391 3.75713E-03 5.03399E-04-4.40148E-15
 -1      2392 3.66934E-03 4.65399E-04-4.27046E-15
 -1      2393 4.21468E-03 5.07261E-04-5.53519E-15
 -1      2394 4.06093E-03 5.04276E-04-5.14196E-15
 -1      2395 3.96927E-03 4.64075E-04-4.99693E-15
 -1      2396 4.52620E-03 5.20654E-04-6.36696E-15
 -1      2397 4.36981E-03 5.12580E-04-5.94334E-15
 -1      2398 4.27375E-03 4.69024E-04-5.78289E-15
 -1      2399 4.84316E-03 5.47192E-04-7.25781E-15
 -1      2400 4.68408E-03 5.32041E-04-6.80485E-15
 -1      2401 4.58353E-03 4.83816E-04-6.62956E-15
 -1      2402 5.16532E-03 5.90665E-04-8.20797E-15
 -1      2403 5.00376E-03 5.66606E-04-7.72620E-15
 -1      2404 4.89935E-03 5.12458E-04-7.53495E-15
 -1      2405 5.49166E-03 6.53568E-04-9.21585E-15
 -1      2406 5.32825E-03 6.19613E-04-8.70471E-15
 -1      2407 5.22162E-03 5.58838E-04-8.49971E-15
 -1      2408 5.81991E-03 7.35155E-04-1.02834E-14
 -1      2409 5.65594E-03 6.92248E-04-9.74162E-15
 -1      2410 5.54987E-03 6.25489E-04-9.52237E-15
 -1      2411 6.14633E-03 8.28856E-04-1.14131E-14
 -1      2412 5.98379E-03 7.81196E-04-1.08406E-14
 -1      2413 5.88191E-03 7.11421E-04-1.06042E-14
 -1      2414 6.46648E-03 9.20301E-04-1.26098E-14
 -1      2415 6.30746E-03 8.76089E-04-1.20030E-14
 -1      2416 6.21328E-03 8.09024E-04-1.17498E-14
 -1      2417 6.77753E-03 9.88587E-04-1.38735E-14
 -1      2418 6.62298E-03 9.58789E-04-1.32329E-14
 -1      2419 6.53835E-03 9.01628E-04-1.29629E-14
 -1      2420 7.08097E-03 1.01300E-03-1.52096E-14
 -1      2421 6.92952E-03 1.00733E-03-1.45331E-14
 -1      2422 6.85374E-03 9.65431E-04-1.42458E-14
 -1      2423 7.38300E-03 9.82560E-04-1.66148E-14
 -1      2424 7.23130E-03 1.00470E-03-1.59030E-14
 -1      2425 7.16196E-03 9.78427E-04-1.55980E-14
 -1      2426 7.69069E-03 9.02561E-04-1.80905E-14
 -1      2427 7.53551E-03 9.47777E-04-1.73432E-14
 -1      2428 7.47073E-03 9.32066E-04-1.70221E-14
 -1      2429 8.00771E-03 7.91147E-04-1.96377E-14
 -1      2430 7.84798E-03 8.49317E-04-1.88558E-14
 -1      2431 7.78751E-03 8.37244E-04-1.85178E-14
 -1      2432 8.33256E-03 6.70403E-04-2.12514E-14
 -1      2433 8.16949E-03 7.30720E-04-2.04362E-14
 -1      2434 8.11396E-03 7.16876E-04-2.00847E-14
 -1      2435 8.66110E-03 5.57363E-04-2.29314E-14
 -1      2436 8.49682E-03 6.12177E-04-2.20838E-14
 -1      2437 8.44605E-03 5.94308E-04-2.17181E-14
 -1      2438 8.98919E-03 4.61358E-04-2.46728E-14
 -1      2439 8.82559E-03 5.06961E-04-2.37949E-14
 -1      2440 8.77823E-03 4.84803E-04-2.34153E-14
 -1      2441 9.31401E-03 3.84965E-04-2.64740E-14
 -1      2442 9.15225E-03 4.20746E-04-2.55657E-14
 -1      2443 9.10634E-03 3.94958E-04-2.51754E-14
 -1      2444 9.63418E-03 3.26619E-04-2.83308E-14
 -1      2445 9.47480E-03 3.53714E-04-2.73958E-14
 -1      2446 9.42852E-03 3.25125E-04-2.69916E-14
 -1      2447 9.94930E-03 2.82925E-04-3.02398E-14
 -1      2448 9.79242E-03 3.03162E-04-2.92778E-14
 -1      2449 9.74450E-03 2.72529E-04-2.88622E-14
 -1      2450 1.02595E-02 2.50088E-04-3.21952E-14
 -1      2451 1.01050E-02 2.65359E-04-3.12114E-14
 -1      2452 1.00548E-02 2.33328E-04-3.07826E-14
 -1      2453 1.05652E-02 2.24680E-04-3.41987E-14
 -1      2454 1.04129E-02 2.36631E-04-3.31915E-14
 -1      2455 1.03603E-02 2.03727E-04-3.27521E-14
 -1      2456 1.08669E-02 2.03928E-04-3.62454E-14
 -1      2457 1.07165E-02 2.13858E-04-3.52161E-14
 -1      2458 1.06617E-02 1.80490E-04-3.47655E-14
 -1      2459 1.11652E-02 1.85758E-04-3.83288E-14
 -1      2460 1.10164E-02 1.94620E-04-3.72829E-14
 -1      2461 1.09598E-02 1.61093E-04-3.68219E-14
 -1      2462 1.14606E-02 1.68708E-04-4.04459E-14
 -1      2463 1.13132E-02 1.77162E-04-3.93840E-14
 -1      2464 1.12551E-02 1.43689E-04-3.89123E-14
 -1      2465 1.17537E-02 1.51809E-04-4.25855E-14
 -1      2466 1.16074E-02 1.60286E-04-4.15137E-14
 -1      2467 1.15482E-02 1.27000E-04-4.10315E-14
 -1      2468 1.20449E-02 1.34465E-04-4.47483E-14
 -1      2469 1.18995E-02 1.43221E-04-4.36638E-14
 -1      2470 1.18394E-02 1.10200E-04-4.31738E-14
 -1      2471 1.23346E-02 1.16346E-04-4.69315E-14
 -1      2472 1.21899E-02 1.25518E-04-4.58374E-14
 -1      2473 1.21293E-02 9.27933E-05-4.53408E-14
 -1      2474 1.26231E-02 9.73069E-05-4.91210E-14
 -1      2475 1.24790E-02 1.06949E-04-4.80261E-14
 -1      2476 1.24180E-02 7.45214E-05-4.75237E-14
 -1      2477 1.29108E-02 7.73233E-05-5.13115E-14
 -1      2478 1.27670E-02 8.74348E-05-5.02160E-14
 -1      2479 1.27059E-02 5.52872E-05-4.97107E-14
 -1      2480 1.31978E-02 5.64454E-05-5.34945E-14
 -1      2481 1.30544E-02 6.69941E-05-5.24046E-14
 -1      2482 1.29931E-02 3.50971E-05-5.18991E-14
 -1      2483 1.34844E-02 3.47667E-05-5.56699E-14
 -1      2484 1.33411E-02 4.57020E-05-5.45846E-14
 -1      2485 1.32799E-02 1.40211E-05-5.40799E-14
 -1      2486 1.37706E-02 1.24023E-05-5.78378E-14
 -1      2487 1.36275E-02 2.36649E-05-5.67519E-14
 -1      2488 1.35663E-02-7.83575E-06-5.62530E-14
 -1      2489 1.40566E-02-1.05215E-05-6.00042E-14
 -1      2490 1.39136E-02 1.00417E-06-5.89208E-14
 -1      2491 1.38524E-02-3.03535E-05-5.84219E-14
 -1      2492 1.43425E-02-3.38734E-05-6.21655E-14
 -1      2493 1.41995E-02-2.21498E-05-6.10863E-14
 -1      2494 1.41383E-02-5.34019E-05-6.05881E-14
 -1      2495 1.44899E-02-4.50451E-05-6.32798E-14
 -1      2496 1.45049E-02-3.70012E-04-6.30916E-14
 -1      2497 1.44927E-02-3.28143E-04-6.30393E-14
 -1      2498 1.45293E-02-4.53650E-04-6.31922E-14
 -1      2499 1.45171E-02-4.11846E-04-6.31422E-14
 -1      2500 1.43874E-02-3.80474E-04-6.21734E-14
 -1      2501 1.44570E-02-2.03728E-04-6.28858E-14
 -1      2502 1.44451E-02-1.61708E-04-6.28324E-14
 -1      2503 1.44807E-02-2.86591E-04-6.29870E-14
 -1      2504 1.44689E-02-2.45358E-04-6.29358E-14
 -1      2505 1.43392E-02-2.14106E-04-6.19720E-14
 -1      2506 1.43631E-02-2.97203E-04-6.20733E-14
 -1      2507 1.45538E-02-5.37191E-04-6.32866E-14
 -1      2508 1.45415E-02-4.95430E-04-6.32415E-14
 -1      2509 1.44118E-02-4.63946E-04-6.22705E-14
 -1      2510 1.45784E-02-6.20686E-04-6.33784E-14
 -1      2511 1.45661E-02-5.78940E-04-6.33334E-14
 -1      2512 1.44364E-02-5.47316E-04-6.23616E-14
 -1      2513 1.46030E-02-7.04197E-04-6.34547E-14
 -1      2514 1.45907E-02-6.62436E-04-6.34166E-14
 -1      2515 1.44610E-02-6.30651E-04-6.24438E-14
 -1      2516 1.46273E-02-7.86365E-04-6.35232E-14
 -1      2517 1.46151E-02-7.45269E-04-6.34900E-14
 -1      2518 1.44854E-02-7.13315E-04-6.25141E-14
 -1      2519 1.46521E-02-8.70069E-04-6.35891E-14
 -1      2520 1.46397E-02-8.28200E-04-6.35562E-14
 -1      2521 1.45099E-02-7.96079E-04-6.25791E-14
 -1      2522 1.46772E-02-9.53924E-04-6.36554E-14
 -1      2523 1.46646E-02-9.11977E-04-6.36220E-14
 -1      2524 1.45347E-02-8.79705E-04-6.26428E-14
 -1      2525 1.47025E-02-1.03794E-03-6.37228E-14
 -1      2526 1.46898E-02-9.95912E-04-6.36879E-14
 -1      2527 1.45598E-02-9.63515E-04-6.27094E-14
 -1      2528 9.45209E-03-1.68067E-04-2.11511E-14
 -1      2529 9.49354E-03-1.76674E-04-2.11645E-14
 -1      2530 8.89485E-03 1.25816E-05-2.03470E-14
 -1      2531 9.05850E-03-5.08234E-05-2.05930E-14
 -1      2532 1.58800E-03 4.77613E-04-7.12727E-16
 -1      2533 1.44615E-03 4.61933E-04-5.82230E-16
 -1      2534 1.64583E-03 4.48335E-04-8.12975E-16
 -1      2535 1.48028E-02-1.11922E-03-6.43903E-14
 -1      2536 9.49662E-03-1.88881E-04-2.11304E-14
 -1      2537 9.45996E-03-1.98567E-04-2.10572E-14
 -1      2538 9.21260E-03-1.03921E-04-2.08233E-14
 -1      2539 9.34392E-03-1.39705E-04-2.10549E-14
 -1      2540 9.16013E-03-8.52749E-05-2.12193E-14
 -1      2541 5.89087E-04-2.32866E-04-1.24995E-16
 -1      2542 7.82135E-04-2.97505E-04-2.01580E-16
 -1      2543 8.41871E-04-2.85467E-04-2.51305E-16
 -1      2544 5.79739E-04-2.05102E-04-1.35336E-16
 -1      2545 9.37766E-03-2.22682E-04-2.08885E-14
 -1      2546 9.26540E-03-2.53963E-04-2.07433E-14
 -1      2547 7.19907E-03-1.14825E-03-1.56708E-14
 -1      2548 7.04238E-03-1.11108E-03-1.51609E-14
 -1      2549 5.46084E-04-2.18346E-05-1.68078E-16
 -1      2550 5.46644E-04-3.71661E-05-1.67591E-16
 -1      2551 6.61834E-04-5.32125E-05-2.27167E-16
 -1      2552 6.60328E-04-1.68474E-05-2.28387E-16
 -1      2553 7.04267E-03 8.34935E-04-1.52336E-14
 -1      2554 7.19543E-03 8.43704E-04-1.57622E-14
 -1      2555 9.11500E-03-3.06275E-04-2.05447E-14
 -1      2556 8.95424E-03-3.69113E-04-2.03303E-14
 -1      2557 7.38829E-03 8.09787E-04-1.64221E-14
 -1      2558 7.53554E-03 7.52106E-04-1.69202E-14
 -1      2559 6.74126E-03 7.34537E-04-1.43343E-14
 -1      2560 6.87975E-03 7.93291E-04-1.47376E-14
 -1      2561 6.36693E-03 5.33317E-04-1.34211E-14
 -1      2562 6.55715E-03 6.42987E-04-1.38608E-14
 -1      2563 5.96367E-03 3.06660E-04-1.26490E-14
 -1      2564 6.14969E-03 4.10566E-04-1.29795E-14
 -1      2565 5.53815E-03 1.01597E-04-1.20760E-14
 -1      2566 5.72229E-03 1.84809E-04-1.22757E-14
 -1      2567 5.23459E-03-1.08654E-05-1.17717E-14
 -1      2568 5.37114E-03 3.52388E-05-1.19206E-14
 -1      2569 5.01230E-03-7.36317E-05-1.15827E-14
 -1      2570 5.10283E-03-5.14891E-05-1.16673E-14
 -1      2571 4.94634E-03-9.57211E-05-1.14304E-14
 -1      2572 4.95890E-03-8.96480E-05-1.14706E-14
 -1      2573 5.06517E-03-1.30971E-04-1.15473E-14
 -1      2574 4.98142E-03-1.11639E-04-1.14584E-14
 -1      2575 5.35405E-03-2.25092E-04-1.19711E-14
 -1      2576 5.21408E-03-1.77084E-04-1.17653E-14
 -1      2577 5.70186E-03-3.75951E-04-1.24254E-14
 -1      2578 5.51940E-03-2.93314E-04-1.21948E-14
 -1      2579 6.09183E-03-5.81895E-04-1.29381E-14
 -1      2580 5.90263E-03-4.75936E-04-1.26684E-14
 -1      2581 6.53080E-03-8.49442E-04-1.37729E-14
 -1      2582 6.34146E-03-7.29064E-04-1.33599E-14
 -1      2583 6.87205E-03-1.04286E-03-1.46821E-14
 -1      2584 6.71864E-03-9.60367E-04-1.42724E-14
 -1      2585 7.50711E-03-1.12141E-03-1.67267E-14
 -1      2586 7.38055E-03-1.14930E-03-1.62850E-14
 -1      2587 7.87581E-03-9.55764E-04-1.79486E-14
 -1      2588 7.68023E-03-1.05849E-03-1.73159E-14
 -1      2589 8.26686E-03-7.26223E-04-1.90067E-14
 -1      2590 8.10627E-03-8.24176E-04-1.86028E-14
 -1      2591 8.72262E-03-4.75725E-04-1.99631E-14
 -1      2592 8.49440E-03-5.96256E-04-1.95141E-14
 -1      2593 7.72155E-03 6.60423E-04-1.75129E-14
 -1      2594 7.87394E-03 5.69793E-04-1.79444E-14
 -1      2595 7.58163E-04 3.27498E-04-1.46191E-16
 -1      2596 6.11591E-04 2.79769E-04-9.53691E-17
 -1      2597 5.85105E-04 2.53156E-04-9.96924E-17
 -1      2598 8.14496E-04 3.15295E-04-1.93923E-16
 -1      2599 8.46553E-03 2.24901E-04-1.93308E-14
 -1      2600 8.65255E-03 1.26369E-04-1.97590E-14
 -1      2601 7.28136E-03 8.36779E-04-1.60817E-14
 -1      2602 6.70573E-04-1.32702E-04-2.16054E-16
 -1      2603 5.55076E-04-1.21824E-04-1.56505E-16
 -1      2604 5.58423E-04-1.41549E-04-1.51734E-16
 -1      2605 1.36025E-03 4.17169E-04-5.48471E-16
 -1      2606 5.72877E-04 2.22938E-04-1.12608E-16
 -1      2607 8.35540E-03 2.84683E-04-1.93225E-14
 -1      2608 7.63317E-03 7.09347E-04-1.73386E-14
 -1      2609 8.84899E-03-4.22696E-04-2.04626E-14
 -1      2610 9.43588E-03-2.09789E-04-2.14105E-14
 -1      2611 8.41362E-03-6.52531E-04-1.95758E-14
 -1      2612 7.98263E-03-9.07511E-04-1.84006E-14
 -1      2613 7.61196E-03-1.09464E-03-1.71494E-14
 -1      2614 1.44287E-02-7.62268E-05-6.27854E-14
 -1      2615 8.78866E-03 6.25337E-05-2.03884E-14
 -1      2616 1.44221E-02-1.07981E-04-6.27053E-14
 -1      2617 6.96231E-03-1.08344E-03-1.48529E-14
 -1      2618 9.51432E-03-1.86283E-04-2.16159E-14
 -1      2619 9.41602E-03-1.58477E-04-2.15525E-14
 -1      2620 6.62200E-03-9.06557E-04-1.38786E-14
 -1      2621 6.21689E-03-6.56314E-04-1.29673E-14
 -1      2622 6.90418E-04 2.44956E-04-1.65531E-16
 -1      2623 5.79160E-03-4.15567E-04-1.23156E-14
 -1      2624 5.72555E-04-1.80289E-04-1.43833E-16
 -1      2625 7.28354E-03-1.15799E-03-1.59423E-14
 -1      2626 5.43865E-03-2.54306E-04-1.18566E-14
 -1      2627 5.12136E-03-1.44635E-04-1.14216E-14
 -1      2628 5.04306E-03-1.26741E-04-1.10838E-14
 -1      2629 5.18132E-03-1.63459E-04-1.12951E-14
 -1      2630 4.94548E-03-1.00316E-04-1.11822E-14
 -1      2631 4.97228E-03-8.04419E-05-1.12669E-14
 -1      2632 5.15228E-03-3.36450E-05-1.14811E-14
 -1      2633 5.43927E-03 6.64041E-05-1.17356E-14
 -1      2634 5.82427E-03 2.42406E-04-1.22522E-14
 -1      2635 6.26222E-03 4.81010E-04-1.30582E-14
 -1      2636 6.63992E-03 6.91695E-04-1.39664E-14
 -1      2637 7.98003E-03 5.08039E-04-1.83930E-14
 -1      2638 9.21153E-03-2.75136E-04-2.10385E-14
 -1      2639 6.96169E-03 8.23036E-04-1.49310E-14
 -1      2640 1.46586E-02-1.12064E-03-6.32504E-14
 -1      2641 1.46884E-02-1.07182E-03-6.35593E-14
 -1      2642 1.45582E-02-1.03933E-03-6.25796E-14
 -1      2643 1.45300E-02-1.10707E-03-6.22582E-14
 -1      2644 1.43042E-02-1.18816E-04-6.17960E-14
 -1      2645 1.44472E-02-1.06334E-03-6.16705E-14
 -1      2646 7.79203E-04 7.36287E-05-2.91881E-16
 -1      2647 7.77691E-04 5.27344E-05-2.94591E-16
 -1      2648 7.76662E-04 3.18678E-05-2.96638E-16
 -1      2649 7.76146E-04 1.12864E-05-2.98074E-16
 -1      2650 8.94526E-04 4.70560E-05-3.75486E-16
 -1      2651 7.91951E-04 1.66439E-04-2.70739E-16
 -1      2652 7.87586E-04 1.41605E-04-2.78003E-16
 -1      2653 8.04368E-04 2.20836E-04-2.51860E-16
 -1      2654 7.97510E-04 1.92784E-04-2.62296E-16
 -1      2655 9.15356E-04 1.99550E-04-3.40914E-16
 -1      2656 1.13153E-03 3.49951E-04-4.06589E-16
 -1      2657 9.87583E-04 3.22928E-04-3.13185E-16
 -1      2658 5.85035E-03-4.50849E-04-1.21672E-14
 -1      2659 5.67447E-03-3.59994E-04-1.19330E-14
 -1      2660 8.04158E-04 2.70615E-04-2.20635E-16
 -1      2661 7.55291E-03 7.57204E-04-1.71537E-14
 -1      2662 7.71460E-03 6.74661E-04-1.77514E-14
 -1      2663 8.54785E-03-5.97210E-04-2.02136E-14
 -1      2664 8.34929E-03-7.13126E-04-1.96932E-14
 -1      2665 1.32225E-03-3.47631E-04-6.10175E-16
 -1      2666 1.46585E-03-3.64078E-04-7.43275E-16
 -1      2667 1.60933E-03-3.77391E-04-8.89967E-16
 -1      2668 1.75279E-03-3.87792E-04-1.05052E-15
 -1      2669 1.52684E-03-3.36925E-04-8.32681E-16
 -1      2670 1.89615E-03-3.95737E-04-1.22565E-15
 -1      2671 2.03951E-03-4.01411E-04-1.41436E-15
 -1      2672 1.81392E-03-3.56984E-04-1.15650E-15
 -1      2673 2.18285E-03-4.05188E-04-1.61739E-15
 -1      2674 2.32624E-03-4.07228E-04-1.83505E-15
 -1      2675 2.10085E-03-3.68001E-04-1.53619E-15
 -1      2676 2.46969E-03-4.07835E-04-2.06711E-15
 -1      2677 2.61326E-03-4.07154E-04-2.31343E-15
 -1      2678 2.38758E-03-3.71998E-04-1.97261E-15
 -1      2679 2.75695E-03-4.05449E-04-2.57438E-15
 -1      2680 2.90084E-03-4.02858E-04-2.84913E-15
 -1      2681 2.67417E-03-3.70710E-04-2.46674E-15
 -1      2682 3.04491E-03-3.99633E-04-3.13779E-15
 -1      2683 3.18925E-03-3.95921E-04-3.44105E-15
 -1      2684 2.96071E-03-3.65688E-04-3.01686E-15
 -1      2685 3.33384E-03-3.91990E-04-3.75855E-15
 -1      2686 3.47880E-03-3.88019E-04-4.09045E-15
 -1      2687 3.24731E-03-3.58432E-04-3.62378E-15
 -1      2688 3.62410E-03-3.84319E-04-4.43688E-15
 -1      2689 3.76992E-03-3.81126E-04-4.79738E-15
 -1      2690 3.53417E-03-3.50556E-04-4.28738E-15
 -1      2691 3.91625E-03-3.78820E-04-5.17267E-15
 -1      2692 4.06332E-03-3.77738E-04-5.56274E-15
 -1      2693 3.82164E-03-3.43957E-04-5.00904E-15
 -1      2694 4.21121E-03-3.78337E-04-5.96825E-15
 -1      2695 4.36021E-03-3.81123E-04-6.38886E-15
 -1      2696 4.11048E-03-3.41019E-04-5.78944E-15
 -1      2697 4.51058E-03-3.86619E-04-6.82378E-15
 -1      2698 4.66268E-03-3.95604E-04-7.27239E-15
 -1      2699 4.40211E-03-3.44833E-04-6.63033E-15
 -1      2700 4.81702E-03-4.08613E-04-7.73569E-15
 -1      2701 4.97400E-03-4.26856E-04-8.21409E-15
 -1      2702 4.69914E-03-3.59504E-04-7.52802E-15
 -1      2703 5.13454E-03-4.50774E-04-8.70644E-15
 -1      2704 5.29884E-03-4.82179E-04-9.21339E-15
 -1      2705 5.00587E-03-3.90616E-04-8.48262E-15
 -1      2706 5.46831E-03-5.21276E-04-9.73595E-15
 -1      2707 5.64233E-03-5.70326E-04-1.02743E-14
 -1      2708 5.32863E-03-4.46027E-04-9.49657E-15
 -1      2709 5.82270E-03-6.29113E-04-1.08288E-14
 -1      2710 6.00687E-03-6.99084E-04-1.13998E-14
 -1      2711 5.67476E-03-5.36520E-04-1.05716E-14
 -1      2712 6.19633E-03-7.78739E-04-1.19880E-14
 -1      2713 6.38625E-03-8.66238E-04-1.25935E-14
 -1      2714 6.04803E-03-6.73316E-04-1.17113E-14
 -1      2715 6.57709E-03-9.58512E-04-1.32183E-14
 -1      2716 6.76388E-03-1.04508E-03-1.38626E-14
 -1      2717 6.44010E-03-8.56792E-04-1.29200E-14
 -1      2718 6.98841E-03-1.12393E-03-1.47568E-14
 -1      2719 7.16997E-03-1.17054E-03-1.54487E-14
 -1      2720 7.31887E-03-1.18215E-03-1.60595E-14
 -1      2721 7.49881E-03-1.16240E-03-1.67861E-14
 -1      2722 7.64088E-03-1.11718E-03-1.73781E-14
 -1      2723 7.82954E-03-1.04723E-03-1.81425E-14
 -1      2724 8.38956E-03-8.43496E-04-2.05613E-14
 -1      2725 8.57721E-03-7.76557E-04-2.13992E-14
 -1      2726 8.76246E-03-7.19917E-04-2.22550E-14
 -1      2727 8.94131E-03-6.73549E-04-2.31254E-14
 -1      2728 8.71583E-03-6.82912E-04-2.18284E-14
 -1      2729 9.11569E-03-6.38041E-04-2.40124E-14
 -1      2730 9.28426E-03-6.11148E-04-2.49133E-14
 -1      2731 9.07431E-03-5.96555E-04-2.35687E-14
 -1      2732 9.44864E-03-5.92841E-04-2.58257E-14
 -1      2733 9.60877E-03-5.81065E-04-2.67500E-14
 -1      2734 9.40684E-03-5.50727E-04-2.53666E-14
 -1      2735 9.76578E-03-5.75476E-04-2.76883E-14
 -1      2736 9.92003E-03-5.74617E-04-2.86368E-14
 -1      2737 9.72001E-03-5.33570E-04-2.72141E-14
 -1      2738 1.00722E-02-5.77985E-04-2.95971E-14
 -1      2739 1.02227E-02-5.84641E-04-3.05720E-14
 -1      2740 1.00209E-02-5.36068E-04-2.91102E-14
 -1      2741 1.03718E-02-5.94068E-04-3.15585E-14
 -1      2742 1.05200E-02-6.05671E-04-3.25538E-14
 -1      2743 1.03147E-02-5.51789E-04-3.10563E-14
 -1      2744 1.06673E-02-6.18991E-04-3.35602E-14
 -1      2745 1.08140E-02-6.33649E-04-3.45753E-14
 -1      2746 1.06047E-02-5.76178E-04-3.30479E-14
 -1      2747 1.09601E-02-6.49283E-04-3.55951E-14
 -1      2748 1.11058E-02-6.65650E-04-3.66231E-14
 -1      2749 1.08928E-02-6.05938E-04-3.50738E-14
 -1      2750 1.12511E-02-6.82483E-04-3.76576E-14
 -1      2751 1.13962E-02-6.99632E-04-3.86970E-14
 -1      2752 1.11800E-02-6.38708E-04-3.71280E-14
 -1      2753 1.15410E-02-7.16912E-04-3.97408E-14
 -1      2754 1.16856E-02-7.34230E-04-4.07892E-14
 -1      2755 1.14667E-02-6.72842E-04-3.92054E-14
 -1      2756 1.18299E-02-7.51471E-04-4.18436E-14
 -1      2757 1.19741E-02-7.68580E-04-4.29003E-14
 -1      2758 1.17533E-02-7.07237E-04-4.13020E-14
 -1      2759 1.21182E-02-7.85493E-04-4.39616E-14
 -1      2760 1.22621E-02-8.02179E-04-4.50312E-14
 -1      2761 1.20397E-02-7.41201E-04-4.34159E-14
 -1      2762 1.24058E-02-8.18610E-04-4.61029E-14
 -1      2763 1.25495E-02-8.34772E-04-4.71789E-14
 -1      2764 1.23260E-02-7.74337E-04-4.55494E-14
 -1      2765 1.26930E-02-8.50660E-04-4.82620E-14
 -1      2766 1.28364E-02-8.66272E-04-4.93486E-14
 -1      2767 1.26122E-02-8.06455E-04-4.76997E-14
 -1      2768 1.29798E-02-8.81617E-04-5.04378E-14
 -1      2769 1.31231E-02-8.96698E-04-5.15288E-14
 -1      2770 1.28983E-02-8.37507E-04-4.98706E-14
 -1      2771 1.32663E-02-9.11534E-04-5.26244E-14
 -1      2772 1.34095E-02-9.26133E-04-5.37235E-14
 -1      2773 1.31844E-02-8.67530E-04-5.20519E-14
 -1      2774 1.35526E-02-9.40516E-04-5.48254E-14
 -1      2775 1.36957E-02-9.54693E-04-5.59272E-14
 -1      2776 1.34704E-02-8.96616E-04-5.42472E-14
 -1      2777 1.38387E-02-9.68688E-04-5.70289E-14
 -1      2778 1.39817E-02-9.82511E-04-5.81299E-14
 -1      2779 1.37563E-02-9.24884E-04-5.64481E-14
 -1      2780 1.41247E-02-9.96184E-04-5.92337E-14
 -1      2781 1.42676E-02-1.00972E-03-6.03386E-14
 -1      2782 1.40421E-02-9.52463E-04-5.86511E-14
 -1      2783 2.27758E-03 4.42715E-04-1.65029E-15
 -1      2784 2.13436E-03 4.39621E-04-1.44577E-15
 -1      2785 1.41845E-02-1.60747E-04-6.08376E-14
 -1      2786 1.41613E-02-1.07114E-04-6.07110E-14
 -1      2787 1.40184E-02-9.55059E-05-5.96279E-14
 -1      2788 1.99126E-03 4.34693E-04-1.25526E-15
 -1      2789 1.84820E-03 4.27751E-04-1.07852E-15
 -1      2790 2.05225E-03 4.01479E-04-1.37766E-15
 -1      2791 2.85280E-03 4.42092E-04-2.61309E-15
 -1      2792 2.70852E-03 4.43776E-04-2.35088E-15
 -1      2793 3.14263E-03 4.37005E-04-3.18079E-15
 -1      2794 2.99747E-03 4.39778E-04-2.88962E-15
 -1      2795 2.91431E-03 4.04439E-04-2.78568E-15
 -1      2796 3.43458E-03 4.31095E-04-3.80601E-15
 -1      2797 3.28830E-03 4.34044E-04-3.48632E-15
 -1      2798 3.20336E-03 3.98720E-04-3.36917E-15
 -1      2799 3.72924E-03 4.26385E-04-4.48902E-15
 -1      2800 3.58153E-03 4.28458E-04-4.14051E-15
 -1      2801 3.49398E-03 3.92480E-04-4.00995E-15
 -1      2802 4.02734E-03 4.25321E-04-5.23094E-15
 -1      2803 3.87781E-03 4.25230E-04-4.85263E-15
 -1      2804 3.78681E-03 3.87704E-04-4.70855E-15
 -1      2805 4.32984E-03 4.30902E-04-6.03230E-15
 -1      2806 4.17799E-03 4.27066E-04-5.62397E-15
 -1      2807 4.08276E-03 3.86803E-04-5.46594E-15
 -1      2808 4.63796E-03 4.46754E-04-6.89337E-15
 -1      2809 4.48316E-03 4.37276E-04-6.45549E-15
 -1      2810 4.38315E-03 3.92761E-04-6.28214E-15
 -1      2811 4.95309E-03 4.77005E-04-7.81342E-15
 -1      2812 4.79465E-03 4.59771E-04-7.34609E-15
 -1      2813 4.68973E-03 4.09246E-04-7.15838E-15
 -1      2814 5.27638E-03 5.25775E-04-8.79211E-15
 -1      2815 5.11382E-03 4.98786E-04-8.29530E-15
 -1      2816 5.00466E-03 4.40585E-04-8.09197E-15
 -1      2817 5.60792E-03 5.95887E-04-9.82835E-15
 -1      2818 5.44139E-03 5.58019E-04-9.30282E-15
 -1      2819 5.32987E-03 4.91338E-04-9.08570E-15
 -1      2820 5.94547E-03 6.86500E-04-1.09260E-14
 -1      2821 5.77646E-03 6.38908E-04-1.03695E-14
 -1      2822 5.66600E-03 5.65050E-04-1.01356E-14
 -1      2823 6.28339E-03 7.89151E-04-1.20871E-14
 -1      2824 6.11504E-03 7.37405E-04-1.14980E-14
 -1      2825 6.01034E-03 6.61487E-04-1.12474E-14
 -1      2826 6.61415E-03 8.84173E-04-1.33162E-14
 -1      2827 6.45005E-03 8.39523E-04-1.26933E-14
 -1      2828 6.35546E-03 7.70842E-04-1.24245E-14
 -1      2829 6.93353E-03 9.43609E-04-1.46163E-14
 -1      2830 6.77481E-03 9.20418E-04-1.39575E-14
 -1      2831 6.69157E-03 8.69002E-04-1.36705E-14
 -1      2832 7.24600E-03 9.43007E-04-1.59878E-14
 -1      2833 7.08947E-03 9.51645E-04-1.52938E-14
 -1      2834 7.01471E-03 9.22017E-04-1.49885E-14
 -1      2835 7.56167E-03 8.78128E-04-1.74309E-14
 -1      2836 7.40225E-03 9.17913E-04-1.67000E-14
 -1      2837 7.33240E-03 9.04437E-04-1.63782E-14
 -1      2838 7.88813E-03 7.66849E-04-1.89482E-14
 -1      2839 7.72328E-03 8.26187E-04-1.81804E-14
 -1      2840 7.65716E-03 8.17725E-04-1.78423E-14
 -1      2841 8.22423E-03 6.38279E-04-2.05331E-14
 -1      2842 8.05547E-03 7.02825E-04-1.97315E-14
 -1      2843 7.99511E-03 6.90000E-04-1.93794E-14
 -1      2844 8.56289E-03 5.15791E-04-2.21871E-14
 -1      2845 8.39392E-03 5.75214E-04-2.13518E-14
 -1      2846 8.34071E-03 5.55839E-04-2.09858E-14
 -1      2847 8.89747E-03 4.11797E-04-2.39022E-14
 -1      2848 8.73123E-03 4.61164E-04-2.30370E-14
 -1      2849 8.68441E-03 4.36266E-04-2.26583E-14
 -1      2850 9.22436E-03 3.29473E-04-2.56772E-14
 -1      2851 9.06212E-03 3.68050E-04-2.47826E-14
 -1      2852 9.01935E-03 3.39841E-04-2.43903E-14
 -1      2853 9.54300E-03 2.66871E-04-2.75105E-14
 -1      2854 9.38478E-03 2.95970E-04-2.65872E-14
 -1      2855 9.34335E-03 2.65984E-04-2.61833E-14
 -1      2856 9.85432E-03 2.20217E-04-2.93946E-14
 -1      2857 9.69954E-03 2.41837E-04-2.84464E-14
 -1      2858 9.65736E-03 2.10853E-04-2.80321E-14
 -1      2859 1.01597E-02 1.85420E-04-3.13279E-14
 -1      2860 1.00077E-02 2.01588E-04-3.03547E-14
 -1      2861 9.96344E-03 1.69990E-04-2.99285E-14
 -1      2862 1.04605E-02 1.58831E-04-3.33087E-14
 -1      2863 1.03106E-02 1.71300E-04-3.23124E-14
 -1      2864 1.02637E-02 1.39283E-04-3.18739E-14
 -1      2865 1.07578E-02 1.37504E-04-3.53348E-14
 -1      2866 1.06095E-02 1.47661E-04-3.43174E-14
 -1      2867 1.05598E-02 1.15363E-04-3.38674E-14
 -1      2868 1.10523E-02 1.19207E-04-3.73977E-14
 -1      2869 1.09053E-02 1.28085E-04-3.63608E-14
 -1      2870 1.08531E-02 9.56282E-05-3.59012E-14
 -1      2871 1.13448E-02 1.02343E-04-3.94929E-14
 -1      2872 1.11988E-02 1.10670E-04-3.84422E-14
 -1      2873 1.11443E-02 7.81623E-05-3.79735E-14
 -1      2874 1.16356E-02 8.58288E-05-4.16157E-14
 -1      2875 1.14904E-02 9.40908E-05-4.05508E-14
 -1      2876 1.14341E-02 6.16206E-05-4.00723E-14
 -1      2877 1.19252E-02 6.89766E-05-4.37614E-14
 -1      2878 1.17805E-02 7.74745E-05-4.26862E-14
 -1      2879 1.17229E-02 4.51084E-05-4.21989E-14
 -1      2880 1.22138E-02 5.13900E-05-4.59297E-14
 -1      2881 1.20696E-02 6.02913E-05-4.48428E-14
 -1      2882 1.20108E-02 2.80720E-05-4.43479E-14
 -1      2883 1.25016E-02 3.28769E-05-4.81122E-14
 -1      2884 1.23578E-02 4.22563E-05-4.70204E-14
 -1      2885 1.22982E-02 1.02061E-05-4.65172E-14
 -1      2886 1.27888E-02 1.33825E-05-5.02972E-14
 -1      2887 1.26453E-02 2.32533E-05-4.92044E-14
 -1      2888 1.25852E-02-8.62205E-06-4.86981E-14
 -1      2889 1.30756E-02-7.05995E-06-5.24838E-14
 -1      2890 1.29323E-02 3.27706E-06-5.13921E-14
 -1      2891 1.28718E-02-2.84297E-05-5.08837E-14
 -1      2892 1.33621E-02-2.83656E-05-5.46632E-14
 -1      2893 1.32189E-02-1.76098E-05-5.35736E-14
 -1      2894 1.31581E-02-4.91619E-05-5.30680E-14
 -1      2895 1.36483E-02-5.04211E-05-5.68353E-14
 -1      2896 1.35052E-02-3.93062E-05-5.57502E-14
 -1      2897 1.34443E-02-7.07224E-05-5.52458E-14
 -1      2898 1.39049E-02-7.85598E-05-5.87747E-14
 -1      2899 1.37619E-02-6.71734E-05-5.76875E-14
 -1      2900 1.37009E-02-9.84709E-05-5.71863E-14
 -1      2901 1.39281E-02-1.32143E-04-5.88961E-14
 -1      2902 8.66779E-03 1.29431E-04-2.04900E-14
 -1      2903 8.89031E-03 3.02606E-05-2.10882E-14
 -1      2904 1.43190E-02-5.57366E-04-6.14320E-14
 -1      2905 1.43067E-02-5.15784E-04-6.13892E-14
 -1      2906 1.43645E-02-1.01964E-03-6.10878E-14
 -1      2907 1.44614E-02-1.02950E-03-6.18334E-14
 -1      2908 1.42819E-02-9.75971E-04-6.05019E-14
 -1      2909 1.42699E-02-3.90903E-04-6.12545E-14
 -1      2910 1.42577E-02-3.49202E-04-6.12066E-14
 -1      2911 1.43436E-02-6.40525E-04-6.15056E-14
 -1      2912 1.43313E-02-5.98943E-04-6.14707E-14
 -1      2913 1.42017E-02-5.67326E-04-6.04984E-14
 -1      2914 1.42945E-02-4.74186E-04-6.13468E-14
 -1      2915 1.42822E-02-4.32562E-04-6.13023E-14
 -1      2916 1.41525E-02-4.01288E-04-6.03346E-14
 -1      2917 1.41771E-02-4.84356E-04-6.04214E-14
 -1      2918 1.43678E-02-7.22335E-04-6.15701E-14
 -1      2919 1.43557E-02-6.81418E-04-6.15386E-14
 -1      2920 1.42261E-02-6.49591E-04-6.05662E-14
 -1      2921 1.43925E-02-8.05692E-04-6.16343E-14
 -1      2922 1.43801E-02-7.63993E-04-6.16029E-14
 -1      2923 1.42504E-02-7.31952E-04-6.06300E-14
 -1      2924 1.44173E-02-8.89244E-04-6.16999E-14
 -1      2925 1.44049E-02-8.47441E-04-6.16671E-14
 -1      2926 1.42751E-02-8.15196E-04-6.06927E-14
 -1      2927 7.89957E-04-2.45017E-04-2.41249E-16
 -1      2928 9.21349E-04-2.79145E-04-3.13402E-16
 -1      2929 9.12835E-03-6.53328E-05-2.16395E-14
 -1      2930 9.26042E-03-1.09638E-04-2.18773E-14
 -1      2931 9.40399E-03-1.52690E-04-2.21323E-14
 -1      2932 9.49527E-03-1.73705E-04-2.22331E-14
 -1      2933 9.53836E-03-1.88467E-04-2.22231E-14
 -1      2934 9.53729E-03-1.94096E-04-2.21878E-14
 -1      2935 1.70514E-03 4.18377E-04-9.16286E-16
 -1      2936 1.56195E-03 4.06364E-04-7.68266E-16
 -1      2937 1.76546E-03 3.87921E-04-1.02197E-15
 -1      2938 2.56460E-03 4.44569E-04-2.10350E-15
 -1      2939 2.42097E-03 4.44310E-04-1.86980E-15
 -1      2940 2.33911E-03 4.07496E-04-1.79023E-15
 -1      2941 2.62635E-03 4.07911E-04-2.25925E-15
 -1      2942 1.04978E-03-3.04954E-04-3.96940E-16
 -1      2943 1.19333E-03-3.28466E-04-5.03612E-16
 -1      2944 1.25458E-03-3.06146E-04-5.77446E-16
 -1      2945 9.97989E-04-2.64834E-04-3.81829E-16
 -1      2946 7.84067E-04 1.18046E-04-2.83709E-16
 -1      2947 7.81325E-04 9.54170E-05-2.88262E-16
 -1      2948 8.98288E-04 9.44998E-05-3.68669E-16
 -1      2949 9.04931E-04 1.44721E-04-3.57624E-16
 -1      2950 1.41868E-03 3.91186E-04-6.33974E-16
 -1      2951 1.27513E-03 3.72586E-04-5.13397E-16
 -1      2952 1.19140E-03 3.28619E-04-4.77496E-16
 -1      2953 1.47851E-03 3.64540E-04-7.22228E-16
 -1      2954 6.85938E-03 8.02761E-04-1.45279E-14
 -1      2955 6.99739E-03 8.43037E-04-1.50182E-14
 -1      2956 7.81060E-04-9.34239E-05-2.94049E-16
 -1      2957 7.83733E-04-1.15948E-04-2.90742E-16
 -1      2958 9.48970E-03-2.07497E-04-2.20203E-14
 -1      2959 9.41359E-03-2.23497E-04-2.18473E-14
 -1      2960 8.98918E-03-3.73170E-04-2.11079E-14
 -1      2961 8.78754E-03-4.68511E-04-2.07298E-14
 -1      2962 1.44756E-02-9.95694E-04-6.19959E-14
 -1      2963 7.93274E-03 5.47000E-04-1.84407E-14
 -1      2964 8.09868E-03 4.41566E-04-1.89016E-14
 -1      2965 6.54978E-03 6.57893E-04-1.35845E-14
 -1      2966 6.70903E-03 7.40759E-04-1.40511E-14
 -1      2967 6.75824E-03 7.78949E-04-1.41324E-14
 -1      2968 6.15439E-03 4.37316E-04-1.26259E-14
 -1      2969 6.34584E-03 5.47087E-04-1.30594E-14
 -1      2970 5.69656E-03 1.97779E-04-1.17857E-14
 -1      2971 5.91121E-03 3.05818E-04-1.21478E-14
 -1      2972 5.32772E-03 3.63007E-05-1.13360E-14
 -1      2973 5.47122E-03 9.43863E-05-1.14848E-14
 -1      2974 5.07058E-03-4.84162E-05-1.11260E-14
 -1      2975 5.18593E-03-1.54916E-05-1.12269E-14
 -1      2976 4.93255E-03-7.92647E-05-1.09056E-14
 -1      2977 4.98812E-03-6.94080E-05-1.10159E-14
 -1      2978 5.00393E-03-5.23161E-05-1.07664E-14
 -1      2979 4.93777E-03-1.00942E-04-1.08231E-14
 -1      2980 4.90627E-03-9.17123E-05-1.07982E-14
 -1      2981 6.53728E-04-1.82584E-04-1.87703E-16
 -1      2982 6.29203E-03-7.15041E-04-1.28904E-14
 -1      2983 6.07562E-03-5.80278E-04-1.24808E-14
 -1      2984 5.51465E-03-2.86568E-04-1.17137E-14
 -1      2985 5.36208E-03-2.26785E-04-1.14971E-14
 -1      2986 5.57357E-03-3.24578E-04-1.15695E-14
 -1      2987 9.30993E-03-2.53117E-04-2.16371E-14
 -1      2988 9.18038E-03-2.95724E-04-2.14331E-14
 -1      2989 9.39579E-03-2.43958E-04-2.22472E-14
 -1      2990 8.27287E-03 3.38530E-04-1.93742E-14
 -1      2991 8.45392E-03 2.35933E-04-1.98529E-14
 -1      2992 8.21382E-03 3.89295E-04-1.94204E-14
 -1      2993 7.20368E-03 8.54236E-04-1.57988E-14
 -1      2994 7.37100E-03 8.22799E-04-1.64595E-14
 -1      2995 7.99478E-03-9.36258E-04-1.86649E-14
 -1      2996 8.04188E-03-9.79268E-04-1.90677E-14
 -1      2997 8.23256E-03-8.99649E-04-1.98751E-14
 -1      2998 8.19345E-03-8.18633E-04-1.93380E-14
 -1      2999 7.87164E-04-1.39372E-04-2.86351E-16
 -1      3000 7.91391E-04-1.63930E-04-2.80673E-16
 -1      3001 9.04458E-04-1.42235E-04-3.67111E-16
 -1      3002 8.93264E-04 9.41544E-07-3.78725E-16
 -1      3003 7.76115E-04-9.23230E-06-2.98589E-16
 -1      3004 7.76571E-04-2.97920E-05-2.98657E-16
 -1      3005 6.42540E-03 6.14338E-04-1.31370E-14
 -1      3006 9.12051E-03-3.39503E-04-2.17068E-14
 -1      3007 8.66008E-04 2.58199E-04-2.71159E-16
 -1      3008 7.46313E-03 8.01398E-04-1.68561E-14
 -1      3009 8.34086E-03-7.63033E-04-1.99696E-14
 -1      3010 6.86907E-03-1.05867E-03-1.44278E-14
 -1      3011 1.41281E-02-3.18393E-04-6.02383E-14
 -1      3012 1.42456E-02-3.07806E-04-6.11565E-14
 -1      3013 1.42335E-02-2.66358E-04-6.11068E-14
 -1      3014 9.02423E-03-7.95954E-06-2.17408E-14
 -1      3015 8.58792E-03 1.87346E-04-2.05386E-14
 -1      3016 1.41964E-02-2.02330E-04-6.08863E-14
 -1      3017 5.94136E-03-5.18578E-04-1.20921E-14
 -1      3018 1.44630E-02-9.53745E-04-6.19626E-14
 -1      3019 4.88735E-03-8.22294E-05-1.05520E-14
 -1      3020 9.84151E-04 2.66001E-04-3.53247E-16
 -1      3021 9.38437E-03-1.35029E-04-2.25584E-14
 -1      3022 5.21558E-03 1.35497E-05-1.09817E-14
 -1      3023 5.55878E-03 1.57189E-04-1.13816E-14
 -1      3024 9.55534E-03-1.83888E-04-2.28087E-14
 -1      3025 9.54573E-03-2.06044E-04-2.26289E-14
 -1      3026 6.72101E-03-9.79397E-04-1.39660E-14
 -1      3027 6.55662E-03-8.81843E-04-1.34728E-14
 -1      3028 7.09577E-03 8.60245E-04-1.53776E-14
 -1      3029 5.24344E-03-1.89055E-04-1.11563E-14
 -1      3030 5.13751E-03-1.64326E-04-1.08208E-14
 -1      3031 5.30006E-03-2.20353E-04-1.10157E-14
 -1      3032 7.77529E-04-5.05261E-05-2.97830E-16
 -1      3033 7.79003E-04-7.17169E-05-2.96245E-16
 -1      3034 8.97995E-04-9.22471E-05-3.74985E-16
 -1      3035 8.94390E-04-4.50334E-05-3.78522E-16
 -1      3036 8.36846E-03-7.98472E-04-2.02878E-14
 -1      3037 7.70840E-04-1.95410E-04-2.54191E-16
 -1      3038 8.71165E-03-5.34654E-04-2.08535E-14
 -1      3039 7.83388E-03 6.18714E-04-1.82466E-14
 -1      3040 7.95360E-03 5.62456E-04-1.87477E-14
 -1      3041 7.75543E-03 6.80055E-04-1.80509E-14
 -1      3042 6.00266E-03 3.81742E-04-1.21454E-14
 -1      3043 4.95923E-03-1.09991E-04-1.07003E-14
 -1      3044 4.88887E-03-1.00221E-04-1.03231E-14
 -1      3045 4.98836E-03-1.21975E-04-1.05764E-14
 -1      3046 1.43074E-02-9.48626E-04-6.07436E-14
 -1      3047 1.43917E-02-9.16584E-04-6.14551E-14
 -1      3048 1.42618E-02-8.84172E-04-6.04811E-14
 -1      3049 1.42106E-02-9.38733E-04-5.99961E-14
 -1      3050 7.38119E-03 8.39402E-04-1.65518E-14
 -1      3051 7.54816E-03 7.81235E-04-1.72481E-14
 -1      3052 1.04095E-03 2.33221E-04-4.18678E-16
 -1      3053 1.03378E-03 2.02171E-04-4.30171E-16
 -1      3054 1.73233E-03-3.18632E-04-1.08736E-15
 -1      3055 1.87582E-03-3.25808E-04-1.26419E-15
 -1      3056 2.01923E-03-3.31030E-04-1.45504E-15
 -1      3057 2.16258E-03-3.34443E-04-1.65966E-15
 -1      3058 1.93825E-03-2.94353E-04-1.37386E-15
 -1      3059 2.30579E-03-3.36341E-04-1.87835E-15
 -1      3060 2.44889E-03-3.36848E-04-2.11174E-15
 -1      3061 2.22456E-03-3.00860E-04-1.78487E-15
 -1      3062 2.59182E-03-3.36226E-04-2.35948E-15
 -1      3063 2.73460E-03-3.34585E-04-2.62119E-15
 -1      3064 2.51010E-03-3.01916E-04-2.25244E-15
 -1      3065 2.87719E-03-3.32169E-04-2.89646E-15
 -1      3066 3.01963E-03-3.29082E-04-3.18572E-15
 -1      3067 2.79455E-03-2.98920E-04-2.77626E-15
 -1      3068 3.16185E-03-3.25569E-04-3.48942E-15
 -1      3069 3.30392E-03-3.21744E-04-3.80761E-15
 -1      3070 3.07764E-03-2.93174E-04-3.35624E-15
 -1      3071 3.44579E-03-3.17873E-04-4.13917E-15
 -1      3072 3.58755E-03-3.14094E-04-4.48555E-15
 -1      3073 3.35918E-03-2.85976E-04-3.99226E-15
 -1      3074 3.72917E-03-3.10708E-04-4.84659E-15
 -1      3075 3.87081E-03-3.07909E-04-5.22179E-15
 -1      3076 3.63910E-03-2.78724E-04-4.68457E-15
 -1      3077 4.01246E-03-3.06037E-04-5.61176E-15
 -1      3078 4.15443E-03-3.05389E-04-6.01717E-15
 -1      3079 3.91758E-03-2.73027E-04-5.43558E-15
 -1      3080 4.29678E-03-3.06328E-04-6.43741E-15
 -1      3081 4.44000E-03-3.09351E-04-6.87220E-15
 -1      3082 4.19531E-03-2.70817E-04-6.24513E-15
 -1      3083 4.58433E-03-3.14811E-04-7.32026E-15
 -1      3084 4.73052E-03-3.23576E-04-7.78323E-15
 -1      3085 4.47392E-03-2.74526E-04-7.11413E-15
 -1      3086 4.87912E-03-3.35922E-04-8.26123E-15
 -1      3087 5.03120E-03-3.53469E-04-8.75252E-15
 -1      3088 4.75669E-03-2.87451E-04-8.03987E-15
 -1      3089 5.18779E-03-3.76317E-04-9.25875E-15
 -1      3090 5.35008E-03-4.07460E-04-9.78048E-15
 -1      3091 5.04964E-03-3.14727E-04-9.02287E-15
 -1      3092 5.51980E-03-4.46957E-04-1.03169E-14
 -1      3093 5.69716E-03-4.99176E-04-1.08692E-14
 -1      3094 5.36281E-03-3.65879E-04-1.00640E-14
 -1      3095 5.90078E-03-5.78557E-04-1.14340E-14
 -1      3096 6.09533E-03-6.59685E-04-1.20187E-14
 -1      3097 9.04197E-03-5.52070E-04-2.31266E-14
 -1      3098 9.21051E-03-5.24532E-04-2.40101E-14
 -1      3099 9.37238E-03-5.07108E-04-2.49085E-14
 -1      3100 9.52841E-03-4.96064E-04-2.58183E-14
 -1      3101 9.34562E-03-4.61138E-04-2.44520E-14
 -1      3102 9.68002E-03-4.91463E-04-2.67403E-14
 -1      3103 9.82834E-03-4.91111E-04-2.76769E-14
 -1      3104 9.64602E-03-4.48633E-04-2.62696E-14
 -1      3105 9.97415E-03-4.94803E-04-2.86258E-14
 -1      3106 1.01183E-02-5.01408E-04-2.95855E-14
 -1      3107 9.93202E-03-4.53937E-04-2.81407E-14
 -1      3108 1.02612E-02-5.10619E-04-3.05558E-14
 -1      3109 1.04035E-02-5.21810E-04-3.15406E-14
 -1      3110 1.02114E-02-4.70450E-04-3.00592E-14
 -1      3111 1.05452E-02-5.34644E-04-3.25360E-14
 -1      3112 1.06867E-02-5.48763E-04-3.35393E-14
 -1      3113 1.04886E-02-4.94362E-04-3.20248E-14
 -1      3114 1.08280E-02-5.63856E-04-3.45510E-14
 -1      3115 1.09695E-02-5.79713E-04-3.55712E-14
 -1      3116 1.07657E-02-5.23060E-04-3.40285E-14
 -1      3117 1.11109E-02-5.96078E-04-3.65971E-14
 -1      3118 1.12525E-02-6.12823E-04-3.76298E-14
 -1      3119 1.10439E-02-5.54644E-04-3.60676E-14
 -1      3120 1.13942E-02-6.29755E-04-3.86690E-14
 -1      3121 1.15360E-02-6.46798E-04-3.97114E-14
 -1      3122 1.13233E-02-5.87717E-04-3.81312E-14
 -1      3123 1.16780E-02-6.63815E-04-4.07598E-14
 -1      3124 1.18201E-02-6.80766E-04-4.18121E-14
 -1      3125 1.16041E-02-6.21275E-04-4.02169E-14
 -1      3126 1.19623E-02-6.97561E-04-4.28698E-14
 -1      3127 1.21047E-02-7.14180E-04-4.39311E-14
 -1      3128 1.18860E-02-6.54639E-04-4.23221E-14
 -1      3129 1.22471E-02-7.30574E-04-4.49968E-14
 -1      3130 1.23896E-02-7.46735E-04-4.60666E-14
 -1      3131 1.21690E-02-6.87383E-04-4.44445E-14
 -1      3132 1.25321E-02-7.62641E-04-4.71422E-14
 -1      3133 1.26747E-02-7.78295E-04-4.82219E-14
 -1      3134 1.24527E-02-7.19274E-04-4.65847E-14
 -1      3135 1.28174E-02-7.93691E-04-4.93047E-14
 -1      3136 1.29601E-02-8.08838E-04-5.03911E-14
 -1      3137 1.27370E-02-7.50217E-04-4.87416E-14
 -1      3138 1.31029E-02-8.23743E-04-5.14819E-14
 -1      3139 1.32456E-02-8.38417E-04-5.25735E-14
 -1      3140 1.30217E-02-7.80213E-04-5.09127E-14
 -1      3141 1.33884E-02-8.52874E-04-5.36701E-14
 -1      3142 1.35312E-02-8.67127E-04-5.47711E-14
 -1      3143 1.33068E-02-8.09323E-04-5.30958E-14
 -1      3144 1.36741E-02-8.81194E-04-5.58667E-14
 -1      3145 1.38169E-02-8.95086E-04-5.69653E-14
 -1      3146 1.35921E-02-8.37641E-04-5.52878E-14
 -1      3147 1.39423E-02-9.10206E-04-5.79271E-14
 -1      3148 1.40852E-02-9.23821E-04-5.90292E-14
 -1      3149 1.41108E-02-8.96599E-04-5.92722E-14
 -1      3150 1.38601E-02-8.66653E-04-5.73441E-14
 -1      3151 2.11376E-03 3.67964E-04-1.50242E-15
 -1      3152 1.97025E-03 3.63469E-04-1.30915E-15
 -1      3153 3.26278E-03 3.60769E-04-3.55837E-15
 -1      3154 3.11876E-03 3.64034E-04-3.25150E-15
 -1      3155 2.97496E-03 3.66992E-04-2.95933E-15
 -1      3156 2.83128E-03 3.69495E-04-2.68146E-15
 -1      3157 3.03475E-03 3.29869E-04-3.13474E-15
 -1      3158 3.84219E-03 3.49395E-04-4.92900E-15
 -1      3159 3.69662E-03 3.51499E-04-4.56460E-15
 -1      3160 4.13561E-03 3.48474E-04-5.70149E-15
 -1      3161 3.98845E-03 3.48266E-04-5.30808E-15
 -1      3162 3.89543E-03 3.11447E-04-5.15088E-15
 -1      3163 4.43357E-03 3.54430E-04-6.53271E-15
 -1      3164 4.28390E-03 3.50354E-04-6.10967E-15
 -1      3165 4.18594E-03 3.10244E-04-5.93780E-15
 -1      3166 4.73843E-03 3.70953E-04-7.42356E-15
 -1      3167 4.58500E-03 3.61042E-04-6.97084E-15
 -1      3168 4.48113E-03 3.15718E-04-6.78456E-15
 -1      3169 5.05319E-03 4.02645E-04-8.37258E-15
 -1      3170 4.89446E-03 3.84474E-04-7.89074E-15
 -1      3171 4.78404E-03 3.31593E-04-7.68979E-15
 -1      3172 5.38075E-03 4.54782E-04-9.37801E-15
 -1      3173 5.21540E-03 4.25699E-04-8.86808E-15
 -1      3174 5.09863E-03 3.62921E-04-8.65241E-15
 -1      3175 5.72245E-03 5.31967E-04-1.04442E-14
 -1      3176 5.55017E-03 4.89861E-04-9.90401E-15
 -1      3177 5.42896E-03 4.15984E-04-9.67306E-15
 -1      3178 6.07521E-03 6.35373E-04-1.15702E-14
 -1      3179 5.89841E-03 5.80851E-04-1.09984E-14
 -1      3180 5.77711E-03 4.97409E-04-1.07519E-14
 -1      3181 6.42952E-03 7.53972E-04-1.27625E-14
 -1      3182 6.25341E-03 6.94502E-04-1.21579E-14
 -1      3183 6.13943E-03 6.10386E-04-1.18922E-14
 -1      3184 7.09911E-03 9.02146E-04-1.53615E-14
 -1      3185 6.93637E-03 8.90274E-04-1.46833E-14
 -1      3186 7.47872E-03 8.46008E-04-1.70207E-14
 -1      3187 7.31441E-03 8.83006E-04-1.63008E-14
 -1      3188 7.84143E-03 6.95024E-04-1.85804E-14
 -1      3189 7.66562E-03 7.66036E-04-1.78188E-14
 -1      3190 8.46398E-03 4.69227E-04-2.14418E-14
 -1      3191 8.28752E-03 5.35260E-04-2.06191E-14
 -1      3192 8.81084E-03 3.55893E-04-2.31329E-14
 -1      3193 8.63942E-03 4.09104E-04-2.22796E-14
 -1      3194 8.59634E-03 3.80234E-04-2.19024E-14
 -1      3195 9.14371E-03 2.69207E-04-2.48838E-14
 -1      3196 8.97930E-03 3.09604E-04-2.40020E-14
 -1      3197 8.94208E-03 2.77191E-04-2.36115E-14
 -1      3198 9.46297E-03 2.04733E-04-2.66909E-14
 -1      3199 9.30503E-03 2.34643E-04-2.57783E-14
 -1      3200 9.26985E-03 2.01653E-04-2.53783E-14
 -1      3201 9.77121E-03 1.57245E-04-2.85528E-14
 -1      3202 9.61833E-03 1.79262E-04-2.76157E-14
 -1      3203 9.58246E-03 1.46764E-04-2.72006E-14
 -1      3204 1.00715E-02 1.21950E-04-3.04630E-14
 -1      3205 9.92218E-03 1.38379E-04-2.95018E-14
 -1      3206 9.88391E-03 1.06550E-04-2.90747E-14
 -1      3207 1.03665E-02 9.49701E-05-3.24216E-14
 -1      3208 1.02195E-02 1.07641E-04-3.14370E-14
 -1      3209 1.01780E-02 7.62577E-05-3.09992E-14
 -1      3210 1.06580E-02 7.33425E-05-3.44264E-14
 -1      3211 1.05126E-02 8.36441E-05-3.34175E-14
 -1      3212 1.04677E-02 5.24560E-05-3.29702E-14
 -1      3213 1.09475E-02 5.48638E-05-3.64686E-14
 -1      3214 1.08029E-02 6.38186E-05-3.54437E-14
 -1      3215 1.07548E-02 3.26570E-05-3.49844E-14
 -1      3216 1.12356E-02 3.79495E-05-3.85470E-14
 -1      3217 1.10916E-02 4.62848E-05-3.75038E-14
 -1      3218 1.10407E-02 1.50686E-05-3.70370E-14
 -1      3219 1.15229E-02 2.15070E-05-4.06526E-14
 -1      3220 1.13793E-02 2.97171E-05-3.95969E-14
 -1      3221 1.13259E-02-1.57269E-06-3.91218E-14
 -1      3222 1.18097E-02 4.82351E-06-4.27823E-14
 -1      3223 1.16664E-02 1.32244E-05-4.17139E-14
 -1      3224 1.16110E-02-1.81236E-05-4.12308E-14
 -1      3225 1.20963E-02-1.25290E-05-4.49330E-14
 -1      3226 1.19530E-02-3.75338E-06-4.38546E-14
 -1      3227 1.18961E-02-3.51307E-05-4.33625E-14
 -1      3228 1.23825E-02-3.07728E-05-4.71037E-14
 -1      3229 1.22394E-02-2.15329E-05-4.60164E-14
 -1      3230 1.21813E-02-5.29098E-05-4.55169E-14
 -1      3231 1.26687E-02-4.99877E-05-4.92837E-14
 -1      3232 1.25256E-02-4.02583E-05-4.81941E-14
 -1      3233 1.24666E-02-7.16102E-05-4.76881E-14
 -1      3234 1.29547E-02-7.01598E-05-5.14695E-14
 -1      3235 1.28117E-02-5.99573E-05-5.03756E-14
 -1      3236 1.27521E-02-9.12672E-05-4.98689E-14
 -1      3237 1.32407E-02-9.12173E-05-5.36515E-14
 -1      3238 1.30977E-02-8.05832E-05-5.25612E-14
 -1      3239 1.30376E-02-1.11841E-04-5.20537E-14
 -1      3240 1.35266E-02-1.13056E-04-5.58288E-14
 -1      3241 1.33836E-02-1.02046E-04-5.47402E-14
 -1      3242 1.33232E-02-1.33249E-04-5.42364E-14
 -1      3243 1.41087E-02-6.58893E-04-5.96299E-14
 -1      3244 1.40967E-02-6.18201E-04-5.95992E-14
 -1      3245 8.50191E-03-7.03466E-04-2.06569E-14
 -1      3246 1.41577E-02-8.24580E-04-5.97527E-14
 -1      3247 1.41454E-02-7.82978E-04-5.97209E-14
 -1      3248 1.40844E-02-5.76830E-04-5.95653E-14
 -1      3249 1.40721E-02-5.35464E-04-5.95309E-14
 -1      3250 1.39671E-02-5.86214E-04-5.86321E-14
 -1      3251 8.48462E-03 2.66626E-04-2.05271E-14
 -1      3252 8.67999E-03 1.73803E-04-2.11741E-14
 -1      3253 5.61424E-03-3.60264E-04-1.14051E-14
 -1      3254 5.47165E-03-2.94512E-04-1.11935E-14
 -1      3255 1.14644E-03 2.98494E-04-4.62141E-16
 -1      3256 1.08337E-03 2.60724E-04-4.35863E-16
 -1      3257 1.20214E-03 2.60720E-04-5.38279E-16
 -1      3258 1.28979E-03 3.18283E-04-5.75874E-16
 -1      3259 1.82674E-03 3.56995E-04-1.12981E-15
 -1      3260 1.68317E-03 3.48372E-04-9.64655E-16
 -1      3261 1.88867E-03 3.25698E-04-1.24006E-15
 -1      3262 9.59943E-03-2.08236E-04-2.32489E-14
 -1      3263 9.55207E-03-2.20353E-04-2.30777E-14
 -1      3264 6.96140E-03 8.56573E-04-1.48295E-14
 -1      3265 7.15251E-03 8.71695E-04-1.56032E-14
 -1      3266 5.10105E-03-2.47270E-06-1.05688E-14
 -1      3267 5.21911E-03 4.22006E-05-1.06728E-14
 -1      3268 1.41332E-02-7.41620E-04-5.96926E-14
 -1      3269 1.41209E-02-7.00145E-04-5.96603E-14
 -1      3270 1.39915E-02-6.68589E-04-5.86935E-14
 -1      3271 1.40158E-02-7.50979E-04-5.87536E-14
 -1      3272 3.55161E-03 3.54270E-04-4.21489E-15
 -1      3273 3.40702E-03 3.57452E-04-3.87945E-15
 -1      3274 3.32090E-03 3.23244E-04-3.74935E-15
 -1      3275 3.60753E-03 3.16512E-04-4.42108E-15
 -1      3276 6.03918E-03-5.98641E-04-1.20663E-14
 -1      3277 5.84319E-03-4.79840E-04-1.17623E-14
 -1      3278 8.68820E-03-6.40351E-04-2.14509E-14
 -1      3279 8.87311E-03-5.88520E-04-2.23058E-14
 -1      3280 9.02712E-03-5.03517E-04-2.27359E-14
 -1      3281 8.67968E-03-5.92929E-04-2.11195E-14
 -1      3282 1.44547E-03-2.97270E-04-7.75286E-16
 -1      3283 1.58888E-03-3.09179E-04-9.24486E-16
 -1      3284 1.65164E-03-2.80848E-04-1.01861E-15
 -1      3285 6.29059E-03 5.96111E-04-1.25596E-14
 -1      3286 6.46737E-03 6.88207E-04-1.30723E-14
 -1      3287 8.95951E-03 4.62415E-05-2.20172E-14
 -1      3288 9.17264E-03-4.05433E-05-2.25797E-14
 -1      3289 9.25819E-03-3.15285E-04-2.24543E-14
 -1      3290 9.09540E-03-3.82178E-04-2.21225E-14
 -1      3291 9.36515E-03-1.13247E-04-2.29947E-14
 -1      3292 9.48781E-03-1.50815E-04-2.32579E-14
 -1      3293 1.40787E-02-2.13134E-04-5.99711E-14
 -1      3294 4.83526E-03-7.97656E-05-1.01146E-14
 -1      3295 4.86643E-03-6.82818E-05-1.02198E-14
 -1      3296 6.69571E-03 7.66221E-04-1.38748E-14
 -1      3297 6.83136E-03 8.20563E-04-1.43473E-14
 -1      3298 6.89637E-03 8.52093E-04-1.45618E-14
 -1      3299 9.59457E-03-1.81742E-04-2.35720E-14
 -1      3300 9.62575E-03-1.95434E-04-2.35637E-14
 -1      3301 5.40388E-03 1.21878E-04-1.08823E-14
 -1      3302 5.60037E-03 2.13545E-04-1.11719E-14
 -1      3303 4.93511E-03-5.02138E-05-1.03577E-14
 -1      3304 5.01072E-03-3.13190E-05-1.04639E-14
 -1      3305 5.00812E-03-4.82579E-06-1.01631E-14
 -1      3306 8.88792E-03-4.81297E-04-2.16506E-14
 -1      3307 5.85368E-03 3.42995E-04-1.16180E-14
 -1      3308 6.06893E-03 4.57356E-04-1.20825E-14
 -1      3309 9.47077E-03-2.41007E-04-2.28228E-14
 -1      3310 9.37890E-03-2.66627E-04-2.26083E-14
 -1      3311 8.88608E-04-2.03667E-04-3.31712E-16
 -1      3312 1.01398E-03 6.44134E-05-4.63564E-16
 -1      3313 1.01252E-03 3.88772E-05-4.66600E-16
 -1      3314 8.13745E-03 4.57760E-04-1.93856E-14
 -1      3315 8.29177E-03 3.65946E-04-1.98657E-14
 -1      3316 8.40649E-03 3.38799E-04-2.04877E-14
 -1      3317 8.04351E-03 5.34783E-04-1.91811E-14
 -1      3318 1.01178E-03 1.36013E-05-4.68484E-16
 -1      3319 1.01174E-03-1.15609E-05-4.69419E-16
 -1      3320 1.13154E-03 2.82984E-05-5.67715E-16
 -1      3321 1.15258E-03 2.01393E-04-5.30188E-16
 -1      3322 1.02784E-03 1.72630E-04-4.39685E-16
 -1      3323 1.02306E-03 1.44289E-04-4.47843E-16
 -1      3324 6.20121E-03-7.03858E-04-1.23560E-14
 -1      3325 4.85103E-03-5.13281E-05-9.92518E-15
 -1      3326 5.72823E-03-4.73592E-04-1.11629E-14
 -1      3327 9.55249E-03-2.38302E-04-2.34445E-14
 -1      3328 1.40106E-02-3.28777E-04-5.93205E-14
 -1      3329 1.39984E-02-2.87525E-04-5.92710E-14
 -1      3330 9.31097E-03-7.09420E-05-2.32775E-14
 -1      3331 1.18876E-03-2.66399E-04-5.43158E-16
 -1      3332 1.31700E-03-2.82961E-04-6.53882E-16
 -1      3333 1.38016E-03-2.58785E-04-7.32826E-16
 -1      3334 1.02256E-03-1.41638E-04-4.58618E-16
 -1      3335 1.02722E-03-1.69853E-04-4.52478E-16
 -1      3336 1.01494E-03-2.24686E-04-4.18014E-16
 -1      3337 5.63608E-03-3.97443E-04-1.11911E-14
 -1      3338 2.74862E-03 3.34863E-04-2.57640E-15
 -1      3339 2.68771E-03 3.71298E-04-2.41693E-15
 -1      3340 2.54418E-03 3.72267E-04-2.16709E-15
 -1      3341 6.81540E-03 8.59004E-04-1.42057E-14
 -1      3342 7.24204E-03 8.74216E-04-1.59753E-14
 -1      3343 6.64548E-03 8.13499E-04-1.35615E-14
 -1      3344 6.54531E-03 7.45732E-04-1.32729E-14
 -1      3345 8.10923E-03 6.05927E-04-1.98147E-14
 -1      3346 7.93274E-03 6.78040E-04-1.90278E-14
 -1      3347 8.77347E-03 1.88745E-04-2.19832E-14
 -1      3348 8.85976E-03 1.15982E-04-2.20008E-14
 -1      3349 9.02982E-03 7.33061E-05-2.28403E-14
 -1      3350 1.36401E-02-1.29696E-04-5.66844E-14
 -1      3351 1.35795E-02-1.60826E-04-5.61820E-14
 -1      3352 1.37537E-02-1.46440E-04-5.75398E-14
 -1      3353 1.40353E-02-4.11792E-04-5.94127E-14
 -1      3354 1.40230E-02-3.70314E-04-5.93665E-14
 -1      3355 1.38934E-02-3.39472E-04-5.84000E-14
 -1      3356 2.40071E-03 3.72148E-04-1.93186E-15
 -1      3357 2.25723E-03 3.70808E-04-1.70977E-15
 -1      3358 2.46227E-03 3.36810E-04-2.07443E-15
 -1      3359 9.35826E-03-3.04290E-04-2.30324E-14
 -1      3360 1.40599E-02-4.94355E-04-5.94917E-14
 -1      3361 1.40476E-02-4.52959E-04-5.94528E-14
 -1      3362 1.39181E-02-4.21959E-04-5.84865E-14
 -1      3363 1.39426E-02-5.03990E-04-5.85622E-14
 -1      3364 5.34109E-03-2.53604E-04-1.08570E-14
 -1      3365 1.01918E-03 1.16883E-04-4.54525E-16
 -1      3366 1.01620E-03 9.03677E-05-4.59580E-16
 -1      3367 1.13490E-03 8.34215E-05-5.60912E-16
 -1      3368 1.14175E-03 1.40655E-04-5.48715E-16
 -1      3369 9.05351E-03-4.40251E-04-2.23987E-14
 -1      3370 9.66449E-03-2.07512E-04-2.40189E-14
 -1      3371 5.26333E-03 9.35444E-05-1.04709E-14
 -1      3372 6.13023E-03 5.51778E-04-1.20149E-14
 -1      3373 9.59891E-03-1.68264E-04-2.40174E-14
 -1      3374 1.39818E-02-2.41870E-04-5.91915E-14
 -1      3375 1.39445E-02-1.78006E-04-5.89747E-14
 -1      3376 1.38310E-02-1.61101E-04-5.81172E-14
 -1      3377 1.38643E-02-2.52466E-04-5.82725E-14
 -1      3378 6.40420E-03-8.07574E-04-1.29692E-14
 -1      3379 2.17561E-03 3.34276E-04-1.62981E-15
 -1      3380 1.01879E-03-1.14405E-04-4.63063E-16
 -1      3381 1.14124E-03-1.37907E-04-5.60207E-16
 -1      3382 1.01590E-03-8.79754E-05-4.66261E-16
 -1      3383 8.23488E-03 5.15211E-04-2.02548E-14
 -1      3384 4.82511E-03-8.68042E-05-9.99564E-15
 -1      3385 4.77576E-03-7.41104E-05-9.67247E-15
 -1      3386 4.82450E-03-9.43935E-05-9.87678E-15
 -1      3387 1.55822E-03 3.42645E-04-8.28547E-16
 -1      3388 1.41465E-03 3.29037E-04-6.89065E-16
 -1      3389 1.37023E-03 2.99874E-04-6.68600E-16
 -1      3390 1.62011E-03 3.14432E-04-9.22941E-16
 -1      3391 5.02311E-03-1.39804E-04-1.04413E-14
 -1      3392 4.92392E-03-1.24379E-04-1.00690E-14
 -1      3393 5.05960E-03-1.62544E-04-1.03057E-14
 -1      3394 5.67869E-03 2.91244E-04-1.11085E-14
 -1      3395 1.41214E-02-8.74171E-04-5.93903E-14
 -1      3396 1.41471E-02-8.46980E-04-5.96335E-14
 -1      3397 1.40174E-02-8.14602E-04-5.86634E-14
 -1      3398 1.39961E-02-8.59297E-04-5.84254E-14
 -1      3399 2.14414E-03-2.65685E-04-1.69187E-15
 -1      3400 2.28686E-03-2.67327E-04-1.91181E-15
 -1      3401 2.42926E-03-2.67836E-04-2.14611E-15
 -1      3402 2.57134E-03-2.67299E-04-2.39477E-15
 -1      3403 2.34942E-03-2.33940E-04-2.04078E-15
 -1      3404 2.71299E-03-2.65939E-04-2.65650E-15
 -1      3405 2.85420E-03-2.63830E-04-2.93241E-15
 -1      3406 2.63261E-03-2.33103E-04-2.53770E-15
 -1      3407 2.99487E-03-2.61194E-04-3.22291E-15
 -1      3408 3.13501E-03-2.58095E-04-3.52713E-15
 -1      3409 2.91361E-03-2.29425E-04-3.09033E-15
 -1      3410 3.27452E-03-2.54766E-04-3.84529E-15
 -1      3411 3.41343E-03-2.51270E-04-4.17738E-15
 -1      3412 3.19187E-03-2.23949E-04-3.69922E-15
 -1      3413 3.55164E-03-2.47858E-04-4.52318E-15
 -1      3414 3.68923E-03-2.44606E-04-4.88387E-15
 -1      3415 3.46686E-03-2.17716E-04-4.36343E-15
 -1      3416 3.82610E-03-2.41788E-04-5.25998E-15
 -1      3417 3.96243E-03-2.39507E-04-5.64972E-15
 -1      3418 3.73818E-03-2.11811E-04-5.08447E-15
 -1      3419 4.09813E-03-2.38053E-04-6.05410E-15
 -1      3420 4.23355E-03-2.37596E-04-6.47399E-15
 -1      3421 4.00560E-03-2.07399E-04-5.86459E-15
 -1      3422 4.36862E-03-2.38406E-04-6.90794E-15
 -1      3423 4.50403E-03-2.40843E-04-7.35661E-15
 -1      3424 4.26933E-03-2.05724E-04-6.70328E-15
 -1      3425 4.63980E-03-2.45112E-04-7.81959E-15
 -1      3426 4.77713E-03-2.52002E-04-8.29636E-15
 -1      3427 4.53041E-03-2.08208E-04-7.60035E-15
 -1      3428 4.91627E-03-2.61559E-04-8.78745E-15
 -1      3429 5.05918E-03-2.75742E-04-9.29309E-15
 -1      3430 4.79162E-03-2.16781E-04-8.55331E-15
 -1      3431 9.62869E-03-2.40432E-04-2.40960E-14
 -1      3432 9.55256E-03-2.60872E-04-2.38371E-14
 -1      3433 9.29409E-03-3.21829E-05-2.37110E-14
 -1      3434 9.46311E-03-9.92199E-05-2.41362E-14
 -1      3435 1.07923E-03-2.06819E-04-4.79583E-16
 -1      3436 9.61915E-03-4.06228E-04-2.58016E-14
 -1      3437 9.75821E-03-4.08497E-04-2.67223E-14
 -1      3438 9.89462E-03-4.14099E-04-2.76562E-14
 -1      3439 1.00302E-02-4.21843E-04-2.86047E-14
 -1      3440 9.86201E-03-3.75099E-04-2.71757E-14
 -1      3441 1.01650E-02-4.31634E-04-2.95622E-14
 -1      3442 1.02998E-02-4.42947E-04-3.05318E-14
 -1      3443 1.01216E-02-3.94122E-04-2.90667E-14
 -1      3444 1.04345E-02-4.55560E-04-3.15148E-14
 -1      3445 1.05698E-02-4.69234E-04-3.25083E-14
 -1      3446 1.03827E-02-4.18226E-04-3.10066E-14
 -1      3447 1.07054E-02-4.83720E-04-3.35121E-14
 -1      3448 1.08416E-02-4.98904E-04-3.45224E-14
 -1      3449 1.06468E-02-4.45852E-04-3.29927E-14
 -1      3450 1.09784E-02-5.14553E-04-3.55386E-14
 -1      3451 1.11158E-02-5.30605E-04-3.65638E-14
 -1      3452 1.09144E-02-4.75837E-04-3.50128E-14
 -1      3453 1.12538E-02-5.46862E-04-3.75952E-14
 -1      3454 1.13923E-02-5.63292E-04-3.86324E-14
 -1      3455 1.11854E-02-5.07233E-04-3.70595E-14
 -1      3456 1.15313E-02-5.79743E-04-3.96750E-14
 -1      3457 1.16708E-02-5.96200E-04-4.07222E-14
 -1      3458 1.14595E-02-5.39267E-04-3.91327E-14
 -1      3459 1.18107E-02-6.12553E-04-4.17748E-14
 -1      3460 1.19510E-02-6.28800E-04-4.28325E-14
 -1      3461 1.17362E-02-5.71353E-04-4.12273E-14
 -1      3462 1.20917E-02-6.44869E-04-4.38927E-14
 -1      3463 1.22326E-02-6.60764E-04-4.49580E-14
 -1      3464 1.20150E-02-6.03081E-04-4.33408E-14
 -1      3465 1.23739E-02-6.76443E-04-4.60273E-14
 -1      3466 1.25154E-02-6.91916E-04-4.71030E-14
 -1      3467 1.22956E-02-6.34196E-04-4.54715E-14
 -1      3468 1.26570E-02-7.07161E-04-4.81801E-14
 -1      3469 1.27989E-02-7.22193E-04-4.92597E-14
 -1      3470 1.25775E-02-6.64567E-04-4.76192E-14
 -1      3471 1.29409E-02-7.37004E-04-5.03454E-14
 -1      3472 1.30831E-02-7.51610E-04-5.14338E-14
 -1      3473 1.28605E-02-6.94153E-04-4.97797E-14
 -1      3474 1.32254E-02-7.66013E-04-5.25249E-14
 -1      3475 1.33678E-02-7.80230E-04-5.36187E-14
 -1      3476 1.31443E-02-7.22977E-04-5.19549E-14
 -1      3477 1.35103E-02-7.94267E-04-5.47129E-14
 -1      3478 1.36528E-02-8.08143E-04-5.58090E-14
 -1      3479 1.34287E-02-7.51101E-04-5.41391E-14
 -1      3480 4.77061E-03-4.87833E-05-9.49047E-15
 -1      3481 4.83596E-03-2.96890E-05-9.62302E-15
 -1      3482 4.23367E-03 2.72166E-04-6.17579E-15
 -1      3483 4.08973E-03 2.72431E-04-5.76740E-15
 -1      3484 3.94664E-03 2.73937E-04-5.37356E-15
 -1      3485 3.80408E-03 2.76305E-04-4.99411E-15
 -1      3486 3.99584E-03 2.36843E-04-5.59751E-15
 -1      3487 4.82557E-03 2.91112E-04-7.95803E-15
 -1      3488 4.67416E-03 2.82220E-04-7.49040E-15
 -1      3489 5.13921E-03 3.21161E-04-8.93266E-15
 -1      3490 4.98041E-03 3.03548E-04-8.43832E-15
 -1      3491 4.86275E-03 2.49153E-04-8.22522E-15
 -1      3492 5.47208E-03 3.74466E-04-9.96791E-15
 -1      3493 5.30311E-03 3.43975E-04-9.44304E-15
 -1      3494 5.17463E-03 2.77035E-04-9.21568E-15
 -1      3495 5.94245E-03 4.87209E-04-1.14354E-14
 -1      3496 7.96213E-03 6.09262E-04-1.90000E-14
 -1      3497 7.66195E-03 7.40756E-04-1.77314E-14
 -1      3498 8.85052E-03 2.33791E-04-2.27871E-14
 -1      3499 8.67514E-03 2.86561E-04-2.19377E-14
 -1      3500 9.70111E-03 9.23488E-05-2.77120E-14
 -1      3501 9.55069E-03 1.13311E-04-2.67861E-14
 -1      3502 9.99489E-03 5.88642E-05-2.95997E-14
 -1      3503 9.84897E-03 7.45247E-05-2.86492E-14
 -1      3504 9.81753E-03 4.20655E-05-2.82246E-14
 -1      3505 1.02826E-02 3.29218E-05-3.15366E-14
 -1      3506 1.01393E-02 4.51855E-05-3.05631E-14
 -1      3507 1.01033E-02 1.43005E-05-3.01265E-14
 -1      3508 1.05670E-02 1.17085E-05-3.35184E-14
 -1      3509 1.04251E-02 2.18745E-05-3.25217E-14
 -1      3510 1.03847E-02-8.15381E-06-3.20736E-14
 -1      3511 1.08500E-02-6.73938E-06-3.55428E-14
 -1      3512 1.07086E-02 2.23681E-06-3.45253E-14
 -1      3513 1.06642E-02-2.74515E-05-3.40674E-14
 -1      3514 1.11326E-02-2.38053E-05-3.76023E-14
 -1      3515 1.09913E-02-1.53816E-05-3.65696E-14
 -1      3516 1.09434E-02-4.50472E-05-3.61015E-14
 -1      3517 1.14153E-02-4.04490E-05-3.96947E-14
 -1      3518 1.12739E-02-3.21397E-05-3.86444E-14
 -1      3519 1.12230E-02-6.19488E-05-3.81697E-14
 -1      3520 1.16984E-02-5.73108E-05-4.18072E-14
 -1      3521 1.15568E-02-4.88287E-05-4.07486E-14
 -1      3522 1.15035E-02-7.88471E-05-4.02665E-14
 -1      3523 1.19820E-02-7.47885E-05-4.39436E-14
 -1      3524 1.18401E-02-6.59602E-05-4.28733E-14
 -1      3525 1.17849E-02-9.61949E-05-4.23835E-14
 -1      3526 1.22660E-02-9.30991E-05-4.61004E-14
 -1      3527 1.21239E-02-8.38351E-05-4.50204E-14
 -1      3528 1.20672E-02-1.14263E-04-4.45243E-14
 -1      3529 1.25505E-02-1.12330E-04-4.82730E-14
 -1      3530 1.24082E-02-1.02600E-04-4.71844E-14
 -1      3531 1.23503E-02-1.33185E-04-4.66830E-14
 -1      3532 1.28353E-02-1.32480E-04-5.04524E-14
 -1      3533 1.26928E-02-1.22294E-04-4.93608E-14
 -1      3534 1.26340E-02-1.52999E-04-4.88548E-14
 -1      3535 1.31204E-02-1.53490E-04-5.26368E-14
 -1      3536 1.29778E-02-1.42883E-04-5.15440E-14
 -1      3537 1.29183E-02-1.73675E-04-5.10358E-14
 -1      3538 1.34056E-02-1.75270E-04-5.48192E-14
 -1      3539 1.32630E-02-1.64291E-04-5.37270E-14
 -1      3540 1.32030E-02-1.95142E-04-5.32187E-14
 -1      3541 5.36517E-03-2.86349E-04-1.06452E-14
 -1      3542 5.21332E-03-2.20596E-04-1.04755E-14
 -1      3543 5.10746E-03 7.04869E-05-9.97083E-15
 -1      3544 5.26505E-03 1.40731E-04-1.01708E-14
 -1      3545 9.46491E-03-2.95164E-04-2.36804E-14
 -1      3546 9.36319E-03-3.40531E-04-2.35231E-14
 -1      3547 9.56363E-03-2.91770E-04-2.43353E-14
 -1      3548 1.38500E-02-5.95811E-04-5.76938E-14
 -1      3549 1.38378E-02-5.54699E-04-5.76623E-14
 -1      3550 9.39702E-03 1.37578E-04-2.58733E-14
 -1      3551 9.23943E-03 1.66783E-04-2.49773E-14
 -1      3552 9.52331E-03 7.85425E-05-2.63734E-14
 -1      3553 9.13051E-03 1.77532E-04-2.43107E-14
 -1      3554 8.96500E-03 2.16447E-04-2.34355E-14
 -1      3555 9.05720E-03 1.26412E-04-2.34712E-14
 -1      3556 9.26770E-03 1.08239E-04-2.47946E-14
 -1      3557 1.19814E-03-2.04926E-04-5.85266E-16
 -1      3558 8.12946E-03 5.16870E-04-1.96429E-14
 -1      3559 1.01241E-03-3.67602E-05-4.69297E-16
 -1      3560 1.01377E-03-6.21471E-05-4.68199E-16
 -1      3561 1.13461E-03-8.09785E-05-5.67444E-16
 -1      3562 9.20665E-03-4.17334E-04-2.32197E-14
 -1      3563 4.52542E-03 2.76651E-04-7.03747E-15
 -1      3564 4.37874E-03 2.73370E-04-6.59931E-15
 -1      3565 4.27877E-03 2.34141E-04-6.41521E-15
 -1      3566 4.56628E-03 2.37006E-04-7.29182E-15
 -1      3567 9.33470E-03-3.96662E-04-2.38710E-14
 -1      3568 9.47877E-03-3.90420E-04-2.47642E-14
 -1      3569 1.85819E-03-2.58194E-04-1.29334E-15
 -1      3570 2.00125E-03-2.62676E-04-1.48563E-15
 -1      3571 2.06470E-03-2.30846E-04-1.59918E-15
 -1      3572 9.61046E-03-1.48758E-04-2.45908E-14
 -1      3573 9.70729E-03-1.80269E-04-2.49146E-14
 -1      3574 9.73831E-03-2.11740E-04-2.48492E-14
 -1      3575 9.70015E-03-2.26160E-04-2.45299E-14
 -1      3576 2.23781E-03 3.00479E-04-1.75875E-15
 -1      3577 2.09457E-03 2.98050E-04-1.54867E-15
 -1      3578 4.91836E-03-2.51090E-06-9.74831E-15
 -1      3579 4.99723E-03 2.48928E-05-9.84852E-15
 -1      3580 4.99779E-03 6.68965E-05-9.55936E-15
 -1      3581 4.81413E-03-4.61298E-06-9.31776E-15
 -1      3582 5.72750E-03 3.64502E-04-1.09922E-14
 -1      3583 5.75855E-03 4.33599E-04-1.08758E-14
 -1      3584 5.58032E-03 3.88933E-04-1.03284E-14
 -1      3585 5.50228E-03 2.50544E-04-1.05629E-14
 -1      3586 8.31773E-03 4.37041E-04-2.04480E-14
 -1      3587 1.57215E-03-2.43969E-04-9.49924E-16
 -1      3588 1.71514E-03-2.52005E-04-1.11483E-15
 -1      3589 1.77922E-03-2.22657E-04-1.21336E-15
 -1      3590 1.95124E-03 2.94073E-04-1.35275E-15
 -1      3591 1.80785E-03 2.88423E-04-1.17087E-15
 -1      3592 2.01431E-03 2.62188E-04-1.46793E-15
 -1      3593 3.09382E-03 2.93173E-04-3.31157E-15
 -1      3594 2.95158E-03 2.96207E-04-3.01778E-15
 -1      3595 1.27888E-03 2.30350E-04-6.29000E-16
 -1      3596 1.27180E-03 1.97288E-04-6.41292E-16
 -1      3597 4.84264E-03-1.20307E-04-9.61689E-15
 -1      3598 4.83045E-03-1.05821E-04-9.74712E-15
 -1      3599 4.75390E-03-9.16073E-05-9.42933E-15
 -1      3600 1.37086E-02-5.23587E-04-5.66927E-14
 -1      3601 1.38256E-02-5.13858E-04-5.76298E-14
 -1      3602 1.38133E-02-4.73006E-04-5.75939E-14
 -1      3603 9.72143E-03-2.44120E-04-2.49299E-14
 -1      3604 5.22629E-03-2.94602E-04-9.90057E-15
 -1      3605 5.38153E-03-3.23969E-04-1.04378E-14
 -1      3606 9.60673E-03-1.20716E-04-2.50362E-14
 -1      3607 9.60141E-03-3.48232E-04-2.52044E-14
 -1      3608 5.07688E-03-2.34733E-04-9.65021E-15
 -1      3609 5.44228E-03 3.09026E-04-1.00861E-14
 -1      3610 4.73712E-03-5.83529E-05-9.37672E-15
 -1      3611 4.70337E-03-3.99044E-05-9.08389E-15
 -1      3612 4.71207E-03-6.64712E-05-9.26290E-15
 -1      3613 1.37618E-02-8.26264E-04-5.66333E-14
 -1      3614 1.38870E-02-8.41286E-04-5.75938E-14
 -1      3615 1.38977E-02-8.18991E-04-5.77141E-14
 -1      3616 1.36799E-02-7.82982E-04-5.60588E-14
 -1      3617 2.80919E-03 2.98703E-04-2.73729E-15
 -1      3618 2.66660E-03 3.00561E-04-2.47133E-15
 -1      3619 2.86942E-03 2.62924E-04-2.90035E-15
 -1      3620 3.71474E-03 2.42672E-04-4.83745E-15
 -1      3621 3.66189E-03 2.79301E-04-4.62870E-15
 -1      3622 3.51985E-03 2.82692E-04-4.27784E-15
 -1      3623 5.33439E-03 1.89415E-04-1.01869E-14
 -1      3624 5.38546E-03 2.58362E-04-1.00733E-14
 -1      3625 5.28454E-03 2.51319E-04-9.71991E-15
 -1      3626 5.16619E-03 1.58606E-04-9.69294E-15
 -1      3627 9.13303E-03 7.36959E-05-2.35818E-14
 -1      3628 9.21125E-03 1.43155E-05-2.36025E-14
 -1      3629 9.38138E-03-2.39776E-05-2.44664E-14
 -1      3630 9.23400E-03 6.70214E-05-2.42434E-14
 -1      3631 5.08100E-03-1.89556E-04-1.01024E-14
 -1      3632 1.35191E-02-1.91829E-04-5.56804E-14
 -1      3633 1.34589E-02-2.22683E-04-5.51736E-14
 -1      3634 1.36326E-02-2.08505E-04-5.65365E-14
 -1      3635 1.37703E-02-1.92162E-04-5.76162E-14
 -1      3636 1.37762E-02-3.49939E-04-5.74785E-14
 -1      3637 1.37638E-02-3.08603E-04-5.74316E-14
 -1      3638 2.52385E-03 3.01564E-04-2.21966E-15
 -1      3639 2.38090E-03 3.01614E-04-1.98204E-15
 -1      3640 2.58541E-03 2.66518E-04-2.36669E-15
 -1      3641 9.82284E-03-1.86360E-04-2.60216E-14
 -1      3642 9.78434E-03-2.00506E-04-2.54328E-14
 -1      3643 9.84710E-03-2.19739E-04-2.59583E-14
 -1      3644 1.25249E-03 4.47093E-05-6.76529E-16
 -1      3645 1.25152E-03 1.56259E-05-6.78914E-16
 -1      3646 1.34547E-03 2.78383E-04-6.60496E-16
 -1      3647 1.30252E-03 2.50650E-04-6.38446E-16
 -1      3648 1.42184E-03 2.44645E-04-7.61557E-16
 -1      3649 1.47028E-03 2.86645E-04-7.81493E-16
 -1      3650 1.38622E-02-6.36775E-04-5.77252E-14
 -1      3651 1.37329E-02-6.05077E-04-5.67564E-14
 -1      3652 1.38743E-02-6.77785E-04-5.77554E-14
 -1      3653 5.52414E-03-3.67903E-04-1.08193E-14
 -1      3654 1.27231E-03-1.79573E-04-6.66459E-16
 -1      3655 1.32530E-03-2.18174E-04-7.00395E-16
 -1      3656 1.45300E-03-2.29732E-04-8.26243E-16
 -1      3657 2.30028E-03 2.66669E-04-1.88945E-15
 -1      3658 1.25439E-03 7.40065E-05-6.72612E-16
 -1      3659 1.37454E-03 6.24659E-05-7.94232E-16
 -1      3660 1.25721E-03 1.03747E-04-6.67286E-16
 -1      3661 1.26697E-03-1.48122E-04-6.73154E-16
 -1      3662 1.39344E-03-1.57267E-04-7.96645E-16
 -1      3663 1.26275E-03-1.17487E-04-6.78087E-16
 -1      3664 1.13144E-03-2.60677E-05-5.69884E-16
 -1      3665 1.72802E-03 2.51777E-04-1.10122E-15
 -1      3666 1.66452E-03 2.80818E-04-1.00229E-15
 -1      3667 3.37790E-03 2.86249E-04-3.94171E-15
 -1      3668 3.23589E-03 2.89815E-04-3.61943E-15
 -1      3669 3.15219E-03 2.57001E-04-3.49005E-15
 -1      3670 3.43383E-03 2.49854E-04-4.13507E-15
 -1      3671 1.53958E-03 2.76163E-04-8.64082E-16
 -1      3672 1.36095E-02-2.79275E-04-5.62731E-14
 -1      3673 1.37266E-02-2.68566E-04-5.71931E-14
 -1      3674 1.39084E-02-7.96714E-04-5.78334E-14
 -1      3675 1.51766E-03-2.03680E-04-9.10662E-16
 -1      3676 1.37881E-02-7.69316E-04-5.69290E-14
 -1      3677 1.39077E-02-7.64965E-04-5.78799E-14
 -1      3678 1.38956E-02-7.23795E-04-5.78497E-14
 -1      3679 1.36793E-02-7.51392E-04-5.61050E-14
 -1      3680 2.55354E-03-2.00440E-04-2.41995E-15
 -1      3681 2.69411E-03-1.99400E-04-2.68207E-15
 -1      3682 2.83398E-03-1.97837E-04-2.95903E-15
 -1      3683 2.97308E-03-1.95781E-04-3.24990E-15
 -1      3684 2.75593E-03-1.66270E-04-2.82872E-15
 -1      3685 3.11130E-03-1.93436E-04-3.55437E-15
 -1      3686 3.24859E-03-1.90816E-04-3.87280E-15
 -1      3687 3.03274E-03-1.62976E-04-3.41028E-15
 -1      3688 3.38481E-03-1.88142E-04-4.20473E-15
 -1      3689 3.51996E-03-1.85408E-04-4.55045E-15
 -1      3690 3.30538E-03-1.58769E-04-4.04697E-15
 -1      3691 3.65385E-03-1.82859E-04-4.91115E-15
 -1      3692 3.78654E-03-1.80472E-04-5.28660E-15
 -1      3693 3.57300E-03-1.54411E-04-4.73913E-15
 -1      3694 3.91782E-03-1.78513E-04-5.67700E-15
 -1      3695 4.04781E-03-1.76935E-04-6.08128E-15
 -1      3696 3.83468E-03-1.50650E-04-5.48967E-15
 -1      3697 4.17625E-03-1.76016E-04-6.50051E-15
 -1      3698 4.30346E-03-1.75678E-04-6.93448E-15
 -1      3699 4.08947E-03-1.48184E-04-6.29892E-15
 -1      3700 4.42901E-03-1.76201E-04-7.38157E-15
 -1      3701 4.55373E-03-1.77575E-04-7.84413E-15
 -1      3702 4.33634E-03-1.47511E-04-7.16519E-15
 -1      3703 4.67686E-03-1.80140E-04-8.32122E-15
 -1      3704 4.80014E-03-1.83925E-04-8.81168E-15
 -1      3705 4.57436E-03-1.48966E-04-8.08958E-15
 -1      3706 9.61142E-03-8.88432E-05-2.55201E-14
 -1      3707 9.74535E-03-1.37978E-04-2.59868E-14
 -1      3708 9.70423E-03-2.74151E-04-2.51483E-14
 -1      3709 9.63554E-03-3.03297E-04-2.49898E-14
 -1      3710 9.75438E-03-3.25073E-04-2.60307E-14
 -1      3711 9.78620E-03-2.56459E-04-2.55898E-14
 -1      3712 1.70148E-03-1.87973E-04-1.13428E-15
 -1      3713 1.84395E-03-1.92882E-04-1.31435E-15
 -1      3714 1.00807E-02-3.58548E-04-2.85736E-14
 -1      3715 1.02060E-02-3.70255E-04-2.95302E-14
 -1      3716 1.03323E-02-3.82677E-04-3.04985E-14
 -1      3717 1.04602E-02-3.95889E-04-3.14793E-14
 -1      3718 1.02830E-02-3.48938E-04-2.99946E-14
 -1      3719 1.05892E-02-4.09618E-04-3.24722E-14
 -1      3720 1.07196E-02-4.23932E-04-3.34755E-14
 -1      3721 1.05323E-02-3.75042E-04-3.19529E-14
 -1      3722 1.08512E-02-4.38596E-04-3.44847E-14
 -1      3723 1.09840E-02-4.53657E-04-3.54987E-14
 -1      3724 1.07885E-02-4.02846E-04-3.39548E-14
 -1      3725 1.11178E-02-4.68909E-04-3.65235E-14
 -1      3726 1.12526E-02-4.84386E-04-3.75549E-14
 -1      3727 1.10506E-02-4.31909E-04-3.59887E-14
 -1      3728 1.13883E-02-4.99921E-04-3.85896E-14
 -1      3729 1.15249E-02-5.15539E-04-3.96319E-14
 -1      3730 1.13176E-02-4.61728E-04-3.80476E-14
 -1      3731 1.16622E-02-5.31111E-04-4.06791E-14
 -1      3732 1.18003E-02-5.46658E-04-4.17314E-14
 -1      3733 1.15887E-02-4.91854E-04-4.01313E-14
 -1      3734 1.19389E-02-5.62089E-04-4.27878E-14
 -1      3735 1.20781E-02-5.77423E-04-4.38482E-14
 -1      3736 1.18631E-02-5.21924E-04-4.22348E-14
 -1      3737 1.22178E-02-5.92598E-04-4.49141E-14
 -1      3738 1.23579E-02-6.07635E-04-4.59858E-14
 -1      3739 1.21403E-02-5.51682E-04-4.43568E-14
 -1      3740 1.24984E-02-6.22493E-04-4.70587E-14
 -1      3741 1.26393E-02-6.37193E-04-4.81337E-14
 -1      3742 1.24196E-02-5.80971E-04-4.64973E-14
 -1      3743 1.27804E-02-6.51712E-04-4.92156E-14
 -1      3744 1.29218E-02-6.66071E-04-5.02978E-14
 -1      3745 1.27005E-02-6.09711E-04-4.86508E-14
 -1      3746 1.30635E-02-6.80259E-04-5.13830E-14
 -1      3747 1.32053E-02-6.94295E-04-5.24729E-14
 -1      3748 1.29828E-02-6.37886E-04-5.08151E-14
 -1      3749 1.33473E-02-7.08177E-04-5.35653E-14
 -1      3750 1.34895E-02-7.21923E-04-5.46600E-14
 -1      3751 1.32661E-02-6.65519E-04-5.29911E-14
 -1      3752 4.94492E-03-1.81454E-04-9.49183E-15
 -1      3753 5.12433E-03 2.32669E-04-9.20496E-15
 -1      3754 4.89401E-03 2.06170E-04-8.49354E-15
 -1      3755 4.74698E-03 2.00209E-04-8.01334E-15
 -1      3756 1.04840E-02-4.70960E-05-3.26131E-14
 -1      3757 1.03464E-02-3.74532E-05-3.16274E-14
 -1      3758 1.02086E-02-2.72324E-05-3.06528E-14
 -1      3759 1.00702E-02-1.61293E-05-2.96899E-14
 -1      3760 1.03102E-02-6.60474E-05-3.11804E-14
 -1      3761 8.49184E-03 3.50447E-04-2.11177E-14
 -1      3762 1.48804E-03-1.67244E-04-8.94467E-16
 -1      3763 1.60627E-03-1.78909E-04-1.02370E-15
 -1      3764 1.67217E-03-1.51003E-04-1.11448E-15
 -1      3765 1.48293E-03-1.33965E-04-9.00620E-16
 -1      3766 9.93094E-03-4.07540E-06-2.87386E-14
 -1      3767 9.79008E-03 9.59236E-06-2.77997E-14
 -1      3768 1.00400E-02-4.61873E-05-2.92535E-14
 -1      3769 1.07590E-02-6.51471E-05-3.46179E-14
 -1      3770 1.06214E-02-5.62782E-05-3.36102E-14
 -1      3771 1.05802E-02-8.42411E-05-3.31548E-14
 -1      3772 1.10349E-02-8.23724E-05-3.66611E-14
 -1      3773 1.08968E-02-7.38220E-05-3.56354E-14
 -1      3774 1.08514E-02-1.01686E-04-3.51696E-14
 -1      3775 1.13120E-02-9.94490E-05-3.87368E-14
 -1      3776 1.11733E-02-9.09051E-05-3.76947E-14
 -1      3777 1.11244E-02-1.18979E-04-3.72212E-14
 -1      3778 1.15906E-02-1.16837E-04-4.08367E-14
 -1      3779 1.14511E-02-1.08091E-04-3.97832E-14
 -1      3780 1.13995E-02-1.36524E-04-3.93024E-14
 -1      3781 1.18706E-02-1.34832E-04-4.29602E-14
 -1      3782 1.17304E-02-1.25753E-04-4.18964E-14
 -1      3783 1.16765E-02-1.54597E-04-4.14080E-14
 -1      3784 1.21518E-02-1.53598E-04-4.51028E-14
 -1      3785 1.20110E-02-1.44118E-04-4.40293E-14
 -1      3786 1.19554E-02-1.73363E-04-4.35355E-14
 -1      3787 1.24341E-02-1.73204E-04-4.72625E-14
 -1      3788 1.22928E-02-1.63299E-04-4.61808E-14
 -1      3789 1.22358E-02-1.92904E-04-4.56803E-14
 -1      3790 1.27173E-02-1.93646E-04-4.94353E-14
 -1      3791 1.25756E-02-1.83326E-04-4.83490E-14
 -1      3792 1.25175E-02-2.13238E-04-4.78422E-14
 -1      3793 1.30011E-02-2.14876E-04-5.16186E-14
 -1      3794 1.28591E-02-2.04169E-04-5.05249E-14
 -1      3795 1.28002E-02-2.34333E-04-5.00154E-14
 -1      3796 1.32856E-02-2.36814E-04-5.38038E-14
 -1      3797 1.31433E-02-2.25763E-04-5.27096E-14
 -1      3798 1.30838E-02-2.56127E-04-5.21990E-14
 -1      3799 2.36308E-03 2.32911E-04-2.02238E-15
 -1      3800 2.22061E-03 2.32082E-04-1.79690E-15
 -1      3801 1.37886E-02-3.90932E-04-5.75203E-14
 -1      3802 1.36591E-02-3.60069E-04-5.65529E-14
 -1      3803 1.38009E-02-4.31863E-04-5.75577E-14
 -1      3804 1.25721E-03-5.80959E-05-6.83562E-16
 -1      3805 1.25949E-03-8.75403E-05-6.81665E-16
 -1      3806 1.38514E-03-9.35231E-05-8.06213E-16
 -1      3807 1.26585E-03 1.65235E-04-6.51497E-16
 -1      3808 1.26103E-03 1.34100E-04-6.60293E-16
 -1      3809 1.38078E-03 1.25087E-04-7.82211E-16
 -1      3810 1.35041E-02-2.66269E-04-5.54689E-14
 -1      3811 1.33909E-02-2.49619E-04-5.46062E-14
 -1      3812 1.33310E-02-2.80097E-04-5.40977E-14
 -1      3813 1.35414E-02-3.06054E-04-5.57063E-14
 -1      3814 1.79220E-03 2.22222E-04-1.20266E-15
 -1      3815 1.64938E-03 2.16041E-04-1.03177E-15
 -1      3816 1.98639E-03-1.96504E-04-1.50752E-15
 -1      3817 2.12871E-03-1.98920E-04-1.71494E-15
 -1      3818 1.90928E-03-1.62713E-04-1.41708E-15
 -1      3819 1.37098E-02-2.23112E-04-5.71137E-14
 -1      3820 9.64742E-03 2.48915E-05-2.68731E-14
 -1      3821 9.50169E-03 4.29944E-05-2.59601E-14
 -1      3822 9.76693E-03-2.31003E-05-2.73758E-14
 -1      3823 9.85442E-03-3.36095E-04-2.68249E-14
 -1      3824 9.97704E-03-3.46144E-04-2.77582E-14
 -1      3825 1.00603E-02-3.23753E-04-2.82135E-14
 -1      3826 9.86635E-03-2.98995E-04-2.66014E-14
 -1      3827 1.25342E-03-6.62127E-06-6.82194E-16
 -1      3828 1.25406E-03-3.56150E-05-6.82316E-16
 -1      3829 1.37927E-03-3.87557E-05-8.07365E-16
 -1      3830 1.37447E-03 8.28570E-06-8.01957E-16
 -1      3831 2.27074E-03-2.00319E-04-1.93609E-15
 -1      3832 2.41240E-03-2.00762E-04-2.17136E-15
 -1      3833 2.47580E-03-1.67868E-04-2.30286E-15
 -1      3834 2.19326E-03-1.66962E-04-1.83249E-15
 -1      3835 4.04313E-03 2.00362E-04-5.82249E-15
 -1      3836 3.90467E-03 2.03352E-04-5.42794E-15
 -1      3837 2.07792E-03 2.30100E-04-1.58532E-15
 -1      3838 1.93507E-03 2.26877E-04-1.38722E-15
 -1      3839 1.85696E-03 1.92194E-04-1.30664E-15
 -1      3840 2.14200E-03 1.97868E-04-1.70461E-15
 -1      3841 1.39131E-03 1.90363E-04-7.63034E-16
 -1      3842 4.82479E-03-1.45578E-04-9.24243E-15
 -1      3843 4.68098E-03-8.73043E-05-9.01560E-15
 -1      3844 4.69257E-03-7.66325E-05-9.13948E-15
 -1      3845 4.64052E-03-6.10359E-05-8.85260E-15
 -1      3846 1.35917E-02-5.33028E-04-5.57592E-14
 -1      3847 1.35795E-02-4.92508E-04-5.57280E-14
 -1      3848 9.86789E-03-1.40639E-04-2.70178E-14
 -1      3849 9.84639E-03-1.65546E-04-2.65198E-14
 -1      3850 9.93497E-03-1.89475E-04-2.70554E-14
 -1      3851 9.53489E-03-3.60879E-05-2.55092E-14
 -1      3852 9.69508E-03-6.24762E-05-2.64688E-14
 -1      3853 1.49525E-03 2.14090E-05-9.30164E-16
 -1      3854 1.49701E-03-3.09577E-06-9.34271E-16
 -1      3855 1.35976E-02-7.08437E-04-5.55301E-14
 -1      3856 9.94613E-03-2.31524E-04-2.68850E-14
 -1      3857 9.87930E-03-2.43078E-04-2.62861E-14
 -1      3858 4.86262E-03 5.88088E-05-9.08164E-15
 -1      3859 4.95702E-03 1.01237E-04-9.19734E-15
 -1      3860 3.76629E-03 2.06764E-04-5.04753E-15
 -1      3861 3.62771E-03 2.10429E-04-4.68116E-15
 -1      3862 3.81661E-03 1.71619E-04-5.25883E-15
 -1      3863 4.99477E-03 1.75123E-04-8.97809E-15
 -1      3864 4.62311E-03-3.21836E-05-8.66444E-15
 -1      3865 4.66203E-03-2.05421E-05-8.77256E-15
 -1      3866 1.37662E-02-6.91738E-04-5.68819E-14
 -1      3867 1.36840E-02-4.41918E-04-5.66263E-14
 -1      3868 2.50524E-03 2.32778E-04-2.26198E-15
 -1      3869 2.42619E-03 1.99289E-04-2.15741E-15
 -1      3870 2.64707E-03 2.31750E-04-2.51543E-15
 -1      3871 1.35664E-02-3.87572E-04-5.57853E-14
 -1      3872 1.35539E-02-3.46859E-04-5.57498E-14
 -1      3873 1.34488E-02-3.33725E-04-5.49429E-14
 -1      3874 4.63563E-03 1.57040E-04-7.80205E-15
 -1      3875 4.60312E-03 1.97218E-04-7.54686E-15
 -1      3876 4.46128E-03 1.95997E-04-7.09387E-15
 -1      3877 9.46897E-03 3.32024E-06-2.53959E-14
 -1      3878 4.72296E-03-1.25135E-04-8.93596E-15
 -1      3879 4.71487E-03 1.26002E-07-8.86936E-15
 -1      3880 4.79034E-03 2.82108E-05-8.98791E-15
 -1      3881 4.74680E-03 5.95536E-05-8.63856E-15
 -1      3882 4.62488E-03 7.68668E-06-8.45408E-15
 -1      3883 4.18177E-03 1.97950E-04-6.23168E-15
 -1      3884 4.08853E-03 1.64483E-04-6.04855E-15
 -1      3885 4.32109E-03 1.96440E-04-6.65475E-15
 -1      3886 9.33383E-03 6.15803E-05-2.49098E-14
 -1      3887 1.49898E-03 8.56498E-05-9.21572E-16
 -1      3888 1.49656E-03 5.33850E-05-9.26586E-16
 -1      3889 1.61903E-03 4.30549E-05-1.06924E-15
 -1      3890 3.21007E-03 2.21449E-04-3.66922E-15
 -1      3891 3.06998E-03 2.24745E-04-3.36027E-15
 -1      3892 1.36159E-02-6.14298E-04-5.58237E-14
 -1      3893 1.36038E-02-5.73643E-04-5.57918E-14
 -1      3894 1.34749E-02-5.42372E-04-5.48262E-14
 -1      3895 2.92947E-03 2.27616E-04-3.06462E-15
 -1      3896 2.78847E-03 2.30011E-04-2.78252E-15
 -1      3897 2.98937E-03 1.92869E-04-3.22992E-15
 -1      3898 9.88539E-03-2.70029E-04-2.65119E-14
 -1      3899 4.60652E-03-1.26212E-04-8.37230E-15
 -1      3900 4.64799E-03-1.03590E-04-8.72819E-15
 -1      3901 4.57413E-03-8.71586E-05-8.45075E-15
 -1      3902 4.49539E-03-1.25201E-04-7.89454E-15
 -1      3903 2.95617E-03-1.32516E-04-3.26745E-15
 -1      3904 3.09295E-03-1.31029E-04-3.57201E-15
 -1      3905 3.22850E-03-1.29477E-04-3.88991E-15
 -1      3906 3.36274E-03-1.27816E-04-4.22177E-15
 -1      3907 3.15392E-03-9.99817E-05-3.73458E-15
 -1      3908 3.49547E-03-1.26264E-04-4.56837E-15
 -1      3909 3.62664E-03-1.24736E-04-4.92900E-15
 -1      3910 3.42094E-03-9.79887E-05-4.39881E-15
 -1      3911 3.75599E-03-1.23495E-04-5.30358E-15
 -1      3912 3.88347E-03-1.22397E-04-5.69362E-15
 -1      3913 3.68128E-03-9.64044E-05-5.11937E-15
 -1      3914 4.00874E-03-1.21759E-04-6.09796E-15
 -1      3915 4.13178E-03-1.21321E-04-6.51675E-15
 -1      3916 3.93344E-03-9.57410E-05-5.89809E-15
 -1      3917 4.25206E-03-1.21457E-04-6.94974E-15
 -1      3918 4.36970E-03-1.21725E-04-7.39678E-15
 -1      3919 4.17541E-03-9.64135E-05-6.73498E-15
 -1      3920 1.62013E-03-1.53872E-05-1.07640E-15
 -1      3921 1.49943E-03-2.76307E-05-9.37184E-16
 -1      3922 1.50251E-03-5.22741E-05-9.39068E-16
 -1      3923 1.35765E-02-6.62761E-04-5.54364E-14
 -1      3924 1.00045E-02-2.19630E-04-2.74661E-14
 -1      3925 1.00493E-02-2.44643E-04-2.78049E-14
 -1      3926 5.01274E-03 1.39504E-04-9.21233E-15
 -1      3927 1.04750E-02-3.42210E-04-3.14360E-14
 -1      3928 1.05993E-02-3.55296E-04-3.24270E-14
 -1      3929 1.07255E-02-3.68602E-04-3.34266E-14
 -1      3930 1.08536E-02-3.82330E-04-3.44342E-14
 -1      3931 1.06618E-02-3.35847E-04-3.28980E-14
 -1      3932 1.09832E-02-3.96228E-04-3.54511E-14
 -1      3933 1.11144E-02-4.10412E-04-3.64753E-14
 -1      3934 1.09154E-02-3.61849E-04-3.49137E-14
 -1      3935 1.12468E-02-4.24689E-04-3.75054E-14
 -1      3936 1.13805E-02-4.39132E-04-3.85404E-14
 -1      3937 1.11758E-02-3.88791E-04-3.69609E-14
 -1      3938 1.15152E-02-4.53594E-04-3.95811E-14
 -1      3939 1.16509E-02-4.68122E-04-4.06286E-14
 -1      3940 1.14416E-02-4.16327E-04-3.90325E-14
 -1      3941 1.17875E-02-4.82607E-04-4.16826E-14
 -1      3942 1.19248E-02-4.97085E-04-4.27392E-14
 -1      3943 1.17118E-02-4.44144E-04-4.11272E-14
 -1      3944 1.20629E-02-5.11476E-04-4.37997E-14
 -1      3945 1.22016E-02-5.25810E-04-4.48653E-14
 -1      3946 1.19856E-02-4.71991E-04-4.32428E-14
 -1      3947 1.23409E-02-5.40032E-04-4.59352E-14
 -1      3948 1.24806E-02-5.54168E-04-4.70074E-14
 -1      3949 1.22623E-02-4.99693E-04-4.53729E-14
 -1      3950 1.26208E-02-5.68182E-04-4.80838E-14
 -1      3951 1.27614E-02-5.82096E-04-4.91639E-14
 -1      3952 1.25412E-02-5.27142E-04-4.75183E-14
 -1      3953 1.29023E-02-5.95888E-04-5.02455E-14
 -1      3954 1.30436E-02-6.09577E-04-5.13291E-14
 -1      3955 1.28219E-02-5.54283E-04-4.96735E-14
 -1      3956 1.31850E-02-6.23154E-04-5.24177E-14
 -1      3957 1.33267E-02-6.36633E-04-5.35099E-14
 -1      3958 1.31041E-02-5.81099E-04-5.18447E-14
 -1      3959 1.04078E-02-1.02429E-04-3.17114E-14
 -1      3960 1.02757E-02-9.36154E-05-3.07347E-14
 -1      3961 1.09412E-02-1.37250E-04-3.57219E-14
 -1      3962 1.08068E-02-1.28523E-04-3.47043E-14
 -1      3963 4.58741E-03-4.48258E-05-8.54747E-15
 -1      3964 4.53547E-03-2.69703E-05-8.24586E-15
 -1      3965 4.55847E-03-5.64830E-05-8.43004E-15
 -1      3966 1.55613E-03 2.07828E-04-9.29812E-16
 -1      3967 1.54956E-03 1.73051E-04-9.42321E-16
 -1      3968 1.06732E-02-1.19819E-04-3.36961E-14
 -1      3969 1.05401E-02-1.11151E-04-3.26977E-14
 -1      3970 1.05010E-02-1.36979E-04-3.22427E-14
 -1      3971 1.12119E-02-1.55005E-04-3.77824E-14
 -1      3972 1.10762E-02-1.46087E-04-3.67487E-14
 -1      3973 1.10284E-02-1.72202E-04-3.62764E-14
 -1      3974 1.14854E-02-1.73281E-04-3.98694E-14
 -1      3975 1.13483E-02-1.64081E-04-3.88232E-14
 -1      3976 1.12976E-02-1.90733E-04-3.83442E-14
 -1      3977 1.17613E-02-1.92205E-04-4.19821E-14
 -1      3978 1.16231E-02-1.82667E-04-4.09223E-14
 -1      3979 1.15699E-02-2.09934E-04-4.04387E-14
 -1      3980 1.20393E-02-2.11847E-04-4.41106E-14
 -1      3981 1.19001E-02-2.01943E-04-4.30424E-14
 -1      3982 1.18450E-02-2.29829E-04-4.25528E-14
 -1      3983 1.23191E-02-2.32228E-04-4.62571E-14
 -1      3984 1.21790E-02-2.21952E-04-4.51828E-14
 -1      3985 1.21225E-02-2.50414E-04-4.46866E-14
 -1      3986 1.26004E-02-2.53324E-04-4.84196E-14
 -1      3987 1.24596E-02-2.42694E-04-4.73369E-14
 -1      3988 1.24019E-02-2.71664E-04-4.68342E-14
 -1      3989 1.28829E-02-2.75087E-04-5.05944E-14
 -1      3990 1.27415E-02-2.64130E-04-4.95051E-14
 -1      3991 1.26830E-02-2.93533E-04-4.89949E-14
 -1      3992 1.31662E-02-2.97450E-04-5.27824E-14
 -1      3993 1.30244E-02-2.86201E-04-5.16884E-14
 -1      3994 1.29652E-02-3.15961E-04-5.11743E-14
 -1      3995 1.33600E-02-3.21997E-04-5.42651E-14
 -1      3996 1.32549E-02-3.09027E-04-5.34591E-14
 -1      3997 1.31953E-02-3.38999E-04-5.29455E-14
 -1      3998 1.33726E-02-3.62481E-04-5.43018E-14
 -1      3999 9.78898E-03-6.27449E-05-2.71937E-14
 -1      4000 9.84776E-03-1.08618E-04-2.72050E-14
 -1      4001 9.95329E-03-1.39769E-04-2.77510E-14
 -1      4002 9.92062E-03-7.27326E-05-2.81244E-14
 -1      4003 1.52562E-03 1.45361E-04-9.29080E-16
 -1      4004 1.52117E-03 1.12038E-04-9.37740E-16
 -1      4005 1.64330E-03 1.03299E-04-1.08226E-15
 -1      4006 1.68988E-03 1.58826E-04-1.11422E-15
 -1      4007 1.51535E-03 2.55100E-04-8.53145E-16
 -1      4008 1.49155E-03 2.34438E-04-8.41775E-16
 -1      4009 1.83343E-03-1.29641E-04-1.32750E-15
 -1      4010 1.97532E-03-1.32202E-04-1.52175E-15
 -1      4011 3.48890E-03 2.14175E-04-4.33026E-15
 -1      4012 3.34968E-03 2.17905E-04-3.99290E-15
 -1      4013 3.26753E-03 1.86602E-04-3.85033E-15
 -1      4014 3.54320E-03 1.79280E-04-4.52650E-15
 -1      4015 4.79875E-03 1.25078E-04-8.50162E-15
 -1      4016 4.68608E-03 9.40542E-05-8.24228E-15
 -1      4017 4.66261E-03 1.25616E-04-8.02156E-15
 -1      4018 4.52788E-03 1.27282E-04-7.55560E-15
 -1      4019 1.01635E-02-8.79197E-05-2.98967E-14
 -1      4020 1.00321E-02-7.87598E-05-2.89430E-14
 -1      4021 1.00444E-02-1.12908E-04-2.87559E-14
 -1      4022 1.02615E-02-1.23187E-04-3.04171E-14
 -1      4023 2.67950E-03-1.34727E-04-2.69932E-15
 -1      4024 2.81833E-03-1.33743E-04-2.97638E-15
 -1      4025 2.88144E-03-1.01873E-04-3.12532E-15
 -1      4026 1.49040E-03-7.68051E-05-9.22480E-16
 -1      4027 1.49357E-03-1.09178E-04-9.19214E-16
 -1      4028 1.58780E-03-1.17072E-04-1.02463E-15
 -1      4029 1.61053E-03-6.62296E-05-1.06194E-15
 -1      4030 1.35792E-02-4.60511E-04-5.57773E-14
 -1      4031 1.35668E-02-4.19672E-04-5.57421E-14
 -1      4032 1.34617E-02-4.06313E-04-5.49369E-14
 -1      4033 1.34625E-02-4.70118E-04-5.48431E-14
 -1      4034 1.02333E-02-3.17278E-04-2.94922E-14
 -1      4035 1.03530E-02-3.29665E-04-3.04583E-14
 -1      4036 1.04167E-02-3.11110E-04-3.09217E-14
 -1      4037 9.97602E-03-2.82185E-04-2.73112E-14
 -1      4038 2.70882E-03 1.97350E-04-2.66589E-15
 -1      4039 1.00463E-02-2.01333E-04-2.79774E-14
 -1      4040 4.41491E-03-1.00777E-04-7.66534E-15
 -1      4041 1.74124E-03-2.24924E-06-1.22527E-15
 -1      4042 1.74368E-03-2.83734E-05-1.22886E-15
 -1      4043 1.74371E-03 6.58184E-05-1.21765E-15
 -1      4044 1.74184E-03 3.17012E-05-1.22242E-15
 -1      4045 1.86488E-03 1.95624E-05-1.38561E-15
 -1      4046 1.34476E-02-6.31020E-04-5.44720E-14
 -1      4047 4.62233E-03 6.41704E-05-8.15515E-15
 -1      4048 1.00639E-02-2.68572E-04-2.79637E-14
 -1      4049 1.00615E-02-2.95295E-04-2.80591E-14
 -1      4050 1.01589E-02-3.07974E-04-2.88769E-14
 -1      4051 1.01358E-02-2.56546E-04-2.85572E-14
 -1      4052 1.07629E-02-1.54302E-04-3.42404E-14
 -1      4053 4.43905E-03-2.05779E-05-7.81610E-15
 -1      4054 4.47819E-03-6.08090E-06-7.92674E-15
 -1      4055 1.33662E-02-5.88710E-04-5.38950E-14
 -1      4056 1.33394E-02-4.72295E-04-5.38674E-14
 -1      4057 1.33390E-02-4.40600E-04-5.39160E-14
 -1      4058 2.48975E-03 1.65860E-04-2.29455E-15
 -1      4059 2.34840E-03 1.66112E-04-2.05340E-15
 -1      4060 4.13233E-03 1.29570E-04-6.27588E-15
 -1      4061 3.99940E-03 1.33509E-04-5.86660E-15
 -1      4062 3.86602E-03 1.37456E-04-5.47071E-15
 -1      4063 3.73186E-03 1.41415E-04-5.08975E-15
 -1      4064 3.91468E-03 1.04340E-04-5.68476E-15
 -1      4065 2.11705E-03-1.33981E-04-1.72976E-15
 -1      4066 2.25848E-03-1.35020E-04-1.95148E-15
 -1      4067 2.04209E-03-1.01389E-04-1.62820E-15
 -1      4068 4.51784E-03 1.47631E-05-7.99720E-15
 -1      4069 4.57010E-03 3.78011E-05-8.08792E-15
 -1      4070 4.50405E-03 6.94722E-05-7.70618E-15
 -1      4071 4.41395E-03 2.11828E-05-7.57432E-15
 -1      4072 4.36055E-03 1.59009E-04-6.89631E-15
 -1      4073 3.32483E-03 1.52553E-04-4.03283E-15
 -1      4074 3.18748E-03 1.55837E-04-3.70816E-15
 -1      4075 2.53984E-03-1.35298E-04-2.43619E-15
 -1      4076 2.60458E-03-1.03103E-04-2.57117E-15
 -1      4077 2.39945E-03-1.35444E-04-2.18716E-15
 -1      4078 1.02236E-02-2.90224E-04-2.93321E-14
 -1      4079 1.68227E-03-1.24761E-04-1.13573E-15
 -1      4080 3.04936E-03 1.58759E-04-3.39769E-15
 -1      4081 2.91046E-03 1.61322E-04-3.10086E-15
 -1      4082 3.10953E-03 1.25368E-04-3.56697E-15
 -1      4083 1.74956E-03-9.60062E-05-1.22767E-15
 -1      4084 2.20665E-03 1.65550E-04-1.82611E-15
 -1      4085 2.06458E-03 1.64148E-04-1.61267E-15
 -1      4086 2.27187E-03 1.33220E-04-1.94990E-15
 -1      4087 1.94840E-03 1.63989E-04-1.44760E-15
 -1      4088 1.80610E-03 1.60718E-04-1.25912E-15
 -1      4089 1.78219E-03 1.32206E-04-1.24281E-15
 -1      4090 2.01433E-03 1.32998E-04-1.55746E-15
 -1      4091 1.33590E-02-5.50602E-04-5.38990E-14
 -1      4092 1.33469E-02-5.10373E-04-5.38655E-14
 -1      4093 1.32237E-02-4.80725E-04-5.29413E-14
 -1      4094 1.32384E-02-5.56471E-04-5.29381E-14
 -1      4095 3.08150E-03-7.02248E-05-3.57999E-15
 -1      4096 3.21608E-03-6.97687E-05-3.89753E-15
 -1      4097 3.34914E-03-6.94489E-05-4.22999E-15
 -1      4098 3.48058E-03-6.91838E-05-4.57659E-15
 -1      4099 3.27966E-03-4.04032E-05-4.06234E-15
 -1      4100 3.61020E-03-6.91652E-05-4.93640E-15
 -1      4101 3.73779E-03-6.92654E-05-5.31065E-15
 -1      4102 3.54209E-03-4.13221E-05-4.75471E-15
 -1      4103 3.86304E-03-6.98055E-05-5.70003E-15
 -1      4104 3.98580E-03-7.05075E-05-6.10330E-15
 -1      4105 3.79665E-03-4.33502E-05-5.50306E-15
 -1      4106 4.10558E-03-7.18519E-05-6.52190E-15
 -1      4107 4.22220E-03-7.32907E-05-6.95456E-15
 -1      4108 4.04116E-03-4.67670E-05-6.30958E-15
 -1      4109 1.33561E-02-4.17532E-04-5.40891E-14
 -1      4110 1.33556E-02-3.85705E-04-5.41344E-14
 -1      4111 1.32670E-02-3.73866E-04-5.34548E-14
 -1      4112 1.32331E-02-4.19931E-04-5.31146E-14
 -1      4113 1.05963E-02-3.04400E-04-3.23719E-14
 -1      4114 1.07203E-02-3.16434E-04-3.33694E-14
 -1      4115 4.34463E-03-7.77754E-05-7.43698E-15
 -1      4116 4.46233E-03-8.20823E-05-7.93568E-15
 -1      4117 4.51302E-03-6.56703E-05-8.20840E-15
 -1      4118 4.28229E-03-5.41837E-05-7.20963E-15
 -1      4119 1.01845E-02-2.39821E-04-2.90054E-14
 -1      4120 1.02076E-02-2.64554E-04-2.91699E-14
 -1      4121 1.02810E-02-2.73037E-04-2.97862E-14
 -1      4122 1.03768E-02-2.82666E-04-3.05829E-14
 -1      4123 1.04962E-02-2.94053E-04-3.15605E-14
 -1      4124 1.05498E-02-2.75264E-04-3.20236E-14
 -1      4125 1.03531E-02-2.56385E-04-3.04152E-14
 -1      4126 1.08463E-02-3.28629E-04-3.43784E-14
 -1      4127 1.09743E-02-3.41210E-04-3.53951E-14
 -1      4128 1.07755E-02-2.96506E-04-3.38424E-14
 -1      4129 1.11039E-02-3.53930E-04-3.64169E-14
 -1      4130 1.12349E-02-3.66915E-04-3.74476E-14
 -1      4131 1.10308E-02-3.20056E-04-3.58741E-14
 -1      4132 1.13674E-02-3.79985E-04-3.84844E-14
 -1      4133 1.15010E-02-3.93222E-04-3.95252E-14
 -1      4134 1.12924E-02-3.44533E-04-3.79333E-14
 -1      4135 1.16358E-02-4.06492E-04-4.05717E-14
 -1      4136 1.17715E-02-4.19853E-04-4.16265E-14
 -1      4137 1.15592E-02-3.69632E-04-4.00176E-14
 -1      4138 1.19081E-02-4.33206E-04-4.26840E-14
 -1      4139 1.20455E-02-4.46595E-04-4.37455E-14
 -1      4140 1.18302E-02-3.95113E-04-4.21224E-14
 -1      4141 1.21835E-02-4.59947E-04-4.48116E-14
 -1      4142 1.23223E-02-4.73297E-04-4.58797E-14
 -1      4143 1.21046E-02-4.20793E-04-4.42476E-14
 -1      4144 1.24616E-02-4.86595E-04-4.69536E-14
 -1      4145 1.26013E-02-4.99867E-04-4.80269E-14
 -1      4146 1.23818E-02-4.46546E-04-4.63870E-14
 -1      4147 1.27415E-02-5.13080E-04-4.91064E-14
 -1      4148 1.28822E-02-5.26254E-04-5.01880E-14
 -1      4149 1.26611E-02-4.72287E-04-4.85368E-14
 -1      4150 1.29895E-02-5.34872E-04-5.10172E-14
 -1      4151 1.31307E-02-5.47944E-04-5.21068E-14
 -1      4152 1.31235E-02-5.10270E-04-5.21069E-14
 -1      4153 1.29086E-02-4.93543E-04-5.04448E-14
 -1      4154 1.11133E-02-2.06742E-04-3.68315E-14
 -1      4155 1.09808E-02-1.97265E-04-3.58042E-14
 -1      4156 1.05901E-02-1.70048E-04-3.27773E-14
 -1      4157 1.04623E-02-1.61495E-04-3.17893E-14
 -1      4158 1.08494E-02-1.87962E-04-3.47866E-14
 -1      4159 1.07191E-02-1.78910E-04-3.37774E-14
 -1      4160 1.09329E-02-2.21252E-04-3.53339E-14
 -1      4161 1.16531E-02-2.46592E-04-4.10047E-14
 -1      4162 1.15168E-02-2.36373E-04-3.99514E-14
 -1      4163 1.00427E-02-1.75554E-04-2.81673E-14
 -1      4164 1.01204E-02-2.08749E-04-2.85884E-14
 -1      4165 1.01941E-02-2.15753E-04-2.92002E-14
 -1      4166 1.00345E-02-1.47595E-04-2.83584E-14
 -1      4167 1.19278E-02-2.67546E-04-4.31239E-14
 -1      4168 1.17901E-02-2.56997E-04-4.20623E-14
 -1      4169 1.17350E-02-2.83429E-04-4.15700E-14
 -1      4170 1.22050E-02-2.89118E-04-4.52588E-14
 -1      4171 1.20661E-02-2.78264E-04-4.41885E-14
 -1      4172 1.20096E-02-3.05488E-04-4.36941E-14
 -1      4173 1.24842E-02-3.11254E-04-4.74075E-14
 -1      4174 1.23444E-02-3.00123E-04-4.63328E-14
 -1      4175 1.22868E-02-3.28058E-04-4.58313E-14
 -1      4176 1.27652E-02-3.33894E-04-4.95697E-14
 -1      4177 1.26245E-02-3.22520E-04-4.84879E-14
 -1      4178 1.25661E-02-3.51070E-04-4.79800E-14
 -1      4179 3.59705E-03 1.45305E-04-4.72333E-15
 -1      4180 3.46133E-03 1.49055E-04-4.37099E-15
 -1      4181 3.38212E-03 1.19371E-04-4.21614E-15
 -1      4182 4.45097E-03 9.93060E-05-7.40198E-15
 -1      4183 4.41994E-03 1.28223E-04-7.19298E-15
 -1      4184 4.28669E-03 1.31282E-04-6.75225E-15
 -1      4185 4.40278E-03 7.23770E-05-7.34009E-15
 -1      4186 2.63059E-03 1.64945E-04-2.54943E-15
 -1      4187 2.55377E-03 1.32701E-04-2.43351E-15
 -1      4188 2.77086E-03 1.63384E-04-2.81814E-15
 -1      4189 1.75915E-03 1.04212E-04-1.22504E-15
 -1      4190 4.44955E-03-4.97992E-05-7.91514E-15
 -1      4191 1.76110E-03-6.96953E-05-1.24740E-15
 -1      4192 2.80846E-03-7.10323E-05-2.98372E-15
 -1      4193 2.94559E-03-7.06272E-05-3.27520E-15
 -1      4194 3.01095E-03-4.00281E-05-3.42560E-15
 -1      4195 1.13814E-02-2.26307E-04-3.89061E-14
 -1      4196 1.12469E-02-2.16443E-04-3.78657E-14
 -1      4197 1.11960E-02-2.41195E-04-3.73871E-14
 -1      4198 1.14636E-02-2.61965E-04-3.94674E-14
 -1      4199 1.88160E-03-5.71816E-05-1.40903E-15
 -1      4200 2.00604E-03-1.54926E-05-1.58634E-15
 -1      4201 2.02301E-03-5.82685E-05-1.60894E-15
 -1      4202 2.16421E-03-5.90082E-05-1.82249E-15
 -1      4203 1.88152E-03 9.33542E-05-1.38974E-15
 -1      4204 2.00623E-03 1.98140E-05-1.58345E-15
 -1      4205 3.96331E-03 7.25613E-05-5.89998E-15
 -1      4206 3.83446E-03 7.66355E-05-5.50360E-15
 -1      4207 1.01376E-02-1.52035E-04-2.91818E-14
 -1      4208 4.19548E-03 1.00588E-04-6.55652E-15
 -1      4209 2.83324E-03 1.29935E-04-2.97245E-15
 -1      4210 1.06751E-02-2.02313E-04-3.33144E-14
 -1      4211 1.04411E-02-1.87489E-04-3.14637E-14
 -1      4212 1.03540E-02-1.56051E-04-3.09395E-14
 -1      4213 1.02470E-02-1.50916E-04-3.00983E-14
 -1      4214 4.38248E-03-3.10842E-05-7.60436E-15
 -1      4215 4.31631E-03-1.12351E-05-7.29970E-15
 -1      4216 4.32882E-03-4.16207E-05-7.39552E-15
 -1      4217 4.26109E-03 6.98896E-05-6.86526E-15
 -1      4218 4.11500E-03 7.01067E-05-6.38477E-15
 -1      4219 4.03596E-03 4.41083E-05-6.18930E-15
 -1      4220 2.32442E-03-1.03130E-04-2.07222E-15
 -1      4221 3.65061E-03 1.12348E-04-4.92174E-15
 -1      4222 3.43970E-03 8.71445E-05-4.40144E-15
 -1      4223 3.30553E-03 9.01270E-05-4.06279E-15
 -1      4224 3.23150E-03 6.09944E-05-3.90883E-15
 -1      4225 3.17018E-03 9.27527E-05-3.73707E-15
 -1      4226 3.03369E-03 9.50945E-05-3.42559E-15
 -1      4227 1.30474E-02-3.56975E-04-5.17546E-14
 -1      4228 1.29061E-02-3.45386E-04-5.06606E-14
 -1      4229 1.31785E-02-3.62092E-04-5.27790E-14
 -1      4230 4.28191E-03 2.05216E-05-7.09047E-15
 -1      4231 4.31969E-03 4.26893E-05-7.15527E-15
 -1      4232 1.31160E-02-4.72612E-04-5.21061E-14
 -1      4233 2.61845E-03 9.98560E-05-2.57421E-15
 -1      4234 2.47842E-03 1.00641E-04-2.31812E-15
 -1      4235 2.53117E-03-7.14286E-05-2.44374E-15
 -1      4236 2.67028E-03-7.12910E-05-2.70710E-15
 -1      4237 2.73704E-03-3.98928E-05-2.84411E-15
 -1      4238 1.28471E-02-3.74460E-04-5.01473E-14
 -1      4239 4.21849E-03 8.15350E-06-6.89158E-15
 -1      4240 2.33779E-03 1.00914E-04-2.07564E-15
 -1      4241 2.19666E-03 1.00694E-04-1.84698E-15
 -1      4242 2.40447E-03 6.86923E-05-2.20341E-15
 -1      4243 1.31190E-02-3.91616E-04-5.22621E-14
 -1      4244 3.47660E-03-1.28213E-05-4.57372E-15
 -1      4245 3.60601E-03-1.42223E-05-4.93363E-15
 -1      4246 3.77267E-03 2.10880E-06-5.41667E-15
 -1      4247 3.89779E-03-4.98392E-07-5.80936E-15
 -1      4248 1.31021E-02-4.14447E-04-5.20904E-14
 -1      4249 2.27787E-03-6.52560E-05-2.00380E-15
 -1      4250 2.41827E-03-6.55264E-05-2.24244E-15
 -1      4251 2.48625E-03-3.38861E-05-2.36679E-15
 -1      4252 2.26051E-03-2.18578E-05-1.97893E-15
 -1      4253 4.20759E-03-3.55495E-05-6.91488E-15
 -1      4254 1.02261E-02-1.82387E-04-2.96932E-14
 -1      4255 1.09852E-02-2.70832E-04-3.56070E-14
 -1      4256 1.08566E-02-2.60226E-04-3.45899E-14
 -1      4257 1.11152E-02-2.81810E-04-3.66301E-14
 -1      4258 1.12467E-02-2.92917E-04-3.76632E-14
 -1      4259 1.13794E-02-3.04299E-04-3.87014E-14
 -1      4260 1.15132E-02-3.15775E-04-3.97439E-14
 -1      4261 1.16481E-02-3.27456E-04-4.07935E-14
 -1      4262 1.17840E-02-3.39205E-04-4.18499E-14
 -1      4263 1.19207E-02-3.51105E-04-4.29116E-14
 -1      4264 1.20581E-02-3.63055E-04-4.39740E-14
 -1      4265 1.21962E-02-3.75115E-04-4.50415E-14
 -1      4266 1.23350E-02-3.87211E-04-4.61124E-14
 -1      4267 1.24743E-02-3.99387E-04-4.71848E-14
 -1      4268 1.26141E-02-4.11590E-04-4.82596E-14
 -1      4269 1.27543E-02-4.23847E-04-4.93411E-14
 -1      4270 4.04314E-03-1.98982E-06-6.29121E-15
 -1      4271 1.07298E-02-2.49790E-04-3.35804E-14
 -1      4272 1.03008E-02-2.16342E-04-3.01206E-14
 -1      4273 3.52731E-03 6.41018E-05-4.65783E-15
 -1      4274 3.45481E-03 3.62359E-05-4.49156E-15
 -1      4275 1.99739E-03 9.29396E-05-1.55115E-15
 -1      4276 1.29646E-02-4.56778E-04-5.09414E-14
 -1      4277 1.30644E-02-4.27283E-04-5.17717E-14
 -1      4278 2.89619E-03 9.70472E-05-3.12834E-15
 -1      4279 2.75773E-03 9.86704E-05-2.84428E-15
 -1      4280 2.95984E-03 6.47974E-05-3.28516E-15
 -1      4281 3.65854E-03 6.09118E-05-5.02121E-15
 -1      4282 1.06049E-02-2.39871E-04-3.25817E-14
 -1      4283 3.71483E-03 3.08926E-05-5.21858E-15
 -1      4284 1.29506E-02-3.99089E-04-5.09228E-14
 -1      4285 1.05033E-02-2.30943E-04-3.17694E-14
 -1      4286 1.28574E-02-4.48663E-04-5.01114E-14
 -1      4287 2.06528E-03 6.18385E-05-1.66071E-15
 -1      4288 2.98284E-03 1.19462E-05-3.35859E-15
 -1      4289 3.11838E-03 1.09777E-05-3.66666E-15
 -1      4290 1.28097E-02-3.87159E-04-4.98329E-14
 -1      4291 2.20438E-03 2.62808E-05-1.88345E-15
 -1      4292 2.31729E-03 2.03992E-05-2.06864E-15
 -1      4293 1.03989E-02-2.24612E-04-3.09182E-14
 -1      4294 3.38532E-03 8.33176E-06-4.32511E-15
 -1      4295 3.25259E-03 9.70413E-06-3.98890E-15
 -1      4296 2.68385E-03 6.73970E-05-2.71686E-15
 -1      4297 2.70825E-03 1.34503E-05-2.78363E-15
 -1      4298 2.56945E-03 1.39909E-05-2.51653E-15
 -1      4299 2.84609E-03 1.28210E-05-3.06435E-15
 -1      4300 2.45746E-03 2.01064E-05-2.31106E-15
 -1      4301 4.16282E-03-5.47145E-06-6.71517E-15
 -3
    1PSTEP                         2           1           1          
  100CL  101 1.000000000        4301                     0    1           1
 -4  STRESS      6    1
 -5  SXX         1    4    1    1
 -5  SYY         1    4    2    2
 -5  SZZ         1    4    3    3
 -5  SXY         1    4    1    2
 -5  SYZ         1    4    2    3
 -5  SZX         1    4    3    1
 -1         1 6.63248E+00 6.89702E+00-5.89552E-01 6.89284E+00-1.18178E-12-9.29534E-13
 -1         2-6.46311E-01-2.44290E+01-3.35667E+00 8.28789E-03-5.27000E-13 8.27151E-14
 -1         3 2.00001E+01 3.24380E-04 1.36190E-03 2.94610E-04-3.67096E-13-3.63201E-13
 -1         4 2.00001E+01 2.56002E-04 1.31247E-03-2.33538E-04 2.82103E-14 2.36868E-13
 -1         5 3.25855E+01 6.10889E+00 2.71618E+00 6.19122E+00-1.92832E-14 1.33357E-12
 -1         6 3.55437E+01 1.21876E+01 5.08127E+00-8.59601E+00-6.66134E-14 1.31467E-12
 -1         7 2.07783E+01 6.08684E+00-1.23778E-01-4.68968E+00-1.19488E-14 3.60732E-13
 -1         8 1.96710E+01 5.93378E+00 5.37734E-02-3.23274E+00-1.55362E-14 3.76192E-14
 -1         9 1.91582E+01 5.77744E+00 5.09413E-02-2.47764E+00-1.56160E-14-1.38849E-13
 -1        10 1.89247E+01 5.70023E+00 5.17599E-02-1.89987E+00-9.91481E-15-2.40653E-13
 -1        11 1.88030E+01 5.65934E+00 4.98643E-02-1.40776E+00-9.01362E-15-2.95424E-13
 -1        12 1.87350E+01 5.63641E+00 4.74035E-02-9.75574E-01-5.42101E-15-3.14972E-13
 -1        13 1.86963E+01 5.62348E+00 4.53699E-02-5.69537E-01-1.28890E-15-3.21080E-13
 -1        14 1.86790E+01 5.61768E+00 4.42765E-02-1.82354E-01-9.01026E-16-3.18025E-13
 -1        15 1.86793E+01 5.61779E+00 4.43219E-02 1.98987E-01 3.78311E-15-3.20246E-13
 -1        16 1.86974E+01 5.62384E+00 4.55230E-02 5.87067E-01 2.78510E-15-3.18018E-13
 -1        17 1.87370E+01 5.63697E+00 4.77447E-02 9.95211E-01 3.78517E-15-3.03304E-13
 -1        18 1.88060E+01 5.66021E+00 5.04280E-02 1.43063E+00 8.91518E-15-2.63751E-13
 -1        19 1.89294E+01 5.70159E+00 5.22224E-02 1.92864E+00 1.18005E-14-2.08268E-13
 -1        20 1.91628E+01 5.77978E+00 5.06101E-02 2.51478E+00 1.60670E-14-1.14242E-13
 -1        21 1.96661E+01 5.94811E+00 4.87294E-02 3.26667E+00 2.04420E-14 7.81007E-14
 -1        22 2.11547E+01 6.36599E+00 1.41486E-01 4.48820E+00 2.58127E-15 4.73160E-13
 -1        23 2.29256E+01-1.37524E+00-9.37379E-01-7.02603E-01-4.03358E-14 1.06762E-12
 -1        24 1.93166E+01-9.95225E-02-3.08548E-01 6.34902E-02-3.73052E-15 8.78844E-13
 -1        25 1.86686E+01-5.68655E-02-6.87384E-02 6.03652E-02-8.20134E-15 6.87833E-13
 -1        26 1.85117E+01-2.31812E-02-7.36660E-03 3.25789E-02 6.14255E-15 5.11311E-13
 -1        27 1.85828E+01-1.34500E-02-3.37734E-05 2.23454E-02 6.75295E-15 4.52813E-13
 -1        28 1.87796E+01-8.50913E-03-5.85753E-04 1.63524E-02-1.01255E-14 4.31328E-13
 -1        29 1.90545E+01-6.06914E-03-1.54669E-03 1.27341E-02-1.84412E-15 2.82554E-13
 -1        30 1.93874E+01-5.02517E-03-2.45549E-03 1.06188E-02-2.63334E-15 2.06138E-13
 -1        31 1.97738E+01-4.81606E-03-3.59853E-03 9.66614E-03-8.90824E-15 1.45786E-13
 -1        32 2.02191E+01-5.08534E-03-5.06203E-03 9.79866E-03-1.70789E-14 5.86211E-14
 -1        33 2.07348E+01-5.52242E-03-6.72647E-03 1.10706E-02 2.08722E-14 2.72395E-15
 -1        34 2.13349E+01-5.75802E-03-8.25875E-03 1.35812E-02-2.77941E-14-6.57452E-14
 -1        35 2.20309E+01-5.27651E-03-8.98617E-03 1.73583E-02 3.61806E-15-4.57820E-14
 -1        36 2.28233E+01-3.34938E-03-7.67460E-03 2.21329E-02-1.15028E-15-1.18482E-15
 -1        37 2.36887E+01 9.50213E-04-2.31506E-03 2.69091E-02-9.97949E-15 5.22915E-14
 -1        38 2.45595E+01 8.50384E-03 9.76152E-03 2.92630E-02-1.70202E-14-3.36536E-16
 -1        39 2.53010E+01 1.94433E-02 3.07259E-02 2.45489E-02 3.40168E-15-2.11636E-14
 -1        40 2.56954E+01 3.18449E-02 5.90483E-02 5.91246E-03-3.97354E-14-3.46602E-14
 -1        41 2.54643E+01 4.02680E-02 8.44009E-02-3.28080E-02 8.97503E-15-1.70539E-13
 -1        42 2.43732E+01 3.62755E-02 8.54752E-02-8.90304E-02-1.26912E-14-1.97030E-13
 -1        43 2.24380E+01 1.33561E-02 3.88638E-02-1.40606E-01-2.94133E-14-9.58400E-14
 -1        44 2.01366E+01-2.42605E-02-5.32805E-02-1.47153E-01 7.15161E-14 1.01488E-13
 -1        45 1.83732E+01-5.77478E-02-1.41601E-01-8.10981E-02-3.72345E-14 1.45328E-13
 -1        46 1.80028E+01-6.51440E-02-1.61568E-01 3.20009E-02-2.88602E-14-1.30050E-13
 -1        47 1.92213E+01-4.13755E-02-9.71442E-02 1.26036E-01-1.18920E-14-1.42823E-13
 -1        48 2.14120E+01-2.87694E-03 1.07730E-03 1.51540E-01 1.79779E-14-5.12784E-14
 -1        49 2.36154E+01 2.80347E-02 7.06869E-02 1.15281E-01-4.25653E-14-3.21083E-13
 -1        50 2.51311E+01 4.01773E-02 8.89249E-02 5.69807E-02 5.29967E-14-5.37698E-13
 -1        51 2.57525E+01 3.61872E-02 7.14276E-02 9.10329E-03 1.68964E-14-1.14337E-13
 -1        52 2.56329E+01 2.45396E-02 4.22844E-02-1.79858E-02-1.39537E-14 5.92994E-14
 -1        53 2.50526E+01 1.23919E-02 1.72185E-02-2.78362E-02 2.32571E-14-1.41588E-14
 -1        54 2.42657E+01 3.11419E-03 1.06237E-03-2.76342E-02 6.16426E-14-2.70809E-13
 -1        55 2.34462E+01-2.67513E-03-7.21179E-03-2.31144E-02-8.81927E-14-7.85690E-13
 -1        56 2.26915E+01-5.62788E-03-1.02830E-02-1.75956E-02 4.89010E-14-7.11275E-13
 -1        57 2.20443E+01-6.67687E-03-1.05023E-02-1.25842E-02 3.96769E-15-2.79927E-13
 -1        58 2.15145E+01-6.61254E-03-9.41479E-03-8.56703E-03-1.09795E-14-2.92303E-13
 -1        59 2.10950E+01-5.98368E-03-7.88437E-03-5.55987E-03-8.36657E-14-3.20069E-13
 -1        60 2.07715E+01-5.12912E-03-6.33670E-03-3.40606E-03 4.94186E-14-1.38673E-13
 -1        61 2.05277E+01-4.23969E-03-4.95322E-03-1.91430E-03 2.61752E-14 1.45168E-13
 -1        62 2.03479E+01-3.41255E-03-3.79169E-03-9.12267E-04-5.88678E-15 7.35096E-14
 -1        63 2.02183E+01-2.68980E-03-2.85271E-03-2.61293E-04-5.94903E-14-4.57492E-13
 -1        64 2.01274E+01-2.08310E-03-2.11380E-03 1.44475E-04-5.06509E-14-7.08429E-13
 -1        65 2.00658E+01-1.58828E-03-1.54602E-03 3.84059E-04 2.76177E-14-5.77943E-13
 -1        66 2.00261E+01-1.19349E-03-1.12159E-03 5.16615E-04 9.63878E-14-3.20932E-13
 -1        67 2.00026E+01-8.82952E-04-8.16162E-04 5.88074E-04 3.50335E-14 5.39682E-14
 -1        68 1.99909E+01-6.36822E-04-6.02963E-04 6.38033E-04-9.70609E-14 4.52551E-13
 -1        69 1.99879E+01-4.27365E-04-4.27127E-04 7.01508E-04 4.17181E-17 4.06140E-13
 -1        70 1.99908E+01-2.08873E-04-1.55016E-04 7.93359E-04 8.35852E-14 4.91903E-13
 -1        71 1.99971E+01 3.16794E-05 5.37724E-04 7.85995E-04 5.17450E-14 6.85344E-13
 -1        72 2.09503E+01-4.03204E-01-9.78690E-01-3.11230E-01 6.64052E-15 1.25047E-12
 -1        73 1.92837E+01-6.59864E-02-2.89987E-01-5.36660E-02 9.02577E-15 9.94945E-13
 -1        74 1.86801E+01-2.10522E-02-6.43230E-02-1.97160E-02 1.71996E-14 7.79644E-13
 -1        75 1.85229E+01-1.07635E-02-1.02337E-02-1.44772E-02-4.34017E-15 5.89430E-13
 -1        76 1.85936E+01-6.39877E-03-9.55822E-04-1.12023E-02 1.43417E-14 4.60207E-13
 -1        77 1.87882E+01-4.22334E-03-6.05829E-04-8.84465E-03 1.85937E-14 3.94045E-13
 -1        78 1.90585E+01-3.14695E-03-1.25798E-03-7.16661E-03-1.87576E-14 4.79438E-13
 -1        79 1.93828E+01-2.66775E-03-1.93718E-03-6.01498E-03 1.95003E-14 5.34189E-13
 -1        80 1.97534E+01-2.48804E-03-2.70936E-03-5.38874E-03-2.27998E-14 3.88960E-13
 -1        81 2.01705E+01-2.37530E-03-3.54013E-03-5.39066E-03 3.97727E-14 2.60905E-13
 -1        82 2.06375E+01-2.09415E-03-4.19534E-03-6.18161E-03-1.84713E-15 1.42867E-13
 -1        83 2.11569E+01-1.37150E-03-4.24151E-03-7.93657E-03 1.27072E-14 1.43531E-13
 -1        84 2.17242E+01 1.08518E-04-3.00851E-03-1.07643E-02 2.74943E-14-2.85804E-14
 -1        85 2.23210E+01 2.65716E-03 4.32469E-04-1.45441E-02-2.25540E-15-1.56574E-13
 -1        86 2.29051E+01 6.43771E-03 7.14672E-03-1.86331E-02-1.40183E-14-2.82083E-14
 -1        87 2.34011E+01 1.11827E-02 1.78574E-02-2.14483E-02-4.42460E-14 7.33896E-14
 -1        88 2.36952E+01 1.58029E-02 3.18912E-02-2.01065E-02 4.62737E-16-4.79029E-14
 -1        89 2.36443E+01 1.81087E-02 4.56159E-02-1.06474E-02 7.97543E-14-3.75042E-13
 -1        90 2.31136E+01 1.52207E-02 5.13543E-02 1.02078E-02-3.62108E-14-4.30959E-13
 -1        91 2.20525E+01 5.34615E-03 3.92027E-02 4.10892E-02-7.17937E-15 9.52710E-15
 -1        92 2.05894E+01-9.68295E-03 4.08714E-03 7.17868E-02-1.63078E-15 2.54241E-13
 -1        93 1.90808E+01-2.37154E-02-4.51212E-02 8.47142E-02 2.65561E-14-2.51812E-14
 -1        94 1.80251E+01-2.94751E-02-8.50580E-02 6.60433E-02 2.82812E-14-4.37470E-13
 -1        95 1.78325E+01-2.39816E-02-9.17720E-02 1.89805E-02-4.18636E-14-2.97114E-13
 -1        96 1.85844E+01-1.09015E-02-6.13991E-02-3.39489E-02 2.72475E-14 1.10398E-14
 -1        97 1.99815E+01 3.27801E-03-1.23976E-02-6.82826E-02 1.83366E-14 7.00828E-14
 -1        98 2.15300E+01 1.29824E-02 2.92268E-02-7.42178E-02-2.52065E-14-9.60620E-14
 -1        99 2.27976E+01 1.65638E-02 4.95349E-02-5.86023E-02-6.84906E-14-9.86711E-14
 -1       100 2.35653E+01 1.51513E-02 4.90840E-02-3.49409E-02-2.03125E-14 6.25090E-14
 -1       101 2.38243E+01 1.11455E-02 3.68719E-02-1.36162E-02 4.26663E-14-2.62795E-13
 -1       102 2.36886E+01 6.61548E-03 2.19426E-02 1.02344E-03 4.17987E-15-4.60998E-13
 -1       103 2.33068E+01 2.76759E-03 9.43879E-03 9.01871E-03-1.64940E-14-1.67634E-13
 -1       104 2.28088E+01 3.09682E-05 9.64080E-04 1.21382E-02 2.02459E-14-1.41467E-14
 -1       105 2.22873E+01-1.63836E-03-3.84426E-03 1.22937E-02 4.47447E-14-9.83953E-14
 -1       106 2.17986E+01-2.47575E-03-6.00698E-03 1.09476E-02-2.87074E-14-2.69327E-13
 -1       107 2.13713E+01-2.74501E-03-6.52348E-03 9.03307E-03 1.06289E-14-7.15947E-13
 -1       108 2.10154E+01-2.66748E-03-6.14219E-03 7.06985E-03 4.01814E-14-7.66515E-13
 -1       109 2.07298E+01-2.40413E-03-5.34941E-03 5.30764E-03-6.11561E-14-3.51870E-13
 -1       110 2.05076E+01-2.06152E-03-4.43109E-03 3.83904E-03-4.37472E-14-4.59680E-13
 -1       111 2.03395E+01-1.70485E-03-3.54044E-03 2.67370E-03 5.08701E-14-6.95853E-13
 -1       112 2.02159E+01-1.37057E-03-2.75006E-03 1.78238E-03-5.22900E-14-3.78565E-13
 -1       113 2.01277E+01-1.07658E-03-2.08682E-03 1.12116E-03 4.74473E-14-9.96559E-14
 -1       114 2.00672E+01-8.29283E-04-1.55365E-03 6.43602E-04-1.73012E-13 3.25167E-13
 -1       115 2.00277E+01-6.26871E-04-1.14159E-03 3.04846E-04 1.09739E-13-2.75679E-13
 -1       116 2.00041E+01-4.63714E-04-8.35431E-04 6.30253E-05-9.60332E-15-5.26815E-13
 -1       117 1.99921E+01-3.30076E-04-6.18760E-04-1.17961E-04 1.01691E-13-1.15138E-12
 -1       118 1.99887E+01-2.06867E-04-4.42108E-04-2.89761E-04-1.83562E-14-1.25970E-12
 -1       119 1.99914E+01-2.99342E-05-1.35281E-04-5.39300E-04 8.46743E-14-1.57579E-12
 -1       120 1.99972E+01 1.35184E-04 4.86046E-04-7.77690E-04 7.14803E-14-1.29408E-12
 -1       121 1.99999E+01-2.83047E-03 3.53711E-04-9.11837E-04-1.05102E-12 1.12060E-13
 -1       122 1.99997E+01-8.00900E-03-3.05570E-04-5.89298E-04-7.35230E-13 7.95335E-14
 -1       123 1.99996E+01-9.16374E-03-4.87110E-04-2.24787E-04 2.00819E-13-1.05837E-13
 -1       124 1.99996E+01-5.51889E-03-3.69479E-04 6.00266E-05-2.15751E-13 7.31435E-14
 -1       125 1.99998E+01 1.55152E-03-1.41836E-04 2.15027E-04 1.11626E-14-3.78543E-13
 -1       126 1.99999E+01 9.62699E-03 8.30028E-05 2.50177E-04-1.09155E-12-1.28660E-13
 -1       127 2.00000E+01 1.66391E-02 2.61338E-04 1.88644E-04-1.12000E-12 1.91848E-13
 -1       128 2.00001E+01 2.05618E-02 3.56824E-04 6.38957E-05-1.09593E-12-1.91995E-13
 -1       129 2.00001E+01 2.03668E-02 3.53812E-04-8.17840E-05-6.10253E-13 1.83559E-13
 -1       130 2.00000E+01 1.60844E-02 2.52283E-04-2.03764E-04-5.63461E-14-2.58314E-14
 -1       131 1.99999E+01 8.80592E-03 6.80048E-05-2.60160E-04-4.20116E-13-1.26871E-13
 -1       132 1.99998E+01 6.11718E-04-1.61355E-04-2.15699E-04 1.15965E-14 1.50331E-13
 -1       133 1.99996E+01-6.38495E-03-3.85335E-04-4.69636E-05 7.90942E-13 1.67439E-13
 -1       134 1.99996E+01-9.81208E-03-5.11549E-04 2.33172E-04 8.73290E-13-4.76802E-14
 -1       135 1.99997E+01-8.33749E-03-2.86927E-04 8.46906E-04-3.60389E-13-2.30380E-13
 -1       136 1.99998E+01-3.01572E-03 3.54893E-04 1.28391E-03-8.29992E-13 3.89640E-14
 -1       137-1.37731E+00-1.95460E+01-3.05467E+00-3.79169E+00 5.78926E-13 1.16965E-13
 -1       138-1.46978E+00-8.02294E+00-2.23810E+00-2.81894E+00 1.44956E-12 6.26332E-13
 -1       139 3.26989E+00 4.05755E+00-1.01120E+00 3.87775E+00 1.73811E-12 1.40427E-12
 -1       140 1.56421E+01 1.05386E+01 3.95347E-01 1.27350E+01 1.72157E-12 1.67116E-12
 -1       141 3.46543E+01 1.00518E+01 1.80691E+00 1.81665E+01 8.27088E-13 1.76681E-12
 -1       142 5.35409E+01 5.14924E+00 2.90564E+00 1.53925E+01 4.00763E-13 1.24156E-12
 -1       143 6.46991E+01 1.27625E+00 3.48721E+00 4.92181E+00 6.46497E-14 8.28657E-13
 -1       144 6.25917E+01 2.04309E+00 3.38201E+00-8.72973E+00-2.03644E-14 4.49391E-13
 -1       145 4.74220E+01 7.09884E+00 2.56575E+00-1.74528E+01 5.08260E-13-1.03156E-12
 -1       146 2.66047E+01 1.09474E+01 1.26390E+00-1.67053E+01 1.09540E-12-1.71912E-12
 -1       147 9.66098E+00 8.65430E+00-1.85563E-01-9.17564E+00 1.46488E-12-1.38117E-12
 -1       148 3.19748E-01-8.98216E-01-1.56780E+00-3.34305E-01 1.35392E-12-9.61675E-13
 -1       149-1.73351E+00-1.32355E+01-2.61686E+00 3.94129E+00 7.84872E-13-1.85033E-13
 -1       150-9.93623E-01-2.24247E+01-3.22620E+00 2.74465E+00-1.12521E-13-9.09676E-14
 -1       151-8.64286E-01-2.38941E+01-3.34144E+00-1.76063E+00-9.43315E-13-4.92176E-14
 -1       152-1.73875E+00-1.60873E+01-2.86650E+00-4.21346E+00-1.47088E-12-4.97866E-13
 -1       153-7.94924E-01-3.96460E+00-1.92697E+00-1.36472E+00-1.51446E-12-8.51180E-13
 -1       154 2.23850E+01 1.10185E+01 9.20378E-01 1.54644E+01-1.02812E-12-1.50563E-12
 -1       155 4.28375E+01 8.40152E+00 2.31262E+00 1.82692E+01-5.88724E-13-1.38178E-12
 -1       156 6.02126E+01 3.25009E+00 3.33476E+00 1.22161E+01-1.16109E-13-5.59552E-14
 -1       157 6.69584E+01 8.38298E-01 3.70712E+00-1.14432E+00 8.69270E-14 7.18089E-13
 -1       158 5.82642E+01 3.97378E+00 3.23828E+00-1.35882E+01-2.93529E-13 1.14203E-12
 -1       159 3.85055E+01 9.25916E+00 2.06463E+00-1.82493E+01-7.39853E-13 1.40871E-12
 -1       160 1.79744E+01 1.06881E+01 5.32341E-01-1.37323E+01-1.32994E-12 1.70070E-12
 -1       161 3.28698E+00 3.82386E+00-1.06612E+00-3.84212E+00-2.10088E-12 1.50363E-12
 -1       162-1.63613E+00-8.38809E+00-2.31552E+00 3.14457E+00-2.59670E-12 1.13082E-12
 -1       163-1.40080E+00-2.01476E+01-3.12298E+00 3.92013E+00-1.34873E-12 3.05173E-13
 -1       164 2.10009E+01 3.68078E+00-5.66041E-02-3.56176E+00-1.69149E-13 1.78149E-13
 -1       165 2.00083E+01 4.20395E+00-4.51737E-02-2.75501E+00-1.71901E-13-1.69136E-14
 -1       166 1.95348E+01 4.48566E+00-3.12985E-02-2.13775E+00-1.31971E-13-1.43052E-13
 -1       167 1.92946E+01 4.63307E+00-2.34405E-02-1.61930E+00-1.04570E-13-2.10260E-13
 -1       168 1.91559E+01 4.72508E+00-1.91525E-02-1.17099E+00-7.83909E-14-2.44887E-13
 -1       169 1.90729E+01 4.78309E+00-1.69568E-02-7.56845E-01-5.30197E-14-2.54772E-13
 -1       170 1.90286E+01 4.81543E+00-1.58884E-02-3.68330E-01-1.43816E-14-2.49993E-13
 -1       171 1.90150E+01 4.82542E+00-1.55789E-02 8.01250E-03 2.14198E-14-2.57920E-13
 -1       172 1.90300E+01 4.81392E+00-1.59295E-02 3.84731E-01 5.10704E-14-2.68416E-13
 -1       173 1.90761E+01 4.77968E+00-1.70298E-02 7.74406E-01 6.42996E-14-2.70111E-13
 -1       174 1.91595E+01 4.72004E+00-1.92606E-02 1.18351E+00 8.63092E-14-2.32606E-13
 -1       175 1.93026E+01 4.62351E+00-2.36237E-02 1.64276E+00 1.33571E-13-1.82162E-13
 -1       176 1.95508E+01 4.46698E+00-3.24357E-02 2.16924E+00 1.78677E-13-1.14965E-13
 -1       177 2.00297E+01 4.18038E+00-4.66032E-02 2.79260E+00 2.01040E-13 1.29931E-14
 -1       178 2.11206E+01 3.45210E+00-5.90865E-02 3.48929E+00 1.82788E-13 2.41814E-13
 -1       179 2.23667E+01 1.13759E+00-3.34686E-01 2.97971E+00 1.23145E-13 5.55028E-13
 -1       180 2.19383E+01 8.54145E-01 7.20661E-04-1.92402E+00-1.41415E-13 4.15102E-13
 -1       181 2.04481E+01 1.90544E-01-9.67651E-03-7.30112E-01-1.15942E-13 3.38398E-13
 -1       182 1.97128E+01 1.04800E-01 1.38561E-02-2.46392E-01-9.52190E-14 2.78702E-13
 -1       183 1.94241E+01 5.28437E-02 1.03870E-02-1.66148E-02-6.37500E-14 2.08468E-13
 -1       184 1.93619E+01 3.08809E-02 5.69296E-03 1.09390E-01-3.97182E-14 1.38741E-13
 -1       185 1.94391E+01 2.09342E-02 3.12654E-03 1.88185E-01-6.16123E-14 1.53016E-13
 -1       186 1.96091E+01 1.71860E-02 2.00353E-03 2.45440E-01-4.05300E-14 1.40786E-13
 -1       187 1.98490E+01 1.71853E-02 1.55443E-03 2.95315E-01-6.25823E-14 9.73403E-14
 -1       188 2.01496E+01 1.96063E-02 1.38627E-03 3.46475E-01-6.39226E-14 6.32864E-14
 -1       189 2.05098E+01 2.34058E-02 1.30626E-03 4.04153E-01-4.07246E-14 5.08925E-14
 -1       190 2.09326E+01 2.73474E-02 1.18073E-03 4.70427E-01-6.14786E-14-4.00421E-14
 -1       191 2.14211E+01 2.95530E-02 8.74944E-04 5.43282E-01-6.48841E-15-4.09337E-14
 -1       192 2.19745E+01 2.69745E-02 2.44529E-04 6.14507E-01 1.53682E-14 1.12769E-14
 -1       193 2.25809E+01 1.48628E-02-8.25361E-04 6.66374E-01 2.14751E-15 8.86032E-15
 -1       194 2.32098E+01-1.33059E-02-2.32229E-03 6.67745E-01-4.67709E-15 5.09794E-14
 -1       195 2.38023E+01-6.42284E-02-3.95034E-03 5.72119E-01 8.05996E-15 1.18826E-13
 -1       196 2.42640E+01-1.39271E-01-4.99757E-03 3.24012E-01-1.81877E-14 1.16543E-13
 -1       197 2.44679E+01-2.23138E-01-4.53237E-03-1.15337E-01-1.06768E-14 1.15170E-13
 -1       198 2.42823E+01-2.70724E-01-2.30819E-03-7.13718E-01-4.21893E-14 1.13833E-13
 -1       199 2.36390E+01-2.10523E-01 7.35407E-04-1.30126E+00 2.55425E-14-1.80151E-14
 -1       200 2.26369E+01 3.82614E-03 1.38681E-03-1.56377E+00 1.42299E-13-2.03292E-14
 -1       201 2.16176E+01 3.02102E-01-2.37583E-03-1.20552E+00-2.06779E-15 8.82220E-14
 -1       202 2.10668E+01 4.86043E-01-5.62401E-03-2.53575E-01-2.84182E-14 1.05309E-13
 -1       203 2.12899E+01 4.12446E-01-2.81960E-03 8.35740E-01-9.10643E-15 2.01996E-13
 -1       204 2.21633E+01 1.39479E-01 9.44202E-04 1.49500E+00-5.22677E-14 1.21934E-13
 -1       205 2.32392E+01-1.30519E-01 1.35543E-03 1.49206E+00-9.43618E-14-4.33629E-14
 -1       206 2.40845E+01-2.60189E-01-1.24471E-03 1.01094E+00-9.28316E-14 3.34593E-14
 -1       207 2.44925E+01-2.51600E-01-3.73795E-03 3.89975E-01 1.54341E-13-1.00246E-13
 -1       208 2.44707E+01-1.75772E-01-4.94749E-03-1.27177E-01 6.78693E-14-8.15494E-14
 -1       209 2.41351E+01-9.25965E-02-4.39622E-03-4.52864E-01-9.62401E-14-1.85591E-13
 -1       210 2.36215E+01-2.96029E-02-2.88964E-03-6.02241E-01-1.83275E-13-1.78127E-13
 -1       211 2.30420E+01 8.82526E-03-1.25762E-03-6.28059E-01-2.14411E-13-3.56756E-13
 -1       212 2.24720E+01 2.79440E-02 2.77384E-05-5.82624E-01 1.26857E-13-2.07258E-13
 -1       213 2.19547E+01 3.46638E-02 8.40270E-04-5.04318E-01 2.66021E-13-2.17123E-13
 -1       214 2.15095E+01 3.44794E-02 1.24182E-03-4.16965E-01-6.75602E-14-4.05761E-13
 -1       215 2.11406E+01 3.09872E-02 1.35562E-03-3.33494E-01-4.75238E-14-3.24091E-13
 -1       216 2.08438E+01 2.62818E-02 1.29790E-03-2.59855E-01 1.25929E-13-2.14016E-13
 -1       217 2.06106E+01 2.14710E-02 1.15416E-03-1.97970E-01 9.40324E-14 8.87435E-14
 -1       218 2.04313E+01 1.70780E-02 9.78934E-04-1.47650E-01-8.49330E-14 2.10459E-13
 -1       219 2.02963E+01 1.33042E-02 8.03324E-04-1.07718E-01-2.68377E-13-3.66484E-14
 -1       220 2.01967E+01 1.01857E-02 6.43031E-04-7.66448E-02-7.33164E-14-2.48257E-13
 -1       221 2.01251E+01 7.68036E-03 5.04424E-04-5.28637E-02 2.92896E-13-5.99038E-14
 -1       222 2.00750E+01 5.71464E-03 3.88332E-04-3.49296E-02 1.29182E-13 4.00824E-13
 -1       223 2.00413E+01 4.20601E-03 2.92044E-04-2.15806E-02 1.11886E-13 3.22591E-13
 -1       224 2.00199E+01 3.07050E-03 2.10373E-04-1.17625E-02 1.86358E-13 2.24051E-13
 -1       225 2.00075E+01 2.20739E-03 1.39590E-04-4.64899E-03-1.71774E-14 7.92895E-14
 -1       226 2.00014E+01 1.44094E-03 9.30976E-05 2.56058E-04 2.24878E-13 1.27912E-13
 -1       227 1.99993E+01 4.35069E-04 7.75367E-05 2.96813E-03 8.30589E-14 2.94934E-13
 -1       228 2.09397E+01 2.76051E-01-5.07897E-02 1.13606E+00 1.43635E-13 4.76148E-13
 -1       229 1.98817E+01 1.27829E-01 8.54873E-03 4.13786E-01 1.18718E-13 3.63887E-13
 -1       230 1.94194E+01 6.07733E-02 1.29156E-02 1.14317E-01 9.97293E-14 2.56744E-13
 -1       231 1.92664E+01 3.21216E-02 7.84765E-03-3.65486E-02 7.90091E-14 2.09812E-13
 -1       232 1.92917E+01 1.92682E-02 4.10157E-03-1.22598E-01 2.76145E-14 2.09018E-13
 -1       233 1.94275E+01 1.33055E-02 2.23783E-03-1.77720E-01-3.65549E-14 2.32014E-13
 -1       234 1.96383E+01 1.09106E-02 1.36911E-03-2.18436E-01 1.68803E-14 2.15860E-13
 -1       235 1.99066E+01 1.05121E-02 9.09820E-04-2.53672E-01 6.95113E-14 1.96657E-13
 -1       236 2.02243E+01 1.10907E-02 5.94408E-04-2.88190E-01 8.63834E-14 7.26067E-14
 -1       237 2.05880E+01 1.16986E-02 3.05298E-04-3.23588E-01 1.98043E-14 1.25295E-13
 -1       238 2.09946E+01 1.11996E-02-1.65971E-05-3.58190E-01 5.45955E-14 6.97401E-14
 -1       239 2.14371E+01 8.09183E-03-3.90138E-04-3.86305E-01 1.05187E-13 5.74678E-14
 -1       240 2.18993E+01 4.37591E-04-7.76064E-04-3.97160E-01 4.75345E-14 5.56417E-14
 -1       241 2.23506E+01-1.39338E-02-1.04560E-03-3.74094E-01-6.64183E-14 5.23507E-14
 -1       242 2.27412E+01-3.66067E-02-9.69324E-04-2.95305E-01-3.36059E-15 2.43540E-14
 -1       243 2.30002E+01-6.67239E-02-3.01433E-04-1.38502E-01 1.07664E-13-5.59468E-14
 -1       244 2.30425E+01-9.80109E-02 1.01096E-03 1.07608E-01 1.47523E-13-6.64856E-14
 -1       245 2.27909E+01-1.15951E-01 2.50997E-03 4.23859E-01-8.90950E-14-7.37986E-14
 -1       246 2.22160E+01-9.92816E-02 3.01085E-03 7.39224E-01-1.68916E-13 2.25514E-16
 -1       247 2.13880E+01-3.22699E-02 1.21060E-03 9.28713E-01-4.61720E-14-2.67755E-14
 -1       248 2.05065E+01 7.43076E-02-2.72116E-03 8.59931E-01 1.30937E-13-1.21743E-14
 -1       249 1.98602E+01 1.74097E-01-6.23476E-03 4.86171E-01 1.55815E-13-1.08569E-13
 -1       250 1.97005E+01 2.09333E-01-6.18084E-03-8.39445E-02-8.65393E-14-3.20099E-13
 -1       251 2.00975E+01 1.56601E-01-2.50831E-03-6.19994E-01-1.28752E-13-2.74031E-13
 -1       252 2.08917E+01 5.18276E-02 2.14306E-03-9.15286E-01-1.02714E-14-1.13897E-13
 -1       253 2.17969E+01-4.77489E-02 4.40360E-03-9.06039E-01 2.70903E-14-2.21385E-14
 -1       254 2.25505E+01-1.02924E-01 3.91125E-03-6.72046E-01 2.20258E-14-6.60938E-14
 -1       255 2.30091E+01-1.10787E-01 1.77730E-03-3.50872E-01-2.30913E-14-1.69838E-13
 -1       256 2.31525E+01-8.90460E-02-3.39227E-04-5.47205E-02 1.06460E-13-1.54766E-13
 -1       257 2.30388E+01-5.76310E-02-1.51429E-03 1.60764E-01 9.83653E-15-1.51650E-13
 -1       258 2.27539E+01-2.89887E-02-1.74738E-03 2.86939E-01-9.48162E-14-1.11132E-13
 -1       259 2.23793E+01-7.92374E-03-1.40435E-03 3.39612E-01 2.82617E-14-2.29982E-13
 -1       260 2.19783E+01 5.29704E-03-8.57793E-04 3.41621E-01 4.83882E-14-1.31572E-13
 -1       261 2.15928E+01 1.22944E-02-3.41943E-04 3.13711E-01 1.39292E-14-1.17257E-13
 -1       262 2.12465E+01 1.50359E-02 4.49049E-05 2.71365E-01 1.99077E-13-7.19198E-14
 -1       263 2.09503E+01 1.51802E-02 2.88905E-04 2.24761E-01 4.51974E-14-1.96999E-13
 -1       264 2.07061E+01 1.39194E-02 4.14420E-04 1.79884E-01-1.48382E-13-2.32173E-13
 -1       265 2.05110E+01 1.20294E-02 4.55797E-04 1.39805E-01 9.47154E-14-2.07380E-13
 -1       266 2.03591E+01 9.97731E-03 4.44115E-04 1.05738E-01 2.02612E-14 9.96027E-14
 -1       267 2.02440E+01 8.02172E-03 4.02948E-04 7.78046E-02-2.54528E-13 2.66835E-13
 -1       268 2.01591E+01 6.28973E-03 3.48294E-04 5.55336E-02-4.96994E-14 3.34745E-13
 -1       269 2.00982E+01 4.83001E-03 2.89899E-04 3.81832E-02-6.91526E-14 2.27354E-13
 -1       270 2.00561E+01 3.64812E-03 2.33050E-04 2.49263E-02 5.02858E-13-1.23302E-13
 -1       271 2.00284E+01 2.71768E-03 1.78712E-04 1.49570E-02 1.33532E-13-4.25605E-13
 -1       272 2.00116E+01 1.99945E-03 1.25624E-04 7.58623E-03 2.40785E-13-4.32314E-13
 -1       273 2.00027E+01 1.45617E-03 7.94852E-05 2.24976E-03-8.94093E-15-2.94744E-13
 -1       274 1.99993E+01 9.38116E-04 8.70084E-05-1.34939E-03 7.84183E-14-3.54611E-13
 -1       275 1.99991E+01-1.87064E-04 1.73095E-04-2.78438E-03-2.67230E-13-1.92540E-13
 -1       276 2.00005E+01-6.10280E-04 5.86361E-05-2.33833E-03-1.66312E-13 3.42853E-13
 -1       277 2.00013E+01 1.06851E-03 1.12492E-05 3.92107E-04-1.25442E-13 4.64374E-13
 -1       278 2.00011E+01 5.18139E-03 1.14735E-06 3.74972E-03-9.56339E-14-2.18795E-13
 -1       279 2.00005E+01 1.12819E-02 9.24138E-07 6.07995E-03-6.73730E-14-2.53722E-14
 -1       280 1.99998E+01 1.81366E-02-1.28708E-05 6.74873E-03-4.35520E-13-7.34915E-13
 -1       281 1.99991E+01 2.45445E-02-2.78356E-05 5.66527E-03-2.83352E-13-6.20859E-14
 -1       282 1.99986E+01 2.89919E-02-4.06810E-05 3.15156E-03-4.15857E-13 2.82793E-13
 -1       283 1.99984E+01 3.05142E-02-4.53251E-05-1.42073E-04-8.42154E-14 1.25369E-13
 -1       284 1.99986E+01 2.87750E-02-4.03347E-05-3.41354E-03-7.72744E-14 2.09228E-13
 -1       285 1.99991E+01 2.41410E-02-2.75163E-05-5.86147E-03-6.15606E-14-8.72355E-14
 -1       286 1.99998E+01 1.77358E-02-1.08874E-05-6.83748E-03-3.47675E-14 2.29113E-13
 -1       287 2.00006E+01 1.07224E-02 8.15671E-07-6.04307E-03 2.23076E-13 4.87631E-13
 -1       288 2.00012E+01 4.66334E-03-1.63025E-06-3.54809E-03 5.05537E-14 2.04649E-13
 -1       289 2.00012E+01 9.42378E-04 4.16968E-05-3.05273E-04-6.94003E-14-5.16961E-13
 -1       290 2.00014E+01 8.10155E-04 2.81088E-05 1.96223E-03-1.76656E-14-4.85453E-13
 -1       291-8.53733E-01-1.07530E+01-9.91865E-01 1.17545E+00-1.34351E-13 5.47090E-13
 -1       292 2.82950E+00-8.20757E+00-7.52659E-01 3.62948E+00 2.91378E-13 7.46424E-13
 -1       293 9.30255E+00-4.70194E+00-5.06202E-01 5.56122E+00 7.19147E-13 7.56326E-13
 -1       294 1.84675E+01-7.34887E-01-1.03339E-01 7.22740E+00 7.27002E-13 7.38382E-13
 -1       295 2.89343E+01 2.32774E+00 3.03206E-01 7.32676E+00 7.60725E-13 7.65055E-13
 -1       296 3.83401E+01 4.98524E+00 7.18201E-01 6.36365E+00 4.98114E-13 6.55642E-13
 -1       297 4.40240E+01 6.39572E+00 8.84944E-01 3.09476E+00 3.83540E-13 4.41813E-13
 -1       298 4.51041E+01 6.99875E+00 8.83010E-01-5.19613E-01 2.46275E-13 2.63616E-13
 -1       299 4.31571E+01 5.95078E+00 9.06225E-01-4.59363E+00 6.37226E-13 1.66422E-13
 -1       300 3.46998E+01 3.81326E+00 4.79084E-01-6.17983E+00 5.56052E-13-1.31672E-13
 -1       301 2.48607E+01 9.58522E-01 1.40851E-01-7.41193E+00 4.73954E-13-4.96631E-13
 -1       302 1.47670E+01-2.67201E+00-2.50304E-01-6.70471E+00 4.78201E-13-5.09343E-13
 -1       303 6.09721E+00-6.42660E+00-6.45929E-01-4.63666E+00 3.10918E-13-6.43784E-13
 -1       304 1.05578E+00-9.22568E+00-8.18273E-01-2.74921E+00 1.67089E-14-5.32574E-13
 -1       305-1.25418E+00-1.10506E+01-9.98761E-01-4.21833E-01-2.46324E-13-3.90799E-13
 -1       306 2.00433E-01-9.40239E+00-8.00108E-01 2.14243E+00-4.29989E-13-3.97168E-13
 -1       307 4.66318E+00-7.46118E+00-7.38824E-01 3.99775E+00-5.43815E-13-2.75336E-13
 -1       308 1.22465E+01-3.54600E+00-4.06645E-01 6.05357E+00-5.54501E-13-2.67550E-13
 -1       309 2.24318E+01 3.66663E-01 4.52181E-02 7.46687E+00-3.77365E-13-5.98327E-13
 -1       310 3.30595E+01 3.17633E+00 4.49842E-01 6.80851E+00-4.19706E-13-1.65368E-13
 -1       311 4.19016E+01 5.49414E+00 8.66323E-01 5.30530E+00-5.11244E-13 8.65974E-15
 -1       312 4.62552E+01 6.70175E+00 1.02367E+00 1.57930E+00-4.13530E-13 2.55643E-13
 -1       313 4.65078E+01 6.42170E+00 1.06620E+00-2.29855E+00-2.98289E-13 6.96526E-13
 -1       314 3.97688E+01 5.08503E+00 6.86872E-01-4.76324E+00-4.19248E-13 7.49401E-13
 -1       315 3.08112E+01 2.73922E+00 3.83378E-01-7.36225E+00-5.54806E-13 6.07403E-13
 -1       316 2.01924E+01-1.41454E+00-8.11506E-02-6.96423E+00-7.17898E-13 3.48138E-13
 -1       317 9.33635E+00-4.91094E+00-5.30231E-01-5.41447E+00-8.88400E-13 4.37955E-13
 -1       318 2.39290E+00-8.73674E+00-8.65214E-01-3.04536E+00-7.14651E-13 8.30669E-13
 -1       319-9.22717E-01-1.09168E+01-1.01288E+00-8.86198E-01-5.29507E-13 5.40692E-13
 -1       320 2.01735E+01 3.02567E+00-1.77394E-02-2.04243E+00-1.63788E-13-4.06411E-14
 -1       321 2.07690E+01 2.20821E+00-1.75549E-02-2.30478E+00-1.76872E-13 9.24018E-14
 -1       322 1.95982E+01 3.73641E+00-1.53829E-02-1.25452E+00-1.17384E-13-1.64156E-13
 -1       323 1.94619E+01 3.90801E+00-1.33607E-02-8.72475E-01-8.11326E-14-1.85858E-13
 -1       324 1.93804E+01 4.01034E+00-1.22951E-02-5.10860E-01-3.33670E-14-1.70138E-13
 -1       325 1.93427E+01 4.05752E+00-1.18398E-02-1.62238E-01 6.09364E-15-1.91643E-13
 -1       326 1.93440E+01 4.05561E+00-1.18599E-02 1.82194E-01 4.41379E-14-1.91096E-13
 -1       327 1.93845E+01 4.00437E+00-1.23491E-02 5.31364E-01 6.94107E-14-2.16781E-13
 -1       328 1.94674E+01 3.89971E+00-1.34362E-02 8.87599E-01 9.21116E-14-1.85400E-13
 -1       329 1.96082E+01 3.72209E+00-1.54170E-02 1.26928E+00 1.42996E-13-1.26968E-13
 -1       330 1.98343E+01 3.43622E+00-1.86751E-02 1.66916E+00 1.91966E-13-6.76074E-14
 -1       331 2.02067E+01 2.96525E+00-2.27154E-02 2.05949E+00 2.27424E-13-1.69855E-14
 -1       332 2.07617E+01 2.12846E+00-3.01487E-02 2.26434E+00 2.21626E-13 1.19285E-13
 -1       333 2.10922E+01 1.18516E+00-2.44996E-02 1.87579E+00 1.88924E-13 2.51368E-13
 -1       334 2.04167E+01 4.93437E-01 8.56009E-03 8.76392E-01 1.62365E-13 1.66715E-13
 -1       335 2.04969E+01 6.85339E-01 1.27569E-02-9.59091E-01-1.40204E-13 1.23195E-13
 -1       336 2.01106E+01 3.56682E-01 7.42105E-03-3.73131E-01-1.24694E-13 1.14372E-13
 -1       337 1.99041E+01 2.06139E-01 4.51211E-03-3.56653E-02-7.35641E-14 8.56501E-14
 -1       338 1.98314E+01 1.31580E-01 2.38872E-03 1.75349E-01-5.21661E-14 3.63923E-14
 -1       339 1.98583E+01 9.58511E-02 1.43192E-03 3.19735E-01-4.56109E-14 4.93969E-14
 -1       340 1.99597E+01 8.23527E-02 1.08538E-03 4.31541E-01-4.12416E-14 2.58110E-14
 -1       341 2.01204E+01 8.26945E-02 1.01113E-03 5.31583E-01-5.94041E-14 3.30725E-14
 -1       342 2.03322E+01 9.14803E-02 1.05063E-03 6.32854E-01-6.49840E-14 3.60409E-15
 -1       343 2.05919E+01 1.03808E-01 1.10799E-03 7.42493E-01-9.04583E-14-2.18549E-14
 -1       344 2.08990E+01 1.13525E-01 1.08627E-03 8.61687E-01-1.75020E-14-8.39097E-15
 -1       345 2.12542E+01 1.11511E-01 8.58157E-04 9.83909E-01-1.35724E-14 2.50554E-14
 -1       346 2.16580E+01 8.39161E-02 2.58530E-04 1.09159E+00 5.18124E-15 3.42268E-14
 -1       347 2.21089E+01 1.11348E-02-8.89739E-04 1.15150E+00 2.04352E-14 8.88912E-14
 -1       348 2.26019E+01-1.29980E-01-2.69804E-03 1.11033E+00-1.74952E-14 1.04408E-14
 -1       349 2.31239E+01-3.55308E-01-5.00524E-03 8.94878E-01 3.62015E-15 2.90744E-14
 -1       350 2.36423E+01-6.46483E-01-7.01990E-03 4.27109E-01 1.15099E-14 1.55892E-13
 -1       351 2.40844E+01-9.06625E-01-7.52293E-03-3.29034E-01 2.30211E-14 2.02883E-13
 -1       352 2.43188E+01-9.29195E-01-6.57282E-03-1.27420E+00-7.15031E-15 2.63533E-13
 -1       353 2.41949E+01-4.67877E-01-4.16573E-03-2.06921E+00 6.19509E-14 3.08436E-13
 -1       354 2.36903E+01 5.01175E-01-6.70755E-03-2.16685E+00 9.33116E-14 1.23078E-13
 -1       355 2.31175E+01 1.48217E+00-1.55989E-02-1.18701E+00-2.86403E-14 1.17437E-13
 -1       356 2.29805E+01 1.72041E+00-1.31664E-02 4.78332E-01 4.35867E-14 1.66799E-13
 -1       357 2.34201E+01 9.92177E-01-6.84415E-03 1.86592E+00-6.98144E-14 8.28996E-14
 -1       358 2.40191E+01-7.16098E-02-5.28313E-03 2.24940E+00-2.44746E-13-5.77550E-14
 -1       359 2.43396E+01-7.86940E-01-7.36100E-03 1.70665E+00 2.12718E-14-1.55783E-13
 -1       360 2.42643E+01-9.56991E-01-7.65570E-03 7.74793E-01-5.85035E-15 7.51356E-14
 -1       361 2.39096E+01-7.70002E-01-7.67361E-03-8.42838E-02-4.27176E-15-1.58148E-14
 -1       362 2.34307E+01-4.71683E-01-5.90447E-03-6.73055E-01-6.26125E-14-1.59419E-13
 -1       363 2.29262E+01-2.08308E-01-3.52777E-03-9.81139E-01-1.65085E-13-1.00159E-14
 -1       364 2.24442E+01-2.74359E-02-1.43597E-03-1.07598E+00-3.32093E-13 5.48651E-14
 -1       365 2.20052E+01 7.56593E-02 1.85898E-05-1.03647E+00 1.29441E-14 1.32452E-13
 -1       366 2.16171E+01 1.22739E-01 8.59851E-04-9.25984E-01 8.87471E-14 6.19269E-14
 -1       367 2.12824E+01 1.35217E-01 1.23931E-03-7.87311E-01-3.89899E-14-5.38435E-14
 -1       368 2.09998E+01 1.28876E-01 1.32215E-03-6.46046E-01-8.30791E-14-1.43680E-13
 -1       369 2.07662E+01 1.13815E-01 1.24090E-03-5.15743E-01 1.73460E-13 1.20706E-13
 -1       370 2.05769E+01 9.58947E-02 1.08441E-03-4.02364E-01 3.47089E-13 2.75384E-13
 -1       371 2.04262E+01 7.82321E-02 9.05586E-04-3.07453E-01 1.89217E-13 1.75825E-13
 -1       372 2.03086E+01 6.23018E-02 7.32683E-04-2.30201E-01-1.17291E-13 4.38390E-13
 -1       373 2.02184E+01 4.86593E-02 5.78848E-04-1.68688E-01-2.53875E-13 6.81326E-13
 -1       374 2.01506E+01 3.73745E-02 4.48616E-04-1.20601E-01 7.71450E-14 6.55161E-13
 -1       375 2.01007E+01 2.82809E-02 3.42067E-04-8.36170E-02 3.82212E-13 2.50140E-13
 -1       376 2.00649E+01 2.11105E-02 2.56773E-04-5.55998E-02 7.97936E-14 3.55254E-13
 -1       377 2.00398E+01 1.55515E-02 1.88563E-04-3.46933E-02-5.66730E-14 2.93916E-13
 -1       378 2.00229E+01 1.12600E-02 1.35843E-04-1.93892E-02-2.09335E-13 2.55348E-13
 -1       379 2.00119E+01 7.79526E-03 1.07068E-04-8.50579E-03-6.91579E-14 4.76004E-14
 -1       380 2.00054E+01 4.44655E-03 3.13024E-05-1.75414E-03 1.31430E-13-3.22613E-13
 -1       381 1.99525E+01 2.38293E-01 1.10050E-02 3.35748E-01 1.50920E-13 1.31346E-13
 -1       382 1.97130E+01 1.30889E-01 6.49134E-03 3.73344E-02 7.95757E-14 1.03071E-13
 -1       383 1.96429E+01 7.92713E-02 3.24496E-03-1.39668E-01 4.39602E-14 1.19704E-13
 -1       384 1.96876E+01 5.40531E-02 1.74249E-03-2.53938E-01-1.33509E-14 6.87992E-14
 -1       385 1.98130E+01 4.27198E-02 1.13687E-03-3.36500E-01 4.51321E-15 4.39123E-14
 -1       386 1.99989E+01 3.91300E-02 8.94436E-04-4.04504E-01 8.97039E-14 7.48929E-14
 -1       387 2.02344E+01 3.93702E-02 7.72955E-04-4.67336E-01 1.32807E-13 7.59185E-14
 -1       388 2.05132E+01 4.00028E-02 6.51852E-04-5.28710E-01-1.54034E-14 7.21619E-14
 -1       389 2.08310E+01 3.71492E-02 4.39640E-04-5.86909E-01 4.09089E-14 3.56041E-14
 -1       390 2.11824E+01 2.59234E-02 4.82189E-05-6.33970E-01 8.92238E-14 8.09602E-14
 -1       391 2.15574E+01 2.62981E-04-5.96985E-04-6.54367E-01 9.85467E-14 4.75950E-14
 -1       392 2.19387E+01-4.63771E-02-1.52375E-03-6.24045E-01-3.72266E-14 9.15262E-15
 -1       393 2.22980E+01-1.18513E-01-2.64791E-03-5.11503E-01-4.10494E-14-3.34480E-14
 -1       394 2.25933E+01-2.13103E-01-3.71503E-03-2.84022E-01 1.04154E-13 6.50593E-14
 -1       395 2.27690E+01-3.10950E-01-4.33490E-03 7.68770E-02 1.09318E-13 4.16931E-14
 -1       396 2.27624E+01-3.68529E-01-3.96965E-03 5.48666E-01-3.99904E-14 1.45869E-13
 -1       397 2.25234E+01-3.21272E-01-2.35255E-03 1.03577E+00-1.28987E-13 3.82680E-14
 -1       398 2.20545E+01-1.17983E-01-8.08184E-05 1.35822E+00-4.87574E-14 9.04268E-15
 -1       399 2.14621E+01 2.15231E-01 1.91586E-03 1.30884E+00 1.06031E-13-3.54274E-15
 -1       400 2.09626E+01 5.38207E-01 3.18287E-03 7.91796E-01 2.62961E-13 2.06959E-14
 -1       401 2.07881E+01 6.67703E-01 4.83671E-03-5.33991E-02 2.08219E-14 1.99347E-15
 -1       402 2.10348E+01 5.14178E-01 5.32785E-03-8.79490E-01-1.75453E-13-1.86066E-13
 -1       403 2.15774E+01 1.84107E-01 4.32147E-03-1.35106E+00-7.64111E-14-1.86769E-13
 -1       404 2.21768E+01-1.41382E-01 8.41858E-04-1.35518E+00-6.97793E-15-1.55857E-13
 -1       405 2.26276E+01-3.28353E-01-2.21908E-03-1.00804E+00 5.40247E-14 3.44423E-14
 -1       406 2.28430E+01-3.62041E-01-4.30619E-03-5.20081E-01-1.51962E-15-7.81213E-14
 -1       407 2.28332E+01-2.96261E-01-4.82965E-03-6.46214E-02 9.10550E-14 3.76264E-14
 -1       408 2.26559E+01-1.95350E-01-4.05264E-03 2.71261E-01-6.66459E-15 1.17355E-13
 -1       409 2.23757E+01-1.00870E-01-2.73491E-03 4.71882E-01 2.24276E-14-1.12499E-13
 -1       410 2.20468E+01-2.98685E-02-1.40870E-03 5.58951E-01 7.94010E-15-2.98816E-13
 -1       411 2.17093E+01 1.56965E-02-3.60163E-04 5.65917E-01-4.06894E-14-2.72764E-13
 -1       412 2.13893E+01 4.05255E-02 3.36756E-04 5.24140E-01 1.12591E-14-8.28174E-14
 -1       413 2.11020E+01 5.08430E-02 7.25157E-04 4.57691E-01 1.86128E-13 9.03716E-14
 -1       414 2.08544E+01 5.20929E-02 8.86947E-04 3.82867E-01 1.14884E-13 1.56908E-13
 -1       415 2.06478E+01 4.82910E-02 9.02271E-04 3.09596E-01-2.40105E-13 6.80656E-14
 -1       416 2.04801E+01 4.21131E-02 8.34237E-04 2.43232E-01-2.09308E-14 5.70363E-14
 -1       417 2.03473E+01 3.52076E-02 7.26609E-04 1.86112E-01-1.73311E-13 8.77386E-14
 -1       418 2.02447E+01 2.85128E-02 6.07018E-04 1.38729E-01-1.77023E-13 2.51599E-13
 -1       419 2.01672E+01 2.25078E-02 4.91340E-04 1.00538E-01-1.15482E-13 3.53894E-15
 -1       420 2.01101E+01 1.73901E-02 3.87527E-04 7.04779E-02 1.68517E-13 5.29165E-14
 -1       421 2.00692E+01 1.31952E-02 2.98163E-04 4.72956E-02 4.85648E-13 1.16757E-13
 -1       422 2.00410E+01 9.85760E-03 2.24265E-04 2.97294E-02 3.46401E-13 4.00971E-15
 -1       423 2.00224E+01 7.21336E-03 1.59795E-04 1.66816E-02 1.41256E-14-5.83608E-14
 -1       424 2.00108E+01 5.13407E-03 1.04908E-04 7.27607E-03-1.81468E-15 3.24593E-13
 -1       425 2.00043E+01 3.12892E-03 6.60057E-05 9.56420E-04-2.86186E-14 4.62689E-13
 -1       426 2.00020E+01 1.65347E-03 2.31492E-05-1.25069E-03-1.44940E-13 3.78270E-13
 -1       427 2.00033E+01 1.90571E-02 2.32435E-05 1.13975E-02 1.34222E-13-1.90083E-14
 -1       428 2.00051E+01 1.10771E-02 4.65978E-05 7.10746E-03-4.37913E-14 2.87131E-13
 -1       429 2.00043E+01 5.36984E-03 3.62647E-05 2.37584E-03-6.92888E-14 5.36653E-13
 -1       430 2.00007E+01 2.74339E-02 5.30291E-06 1.33473E-02-1.26845E-13-7.87559E-13
 -1       431 1.99979E+01 3.53919E-02-1.35196E-05 1.23381E-02 1.59913E-14-4.17195E-14
 -1       432 1.99956E+01 4.15074E-02-3.26552E-05 8.58469E-03-6.96356E-16-1.46507E-13
 -1       433 1.99944E+01 4.48098E-02-4.34261E-05 2.94006E-03-3.43547E-13 2.90082E-13
 -1       434 1.99944E+01 4.47570E-02-4.32960E-05-3.35923E-03-5.45680E-14 2.16999E-13
 -1       435 1.99957E+01 4.13492E-02-3.21585E-05-8.94348E-03-2.38396E-13-9.74857E-14
 -1       436 1.99980E+01 3.52654E-02-1.32195E-05-1.25352E-02 1.08632E-13 1.69553E-13
 -1       437 2.00009E+01 2.72560E-02 6.62748E-06-1.34204E-02 1.46374E-13 6.07799E-13
 -1       438 2.00036E+01 1.86852E-02 2.48368E-05-1.12797E-02-1.59483E-13 2.35711E-13
 -1       439 2.00053E+01 1.05950E-02 3.14592E-05-6.66574E-03-2.73049E-13-3.04352E-13
 -1       440 1.07779E+01-5.39325E+00-1.52766E-02 7.01518E+00-1.20376E-13 4.53075E-13
 -1       441 9.80911E-01-4.55530E+00-8.71299E-02 1.85558E-01-2.44657E-13 7.48512E-13
 -1       442 3.76911E+00-4.39957E+00-2.57227E-02 4.43195E+00-1.10537E-13 8.74120E-13
 -1       443 1.93546E+01-5.38496E+00 1.05993E-03 6.61703E+00 6.24500E-16 1.49880E-13
 -1       444 2.62674E+01-3.08185E+00-9.91639E-03 4.59628E+00 2.49661E-13 2.46123E-13
 -1       445 1.98293E+01 3.45818E+00-1.75019E-02-1.66839E+00-1.52179E-13-1.14183E-13
 -1       446 3.42595E+01 5.01265E+00 1.50401E-02-7.74923E-02 3.65249E-13 1.94858E-13
 -1       447 3.48642E+01 7.84304E+00 7.78601E-03-2.51486E-01 3.61211E-13 2.19602E-13
 -1       448 3.56904E+01 7.22351E+00 7.02999E-02 1.16486E-01 3.73271E-13 7.75283E-14
 -1       449 3.42737E+01 4.03765E+00 6.76906E-02-5.53517E-01 5.84310E-13 3.03785E-13
 -1       450 2.99386E+01-1.08712E+00-6.98685E-03-2.64653E+00 1.94286E-13 2.83024E-13
 -1       451 2.38936E+01-4.50105E+00 1.66659E-03-5.33134E+00 7.98112E-14 1.88877E-14
 -1       452 1.48696E+01-5.54084E+00-4.52648E-02-7.12790E+00-4.81559E-14-3.66756E-13
 -1       453 7.41087E+00-5.31398E+00-5.95620E-02-6.24838E+00-7.83540E-14-5.50976E-13
 -1       454 2.02948E+00-4.65061E+00-7.52142E-02-2.82684E+00 2.47372E-14-5.92124E-13
 -1       455 1.64947E+00-3.97248E+00-2.27338E-02 1.32543E+00-1.36384E-14-4.75314E-13
 -1       456 6.58922E+00-4.89769E+00 3.79731E-03 5.75343E+00 7.10404E-14-1.11036E-13
 -1       457 1.29959E+01-5.77563E+00-8.59123E-02 6.87321E+00-8.35720E-14 1.60948E-14
 -1       458 2.17034E+01-4.72598E+00-3.57706E-02 6.02115E+00-6.93889E-15-3.60961E-14
 -1       459 2.91343E+01-2.20477E+00 4.66033E-04 3.21044E+00 2.03032E-14 1.72376E-13
 -1       460 3.42374E+01 2.63168E+00 8.62478E-02 1.04585E+00-3.87544E-13 3.89883E-13
 -1       461 3.65115E+01 6.46144E+00 1.39712E-01-5.43120E-02-3.99222E-13 3.41768E-13
 -1       462 3.57587E+01 8.04727E+00 6.57137E-02 8.41358E-02-5.65797E-13 4.28439E-13
 -1       463 3.56166E+01 6.28550E+00 7.00659E-02 4.14314E-01-2.95861E-13 4.50626E-13
 -1       464 3.23328E+01 7.75616E-01-4.78277E-02-4.69557E-01-9.34842E-14 3.07657E-13
 -1       465 2.85354E+01-3.00431E+00 1.29098E-02-3.22468E+00-1.08823E-13-8.35859E-14
 -1       466 1.92240E+01-5.55372E+00-3.30372E-02-6.50912E+00-2.31856E-13-1.46681E-13
 -1       467 1.01440E+01-5.62936E+00-6.89648E-02-6.67530E+00-1.22791E-13 2.02949E-13
 -1       468 3.19046E+00-5.21081E+00-1.22259E-01-4.04054E+00-2.69451E-13 5.03791E-13
 -1       469 3.21546E+01 1.09655E+00 4.47645E-02 1.84503E+00 4.14892E-13 1.17628E-13
 -1       470 2.04224E+01 8.52698E-01 4.08003E-03 8.87330E-01 1.63256E-13 2.61028E-14
 -1       471 1.97092E+01 3.20521E+00-5.17992E-03-5.78994E-01-5.37297E-14-1.45708E-13
 -1       472 1.98256E+01 3.01250E+00-5.60371E-03-8.74808E-01-9.09027E-14-1.52130E-13
 -1       473 1.96228E+01 3.34394E+00-4.83481E-03 7.83389E-03 1.41078E-14-1.45306E-13
 -1       474 1.96464E+01 3.30600E+00-4.92461E-03 3.00156E-01 5.74560E-14-1.85947E-13
 -1       475 1.97139E+01 3.19644E+00-5.26069E-03 5.90239E-01 8.50953E-14-1.90875E-13
 -1       476 1.98319E+01 2.99934E+00-5.83906E-03 8.86479E-01 1.33928E-13-1.19568E-13
 -1       477 2.00075E+01 2.69123E+00-6.46057E-03 1.17106E+00 1.61857E-13-7.30267E-14
 -1       478 2.02642E+01 2.22195E+00-5.66906E-03 1.41481E+00 1.90472E-13-3.46606E-14
 -1       479 2.01915E+01 4.87823E-01 5.23000E-03 3.54805E-01 1.19684E-13 4.66761E-14
 -1       480 2.03969E+01 1.00706E+00 2.86120E-03-8.40305E-01-1.34215E-13 1.24009E-14
 -1       481 2.88539E+01-2.49125E+00-5.83662E-02 1.08356E+00 1.18522E-13-4.69000E-14
 -1       482 2.02513E+01 5.98742E-01 2.47111E-03-3.35982E-01-1.16208E-13 1.25122E-14
 -1       483 2.01391E+01 3.78800E-01 1.28871E-03 9.92930E-03-8.64314E-14-7.47071E-15
 -1       484 2.00843E+01 2.62115E-01 7.07860E-04 2.51097E-01-6.82811E-14-1.61381E-14
 -1       485 2.00839E+01 2.05150E-01 4.73275E-04 4.30809E-01-7.15024E-14-3.97680E-14
 -1       486 2.01295E+01 1.85603E-01 4.14059E-04 5.79045E-01-8.26995E-14-7.92151E-14
 -1       487 2.02134E+01 1.89971E-01 4.28935E-04 7.16273E-01-6.80849E-14-8.72969E-14
 -1       488 2.03307E+01 2.07881E-01 4.70182E-04 8.55765E-01-8.73870E-14-5.93657E-14
 -1       489 2.04788E+01 2.28555E-01 5.01941E-04 1.00441E+00-4.15020E-14-1.10829E-14
 -1       490 2.06589E+01 2.37795E-01 4.79124E-04 1.16214E+00 1.09301E-14 1.15780E-14
 -1       491 2.08770E+01 2.14905E-01 3.36437E-04 1.32006E+00 2.54152E-14 5.64665E-14
 -1       492 2.11468E+01 1.29855E-01-1.68470E-05 1.45706E+00-3.54243E-16 3.89749E-14
 -1       493 2.14937E+01-5.71646E-02-6.83525E-04 1.53492E+00-2.05098E-14 5.49192E-14
 -1       494 2.19579E+01-3.88152E-01-1.77285E-03 1.49221E+00 6.38740E-15 1.58824E-13
 -1       495 2.25879E+01-8.80210E-01-3.15507E-03 1.24000E+00 9.00939E-14 1.93931E-13
 -1       496 2.34102E+01-1.46355E+00-3.87290E-03 6.70683E-01 3.78872E-14 2.35249E-13
 -1       497 2.43575E+01-1.88499E+00-3.95430E-03-2.89741E-01 2.50439E-14 1.85553E-13
 -1       498 2.51688E+01-1.65526E+00-1.15895E-02-1.52456E+00 1.81801E-14 2.01409E-13
 -1       499 2.54871E+01-3.15777E-01-2.33941E-02-2.48876E+00-1.57604E-14 1.10265E-13
 -1       500 2.50819E+01 1.92277E+00-3.38697E-02-2.26164E+00-1.06032E-13-6.07995E-14
 -1       501 2.44797E+01 3.40374E+00-1.04562E-01-5.29081E-01 2.04645E-14-1.55837E-13
 -1       502 2.47286E+01 2.80002E+00-9.50303E-02 1.69555E+00-1.26735E-13-3.84728E-13
 -1       503 2.54247E+01 6.46733E-01-2.18403E-02 2.64983E+00-1.40075E-13-3.51180E-13
 -1       504 2.54296E+01-1.17929E+00-1.67950E-02 2.08638E+00-8.97082E-14-2.51570E-14
 -1       505 2.47872E+01-1.89025E+00-7.66916E-03 8.64217E-01 9.61982E-14 3.14631E-14
 -1       506 2.38622E+01-1.68460E+00-5.00638E-03-2.44541E-01-1.00686E-13-6.49466E-14
 -1       507 2.29755E+01-1.12271E+00-3.57104E-03-9.76086E-01-1.79963E-14 6.41210E-14
 -1       508 2.22700E+01-5.67769E-01-2.19985E-03-1.34400E+00-1.78962E-14 1.10514E-13
 -1       509 2.17502E+01-1.57957E-01-9.88076E-04-1.45182E+00-1.69263E-13 1.39995E-14
 -1       510 2.13719E+01 9.37912E-02-1.77720E-04-1.39973E+00-1.73502E-13 1.42743E-13
 -1       511 2.10889E+01 2.23042E-01 3.00453E-04-1.26213E+00-1.44050E-13 7.21480E-14
 -1       512 2.08687E+01 2.71559E-01 5.33284E-04-1.08799E+00 1.29957E-13 7.30996E-14
 -1       513 2.06915E+01 2.72779E-01 6.02651E-04-9.07352E-01 2.57662E-14 2.00998E-13
 -1       514 2.05462E+01 2.49533E-01 5.80109E-04-7.37143E-01 7.39743E-14 4.04651E-13
 -1       515 2.04265E+01 2.15942E-01 5.13897E-04-5.85754E-01 2.55326E-13 1.87802E-13
 -1       516 2.03284E+01 1.80071E-01 4.32734E-04-4.56269E-01 8.70808E-14 5.01134E-14
 -1       517 2.02489E+01 1.46145E-01 3.52068E-04-3.48679E-01 1.98802E-13 9.61448E-14
 -1       518 2.01854E+01 1.16104E-01 2.79240E-04-2.61309E-01-1.28044E-14 3.09234E-13
 -1       519 2.01356E+01 9.05899E-02 2.17035E-04-1.91720E-01-3.76510E-15 5.21411E-13
 -1       520 2.00970E+01 6.95568E-02 1.65678E-04-1.37240E-01-1.61895E-13 4.49847E-13
 -1       521 2.00678E+01 5.26140E-02 1.24833E-04-9.52764E-02 1.94085E-13 4.88837E-14
 -1       522 2.00460E+01 3.92208E-02 9.33042E-05-6.34777E-02-4.08065E-15 2.59997E-13
 -1       523 2.00300E+01 2.87196E-02 6.90321E-05-3.98289E-02-2.48841E-13 3.92922E-13
 -1       524 2.00184E+01 2.04023E-02 5.67272E-05-2.27023E-02-2.55591E-13 1.74543E-13
 -1       525 1.99841E+01 1.93501E-01 1.30838E-03-2.12128E-01 3.36079E-14 8.91973E-16
 -1       526 1.99950E+01 1.41254E-01 7.50645E-04-3.71358E-01 3.86084E-14-2.33895E-14
 -1       527 2.00634E+01 1.17130E-01 5.46685E-04-4.94062E-01 3.52523E-14-6.97672E-14
 -1       528 2.01783E+01 1.08748E-01 4.70160E-04-5.98823E-01 8.80549E-14-3.51273E-14
 -1       529 2.03327E+01 1.06807E-01 4.24022E-04-6.95832E-01 7.04230E-14 4.42319E-14
 -1       530 2.05228E+01 1.02242E-01 3.48724E-04-7.88080E-01 8.24299E-14-4.44835E-15
 -1       531 2.07472E+01 8.45353E-02 1.87646E-04-8.71139E-01 8.68955E-14-1.62909E-14
 -1       532 2.10062E+01 4.08124E-02-1.20181E-04-9.32018E-01 9.80768E-14-5.09569E-15
 -1       533 2.13007E+01-4.37584E-02-6.26151E-04-9.47676E-01 7.17578E-15 6.54381E-14
 -1       534 2.16313E+01-1.82866E-01-1.35310E-03-8.84252E-01-2.12571E-14 6.43898E-14
 -1       535 2.19941E+01-3.80746E-01-2.21581E-03-6.99161E-01-2.01591E-14 4.80540E-14
 -1       536 2.23728E+01-6.16231E-01-2.98518E-03-3.50522E-01 9.22908E-14 6.29165E-14
 -1       537 2.27259E+01-8.21752E-01-3.45336E-03 1.79728E-01 4.27090E-14 1.79039E-13
 -1       538 2.29758E+01-8.69859E-01-3.00490E-03 8.45764E-01-9.81386E-14 2.01836E-13
 -1       539 2.30156E+01-5.99058E-01-1.37033E-03 1.48417E+00-1.08832E-13 1.87654E-13
 -1       540 2.27826E+01 5.80516E-02-4.15073E-04 1.79964E+00 8.40674E-14 1.87162E-13
 -1       541 2.23704E+01 9.12998E-01-1.52810E-03 1.49016E+00 1.93518E-13 9.02287E-14
 -1       542 2.20512E+01 1.52130E+00-2.34799E-03 5.28502E-01 1.72183E-13 9.18259E-14
 -1       543 2.20750E+01 1.48161E+00-1.11255E-03-7.02827E-01 9.06276E-14 1.33459E-13
 -1       544 2.24374E+01 8.04989E-01 2.82299E-04-1.58686E+00 9.80184E-15-6.98421E-15
 -1       545 2.28435E+01-4.56138E-02-2.14329E-03-1.81114E+00 3.43725E-15-1.54342E-13
 -1       546 2.30500E+01-6.49983E-01-1.61533E-03-1.43627E+00-8.36050E-15-2.96133E-13
 -1       547 2.29866E+01-8.69487E-01-2.82008E-03-7.87324E-01-5.11228E-14-2.01722E-13
 -1       548 2.27276E+01-7.87403E-01-3.46735E-03-1.42330E-01-4.32167E-14-2.13309E-13
 -1       549 2.23810E+01-5.66839E-01-3.02070E-03 3.50832E-01-8.38938E-14-1.97083E-13
 -1       550 2.20207E+01-3.29876E-01-2.14490E-03 6.59367E-01 3.53921E-14-1.09572E-13
 -1       551 2.16832E+01-1.35978E-01-1.18327E-03 8.07308E-01 3.39958E-14 5.63078E-14
 -1       552 2.13822E+01-1.72362E-03-3.98136E-04 8.37679E-01-1.22848E-14 1.63206E-13
 -1       553 2.11203E+01 7.85733E-02 1.33286E-04 7.92867E-01-4.75575E-14 1.97027E-13
 -1       554 2.08961E+01 1.18260E-01 4.38928E-04 7.06685E-01-3.95688E-14 2.07936E-13
 -1       555 2.07067E+01 1.30807E-01 5.76918E-04 6.03059E-01-3.54778E-16 3.33366E-13
 -1       556 2.05489E+01 1.26992E-01 6.04518E-04 4.97410E-01 1.66049E-13 2.83812E-13
 -1       557 2.04195E+01 1.14468E-01 5.67800E-04 3.98745E-01-1.23184E-14-5.34926E-15
 -1       558 2.03150E+01 9.82359E-02 4.99205E-04 3.11615E-01-3.79197E-14-5.61150E-14
 -1       559 2.02321E+01 8.13385E-02 4.19475E-04 2.37677E-01-3.02275E-13-2.05631E-13
 -1       560 2.01674E+01 6.54790E-02 3.40744E-04 1.76831E-01-1.03360E-15-5.12838E-14
 -1       561 2.01180E+01 5.14934E-02 2.69200E-04 1.28006E-01 4.90957E-14-1.49480E-13
 -1       562 2.00809E+01 3.96815E-02 2.06714E-04 8.96726E-02 1.51894E-13 6.70591E-15
 -1       563 2.00538E+01 3.00191E-02 1.61749E-04 6.02051E-02 4.03225E-13 3.84537E-13
 -1       564 2.00343E+01 2.23728E-02 1.50192E-04 3.80516E-02 2.37174E-13 3.93836E-13
 -1       565 2.00207E+01 1.59918E-02 9.13284E-05 2.15765E-02-2.02101E-13 4.16899E-13
 -1       566 2.00112E+01 1.07497E-02 5.94686E-05 9.98470E-03-9.49459E-14 6.41582E-13
 -1       567 1.99978E+01 4.67294E-02-1.43397E-06 2.12865E-02 3.03202E-13-4.15572E-13
 -1       568 1.99923E+01 5.60652E-02-1.08134E-05 1.68934E-02 6.98263E-14-1.16555E-13
 -1       569 2.00085E+01 2.39861E-02-1.06334E-05 1.80830E-02 1.28584E-14 5.21672E-14
 -1       570 2.00038E+01 3.55949E-02 2.73907E-05 2.16164E-02-7.96571E-14-4.10918E-13
 -1       571 1.99885E+01 6.22185E-02-1.78205E-05 9.22425E-03 1.50147E-13-1.43823E-13
 -1       572 1.99872E+01 6.43668E-02-2.03834E-05-2.35385E-04-6.56590E-14 3.26395E-13
 -1       573 1.99886E+01 6.22137E-02-1.75196E-05-9.67166E-03-3.02057E-14 1.13367E-13
 -1       574 1.99924E+01 5.61767E-02-1.07211E-05-1.71556E-02 2.26184E-13 2.67086E-13
 -1       575 1.99980E+01 4.68090E-02-7.23817E-06-2.14745E-02 3.12240E-13 1.88236E-13
 -1       576 2.00041E+01 3.54957E-02-8.02317E-06-2.16383E-02-1.90486E-13-7.34538E-14
 -1       577 2.00090E+01 2.37770E-02 2.15438E-05-1.78267E-02-3.97251E-13 1.46015E-13
 -1       578 5.12583E+00-1.35728E+00 1.74602E-01 2.23164E+00-1.37487E-13 8.63906E-13
 -1       579 1.73385E+01-4.89852E+00 7.80511E-02 6.56881E+00-4.15820E-13 5.42032E-14
 -1       580 2.00453E+01 2.94983E-01 2.67541E-03 1.37540E-02 7.14608E-14 8.98299E-15
 -1       581 5.08746E+00-1.61569E+00 1.75763E-01-2.41586E+00-5.40089E-14 5.27203E-13
 -1       582 1.08541E+01-3.00826E+00 1.68585E-01 6.23310E+00-2.99108E-13 4.18582E-13
 -1       583 2.04332E+01 1.77743E+00-5.98918E-03-1.45479E+00-1.51645E-13-2.17323E-14
 -1       584 9.33817E+00-3.45120E+00 1.34414E-01-5.93365E+00 7.24351E-14-2.71588E-14
 -1       585 3.04778E+01 6.58852E+00-1.60432E-01-1.18067E+00-4.28046E-13 2.14433E-13
 -1       586 1.96433E+01 3.31146E+00-4.91837E-03-2.84362E-01-1.68750E-14-1.49733E-13
 -1       587 2.93602E+01 7.13913E+00-1.79088E-01 4.53924E-01 3.60253E-13 1.49074E-13
 -1       588 1.67427E+01-5.22027E+00 7.13459E-02-6.67332E+00 2.99608E-13-2.41515E-13
 -1       589 2.99704E+01 5.77940E+00-1.66863E-01-1.55334E+00 2.34063E-13 4.34305E-14
 -1       590 3.06101E+01 4.90150E+00-1.56538E-01 1.59357E+00 4.00596E-13 2.28560E-13
 -1       591 3.02365E+01 4.14616E-01-9.24068E-02 7.95673E-01 2.83482E-13 3.24712E-13
 -1       592 2.74418E+01-3.97636E+00-2.79244E-02-2.22361E+00 1.31763E-13 2.13551E-13
 -1       593 2.09507E+01-5.56657E+00 3.40023E-02-5.83952E+00-1.67401E-13-8.40448E-14
 -1       594 1.39409E+01-4.59653E+00 1.08706E-01-6.99052E+00-2.18381E-13-2.67522E-13
 -1       595 7.04934E+00-2.87836E+00 1.32533E-01-5.10989E+00-4.09325E-14-4.66169E-13
 -1       596 4.69030E+00-1.33376E+00 1.65870E-01-1.19824E+00 9.36005E-14-5.07761E-13
 -1       597 6.68386E+00-1.86539E+00 1.84595E-01 3.87593E+00 1.63543E-13-2.39767E-13
 -1       598 1.32480E+01-4.51961E+00 1.04159E-01 6.73040E+00 1.70572E-13 3.02258E-14
 -1       599 1.98756E+01-5.69777E+00 4.36012E-02 6.15570E+00 1.01100E-13 2.13943E-13
 -1       600 2.62749E+01-5.00031E+00-2.55845E-02 3.21590E+00 2.52007E-13 3.01710E-13
 -1       601 3.00855E+01-1.17730E+00-1.02987E-01-8.47122E-01-1.20910E-14 5.57998E-13
 -1       602 3.17666E+01 3.60633E+00-1.28997E-01-1.53339E+00-2.45026E-13 4.43215E-13
 -1       603 3.02223E+01 6.38523E+00-1.84544E-01 1.24687E+00-3.57853E-13-1.03344E-13
 -1       604 3.00779E+01 2.83331E+00-1.34218E-01 2.33043E+00-4.26603E-14-1.15005E-13
 -1       605 2.93680E+01-2.53819E+00-1.03273E-01 1.50238E-01 3.75247E-14 1.08427E-13
 -1       606 2.51560E+01-5.35471E+00 9.06679E-03-3.75662E+00 2.32661E-14-1.03868E-13
 -1       607 2.98848E+01 1.41146E+00-1.34502E-01-1.56028E+00 2.19769E-13 9.73735E-14
 -1       608 2.06147E+01 1.31394E+00-9.25782E-04 1.47951E+00 2.01339E-13 5.46117E-14
 -1       609 2.47064E+01-5.16186E+00 1.97107E-02 4.20646E+00-1.31062E-13 4.49640E-15
 -1       610 1.99898E+01 2.70847E+00-9.60185E-03-1.15299E+00-1.25321E-13-1.36334E-13
 -1       611 1.13710E+01-2.24277E+00 1.41910E-01 5.31778E+00 2.00010E-13-1.93595E-14
 -1       612 2.00124E+01 1.53530E-02 4.75555E-05-1.38964E-02-3.08832E-13 9.21380E-14
 -1       613 1.99031E+01 2.59841E+00-1.53864E-03 3.37379E-01 7.28692E-14-1.64576E-13
 -1       614 1.98577E+01 2.68536E+00-1.47354E-03 1.15172E-01 2.98897E-14-1.26336E-13
 -1       615 2.01161E+01 2.14591E+00-1.59474E-03 7.45467E-01 1.37610E-13-6.46823E-14
 -1       616 2.02634E+01 1.74487E+00-2.23018E-03 8.81380E-01 1.58332E-13-3.10282E-14
 -1       617 2.03680E+01 1.08893E+00 2.88142E-03 7.15735E-01 1.45096E-13-1.99164E-14
 -1       618 2.35493E+01-5.32371E+00 2.99381E-02 4.03625E+00 1.83908E-13 3.40694E-13
 -1       619 2.70649E+01 2.94288E+00-1.14072E-01-2.33328E+00 2.76876E-13-1.40818E-13
 -1       620 2.67817E+01-4.10721E+00-5.91487E-03-8.07331E-01 2.11702E-13-2.43163E-13
 -1       621 2.02932E+01 7.80036E-01 6.24655E-04-2.20818E-01-1.00628E-13-4.01844E-14
 -1       622 2.02360E+01 5.33845E-01 2.73821E-04 9.14256E-02-8.03937E-14-6.08382E-14
 -1       623 2.01888E+01 3.97255E-01 1.52895E-04 3.27986E-01-7.32081E-14-3.32240E-14
 -1       624 2.01593E+01 3.31997E-01 1.15658E-04 5.17079E-01-8.96124E-14-9.10040E-14
 -1       625 2.01476E+01 3.14511E-01 1.22098E-04 6.81715E-01-4.77675E-14-3.03461E-14
 -1       626 2.01509E+01 3.27782E-01 1.42009E-04 8.39204E-01-1.92935E-14 7.50772E-14
 -1       627 2.01666E+01 3.56515E-01 1.65897E-04 1.00147E+00-2.46859E-14 1.31618E-13
 -1       628 2.01948E+01 3.83238E-01 1.85934E-04 1.17525E+00 8.90450E-15 1.35104E-13
 -1       629 2.02406E+01 3.84427E-01 1.90181E-04 1.36174E+00-3.29832E-14 7.68167E-14
 -1       630 2.03191E+01 3.26386E-01 1.57732E-04 1.55570E+00-2.63886E-14 2.16892E-14
 -1       631 2.04620E+01 1.61547E-01 5.54472E-05 1.74306E+00 4.76092E-14 2.30406E-14
 -1       632 2.07280E+01-1.71604E-01-1.34048E-04 1.89547E+00 5.44360E-14 1.07274E-13
 -1       633 2.12119E+01-7.36360E-01-5.63487E-04 1.95789E+00 4.99218E-14 1.37394E-13
 -1       634 2.20413E+01-1.55356E+00-8.54393E-04 1.82535E+00 1.45376E-14 1.27761E-13
 -1       635 2.33269E+01-2.49121E+00 1.11187E-03 1.32048E+00 2.61762E-14 1.05045E-13
 -1       636 2.50188E+01-3.07357E+00-2.09689E-04 2.41019E-01 7.10703E-14 9.16177E-14
 -1       637 2.66743E+01-2.21461E+00-1.92089E-02-1.43039E+00 1.19522E-14 1.98374E-13
 -1       638 2.74123E+01 5.97772E-01-1.37189E-01-2.80299E+00-8.48592E-14 2.70638E-13
 -1       639 2.58215E+01-2.93268E+00-1.10103E-02 5.05389E-01 1.82782E-13 1.92489E-13
 -1       640 2.40705E+01-2.82240E+00 8.65957E-04-8.65173E-01 3.18200E-14 1.91476E-13
 -1       641 2.25763E+01-1.95225E+00 1.06473E-04-1.60645E+00-4.78168E-14 2.51467E-13
 -1       642 2.15540E+01-1.04372E+00-1.99966E-04-1.86534E+00-1.64072E-13 3.84254E-14
 -1       643 2.09323E+01-3.53016E-01-6.83485E-05-1.85774E+00-9.43140E-14 3.57525E-14
 -1       644 2.05858E+01 8.42154E-02 5.12573E-05-1.71758E+00-5.99889E-14 4.45016E-14
 -1       645 2.03993E+01 3.22310E-01 1.39221E-04-1.52057E+00-3.14614E-14 3.62303E-13
 -1       646 2.02985E+01 4.25056E-01 2.06728E-04-1.30550E+00-2.13237E-13 4.46307E-13
 -1       647 2.02398E+01 4.44851E-01 2.23453E-04-1.09390E+00 6.86155E-14 1.69696E-13
 -1       648 2.02005E+01 4.18777E-01 2.09597E-04-8.97610E-01 1.23672E-14 6.45500E-14
 -1       649 2.01696E+01 3.70771E-01 1.82614E-04-7.22707E-01 1.80798E-15-9.47178E-14
 -1       650 2.01428E+01 3.15245E-01 1.52274E-04-5.71556E-01-7.98010E-14-2.38953E-13
 -1       651 2.01185E+01 2.60293E-01 1.23231E-04-4.44151E-01 1.61915E-13-2.65065E-13
 -1       652 2.00967E+01 2.10056E-01 9.74765E-05-3.39026E-01 1.23825E-13-2.94136E-13
 -1       653 2.00774E+01 1.66305E-01 7.55607E-05-2.53909E-01 1.58275E-14-3.29238E-13
 -1       654 2.00608E+01 1.29461E-01 5.74775E-05-1.86177E-01 3.78282E-14-2.79332E-13
 -1       655 2.00467E+01 9.92046E-02 4.24051E-05-1.33167E-01-1.63368E-13-1.48118E-13
 -1       656 2.00350E+01 7.48432E-02 3.04010E-05-9.23787E-02 8.28179E-14-3.19388E-13
 -1       657 2.00255E+01 5.55142E-02 3.49129E-05-6.15436E-02-2.44206E-14-2.70086E-13
 -1       658 2.00176E+01 4.01601E-02 1.63164E-05-3.88275E-02-1.36075E-13 7.40118E-14
 -1       659 2.01419E+01 2.49097E-01 2.04797E-04-4.66037E-01 6.54770E-14-7.30722E-14
 -1       660 2.00151E+01 3.47924E-02 1.14959E-05 3.24453E-02-4.54488E-13 8.91682E-14
 -1       661 2.01539E+01 3.20016E-01 2.84123E-04-2.87968E-01 3.90994E-14-5.62365E-14
 -1       662 2.02113E+01 2.04229E-01 1.69522E-04-7.41329E-01 4.49416E-15 4.16551E-14
 -1       663 2.02883E+01 1.97905E-01 1.59385E-04-8.63795E-01 8.18377E-14 3.40846E-14
 -1       664 2.03947E+01 1.81255E-01 1.29352E-04-9.81219E-01 7.64896E-14 5.22148E-14
 -1       665 2.05364E+01 1.35273E-01 5.94274E-05-1.08807E+00 7.20926E-14 4.43914E-14
 -1       666 2.07253E+01 3.71345E-02-8.17601E-05-1.16981E+00 2.90687E-14 1.78099E-13
 -1       667 2.09803E+01-1.38145E-01-3.11752E-04-1.20088E+00-1.55365E-14 1.58803E-13
 -1       668 2.13267E+01-4.11085E-01-6.64652E-04-1.14247E+00 2.24643E-14 9.11890E-14
 -1       669 2.17896E+01-7.80963E-01-1.03607E-03-9.41310E-01-2.97618E-15 5.96677E-14
 -1       670 2.23742E+01-1.19380E+00-1.29760E-03-5.36678E-01-6.78196E-14 1.07959E-13
 -1       671 2.30340E+01-1.50544E+00-2.36715E-03 1.11580E-01-2.69760E-14 2.24838E-13
 -1       672 2.36291E+01-1.45507E+00-4.44114E-03 9.66904E-01-1.09948E-14 1.54338E-13
 -1       673 2.39386E+01-7.39527E-01-5.70546E-03 1.77644E+00-5.35140E-14 2.98612E-14
 -1       674 2.37834E+01 6.79411E-01-5.67548E-03 2.05962E+00 1.81325E-13 6.79012E-14
 -1       675 2.33438E+01 2.20693E+00-2.31198E-02 1.38956E+00 2.79699E-13 7.02641E-14
 -1       676 2.31660E+01 2.86327E+00-2.83341E-02-1.23692E-01 8.07531E-14 4.71045E-14
 -1       677 2.33943E+01 2.09626E+00-3.44907E-02-1.58822E+00 1.17828E-13 1.15901E-13
 -1       678 2.38766E+01 4.93527E-01-4.33471E-03-2.13789E+00 1.39532E-13 1.32759E-13
 -1       679 2.39328E+01-8.67413E-01-5.53157E-03-1.70480E+00 8.30049E-14 8.02735E-14
 -1       680 2.35817E+01-1.48041E+00-1.60263E-03-8.84132E-01-4.15690E-14 7.09632E-14
 -1       681 2.29663E+01-1.45769E+00-1.47156E-03-5.50848E-02-3.44099E-14 1.00864E-13
 -1       682 2.23149E+01-1.11021E+00-1.19570E-03 5.45688E-01-8.19138E-14 7.40370E-14
 -1       683 2.17541E+01-6.91608E-01-9.96949E-04 9.01694E-01-1.96730E-13 1.58911E-13
 -1       684 2.13172E+01-3.28607E-01-5.97699E-04 1.06166E+00-7.61703E-14 1.79380E-13
 -1       685 2.09938E+01-6.48789E-02-2.49308E-04 1.08475E+00-8.49601E-14 2.03524E-13
 -1       686 2.07581E+01 1.01948E-01-1.93716E-05 1.02303E+00-2.27975E-15 3.99523E-14
 -1       687 2.05847E+01 1.92262E-01 1.14152E-04 9.15001E-01-2.69735E-14 1.61737E-13
 -1       688 2.04544E+01 2.29083E-01 1.81418E-04 7.87095E-01 1.37781E-13 1.82376E-13
 -1       689 2.03540E+01 2.31929E-01 2.03612E-04 6.56406E-01 8.08417E-14 5.05092E-15
 -1       690 2.02752E+01 2.15304E-01 1.98467E-04 5.33219E-01 8.99606E-14 2.05006E-13
 -1       691 2.02126E+01 1.89120E-01 1.78800E-04 4.23060E-01 4.08536E-14 2.71844E-13
 -1       692 2.01627E+01 1.59709E-01 1.53001E-04 3.28251E-01-1.11038E-13 2.56542E-13
 -1       693 2.01230E+01 1.30841E-01 1.26072E-04 2.49067E-01-1.01216E-13 9.82567E-14
 -1       694 2.00916E+01 1.04556E-01 1.00784E-04 1.84566E-01 1.00439E-13-3.44535E-14
 -1       695 2.00671E+01 8.17710E-02 7.76687E-05 1.33165E-01 1.70190E-13-6.45268E-14
 -1       696 2.00481E+01 6.27136E-02 6.42606E-05 9.30547E-02 1.62056E-13-1.68140E-13
 -1       697 2.00337E+01 4.72316E-02 6.02383E-05 6.25119E-02 3.79659E-13-3.63282E-14
 -1       698 2.00230E+01 4.10828E-02 4.74234E-05 4.58875E-02-6.34559E-14 1.14829E-13
 -1       699 2.26632E+01-4.87141E+00 4.44448E-02 4.14365E+00-4.53637E-13 6.70687E-15
 -1       700 1.99773E+01 8.73864E-02-8.41187E-06 6.82643E-03 3.05821E-13 7.47600E-14
 -1       701 2.00131E+01 3.14028E-02-6.77185E-07-2.71394E-02-3.41008E-13 1.21506E-13
 -1       702 1.99898E+01 7.12413E-02-3.95455E-06 2.91975E-02 2.56617E-13-4.33243E-13
 -1       703 1.99774E+01 8.74567E-02-6.71185E-06-7.24000E-03 1.23640E-13 1.01063E-14
 -1       704 1.99817E+01 8.17447E-02-6.92512E-06 1.96980E-02 2.21262E-13-2.66871E-13
 -1       705 1.99818E+01 8.20668E-02-5.03927E-06-1.98896E-02 1.19377E-13 2.32587E-13
 -1       706 1.99900E+01 7.16489E-02-1.13548E-05-2.93770E-02 2.83524E-13 3.01183E-13
 -1       707 2.00004E+01 5.74664E-02-1.49888E-05-3.37494E-02 1.69836E-13-1.36930E-13
 -1       708 2.03140E+01 1.73324E+00 1.01380E-04-1.03589E+00-1.17721E-13-6.90857E-14
 -1       709 1.56831E+01-2.96980E+00 7.59655E-02 5.70493E+00-4.95593E-13-1.01495E-13
 -1       710 1.02598E+01-5.54536E-01 1.28011E-01 3.75942E+00-9.46604E-14 6.00450E-13
 -1       711 8.04194E+00 1.85298E-01 1.45421E-01-2.91889E-01 2.37301E-13 6.21406E-13
 -1       712 2.01995E+01 4.54636E-01 6.70968E-04-5.36837E-02 5.90785E-14-2.64555E-14
 -1       713 2.01620E+01 2.16248E-01 1.78430E-04-6.11755E-01 4.16311E-14-5.67273E-14
 -1       714 2.03325E+01 1.15456E+00-1.51200E-04-5.88247E-01-1.22054E-13-6.64629E-14
 -1       715 1.99906E+01 2.42250E+00-1.60946E-03 5.51978E-01 1.18978E-13-1.12448E-13
 -1       716 2.02742E+01 6.90524E-01 1.24723E-03 2.67530E-01 1.13870E-13-3.26190E-14
 -1       717 2.67900E+01 4.65566E+00-1.50846E-01 1.74284E+00 2.79186E-13 9.95766E-14
 -1       718 1.99840E+01 2.43640E+00-1.54192E-03-5.44564E-01-5.78562E-14-1.23997E-13
 -1       719 9.98719E+00-1.12272E+00 1.49190E-01-4.14678E+00 1.82566E-13-1.25129E-13
 -1       720 2.17140E+01-4.98748E+00 4.68881E-02-4.68945E+00 2.69128E-13-6.47655E-14
 -1       721 2.79344E+01-1.50150E+00-7.92522E-02-1.01618E+00-2.71033E-14-6.01463E-14
 -1       722 2.77809E+01 1.84310E+00-9.87188E-02 2.25778E+00 2.93481E-13 1.74818E-13
 -1       723 2.76672E+01-2.29793E+00-6.25963E-02 6.92725E-01 1.01471E-13 4.16833E-13
 -1       724 2.46868E+01-4.89485E+00 7.47281E-03-2.99574E+00-1.39203E-13 2.47063E-13
 -1       725 1.84474E+01-4.36209E+00 6.49091E-02-5.82363E+00-2.38459E-13-1.27948E-13
 -1       726 1.23847E+01-2.51815E+00 1.26248E-01-5.73934E+00-1.42410E-13-2.81386E-13
 -1       727 8.70427E+00-7.45739E-01 1.48501E-01-3.41791E+00 2.61371E-14-4.23744E-13
 -1       728 8.38640E+00 7.84736E-02 1.56814E-01 1.19509E+00 1.37401E-13-3.53877E-13
 -1       729 2.75371E+01-3.68429E+00-3.85412E-02 1.32178E-01 9.05244E-14 3.33313E-13
 -1       730 1.85425E+01-4.60592E+00 7.63154E-02 5.75582E+00 1.33428E-13 2.10582E-13
 -1       731 1.45643E+01-3.16876E+00 1.04638E-01-5.85522E+00 2.87673E-13-3.52374E-13
 -1       732 2.65038E+01-4.09268E+00-1.82182E-02 1.44606E+00-2.31160E-13-5.10217E-14
 -1       733 2.65825E+01 5.66190E+00-1.37035E-01-8.59589E-01 2.06751E-13-1.65336E-13
 -1       734 2.70856E+01-1.77799E+00-5.72421E-02 1.84431E+00 2.02723E-13-1.60789E-13
 -1       735 2.01142E+01 2.16676E+00-1.16411E-03-7.48633E-01-9.90585E-14-1.27692E-13
 -1       736 1.98564E+01 2.68790E+00-1.48694E-03-1.08397E-01-1.22827E-14-1.31022E-13
 -1       737 1.99998E+01 5.73574E-02-1.36382E-05 3.38044E-02 2.05267E-13-1.70277E-13
 -1       738 1.58509E+01-2.87811E+00 8.21276E-02 5.39401E+00 2.00357E-13 1.05738E-13
 -1       739 1.98990E+01 2.60657E+00-1.53034E-03-3.29677E-01-3.25615E-14-1.02651E-13
 -1       740 2.64982E+01 3.99477E-01-5.84177E-02-2.29865E+00 6.57200E-14-2.43576E-13
 -1       741 1.09094E+01-2.42511E-01 1.05510E-01 2.98150E+00 1.92834E-13-1.05076E-13
 -1       742 2.00085E+01 4.99154E-02-7.69866E-06-3.76326E-02-1.24729E-13-5.57728E-13
 -1       743 2.50995E+01 3.50419E+00-8.27455E-02-1.73484E+00 1.44097E-13-1.93491E-13
 -1       744 2.02711E+01 1.41928E+00-3.54883E-04 4.88815E-01 1.23464E-13-2.05457E-14
 -1       745 2.02473E+01 6.59979E-01-1.58178E-05 1.73620E-01-5.26357E-14-7.32807E-14
 -1       746 2.01887E+01 5.23717E-01 2.50848E-06 3.85180E-01-9.47765E-14-4.21477E-14
 -1       747 2.01202E+01 4.63577E-01 1.30276E-05 5.63802E-01-4.79595E-14-9.60509E-15
 -1       748 2.00444E+01 4.56560E-01 2.79524E-05 7.26367E-01 1.99317E-14-1.25250E-14
 -1       749 1.99608E+01 4.83289E-01 4.11678E-05 8.86788E-01-6.85418E-15-1.25988E-14
 -1       750 1.98681E+01 5.24315E-01 5.70792E-05 1.05587E+00-1.53721E-14 1.68722E-14
 -1       751 1.97676E+01 5.56293E-01 7.97130E-05 1.24185E+00 2.01767E-14 5.97843E-14
 -1       752 1.96669E+01 5.47839E-01 1.14341E-04 1.45124E+00-3.01918E-14 1.61635E-13
 -1       753 1.95862E+01 4.54851E-01 1.72918E-04 1.69015E+00-5.67311E-14 8.48386E-14
 -1       754 1.95696E+01 2.15165E-01 3.11095E-04 1.96437E+00 2.77878E-14 1.54374E-14
 -1       755 1.97017E+01-2.54243E-01 8.68032E-04 2.27374E+00 8.90573E-14 6.63244E-14
 -1       756 2.01315E+01-1.04791E+00 1.51252E-03 2.59054E+00 4.44821E-14 1.38962E-13
 -1       757 2.11034E+01-2.22867E+00 1.34603E-03 2.80104E+00 3.21963E-14 1.88060E-13
 -1       758 2.29586E+01-3.63631E+00 3.03376E-02 2.63613E+00 6.01836E-14 1.99310E-13
 -1       759 2.57242E+01-4.04799E+00-3.49265E-02 1.01055E+00 1.38489E-13 2.44890E-13
 -1       760 2.18269E+01-2.82610E+00 1.66982E-02-2.77530E+00 9.16632E-14-1.12896E-13
 -1       761 2.04845E+01-1.49403E+00-5.38514E-04-2.65058E+00-2.41860E-13 2.61518E-14
 -1       762 1.98306E+01-5.10505E-01 1.89851E-03-2.34712E+00-1.11771E-13 1.73091E-13
 -1       763 1.95855E+01 9.81028E-02 6.60508E-04-2.01035E+00-8.48198E-14 2.43107E-13
 -1       764 1.95398E+01 4.37737E-01 1.54350E-04-1.70139E+00 3.88153E-14 2.70066E-13
 -1       765 1.95876E+01 5.93326E-01 1.11831E-04-1.42759E+00-8.57448E-14 2.13459E-13
 -1       766 1.96683E+01 6.33731E-01 9.69869E-05-1.18678E+00-1.81368E-13 2.83620E-13
 -1       767 1.97515E+01 6.07710E-01 7.82912E-05-9.75579E-01-1.03075E-13-5.50821E-14
 -1       768 1.98243E+01 5.47429E-01 6.01134E-05-7.91644E-01-1.12754E-13-4.88497E-14
 -1       769 1.98824E+01 4.73065E-01 4.55885E-05-6.33316E-01-1.55022E-13-8.77068E-14
 -1       770 1.99261E+01 3.96609E-01 3.45185E-05-4.99007E-01 8.55262E-14-6.10443E-14
 -1       771 1.99574E+01 3.24698E-01 2.60250E-05-3.86884E-01 1.21037E-13-3.31024E-14
 -1       772 1.99789E+01 2.60599E-01 1.93938E-05-2.94808E-01 2.90275E-13-5.11194E-14
 -1       773 1.99928E+01 2.05522E-01 1.39537E-05-2.20427E-01-2.69180E-14-4.72367E-14
 -1       774 2.00013E+01 1.59475E-01 9.19901E-06-1.61319E-01-3.85017E-14-4.74230E-13
 -1       775 2.00059E+01 1.21779E-01 5.71542E-06-1.15107E-01-4.08419E-14-3.99858E-13
 -1       776 2.00079E+01 9.13790E-02 8.90736E-06-7.97880E-02 9.21551E-14-4.38223E-13
 -1       777 2.00093E+01 6.82115E-02 4.83294E-06-5.59734E-02 8.74089E-14-4.68784E-13
 -1       778 2.02061E+01 4.41101E-01 3.90641E-05-3.56976E-01 8.37987E-14-5.10176E-14
 -1       779 2.01201E+01 3.04837E-01 5.50798E-05-9.73461E-01 5.75509E-14-5.92677E-14
 -1       780 2.01201E+01 3.16354E-01 5.15341E-05-8.31822E-01 5.94252E-14-3.98337E-14
 -1       781 2.02084E+01 1.88293E-01 3.37765E-05-1.25564E+00-4.97378E-14 7.99410E-14
 -1       782 2.03376E+01 2.21567E-02-2.60400E-05-1.38167E+00 1.21128E-14 7.94665E-14
 -1       783 2.05720E+01-2.62930E-01-8.61465E-05-1.47172E+00 5.48812E-14 1.26758E-13
 -1       784 2.09673E+01-6.96462E-01-2.27907E-04-1.48566E+00-2.85213E-15 9.99025E-14
 -1       785 2.15881E+01-1.27503E+00-1.05559E-04-1.35349E+00-1.18361E-13 2.18027E-13
 -1       786 2.24757E+01-1.90333E+00 1.34446E-03-9.71885E-01-7.28838E-14 1.94363E-13
 -1       787 2.35865E+01-2.32062E+00 1.69805E-03-2.23570E-01-2.40417E-14 1.68017E-13
 -1       788 2.47079E+01-2.07118E+00-2.79470E-03 9.16839E-01 5.48246E-14 1.43149E-13
 -1       789 2.52874E+01-6.30758E-01-3.80251E-02 2.07820E+00 8.13668E-14 7.47106E-14
 -1       790 2.47943E+01 4.25240E+00-7.97339E-02 8.67102E-01 1.54470E-13 5.35880E-14
 -1       791 2.46224E+01-2.19992E+00 4.88128E-04-7.79550E-01-1.26576E-13 7.27773E-14
 -1       792 2.34493E+01-2.26919E+00 1.67837E-03 3.03072E-01-1.58258E-13 1.85907E-13
 -1       793 2.23498E+01-1.77881E+00 2.26994E-03 9.72870E-01-9.77761E-14 4.66584E-13
 -1       794 2.14943E+01-1.14457E+00 2.20405E-04 1.30802E+00-1.68403E-13 4.51446E-13
 -1       795 2.09034E+01-5.76316E-01-2.34251E-04 1.40141E+00-7.09638E-14 6.60067E-14
 -1       796 2.05301E+01-1.56718E-01-3.12695E-05 1.35517E+00-1.60213E-13 1.31473E-13
 -1       797 2.03078E+01 1.15513E-01 3.76163E-05 1.23806E+00 9.34359E-14 2.01055E-13
 -1       798 2.01818E+01 2.70013E-01 5.53263E-05 1.08884E+00-6.87059E-14 2.34126E-14
 -1       799 2.01134E+01 3.40415E-01 6.55317E-05 9.30324E-01-1.32138E-14 1.24881E-14
 -1       800 2.00773E+01 3.55682E-01 6.68593E-05 7.75952E-01 1.50621E-13 4.68777E-14
 -1       801 2.00583E+01 3.37840E-01 6.22092E-05 6.33436E-01-3.28041E-14 1.41247E-13
 -1       802 2.00477E+01 3.02393E-01 5.46194E-05 5.06813E-01-7.48266E-14 4.91993E-13
 -1       803 2.00411E+01 2.59614E-01 4.60310E-05 3.97664E-01 4.72270E-14 6.01861E-13
 -1       804 2.00360E+01 2.15907E-01 3.75615E-05 3.05939E-01 1.01677E-13 5.94293E-14
 -1       805 2.00315E+01 1.74967E-01 2.96127E-05 2.30556E-01 1.51978E-13-2.58797E-13
 -1       806 2.00271E+01 1.38666E-01 2.24004E-05 1.69848E-01 8.28127E-14-1.51529E-13
 -1       807 2.00229E+01 1.07697E-01 2.22727E-05 1.21923E-01 4.78859E-14-1.09357E-13
 -1       808 2.00187E+01 8.21411E-02 3.12215E-05 8.50157E-02-2.20551E-14 2.34024E-13
 -1       809 1.99653E+01 1.13694E-01 4.67084E-07-1.94110E-02 3.64806E-13 9.67582E-14
 -1       810 1.99899E+01 8.67611E-02-6.42432E-06-4.65674E-02 1.21772E-13-1.26872E-13
 -1       811 1.99618E+01 1.17171E-01-5.82250E-06 8.46694E-05 3.69376E-13-6.48701E-14
 -1       812 2.46306E+01-3.81350E+00-1.36704E-02 1.37845E+00-1.52865E-13 2.11735E-13
 -1       813 2.14263E+01-4.27432E+00 4.73734E-02 4.21351E+00 1.23522E-13 3.40906E-13
 -1       814 2.03129E+01 1.04018E+00 2.43328E-04 4.01718E-01 1.25170E-13-6.75109E-15
 -1       815 2.02521E+01 5.86957E-01-4.12765E-05-1.37793E-01 8.36277E-14 5.33509E-15
 -1       816 1.10320E+01 2.62158E-01 7.82838E-02-2.22947E+00 3.00951E-13 2.85133E-13
 -1       817 1.63101E+01-2.46801E+00 5.19138E-02-5.05632E+00-1.85418E-13-1.12209E-13
 -1       818 1.99752E+01 1.03209E-01-9.93403E-06-3.58552E-02 1.17179E-13 6.13326E-13
 -1       819 2.01444E+01 2.71453E-01 4.89810E-05-1.11583E+00 1.84455E-14-3.06499E-14
 -1       820 2.39567E+01-4.06149E+00 1.88423E-02-2.27482E+00 1.56692E-13-2.01541E-13
 -1       821 2.02868E+01 9.04584E-01 1.07828E-05-8.89389E-02-9.43785E-14-9.64476E-14
 -1       822 1.99606E+01-3.22384E+00 4.06290E-02 4.19721E+00-4.27568E-13 2.54590E-13
 -1       823 1.89324E+01-3.15622E+00 4.31288E-02-4.60877E+00-3.12944E-14-6.51024E-14
 -1       824 1.43271E+01-1.01539E+00 4.90936E-02 4.24512E+00-3.42161E-13-1.30467E-13
 -1       825 1.08730E+01 5.11205E-01 8.23873E-02-1.35884E+00 3.66495E-14-3.37504E-13
 -1       826 2.56912E+01 2.91148E+00-8.42334E-02 2.11601E+00 2.72171E-13 9.18805E-14
 -1       827 1.15587E+01 7.76037E-01 6.58041E-02 1.21535E+00 1.07412E-13 3.24706E-13
 -1       828 2.18472E+01-4.10252E+00 2.49421E-02-3.77974E+00-2.08098E-13 1.24397E-14
 -1       829 1.29488E+01-8.84651E-01 7.82279E-02-4.14069E+00-5.70290E-14-1.39843E-13
 -1       830 2.55796E+01-3.42107E+00-3.10596E-03-3.51634E-01 6.61639E-14 3.29479E-13
 -1       831 1.39170E+01-1.42217E+00 7.42051E-02-4.54444E+00 1.28033E-13-2.16875E-13
 -1       832 2.00372E+01 2.09598E+00-3.63675E-04 1.47627E-01 3.89558E-14-1.24831E-13
 -1       833 2.64302E+01-2.48389E+00-3.42413E-02-7.54405E-01-4.31365E-14-4.65270E-14
 -1       834 2.00149E+01 2.14246E+00-6.20679E-04 1.50764E-03 1.32243E-14-8.49845E-14
 -1       835 2.01814E+01 1.73602E+00-2.07413E-04 4.09383E-01 1.03185E-13-8.25340E-14
 -1       836 1.99895E+01 8.59281E-02-5.92152E-06 4.64623E-02-1.33162E-13-2.29283E-13
 -1       837 2.02914E+01 1.25790E+00 2.12034E-04-3.79159E-01-1.19665E-13-8.52988E-14
 -1       838 2.01748E+01 1.75147E+00-9.56256E-04-4.02276E-01-6.91350E-14-8.37845E-14
 -1       839 2.01368E+01 3.29094E-01 4.51517E-05-6.88118E-01-2.16474E-14-2.94890E-14
 -1       840 2.51452E+01-7.97298E-01-3.18895E-02-1.86545E+00 7.06041E-14-1.72629E-13
 -1       841 2.25600E+01-3.35313E+00 1.69092E-03 2.36676E+00-3.71896E-13 2.99846E-13
 -1       842 2.00116E+01 6.99140E-02-1.64215E-04 6.28231E-02-1.16759E-13 5.78684E-13
 -1       843 1.99751E+01 1.02424E-01-7.72406E-06 3.56407E-02-5.64581E-14-2.76023E-13
 -1       844 2.01663E+01 3.63629E-01 3.97119E-05-5.34242E-01 1.85771E-14-2.12626E-14
 -1       845 1.99653E+01 1.13230E-01-7.79572E-06 1.93856E-02 3.51146E-13 1.06689E-13
 -1       846 2.00957E+01 1.96095E+00-3.51971E-04 2.87763E-01 7.81980E-14-1.08550E-13
 -1       847 2.00074E+01 6.41738E-02-4.48715E-06 5.08283E-02 6.34880E-14 4.52777E-13
 -1       848 2.00902E+01 1.97337E+00-3.36254E-04-2.81488E-01-3.74215E-14-9.99533E-14
 -1       849 1.14895E+01 7.22372E-01 6.52440E-02 4.43050E-01 1.44409E-13-2.31683E-13
 -1       850 2.02845E+01 7.70414E-01 2.36385E-04 1.00392E-01 1.10969E-13 6.11835E-15
 -1       851 1.40286E+01-9.15948E-01 4.98883E-02 3.97589E+00 1.48450E-13-4.21017E-15
 -1       852 1.99992E+01 7.85963E-02 1.15209E-04-5.24050E-02-1.13514E-13-3.41006E-13
 -1       853 2.01150E+01 6.33949E-01-2.50299E-05 4.02220E-01-3.17151E-14-1.38330E-14
 -1       854 1.99972E+01 5.89548E-01-7.10304E-06 5.55069E-01 3.78055E-16 3.95613E-14
 -1       855 1.98511E+01 5.99528E-01-3.05120E-07 6.99128E-01-2.14091E-14 4.29004E-14
 -1       856 1.96755E+01 6.43157E-01 2.51791E-06 8.45474E-01-2.74353E-14-4.92100E-14
 -1       857 1.94682E+01 6.98420E-01 1.11103E-05 1.00450E+00 4.47206E-14 1.77546E-14
 -1       858 1.92278E+01 7.38657E-01 2.96309E-05 1.18744E+00 6.05433E-15-3.25399E-14
 -1       859 1.89572E+01 7.29180E-01 7.18488E-05 1.40900E+00-4.93502E-14-7.72608E-15
 -1       860 1.86692E+01 6.22633E-01 2.09610E-04 1.69252E+00 3.18175E-14 5.77295E-14
 -1       861 1.83985E+01 3.50088E-01 8.06346E-04 2.07468E+00 9.78174E-14 4.82794E-14
 -1       862 1.82217E+01-1.87305E-01 3.22092E-03 2.60722E+00 1.04964E-13 4.03991E-14
 -1       863 1.83431E+01-1.12852E+00 9.06565E-03 3.32644E+00 1.06189E-13 1.06244E-13
 -1       864 1.40495E+01-1.41863E-01 4.07487E-02-3.13263E+00 9.00699E-14 1.02869E-15
 -1       865 1.77874E+01-1.45603E+00 1.92061E-02 3.65094E+00-2.56472E-14 5.07476E-14
 -1       866 1.81928E+01-4.96507E-01 6.47635E-03-2.86760E+00 7.07021E-14-1.08858E-13
 -1       867 1.82486E+01 2.14029E-01-1.99906E-05-2.22581E+00-5.95009E-14 5.51997E-14
 -1       868 1.84768E+01 6.04875E-01-1.62997E-04-1.76332E+00-1.84533E-14 1.29177E-13
 -1       869 1.87437E+01 7.84000E-01-4.82309E-05-1.42447E+00-2.27831E-13-1.91620E-13
 -1       870 1.90008E+01 8.32535E-01 8.88685E-06-1.16228E+00-8.34386E-15-2.07712E-13
 -1       871 1.92271E+01 8.03284E-01 2.59662E-05-9.50536E-01-2.77985E-13-2.64963E-14
 -1       872 1.94161E+01 7.31499E-01 2.06330E-05-7.74096E-01-7.42660E-14-4.28604E-14
 -1       873 1.95683E+01 6.40199E-01 1.37330E-05-6.24845E-01-8.47129E-14 1.55802E-14
 -1       874 1.96877E+01 5.43867E-01 8.77741E-06-4.98350E-01-2.20344E-13 1.83879E-13
 -1       875 1.97792E+01 4.51136E-01 5.59321E-06-3.91871E-01 7.14665E-14 2.55249E-14
 -1       876 1.98479E+01 3.66730E-01 3.24689E-06-3.03301E-01 2.45694E-13 9.27030E-14
 -1       877 1.98984E+01 2.92821E-01 1.36472E-06-2.30687E-01 1.76374E-13-8.00766E-15
 -1       878 1.99348E+01 2.29953E-01 2.64929E-08-1.72082E-01-8.66294E-14-7.06103E-14
 -1       879 1.99603E+01 1.77690E-01 1.01419E-05-1.25638E-01-2.29282E-14 9.47055E-14
 -1       880 1.99775E+01 1.34735E-01-5.71640E-05-8.92525E-02 1.23318E-13 2.75688E-13
 -1       881 1.36996E+01 2.14436E-01 3.31398E-02-2.54268E+00-2.66497E-14-8.16829E-14
 -1       882 1.98075E+01 2.68459E-02-9.33856E-05-1.58602E+00-2.59366E-14 2.23041E-14
 -1       883 1.97551E+01 2.58380E-01 4.94472E-07-1.38210E+00-2.77812E-14-1.79289E-14
 -1       884 2.04149E+01-9.68227E-01-1.48781E-04-1.97524E+00-1.05441E-13 8.28472E-14
 -1       885 2.11918E+01-1.78746E+00 3.06412E-03-2.02678E+00-1.09769E-13 1.00222E-13
 -1       886 2.24080E+01-2.70189E+00-5.23453E-03-1.80149E+00-4.40756E-14-2.86056E-15
 -1       887 2.03110E+01-8.09136E-01-1.98872E-04 1.88039E+00 6.14138E-14 3.23970E-13
 -1       888 1.99197E+01-2.30304E-01 2.69887E-04 1.67708E+00-2.10289E-13 2.34322E-13
 -1       889 1.97375E+01 1.45622E-01 1.32733E-04 1.44987E+00 2.51374E-15-3.54322E-14
 -1       890 1.96795E+01 3.62681E-01 4.22546E-05 1.22968E+00 1.44675E-13 1.09324E-13
 -1       891 1.96883E+01 4.66319E-01 2.25286E-05 1.02767E+00 4.19010E-14 1.72141E-13
 -1       892 1.97283E+01 4.94600E-01 1.50292E-05 8.47078E-01 1.79627E-13-1.05702E-13
 -1       893 1.97792E+01 4.76291E-01 1.06785E-05 6.88480E-01 1.91543E-14 6.40484E-14
 -1       894 1.98298E+01 4.31948E-01 7.62955E-06 5.51415E-01-2.13142E-13 3.88898E-14
 -1       895 1.98746E+01 3.75562E-01 5.54191E-06 4.34851E-01-4.75708E-14-1.01302E-13
 -1       896 1.99118E+01 3.16179E-01 3.94241E-06 3.37339E-01 1.89555E-13 1.20122E-13
 -1       897 1.99410E+01 2.59288E-01 2.68184E-06 2.57114E-01 2.99810E-13 4.56082E-13
 -1       898 1.99629E+01 2.07897E-01 1.19955E-06 1.92200E-01 1.63732E-13 8.53558E-14
 -1       899 1.99787E+01 1.63332E-01 3.74905E-06 1.40570E-01 7.11506E-14-7.32492E-14
 -1       900 1.99893E+01 1.25899E-01 2.43703E-06 1.00379E-01-2.79157E-13-2.37392E-13
 -1       901 1.90132E+01-2.88114E+00 4.82726E-02 4.39678E+00 1.48352E-13 1.48642E-13
 -1       902 1.92657E+01-2.44605E+00 1.00535E-02-3.80222E+00-9.88314E-14 2.02520E-14
 -1       903 1.74146E+01-1.59392E+00 1.80810E-02-3.94841E+00-8.77293E-15-2.79541E-13
 -1       904 1.99423E+01 1.51339E-01-5.63497E-06-1.33111E-02 5.74746E-13 9.70416E-14
 -1       905 2.10504E+01-1.62350E+00-4.76556E-03 1.97883E+00-9.03250E-14 3.31349E-13
 -1       906 2.15976E+01-2.40655E+00-7.61573E-03 2.21525E+00-3.94595E-13 3.47570E-13
 -1       907 2.00336E+01 2.10205E+00-5.16241E-04-1.43041E-01-1.32678E-14-1.32025E-13
 -1       908 1.99982E+01-3.67559E-01 5.52591E-05-1.79467E+00 1.22073E-14 9.98693E-14
 -1       909 2.02020E+01 7.54975E-01-6.90412E-05 2.28270E-01-5.01619E-14-4.40209E-14
 -1       910 1.45051E+01 3.74136E-01 1.49562E-02 2.42933E+00-1.06379E-13-6.43921E-14
 -1       911 1.31135E+01 9.33079E-01 2.68915E-02-9.64309E-01 6.82566E-14 3.17844E-13
 -1       912 2.01744E+01 5.48749E-01-1.58421E-05-4.00593E-01 5.31435E-14-1.96704E-14
 -1       913 1.61252E+01-1.13897E+00 2.52094E-02-3.87409E+00-6.82423E-14-9.99921E-14
 -1       914 2.34404E+01-3.33483E+00-3.87906E-03-1.59597E+00-8.61292E-14 1.43515E-13
 -1       915 2.02502E+01 9.80783E-01 6.90874E-06 2.16633E-02-7.69932E-14-1.23050E-14
 -1       916 2.02376E+01 6.89236E-01 9.07820E-05-2.11190E-01 8.63901E-14-1.56267E-14
 -1       917 1.99255E+01 4.39941E-01 2.05498E-05-8.64865E-01 4.63670E-14-4.72010E-14
 -1       918 2.02711E+01 1.17820E+00 2.36640E-05 1.90669E-01 1.13550E-13-2.91551E-14
 -1       919 1.30391E+01 4.90164E-01 3.98801E-02 1.95249E+00 1.62649E-13-1.79395E-13
 -1       920 1.99423E+01 1.50858E-01-2.38408E-05 1.40002E-02 3.75323E-13-3.91528E-14
 -1       921 1.32709E+01 7.58550E-01 3.27446E-02-1.22710E+00 1.25596E-13-1.79681E-13
 -1       922 1.99910E+01 1.03773E-01 1.99106E-05-6.94100E-02 2.33003E-13-7.50222E-14
 -1       923 2.00123E+01 4.48737E-01 1.26317E-05-7.15062E-01 9.05527E-15-9.79054E-14
 -1       924 1.97794E+01 3.77362E-01 1.23480E-05-1.19360E+00-4.54593E-14-7.01944E-14
 -1       925 2.12186E+01-2.80574E+00 1.20861E-02-2.92375E+00-1.05250E-13-9.39808E-15
 -1       926 2.00111E+01-2.15652E+00 1.07199E-02 3.11212E+00-2.44498E-13 2.04240E-13
 -1       927 1.99903E+01 1.06446E-01 6.74804E-05 7.42785E-02-2.92948E-13-1.90123E-13
 -1       928 1.99703E+01 1.23095E-01 4.86748E-06 5.88451E-02-2.28097E-13-3.42060E-13
 -1       929 2.00971E+01 4.77105E-01 1.75336E-06-5.64083E-01 8.23244E-15-4.72079E-14
 -1       930 1.43993E+01 1.07123E+00 6.90210E-03 7.31623E-01-1.82990E-13 1.91067E-13
 -1       931 2.01186E+01 1.67903E+00 2.64304E-04 3.48655E-02 4.55278E-14-1.10219E-13
 -1       932 2.02902E+01 9.73797E-01 2.49558E-04 1.53213E-01 9.67101E-14-4.12137E-14
 -1       933 1.99519E+01 1.42430E-01 1.72716E-06-3.84974E-02 2.87493E-13 1.34970E-13
 -1       934 2.02396E+01 1.31047E+00 2.31033E-04-1.74267E-01-7.28998E-14-3.08898E-14
 -1       935 2.01517E+01 1.59104E+00-3.48332E-04 1.02673E-01 5.96113E-14-1.02642E-13
 -1       936 2.01758E+01 1.51405E+00-1.54048E-05-1.27476E-01-5.60088E-14-7.15047E-14
 -1       937 2.02723E+01 9.30160E-01-4.38474E-04 2.21625E-02 8.00839E-14-2.24307E-14
 -1       938 1.98437E+01 4.25802E-01 2.26218E-05-1.02224E+00 3.30773E-14-1.53200E-14
 -1       939 1.99734E+01 1.20530E-01 1.30919E-05-5.87436E-02 9.26883E-14 1.82572E-13
 -1       940 1.98203E+01 7.00435E-01-3.63613E-05 4.78313E-01-1.30375E-14 1.91646E-14
 -1       941 1.96015E+01 7.30909E-01-4.33316E-05 5.88758E-01-2.68832E-14-3.89566E-14
 -1       942 1.93334E+01 7.92691E-01-6.45301E-05 7.03366E-01 1.23961E-14 3.39730E-14
 -1       943 1.90087E+01 8.63679E-01-6.35036E-05 8.31743E-01 3.04021E-14 4.33208E-14
 -1       944 1.86177E+01 9.17063E-01-1.14655E-04 9.87024E-01 1.25270E-14 7.40324E-14
 -1       945 1.81472E+01 9.22202E-01-2.01143E-04 1.19039E+00 1.83835E-14 4.17733E-14
 -1       946 1.75818E+01 8.39258E-01 4.11992E-05 1.48121E+00 5.80132E-14 8.20645E-14
 -1       947 1.69094E+01 6.03912E-01 6.74184E-04 1.92309E+00 8.30352E-14 4.63697E-14
 -1       948 1.61713E+01 1.27321E-01 9.69438E-03 2.63324E+00 1.72065E-13 2.60488E-14
 -1       949 1.70214E+01-1.52704E-01 1.58555E-03 2.63300E+00 4.38161E-14 8.95941E-14
 -1       950 1.54260E+01 2.81094E-01 2.56974E-02-2.57947E+00 1.72470E-13-6.47659E-14
 -1       951 2.01942E+01 1.01204E+00-2.16711E-04 8.79081E-02-4.83167E-14 7.45582E-15
 -1       952 1.71997E+01 8.35211E-01-1.62658E-03-1.59742E+00 1.31833E-13-1.00978E-13
 -1       953 1.77914E+01 9.95693E-01-7.35435E-04-1.23452E+00-2.21764E-13-3.81967E-14
 -1       954 1.82748E+01 1.02932E+00-2.09106E-04-9.84003E-01-2.19389E-13-1.44637E-13
 -1       955 1.86654E+01 9.89208E-01-7.64357E-05-7.99574E-01-1.81477E-13-3.56538E-13
 -1       956 1.89794E+01 9.05916E-01-3.52736E-05-6.53656E-01-1.46827E-13-2.63482E-13
 -1       957 1.92295E+01 8.00754E-01-2.01977E-05-5.33012E-01-5.72686E-14-2.57059E-13
 -1       958 1.94264E+01 6.88275E-01-1.38781E-05-4.30926E-01-2.63046E-14-2.45266E-13
 -1       959 1.95798E+01 5.77965E-01-1.03410E-05-3.44091E-01 1.74823E-13 4.21691E-14
 -1       960 1.96977E+01 4.75604E-01-7.95666E-06-2.70681E-01 1.92565E-13 2.38388E-13
 -1       961 1.97871E+01 3.84298E-01-6.92239E-06-2.09397E-01 2.63740E-13 1.89023E-13
 -1       962 1.98536E+01 3.05332E-01-8.38765E-06-1.59035E-01-4.49869E-14 1.32178E-13
 -1       963 1.99025E+01 2.38552E-01-7.45623E-06-1.18321E-01 2.31676E-14 1.89949E-13
 -1       964 1.99372E+01 1.83466E-01 1.48427E-05-8.57386E-02 1.29090E-13 1.73029E-13
 -1       965 1.94184E+01-1.11445E+00 1.63328E-03-2.61073E+00-1.22631E-13 6.30354E-14
 -1       966 1.90561E+01 4.91955E-01-4.78007E-05 1.32048E+00-6.48869E-14 1.16474E-13
 -1       967 1.89859E+01 2.34727E-01-9.55713E-05 1.63914E+00 2.16052E-14 3.43068E-14
 -1       968 2.02013E+01 1.23549E+00 5.89606E-04-2.25487E-02-4.37093E-14-5.11873E-14
 -1       969 1.90309E+01-2.18410E-01-1.30226E-03 2.03747E+00-4.18410E-14-1.91509E-14
 -1       970 1.91778E+01 6.14765E-01-8.27478E-05 1.06502E+00 4.44060E-14 1.38545E-13
 -1       971 1.93157E+01 6.48649E-01-6.60681E-05 8.57386E-01 2.20539E-13 1.37792E-13
 -1       972 1.94500E+01 6.26447E-01-4.95041E-05 6.86998E-01 2.43444E-14 2.30811E-13
 -1       973 1.95709E+01 5.71856E-01-3.84048E-05 5.46308E-01-9.19759E-15 7.04034E-14
 -1       974 1.96742E+01 5.01366E-01-3.01283E-05 4.30059E-01 5.51944E-14-6.02635E-14
 -1       975 1.97592E+01 4.25996E-01-2.34488E-05 3.34416E-01-1.04298E-13 5.12679E-14
 -1       976 1.98269E+01 3.52708E-01-1.79870E-05 2.56376E-01 9.41009E-15 3.01513E-13
 -1       977 1.98794E+01 2.85584E-01-1.36297E-05 1.93408E-01 5.14210E-13 4.02274E-13
 -1       978 1.99188E+01 2.26622E-01-6.64587E-06 1.43220E-01 2.93707E-13 4.81992E-13
 -1       979 1.99476E+01 1.76503E-01 1.40677E-06 1.04099E-01-4.91227E-14 3.21485E-13
 -1       980 2.00818E+01 6.40747E-01-1.57514E-05-4.02637E-01 5.10694E-14-2.17308E-14
 -1       981 1.99523E+01 1.40987E-01-3.02997E-05 3.93939E-02 2.68930E-13 4.37421E-13
 -1       982 2.01308E+01 1.63748E+00 1.63759E-04-6.78969E-02-1.82262E-14-8.26660E-14
 -1       983 2.02106E+01 1.42138E+00-1.53248E-04 1.57909E-01 7.01218E-14-5.71221E-14
 -1       984 1.99600E+01 1.48361E-01 8.69048E-07 7.91332E-02-7.47534E-14-6.74761E-14
 -1       985 2.02326E+01 9.76083E-01 4.58426E-04-7.53976E-02 4.73862E-14-2.86138E-14
 -1       986 2.01199E+01 8.18012E-01-9.52592E-05 2.36232E-01-2.54248E-14 4.90760E-14
 -1       987 1.93369E+01-9.36877E-01-2.68075E-03 2.49172E+00-1.12756E-14 1.85509E-14
 -1       988 1.64315E+01 6.25445E-01 4.59753E-03-1.99105E+00 1.03707E-13-1.35772E-13
 -1       989 2.01157E+01 1.68185E+00 3.58022E-04-1.86809E-02 3.57752E-14-6.45493E-14
 -1       990 1.99931E+01 7.22357E-01-6.79646E-05 3.63564E-01-1.93730E-15 4.53634E-14
 -1       991 1.91523E+01 3.71836E-01-1.76939E-04-1.45463E+00-4.35411E-14-9.00957E-14
 -1       992 2.01756E+01 7.63305E-01-9.24171E-06-2.49654E-01 7.88624E-14-2.07005E-14
 -1       993 1.35744E+01 9.67959E-01 2.25081E-02 1.85307E-01 1.93143E-13-2.21730E-13
 -1       994 1.99126E+01 1.94574E-01-5.76278E-06 8.53787E-04 4.74686E-13 4.90384E-13
 -1       995 1.60760E+01 7.29232E-01 4.67422E-03 1.67196E+00-1.09950E-13 3.27170E-14
 -1       996 2.01434E+01 1.34113E+00 4.74515E-05-4.48508E-03 2.36053E-14-6.00466E-14
 -1       997 1.50549E+01 1.12090E+00 7.81884E-03-8.47252E-01-7.47666E-16 1.43292E-14
 -1       998 1.81596E+01-1.09335E+00 9.67072E-03-3.15898E+00-1.21343E-13 1.58678E-14
 -1       999 1.93000E+01 5.09821E-01-6.54097E-05-1.20509E+00-4.74091E-14-4.03375E-14
 -1      1000 1.51481E+01 5.68598E-01 1.15570E-02-1.84814E+00-2.80530E-14 6.77889E-14
 -1      1001 1.99577E+01 5.85204E-01-8.07376E-06-5.43723E-01 1.86976E-14-4.09247E-14
 -1      1002 1.99352E+01 1.71162E-01-3.65351E-05 5.47754E-02 5.36778E-13 5.44932E-13
 -1      1003 1.91290E+01-3.74354E-01 7.89298E-04-2.15130E+00-6.76945E-14-4.07258E-14
 -1      1004 1.63998E+01-2.08935E-01 1.06755E-02-2.80561E+00-7.47035E-14-1.71044E-14
 -1      1005 1.90729E+01 9.69188E-02-3.75169E-04-1.76481E+00-1.95507E-15-9.89591E-14
 -1      1006 2.01655E+01 1.28735E+00 3.35233E-04-5.47054E-03 6.84617E-14-8.80320E-14
 -1      1007 1.96464E+01 5.72562E-01 1.72604E-05-8.32328E-01 5.37712E-14-2.62400E-14
 -1      1008 1.99192E+01 1.89560E-01 3.86654E-06-3.54745E-02 3.56003E-13-4.62599E-13
 -1      1009 1.98106E+01 5.70926E-01-2.82485E-06-6.83249E-01 1.76827E-14-5.46626E-14
 -1      1010 1.52304E+01 8.57718E-01 4.00016E-03 1.41149E+00 9.48939E-14-2.12970E-13
 -1      1011 1.93342E+01 8.36913E-01-2.03309E-04 3.89520E-01 5.70903E-14 2.55649E-14
 -1      1012 1.89824E+01 9.13187E-01-1.65250E-04 4.52793E-01 3.98703E-14 7.28701E-14
 -1      1013 1.85470E+01 9.97457E-01-1.81760E-04 5.23628E-01 7.61059E-14 4.67779E-14
 -1      1014 1.80069E+01 1.06329E+00-5.03511E-04 6.10598E-01 4.32071E-14 1.30594E-13
 -1      1015 1.73239E+01 1.09202E+00-4.77728E-04 7.31592E-01-5.28914E-14 9.85027E-14
 -1      1016 1.64330E+01 1.05539E+00-5.26301E-04 9.28027E-01 1.44937E-14-9.53814E-14
 -1      1017 2.01479E+01 1.32382E+00 1.97190E-04-4.81671E-03 8.56266E-15-1.32483E-14
 -1      1018 1.57192E+01 1.21902E+00-1.27379E-03 2.37614E-01-1.45088E-13 3.51205E-14
 -1      1019 1.75637E+01 1.18837E+00-1.21480E-03-6.07078E-01-2.03783E-13-5.90047E-14
 -1      1020 1.81259E+01 1.13861E+00-3.84902E-04-4.99702E-01-3.83190E-13-6.08640E-14
 -1      1021 1.85622E+01 1.04800E+00-2.13088E-04-4.17507E-01-1.49249E-13 2.36941E-14
 -1      1022 1.89038E+01 9.35541E-01-1.42486E-04-3.49622E-01-9.39788E-14 1.31104E-13
 -1      1023 1.91722E+01 8.13738E-01-1.02903E-04-2.90409E-01 6.23733E-15 9.47788E-15
 -1      1024 1.93825E+01 6.91863E-01-7.89911E-05-2.37972E-01 7.05391E-14 3.25188E-15
 -1      1025 1.95461E+01 5.76384E-01-6.25696E-05-1.91794E-01 4.53238E-13 8.59593E-14
 -1      1026 1.96720E+01 4.71318E-01-5.17565E-05-1.51751E-01 2.82501E-13 8.16496E-14
 -1      1027 1.97678E+01 3.78696E-01-4.90432E-05-1.17724E-01-2.14670E-14-1.54064E-13
 -1      1028 1.98394E+01 2.99295E-01-7.25721E-05-8.95946E-02-1.85007E-15-3.28476E-13
 -1      1029 1.98920E+01 2.32734E-01-7.17666E-05-6.69139E-02 1.32945E-13-4.80292E-13
 -1      1030 1.82923E+01 6.76155E-01-3.45708E-04 1.31551E+00-1.38076E-13-3.59656E-15
 -1      1031 1.88519E+01 8.17163E-01-2.57535E-04 7.86590E-01 2.49147E-14-1.26844E-13
 -1      1032 1.48708E+01 9.61039E-01 7.90135E-03-8.06214E-01-1.00910E-14-4.95650E-14
 -1      1033 1.85841E+01 7.92900E-01-4.49861E-04 1.01157E+00 1.77597E-14-8.86708E-16
 -1      1034 1.90869E+01 7.83531E-01-1.79407E-04 6.14854E-01 1.98060E-15 3.28879E-14
 -1      1035 1.92875E+01 7.15477E-01-1.34935E-04 4.80792E-01 5.32053E-14-7.88240E-14
 -1      1036 1.94545E+01 6.29891E-01-1.07604E-04 3.74587E-01 7.66910E-14-4.48697E-14
 -1      1037 1.95907E+01 5.38542E-01-8.77134E-05 2.89791E-01-2.19644E-13 1.45053E-13
 -1      1038 1.96992E+01 4.49216E-01-7.55436E-05 2.21944E-01-2.40288E-13 3.49050E-13
 -1      1039 1.97843E+01 3.66528E-01-5.37241E-05 1.67834E-01 1.76701E-13 4.83877E-13
 -1      1040 1.98492E+01 2.93460E-01-1.20426E-05 1.25146E-01 3.66992E-13 7.88161E-13
 -1      1041 1.98978E+01 2.30539E-01 2.81932E-05 9.17596E-02 1.82086E-13 7.28800E-13
 -1      1042 1.99179E+01 1.99579E-01 3.27043E-05 7.13565E-02 4.87995E-13 5.83797E-13
 -1      1043 1.76237E+01 1.79080E-01 3.17611E-03 2.12585E+00-4.93642E-14 6.07487E-14
 -1      1044 2.01974E+01 1.15023E+00 8.75845E-04-3.21553E-02 6.16908E-14-7.27146E-14
 -1      1045 2.01273E+01 1.00535E+00-3.44163E-04 9.93384E-02-2.41342E-14-4.66788E-14
 -1      1046 1.94720E+01 5.63295E-01-2.52563E-05-1.00151E+00 5.04410E-14 3.33843E-14
 -1      1047 1.81304E+01-2.79186E-01 1.53676E-03-2.40672E+00-1.11084E-13-3.48322E-14
 -1      1048 1.79713E+01 4.93283E-01 8.68024E-04 1.65854E+00-1.01548E-13 3.54950E-14
 -1      1049 1.96204E+01 7.86618E-01-1.82522E-04 3.26277E-01-4.10592E-14-2.10275E-14
 -1      1050 2.01689E+01 1.30172E+00 5.05409E-04-1.06094E-02-1.32218E-14-6.65156E-14
 -1      1051 1.99202E+01 1.86284E-01 7.05666E-06 2.97251E-02 4.36165E-13-6.07515E-14
 -1      1052 1.68253E+01 1.18986E+00 2.23767E-03-7.59295E-01-5.81924E-14-1.18153E-13
 -1      1053 2.01110E+01 1.09528E+00 5.37340E-04 6.17930E-03-1.97067E-14 1.06191E-14
 -1      1054 2.01238E+01 1.06568E+00-1.31380E-04-6.05022E-02 2.26030E-14-3.02912E-14
 -1      1055 1.61613E+01 1.16505E+00 1.34985E-03-8.35839E-01-5.83627E-14 1.37816E-14
 -1      1056 1.62374E+01 7.94610E-01 1.18997E-03-1.31158E+00-4.11135E-14 3.73644E-14
 -1      1057 1.98792E+01 2.40051E-01 1.99239E-05 2.52100E-02 4.34967E-13-9.52203E-14
 -1      1058 1.99477E+01 7.15875E-01-4.87138E-05-3.51542E-01 3.23442E-14-1.56305E-14
 -1      1059 1.83797E+01 5.55166E-01 2.11252E-04-1.42453E+00-4.54198E-14-8.92822E-15
 -1      1060 1.87022E+01 6.82699E-01-1.91343E-04-1.12169E+00-1.43318E-14 1.95520E-14
 -1      1061 2.00170E+01 8.52119E-01 2.01299E-04 1.87205E-01-1.88079E-14-4.48303E-14
 -1      1062 1.70103E+01 3.10249E-01 2.45579E-03-2.03946E+00-7.67905E-14 3.37302E-14
 -1      1063 1.93027E+01 7.12163E-01-2.33973E-04-7.23777E-01-6.50693E-15-7.60508E-15
 -1      1064 1.98471E+01 7.84353E-01-1.91179E-04 2.59976E-01-4.44440E-14-5.31127E-14
 -1      1065 1.95533E+01 6.92752E-01-7.58421E-05-5.82644E-01-5.94161E-15-3.09388E-15
 -1      1066 2.00831E+01 8.07896E-01-4.35509E-04-2.37219E-01 3.19460E-14-5.10001E-14
 -1      1067 2.01594E+01 9.44398E-01-9.23315E-05-1.40037E-01 4.80166E-14-8.33526E-14
 -1      1068 1.98775E+01 2.43479E-01 2.00941E-04-2.15694E-02 1.78412E-13 7.92501E-14
 -1      1069 1.90879E+01 9.04670E-01-4.48196E-05 1.03660E-01 5.84499E-14-1.08641E-14
 -1      1070 1.86799E+01 9.79343E-01-1.85325E-04 9.55808E-02-1.50818E-14 2.62797E-15
 -1      1071 1.81618E+01 1.06739E+00 1.92409E-03 8.01176E-02 3.74111E-14-2.89332E-14
 -1      1072 1.74853E+01 1.13715E+00 1.43750E-04 4.33963E-02 2.34964E-15-1.13327E-13
 -1      1073 1.66771E+01 1.14339E+00 3.51439E-03-1.12005E-02-1.19827E-13-6.51242E-14
 -1      1074 1.98968E+01 2.21397E-01 1.68380E-05 5.04749E-02 3.70169E-13 1.29823E-13
 -1      1075 1.76889E+01 1.21206E+00 5.17320E-04-2.95280E-02-6.36691E-14-1.24819E-13
 -1      1076 1.54257E+01 1.10526E+00 1.08802E-03 3.23708E-02-6.24572E-14-1.19959E-13
 -1      1077 1.64185E+01 1.25430E+00 1.76101E-03 1.11185E-01-6.83909E-14-1.68776E-13
 -1      1078 1.71251E+01 1.25436E+00 9.75891E-04 3.11384E-02-6.18829E-14-1.48247E-13
 -1      1079 1.82206E+01 1.12855E+00-3.82976E-04-5.76355E-02-1.31814E-13 3.28109E-13
 -1      1080 1.86321E+01 1.02319E+00-2.89959E-04-7.13006E-02-1.08677E-13 2.77950E-13
 -1      1081 1.89556E+01 9.03866E-01-1.94432E-04-7.47960E-02-1.07894E-13 4.38150E-13
 -1      1082 1.92106E+01 7.79897E-01-1.31508E-04-7.16378E-02-1.54094E-14 3.08315E-13
 -1      1083 1.94110E+01 6.58728E-01-8.94536E-05-6.45217E-02 2.34508E-13 8.81972E-14
 -1      1084 1.95672E+01 5.45596E-01-6.18637E-05-5.54991E-02 2.17039E-13-2.64744E-13
 -1      1085 1.96878E+01 4.43631E-01-5.83547E-05-4.60429E-02 1.21515E-14-5.81086E-13
 -1      1086 1.97802E+01 3.54435E-01 1.19091E-04-3.75053E-02-6.12365E-14-4.55959E-13
 -1      1087 1.98343E+01 2.94965E-01 5.18254E-05-2.90255E-02-7.77915E-14-1.10089E-13
 -1      1088 1.87071E+01 9.41599E-01 3.16544E-04 4.61363E-01-9.29146E-14-1.57490E-13
 -1      1089 1.79187E+01 9.97090E-01-5.74867E-05 8.26884E-01-6.46546E-14-8.64261E-14
 -1      1090 1.83532E+01 9.95185E-01 2.04017E-04 6.14815E-01 9.98824E-14-1.54231E-13
 -1      1091 1.92301E+01 7.54734E-01 1.83795E-04 2.64606E-01 1.04738E-13 1.25425E-13
 -1      1092 1.65350E+01 9.23810E-01 8.69705E-04 1.23540E+00-1.68172E-13 1.33570E-13
 -1      1093 1.94186E+01 6.47800E-01 1.33151E-04 2.00609E-01-1.65757E-13 2.71944E-13
 -1      1094 1.95685E+01 5.43344E-01 9.71843E-05 1.51521E-01-2.58650E-13 1.34302E-13
 -1      1095 1.96857E+01 4.46539E-01 9.21108E-05 1.13774E-01-1.83459E-13 4.89604E-15
 -1      1096 1.97767E+01 3.60086E-01 2.55891E-04 8.37909E-02 3.33965E-14 7.59740E-14
 -1      1097 1.90200E+01 7.17809E-01 4.45049E-04-8.97292E-01 1.32307E-14 1.55870E-15
 -1      1098 1.82104E+01 1.56580E-01 2.07007E-04-1.94435E+00-1.06189E-13 3.52715E-14
 -1      1099 1.97697E+01 6.84937E-01-8.24830E-05-4.62800E-01 1.09212E-14-7.90688E-15
 -1      1100 1.94275E+01 8.41749E-01 1.17784E-04 1.03112E-01 5.46943E-14 4.42526E-14
 -1      1101 1.89958E+01 8.56354E-01 2.50127E-04 3.48839E-01 5.52173E-14-4.01649E-14
 -1      1102 2.00068E+01 9.14297E-01-1.05138E-04 1.49908E-02-1.33111E-14 3.43858E-14
 -1      1103 1.80147E+01 8.84474E-01-8.10284E-04-8.88111E-01-1.17636E-14-4.14831E-15
 -1      1104 1.74264E+01 9.54377E-01-5.21698E-04 1.05277E+00 4.72233E-14 7.69749E-14
 -1      1105 1.63297E+01 1.03486E+00-1.38754E-02-6.42594E-01-1.27132E-13-6.07329E-14
 -1      1106 1.73774E+01 7.63647E-01 2.75828E-03-1.33287E+00-1.14173E-13-1.85512E-14
 -1      1107 1.89126E+01 8.61197E-01 4.35575E-04-5.17515E-01 1.47643E-14-6.16095E-15
 -1      1108 1.92624E+01 8.11611E-01 6.81301E-07-4.01560E-01 5.80204E-15-2.27227E-14
 -1      1109 1.98467E+01 2.83149E-01 4.14796E-07 6.03497E-02 4.80552E-13 6.83482E-14
 -1      1110 1.97881E+01 7.75615E-01-1.55405E-04-2.38678E-01-1.19674E-14-8.48612E-15
 -1      1111 1.96988E+01 8.18648E-01 1.71678E-04 9.28459E-02-5.01399E-15 4.25121E-14
 -1      1112 1.99714E+01 8.32115E-01-9.12129E-05-1.70893E-01 8.71028E-15-2.72238E-14
 -1      1113 1.84737E+01 9.73423E-01-1.96325E-03-3.52790E-01 3.32888E-15-5.97057E-14
 -1      1114 1.98715E+01 8.44380E-01 4.28692E-04 4.87410E-02-2.70423E-14 2.40433E-14
 -1      1115 1.98169E+01 3.12157E-01-3.00994E-04 4.11444E-02 3.24787E-13-3.27774E-13
 -1      1116 1.95517E+01 7.75968E-01-1.24392E-04-3.12844E-01-2.71061E-15-1.66981E-14
 -1      1117 2.78443E+01 9.04607E+00 2.30910E+00-6.65668E+00-1.82632E-14 8.24035E-13
 -1      1118 2.05237E+01 6.22068E+00 2.11848E-01-3.86548E+00-1.12688E-14 2.30170E-13
 -1      1119 1.94448E+01 5.85685E+00 7.79684E-02-2.84242E+00-9.29118E-15-4.41175E-14
 -1      1120 1.90517E+01 5.73413E+00 6.20145E-02-2.18478E+00-6.11317E-15-1.82060E-13
 -1      1121 1.88693E+01 5.67817E+00 5.79228E-02-1.65142E+00-4.50161E-15-2.61345E-13
 -1      1122 1.87733E+01 5.64842E+00 5.47399E-02-1.18998E+00-2.87964E-15-2.99588E-13
 -1      1123 1.87195E+01 5.63147E+00 5.20466E-02-7.71482E-01-1.73299E-15-3.10271E-13
 -1      1124 1.86913E+01 5.62245E+00 5.02098E-02-3.75427E-01-3.57787E-17-3.14276E-13
 -1      1125 1.86827E+01 5.61969E+00 4.96064E-02 8.29515E-03 2.05565E-16-3.09747E-13
 -1      1126 1.86920E+01 5.62271E+00 5.03338E-02 3.92458E-01 1.64734E-15-3.13254E-13
 -1      1127 1.87211E+01 5.63202E+00 5.23339E-02 7.89963E-01 2.70357E-15-3.05349E-13
 -1      1128 1.87763E+01 5.64953E+00 5.54765E-02 1.21120E+00 3.64986E-15-2.75414E-13
 -1      1129 1.88737E+01 5.67975E+00 5.88094E-02 1.67710E+00 4.18589E-15-2.29930E-13
 -1      1130 1.90562E+01 5.73547E+00 6.19909E-02 2.21790E+00 7.06379E-15-1.52422E-13
 -1      1131 1.94410E+01 5.85388E+00 7.19179E-02 2.88285E+00 9.44383E-15-1.05523E-14
 -1      1132 2.04303E+01 6.17586E+00 1.55861E-01 3.84036E+00 9.32587E-15 2.78784E-13
 -1      1133 2.51158E+01 7.96068E+00 1.41973E+00 5.80954E+00 1.87628E-14 8.71303E-13
 -1      1134 2.86566E+01 3.58880E+00 1.25282E+00-4.18884E+00-7.55784E-14 1.20109E-12
 -1      1135 2.01529E+01-1.78041E-01-6.15700E-01-1.07163E-01-1.97689E-14 1.02240E-12
 -1      1136 1.88031E+01-9.69640E-02-2.35951E-01 6.25208E-02-4.73233E-15 7.88919E-13
 -1      1137 1.85103E+01-4.94775E-02-6.07723E-02 4.02119E-02-3.20924E-17 6.04537E-13
 -1      1138 1.85062E+01-2.69300E-02-1.77019E-02 2.65501E-02 1.43505E-15 4.64732E-13
 -1      1139 1.86574E+01-1.63563E-02-8.76614E-03 1.90638E-02 2.38763E-15 4.61003E-13
 -1      1140 1.89012E+01-1.10601E-02-6.72730E-03 1.45671E-02-1.39345E-14 3.68566E-13
 -1      1141 1.92083E+01-8.61530E-03-6.42502E-03 1.18620E-02-8.19223E-16 2.32219E-13
 -1      1142 1.95684E+01-7.88197E-03-7.14565E-03 1.04274E-02-6.91938E-15 1.73261E-13
 -1      1143 1.99831E+01-8.20521E-03-8.71534E-03 1.00879E-02-8.85598E-15 1.06236E-13
 -1      1144 2.04615E+01-9.09364E-03-1.08517E-02 1.08422E-02-2.48889E-15 1.33053E-15
 -1      1145 2.10173E+01-1.00281E-02-1.30466E-02 1.27625E-02-8.66494E-15-2.93029E-14
 -1      1146 2.16644E+01-1.03050E-02-1.44070E-02 1.58944E-02-1.11311E-14-6.59681E-14
 -1      1147 2.24110E+01-8.88295E-03-1.33881E-02 2.00866E-02-5.48314E-15-1.39402E-14
 -1      1148 2.32485E+01-4.26495E-03-7.49922E-03 2.46695E-02 4.77496E-15 3.34420E-14
 -1      1149 2.41353E+01 5.43499E-03 6.72333E-03 2.79106E-02-3.60779E-15 2.46539E-14
 -1      1150 2.49736E+01 2.18999E-02 3.27538E-02 2.63085E-02-2.15446E-14 2.46331E-16
 -1      1151 2.55867E+01 4.49492E-02 7.09247E-02 1.42408E-02 1.89831E-14-4.95437E-15
 -1      1152 2.57154E+01 6.94618E-02 1.12373E-01-1.46039E-02-1.24909E-14-1.22336E-13
 -1      1153 2.50759E+01 8.19660E-02 1.33282E-01-6.19630E-02-8.22172E-15-2.01145E-13
 -1      1154 2.35202E+01 6.26860E-02 9.92341E-02-1.15742E-01 5.65867E-15-1.33379E-13
 -1      1155 2.12763E+01-7.47454E-04-8.02120E-03-1.44949E-01 1.53218E-14 2.51882E-14
 -1      1156 1.90801E+01-8.81472E-02-1.50326E-01-1.15120E-01 2.85136E-14 1.44870E-13
 -1      1157 1.79144E+01-1.42158E-01-2.36637E-01-2.47720E-02-3.93678E-14 9.99895E-15
 -1      1158 1.83782E+01-1.20080E-01-2.01299E-01 7.97755E-02-1.13937E-14-1.67741E-13
 -1      1159 2.02304E+01-4.04269E-02-7.24874E-02 1.39893E-01 5.90153E-15-6.15341E-14
 -1      1160 2.25801E+01 3.86875E-02 5.86729E-02 1.34384E-01-2.41543E-14-8.89705E-14
 -1      1161 2.45203E+01 7.78469E-02 1.25828E-01 8.71192E-02 6.44190E-15-6.06182E-13
 -1      1162 2.55915E+01 7.71413E-02 1.25518E-01 3.41910E-02 3.11730E-14-2.74454E-13
 -1      1163 2.58020E+01 5.55734E-02 8.92395E-02-3.30853E-03-9.70925E-15-9.97284E-14
 -1      1164 2.54033E+01 3.05732E-02 4.73589E-02-2.20858E-02 1.10159E-14 1.04108E-13
 -1      1165 2.46807E+01 1.06737E-02 1.51741E-02-2.73323E-02 3.56512E-14-1.06148E-13
 -1      1166 2.38526E+01-2.14405E-03-4.37916E-03-2.53398E-02-1.32687E-14-5.80199E-13
 -1      1167 2.30525E+01-8.99276E-03-1.38993E-02-2.05610E-02-3.58586E-14-8.08780E-13
 -1      1168 2.23465E+01-1.17587E-02-1.70483E-02-1.54132E-02 5.29931E-14-5.01330E-13
 -1      1169 2.17576E+01-1.20923E-02-1.67469E-02-1.09282E-02 8.45678E-17-2.12479E-13
 -1      1170 2.12849E+01-1.11555E-02-1.48700E-02-7.39429E-03-2.53915E-14-3.74888E-13
 -1      1171 2.09162E+01-9.67277E-03-1.24725E-02-4.76834E-03-8.27420E-15-3.08514E-13
 -1      1172 2.06356E+01-8.05647E-03-1.00875E-02-2.89328E-03 5.33583E-14 1.19161E-13
 -1      1173 2.04265E+01-6.52061E-03-7.95080E-03-1.59635E-03-1.79562E-14 4.01716E-14
 -1      1174 2.02742E+01-5.16196E-03-6.14223E-03-7.26104E-04-3.14603E-14-1.86626E-13
 -1      1175 2.01660E+01-4.01218E-03-4.66583E-03-1.61478E-04-5.53344E-15-5.56629E-13
 -1      1176 2.00914E+01-3.06890E-03-3.49263E-03 1.90211E-04-3.41846E-14-7.70688E-13
 -1      1177 2.00421E+01-2.31348E-03-2.58258E-03 3.98904E-04 3.79550E-14-4.19487E-13
 -1      1178 2.00115E+01-1.71998E-03-1.89450E-03 5.18083E-04 4.56362E-14-1.06036E-13
 -1      1179 1.99947E+01-1.25846E-03-1.38629E-03 5.90989E-04-9.28580E-15 2.59884E-13
 -1      1180 1.99879E+01-8.93335E-04-9.96844E-04 6.55120E-04-5.96348E-14 5.19505E-13
 -1      1181 1.99884E+01-5.62036E-04-6.03379E-04 7.30958E-04 2.33488E-14 4.85083E-13
 -1      1182 1.99938E+01-2.78728E-04 9.69331E-05 8.43176E-04 4.98890E-14 5.24053E-13
 -1      1183 1.99989E+01 3.74459E-04 9.87106E-04 2.96916E-04 8.62814E-14 5.26014E-13
 -1      1184 2.76453E+01 5.22499E-01 3.65739E-01 1.95642E+00-2.04559E-14 1.36152E-12
 -1      1185 2.00151E+01-6.67091E-02-5.72764E-01 1.28489E-01 8.77770E-16 1.13703E-12
 -1      1186 1.88797E+01-4.14712E-02-1.93100E-01 1.96830E-02 7.06379E-15 8.84889E-13
 -1      1187 1.85417E+01-2.28454E-02-5.17332E-02 2.36480E-03 6.33608E-15 6.99534E-13
 -1      1188 1.85218E+01-1.44833E-02-1.57348E-02-2.71320E-03 3.89749E-15 5.23432E-13
 -1      1189 1.86662E+01-1.02305E-02-8.14149E-03-3.80911E-03 1.19725E-14 4.34312E-13
 -1      1190 1.89048E+01-8.01569E-03-6.68745E-03-3.72525E-03 3.96991E-15 4.15317E-13
 -1      1191 1.92051E+01-6.99074E-03-6.54049E-03-3.29793E-03-9.42833E-15 5.57190E-13
 -1      1192 1.95536E+01-6.68420E-03-6.98590E-03-2.86127E-03-1.66620E-15 4.77739E-13
 -1      1193 1.99472E+01-6.72905E-03-7.83052E-03-2.65999E-03 4.69362E-15 3.41815E-13
 -1      1194 2.03885E+01-6.73638E-03-8.72918E-03-2.94931E-03 2.12446E-14 1.69214E-13
 -1      1195 2.08811E+01-6.21507E-03-9.08293E-03-4.01743E-03-5.12871E-15 1.53311E-13
 -1      1196 2.14253E+01-4.51797E-03-7.97428E-03-6.16640E-03 1.71418E-14 7.67286E-14
 -1      1197 2.20111E+01-8.46119E-04-4.11129E-03-9.62855E-03 1.29144E-14-1.07317E-13
 -1      1198 2.26102E+01 5.60774E-03 4.08919E-03-1.43668E-02-5.84399E-15-1.27646E-13
 -1      1199 2.31660E+01 1.52454E-02 1.80339E-02-1.97078E-02-2.48982E-14 3.63789E-14
 -1      1200 2.35845E+01 2.72656E-02 3.77893E-02-2.38405E-02-1.48837E-14 3.38184E-14
 -1      1201 2.37351E+01 3.86244E-02 6.01277E-02-2.34511E-02 1.98465E-14-1.66017E-13
 -1      1202 2.34706E+01 4.34791E-02 7.65576E-02-1.41967E-02 3.88773E-14-4.95780E-13
 -1      1203 2.26837E+01 3.47709E-02 7.38247E-02 6.92999E-03-3.09908E-15-1.79703E-13
 -1      1204 2.13976E+01 9.38626E-03 4.04517E-02 3.73228E-02-2.13102E-14 1.48076E-13
 -1      1205 1.98513E+01-2.57949E-02-2.12242E-02 6.57477E-02 2.54699E-14 1.85199E-13
 -1      1206 1.84914E+01-5.43898E-02-8.78646E-02 7.59204E-02 2.53829E-14-2.25819E-13
 -1      1207 1.78084E+01-6.07804E-02-1.24916E-01 5.76168E-02-2.47094E-14-4.33938E-13
 -1      1208 1.80777E+01-4.32899E-02-1.11935E-01 1.65786E-02-1.40599E-15-1.04364E-13
 -1      1209 1.91894E+01-1.45909E-02-5.90805E-02-2.75064E-02 2.27292E-15-4.60743E-15
 -1      1210 2.07203E+01 1.02578E-02 2.67828E-03-5.59407E-02 3.39317E-14-1.09635E-15
 -1      1211 2.21781E+01 2.34586E-02 4.59604E-02-6.17550E-02-5.20610E-14-1.21569E-13
 -1      1212 2.32228E+01 2.56043E-02 6.15639E-02-5.04684E-02-8.01659E-15 3.50275E-14
 -1      1213 2.37417E+01 2.11596E-02 5.55719E-02-3.21278E-02 1.45786E-14-9.80362E-14
 -1      1214 2.37962E+01 1.44541E-02 3.95478E-02-1.47182E-02 2.35144E-14-4.45440E-13
 -1      1215 2.35258E+01 8.08106E-03 2.25894E-02-1.95675E-03 2.26095E-14-3.44419E-13
 -1      1216 2.30746E+01 3.13425E-03 9.14998E-03 5.70926E-03-4.74305E-14-4.38018E-14
 -1      1217 2.25559E+01-2.09852E-04 2.53473E-04 9.32843E-03 2.18074E-14-7.78613E-14
 -1      1218 2.20446E+01-2.19391E-03-4.76114E-03 1.02705E-02-3.53577E-14-8.85507E-14
 -1      1219 2.15829E+01-3.17711E-03-7.02805E-03 9.69124E-03 4.07582E-14-5.18611E-13
 -1      1220 2.11893E+01-3.49316E-03-7.58119E-03 8.39524E-03 3.79251E-14-7.48527E-13
 -1      1221 2.08677E+01-3.40291E-03-7.18189E-03 6.87556E-03-2.48010E-14-5.31392E-13
 -1      1222 2.06137E+01-3.09145E-03-6.32825E-03 5.40193E-03-3.07504E-14-3.63884E-13
 -1      1223 2.04189E+01-2.68148E-03-5.32007E-03 4.10176E-03 9.83404E-15-5.87596E-13
 -1      1224 2.02736E+01-2.24952E-03-4.32449E-03 3.01935E-03 3.24964E-14-6.35048E-13
 -1      1225 2.01683E+01-1.84019E-03-3.42615E-03 2.15422E-03-1.92993E-14-1.95134E-13
 -1      1226 2.00946E+01-1.47712E-03-2.66135E-03 1.48427E-03-6.74646E-14 5.07521E-14
 -1      1227 2.00451E+01-1.17039E-03-2.03953E-03 9.78032E-04 1.11352E-15 1.02521E-13
 -1      1228 2.00140E+01-9.17892E-04-1.55332E-03 6.00437E-04-2.67791E-14-4.22017E-13
 -1      1229 1.99965E+01-7.12982E-04-1.18675E-03 3.16178E-04 8.38129E-14-8.73157E-13
 -1      1230 1.99891E+01-5.36393E-04-9.03616E-04 8.34592E-05 3.06125E-14-1.18630E-12
 -1      1231 1.99890E+01-3.17422E-04-5.71277E-04-1.68419E-04 6.26376E-14-1.39611E-12
 -1      1232 1.99939E+01 1.21049E-04 1.33197E-04-5.05793E-04 9.73335E-14-1.59273E-12
 -1      1233 1.99990E+01 2.93893E-04 9.76804E-04-2.88898E-04-7.30644E-14-8.08679E-13
 -1      1234 2.00000E+01-9.04187E-04 8.76806E-04-3.38257E-04-7.33530E-13 7.33637E-14
 -1      1235 1.99996E+01-5.82377E-03-7.96074E-05-6.89491E-04-1.16357E-12 4.26637E-15
 -1      1236 1.99994E+01-9.40306E-03-6.56930E-04-4.02877E-04-1.53705E-13 2.80438E-14
 -1      1237 1.99994E+01-8.10246E-03-6.62115E-04-8.79598E-05 1.98192E-14-1.45153E-13
 -1      1238 1.99996E+01-2.38895E-03-3.72933E-04 1.26711E-04 4.87407E-14-1.88287E-13
 -1      1239 1.99999E+01 5.63292E-03-5.93782E-06 2.22045E-04-6.08670E-13-1.86875E-13
 -1      1240 2.00001E+01 1.35890E-02 3.26984E-04 2.11917E-04-1.10923E-12 4.83406E-14
 -1      1241 2.00002E+01 1.93442E-02 5.55060E-04 1.22029E-04-1.16931E-12-1.25538E-13
 -1      1242 2.00003E+01 2.13063E-02 6.32435E-04-8.99769E-06-8.84992E-13-4.01496E-14
 -1      1243 2.00002E+01 1.89579E-02 5.45515E-04-1.38747E-04-2.19370E-13 1.42799E-13
 -1      1244 2.00001E+01 1.28792E-02 3.08155E-04-2.23759E-04-1.81427E-13-1.87896E-13
 -1      1245 1.99998E+01 4.72075E-03-3.07873E-05-2.27721E-04-3.93185E-13 5.25264E-14
 -1      1246 1.99996E+01-3.32794E-03-4.01930E-04-1.21669E-04 4.45446E-13 1.01699E-14
 -1      1247 1.99994E+01-8.86145E-03-6.82347E-04 1.04878E-04 1.00870E-12 1.62962E-13
 -1      1248 1.99995E+01-9.86335E-03-6.32817E-04 4.93099E-04 1.99950E-13-1.35555E-13
 -1      1249 1.99996E+01-5.67153E-03 7.82877E-05 1.04752E-03-6.87210E-13-1.07202E-13
 -1      1250 2.00000E+01-1.09180E-03 8.30312E-04 4.44159E-04-4.98508E-13 1.28338E-13
 -1      1251-1.00450E+00-2.36719E+01-3.65538E+00-2.18203E+00 4.80171E-14 1.25296E-13
 -1      1252-1.73185E+00-1.48332E+01-3.00698E+00-3.93651E+00 1.10423E-12 4.67182E-13
 -1      1253 3.54900E-01-2.16176E+00-1.81647E+00-4.07053E-02 1.62159E-12 9.63674E-13
 -1      1254 9.03379E+00 7.84609E+00-2.63290E-01 8.29971E+00 1.84963E-12 1.66356E-12
 -1      1255 2.53478E+01 1.10851E+01 1.37805E+00 1.60018E+01 1.28242E-12 1.77902E-12
 -1      1256 4.53785E+01 8.15253E+00 2.86668E+00 1.76589E+01 6.30884E-13 1.54476E-12
 -1      1257 6.13170E+01 3.51661E+00 3.89783E+00 1.07444E+01 1.97981E-13 9.85323E-13
 -1      1258 6.61428E+01 1.79596E+00 4.15104E+00-1.99502E+00-1.13382E-14 7.33497E-13
 -1      1259 5.70870E+01 4.79256E+00 3.61146E+00-1.39336E+01 2.12663E-13-2.54352E-13
 -1      1260 3.78098E+01 9.78476E+00 2.34182E+00-1.78885E+01 8.98170E-13-1.55920E-12
 -1      1261 1.80341E+01 1.06209E+01 7.50202E-01-1.33203E+01 1.29385E-12-1.60916E-12
 -1      1262 4.45361E+00 4.20442E+00-9.20067E-01-4.46719E+00 1.50990E-12-1.23546E-12
 -1      1263-1.15704E+00-7.67992E+00-2.37635E+00 2.48082E+00 1.07536E-12-5.37015E-13
 -1      1264-1.59435E+00-1.91343E+01-3.33584E+00 3.85711E+00 3.77698E-13-2.08916E-13
 -1      1265-8.74842E-01-2.50672E+01-3.78960E+00 5.97626E-01-6.29705E-13-5.23262E-14
 -1      1266-1.46747E+00-2.15228E+01-3.54867E+00-3.45135E+00-1.21825E-12-2.79943E-13
 -1      1267-1.69220E+00-1.08885E+01-2.75212E+00-3.49637E+00-1.56541E-12-7.40519E-13
 -1      1268 2.34102E+00 1.54737E+00-1.38187E+00 2.33674E+00-1.36424E-12-9.45355E-13
 -1      1269 1.42513E+01 9.66330E+00 2.99389E-01 1.13948E+01-1.06093E-12-1.17462E-12
 -1      1270 3.31677E+01 1.04728E+01 1.98204E+00 1.75762E+01-8.92175E-13-1.54610E-12
 -1      1271 5.31716E+01 6.26209E+00 3.40727E+00 1.61014E+01-3.80029E-13-8.19567E-13
 -1      1272 6.60226E+01 2.12966E+00 4.20053E+00 5.88333E+00 2.59723E-14 4.60132E-13
 -1      1273 6.51277E+01 2.44787E+00 4.18099E+00-7.85136E+00-1.31006E-13 9.25149E-13
 -1      1274 4.98401E+01 7.19613E+00 3.20521E+00-1.67772E+01-4.74676E-13 1.23812E-12
 -1      1275 2.86101E+01 1.07871E+01 1.63064E+00-1.67558E+01-1.07625E-12 1.66511E-12
 -1      1276 1.01408E+01 7.88618E+00-2.18566E-01-8.78294E+00-1.70641E-12 1.63336E-12
 -1      1277 2.93346E-01-2.44829E+00-1.86565E+00 2.53551E-01-2.49734E-12 1.35236E-12
 -1      1278-1.75505E+00-1.53620E+01-3.06406E+00 4.21041E+00-2.06457E-12 8.02802E-13
 -1      1279-1.02790E+00-2.39312E+01-3.68288E+00 2.21530E+00-9.20541E-13 1.55553E-13
 -1      1280 2.21921E+01 1.83514E+00-7.22262E-01-2.76780E+00-2.85605E-14 7.04770E-13
 -1      1281 2.03517E+01 4.68254E+00-4.71911E-02-3.26370E+00-8.96505E-14 9.86225E-14
 -1      1282 2.08392E+01 4.79603E+00-1.11603E-01-4.11846E+00-1.10828E-13 2.46692E-13
 -1      1283 1.95500E+01 4.99310E+00-1.89374E-02-2.60371E+00-9.55763E-14-1.01235E-13
 -1      1284 1.98381E+01 5.08682E+00 1.75259E-03-2.99735E+00-1.08143E-13-1.27190E-14
 -1      1285 2.05285E+01 3.94567E+00-2.51477E-02-3.02475E+00-1.63355E-13 9.41747E-14
 -1      1286 1.92118E+01 5.09141E+00-3.44030E-03-2.01699E+00-7.27439E-14-2.14960E-13
 -1      1287 1.93576E+01 5.14564E+00 1.17103E-02-2.31047E+00-8.63823E-14-1.60739E-13
 -1      1288 1.97762E+01 4.36887E+00-2.38024E-02-2.43352E+00-1.46085E-13-7.37049E-14
 -1      1289 1.90362E+01 5.14353E+00 2.92408E-03-1.51320E+00-5.76119E-14-2.77927E-13
 -1      1290 1.91154E+01 5.17353E+00 1.33056E-02-1.76127E+00-6.38968E-14-2.49877E-13
 -1      1291 1.94191E+01 4.56874E+00-1.94736E-02-1.87547E+00-1.10110E-13-1.75884E-13
 -1      1292 1.89367E+01 5.17775E+00 5.86419E-03-1.07354E+00-4.37870E-14-3.06831E-13
 -1      1293 1.89826E+01 5.19513E+00 1.30342E-02-1.29035E+00-4.88967E-14-2.93834E-13
 -1      1294 1.92287E+01 4.68538E+00-1.55717E-02-1.39258E+00-8.68541E-14-2.19932E-13
 -1      1295 1.88784E+01 5.20061E+00 7.37608E-03-6.63480E-01-2.75823E-14-3.14896E-13
 -1      1296 1.89048E+01 5.21052E+00 1.19231E-02-8.66697E-01-3.17862E-14-3.11501E-13
 -1      1297 1.91172E+01 4.75888E+00-1.34631E-02-9.62479E-01-6.19433E-14-2.51962E-13
 -1      1298 1.88496E+01 5.21449E+00 8.48286E-03-2.75541E-01-6.86452E-15-3.11650E-13
 -1      1299 1.88616E+01 5.21897E+00 1.06661E-02-4.69129E-01-1.17645E-14-3.08788E-13
 -1      1300 1.90533E+01 4.80350E+00-1.23405E-02-5.61773E-01-3.58491E-14-2.43854E-13
 -1      1301 1.88447E+01 5.22028E+00 9.56543E-03 1.03474E-01 1.49536E-14-3.12876E-13
 -1      1302 1.88444E+01 5.22015E+00 9.48459E-03-8.71468E-02 5.53453E-15-3.11542E-13
 -1      1303 1.90241E+01 4.82442E+00-1.18750E-02-1.79910E-01 1.45321E-15-2.53929E-13
 -1      1304 1.88630E+01 5.21844E+00 1.07735E-02 4.86098E-01 2.89499E-14-3.19720E-13
 -1      1305 1.88504E+01 5.21370E+00 8.41542E-03 2.92050E-01 2.59929E-14-3.19147E-13
 -1      1306 1.90249E+01 4.82366E+00-1.18966E-02 1.96081E-01 3.67467E-14-2.59813E-13
 -1      1307 1.89076E+01 5.20905E+00 1.20555E-02 8.85266E-01 3.99993E-14-3.09799E-13
 -1      1308 1.88804E+01 5.19899E+00 7.32518E-03 6.81016E-01 3.44564E-14-3.18395E-13
 -1      1309 1.90555E+01 4.80108E+00-1.24021E-02 5.78705E-01 5.39417E-14-2.68008E-13
 -1      1310 1.89860E+01 5.19290E+00 1.32482E-02 1.30794E+00 5.52822E-14-2.72480E-13
 -1      1311 1.89394E+01 5.17514E+00 5.79117E-03 1.08962E+00 4.71958E-14-2.94195E-13
 -1      1312 1.91209E+01 4.75482E+00-1.34412E-02 9.77481E-01 7.27376E-14-2.51424E-13
 -1      1313 1.91224E+01 5.16950E+00 1.35806E-02 1.78727E+00 8.18547E-14-2.16743E-13
 -1      1314 1.90414E+01 5.13873E+00 2.78685E-03 1.53643E+00 7.26866E-14-2.44834E-13
 -1      1315 1.92346E+01 4.67830E+00-1.56117E-02 1.41065E+00 1.03949E-13-1.99677E-13
 -1      1316 1.93675E+01 5.13923E+00 1.13126E-02 2.34463E+00 1.10360E-13-1.36592E-13
 -1      1317 1.92203E+01 5.08308E+00-4.27030E-03 2.04670E+00 1.00201E-13-1.85914E-13
 -1      1318 1.94317E+01 4.55595E+00-1.94298E-02 1.90169E+00 1.50803E-13-1.48350E-13
 -1      1319 1.98627E+01 5.09584E+00 7.49538E-03 3.03561E+00 1.26323E-13 2.39669E-14
 -1      1320 1.95608E+01 4.98417E+00-1.97924E-02 2.64569E+00 1.11335E-13-7.20396E-14
 -1      1321 1.97964E+01 4.34922E+00-2.39179E-02 2.47227E+00 1.78845E-13-4.45408E-14
 -1      1322 2.10728E+01 4.89220E+00 9.25851E-03 4.01252E+00 1.01724E-13 3.29209E-13
 -1      1323 2.03260E+01 4.72569E+00-4.65715E-02 3.37236E+00 1.01752E-13 1.39513E-13
 -1      1324 2.05660E+01 3.90908E+00-2.16141E-02 3.12770E+00 1.86504E-13 1.31409E-13
 -1      1325 2.70885E+01 3.18806E+00 9.19030E-01 4.54852E+00 4.17305E-14 9.10716E-13
 -1      1326 2.19679E+01 3.51163E+00-1.80203E-01 3.85014E+00 4.79616E-14 5.09759E-13
 -1      1327 2.20769E+01 2.55272E+00-3.20413E-02 3.41393E+00 1.65151E-13 4.07063E-13
 -1      1328 2.13567E+01 3.57800E-01-7.60845E-01 1.16654E+00 7.48845E-14 8.90676E-13
 -1      1329 2.19375E+01 1.30421E-01-3.99650E-01-1.26496E+00-8.33639E-14 7.30693E-13
 -1      1330 2.06372E+01 3.05201E-01-1.63632E-01-7.88519E-01-8.02761E-14 6.38226E-13
 -1      1331 2.00556E+01 1.53550E-01-7.29104E-02-3.85136E-01-5.17468E-14 5.90748E-13
 -1      1332 1.96065E+01 9.18444E-02-1.43771E-02-3.13042E-01-6.04169E-14 5.06241E-13
 -1      1333 2.09554E+01 3.67552E-01-1.04066E-01-1.23975E+00-1.38591E-13 3.83436E-13
 -1      1334 1.92692E+01 6.57889E-02 3.34808E-03-1.16185E-01-5.64913E-14 4.71519E-13
 -1      1335 1.91385E+01 4.31582E-02 1.35908E-02-9.75855E-02-4.66849E-14 3.96946E-13
 -1      1336 1.99404E+01 1.34920E-01-3.55392E-02-4.67721E-01-1.10231E-13 3.15588E-13
 -1      1337 1.90035E+01 3.40104E-02 1.34503E-02-3.10153E-03-2.70600E-14 3.52975E-13
 -1      1338 1.90148E+01 2.24693E-02 1.14367E-02 7.68405E-03-2.43520E-14 3.12327E-13
 -1      1339 1.95077E+01 5.87333E-02-9.21291E-03-1.25040E-01-8.00124E-14 2.48431E-13
 -1      1340 1.89924E+01 1.97584E-02 8.98642E-03 5.90713E-02-1.66423E-14 2.97614E-13
 -1      1341 1.90769E+01 1.34608E-02 6.89312E-03 6.57604E-02-3.23569E-14 2.76803E-13
 -1      1342 1.93567E+01 2.97758E-02-4.54238E-03 4.91696E-02-4.39518E-14 1.78909E-13
 -1      1343 1.91223E+01 1.30631E-02 4.89054E-03 9.77729E-02-4.21395E-14 2.79853E-13
 -1      1344 1.92510E+01 9.39811E-03 4.18482E-03 1.02493E-01-4.14846E-14 2.19406E-13
 -1      1345 1.93774E+01 1.78527E-02-3.64199E-03 1.50244E-01-5.48615E-14 1.43273E-13
 -1      1346 1.93414E+01 1.01231E-02 2.63974E-03 1.25765E-01-1.48126E-14 2.03971E-13
 -1      1347 1.95020E+01 7.97855E-03 2.83065E-03 1.29777E-01-2.56240E-14 1.72715E-13
 -1      1348 1.95077E+01 1.31285E-02-3.19792E-03 2.17539E-01-4.41476E-14 1.58171E-13
 -1      1349 1.96266E+01 9.40012E-03 1.45543E-03 1.50144E-01-3.54637E-14 1.58599E-13
 -1      1350 1.98155E+01 8.17089E-03 2.10127E-03 1.54278E-01-4.07239E-14 1.23461E-13
 -1      1351 1.97157E+01 1.22122E-02-2.95646E-03 2.70661E-01-5.85807E-14 1.27725E-13
 -1      1352 1.99701E+01 1.01064E-02 7.13130E-04 1.75311E-01-3.81520E-14 9.84646E-14
 -1      1353 2.01893E+01 9.36491E-03 1.60551E-03 1.80138E-01-4.18875E-14 5.65216E-14
 -1      1354 1.99869E+01 1.36318E-02-2.99057E-03 3.20900E-01-6.03599E-14 7.54040E-14
 -1      1355 2.03738E+01 1.16916E-02 9.83211E-05 2.03995E-01-3.53283E-14 6.00206E-14
 -1      1356 2.06281E+01 1.10279E-02 1.14899E-03 2.09869E-01-1.70038E-14 1.53176E-14
 -1      1357 2.03171E+01 1.64858E-02-3.27978E-03 3.75176E-01-5.28501E-14 4.72029E-14
 -1      1358 2.08444E+01 1.35810E-02-5.44107E-04 2.37395E-01-1.86405E-14-2.41083E-14
 -1      1359 2.11398E+01 1.24927E-02 6.14721E-04 2.44388E-01-4.70262E-14-7.75803E-14
 -1      1360 2.07079E+01 1.98891E-02-3.72339E-03 4.37166E-01-5.12140E-14-1.49792E-14
 -1      1361 2.13900E+01 1.49579E-02-1.28362E-03 2.74718E-01-1.31535E-14-3.72254E-14
 -1      1362 2.17311E+01 1.27494E-02-6.39394E-05 2.82464E-01-1.30000E-14-4.95229E-14
 -1      1363 2.11632E+01 2.25860E-02-4.15360E-03 5.06971E-01-3.30265E-14-5.05410E-14
 -1      1364 2.20149E+01 1.45171E-02-2.08664E-03 3.12117E-01 2.77987E-14-1.38795E-14
 -1      1365 2.24006E+01 1.02162E-02-8.56210E-04 3.19507E-01 1.16868E-14 1.35655E-14
 -1      1366 2.16854E+01 2.25329E-02-4.30161E-03 5.79605E-01 9.68474E-15-3.68327E-14
 -1      1367 2.27124E+01 1.02004E-02-2.72337E-03 3.40980E-01 8.01827E-15 9.49241E-15
 -1      1368 2.31291E+01 2.56562E-03-1.52296E-03 3.45698E-01-1.98143E-15 1.22645E-14
 -1      1369 2.22696E+01 1.64384E-02-3.72908E-03 6.42275E-01-6.28447E-15 5.07636E-14
 -1      1370 2.34533E+01-9.29126E-04-2.62600E-03 3.45801E-01-2.42558E-15 1.87211E-14
 -1      1371 2.38664E+01-1.31100E-02-1.47969E-03 3.43775E-01-8.15266E-15 5.71418E-15
 -1      1372 2.28964E+01-4.97410E-04-1.75447E-03 6.70730E-01-6.18863E-16-8.60249E-15
 -1      1373 2.41722E+01-2.22041E-02-8.04068E-04 3.02827E-01-7.20951E-15 3.40492E-14
 -1      1374 2.45154E+01-3.91505E-02 2.19507E-04 2.87974E-01-2.15882E-14 4.16958E-14
 -1      1375 2.35230E+01-3.39008E-02 2.53915E-03 6.26152E-01 2.50841E-15 7.82256E-14
 -1      1376 2.47527E+01-5.53179E-02 3.88879E-03 1.82590E-01 7.91988E-15 4.94708E-14
 -1      1377 2.49239E+01-7.42294E-02 4.42642E-03 1.47902E-01-2.93619E-14 2.54827E-14
 -1      1378 2.40730E+01-8.70738E-02 1.00115E-02 4.56938E-01-1.23738E-14 1.61274E-13
 -1      1379 2.50245E+01-9.56549E-02 1.16288E-02-3.79211E-02-5.12038E-14 4.97913E-14
 -1      1380 2.48994E+01-1.07999E-01 1.05694E-02-9.61551E-02-2.12746E-14-1.12410E-14
 -1      1381 2.44324E+01-1.53582E-01 2.05157E-02 1.14047E-01-1.93699E-14 9.47367E-14
 -1      1382 2.47916E+01-1.25864E-01 1.95609E-02-3.47941E-01-9.14893E-15-2.93966E-14
 -1      1383 2.42748E+01-1.16768E-01 1.50427E-02-4.21648E-01-3.97286E-14-8.24479E-14
 -1      1384 2.44620E+01-2.06734E-01 3.10112E-02-4.09368E-01-9.85149E-15 1.31865E-13
 -1      1385 2.39203E+01-1.14358E-01 2.09794E-02-6.66709E-01 6.64833E-15-1.15720E-13
 -1      1386 2.30352E+01-6.99688E-02 1.10682E-02-7.27103E-01-3.46858E-15-1.14575E-13
 -1      1387 2.40439E+01-1.97162E-01 3.37966E-02-1.01569E+00-3.09162E-14 5.78357E-14
 -1      1388 2.24865E+01-3.33835E-02 8.14530E-03-8.33479E-01 4.51042E-14-3.31679E-14
 -1      1389 2.14576E+01 4.12165E-02-6.14922E-03-8.36142E-01 9.21943E-14 3.53606E-14
 -1      1390 2.31761E+01-7.74093E-02 1.87361E-02-1.46038E+00 8.98578E-14-4.50785E-14
 -1      1391 2.09000E+01 1.00432E-01-1.73252E-02-6.82772E-01 4.08736E-14 8.47239E-14
 -1      1392 2.01232E+01 1.68466E-01-2.95840E-02-6.01080E-01-3.54109E-14 6.98330E-14
 -1      1393 2.20817E+01 1.35423E-01-1.77813E-02-1.42387E+00 7.77997E-14 1.82250E-14
 -1      1394 1.98220E+01 2.06719E-01-3.79158E-02-2.02156E-01-2.89178E-14 1.18711E-13
 -1      1395 1.96598E+01 2.22106E-01-4.04905E-02-6.75111E-02-3.95933E-14 5.22672E-15
 -1      1396 2.12161E+01 3.27613E-01-5.72501E-02-7.53755E-01-1.81383E-14 8.98240E-14
 -1      1397 1.97816E+01 2.06777E-01-3.64729E-02 3.87699E-01-1.58068E-14 6.64920E-14
 -1      1398 2.03168E+01 1.58036E-01-2.75627E-02 5.01056E-01-2.59306E-14 1.44676E-14
 -1      1399 2.10333E+01 3.71126E-01-6.58375E-02 3.00946E-01-2.62880E-14 1.70169E-13
 -1      1400 2.07942E+01 1.02282E-01-1.62026E-02 7.79221E-01-1.86448E-14-6.81399E-15
 -1      1401 2.17669E+01 2.47292E-02-2.01662E-03 8.14492E-01-8.37178E-15-3.02119E-14
 -1      1402 2.16403E+01 2.34952E-01-3.59512E-02 1.20136E+00-4.58696E-14 1.58970E-13
 -1      1403 2.23551E+01-2.56198E-02 4.94620E-03 8.17177E-01-3.99247E-14-6.74738E-14
 -1      1404 2.33522E+01-8.61572E-02 1.70526E-02 7.77803E-01-8.39780E-14-1.51115E-13
 -1      1405 2.27042E+01 1.31526E-02 4.43889E-03 1.52869E+00-5.33972E-14 2.29504E-14
 -1      1406 2.38155E+01-1.03433E-01 1.45061E-02 5.78621E-01-7.40831E-14-1.56861E-13
 -1      1407 2.45209E+01-1.27449E-01 2.13195E-02 5.06248E-01 3.66374E-15-2.25132E-13
 -1      1408 2.37298E+01-1.56924E-01 2.91739E-02 1.26849E+00-1.19644E-13-3.70433E-14
 -1      1409 2.47478E+01-1.16236E-01 1.30158E-02 2.45803E-01 1.03343E-13-2.69541E-13
 -1      1410 2.50536E+01-1.11391E-01 1.55315E-02 1.78855E-01 1.12759E-13-9.53890E-14
 -1      1411 2.43771E+01-2.12578E-01 3.34192E-02 7.00123E-01 3.12320E-14-6.14309E-14
 -1      1412 2.50497E+01-8.97453E-02 7.06959E-03-3.94585E-02 6.19123E-15-8.75237E-14
 -1      1413 2.50109E+01-7.22029E-02 7.14225E-03-8.42407E-02 4.64819E-15-9.52190E-15
 -1      1414 2.45580E+01-1.80404E-01 2.52273E-02 1.22750E-01 1.08177E-13-1.18207E-13
 -1      1415 2.48396E+01-5.28686E-02 1.77920E-03-2.22362E-01-7.29798E-15-5.48762E-14
 -1      1416 2.45775E+01-3.43190E-02 9.96368E-04-2.44626E-01-3.78066E-14-6.06529E-14
 -1      1417 2.43534E+01-1.14458E-01 1.40943E-02-2.99738E-01 3.37438E-14-1.47429E-13
 -1      1418 2.43124E+01-2.18475E-02-1.00569E-03-3.08355E-01-4.56573E-14-1.28973E-13
 -1      1419 2.39439E+01-7.37463E-03-2.00157E-03-3.14416E-01-4.42918E-14-1.55539E-13
 -1      1420 2.39032E+01-5.29241E-02 5.06095E-03-5.35089E-01-1.68018E-13-1.73465E-13
 -1      1421 2.36446E+01-1.31946E-03-1.71038E-03-3.25877E-01-7.90731E-14-3.80964E-13
 -1      1422 2.32534E+01 8.23445E-03-2.74971E-03-3.22505E-01-1.36194E-13-5.27647E-13
 -1      1423 2.33372E+01-1.00784E-02-6.69188E-04-6.19947E-01-2.11680E-13-2.80580E-13
 -1      1424 2.29598E+01 9.91593E-03-1.33124E-03-3.03805E-01 1.45682E-14-5.06040E-13
 -1      1425 2.25948E+01 1.54617E-02-2.38143E-03-2.96003E-01 6.85385E-14-4.94084E-13
 -1      1426 2.27502E+01 1.41917E-02-3.64074E-03-6.07941E-01-2.86907E-14-2.36845E-13
 -1      1427 2.23291E+01 1.47176E-02-6.38884E-04-2.63391E-01 1.65155E-13-4.36434E-13
 -1      1428 2.20130E+01 1.75093E-02-1.66729E-03-2.54227E-01 1.59373E-13-2.86518E-13
 -1      1429 2.22002E+01 2.50327E-02-4.79731E-03-5.44617E-01 1.63438E-13-2.14483E-13
 -1      1430 2.17851E+01 1.56876E-02-2.55046E-05-2.17782E-01-5.82817E-14-2.99028E-13
 -1      1431 2.15243E+01 1.67735E-02-9.86821E-04-2.08890E-01-4.75006E-14-2.99465E-13
 -1      1432 2.17166E+01 2.77481E-02-4.92286E-03-4.60937E-01 1.07472E-13-3.17349E-13
 -1      1433 2.13361E+01 1.46602E-02 3.85001E-04-1.74067E-01 2.52142E-15-3.13067E-13
 -1      1434 2.11283E+01 1.47739E-02-4.68964E-04-1.66191E-01-2.71486E-14-2.70838E-13
 -1      1435 2.13097E+01 2.62122E-02-4.53565E-03-3.75080E-01-3.91126E-14-4.07013E-13
 -1      1436 2.09774E+01 1.27662E-02 6.01331E-04-1.35493E-01 1.57574E-14-3.06245E-13
 -1      1437 2.08162E+01 1.23747E-02-1.22259E-04-1.28875E-01 9.89356E-14-2.29662E-13
 -1      1438 2.09782E+01 2.28296E-02-3.93822E-03-2.96323E-01 1.26145E-14-2.85467E-13
 -1      1439 2.06980E+01 1.06391E-02 6.75655E-04-1.03103E-01 6.12563E-14 2.78709E-14
 -1      1440 2.05760E+01 1.00219E-02 8.70932E-05-9.77324E-02 4.08050E-14 1.08434E-13
 -1      1441 2.07150E+01 1.89364E-02-3.29311E-03-2.28496E-01 1.51385E-13-3.26484E-14
 -1      1442 2.04853E+01 8.60168E-03 6.61408E-04-7.67992E-02-3.34884E-14 1.16991E-13
 -1      1443 2.03949E+01 7.91794E-03 1.99190E-04-7.25478E-02-5.46835E-14 1.46219E-13
 -1      1444 2.05108E+01 1.52011E-02-2.68110E-03-1.72399E-01 3.99420E-16 8.50111E-14
 -1      1445 2.03268E+01 6.79769E-03 5.99409E-04-5.59555E-02-1.11668E-13 3.08495E-14
 -1      1446 2.02613E+01 6.13299E-03 2.47549E-04-5.26561E-02-1.58474E-13-2.56487E-13
 -1      1447 2.03556E+01 1.19119E-02-2.13784E-03-1.27311E-01-1.90596E-13 9.80195E-14
 -1      1448 2.02113E+01 5.27379E-03 5.16607E-04-3.97591E-02-1.14375E-13-3.63091E-13
 -1      1449 2.01650E+01 4.67035E-03 2.56521E-04-3.72411E-02-5.04330E-14-4.89611E-13
 -1      1450 2.02400E+01 9.15632E-03-1.67498E-03-9.18606E-02-2.29865E-13-6.77383E-14
 -1      1451 2.01292E+01 4.02766E-03 4.28892E-04-2.73819E-02 6.17961E-14-3.85323E-13
 -1      1452 2.00976E+01 3.50263E-03 2.42233E-04-2.54887E-02 1.62555E-13-3.16449E-13
 -1      1453 2.01558E+01 6.92396E-03-1.29187E-03-6.44868E-02 9.86613E-14-2.73912E-13
 -1      1454 2.00727E+01 3.03455E-03 3.44172E-04-1.80615E-02 9.52222E-14-6.99849E-14
 -1      1455 2.00521E+01 2.59070E-03 2.14107E-04-1.66565E-02 9.74905E-14 1.62527E-14
 -1      1456 2.00961E+01 5.16230E-03-9.82031E-04-4.36795E-02 2.82758E-13 1.96201E-13
 -1      1457 2.00354E+01 2.26099E-03 2.64593E-04-1.11331E-02 9.64712E-14-6.17899E-14
 -1      1458 2.00231E+01 1.89233E-03 1.76256E-04-1.01011E-02 7.35743E-14 1.51814E-13
 -1      1459 2.00552E+01 3.80454E-03-7.36851E-04-2.80824E-02 8.42833E-14 3.00351E-13
 -1      1460 2.00126E+01 1.67047E-03 1.88259E-04-6.04081E-03 1.56057E-13 1.29309E-13
 -1      1461 2.00062E+01 1.36413E-03 1.30341E-04-5.28700E-03 8.12682E-14 2.25798E-13
 -1      1462 2.00284E+01 2.78185E-03-5.46918E-04-1.65362E-02 1.65582E-13 2.92616E-13
 -1      1463 2.00002E+01 1.22088E-03 1.13957E-04-2.34489E-03-7.07133E-14 2.94351E-13
 -1      1464 1.99982E+01 9.50584E-04 8.57008E-05-1.79812E-03-6.21841E-14 3.09680E-13
 -1      1465 2.00121E+01 2.02283E-03-4.00049E-04-8.09877E-03 8.92200E-14 9.04013E-14
 -1      1466 1.99954E+01 8.35217E-04 5.63207E-05 2.26114E-04 6.27112E-14 2.67000E-13
 -1      1467 1.99963E+01 5.46308E-04 7.48934E-05 5.96110E-04 1.05101E-13 3.83555E-13
 -1      1468 2.00034E+01 1.41524E-03-2.71591E-04-2.10766E-03 5.65570E-14 8.76820E-14
 -1      1469 1.99955E+01 4.87982E-04 9.83052E-05 1.67161E-03 7.16679E-14 4.20485E-13
 -1      1470 1.99980E+01 2.05289E-06 2.41032E-04 1.88696E-03 8.87906E-15 5.09942E-13
 -1      1471 1.99998E+01 7.05157E-04-1.27494E-04 1.64883E-03 1.87321E-13 2.50265E-13
 -1      1472 1.99988E+01-8.18002E-04 5.58763E-04 9.78858E-04-3.49773E-13 3.96779E-13
 -1      1473 1.99994E+01-1.33370E-03 1.39055E-04 2.38079E-03-2.96494E-13 1.45964E-13
 -1      1474 2.02234E+01 7.53231E-02-1.51116E-01 4.69448E-01 8.74717E-14 7.26967E-13
 -1      1475 2.14707E+01 2.15815E-01-2.28821E-01 7.05271E-01 6.60028E-14 8.35859E-13
 -1      1476 2.16875E+01 8.76770E-01-8.57338E-02 2.03328E+00 1.30319E-13 5.47729E-13
 -1      1477 1.93337E+01 3.29241E-02-2.10400E-02 1.71214E-01 7.37396E-14 5.66488E-13
 -1      1478 1.97341E+01 1.14069E-01-6.20835E-02 2.23424E-01 5.92512E-14 6.60483E-13
 -1      1479 2.02965E+01 1.87119E-01-5.52428E-02 7.57618E-01 1.26697E-13 4.29580E-13
 -1      1480 1.89971E+01 1.62492E-02 5.58490E-03 3.53677E-02 4.69277E-14 4.23942E-13
 -1      1481 1.91125E+01 5.30669E-02 1.32019E-03 6.25621E-02 5.96164E-14 5.18651E-13
 -1      1482 1.95911E+01 7.30773E-02-1.24925E-02 2.66866E-01 1.15899E-13 3.25679E-13
 -1      1483 1.89450E+01 8.87061E-03 6.67742E-03-3.31788E-02 5.03855E-14 3.35881E-13
 -1      1484 1.89296E+01 2.83032E-02 1.13174E-02-1.72260E-02 3.35179E-14 3.93498E-13
 -1      1485 1.93052E+01 3.37119E-02-3.07001E-03 4.24608E-02 8.17176E-14 2.36464E-13
 -1      1486 1.90497E+01 5.60734E-03 4.31251E-03-7.22710E-02 2.14208E-14 2.96378E-13
 -1      1487 1.89650E+01 1.73487E-02 8.74153E-03-6.18524E-02 1.85531E-14 3.20228E-13
 -1      1488 1.92534E+01 1.73427E-02-2.50776E-03-7.66266E-02 5.51165E-14 2.04096E-13
 -1      1489 1.92501E+01 4.16435E-03 2.64735E-03-9.75657E-02-2.20160E-14 3.37111E-13
 -1      1490 1.91238E+01 1.20597E-02 5.61860E-03-8.99296E-02-6.10774E-15 3.00284E-13
 -1      1491 1.93409E+01 1.00940E-02-2.86322E-03-1.47722E-01-3.60345E-15 2.29389E-13
 -1      1492 1.95164E+01 3.67707E-03 1.66729E-03-1.16673E-01 1.89039E-14 3.66804E-13
 -1      1493 1.93610E+01 9.61350E-03 3.71656E-03-1.10299E-01-9.71055E-15 3.49436E-13
 -1      1494 1.95179E+01 7.03282E-03-3.01972E-03-1.95946E-01-2.16470E-14 2.37509E-13
 -1      1495 1.98353E+01 3.72065E-03 9.86726E-04-1.33748E-01 3.35451E-14 2.86752E-13
 -1      1496 1.96557E+01 8.76392E-03 2.63586E-03-1.27692E-01 4.89116E-14 3.52329E-13
 -1      1497 1.97593E+01 6.16708E-03-3.12499E-03-2.34062E-01 4.27458E-14 2.18281E-13
 -1      1498 2.02027E+01 3.98083E-03 4.27471E-04-1.51005E-01 6.34542E-14 1.78715E-13
 -1      1499 1.99994E+01 8.79795E-03 1.95231E-03-1.44697E-01 2.85109E-14 2.27962E-13
 -1      1500 2.00530E+01 6.45770E-03-3.30873E-03-2.68984E-01 7.70122E-14 1.35393E-13
 -1      1501 2.06180E+01 4.12672E-03-2.78441E-05-1.69100E-01 2.61160E-14 1.43436E-13
 -1      1502 2.03900E+01 9.12287E-03 1.44620E-03-1.62319E-01 4.13174E-14 1.85229E-13
 -1      1503 2.03938E+01 7.12054E-03-3.55911E-03-3.03972E-01 5.48244E-14 9.47929E-14
 -1      1504 2.10806E+01 3.73745E-03-2.95517E-04-1.87006E-01 4.22339E-14 9.16810E-14
 -1      1505 2.08274E+01 9.06818E-03 1.02250E-03-1.79961E-01 1.16299E-14 1.08724E-13
 -1      1506 2.07792E+01 7.33174E-03-3.75730E-03-3.39091E-01 2.79582E-14 1.17059E-13
 -1      1507 2.15843E+01 2.25391E-03-1.93947E-04-2.01564E-01 6.26732E-14 1.13451E-14
 -1      1508 2.13086E+01 7.75692E-03 6.57338E-04-1.95064E-01 4.93046E-14 6.80228E-14
 -1      1509 2.12047E+01 6.05221E-03-3.68334E-03-3.70799E-01 7.86654E-14 4.11862E-14
 -1      1510 2.21109E+01-1.02273E-03 5.76492E-04-2.06871E-01 1.66938E-14-2.92336E-14
 -1      1511 2.18227E+01 4.03541E-03 3.95988E-04-2.02562E-01 3.93288E-14 1.16296E-14
 -1      1512 2.16598E+01 1.92223E-03-2.99566E-03-3.91047E-01 9.35496E-14 6.07856E-14
 -1      1513 2.26236E+01-6.81334E-03 2.42204E-03-1.93808E-01-3.97330E-14 2.29660E-14
 -1      1514 2.23438E+01-3.46034E-03 3.74956E-04-1.94403E-01-2.48902E-14-3.02761E-14
 -1      1515 2.21222E+01-6.70296E-03-1.22754E-03-3.86311E-01-1.64964E-14 5.51707E-14
 -1      1516 2.30592E+01-1.54935E-02 5.72047E-03-1.50443E-01-3.40149E-14 4.51557E-14
 -1      1517 2.28246E+01-1.59226E-02 8.26709E-04-1.59719E-01-1.84579E-14 1.66048E-14
 -1      1518 2.25529E+01-2.13726E-02 2.13278E-03-3.37481E-01-4.82856E-14 1.96301E-14
 -1      1519 2.33262E+01-2.63503E-02 1.04363E-02-6.46178E-02 6.34263E-14-6.06065E-14
 -1      1520 2.31907E+01-3.34319E-02 1.99082E-03-8.67648E-02 4.41951E-14 1.51667E-14
 -1      1521 2.28919E+01-4.24969E-02 7.37125E-03-2.22368E-01 6.73229E-14-1.04717E-14
 -1      1522 2.33127E+01-3.65256E-02 1.54522E-02 6.96324E-02 1.17977E-13-2.07897E-13
 -1      1523 2.33423E+01-5.33530E-02 3.85394E-03 3.18867E-02 7.15053E-14-8.61897E-14
 -1      1524 2.30597E+01-6.74098E-02 1.40083E-02-2.35220E-02 1.00149E-13-8.60681E-14
 -1      1525 2.29173E+01-4.02614E-02 1.79172E-02 2.41196E-01-7.75950E-14-2.78347E-13
 -1      1526 2.31717E+01-6.85971E-02 5.71850E-03 1.90019E-01 2.03830E-14-2.46029E-13
 -1      1527 2.29709E+01-8.78466E-02 2.01665E-02 2.56480E-01 8.91873E-14-4.58305E-14
 -1      1528 2.21054E+01-3.01915E-02 1.35519E-02 4.10201E-01-9.25406E-14-5.22499E-15
 -1      1529 2.26035E+01-6.77151E-02 5.84419E-03 3.56554E-01-1.14512E-13-1.93838E-13
 -1      1530 2.25643E+01-8.90006E-02 2.23386E-02 5.74269E-01-1.62516E-13-4.24452E-14
 -1      1531 2.09789E+01-2.59718E-03-5.97347E-04 5.07626E-01-2.78859E-14 1.06685E-13
 -1      1532 2.16571E+01-4.00805E-02 1.99679E-03 4.71704E-01-3.83975E-14 3.11556E-14
 -1      1533 2.18522E+01-5.44370E-02 1.67787E-02 8.32523E-01-1.04005E-13 2.42376E-14
 -1      1534 1.98115E+01 3.55735E-02-2.15475E-02 4.62079E-01 1.11459E-13-1.95122E-14
 -1      1535 2.05042E+01 1.35774E-02-6.41200E-03 4.65398E-01 6.98031E-14 1.14332E-13
 -1      1536 2.09671E+01 2.01218E-02 2.93612E-03 9.00486E-01 2.42029E-14-2.40155E-14
 -1      1537 1.89848E+01 6.60923E-02-3.89548E-02 2.51108E-01 1.01426E-13-2.67460E-13
 -1      1538 1.94661E+01 7.37326E-02-1.60484E-02 3.01403E-01 8.48002E-14-7.42670E-14
 -1      1539 2.01624E+01 1.11836E-01-1.39435E-02 6.84033E-01 1.70971E-13-3.56312E-15
 -1      1540 1.88173E+01 7.05967E-02-4.09628E-02-6.22068E-02-6.25004E-14-3.04125E-13
 -1      1541 1.89030E+01 1.09689E-01-2.06418E-02 1.88696E-02-1.19228E-14-3.62094E-13
 -1      1542 1.97259E+01 1.74556E-01-2.49777E-02 2.10936E-01 5.98271E-14-2.13711E-13
 -1      1543 1.93811E+01 4.60126E-02-2.51397E-02-3.50618E-01-4.90771E-14-8.38288E-14
 -1      1544 1.90352E+01 1.01206E-01-1.59589E-02-2.72671E-01-1.01315E-13-2.44547E-13
 -1      1545 1.98330E+01 1.67934E-01-2.49314E-02-3.48217E-01-1.29372E-13-3.43212E-13
 -1      1546 2.04542E+01 8.34682E-03-6.66263E-04-5.03333E-01-2.06105E-14-6.43791E-14
 -1      1547 1.98112E+01 5.62123E-02-4.31630E-03-4.57367E-01-1.62283E-15-9.40220E-14
 -1      1548 2.04396E+01 9.39300E-02-1.62180E-02-7.69195E-01-4.44974E-14-1.42976E-13
 -1      1549 2.16585E+01-2.31389E-02 1.89828E-02-4.89904E-01-6.58978E-16 5.15560E-15
 -1      1550 2.09421E+01 1.64382E-03 7.68053E-03-4.84576E-01 3.15997E-14 4.55538E-14
 -1      1551 2.13131E+01-3.50231E-03-5.23401E-03-9.14339E-01 1.15293E-14-9.88411E-14
 -1      1552 2.26549E+01-3.77478E-02 2.70825E-02-3.57416E-01-3.35469E-14-6.48266E-14
 -1      1553 2.20633E+01-3.77803E-02 1.42263E-02-3.81822E-01-1.37191E-14-7.15053E-14
 -1      1554 2.21667E+01-7.70017E-02 2.84327E-03-7.91743E-01 2.02460E-14-1.09773E-14
 -1      1555 2.32636E+01-3.70420E-02 2.45960E-02-1.82102E-01-3.47387E-14-8.80546E-15
 -1      1556 2.29008E+01-5.32568E-02 1.43493E-02-2.18523E-01-5.67281E-14-1.40596E-13
 -1      1557 2.27901E+01-1.05374E-01 6.61581E-03-5.12566E-01-1.58623E-14-1.45755E-13
 -1      1558 2.34674E+01-2.79496E-02 1.68121E-02-2.39649E-02 7.43663E-14-1.53145E-13
 -1      1559 2.33414E+01-4.97227E-02 1.02795E-02-5.83575E-02 4.05734E-14-7.81250E-14
 -1      1560 2.30995E+01-9.63233E-02 6.95567E-03-2.02900E-01 4.28138E-14-1.41963E-13
 -1      1561 2.33485E+01-1.69503E-02 8.60851E-03 8.87347E-02 1.99688E-14-3.02487E-13
 -1      1562 2.34093E+01-3.68069E-02 5.20410E-03 6.31751E-02 4.62096E-14-1.87331E-13
 -1      1563 2.31156E+01-6.88956E-02 5.60295E-03 5.31719E-02 6.25689E-14-1.23316E-13
 -1      1564 2.30213E+01-7.63347E-03 2.40386E-03 1.53042E-01-3.25820E-14-1.16716E-13
 -1      1565 2.32009E+01-2.22664E-02 1.17658E-03 1.37428E-01-4.74230E-14-2.57313E-13
 -1      1566 2.29132E+01-3.91727E-02 3.82376E-03 2.23912E-01-3.41129E-14-1.96094E-13
 -1      1567 2.25901E+01-1.12401E-03-1.34430E-03 1.78498E-01 1.27371E-14-1.38455E-13
 -1      1568 2.28276E+01-1.01324E-02-1.20572E-03 1.71117E-01-3.89877E-14-1.54160E-13
 -1      1569 2.25787E+01-1.52800E-02 2.25525E-03 3.13215E-01-6.05236E-14-1.36318E-13
 -1      1570 2.21324E+01 2.76083E-03-3.12407E-03 1.77757E-01 5.13397E-14-1.11973E-13
 -1      1571 2.23833E+01-1.61291E-03-2.18843E-03 1.76113E-01 3.99404E-14-1.17380E-13
 -1      1572 2.21862E+01 7.21051E-04 1.09804E-03 3.40512E-01 5.40154E-14-2.68124E-13
 -1      1573 2.16975E+01 4.67378E-03-3.63295E-03 1.61927E-01-2.22105E-14-1.48504E-13
 -1      1574 2.19342E+01 3.56745E-03-2.28428E-03 1.63762E-01 1.14452E-14-1.10704E-13
 -1      1575 2.17890E+01 9.80042E-03 3.28823E-04 3.27593E-01 9.82070E-15-1.18022E-13
 -1      1576 2.13119E+01 5.29210E-03-3.44955E-03 1.39103E-01 5.99049E-14-3.90445E-13
 -1      1577 2.15201E+01 6.21502E-03-1.94480E-03 1.42731E-01 1.15564E-13-2.30205E-13
 -1      1578 2.14202E+01 1.38784E-02-1.42911E-04 2.92538E-01 1.71827E-13-6.08556E-14
 -1      1579 2.09862E+01 5.15111E-03-2.95924E-03 1.14494E-01 4.59472E-14-5.03324E-13
 -1      1580 2.11605E+01 7.16398E-03-1.46542E-03 1.18796E-01 3.73942E-14-4.44593E-13
 -1      1581 2.10971E+01 1.47853E-02-4.07176E-04 2.48140E-01 9.95903E-14-9.19382E-14
 -1      1582 2.07213E+01 4.62042E-03-2.38427E-03 9.10905E-02-1.07065E-13-3.40819E-13
 -1      1583 2.08619E+01 7.08472E-03-1.00263E-03 9.53960E-02-7.21574E-14-5.33072E-13
 -1      1584 2.08259E+01 1.39096E-02-5.34201E-04 2.02463E-01-8.52322E-14-2.05494E-13
 -1      1585 2.05123E+01 3.93319E-03-1.83710E-03 7.03800E-02 2.55577E-14-2.93071E-13
 -1      1586 2.06222E+01 6.45193E-03-6.20918E-04 7.43264E-02 4.43248E-14-2.76105E-13
 -1      1587 2.06058E+01 1.21818E-02-5.73904E-04 1.60026E-01 1.92004E-14-2.31689E-13
 -1      1588 2.03520E+01 3.22552E-03-1.36539E-03 5.29061E-02 3.51879E-14-2.92647E-13
 -1      1589 2.04354E+01 5.57480E-03-3.34293E-04 5.63313E-02 4.07919E-14-2.43829E-13
 -1      1590 2.04322E+01 1.01717E-02-5.60541E-04 1.22973E-01 7.94889E-14-7.83969E-14
 -1      1591 2.02322E+01 2.57002E-03-9.82119E-04 3.86684E-02-1.59121E-13-9.19961E-14
 -1      1592 2.02938E+01 4.64111E-03-1.33778E-04 4.15308E-02-7.79836E-14-2.23528E-13
 -1      1593 2.02989E+01 8.19962E-03-5.17366E-04 9.19753E-02-1.04417E-13 1.89660E-13
 -1      1594 2.01452E+01 2.00004E-03-6.83631E-04 2.73820E-02 4.22530E-15 1.15720E-13
 -1      1595 2.01894E+01 3.75652E-03-2.64255E-06 2.97076E-02-8.74748E-14 3.39578E-14
 -1      1596 2.01991E+01 6.42707E-03-4.60091E-04 6.68640E-02-2.07579E-13 2.28044E-13
 -1      1597 2.00841E+01 1.52618E-03-4.59652E-04 1.86354E-02-1.45356E-13 2.46457E-13
 -1      1598 2.01147E+01 2.97431E-03 7.61612E-05 2.04852E-02-3.14942E-14 1.12557E-13
 -1      1599 2.01265E+01 4.91979E-03-3.99334E-04 4.70378E-02-4.10258E-14 3.29566E-13
 -1      1600 2.00430E+01 1.14681E-03-2.98574E-04 1.19839E-02 3.56658E-13-1.58680E-13
 -1      1601 2.00632E+01 2.31627E-03 1.16930E-04 1.34337E-02 1.75246E-13 1.66217E-13
 -1      1602 2.00753E+01 3.68983E-03-3.42410E-04 3.17159E-02 1.87036E-13 2.38444E-14
 -1      1603 2.00171E+01 8.49728E-04-1.89287E-04 7.00233E-03 3.12373E-14-4.67793E-13
 -1      1604 2.00294E+01 1.78284E-03 1.30018E-04 8.13000E-03 5.27706E-14-3.67951E-13
 -1      1605 2.00407E+01 2.72037E-03-2.93750E-04 2.00847E-02 2.99854E-13-3.16877E-13
 -1      1606 2.00026E+01 6.20461E-04-1.22418E-04 3.32888E-03 1.85440E-13-8.03941E-13
 -1      1607 2.00090E+01 1.36043E-03 1.22361E-04 4.20396E-03 1.72464E-13-5.96855E-13
 -1      1608 2.00188E+01 1.97266E-03-2.55537E-04 1.13961E-02 2.56563E-13-4.66300E-13
 -1      1609 1.99962E+01 4.38800E-04-7.59130E-05 6.67858E-04-5.66560E-14-7.98427E-13
 -1      1610 1.99984E+01 1.02926E-03 1.00194E-04 1.35412E-03 3.02631E-14-7.34478E-13
 -1      1611 2.00062E+01 1.40705E-03-2.25042E-04 5.02433E-03 9.92398E-14-2.85054E-13
 -1      1612 1.99956E+01 2.48967E-04 2.45812E-05-1.12988E-03 6.20216E-14-8.81161E-13
 -1      1613 1.99948E+01 7.22847E-04 9.11657E-05-5.96998E-04 3.93172E-14-8.13690E-13
 -1      1614 2.00002E+01 9.62745E-04-1.68100E-04 5.41387E-04 1.41391E-14-3.86227E-13
 -1      1615 1.99981E+01-1.44767E-04 3.03533E-04-1.73846E-03-2.01468E-13-7.29339E-13
 -1      1616 1.99958E+01 2.04517E-04 1.66637E-04-1.49714E-03-6.35718E-14-8.60831E-13
 -1      1617 1.99987E+01 2.29491E-04-4.05238E-05-2.09414E-03 4.99346E-15-2.52280E-13
 -1      1618 1.99989E+01-8.83104E-04 5.08463E-04-9.20736E-04-4.49230E-13-4.26840E-13
 -1      1619 2.00003E+01-3.93855E-03-4.31207E-05-1.34616E-03-4.80849E-13 2.00416E-13
 -1      1620 2.00000E+01-2.00495E-03 1.63256E-04-1.47921E-03-5.78611E-13 5.79233E-14
 -1      1621 2.00005E+01-3.59242E-03-1.25195E-04 2.29513E-04-2.68431E-14 1.94196E-13
 -1      1622 2.00004E+01-3.25265E-03-4.21897E-05-1.62501E-04-3.13237E-13 2.90530E-13
 -1      1623 2.00008E+01-1.31708E-04-9.86394E-05-1.07466E-03-1.66268E-13 4.48662E-13
 -1      1624 2.00004E+01 1.26692E-04-1.09060E-04 1.98799E-03-2.00750E-13-1.57057E-13
 -1      1625 2.00004E+01-1.63230E-03-8.07616E-05 1.63781E-03 5.77430E-14-1.83462E-13
 -1      1626 2.00010E+01 2.66212E-03-1.93536E-04 2.08803E-03-8.54548E-14 1.03513E-13
 -1      1627 2.00000E+01 6.48084E-03-6.73005E-05 3.15913E-03-2.71369E-14-2.11132E-13
 -1      1628 2.00002E+01 3.17989E-03-5.86872E-05 2.97827E-03-1.13974E-13 1.40597E-13
 -1      1629 2.00007E+01 7.91834E-03-1.25557E-04 4.98397E-03-9.80382E-14-8.35506E-14
 -1      1630 1.99997E+01 1.37191E-02-3.53652E-05 3.43577E-03-7.82093E-13-4.34072E-13
 -1      1631 1.99999E+01 9.96762E-03-2.77220E-05 3.45064E-03-2.60175E-13-5.64305E-13
 -1      1632 2.00001E+01 1.46758E-02-2.32672E-05 6.50043E-03-2.57501E-13-5.76701E-13
 -1      1633 1.99994E+01 2.02611E-02-1.13854E-05 2.80658E-03-7.51557E-13 5.54990E-14
 -1      1634 1.99995E+01 1.70016E-02-6.20276E-06 2.99936E-03-6.61005E-13-8.23696E-14
 -1      1635 1.99995E+01 2.16174E-02 8.75022E-05 6.28910E-03-3.61826E-13-3.21353E-13
 -1      1636 1.99992E+01 2.43688E-02 2.35617E-06 1.46038E-03-7.64697E-13-1.28231E-14
 -1      1637 1.99993E+01 2.25452E-02 5.55273E-06 1.77361E-03-7.92850E-13 1.93388E-13
 -1      1638 1.99991E+01 2.73007E-02 1.73860E-04 4.46432E-03-4.44108E-13 7.29330E-14
 -1      1639 1.99992E+01 2.50591E-02 7.41996E-06-2.51875E-04-3.03468E-13 1.43002E-13
 -1      1640 1.99992E+01 2.51506E-02 8.15146E-06 1.02490E-04-5.52336E-13 3.28168E-14
 -1      1641 1.99988E+01 3.04270E-02 2.20596E-04 1.52381E-03-2.97088E-13 1.70375E-13
 -1      1642 1.99993E+01 2.21704E-02 3.82433E-06-1.90890E-03-1.09456E-13 1.04752E-13
 -1      1643 1.99992E+01 2.41628E-02 2.29750E-06-1.60041E-03-3.47504E-13 2.23610E-13
 -1      1644 1.99988E+01 3.03153E-02 2.19492E-04-1.79944E-03-2.21862E-14 1.75478E-13
 -1      1645 1.99995E+01 1.64035E-02-9.40500E-06-3.09691E-03-1.13859E-13-1.39858E-13
 -1      1646 1.99994E+01 1.97895E-02-1.19610E-05-2.91462E-03-9.43825E-14-3.09484E-14
 -1      1647 1.99991E+01 2.69820E-02 1.70138E-04-4.69603E-03-8.51194E-14 9.21808E-14
 -1      1648 1.99999E+01 9.31624E-03-3.05938E-05-3.49189E-03 1.88291E-14 2.42093E-13
 -1      1649 1.99997E+01 1.31218E-02-3.73516E-05-3.48803E-03-2.33789E-13 3.20274E-14
 -1      1650 1.99996E+01 2.11994E-02 8.45227E-05-6.43058E-03-8.29296E-14-1.16519E-13
 -1      1651 2.00002E+01 2.48260E-03-6.00391E-05-2.94763E-03 4.46477E-13 1.79485E-13
 -1      1652 2.00001E+01 5.74775E-03-7.21492E-05-3.14491E-03 1.37835E-13 3.11864E-13
 -1      1653 2.00002E+01 1.41796E-02-2.75345E-05-6.53018E-03 1.21614E-13 5.09418E-13
 -1      1654 2.00004E+01-2.21845E-03-9.97722E-05-1.52225E-03 3.84311E-13-2.11225E-15
 -1      1655 2.00004E+01-5.38933E-04-1.11461E-04-1.89301E-03 3.90354E-13 2.13293E-13
 -1      1656 2.00007E+01 7.36461E-03-1.34134E-04-4.87304E-03 1.68290E-13 2.68391E-13
 -1      1657 2.00006E+01-3.61326E-03-3.13469E-05 2.24692E-04-2.03766E-13-3.12278E-13
 -1      1658 2.00005E+01-4.04161E-03-1.42431E-04-1.96221E-04 3.20333E-13-3.07721E-13
 -1      1659 2.00009E+01 2.32455E-03-1.98753E-04-1.86027E-03-5.76676E-14-2.50540E-13
 -1      1660 2.00002E+01-1.57460E-03 1.12030E-04 1.60061E-03-3.97950E-13-2.54003E-13
 -1      1661 2.00005E+01-3.37809E-03-1.27976E-04 1.46626E-03-1.40662E-13-3.57549E-13
 -1      1662 2.00016E+01 1.02705E-03 1.15784E-04 8.05712E-04-5.06396E-14-3.80304E-13
 -1      1663 2.00006E+01 1.00960E-03 1.98211E-04 2.39537E-03 3.74504E-14-2.03964E-13
 -1      1664-6.22654E-01-1.46614E+01-1.71049E+00-9.87575E-01 1.25233E-13 2.54713E-13
 -1      1665-6.06947E-01-1.68641E+01-1.91586E+00 3.13610E-01-3.02036E-13 2.59820E-13
 -1      1666 1.37407E+00-7.95005E+00-1.19855E+00 5.38213E-01 8.64864E-13 6.60721E-13
 -1      1667 6.15636E-01-1.30392E+01-1.71248E+00-8.02728E-02 4.34541E-13 4.34635E-13
 -1      1668 6.72078E+00-2.12709E-01-5.47310E-01 4.50862E+00 1.19638E-12 1.03439E-12
 -1      1669 3.65865E+00-5.81475E+00-1.32182E+00 1.60635E+00 1.04095E-12 6.69687E-13
 -1      1670 1.69720E+01 5.00236E+00 1.99090E-01 9.57000E+00 1.23090E-12 1.18583E-12
 -1      1671 1.06388E+01 1.64640E+00-6.80082E-01 5.90831E+00 1.17717E-12 1.06648E-12
 -1      1672 3.11771E+01 6.30168E+00 9.53445E-01 1.23426E+01 8.20677E-13 1.27054E-12
 -1      1673 2.22879E+01 5.83253E+00 1.15023E-01 1.02674E+01 1.16529E-12 1.17684E-12
 -1      1674 4.48469E+01 5.20277E+00 1.55392E+00 1.08717E+01 4.86389E-13 9.54126E-13
 -1      1675 3.62483E+01 6.73360E+00 9.12357E-01 1.22021E+01 6.27054E-13 1.19860E-12
 -1      1676 5.30979E+01 3.65690E+00 1.76769E+00 4.34266E+00 2.66592E-13 6.12566E-13
 -1      1677 4.82051E+01 5.00262E+00 1.46467E+00 8.81745E+00 3.73507E-13 8.41438E-13
 -1      1678 5.29666E+01 3.99729E+00 1.69634E+00-4.09290E+00 8.92897E-14 3.40949E-13
 -1      1679 5.38294E+01 3.70196E+00 1.72638E+00 1.66879E+00 1.40776E-13 5.33060E-13
 -1      1680 4.48279E+01 5.73358E+00 1.33000E+00-1.07396E+01 5.85247E-13-3.52607E-13
 -1      1681 5.16746E+01 3.97637E+00 1.79555E+00-6.90795E+00 3.59851E-13 2.90767E-13
 -1      1682 3.06268E+01 6.51598E+00 5.48546E-01-1.14361E+01 7.76046E-13-9.25482E-13
 -1      1683 4.00828E+01 5.60742E+00 1.31972E+00-1.15282E+01 5.83478E-13-5.94413E-13
 -1      1684 1.71233E+01 4.43934E+00-2.27439E-01-8.62006E+00 8.82738E-13-9.35030E-13
 -1      1685 2.52553E+01 6.06314E+00 6.44445E-01-1.16195E+01 7.84817E-13-1.04827E-12
 -1      1686 7.37281E+00-1.57646E+00-9.44285E-01-3.93144E+00 9.05054E-13-7.72493E-13
 -1      1687 1.23963E+01 2.99755E+00-1.03150E-01-7.57392E+00 1.00497E-12-9.27591E-13
 -1      1688 1.98005E+00-9.13602E+00-1.51448E+00-4.93594E-01 5.37792E-13-3.84526E-13
 -1      1689 3.74707E+00-3.55563E+00-8.71218E-01-2.40231E+00 8.19345E-13-7.79210E-13
 -1      1690 1.64199E-02-1.49383E+01-1.78009E+00 8.30198E-02-1.28231E-14-3.42670E-13
 -1      1691 2.92251E-01-1.09236E+01-1.40654E+00 3.42139E-01 3.65152E-13-3.54203E-13
 -1      1692-7.65552E-01-1.67444E+01-1.85961E+00-7.47468E-01-5.90347E-13-1.68865E-13
 -1      1693-7.57826E-01-1.61308E+01-1.80949E+00 8.52247E-01-2.00728E-13-2.23044E-13
 -1      1694-1.36351E-01-1.23588E+01-1.49625E+00-7.00984E-01-9.16045E-13-4.16653E-13
 -1      1695-2.75181E-01-1.57336E+01-1.79014E+00 4.36794E-03-6.51312E-13-2.36672E-13
 -1      1696 2.55263E+00-5.54629E+00-1.06205E+00 1.30785E+00-1.01008E-12-5.44842E-13
 -1      1697 1.30055E+00-1.09310E+01-1.63098E+00-4.33606E-02-9.94427E-13-4.11990E-13
 -1      1698 9.75831E+00 1.70229E+00-3.43469E-01 6.16939E+00-8.59757E-13-5.66991E-13
 -1      1699 5.53535E+00-3.38620E+00-1.15616E+00 2.69825E+00-9.70779E-13-5.37126E-13
 -1      1700 2.20814E+01 5.81388E+00 4.73382E-01 1.10501E+01-6.78568E-13-1.04161E-12
 -1      1701 1.43819E+01 3.43720E+00-4.24432E-01 7.56044E+00-7.73159E-13-7.50622E-13
 -1      1702 3.71158E+01 5.91503E+00 1.21503E+00 1.22024E+01-5.25302E-13-7.30971E-13
 -1      1703 2.77137E+01 6.33603E+00 3.98982E-01 1.12308E+01-7.24310E-13-8.40661E-13
 -1      1704 4.98445E+01 4.44866E+00 1.78847E+00 8.87058E+00-3.49444E-13-8.74856E-14
 -1      1705 4.20066E+01 6.12950E+00 1.20261E+00 1.15558E+01-5.29660E-13-6.38933E-13
 -1      1706 5.55203E+01 3.49153E+00 1.95651E+00 7.23112E-01-1.39722E-13 4.53693E-13
 -1      1707 5.25512E+01 4.31722E+00 1.75420E+00 6.40099E+00-2.55684E-13 1.32450E-13
 -1      1708 5.16971E+01 4.48731E+00 1.71119E+00-7.52003E+00-2.91989E-13 8.73857E-13
 -1      1709 5.56303E+01 3.42628E+00 2.00027E+00-2.17898E+00-1.02723E-13 7.18703E-13
 -1      1710 3.89847E+01 6.18394E+00 9.82449E-01-1.12491E+01-5.59053E-13 1.01508E-12
 -1      1711 4.77947E+01 4.60845E+00 1.65534E+00-9.15200E+00-3.59681E-13 9.54681E-13
 -1      1712 2.41463E+01 6.21355E+00 1.84958E-01-1.08081E+01-8.99170E-13 1.15485E-12
 -1      1713 3.38016E+01 6.28452E+00 1.09600E+00-1.25712E+01-6.67466E-13 1.06026E-12
 -1      1714 1.17085E+01 1.11896E+00-6.69508E-01-5.89650E+00-1.36124E-12 9.34364E-13
 -1      1715 1.90488E+01 4.64630E+00 2.86174E-01-9.85649E+00-1.02007E-12 1.01164E-12
 -1      1716 3.54843E+00-6.13061E+00-1.39487E+00-1.38001E+00-1.69775E-12 7.98861E-13
 -1      1717 6.69997E+00-4.72007E-01-6.10234E-01-4.38459E+00-1.52856E-12 9.55014E-13
 -1      1718 3.63722E-01-1.36457E+01-1.81648E+00 4.76724E-01-1.04716E-12 6.76969E-13
 -1      1719 1.01884E+00-8.39652E+00-1.31166E+00-6.58986E-02-1.61160E-12 1.02160E-12
 -1      1720-6.18291E-01-1.69116E+01-1.91152E+00-1.55490E-01-5.70960E-13 3.11307E-13
 -1      1721-6.80222E-01-1.50414E+01-1.76250E+00 1.18451E+00-9.51683E-13 3.58713E-13
 -1      1722 2.40416E+01 1.05102E+00 2.59729E-01 7.45659E+00 7.75824E-13 7.71494E-13
 -1      1723 1.37771E+01-2.82988E+00-3.57883E-01 6.38154E+00 7.31970E-13 7.38465E-13
 -1      1724 1.99996E+01-1.48132E-03 2.64867E-04-1.94012E-03-6.56758E-13-9.28415E-14
 -1      1725 1.99997E+01-2.59432E-04 1.30482E-04-2.61333E-03-2.31393E-13 6.30669E-14
 -1      1726 5.21359E-01-1.02100E+01-1.19405E+00 2.34523E+00 3.64708E-14 6.94889E-13
 -1      1727 5.71286E+00-7.05077E+00-8.72086E-01 4.44908E+00 5.38458E-13 7.12250E-13
 -1      1728-1.36251E+00-1.17423E+01-1.37113E+00 1.34969E-01-2.59966E-13 5.73430E-13
 -1      1729 3.42840E+01 4.12770E+00 8.30633E-01 6.97933E+00 6.37462E-13 7.67164E-13
 -1      1730 4.24238E+01 6.33610E+00 1.32372E+00 4.88680E+00 4.49418E-13 5.83866E-13
 -1      1731 4.59385E+01 7.43759E+00 1.46815E+00 1.30860E+00 3.09863E-13 3.45640E-13
 -1      1732 4.55569E+01 7.11378E+00 1.45310E+00-2.60963E+00 3.93463E-13 2.37199E-13
 -1      1733 3.97479E+01 5.48418E+00 1.09536E+00-5.51614E+00 6.73073E-13 1.89848E-14
 -1      1734 3.04431E+01 2.77220E+00 5.93744E-01-6.99847E+00 5.43954E-13-3.83471E-13
 -1      1735 1.99583E+01-7.55851E-01 2.49426E-02-7.09760E+00 5.01710E-13-5.24358E-13
 -1      1736 1.02256E+01-4.75469E+00-5.55662E-01-5.67309E+00 4.11227E-13-6.33049E-13
 -1      1737 3.18236E+00-8.51855E+00-1.01734E+00-3.57030E+00 1.31006E-13-5.33448E-13
 -1      1738-5.77522E-01-1.09887E+01-1.26852E+00-1.54283E+00-1.05027E-13-5.46507E-13
 -1      1739-1.05658E+00-1.10980E+01-1.27442E+00 8.20936E-01-3.74506E-13-3.48721E-13
 -1      1740 2.00333E+00-9.27158E+00-1.10097E+00 2.96412E+00-5.13922E-13-3.96905E-13
 -1      1741 8.13556E+00-5.90215E+00-7.64561E-01 4.94456E+00-5.55778E-13-2.79665E-13
 -1      1742 1.73449E+01-1.57764E+00-1.64097E-01 6.79170E+00-4.99156E-13-4.32432E-13
 -1      1743 2.82902E+01 2.10630E+00 4.87366E-01 7.30659E+00-4.17277E-13-4.42979E-13
 -1      1744 3.82435E+01 4.87100E+00 1.02640E+00 6.19603E+00-4.80400E-13-9.33698E-14
 -1      1745 4.53972E+01 6.69795E+00 1.46622E+00 3.54077E+00-4.80282E-13 1.19627E-13
 -1      1746 4.77854E+01 7.31367E+00 1.63335E+00-3.51132E-01-3.15858E-13 5.08427E-13
 -1      1747 4.42665E+01 6.43695E+00 1.38101E+00-3.64948E+00-3.74811E-13 7.22256E-13
 -1      1748 3.63544E+01 4.43157E+00 9.58895E-01-6.31062E+00-5.40831E-13 6.74905E-13
 -1      1749 2.57171E+01 8.69369E-01 2.92972E-01-7.12254E+00-6.08957E-13 4.98490E-13
 -1      1750 1.47771E+01-3.17213E+00-3.07097E-01-6.33364E+00-8.73746E-13 4.07452E-13
 -1      1751 5.52168E+00-7.30627E+00-9.05277E-01-4.13321E+00-8.45768E-13 6.57842E-13
 -1      1752 2.84404E-01-1.06137E+01-1.26424E+00-1.88018E+00-6.48148E-13 6.80178E-13
 -1      1753 2.27998E+01 1.97637E+00-2.43731E-02-2.69049E+00-1.04285E-13 5.87030E-13
 -1      1754 1.98504E+01 3.72306E+00-3.55908E-02-2.08994E+00-1.43795E-13-7.69593E-14
 -1      1755 2.00818E+01 3.56600E+00-3.95565E-02-2.38387E+00-1.71058E-13-1.14353E-14
 -1      1756 2.03787E+01 3.17886E+00-4.55016E-02-2.52915E+00-1.74293E-13 6.09929E-14
 -1      1757 2.05867E+01 2.80343E+00-1.41273E-01-2.80049E+00-1.75929E-13 1.52794E-13
 -1      1758 2.04459E+01 2.69814E+00-4.02690E-03-2.16274E+00-1.72952E-13 3.20993E-14
 -1      1759 1.93706E+01 4.22490E+00-2.03836E-02-1.21509E+00-9.55833E-14-1.79454E-13
 -1      1760 1.94493E+01 4.18063E+00-1.69584E-02-1.43528E+00-1.13334E-13-1.64115E-13
 -1      1761 1.92629E+01 4.34145E+00-1.68543E-02-8.16699E-01-6.61355E-14-1.93845E-13
 -1      1762 1.93116E+01 4.31469E+00-1.37814E-02-1.02075E+00-8.25334E-14-1.92487E-13
 -1      1763 1.95355E+01 3.83558E+00-8.67491E-03-1.06226E+00-1.01167E-13-1.75231E-13
 -1      1764 1.92019E+01 4.40990E+00-1.46983E-02-4.41195E-01-2.35353E-14-1.84771E-13
 -1      1765 1.92282E+01 4.39523E+00-1.28134E-02-6.32860E-01-4.71538E-14-1.87704E-13
 -1      1766 1.94251E+01 3.96929E+00-8.51755E-03-6.90849E-01-5.63994E-14-1.77258E-13
 -1      1767 1.91778E+01 4.43932E+00-1.33957E-02-7.83937E-02 1.41612E-14-1.98652E-13
 -1      1768 1.91859E+01 4.43479E+00-1.28194E-02-2.64167E-01-3.94742E-15-1.96192E-13
 -1      1769 1.93650E+01 4.04242E+00-8.39062E-03-3.36155E-01-1.33150E-14-1.80283E-13
 -1      1770 1.91874E+01 4.43319E+00-1.27538E-02 2.82405E-01 5.20199E-14-2.04191E-13
 -1      1771 1.91783E+01 4.43833E+00-1.34940E-02 9.64450E-02 3.58811E-14-1.99181E-13
 -1      1772 1.93466E+01 4.06459E+00-8.35413E-03 9.95984E-03 2.28264E-14-1.91467E-13
 -1      1773 1.92320E+01 4.39059E+00-1.28167E-02 6.51974E-01 6.86942E-14-2.19000E-13
 -1      1774 1.92044E+01 4.40623E+00-1.48144E-02 4.59733E-01 6.29230E-14-2.17174E-13
 -1      1775 1.93676E+01 4.03854E+00-8.43750E-03 3.56366E-01 5.88042E-14-2.04503E-13
 -1      1776 1.93163E+01 4.30800E+00-1.38498E-02 1.03458E+00 8.85628E-14-1.84205E-13
 -1      1777 1.92671E+01 4.33544E+00-1.70230E-02 8.33121E-01 7.64970E-14-2.05613E-13
 -1      1778 1.94301E+01 3.96214E+00-8.53413E-03 7.08669E-01 7.99634E-14-2.04385E-13
 -1      1779 1.94588E+01 4.16848E+00-1.68287E-02 1.45466E+00 1.43994E-13-1.31921E-13
 -1      1780 1.93769E+01 4.21501E+00-2.06652E-02 1.22920E+00 1.10626E-13-1.53948E-13
 -1      1781 1.95427E+01 3.82481E+00-8.73305E-03 1.07730E+00 1.12593E-13-1.56057E-13
 -1      1782 1.96941E+01 3.93803E+00-2.46239E-02 1.91604E+00 1.88002E-13-7.24212E-14
 -1      1783 1.95590E+01 4.01938E+00-2.70922E-02 1.66003E+00 1.60052E-13-1.09454E-13
 -1      1784 1.97284E+01 3.60136E+00-8.36187E-03 1.46808E+00 1.65905E-13-9.58816E-14
 -1      1785 2.00984E+01 3.52614E+00-4.45273E-02 2.41103E+00 2.16233E-13 1.14492E-14
 -1      1786 1.98622E+01 3.69144E+00-3.97178E-02 2.12060E+00 1.99125E-13-4.45789E-14
 -1      1787 2.00309E+01 3.24137E+00-5.12666E-03 1.86558E+00 2.10798E-13-3.53485E-14
 -1      1788 2.09211E+01 2.67611E+00-5.69164E-02 2.80537E+00 2.02868E-13 1.94580E-13
 -1      1789 2.04278E+01 3.09454E+00-5.00872E-02 2.55985E+00 2.08359E-13 8.46823E-14
 -1      1790 2.05375E+01 2.61434E+00 3.20338E-03 2.18159E+00 2.18779E-13 4.88984E-14
 -1      1791 2.17043E+01 1.20887E+00-1.21292E-01 2.29026E+00 1.65194E-13 4.15043E-13
 -1      1792 2.12640E+01 2.25587E+00 8.22947E-05 2.69372E+00 1.82661E-13 2.72116E-13
 -1      1793 2.09435E+01 1.68365E+00-2.22843E-02 2.08767E+00 2.02283E-13 1.87874E-13
 -1      1794 2.09408E+01 7.77043E-01-6.16041E-02 1.48597E+00 1.73382E-13 3.63426E-13
 -1      1795 2.17721E+01 2.44825E+00 9.03404E-02-3.00462E+00-1.44431E-13 3.23547E-13
 -1      1796 2.01224E+01 3.01035E-01-8.24636E-03 6.16258E-01 1.42733E-13 2.66266E-13
 -1      1797 2.06557E+01 4.41828E-01-1.20088E-02 9.94668E-01 1.43122E-13 3.22727E-13
 -1      1798 2.07546E+01 8.45363E-01 1.92977E-03 1.36687E+00 1.71248E-13 2.13357E-13
 -1      1799 2.14979E+01 1.73894E+00 7.91059E-02-2.28914E+00-1.53190E-13 2.48274E-13
 -1      1800 2.05424E+01 5.05170E-01 3.27812E-02-8.71642E-01-1.26892E-13 2.28853E-13
 -1      1801 2.01314E+01 3.59901E-01 8.62609E-03-5.76242E-01-1.11073E-13 1.93956E-13
 -1      1802 1.99541E+01 2.68134E-01 2.76948E-02-3.29731E-01-1.05475E-13 1.96046E-13
 -1      1803 1.97895E+01 1.92304E-01 1.16672E-02-1.84453E-01-9.91273E-14 1.62374E-13
 -1      1804 2.02538E+01 4.97745E-01-6.37797E-03-6.47618E-01-1.31107E-13 1.18188E-13
 -1      1805 1.96908E+01 1.49828E-01 1.71137E-02-3.83709E-02-7.21784E-14 1.55380E-13
 -1      1806 1.96476E+01 1.13947E-01 8.63717E-03 4.37080E-02-4.66771E-14 1.14520E-13
 -1      1807 1.99687E+01 2.67485E-01-6.45373E-03-1.97149E-01-1.02572E-13 9.59319E-14
 -1      1808 1.96134E+01 9.25390E-02 9.33132E-03 1.34841E-01-4.40553E-14 9.61165E-14
 -1      1809 1.96456E+01 7.52750E-02 6.27706E-03 1.86673E-01-4.48367E-14 9.65690E-14
 -1      1810 1.98403E+01 1.58982E-01-5.54259E-03 7.36139E-02-6.83479E-14 6.38643E-14
 -1      1811 1.96597E+01 6.47283E-02 5.07559E-03 2.48960E-01-4.81668E-14 1.04089E-13
 -1      1812 1.97417E+01 5.74855E-02 5.19222E-03 2.86461E-01-3.68464E-14 8.60363E-14
 -1      1813 1.98251E+01 1.06629E-01-4.60751E-03 2.49475E-01-5.22130E-14 3.83252E-14
 -1      1814 1.97922E+01 5.31960E-02 2.88592E-03 3.34852E-01-4.46585E-14 7.10924E-14
 -1      1815 1.99114E+01 5.20083E-02 4.88046E-03 3.66846E-01-4.93765E-14 6.29267E-14
 -1      1816 1.98941E+01 8.36448E-02-3.74387E-03 3.76487E-01-4.28984E-14 3.29755E-14
 -1      1817 1.99908E+01 5.16406E-02 1.75995E-03 4.10485E-01-5.89892E-14 7.08019E-14
 -1      1818 2.01417E+01 5.42907E-02 4.97515E-03 4.42350E-01-5.50825E-14 7.14235E-14
 -1      1819 2.00278E+01 7.79436E-02-3.11807E-03 4.81731E-01-5.49898E-14 4.54420E-14
 -1      1820 2.02463E+01 5.63105E-02 1.17575E-03 4.86954E-01-5.78348E-14 5.06663E-14
 -1      1821 2.04277E+01 6.11271E-02 5.23431E-03 5.21912E-01-3.23587E-14 5.83169E-14
 -1      1822 2.02155E+01 8.28909E-02-2.75119E-03 5.81972E-01-6.50943E-14 3.54672E-15
 -1      1823 2.05559E+01 6.41046E-02 8.58780E-04 5.70627E-01-6.60613E-14 2.48291E-14
 -1      1824 2.07690E+01 6.92674E-02 5.41768E-03 6.09962E-01-7.83893E-14 1.23994E-14
 -1      1825 2.04518E+01 9.35394E-02-2.58989E-03 6.87246E-01-8.26208E-14-1.29844E-14
 -1      1826 2.09208E+01 7.13830E-02 6.43869E-04 6.63281E-01-3.00922E-14 9.68328E-15
 -1      1827 2.11663E+01 7.43219E-02 5.20220E-03 7.05869E-01 2.59298E-15-1.82776E-14
 -1      1828 2.07356E+01 1.04545E-01-2.57106E-03 8.01763E-01-4.94575E-14-2.19007E-14
 -1      1829 2.13425E+01 7.28663E-02 4.25384E-04 7.60796E-01-4.68874E-15-5.01238E-15
 -1      1830 2.16191E+01 6.96196E-02 4.13148E-03 8.01978E-01 8.50969E-15 2.06534E-14
 -1      1831 2.10673E+01 1.08457E-01-2.65100E-03 9.22973E-01-2.45688E-14-4.78664E-15
 -1      1832 2.18205E+01 6.04654E-02 1.58152E-04 8.50445E-01-4.46767E-15-5.06604E-15
 -1      1833 2.21209E+01 4.50962E-02 1.61362E-03 8.80285E-01-1.33736E-15 2.58346E-14
 -1      1834 2.14479E+01 9.39890E-02-2.81638E-03 1.03902E+00 1.02358E-14 2.70596E-14
 -1      1835 2.23478E+01 2.23758E-02-1.17044E-04 9.06936E-01 8.22064E-15 3.96584E-14
 -1      1836 2.26551E+01-1.30104E-02-2.97050E-03 9.08230E-01 1.94857E-14 8.40378E-14
 -1      1837 2.18775E+01 4.46070E-02-3.07225E-03 1.12476E+00-2.11451E-15 6.43610E-14
 -1      1838 2.29063E+01-5.62651E-02-2.75045E-04 8.88260E-01-1.36163E-14 6.23260E-14
 -1      1839 2.31895E+01-1.19515E-01-9.92488E-03 8.35653E-01 1.47217E-14 7.42826E-14
 -1      1840 2.23529E+01-6.08956E-02-3.37081E-03 1.13711E+00 1.16565E-14 3.24890E-14
 -1      1841 2.34596E+01-1.88122E-01-2.14750E-04 7.34882E-01 2.23129E-14 1.04436E-13
 -1      1842 2.36709E+01-2.80572E-01-1.84874E-02 5.98386E-01-4.70197E-15 1.14444E-13
 -1      1843 2.28656E+01-2.41896E-01-3.40714E-03 1.01270E+00-6.64573E-15-7.53347E-15
 -1      1844 2.39438E+01-3.68948E-01-1.81270E-04 3.80548E-01 8.29198E-16 1.09905E-13
 -1      1845 2.40227E+01-4.72351E-01-2.57385E-02 1.39069E-01 3.62679E-14 1.20734E-13
 -1      1846 2.33934E+01-4.96952E-01-2.21454E-03 6.74796E-01 1.30191E-15 1.12268E-13
 -1      1847 2.42584E+01-5.50762E-01-1.41907E-03-2.11432E-01 2.84980E-14 1.39571E-13
 -1      1848 2.41487E+01-6.11680E-01-2.62563E-02-5.41666E-01 5.45397E-15 1.54350E-13
 -1      1849 2.38851E+01-7.67830E-01 1.94039E-03 6.31594E-02 1.41588E-14 2.09388E-13
 -1      1850 2.42730E+01-6.16294E-01-6.44758E-03-9.75412E-01-5.84073E-14 1.90957E-13
 -1      1851 2.39576E+01-5.49492E-01-1.44733E-02-1.30458E+00-1.68320E-14 1.77764E-13
 -1      1852 2.42379E+01-9.01419E-01 9.62132E-03-7.96639E-01 1.05662E-14 2.15804E-13
 -1      1853 2.38837E+01-4.03302E-01-1.48787E-02-1.66138E+00 5.38155E-14 1.59050E-13
 -1      1854 2.34257E+01-1.50781E-01 8.06625E-03-1.81801E+00 1.16891E-13 1.25708E-13
 -1      1855 2.43021E+01-6.76127E-01 1.58064E-02-1.69065E+00 1.83000E-14 2.72784E-13
 -1      1856 2.31410E+01 1.53248E-01-2.20275E-02-1.84869E+00 1.34329E-13 4.49606E-14
 -1      1857 2.26986E+01 5.11365E-01 2.33156E-02-1.66178E+00 6.13884E-14 1.13961E-13
 -1      1858 2.39744E+01 3.69236E-02 9.51455E-03-2.16959E+00 8.13867E-14 2.41917E-13
 -1      1859 2.23787E+01 8.17079E-01-1.71242E-02-1.20886E+00-3.86531E-14 1.71987E-13
 -1      1860 2.21473E+01 1.03916E+00 1.41137E-02-6.82068E-01-3.17524E-14 1.28713E-13
 -1      1861 2.33918E+01 9.82881E-01-2.04762E-02-1.73719E+00 2.93723E-14 9.73993E-14
 -1      1862 2.20714E+01 1.11371E+00 5.94432E-03 7.52307E-02-3.07428E-14 1.26836E-13
 -1      1863 2.21630E+01 1.02368E+00-6.74278E-03 6.83558E-01 9.90527E-15 1.62512E-13
 -1      1864 2.30082E+01 1.57029E+00-3.99221E-02-3.69665E-01-1.83950E-14 1.34303E-13
 -1      1865 2.24094E+01 7.98543E-01 2.52059E-02 1.31814E+00-1.19106E-14 1.21313E-13
 -1      1866 2.27803E+01 4.69022E-01-2.02624E-02 1.67598E+00-6.08576E-14 1.65153E-13
 -1      1867 2.31705E+01 1.33817E+00-2.80745E-02 1.22144E+00 2.59480E-14 6.51408E-14
 -1      1868 2.31179E+01 1.36210E-01 1.74361E-02 1.86310E+00-1.49111E-13 5.23210E-14
 -1      1869 2.35985E+01-1.84848E-01-1.90607E-02 1.84824E+00-1.50936E-13-5.66578E-14
 -1      1870 2.37319E+01 4.73626E-01 4.08420E-06 2.11844E+00-1.73297E-13 3.92605E-14
 -1      1871 2.37807E+01-4.10527E-01-5.74786E-03 1.61086E+00-6.69187E-14-8.31765E-14
 -1      1872 2.41815E+01-5.60407E-01-1.07392E-02 1.33687E+00-4.02560E-14-7.69983E-14
 -1      1873 2.42217E+01-4.07083E-01 1.31190E-02 2.01140E+00-1.21088E-13-1.30332E-13
 -1      1874 2.41433E+01-6.15755E-01-2.31210E-02 9.12631E-01-8.51992E-14 2.75049E-14
 -1      1875 2.43567E+01-6.00607E-01-3.02760E-03 5.68541E-01 3.77701E-14 9.44931E-15
 -1      1876 2.43440E+01-8.52534E-01 1.20685E-02 1.24447E+00 1.92429E-14-7.19995E-14
 -1      1877 2.41666E+01-5.45086E-01-2.73029E-02 1.71560E-01 9.57481E-14 1.51317E-14
 -1      1878 2.41780E+01-4.50821E-01-1.65160E-04-1.12687E-01 9.90544E-14-4.19925E-14
 -1      1879 2.41144E+01-8.52106E-01 4.46225E-03 3.33511E-01-1.12271E-14 6.49581E-14
 -1      1880 2.39235E+01-3.60486E-01-2.21126E-02-3.86633E-01 9.69971E-15-1.17459E-13
 -1      1881 2.37778E+01-2.58074E-01 3.64464E-04-5.65384E-01-9.02854E-14-1.53711E-13
 -1      1882 2.36842E+01-6.15302E-01-1.13349E-03-3.93435E-01-3.75533E-14-1.35924E-13
 -1      1883 2.35140E+01-1.78076E-01-1.35352E-02-7.09366E-01-1.54759E-13-1.53445E-13
 -1      1884 2.32736E+01-1.00069E-01 3.53590E-04-7.91326E-01-1.70182E-13-1.27486E-13
 -1      1885 2.31832E+01-3.38346E-01-3.31603E-03-8.39117E-01-8.92095E-14-7.79266E-14
 -1      1886 2.30258E+01-4.49289E-02-5.65227E-03-8.36362E-01-2.79695E-13-1.00009E-13
 -1      1887 2.27459E+01 3.17665E-03 4.97142E-04-8.50007E-01-2.78964E-13-1.73228E-13
 -1      1888 2.26837E+01-1.18920E-01-3.68362E-03-1.03655E+00-2.43367E-13 6.81514E-14
 -1      1889 2.25235E+01 3.49048E-02-6.84300E-06-8.32899E-01-1.13014E-13-9.11038E-14
 -1      1890 2.22433E+01 5.91142E-02 8.08549E-04-8.06651E-01 1.05796E-13-3.50544E-14
 -1      1891 2.22190E+01 2.12588E-02-3.45096E-03-1.06074E+00-1.72738E-13 8.69628E-14
 -1      1892 2.20488E+01 7.40011E-02 3.33858E-03-7.56936E-01 1.15940E-13 1.49902E-15
 -1      1893 2.17915E+01 8.25335E-02 1.13287E-03-7.11907E-01 1.69131E-13-1.73412E-14
 -1      1894 2.18027E+01 9.52650E-02-3.14552E-03-9.83312E-01 7.18002E-14 7.79660E-14
 -1      1895 2.16249E+01 8.70018E-02 4.91101E-03-6.49383E-01 1.01233E-13-1.52669E-13
 -1      1896 2.14016E+01 8.65805E-02 1.35630E-03-5.98907E-01-1.10088E-14-2.32333E-13
 -1      1897 2.14399E+01 1.24569E-01-2.87641E-03-8.57236E-01 1.96296E-14-2.70749E-14
 -1      1898 2.12618E+01 8.53423E-02 5.31853E-03-5.35307E-01-4.82216E-14-2.95235E-13
 -1      1899 2.10756E+01 8.05010E-02 1.44656E-03-4.86771E-01-5.32608E-14-1.96908E-13
 -1      1900 2.11309E+01 1.27615E-01-2.62954E-03-7.16438E-01-3.88029E-14-1.38861E-13
 -1      1901 2.09604E+01 7.65631E-02 5.05758E-03-4.28240E-01 1.40725E-14-1.54003E-13
 -1      1902 2.08098E+01 7.00261E-02 1.42252E-03-3.85146E-01 1.15417E-13-7.63172E-15
 -1      1903 2.08732E+01 1.17188E-01-2.37813E-03-5.80256E-01 5.21344E-14-5.40113E-14
 -1      1904 2.07166E+01 6.51360E-02 4.47156E-03-3.34341E-01 2.63973E-13 5.50984E-14
 -1      1905 2.05979E+01 5.83942E-02 1.32012E-03-2.97902E-01 2.48049E-13 2.18866E-13
 -1      1906 2.06626E+01 1.01137E-01-2.11201E-03-4.58271E-01 2.45544E-13 2.17111E-13
 -1      1907 2.05239E+01 5.34866E-02 3.77255E-03-2.55473E-01 1.71812E-13 1.46452E-13
 -1      1908 2.04323E+01 4.72738E-02 1.17409E-03-2.25669E-01 8.53085E-14 2.09507E-13
 -1      1909 2.04937E+01 8.38553E-02-1.83615E-03-3.54122E-01 2.57537E-13 2.43635E-13
 -1      1910 2.03745E+01 4.27991E-02 3.07906E-03-1.91213E-01-1.07187E-13 3.50095E-13
 -1      1911 2.03053E+01 3.74166E-02 1.01125E-03-1.67430E-01-1.90881E-13 2.14082E-13
 -1      1912 2.03608E+01 6.75751E-02-1.56210E-03-2.68106E-01 4.21845E-14 3.03625E-13
 -1      1913 2.02611E+01 3.35536E-02 2.44980E-03-1.40053E-01-3.26477E-13 3.19561E-13
 -1      1914 2.02099E+01 2.90712E-02 8.49642E-04-1.21448E-01-1.56738E-13 2.80459E-13
 -1      1915 2.02580E+01 5.32733E-02-1.30157E-03-1.98818E-01-2.38565E-13 5.71567E-13
 -1      1916 2.01767E+01 2.58539E-02 1.90796E-03-1.00089E-01 3.76117E-14 1.91188E-13
 -1      1917 2.01397E+01 2.22267E-02 6.99998E-04-8.57773E-02 1.87020E-13 2.62044E-13
 -1      1918 2.01801E+01 4.12426E-02-1.06325E-03-1.44120E-01-6.71454E-14 6.85179E-13
 -1      1919 2.01152E+01 1.96179E-02 1.45711E-03-6.93811E-02 4.16661E-13 1.58120E-13
 -1      1920 2.00893E+01 1.67503E-02 5.67510E-04-5.85368E-02 3.46537E-13 3.81715E-13
 -1      1921 2.01221E+01 3.14272E-02-8.51977E-04-1.01681E-01 2.00563E-13 3.65751E-13
 -1      1922 2.00717E+01 1.46810E-02 1.09047E-03-4.61369E-02 1.07204E-13 4.72792E-13
 -1      1923 2.00541E+01 1.24589E-02 4.52605E-04-3.80321E-02 1.05327E-13 5.51717E-13
 -1      1924 2.00800E+01 2.36101E-02-6.69067E-04-6.92660E-02 2.93810E-13 3.12953E-13
 -1      1925 2.00419E+01 1.08451E-02 7.96119E-04-2.87915E-02 2.18025E-15 5.21186E-13
 -1      1926 2.00306E+01 9.14686E-03 3.50995E-04-2.28161E-02 2.25986E-14 4.02113E-13
 -1      1927 2.00502E+01 1.75058E-02-5.13972E-04-4.48771E-02-8.99975E-15 4.05081E-13
 -1      1928 2.00224E+01 7.89451E-03 5.59850E-04-1.60519E-02-5.30431E-14 2.37102E-13
 -1      1929 2.00157E+01 6.59732E-03 2.64010E-04-1.17344E-02-8.04353E-14 1.03222E-13
 -1      1930 2.00298E+01 1.27989E-02-3.81788E-04-2.68247E-02-1.21115E-13 2.08688E-13
 -1      1931 2.00103E+01 5.52978E-03 3.57230E-04-6.89776E-03 1.58849E-14-8.74139E-14
 -1      1932 2.00070E+01 4.44162E-03 1.81668E-04-3.96344E-03 1.67966E-13-3.26120E-14
 -1      1933 2.00163E+01 9.16462E-03-2.59125E-04-1.37807E-02-1.48169E-13 1.75320E-13
 -1      1934 2.00038E+01 3.43639E-03 2.42202E-04-9.41099E-04 2.43818E-13-1.53847E-13
 -1      1935 2.00025E+01 2.20686E-03 1.19014E-04 6.00700E-04 1.57815E-13-1.10913E-13
 -1      1936 2.00031E+01 2.26627E-03-1.62607E-04 2.55971E-04 4.66419E-14-4.17219E-13
 -1      1937 2.00078E+01 5.70437E-03-2.57673E-04-4.96480E-03 4.99065E-14-1.55401E-13
 -1      1938 1.96806E+01 1.48947E-01 8.52295E-03 2.09293E-01 1.30500E-13 1.82895E-13
 -1      1939 1.99300E+01 2.09566E-01 1.68541E-02 3.86739E-01 1.34812E-13 2.42308E-13
 -1      1940 2.01452E+01 3.56901E-01-1.91457E-03 5.98260E-01 1.62601E-13 1.52068E-13
 -1      1941 1.94914E+01 8.26588E-02 7.72724E-03-9.61858E-03 8.71881E-14 1.46535E-13
 -1      1942 1.95774E+01 1.11150E-01 1.47438E-02 8.63774E-02 8.73433E-14 1.68177E-13
 -1      1943 1.97953E+01 1.77019E-01-2.45276E-03 1.83706E-01 1.11165E-13 1.21968E-13
 -1      1944 1.94712E+01 5.09848E-02 5.42602E-03-1.37970E-01 3.48116E-14 1.67251E-13
 -1      1945 1.94631E+01 6.53955E-02 9.08209E-03-8.00278E-02 6.06620E-14 1.60097E-13
 -1      1946 1.96512E+01 9.81685E-02-3.44809E-03-5.21861E-02 6.59173E-14 1.10581E-13
 -1      1947 1.95623E+01 3.55384E-02 4.11718E-03-2.20921E-01-2.41495E-14 1.41154E-13
 -1      1948 1.94963E+01 4.29651E-02 5.31744E-03-1.81938E-01 1.58120E-15 1.49167E-13
 -1      1949 1.96459E+01 6.10280E-02-3.62587E-03-1.96808E-01 1.24152E-14 9.49421E-14
 -1      1950 1.97308E+01 2.86907E-02 3.51903E-03-2.81630E-01 1.42547E-14 1.20135E-13
 -1      1951 1.96258E+01 3.23371E-02 3.33625E-03-2.51861E-01-2.17207E-14 1.40598E-13
 -1      1952 1.97356E+01 4.37285E-02-3.29454E-03-2.94686E-01-9.03878E-15 6.22447E-14
 -1      1953 1.99582E+01 2.66505E-02 3.23670E-03-3.32812E-01 8.02699E-14 1.32014E-13
 -1      1954 1.98236E+01 2.82352E-02 2.34283E-03-3.06807E-01 5.49558E-14 1.49832E-13
 -1      1955 1.98940E+01 3.68702E-02-2.90186E-03-3.69645E-01 4.06914E-14 5.77819E-14
 -1      1956 2.02350E+01 2.69152E-02 3.03855E-03-3.81326E-01 1.09442E-13 5.44083E-14
 -1      1957 2.00753E+01 2.76345E-02 1.82320E-03-3.56090E-01 9.57212E-14 1.17746E-13
 -1      1958 2.01063E+01 3.55079E-02-2.62824E-03-4.34885E-01 1.16364E-13 8.26171E-14
 -1      1959 2.05562E+01 2.72040E-02 2.76569E-03-4.29646E-01-1.17974E-14 8.27168E-14
 -1      1960 2.03736E+01 2.81432E-02 1.48914E-03-4.04100E-01 3.22515E-14 4.82668E-14
 -1      1961 2.03644E+01 3.60862E-02-2.48985E-03-4.96961E-01 5.27863E-14 7.24101E-14
 -1      1962 2.09180E+01 2.48835E-02 2.25617E-03-4.75876E-01 5.36748E-14 7.19500E-14
 -1      1963 2.07145E+01 2.72460E-02 1.15119E-03-4.50944E-01 2.33811E-14 7.30544E-14
 -1      1964 2.06636E+01 3.50904E-02-2.43958E-03-5.56932E-01 2.47755E-14 7.55204E-14
 -1      1965 2.13136E+01 1.66152E-02 1.32757E-03-5.12939E-01 9.47071E-14 1.03481E-13
 -1      1966 2.10934E+01 2.18454E-02 6.52527E-04-4.92020E-01 6.43310E-14 8.09201E-14
 -1      1967 2.09994E+01 2.83169E-02-2.40169E-03-6.10062E-01 5.09926E-14 4.56443E-14
 -1      1968 2.17297E+01-1.71186E-03-1.89376E-04-5.27373E-01 7.36177E-14 5.15031E-14
 -1      1969 2.15014E+01 8.03707E-03-1.43016E-04-5.17014E-01 1.17595E-13 8.81684E-14
 -1      1970 2.13648E+01 1.05167E-02-2.26673E-03-6.44745E-01 1.22641E-13 7.91322E-14
 -1      1971 2.21418E+01-3.44149E-02-2.35591E-03-4.98466E-01-4.90320E-14 7.77677E-15
 -1      1972 2.19214E+01-1.86600E-02-1.32800E-03-5.08886E-01-1.60332E-14 3.68121E-14
 -1      1973 2.17468E+01-2.43381E-02-1.87013E-03-6.41316E-01 7.78891E-16 4.24786E-14
 -1      1974 2.25110E+01-8.41448E-02-4.95431E-03-3.99284E-01-2.72633E-14-2.00664E-14
 -1      1975 2.23234E+01-6.20721E-02-2.89684E-03-4.43971E-01-6.13494E-14-2.79009E-14
 -1      1976 2.21229E+01-8.14799E-02-9.69220E-04-5.72002E-01-2.27010E-14-6.74478E-14
 -1      1977 2.27817E+01-1.47954E-01-7.30707E-03-2.02364E-01 1.00372E-13 2.86663E-15
 -1      1978 2.26610E+01-1.22331E-01-4.68100E-03-2.95300E-01 6.40373E-14 1.58927E-14
 -1      1979 2.24581E+01-1.61401E-01 7.49383E-04-4.04361E-01 2.64628E-14-1.20190E-14
 -1      1980 2.28859E+01-2.11467E-01-8.24688E-03 1.06425E-01 9.49397E-14-3.76121E-14
 -1      1981 2.28713E+01-1.90618E-01-6.32899E-03-4.23131E-02 9.17591E-14-3.67653E-16
 -1      1982 2.27032E+01-2.53005E-01 3.51333E-03-1.11840E-01 1.14313E-13 1.13863E-13
 -1      1983 2.27571E+01-2.43975E-01-6.46569E-03 5.04347E-01-4.63700E-14 5.66292E-14
 -1      1984 2.28819E+01-2.43039E-01-7.26992E-03 3.10554E-01 7.45957E-14 5.99208E-14
 -1      1985 2.27968E+01-3.25688E-01 7.13345E-03 3.05258E-01 4.68653E-14 5.15820E-14
 -1      1986 2.23580E+01-2.02731E-01-1.83336E-03 9.05057E-01-1.53120E-13 1.05645E-14
 -1      1987 2.26320E+01-2.39364E-01-6.84100E-03 7.08660E-01-1.53973E-13-3.17775E-14
 -1      1988 2.26787E+01-3.27135E-01 1.05636E-02 7.89997E-01-9.15908E-14 7.63859E-14
 -1      1989 2.17229E+01-5.84798E-02 3.13765E-03 1.15363E+00-3.58357E-14-6.17371E-14
 -1      1990 2.21118E+01-1.38680E-01-4.53227E-03 1.03038E+00-9.39951E-14-2.22964E-14
 -1      1991 2.23195E+01-2.03107E-01 1.11035E-02 1.20491E+00-9.40142E-14 2.76359E-14
 -1      1992 2.09968E+01 1.63142E-01 4.37547E-03 1.08148E+00 9.82595E-14-3.61967E-14
 -1      1993 2.14118E+01 6.21345E-02-1.39284E-04 1.11159E+00 3.73829E-14-5.25968E-14
 -1      1994 2.17706E+01 5.52562E-02 5.94250E-03 1.35185E+00 1.65785E-14 2.57086E-15
 -1      1995 2.04243E+01 3.65004E-01 3.38329E-04 6.23440E-01 2.12428E-13-7.35592E-14
 -1      1996 2.07381E+01 2.93419E-01 5.75317E-03 8.34031E-01 1.97424E-13-1.88304E-14
 -1      1997 2.11986E+01 3.66588E-01-3.89714E-03 1.07048E+00 2.02460E-13-4.91794E-16
 -1      1998 2.02478E+01 4.31285E-01-5.00789E-03-8.96973E-02-4.68202E-14-1.74231E-13
 -1      1999 2.03440E+01 4.34987E-01 1.14368E-02 2.35856E-01 8.23282E-14-1.12193E-13
 -1      2000 2.08412E+01 5.79468E-01-1.14934E-02 3.78625E-01 1.49946E-13-6.86257E-15
 -1      2001 2.05610E+01 3.17220E-01-6.30874E-03-7.67060E-01-1.50845E-13-2.90856E-13
 -1      2002 2.03957E+01 3.97638E-01 1.34131E-02-4.62273E-01-1.57300E-13-3.05798E-13
 -1      2003 2.08749E+01 5.68557E-01-1.04181E-02-4.74878E-01-7.63348E-14-7.14762E-14
 -1      2004 2.12296E+01 9.97633E-02-1.91238E-03-1.14266E+00-4.25267E-14-1.00980E-13
 -1      2005 2.08628E+01 2.08224E-01 9.62085E-03-9.73266E-01-9.70005E-14-2.30047E-13
 -1      2006 2.12840E+01 3.41130E-01-2.44544E-03-1.13305E+00-1.22839E-13-1.85536E-13
 -1      2007 2.19893E+01-1.04512E-01 3.84463E-03-1.13235E+00 8.42967E-15-1.62878E-13
 -1      2008 2.15502E+01-2.08457E-02 2.12043E-03-1.13132E+00-8.37411E-16-1.26206E-13
 -1      2009 2.18733E+01 2.66579E-02 3.83054E-03-1.36925E+00-3.35296E-14-1.48609E-13
 -1      2010 2.25992E+01-2.16383E-01 7.51359E-03-8.36415E-01 7.28089E-14-2.29920E-14
 -1      2011 2.22175E+01-1.83273E-01-5.10783E-03-9.57283E-01 3.52574E-14-4.70318E-14
 -1      2012 2.24102E+01-2.24368E-01 4.84232E-03-1.18858E+00 1.85815E-14-7.17751E-14
 -1      2013 2.29393E+01-2.31580E-01 7.40689E-03-4.29277E-01 6.16261E-15-1.78089E-13
 -1      2014 2.26945E+01-2.41337E-01-9.19093E-03-5.97969E-01 7.82100E-15-1.06286E-13
 -1      2015 2.27479E+01-3.35760E-01 2.75294E-03-7.62972E-01 2.76662E-14-8.21175E-15
 -1      2016 2.30044E+01-1.86331E-01 4.96676E-03-5.30357E-02 1.18567E-13-1.01640E-13
 -1      2017 2.29152E+01-2.17884E-01-9.93410E-03-2.10079E-01 6.54711E-14-1.02737E-13
 -1      2018 2.28508E+01-3.23243E-01 1.28988E-04-2.87177E-01 3.83764E-14-6.33432E-14
 -1      2019 2.28549E+01-1.21082E-01 2.18655E-03 2.21690E-01-6.68649E-15-4.17500E-14
 -1      2020 2.28974E+01-1.56021E-01-8.32121E-03 1.05767E-01 3.92525E-14-6.77913E-14
 -1      2021 2.27554E+01-2.42772E-01-1.18011E-03 1.09003E-01 1.16964E-14 1.09219E-13
 -1      2022 2.25681E+01-6.11810E-02 1.27478E-04 3.83484E-01-5.11249E-14-1.68300E-13
 -1      2023 2.27012E+01-8.97652E-02-5.70063E-03 3.13893E-01-4.21187E-14-1.93282E-13
 -1      2024 2.25240E+01-1.46974E-01-1.36399E-03 3.76078E-01 3.91826E-14-4.14412E-14
 -1      2025 2.22132E+01-1.66720E-02-9.87526E-04 4.51691E-01 4.95388E-14-2.47878E-13
 -1      2026 2.23956E+01-3.60992E-02-3.05295E-03 4.20884E-01-5.11297E-14-2.39130E-13
 -1      2027 2.22163E+01-6.53965E-02-1.07441E-03 5.18364E-01 4.84205E-16-2.21951E-13
 -1      2028 2.18421E+01 1.16258E-02-1.37124E-03 4.54776E-01-1.17421E-14-1.36523E-13
 -1      2029 2.20411E+01 5.09939E-04-8.89719E-04 4.51259E-01 1.06527E-14-2.21876E-13
 -1      2030 2.18802E+01-7.80847E-03-7.27029E-04 5.64035E-01 8.36202E-15-2.89588E-13
 -1      2031 2.14885E+01 2.68673E-02-1.32216E-03 4.18909E-01 1.41777E-14-1.08127E-13
 -1      2032 2.16819E+01 2.19314E-02 6.20965E-04 4.31977E-01 4.54376E-14-3.04552E-14
 -1      2033 2.15490E+01 2.69737E-02-4.97265E-04 5.45677E-01 5.36669E-15-1.35710E-13
 -1      2034 2.11715E+01 3.30380E-02-1.07684E-03 3.63853E-01 2.19478E-13 1.70606E-14
 -1      2035 2.13465E+01 3.21271E-02 1.52301E-03 3.85340E-01 9.81630E-14-3.16109E-14
 -1      2036 2.12436E+01 4.43168E-02-3.98832E-04 4.90979E-01 6.28452E-14-1.92797E-14
 -1      2037 2.08998E+01 3.35738E-02-7.81588E-04 3.02777E-01 6.61344E-14-6.59798E-14
 -1      2038 2.10503E+01 3.49851E-02 1.94982E-03 3.27180E-01 1.36205E-13 1.20148E-14
 -1      2039 2.09751E+01 5.00055E-02-3.84583E-04 4.20028E-01 1.87079E-13 1.52587E-13
 -1      2040 2.06749E+01 3.09914E-02-5.10339E-04 2.43558E-01-1.97079E-13-6.26113E-15
 -1      2041 2.07993E+01 3.35433E-02 2.04868E-03 2.67537E-01-1.10095E-13-8.93096E-14
 -1      2042 2.07474E+01 4.87362E-02-4.04643E-04 3.45844E-01-7.84408E-14 8.79802E-14
 -1      2043 2.04939E+01 2.69606E-02-2.91437E-04 1.90332E-01 4.79278E-14-2.92972E-14
 -1      2044 2.05936E+01 2.99046E-02 1.94556E-03 2.12092E-01-7.53961E-14-4.41113E-14
 -1      2045 2.05601E+01 4.38257E-02-4.25836E-04 2.75996E-01-1.51457E-13 3.91280E-14
 -1      2046 2.03520E+01 2.25070E-02-1.28991E-04 1.44820E-01-1.34080E-13 7.40672E-14
 -1      2047 2.04298E+01 2.54069E-02 1.73459E-03 1.63575E-01-5.33669E-14-9.76614E-14
 -1      2048 2.04101E+01 3.74103E-02-4.32385E-04 2.14280E-01-7.24587E-14 1.49271E-13
 -1      2049 2.02435E+01 1.82122E-02-1.62891E-05 1.07287E-01-2.01361E-13 3.37197E-13
 -1      2050 2.03026E+01 2.08399E-02 1.47963E-03 1.22865E-01-1.05610E-13 2.03663E-13
 -1      2051 2.02927E+01 3.07611E-02-4.20538E-04 1.62081E-01-2.06186E-13 9.92486E-14
 -1      2052 2.01625E+01 1.43714E-02 5.68557E-05 7.71961E-02-1.17687E-13 1.91708E-13
 -1      2053 2.02063E+01 1.66287E-02 1.22047E-03 8.97748E-02-2.34220E-13 1.63630E-13
 -1      2054 2.02031E+01 2.45696E-02-3.92922E-04 1.19355E-01-1.23096E-13 1.36922E-13
 -1      2055 2.01037E+01 1.11052E-02 1.00487E-04 5.36296E-02 2.60770E-14 1.52742E-13
 -1      2056 2.01352E+01 1.29699E-02 9.79433E-04 6.35561E-02 3.70000E-14 2.57611E-13
 -1      2057 2.01362E+01 1.91621E-02-3.54595E-04 8.52887E-02 1.21940E-14 1.96500E-14
 -1      2058 2.00624E+01 8.43259E-03 1.22995E-04 3.55374E-02 4.61407E-13 1.01096E-14
 -1      2059 2.00842E+01 9.92440E-03 7.66900E-04 4.32253E-02 2.44793E-13 8.66396E-14
 -1      2060 2.00877E+01 1.46470E-02-3.10783E-04 5.87212E-02 3.45021E-13 9.13284E-14
 -1      2061 2.00346E+01 6.30677E-03 1.28426E-04 2.18782E-02 2.13619E-13-2.12878E-13
 -1      2062 2.00490E+01 7.47621E-03 5.85988E-04 2.77490E-02 4.31365E-13-7.47946E-14
 -1      2063 2.00535E+01 1.10123E-02-2.64813E-04 3.83941E-02 4.50995E-13 1.23431E-13
 -1      2064 2.00170E+01 4.62701E-03 1.18716E-04 1.17653E-02 1.28298E-13-2.06193E-13
 -1      2065 2.00258E+01 5.53170E-03 4.33073E-04 1.61754E-02 1.28088E-13-2.32478E-13
 -1      2066 2.00304E+01 8.11978E-03-2.26688E-04 2.31202E-02 1.23451E-13-5.06797E-14
 -1      2067 2.00068E+01 3.28466E-03 9.22415E-05 4.48004E-03-6.28707E-15 2.22748E-14
 -1      2068 2.00116E+01 4.00318E-03 3.04380E-04 7.72744E-03 5.68556E-14 6.56278E-15
 -1      2069 2.00156E+01 5.84657E-03-1.88059E-04 1.19229E-02 2.70016E-14 1.86655E-13
 -1      2070 2.00019E+01 1.99771E-03 1.03259E-04-3.02869E-04-4.10989E-15-7.58761E-14
 -1      2071 2.00038E+01 2.65527E-03 1.93086E-04 1.82164E-03 7.68355E-15 4.08666E-14
 -1      2072 2.00068E+01 3.93431E-03-1.41103E-04 4.02061E-03 2.63106E-15 3.94989E-13
 -1      2073 2.00005E+01 5.43115E-04 1.09716E-04-2.04627E-03-1.61807E-13 8.48327E-14
 -1      2074 2.00008E+01 1.57292E-03 1.11884E-04-1.20556E-03-1.11320E-14 1.20117E-14
 -1      2075 2.00028E+01 2.45230E-03-6.30101E-05-1.68056E-04-9.66904E-14 4.29837E-13
 -1      2076 2.00013E+01 4.55814E-04 4.14679E-05-1.85412E-03-1.69992E-13 3.77489E-13
 -1      2077 2.00017E+01 1.51302E-02-7.15842E-05 8.74005E-03 9.74912E-14-8.70461E-15
 -1      2078 2.00025E+01 1.23072E-02 1.48728E-04 7.47925E-03 4.66472E-14-3.94501E-14
 -1      2079 2.00030E+01 8.19834E-03-1.13627E-05 5.49639E-03-6.68332E-14 4.35197E-14
 -1      2080 2.00033E+01 6.17734E-03 1.26740E-04 3.58360E-03-1.47909E-13 3.71014E-13
 -1      2081 2.00041E+01 1.49075E-02-4.39697E-05 9.36975E-03 7.04657E-14 1.61911E-13
 -1      2082 2.00028E+01 3.28409E-03 3.87769E-05 1.43593E-03-1.46655E-13 4.77668E-13
 -1      2083 2.00023E+01 2.20386E-03 7.62591E-05-1.07227E-04-1.65791E-13 5.22445E-13
 -1      2084 2.00033E+01 3.36122E-03 3.24350E-05 5.43667E-04-1.12741E-13 5.15304E-13
 -1      2085 2.00045E+01 7.96576E-03-1.06504E-04 4.61519E-03-7.85937E-14 4.02818E-13
 -1      2086 1.99999E+01 2.26238E-02-1.28393E-04 9.96650E-03-2.37695E-13-7.72999E-13
 -1      2087 2.00009E+01 1.94611E-02 1.10365E-04 9.65334E-03-1.02444E-13-4.24348E-13
 -1      2088 2.00020E+01 2.32521E-02 1.19098E-06 1.24998E-02-3.87719E-14-4.10786E-13
 -1      2089 1.99981E+01 2.96986E-02-1.69123E-04 8.85957E-03-3.37072E-14-6.40681E-14
 -1      2090 1.99990E+01 2.67434E-02 3.98512E-05 9.56676E-03-2.14787E-13-2.71874E-13
 -1      2091 1.99994E+01 3.16659E-02 9.05010E-05 1.29843E-02-7.51872E-14-4.37758E-13
 -1      2092 1.99968E+01 3.49213E-02-1.83626E-04 5.68690E-03-1.84592E-13 1.66798E-13
 -1      2093 1.99974E+01 3.28679E-02-4.32909E-05 7.22415E-03-1.25893E-13-8.06234E-14
 -1      2094 1.99969E+01 3.89195E-02 1.59072E-04 1.05744E-02 7.73120E-15-1.48918E-13
 -1      2095 1.99962E+01 3.73345E-02-1.65783E-04 1.21231E-03-2.69843E-13 1.45551E-13
 -1      2096 1.99965E+01 3.66330E-02-1.16617E-04 3.20393E-03-3.37767E-13 3.13373E-13
 -1      2097 1.99953E+01 4.37797E-02 2.05504E-04 5.82429E-03-1.48060E-13 9.88104E-14
 -1      2098 1.99965E+01 3.65007E-02-1.16072E-04-3.54300E-03-1.50246E-14 1.73112E-13
 -1      2099 1.99963E+01 3.73078E-02-1.65450E-04-1.56361E-03-3.85365E-14 1.64017E-13
 -1      2100 1.99947E+01 4.54586E-02 2.21921E-04-2.11219E-04-2.32740E-13 2.26737E-13
 -1      2101 1.99975E+01 3.25892E-02-4.35378E-05-7.49786E-03-1.51584E-13-5.79097E-15
 -1      2102 1.99969E+01 3.47378E-02-1.81487E-04-5.99872E-03-1.05661E-13 1.11713E-13
 -1      2103 1.99953E+01 4.36754E-02 2.04778E-04-6.21673E-03-1.62462E-13 2.31865E-14
 -1      2104 1.99991E+01 2.64807E-02 4.04673E-05-9.70587E-03 2.58786E-14 1.38091E-13
 -1      2105 1.99982E+01 2.94347E-02-1.67696E-04-9.05762E-03-7.16469E-14 4.42026E-14
 -1      2106 1.99971E+01 3.87736E-02 1.62172E-04-1.08525E-02-1.35945E-13 4.78486E-14
 -1      2107 2.00010E+01 1.90993E-02 1.13513E-04-9.67289E-03 2.38544E-13 5.98917E-13
 -1      2108 2.00000E+01 2.23366E-02-1.27966E-04-1.00526E-02 8.93722E-14 5.21997E-13
 -1      2109 1.99995E+01 3.15178E-02 8.96020E-05-1.31233E-02 2.28615E-13 3.77092E-13
 -1      2110 2.00026E+01 1.18581E-02 1.46898E-04-7.31926E-03 3.80317E-14 2.77258E-13
 -1      2111 2.00018E+01 1.46720E-02-7.19485E-05-8.66681E-03 5.58124E-14 3.76929E-13
 -1      2112 2.00022E+01 2.29875E-02 7.56749E-06-1.24816E-02-9.84558E-15 3.95868E-13
 -1      2113 2.00031E+01 5.51332E-03-1.96623E-05-3.20053E-03-1.75169E-13-4.45101E-13
 -1      2114 2.00032E+01 7.77809E-03 1.14789E-05-5.23119E-03-1.37083E-13-1.65216E-14
 -1      2115 2.00043E+01 1.46151E-02-2.20805E-05-9.10075E-03-1.98902E-13-3.78744E-14
 -1      2116 1.02747E+01-5.01165E+00-1.50844E-01 6.41523E+00 3.42060E-13 6.10671E-13
 -1      2117 6.72316E+00-6.53801E+00-3.75660E-01 5.26644E+00 9.51461E-14 5.55153E-13
 -1      2118 1.83245E-01-7.33771E+00-4.24660E-01 8.99938E-01-1.47757E-13 6.67300E-13
 -1      2119 1.45702E-01-7.44065E+00-4.41582E-01-5.87971E-01-3.36717E-13 6.12232E-13
 -1      2120 3.49194E+00-6.09378E+00-2.56538E-01 4.25507E+00 1.04416E-13 8.35942E-13
 -1      2121 1.50228E+00-7.20393E+00-4.31143E-01 2.67844E+00-8.58480E-14 7.63278E-13
 -1      2122 1.90948E+01-3.20088E+00 2.43957E-02 6.90504E+00 3.65541E-13 5.00378E-13
 -1      2123 1.44741E+01-5.06238E+00-2.96916E-01 6.20245E+00 3.23852E-13 5.02820E-13
 -1      2124 2.73867E+01-3.12662E-01 1.55407E-01 5.96071E+00 5.25413E-13 4.61131E-13
 -1      2125 2.23648E+01-2.10878E+00-1.63874E-01 5.87914E+00 4.76064E-13 5.35960E-13
 -1      2126 1.95496E+01 4.03972E+00-2.51676E-02-1.63758E+00-1.26925E-13-1.40639E-13
 -1      2127 1.96759E+01 3.96100E+00-2.41628E-02-1.89252E+00-1.44499E-13-1.05558E-13
 -1      2128 1.99917E+01 3.25649E+00-1.85080E-02-1.85673E+00-1.54232E-13-7.92560E-14
 -1      2129 1.97165E+01 3.62594E+00-6.27492E-03-1.45311E+00-1.25682E-13-1.42322E-13
 -1      2130 3.84580E+01 5.61995E+00 2.71425E-01 1.64130E+00 3.64819E-13 2.83051E-13
 -1      2131 3.61048E+01 4.59770E+00 1.71771E-01 2.74275E+00 4.15112E-13 3.94462E-13
 -1      2132 3.94458E+01 7.28214E+00 2.75049E-01-3.07298E-02 3.31513E-13 2.42532E-13
 -1      2133 3.90154E+01 6.88638E+00 2.66162E-01 1.01955E+00 3.23019E-13 3.21992E-13
 -1      2134 3.91884E+01 6.29431E+00 3.34322E-01-1.84866E+00 4.06453E-13 1.22402E-13
 -1      2135 3.98116E+01 6.97324E+00 2.85682E-01-4.74856E-01 3.10807E-13 1.82146E-13
 -1      2136 3.42711E+01 3.64818E+00 9.45745E-02-3.15387E+00 5.74124E-13 1.42331E-13
 -1      2137 3.82416E+01 4.99717E+00 4.03496E-01-2.70020E+00 6.22530E-13 2.17937E-13
 -1      2138 2.74092E+01-3.65887E-01-6.35538E-02-4.88558E+00 3.42254E-13-9.57012E-14
 -1      2139 3.19714E+01 1.39098E+00 2.02104E-01-4.46011E+00 3.47611E-13 8.14349E-14
 -1      2140 1.94478E+01-3.76229E+00-2.11990E-01-6.01283E+00 2.75668E-13-2.00617E-13
 -1      2141 2.43084E+01-1.89909E+00 8.28540E-02-6.30505E+00 2.75002E-13-2.04947E-13
 -1      2142 1.04437E+01-5.89373E+00-3.82627E-01-5.87790E+00 1.51545E-13-4.94188E-13
 -1      2143 1.48491E+01-4.08976E+00-8.96028E-02-6.93921E+00 2.12386E-13-4.07396E-13
 -1      2144 4.20938E+00-6.98506E+00-4.05789E-01-4.42722E+00-4.28546E-14-5.02043E-13
 -1      2145 7.01731E+00-5.80811E+00-2.40206E-01-5.62086E+00 1.12466E-13-6.17464E-13
 -1      2146 4.54682E-01-7.50694E+00-4.51589E-01-1.45014E+00-1.06470E-13-5.29243E-13
 -1      2147 1.67684E+00-6.69561E+00-3.30983E-01-2.97881E+00 3.21410E-14-5.51892E-13
 -1      2148 1.03668E+00-6.36839E+00-2.88079E-01 1.93476E+00-2.39808E-13-4.00402E-13
 -1      2149 3.04355E-01-7.17638E+00-4.15858E-01 2.26945E-01-1.21680E-13-4.28657E-13
 -1      2150 5.91918E+00-6.10127E+00-2.38058E-01 5.12199E+00-2.26708E-13-1.40138E-13
 -1      2151 3.38178E+00-6.74905E+00-3.20091E-01 3.86142E+00-1.75637E-13-2.43916E-13
 -1      2152 1.28096E+01-4.59321E+00-1.34883E-01 6.54668E+00-3.50386E-13-1.54821E-13
 -1      2153 8.77291E+00-6.40295E+00-4.16925E-01 5.44967E+00-2.95985E-13-1.23031E-13
 -1      2154 2.19975E+01-2.19707E+00 3.10452E-02 6.70995E+00-1.91236E-13-2.79221E-13
 -1      2155 1.69122E+01-4.18640E+00-3.07764E-01 6.03595E+00-3.00981E-13-1.76470E-13
 -1      2156 3.07693E+01 4.77273E-01 1.94547E-01 5.01536E+00-1.85685E-13 2.66454E-15
 -1      2157 2.58856E+01-1.26353E+00-1.01962E-01 5.23655E+00-1.46660E-13-1.73417E-13
 -1      2158 3.76616E+01 4.09373E+00 4.15056E-01 3.27973E+00-4.55802E-13 1.93567E-13
 -1      2159 3.34481E+01 2.61369E+00 8.84526E-02 3.71395E+00-3.85934E-13 1.17018E-13
 -1      2160 4.07676E+01 6.47429E+00 4.03199E-01 1.01462E+00-3.87412E-13 2.78194E-13
 -1      2161 3.89827E+01 5.67384E+00 3.38615E-01 2.29173E+00-4.06009E-13 1.92624E-13
 -1      2162 4.05973E+01 6.99242E+00 3.57504E-01-6.89726E-01-4.33931E-13 5.39790E-13
 -1      2163 4.04700E+01 7.20531E+00 3.51175E-01 4.38958E-01-5.07150E-13 3.84484E-13
 -1      2164 3.73484E+01 5.44460E+00 1.69995E-01-1.87042E+00-3.33511E-13 6.44207E-13
 -1      2165 4.05163E+01 6.29403E+00 4.36947E-01-1.15021E+00-3.38618E-13 6.20420E-13
 -1      2166 3.62996E+01 7.57661E+00 3.54271E-01 2.48594E-01-4.05564E-13 4.46865E-13
 -1      2167 3.16253E+01 1.25917E+00-9.86255E-04-3.61038E+00-3.25753E-13 3.96128E-13
 -1      2168 3.54572E+01 2.87964E+00 2.01852E-01-2.67374E+00-2.57086E-13 5.25691E-13
 -1      2169 2.44169E+01-2.38087E+00-1.46255E-01-5.01147E+00-3.30458E-13 1.34448E-13
 -1      2170 2.94882E+01-2.87338E-01 1.66202E-01-5.15579E+00-3.07809E-13 2.42584E-13
 -1      2171 3.08498E+01-9.33656E-01 1.54982E-01-1.83815E+00-1.16386E-13 8.37108E-14
 -1      2172 1.43769E+01-5.26931E+00-3.28280E-01-5.99706E+00-5.03597E-13 1.25427E-13
 -1      2173 1.96000E+01-3.53400E+00-4.32705E-02-6.74841E+00-4.79172E-13 4.30211E-14
 -1      2174 6.21248E+00-6.94907E+00-4.65272E-01-4.82038E+00-3.93741E-13 4.57245E-13
 -1      2175 9.92377E+00-5.28002E+00-2.14400E-01-6.14772E+00-4.88276E-13 3.08920E-13
 -1      2176 1.12411E+00-7.74959E+00-5.08846E-01-2.29574E+00-3.56659E-13 5.00322E-13
 -1      2177 3.01264E+00-6.80716E+00-3.71874E-01-3.75560E+00-4.79561E-13 5.41900E-13
 -1      2178 3.47896E+01 3.03744E+00 3.00968E-01 4.11530E+00 4.80550E-13 3.56604E-13
 -1      2179 3.04075E+01 1.42302E+00 5.95744E-03 4.43022E+00 5.71154E-13 4.31211E-13
 -1      2180 2.29083E+01-4.32151E+00 3.16802E-02 5.53688E+00 1.39055E-13 3.15997E-13
 -1      2181 2.07429E+01 1.10876E+00-2.02356E-02-1.56752E+00-1.45439E-13 2.15328E-13
 -1      2182 2.96213E+01-8.70842E-01 1.51039E-01 3.30356E+00 3.69649E-13 1.83131E-13
 -1      2183 3.38040E+01 3.36756E+00 2.70505E-01 8.96524E-01 3.90965E-13 1.73639E-13
 -1      2184 2.06501E+01 1.33623E+00-1.83188E-02-1.61485E+00-1.57716E-13 1.21124E-13
 -1      2185 7.08990E+00-5.23772E+00-1.18792E-01 5.74609E+00-1.53044E-13 6.08902E-13
 -1      2186 2.15312E+00-4.79494E+00-1.84778E-01 2.35348E+00-1.77164E-13 8.40883E-13
 -1      2187 2.00036E+01 5.18368E-03 3.55019E-05-2.30275E-03-1.53491E-13-3.31931E-13
 -1      2188 1.51257E+01-5.52483E+00-3.67909E-02 6.93986E+00-6.74460E-14 3.50553E-13
 -1      2189 1.79683E+00-5.25172E+00-2.48794E-01-1.92481E+00-2.22877E-13 6.16840E-13
 -1      2190 6.47088E+00-5.68492E+00-1.92247E-01-5.40952E+00-2.12497E-13 3.88328E-13
 -1      2191 2.42158E+01-4.36765E+00 5.74169E-02-4.98214E+00-2.01283E-13-1.06776E-13
 -1      2192 3.45837E+01 3.82008E+00 2.20504E-01 2.21283E-02-2.13163E-13 3.90743E-13
 -1      2193 3.68860E+01 7.64930E+00 3.72956E-01 2.71790E-03-5.00044E-13 3.95364E-13
 -1      2194 3.59417E+01 4.88386E+00 3.47167E-01 5.26686E-01-4.08451E-13 3.29847E-13
 -1      2195 3.20767E+01 3.51177E-01 1.89297E-01 2.07374E+00-1.80807E-13 2.43860E-13
 -1      2196 2.57883E+01-3.40503E+00 9.19165E-02 4.73739E+00 1.32117E-14 5.72875E-14
 -1      2197 1.73556E+01-5.37127E+00-7.39179E-02 6.51497E+00-8.85958E-14-6.84175E-15
 -1      2198 9.55934E+00-5.71631E+00-1.73673E-01 6.28094E+00 2.60347E-14-4.21330E-14
 -1      2199 3.80427E+00-4.74815E+00-1.15766E-01 3.58870E+00-1.40721E-14-3.30624E-13
 -1      2200 1.63839E+00-4.62213E+00-1.82367E-01-7.38443E-01 1.41831E-14-5.50393E-13
 -1      2201 4.46329E+00-5.29373E+00-1.80888E-01-4.58028E+00-5.26246E-14-5.14533E-13
 -1      2202 1.10713E+01-5.62099E+00-1.06671E-01-6.70680E+00-3.59712E-14-5.18835E-13
 -1      2203 1.95833E+01-5.05164E+00 1.75708E-02-6.40598E+00 3.35842E-14-1.72390E-13
 -1      2204 2.71989E+01-2.77148E+00 9.91108E-02-3.95595E+00 1.31839E-13 1.45106E-13
 -1      2205 3.25682E+01 1.64351E+00 1.83955E-01-1.59972E+00 3.78232E-13 3.09197E-13
 -1      2206 3.55572E+01 6.00089E+00 3.25708E-01-2.08905E-01 4.96825E-13 1.73805E-13
 -1      2207 3.52316E+01 6.78610E+00 2.75608E-01-1.64481E-01 3.53551E-13 2.20962E-13
 -1      2208 3.59663E+01 7.94408E+00 2.96617E-01-6.36002E-02 3.72258E-13 9.63396E-14
 -1      2209 1.47487E+01-5.65051E+00-4.22649E-02-6.71566E+00-2.14384E-13 9.78141E-14
 -1      2210 2.02052E+01 5.23134E-01 4.65668E-03 6.03313E-01 1.60131E-13 7.90570E-14
 -1      2211 2.04536E+01 7.11962E-01 2.08609E-02 9.01987E-01 1.66953E-13 9.12009E-14
 -1      2212 1.95418E+01 3.60134E+00-1.13116E-02-5.47924E-01-4.15226E-14-1.55280E-13
 -1      2213 1.95849E+01 3.55030E+00-1.01348E-02-7.22743E-01-6.89025E-14-1.70514E-13
 -1      2214 1.96400E+01 3.45158E+00-1.31241E-02-8.77466E-01-7.98319E-14-1.73235E-13
 -1      2215 1.97099E+01 3.36411E+00-1.23382E-02-1.06066E+00-1.09717E-13-1.55315E-13
 -1      2216 1.97734E+01 3.12598E+00 8.41825E-04-7.26747E-01-6.89097E-14-1.57626E-13
 -1      2217 1.94822E+01 3.69501E+00-9.49557E-03 9.26292E-02 2.76572E-14-1.72365E-13
 -1      2218 1.94815E+01 3.69596E+00-9.52464E-03-7.47926E-02 6.93050E-15-1.74783E-13
 -1      2219 1.95148E+01 3.65016E+00-9.45229E-03 4.13290E-01 6.43480E-14-2.00290E-13
 -1      2220 1.94930E+01 3.67554E+00-1.01943E-02 2.43789E-01 5.04173E-14-1.89446E-13
 -1      2221 1.96394E+01 3.33736E+00-2.00137E-04 1.53901E-01 3.80929E-14-1.67131E-13
 -1      2222 1.95899E+01 3.54177E+00-1.02225E-02 7.35898E-01 8.93693E-14-1.94392E-13
 -1      2223 1.95462E+01 3.59379E+00-1.14106E-02 5.63699E-01 7.57674E-14-2.11687E-13
 -1      2224 1.96856E+01 3.26487E+00 1.22383E-04 4.44973E-01 7.00139E-14-1.93933E-13
 -1      2225 1.97176E+01 3.35093E+00-1.24753E-02 1.07353E+00 1.36108E-13-1.26446E-13
 -1      2226 1.96460E+01 3.44104E+00-1.31941E-02 8.90767E-01 1.08719E-13-1.52744E-13
 -1      2227 1.97791E+01 3.11504E+00 7.48417E-04 7.38260E-01 1.05343E-13-1.53189E-13
 -1      2228 1.99124E+01 3.04547E+00-1.76435E-02 1.41264E+00 1.81690E-13-6.95720E-14
 -1      2229 1.98053E+01 3.19430E+00-1.55599E-02 1.22520E+00 1.53560E-13-1.01725E-13
 -1      2230 1.99281E+01 2.86852E+00 2.25816E-03 1.02946E+00 1.46149E-13-1.01408E-13
 -1      2231 2.01992E+01 2.56610E+00-2.79358E-02 1.71751E+00 2.14409E-13-2.17222E-14
 -1      2232 2.00449E+01 2.81288E+00-1.74181E-02 1.54250E+00 1.91679E-13-4.54879E-14
 -1      2233 2.01402E+01 2.49457E+00 5.97141E-03 1.28972E+00 1.74060E-13-4.57863E-14
 -1      2234 1.99685E+01 2.94757E-01 5.95446E-03 1.88238E-01 9.95046E-14 7.82666E-14
 -1      2235 2.01038E+01 3.89347E-01 2.03105E-02 3.56611E-01 1.32487E-13 9.03184E-14
 -1      2236 2.02730E+01 6.61248E-01-2.89297E-03 6.08279E-01 1.42628E-13 3.60658E-14
 -1      2237 2.04487E+01 8.77359E-01 1.37387E-02-9.16591E-01-1.34912E-13 6.86909E-14
 -1      2238 2.02546E+01 6.55499E-01-3.51953E-03-5.98759E-01-1.26728E-13 5.96378E-14
 -1      2239 3.01944E+01-8.46961E-01-9.40525E-02 1.51043E+00 2.84926E-13 1.88183E-14
 -1      2240 2.76586E+01-2.72661E+00-3.56318E-02 2.72954E+00 1.88904E-13 6.92779E-14
 -1      2241 2.02016E+01 5.05221E-01 1.61410E-02-3.66988E-01-1.26312E-13 7.63813E-14
 -1      2242 2.00859E+01 3.88011E-01 1.50683E-03-1.80105E-01-9.96993E-14 4.93081E-14
 -1      2243 2.03090E+01 7.92085E-01-1.39899E-03-5.78750E-01-1.30331E-13 2.49282E-14
 -1      2244 2.00389E+01 3.10669E-01 1.08324E-02-2.18811E-02-8.79111E-14 4.86305E-14
 -1      2245 1.99932E+01 2.48573E-01 2.51068E-03 9.68432E-02-7.50066E-14 1.74440E-14
 -1      2246 2.01753E+01 4.79391E-01-4.26379E-03-1.57057E-01-1.00072E-13-1.01139E-14
 -1      2247 1.99704E+01 2.07949E-01 6.37927E-03 2.06940E-01-5.60913E-14 1.25186E-14
 -1      2248 1.99782E+01 1.76536E-01 2.95376E-03 2.88801E-01-5.20026E-14 2.37735E-14
 -1      2249 2.00946E+01 3.13833E-01-4.33083E-03 1.33967E-01-7.51623E-14-6.75165E-15
 -1      2250 1.99798E+01 1.56864E-01 3.56124E-03 3.70828E-01-5.64145E-14 4.19203E-15
 -1      2251 2.00280E+01 1.43923E-01 3.36060E-03 4.34034E-01-5.19268E-14-2.49726E-15
 -1      2252 2.00704E+01 2.28492E-01-3.74538E-03 3.42829E-01-7.43568E-14-3.82990E-14
 -1      2253 2.00507E+01 1.37221E-01 1.82766E-03 5.02043E-01-6.11765E-14-1.81189E-14
 -1      2254 2.01306E+01 1.36044E-01 3.78805E-03 5.57868E-01-6.89984E-14-2.96828E-14
 -1      2255 2.00959E+01 1.91314E-01-3.05157E-03 5.05755E-01-7.54613E-14-4.70557E-14
 -1      2256 2.01714E+01 1.37576E-01 7.50303E-04 6.21420E-01-6.59828E-14-4.14825E-14
 -1      2257 2.02783E+01 1.43700E-01 4.20909E-03 6.76939E-01-6.94155E-14-5.83089E-14
 -1      2258 2.01627E+01 1.84466E-01-2.46705E-03 6.47789E-01-7.85295E-14-8.86443E-14
 -1      2259 2.03348E+01 1.49820E-01 1.00171E-04 7.42229E-01-9.03242E-14-4.80671E-14
 -1      2260 2.04665E+01 1.59259E-01 4.54515E-03 8.01361E-01-9.15312E-14-4.57922E-14
 -1      2261 2.02648E+01 1.96096E-01-2.04675E-03 7.85727E-01-7.56872E-14-7.67356E-14
 -1      2262 2.05382E+01 1.66107E-01-2.19734E-04 8.71565E-01-4.96485E-14-2.67484E-14
 -1      2263 2.06938E+01 1.74063E-01 4.64867E-03 9.35072E-01-2.80697E-14-2.32169E-14
 -1      2264 2.03983E+01 2.15701E-01-1.80510E-03 9.29645E-01-6.55543E-14-2.23747E-14
 -1      2265 2.07818E+01 1.76462E-01-2.04171E-04 1.01002E+00-8.55186E-15 5.81546E-16
 -1      2266 2.09609E+01 1.76083E-01 4.28269E-03 1.07470E+00-6.44677E-15 1.54251E-14
 -1      2267 2.05629E+01 2.30823E-01-1.79241E-03 1.08301E+00-1.17623E-14-1.17873E-14
 -1      2268 2.10690E+01 1.66392E-01 2.57208E-04 1.14983E+00 6.28241E-15 6.19149E-14
 -1      2269 2.12709E+01 1.47500E-01 3.10253E-03 1.20696E+00 2.35504E-14 9.02243E-14
 -1      2270 2.07618E+01 2.23966E-01-2.14902E-03 1.24146E+00 2.12718E-14 4.61909E-14
 -1      2271 2.14074E+01 1.14575E-01 1.38923E-03 1.27152E+00 1.01794E-14 7.36719E-14
 -1      2272 2.16298E+01 6.28320E-02 6.52304E-04 1.30473E+00 1.11727E-14 1.00368E-13
 -1      2273 2.10042E+01 1.69583E-01-3.14974E-03 1.39017E+00 7.16201E-15 3.55526E-14
 -1      2274 2.18094E+01-8.03114E-03 3.49658E-03 1.33908E+00-2.63840E-14 6.95432E-14
 -1      2275 2.20478E+01-1.09941E-01-3.59357E-03 1.32238E+00-2.31737E-14 3.27464E-14
 -1      2276 2.13089E+01 3.23652E-02-5.19470E-03 1.49974E+00-2.33669E-14 3.20877E-14
 -1      2277 2.22927E+01-2.33834E-01 6.74405E-03 1.29492E+00-1.39320E-14 8.19545E-14
 -1      2278 2.25379E+01-3.99427E-01-1.00150E-02 1.19280E+00-1.20728E-14 5.97953E-14
 -1      2279 2.17076E+01-2.29143E-01-8.63629E-03 1.52065E+00 1.32379E-14 8.94190E-14
 -1      2280 2.28737E+01-5.81092E-01 1.06617E-02 1.05828E+00 6.25481E-14 9.56483E-14
 -1      2281 2.31077E+01-8.01925E-01-1.80311E-02 8.32386E-01 6.84275E-14 1.76660E-13
 -1      2282 2.22449E+01-6.44933E-01-1.31874E-02 1.37800E+00 3.52789E-14 1.65911E-13
 -1      2283 2.35452E+01-1.01224E+00 1.32751E-02 5.38345E-01 1.97004E-14 1.91783E-13
 -1      2284 2.37338E+01-1.22489E+00-2.45830E-02 1.68398E-01 2.27995E-14 2.63895E-13
 -1      2285 2.29625E+01-1.18797E+00-1.65150E-02 9.72931E-01 6.33356E-14 2.07835E-13
 -1      2286 2.42291E+01-1.36676E+00 9.16044E-03-3.14627E-01 1.84436E-14 2.19668E-13
 -1      2287 2.43209E+01-1.41930E+00-2.34326E-02-7.87722E-01 5.00476E-14 2.36311E-13
 -1      2288 2.38516E+01-1.69240E+00-1.35343E-02 2.10972E-01 1.86693E-14 2.14944E-13
 -1      2289 2.47251E+01-1.31502E+00-1.11364E-02-1.38555E+00 1.53213E-14 2.50616E-13
 -1      2290 2.46745E+01-1.00302E+00-9.22687E-03-1.80301E+00 2.34465E-14 2.46447E-13
 -1      2291 2.47623E+01-1.77470E+00-2.19728E-03-8.99215E-01 2.95326E-14 2.00372E-13
 -1      2292 2.47875E+01-4.94627E-01-4.27849E-02-2.24275E+00 2.22962E-14 2.32036E-13
 -1      2293 2.46035E+01 2.40709E-01 1.27743E-02-2.33020E+00 2.28758E-14 1.50205E-13
 -1      2294 2.53680E+01-9.75410E-01 1.27392E-03-2.03467E+00 8.90260E-15 1.35792E-13
 -1      2295 2.43583E+01 1.04865E+00-7.29259E-02-2.19271E+00-3.16171E-14 2.50720E-14
 -1      2296 2.41385E+01 1.84100E+00-5.45620E-03-1.72957E+00-4.44367E-14 9.76649E-15
 -1      2297 2.53973E+01 8.50059E-01-4.13699E-03-2.47504E+00-7.19043E-14 3.23535E-14
 -1      2298 2.39036E+01 2.34189E+00-6.68768E-02-8.32734E-01 3.01148E-15-3.29563E-14
 -1      2299 2.38272E+01 2.53326E+00-5.59036E-02-3.59563E-02 4.74898E-14 5.37608E-14
 -1      2300 2.49851E+01 2.70911E+00-1.31298E-03-1.41722E+00-2.81823E-14-1.59803E-13
 -1      2301 2.39780E+01 2.34669E+00-9.13237E-03 1.07271E+00 1.82979E-14-5.22074E-14
 -1      2302 2.41028E+01 1.72860E+00-8.20265E-02 1.72847E+00-8.70866E-14-1.18486E-13
 -1      2303 2.49037E+01 3.28842E+00 1.58241E-02 6.65917E-01-5.17572E-14-2.28980E-13
 -1      2304 2.44375E+01 1.00042E+00 1.70334E-02 2.23936E+00-1.63689E-13-1.47445E-13
 -1      2305 2.46519E+01 1.59069E-01-5.87885E-02 2.39416E+00-1.95215E-13-1.04220E-13
 -1      2306 2.52191E+01 1.81883E+00-2.77706E-03 2.29046E+00-1.52500E-13-4.32720E-13
 -1      2307 2.47096E+01-5.26877E-01-3.05592E-03 2.16634E+00-1.54137E-13-2.96948E-14
 -1      2308 2.48444E+01-1.04040E+00-2.48169E-02 1.86980E+00 1.32767E-14-5.54261E-14
 -1      2309 2.54638E+01-2.26023E-01-9.31825E-03 2.41945E+00-1.07098E-13-1.41623E-13
 -1      2310 2.45463E+01-1.32654E+00-2.20052E-02 1.29132E+00 7.75348E-14-9.36270E-14
 -1      2311 2.45248E+01-1.41079E+00 2.10136E-03 8.18664E-01 9.24738E-14 7.67815E-14
 -1      2312 2.51201E+01-1.54801E+00-2.99598E-03 1.47719E+00 2.53096E-15-2.25826E-14
 -1      2313 2.40476E+01-1.35337E+00-2.62949E-02 2.68521E-01-2.78961E-14-3.75393E-14
 -1      2314 2.39027E+01-1.18653E+00 1.25218E-02-1.54966E-01-9.43768E-14-3.34927E-14
 -1      2315 2.43013E+01-1.80328E+00-1.14808E-02 2.92163E-01 1.38641E-14-3.38282E-14
 -1      2316 2.34326E+01-9.87882E-01-2.16982E-02-5.28829E-01-9.14685E-14-7.95356E-14
 -1      2317 2.32228E+01-7.56013E-01 1.26308E-02-8.14150E-01-5.11277E-14-7.69456E-14
 -1      2318 2.33814E+01-1.42160E+00-1.68788E-02-6.30206E-01-9.78412E-14 1.38587E-14
 -1      2319 2.28458E+01-5.52947E-01-1.34969E-02-1.00772E+00-7.12928E-15-3.68965E-14
 -1      2320 2.26138E+01-3.57027E-01 9.04466E-03-1.15472E+00-7.02355E-14 4.59012E-14
 -1      2321 2.25898E+01-8.58551E-01-1.50888E-02-1.17454E+00 2.03700E-15 1.21747E-13
 -1      2322 2.23372E+01-2.04607E-01-6.20597E-03-1.21615E+00-2.02508E-13 1.26584E-14
 -1      2323 2.21078E+01-7.29163E-02 5.38621E-03-1.25865E+00-2.44490E-13 4.68281E-14
 -1      2324 2.19872E+01-3.71313E-01-1.06618E-02-1.40715E+00-9.56102E-14 8.84102E-14
 -1      2325 2.19094E+01 2.17996E-02-1.03445E-03-1.23814E+00-2.52588E-13 1.13470E-13
 -1      2326 2.16952E+01 9.57707E-02 2.77199E-03-1.21458E+00-7.67651E-14 2.16452E-13
 -1      2327 2.15466E+01-3.71714E-02-6.61416E-03-1.43095E+00-1.78956E-13 5.09253E-14
 -1      2328 2.15500E+01 1.45076E-01 2.12075E-03-1.15030E+00-5.61896E-14 1.01555E-13
 -1      2329 2.13574E+01 1.78113E-01 1.23524E-03-1.09152E+00-7.79970E-15 4.64990E-14
 -1      2330 2.12211E+01 1.55054E-01-3.95193E-03-1.33344E+00-1.57122E-13 6.10578E-14
 -1      2331 2.12470E+01 1.97328E-01 3.77368E-03-1.00858E+00 7.51746E-14-3.07157E-14
 -1      2332 2.10786E+01 2.05099E-01 4.52294E-04-9.35641E-01 3.41401E-14 3.67024E-14
 -1      2333 2.09721E+01 2.44718E-01-2.45849E-03-1.17590E+00-2.20494E-15 5.39656E-15
 -1      2334 2.09915E+01 2.06660E-01 4.40590E-03-8.49293E-01-2.41884E-14 4.55051E-14
 -1      2335 2.08481E+01 2.00615E-01 1.09883E-04-7.75000E-01-2.89842E-14-2.70252E-14
 -1      2336 2.07746E+01 2.69907E-01-1.71618E-03-9.97528E-01 6.83976E-14 1.76523E-13
 -1      2337 2.07778E+01 1.93021E-01 4.40638E-03-6.93704E-01-8.04142E-14 1.24799E-13
 -1      2338 2.06583E+01 1.80530E-01-4.76752E-06-6.24970E-01 1.11185E-13 2.27769E-13
 -1      2339 2.06138E+01 2.59050E-01-1.37410E-03-8.21584E-01 3.95477E-14 2.98639E-13
 -1      2340 2.06010E+01 1.69022E-01 4.05727E-03-5.52830E-01 2.18193E-13 2.07292E-13
 -1      2341 2.05035E+01 1.54423E-01-1.69954E-05-4.92779E-01 2.75494E-13 2.20963E-13
 -1      2342 2.04817E+01 2.30765E-01-1.20819E-03-6.60558E-01 1.56089E-13 2.97538E-13
 -1      2343 2.04569E+01 1.41980E-01 3.54583E-03-4.31250E-01 1.93382E-13 1.69315E-13
 -1      2344 2.03790E+01 1.27618E-01 7.28846E-06-3.80762E-01 1.24287E-13 1.19381E-13
 -1      2345 2.03731E+01 1.96192E-01-1.10075E-03-5.20068E-01 1.69350E-13 8.38619E-14
 -1      2346 2.03413E+01 1.15795E-01 2.98751E-03-3.29785E-01 2.01896E-13 1.46863E-13
 -1      2347 2.02802E+01 1.02808E-01 3.73330E-05-2.88513E-01 1.10942E-13 2.44239E-13
 -1      2348 2.02848E+01 1.61483E-01-1.00096E-03-4.01574E-01 1.38545E-13 9.60774E-14
 -1      2349 2.02502E+01 9.23184E-02 2.44794E-03-2.47233E-01-9.02363E-14 3.29224E-13
 -1      2350 2.02031E+01 8.11490E-02 6.11624E-05-2.14232E-01-1.10711E-13 5.47049E-13
 -1      2351 2.02137E+01 1.29708E-01-8.93352E-04-3.04186E-01 9.23697E-14 1.44024E-13
 -1      2352 2.01796E+01 7.22330E-02 1.96049E-03-1.81441E-01-5.60697E-14 5.66862E-13
 -1      2353 2.01441E+01 6.29488E-02 7.57368E-05-1.55538E-01 7.61129E-14 6.16335E-13
 -1      2354 2.01575E+01 1.02143E-01-7.78148E-04-2.25818E-01-7.36873E-15 4.44064E-13
 -1      2355 2.01260E+01 5.55962E-02 1.53857E-03-1.29932E-01-4.53076E-14 5.26335E-13
 -1      2356 2.00997E+01 4.80746E-02 8.16215E-05-1.09934E-01 2.45385E-14 2.85253E-13
 -1      2357 2.01138E+01 7.90745E-02-6.60662E-04-1.63897E-01-9.93007E-14 5.31312E-13
 -1      2358 2.00860E+01 4.21522E-02 1.18429E-03-9.02558E-02 2.24440E-13 1.17192E-13
 -1      2359 2.00670E+01 3.61850E-02 8.06575E-05-7.50547E-02 1.24945E-13 3.43034E-14
 -1      2360 2.00804E+01 6.02751E-02-5.46213E-04-1.15780E-01 5.80502E-15 2.15600E-13
 -1      2361 2.00568E+01 3.15054E-02 8.93624E-04-6.01712E-02-2.60657E-14 1.00736E-13
 -1      2362 2.00434E+01 2.68446E-02 7.21954E-05-4.87971E-02-2.94249E-14 1.56247E-13
 -1      2363 2.00553E+01 4.52776E-02-4.37605E-04-7.89930E-02 1.02573E-13 1.04419E-13
 -1      2364 2.00359E+01 2.31798E-02 6.58421E-04-3.77389E-02-7.51185E-14 1.99493E-13
 -1      2365 2.00268E+01 1.95682E-02 6.53626E-05-2.94072E-02-1.59437E-13 3.16336E-13
 -1      2366 2.00367E+01 3.34796E-02-3.40064E-04-5.13376E-02-1.54566E-13 3.43294E-13
 -1      2367 2.00213E+01 1.65783E-02 4.46130E-04-2.13654E-02-2.48276E-13 2.74676E-13
 -1      2368 2.00154E+01 1.38538E-02 1.10663E-04-1.55247E-02-2.64062E-13 2.30613E-13
 -1      2369 2.00232E+01 2.42751E-02-2.43210E-04-3.09889E-02-2.12053E-13 3.10586E-13
 -1      2370 1.98440E+01 1.21089E-01 3.97940E-03-2.38282E-01 1.42397E-14 3.69680E-14
 -1      2371 1.98280E+01 1.46621E-01 7.28880E-03-1.71285E-01 4.35606E-14 6.42922E-14
 -1      2372 1.99102E+01 9.15701E-02 3.62706E-03-3.58408E-01 9.80780E-15 1.22202E-14
 -1      2373 1.98512E+01 1.03887E-01 4.18215E-03-3.09612E-01 1.05311E-14 1.95048E-14
 -1      2374 1.99737E+01 1.61526E-01-4.12614E-03-2.93787E-01 3.62751E-14-2.17593E-14
 -1      2375 2.00361E+01 7.89642E-02 3.51625E-03-4.53306E-01 6.54056E-14 7.74229E-15
 -1      2376 1.99451E+01 8.36465E-02 2.43732E-03-4.13241E-01 1.85867E-14-1.75446E-15
 -1      2377 2.00170E+01 1.24664E-01-3.39975E-03-4.33774E-01 2.57557E-14-4.29577E-14
 -1      2378 2.02105E+01 7.54264E-02 3.45214E-03-5.36828E-01 1.11884E-13 4.80775E-14
 -1      2379 2.00937E+01 7.61987E-02 1.45585E-03-5.00247E-01 8.64714E-14 2.85750E-14
 -1      2380 2.01111E+01 1.09251E-01-2.80280E-03-5.46938E-01 6.66232E-14-6.31044E-14
 -1      2381 2.04263E+01 7.46111E-02 3.27272E-03-6.15781E-01 2.47737E-14 6.26955E-14
 -1      2382 2.02876E+01 7.47177E-02 9.17572E-04-5.80546E-01 1.02529E-13 6.56762E-14
 -1      2383 2.02474E+01 1.04617E-01-2.40382E-03-6.47563E-01 9.15366E-14 8.15914E-15
 -1      2384 2.06793E+01 6.99169E-02 2.78985E-03-6.90632E-01 5.18246E-14 1.41045E-14
 -1      2385 2.05213E+01 7.29066E-02 6.58371E-04-6.57568E-01 3.63431E-14 3.41046E-14
 -1      2386 2.04208E+01 1.01702E-01-2.18559E-03-7.42229E-01 7.54648E-14 2.04440E-14
 -1      2387 2.09655E+01 5.34223E-02 1.76975E-03-7.54984E-01 8.45999E-14-8.06050E-16
 -1      2388 2.07918E+01 6.36367E-02 5.91528E-04-7.28275E-01 5.81553E-14-1.17874E-14
 -1      2389 2.06289E+01 9.08156E-02-2.12514E-03-8.30257E-01 8.66408E-14-2.23562E-15
 -1      2390 2.12802E+01 1.54385E-02-4.89639E-05-7.94352E-01 1.07936E-13 1.37505E-14
 -1      2391 2.10962E+01 3.81491E-02 6.73777E-04-7.82187E-01 1.17051E-13 2.26777E-15
 -1      2392 2.08714E+01 6.03429E-02-2.21237E-03-9.03005E-01 9.80689E-14-3.18466E-14
 -1      2393 2.16148E+01-5.47654E-02-2.88937E-03-7.84976E-01-1.98732E-14 6.99367E-14
 -1      2394 2.14300E+01-1.39417E-02 8.83561E-04-7.99992E-01 4.64088E-14 5.37766E-14
 -1      2395 2.11490E+01-3.51297E-03-2.43833E-03-9.42528E-01 5.64057E-14 5.03331E-14
 -1      2396 2.19556E+01-1.65801E-01-6.78120E-03-6.94040E-01-2.10301E-14 5.43620E-14
 -1      2397 2.17845E+01-1.02975E-01 1.17234E-03-7.52708E-01-7.04038E-15 4.06745E-14
 -1      2398 2.14626E+01-1.14963E-01-2.74179E-03-9.20390E-01-7.19422E-15 5.53828E-14
 -1      2399 2.22801E+01-3.16641E-01-1.12618E-02-4.83977E-01 3.63312E-14 6.52956E-14
 -1      2400 2.21434E+01-2.34248E-01 1.38313E-03-6.03382E-01-2.32492E-14 4.67272E-14
 -1      2401 2.18109E+01-2.82872E-01-2.88242E-03-7.98202E-01-1.78937E-14 4.89115E-14
 -1      2402 2.25535E+01-4.83771E-01-1.50579E-02-1.25194E-01 1.03899E-13 1.07105E-13
 -1      2403 2.24773E+01-3.97825E-01 1.09298E-03-3.15101E-01 1.07369E-13 1.25931E-13
 -1      2404 2.21847E+01-4.98413E-01-2.25001E-03-5.33096E-01 2.75541E-14 5.84045E-14
 -1      2405 2.27262E+01-6.06688E-01-1.58295E-02 3.78783E-01-1.11005E-14 1.32438E-13
 -1      2406 2.27373E+01-5.53973E-01-5.57161E-04 1.29591E-01 9.12486E-14 1.15878E-13
 -1      2407 2.25564E+01-7.16528E-01 3.63347E-06-9.37071E-02 8.21181E-14 1.19697E-13
 -1      2408 2.27376E+01-5.84741E-01-1.04188E-02 9.55081E-01-7.37682E-14 1.29054E-13
 -1      2409 2.28533E+01-6.21396E-01-4.30359E-03 6.95309E-01-7.32426E-14 1.54267E-13
 -1      2410 2.28673E+01-8.39199E-01 4.55546E-03 5.08325E-01-3.76079E-14 1.74845E-13
 -1      2411 2.25382E+01-3.15344E-01 1.90356E-03 1.42857E+00-8.10315E-14 1.43981E-13
 -1      2412 2.27494E+01-4.88331E-01-9.87582E-03 1.25251E+00-9.92904E-14 1.52706E-13
 -1      2413 2.30228E+01-7.21579E-01 1.08201E-02 1.17171E+00-1.05108E-13 2.14958E-13
 -1      2414 2.21461E+01 2.04221E-01 1.54762E-02 1.54731E+00 6.76390E-14 1.03746E-13
 -1      2415 2.24007E+01-8.49804E-02-1.46067E-02 1.56664E+00-6.54424E-16 1.52059E-13
 -1      2416 2.29281E+01-2.53120E-01 1.33288E-02 1.66548E+00-3.50733E-14 1.82380E-13
 -1      2417 2.17043E+01 7.82339E-01 1.98135E-02 1.12086E+00 2.02324E-13 5.23297E-14
 -1      2418 2.19134E+01 5.01776E-01-1.29213E-02 1.39028E+00 1.52421E-13 2.60035E-14
 -1      2419 2.25883E+01 4.93276E-01 3.58355E-03 1.68126E+00 1.63073E-13 1.13643E-13
 -1      2420 2.14517E+01 1.10256E+00 1.11937E-02 2.16199E-01 1.07882E-13 9.21097E-14
 -1      2421 2.15271E+01 9.94550E-01-1.40273E-03 6.61818E-01 2.14708E-13 7.16319E-14
 -1      2422 2.21960E+01 1.20571E+00-1.24220E-02 1.03731E+00 1.97939E-13 4.28427E-14
 -1      2423 2.15635E+01 9.46111E-01-4.58865E-03-7.98838E-01-5.16011E-14-6.81139E-15
 -1      2424 2.14701E+01 1.08973E+00 1.48817E-02-3.66221E-01 2.93619E-14 6.27210E-14
 -1      2425 2.20373E+01 1.48093E+00-1.94064E-02-8.81813E-02 1.13411E-13 1.26490E-13
 -1      2426 2.19893E+01 4.25406E-01-1.32707E-02-1.46174E+00-3.16322E-14-1.09007E-13
 -1      2427 2.17683E+01 7.14873E-01 2.15498E-02-1.22421E+00-9.42770E-14-8.32390E-14
 -1      2428 2.22476E+01 1.13850E+00-6.67078E-03-1.17908E+00 2.70196E-14 7.48494E-14
 -1      2429 2.24822E+01-1.48239E-01-1.36294E-02-1.56787E+00-2.75230E-14-1.48024E-13
 -1      2430 2.22218E+01 1.27232E-01 1.34094E-02-1.57822E+00-4.44250E-14-1.78291E-13
 -1      2431 2.26535E+01 3.90512E-01 4.86782E-03-1.73379E+00 1.87385E-14-8.64574E-14
 -1      2432 2.28111E+01-5.11333E-01-7.19252E-03-1.21181E+00 1.98903E-14-1.22124E-13
 -1      2433 2.26008E+01-3.62919E-01-8.60768E-04-1.39824E+00-9.72074E-15-2.07864E-13
 -1      2434 2.29767E+01-3.32780E-01 1.21117E-02-1.64379E+00-6.50044E-15-2.08664E-13
 -1      2435 2.28950E+01-6.10740E-01-1.54683E-03-6.49728E-01-2.97067E-14-1.00368E-13
 -1      2436 2.27823E+01-5.92413E-01-1.14363E-02-9.03127E-01 6.19990E-15-8.40634E-14
 -1      2437 2.30429E+01-7.47542E-01 9.91530E-03-1.11654E+00 9.40394E-15-2.93348E-13
 -1      2438 2.27692E+01-5.23588E-01 1.31745E-03-1.03718E-01-3.04730E-14-4.74611E-14
 -1      2439 2.27592E+01-5.85290E-01-1.55424E-02-3.36479E-01-2.88762E-14-8.61010E-14
 -1      2440 2.28702E+01-8.23486E-01 3.15276E-03-4.59261E-01-3.62592E-14-1.98684E-13
 -1      2441 2.25139E+01-3.60770E-01 2.15920E-03 3.09292E-01-5.05537E-14 4.66320E-14
 -1      2442 2.25865E+01-4.48053E-01-1.40452E-02 1.38807E-01-3.79670E-14 4.56204E-14
 -1      2443 2.25584E+01-6.75839E-01-1.27390E-03 1.12831E-01-1.13656E-13-1.79105E-13
 -1      2444 2.21981E+01-1.98428E-01 1.99640E-03 5.63734E-01 6.84223E-14-7.66154E-14
 -1      2445 2.23251E+01-2.78329E-01-1.00814E-02 4.62284E-01 4.51609E-14 1.19045E-14
 -1      2446 2.22002E+01-4.48955E-01-3.02072E-03 5.13085E-01 1.20316E-14-2.10579E-13
 -1      2447 2.18677E+01-7.09468E-02 1.59060E-03 6.81514E-01 1.40268E-14-1.77177E-13
 -1      2448 2.20229E+01-1.30534E-01-5.81087E-03 6.37926E-01 5.77602E-14-6.65982E-15
 -1      2449 2.18489E+01-2.34466E-01-3.24088E-03 7.39487E-01 4.48957E-15-1.82630E-14
 -1      2450 2.15499E+01 1.43966E-02 1.23540E-03 7.00451E-01 7.92568E-15-1.65642E-13
 -1      2451 2.17131E+01-2.37572E-02-2.25164E-03 6.97817E-01 2.56022E-14-1.03137E-13
 -1      2452 2.15285E+01-7.08374E-02-2.82828E-03 8.26622E-01 2.22225E-14 7.42881E-14
 -1      2453 2.12597E+01 6.35025E-02 9.96591E-04 6.57313E-01-3.88665E-14-2.86663E-16
 -1      2454 2.14168E+01 4.27465E-02 2.63628E-04 6.79777E-01-1.87714E-14-1.28655E-13
 -1      2455 2.12464E+01 3.61822E-02-2.33553E-03 8.17714E-01-1.99329E-14 1.62894E-13
 -1      2456 2.10041E+01 8.61817E-02 8.51045E-04 5.81071E-01 4.59671E-14 1.15351E-13
 -1      2457 2.11468E+01 7.76548E-02 1.80385E-03 6.16379E-01-3.32642E-14-8.13976E-15
 -1      2458 2.10029E+01 9.60385E-02-1.94936E-03 7.50985E-01-7.03620E-14 2.35386E-13
 -1      2459 2.07853E+01 9.16631E-02 7.57452E-04 4.91889E-01 9.12051E-14 3.31958E-13
 -1      2460 2.09095E+01 9.08489E-02 2.58558E-03 5.31660E-01 1.12507E-13 2.61982E-13
 -1      2461 2.07959E+01 1.22130E-01-1.67821E-03 6.55259E-01-1.97014E-14 2.44352E-13
 -1      2462 2.06027E+01 8.70788E-02 6.84833E-04 4.02476E-01-9.93847E-14 2.28191E-13
 -1      2463 2.07070E+01 9.06152E-02 2.84116E-03 4.41539E-01 6.75171E-14 2.65046E-13
 -1      2464 2.06224E+01 1.26574E-01-1.48104E-03 5.50119E-01 8.94734E-14 2.95659E-13
 -1      2465 2.04535E+01 7.73685E-02 6.17132E-04 3.20028E-01-3.80488E-14 1.52876E-14
 -1      2466 2.05387E+01 8.29843E-02 2.76669E-03 3.55548E-01-1.32417E-13 1.06654E-13
 -1      2467 2.04791E+01 1.18567E-01-1.31905E-03 4.47686E-01 8.12357E-14 1.58469E-13
 -1      2468 2.03343E+01 6.56931E-02 5.48796E-04 2.47989E-01-8.69165E-14 6.71609E-14
 -1      2469 2.04021E+01 7.19657E-02 2.50840E-03 2.78692E-01-1.03160E-14 3.76040E-14
 -1      2470 2.03626E+01 1.04407E-01-1.16919E-03 3.54665E-01-7.54816E-15-2.85423E-14
 -1      2471 2.02410E+01 5.39326E-02 4.79836E-04 1.87429E-01-3.01878E-13-3.03682E-14
 -1      2472 2.02937E+01 6.00364E-02 2.16635E-03 2.13010E-01-3.00114E-13-2.11126E-14
 -1      2473 2.02694E+01 8.80896E-02-1.02244E-03 2.74101E-01-2.16379E-13-9.27080E-14
 -1      2474 2.01694E+01 4.31071E-02 4.12327E-04 1.38016E-01-2.79040E-14-9.25859E-14
 -1      2475 2.02094E+01 4.86107E-02 1.80403E-03 1.58727E-01-7.97021E-14 5.44977E-14
 -1      2476 2.01962E+01 7.19662E-02-8.78211E-04 2.06735E-01-1.20752E-13-1.23170E-13
 -1      2477 2.01157E+01 3.36899E-02 3.48357E-04 9.86761E-02 1.28492E-13-1.84168E-13
 -1      2478 2.01453E+01 3.84093E-02 1.45842E-03 1.15052E-01-1.14992E-14-9.26639E-14
 -1      2479 2.01397E+01 5.72892E-02-7.39457E-04 1.51954E-01-1.37336E-14-2.01640E-14
 -1      2480 2.00763E+01 2.58207E-02 2.87314E-04 6.80155E-02 3.11758E-13 1.00110E-13
 -1      2481 2.00977E+01 2.97215E-02 1.14830E-03 8.07016E-02 2.03580E-13 1.60778E-14
 -1      2482 2.00970E+01 4.46165E-02-6.09815E-04 1.08442E-01 9.98416E-14-2.13080E-13
 -1      2483 2.00483E+01 1.94686E-02 2.43643E-04 4.45890E-02 4.41563E-13 1.94484E-13
 -1      2484 2.00631E+01 2.25836E-02 8.81371E-04 5.42346E-02 4.11671E-13 2.56880E-13
 -1      2485 2.00654E+01 3.40790E-02-4.91452E-04 7.45979E-02 2.26242E-13 2.63870E-13
 -1      2486 2.00290E+01 1.43838E-02 1.92845E-04 2.69683E-02 8.99427E-14 5.00242E-14
 -1      2487 2.00388E+01 1.68759E-02 6.47866E-04 3.41796E-02 2.91265E-13 2.08970E-13
 -1      2488 2.00424E+01 2.56133E-02-3.97340E-04 4.88666E-02 4.24492E-13 5.24460E-13
 -1      2489 2.00161E+01 1.02747E-02 1.29867E-04 1.41389E-02-1.08277E-13 3.53522E-13
 -1      2490 2.00223E+01 1.22909E-02 4.72107E-04 1.93763E-02-1.30307E-13 1.87422E-13
 -1      2491 2.00260E+01 1.85040E-02-4.31867E-04 2.95359E-02-4.28814E-14 3.22392E-13
 -1      2492 2.00077E+01 6.78589E-03 7.83568E-05 5.33747E-03-7.76884E-14 6.00290E-13
 -1      2493 2.00116E+01 8.60177E-03 3.73616E-04 8.91804E-03-3.26451E-14 4.84885E-13
 -1      2494 2.00149E+01 1.26437E-02-3.92182E-04 1.54678E-02-1.50125E-13 5.56488E-13
 -1      2495 2.00047E+01 4.61770E-03 1.89648E-04 1.77953E-03-5.78836E-14 5.33894E-13
 -1      2496 1.99973E+01 4.07149E-02-2.40634E-04 1.66523E-02 1.29910E-13-2.03090E-13
 -1      2497 1.99996E+01 3.71343E-02 1.29815E-04 1.73204E-02 7.47822E-14-6.52516E-13
 -1      2498 1.99935E+01 4.83953E-02-2.44167E-04 1.25400E-02 2.32558E-14-1.94150E-13
 -1      2499 1.99954E+01 4.56488E-02 4.67626E-05 1.46767E-02 3.43802E-14-6.24803E-14
 -1      2500 1.99952E+01 5.18935E-02 1.84702E-04 1.92701E-02 1.65348E-13-1.63852E-13
 -1      2501 2.00055E+01 2.13715E-02-1.37526E-04 1.47176E-02 6.60366E-14 3.05001E-14
 -1      2502 2.00072E+01 1.77237E-02 2.04924E-04 1.26651E-02 2.52098E-14 2.06440E-13
 -1      2503 2.00019E+01 3.12098E-02-1.79056E-04 1.73778E-02-1.05041E-13-5.79968E-13
 -1      2504 2.00040E+01 2.74171E-02 1.93712E-04 1.63783E-02-2.99237E-14-2.16640E-13
 -1      2505 2.00058E+01 2.97039E-02-1.30249E-04 1.98325E-02-1.75647E-14-2.10055E-13
 -1      2506 2.00010E+01 4.14140E-02 1.19790E-04 2.16855E-02 1.22452E-13-5.34044E-13
 -1      2507 1.99911E+01 5.31352E-02-2.09540E-04 5.88071E-03-4.78320E-14 1.47777E-13
 -1      2508 1.99921E+01 5.16550E-02-5.08636E-05 9.02965E-03 9.53111E-14-1.30122E-13
 -1      2509 1.99907E+01 5.97960E-02 2.45269E-04 1.31791E-02 1.39279E-13-1.21061E-13
 -1      2510 1.99907E+01 5.42479E-02-1.41893E-04-1.97226E-03-6.34935E-14 2.80876E-13
 -1      2511 1.99907E+01 5.42740E-02-1.41613E-04 1.52785E-03-2.15719E-13 3.58264E-13
 -1      2512 1.99882E+01 6.40366E-02 2.79034E-04 4.53578E-03 3.65492E-14 1.78022E-13
 -1      2513 1.99923E+01 5.15698E-02-5.35800E-05-9.43023E-03-1.21280E-13-5.12145E-14
 -1      2514 1.99912E+01 5.31083E-02-2.08342E-04-6.31300E-03-8.50191E-14 2.01615E-13
 -1      2515 1.99882E+01 6.40400E-02 2.79572E-04-4.99817E-03-5.76876E-14 1.86233E-13
 -1      2516 1.99955E+01 4.56372E-02 4.44461E-05-1.49064E-02 1.34116E-13 2.92384E-13
 -1      2517 1.99936E+01 4.83646E-02-2.44340E-04-1.28489E-02-2.88069E-14 2.60311E-14
 -1      2518 1.99908E+01 5.98516E-02 2.51806E-04-1.35324E-02 1.31311E-13 8.96117E-14
 -1      2519 1.99998E+01 3.70737E-02 1.24035E-04-1.74441E-02 2.37222E-13 4.39729E-13
 -1      2520 1.99975E+01 4.06960E-02-2.42007E-04-1.68362E-02 2.75661E-13 2.56123E-13
 -1      2521 1.99954E+01 5.20055E-02 1.85866E-04-1.95000E-02 2.61285E-13 2.87210E-13
 -1      2522 2.00042E+01 2.71072E-02 1.47928E-04-1.64063E-02-2.48189E-13 1.26997E-13
 -1      2523 2.00021E+01 3.11301E-02-1.82817E-04-1.74441E-02-1.40530E-13 3.39092E-13
 -1      2524 2.00012E+01 4.14853E-02 1.07106E-04-2.17445E-02 4.28272E-14 6.76263E-14
 -1      2525 2.00073E+01 1.72554E-02 1.47032E-04-1.22079E-02-3.37365E-13-1.47267E-13
 -1      2526 2.00060E+01 2.10821E-02-1.01331E-04-1.45231E-02-3.46929E-13 1.78013E-13
 -1      2527 2.00065E+01 2.95896E-02-5.43998E-05-1.98932E-02-2.55319E-13 2.94331E-14
 -1      2528 4.32697E+00-2.83597E+00 4.88281E-02 3.38627E+00-1.42927E-13 8.87956E-13
 -1      2529 3.18965E+00-2.82205E+00 8.61737E-02 1.10764E+00-2.40800E-13 8.59424E-13
 -1      2530 1.80873E+01-5.22631E+00-1.75920E-02 6.68411E+00-2.08306E-13-1.88391E-15
 -1      2531 1.42930E+01-5.01612E+00 6.42267E-02 6.72637E+00-3.04923E-13 2.90976E-13
 -1      2532 1.98554E+01 1.80335E-01 4.80853E-03-6.93478E-02 5.28093E-14 6.20719E-14
 -1      2533 1.99007E+01 2.29551E-01 1.26411E-02 3.26592E-02 6.18893E-14 6.24266E-14
 -1      2534 1.99940E+01 2.36397E-01-4.65093E-03-1.02802E-01 5.36465E-14 4.93963E-16
 -1      2535 2.00058E+01 7.90150E-03 1.89235E-04-4.39634E-03-8.43092E-14-1.63363E-13
 -1      2536 3.02157E+00-2.95096E+00 5.52354E-02-1.06877E+00-1.21330E-13 6.50147E-13
 -1      2537 4.15884E+00-3.31097E+00 5.25395E-02-3.32970E+00-1.77192E-13 5.14921E-13
 -1      2538 1.07288E+01-4.24749E+00 4.87744E-02 6.69478E+00-2.47219E-13 3.71175E-13
 -1      2539 7.45409E+00-3.53956E+00 1.13805E-01 5.31577E+00-2.62346E-13 5.96162E-13
 -1      2540 1.42510E+01-4.02389E+00 1.47336E-01 6.45093E+00-3.65735E-13 2.88131E-13
 -1      2541 2.05739E+01 1.96529E+00-1.32218E-02-1.82643E+00-1.58731E-13 3.30291E-14
 -1      2542 2.04478E+01 1.22595E+00-8.13072E-03-1.21386E+00-1.45800E-13 5.30713E-14
 -1      2543 2.04241E+01 1.41162E+00 8.19920E-03-1.14761E+00-1.40266E-13-5.45137E-16
 -1      2544 2.03255E+01 2.41361E+00 3.53006E-04-1.76102E+00-1.58750E-13-2.60417E-14
 -1      2545 6.34793E+00-4.18024E+00 3.39824E-02-4.93155E+00-1.15297E-13 2.69423E-13
 -1      2546 9.59565E+00-4.57811E+00 1.02871E-03-6.37939E+00-3.55271E-14 5.62328E-14
 -1      2547 3.29850E+01 7.22226E+00-1.51257E-01-2.76904E-01-4.97380E-13 3.47260E-13
 -1      2548 3.34908E+01 6.41057E+00-8.21842E-02-7.98444E-01-4.39149E-13 3.58796E-13
 -1      2549 1.94909E+01 3.67924E+00-1.01348E-02-2.25857E-01-3.00992E-15-1.73218E-13
 -1      2550 1.95112E+01 3.65595E+00-9.41768E-03-3.95127E-01-2.65586E-14-1.58354E-13
 -1      2551 1.96815E+01 3.27202E+00 9.05302E-05-4.31486E-01-3.44395E-14-1.39791E-13
 -1      2552 1.96379E+01 3.34002E+00-2.05222E-04-1.38190E-01-3.01433E-15-1.53899E-13
 -1      2553 3.23423E+01 7.11691E+00-1.01871E-01 4.77754E-01 3.63931E-13 1.74694E-13
 -1      2554 3.18665E+01 7.46239E+00-1.50808E-01-3.39318E-02 3.60711E-13 1.86871E-13
 -1      2555 1.36624E+01-5.29377E+00 5.51827E-02-6.56629E+00 1.00697E-13-1.08524E-14
 -1      2556 1.76236E+01-5.52475E+00-9.22881E-02-6.67469E+00 3.23075E-14-2.08580E-13
 -1      2557 3.21309E+01 6.70949E+00-1.61228E-01-7.73735E-01 3.17524E-13 1.60955E-13
 -1      2558 3.20318E+01 5.38672E+00-1.00653E-01-9.66110E-01 3.06533E-13 1.22152E-13
 -1      2559 3.23517E+01 4.47320E+00-7.80974E-02 7.07383E-01 4.36234E-13 2.36922E-13
 -1      2560 3.27992E+01 5.92851E+00-1.45227E-01 7.35512E-01 3.95850E-13 1.70641E-13
 -1      2561 3.01755E+01-2.24757E-01-3.44273E-02-7.99942E-01 2.29157E-13 2.78222E-13
 -1      2562 3.19506E+01 2.04948E+00-1.06468E-01 1.54388E-02 4.00027E-13 3.07809E-13
 -1      2563 2.57995E+01-4.08130E+00 3.46069E-02-3.63828E+00 1.02973E-13 1.33366E-13
 -1      2564 2.84007E+01-2.71865E+00-1.11412E-01-2.56263E+00 1.71155E-13 2.57072E-13
 -1      2565 1.81678E+01-5.44701E+00 4.61781E-02-6.40824E+00-1.53072E-13-2.12504E-13
 -1      2566 2.20514E+01-5.19809E+00-8.91130E-02-5.67801E+00-2.96430E-14-3.70259E-14
 -1      2567 1.08161E+01-4.83617E+00 5.54307E-02-6.54474E+00-1.39666E-13-3.90771E-13
 -1      2568 1.42390E+01-5.14455E+00-1.58243E-02-7.11426E+00-1.53100E-13-3.43059E-13
 -1      2569 4.57164E+00-3.67531E+00 4.07213E-02-3.90593E+00-1.62093E-14-5.07649E-13
 -1      2570 7.12464E+00-4.11796E+00 1.51396E-02-5.74354E+00-6.69187E-14-4.70152E-13
 -1      2571 3.15267E+00-2.58369E+00 6.14852E-02 1.03317E-01 5.44044E-14-4.85445E-13
 -1      2572 3.46762E+00-2.91345E+00 6.87190E-02-2.10530E+00 7.21923E-14-5.59441E-13
 -1      2573 6.52665E+00-3.41688E+00 6.63715E-02 4.82827E+00 1.15907E-13-1.81050E-13
 -1      2574 4.18738E+00-2.88029E+00 9.11932E-02 2.57600E+00 9.56180E-14-3.44280E-13
 -1      2575 1.31080E+01-5.17188E+00 2.17428E-02 6.90080E+00 4.96270E-14 7.38992E-14
 -1      2576 9.96483E+00-4.54049E+00 7.80585E-02 6.27052E+00 1.22513E-13-2.61458E-14
 -1      2577 2.05879E+01-5.33113E+00-4.82906E-02 6.14718E+00 5.58442E-14 8.01303E-14
 -1      2578 1.65306E+01-5.63113E+00-1.01649E-02 6.46516E+00 2.17604E-14 1.23508E-13
 -1      2579 2.73340E+01-3.79319E+00-1.25905E-01 3.29289E+00 1.08691E-13 2.44471E-13
 -1      2580 2.41907E+01-4.81081E+00 3.01740E-03 4.49940E+00 1.38584E-13 1.10634E-13
 -1      2581 3.18383E+01 4.80604E-01-1.02883E-01 1.70328E-01-1.72327E-13 5.00155E-13
 -1      2582 2.97969E+01-1.59932E+00-2.08221E-02 1.01867E+00 2.07022E-14 4.01457E-13
 -1      2583 3.38068E+01 5.03075E+00-6.32586E-02-6.55891E-01-3.29736E-13 4.20303E-13
 -1      2584 3.28918E+01 3.16726E+00-6.30533E-02-3.99862E-01-2.99094E-13 4.39593E-13
 -1      2585 3.27714E+01 6.24860E+00-1.28138E-01 1.00729E+00-2.90989E-13 1.80689E-13
 -1      2586 3.27998E+01 7.08201E+00-1.47061E-01 4.56688E-01-4.12781E-13 1.76331E-13
 -1      2587 3.13413E+01 1.92520E+00-9.69708E-02 1.01597E+00-6.65024E-14 1.64035E-13
 -1      2588 3.25448E+01 4.36718E+00-1.45548E-01 1.15353E+00-1.94594E-13 1.38056E-13
 -1      2589 2.90301E+01-2.63598E+00-1.22799E-02-1.33492E+00-5.91749E-14 2.79499E-14
 -1      2590 3.05212E+01-1.03276E+00-1.72294E-01-3.41295E-01-3.59140E-14 2.19963E-13
 -1      2591 2.25118E+01-5.30225E+00 6.86765E-02-5.00510E+00-6.68077E-14-8.89289E-14
 -1      2592 2.64089E+01-4.39735E+00-1.19028E-01-3.58028E+00-7.07767E-14-9.01779E-14
 -1      2593 3.16962E+01 3.04825E+00-1.66925E-01-7.20636E-01 3.22603E-13 1.19960E-13
 -1      2594 3.10364E+01 1.23048E+00-6.69335E-02-7.28664E-02 3.17774E-13 6.42819E-14
 -1      2595 2.05191E+01 8.82307E-01-6.47174E-03 1.16678E+00 1.83036E-13 1.05362E-13
 -1      2596 2.08547E+01 1.25990E+00-5.75356E-03 1.67079E+00 1.88828E-13 1.53030E-13
 -1      2597 2.06671E+01 1.71944E+00-1.57841E-02 1.85878E+00 2.12202E-13 9.26099E-14
 -1      2598 2.04875E+01 1.07249E+00-9.64138E-03 1.16534E+00 1.84824E-13 3.64315E-14
 -1      2599 2.53411E+01-4.24832E+00-4.18894E-02 4.48548E+00 5.54279E-14 1.22152E-13
 -1      2600 2.20672E+01-5.11616E+00 2.70933E-02 5.30749E+00-2.92544E-14 1.52656E-14
 -1      2601 2.99442E+01 6.67708E+00-9.26258E-02-5.75010E-01 3.20771E-13 4.05787E-14
 -1      2602 1.99197E+01 2.88202E+00 1.49404E-03-1.01644E+00-1.08403E-13-1.38297E-13
 -1      2603 1.97953E+01 3.20706E+00-1.65713E-02-1.21231E+00-1.17612E-13-1.47578E-13
 -1      2604 1.99049E+01 3.05537E+00-1.83838E-02-1.39992E+00-1.40318E-13-1.25904E-13
 -1      2605 2.00927E+01 3.80665E-01-4.25927E-03 1.77912E-01 1.00544E-13 3.53224E-14
 -1      2606 2.04505E+01 2.12529E+00-1.26327E-02 1.80593E+00 2.11314E-13 2.31152E-14
 -1      2607 2.69611E+01-3.83621E+00 2.44671E-02 2.62381E+00 5.96745E-15-4.71845E-15
 -1      2608 3.01976E+01 3.68405E+00-7.36353E-02-1.60862E+00 2.16355E-13 8.41827E-14
 -1      2609 2.12074E+01-5.37536E+00 8.88318E-02-5.36785E+00 1.48770E-13-1.87558E-13
 -1      2610 7.12086E+00-2.61543E+00 1.45028E-01-4.19950E+00-1.15880E-14 2.59875E-13
 -1      2611 2.75433E+01-3.96483E+00 1.76043E-02-1.79219E+00 7.43849E-15 1.19904E-14
 -1      2612 3.01794E+01 1.70507E-01-4.04638E-02 1.26871E+00 9.52016E-15 1.91513E-14
 -1      2613 3.05690E+01 4.91113E+00 6.03022E-03 1.93006E+00-2.23960E-13-1.45828E-13
 -1      2614 2.00071E+01 8.27136E-03-4.43718E-05 6.02750E-03-2.55680E-14 4.66502E-13
 -1      2615 2.11197E+01-5.18143E+00 8.69649E-02 5.43439E+00-2.75557E-13 2.65135E-14
 -1      2616 2.00081E+01 1.11296E-02-1.68920E-06 8.61265E-03 1.00978E-15 3.76529E-13
 -1      2617 3.15283E+01 5.51711E+00 3.03660E-02-1.34144E+00-3.58047E-13 3.31818E-13
 -1      2618 5.03888E+00-1.55908E+00 1.67360E-01-7.87595E-02-7.00794E-14 6.77680E-13
 -1      2619 7.85120E+00-2.23587E+00 1.66625E-01 4.38110E+00-2.10387E-13 6.68243E-13
 -1      2620 3.10694E+01 1.23293E+00-6.01673E-02-1.37012E+00-1.51656E-13 4.69791E-13
 -1      2621 2.85846E+01-3.15673E+00-2.51788E-03 1.22991E+00 1.38112E-13 4.29601E-13
 -1      2622 2.04676E+01 1.82884E+00 1.24165E-02 1.48384E+00 1.94944E-13 1.12471E-14
 -1      2623 2.32594E+01-5.35463E+00 6.16007E-02 4.80459E+00 1.73583E-13 2.19463E-13
 -1      2624 2.01499E+01 2.63847E+00-9.57933E-03-1.59933E+00-1.55264E-13-7.17950E-14
 -1      2625 3.08644E+01 6.89051E+00 2.01230E-03 1.65933E-01-3.79918E-13 5.86649E-14
 -1      2626 1.65307E+01-5.22740E+00 6.44743E-02 6.48888E+00 1.32644E-13 1.30104E-13
 -1      2627 9.27592E+00-3.46882E+00 1.18036E-01 5.53116E+00 1.55043E-13-5.82034E-14
 -1      2628 9.09356E+00-2.06456E+00 1.60047E-01 4.72671E+00 1.88377E-13-1.06359E-13
 -1      2629 1.21255E+01-3.45532E+00 6.86992E-02 5.94968E+00 1.88363E-13-8.10463E-15
 -1      2630 5.50919E+00-1.66687E+00 1.71705E-01 1.39313E+00 1.23943E-13-3.97238E-13
 -1      2631 5.80985E+00-2.16767E+00 1.44825E-01-3.12282E+00 1.26843E-14-4.83613E-13
 -1      2632 1.04362E+01-3.80239E+00 1.16759E-01-6.17484E+00-1.11633E-13-3.86108E-13
 -1      2633 1.75949E+01-5.09983E+00 1.09015E-01-6.51079E+00-2.31315E-13-1.90820E-13
 -1      2634 2.44447E+01-4.89466E+00 5.60628E-02-4.10604E+00 1.62093E-14 6.62248E-14
 -1      2635 2.91094E+01-1.78790E+00 9.99303E-04-6.42875E-01 2.03489E-13 2.84495E-13
 -1      2636 3.07173E+01 2.78919E+00-3.09133E-02 1.24966E+00 3.45196E-13 2.94265E-13
 -1      2637 2.97183E+01-4.25198E-01-6.25180E-03-2.17629E-01 1.80300E-13 4.71845E-14
 -1      2638 1.30502E+01-4.37260E+00 1.21152E-01-6.41765E+00 1.73084E-13-6.41986E-14
 -1      2639 3.02718E+01 6.18510E+00-6.71505E-02 1.03536E+00 3.74950E-13 2.14440E-13
 -1      2640 2.00091E+01 9.78826E-03 1.47761E-04-7.76835E-03-8.48230E-14-4.45572E-14
 -1      2641 2.00083E+01 1.29266E-02-1.47670E-04-1.00893E-02-2.66412E-13-3.82049E-14
 -1      2642 2.00109E+01 1.98293E-02 1.47596E-04-1.59963E-02-3.45075E-13 8.17457E-14
 -1      2643 2.00127E+01 1.20573E-02 3.41699E-04-1.14157E-02-2.39228E-13 1.79559E-13
 -1      2644 2.00106E+01 1.74382E-02 2.01532E-04 1.41992E-02-8.20936E-14 3.88205E-13
 -1      2645 2.00147E+01 1.73849E-02-2.82836E-04-1.81608E-02-3.09857E-13 7.65597E-14
 -1      2646 1.98053E+01 2.88912E+00-6.10200E-03 4.59953E-01 8.09447E-14-1.74533E-13
 -1      2647 1.97721E+01 2.94456E+00-6.11734E-03 3.22302E-01 6.05016E-14-1.76286E-13
 -1      2648 1.97495E+01 2.98853E+00-5.62578E-03 2.04143E-01 4.73462E-14-1.65930E-13
 -1      2649 1.97378E+01 3.00758E+00-5.68530E-03 6.48157E-02 2.58885E-14-1.31986E-13
 -1      2650 1.98864E+01 2.65757E+00 4.31196E-03 2.26321E-01 4.75971E-14-1.56982E-13
 -1      2651 2.00510E+01 2.40285E+00-1.02070E-02 9.50903E-01 1.49329E-13-7.82237E-14
 -1      2652 1.99739E+01 2.56209E+00-6.91539E-03 8.20981E-01 1.36446E-13-9.20067E-14
 -1      2653 2.02456E+01 1.96020E+00-1.15433E-02 1.12943E+00 1.70692E-13-5.03078E-14
 -1      2654 2.01432E+01 2.20866E+00-5.40317E-03 1.03600E+00 1.55957E-13-5.36390E-14
 -1      2655 2.01997E+01 1.97163E+00 6.54272E-03 8.18165E-01 1.53184E-13-4.69017E-14
 -1      2656 2.02788E+01 7.71810E-01-2.41849E-03 5.29634E-01 1.29553E-13 1.46875E-14
 -1      2657 2.04046E+01 9.87606E-01 9.17530E-03 8.06752E-01 1.47116E-13 9.46400E-15
 -1      2658 2.45148E+01-5.31486E+00-1.20202E-01 3.73645E+00 2.20796E-13 3.03993E-13
 -1      2659 2.18597E+01-5.37908E+00 8.93170E-02 5.01116E+00 1.26649E-13 2.70142E-13
 -1      2660 2.03783E+01 1.52872E+00-1.43834E-03 1.17993E+00 1.75207E-13-1.67878E-15
 -1      2661 2.83899E+01 4.17689E+00-1.83941E-01-1.87550E+00 2.50716E-13-5.64548E-14
 -1      2662 2.84630E+01 2.27689E+00-1.06904E-01-1.94700E+00 2.42029E-13-2.10110E-14
 -1      2663 2.62461E+01-4.53178E+00 1.01919E-01-2.08825E+00 9.93372E-14-1.85463E-13
 -1      2664 2.77382E+01-3.45022E+00-1.42343E-01-3.85787E-01 1.31402E-13-5.98271E-14
 -1      2665 2.02822E+01 7.05078E-01 7.44165E-03-2.84888E-01-1.07128E-13-2.70408E-14
 -1      2666 2.02183E+01 5.68348E-01-1.79482E-03-1.02646E-01-9.14772E-14-3.74027E-14
 -1      2667 2.01980E+01 4.69384E-01 6.01610E-03 4.49691E-02-7.47304E-14-2.93932E-14
 -1      2668 2.01637E+01 3.91736E-01-1.38940E-04 1.73524E-01-7.32959E-14-5.38809E-14
 -1      2669 2.02557E+01 6.51851E-01-1.84124E-03-6.02960E-02-8.89311E-14-4.62362E-14
 -1      2670 2.01447E+01 3.38279E-01 3.78046E-03 2.85210E-01-7.48913E-14-3.85755E-14
 -1      2671 2.01402E+01 2.98439E-01 1.09863E-03 3.81452E-01-7.02432E-14-3.07254E-14
 -1      2672 2.02032E+01 4.61834E-01-2.31100E-03 2.12389E-01-8.27705E-14-5.88349E-14
 -1      2673 2.01274E+01 2.73489E-01 1.95834E-03 4.70815E-01-6.93767E-14-4.65757E-14
 -1      2674 2.01483E+01 2.58503E-01 1.98939E-03 5.49895E-01-7.71911E-14-6.55983E-14
 -1      2675 2.01662E+01 3.61611E-01-2.10571E-03 4.24032E-01-7.55661E-14-6.14206E-14
 -1      2676 2.01424E+01 2.52239E-01 5.94651E-04 6.28195E-01-7.11461E-14-5.84618E-14
 -1      2677 2.01843E+01 2.53629E-01 2.65538E-03 7.00609E-01-5.38543E-14-5.06893E-14
 -1      2678 2.01474E+01 3.20943E-01-1.67309E-03 6.00032E-01-7.87778E-14-6.47641E-14
 -1      2679 2.01845E+01 2.59168E-01-3.97266E-04 7.76256E-01-3.26974E-14-2.59771E-14
 -1      2680 2.02443E+01 2.70242E-01 3.16306E-03 8.48880E-01-4.15137E-14 4.28159E-15
 -1      2681 2.01448E+01 3.19472E-01-1.21787E-03 7.60478E-01-2.35834E-14 1.31654E-14
 -1      2682 2.02499E+01 2.81405E-01-1.05456E-03 9.27618E-01-4.82203E-14 2.73057E-14
 -1      2683 2.03261E+01 2.95316E-01 3.53422E-03 1.00411E+00-4.52668E-14 5.40436E-14
 -1      2684 2.01557E+01 3.41015E-01-8.45412E-04 9.19969E-01-1.65551E-14 1.36338E-13
 -1      2685 2.03376E+01 3.04912E-01-1.33998E-03 1.08906E+00-2.84699E-14 7.78356E-14
 -1      2686 2.04302E+01 3.12928E-01 3.75661E-03 1.16965E+00-7.43952E-15 6.11299E-14
 -1      2687 2.01785E+01 3.69139E-01-6.61073E-04 1.08783E+00-1.44057E-14 1.40596E-13
 -1      2688 2.04511E+01 3.11090E-01-1.11287E-03 1.26106E+00 2.75545E-15 5.61423E-14
 -1      2689 2.05624E+01 3.00788E-01 3.79210E-03 1.34176E+00 6.49697E-15 6.49404E-14
 -1      2690 2.02155E+01 3.83214E-01-8.48792E-04 1.26805E+00-1.40793E-14 8.71835E-14
 -1      2691 2.06013E+01 2.73242E-01-8.78088E-05 1.43627E+00-1.26896E-14 1.45936E-15
 -1      2692 2.07376E+01 2.26712E-01 3.55488E-03 1.50749E+00-2.20490E-14 9.68031E-15
 -1      2693 2.02759E+01 3.54345E-01-1.74864E-03 1.45866E+00-4.54868E-14 3.66923E-14
 -1      2694 2.08120E+01 1.53430E-01 2.21374E-03 1.59661E+00 3.19268E-15-6.37095E-15
 -1      2695 2.09848E+01 4.64085E-02 2.82623E-03 1.64112E+00 2.24447E-14 2.67415E-14
 -1      2696 2.03813E+01 2.41338E-01-3.93870E-03 1.65013E+00 1.65972E-14 2.81548E-14
 -1      2697 2.11266E+01-9.76802E-02 6.47721E-03 1.70800E+00 3.81521E-14 9.00965E-14
 -1      2698 2.13537E+01-2.92987E-01 1.02278E-03 1.69829E+00 3.78523E-14 1.49369E-13
 -1      2699 2.05748E+01-1.13129E-02-8.23362E-03 1.82158E+00 5.63847E-14 4.15975E-14
 -1      2700 2.16130E+01-5.31115E-01 1.32829E-02 1.71136E+00 3.61107E-14 1.65021E-13
 -1      2701 2.19148E+01-8.33159E-01-3.05484E-03 1.60734E+00 5.35236E-14 1.66334E-13
 -1      2702 2.09302E+01-4.67276E-01-1.54889E-02 1.93209E+00 3.98324E-14 1.21462E-13
 -1      2703 2.23575E+01-1.16558E+00 2.24931E-02 1.50987E+00 3.80121E-14 1.62928E-13
 -1      2704 2.27417E+01-1.54886E+00-1.02147E-02 1.26091E+00 3.59665E-14 1.66354E-13
 -1      2705 2.15578E+01-1.17023E+00-2.57098E-02 1.90347E+00 3.49474E-14 1.43508E-13
 -1      2706 2.34206E+01-1.90802E+00 3.12471E-02 9.64285E-01 3.30274E-14 1.87580E-13
 -1      2707 2.38522E+01-2.23741E+00-1.86902E-02 5.27928E-01 9.10036E-15 1.54029E-13
 -1      2708 2.25846E+01-2.06441E+00-3.47772E-02 1.59608E+00 2.24805E-14 1.06823E-13
 -1      2709 2.47254E+01-2.41970E+00 2.45895E-02-5.78258E-02 3.82151E-14 1.58906E-13
 -1      2710 2.50970E+01-2.38006E+00-2.75146E-02-6.49202E-01 5.70425E-14 1.34402E-13
 -1      2711 2.40724E+01-2.82496E+00-2.92035E-02 8.14897E-01 3.05550E-14 1.16749E-13
 -1      2712 2.58902E+01-1.97459E+00-2.06567E-02-1.46095E+00 2.40918E-14 1.97243E-13
 -1      2713 2.60390E+01-1.19741E+00-3.49570E-02-1.94044E+00-4.76008E-15 1.67336E-13
 -1      2714 2.57946E+01-2.72870E+00-2.39214E-02-5.79932E-01 5.35093E-14 1.29435E-13
 -1      2715 2.64414E+01-1.47083E-02-9.48433E-02-2.51489E+00-5.72285E-14 1.80300E-13
 -1      2716 2.61588E+01 1.50558E+00-4.61120E-02-2.46312E+00-1.12688E-13 1.28904E-13
 -1      2717 2.71020E+01-9.09563E-01-8.47343E-02-2.05660E+00-2.41474E-14 2.32828E-13
 -1      2718 2.72415E+01 3.89692E+00-1.85072E-01-1.81426E+00-2.31037E-13 6.22141E-14
 -1      2719 2.69905E+01 4.92049E+00-1.98613E-01-9.25493E-01-1.71446E-13-5.03278E-14
 -1      2720 2.68533E+01 4.94454E+00-2.15846E-01 3.21011E-01-1.99507E-13-1.19842E-13
 -1      2721 2.70180E+01 4.36040E+00-2.33875E-01 1.40086E+00-2.77028E-13-3.17697E-13
 -1      2722 2.70749E+01 3.06615E+00-1.52631E-01 2.07629E+00-1.01086E-13-3.00586E-13
 -1      2723 2.73813E+01 1.50788E+00-1.32651E-01 2.54313E+00-4.04676E-14-2.51438E-13
 -1      2724 2.56244E+01-2.04218E+00-3.06503E-02 1.28931E+00 5.24229E-14 6.85042E-14
 -1      2725 2.53231E+01-2.36751E+00 1.45588E-02 6.98190E-01 1.38666E-13 1.42531E-13
 -1      2726 2.44302E+01-2.40022E+00-2.51974E-02-1.15066E-02 5.04145E-14 1.17626E-13
 -1      2727 2.40142E+01-2.18131E+00 3.11552E-02-5.22854E-01-3.24198E-14 1.20290E-14
 -1      2728 2.48445E+01-2.95126E+00-3.80140E-02-2.17632E-01 8.86601E-14 2.12805E-13
 -1      2729 2.32336E+01-1.86668E+00-1.50531E-02-9.39457E-01-7.44522E-14 1.01029E-13
 -1      2730 2.28249E+01-1.47658E+00 2.73699E-02-1.26364E+00-1.30557E-14 1.74805E-13
 -1      2731 2.32154E+01-2.43797E+00-3.62991E-02-1.26564E+00-1.66794E-14 2.13664E-13
 -1      2732 2.22805E+01-1.11438E+00-5.67011E-03-1.43126E+00-2.95276E-14 9.96412E-14
 -1      2733 2.19466E+01-7.65112E-01 1.78064E-02-1.58718E+00-9.32925E-14 7.28571E-14
 -1      2734 2.19812E+01-1.53059E+00-3.01161E-02-1.75094E+00-9.09389E-14 1.61247E-13
 -1      2735 2.16139E+01-4.78642E-01-4.67413E-04-1.60703E+00-1.11584E-13 2.99940E-14
 -1      2736 2.13624E+01-2.32683E-01 9.66263E-03-1.64495E+00-1.38542E-13 3.87076E-14
 -1      2737 2.11906E+01-7.16282E-01-1.96190E-02-1.86993E+00-1.40826E-13-4.65903E-14
 -1      2738 2.11764E+01-4.57379E-02 2.08325E-03-1.58766E+00-1.10987E-13-2.41515E-14
 -1      2739 2.09898E+01 1.00505E-01 4.20718E-03-1.55377E+00-1.10964E-13 5.32319E-14
 -1      2740 2.07315E+01-1.43197E-01-1.09048E-02-1.79110E+00-7.82879E-14 4.24066E-14
 -1      2741 2.08909E+01 2.04713E-01 3.08481E-03-1.46156E+00-1.35011E-13 2.07899E-13
 -1      2742 2.07490E+01 2.77369E-01 1.06163E-03-1.38911E+00-1.17531E-13 2.22784E-13
 -1      2743 2.04796E+01 1.99374E-01-5.44886E-03-1.62048E+00-5.02170E-14 1.75903E-13
 -1      2744 2.06974E+01 3.24095E-01 3.47909E-03-1.28467E+00-1.64900E-13 3.12639E-13
 -1      2745 2.05853E+01 3.49093E-01-5.45256E-04-1.19579E+00 2.99971E-14 2.82332E-13
 -1      2746 2.03436E+01 3.72263E-01-2.36728E-03-1.41328E+00-1.18569E-13 3.97213E-13
 -1      2747 2.05573E+01 3.60263E-01 3.54695E-03-1.09172E+00 1.00535E-13 1.86248E-13
 -1      2748 2.04660E+01 3.57515E-01-1.24234E-03-1.00021E+00 5.67754E-14 2.40475E-13
 -1      2749 2.02674E+01 4.34538E-01-8.48131E-04-1.19928E+00-4.95950E-14 2.78339E-13
 -1      2750 2.04488E+01 3.48930E-01 3.41261E-03-9.03350E-01 1.64614E-14 1.94252E-13
 -1      2751 2.03731E+01 3.31876E-01-1.43536E-03-8.17156E-01 6.39760E-14 2.79594E-13
 -1      2752 2.02196E+01 4.31684E-01-2.26137E-04-9.94973E-01 4.88049E-14 1.16493E-13
 -1      2753 2.03606E+01 3.13772E-01 3.14964E-03-7.30903E-01 7.07870E-14 1.59812E-13
 -1      2754 2.02978E+01 2.90746E-01-1.37294E-03-6.54053E-01 1.21301E-13 7.85022E-14
 -1      2755 2.01847E+01 3.94627E-01-5.10460E-05-8.09203E-01-1.97238E-14-3.76774E-14
 -1      2756 2.02873E+01 2.69268E-01 2.81080E-03-5.79689E-01 1.07862E-13-6.45247E-14
 -1      2757 2.02354E+01 2.45079E-01-1.19904E-03-5.13730E-01 2.88306E-14-5.96648E-14
 -1      2758 2.01557E+01 3.42753E-01-6.38537E-05-6.46127E-01-2.91238E-14-1.95266E-13
 -1      2759 2.02260E+01 2.23654E-01 2.43784E-03-4.51237E-01 1.47550E-13-1.47853E-13
 -1      2760 2.01836E+01 2.00860E-01-9.92079E-04-3.96220E-01 1.59187E-13-8.16555E-14
 -1      2761 2.01299E+01 2.87413E-01-1.32080E-04-5.06882E-01 7.19391E-14-1.97787E-13
 -1      2762 2.01751E+01 1.81227E-01 2.06245E-03-3.44820E-01 1.47039E-13-2.90754E-14
 -1      2763 2.01411E+01 1.61020E-01-7.91451E-04-2.99970E-01 7.56733E-14-1.82864E-14
 -1      2764 2.01066E+01 2.34755E-01-1.96722E-04-3.90697E-01 1.41038E-13-1.98772E-13
 -1      2765 2.01334E+01 1.43922E-01 1.70654E-03-2.58482E-01-2.21491E-14-1.74482E-14
 -1      2766 2.01065E+01 1.26707E-01-6.14566E-04-2.22626E-01-1.33996E-14 1.33032E-14
 -1      2767 2.00860E+01 1.87739E-01-2.37418E-04-2.95681E-01 3.67687E-14-2.85161E-13
 -1      2768 2.00999E+01 1.12322E-01 1.38358E-03-1.89710E-01-5.74256E-14 1.77925E-13
 -1      2769 2.00790E+01 9.80729E-02-4.67358E-04-1.61537E-01-1.23137E-13 1.69576E-13
 -1      2770 2.00680E+01 1.47454E-01-2.51854E-04-2.19369E-01 8.31255E-14-3.39082E-13
 -1      2771 2.00733E+01 8.62782E-02 1.09996E-03-1.35847E-01-1.75037E-13 1.34274E-13
 -1      2772 2.00574E+01 7.47440E-02-3.49986E-04-1.14075E-01 2.49921E-14 3.42966E-15
 -1      2773 2.00528E+01 1.13940E-01-2.44700E-04-1.59107E-01-1.09768E-13-1.81169E-13
 -1      2774 2.00526E+01 6.52666E-02 8.58054E-04-9.43566E-02 2.02273E-13-3.43173E-14
 -1      2775 2.00406E+01 5.61001E-02-2.58144E-04-7.78131E-02 8.88434E-14 6.40931E-14
 -1      2776 2.00400E+01 8.66825E-02-2.21983E-04-1.12307E-01 4.26299E-14-2.41678E-13
 -1      2777 2.00366E+01 4.86241E-02 6.63970E-04-6.29387E-02 2.18392E-15 1.58626E-13
 -1      2778 2.00278E+01 4.13918E-02-1.79273E-04-5.05811E-02-2.12817E-13 1.19595E-13
 -1      2779 2.00295E+01 6.49197E-02-1.84772E-04-7.65934E-02 3.42587E-14-3.05090E-13
 -1      2780 2.00244E+01 3.53987E-02 4.71692E-04-3.96630E-02-2.81107E-13 2.58754E-13
 -1      2781 2.00181E+01 2.99392E-02-4.22835E-05-3.07386E-02-2.26444E-13 1.48244E-13
 -1      2782 2.00208E+01 4.75008E-02-2.18596E-04-4.98145E-02-9.17900E-14-1.33324E-13
 -1      2783 2.01072E+01 1.82288E-01 2.14816E-03-4.82168E-01 4.56919E-14-6.95944E-14
 -1      2784 2.00757E+01 2.01317E-01 2.82316E-03-4.14935E-01 6.24130E-14-3.48793E-14
 -1      2785 2.00115E+01 2.92381E-02-5.33577E-05 2.48910E-02-2.43605E-13-2.23840E-14
 -1      2786 2.00139E+01 2.21956E-02 1.47924E-04 2.09155E-02-3.04011E-13 3.98282E-13
 -1      2787 2.00190E+01 2.59655E-02 4.46607E-04 2.73465E-02-2.93525E-13 3.15010E-13
 -1      2788 2.00794E+01 2.27521E-01 1.55862E-03-3.32144E-01 4.82815E-14-4.14563E-14
 -1      2789 2.00789E+01 2.66683E-01 4.87977E-03-2.44842E-01 3.83614E-14-2.33083E-14
 -1      2790 2.01375E+01 2.80627E-01-2.94717E-03-3.78833E-01 5.82060E-14-7.48335E-14
 -1      2791 2.02758E+01 1.56619E-01 2.71145E-03-7.20156E-01 3.26047E-14 4.45175E-14
 -1      2792 2.01986E+01 1.58567E-01 6.13752E-04-6.67981E-01 4.93026E-14 2.21673E-15
 -1      2793 2.04089E+01 1.50933E-01 2.65668E-03-8.27262E-01 8.95869E-14 2.32418E-14
 -1      2794 2.03135E+01 1.53929E-01 2.15116E-04-7.78077E-01 7.32158E-14 5.04687E-14
 -1      2795 2.02440E+01 1.98853E-01-1.87775E-03-8.02773E-01 4.04176E-14 4.58113E-14
 -1      2796 2.05738E+01 1.32581E-01 2.26948E-03-9.27228E-01 7.71503E-14 4.04570E-14
 -1      2797 2.04616E+01 1.43851E-01 2.44357E-04-8.82996E-01 8.08833E-14 2.62558E-14
 -1      2798 2.03361E+01 1.87518E-01-1.90388E-03-9.22791E-01 8.13346E-14 2.50978E-14
 -1      2799 2.07735E+01 8.54201E-02 1.40463E-03-1.01079E+00 6.98922E-14 4.47438E-14
 -1      2800 2.06452E+01 1.13735E-01 7.59187E-04-9.77731E-01 8.64768E-14 3.73746E-14
 -1      2801 2.04597E+01 1.56066E-01-2.25995E-03-1.03535E+00 9.21752E-14 5.10051E-14
 -1      2802 2.10145E+01-9.59175E-03-1.23729E-04-1.05920E+00 1.62605E-14 1.25403E-13
 -1      2803 2.08706E+01 4.59584E-02 1.86069E-03-1.04844E+00 6.09870E-14 9.05678E-14
 -1      2804 2.06236E+01 8.34732E-02-3.06899E-03-1.13050E+00 4.15686E-14 7.35832E-14
 -1      2805 2.13062E+01-1.71908E-01-2.53048E-03-1.04280E+00-2.88089E-14 8.67927E-14
 -1      2806 2.11477E+01-7.92118E-02 3.65406E-03-1.07073E+00-5.09467E-15 9.69852E-14
 -1      2807 2.08426E+01-5.43525E-02-4.46405E-03-1.18828E+00 1.07882E-14 1.96848E-13
 -1      2808 2.16591E+01-4.13592E-01-5.97415E-03-9.20890E-01-2.83194E-15 6.08603E-14
 -1      2809 2.14894E+01-2.79033E-01 6.09300E-03-1.00824E+00 2.03993E-15 6.50931E-14
 -1      2810 2.11387E+01-2.80319E-01-6.45802E-03-1.17664E+00 7.93257E-15 9.71525E-14
 -1      2811 2.20772E+01-7.22046E-01-1.01782E-02-6.45631E-01 3.74340E-14 4.66137E-14
 -1      2812 2.19052E+01-5.56461E-01 8.74016E-03-8.13438E-01-1.01209E-14 5.99814E-14
 -1      2813 2.15379E+01-6.04352E-01-8.64384E-03-1.04962E+00 4.03133E-15 8.89346E-14
 -1      2814 2.25421E+01-1.03246E+00-1.41258E-02-1.77370E-01-1.50407E-14 1.66880E-13
 -1      2815 2.23873E+01-8.77358E-01 1.02457E-02-4.36253E-01 1.61015E-14 7.58990E-14
 -1      2816 2.20585E+01-9.97960E-01-9.58417E-03-7.49633E-01-2.84691E-14 5.95779E-14
 -1      2817 2.29930E+01-1.20143E+00-1.53405E-02 4.81331E-01-6.06928E-14 2.26427E-13
 -1      2818 2.28876E+01-1.14174E+00 7.62273E-03 1.50041E-01-2.42195E-15 2.39607E-13
 -1      2819 2.26842E+01-1.35943E+00-7.56065E-03-2.24728E-01-5.45222E-14 1.87991E-13
 -1      2820 2.33120E+01-1.00615E+00-8.49442E-03 1.23043E+00-5.00387E-14 1.47972E-13
 -1      2821 2.32957E+01-1.16499E+00-1.94737E-03 9.00145E-01-8.60753E-14 1.70087E-13
 -1      2822 2.33290E+01-1.48788E+00-2.26254E-03 5.29975E-01-2.95525E-14 1.64034E-13
 -1      2823 2.33638E+01-2.65762E-01 8.48451E-03 1.79297E+00-5.80504E-15 9.21500E-14
 -1      2824 2.34452E+01-7.15480E-01-1.85797E-02 1.61049E+00-8.41577E-14 5.47828E-14
 -1      2825 2.38051E+01-1.08919E+00 6.94136E-03 1.37805E+00 6.67435E-16 9.10006E-14
 -1      2826 2.31039E+01 9.05867E-01 2.12078E-02 1.76443E+00 2.25165E-13 1.46384E-13
 -1      2827 2.32362E+01 2.82137E-01-3.63349E-02 1.90244E+00 1.65745E-13 1.42719E-13
 -1      2828 2.39023E+01 1.17002E-02 1.29227E-02 1.96683E+00 2.07265E-14 4.93034E-14
 -1      2829 2.27271E+01 1.92744E+00 8.02519E-03 9.39046E-01 2.25452E-13 7.09372E-14
 -1      2830 2.28371E+01 1.46758E+00-3.74523E-02 1.42113E+00 2.51270E-13 8.88793E-14
 -1      2831 2.36029E+01 1.41707E+00-1.20301E-02 1.77809E+00 2.56759E-13 1.95599E-14
 -1      2832 2.26061E+01 2.12235E+00-2.44831E-02-4.03751E-01 1.18221E-13 1.19539E-13
 -1      2833 2.26194E+01 2.15480E+00-1.38367E-02 2.12251E-01 1.16344E-13 6.70728E-14
 -1      2834 2.32857E+01 2.52537E+00-2.88344E-02 6.48723E-01 1.72294E-13 6.79214E-14
 -1      2835 2.28806E+01 1.30529E+00-4.77713E-02-1.53686E+00 6.50831E-14 4.81585E-14
 -1      2836 2.27870E+01 1.82642E+00 1.45718E-02-1.11892E+00 1.14405E-13 1.41305E-13
 -1      2837 2.33630E+01 2.55042E+00 9.68743E-03-9.16291E-01 7.53425E-14 1.06100E-13
 -1      2838 2.33056E+01 1.34304E-01-3.23720E-02-1.94136E+00 7.41230E-14-1.70506E-14
 -1      2839 2.31549E+01 7.58912E-01 2.06024E-02-1.84717E+00 9.95419E-14 8.87979E-14
 -1      2840 2.36593E+01 1.37575E+00 1.81068E-03-1.91986E+00 1.35458E-13 1.06398E-13
 -1      2841 2.34629E+01-7.95824E-01-1.54418E-02-1.55374E+00 3.17704E-14-1.31662E-13
 -1      2842 2.33846E+01-3.97233E-01 1.30973E-03-1.76013E+00 9.47857E-14-2.00829E-14
 -1      2843 2.39385E+01-1.99915E-01 4.22954E-03-1.95172E+00 1.26890E-13 1.47073E-13
 -1      2844 2.32801E+01-1.17155E+00 1.59492E-03-8.30889E-01-4.22629E-14-5.20072E-14
 -1      2845 2.33045E+01-1.04829E+00-8.52838E-03-1.16580E+00 3.99420E-15-1.11455E-13
 -1      2846 2.37737E+01-1.15971E+00 9.07728E-03-1.30170E+00 1.25994E-14-1.26539E-14
 -1      2847 2.28560E+01-1.09720E+00 9.16652E-03-1.03726E-01-1.38674E-14-6.59175E-14
 -1      2848 2.29640E+01-1.17963E+00-1.52599E-02-4.23266E-01-8.65523E-14 8.91095E-15
 -1      2849 2.32667E+01-1.48091E+00-2.94746E-03-4.58211E-01-6.16078E-14 9.54866E-14
 -1      2850 2.23621E+01-8.09897E-01 1.05306E-02 4.40724E-01-1.05302E-13-1.07136E-13
 -1      2851 2.25138E+01-9.73583E-01-1.36915E-02 2.00893E-01-1.47029E-14-7.58185E-14
 -1      2852 2.26180E+01-1.29494E+00-8.37834E-03 2.57908E-01-1.20986E-14 8.97215E-14
 -1      2853 2.19007E+01-4.86613E-01 8.70144E-03 7.73819E-01-8.39110E-14 2.38880E-14
 -1      2854 2.20640E+01-6.51701E-01-9.65677E-03 6.25925E-01-1.35277E-13-8.51633E-14
 -1      2855 2.20109E+01-9.10803E-01-9.57879E-03 7.33958E-01-1.89292E-13 7.98829E-14
 -1      2856 2.15103E+01-2.14829E-01 6.09272E-03 9.29425E-01-5.01932E-14 1.37569E-13
 -1      2857 2.16679E+01-3.46030E-01-5.61127E-03 8.60540E-01-2.86320E-14 1.02292E-13
 -1      2858 2.15162E+01-5.18143E-01-8.39134E-03 9.89089E-01-9.83475E-14 2.29312E-13
 -1      2859 2.11950E+01-2.20981E-02 3.75823E-03 9.57699E-01-6.42339E-14 2.25187E-13
 -1      2860 2.13390E+01-1.11221E-01-2.32411E-03 9.46280E-01-7.39290E-15 2.12332E-13
 -1      2861 2.11414E+01-2.02205E-01-6.16880E-03 1.07795E+00-7.56547E-14 1.62884E-13
 -1      2862 2.09438E+01 9.66477E-02 2.03759E-03 9.05543E-01-1.30907E-15 1.66888E-13
 -1      2863 2.10717E+01 4.42196E-02-5.47107E-05 9.30866E-01-1.13713E-14 2.47380E-13
 -1      2864 2.08664E+01 1.48994E-02-4.18009E-03 1.05664E+00-6.20880E-14 1.26471E-13
 -1      2865 2.07435E+01 1.58311E-01 9.18046E-04 8.09155E-01-5.69057E-14 2.55160E-13
 -1      2866 2.08547E+01 1.33084E-01 1.35390E-03 8.54727E-01-5.66718E-14 2.43420E-13
 -1      2867 2.06649E+01 1.44611E-01-2.76435E-03 9.70377E-01-1.86696E-14 3.74072E-14
 -1      2868 2.05826E+01 1.80859E-01 2.59844E-04 6.93834E-01 1.67190E-14 1.80823E-13
 -1      2869 2.06779E+01 1.73710E-01 2.12313E-03 7.47922E-01 3.94504E-14 2.26265E-13
 -1      2870 2.05149E+01 2.08833E-01-1.86500E-03 8.51493E-01 5.09789E-14 1.99936E-13
 -1      2871 2.04530E+01 1.79115E-01-8.76777E-05 5.75943E-01 1.76361E-13 4.73769E-14
 -1      2872 2.05332E+01 1.82849E-01 2.44420E-03 6.30919E-01 3.22087E-14 1.02492E-13
 -1      2873 2.04006E+01 2.29030E-01-1.33029E-03 7.21623E-01 1.20932E-13 6.82760E-14
 -1      2874 2.03485E+01 1.63875E-01-2.42892E-04 4.65204E-01 6.98427E-14 1.85529E-14
 -1      2875 2.04150E+01 1.73393E-01 2.46910E-03 5.16563E-01 2.14920E-13 2.09034E-13
 -1      2876 2.03116E+01 2.22355E-01-1.01931E-03 5.94357E-01 7.05047E-14 1.13524E-13
 -1      2877 2.02647E+01 1.42386E-01-2.87797E-04 3.66696E-01-3.19303E-15 6.50696E-14
 -1      2878 2.03188E+01 1.54337E-01 2.31307E-03 4.12132E-01 4.03420E-14 1.04430E-13
 -1      2879 2.02412E+01 2.01099E-01-8.31456E-04 4.77524E-01 7.64125E-14 2.24163E-13
 -1      2880 2.01981E+01 1.19182E-01-2.74917E-04 2.82432E-01-1.52162E-13-1.01267E-14
 -1      2881 2.02414E+01 1.31512E-01 2.05928E-03 3.21084E-01-8.38699E-14 9.67270E-14
 -1      2882 2.01852E+01 1.73427E-01-7.05208E-04 3.74991E-01-3.99614E-14 2.97568E-13
 -1      2883 2.01458E+01 9.68997E-02-2.36024E-04 2.12510E-01-3.27906E-14 2.98624E-14
 -1      2884 2.01798E+01 1.08449E-01 1.76478E-03 2.44406E-01-1.50505E-13-1.08652E-13
 -1      2885 2.01407E+01 1.44406E-01-6.07339E-04 2.88013E-01-1.33859E-13 1.74727E-13
 -1      2886 2.01053E+01 7.69090E-02-1.89490E-04 1.55927E-01 8.29828E-14-4.78294E-14
 -1      2887 2.01315E+01 8.71040E-02 1.46656E-03 1.81597E-01 7.08811E-14 3.36311E-14
 -1      2888 2.01054E+01 1.16947E-01-5.22175E-04 2.16227E-01 1.92161E-14 9.43542E-14
 -1      2889 2.00744E+01 5.97760E-02-1.46548E-04 1.11132E-01 1.70973E-13-6.72592E-14
 -1      2890 2.00942E+01 6.84121E-02 1.18652E-03 1.31344E-01 1.66269E-13-4.06459E-14
 -1      2891 2.00778E+01 9.25271E-02-4.43599E-04 1.58351E-01 1.11860E-13-9.16882E-14
 -1      2892 2.00513E+01 4.56052E-02-8.93578E-05 7.63955E-02 2.54402E-13 8.89618E-14
 -1      2893 2.00659E+01 5.26789E-02 9.37767E-04 9.19763E-02 1.66978E-13-2.08664E-14
 -1      2894 2.00563E+01 7.17112E-02-3.70428E-04 1.12663E-01 1.43952E-13-1.42702E-13
 -1      2895 2.00347E+01 3.43907E-02 1.39287E-04 5.01327E-02 3.06656E-13 2.24253E-13
 -1      2896 2.00448E+01 3.97171E-02 7.11621E-04 6.16879E-02 3.66719E-13 1.59805E-13
 -1      2897 2.00396E+01 5.45177E-02-3.41907E-04 7.73484E-02 2.90663E-13-1.32962E-13
 -1      2898 2.00227E+01 2.82101E-02 2.33150E-04 3.36417E-02-9.05761E-14 1.74976E-13
 -1      2899 2.00297E+01 3.24596E-02 5.29153E-04 4.23606E-02 1.01504E-13 1.99638E-13
 -1      2900 2.00268E+01 4.35278E-02-5.30837E-04 5.39018E-02 1.87288E-13 1.15996E-13
 -1      2901 2.00177E+01 3.69036E-02-6.36125E-04 3.88237E-02-2.87117E-13 3.05430E-14
 -1      2902 2.34616E+01-5.18809E+00-4.46431E-02 4.27575E+00-3.11057E-13-1.51823E-14
 -1      2903 2.02164E+01-4.75468E+00 1.20263E-01 5.31668E+00-4.51611E-13-4.63934E-14
 -1      2904 1.99820E+01 7.54463E-02-2.01776E-04 3.07035E-03 1.08594E-13 2.16165E-13
 -1      2905 1.99829E+01 7.44924E-02-9.07856E-05 8.20084E-03 2.27437E-13-1.49947E-14
 -1      2906 2.00163E+01 2.64862E-02 3.37749E-04-2.51804E-02-2.54827E-13 1.25580E-13
 -1      2907 2.00130E+01 2.31870E-02 3.34643E-05-2.05992E-02-2.98897E-13 1.22712E-13
 -1      2908 2.00148E+01 3.53842E-02-2.44665E-04-3.27745E-02-2.82657E-13 7.55102E-14
 -1      2909 1.99904E+01 6.31394E-02-3.27298E-04 2.27939E-02 1.20435E-13-2.66824E-13
 -1      2910 1.99943E+01 5.89473E-02 1.29065E-04 2.52861E-02 2.81858E-13-3.66664E-13
 -1      2911 1.99830E+01 7.45165E-02-9.66707E-05-8.63020E-03 7.09655E-14 1.18276E-13
 -1      2912 1.99820E+01 7.54856E-02-1.98676E-04-3.50853E-03 4.21796E-14 1.52146E-13
 -1      2913 1.99777E+01 8.83443E-02 3.70023E-04-2.07785E-04 1.74073E-13 3.98782E-14
 -1      2914 1.99846E+01 7.14833E-02-2.83546E-04 1.42107E-02 1.54848E-13-2.99143E-13
 -1      2915 1.99873E+01 6.87361E-02 2.49970E-05 1.84037E-02 1.96106E-13-1.87549E-13
 -1      2916 1.99861E+01 7.72299E-02 2.89308E-04 2.46370E-02 2.52075E-13-2.21283E-13
 -1      2917 1.99799E+01 8.54327E-02 3.45763E-04 1.33687E-02 2.34488E-13-1.30969E-13
 -1      2918 1.99874E+01 6.89474E-02 2.15137E-05-1.86332E-02 2.07979E-13 2.15316E-13
 -1      2919 1.99847E+01 7.16307E-02-2.82361E-04-1.45309E-02 4.48185E-14 1.31891E-13
 -1      2920 1.99800E+01 8.56310E-02 3.56647E-04-1.36692E-02 1.16590E-13 1.17746E-13
 -1      2921 1.99945E+01 5.91850E-02 1.10745E-04-2.54677E-02 2.46637E-13 1.79245E-13
 -1      2922 1.99906E+01 6.34085E-02-3.28294E-04-2.30192E-02 2.70912E-13 3.19466E-13
 -1      2923 1.99863E+01 7.76178E-02 2.92822E-04-2.48394E-02 2.14849E-13 3.23728E-13
 -1      2924 2.00025E+01 4.62733E-02 3.75259E-05-2.76085E-02 2.84459E-14-1.51202E-13
 -1      2925 1.99986E+01 5.17301E-02-3.00411E-04-2.75091E-02 2.36363E-13-5.38007E-14
 -1      2926 1.99953E+01 6.52459E-02 2.03164E-04-3.18723E-02 2.09710E-13 1.24648E-13
 -1      2927 2.03557E+01 1.74726E+00-9.68330E-03-1.23897E+00-1.31934E-13-4.25261E-14
 -1      2928 2.03326E+01 1.37382E+00-6.03468E-03-9.31874E-01-1.27695E-13-3.12032E-14
 -1      2929 1.62064E+01-4.03757E+00-3.84696E-02 6.17891E+00-4.32973E-13-1.20737E-14
 -1      2930 1.35070E+01-2.88852E+00 1.78006E-01 5.84031E+00-3.70606E-13 2.08583E-13
 -1      2931 1.02376E+01-1.86012E+00 4.75194E-02 4.98552E+00-1.82576E-13 5.41983E-13
 -1      2932 7.88267E+00-8.72912E-01 1.88202E-01 2.98958E+00-1.28973E-13 7.53425E-13
 -1      2933 6.46116E+00-6.18697E-01 9.27322E-02 9.51977E-01 8.35998E-14 6.94944E-13
 -1      2934 6.62489E+00-6.79010E-01 1.64328E-01-1.37057E+00 9.47922E-14 6.06293E-13
 -1      2935 2.00975E+01 3.16608E-01 7.35176E-04-1.35979E-01 3.95055E-14-1.85230E-14
 -1      2936 2.01349E+01 3.89006E-01 7.58902E-03-1.32595E-02 6.97088E-14-6.94708E-15
 -1      2937 2.01650E+01 3.81487E-01-3.24536E-03-1.73815E-01 4.19777E-14-4.64291E-14
 -1      2938 2.01743E+01 1.63036E-01 2.52881E-03-6.07116E-01 6.78613E-14-5.43269E-14
 -1      2939 2.01179E+01 1.70262E-01 1.45182E-03-5.50158E-01 4.67741E-14-6.81607E-14
 -1      2940 2.01436E+01 2.29503E-01-2.47443E-03-5.39865E-01 5.61229E-14-7.08320E-14
 -1      2941 2.01799E+01 2.07650E-01-2.08976E-03-6.76984E-01 1.77857E-14-7.69147E-15
 -1      2942 2.03668E+01 1.09112E+00 4.85558E-03-7.16616E-01-1.23699E-13-2.35707E-14
 -1      2943 2.02874E+01 8.66331E-01-4.06413E-03-4.59382E-01-1.13724E-13-3.10125E-14
 -1      2944 2.03077E+01 9.69389E-01 1.51119E-03-4.00383E-01-1.15140E-13-4.90305E-14
 -1      2945 2.03161E+01 1.45198E+00 1.57498E-03-8.00334E-01-1.22944E-13-6.42043E-14
 -1      2946 1.99058E+01 2.70001E+00-7.50577E-03 7.14086E-01 1.29165E-13-1.17892E-13
 -1      2947 1.98500E+01 2.80078E+00-6.64948E-03 5.75232E-01 1.03404E-13-1.46403E-13
 -1      2948 1.99536E+01 2.52805E+00 4.88149E-03 4.45082E-01 1.02236E-13-1.39562E-13
 -1      2949 2.00614E+01 2.30527E+00 5.94355E-03 6.49944E-01 1.22272E-13-7.92820E-14
 -1      2950 2.01661E+01 4.79910E-01-3.23718E-04 1.37884E-01 1.04456E-13-9.48457E-15
 -1      2951 2.02459E+01 6.08047E-01 1.03292E-02 3.19822E-01 1.07205E-13 1.01071E-14
 -1      2952 2.03108E+01 8.84986E-01 1.66896E-04 4.83709E-01 1.28887E-13-3.19607E-14
 -1      2953 2.02256E+01 5.65774E-01-2.45122E-03 1.02966E-01 9.48364E-14-2.27853E-14
 -1      2954 2.86514E+01 4.79032E+00-1.38755E-01 1.76072E+00 3.63987E-13 1.53308E-13
 -1      2955 2.79396E+01 5.84063E+00-1.95587E-01 1.06067E+00 3.20854E-13 9.80951E-14
 -1      2956 1.98446E+01 2.81213E+00-6.52012E-03-5.65889E-01-5.53934E-14-1.42907E-13
 -1      2957 1.98995E+01 2.71403E+00-7.20476E-03-7.04370E-01-7.83373E-14-1.41031E-13
 -1      2958 7.53877E+00-1.35427E+00 1.40217E-01-3.28494E+00 4.50195E-14 1.88072E-13
 -1      2959 9.57343E+00-2.29321E+00 1.06549E-01-5.05826E+00 1.24387E-13-1.72168E-13
 -1      2960 1.95834E+01-4.91391E+00 1.74952E-01-5.57195E+00 3.34066E-13-1.74019E-13
 -1      2961 2.29811E+01-5.41009E+00-1.35487E-01-4.32849E+00 1.13451E-13-9.85202E-14
 -1      2962 2.00108E+01 2.76321E-02-2.44847E-05-2.24054E-02-2.92362E-13 2.38718E-13
 -1      2963 2.87454E+01-1.32261E-01-1.47158E-01-1.26052E+00 8.18789E-14 7.40519E-14
 -1      2964 2.85161E+01-1.93093E+00-3.28352E-02-7.44540E-02 1.16955E-14-5.70100E-14
 -1      2965 2.90249E+01 1.30349E+00-6.13422E-02 1.66739E+00 2.82996E-13 2.51882E-13
 -1      2966 2.89486E+01 3.21125E+00-2.06459E-01 1.87126E+00 3.61738E-13 1.84228E-13
 -1      2967 2.74193E+01 3.32266E+00-8.19414E-02 2.02728E+00 2.94598E-13 1.36863E-13
 -1      2968 2.77189E+01-2.90096E+00 3.36732E-02-6.17979E-01 1.40526E-13 3.05700E-13
 -1      2969 2.86309E+01-1.19440E+00-1.95333E-01 6.24714E-01 2.00437E-13 3.41491E-13
 -1      2970 2.31090E+01-5.01556E+00 1.25758E-01-4.30181E+00-1.36863E-13 7.14845E-14
 -1      2971 2.56971E+01-4.69894E+00-1.48566E-01-2.72097E+00 2.64372E-14 1.95954E-13
 -1      2972 1.64501E+01-4.33765E+00 1.64558E-01-6.29071E+00-2.24709E-13-1.77539E-13
 -1      2973 1.93246E+01-5.11789E+00-8.08865E-02-5.90762E+00-1.88710E-13-1.20820E-13
 -1      2974 9.84901E+00-2.62353E+00 1.55189E-01-5.39692E+00-8.32806E-14-3.68344E-13
 -1      2975 1.28954E+01-3.63571E+00 4.01751E-02-6.40025E+00-1.43913E-13-2.72504E-13
 -1      2976 6.61144E+00-1.05647E+00 1.11536E-01-2.31468E+00 5.47340E-14-4.82586E-13
 -1      2977 7.90415E+00-1.80744E+00 1.31170E-01-4.28899E+00-5.71765E-15-4.52638E-13
 -1      2978 1.06170E+01-1.63096E+00 1.75438E-01-4.58933E+00-7.02147E-14-3.51580E-13
 -1      2979 7.44957E+00-8.94194E-01 1.41986E-01 2.51262E+00 1.34073E-13-2.84356E-13
 -1      2980 6.56945E+00-5.61054E-01 1.79491E-01 4.37059E-02 1.20744E-13-4.20913E-13
 -1      2981 2.01129E+01 2.56706E+00-2.39627E-03-1.37108E+00-1.35545E-13-8.70120E-14
 -1      2982 2.84711E+01-2.65995E+00-1.92432E-01-2.43123E-01 1.18829E-14 4.41688E-13
 -1      2983 2.71849E+01-4.13291E+00 8.06399E-02 1.50579E+00 1.69403E-13 3.07185E-13
 -1      2984 1.90416E+01-5.20713E+00 1.49085E-02 6.01681E+00 9.29812E-14 2.44249E-13
 -1      2985 1.59665E+01-4.49145E+00 1.00924E-01 6.26241E+00 1.67200E-13 8.60978E-14
 -1      2986 2.11688E+01-4.98341E+00 9.93512E-02 4.95683E+00 1.32921E-13 3.01550E-13
 -1      2987 1.21276E+01-3.20119E+00 1.63884E-01-5.81285E+00 2.05030E-13-1.78524E-13
 -1      2988 1.52716E+01-4.30553E+00-2.88296E-02-6.33360E+00 2.64844E-13-2.63262E-13
 -1      2989 1.23291E+01-2.11454E+00 1.71300E-01-5.02564E+00 2.71366E-13-3.11542E-13
 -1      2990 2.74345E+01-3.44567E+00-1.12812E-01 1.35548E+00-5.05464E-14-4.33820E-14
 -1      2991 2.56483E+01-4.48137E+00 1.96121E-02 2.72063E+00-1.80876E-13-1.72223E-14
 -1      2992 2.74249E+01-2.80855E+00-5.36273E-03 1.91660E-01-1.36384E-13-9.01501E-14
 -1      2993 2.78765E+01 6.38641E+00-1.76829E-01-1.57905E-01 2.88047E-13-4.20202E-14
 -1      2994 2.82522E+01 5.78048E+00-1.28043E-01-1.27773E+00 2.03726E-13-1.07366E-13
 -1      2995 2.84063E+01 2.67235E-01-1.15354E-01 2.17455E+00 9.36889E-14-1.55764E-13
 -1      2996 2.62786E+01-4.77641E-01-3.48344E-02 2.22472E+00 3.80390E-14-2.98260E-13
 -1      2997 2.62780E+01-1.49684E+00-4.23831E-02 1.93878E+00 3.56312E-14-1.58139E-13
 -1      2998 2.82426E+01-2.09714E+00-4.76232E-02 1.17640E+00 1.44402E-13-4.08146E-14
 -1      2999 1.99664E+01 2.58139E+00-6.06472E-03-8.12329E-01-9.84453E-14-1.30386E-13
 -1      3000 2.00407E+01 2.44149E+00-6.28824E-03-9.40250E-01-1.14182E-13-1.30162E-13
 -1      3001 2.00539E+01 2.32319E+00 6.32357E-03-6.44100E-01-8.15574E-14-1.20165E-13
 -1      3002 1.98629E+01 2.70158E+00 4.09817E-03 3.32585E-03 9.25697E-15-1.14588E-13
 -1      3003 1.97371E+01 3.00891E+00-5.69873E-03-5.37188E-02 1.80106E-15-1.32489E-13
 -1      3004 1.97475E+01 2.99248E+00-5.59411E-03-1.92992E-01-1.34781E-14-1.47420E-13
 -1      3005 2.79060E+01-2.43117E-01-4.82535E-02 1.57058E+00 1.69448E-13 2.76737E-13
 -1      3006 1.82532E+01-4.09556E+00 1.22375E-01-5.42899E+00 2.95708E-13-1.87815E-13
 -1      3007 2.03277E+01 1.63065E+00-1.73101E-03 1.06515E+00 1.67643E-13-2.94556E-14
 -1      3008 2.69879E+01 4.25637E+00-1.10563E-01-1.69268E+00 2.33230E-13-1.89272E-13
 -1      3009 2.70570E+01-2.89630E+00-1.78164E-02 5.09603E-01 2.31357E-13-1.16129E-13
 -1      3010 2.87827E+01 3.56701E+00-1.48715E-01-2.19448E+00-2.64955E-13 2.33702E-13
 -1      3011 1.99951E+01 6.48236E-02 2.20374E-04 3.16482E-02 1.70138E-13-3.50956E-13
 -1      3012 1.99980E+01 5.15152E-02-3.66478E-04 2.72674E-02 2.38799E-13-3.63320E-13
 -1      3013 2.00024E+01 4.66944E-02 2.38127E-04 2.78155E-02 8.65973E-14-3.34513E-13
 -1      3014 1.93313E+01-3.97687E+00 1.12768E-01 5.05633E+00-5.13922E-13-3.93695E-14
 -1      3015 2.46497E+01-4.58182E+00 3.10931E-02 2.77714E+00-3.19536E-13-4.26742E-14
 -1      3016 2.00087E+01 3.54203E-02-1.51663E-04 2.70502E-02-2.98121E-13-1.51260E-13
 -1      3017 2.57948E+01-4.52696E+00 3.98083E-02 2.12966E+00 1.76664E-13 2.86278E-13
 -1      3018 2.00085E+01 3.39752E-02 1.17171E-04-2.45640E-02-2.14990E-13-4.33550E-14
 -1      3019 8.35831E+00-2.83999E-01 1.70936E-01-1.07762E+00 1.00110E-13-4.19748E-13
 -1      3020 2.03168E+01 1.42809E+00 2.56799E-03 8.05800E-01 1.52693E-13-2.83740E-14
 -1      3021 1.29847E+01-1.72622E+00 1.50191E-01 4.83430E+00-2.84495E-13 2.64566E-13
 -1      3022 1.54461E+01-3.43011E+00 1.22275E-01-5.90728E+00-1.68782E-13-2.05502E-13
 -1      3023 2.17720E+01-4.71277E+00 7.59391E-02-4.52754E+00-2.29289E-13 2.45585E-14
 -1      3024 9.19175E+00-1.48637E-01 1.82087E-01 1.80371E+00 7.73548E-14 6.28872E-13
 -1      3025 8.95072E+00-4.17652E-01 1.81557E-01-2.22978E+00 1.77556E-13 3.63820E-13
 -1      3026 2.93226E+01 1.72041E+00-2.50934E-01-2.25170E+00-1.58221E-13 2.92918E-13
 -1      3027 2.88308E+01 8.43255E-02-2.59125E-02-1.99906E+00-7.20674E-14 3.87912E-13
 -1      3028 2.67603E+01 5.36140E+00-1.21022E-01 4.60245E-01 2.23349E-13-4.50855E-14
 -1      3029 1.47343E+01-3.66600E+00 1.21673E-01 6.00247E+00 2.00021E-13 3.25573E-14
 -1      3030 1.36027E+01-2.48862E+00 1.19513E-01 5.41532E+00 1.79218E-13 3.01426E-14
 -1      3031 1.69929E+01-3.86166E+00-4.06715E-04 5.57891E+00 1.95198E-13 1.23637E-13
 -1      3032 1.97686E+01 2.95146E+00-6.07479E-03-3.10641E-01-2.26577E-14-1.20029E-13
 -1      3033 1.98011E+01 2.89767E+00-6.00545E-03-4.50422E-01-4.33656E-14-1.18209E-13
 -1      3034 1.99484E+01 2.53865E+00 4.82384E-03-4.37558E-01-4.11025E-14-1.23604E-13
 -1      3035 1.98837E+01 2.66265E+00 4.23928E-03-2.19186E-01-2.11947E-14-1.20021E-13
 -1      3036 2.63765E+01-2.37305E+00-5.44463E-02 1.13658E+00 2.16029E-13 1.81712E-14
 -1      3037 2.01688E+01 2.23040E+00 6.23313E-04-1.11109E+00-1.24390E-13-1.05500E-13
 -1      3038 2.44930E+01-4.68302E+00 3.78224E-02-2.78417E+00 1.67422E-13-1.69805E-13
 -1      3039 2.80691E+01 7.12219E-01-1.16576E-01-1.88940E+00 7.27335E-14-5.53307E-14
 -1      3040 2.72828E+01-4.95509E-01-3.57370E-02-1.62262E+00-4.44089E-15-9.15795E-14
 -1      3041 2.66773E+01 1.52771E+00-1.37490E-01-2.28359E+00 1.42268E-13-1.37737E-13
 -1      3042 2.64236E+01-3.69620E+00 1.02138E-02-1.13499E+00 2.40502E-14 3.67054E-13
 -1      3043 9.09435E+00-1.00202E+00 1.85947E-01 3.37909E+00 1.68976E-13-1.51823E-13
 -1      3044 9.61937E+00-1.76108E-01 8.60762E-02 2.19031E+00 1.59327E-13-1.75124E-13
 -1      3045 1.10011E+01-1.25815E+00 9.48172E-02 4.07045E+00 1.94032E-13-6.55864E-14
 -1      3046 2.00107E+01 4.04079E-02-1.12882E-04-3.23260E-02-2.63739E-13-2.34387E-13
 -1      3047 2.00059E+01 4.26280E-02-1.21136E-04-2.93033E-02-6.14267E-14-3.45535E-13
 -1      3048 2.00049E+01 5.43364E-02 3.01960E-04-3.57901E-02 3.75656E-14-3.73663E-13
 -1      3049 2.00137E+01 4.59387E-02 4.16260E-04-3.85026E-02-8.65793E-14-2.95119E-13
 -1      3050 2.57591E+01 4.38783E+00-1.62282E-01-1.26241E+00 2.01963E-13-1.15963E-13
 -1      3051 2.62464E+01 3.31825E+00-2.98747E-02-2.12393E+00 2.11275E-13-1.86351E-13
 -1      3052 2.02562E+01 1.57174E+00-6.41552E-03 6.77739E-01 1.42943E-13-2.33689E-14
 -1      3053 2.01996E+01 1.77638E+00-1.15138E-03 6.23958E-01 1.30806E-13-4.25054E-14
 -1      3054 2.02471E+01 6.05310E-01 2.97993E-03 1.29332E-01-7.33484E-14-5.39230E-14
 -1      3055 2.02188E+01 5.23564E-01-1.02362E-03 2.51632E-01-7.11182E-14-4.32769E-14
 -1      3056 2.01931E+01 4.66195E-01 1.81617E-03 3.54087E-01-9.29276E-14-2.99835E-14
 -1      3057 2.01755E+01 4.25358E-01 1.72125E-04 4.51994E-01-1.07089E-13-7.20913E-14
 -1      3058 2.02147E+01 5.90448E-01-4.53706E-04 2.81296E-01-7.74116E-14-5.40451E-14
 -1      3059 2.01426E+01 4.00797E-01 5.64322E-04 5.38748E-01-7.44077E-14-4.50649E-14
 -1      3060 2.01356E+01 3.88552E-01 1.07036E-03 6.23516E-01-4.77235E-14-2.68862E-14
 -1      3061 2.01517E+01 4.92613E-01-3.96195E-04 4.75542E-01-7.02995E-14-1.22822E-14
 -1      3062 2.00973E+01 3.86305E-01-5.35964E-04 7.03109E-01-8.25310E-15-1.88652E-14
 -1      3063 2.00993E+01 3.93129E-01 1.74003E-03 7.83337E-01-3.42890E-15 2.71107E-14
 -1      3064 2.00809E+01 4.59568E-01-9.46001E-05 6.45468E-01-2.05874E-14-1.97887E-14
 -1      3065 2.00557E+01 4.04592E-01-1.44642E-03 8.62732E-01-2.27150E-14 5.77365E-14
 -1      3066 2.00651E+01 4.21828E-01 2.27553E-03 9.44425E-01-9.93842E-15 6.59206E-14
 -1      3067 2.00027E+01 4.70046E-01 3.07783E-04 8.06443E-01 1.19234E-14 2.61412E-15
 -1      3068 2.00162E+01 4.38303E-01-2.12957E-03 1.02894E+00-2.79725E-14 7.02628E-14
 -1      3069 2.00329E+01 4.56285E-01 2.78633E-03 1.11562E+00 1.12356E-15 7.21670E-14
 -1      3070 1.99161E+01 5.04548E-01 6.85958E-04 9.70811E-01-1.45241E-14 3.32693E-15
 -1      3071 1.99797E+01 4.67085E-01-2.50673E-03 1.20910E+00 2.19013E-14 8.39088E-14
 -1      3072 2.00060E+01 4.73193E-01 3.42014E-03 1.30177E+00-1.11827E-14 6.74006E-14
 -1      3073 1.98205E+01 5.41555E-01 8.81089E-04 1.14805E+00-7.56108E-15 3.36418E-14
 -1      3074 1.99530E+01 4.63639E-01-2.40924E-03 1.40691E+00-4.03702E-14 1.28792E-13
 -1      3075 1.99964E+01 4.40172E-01 4.39230E-03 1.50379E+00-2.38732E-14 1.44249E-13
 -1      3076 1.97198E+01 5.53483E-01 6.30003E-04 1.34549E+00 1.10479E-15 1.04694E-13
 -1      3077 1.99546E+01 3.89479E-01-1.48730E-03 1.62235E+00-3.20904E-14 1.06854E-13
 -1      3078 2.00313E+01 3.11377E-01 5.94754E-03 1.71822E+00 1.18536E-14 8.87455E-14
 -1      3079 1.96266E+01 5.02171E-01-5.35141E-04 1.56936E+00-4.31277E-14 1.47722E-13
 -1      3080 2.00242E+01 1.90837E-01 9.79904E-04 1.85047E+00 4.51594E-14 4.73392E-14
 -1      3081 2.01631E+01 2.42495E-02 8.20982E-03 1.93452E+00 4.81961E-14 5.77003E-14
 -1      3082 1.95703E+01 3.33681E-01-3.42906E-03 1.82559E+00-8.25858E-15 2.89361E-14
 -1      3083 2.02360E+01-2.01963E-01 6.44593E-03 2.07553E+00 5.97527E-14 9.69004E-14
 -1      3084 2.04829E+01-4.96947E-01 1.05910E-02 2.12626E+00 6.08933E-14 7.72676E-14
 -1      3085 1.96113E+01-2.60369E-02-9.23942E-03 2.11737E+00 5.26638E-14 3.81860E-14
 -1      3086 2.07152E+01-8.62704E-01 1.69459E-02 2.25410E+00 4.70372E-14 1.40131E-13
 -1      3087 2.11280E+01-1.31596E+00 1.06145E-02 2.22891E+00 2.35627E-14 1.24994E-13
 -1      3088 1.98597E+01-6.68139E-01-1.97789E-02 2.43210E+00 8.10746E-14 1.03479E-13
 -1      3089 2.16457E+01-1.82222E+00 3.57497E-02 2.27633E+00 8.05866E-15 1.75054E-13
 -1      3090 2.22663E+01-2.40109E+00 5.67689E-03 2.09871E+00 2.03188E-14 1.28758E-13
 -1      3091 2.04992E+01-1.67662E+00-3.86480E-02 2.70542E+00 4.42107E-14 1.47804E-13
 -1      3092 2.32129E+01-2.95190E+00 5.65002E-02 1.89746E+00 2.70613E-14 1.37906E-13
 -1      3093 2.40153E+01-3.41475E+00-2.19874E-03 1.45803E+00 3.85317E-14 1.38715E-13
 -1      3094 2.18214E+01-2.99468E+00-5.53270E-02 2.73665E+00 3.07809E-14 1.93517E-13
 -1      3095 2.54840E+01-3.51810E+00 3.74054E-02 6.19050E-01 1.15190E-13 1.58739E-13
 -1      3096 2.63174E+01-3.21365E+00-3.42312E-02-1.86935E-01 9.29812E-14 2.03625E-13
 -1      3097 2.29835E+01-2.88861E+00-7.30420E-04-1.84184E+00 7.36668E-14 1.18803E-13
 -1      3098 2.22747E+01-2.30531E+00 4.71030E-02-2.12654E+00 4.16249E-14 1.21637E-13
 -1      3099 2.15815E+01-1.74353E+00 1.34723E-02-2.16120E+00-1.67898E-13 1.63314E-13
 -1      3100 2.10682E+01-1.22254E+00 2.45655E-02-2.23441E+00-2.59599E-13 8.84076E-14
 -1      3101 2.09947E+01-2.23045E+00-5.26261E-02-2.72773E+00-4.10921E-14-3.42452E-14
 -1      3102 2.07272E+01-7.84535E-01 1.20912E-02-2.12077E+00-1.95059E-13 8.25988E-14
 -1      3103 2.04118E+01-4.15356E-01 1.07818E-02-2.08864E+00-6.45880E-14 1.34669E-13
 -1      3104 2.00666E+01-1.02168E+00-2.67868E-02-2.50188E+00-2.03541E-13 6.91903E-14
 -1      3105 2.02777E+01-1.26273E-01 9.36955E-03-1.94036E+00-8.10919E-14 1.98394E-13
 -1      3106 2.00985E+01 9.67438E-02 3.16760E-03-1.85857E+00-1.05029E-13 2.13171E-13
 -1      3107 1.96739E+01-2.16148E-01-1.21563E-02-2.17635E+00-4.95474E-14 2.22376E-13
 -1      3108 2.00723E+01 2.63668E-01 6.56481E-03-1.71200E+00-1.60829E-14 2.57833E-13
 -1      3109 1.99736E+01 3.80215E-01-5.13064E-04-1.60959E+00 3.05541E-14 3.05308E-13
 -1      3110 1.95497E+01 2.64944E-01-5.35048E-03-1.85424E+00-4.23263E-14 2.75768E-13
 -1      3111 1.99978E+01 4.60744E-01 4.67629E-03-1.47465E+00-3.87433E-14 3.22508E-13
 -1      3112 1.99427E+01 5.06914E-01-2.08209E-03-1.36691E+00-2.02288E-13 3.23362E-13
 -1      3113 1.95620E+01 5.15972E-01-1.34132E-03-1.56302E+00-2.14181E-14 1.69722E-13
 -1      3114 1.99852E+01 5.32345E-01 3.50312E-03-1.24596E+00-2.89030E-13 3.03651E-13
 -1      3115 1.99519E+01 5.35958E-01-2.62690E-03-1.14134E+00-8.42585E-14 1.64102E-13
 -1      3116 1.96310E+01 6.15260E-01 6.11338E-04-1.30593E+00-1.46511E-13 2.29556E-13
 -1      3117 1.99966E+01 5.29300E-01 2.79997E-03-1.03443E+00-3.63728E-14 9.76745E-14
 -1      3118 1.99734E+01 5.09557E-01-2.66193E-03-9.37695E-01-4.64425E-14-2.38511E-14
 -1      3119 1.97144E+01 6.22711E-01 1.33325E-03-1.08005E+00-1.13207E-13 1.07776E-13
 -1      3120 2.00131E+01 4.86188E-01 2.36249E-03-8.44450E-01-5.03480E-14-1.38053E-14
 -1      3121 1.99945E+01 4.55436E-01-2.45118E-03-7.58157E-01-7.25489E-14-7.07427E-14
 -1      3122 1.97923E+01 5.79356E-01 1.43158E-03-8.82543E-01-1.36112E-13-9.85276E-14
 -1      3123 2.00268E+01 4.24993E-01 2.05282E-03-6.78024E-01-7.35858E-14-9.77889E-14
 -1      3124 2.00105E+01 3.90726E-01-2.13649E-03-6.03228E-01-1.28119E-13-2.77188E-13
 -1      3125 1.98569E+01 5.11666E-01 1.25668E-03-7.11462E-01-1.26517E-13-5.22360E-14
 -1      3126 2.00353E+01 3.58888E-01 1.79636E-03-5.35462E-01-4.06386E-14-1.67882E-13
 -1      3127 2.00206E+01 3.25370E-01-1.79547E-03-4.72181E-01 8.21659E-14-2.29550E-13
 -1      3128 1.99069E+01 4.35877E-01 9.94292E-04-5.65204E-01-3.60623E-14-8.58933E-14
 -1      3129 2.00390E+01 2.95250E-01 1.56037E-03-4.15815E-01 1.21430E-13-2.11229E-13
 -1      3130 2.00257E+01 2.64692E-01-1.46896E-03-3.63394E-01 1.00904E-13-2.71116E-13
 -1      3131 1.99436E+01 3.61366E-01 7.33804E-04-4.42065E-01 1.29528E-13-8.60707E-14
 -1      3132 2.00388E+01 2.37807E-01 1.33536E-03-3.17277E-01 1.51918E-13-2.67275E-13
 -1      3133 2.00272E+01 2.11169E-01-1.17668E-03-2.74668E-01 1.39256E-13-1.79028E-13
 -1      3134 1.99693E+01 2.93104E-01 5.12031E-04-3.40057E-01 1.78845E-13-2.69820E-14
 -1      3135 2.00361E+01 1.88084E-01 1.12222E-03-2.37548E-01 5.53610E-14-1.39384E-13
 -1      3136 2.00261E+01 1.65590E-01-9.26246E-04-2.03515E-01 9.38406E-14-2.17026E-13
 -1      3137 1.99866E+01 2.33327E-01 3.38652E-04-2.56928E-01 1.49974E-13-1.68335E-14
 -1      3138 2.00319E+01 1.46319E-01 9.25120E-04-1.74115E-01 2.86536E-14-3.85139E-13
 -1      3139 2.00235E+01 1.27782E-01-7.18683E-04-1.47387E-01-1.60530E-13-3.58978E-13
 -1      3140 1.99974E+01 1.82635E-01 2.11413E-04-1.90284E-01-2.30334E-14-2.42102E-13
 -1      3141 2.00271E+01 1.12039E-01 7.45829E-04-1.24480E-01-7.47555E-14-3.13742E-13
 -1      3142 2.00201E+01 9.70453E-02-5.52409E-04-1.03848E-01-8.30056E-15-4.14707E-13
 -1      3143 2.00038E+01 1.40694E-01 1.25814E-04-1.37721E-01-3.99010E-14-4.87181E-13
 -1      3144 2.00221E+01 8.44138E-02 5.86309E-04-8.63507E-02 1.59836E-14-4.15386E-13
 -1      3145 2.00165E+01 7.25345E-02-3.62315E-04-7.07242E-02 2.75358E-14-4.46903E-13
 -1      3146 2.00069E+01 1.06673E-01 8.74404E-05-9.70275E-02-2.08614E-14-4.45361E-13
 -1      3147 2.00180E+01 6.29278E-02 4.85169E-04-5.90411E-02-2.62538E-15-4.50438E-13
 -1      3148 2.00134E+01 5.35467E-02-2.08918E-04-4.73112E-02-1.58135E-14-2.13998E-13
 -1      3149 2.00085E+01 5.84988E-02-2.58364E-04-4.65491E-02-1.22403E-13-5.19887E-13
 -1      3150 2.00084E+01 7.95274E-02-1.09747E-04-6.76165E-02 1.61548E-13-5.08674E-13
 -1      3151 2.01765E+01 3.42105E-01 4.04440E-04-4.12895E-01 6.83084E-14-6.27230E-14
 -1      3152 2.01863E+01 3.87907E-01 2.82487E-03-3.19109E-01 5.90809E-14-4.64172E-14
 -1      3153 2.02603E+01 2.43902E-01 2.41151E-03-9.78309E-01 6.78052E-14-1.58151E-14
 -1      3154 2.02062E+01 2.52248E-01-2.91852E-04-9.17464E-01 8.25245E-14-1.24171E-14
 -1      3155 2.02070E+01 2.58051E-01 2.20500E-03-8.48836E-01 5.72370E-14-3.33759E-15
 -1      3156 2.01680E+01 2.61513E-01-8.00845E-05-7.85224E-01 3.37690E-14-1.82616E-15
 -1      3157 2.01166E+01 3.09351E-01-1.22270E-03-9.02645E-01 7.17424E-14-3.30556E-14
 -1      3158 2.04710E+01 1.11008E-01 2.25030E-03-1.21413E+00-3.26965E-14 1.24671E-13
 -1      3159 2.03766E+01 1.65357E-01 9.51205E-04-1.16981E+00 2.71898E-16 4.58923E-14
 -1      3160 2.06645E+01-6.26734E-02 1.67955E-03-1.29346E+00 1.05811E-14 1.82020E-13
 -1      3161 2.05389E+01 3.69560E-02 2.79728E-03-1.27224E+00 1.90387E-14 1.69014E-13
 -1      3162 2.02626E+01 1.01623E-01-4.33376E-03-1.31960E+00-3.06030E-14 7.00486E-14
 -1      3163 2.09566E+01-3.46497E-01 3.70934E-04-1.31064E+00 2.59430E-14 9.64805E-14
 -1      3164 2.07888E+01-1.87156E-01 5.85029E-03-1.33026E+00 1.90207E-14 1.58059E-13
 -1      3165 2.04368E+01-1.26828E-01-7.27194E-03-1.42886E+00 3.88288E-14 1.16636E-13
 -1      3166 2.13870E+01-7.55649E-01-2.39304E-03-1.21896E+00 3.85954E-15 8.64878E-14
 -1      3167 2.11669E+01-5.31325E-01 1.02579E-02-1.30419E+00 2.24753E-14 9.07467E-14
 -1      3168 2.07401E+01-4.90503E-01-1.14898E-02-1.48305E+00 3.33901E-14 1.01776E-13
 -1      3169 2.19887E+01-1.26048E+00-6.91714E-03-9.51583E-01-1.13105E-13 1.39857E-13
 -1      3170 2.17166E+01-9.94199E-01 1.57306E-02-1.13271E+00-6.96309E-14 1.31653E-13
 -1      3171 2.12335E+01-1.00392E+00-1.67334E-02-1.42805E+00-5.62862E-14 1.61503E-13
 -1      3172 2.27568E+01-1.73601E+00-1.27257E-02-4.36383E-01-3.04888E-14 1.55783E-13
 -1      3173 2.24550E+01-1.50496E+00 2.02202E-02-7.35715E-01-4.57474E-14 1.52502E-13
 -1      3174 2.19745E+01-1.61295E+00-1.92942E-02-1.17673E+00-9.42875E-14 2.39017E-13
 -1      3175 2.35854E+01-1.92553E+00-2.41910E-02 3.53960E-01-3.45299E-14 1.38059E-13
 -1      3176 2.33243E+01-1.87463E+00 1.70514E-02-4.61023E-02-4.66792E-14 1.56411E-13
 -1      3177 2.29615E+01-2.14179E+00-1.93361E-02-6.13923E-01-4.54237E-14 1.68221E-13
 -1      3178 2.42688E+01-1.36277E+00-1.62293E-02 1.32723E+00 2.26659E-14 7.88155E-14
 -1      3179 2.41557E+01-1.73671E+00 9.44921E-03 9.42303E-01 2.52745E-14 1.64088E-13
 -1      3180 2.40832E+01-2.29586E+00-3.46251E-02 3.12924E-01 4.61046E-15 1.65027E-13
 -1      3181 2.45413E+01 1.77433E-01 1.29574E-02 2.03893E+00 1.05631E-13 4.88047E-14
 -1      3182 2.45799E+01-7.41693E-01-3.68653E-02 1.86394E+00 3.30142E-14 8.70484E-14
 -1      3183 2.49491E+01-1.39580E+00-4.86055E-02 1.46157E+00 9.53768E-14 9.46881E-14
 -1      3184 2.39058E+01 3.54100E+00-6.96020E-02 3.61804E-01 1.24213E-13 2.66670E-14
 -1      3185 2.40086E+01 3.15492E+00-5.80334E-02 1.11354E+00 2.22076E-13 7.57651E-14
 -1      3186 2.41154E+01 2.65253E+00-1.20570E-01-1.61621E+00 1.16081E-13-4.54576E-14
 -1      3187 2.40356E+01 3.30557E+00-5.55147E-02-8.82010E-01 7.83609E-14-5.99364E-14
 -1      3188 2.50328E+01 4.58674E-01-6.17502E-02-2.19594E+00 1.13687E-13-1.28054E-13
 -1      3189 2.49146E+01 1.54805E+00-3.28072E-02-2.01389E+00 1.18509E-13-1.34759E-13
 -1      3190 2.40915E+01-1.78429E+00 2.14304E-02-8.46333E-01-1.06089E-13 7.76709E-14
 -1      3191 2.42333E+01-1.46114E+00-2.45707E-03-1.24085E+00-2.24937E-14 7.89160E-14
 -1      3192 2.32143E+01-1.81428E+00 2.12290E-02 1.15880E-01-7.78271E-14 1.38540E-13
 -1      3193 2.34820E+01-1.91305E+00-2.20248E-02-2.60830E-01-1.14883E-13 1.98301E-13
 -1      3194 2.39401E+01-2.34865E+00-4.92302E-02-1.93477E-01-1.75008E-13 1.59402E-13
 -1      3195 2.23536E+01-1.40241E+00 1.90635E-02 7.48882E-01-7.36893E-14 2.28360E-13
 -1      3196 2.26563E+01-1.65120E+00-1.11598E-02 4.75259E-01-5.75841E-15 2.55141E-13
 -1      3197 2.27968E+01-2.07781E+00-3.38710E-02 6.60010E-01-1.01788E-13 3.33415E-13
 -1      3198 2.16495E+01-8.85138E-01 1.51109E-02 1.09125E+00-2.09189E-13 2.27055E-13
 -1      3199 2.19117E+01-1.15057E+00-5.72073E-03 9.33295E-01-1.55072E-13 2.90584E-13
 -1      3200 2.18535E+01-1.48522E+00-2.15024E-02 1.15360E+00-1.64462E-13 4.93714E-13
 -1      3201 2.11291E+01-4.31050E-01 9.80183E-03 1.22220E+00-7.46359E-14 1.01488E-13
 -1      3202 2.13367E+01-6.50215E-01-2.30450E-03 1.15665E+00-1.13922E-13 1.43900E-13
 -1      3203 2.11563E+01-8.77752E-01-1.60390E-02 1.36328E+00-1.07449E-13 2.18968E-13
 -1      3204 2.07737E+01-9.82046E-02 5.59469E-03 1.21440E+00-8.36796E-14 1.25399E-13
 -1      3205 2.09304E+01-2.51699E-01 3.42411E-04 1.21167E+00-8.07802E-14 1.25053E-13
 -1      3206 2.06893E+01-3.76480E-01-1.07407E-02 1.38233E+00-1.36059E-13 9.42029E-14
 -1      3207 2.05396E+01 1.15371E-01 2.66573E-03 1.12745E+00 2.52591E-14 6.21644E-14
 -1      3208 2.06557E+01 2.09097E-02 1.51756E-03 1.16334E+00-2.34773E-15 1.68829E-13
 -1      3209 2.04028E+01-2.63052E-02-6.55262E-03 1.29861E+00-1.86405E-14 1.54322E-13
 -1      3210 2.03866E+01 2.33949E-01 8.21412E-04 1.00032E+00-7.38301E-14 7.11257E-14
 -1      3211 2.04735E+01 1.84533E-01 2.00814E-03 1.05711E+00-8.05667E-14-2.16030E-14
 -1      3212 2.02361E+01 1.89745E-01-3.72961E-03 1.16424E+00 1.51120E-14 1.00235E-13
 -1      3213 2.02853E+01 2.85209E-01-2.34468E-04 8.57953E-01 8.71773E-14 1.12745E-13
 -1      3214 2.03517E+01 2.66765E-01 2.17784E-03 9.23474E-01 2.51624E-14 8.45092E-14
 -1      3215 2.01432E+01 3.03735E-01-1.98065E-03 1.00966E+00-2.17965E-14 2.30629E-14
 -1      3216 2.02160E+01 2.92908E-01-7.72280E-04 7.15860E-01 8.34401E-14 1.31446E-13
 -1      3217 2.02680E+01 2.93957E-01 2.18095E-03 7.82199E-01 1.54210E-13 1.84238E-13
 -1      3218 2.00933E+01 3.47367E-01-9.78978E-04 8.52788E-01 6.99813E-14-8.74395E-15
 -1      3219 2.01666E+01 2.74969E-01-9.88134E-04 5.83218E-01-8.16594E-16 2.18288E-13
 -1      3220 2.02081E+01 2.87099E-01 2.08320E-03 6.45566E-01 3.66229E-14 1.81877E-13
 -1      3221 2.00669E+01 3.46452E-01-4.50661E-04 7.04104E-01 7.18668E-14 7.36489E-14
 -1      3222 2.01298E+01 2.43869E-01-1.01531E-03 4.64914E-01-8.01918E-15 3.69660E-13
 -1      3223 2.01633E+01 2.61343E-01 1.92016E-03 5.20661E-01 1.04110E-14 3.46970E-13
 -1      3224 2.00526E+01 3.19952E-01-1.98680E-04 5.69418E-01-5.27190E-14 3.18868E-13
 -1      3225 2.01015E+01 2.07748E-01-9.40717E-04 3.62963E-01-8.37760E-14 3.96453E-13
 -1      3226 2.01285E+01 2.26892E-01 1.71701E-03 4.11002E-01-5.44622E-16 4.55988E-13
 -1      3227 2.00441E+01 2.80876E-01-9.55502E-05 4.51501E-01-4.29123E-14 6.24733E-13
 -1      3228 2.00792E+01 1.71584E-01-8.18938E-04 2.77510E-01-2.02756E-14 9.80696E-14
 -1      3229 2.01009E+01 1.90200E-01 1.49421E-03 3.17710E-01-2.76997E-14 1.50260E-13
 -1      3230 2.00382E+01 2.37627E-01-6.48210E-05 3.51089E-01 8.47315E-14 3.46224E-13
 -1      3231 2.00613E+01 1.38172E-01-6.83073E-04 2.07561E-01 1.02721E-13-1.01173E-13
 -1      3232 2.00786E+01 1.55067E-01 1.26829E-03 2.40384E-01 4.71475E-14-9.32617E-14
 -1      3233 2.00334E+01 1.95288E-01-6.41085E-05 2.67594E-01 1.44022E-13-1.21348E-13
 -1      3234 2.00469E+01 1.08854E-01-5.53591E-04 1.51499E-01 8.94177E-14-1.14843E-13
 -1      3235 2.00606E+01 1.23498E-01 1.05209E-03 1.77721E-01 5.37604E-14-1.66411E-13
 -1      3236 2.00289E+01 1.56657E-01-7.20782E-05 1.99626E-01 8.32189E-14-2.05585E-13
 -1      3237 2.00354E+01 8.40874E-02-4.20002E-04 1.07464E-01 1.11556E-13-1.35313E-13
 -1      3238 2.00460E+01 9.63426E-02 8.55805E-04 1.27982E-01 1.67148E-13-1.40965E-13
 -1      3239 2.00246E+01 1.23014E-01-7.99114E-05 1.45382E-01 9.90647E-14-1.67946E-13
 -1      3240 2.00264E+01 6.40542E-02-1.18437E-04 7.36983E-02 2.06455E-13 9.81307E-14
 -1      3241 2.00343E+01 7.36617E-02 6.83579E-04 8.92232E-02 8.44096E-14-1.01569E-14
 -1      3242 2.00202E+01 9.46728E-02-1.32481E-04 1.02968E-01 5.36746E-15 2.66647E-14
 -1      3243 1.99738E+01 9.75800E-02-3.06601E-05-1.98250E-02 1.85829E-13 1.75903E-13
 -1      3244 1.99709E+01 9.99775E-02-3.01057E-04-1.30267E-02 2.32086E-13 8.44986E-14
 -1      3245 2.64173E+01-3.39550E+00 5.79638E-02-6.35954E-02 2.11642E-13-5.70238E-14
 -1      3246 1.99955E+01 7.17889E-02 8.22858E-06-4.01310E-02 1.00632E-13-1.01178E-13
 -1      3247 1.99892E+01 7.85651E-02-4.01124E-04-3.78050E-02 2.82136E-13 4.53747E-14
 -1      3248 1.99694E+01 1.01848E-01-1.82558E-04-3.83841E-03 2.44453E-13-3.47562E-14
 -1      3249 1.99694E+01 1.01814E-01-1.72665E-04 3.69596E-03 3.34471E-13 9.33155E-14
 -1      3250 1.99641E+01 1.16566E-01 4.70016E-04-9.73436E-03 4.02686E-13-2.74368E-15
 -1      3251 2.54538E+01-4.07444E+00-5.77986E-02 1.49478E+00-1.91427E-13 1.03941E-13
 -1      3252 2.36918E+01-4.27808E+00 1.33758E-02 2.73983E+00-2.68476E-13 1.03622E-13
 -1      3253 2.22523E+01-4.84214E+00-1.87374E-02 4.08776E+00 1.38972E-13 3.68023E-13
 -1      3254 2.02325E+01-4.39724E+00 1.29491E-01 4.93869E+00 1.41991E-13 2.87950E-13
 -1      3255 2.03335E+01 1.06294E+00-7.15270E-04 5.57213E-01 1.37809E-13-1.78587E-14
 -1      3256 2.02959E+01 1.39064E+00 2.91581E-03 6.41400E-01 1.41051E-13-1.32466E-14
 -1      3257 2.02953E+01 1.23567E+00 2.10157E-03 4.48690E-01 1.24682E-13-1.81424E-14
 -1      3258 2.02862E+01 8.64095E-01-2.61421E-03 3.32466E-01 1.25189E-13-2.19160E-14
 -1      3259 2.02046E+01 4.47963E-01-7.33005E-04-2.14451E-01 6.06971E-14-2.13492E-14
 -1      3260 2.02325E+01 5.30684E-01 3.78720E-03-9.12766E-02 7.93014E-14 2.14366E-15
 -1      3261 2.02227E+01 5.11479E-01-1.45868E-03-2.50001E-01 8.15193E-14-3.13041E-14
 -1      3262 9.41391E+00 1.45518E-01 4.57747E-02-1.28219E+00 2.68563E-13 4.94424E-13
 -1      3263 1.05089E+01-4.39751E-01 1.06261E-01-3.17447E+00 2.83197E-13 1.53766E-13
 -1      3264 2.58037E+01 4.45843E+00-1.07115E-01 1.32731E+00 2.05044E-13 9.54896E-14
 -1      3265 2.56783E+01 5.08976E+00-8.07473E-02 1.34230E-02 1.80730E-13-1.99216E-14
 -1      3266 1.45207E+01-2.40693E+00 1.35579E-01-5.32180E+00-1.92291E-13-1.96086E-13
 -1      3267 1.70311E+01-3.52070E+00-5.42308E-02-5.49262E+00-2.15682E-13-1.26982E-13
 -1      3268 1.99831E+01 8.72944E-02 9.82349E-05-3.26828E-02 2.15604E-13 4.35615E-13
 -1      3269 1.99778E+01 9.19451E-02-3.98790E-04-2.75265E-02 1.62392E-13 4.67806E-13
 -1      3270 1.99708E+01 1.09452E-01 4.35242E-04-2.78410E-02 2.46523E-13 3.84103E-13
 -1      3271 1.99826E+01 9.58180E-02 2.45990E-04-4.16134E-02 1.75443E-13 2.56195E-13
 -1      3272 2.03437E+01 2.03398E-01 2.44474E-03-1.10301E+00 5.35965E-14 1.85196E-14
 -1      3273 2.02721E+01 2.27920E-01-4.88253E-06-1.04718E+00 5.80329E-14 6.01483E-15
 -1      3274 2.01282E+01 2.86750E-01-1.61276E-03-1.04465E+00 3.38133E-14-8.65957E-14
 -1      3275 2.01703E+01 2.27767E-01-2.56611E-03-1.18603E+00-1.71457E-14 3.16893E-14
 -1      3276 2.64053E+01-3.96554E+00-1.16973E-01 6.67523E-01 1.30520E-13 2.69527E-13
 -1      3277 2.48493E+01-4.58944E+00 4.24121E-02 2.46219E+00 1.57558E-13 2.91274E-13
 -1      3278 2.49409E+01-3.58109E+00-1.75591E-02-8.99233E-01 1.39239E-13 8.07947E-15
 -1      3279 2.41239E+01-3.30067E+00 7.24173E-02-1.48219E+00 1.13971E-13 4.48279E-14
 -1      3280 2.26238E+01-3.55624E+00-7.45684E-02-2.57382E+00 1.03360E-13-1.50154E-13
 -1      3281 2.50708E+01-4.26749E+00-9.77838E-02-1.61929E+00 1.77681E-13-2.78679E-13
 -1      3282 2.02936E+01 8.50527E-01 2.88226E-03-1.58058E-01-9.13938E-14-7.14383E-14
 -1      3283 2.02609E+01 7.11276E-01-2.31393E-03 2.17494E-03-8.06650E-14-7.87960E-14
 -1      3284 2.02646E+01 7.79501E-01-1.19358E-04 4.52939E-02-6.54541E-14-7.97984E-14
 -1      3285 2.65188E+01-1.18040E+00 1.95105E-02 1.53788E+00 6.24223E-14 2.60694E-13
 -1      3286 2.62984E+01 3.16968E-01-1.51797E-01 2.09187E+00 1.65454E-13 1.46029E-13
 -1      3287 2.10361E+01-4.11087E+00-3.24502E-02 4.19961E+00-4.36030E-13 1.77386E-13
 -1      3288 1.81102E+01-3.04371E+00 1.26689E-01 4.89915E+00-4.43850E-13 7.49401E-16
 -1      3289 1.69947E+01-3.04129E+00 1.46901E-01-5.17181E+00 9.64367E-14-2.22711E-13
 -1      3290 1.98929E+01-4.20822E+00-9.06441E-02-4.72042E+00 1.32311E-13-4.36109E-14
 -1      3291 1.47022E+01-2.13051E+00-5.98734E-02 5.00514E+00-4.25375E-13-1.64403E-13
 -1      3292 1.24398E+01-7.52171E-01 1.20963E-01 3.94710E+00-1.85220E-13 2.30482E-13
 -1      3293 2.00075E+01 4.67395E-02 1.26153E-04 3.37370E-02-5.43033E-14 2.26333E-16
 -1      3294 9.53248E+00 2.78372E-01 8.89987E-02-1.49592E-01 8.26379E-14-3.78100E-13
 -1      3295 9.78525E+00-5.15948E-02 1.25899E-01-2.34419E+00 4.08319E-14-3.77851E-13
 -1      3296 2.67590E+01 2.54510E+00-5.36464E-02 2.19557E+00 2.90365E-13 1.33692E-13
 -1      3297 2.61892E+01 3.69189E+00-1.58437E-01 1.84754E+00 2.74017E-13 1.06165E-13
 -1      3298 2.53222E+01 3.57746E+00-7.66229E-02 1.49953E+00 2.14058E-13 6.62977E-14
 -1      3299 1.07008E+01 6.92916E-02 2.07951E-02 2.43146E+00 2.22149E-14 4.28144E-13
 -1      3300 9.96262E+00 5.34442E-01 1.40081E-01 4.76100E-01 1.86931E-13 4.44339E-13
 -1      3301 2.04554E+01-4.05821E+00 1.54407E-01-4.69394E+00-2.47122E-13-1.92762E-14
 -1      3302 2.28863E+01-4.71532E+00-1.29966E-01-3.51096E+00-2.03539E-13 1.42629E-13
 -1      3303 1.08405E+01-8.33201E-01 8.51105E-02-3.78645E+00-2.17847E-14-2.93487E-13
 -1      3304 1.25661E+01-1.73085E+00 5.63520E-02-4.92637E+00-1.24678E-13-2.20698E-13
 -1      3305 1.47189E+01-1.63934E+00 1.10791E-01-4.59599E+00-1.46015E-13-1.08177E-13
 -1      3306 2.31406E+01-4.35163E+00 1.39903E-01-3.35711E+00 1.97481E-13-1.70189E-13
 -1      3307 2.53620E+01-3.91700E+00 1.13663E-01-1.50931E+00-3.52773E-14 3.35298E-13
 -1      3308 2.63457E+01-3.04317E+00-1.32277E-01 7.78057E-02 6.35655E-14 4.09589E-13
 -1      3309 1.19979E+01-1.27917E+00 1.06928E-01-4.30865E+00 1.83770E-13-1.87711E-13
 -1      3310 1.40361E+01-2.37065E+00 8.12928E-03-5.19646E+00 2.11296E-13-3.50511E-13
 -1      3311 2.02118E+01 1.96953E+00 8.68293E-04-9.00394E-01-1.08485E-13-1.02305E-13
 -1      3312 1.99661E+01 2.33845E+00-4.25967E-03 2.38284E-01 5.45658E-14-1.43701E-13
 -1      3313 1.99445E+01 2.38257E+00-3.93287E-03 1.35295E-01 3.18468E-14-1.24480E-13
 -1      3314 2.70423E+01-2.11831E+00-1.21141E-01-8.13484E-01-2.81754E-14-4.53526E-14
 -1      3315 2.65175E+01-3.13910E+00 2.53182E-04 2.79940E-01-1.25851E-13-5.60940E-14
 -1      3316 2.56664E+01-3.16579E+00 2.16009E-02 2.51446E-01-9.34079E-14 8.08138E-14
 -1      3317 2.66550E+01-1.11087E+00-1.75643E-02-1.53387E+00-1.13885E-14-6.16313E-14
 -1      3318 1.99340E+01 2.40625E+00-3.71862E-03 5.43512E-02 1.53293E-14-9.53226E-14
 -1      3319 1.99328E+01 2.40700E+00-4.02380E-03-5.01224E-02-5.33591E-15-1.09362E-13
 -1      3320 2.00321E+01 2.13579E+00 5.51306E-03 7.46000E-02 2.83934E-14-1.05977E-13
 -1      3321 2.02348E+01 1.59688E+00 6.16861E-03 4.52131E-01 1.14404E-13-5.03761E-14
 -1      3322 2.01393E+01 1.92834E+00-6.46959E-03 5.70970E-01 1.17997E-13-7.52143E-14
 -1      3323 2.00863E+01 2.07039E+00-3.26646E-03 4.85169E-01 1.04965E-13-9.45700E-14
 -1      3324 2.72143E+01-2.80129E+00 2.89052E-02-7.30071E-01 4.14009E-14 2.72248E-13
 -1      3325 1.18626E+01-1.33768E-01 1.12918E-01-2.76255E+00 1.60323E-14-2.63123E-13
 -1      3326 2.42430E+01-3.89975E+00-1.53498E-02 1.80897E+00 8.13763E-14 2.29273E-13
 -1      3327 1.24749E+01-5.26617E-01 1.19027E-01-3.41554E+00 2.30087E-13-1.41970E-14
 -1      3328 1.99887E+01 7.79778E-02-4.38802E-04 3.75576E-02 8.59714E-14-3.27314E-13
 -1      3329 1.99956E+01 7.17547E-02 2.95211E-04 4.01286E-02-7.85882E-15-1.41906E-13
 -1      3330 1.72745E+01-2.14843E+00 9.00569E-02 4.34889E+00-4.00888E-13-3.01113E-14
 -1      3331 2.03094E+01 1.20866E+00-5.40449E-04-4.86244E-01-1.21642E-13-7.68903E-14
 -1      3332 2.02859E+01 1.01368E+00-3.69442E-03-2.97988E-01-1.08425E-13-6.67392E-14
 -1      3333 2.02871E+01 1.08322E+00 1.34798E-03-2.30222E-01-1.14018E-13-9.99783E-14
 -1      3334 2.00810E+01 2.08444E+00-3.26608E-03-4.79477E-01-6.36183E-14-9.28246E-14
 -1      3335 2.01358E+01 1.94187E+00-6.50239E-03-5.68532E-01-8.22810E-14-1.17948E-13
 -1      3336 2.02351E+01 1.66079E+00-1.63804E-03-6.85768E-01-1.15181E-13-1.00447E-13
 -1      3337 2.32066E+01-4.48731E+00 1.80362E-02 3.29926E+00 1.32477E-13 2.69272E-13
 -1      3338 2.01247E+01 3.21327E-01-1.16737E-03-7.60203E-01 1.71396E-14-3.58270E-14
 -1      3339 2.01769E+01 2.66975E-01 1.83114E-03-7.15871E-01-9.64430E-15-4.34616E-16
 -1      3340 2.01527E+01 2.75121E-01 5.36871E-04-6.48123E-01 2.48098E-15-3.17230E-14
 -1      3341 2.44840E+01 2.66013E+00-2.40267E-02 1.73541E+00 2.79908E-13 7.12798E-14
 -1      3342 2.49217E+01 4.06505E+00-8.18069E-02-4.58511E-01 1.30507E-13-2.60417E-14
 -1      3343 2.46457E+01 1.59968E+00-7.44802E-02 2.08054E+00 2.14155E-13 7.60052E-14
 -1      3344 2.55318E+01 1.05809E+00-4.14509E-02 2.19134E+00 1.61725E-13 7.77295E-14
 -1      3345 2.45324E+01-9.05221E-01-3.05818E-02-1.76590E+00 4.68757E-14 2.09429E-14
 -1      3346 2.45387E+01-1.33982E-01-1.51898E-02-1.97262E+00 1.30059E-13-3.11634E-14
 -1      3347 2.34648E+01-3.68837E+00-6.30347E-02 1.90396E+00-2.39872E-13 2.55913E-13
 -1      3348 2.26430E+01-4.01803E+00 4.09257E-02 3.11130E+00-3.55197E-13 1.98885E-13
 -1      3349 2.12686E+01-3.26368E+00 1.78060E-02 3.27460E+00-4.11634E-13 3.74411E-13
 -1      3350 2.00235E+01 5.96053E-02 4.42780E-04 6.32684E-02 1.44933E-13 2.63588E-13
 -1      3351 2.00142E+01 7.58319E-02-3.48652E-04 7.35857E-02-9.59369E-14 4.16568E-13
 -1      3352 2.00181E+01 5.56061E-02 1.68440E-04 5.46635E-02-6.73400E-14 4.36595E-13
 -1      3353 1.99777E+01 9.14431E-02-3.92816E-04 2.73568E-02 1.57191E-13-2.46630E-13
 -1      3354 1.99829E+01 8.67229E-02 1.03183E-04 3.25040E-02 1.78081E-13-3.14119E-13
 -1      3355 1.99826E+01 9.50546E-02 3.35418E-04 4.13114E-02-8.76825E-14-2.33829E-13
 -1      3356 2.01669E+01 2.88971E-01 1.25478E-03-5.74278E-01 2.79743E-14-3.39529E-14
 -1      3357 2.01587E+01 3.10873E-01 1.51446E-03-4.97641E-01 3.94436E-14-4.98569E-14
 -1      3358 2.01469E+01 3.44631E-01-1.28795E-03-6.11864E-01-3.59920E-15-1.68515E-14
 -1      3359 1.65442E+01-2.25798E+00 1.05793E-01-4.65069E+00 4.06203E-14-1.28154E-13
 -1      3360 1.99708E+01 9.97210E-02-3.07631E-04 1.28043E-02 3.35925E-13 7.71155E-15
 -1      3361 1.99737E+01 9.71958E-02-3.03372E-05 1.97117E-02 2.46586E-13-7.62958E-14
 -1      3362 1.99706E+01 1.08826E-01 4.04411E-04 2.77084E-02 1.44202E-13-1.12019E-13
 -1      3363 1.99640E+01 1.16305E-01 4.56600E-04 9.80624E-03 3.69072E-13 9.52340E-15
 -1      3364 1.87532E+01-3.65753E+00 8.84462E-02 4.91695E+00 1.76685E-13 2.14856E-13
 -1      3365 2.00372E+01 2.18137E+00-5.12243E-03 4.14837E-01 1.03680E-13-1.09745E-13
 -1      3366 1.99976E+01 2.27129E+00-3.76073E-03 3.16661E-01 7.81498E-14-1.34687E-13
 -1      3367 2.00732E+01 2.04555E+00 5.93003E-03 2.18208E-01 5.45145E-14-1.19677E-13
 -1      3368 2.01458E+01 1.86672E+00 6.29385E-03 3.49783E-01 9.47203E-14-8.96371E-14
 -1      3369 2.16169E+01-3.68148E+00 6.52360E-02-3.51921E+00 7.48776E-14-1.10007E-13
 -1      3370 1.12334E+01 5.70727E-01 9.20459E-02-4.50304E-01 1.80410E-13 4.10463E-13
 -1      3371 1.91723E+01-3.28774E+00 7.61134E-02-4.53879E+00-1.87607E-13-3.53589E-14
 -1      3372 2.56050E+01-1.97584E+00-9.06798E-03 9.46531E-01 7.22590E-14 1.78703E-13
 -1      3373 1.28517E+01-2.60628E-02 9.95924E-02 2.76763E+00-8.70311E-14 1.79592E-13
 -1      3374 2.00024E+01 6.01183E-02-5.23628E-04 4.20499E-02 1.76806E-13 8.86036E-14
 -1      3375 2.00121E+01 4.96069E-02 2.71915E-04 4.16744E-02-1.33230E-13 3.55142E-13
 -1      3376 2.00159E+01 5.35829E-02 4.67017E-04 4.88262E-02-3.83006E-14 4.43608E-13
 -1      3377 1.99987E+01 7.57177E-02 2.34412E-04 4.90469E-02-4.39576E-14-7.95171E-14
 -1      3378 2.78083E+01-1.48410E+00-4.43716E-02-1.38537E+00 6.05765E-15 3.41477E-13
 -1      3379 2.01807E+01 4.00215E-01-1.43871E-03-4.46984E-01 5.21974E-14-4.38852E-14
 -1      3380 2.00321E+01 2.19390E+00-4.95617E-03-4.10242E-01-4.64931E-14-1.04723E-13
 -1      3381 2.01380E+01 1.87826E+00 4.73374E-03-3.42502E-01-5.84863E-14-7.66065E-14
 -1      3382 1.99937E+01 2.28152E+00-3.45514E-03-3.10680E-01-2.80706E-14-1.03204E-13
 -1      3383 2.48681E+01-1.50047E+00-2.66922E-03-1.34655E+00-3.23387E-14 4.16420E-15
 -1      3384 1.01874E+01 4.33061E-01 1.60225E-01 7.62781E-01 1.27734E-13-3.09364E-13
 -1      3385 1.10956E+01 5.71187E-01 3.72780E-02-3.83080E-01 6.66187E-14-2.54158E-13
 -1      3386 1.11021E+01 2.47036E-01 7.56175E-02 1.64978E+00 1.76180E-13-1.79662E-13
 -1      3387 2.02421E+01 6.05606E-01-1.66569E-03 2.15069E-02 9.13574E-14 5.40285E-16
 -1      3388 2.02830E+01 7.38131E-01 3.38069E-03 1.87164E-01 1.13269E-13-7.48617E-15
 -1      3389 2.02951E+01 9.08087E-01 9.65318E-04 2.49451E-01 1.16449E-13 2.52301E-15
 -1      3390 2.02633E+01 6.75679E-01-1.48242E-03-2.15867E-02 1.01482E-13 2.34157E-14
 -1      3391 1.28523E+01-1.51217E+00 1.38960E-01 4.56966E+00 1.54411E-13-2.20102E-14
 -1      3392 1.23564E+01-6.14346E-01 4.06547E-02 3.52883E+00 1.31027E-13-8.33361E-14
 -1      3393 1.46502E+01-1.94804E+00-1.20391E-02 4.66821E+00 1.79017E-13 9.57567E-14
 -1      3394 2.38553E+01-3.90224E+00 1.03396E-02-2.12342E+00-7.69419E-14 1.58446E-13
 -1      3395 2.00039E+01 6.34868E-02-1.77318E-04-4.49810E-02-1.85200E-13-4.39800E-13
 -1      3396 1.99994E+01 6.73681E-02-2.31704E-04-4.27569E-02-1.50646E-14-2.38425E-13
 -1      3397 1.99947E+01 8.32088E-02 2.69842E-04-4.95579E-02-4.79332E-14-2.30729E-13
 -1      3398 2.00047E+01 7.41295E-02 3.83598E-04-5.43767E-02-2.38556E-14-3.68195E-13
 -1      3399 2.01532E+01 5.81989E-01 3.39495E-04 3.92754E-01-5.91573E-14-4.15705E-14
 -1      3400 2.01171E+01 5.46600E-01-3.81500E-04 4.82857E-01-4.17569E-14-9.57920E-15
 -1      3401 2.00588E+01 5.27718E-01-5.90497E-04 5.59087E-01-2.69693E-14 2.93361E-15
 -1      3402 2.00204E+01 5.22401E-01 3.48752E-04 6.40431E-01 7.28280E-15 6.45671E-15
 -1      3403 2.00578E+01 6.12424E-01 1.12647E-03 4.79298E-01-1.60279E-14 2.78104E-14
 -1      3404 1.99465E+01 5.27353E-01-1.52653E-03 7.13087E-01-7.33772E-15 1.79075E-14
 -1      3405 1.99053E+01 5.41938E-01 9.13519E-04 7.92400E-01-1.48789E-14-1.22271E-15
 -1      3406 1.99272E+01 5.95760E-01 1.44099E-03 6.27260E-01-7.95855E-15 6.03748E-14
 -1      3407 1.98155E+01 5.60868E-01-2.43130E-03 8.67176E-01-1.92570E-14-6.69466E-14
 -1      3408 1.97709E+01 5.85250E-01 1.43700E-03 9.49771E-01-1.41396E-14-3.80189E-14
 -1      3409 1.97682E+01 6.23286E-01 1.91718E-03 7.72025E-01-2.77200E-14-1.89538E-14
 -1      3410 1.96642E+01 6.07470E-01-3.28703E-03 1.03191E+00 2.21813E-14-9.58131E-15
 -1      3411 1.96169E+01 6.29901E-01 2.10711E-03 1.12197E+00 3.64385E-14 4.24802E-14
 -1      3412 1.95789E+01 6.73591E-01 2.47422E-03 9.24283E-01 1.30204E-14-2.26261E-14
 -1      3413 1.94928E+01 6.42034E-01-4.08259E-03 1.21692E+00 6.46911E-15 2.98839E-14
 -1      3414 1.94470E+01 6.47297E-01 3.22480E-03 1.31807E+00-2.32991E-14 2.34819E-14
 -1      3415 1.93570E+01 7.22192E-01 2.96560E-03 1.09477E+00 2.66567E-14 3.28809E-14
 -1      3416 1.93071E+01 6.31341E-01-4.77088E-03 1.43267E+00-6.35779E-14 3.95198E-14
 -1      3417 1.92737E+01 5.98698E-01 5.28901E-03 1.54881E+00-7.36709E-14 3.00396E-14
 -1      3418 1.91029E+01 7.38276E-01 3.19558E-03 1.29628E+00-2.12262E-14-4.34347E-14
 -1      3419 1.91246E+01 5.29664E-01-5.09440E-03 1.69345E+00-2.74207E-14 3.48066E-14
 -1      3420 1.91268E+01 4.29804E-01 8.99921E-03 1.82945E+00 2.50043E-14 2.22643E-14
 -1      3421 1.88231E+01 6.80481E-01 2.76929E-03 1.54751E+00-1.66552E-14 4.19609E-14
 -1      3422 1.89868E+01 2.72497E-01-4.11093E-03 2.01954E+00 5.61713E-14 1.35306E-14
 -1      3423 1.90691E+01 6.43144E-02 1.55213E-02 2.17924E+00 9.09698E-14 5.85455E-14
 -1      3424 1.85388E+01 4.89985E-01 9.96213E-04 1.87831E+00 8.08115E-14 3.30960E-14
 -1      3425 1.89813E+01-2.28217E-01 1.14574E-03 2.43351E+00 9.58969E-14 4.70908E-14
 -1      3426 1.92181E+01-6.00771E-01 2.48298E-02 2.61182E+00 8.60379E-14 9.81479E-14
 -1      3427 1.83010E+01 8.07585E-02-3.03787E-03 2.33171E+00 8.12985E-14 5.55662E-14
 -1      3428 1.92797E+01-1.07155E+00 1.89631E-02 2.93560E+00 6.71897E-14 1.19389E-13
 -1      3429 1.97993E+01-1.67195E+00 3.97085E-02 3.09965E+00 7.64306E-14 1.37458E-13
 -1      3430 1.82250E+01-6.68924E-01-9.74122E-03 2.95696E+00 1.20436E-13 5.63698E-14
 -1      3431 1.24885E+01 9.33964E-03 1.84861E-02-2.69858E+00 2.02040E-13 4.10366E-14
 -1      3432 1.39166E+01-8.23587E-01 2.37412E-02-3.83577E+00 1.07903E-13-6.55032E-14
 -1      3433 1.86614E+01-2.42519E+00-3.60483E-02 3.94469E+00-2.35789E-13 1.62391E-13
 -1      3434 1.62204E+01-1.20744E+00 6.83635E-02 3.95864E+00-1.90174E-13-6.82093E-14
 -1      3435 2.02152E+01 1.70012E+00 1.05513E-03-5.69134E-01-1.04728E-13-9.63964E-14
 -1      3436 1.94171E+01-9.73509E-01 3.28015E-02-2.74716E+00-8.87481E-14-3.75433E-14
 -1      3437 1.90398E+01-5.13645E-01 3.45783E-03-2.58497E+00-3.17473E-14 4.47848E-14
 -1      3438 1.90700E+01-1.29623E-01 1.91858E-02-2.28775E+00-8.31451E-14 8.10881E-14
 -1      3439 1.89277E+01 1.44622E-01-3.47089E-03-2.11413E+00-2.75536E-14 1.05856E-13
 -1      3440 1.82161E+01-1.26135E-01 5.49735E-03-2.53368E+00-1.04214E-14-2.64569E-14
 -1      3441 1.90425E+01 3.64542E-01 1.10796E-02-1.88898E+00-4.83598E-14 1.69856E-13
 -1      3442 1.90071E+01 5.11361E-01-5.09566E-03-1.73412E+00 1.40659E-14 1.75306E-13
 -1      3443 1.83670E+01 4.15195E-01 3.31141E-04-1.98810E+00-3.37550E-14 1.86147E-13
 -1      3444 1.91451E+01 6.18931E-01 6.23921E-03-1.56253E+00-1.04826E-13 7.32796E-14
 -1      3445 1.91607E+01 6.80416E-01-5.10602E-03-1.42883E+00-1.54317E-13 1.80696E-14
 -1      3446 1.86200E+01 6.99063E-01 2.25011E-03-1.58996E+00-1.25982E-13-6.46103E-14
 -1      3447 1.92940E+01 7.17909E-01 3.66321E-03-1.29348E+00-3.22237E-14 1.51881E-14
 -1      3448 1.93286E+01 7.26354E-01-4.59221E-03-1.17745E+00-3.87711E-14 1.00485E-13
 -1      3449 1.88841E+01 8.13375E-01 3.45814E-03-1.29086E+00-1.07010E-13-2.63029E-13
 -1      3450 1.94461E+01 7.21834E-01 2.28044E-03-1.06702E+00-2.03385E-13 1.88784E-13
 -1      3451 1.94837E+01 6.99853E-01-3.98591E-03-9.65699E-01-1.90760E-13-3.77060E-14
 -1      3452 1.91254E+01 8.22567E-01 3.61743E-03-1.05475E+00-1.51024E-13-1.09010E-13
 -1      3453 1.95821E+01 6.72179E-01 1.57991E-03-8.73398E-01-9.02335E-14-4.83371E-14
 -1      3454 1.96153E+01 6.34658E-01-3.40373E-03-7.85097E-01-6.31645E-14-1.19039E-14
 -1      3455 1.93315E+01 7.71352E-01 3.29601E-03-8.61104E-01-2.12616E-13-9.18206E-14
 -1      3456 1.96949E+01 5.96083E-01 1.23455E-03-7.07137E-01-9.08501E-14 2.24492E-14
 -1      3457 1.97213E+01 5.52485E-01-2.86847E-03-6.30883E-01-1.35990E-13 8.68513E-14
 -1      3458 1.95004E+01 6.89055E-01 2.79270E-03-6.98483E-01-4.48972E-14-4.06461E-14
 -1      3459 1.97841E+01 5.10602E-01 1.05520E-03-5.65063E-01-1.85504E-13 1.50657E-13
 -1      3460 1.98036E+01 4.66651E-01-2.38636E-03-5.00098E-01-2.92914E-14 1.37362E-13
 -1      3461 1.96344E+01 5.94539E-01 2.26255E-03-5.60734E-01-1.58240E-13 1.42284E-13
 -1      3462 1.98521E+01 4.25909E-01 9.40739E-04-4.44958E-01 1.04542E-13-2.59353E-15
 -1      3463 1.98657E+01 3.84835E-01-1.95921E-03-3.90473E-01 1.27868E-13 1.92638E-14
 -1      3464 1.97384E+01 4.99408E-01 1.77600E-03-4.44332E-01-1.08158E-13 1.47497E-13
 -1      3465 1.99024E+01 3.47624E-01 8.44021E-04-3.44832E-01 1.72634E-13 1.36473E-13
 -1      3466 1.99114E+01 3.11047E-01-1.58694E-03-2.99886E-01 2.82795E-13 1.76212E-14
 -1      3467 1.98172E+01 4.10349E-01 1.35993E-03-3.46884E-01 2.35343E-13 3.36133E-14
 -1      3468 1.99387E+01 2.78455E-01 7.47844E-04-2.62645E-01 2.79022E-13-2.67450E-15
 -1      3469 1.99441E+01 2.46979E-01-1.26868E-03-2.26179E-01 4.06097E-14-2.03878E-14
 -1      3470 1.98758E+01 3.30806E-01 1.01997E-03-2.66370E-01 2.25511E-13 4.38373E-14
 -1      3471 1.99640E+01 2.19291E-01 6.49598E-04-1.96256E-01-1.09161E-13-6.10528E-14
 -1      3472 1.99669E+01 1.92900E-01-1.00382E-03-1.67161E-01-5.38772E-14-1.72273E-13
 -1      3473 1.99185E+01 2.62120E-01 7.49925E-04-2.00840E-01 1.79415E-14-9.19028E-14
 -1      3474 1.99810E+01 1.69928E-01 5.50239E-04-1.43526E-01-1.46131E-14-1.87902E-13
 -1      3475 1.99822E+01 1.48319E-01-7.58041E-04-1.20723E-01-2.21598E-14-6.45368E-14
 -1      3476 1.99488E+01 2.04330E-01 5.47239E-04-1.48369E-01-7.27923E-14-3.49885E-14
 -1      3477 1.99919E+01 1.29361E-01 3.76164E-04-1.02235E-01 4.97496E-14-4.49870E-14
 -1      3478 1.99925E+01 1.12127E-01-4.33085E-04-8.49088E-02 1.18286E-13 2.85739E-14
 -1      3479 1.99697E+01 1.56912E-01 4.34778E-04-1.07047E-01 4.88348E-14 1.82850E-13
 -1      3480 1.22769E+01 3.27703E-01 4.01720E-02-1.98759E+00 1.34667E-14-2.55893E-13
 -1      3481 1.32630E+01-3.21733E-01 4.42647E-02-3.31462E+00-3.33657E-14-1.12091E-13
 -1      3482 2.02009E+01-1.17730E-01 5.11843E-03-1.53333E+00 6.52291E-15 6.47136E-14
 -1      3483 2.00817E+01 2.92327E-02 2.40505E-03-1.47981E+00-1.04404E-14 3.01083E-14
 -1      3484 2.00533E+01 1.42067E-01 4.25102E-03-1.38426E+00-2.57585E-14 1.52931E-14
 -1      3485 1.99859E+01 2.24669E-01 2.94658E-04-1.31702E+00-2.43097E-14 3.89539E-14
 -1      3486 1.97693E+01 1.38594E-01-5.16996E-03-1.48341E+00-3.51161E-14 1.97078E-14
 -1      3487 2.10238E+01-1.13690E+00 3.10895E-03-1.67776E+00-1.13885E-13 1.55432E-13
 -1      3488 2.07223E+01-8.08128E-01 1.31711E-02-1.71560E+00-7.33740E-14 9.94772E-14
 -1      3489 2.18635E+01-1.87287E+00 1.43169E-03-1.51210E+00-1.18173E-13 1.85560E-13
 -1      3490 2.14417E+01-1.49073E+00 2.39902E-02-1.66701E+00-9.94393E-14 1.78994E-13
 -1      3491 2.07352E+01-1.41829E+00-2.76990E-02-2.01624E+00-1.19372E-13 8.85164E-14
 -1      3492 2.30909E+01-2.54776E+00 6.68843E-03-1.00366E+00-2.60222E-14 1.24044E-13
 -1      3493 2.25223E+01-2.25492E+00 3.07793E-02-1.36453E+00-9.60878E-14 1.13704E-13
 -1      3494 2.17273E+01-2.22675E+00-1.16234E-02-1.91973E+00-6.68231E-14 3.98856E-14
 -1      3495 2.52749E+01-2.58875E+00 6.52259E-02 3.69399E-01 8.34367E-14 2.24466E-13
 -1      3496 2.57394E+01-2.54195E-01-5.91143E-02-2.02984E+00 1.10953E-13-2.35230E-13
 -1      3497 2.59912E+01 2.14469E+00-1.29171E-03-2.16573E+00 1.26794E-13-2.87687E-13
 -1      3498 2.31888E+01-2.72559E+00 5.14639E-02 1.26361E+00-2.89248E-13 1.27756E-13
 -1      3499 2.38214E+01-2.85078E+00 1.83315E-02 7.73654E-01-2.52780E-13 7.36598E-14
 -1      3500 2.06367E+01-6.71421E-01 1.20249E-02 1.62740E+00 3.70641E-14 1.95443E-13
 -1      3501 2.09279E+01-9.89847E-01 4.74107E-03 1.60687E+00-1.06085E-14 4.02593E-13
 -1      3502 2.02406E+01-1.83233E-01 5.84567E-03 1.50869E+00-2.63343E-13 1.80578E-13
 -1      3503 2.04279E+01-4.06561E-01 5.50282E-03 1.54609E+00-1.56643E-13 1.60572E-13
 -1      3504 2.00766E+01-5.32957E-01-1.45815E-02 1.77968E+00-5.79682E-14 3.11138E-13
 -1      3505 2.00304E+01 1.34557E-01 2.15090E-03 1.34048E+00 5.09694E-15 1.61307E-13
 -1      3506 2.01439E+01-5.17598E-03 4.85613E-03 1.40631E+00-1.44071E-13 1.13924E-13
 -1      3507 1.98075E+01-4.89619E-02-8.15618E-03 1.56323E+00-1.32530E-13-1.27254E-14
 -1      3508 1.99337E+01 3.16888E-01 4.97826E-05 1.15798E+00 1.14101E-13 7.55379E-14
 -1      3509 1.99996E+01 2.40824E-01 3.86550E-03 1.23579E+00 1.89376E-13 1.64468E-13
 -1      3510 1.96988E+01 2.51176E-01-4.19056E-03 1.33908E+00 1.02577E-13 3.35955E-14
 -1      3511 1.99013E+01 4.02089E-01-1.03457E-03 9.78850E-01-1.94537E-14 4.88264E-14
 -1      3512 1.99384E+01 3.70370E-01 3.01314E-03 1.05910E+00 3.21554E-14 7.80734E-14
 -1      3513 1.96807E+01 4.13676E-01-1.74931E-03 1.12781E+00 6.32674E-14 1.92120E-13
 -1      3514 1.99019E+01 4.22950E-01-1.52565E-03 8.11904E-01 1.87393E-13-9.63891E-14
 -1      3515 1.99228E+01 4.19894E-01 2.39536E-03 8.89033E-01 6.72940E-14-1.09615E-14
 -1      3516 1.97084E+01 4.80726E-01-3.89028E-04 9.36474E-01 1.07394E-13 4.85800E-14
 -1      3517 1.99173E+01 4.04486E-01-1.67404E-03 6.61553E-01-1.07486E-14-8.14953E-15
 -1      3518 1.99294E+01 4.18442E-01 1.96345E-03 7.32344E-01 1.33666E-13-3.26261E-14
 -1      3519 1.97553E+01 4.86176E-01 2.92953E-04 7.66884E-01 9.12258E-14-1.02571E-13
 -1      3520 1.99372E+01 3.64521E-01-1.62867E-03 5.29741E-01-1.78777E-13 1.58589E-13
 -1      3521 1.99449E+01 3.87338E-01 1.65144E-03 5.92511E-01-1.63561E-13 5.64952E-14
 -1      3522 1.98065E+01 4.54971E-01 5.76751E-04 6.19081E-01-8.54651E-14 1.23354E-13
 -1      3523 1.99564E+01 3.15057E-01-1.48078E-03 4.16830E-01 6.00767E-14 2.27990E-13
 -1      3524 1.99619E+01 3.41337E-01 1.40900E-03 4.70941E-01-5.39190E-14 1.97777E-13
 -1      3525 1.98541E+01 4.04554E-01 6.41430E-04 4.92314E-01-1.47274E-13-2.58567E-14
 -1      3526 1.99726E+01 2.63741E-01-1.28671E-03 3.22125E-01 1.53650E-13 1.61809E-13
 -1      3527 1.99771E+01 2.90104E-01 1.20517E-03 3.67652E-01 1.61896E-13 3.53627E-13
 -1      3528 1.98949E+01 3.46543E-01 5.95827E-04 3.85339E-01 6.41909E-14-3.27934E-14
 -1      3529 1.99852E+01 2.15107E-01-1.08094E-03 2.44227E-01 2.61333E-13 5.75809E-14
 -1      3530 1.99892E+01 2.39603E-01 1.02408E-03 2.81712E-01 2.40140E-13 1.91211E-13
 -1      3531 1.99277E+01 2.88262E-01 5.04429E-04 2.96547E-01 2.25335E-13 3.93010E-13
 -1      3532 1.99942E+01 1.71556E-01-8.84855E-04 1.81330E-01 7.39050E-14-8.67878E-15
 -1      3533 1.99978E+01 1.93205E-01 8.59671E-04 2.11584E-01 1.11099E-13-3.49351E-14
 -1      3534 1.99529E+01 2.33986E-01 4.01520E-04 2.24062E-01 2.55507E-13 3.26294E-13
 -1      3535 2.00001E+01 1.34086E-01-6.94091E-04 1.31463E-01 3.04291E-14-4.40588E-14
 -1      3536 2.00035E+01 1.52537E-01 7.14845E-04 1.55409E-01 1.09479E-13-2.53757E-14
 -1      3537 1.99715E+01 1.85883E-01 3.01742E-04 1.65867E-01 9.60023E-14-6.66748E-14
 -1      3538 2.00038E+01 1.03076E-01-3.72054E-04 9.27913E-02-1.46908E-13 1.02054E-14
 -1      3539 2.00067E+01 1.18064E-01 6.08295E-04 1.11179E-01-1.37145E-13-1.11556E-13
 -1      3540 1.99843E+01 1.44676E-01 1.49111E-04 1.19968E-01-9.71533E-14-1.18817E-13
 -1      3541 1.99800E+01-3.71336E+00-4.48626E-02 4.36652E+00 1.41196E-13 2.34021E-13
 -1      3542 1.76284E+01-2.76286E+00 1.51527E-01 4.86926E+00 1.85491E-13 1.37779E-13
 -1      3543 1.79831E+01-2.40337E+00 7.76902E-02-4.41190E+00-1.23863E-13-3.34142E-14
 -1      3544 2.03221E+01-3.28511E+00-2.86228E-02-3.81445E+00-1.52615E-13 1.02002E-15
 -1      3545 1.58303E+01-1.44657E+00 9.02295E-02-4.20763E+00 3.63390E-14-1.96225E-13
 -1      3546 1.79282E+01-2.49617E+00-6.92439E-02-4.29664E+00-6.30242E-14-1.67515E-13
 -1      3547 1.56991E+01-8.82064E-01 2.82513E-02-3.61363E+00 2.53894E-14-1.04642E-13
 -1      3548 1.99539E+01 1.32054E-01-1.25588E-04-1.66379E-02 4.99849E-13-3.64439E-14
 -1      3549 1.99516E+01 1.33597E-01-3.06988E-04-6.27453E-03 4.51951E-13 1.22505E-14
 -1      3550 2.13228E+01-1.34442E+00 2.22360E-02 1.62473E+00-1.48505E-13 4.46311E-13
 -1      3551 2.17741E+01-1.70341E+00 1.85800E-02 1.47959E+00-1.56726E-13 4.58786E-13
 -1      3552 2.06068E+01-1.24136E+00-2.65699E-02 1.94203E+00-1.69527E-14 3.25443E-13
 -1      3553 2.20872E+01-2.06337E+00 2.85926E-02 1.55627E+00-2.60593E-13 4.12981E-13
 -1      3554 2.26859E+01-2.35023E+00 3.16035E-02 1.24114E+00-2.78138E-13 2.14407E-13
 -1      3555 2.19245E+01-2.89297E+00-4.11902E-02 2.33204E+00-4.15208E-13 3.45369E-13
 -1      3556 2.12287E+01-2.04426E+00-4.31111E-02 2.09948E+00-2.41774E-13 3.33985E-13
 -1      3557 2.02384E+01 1.51425E+00 2.79188E-03-3.96738E-01-9.54434E-14-9.21476E-14
 -1      3558 2.57890E+01-1.54454E+00-2.24903E-02-1.34529E+00-4.96825E-15-1.34726E-13
 -1      3559 1.99435E+01 2.38733E+00-3.50696E-03-1.30267E-01-1.16593E-14-1.30407E-13
 -1      3560 1.99629E+01 2.34506E+00-4.32997E-03-2.33725E-01-2.97268E-14-1.13116E-13
 -1      3561 2.00665E+01 2.05304E+00 4.67335E-03-2.12088E-01-2.56224E-14-1.19768E-13
 -1      3562 2.06218E+01-2.89313E+00 1.05137E-01-3.63516E+00 1.02843E-14-1.36466E-13
 -1      3563 2.04999E+01-5.35324E-01 5.66211E-03-1.64773E+00-1.57380E-14 9.31608E-14
 -1      3564 2.03025E+01-3.03454E-01 6.44020E-03-1.62515E+00 4.29917E-14 1.06799E-13
 -1      3565 1.98786E+01-1.78888E-01-9.75560E-03-1.69071E+00 2.40156E-15 5.61226E-14
 -1      3566 2.01627E+01-6.82740E-01-1.64535E-02-1.88632E+00-4.08971E-14 1.06502E-13
 -1      3567 1.97821E+01-2.24449E+00 5.40717E-02-3.45127E+00 1.47226E-14-2.07608E-13
 -1      3568 1.91225E+01-1.54502E+00 2.87105E-02-3.29287E+00-6.22627E-14-1.47223E-13
 -1      3569 2.02267E+01 7.12267E-01 1.01385E-03 1.99588E-01-5.07767E-14-7.58201E-14
 -1      3570 2.01943E+01 6.35405E-01-1.32105E-03 3.06556E-01-6.60412E-14-6.08244E-14
 -1      3571 2.01596E+01 6.94932E-01 1.08137E-03 3.16535E-01-4.70764E-14-4.06244E-14
 -1      3572 1.42553E+01-3.31387E-01-1.58962E-02 3.31093E+00-2.19123E-13-8.52304E-14
 -1      3573 1.30406E+01 5.38270E-01 2.26664E-02 1.86235E+00 9.70838E-15 9.45806E-14
 -1      3574 1.22320E+01 8.05337E-01 3.07488E-03 4.60827E-02 6.93889E-14 3.50501E-13
 -1      3575 1.22122E+01 6.80427E-01 9.97098E-02-1.55713E+00 1.77480E-13 3.32449E-13
 -1      3576 2.01711E+01 4.53871E-01-4.78061E-05-4.67892E-01 3.73699E-14-2.63145E-14
 -1      3577 2.01933E+01 4.99478E-01 1.20232E-03-3.76987E-01 6.74429E-14-3.94571E-14
 -1      3578 1.45925E+01-1.01627E+00 5.02631E-02-3.97626E+00-7.92821E-14-7.83193E-14
 -1      3579 1.60549E+01-1.86037E+00-2.73752E-02-4.45454E+00-1.27950E-13-1.22683E-13
 -1      3580 1.78217E+01-1.80820E+00 5.13267E-02-3.88124E+00-8.08780E-14-5.42960E-14
 -1      3581 1.49162E+01-4.17128E-01 6.04483E-02-3.23685E+00-5.36654E-14-4.72782E-14
 -1      3582 2.42921E+01-3.54782E+00-8.85263E-02-1.06854E+00 1.18083E-14 2.55875E-13
 -1      3583 2.41994E+01-2.81005E+00-9.65351E-03-3.46539E-01-2.02095E-15 1.87420E-13
 -1      3584 2.36313E+01-2.74005E+00 4.47709E-02-8.65824E-01-2.61562E-14 1.65873E-13
 -1      3585 2.28271E+01-3.60976E+00 6.92093E-02-2.59750E+00-1.39026E-13 7.44509E-14
 -1      3586 2.53713E+01-2.45211E+00-6.66232E-02-6.93683E-01-9.00252E-14 5.00901E-15
 -1      3587 2.02686E+01 9.45604E-01 1.61981E-04-3.53134E-02-8.58903E-14-5.37322E-14
 -1      3588 2.02471E+01 8.14734E-01-2.02384E-03 9.74794E-02-5.91331E-14-6.16174E-14
 -1      3589 2.02279E+01 8.66385E-01 1.17401E-03 1.27181E-01-6.45907E-14-2.49905E-14
 -1      3590 2.02217E+01 5.60800E-01-1.09556E-03-2.84340E-01 9.23777E-14-3.62900E-14
 -1      3591 2.02489E+01 6.44749E-01 2.23744E-03-1.72739E-01 8.29302E-14-2.55612E-14
 -1      3592 2.02042E+01 6.18172E-01 7.48687E-05-3.07220E-01 6.46940E-14-1.95495E-14
 -1      3593 2.00247E+01 3.73818E-01 2.06936E-03-9.19689E-01 5.73024E-14-2.86648E-14
 -1      3594 2.00234E+01 3.77954E-01-8.68144E-04-8.47866E-01 6.45965E-14-3.52161E-14
 -1      3595 2.02643E+01 1.29208E+00-3.45600E-03 3.36069E-01 1.18115E-13-2.97562E-14
 -1      3596 2.02286E+01 1.45100E+00-8.24126E-04 3.06695E-01 1.10842E-13-6.16232E-14
 -1      3597 1.34505E+01-1.49314E-01 5.76715E-02 2.89786E+00 1.48474E-13-1.12604E-13
 -1      3598 1.21047E+01 2.05874E-01 1.28886E-01 2.43733E+00 1.73780E-13-1.55737E-13
 -1      3599 1.21288E+01 5.39412E-01 3.75924E-03 1.25159E+00 1.46954E-13-1.89362E-13
 -1      3600 1.99428E+01 1.52481E-01 5.59776E-04 3.50193E-04 5.08367E-13 9.68950E-14
 -1      3601 1.99517E+01 1.33382E-01-2.96341E-04 6.67675E-03 3.62298E-13-1.16461E-13
 -1      3602 1.99539E+01 1.31550E-01-1.41879E-04 1.68723E-02 3.76401E-13 9.41734E-14
 -1      3603 1.34971E+01 4.33894E-01 3.46739E-02-2.00522E+00 9.60336E-14 1.17992E-13
 -1      3604 2.01692E+01-2.49143E+00 4.80838E-02 3.50304E+00 8.82510E-14 1.74981E-13
 -1      3605 2.10426E+01-3.33123E+00 2.86738E-02 3.57342E+00 1.06234E-13 2.00073E-13
 -1      3606 1.61565E+01-4.99986E-01 5.70864E-02 3.13995E+00-6.28247E-14-6.63358E-15
 -1      3607 1.78259E+01-1.01829E+00 1.27996E-02-3.36290E+00 6.90108E-14-2.44862E-13
 -1      3608 1.85178E+01-2.04543E+00-3.02172E-02 3.85662E+00 1.10287E-13 1.28505E-13
 -1      3609 2.28155E+01-3.04869E+00-3.76935E-02-1.72421E+00-6.24544E-14 4.58175E-14
 -1      3610 1.22313E+01 6.51015E-01 9.02669E-02-1.31219E+00 7.32105E-14-2.45477E-13
 -1      3611 1.34719E+01 4.92597E-01 3.53795E-02-1.83578E+00 2.94248E-14-1.79943E-13
 -1      3612 1.23208E+01 7.15462E-01 2.72645E-02-4.41353E-01 1.43106E-13-1.86330E-13
 -1      3613 1.99997E+01 9.83204E-02 2.82584E-04-7.48334E-02 2.09932E-13-1.19028E-13
 -1      3614 2.00003E+01 8.53427E-02-1.93739E-04-6.28586E-02 2.50150E-13-2.75869E-13
 -1      3615 1.99951E+01 9.06314E-02-8.89205E-05-6.06658E-02 1.02607E-13-2.86845E-13
 -1      3616 1.99848E+01 1.19449E-01 1.99896E-04-7.93432E-02 1.66959E-13 2.23923E-13
 -1      3617 2.00678E+01 3.83135E-01 1.47723E-03-7.73940E-01 3.35072E-14-6.67871E-14
 -1      3618 2.00758E+01 3.89820E-01-3.77418E-04-7.00792E-01-6.32010E-15-4.64002E-14
 -1      3619 1.99682E+01 4.44178E-01-1.37118E-04-7.89836E-01 1.94478E-14-9.98919E-14
 -1      3620 1.97618E+01 3.16236E-01-2.50764E-03-1.28715E+00-2.19504E-14-7.65603E-14
 -1      3621 1.99982E+01 2.84903E-01 3.39375E-03-1.22590E+00-3.20560E-14 1.44735E-14
 -1      3622 1.99636E+01 3.24097E-01-7.35656E-04-1.15393E+00-1.88779E-14-1.91190E-14
 -1      3623 2.14867E+01-3.43181E+00 5.47078E-03-3.30845E+00-1.55095E-13-4.64897E-14
 -1      3624 2.23994E+01-3.05910E+00 2.88164E-02-2.23547E+00-1.28310E-13 5.50202E-14
 -1      3625 2.18472E+01-2.76188E+00 3.26653E-03-2.33318E+00-5.47149E-14-4.07226E-16
 -1      3626 2.02004E+01-2.62662E+00 1.83061E-03-3.38589E+00-1.07633E-13-6.74634E-15
 -1      3627 2.11974E+01-2.73809E+00 7.62015E-03 2.77395E+00-3.47036E-13 3.06171E-13
 -1      3628 2.00388E+01-2.63681E+00 5.08480E-02 3.60336E+00-3.49927E-13 2.62019E-13
 -1      3629 1.89121E+01-1.83583E+00 8.70169E-03 3.42360E+00-1.15481E-13 1.75635E-13
 -1      3630 2.08062E+01-2.25552E+00 1.33720E-02 2.64846E+00-3.38530E-13 3.10377E-13
 -1      3631 1.65564E+01-1.88274E+00 9.45011E-02 4.31680E+00 1.76859E-13 1.07567E-13
 -1      3632 2.00048E+01 9.54488E-02 4.51076E-04 8.03365E-02-1.58490E-13 6.80116E-14
 -1      3633 1.99890E+01 1.15880E-01-2.53937E-04 8.69825E-02-2.81692E-13-1.81139E-13
 -1      3634 2.00017E+01 8.80991E-02 1.16104E-04 6.88100E-02-2.26745E-13 1.49789E-13
 -1      3635 2.00086E+01 6.63543E-02-5.31449E-04 5.66499E-02-3.93524E-14 6.20186E-13
 -1      3636 1.99717E+01 1.12042E-01-4.76183E-04 4.67726E-02-2.16972E-13-3.05218E-13
 -1      3637 1.99804E+01 1.04090E-01 3.91397E-05 5.24826E-02-1.88463E-13-2.44509E-13
 -1      3638 2.01182E+01 4.02456E-01 8.01408E-04-6.26610E-01-1.28868E-14-5.26715E-14
 -1      3639 2.01338E+01 4.22903E-01 3.50083E-04-5.47886E-01 1.04133E-14-2.29412E-14
 -1      3640 2.00536E+01 4.62586E-01-8.76667E-05-6.39869E-01 7.47807E-15-7.05909E-14
 -1      3641 1.44327E+01 7.46278E-01 1.30690E-02 1.50198E+00-1.19772E-13 3.56095E-14
 -1      3642 1.32124E+01 9.19247E-01 6.44016E-02 9.64619E-01-4.95758E-14 2.14715E-13
 -1      3643 1.36708E+01 9.83436E-01-1.59282E-02-4.46877E-02-8.25832E-14 2.72960E-13
 -1      3644 2.00739E+01 1.87958E+00-3.28893E-03 8.65622E-02 4.78149E-14-1.14944E-13
 -1      3645 2.00627E+01 1.90181E+00-3.68062E-03 2.16814E-02 3.38026E-14-9.63188E-14
 -1      3646 2.02984E+01 1.00522E+00-1.43273E-03 2.76546E-01 1.05253E-13-2.70252E-14
 -1      3647 2.02824E+01 1.19349E+00 1.16843E-03 3.19833E-01 1.09371E-13-1.99671E-14
 -1      3648 2.02831E+01 1.08347E+00 2.99495E-03 1.72493E-01 1.09156E-13-2.44202E-14
 -1      3649 2.02857E+01 8.73297E-01-5.10692E-04 1.27406E-01 1.01184E-13-3.56656E-14
 -1      3650 1.99579E+01 1.27237E-01-4.59656E-04-2.86465E-02 3.67720E-13 7.15389E-14
 -1      3651 1.99479E+01 1.48257E-01 6.35085E-04-2.60785E-02 4.25999E-13 1.89747E-14
 -1      3652 1.99642E+01 1.22813E-01 1.56142E-04-3.75448E-02 2.26112E-13 3.89233E-13
 -1      3653 2.23475E+01-3.82373E+00 1.06518E-01 3.38828E+00 1.00950E-13 2.64724E-13
 -1      3654 2.02093E+01 1.53333E+00 1.72289E-03-2.90031E-01-7.01748E-14-5.68592E-14
 -1      3655 2.02623E+01 1.28345E+00-1.75970E-03-2.76260E-01-9.86027E-14-6.89223E-14
 -1      3656 2.02624E+01 1.10634E+00-1.52561E-03-1.33159E-01-9.14062E-14-7.17094E-14
 -1      3657 2.01342E+01 5.12366E-01-7.26618E-05-4.83173E-01 3.06473E-14-1.91672E-14
 -1      3658 2.00927E+01 1.83635E+00-2.76772E-03 1.28660E-01 4.42975E-14-1.14979E-13
 -1      3659 2.01407E+01 1.65280E+00 6.02285E-03 6.94466E-02 5.76676E-14-1.11119E-13
 -1      3660 2.01187E+01 1.76695E+00-4.15277E-03 1.90323E-01 6.12894E-14-1.08420E-13
 -1      3661 2.01700E+01 1.62764E+00-3.46513E-03-2.57446E-01-5.29986E-14-6.08643E-14
 -1      3662 2.02075E+01 1.42130E+00 2.08151E-03-1.49852E-01-5.79202E-14-4.31869E-14
 -1      3663 2.01355E+01 1.73877E+00-2.07881E-04-2.07056E-01-4.66310E-14-8.42825E-14
 -1      3664 2.00296E+01 2.13831E+00 5.05343E-03-7.05916E-02 4.74452E-15-1.11496E-13
 -1      3665 2.02539E+01 8.09510E-01 6.59991E-04-9.80056E-02 8.61034E-14-2.46013E-14
 -1      3666 2.02628E+01 7.53272E-01-1.71819E-03-5.72409E-02 7.49098E-14-2.86580E-14
 -1      3667 1.99969E+01 3.50575E-01 2.68652E-03-1.06975E+00 6.48346E-15-1.96425E-14
 -1      3668 1.99826E+01 3.64653E-01-1.03333E-03-9.97440E-01 3.40114E-14-3.06392E-14
 -1      3669 1.98838E+01 4.32718E-01-3.76827E-04-9.43114E-01 6.28968E-14-2.27547E-14
 -1      3670 1.98095E+01 4.01135E-01-1.02731E-03-1.10724E+00-2.38216E-14-2.84241E-14
 -1      3671 2.02817E+01 8.57399E-01 1.31537E-03 6.36895E-02 9.86233E-14-3.09378E-14
 -1      3672 1.99807E+01 1.15883E-01 4.77569E-04 6.67027E-02-2.46183E-13-2.05809E-13
 -1      3673 1.99887E+01 9.55474E-02-4.33630E-04 5.96685E-02-1.98870E-13-2.25524E-13
 -1      3674 1.99897E+01 9.48421E-02-2.85535E-04-5.75646E-02 1.13770E-13-2.09987E-13
 -1      3675 2.02475E+01 1.14556E+00 1.66679E-03-7.69458E-02-7.45899E-14-1.76400E-14
 -1      3676 1.99818E+01 1.12973E-01 1.54378E-04-6.42967E-02 2.06507E-13-2.46553E-14
 -1      3677 1.99823E+01 1.03713E-01 2.02878E-04-5.26724E-02 1.62607E-13 8.53119E-14
 -1      3678 1.99732E+01 1.10949E-01-5.81299E-04-4.71299E-02 5.82546E-14 4.40538E-13
 -1      3679 1.99746E+01 1.27351E-01-3.15967E-04-7.35605E-02 1.21858E-13 1.26190E-13
 -1      3680 1.99065E+01 6.44644E-01-1.49535E-03 5.17502E-01-9.30538E-15 4.60555E-14
 -1      3681 1.98332E+01 6.49016E-01-3.76942E-04 5.87418E-01-1.60104E-14 4.46252E-14
 -1      3682 1.97226E+01 6.63283E-01-2.35372E-03 6.45476E-01-1.32273E-14 1.11240E-14
 -1      3683 1.96355E+01 6.86926E-01-3.23746E-05 7.15415E-01-2.85314E-14-1.32514E-14
 -1      3684 1.97180E+01 7.18401E-01 2.79239E-03 5.33561E-01-1.63389E-14-2.13148E-14
 -1      3685 1.94991E+01 7.14266E-01-3.34913E-03 7.76821E-01-1.28588E-14 1.31544E-14
 -1      3686 1.93970E+01 7.46405E-01 3.43858E-04 8.51656E-01 2.42134E-14 1.60982E-14
 -1      3687 1.94771E+01 7.65515E-01 3.48938E-03 6.45769E-01-2.07320E-14 5.66111E-15
 -1      3688 1.92310E+01 7.75222E-01-4.55990E-03 9.21528E-01 2.35337E-14 3.74810E-14
 -1      3689 1.91137E+01 8.03320E-01 9.47322E-04 1.00673E+00 1.61488E-14 5.51723E-15
 -1      3690 1.91841E+01 8.33237E-01 4.49008E-03 7.66758E-01 2.44110E-14 3.03119E-14
 -1      3691 1.89130E+01 8.19155E-01-6.15812E-03 1.09185E+00 2.78213E-14 1.34265E-14
 -1      3692 1.87826E+01 8.27803E-01 2.13955E-03 1.19465E+00 1.02935E-14 2.96306E-14
 -1      3693 1.88306E+01 8.97062E-01 5.73584E-03 9.08013E-01 2.40921E-14 6.52294E-14
 -1      3694 1.85398E+01 8.12526E-01-8.40495E-03 1.30574E+00-1.64799E-15 1.86291E-14
 -1      3695 1.84041E+01 7.82033E-01 4.61962E-03 1.43788E+00 2.79133E-14 8.09752E-14
 -1      3696 1.84052E+01 9.28188E-01 7.17012E-03 1.08622E+00 7.29321E-15 5.23723E-14
 -1      3697 1.81105E+01 7.10950E-01-1.13112E-02 1.59434E+00 4.69376E-14 8.23758E-14
 -1      3698 1.79893E+01 6.12464E-01 9.59168E-03 1.77509E+00 7.23992E-14 6.47817E-14
 -1      3699 1.78936E+01 8.91808E-01 9.06316E-03 1.33094E+00 4.30298E-14 6.25201E-14
 -1      3700 1.76373E+01 4.48975E-01-1.39897E-02 2.00880E+00 8.14676E-14 5.60757E-14
 -1      3701 1.75679E+01 2.37111E-01 1.78293E-02 2.26649E+00 8.16209E-14 7.17352E-14
 -1      3702 1.72796E+01 7.36165E-01 1.12852E-02 1.69327E+00 7.46920E-14 4.53862E-14
 -1      3703 1.71683E+01-6.90359E-02-1.08541E-02 2.61829E+00 1.58655E-13 4.75006E-14
 -1      3704 1.72833E+01-4.58957E-01 3.81421E-02 2.97199E+00 1.65752E-13 9.36180E-14
 -1      3705 1.65683E+01 3.72098E-01 1.62114E-02 2.26450E+00 1.19113E-13 2.61184E-14
 -1      3706 1.73132E+01-8.17017E-01-1.46854E-02 3.13726E+00 4.09590E-15 3.56503E-14
 -1      3707 1.58191E+01 8.27048E-02 9.85654E-03 2.57051E+00-3.06912E-14 7.26589E-14
 -1      3708 1.48835E+01 1.81650E-01 1.03447E-01-2.84549E+00 1.24482E-13-3.87520E-14
 -1      3709 1.62683E+01-6.17041E-01 1.26528E-02-3.24320E+00 9.71328E-14-2.44565E-13
 -1      3710 1.67410E+01-1.87595E-01-2.87566E-02-2.77366E+00 1.33530E-13-1.67125E-13
 -1      3711 1.41787E+01 5.25817E-01-1.54967E-02-1.85570E+00 1.11288E-13 1.17262E-13
 -1      3712 2.02213E+01 9.98034E-01-5.72073E-04 5.56371E-02-6.71625E-14-1.39415E-15
 -1      3713 2.01953E+01 8.79840E-01-1.98792E-03 1.56938E-01-5.50102E-14-2.71077E-15
 -1      3714 1.77136E+01 5.47089E-01 7.08260E-03-1.90990E+00 2.49053E-14 1.95243E-15
 -1      3715 1.78244E+01 6.99833E-01-1.33323E-02-1.68496E+00 5.62176E-14 6.58473E-14
 -1      3716 1.81297E+01 8.11557E-01 5.00828E-03-1.49551E+00-1.16841E-13-4.90211E-15
 -1      3717 1.82538E+01 8.73616E-01-9.97732E-03-1.33636E+00-2.25096E-13-1.14963E-13
 -1      3718 1.75352E+01 9.29204E-01 1.03838E-02-1.40962E+00-3.27454E-14-5.20586E-14
 -1      3719 1.85038E+01 9.13111E-01 2.66209E-03-1.20035E+00-2.20645E-13-2.01779E-13
 -1      3720 1.86260E+01 9.19898E-01-7.32259E-03-1.07887E+00-1.12709E-13-1.67365E-13
 -1      3721 1.80604E+01 1.02304E+00 8.31471E-03-1.10542E+00-2.37963E-13-1.22468E-13
 -1      3722 1.88275E+01 9.14008E-01 1.09405E-03-9.77411E-01-1.26573E-13-2.58526E-13
 -1      3723 1.89367E+01 8.88428E-01-5.52791E-03-8.79583E-01-1.91564E-13-1.38760E-13
 -1      3724 1.84916E+01 1.01735E+00 6.84370E-03-8.89894E-01-2.14962E-13-2.20597E-13
 -1      3725 1.90983E+01 8.56281E-01 4.18486E-04-7.99135E-01-1.99307E-13-1.33715E-13
 -1      3726 1.91901E+01 8.12836E-01-4.31443E-03-7.17465E-01-1.55552E-13-1.23445E-13
 -1      3727 1.88393E+01 9.54031E-01 5.57042E-03-7.25415E-01-1.37441E-13-3.25243E-13
 -1      3728 1.93187E+01 7.67243E-01 1.67244E-04-6.51195E-01-8.52264E-14-1.70172E-13
 -1      3729 1.93928E+01 7.15831E-01-3.44844E-03-5.81757E-01-5.05089E-14-1.75150E-13
 -1      3730 1.91176E+01 8.58423E-01 4.47519E-03-5.92505E-01-1.19352E-13-2.39582E-13
 -1      3731 1.94943E+01 6.65214E-01 1.24485E-04-5.26084E-01-4.89940E-14-1.10456E-13
 -1      3732 1.95522E+01 6.12252E-01-2.79375E-03-4.66855E-01-1.15488E-13-1.15980E-13
 -1      3733 1.93382E+01 7.48492E-01 3.56420E-03-4.81311E-01-4.87874E-14-1.91592E-13
 -1      3734 1.96315E+01 5.61912E-01 1.60527E-04-4.19893E-01-5.97593E-14 9.16005E-14
 -1      3735 1.96757E+01 5.11348E-01-2.27260E-03-3.69708E-01 5.98718E-14 1.55486E-13
 -1      3736 1.95110E+01 6.36203E-01 2.81389E-03-3.86934E-01 8.53751E-14-1.52051E-13
 -1      3737 1.97368E+01 4.64407E-01 2.10279E-04-3.30332E-01 1.51093E-13 1.49313E-13
 -1      3738 1.97698E+01 4.18467E-01-1.84406E-03-2.88325E-01 2.38887E-13 1.75954E-13
 -1      3739 1.96448E+01 5.29149E-01 2.19934E-03-3.06864E-01 1.73144E-13 1.73672E-13
 -1      3740 1.98164E+01 3.76561E-01 2.46084E-04-2.55701E-01 2.68900E-13 1.74501E-13
 -1      3741 1.98404E+01 3.36297E-01-1.48534E-03-2.21063E-01 2.32529E-13 1.46187E-13
 -1      3742 1.97470E+01 4.31741E-01 1.69876E-03-2.39561E-01 2.45848E-13 2.28163E-13
 -1      3743 1.98753E+01 3.00087E-01 2.62240E-04-1.94429E-01 1.64555E-14 5.32036E-14
 -1      3744 1.98924E+01 2.65761E-01-1.18716E-03-1.66323E-01-4.99820E-14 4.90509E-14
 -1      3745 1.98238E+01 3.46148E-01 1.29540E-03-1.83789E-01 8.16548E-14 2.01195E-13
 -1      3746 1.99182E+01 2.35231E-01 2.64105E-04-1.44919E-01-3.50180E-14 8.56324E-14
 -1      3747 1.99300E+01 2.06606E-01-9.26196E-04-1.22528E-01 2.74826E-15 1.42610E-13
 -1      3748 1.98805E+01 2.72913E-01 9.57503E-04-1.38268E-01-3.33769E-15 1.44533E-13
 -1      3749 1.99486E+01 1.81247E-01 2.10042E-04-1.05698E-01 6.21092E-14 1.83269E-13
 -1      3750 1.99572E+01 1.58281E-01-3.87443E-04-8.81158E-02 9.49778E-14 2.08750E-13
 -1      3751 1.99216E+01 2.11587E-01 6.60099E-04-1.01893E-01 8.67344E-14 1.50309E-13
 -1      3752 1.63157E+01-1.03372E+00 2.78052E-02 3.68831E+00 1.44613E-13 7.49331E-14
 -1      3753 2.12289E+01-2.23469E+00 2.36103E-02-2.41588E+00-8.92797E-14 3.71938E-14
 -1      3754 2.03121E+01-1.48231E+00-5.33248E-04-2.36217E+00-1.16129E-13 5.43546E-14
 -1      3755 1.99707E+01-1.01019E+00 1.81331E-02-2.27366E+00-1.02025E-13 7.31443E-14
 -1      3756 1.93685E+01 4.22911E-01-2.14728E-03 1.27509E+00-3.54666E-14 5.40944E-14
 -1      3757 1.94046E+01 3.26042E-01 6.42517E-03 1.38734E+00 6.54513E-15 7.00408E-15
 -1      3758 1.93683E+01 1.86287E-01-1.00165E-03 1.54184E+00 4.42873E-14-3.63106E-14
 -1      3759 1.94698E+01 1.16620E-02 9.97836E-03 1.66130E+00-5.62449E-14 1.29170E-13
 -1      3760 1.90167E+01 3.63312E-01-2.52444E-03 1.47682E+00-1.70873E-14 1.19527E-13
 -1      3761 2.48300E+01-2.89315E+00 5.49163E-02 1.92280E-01-1.33700E-13 6.64390E-14
 -1      3762 2.02170E+01 1.26837E+00-2.11336E-03-9.52639E-02-5.56965E-14-3.66823E-14
 -1      3763 2.02238E+01 1.11110E+00-2.62185E-04-6.80703E-04-5.84368E-14-2.19781E-14
 -1      3764 2.01988E+01 1.12642E+00 1.55960E-03 3.22630E-02-4.40877E-14-2.22073E-14
 -1      3765 2.01900E+01 1.37117E+00 7.08553E-05-7.69558E-02-5.30583E-14-7.21540E-14
 -1      3766 1.94940E+01-2.25389E-01 1.13815E-03 1.84856E+00-6.87035E-14 1.77895E-13
 -1      3767 1.97041E+01-5.07176E-01 1.25865E-02 1.96232E+00-8.00727E-15 2.22890E-13
 -1      3768 1.89964E+01 1.19977E-02-4.27626E-03 1.83302E+00-2.35760E-15-7.55893E-14
 -1      3769 1.94312E+01 5.35974E-01-2.64437E-03 1.04735E+00 6.98261E-14 2.43799E-13
 -1      3770 1.94323E+01 4.94030E-01 4.17206E-03 1.14800E+00 3.58435E-14 1.72933E-13
 -1      3771 1.91180E+01 5.54269E-01-4.39921E-04 1.19049E+00-2.80090E-14 1.33029E-13
 -1      3772 1.95191E+01 5.67268E-01-2.68822E-03 8.53630E-01 1.89738E-13 5.49353E-14
 -1      3773 1.95033E+01 5.61446E-01 2.78824E-03 9.42387E-01 1.34631E-13 1.56797E-13
 -1      3774 1.92507E+01 6.33565E-01 8.20479E-04 9.59460E-01 1.40225E-13 1.15408E-13
 -1      3775 1.96115E+01 5.47376E-01-2.52684E-03 6.89199E-01-1.50436E-14 7.94885E-14
 -1      3776 1.95894E+01 5.63613E-01 1.92852E-03 7.66575E-01 1.10348E-13 1.60925E-14
 -1      3777 1.93878E+01 6.39661E-01 1.38531E-03 7.70836E-01 1.39211E-13 2.07910E-13
 -1      3778 1.96973E+01 4.98316E-01-2.27436E-03 5.50220E-01-8.05119E-14 9.16257E-14
 -1      3779 1.96748E+01 5.26616E-01 1.40185E-03 6.16863E-01-5.38877E-15 8.14721E-14
 -1      3780 1.95155E+01 6.01202E-01 1.54735E-03 6.15555E-01-1.00417E-14 8.67511E-14
 -1      3781 1.97718E+01 4.35293E-01-1.98554E-03 4.33642E-01-6.39481E-14-1.04469E-13
 -1      3782 1.97516E+01 4.68843E-01 1.07448E-03 4.90262E-01-9.28193E-14 3.65251E-14
 -1      3783 1.96271E+01 5.38441E-01 1.49256E-03 4.87264E-01 1.95035E-14 2.79563E-14
 -1      3784 1.98332E+01 3.68327E-01-1.69200E-03 3.36870E-01 9.32773E-14-2.14139E-14
 -1      3785 1.98166E+01 4.02706E-01 8.60824E-04 3.84263E-01-3.85420E-14-4.54710E-14
 -1      3786 1.97205E+01 4.65230E-01 1.33163E-03 3.81453E-01 7.28803E-15-6.04855E-14
 -1      3787 1.98821E+01 3.03636E-01-1.41084E-03 2.57552E-01 9.85732E-14 3.41145E-13
 -1      3788 1.98692E+01 3.36151E-01 7.09663E-04 2.96598E-01 7.04316E-14 1.68556E-13
 -1      3789 1.97962E+01 3.90608E-01 1.12763E-03 2.94720E-01-1.02678E-13 2.05870E-13
 -1      3790 1.99196E+01 2.44754E-01-1.15283E-03 1.93441E-01 3.85822E-13 2.41771E-13
 -1      3791 1.99101E+01 2.73937E-01 5.92025E-04 2.25097E-01 4.03769E-13 3.52362E-13
 -1      3792 1.98556E+01 3.20143E-01 9.24707E-04 2.24315E-01 3.14695E-13 2.71681E-13
 -1      3793 1.99476E+01 1.93327E-01-9.18139E-04 1.42379E-01 2.09255E-13 1.11438E-13
 -1      3794 1.99409E+01 2.18570E-01 4.97906E-04 1.67624E-01 2.85048E-13 1.63428E-13
 -1      3795 1.99010E+01 2.56860E-01 7.30300E-04 1.67827E-01 3.49725E-13 5.04302E-13
 -1      3796 1.99678E+01 1.50061E-01-5.88703E-04 1.02476E-01-1.96034E-13 2.27608E-14
 -1      3797 1.99633E+01 1.71076E-01 4.66905E-04 1.22122E-01 7.69000E-15 9.34175E-14
 -1      3798 1.99346E+01 2.01975E-01 4.98999E-04 1.23177E-01 1.60820E-13 4.48866E-13
 -1      3799 2.00889E+01 5.57403E-01-2.34693E-04-4.83150E-01 3.29908E-14-3.63256E-14
 -1      3800 2.01286E+01 5.96736E-01-8.86365E-05-4.01085E-01 5.68175E-14-1.37307E-14
 -1      3801 1.99641E+01 1.21352E-01 5.14288E-06 3.75516E-02 3.00489E-14-1.54928E-14
 -1      3802 1.99617E+01 1.33226E-01 4.54561E-04 4.94477E-02-3.54667E-15-7.39420E-14
 -1      3803 1.99580E+01 1.26443E-01-4.10921E-04 2.89274E-02 3.39722E-13 2.57140E-13
 -1      3804 2.00832E+01 1.86311E+00-1.29643E-03-1.07350E-01-1.38037E-14-1.20003E-13
 -1      3805 2.01050E+01 1.79930E+00-3.58835E-03-1.67561E-01-2.74820E-14-1.05842E-13
 -1      3806 2.01555E+01 1.58872E+00 3.79239E-03-9.72487E-02-4.10126E-14-7.77345E-14
 -1      3807 2.01892E+01 1.56883E+00-4.71809E-03 2.79167E-01 8.98923E-14-7.40806E-14
 -1      3808 2.01532E+01 1.68467E+00-2.00424E-03 2.27319E-01 7.00036E-14-8.27465E-14
 -1      3809 2.01877E+01 1.52405E+00 5.96682E-03 1.31171E-01 6.03755E-14-7.57978E-14
 -1      3810 1.99748E+01 1.26851E-01-2.74864E-04 7.68065E-02-1.75874E-13-1.51792E-13
 -1      3811 1.99750E+01 1.38344E-01 4.96763E-04 9.01035E-02-1.81149E-13-1.31702E-13
 -1      3812 1.99538E+01 1.62169E-01-5.68710E-05 9.12146E-02-8.25537E-14 1.99881E-13
 -1      3813 1.99648E+01 1.35020E-01-2.94678E-04 6.86283E-02-1.44557E-13-2.68567E-13
 -1      3814 2.02328E+01 8.28649E-01-1.79886E-03-1.40972E-01 5.95563E-14-2.23102E-14
 -1      3815 2.02543E+01 9.63097E-01 2.98339E-03-2.83299E-02 5.77345E-14-1.39753E-14
 -1      3816 2.01605E+01 7.89157E-01-1.80186E-04 2.32380E-01-4.10091E-14 8.78967E-15
 -1      3817 2.01150E+01 7.22995E-01-1.48246E-03 3.18212E-01-2.88957E-14 1.66660E-14
 -1      3818 2.01612E+01 9.16911E-01 2.36843E-03 1.63618E-01-4.62915E-14 3.47299E-14
 -1      3819 1.99998E+01 8.45922E-02 8.60036E-05 6.23107E-02-1.60931E-13 5.74577E-14
 -1      3820 1.98518E+01-8.52607E-01 1.01033E-02 2.16896E+00-3.84510E-14 1.89358E-13
 -1      3821 2.02198E+01-1.27632E+00 1.04906E-02 2.25588E+00-2.56314E-14 1.59588E-13
 -1      3822 1.91517E+01-5.72986E-01-6.53734E-03 2.26218E+00-5.32608E-14 4.73374E-14
 -1      3823 1.72568E+01 9.23775E-02 9.62773E-03-2.44727E+00 8.14210E-14-1.39441E-13
 -1      3824 1.73095E+01 3.77486E-01-2.10063E-02-2.12391E+00 1.40530E-14-7.14648E-14
 -1      3825 1.68942E+01 7.55513E-01 2.57433E-02-1.77652E+00 1.16831E-13-1.50687E-13
 -1      3826 1.60531E+01 5.07260E-01 5.78517E-02-2.24952E+00 1.25924E-13-6.03545E-14
 -1      3827 2.00641E+01 1.90471E+00-2.31466E-03-1.13972E-02 3.25958E-14-7.30127E-14
 -1      3828 2.00698E+01 1.88425E+00-3.66354E-03-7.53538E-02 1.23130E-14-1.04998E-13
 -1      3829 2.01291E+01 1.67237E+00 5.43982E-03-4.34986E-02 3.10615E-15-7.78322E-14
 -1      3830 2.01250E+01 1.69492E+00 6.55231E-03 7.73827E-03 3.95674E-14-8.18940E-14
 -1      3831 2.00529E+01 6.79328E-01-7.80502E-04 3.83146E-01-7.31836E-19 2.24048E-14
 -1      3832 1.99930E+01 6.54032E-01-8.41662E-04 4.58246E-01-5.90646E-16 4.69533E-14
 -1      3833 1.99120E+01 7.13396E-01 2.30883E-03 4.21256E-01-1.73276E-14 5.39285E-14
 -1      3834 2.00606E+01 7.71809E-01 2.07155E-03 3.00464E-01-3.25707E-15 4.72413E-14
 -1      3835 1.94891E+01 2.06156E-01 6.60141E-03-1.52362E+00-4.38806E-14-3.83091E-14
 -1      3836 1.94559E+01 3.10981E-01-1.94899E-03-1.41770E+00-3.84540E-14-4.31458E-14
 -1      3837 2.01740E+01 6.52909E-01-1.01695E-03-3.24582E-01 6.84538E-14-1.74099E-14
 -1      3838 2.02073E+01 7.29520E-01 4.31287E-04-2.29077E-01 7.22153E-14-9.58982E-15
 -1      3839 2.02041E+01 8.69146E-01 6.83559E-04-1.62451E-01 6.58783E-14-2.90756E-14
 -1      3840 2.01307E+01 7.02096E-01 1.17990E-03-3.26975E-01 6.86180E-14-2.30011E-14
 -1      3841 2.02479E+01 1.31413E+00 5.05840E-03 1.75688E-01 9.61354E-14-4.74375E-14
 -1      3842 1.51874E+01-3.62643E-01 3.18191E-02 3.26788E+00 1.50558E-13-1.45474E-14
 -1      3843 1.32237E+01 7.32213E-01 1.74506E-02 1.02036E+00 1.66415E-13-2.10672E-13
 -1      3844 1.26658E+01 8.97763E-01 9.02841E-02 3.00634E-01 1.83323E-13-2.28855E-13
 -1      3845 1.33510E+01 8.38719E-01 8.54642E-03-4.90341E-01 1.73240E-13-1.80666E-13
 -1      3846 1.99273E+01 1.72267E-01-2.65375E-04-6.62014E-03 5.93116E-13 2.79341E-13
 -1      3847 1.99273E+01 1.72041E-01-2.74742E-04 7.77215E-03 4.74589E-13 2.42569E-13
 -1      3848 1.65552E+01 3.08257E-01 1.33130E-02 2.11795E+00-2.46266E-14 9.23983E-14
 -1      3849 1.54121E+01 5.62474E-01 2.91848E-02 2.02741E+00-1.00979E-13-1.18993E-14
 -1      3850 1.51623E+01 8.51478E-01-2.87142E-02 1.23259E+00-1.20488E-13 8.04495E-14
 -1      3851 1.86719E+01-1.15390E+00 2.74743E-02 2.98043E+00-3.47812E-15 4.57429E-14
 -1      3852 1.82073E+01-5.90602E-01-6.71755E-03 2.61924E+00 2.04559E-14 2.18952E-14
 -1      3853 2.01282E+01 1.50246E+00-2.56285E-03 1.13203E-02 3.13448E-14-8.93067E-14
 -1      3854 2.01254E+01 1.50265E+00-3.28758E-03-9.66500E-03 3.37284E-14-5.47730E-14
 -1      3855 1.99571E+01 1.51145E-01 2.63935E-04-7.17960E-02 9.47511E-14 1.26412E-13
 -1      3856 1.46770E+01 1.07931E+00-3.65709E-03-1.03081E-01-9.36170E-14 9.02793E-14
 -1      3857 1.42595E+01 1.09232E+00 7.25562E-02-8.91408E-01 5.04878E-14 1.25212E-13
 -1      3858 1.72366E+01-1.08600E+00 3.73735E-02-3.47835E+00-9.82083E-14-3.11398E-14
 -1      3859 1.86048E+01-1.80522E+00-2.33985E-02-3.48799E+00-1.22483E-13 9.41261E-15
 -1      3860 1.95324E+01 3.89675E-01 4.73420E-03-1.29480E+00-2.91823E-14-5.84195E-14
 -1      3861 1.95387E+01 4.39784E-01-2.45024E-03-1.19963E+00-4.16049E-14-8.83186E-14
 -1      3862 1.92251E+01 4.40800E-01-1.20657E-03-1.32693E+00-4.29605E-14-6.77681E-14
 -1      3863 2.01722E+01-1.94310E+00-1.35445E-02-2.80195E+00-1.03798E-13 1.30364E-15
 -1      3864 1.41735E+01 6.30185E-01-1.01289E-03-1.54509E+00 3.55436E-14-6.75762E-14
 -1      3865 1.44738E+01 3.87726E-01 2.67895E-02-2.18885E+00-1.55371E-14-1.90386E-14
 -1      3866 1.99628E+01 1.32363E-01 2.86772E-04-4.92401E-02 1.26760E-13 2.82132E-13
 -1      3867 1.99476E+01 1.47258E-01 4.72440E-04 2.68660E-02 3.35619E-13 2.74560E-13
 -1      3868 2.00273E+01 5.31666E-01-7.13503E-04-5.53780E-01 1.83678E-14-4.25825E-14
 -1      3869 2.00216E+01 6.13841E-01 1.13815E-03-4.73560E-01 3.20007E-14-4.06572E-14
 -1      3870 1.99850E+01 5.16893E-01 5.55343E-04-6.29210E-01 1.28354E-14-5.59679E-14
 -1      3871 1.99435E+01 1.55189E-01-3.68474E-04 4.68320E-02 3.71269E-13 5.54276E-13
 -1      3872 1.99527E+01 1.46761E-01-1.77777E-04 5.72724E-02 1.31386E-13-2.10861E-14
 -1      3873 1.99479E+01 1.61011E-01 4.65387E-04 6.73274E-02 2.05862E-13 1.24730E-13
 -1      3874 1.92389E+01-7.57729E-01-1.53059E-02-2.37136E+00-1.07323E-13 6.68699E-14
 -1      3875 1.97972E+01-6.65778E-01 1.20224E-02-2.07515E+00-7.15324E-14 6.37446E-15
 -1      3876 1.95845E+01-3.67176E-01 4.84342E-03-1.96550E+00-1.60021E-14 9.46338E-15
 -1      3877 1.95717E+01-1.55354E+00-3.11523E-02 2.78318E+00-9.01547E-14 9.21173E-14
 -1      3878 1.45649E+01 2.53612E-01-1.63878E-02 2.35585E+00 1.74475E-13-8.56398E-14
 -1      3879 1.50634E+01-1.95864E-02 1.20742E-02-2.70127E+00-4.16507E-14 2.37484E-15
 -1      3880 1.61935E+01-6.89229E-01-6.03448E-03-3.32517E+00-5.97864E-14-5.05811E-14
 -1      3881 1.73485E+01-6.33618E-01 3.53646E-02-2.98799E+00-1.11508E-13 1.86474E-14
 -1      3882 1.57789E+01 2.09473E-01 2.96401E-02-2.32810E+00-3.10160E-14-3.84588E-15
 -1      3883 1.94484E+01 6.16262E-02 3.51012E-04-1.67294E+00-2.23133E-14-2.21143E-14
 -1      3884 1.91044E+01 2.29476E-01-4.80448E-03-1.60775E+00-1.76346E-14-8.77560E-14
 -1      3885 1.95494E+01-1.26369E-01 9.14920E-03-1.78768E+00-1.20726E-14-1.17677E-14
 -1      3886 2.05584E+01-1.86281E+00 5.74868E-03 2.49086E+00-1.55145E-13 2.42808E-13
 -1      3887 2.01539E+01 1.42845E+00-4.09214E-03 4.48923E-02 6.91940E-14-1.01203E-13
 -1      3888 2.01383E+01 1.47574E+00-2.91018E-03 1.88627E-02 5.34239E-14-1.02106E-13
 -1      3889 2.01592E+01 1.33019E+00 5.47461E-03-4.67818E-03 4.07379E-14-8.52965E-14
 -1      3890 1.97460E+01 5.01644E-01 2.09695E-03-9.27254E-01 5.74536E-14-2.95078E-14
 -1      3891 1.97844E+01 5.04076E-01-1.88113E-03-8.49151E-01 5.59655E-14-4.93778E-14
 -1      3892 1.99358E+01 1.65089E-01-1.90747E-04-3.70900E-02 2.93001E-13-1.37845E-13
 -1      3893 1.99301E+01 1.69319E-01-5.08615E-04-2.40776E-02 4.46024E-13-1.41929E-13
 -1      3894 1.99165E+01 1.93553E-01 6.25256E-04-1.75286E-02 4.06656E-13-1.06933E-13
 -1      3895 1.98684E+01 5.06644E-01 1.29473E-03-7.73920E-01 2.42801E-14-5.57476E-14
 -1      3896 1.99105E+01 5.08874E-01-1.35284E-03-6.99420E-01 1.46439E-14-7.77344E-14
 -1      3897 1.97312E+01 5.72951E-01 1.02573E-03-7.57209E-01 4.28953E-14-6.65858E-14
 -1      3898 1.51279E+01 6.90649E-01-1.11647E-02-1.67764E+00 9.96187E-14 8.61394E-14
 -1      3899 1.56729E+01 5.17985E-01 1.70222E-02 2.00859E+00 1.13773E-13-7.86123E-14
 -1      3900 1.42602E+01 6.95640E-01 4.48372E-02 1.67607E+00 1.33383E-13-2.09327E-13
 -1      3901 1.43281E+01 8.83317E-01-1.64605E-02 8.46374E-01 1.40245E-13-2.44658E-13
 -1      3902 1.60190E+01 6.85057E-01-2.62620E-02 1.68242E+00 8.52491E-14-7.03925E-14
 -1      3903 1.94622E+01 7.81196E-01-2.93239E-03 4.91663E-01 1.75562E-15-2.06584E-14
 -1      3904 1.93282E+01 8.13332E-01-1.34990E-03 5.43562E-01 2.69326E-14 2.63537E-14
 -1      3905 1.91497E+01 8.48688E-01-4.03916E-03 5.81777E-01 2.71171E-14 5.40214E-14
 -1      3906 1.89879E+01 8.87850E-01-1.34620E-03 6.38372E-01 3.98378E-14 5.27066E-14
 -1      3907 1.91724E+01 8.80495E-01 4.91430E-03 4.21265E-01 4.07975E-14 5.41477E-14
 -1      3908 1.87670E+01 9.23120E-01-5.63688E-03 6.82753E-01 7.07175E-14 6.53009E-14
 -1      3909 1.85729E+01 9.56690E-01-1.39459E-03 7.50018E-01 3.40579E-14 8.47592E-14
 -1      3910 1.87849E+01 9.62614E-01 6.70860E-03 4.87171E-01 6.64152E-14 4.25197E-14
 -1      3911 1.82965E+01 9.79012E-01-8.29305E-03 8.05912E-01 5.63292E-15 9.76429E-14
 -1      3912 1.80639E+01 9.94488E-01-1.37264E-03 8.93818E-01 2.45033E-14 9.88271E-14
 -1      3913 1.83057E+01 1.04055E+00 9.27889E-03 5.66420E-01 5.36219E-14 9.59399E-14
 -1      3914 1.77121E+01 9.89357E-01-1.23604E-02 9.71945E-01 3.08228E-15 5.92313E-14
 -1      3915 1.74352E+01 9.73722E-01 3.09189E-04 1.09766E+00 2.63321E-14 7.62340E-14
 -1      3916 1.77044E+01 1.09166E+00 1.24834E-02 6.69911E-01-5.02831E-15 1.37033E-13
 -1      3917 1.69731E+01 9.17740E-01-1.84076E-02 1.22340E+00 4.64852E-14 5.05466E-15
 -1      3918 1.66573E+01 8.48767E-01 6.98558E-03 1.41274E+00 6.31446E-14-2.04162E-14
 -1      3919 1.69320E+01 1.09536E+00 1.79061E-02 8.25958E-01-1.91943E-14-1.38171E-15
 -1      3920 2.01529E+01 1.34601E+00 5.88308E-03-5.00171E-03 1.55469E-14-1.77585E-14
 -1      3921 2.01283E+01 1.49606E+00-2.42915E-03-1.49706E-02 2.11566E-14-3.82886E-14
 -1      3922 2.01356E+01 1.47332E+00-2.74161E-03-3.38999E-02-5.81737E-15-5.76917E-14
 -1      3923 1.99433E+01 1.62520E-01-3.76100E-04-6.07317E-02 2.06375E-13 1.17941E-13
 -1      3924 1.51600E+01 1.18385E+00 3.91399E-02 4.74894E-01-1.49840E-13 1.53458E-13
 -1      3925 1.53325E+01 1.12972E+00-2.66088E-02-2.91810E-01-4.42090E-14 1.30920E-14
 -1      3926 1.96051E+01-1.96360E+00 8.79631E-03-3.14436E+00-1.07132E-13-6.57373E-15
 -1      3927 1.76619E+01 1.09650E+00-1.75219E-03-9.12519E-01-1.94757E-13-9.73258E-14
 -1      3928 1.79007E+01 1.09633E+00-9.88793E-03-8.04356E-01-1.81546E-13-1.13937E-13
 -1      3929 1.81883E+01 1.08428E+00-1.81848E-03-7.35696E-01-2.96737E-13-1.39072E-13
 -1      3930 1.83818E+01 1.05470E+00-6.92959E-03-6.56201E-01-2.63200E-13-2.08466E-13
 -1      3931 1.78798E+01 1.17619E+00 1.06757E-02-5.52226E-01-3.11289E-13-5.97658E-14
 -1      3932 1.86045E+01 1.01805E+00-1.63461E-03-6.03678E-01-1.93324E-13-2.56953E-13
 -1      3933 1.87604E+01 9.70582E-01-5.02482E-03-5.40520E-01-1.50603E-13-2.03540E-13
 -1      3934 1.83691E+01 1.10252E+00 8.08475E-03-4.57844E-01-2.57691E-13-1.38149E-14
 -1      3935 1.89344E+01 9.19862E-01-1.41757E-03-4.97881E-01-9.13972E-14-8.96510E-14
 -1      3936 1.90587E+01 8.63444E-01-3.80980E-03-4.45074E-01-6.99851E-14-5.45694E-14
 -1      3937 1.87516E+01 9.98743E-01 6.16834E-03-3.83205E-01-9.60140E-14 8.49595E-14
 -1      3938 1.91953E+01 8.06519E-01-1.12448E-03-4.08824E-01-9.88942E-14-9.88470E-14
 -1      3939 1.92931E+01 7.47319E-01-2.99205E-03-3.63571E-01-6.30369E-14-1.36601E-13
 -1      3940 1.90521E+01 8.80023E-01 4.78166E-03-3.19756E-01-8.62054E-14 1.27561E-13
 -1      3941 1.94003E+01 6.89629E-01-8.38794E-04-3.32256E-01 3.58303E-14-1.23204E-13
 -1      3942 1.94763E+01 6.31905E-01-2.39922E-03-2.93290E-01 1.70044E-13-7.09802E-14
 -1      3943 1.92882E+01 7.56977E-01 3.73991E-03-2.63953E-01 3.95427E-14-9.78097E-15
 -1      3944 1.95598E+01 5.77023E-01-5.92467E-04-2.66298E-01 3.21272E-13-2.98830E-14
 -1      3945 1.96181E+01 5.23491E-01-1.93911E-03-2.32993E-01 3.01704E-13 2.36624E-14
 -1      3946 1.94726E+01 6.37359E-01 2.92995E-03-2.14645E-01 2.78985E-13 6.07872E-14
 -1      3947 1.96826E+01 4.73546E-01-3.94992E-04-2.10002E-01 2.29945E-13 1.39859E-13
 -1      3948 1.97266E+01 4.25711E-01-1.56828E-03-1.81927E-01 2.37928E-13 1.03871E-13
 -1      3949 1.96154E+01 5.26344E-01 2.28565E-03-1.71532E-01 3.74935E-13 6.94414E-14
 -1      3950 1.97758E+01 3.81769E-01-2.43483E-04-1.62682E-01 1.31537E-13-2.23989E-14
 -1      3951 1.98084E+01 3.40258E-01-1.27785E-03-1.39406E-01-4.07657E-15-1.69136E-14
 -1      3952 1.97247E+01 4.26901E-01 1.75461E-03-1.34497E-01 1.08929E-13-1.36557E-14
 -1      3953 1.98455E+01 3.02842E-01-6.92751E-05-1.23673E-01-2.44485E-14-6.53066E-14
 -1      3954 1.98692E+01 2.67559E-01-9.96493E-04-1.04574E-01 3.56426E-14 3.48494E-14
 -1      3955 1.98073E+01 3.40245E-01 1.28654E-03-1.03449E-01-3.06218E-14-2.49013E-13
 -1      3956 1.98967E+01 2.36184E-01 4.11115E-05-9.19603E-02 3.72850E-14-8.21496E-14
 -1      3957 1.99132E+01 2.07206E-01-7.27320E-04-7.67851E-02 1.00470E-13-2.90396E-14
 -1      3958 1.98682E+01 2.66662E-01 7.90271E-04-7.81039E-02 6.56882E-14-3.83805E-13
 -1      3959 1.86692E+01 5.71998E-01-6.47283E-03 1.31902E+00-6.52219E-14 5.53099E-14
 -1      3960 1.86421E+01 4.67781E-01 6.73289E-03 1.47752E+00-6.81397E-14 1.12972E-14
 -1      3961 1.90777E+01 7.25457E-01-4.48698E-03 8.24870E-01 1.42830E-13-1.79945E-14
 -1      3962 1.90146E+01 7.21545E-01 2.82930E-03 9.24660E-01 3.69729E-14-4.78733E-14
 -1      3963 1.41331E+01 8.82236E-01 4.01496E-02-1.01530E+00 7.47223E-14-9.77994E-14
 -1      3964 1.49877E+01 7.75037E-01 1.39268E-02-1.30792E+00-4.33203E-14 2.34856E-14
 -1      3965 1.41868E+01 9.40632E-01-1.60475E-03-3.43966E-01 1.11685E-13-1.32358E-13
 -1      3966 2.02484E+01 1.07254E+00-1.93938E-03 5.06872E-02 7.19223E-14-1.75881E-14
 -1      3967 2.02223E+01 1.18926E+00-9.34761E-04 4.29427E-02 5.88963E-14-3.71543E-14
 -1      3968 1.88748E+01 6.94235E-01-5.43660E-03 1.04132E+00 2.67999E-14 1.74802E-14
 -1      3969 1.88220E+01 6.50841E-01 4.70066E-03 1.16562E+00-7.94281E-15 6.96175E-14
 -1      3970 1.84514E+01 7.40199E-01 3.33599E-03 1.15911E+00-6.17916E-14 3.41929E-14
 -1      3971 1.92630E+01 6.99092E-01-3.69841E-03 6.53483E-01 1.00678E-14 1.46929E-13
 -1      3972 1.92000E+01 7.19756E-01 1.65030E-03 7.34778E-01 1.13863E-13 1.27630E-13
 -1      3973 1.89799E+01 8.04618E-01 3.16452E-03 6.98781E-01 2.71277E-14-2.09750E-14
 -1      3974 1.94244E+01 6.38915E-01-3.05990E-03 5.15746E-01 6.47361E-15 3.46520E-14
 -1      3975 1.93671E+01 6.73511E-01 9.84100E-04 5.82591E-01 3.68291E-14 1.15489E-13
 -1      3976 1.91963E+01 7.53188E-01 2.89048E-03 5.46410E-01 4.64117E-14-8.73137E-14
 -1      3977 1.95603E+01 5.61747E-01-2.53288E-03 4.04165E-01 7.55518E-14 6.06151E-15
 -1      3978 1.95111E+01 6.02771E-01 6.09879E-04 4.59295E-01 1.69218E-14 3.82713E-14
 -1      3979 1.93787E+01 6.75786E-01 2.53375E-03 4.26620E-01 3.86525E-14-5.53282E-14
 -1      3980 1.96716E+01 4.79080E-01-2.08633E-03 3.13616E-01-2.47530E-13 1.97537E-13
 -1      3981 1.96310E+01 5.21461E-01 4.04050E-04 3.58967E-01-7.16048E-14 1.30697E-13
 -1      3982 1.95290E+01 5.86775E-01 2.15623E-03 3.31349E-01-4.10894E-14 8.14932E-15
 -1      3983 1.97604E+01 3.98329E-01-1.70938E-03 2.40373E-01-1.42957E-13 4.21380E-13
 -1      3984 1.97281E+01 4.38863E-01 2.91720E-04 2.77421E-01-2.65237E-13 2.46968E-13
 -1      3985 1.96501E+01 4.95953E-01 1.78959E-03 2.55196E-01-2.41428E-13 1.89483E-13
 -1      3986 1.98296E+01 3.23935E-01-1.37458E-03 1.81602E-01 3.61724E-13 4.59548E-13
 -1      3987 1.98047E+01 3.60728E-01 2.29552E-04 2.11537E-01 1.76856E-13 3.84463E-13
 -1      3988 1.97458E+01 4.09525E-01 1.44156E-03 1.94312E-01 2.28555E-15 4.28006E-13
 -1      3989 1.98824E+01 2.58296E-01-1.06764E-03 1.34922E-01 3.06070E-13 6.35898E-13
 -1      3990 1.98636E+01 2.90419E-01 1.92908E-04 1.58840E-01 4.20087E-13 6.53837E-13
 -1      3991 1.98199E+01 3.31336E-01 1.19874E-03 1.46097E-01 2.17289E-13 6.69294E-13
 -1      3992 1.99218E+01 2.02424E-01-6.30640E-04 9.85293E-02 1.20785E-13 6.00309E-13
 -1      3993 1.99079E+01 2.29359E-01 2.00101E-04 1.17006E-01 2.62023E-13 6.57768E-13
 -1      3994 1.98758E+01 2.62867E-01 8.80558E-04 1.08021E-01 2.83457E-13 7.06841E-13
 -1      3995 1.99387E+01 1.73256E-01-3.14227E-04 7.57281E-02 2.37516E-13 2.25082E-13
 -1      3996 1.99328E+01 1.89123E-01 3.61025E-04 8.80876E-02 2.59165E-13 4.40250E-13
 -1      3997 1.99085E+01 2.15560E-01 3.65188E-04 8.12452E-02 3.50947E-13 7.46705E-13
 -1      3998 1.99263E+01 1.84581E-01-3.16228E-04 6.28730E-02 4.97123E-13 4.84084E-13
 -1      3999 1.84477E+01-3.76566E-01 3.54338E-03 2.33972E+00-2.70559E-14 1.93070E-14
 -1      4000 1.73800E+01 5.49147E-02 2.81518E-02 2.36676E+00 1.99884E-15 2.20236E-14
 -1      4001 1.67969E+01 3.98577E-01-2.65904E-02 1.92360E+00-6.94325E-14 4.29513E-14
 -1      4002 1.83056E+01-4.64827E-02-1.45904E-02 2.08541E+00-7.40310E-14 1.79501E-14
 -1      4003 2.01993E+01 1.27404E+00-3.90037E-03 5.88106E-02 6.13863E-14-7.07054E-14
 -1      4004 2.01754E+01 1.36082E+00-1.63032E-03 3.89758E-02 6.27172E-14-8.10871E-14
 -1      4005 2.01872E+01 1.23039E+00 5.40888E-03-1.73215E-02 7.57020E-14-7.43153E-14
 -1      4006 2.02162E+01 1.07076E+00 2.76867E-03-5.39459E-02 5.50608E-14-6.07462E-14
 -1      4007 2.02784E+01 9.51137E-01-1.84959E-03 8.78054E-02 9.10457E-14-2.99114E-14
 -1      4008 2.02690E+01 1.04821E+00-2.19102E-03 1.05567E-01 9.23942E-14-3.23377E-15
 -1      4009 2.01609E+01 1.01074E+00 3.84286E-05 9.43405E-02-2.43367E-14-2.62131E-14
 -1      4010 2.01208E+01 9.09262E-01-1.71782E-03 1.66367E-01-2.16291E-14-1.06906E-14
 -1      4011 1.96282E+01 4.74217E-01 3.21568E-03-1.09776E+00-2.17682E-14-4.43454E-14
 -1      4012 1.96565E+01 4.91102E-01-2.26932E-03-1.01258E+00 3.82559E-14-1.84083E-14
 -1      4013 1.95623E+01 5.68940E-01 8.37712E-04-9.15811E-01 5.16280E-14 1.93630E-14
 -1      4014 1.93879E+01 5.38688E-01 4.88029E-04-1.10167E+00 2.65634E-15 5.66051E-15
 -1      4015 1.88047E+01-1.09614E+00 1.06366E-02-2.87012E+00-9.90206E-14 5.78487E-15
 -1      4016 1.80955E+01-7.11590E-01-2.09935E-02-2.77244E+00-1.02279E-13-1.13733E-14
 -1      4017 1.87992E+01-6.79840E-01 1.74305E-02-2.50950E+00-1.31033E-13 4.25020E-14
 -1      4018 1.86300E+01-3.25560E-01 1.09031E-03-2.27249E+00-1.08956E-13 2.51603E-14
 -1      4019 1.84702E+01 3.43824E-01-9.09560E-03 1.64966E+00-4.40370E-14 2.88070E-14
 -1      4020 1.84966E+01 1.56805E-01 8.59577E-03 1.85070E+00-7.63840E-14-4.12445E-14
 -1      4021 1.78291E+01 3.51077E-01 1.22263E-02 1.87801E+00-6.68905E-14 5.14842E-14
 -1      4022 1.81568E+01 5.92781E-01 7.97030E-03 1.47941E+00-1.42828E-13 3.15547E-14
 -1      4023 1.97163E+01 7.41982E-01-2.19727E-03 4.04023E-01-2.67566E-14-2.14667E-14
 -1      4024 1.96066E+01 7.57130E-01-1.27706E-03 4.55331E-01-3.86306E-14-3.53976E-14
 -1      4025 1.94880E+01 8.15929E-01 3.88158E-03 3.57951E-01 9.67192E-15 6.12661E-15
 -1      4026 2.01489E+01 1.46285E+00-1.70057E-03-4.22021E-02-2.05684E-14-5.78929E-14
 -1      4027 2.01685E+01 1.40253E+00-2.44274E-03-6.64638E-02-4.54961E-14-7.74870E-14
 -1      4028 2.01846E+01 1.27484E+00 1.99473E-03-1.73564E-02-2.84930E-14-7.21759E-14
 -1      4029 2.01631E+01 1.32242E+00 4.31870E-03-6.80171E-03-3.14103E-15-4.01260E-14
 -1      4030 1.99309E+01 1.67688E-01-3.71858E-04 2.16276E-02 3.88067E-13-4.47411E-14
 -1      4031 1.99361E+01 1.63195E-01-1.99205E-04 3.49249E-02 3.13880E-13 3.05896E-13
 -1      4032 1.99281E+01 1.79962E-01 5.15958E-04 4.23959E-02 4.58827E-13 3.53334E-13
 -1      4033 1.99172E+01 1.91636E-01 6.17941E-04 1.54816E-02 4.81684E-13 2.51745E-13
 -1      4034 1.69738E+01 1.01250E+00-6.61894E-03-1.17639E+00 5.28950E-14-1.42931E-13
 -1      4035 1.72804E+01 1.07342E+00-1.41074E-02-1.01058E+00-1.61953E-13-6.93991E-14
 -1      4036 1.72471E+01 1.20360E+00 1.54432E-02-6.77925E-01-1.66285E-13-1.19150E-13
 -1      4037 1.56480E+01 8.28759E-01-2.67115E-02-1.45562E+00 2.65413E-14 8.04001E-15
 -1      4038 1.98865E+01 5.79088E-01 1.08765E-03-6.13342E-01 1.47198E-14-3.98625E-14
 -1      4039 1.58384E+01 9.91529E-01-5.29988E-04 9.44774E-01-1.59628E-13 4.62061E-14
 -1      4040 1.58992E+01 9.80717E-01 2.40301E-02 1.15949E+00 5.81291E-14-1.57275E-13
 -1      4041 2.01264E+01 1.20908E+00-2.21285E-03-9.10761E-04 2.47385E-15-2.80896E-14
 -1      4042 2.01278E+01 1.20028E+00-2.58741E-03 2.44600E-03-4.78559E-15 4.15049E-15
 -1      4043 2.01417E+01 1.17136E+00-2.19309E-03-3.64624E-02 4.96643E-14-6.39616E-14
 -1      4044 2.01292E+01 1.19815E+00-2.81408E-03-2.86878E-02 2.31882E-14-6.03528E-14
 -1      4045 2.01179E+01 1.09200E+00 3.17745E-03-2.91136E-02-4.95404E-15-1.19443E-14
 -1      4046 1.99272E+01 1.88562E-01 4.12932E-04-6.07609E-02 2.42920E-13-1.03743E-13
 -1      4047 1.73011E+01-2.48066E-01 6.24113E-03-2.59477E+00-9.34643E-14-4.06255E-14
 -1      4048 1.57263E+01 1.18290E+00 4.49921E-02-8.26353E-01-6.27519E-14 1.54625E-14
 -1      4049 1.62260E+01 8.87717E-01-1.53267E-02-1.40637E+00 8.14236E-16-2.60408E-14
 -1      4050 1.66232E+01 9.74303E-01-2.12446E-02-1.23914E+00 4.11095E-14-5.28323E-14
 -1      4051 1.59171E+01 1.17466E+00-9.75717E-03-3.24899E-01-6.09632E-14-1.13577E-14
 -1      4052 1.87296E+01 8.09883E-01 3.24623E-03 8.96197E-01 1.54381E-14-3.73033E-14
 -1      4053 1.55350E+01 8.59938E-01-7.20451E-03-1.07716E+00-3.81980E-14 1.57864E-14
 -1      4054 1.57181E+01 6.77832E-01 8.95850E-03-1.57701E+00-4.91723E-14 9.67620E-14
 -1      4055 1.99056E+01 2.11078E-01-1.15975E-05-5.04779E-02 3.16127E-13-5.45902E-13
 -1      4056 1.98954E+01 2.16758E-01-3.09284E-04 1.25970E-02 4.23472E-13 2.66871E-13
 -1      4057 1.99002E+01 2.12620E-01-2.88078E-05 2.73983E-02 4.72877E-13-2.00072E-13
 -1      4058 1.99510E+01 6.49756E-01-4.04977E-04-4.46704E-01 3.11737E-14-3.42254E-14
 -1      4059 2.00133E+01 6.78506E-01-1.01692E-03-3.77759E-01 4.88470E-14-8.62290E-15
 -1      4060 1.87333E+01 3.36755E-01 8.33780E-03-1.60097E+00-4.00805E-15-3.17854E-14
 -1      4061 1.87617E+01 4.52783E-01-5.40231E-03-1.44322E+00-3.64906E-14-3.92443E-14
 -1      4062 1.89363E+01 5.33558E-01 5.82907E-03-1.28811E+00-1.95934E-14-4.18132E-14
 -1      4063 1.89937E+01 5.82695E-01-7.71208E-03-1.16800E+00-3.79967E-14 1.01330E-14
 -1      4064 1.85588E+01 6.19244E-01 3.41635E-03-1.26669E+00-2.38267E-14-1.09928E-14
 -1      4065 2.00652E+01 8.34897E-01-1.36814E-03 2.11191E-01-2.05308E-14-1.96918E-15
 -1      4066 2.00025E+01 7.84696E-01-1.12926E-03 2.73546E-01-1.62492E-14-6.52291E-15
 -1      4067 2.00773E+01 9.30434E-01 2.38362E-03 1.44203E-01-2.45766E-14-3.91740E-14
 -1      4068 1.60802E+01 4.18210E-01-3.32338E-03-1.95563E+00-4.56149E-14 6.65353E-14
 -1      4069 1.66892E+01 3.97388E-02-4.05079E-03-2.40920E+00-9.10474E-14-1.07822E-14
 -1      4070 1.76087E+01 2.88102E-02 1.99740E-02-2.22691E+00-9.89141E-14-3.70057E-14
 -1      4071 1.66352E+01 5.60918E-01 1.19891E-02-1.67864E+00-6.03395E-14 1.88922E-14
 -1      4072 1.90754E+01-1.49246E-01-1.13879E-02-1.95460E+00-3.68520E-14-1.19688E-13
 -1      4073 1.93865E+01 6.40255E-01 1.47327E-03-8.61659E-01 2.63468E-14 1.28095E-14
 -1      4074 1.94708E+01 6.37659E-01-3.19701E-03-7.79577E-01 1.71530E-14-2.62048E-15
 -1      4075 1.98306E+01 7.40560E-01-1.15634E-03 3.67616E-01-2.80271E-14-1.70789E-14
 -1      4076 1.97426E+01 7.87846E-01 3.16076E-03 2.93370E-01-4.48568E-14-4.19130E-14
 -1      4077 1.99168E+01 7.52733E-01-1.74847E-03 3.12747E-01-2.75575E-14-1.46953E-15
 -1      4078 1.65652E+01 1.21376E+00 3.14941E-02-7.89755E-01-9.75240E-15-6.18255E-14
 -1      4079 2.01783E+01 1.15436E+00-1.72727E-03 3.56179E-02-1.89827E-14-3.79295E-14
 -1      4080 1.95990E+01 6.34533E-01 1.09770E-03-7.06596E-01 2.12044E-14-1.83558E-14
 -1      4081 1.96788E+01 6.28739E-01-2.43475E-03-6.34325E-01 1.27601E-14-4.81382E-14
 -1      4082 1.94352E+01 7.05942E-01 2.55732E-03-6.51842E-01-7.08632E-15 7.88323E-15
 -1      4083 2.01518E+01 1.14829E+00 5.98787E-04 4.40644E-02-1.56430E-14-5.29304E-14
 -1      4084 2.00801E+01 7.23056E-01-1.11315E-03-3.19133E-01 4.20363E-14-1.90946E-14
 -1      4085 2.01292E+01 7.86821E-01-6.27373E-04-2.44359E-01 5.58333E-14-3.67438E-14
 -1      4086 2.00197E+01 7.65212E-01 2.36859E-03-2.95020E-01 3.78106E-14-1.85605E-14
 -1      4087 2.01645E+01 8.55002E-01-8.40214E-04-1.96223E-01 5.88066E-14-4.60514E-14
 -1      4088 2.01951E+01 9.60429E-01-7.32627E-04-1.09528E-01 4.66597E-14-7.02018E-14
 -1      4089 2.01764E+01 1.04313E+00-1.26196E-03-8.59523E-02 5.46328E-14-8.75480E-14
 -1      4090 2.01225E+01 8.77855E-01 7.36206E-04-1.91513E-01 4.07508E-14-6.64321E-14
 -1      4091 1.98982E+01 2.15468E-01-3.10512E-04-2.87707E-02 3.33236E-13-3.03837E-13
 -1      4092 1.98946E+01 2.17955E-01-3.76416E-04-1.01684E-02 2.82915E-13 2.64923E-13
 -1      4093 1.98769E+01 2.43023E-01 1.46001E-04 2.08785E-03 2.83845E-13 1.02712E-13
 -1      4094 1.98847E+01 2.39115E-01 3.76609E-04-4.43946E-02 2.28662E-13-3.56266E-13
 -1      4095 1.92073E+01 8.65546E-01-3.45381E-03 2.50315E-01 7.01173E-14 3.28491E-14
 -1      4096 1.90304E+01 9.03173E-01-3.16989E-03 2.73737E-01 5.22750E-14 5.96514E-14
 -1      4097 1.88210E+01 9.42563E-01-4.56412E-03 2.81668E-01 1.17620E-14 5.44664E-14
 -1      4098 1.86055E+01 9.84439E-01-3.17388E-03 3.06220E-01 2.82219E-14 2.35943E-14
 -1      4099 1.89050E+01 9.55138E-01 8.94552E-03 1.00275E-01 1.82323E-14 2.81697E-15
 -1      4100 1.83461E+01 1.01932E+00-5.88627E-03 3.03596E-01 6.81000E-14 4.64245E-15
 -1      4101 1.80659E+01 1.05371E+00-7.76743E-03 3.28763E-01 6.45539E-14 3.50943E-14
 -1      4102 1.84661E+01 1.02658E+00 1.24432E-02 8.83824E-02 9.97314E-15 3.29099E-15
 -1      4103 1.77379E+01 1.08107E+00-1.00991E-02 3.37873E-01 2.03805E-14-1.19055E-14
 -1      4104 1.73886E+01 1.09729E+00-1.04984E-02 3.71807E-01-5.37868E-14 3.00422E-15
 -1      4105 1.78810E+01 1.13121E+00 2.30623E-02 6.90546E-02 2.85859E-14-7.94809E-14
 -1      4106 1.69598E+01 1.10633E+00-1.35901E-02 3.86098E-01-1.05258E-13 2.47579E-14
 -1      4107 1.65331E+01 1.10209E+00-2.27609E-03 4.50157E-01-7.05512E-14-9.11981E-14
 -1      4108 1.71329E+01 1.17766E+00 2.54349E-02 1.79270E-02-5.30277E-14-7.34664E-14
 -1      4109 1.99079E+01 2.02841E-01-4.52513E-04 3.98825E-02 4.14571E-13-2.09354E-14
 -1      4110 1.99162E+01 1.95748E-01-1.40766E-04 5.26769E-02 5.03973E-13 4.20864E-13
 -1      4111 1.99070E+01 2.10760E-01 1.91638E-05 6.09145E-02 3.89549E-13 4.98054E-13
 -1      4112 1.98886E+01 2.31174E-01 3.35839E-04 3.81052E-02 3.37820E-13-1.10319E-13
 -1      4113 1.76069E+01 1.18880E+00-8.94647E-03-3.13381E-01-1.79404E-13-1.28006E-13
 -1      4114 1.78974E+01 1.16480E+00-6.97056E-03-2.78283E-01-2.66754E-13-8.94395E-14
 -1      4115 1.58666E+01 1.05188E+00-2.33708E-02 5.00620E-01-1.94072E-14-1.43418E-13
 -1      4116 1.52726E+01 9.93956E-01 8.02817E-05 6.97447E-01 4.05800E-14-2.17476E-13
 -1      4117 1.45928E+01 1.06244E+00 3.48854E-02 1.05369E-01 7.25130E-14-1.70436E-13
 -1      4118 1.61347E+01 1.13001E+00 2.08862E-02 8.31979E-03-1.12395E-13-8.90737E-14
 -1      4119 1.61733E+01 1.28323E+00 4.19174E-02 1.72165E-01-1.04835E-13-7.10176E-14
 -1      4120 1.62521E+01 1.17814E+00-1.78261E-02-3.57461E-01-8.12066E-14-5.41356E-14
 -1      4121 1.65896E+01 1.19620E+00-1.31497E-02-3.49318E-01-4.30132E-14-1.24320E-13
 -1      4122 1.69504E+01 1.20890E+00-9.90600E-03-3.54806E-01-8.87237E-14-1.70493E-13
 -1      4123 1.73259E+01 1.20713E+00-9.82833E-03-3.06235E-01-1.95812E-13-1.20873E-13
 -1      4124 1.74699E+01 1.25656E+00 2.30472E-02-3.38500E-04-5.45329E-14-1.82981E-13
 -1      4125 1.68478E+01 1.28543E+00 2.84010E-02 7.19749E-02-5.99074E-14-2.82589E-13
 -1      4126 1.81622E+01 1.12595E+00-5.80567E-03-2.73515E-01-2.91321E-13 1.18804E-13
 -1      4127 1.83846E+01 1.08115E+00-5.04562E-03-2.46848E-01-1.30906E-13 1.68583E-13
 -1      4128 1.80035E+01 1.18547E+00 1.54481E-02-4.38478E-02-1.07281E-13 5.63232E-14
 -1      4129 1.85895E+01 1.02948E+00-4.28049E-03-2.40514E-01-9.78763E-14 1.68949E-13
 -1      4130 1.87632E+01 9.73990E-01-3.74498E-03-2.17264E-01-1.06562E-13 1.57924E-13
 -1      4131 1.84622E+01 1.08856E+00 1.17026E-02-6.45365E-02-1.05253E-13 2.86941E-13
 -1      4132 1.89241E+01 9.14952E-01-3.19223E-03-2.09219E-01-1.32097E-13 2.54074E-13
 -1      4133 1.90604E+01 8.54537E-01-2.89082E-03-1.87730E-01-9.84022E-15 2.33671E-13
 -1      4134 1.88211E+01 9.73450E-01 9.06893E-03-7.30646E-02-9.44238E-14 3.51600E-13
 -1      4135 1.91872E+01 7.93179E-01-2.40187E-03-1.78741E-01 5.55563E-14 1.20343E-13
 -1      4136 1.92938E+01 7.32386E-01-2.29127E-03-1.58718E-01-2.57104E-14 1.54301E-13
 -1      4137 1.91041E+01 8.49622E-01 7.12069E-03-7.32276E-02-5.73206E-14 3.85342E-13
 -1      4138 1.93936E+01 6.72558E-01-1.80848E-03-1.49522E-01 1.48238E-13 7.46579E-14
 -1      4139 1.94764E+01 6.14651E-01-1.83912E-03-1.31152E-01 3.87597E-13 1.01047E-13
 -1      4140 1.93270E+01 7.25335E-01 5.61547E-03-6.80923E-02 7.06798E-14 1.96091E-13
 -1      4141 1.95542E+01 5.58981E-01-1.35408E-03-1.22347E-01 3.67544E-13-5.97544E-14
 -1      4142 1.96179E+01 5.06051E-01-1.47826E-03-1.05891E-01 2.83994E-13-1.04842E-13
 -1      4143 1.95017E+01 6.06801E-01 4.40990E-03-6.00268E-02 2.78053E-13-1.74510E-13
 -1      4144 1.96780E+01 4.56124E-01-9.98301E-04-9.78661E-02 1.74872E-13-2.84111E-13
 -1      4145 1.97264E+01 4.09248E-01-1.17582E-03-8.34718E-02-1.75539E-14-3.10338E-13
 -1      4146 1.96370E+01 4.98112E-01 3.37807E-03-5.08135E-02 6.90181E-14-4.22933E-13
 -1      4147 1.97722E+01 3.65947E-01-6.68482E-04-7.63955E-02-8.44083E-14-3.20896E-13
 -1      4148 1.98085E+01 3.25499E-01-8.73850E-04-6.41619E-02-6.88139E-14-4.57972E-13
 -1      4149 1.97401E+01 4.00954E-01 2.14746E-03-4.18225E-02-2.88746E-14-5.33328E-13
 -1      4150 1.98358E+01 2.97146E-01-2.65278E-04-5.89203E-02-3.96334E-14-3.91197E-13
 -1      4151 1.98626E+01 2.62727E-01-5.91459E-04-4.93990E-02 3.13070E-14-4.26130E-13
 -1      4152 1.98573E+01 2.69170E-01 4.69566E-04-2.51313E-02 1.44359E-14 7.35054E-14
 -1      4153 1.98115E+01 3.26491E-01 1.76777E-03-3.32358E-02-5.45914E-14-2.91886E-13
 -1      4154 1.88916E+01 8.51513E-01-5.83342E-03 5.39307E-01-8.42414E-14-5.73899E-14
 -1      4155 1.87815E+01 8.80996E-01 1.17568E-03 6.17255E-01-7.86385E-14-1.69967E-13
 -1      4156 1.82425E+01 8.77147E-01-1.04397E-02 9.19913E-01-3.61149E-14-1.27041E-13
 -1      4157 1.81049E+01 8.42614E-01 1.83215E-03 1.06322E+00-1.22988E-13-8.44728E-14
 -1      4158 1.85958E+01 8.91446E-01-7.81129E-03 7.01739E-01 5.46039E-14-1.65996E-13
 -1      4159 1.84721E+01 8.97465E-01 2.10905E-03 8.04643E-01 9.79310E-14-1.01098E-13
 -1      4160 1.85638E+01 9.81702E-01 1.20318E-02 5.36640E-01-1.19508E-14-2.90312E-13
 -1      4161 1.93388E+01 6.85751E-01-3.52614E-03 3.20610E-01 1.12423E-13-1.07162E-14
 -1      4162 1.92592E+01 7.35148E-01 1.55670E-04 3.68546E-01 9.02558E-14-4.02210E-14
 -1      4163 1.63681E+01 8.73849E-01 3.61360E-02 1.43716E+00-1.29782E-13 2.37474E-14
 -1      4164 1.60335E+01 1.03057E+00-3.39841E-02 7.49695E-01-1.80293E-13 4.53366E-14
 -1      4165 1.64037E+01 1.08579E+00-1.58993E-02 6.62462E-01-9.47072E-14 1.57448E-14
 -1      4166 1.70639E+01 5.65568E-01 7.08171E-03 1.68969E+00-9.50004E-14 1.10127E-13
 -1      4167 1.95017E+01 5.87990E-01-2.80008E-03 2.46030E-01-1.71160E-13 1.16750E-13
 -1      4168 1.94367E+01 6.38683E-01-1.22209E-05 2.84335E-01 3.32498E-16 7.25117E-14
 -1      4169 1.93408E+01 7.07708E-01 6.08222E-03 2.32161E-01-3.00492E-15 1.78521E-13
 -1      4170 1.96314E+01 4.92168E-01-2.23459E-03 1.87375E-01-1.81148E-13 1.75289E-13
 -1      4171 1.95795E+01 5.40740E-01-7.62768E-05 2.18102E-01-1.94606E-13 2.01838E-13
 -1      4172 1.95065E+01 6.00619E-01 4.83216E-03 1.75674E-01-2.63860E-13 2.83548E-13
 -1      4173 1.97330E+01 4.03356E-01-1.72805E-03 1.41183E-01-7.25812E-15 2.90725E-13
 -1      4174 1.96923E+01 4.47715E-01-8.35274E-05 1.65820E-01-1.60298E-13 2.12510E-13
 -1      4175 1.96372E+01 4.98793E-01 3.79335E-03 1.32263E-01-1.90836E-13-8.96964E-14
 -1      4176 1.98118E+01 3.24067E-01-1.14572E-03 1.04951E-01 2.36054E-13 4.66152E-13
 -1      4177 1.97799E+01 3.62740E-01-2.22705E-04 1.24276E-01 1.31346E-13 3.64463E-13
 -1      4178 1.97380E+01 4.06111E-01 2.73953E-03 9.86860E-02-8.42677E-14 1.88526E-13
 -1      4179 1.91626E+01 6.21827E-01 4.12011E-03-1.04533E+00-4.21213E-16 1.25474E-14
 -1      4180 1.92443E+01 6.33582E-01-3.54015E-03-9.48153E-01 6.40881E-14 4.80328E-14
 -1      4181 1.91767E+01 7.17289E-01 4.18854E-03-8.09241E-01 9.50054E-15-1.20709E-14
 -1      4182 1.81472E+01-8.45994E-02-1.27983E-02-2.17405E+00-1.26229E-13-3.54218E-14
 -1      4183 1.86892E+01-9.54017E-02 1.26030E-02-2.05118E+00-8.65969E-14-1.64634E-14
 -1      4184 1.86474E+01 1.23850E-01-2.05910E-03-1.84594E+00-2.60169E-14 3.50685E-16
 -1      4185 1.76179E+01 2.28659E-01 2.04614E-04-1.98988E+00-1.02402E-13 3.16151E-14
 -1      4186 1.98613E+01 6.33664E-01-1.73081E-03-5.04185E-01 1.27812E-14-3.56635E-14
 -1      4187 1.98636E+01 7.02407E-01 2.11318E-03-4.07025E-01 2.24495E-14-2.11510E-14
 -1      4188 1.97887E+01 6.28490E-01 2.96313E-04-5.72107E-01 9.80365E-15-4.22098E-14
 -1      4189 2.01617E+01 1.11099E+00-9.65302E-04-6.73144E-02 6.36500E-14-8.14240E-14
 -1      4190 1.51208E+01 1.02561E+00-5.14852E-03-3.58957E-01-3.32954E-14-8.19670E-14
 -1      4191 2.01360E+01 1.15878E+00-1.80033E-03 4.02675E-02-8.21918E-15-2.56488E-14
 -1      4192 1.95209E+01 8.09966E-01-2.73761E-03 2.16498E-01 1.45228E-14 9.49829E-15
 -1      4193 1.93774E+01 8.34258E-01-2.54753E-03 2.41995E-01 6.36947E-14 4.47581E-14
 -1      4194 1.92817E+01 8.82476E-01 8.98662E-03 1.05118E-01 5.58350E-14 2.89428E-15
 -1      4195 1.91373E+01 7.77487E-01-4.49051E-03 4.15968E-01 1.40230E-13-8.77423E-14
 -1      4196 1.90423E+01 8.20495E-01 5.08132E-04 4.76565E-01 8.08660E-14-2.89921E-14
 -1      4197 1.88778E+01 9.09342E-01 9.58586E-03 4.04272E-01-3.99714E-14-5.03627E-14
 -1      4198 1.91338E+01 8.13716E-01 7.62998E-03 3.06153E-01 1.23330E-13-4.21120E-15
 -1      4199 2.01167E+01 1.06108E+00 1.66381E-03 5.25259E-02-1.97580E-14-1.50033E-14
 -1      4200 2.00637E+01 1.00134E+00 8.96447E-04 1.08595E-02-1.71191E-14 3.37013E-14
 -1      4201 2.00654E+01 9.59236E-01-1.67923E-03 6.66596E-02-2.20585E-14-9.11895E-16
 -1      4202 2.00081E+01 8.88795E-01-1.11625E-05 1.02083E-01-1.48777E-14-9.37002E-15
 -1      4203 2.01423E+01 1.01708E+00 2.91203E-03-9.73819E-02 4.30248E-14-4.37233E-14
 -1      4204 2.00636E+01 9.83653E-01-2.29955E-03-3.16058E-02 3.27230E-15 1.24695E-14
 -1      4205 1.82212E+01 7.31582E-01 9.57715E-03-1.14047E+00-3.75539E-14-1.22594E-14
 -1      4206 1.83509E+01 7.61617E-01-1.11533E-02-1.00449E+00-1.22271E-14-4.63334E-15
 -1      4207 1.72410E+01 6.80290E-01-1.33182E-02 1.47842E+00-1.42186E-13 1.10938E-13
 -1      4208 1.82796E+01 3.55181E-01-4.92030E-03-1.68008E+00-6.47246E-14 4.00254E-14
 -1      4209 1.96675E+01 6.91323E-01 2.29277E-03-5.22077E-01 3.36203E-15-1.37039E-14
 -1      4210 1.81799E+01 1.01192E+00 1.45996E-02 7.18148E-01 1.89421E-15-1.22270E-13
 -1      4211 1.77313E+01 9.99911E-01 2.11935E-02 9.33862E-01 1.61175E-14-1.24834E-13
 -1      4212 1.78387E+01 7.91106E-01-1.49544E-02 1.18898E+00-2.24270E-14-8.11509E-15
 -1      4213 1.76839E+01 7.27732E-01-2.14631E-03 1.34853E+00-4.12576E-14 9.34140E-14
 -1      4214 1.56742E+01 1.01047E+00 1.29636E-02-7.21697E-01-8.33999E-14-4.66943E-14
 -1      4215 1.62602E+01 9.18744E-01-1.05768E-02-9.59791E-01-7.68915E-14-2.32314E-14
 -1      4216 1.58868E+01 1.05834E+00-8.40780E-03-3.31066E-01-1.19729E-13-6.03005E-14
 -1      4217 1.78112E+01 4.57808E-01 8.43890E-03-1.64458E+00-1.12070E-13 2.26659E-14
 -1      4218 1.78809E+01 6.28319E-01-1.21047E-02-1.38320E+00-7.19105E-14-3.21993E-14
 -1      4219 1.77452E+01 8.47578E-01 1.68120E-02-1.09135E+00-4.88687E-14-1.63064E-15
 -1      4220 1.99394E+01 8.19372E-01 2.86600E-03 2.23824E-01-2.47510E-14-4.84824E-14
 -1      4221 1.88698E+01 7.14095E-01 5.78454E-03-1.00564E+00-1.27167E-14 1.37599E-14
 -1      4222 1.89522E+01 7.80634E-01-5.42638E-03-7.11276E-01-1.02439E-14 4.48955E-15
 -1      4223 1.91006E+01 7.76084E-01-6.23413E-03-6.25076E-01 9.60771E-15 8.59078E-15
 -1      4224 1.91112E+01 8.46122E-01 8.56154E-03-4.55540E-01 1.89432E-14-3.48111E-14
 -1      4225 1.92821E+01 7.62494E-01 1.98111E-04-5.60066E-01 2.25395E-14-1.42893E-14
 -1      4226 1.94046E+01 7.44837E-01-3.96943E-03-4.95327E-01 1.59681E-14 7.74451E-15
 -1      4227 1.98710E+01 2.56041E-01-6.02375E-04 7.70241E-02 2.44684E-13 3.77708E-13
 -1      4228 1.98465E+01 2.88888E-01-1.41073E-04 9.22316E-02 3.59747E-13 4.52638E-13
 -1      4229 1.98964E+01 2.26150E-01-1.42427E-04 7.08613E-02 2.64255E-13 3.86090E-13
 -1      4230 1.68749E+01 7.78780E-01 1.52825E-02-1.31269E+00-9.15885E-14 6.36080E-15
 -1      4231 1.71974E+01 5.28739E-01-2.36048E-03-1.66997E+00-9.51842E-14 2.61184E-14
 -1      4232 1.98550E+01 2.67001E-01-5.72762E-04-2.79226E-04 2.01156E-13 4.58874E-14
 -1      4233 1.97771E+01 7.29098E-01-7.85930E-04-3.49049E-01 3.55632E-15-4.20757E-15
 -1      4234 1.98663E+01 7.43062E-01-1.83651E-03-2.95928E-01-1.37585E-16-2.54247E-14
 -1      4235 1.97688E+01 7.96544E-01-3.13441E-03 1.76817E-01-2.68260E-14-1.79628E-14
 -1      4236 1.96570E+01 7.98128E-01-2.00572E-03 2.05889E-01-1.84002E-14 3.28792E-15
 -1      4237 1.95814E+01 8.36511E-01 7.03731E-03 9.90031E-02 2.94075E-14 4.52718E-14
 -1      4238 1.98154E+01 3.21323E-01 8.91764E-04 7.08586E-02 2.41925E-13 1.79049E-14
 -1      4239 1.68590E+01 9.07194E-01 3.28170E-03-1.00866E+00-1.16360E-13-4.16928E-14
 -1      4240 1.99567E+01 7.72504E-01-1.28638E-03-2.60038E-01 9.52304E-15-3.01945E-14
 -1      4241 2.00253E+01 8.19271E-01-1.26772E-03-2.04131E-01 2.24282E-14-4.57567E-14
 -1      4242 1.98900E+01 8.07395E-01 3.96840E-03-2.05505E-01-2.79280E-15-2.55294E-14
 -1      4243 1.98732E+01 2.52662E-01 4.97637E-04 5.54898E-02 4.30038E-13 4.16311E-14
 -1      4244 1.85549E+01 9.65424E-01-1.10556E-02-1.24597E-01 7.38258E-15-5.33962E-14
 -1      4245 1.82915E+01 1.00913E+00-1.07955E-02-1.32524E-01 1.64449E-14-2.58027E-14
 -1      4246 1.80346E+01 9.85133E-01-5.97538E-03-3.99845E-01-1.89855E-15-2.40335E-14
 -1      4247 1.76813E+01 9.93086E-01-1.86095E-02-4.45632E-01 1.37930E-14-3.29968E-14
 -1      4248 1.98632E+01 2.60834E-01-1.75859E-04 4.16272E-02 5.02790E-13-2.08351E-14
 -1      4249 1.99409E+01 8.43316E-01-2.66300E-03 1.21442E-01-2.63148E-14-8.28019E-15
 -1      4250 1.98571E+01 8.13648E-01-7.76934E-04 1.52653E-01-4.59451E-14-1.88810E-14
 -1      4251 1.97969E+01 8.38077E-01 5.77299E-03 6.94537E-02-1.75049E-14 2.67326E-14
 -1      4252 1.99456E+01 8.87206E-01 4.46438E-03 3.03969E-02-1.76674E-14 3.39672E-14
 -1      4253 1.64723E+01 1.06585E+00-1.75494E-02-3.31512E-01-1.08652E-13-8.68212E-14
 -1      4254 1.70740E+01 9.62324E-01 2.68949E-02 1.14039E+00-8.97998E-14 1.69527E-13
 -1      4255 1.84279E+01 1.02537E+00-1.05180E-02 2.14506E-01-6.12315E-14 1.63167E-13
 -1      4256 1.82453E+01 1.06422E+00-6.41313E-03 2.78305E-01-1.97449E-14 1.39943E-13
 -1      4257 1.86376E+01 9.83814E-01-5.13811E-03 1.94396E-01-7.14599E-14 1.49396E-13
 -1      4258 1.87861E+01 9.32607E-01-8.04590E-03 1.48174E-01-1.10994E-13 1.95633E-13
 -1      4259 1.89511E+01 8.81203E-01-4.08976E-03 1.36265E-01-5.48896E-14 2.31971E-13
 -1      4260 1.90713E+01 8.23881E-01-6.23887E-03 1.02131E-01 3.50005E-15 3.56810E-13
 -1      4261 1.92013E+01 7.68293E-01-3.26077E-03 9.57542E-02 3.06906E-14 3.50819E-13
 -1      4262 1.92979E+01 7.09695E-01-4.88652E-03 7.01584E-02-5.91553E-14 3.32959E-13
 -1      4263 1.94000E+01 6.54202E-01-2.58982E-03 6.74131E-02-2.82790E-15 2.84803E-13
 -1      4264 1.94768E+01 5.97832E-01-3.83197E-03 4.80049E-02-3.43127E-14 1.34203E-13
 -1      4265 1.95565E+01 5.45388E-01-2.02301E-03 4.75047E-02-2.18646E-14-7.84014E-14
 -1      4266 1.96167E+01 4.93578E-01-2.94788E-03 3.27412E-02-1.06697E-14-1.80961E-13
 -1      4267 1.96785E+01 4.46001E-01-1.46018E-03 3.35108E-02-1.03066E-13-2.14182E-13
 -1      4268 1.97252E+01 4.00661E-01-1.88713E-03 2.25158E-02-2.81198E-14-2.63202E-13
 -1      4269 1.97718E+01 3.58580E-01-8.98787E-04 2.31444E-02 4.14348E-15-2.42520E-13
 -1      4270 1.73377E+01 9.65579E-01-9.92644E-03-6.25327E-01-3.96592E-14-7.44467E-14
 -1      4271 1.79758E+01 1.09048E+00-1.33546E-02 3.11167E-01 1.33479E-14 1.54492E-14
 -1      4272 1.68613E+01 1.08668E+00-1.87670E-02 6.14426E-01-2.92112E-14 3.67751E-14
 -1      4273 1.87372E+01 8.37309E-01-3.57767E-03-6.41491E-01-2.92817E-14-2.76947E-14
 -1      4274 1.87259E+01 9.27690E-01 1.05549E-02-4.39700E-01-1.86103E-16-2.40856E-14
 -1      4275 2.01033E+01 9.34163E-01-8.35995E-04-1.42090E-01 2.41058E-14-4.89022E-14
 -1      4276 1.98228E+01 3.04110E-01-6.42263E-04 5.33925E-03 1.29663E-13-1.48942E-13
 -1      4277 1.98509E+01 2.76424E-01 6.70988E-04 3.28266E-02 4.01651E-13-1.82461E-13
 -1      4278 1.95517E+01 7.33594E-01-3.46603E-04-4.45785E-01 1.99813E-15-6.60428E-16
 -1      4279 1.96586E+01 7.25520E-01-2.78190E-03-3.89927E-01 1.46524E-14 1.09871E-14
 -1      4280 1.94258E+01 8.01673E-01 7.05055E-03-3.56161E-01 3.04173E-16-2.34590E-14
 -1      4281 1.85718E+01 8.42434E-01 2.89248E-03-7.35946E-01-1.19450E-14-1.79225E-14
 -1      4282 1.77493E+01 1.10621E+00-8.15286E-03 4.00575E-01-3.12468E-14 4.29701E-14
 -1      4283 1.82673E+01 9.47602E-01 8.87001E-03-6.10327E-01 3.51303E-15-5.23633E-14
 -1      4284 1.98328E+01 2.96821E-01-2.22178E-04 5.11446E-02 5.02852E-13-1.89182E-13
 -1      4285 1.74632E+01 1.10432E+00-1.82047E-02 4.52206E-01 5.81501E-15 7.50947E-14
 -1      4286 1.97946E+01 3.32187E-01-1.35494E-03 2.20166E-03 1.60594E-13-3.48608E-13
 -1      4287 2.00570E+01 9.42257E-01 1.89128E-03-1.14665E-01 1.52975E-14-2.51221E-14
 -1      4288 1.93228E+01 8.24742E-01-5.41251E-03-1.45578E-01 7.99171E-15 1.17609E-14
 -1      4289 1.91507E+01 8.54886E-01-6.16095E-03-1.54274E-01 1.15522E-14-4.79404E-14
 -1      4290 1.97997E+01 3.37800E-01 1.28924E-03 6.13578E-02 1.55300E-13-2.11142E-13
 -1      4291 1.99831E+01 8.75927E-01-1.06138E-03-7.79688E-02 1.30687E-15 9.12233E-15
 -1      4292 1.99138E+01 8.38567E-01-2.41028E-03-6.36759E-02-3.49655E-17 8.94543E-15
 -1      4293 1.72100E+01 1.10197E+00-1.15776E-02 5.42637E-01 1.46097E-14 2.83137E-14
 -1      4294 1.87767E+01 9.22890E-01-2.04786E-03-2.18912E-01 8.85945E-15-3.74833E-14
 -1      4295 1.89754E+01 8.82485E-01-5.02561E-03-1.99971E-01 3.34394E-14-5.29609E-14
 -1      4296 1.96831E+01 7.80939E-01 4.99989E-03-2.75649E-01-2.24660E-15 4.83934E-15
 -1      4297 1.96099E+01 7.95591E-01-4.20006E-03-1.05250E-01-1.31481E-14 1.75482E-14
 -1      4298 1.97308E+01 7.98928E-01-2.94849E-03-7.46174E-02-8.02898E-15 2.25692E-14
 -1      4299 1.94706E+01 8.08112E-01-4.74240E-03-1.08093E-01 9.65344E-15-4.08636E-15
 -1      4300 1.98185E+01 8.07629E-01-3.58659E-03-9.28409E-02-1.11258E-14 4.68744E-15
 -1      4301 1.69192E+01 9.55338E-01-1.30060E-02-7.10482E-01-9.33303E-14-4.57950E-14
 -3
    1PSTEP                         3           1           1          
  100CL  101 1.000000000        4301                     0    1           1
 -4  TOSTRAIN    6    1
 -5  EXX         1    4    1    1
 -5  EYY         1    4    2    2
 -5  EZZ         1    4    3    3
 -5  EXY         1    4    1    2
 -5  EYZ         1    4    2    3
 -5  EZX         1    4    3    1
 -1         1 2.25726E-05 2.42102E-05-2.21352E-05 4.26700E-05-7.31794E-18-5.75474E-18
 -1         2 3.66161E-05-1.10610E-04 1.98377E-05 5.13060E-08-3.26232E-18 5.12005E-19
 -1         3 9.52362E-05-2.85720E-05-2.85656E-05 1.82377E-09-2.27250E-18-2.24839E-18
 -1         4 9.52361E-05-2.85722E-05-2.85656E-05-1.44571E-09 1.74635E-19 1.46633E-18
 -1         5 1.42562E-04-2.13410E-05-4.23435E-05 3.83266E-05-1.19167E-19 8.25603E-18
 -1         6 1.44586E-04 2.56384E-10-4.39910E-05-5.32134E-05-4.12823E-19 8.13787E-18
 -1         7 9.04254E-05-5.21462E-07-3.89681E-05-2.90313E-05-7.33742E-20 2.23326E-18
 -1         8 8.51179E-05 7.77960E-08-3.63222E-05-2.00122E-05-9.63235E-20 2.32858E-19
 -1         9 8.29033E-05 6.99446E-08-3.53798E-05-1.53378E-05-9.67073E-20-8.59538E-19
 -1        10 8.19006E-05 3.46976E-08-3.49320E-05-1.17611E-05-6.13768E-20-1.48977E-18
 -1        11 8.13819E-05 1.66036E-08-3.47087E-05-8.71473E-06-5.58016E-20-1.82881E-18
 -1        12 8.10944E-05 8.07805E-09-3.45905E-05-6.03926E-06-3.35686E-20-1.94984E-18
 -1        13 8.09318E-05 4.62759E-09-3.45266E-05-3.52571E-06-7.98229E-21-1.98764E-18
 -1        14 8.08590E-05 3.33414E-09-3.44987E-05-1.12886E-06-5.57789E-21-1.96873E-18
 -1        15 8.08604E-05 3.33325E-09-3.44991E-05 1.23182E-06 2.34204E-20-1.98247E-18
 -1        16 8.09363E-05 4.56353E-09-3.45279E-05 3.63422E-06 1.72451E-20-1.96868E-18
 -1        17 8.11029E-05 7.31696E-09-3.45926E-05 6.16083E-06 2.34307E-20-1.87760E-18
 -1        18 8.13943E-05 1.56656E-08-3.47116E-05 8.85630E-06 5.51862E-20-1.63274E-18
 -1        19 8.19201E-05 3.38666E-08-3.49384E-05 1.19392E-05 7.30764E-20-1.28928E-18
 -1        20 8.29223E-05 7.50285E-08-3.53912E-05 1.55677E-05 9.94470E-20-7.07215E-19
 -1        21 8.50814E-05 1.60215E-07-3.63598E-05 2.02222E-05 1.26367E-19 4.83461E-19
 -1        22 9.14403E-05-1.08898E-07-3.86415E-05 2.77841E-05 1.59877E-20 2.92901E-18
 -1        23 1.12473E-04-3.79605E-05-3.52499E-05-4.34945E-06-2.49769E-19 6.60876E-18
 -1        24 9.25667E-05-2.76283E-05-2.89222E-05 3.93034E-07-2.30783E-20 5.44048E-18
 -1        25 8.90777E-05-2.68421E-05-2.69156E-05 3.73689E-07-5.07740E-20 4.25794E-18
 -1        26 8.81946E-05-2.65451E-05-2.64472E-05 2.01679E-07 3.80197E-20 3.16526E-18
 -1        27 8.85090E-05-2.66109E-05-2.65279E-05 1.38329E-07 4.18020E-20 2.80314E-18
 -1        28 8.94397E-05-2.68677E-05-2.68186E-05 1.01229E-07-6.26817E-20 2.67011E-18
 -1        29 9.07464E-05-2.72473E-05-2.72194E-05 7.88304E-08-1.14145E-20 1.74915E-18
 -1        30 9.23314E-05-2.77166E-05-2.77007E-05 6.57351E-08-1.63015E-20 1.27609E-18
 -1        31 9.41729E-05-2.82661E-05-2.82585E-05 5.98380E-08-5.51467E-20 9.02471E-19
 -1        32 9.62959E-05-2.89014E-05-2.89013E-05 6.06583E-08-1.05727E-19 3.62881E-19
 -1        33 9.87546E-05-2.96378E-05-2.96453E-05 6.85322E-08 1.29208E-19 1.68646E-20
 -1        34 1.01615E-04-3.04940E-05-3.05095E-05 8.40740E-08-1.72059E-19-4.06996E-19
 -1        35 1.04929E-04-3.14849E-05-3.15079E-05 1.07456E-07 2.23969E-20-2.83425E-19
 -1        36 1.08698E-04-3.26097E-05-3.26365E-05 1.37013E-07-7.12099E-21-7.29242E-21
 -1        37 1.12805E-04-3.38331E-05-3.38533E-05 1.66580E-07-6.17780E-20 3.23732E-19
 -1        38 1.16924E-04-3.50585E-05-3.50507E-05 1.81152E-07-1.05363E-19-2.08450E-21
 -1        39 1.20409E-04-3.60957E-05-3.60258E-05 1.51970E-07 2.10608E-20-1.31019E-19
 -1        40 1.22229E-04-3.66404E-05-3.64720E-05 3.66009E-08-2.45982E-19-2.14561E-19
 -1        41 1.21080E-04-3.63063E-05-3.60331E-05-2.03097E-07 5.55617E-20-1.05569E-18
 -1        42 1.15889E-04-3.47683E-05-3.44637E-05-5.51140E-07-7.85557E-20-1.21970E-18
 -1        43 1.06773E-04-3.20461E-05-3.18882E-05-8.70419E-07-1.82088E-19-5.93188E-19
 -1        44 9.59992E-05-2.88059E-05-2.89856E-05-9.10944E-07 4.42719E-19 6.28128E-19
 -1        45 8.77760E-05-2.63201E-05-2.68392E-05-5.02036E-07-2.30499E-19 8.99575E-19
 -1        46 8.60515E-05-2.57977E-05-2.63946E-05 1.98101E-07-1.78668E-19-8.05058E-19
 -1        47 9.17281E-05-2.75173E-05-2.78625E-05 7.80220E-07-7.36009E-20-8.84249E-19
 -1        48 1.01965E-04-3.06039E-05-3.05794E-05 9.38102E-07 1.11293E-19-3.17373E-19
 -1        49 1.12313E-04-3.37038E-05-3.34397E-05 7.13642E-07-2.63498E-19-1.98759E-18
 -1        50 1.19487E-04-3.58372E-05-3.55354E-05 3.52737E-07 3.28071E-19-3.32852E-18
 -1        51 1.22477E-04-3.67191E-05-3.65009E-05 5.63537E-08 1.04597E-19-7.07775E-19
 -1        52 1.21966E-04-3.65620E-05-3.64522E-05-1.11341E-07-8.63750E-20 3.67080E-19
 -1        53 1.19256E-04-3.57550E-05-3.57251E-05-1.72319E-07 1.43972E-19-8.76150E-20
 -1        54 1.15545E-04-3.46519E-05-3.46646E-05-1.71069E-07 3.81597E-19-1.67642E-18
 -1        55 1.11663E-04-3.34970E-05-3.35251E-05-1.43089E-07-5.45954E-19-4.86378E-18
 -1        56 1.08077E-04-3.24285E-05-3.24574E-05-1.08925E-07 3.02722E-19-4.40313E-18
 -1        57 1.04997E-04-3.15086E-05-3.15323E-05-7.79024E-08 2.45611E-20-1.73287E-18
 -1        58 1.02473E-04-3.07530E-05-3.07703E-05-5.30340E-08-6.79680E-20-1.80949E-18
 -1        59 1.00472E-04-3.01530E-05-3.01647E-05-3.44182E-08-5.17931E-19-1.98138E-18
 -1        60 9.89285E-05-2.96890E-05-2.96965E-05-2.10851E-08 3.05924E-19-8.58451E-19
 -1        61 9.77641E-05-2.93384E-05-2.93428E-05-1.18505E-08 1.62037E-19 8.98658E-19
 -1        62 9.69049E-05-2.90792E-05-2.90816E-05-5.64737E-09-3.64410E-20 4.55060E-19
 -1        63 9.62854E-05-2.88920E-05-2.88930E-05-1.61753E-09-3.68272E-19-2.83209E-18
 -1        64 9.58506E-05-2.87603E-05-2.87605E-05 8.94367E-10-3.13553E-19-4.38551E-18
 -1        65 9.55558E-05-2.86708E-05-2.86705E-05 2.37751E-09 1.70967E-19-3.57774E-18
 -1        66 9.53657E-05-2.86128E-05-2.86124E-05 3.19809E-09 5.96686E-19-1.98672E-18
 -1        67 9.52529E-05-2.85782E-05-2.85778E-05 3.64046E-09 2.16874E-19 3.34089E-19
 -1        68 9.51968E-05-2.85607E-05-2.85605E-05 3.94973E-09-6.00853E-19 2.80151E-18
 -1        69 9.51817E-05-2.85556E-05-2.85556E-05 4.34267E-09 2.58274E-22 2.51420E-18
 -1        70 9.51950E-05-2.85591E-05-2.85588E-05 4.91127E-09 5.17432E-19 3.04511E-18
 -1        71 9.52234E-05-2.85679E-05-2.85647E-05 4.86568E-09 3.20326E-19 4.24261E-18
 -1        72 1.01738E-04-3.04509E-05-3.40135E-05-1.92666E-06 4.11076E-20 7.74103E-18
 -1        73 9.23355E-05-2.74481E-05-2.88347E-05-3.32218E-07 5.58678E-20 6.15919E-18
 -1        74 8.90749E-05-2.66942E-05-2.69621E-05-1.22051E-07 1.06478E-19 4.82633E-18
 -1        75 8.82343E-05-2.64979E-05-2.64947E-05-8.96209E-08-2.68664E-20 3.64883E-18
 -1        76 8.85515E-05-2.65914E-05-2.65577E-05-6.93476E-08 8.87838E-20 2.84892E-18
 -1        77 8.94744E-05-2.68595E-05-2.68371E-05-5.47526E-08 1.15103E-19 2.43930E-18
 -1        78 9.07611E-05-2.72396E-05-2.72279E-05-4.43647E-08-1.16120E-19 2.96797E-18
 -1        79 9.23057E-05-2.76997E-05-2.76951E-05-3.72356E-08 1.20716E-19 3.30689E-18
 -1        80 9.40713E-05-2.82271E-05-2.82285E-05-3.33589E-08-1.41141E-19 2.40784E-18
 -1        81 9.60583E-05-2.88212E-05-2.88284E-05-3.33708E-08 2.46212E-19 1.61512E-18
 -1        82 9.82827E-05-2.94861E-05-2.94991E-05-3.82671E-08-1.14345E-20 8.84431E-19
 -1        83 1.00755E-04-3.02246E-05-3.02423E-05-4.91311E-08 7.86631E-20 8.88514E-19
 -1        84 1.03453E-04-3.10298E-05-3.10491E-05-6.66359E-08 1.70203E-19-1.76921E-19
 -1        85 1.06286E-04-3.18751E-05-3.18889E-05-9.00349E-08-1.39619E-20-9.69270E-19
 -1        86 1.09053E-04-3.27011E-05-3.26967E-05-1.15348E-07-8.67812E-20-1.74621E-19
 -1        87 1.11392E-04-3.34024E-05-3.33611E-05-1.32775E-07-2.73902E-19 4.54324E-19
 -1        88 1.12766E-04-3.38206E-05-3.37210E-05-1.24469E-07 2.86370E-21-2.96540E-19
 -1        89 1.12501E-04-3.37565E-05-3.35862E-05-6.59126E-08 4.93715E-19-2.32171E-18
 -1        90 1.09970E-04-3.30204E-05-3.27967E-05 6.31913E-08-2.24161E-19-2.66788E-18
 -1        91 1.04948E-04-3.15342E-05-3.13246E-05 2.54362E-07-4.44428E-20 5.90276E-20
 -1        92 9.80529E-05-2.94654E-05-2.93802E-05 4.44394E-07-1.00953E-20 1.57373E-18
 -1        93 9.09595E-05-2.73068E-05-2.74393E-05 5.24421E-07 1.64397E-19-1.55960E-19
 -1        94 8.59976E-05-2.57690E-05-2.61131E-05 4.08839E-07 1.75066E-19-2.70811E-18
 -1        95 8.50822E-05-2.54581E-05-2.58778E-05 1.17498E-07-2.59144E-19-1.83930E-18
 -1        96 8.86005E-05-2.65133E-05-2.68260E-05-2.10160E-07 1.68678E-19 6.82788E-20
 -1        97 9.51633E-05-2.85117E-05-2.86088E-05-4.22702E-07 1.13511E-19 4.33840E-19
 -1        98 1.02464E-04-3.07371E-05-3.06365E-05-4.59443E-07-1.56042E-19-5.94776E-19
 -1        99 1.08466E-04-3.25599E-05-3.23558E-05-3.62776E-07-4.23985E-19-6.10856E-19
 -1       100 1.12124E-04-3.36627E-05-3.34527E-05-2.16301E-07-1.25742E-19 3.86929E-19
 -1       101 1.13380E-04-3.40343E-05-3.38750E-05-8.42905E-08 2.64127E-19-1.62684E-18
 -1       102 1.12762E-04-3.38407E-05-3.37458E-05 6.33557E-09 2.58771E-20-2.85380E-18
 -1       103 1.10967E-04-3.32958E-05-3.32545E-05 5.58301E-08-1.02106E-19-1.03773E-18
 -1       104 1.08612E-04-3.25852E-05-3.25795E-05 7.51411E-08 1.25332E-19-8.75819E-20
 -1       105 1.06138E-04-3.18413E-05-3.18549E-05 7.61039E-08 2.76991E-19-6.09103E-19
 -1       106 1.03815E-04-3.11440E-05-3.11659E-05 6.77708E-08-1.77712E-19-1.66726E-18
 -1       107 1.01781E-04-3.05342E-05-3.05576E-05 5.59190E-08 6.57978E-20-4.43205E-18
 -1       108 1.00086E-04-3.00260E-05-3.00475E-05 4.37657E-08 2.48742E-19-4.74509E-18
 -1       109 9.87244E-05-2.96178E-05-2.96360E-05 3.28568E-08-3.78586E-19-2.17824E-18
 -1       110 9.76643E-05-2.93000E-05-2.93147E-05 2.37655E-08-2.70817E-19-2.84564E-18
 -1       111 9.68621E-05-2.90595E-05-2.90708E-05 1.65515E-08 3.14910E-19-4.30766E-18
 -1       112 9.62720E-05-2.88824E-05-2.88910E-05 1.10338E-08-3.23699E-19-2.34350E-18
 -1       113 9.58509E-05-2.87561E-05-2.87623E-05 6.94052E-09 2.93722E-19-6.16918E-19
 -1       114 9.55616E-05-2.86692E-05-2.86737E-05 3.98420E-09-1.07102E-18 2.01294E-18
 -1       115 9.53727E-05-2.86124E-05-2.86156E-05 1.88714E-09 6.79339E-19-1.70658E-18
 -1       116 9.52593E-05-2.85783E-05-2.85806E-05 3.90157E-10-5.94492E-20-3.26124E-18
 -1       117 9.52019E-05-2.85608E-05-2.85626E-05-7.30237E-10 6.29514E-19-7.12762E-18
 -1       118 9.51853E-05-2.85557E-05-2.85571E-05-1.79376E-09-1.13634E-19-7.79814E-18
 -1       119 9.51976E-05-2.85591E-05-2.85598E-05-3.33852E-09 5.24174E-19-9.75487E-18
 -1       120 9.52237E-05-2.85674E-05-2.85653E-05-4.81427E-09 4.42497E-19-8.01094E-18
 -1       121 9.52411E-05-2.85853E-05-2.85655E-05-5.64471E-09-6.50629E-18 6.93706E-19
 -1       122 9.52484E-05-2.86087E-05-2.85610E-05-3.64804E-09-4.55142E-18 4.92350E-19
 -1       123 9.52499E-05-2.86138E-05-2.85601E-05-1.39154E-09 1.24316E-18-6.55183E-19
 -1       124 9.52448E-05-2.85967E-05-2.85648E-05 3.71593E-10-1.33560E-18 4.52793E-19
 -1       125 9.52350E-05-2.85635E-05-2.85740E-05 1.33112E-09 6.91016E-20-2.34336E-18
 -1       126 9.52237E-05-2.85256E-05-2.85846E-05 1.54872E-09-6.75720E-18-7.96464E-19
 -1       127 9.52140E-05-2.84926E-05-2.85940E-05 1.16780E-09-6.93335E-18 1.18763E-18
 -1       128 9.52085E-05-2.84741E-05-2.85992E-05 3.95545E-10-6.78434E-18-1.18854E-18
 -1       129 9.52088E-05-2.84750E-05-2.85989E-05-5.06282E-10-3.77776E-18 1.13632E-18
 -1       130 9.52148E-05-2.84952E-05-2.85932E-05-1.26139E-09-3.48809E-19-1.59909E-19
 -1       131 9.52249E-05-2.85294E-05-2.85835E-05-1.61052E-09-2.60072E-18-7.85393E-19
 -1       132 9.52363E-05-2.85679E-05-2.85727E-05-1.33528E-09 7.17879E-20 9.30617E-19
 -1       133 9.52460E-05-2.86008E-05-2.85636E-05-2.90727E-10 4.89631E-18 1.03653E-18
 -1       134 9.52508E-05-2.86168E-05-2.85592E-05 1.44344E-09 5.40608E-18-2.95163E-19
 -1       135 9.52492E-05-2.86103E-05-2.85605E-05 5.24275E-09-2.23098E-18-1.42616E-18
 -1       136 9.52408E-05-2.85860E-05-2.85651E-05 7.94800E-09-5.13804E-18 2.41206E-19
 -1       137 2.57281E-05-8.67450E-05 1.53445E-05-2.34724E-05 3.58486E-18 7.24160E-19
 -1       138 7.65966E-06-3.29075E-05 2.90342E-06-1.74506E-05 8.97177E-18 3.87751E-18
 -1       139 1.12190E-05 1.60950E-05-1.52830E-05 2.40051E-05 1.07586E-17 8.69225E-18
 -1       140 5.88662E-05 2.72732E-05-3.55184E-05 7.88358E-05 1.06565E-17 1.03469E-17
 -1       141 1.48079E-04-4.22146E-06-5.52615E-05 1.12459E-04 5.11989E-18 1.09373E-17
 -1       142 2.43450E-04-5.61177E-05-7.00067E-05 9.52870E-05 2.48096E-18 7.68725E-18
 -1       143 3.01286E-04-9.13316E-05-7.76447E-05 3.04683E-05 4.00250E-19 5.12974E-18
 -1       144 2.90306E-04-8.45192E-05-7.62307E-05-5.40412E-05-1.26181E-19 2.78250E-18
 -1       145 2.12013E-04-3.76071E-05-6.56691E-05-1.08041E-04 3.14630E-18-6.38663E-18
 -1       146 1.09244E-04 1.23180E-05-4.76272E-05-1.03414E-04 6.78050E-18-1.06400E-17
 -1       147 3.39065E-05 2.76746E-05-2.70483E-05-5.68015E-05 9.06791E-18-8.54953E-18
 -1       148 5.04548E-06-2.49429E-06-6.63931E-06-2.06951E-06 8.38139E-18-5.95379E-18
 -1       149 1.43914E-05-5.68114E-05 8.92308E-06 2.43985E-05 4.86155E-18-1.14529E-18
 -1       150 3.19126E-05-1.00756E-04 1.80919E-05 1.69907E-05-6.96685E-19-5.63154E-19
 -1       151 3.47922E-05-1.07773E-04 1.94575E-05-1.08991E-05-5.83902E-18-3.04720E-19
 -1       152 1.87971E-05-7.00273E-05 1.18158E-05-2.60833E-05-9.10560E-18-3.08188E-18
 -1       153 4.63117E-06-1.49906E-05-2.37673E-06-8.44825E-06-9.37454E-18-5.26918E-18
 -1       154 8.95399E-05 1.91754E-05-4.33365E-05 9.57320E-05-6.36545E-18-9.32033E-18
 -1       155 1.88682E-04-2.44929E-05-6.21861E-05 1.13095E-04-3.64478E-18-8.55461E-18
 -1       156 2.77319E-04-7.53052E-05-7.47811E-05 7.56233E-05-7.18707E-19-3.46225E-19
 -1       157 3.12356E-04-9.69589E-05-7.91995E-05-7.08388E-06 5.38157E-19 4.44568E-18
 -1       158 2.67146E-04-6.89379E-05-7.34910E-05-8.41174E-05-1.81731E-18 7.07061E-18
 -1       159 1.67183E-04-1.38661E-05-5.84036E-05-1.12972E-04-4.58033E-18 8.71809E-18
 -1       160 6.95631E-05 2.44576E-05-3.84115E-05-8.50095E-05-8.23104E-18 1.05290E-17
 -1       161 1.17127E-05 1.50362E-05-1.52351E-05-2.37845E-05-1.30053E-17 9.30762E-18
 -1       162 7.49978E-06-3.42981E-05 3.29403E-06 1.94664E-05-1.60720E-17 7.00094E-18
 -1       163 2.65732E-05-8.94784E-05 1.59121E-05 2.42675E-05-8.34878E-18 1.88923E-18
 -1       164 9.48271E-05-1.23930E-05-3.55291E-05-2.20490E-05-1.04713E-18 1.10286E-18
 -1       165 8.93367E-05-8.50000E-06-3.48041E-05-1.70548E-05-1.06414E-18-1.04714E-19
 -1       166 8.66594E-05-6.50184E-06-3.44639E-05-1.32337E-05-8.16957E-19-8.85586E-19
 -1       167 8.52939E-05-5.46801E-06-3.42940E-05-1.00242E-05-6.47340E-19-1.30162E-18
 -1       168 8.44957E-05-4.83781E-06-3.42068E-05-7.24898E-06-4.85275E-19-1.51596E-18
 -1       169 8.40145E-05-4.44613E-06-3.41607E-05-4.68523E-06-3.28216E-19-1.57716E-18
 -1       170 8.37558E-05-4.23035E-06-3.41385E-05-2.28014E-06-8.90290E-20-1.54757E-18
 -1       171 8.36763E-05-4.16378E-06-3.41319E-05 4.96012E-08 1.32599E-19-1.59664E-18
 -1       172 8.37649E-05-4.23956E-06-3.41386E-05 2.38167E-06 3.16150E-19-1.66161E-18
 -1       173 8.40349E-05-4.46690E-06-3.41608E-05 4.79394E-06 3.98045E-19-1.67212E-18
 -1       174 8.45205E-05-4.86684E-06-3.42054E-05 7.32646E-06 5.34298E-19-1.43994E-18
 -1       175 8.53458E-05-5.52468E-06-3.42926E-05 1.01695E-05 8.26865E-19-1.12766E-18
 -1       176 8.67640E-05-6.61205E-06-3.44656E-05 1.34286E-05 1.10609E-18-7.11680E-19
 -1       177 8.94743E-05-8.64074E-06-3.48078E-05 1.72875E-05 1.24452E-18 8.04549E-20
 -1       178 9.57274E-05-1.36494E-05-3.53853E-05 2.16004E-05 1.13158E-18 1.49689E-18
 -1       179 1.05361E-04-2.60573E-05-3.51713E-05 1.84458E-05 7.62369E-19 3.43599E-18
 -1       180 1.03247E-04-2.72741E-05-3.25572E-05-1.19106E-05-8.75435E-19 2.56966E-18
 -1       181 9.71136E-05-2.82904E-05-2.95299E-05-4.51974E-06-7.17741E-19 2.09486E-18
 -1       182 9.37012E-05-2.76820E-05-2.82449E-05-1.52529E-06-5.89446E-19 1.72531E-18
 -1       183 9.24052E-05-2.75119E-05-2.77747E-05-1.02854E-07-3.94643E-19 1.29051E-18
 -1       184 9.21474E-05-2.75210E-05-2.76769E-05 6.77179E-07-2.45876E-19 8.58875E-19
 -1       185 9.25329E-05-2.76750E-05-2.77852E-05 1.16495E-06-3.81410E-19 9.47244E-19
 -1       186 9.33493E-05-2.79340E-05-2.80280E-05 1.51939E-06-2.50900E-19 8.71530E-19
 -1       187 9.44922E-05-2.82761E-05-2.83728E-05 1.82814E-06-3.87415E-19 6.02583E-19
 -1       188 9.59205E-05-2.86938E-05-2.88065E-05 2.14484E-06-3.95712E-19 3.91774E-19
 -1       189 9.76304E-05-2.91901E-05-2.93269E-05 2.50190E-06-2.52105E-19 3.15048E-19
 -1       190 9.96381E-05-2.97751E-05-2.99371E-05 2.91217E-06-3.80582E-19-2.47878E-19
 -1       191 1.01962E-04-3.04621E-05-3.06397E-05 3.36318E-06-4.01658E-20-2.53402E-19
 -1       192 1.04602E-04-3.12640E-05-3.14295E-05 3.80409E-06 9.51365E-20 6.98165E-20
 -1       193 1.07508E-04-3.21865E-05-3.22836E-05 4.12518E-06 1.32944E-20 5.48479E-20
 -1       194 1.10545E-04-3.32169E-05-3.31490E-05 4.13366E-06-2.89534E-20 3.15588E-19
 -1       195 1.13442E-04-3.43035E-05-3.39304E-05 3.54169E-06 4.98939E-20 7.35589E-19
 -1       196 1.15749E-04-3.53189E-05-3.44876E-05 2.00579E-06-1.12589E-19 7.21454E-19
 -1       197 1.16839E-04-3.60102E-05-3.46569E-05-7.13991E-07-6.60884E-20 7.12959E-19
 -1       198 1.16020E-04-3.59749E-05-3.43133E-05-4.41825E-06-2.61177E-19 7.04680E-19
 -1       199 1.12866E-04-3.47736E-05-3.34658E-05-8.05544E-06 1.58134E-19-1.11511E-19
 -1       200 1.07787E-04-3.23222E-05-3.23373E-05-9.68049E-06 8.80897E-19-1.25851E-19
 -1       201 1.02513E-04-2.94403E-05-3.13252E-05-7.46275E-06-1.27981E-20 5.46118E-19
 -1       202 9.96318E-05-2.77729E-05-3.08166E-05-1.56975E-06-1.75918E-19 6.51911E-19
 -1       203 1.00795E-04-2.84461E-05-3.10168E-05 5.17363E-06-5.63806E-20 1.25046E-18
 -1       204 1.05339E-04-3.09990E-05-3.18566E-05 9.25476E-06-3.23562E-19 7.54825E-19
 -1       205 1.10847E-04-3.38223E-05-3.30060E-05 9.23658E-06-5.84145E-19-2.68437E-19
 -1       206 1.15061E-04-3.56436E-05-3.40406E-05 6.25819E-06-5.74682E-19 2.07119E-19
 -1       207 1.16996E-04-3.61820E-05-3.46477E-05 2.41413E-06 9.55423E-19-6.20570E-19
 -1       208 1.16785E-04-3.57881E-05-3.47306E-05-7.87283E-07 4.20148E-19-5.04832E-19
 -1       209 1.15068E-04-3.49133E-05-3.43673E-05-2.80344E-06-5.95778E-19-1.14889E-18
 -1       210 1.12530E-04-3.38819E-05-3.37165E-05-3.72816E-06-1.13456E-18-1.10269E-18
 -1       211 1.09713E-04-3.28733E-05-3.29357E-05-3.88799E-06-1.32730E-18-2.20849E-18
 -1       212 1.06970E-04-3.19699E-05-3.21427E-05-3.60672E-06 7.85305E-19-1.28303E-18
 -1       213 1.04496E-04-3.12001E-05-3.14094E-05-3.12197E-06 1.64679E-18-1.34410E-18
 -1       214 1.02375E-04-3.05655E-05-3.07712E-05-2.58121E-06-4.18234E-19-2.51186E-18
 -1       215 1.00623E-04-3.00553E-05-3.02387E-05-2.06449E-06-2.94196E-19-2.00628E-18
 -1       216 9.92167E-05-2.96535E-05-2.98082E-05-1.60863E-06 7.79559E-19-1.32486E-18
 -1       217 9.81134E-05-2.93431E-05-2.94689E-05-1.22553E-06 5.82105E-19 5.49366E-19
 -1       218 9.72662E-05-2.91077E-05-2.92073E-05-9.14022E-07-5.25775E-19 1.30284E-18
 -1       219 9.66288E-05-2.89325E-05-2.90099E-05-6.66828E-07-1.66138E-18-2.26871E-19
 -1       220 9.61594E-05-2.88049E-05-2.88640E-05-4.74468E-07-4.53864E-19-1.53683E-18
 -1       221 9.58220E-05-2.87142E-05-2.87587E-05-3.27252E-07 1.81316E-18-3.70833E-19
 -1       222 9.55864E-05-2.86519E-05-2.86848E-05-2.16231E-07 7.99701E-19 2.48129E-18
 -1       223 9.54283E-05-2.86108E-05-2.86350E-05-1.33594E-07 6.92625E-19 1.99699E-18
 -1       224 9.53281E-05-2.85855E-05-2.86032E-05-7.28153E-08 1.15365E-18 1.38698E-18
 -1       225 9.52703E-05-2.85718E-05-2.85846E-05-2.87795E-08-1.06336E-19 4.90840E-19
 -1       226 9.52425E-05-2.85667E-05-2.85750E-05 1.58512E-09 1.39210E-18 7.91836E-19
 -1       227 9.52340E-05-2.85684E-05-2.85707E-05 1.83742E-08 5.14174E-19 1.82578E-18
 -1       228 9.93913E-05-2.85268E-05-3.05501E-05 7.03276E-06 8.89120E-19 2.94760E-18
 -1       229 9.44801E-05-2.78060E-05-2.85444E-05 2.56153E-06 7.34907E-19 2.25262E-18
 -1       230 9.23681E-05-2.74711E-05-2.77673E-05 7.07675E-07 6.17368E-19 1.58935E-18
 -1       231 9.16875E-05-2.73816E-05-2.75319E-05-2.26253E-07 4.89102E-19 1.29883E-18
 -1       232 9.18319E-05-2.74737E-05-2.75676E-05-7.58942E-07 1.70947E-19 1.29392E-18
 -1       233 9.24896E-05-2.76934E-05-2.77619E-05-1.10017E-06-2.26291E-19 1.43628E-18
 -1       234 9.34982E-05-2.80047E-05-2.80638E-05-1.35222E-06 1.04497E-19 1.33628E-18
 -1       235 9.47769E-05-2.83892E-05-2.84486E-05-1.57035E-06 4.30309E-19 1.21740E-18
 -1       236 9.62894E-05-2.88399E-05-2.89048E-05-1.78404E-06 5.34754E-19 4.49472E-19
 -1       237 9.80210E-05-2.93562E-05-2.94267E-05-2.00317E-06 1.22596E-19 7.75636E-19
 -1       238 9.99585E-05-2.99390E-05-3.00084E-05-2.21737E-06 3.37973E-19 4.31725E-19
 -1       239 1.02070E-04-3.05853E-05-3.06378E-05-2.39141E-06 6.51155E-19 3.55751E-19
 -1       240 1.04283E-04-3.12815E-05-3.12890E-05-2.45861E-06 2.94261E-19 3.44448E-19
 -1       241 1.06453E-04-3.19943E-05-3.19145E-05-2.31582E-06-4.11163E-19 3.24076E-19
 -1       242 1.08345E-04-3.26604E-05-3.24398E-05-1.82808E-06-2.08019E-20 1.50759E-19
 -1       243 1.09620E-04-3.31747E-05-3.27635E-05-8.57395E-07 6.66489E-19-3.46339E-19
 -1       244 1.09865E-04-3.33860E-05-3.27730E-05 6.66145E-07 9.13244E-19-4.11575E-19
 -1       245 1.08690E-04-3.31141E-05-3.23808E-05 2.62389E-06-5.51538E-19-4.56854E-19
 -1       246 1.05928E-04-3.22142E-05-3.15810E-05 4.57615E-06-1.04567E-18 1.39959E-21
 -1       247 1.01892E-04-3.07097E-05-3.05024E-05 5.74918E-06-2.85828E-19-1.65721E-19
 -1       248 9.75476E-05-2.89372E-05-2.94141E-05 5.32338E-06 8.10566E-19-7.53727E-20
 -1       249 9.43324E-05-2.75337E-05-2.86500E-05 3.00963E-06 9.64572E-19-6.72097E-19
 -1       250 9.35216E-05-2.71379E-05-2.84720E-05-5.19657E-07-5.35712E-19-1.98157E-18
 -1       251 9.54823E-05-2.79614E-05-2.89464E-05-3.83806E-06-7.97038E-19-1.69638E-18
 -1       252 9.94070E-05-2.96015E-05-2.99091E-05-5.66606E-06-6.35837E-20-7.05056E-19
 -1       253 1.03857E-04-3.13722E-05-3.10493E-05-5.60881E-06 1.67704E-19-1.37067E-19
 -1       254 1.07525E-04-3.27108E-05-3.20494E-05-4.16029E-06 1.36361E-19-4.09147E-19
 -1       255 1.09723E-04-3.34003E-05-3.27035E-05-2.17206E-06-1.42947E-19-1.05138E-18
 -1       256 1.10378E-04-3.34986E-05-3.29495E-05-3.38746E-07 6.59036E-19-9.58077E-19
 -1       257 1.09793E-04-3.31848E-05-3.28375E-05 9.95204E-07 6.08937E-20-9.38781E-19
 -1       258 1.08396E-04-3.26411E-05-3.24724E-05 1.77629E-06-5.86956E-19-6.87959E-19
 -1       259 1.06582E-04-3.20062E-05-3.19659E-05 2.10236E-06 1.74953E-19-1.42370E-18
 -1       260 1.04652E-04-3.13712E-05-3.14093E-05 2.11480E-06 2.99546E-19-8.14496E-19
 -1       261 1.02806E-04-3.07878E-05-3.08660E-05 1.94202E-06 8.62286E-20-7.25875E-19
 -1       262 1.01152E-04-3.02806E-05-3.03734E-05 1.67988E-06 1.23238E-18-4.45218E-19
 -1       263 9.97412E-05-2.98571E-05-2.99493E-05 1.39138E-06 2.79793E-19-1.21952E-18
 -1       264 9.85802E-05-2.95145E-05-2.95981E-05 1.11357E-06-9.18555E-19-1.43726E-18
 -1       265 9.76535E-05-2.92448E-05-2.93164E-05 8.65458E-07 5.86335E-19-1.28378E-18
 -1       266 9.69334E-05-2.90376E-05-2.90966E-05 6.54571E-07 1.25427E-19 6.16588E-19
 -1       267 9.63881E-05-2.88824E-05-2.89296E-05 4.81647E-07-1.57565E-18 1.65184E-18
 -1       268 9.59860E-05-2.87692E-05-2.88060E-05 3.43779E-07-3.07663E-19 2.07223E-18
 -1       269 9.56982E-05-2.86891E-05-2.87172E-05 2.36372E-07-4.28088E-19 1.40743E-18
 -1       270 9.54996E-05-2.86345E-05-2.86556E-05 1.54306E-07 3.11293E-18-7.63300E-19
 -1       271 9.53693E-05-2.85994E-05-2.86151E-05 9.25910E-08 8.26625E-19-2.63470E-18
 -1       272 9.52904E-05-2.85787E-05-2.85903E-05 4.69624E-08 1.49058E-18-2.67623E-18
 -1       273 9.52490E-05-2.85685E-05-2.85771E-05 1.39271E-08-5.53487E-20-1.82460E-18
 -1       274 9.52334E-05-2.85661E-05-2.85714E-05-8.35339E-09 4.85446E-19-2.19521E-18
 -1       275 9.52337E-05-2.85713E-05-2.85690E-05-1.72366E-08-1.65428E-18-1.19191E-18
 -1       276 9.52413E-05-2.85751E-05-2.85710E-05-1.44754E-08-1.02955E-18 2.12242E-18
 -1       277 9.52427E-05-2.85682E-05-2.85747E-05 2.42733E-09-7.76543E-19 2.87470E-18
 -1       278 9.52360E-05-2.85483E-05-2.85804E-05 2.32125E-08-5.92020E-19-1.35444E-18
 -1       279 9.52243E-05-2.85184E-05-2.85883E-05 3.76378E-08-4.17071E-19-1.57066E-19
 -1       280 9.52110E-05-2.84847E-05-2.85971E-05 4.17778E-08-2.69607E-18-4.54948E-18
 -1       281 9.51987E-05-2.84532E-05-2.86053E-05 3.50707E-08-1.75408E-18-3.84341E-19
 -1       282 9.51901E-05-2.84313E-05-2.86110E-05 1.95097E-08-2.57436E-18 1.75063E-18
 -1       283 9.51872E-05-2.84238E-05-2.86130E-05-8.79502E-10-5.21334E-19 7.76095E-19
 -1       284 9.51905E-05-2.84324E-05-2.86108E-05-2.11315E-08-4.78365E-19 1.29522E-18
 -1       285 9.51994E-05-2.84552E-05-2.86048E-05-3.62853E-08-3.81089E-19-5.40029E-19
 -1       286 9.52118E-05-2.84867E-05-2.85965E-05-4.23272E-08-2.15227E-19 1.41832E-18
 -1       287 9.52254E-05-2.85212E-05-2.85875E-05-3.74095E-08 1.38095E-18 3.01867E-18
 -1       288 9.52370E-05-2.85509E-05-2.85798E-05-2.19643E-08 3.12951E-19 1.26687E-18
 -1       289 9.52425E-05-2.85688E-05-2.85743E-05-1.88979E-09-4.29621E-19-3.20023E-18
 -1       290 9.52437E-05-2.85696E-05-2.85745E-05 1.21472E-08-1.09358E-19-3.00519E-18
 -1       291 1.27130E-05-4.85684E-05 1.18580E-05 7.27658E-06-8.31522E-19 3.38623E-18
 -1       292 2.62741E-05-4.20506E-05 4.09888E-06 2.24682E-05 1.80397E-18 4.62078E-18
 -1       293 5.17380E-05-3.49564E-05-8.98278E-06 3.44266E-05 4.45201E-18 4.68187E-18
 -1       294 8.91379E-05-2.97340E-05-2.58244E-05 4.47410E-05 4.50029E-18 4.57101E-18
 -1       295 1.34024E-04-3.06834E-05-4.32162E-05 4.53561E-05 4.70940E-18 4.73640E-18
 -1       296 1.74424E-04-3.20584E-05-5.84734E-05 3.93940E-05 3.08345E-18 4.05877E-18
 -1       297 1.99237E-04-3.36999E-05-6.78142E-05 1.91581E-05 2.37445E-18 2.73486E-18
 -1       298 2.03522E-04-3.23685E-05-7.02279E-05-3.21665E-06 1.52424E-18 1.63197E-18
 -1       299 1.95714E-04-3.46106E-05-6.58388E-05-2.84367E-05 3.94453E-18 1.03042E-18
 -1       300 1.59105E-04-3.20972E-05-5.27373E-05-3.82561E-05 3.44232E-18-8.15481E-19
 -1       301 1.16814E-04-3.11521E-05-3.62138E-05-4.58834E-05 2.93370E-18-3.07473E-18
 -1       302 7.44937E-05-3.34620E-05-1.84705E-05-4.15053E-05 2.96059E-18-3.15319E-18
 -1       303 3.91380E-05-3.83904E-05-2.60530E-06-2.87031E-05 1.92509E-18-3.98532E-18
 -1       304 1.93760E-05-4.42711E-05 7.77474E-06-1.70189E-05 1.03550E-19-3.29697E-18
 -1       305 1.12412E-05-4.94036E-05 1.28223E-05-2.61135E-06-1.52482E-18-2.41923E-18
 -1       306 1.55294E-05-4.39166E-05 9.33562E-06 1.32627E-05-2.66159E-18-2.45841E-18
 -1       307 3.39199E-05-4.11357E-05 4.78936E-07 2.47480E-05-3.36653E-18-1.70454E-18
 -1       308 6.39635E-05-3.37999E-05-1.43657E-05 3.74745E-05-3.43239E-18-1.65627E-18
 -1       309 1.06230E-04-3.03640E-05-3.23539E-05 4.62235E-05-2.33612E-18-3.70492E-18
 -1       310 1.52246E-04-3.27451E-05-4.96233E-05 4.21479E-05-2.59790E-18-1.02300E-18
 -1       311 1.90445E-04-3.49345E-05-6.35829E-05 3.28423E-05-3.16478E-18 5.42101E-20
 -1       312 2.09226E-04-3.56281E-05-7.07781E-05 9.77665E-06-2.56026E-18 1.58273E-18
 -1       313 2.10769E-04-3.73833E-05-7.05364E-05-1.42291E-05-1.84621E-18 4.31224E-18
 -1       314 1.81130E-04-3.35794E-05-6.08061E-05-2.94868E-05-2.59541E-18 4.63878E-18
 -1       315 1.42259E-04-3.15197E-05-4.61035E-05-4.55759E-05-3.43430E-18 3.75977E-18
 -1       316 9.82911E-05-3.54663E-05-2.72120E-05-4.31119E-05-4.44523E-18 2.15506E-18
 -1       317 5.22319E-05-3.59656E-05-8.84692E-06-3.35181E-05-5.49978E-18 2.71093E-18
 -1       318 2.51118E-05-4.37859E-05 4.94257E-06-1.88522E-05-4.42405E-18 5.14213E-18
 -1       319 1.26485E-05-4.92194E-05 1.20903E-05-5.48599E-06-3.27796E-18 3.34673E-18
 -1       320 9.17675E-05-1.43860E-05-3.32262E-05-1.26436E-05-1.01392E-18-2.51575E-19
 -1       321 9.57707E-05-1.91297E-05-3.29082E-05-1.42677E-05-1.09493E-18 5.72005E-19
 -1       322 8.80092E-05-1.01831E-05-3.34085E-05-7.76609E-06-7.26660E-19-1.01621E-18
 -1       323 8.71117E-05-9.17397E-06-3.34492E-05-5.40104E-06-5.02249E-19-1.15054E-18
 -1       324 8.65761E-05-8.57185E-06-3.34739E-05-3.16246E-06-2.06558E-19-1.05325E-18
 -1       325 8.63285E-05-8.29400E-06-3.34853E-05-1.00433E-06 3.77227E-20-1.18635E-18
 -1       326 8.63375E-05-8.30491E-06-3.34845E-05 1.12787E-06 2.73235E-19-1.18297E-18
 -1       327 8.66043E-05-8.60609E-06-3.34715E-05 3.28939E-06 4.29685E-19-1.34198E-18
 -1       328 8.71499E-05-9.22127E-06-3.34455E-05 5.49466E-06 5.70215E-19-1.14771E-18
 -1       329 8.80770E-05-1.02654E-05-3.34024E-05 7.85746E-06 8.85212E-19-7.85980E-19
 -1       330 8.95670E-05-1.19451E-05-3.33326E-05 1.03329E-05 1.18836E-18-4.18530E-19
 -1       331 9.20186E-05-1.47140E-05-3.32109E-05 1.27493E-05 1.40786E-18-1.05151E-19
 -1       332 9.58675E-05-1.94809E-05-3.28438E-05 1.40173E-05 1.37197E-18 7.38441E-19
 -1       333 9.87808E-05-2.44530E-05-3.19414E-05 1.16120E-05 1.16950E-18 1.55609E-18
 -1       334 9.65051E-05-2.68292E-05-2.98308E-05 5.42528E-06 1.00513E-18 1.03204E-18
 -1       335 9.66068E-05-2.60359E-05-3.01995E-05-5.93723E-06-8.67921E-19 7.62640E-19
 -1       336 9.52446E-05-2.70415E-05-2.92036E-05-2.30986E-06-7.71915E-19 7.08013E-19
 -1       337 9.44805E-05-2.74593E-05-2.87074E-05-2.20785E-07-4.55400E-19 5.30216E-19
 -1       338 9.42439E-05-2.77074E-05-2.85072E-05 1.08549E-06-3.22934E-19 2.25287E-19
 -1       339 9.44242E-05-2.79146E-05-2.84991E-05 1.97931E-06-2.82353E-19 3.05791E-19
 -1       340 9.49270E-05-2.81232E-05-2.86263E-05 2.67144E-06-2.55306E-19 1.59782E-19
 -1       341 9.56917E-05-2.83510E-05-2.88567E-05 3.29075E-06-3.67739E-19 2.04734E-19
 -1       342 9.66877E-05-2.86119E-05-2.91717E-05 3.91767E-06-4.02283E-19 2.23111E-20
 -1       343 9.79066E-05-2.89242E-05-2.95600E-05 4.59639E-06-5.59980E-19-1.35292E-19
 -1       344 9.93552E-05-2.93166E-05-3.00127E-05 5.33425E-06-1.08345E-19-5.19440E-20
 -1       345 1.01050E-04-2.98334E-05-3.05184E-05 6.09087E-06-8.40190E-20 1.55104E-19
 -1       346 1.03013E-04-3.05408E-05-3.10586E-05 6.75747E-06 3.20739E-20 2.11881E-19
 -1       347 1.05266E-04-3.15299E-05-3.16043E-05 7.12835E-06 1.26503E-19 5.50280E-19
 -1       348 1.07818E-04-3.29036E-05-3.21156E-05 6.87345E-06-1.08303E-19 6.46351E-20
 -1       349 1.10628E-04-3.47189E-05-3.25504E-05 5.53972E-06 2.24083E-20 1.79984E-19
 -1       350 1.13516E-04-3.68432E-05-3.28846E-05 2.64401E-06 7.12484E-20 9.65043E-19
 -1       351 1.15994E-04-3.87128E-05-3.31470E-05-2.03688E-06 1.42520E-19 1.25594E-18
 -1       352 1.17141E-04-3.91565E-05-3.34451E-05-7.88791E-06-4.42724E-20 1.63139E-18
 -1       353 1.15888E-04-3.67862E-05-3.39156E-05-1.28094E-05 3.83504E-19 1.90936E-18
 -1       354 1.12104E-04-3.14471E-05-3.45912E-05-1.34138E-05 5.77652E-19 7.61901E-19
 -1       355 1.07988E-04-2.59448E-05-3.52167E-05-7.34816E-06-1.77295E-19 7.26992E-19
 -1       356 1.06992E-04-2.46181E-05-3.53497E-05 2.96110E-06 2.69826E-19 1.03257E-18
 -1       357 1.10117E-04-2.87229E-05-3.49073E-05 1.15509E-05-4.32175E-19 5.13193E-19
 -1       358 1.14486E-04-3.46464E-05-3.42358E-05 1.39249E-05-1.51509E-18-3.57536E-19
 -1       359 1.17038E-04-3.85077E-05-3.36818E-05 1.05650E-05 1.31685E-19-9.64368E-19
 -1       360 1.16922E-04-3.92095E-05-3.33326E-05 4.79634E-06-3.62222E-20 4.65122E-19
 -1       361 1.14966E-04-3.78123E-05-3.30931E-05-5.21757E-07-2.64417E-20-9.79022E-20
 -1       362 1.12257E-04-3.57101E-05-3.28267E-05-4.16653E-06-3.87597E-19-9.86879E-19
 -1       363 1.09475E-04-3.37386E-05-3.24709E-05-6.07372E-06-1.02195E-18-6.20026E-20
 -1       364 1.06918E-04-3.21917E-05-3.20308E-05-6.66084E-06-2.05582E-18 3.39641E-19
 -1       365 1.04679E-04-3.10757E-05-3.15440E-05-6.41623E-06 8.01302E-20 8.19944E-19
 -1       366 1.02762E-04-3.02984E-05-3.10529E-05-5.73228E-06 5.49385E-19 3.83357E-19
 -1       367 1.01150E-04-2.97612E-05-3.05906E-05-4.87383E-06-2.41366E-19-3.33317E-19
 -1       368 9.98130E-05-2.93879E-05-3.01775E-05-3.99933E-06-5.14298E-19-8.89450E-19
 -1       369 9.87223E-05-2.91258E-05-2.98227E-05-3.19270E-06 1.07380E-18 7.47230E-19
 -1       370 9.78465E-05-2.89404E-05-2.95273E-05-2.49082E-06 2.14865E-18 1.70476E-18
 -1       371 9.71547E-05-2.88091E-05-2.92878E-05-1.90328E-06 1.17134E-18 1.08844E-18
 -1       372 9.66176E-05-2.87167E-05-2.90978E-05-1.42505E-06-7.26085E-19 2.71384E-18
 -1       373 9.62079E-05-2.86526E-05-2.89502E-05-1.04426E-06-1.57161E-18 4.21774E-18
 -1       374 9.59013E-05-2.86093E-05-2.88379E-05-7.46579E-07 4.77565E-19 4.05576E-18
 -1       375 9.56768E-05-2.85811E-05-2.87541E-05-5.17629E-07 2.36607E-18 1.54849E-18
 -1       376 9.55165E-05-2.85639E-05-2.86930E-05-3.44189E-07 4.93961E-19 2.19919E-18
 -1       377 9.54053E-05-2.85545E-05-2.86496E-05-2.14768E-07-3.50833E-19 1.81948E-18
 -1       378 9.53309E-05-2.85507E-05-2.86196E-05-1.20029E-07-1.29589E-18 1.58072E-18
 -1       379 9.52835E-05-2.85515E-05-2.85991E-05-5.26549E-08-4.28121E-19 2.94669E-19
 -1       380 9.52572E-05-2.85579E-05-2.85853E-05-1.08590E-08 8.13612E-19-1.99713E-18
 -1       381 9.46557E-05-2.73845E-05-2.87916E-05 2.07844E-06 9.34264E-19 8.13099E-19
 -1       382 9.36751E-05-2.75474E-05-2.83175E-05 2.31118E-07 4.92613E-19 6.38054E-19
 -1       383 9.34198E-05-2.76885E-05-2.81591E-05-8.64611E-07 2.72137E-19 7.41027E-19
 -1       384 9.36709E-05-2.78703E-05-2.81941E-05-1.57200E-06-8.26486E-20 4.25900E-19
 -1       385 9.42849E-05-2.81025E-05-2.83599E-05-2.08310E-06 2.79399E-20 2.71839E-19
 -1       386 9.51759E-05-2.83849E-05-2.86216E-05-2.50407E-06 5.55310E-19 4.63622E-19
 -1       387 9.62969E-05-2.87199E-05-2.89588E-05-2.89303E-06 8.22137E-19 4.69972E-19
 -1       388 9.76239E-05-2.91150E-05-2.93586E-05-3.27297E-06-9.53541E-20 4.46716E-19
 -1       389 9.91417E-05-2.95823E-05-2.98096E-05-3.63325E-06 2.53245E-19 2.20407E-19
 -1       390 1.00831E-04-3.01371E-05-3.02973E-05-3.92458E-06 5.52337E-19 5.01182E-19
 -1       391 1.02655E-04-3.07941E-05-3.07995E-05-4.05085E-06 6.10051E-19 2.94635E-19
 -1       392 1.04538E-04-3.15596E-05-3.12820E-05-3.86314E-06-2.30450E-19 5.66606E-20
 -1       393 1.06354E-04-3.24148E-05-3.16975E-05-3.16645E-06-2.54115E-19-2.07059E-19
 -1       394 1.07897E-04-3.32855E-05-3.19893E-05-1.75823E-06 6.44764E-19 4.02750E-19
 -1       395 1.08874E-04-3.40016E-05-3.21035E-05 4.75906E-07 6.76731E-19 2.58101E-19
 -1       396 1.08925E-04-3.42670E-05-3.20102E-05 3.39650E-06-2.47559E-19 9.03000E-19
 -1       397 1.07716E-04-3.37028E-05-3.17285E-05 6.41193E-06-7.98487E-19 2.36900E-19
 -1       398 1.05190E-04-3.20681E-05-3.13383E-05 8.40804E-06-3.01832E-19 5.59737E-20
 -1       399 1.01890E-04-2.96380E-05-3.09585E-05 8.10235E-06 6.56380E-19-2.19269E-20
 -1       400 9.90485E-05-2.73882E-05-3.07003E-05 4.90159E-06 1.62786E-18 1.28122E-19
 -1       401 9.80304E-05-2.65247E-05-3.06282E-05-3.30566E-07 1.28895E-19 1.23419E-20
 -1       402 9.94235E-05-2.76088E-05-3.07589E-05-5.44446E-06-1.08614E-18-1.15184E-18
 -1       403 1.02480E-04-2.99544E-05-3.10673E-05-8.36371E-06-4.73022E-19-1.15619E-18
 -1       404 1.05805E-04-3.23556E-05-3.14751E-05-8.38921E-06-4.31941E-20-9.64830E-19
 -1       405 1.08223E-04-3.38856E-05-3.18667E-05-6.24022E-06 3.34439E-19 2.13210E-19
 -1       406 1.09299E-04-3.43507E-05-3.21361E-05-3.21955E-06-9.41497E-21-4.83608E-19
 -1       407 1.09160E-04-3.40227E-05-3.22186E-05-4.00037E-07 5.63674E-19 2.32924E-19
 -1       408 1.08170E-04-3.32901E-05-3.21059E-05 1.67923E-06-4.12598E-20 7.26483E-19
 -1       409 1.06699E-04-3.24417E-05-3.18342E-05 2.92117E-06 1.38836E-19-6.96421E-19
 -1       410 1.05029E-04-3.16357E-05-3.14595E-05 3.46017E-06 4.91529E-20-1.84982E-18
 -1       411 1.03356E-04-3.09380E-05-3.10374E-05 3.50329E-06-2.51886E-19-1.68854E-18
 -1       412 1.01795E-04-3.03636E-05-3.06124E-05 3.24468E-06 6.96993E-20-5.12679E-19
 -1       413 1.00412E-04-2.99047E-05-3.02149E-05 2.83333E-06 1.15222E-18 5.59443E-19
 -1       414 9.92309E-05-2.95452E-05-2.98622E-05 2.37013E-06 7.11185E-19 9.71333E-19
 -1       415 9.82525E-05-2.92682E-05-2.95615E-05 1.91655E-06-1.48636E-18 4.21358E-19
 -1       416 9.74629E-05-2.90579E-05-2.93135E-05 1.50572E-06-1.29572E-19 3.53082E-19
 -1       417 9.68408E-05-2.89010E-05-2.91145E-05 1.15212E-06-1.07288E-18 5.43143E-19
 -1       418 9.63617E-05-2.87861E-05-2.89588E-05 8.58799E-07-1.09586E-18 1.55752E-18
 -1       419 9.60013E-05-2.87038E-05-2.88401E-05 6.22379E-07-7.14888E-19 2.19078E-20
 -1       420 9.57369E-05-2.86464E-05-2.87517E-05 4.36291E-07 1.04320E-18 3.27578E-19
 -1       421 9.55485E-05-2.86079E-05-2.86878E-05 2.92782E-07 3.00639E-18 7.22779E-19
 -1       422 9.54189E-05-2.85834E-05-2.86430E-05 1.84039E-07 2.14439E-18 2.48221E-20
 -1       423 9.53342E-05-2.85693E-05-2.86130E-05 1.03267E-07 8.74442E-20-3.61281E-19
 -1       424 9.52822E-05-2.85626E-05-2.85937E-05 4.50424E-08-1.12338E-20 2.00939E-18
 -1       425 9.52538E-05-2.85627E-05-2.85817E-05 5.92069E-09-1.77163E-19 2.86427E-18
 -1       426 9.52452E-05-2.85664E-05-2.85765E-05-7.74236E-09-8.97251E-19 2.34167E-18
 -1       427 9.52266E-05-2.84855E-05-2.86033E-05 7.05562E-08 8.30899E-19-1.17670E-19
 -1       428 9.52467E-05-2.85261E-05-2.85944E-05 4.39986E-08-2.71089E-19 1.77748E-18
 -1       429 9.52508E-05-2.85520E-05-2.85850E-05 1.47076E-08-4.28931E-19 3.32214E-18
 -1       430 9.52023E-05-2.84418E-05-2.86116E-05 8.26263E-08-7.85234E-19-4.87537E-18
 -1       431 9.51774E-05-2.83998E-05-2.86190E-05 7.63788E-08 9.89940E-20-2.58263E-19
 -1       432 9.51579E-05-2.83674E-05-2.86246E-05 5.31433E-08-4.31079E-21-9.06950E-19
 -1       433 9.51472E-05-2.83499E-05-2.86276E-05 1.82004E-08-2.12672E-18 1.79575E-18
 -1       434 9.51475E-05-2.83502E-05-2.86276E-05-2.07953E-08-3.37802E-19 1.34333E-18
 -1       435 9.51586E-05-2.83683E-05-2.86245E-05-5.53644E-08-1.47579E-18-6.03483E-19
 -1       436 9.51781E-05-2.84006E-05-2.86190E-05-7.75990E-08 6.72483E-19 1.04962E-18
 -1       437 9.52033E-05-2.84429E-05-2.86116E-05-8.30786E-08 9.06127E-19 3.76257E-18
 -1       438 9.52283E-05-2.84876E-05-2.86031E-05-6.98264E-08-9.87279E-19 1.45916E-18
 -1       439 9.52480E-05-2.85285E-05-2.85939E-05-4.12641E-08-1.69030E-18-1.88409E-18
 -1       440 5.90497E-05-4.10573E-05-7.76508E-06 4.34273E-05-7.45177E-19 2.80474E-18
 -1       441 1.13031E-05-2.29687E-05 4.69137E-06 1.14869E-06-1.51452E-18 4.63327E-18
 -1       442 2.42700E-05-2.62980E-05 7.78164E-07 2.74359E-05-6.84191E-19 5.41127E-18
 -1       443 9.98560E-05-5.32936E-05-1.99516E-05 4.09626E-05 4.02341E-21 9.27819E-19
 -1       444 1.29500E-04-5.21861E-05-3.31694E-05 2.84532E-05 1.54573E-18 1.52381E-18
 -1       445 8.95100E-05-1.18351E-05-3.33512E-05-1.03281E-05-9.42054E-19-7.06836E-19
 -1       446 1.55958E-04-2.50939E-05-5.60315E-05-4.79714E-07 2.26105E-18 1.20628E-18
 -1       447 1.54805E-04-1.24694E-05-6.09733E-05-1.55682E-06 2.23596E-18 1.35943E-18
 -1       448 1.59535E-04-1.66891E-05-6.09709E-05 7.21103E-07 2.31039E-18 4.79950E-19
 -1       449 1.57343E-04-2.98322E-05-5.44082E-05-3.42653E-06 3.61736E-18 1.88084E-18
 -1       450 1.44128E-04-4.79363E-05-4.12497E-05-1.63833E-05 1.20279E-18 1.75230E-18
 -1       451 1.20207E-04-5.55697E-05-2.76958E-05-3.30035E-05 4.94138E-19 1.17155E-19
 -1       452 7.87876E-05-4.75625E-05-1.35423E-05-4.41251E-05-2.97520E-19-2.27036E-18
 -1       453 4.29663E-05-3.58065E-05-3.27918E-06-3.86804E-05-4.85668E-19-3.41095E-18
 -1       454 1.64154E-05-2.49376E-05 3.38631E-06-1.74995E-05 1.53366E-19-3.66501E-18
 -1       455 1.35621E-05-2.12405E-05 3.21033E-06 8.20506E-06-8.44651E-20-2.94259E-18
 -1       456 3.83685E-05-3.27409E-05-2.39838E-06 3.56165E-05 4.39822E-19-6.87103E-19
 -1       457 7.02587E-05-4.59458E-05-1.07237E-05 4.25484E-05-5.17114E-19 9.96323E-20
 -1       458 1.10152E-04-5.34584E-05-2.44238E-05 3.72738E-05-4.29869E-20-2.23405E-19
 -1       459 1.41884E-04-5.21200E-05-3.84685E-05 1.98742E-05 1.25573E-19 1.06716E-18
 -1       460 1.59153E-04-3.65020E-05-5.22594E-05 6.47432E-06-2.39898E-18 2.41320E-18
 -1       461 1.64434E-04-2.15901E-05-6.07246E-05-3.36217E-07-2.47090E-18 2.11525E-18
 -1       462 1.58689E-04-1.28574E-05-6.22670E-05 5.20841E-07-3.50269E-18 2.65215E-18
 -1       463 1.60524E-04-2.10500E-05-5.95265E-05 2.56480E-06-1.83139E-18 2.78928E-18
 -1       464 1.52926E-04-4.24280E-05-4.75255E-05-2.90678E-06-5.78788E-19 1.90477E-18
 -1       465 1.40156E-04-5.50895E-05-3.64115E-05-1.99623E-05-6.73656E-19-5.17325E-19
 -1       466 9.95239E-05-5.38619E-05-1.96863E-05-4.02946E-05-1.43540E-18-9.07940E-19
 -1       467 5.64452E-05-4.11994E-05-6.77788E-06-4.13233E-05-7.60000E-19 1.25631E-18
 -1       468 2.28113E-05-2.91965E-05 2.30403E-06-2.50129E-05-1.66802E-18 3.11867E-18
 -1       469 1.51487E-04-4.07774E-05-4.72885E-05 1.14216E-05 2.56842E-18 7.28025E-19
 -1       470 9.60257E-05-2.51203E-05-3.03736E-05 5.49300E-06 1.01062E-18 1.61593E-19
 -1       471 8.92819E-05-1.28857E-05-3.27595E-05-3.58425E-06-3.32612E-19-9.02000E-19
 -1       472 9.01119E-05-1.39690E-05-3.26525E-05-5.41548E-06-5.62730E-19-9.41761E-19
 -1       473 8.86719E-05-1.21022E-05-3.28327E-05 4.84955E-08 8.73340E-20-8.99508E-19
 -1       474 8.88387E-05-1.23164E-05-3.28127E-05 1.85811E-06 3.55680E-19-1.15110E-18
 -1       475 8.93168E-05-1.29340E-05-3.27541E-05 3.65386E-06 5.26781E-19-1.18161E-18
 -1       476 9.01611E-05-1.40403E-05-3.26438E-05 5.48773E-06 8.29076E-19-7.40184E-19
 -1       477 9.14383E-05-1.57575E-05-3.24575E-05 7.24942E-06 1.00197E-18-4.52071E-19
 -1       478 9.33303E-05-1.83601E-05-3.21501E-05 8.75833E-06 1.17912E-18-2.14567E-19
 -1       479 9.54455E-05-2.65295E-05-2.95169E-05 2.19641E-06 7.40897E-19 2.88947E-19
 -1       480 9.56854E-05-2.43470E-05-3.05635E-05-5.20189E-06-8.30857E-19 7.67667E-20
 -1       481 1.41042E-04-5.29995E-05-3.79388E-05 6.70774E-06 7.33699E-19-2.90215E-19
 -1       482 9.55757E-05-2.60828E-05-2.97740E-05-2.07989E-06-7.19387E-19 7.74565E-20
 -1       483 9.53577E-05-2.69682E-05-2.93052E-05 6.14671E-08-5.35052E-19-4.62468E-20
 -1       484 9.52642E-05-2.74447E-05-2.90630E-05 1.55441E-06-4.22693E-19-9.99030E-20
 -1       485 9.53438E-05-2.77150E-05-2.89821E-05 2.66691E-06-4.42634E-19-2.46183E-19
 -1       486 9.55888E-05-2.78731E-05-2.90195E-05 3.58456E-06-5.11949E-19-4.90379E-19
 -1       487 9.59825E-05-2.79723E-05-2.91457E-05 4.43407E-06-4.21479E-19-5.40409E-19
 -1       488 9.65150E-05-2.80546E-05-2.93385E-05 5.29759E-06-5.40967E-19-3.67502E-19
 -1       489 9.71907E-05-2.81677E-05-2.95795E-05 6.21776E-06-2.56917E-19-6.86085E-20
 -1       490 9.80352E-05-2.83810E-05-2.98501E-05 7.19420E-06 6.76628E-20 7.16732E-20
 -1       491 9.91067E-05-2.88014E-05-3.01296E-05 8.17181E-06 1.57332E-19 3.49554E-19
 -1       492 1.00513E-04-2.95913E-05-3.03952E-05 9.01993E-06-2.19296E-21 2.41273E-19
 -1       493 1.02434E-04-3.09766E-05-3.06269E-05 9.50188E-06-1.26964E-19 3.39976E-19
 -1       494 1.05119E-04-3.32143E-05-3.08224E-05 9.23746E-06 3.95429E-20 9.83200E-19
 -1       495 1.08823E-04-3.64553E-05-3.10260E-05 7.67620E-06 5.57724E-19 1.20053E-18
 -1       496 1.13574E-04-4.04070E-05-3.13709E-05 4.15185E-06 2.34542E-19 1.45631E-18
 -1       497 1.18686E-04-4.37669E-05-3.21224E-05-1.79363E-06 1.55037E-19 1.14867E-18
 -1       498 1.22233E-04-4.38210E-05-3.36459E-05-9.43775E-06 1.12549E-19 1.24682E-18
 -1       499 1.21852E-04-3.78804E-05-3.60704E-05-1.54066E-05-9.75610E-20 6.82602E-19
 -1       500 1.16739E-04-2.66268E-05-3.87393E-05-1.40006E-05-6.56437E-19-3.76394E-19
 -1       501 1.11857E-04-1.86134E-05-4.03315E-05-3.27526E-06 1.26645E-19-9.64701E-19
 -1       502 1.13891E-04-2.18575E-05-3.97792E-05 1.04963E-05-7.84564E-19-2.38167E-18
 -1       503 1.20177E-04-3.32101E-05-3.73489E-05 1.64037E-05-8.67147E-19-2.17397E-18
 -1       504 1.22802E-04-4.19197E-05-3.47233E-05 1.29157E-05-5.55346E-19-1.55735E-19
 -1       505 1.20746E-04-4.44005E-05-3.27465E-05 5.34992E-06 5.95511E-19 1.94778E-19
 -1       506 1.16043E-04-4.21036E-05-3.17061E-05-1.51382E-06-6.23294E-19-4.02051E-19
 -1       507 1.11016E-04-3.81632E-05-3.12352E-05-6.04244E-06-1.11406E-19 3.96939E-19
 -1       508 1.06862E-04-3.45148E-05-3.10137E-05-8.32000E-06-1.10788E-19 6.84133E-19
 -1       509 1.03799E-04-3.18224E-05-3.08507E-05-8.98746E-06-1.04782E-18 8.66636E-20
 -1       510 1.01637E-04-3.00844E-05-3.06661E-05-8.66499E-06-1.07406E-18 8.83649E-19
 -1       511 1.00104E-04-2.90653E-05-3.04442E-05-7.81320E-06-8.91738E-19 4.46631E-19
 -1       512 9.89859E-05-2.85200E-05-3.01978E-05-6.73521E-06 8.04496E-19 4.52521E-19
 -1       513 9.81403E-05-2.82612E-05-2.99461E-05-5.61694E-06 1.59505E-19 1.24427E-18
 -1       514 9.74817E-05-2.81643E-05-2.97054E-05-4.56327E-06 4.57936E-19 2.50498E-18
 -1       515 9.69599E-05-2.81532E-05-2.94868E-05-3.62610E-06 1.58059E-18 1.16258E-18
 -1       516 9.65442E-05-2.81838E-05-2.92958E-05-2.82452E-06 5.39072E-19 3.10226E-19
 -1       517 9.62143E-05-2.82316E-05-2.91342E-05-2.15849E-06 1.23068E-18 5.95182E-19
 -1       518 9.59549E-05-2.82839E-05-2.90009E-05-1.61763E-06-7.92654E-20 1.91431E-18
 -1       519 9.57539E-05-2.83340E-05-2.88935E-05-1.18684E-06-2.33079E-20 3.22778E-18
 -1       520 9.56005E-05-2.83790E-05-2.88086E-05-8.49580E-07-1.00221E-18 2.78477E-18
 -1       521 9.54855E-05-2.84179E-05-2.87428E-05-5.89806E-07 1.20148E-18 3.02613E-19
 -1       522 9.54009E-05-2.84505E-05-2.86927E-05-3.92957E-07-2.52611E-20 1.60951E-18
 -1       523 9.53397E-05-2.84776E-05-2.86549E-05-2.46560E-07-1.54045E-18 2.43238E-18
 -1       524 9.52964E-05-2.85006E-05-2.86266E-05-1.40538E-07-1.58223E-18 1.08050E-18
 -1       525 9.48840E-05-2.76291E-05-2.88189E-05-1.31317E-06 2.08049E-19 5.52164E-21
 -1       526 9.50115E-05-2.78927E-05-2.87625E-05-2.29888E-06 2.39004E-19-1.44792E-19
 -1       527 9.53720E-05-2.81051E-05-2.88268E-05-3.05848E-06 2.18228E-19-4.31892E-19
 -1       528 9.59313E-05-2.83090E-05-2.89793E-05-3.70700E-06 5.45102E-19-2.17455E-19
 -1       529 9.66693E-05-2.85387E-05-2.91973E-05-4.30753E-06 4.35952E-19 2.73817E-19
 -1       530 9.75812E-05-2.88320E-05-2.94627E-05-4.87859E-06 5.10280E-19-2.75376E-20
 -1       531 9.86753E-05-2.92366E-05-2.97588E-05-5.39277E-06 5.37925E-19-1.00849E-19
 -1       532 9.99713E-05-2.98143E-05-3.00677E-05-5.76964E-06 6.07142E-19-3.15447E-20
 -1       533 1.01495E-04-3.06371E-05-3.03701E-05-5.86657E-06 4.44213E-20 4.05093E-19
 -1       534 1.03269E-04-3.17708E-05-3.06471E-05-5.47394E-06-1.31591E-19 3.98603E-19
 -1       535 1.05281E-04-3.32300E-05-3.08868E-05-4.32814E-06-1.24794E-19 2.97476E-19
 -1       536 1.07422E-04-3.48913E-05-3.10950E-05-2.16990E-06 5.71324E-19 3.89483E-19
 -1       537 1.09398E-04-3.63738E-05-3.13081E-05 1.11260E-06 2.64390E-19 1.10834E-18
 -1       538 1.10656E-04-3.69605E-05-3.15943E-05 5.23568E-06-6.07525E-19 1.24946E-18
 -1       539 1.10456E-04-3.57301E-05-3.20301E-05 9.18773E-06-6.73724E-19 1.16166E-18
 -1       540 1.08406E-04-3.22696E-05-3.26315E-05 1.11406E-05 5.20416E-19 1.15863E-18
 -1       541 1.05223E-04-2.76079E-05-3.32692E-05 9.22478E-06 1.19797E-18 5.58557E-19
 -1       542 1.02836E-04-2.42540E-05-3.36861E-05 3.27168E-06 1.06589E-18 5.68445E-19
 -1       543 1.03004E-04-2.44789E-05-3.36576E-05-4.35084E-06 5.61030E-19 8.26179E-19
 -1       544 1.05694E-04-2.82206E-05-3.32021E-05-9.82340E-06 6.06762E-20-4.32351E-20
 -1       545 1.08847E-04-3.28477E-05-3.25786E-05-1.12118E-05 2.12813E-20-9.55450E-19
 -1       546 1.10693E-04-3.60214E-05-3.20077E-05-8.89122E-06-5.17550E-20-1.83320E-18
 -1       547 1.10706E-04-3.69744E-05-3.16093E-05-4.87391E-06-3.16475E-19-1.24875E-18
 -1       548 1.09356E-04-3.62126E-05-3.13596E-05-8.81088E-07-2.67530E-19-1.32049E-18
 -1       549 1.07390E-04-3.46677E-05-3.11774E-05 2.17182E-06-5.19342E-19-1.22004E-18
 -1       550 1.05335E-04-3.30259E-05-3.09971E-05 4.08179E-06 2.19094E-19-6.78306E-19
 -1       551 1.03449E-04-3.16218E-05-3.07873E-05 4.99762E-06 2.10450E-19 3.48572E-19
 -1       552 1.01823E-04-3.05536E-05-3.05454E-05 5.18563E-06-7.60489E-20 1.01032E-18
 -1       553 1.00461E-04-2.97979E-05-3.02835E-05 4.90822E-06-2.94404E-19 1.21969E-18
 -1       554 9.93357E-05-2.92891E-05-3.00184E-05 4.37472E-06-2.44950E-19 1.28722E-18
 -1       555 9.84157E-05-2.89590E-05-2.97651E-05 3.73322E-06-2.19627E-21 2.06369E-18
 -1       556 9.76698E-05-2.87518E-05-2.95342E-05 3.07921E-06 1.02792E-18 1.75693E-18
 -1       557 9.70714E-05-2.86264E-05-2.93315E-05 2.46842E-06-7.62569E-20-3.31144E-20
 -1       558 9.65970E-05-2.85544E-05-2.91594E-05 1.92904E-06-2.34741E-19-3.47379E-19
 -1       559 9.62264E-05-2.85162E-05-2.90172E-05 1.47133E-06-1.87123E-18-1.27295E-18
 -1       560 9.59414E-05-2.84993E-05-2.89025E-05 1.09467E-06-6.39835E-21-3.17471E-19
 -1       561 9.57260E-05-2.84952E-05-2.88123E-05 7.92416E-07 3.03926E-19-9.25350E-19
 -1       562 9.55665E-05-2.84984E-05-2.87427E-05 5.55116E-07 9.40295E-19 4.15128E-20
 -1       563 9.54510E-05-2.85055E-05-2.86903E-05 3.72698E-07 2.49616E-18 2.38047E-18
 -1       564 9.53693E-05-2.85141E-05-2.86517E-05 2.35557E-07 1.46822E-18 2.43803E-18
 -1       565 9.53137E-05-2.85250E-05-2.86234E-05 1.33569E-07-1.25110E-18 2.58080E-18
 -1       566 9.52761E-05-2.85364E-05-2.86025E-05 6.18101E-08-5.87760E-19 3.97170E-18
 -1       567 9.51608E-05-2.83457E-05-2.86350E-05 1.31774E-07 1.87697E-18-2.57259E-18
 -1       568 9.51212E-05-2.82934E-05-2.86405E-05 1.04578E-07 4.32258E-19-7.21532E-19
 -1       569 9.52442E-05-2.84693E-05-2.86178E-05 1.11942E-07 7.95994E-20 3.22940E-19
 -1       570 9.52054E-05-2.84074E-05-2.86276E-05 1.33816E-07-4.93115E-19-2.54378E-18
 -1       571 9.50944E-05-2.82587E-05-2.86439E-05 5.71025E-08 9.29479E-19-8.90334E-19
 -1       572 9.50851E-05-2.82466E-05-2.86451E-05-1.45714E-09-4.06461E-19 2.02054E-18
 -1       573 9.50950E-05-2.82589E-05-2.86441E-05-5.98722E-08-1.86988E-19 7.01798E-19
 -1       574 9.51218E-05-2.82931E-05-2.86409E-05-1.06201E-07 1.40019E-18 1.65339E-18
 -1       575 9.51618E-05-2.83457E-05-2.86355E-05-1.32937E-07 1.93291E-18 1.16527E-18
 -1       576 9.52068E-05-2.84082E-05-2.86280E-05-1.33951E-07-1.17920E-18-4.54714E-19
 -1       577 9.52468E-05-2.84710E-05-2.86181E-05-1.10356E-07-2.45917E-18 9.03903E-19
 -1       578 2.60982E-05-1.40353E-05-4.55221E-06 1.38149E-05-8.51043E-19 5.34817E-18
 -1       579 8.94507E-05-4.82071E-05-1.73997E-05 4.06640E-05-2.57403E-18 3.35584E-19
 -1       580 9.50286E-05-2.72353E-05-2.90448E-05 8.51439E-08 4.42377E-19 5.56101E-20
 -1       581 2.62831E-05-1.52127E-05-4.12271E-06-1.49554E-05-3.34366E-19 3.26383E-18
 -1       582 5.57426E-05-3.00717E-05-1.04055E-05 3.85858E-05-1.85172E-18 2.59118E-18
 -1       583 9.47702E-05-2.07177E-05-3.17579E-05-9.00585E-06-9.38751E-19-1.34531E-19
 -1       584 4.92057E-05-2.99665E-05-7.76990E-06-3.67321E-05 4.48239E-19-1.68189E-19
 -1       585 1.35950E-04-1.19367E-05-5.37159E-05-7.30892E-06-2.64984E-18 1.32738E-18
 -1       586 8.88160E-05-1.22860E-05-3.28160E-05-1.76033E-06-1.04464E-19-9.26920E-19
 -1       587 1.29867E-04-7.69142E-06-5.29947E-05 2.81001E-06 2.23024E-18 9.22849E-19
 -1       588 8.70828E-05-4.88785E-05-1.61209E-05-4.13110E-05 1.85453E-18-1.49509E-18
 -1       589 1.34698E-04-1.50556E-05-5.18658E-05-9.61592E-06 1.44874E-18 2.68880E-19
 -1       590 1.38984E-04-2.01646E-05-5.14762E-05 9.86496E-06 2.47995E-18 1.41497E-18
 -1       591 1.43523E-04-4.10887E-05-4.42274E-05 4.92560E-06 1.75481E-18 2.01022E-18
 -1       592 1.36396E-04-5.80977E-05-3.36550E-05-1.37652E-05 8.15666E-19 1.32201E-18
 -1       593 1.07669E-04-5.64856E-05-2.18154E-05-3.61494E-05-1.03634E-18-5.20340E-19
 -1       594 7.27965E-05-4.19591E-05-1.28315E-05-4.32746E-05-1.35171E-18-1.65603E-18
 -1       595 3.74909E-05-2.39663E-05-5.32743E-06-3.16327E-05-2.53580E-19-2.88584E-18
 -1       596 2.40032E-05-1.32886E-05-4.00520E-06-7.41769E-06 5.79410E-19-3.14323E-18
 -1       597 3.42290E-05-1.86949E-05-6.00450E-06 2.39939E-05 1.01242E-18-1.48443E-18
 -1       598 6.93936E-05-4.05965E-05-1.19732E-05 4.16644E-05 1.05614E-18 1.87088E-19
 -1       599 1.02723E-04-5.55883E-05-2.00464E-05 3.81067E-05 6.26116E-19 1.32446E-18
 -1       600 1.32298E-04-6.13100E-05-3.05141E-05 1.99080E-05 1.55992E-18 1.86765E-18
 -1       601 1.45093E-04-4.84384E-05-4.17879E-05-5.24409E-06-7.49359E-20 3.45431E-18
 -1       602 1.46302E-04-2.80236E-05-5.11471E-05-9.49239E-06-1.51698E-18 2.74359E-18
 -1       603 1.35057E-04-1.25052E-05-5.31752E-05 7.71872E-06-2.21520E-18-6.39801E-19
 -1       604 1.39372E-04-2.92847E-05-4.76551E-05 1.44265E-05-2.64168E-19-7.12090E-19
 -1       605 1.43621E-04-5.38934E-05-3.88201E-05 9.30042E-07 2.32305E-19 6.71327E-19
 -1       606 1.27427E-04-6.14487E-05-2.82444E-05-2.32553E-05 1.43996E-19-6.42845E-19
 -1       607 1.40484E-04-3.57791E-05-4.53494E-05-9.65887E-06 1.36047E-18 6.02929E-19
 -1       608 9.62896E-05-2.31914E-05-3.13311E-05 9.15885E-06 1.24638E-18 3.38065E-19
 -1       609 1.24995E-04-5.99033E-05-2.78269E-05 2.60400E-05-8.11299E-19 2.77668E-20
 -1       610 9.13338E-05-1.56456E-05-3.24718E-05-7.13755E-06-7.75800E-19-8.43970E-19
 -1       611 5.71491E-05-2.71270E-05-1.23646E-05 3.29196E-05 1.23818E-18-1.19749E-19
 -1       612 9.52750E-05-2.85161E-05-2.86108E-05-8.60251E-08-1.91182E-18 5.70378E-19
 -1       613 9.10667E-05-1.60573E-05-3.21523E-05 2.08853E-06 4.51095E-19-1.01880E-18
 -1       614 9.07264E-05-1.55786E-05-3.22114E-05 7.12967E-07 1.85031E-19-7.82080E-19
 -1       615 9.27275E-05-1.85164E-05-3.18104E-05 4.61480E-06 8.51873E-19-4.00413E-19
 -1       616 9.40028E-05-2.06356E-05-3.14510E-05 5.45616E-06 9.80151E-19-1.92080E-19
 -1       617 9.54309E-05-2.39159E-05-3.06391E-05 4.43074E-06 8.98209E-19-1.23292E-19
 -1       618 1.19702E-04-5.90356E-05-2.58940E-05 2.49863E-05 1.13847E-18 2.10905E-18
 -1       619 1.24839E-04-2.44875E-05-4.34115E-05-1.44441E-05 1.71397E-18-8.71637E-19
 -1       620 1.33408E-04-5.78092E-05-3.24202E-05-4.99777E-06 1.31055E-18-1.50530E-18
 -1       621 9.55191E-05-2.52767E-05-3.01017E-05-1.36697E-06-6.22932E-19-2.48760E-19
 -1       622 9.55988E-05-2.63668E-05-2.96699E-05 5.65968E-07-4.97675E-19-3.76617E-19
 -1       623 9.55692E-05-2.69496E-05-2.94079E-05 2.03039E-06-4.53193E-19-2.05673E-19
 -1       624 9.55225E-05-2.72183E-05-2.92728E-05 3.20097E-06-5.54744E-19-5.63358E-19
 -1       625 9.54917E-05-2.72848E-05-2.92311E-05 4.22014E-06-2.95703E-19-1.87857E-19
 -1       626 9.54881E-05-2.72263E-05-2.92545E-05 5.19507E-06-1.19436E-19 4.64763E-19
 -1       627 9.55218E-05-2.71120E-05-2.93179E-05 6.19960E-06-1.52818E-19 8.14780E-19
 -1       628 9.56178E-05-2.70250E-05-2.93963E-05 7.27533E-06 5.51230E-20 8.36358E-19
 -1       629 9.58345E-05-2.70848E-05-2.94635E-05 8.42982E-06-2.04182E-19 4.75532E-19
 -1       630 9.62910E-05-2.74733E-05-2.94928E-05 9.63050E-06-1.63358E-19 1.34266E-19
 -1       631 9.72070E-05-2.84622E-05-2.94619E-05 1.07904E-05 2.94723E-19 1.42632E-19
 -1       632 9.89499E-05-3.04283E-05-2.93669E-05 1.17339E-05 3.36986E-19 6.64074E-19
 -1       633 1.02062E-04-3.38083E-05-2.92534E-05 1.21203E-05 3.09038E-19 8.50538E-19
 -1       634 1.07179E-04-3.88843E-05-2.92723E-05 1.12998E-05 8.99985E-20 7.90903E-19
 -1       635 1.14638E-04-4.51887E-05-2.97600E-05 8.17439E-06 1.62048E-19 6.50274E-19
 -1       636 1.23528E-04-5.03768E-05-3.13513E-05 1.49202E-06 4.39961E-19 5.67158E-19
 -1       637 1.30212E-04-4.86245E-05-3.50339E-05-8.85478E-06 7.39963E-20 1.22803E-18
 -1       638 1.29877E-04-3.61179E-05-4.06677E-05-1.73518E-05-5.25266E-19 1.67538E-18
 -1       639 1.27165E-04-5.08373E-05-3.27508E-05 3.12860E-06 1.13151E-18 1.19161E-18
 -1       640 1.18652E-04-4.78277E-05-3.03503E-05-5.35583E-06 1.96987E-19 1.18533E-18
 -1       641 1.10295E-04-4.15485E-05-2.94625E-05-9.94470E-06-2.96017E-19 1.55669E-18
 -1       642 1.04130E-04-3.57613E-05-2.93014E-05-1.15473E-05-1.01568E-18 2.37875E-19
 -1       643 1.00182E-04-3.15843E-05-2.93993E-05-1.15003E-05-5.83848E-19 2.21326E-19
 -1       644 9.79072E-05-2.90073E-05-2.95283E-05-1.06327E-05-3.71359E-19 2.75485E-19
 -1       645 9.66789E-05-2.76072E-05-2.96016E-05-9.41303E-06-1.94761E-19 2.24283E-18
 -1       646 9.60519E-05-2.69740E-05-2.96041E-05-8.08165E-06-1.32004E-18 2.76285E-18
 -1       647 9.57444E-05-2.67960E-05-2.95485E-05-6.77173E-06 4.24762E-19 1.05050E-18
 -1       648 9.55943E-05-2.68640E-05-2.94551E-05-5.55664E-06 7.65588E-20 3.99596E-19
 -1       649 9.55158E-05-2.70484E-05-2.93425E-05-4.47390E-06 1.11922E-20-5.86348E-19
 -1       650 9.54673E-05-2.72744E-05-2.92250E-05-3.53820E-06-4.94006E-19-1.47923E-18
 -1       651 9.54305E-05-2.75014E-05-2.91120E-05-2.74951E-06 1.00233E-18-1.64088E-18
 -1       652 9.53983E-05-2.77094E-05-2.90092E-05-2.09874E-06 7.66536E-19-1.82084E-18
 -1       653 9.53691E-05-2.78902E-05-2.89192E-05-1.57182E-06 9.79801E-20-2.03814E-18
 -1       654 9.53424E-05-2.80418E-05-2.88429E-05-1.15252E-06 2.34175E-19-1.72920E-18
 -1       655 9.53187E-05-2.81658E-05-2.87797E-05-8.24365E-07-1.01133E-18-9.16923E-19
 -1       656 9.52980E-05-2.82651E-05-2.87283E-05-5.71868E-07 5.12682E-19-1.97716E-18
 -1       657 9.52801E-05-2.83435E-05-2.86870E-05-3.80984E-07-1.51175E-19-1.67196E-18
 -1       658 9.52647E-05-2.84054E-05-2.86539E-05-2.40361E-07-8.42371E-19 4.58168E-19
 -1       659 9.55574E-05-2.75882E-05-2.91290E-05-2.88499E-06 4.05334E-19-4.52352E-19
 -1       660 9.52602E-05-2.84273E-05-2.86426E-05 2.00852E-07-2.81349E-18 5.51994E-19
 -1       661 9.55133E-05-2.72678E-05-2.92471E-05-1.78266E-06 2.42044E-19-3.48131E-19
 -1       662 9.59524E-05-2.79011E-05-2.91643E-05-4.58918E-06 2.78211E-20 2.57865E-19
 -1       663 9.63281E-05-2.80411E-05-2.92653E-05-5.34730E-06 5.06615E-19 2.10999E-19
 -1       664 9.68583E-05-2.82723E-05-2.93936E-05-6.07421E-06 4.73507E-19 3.23235E-19
 -1       665 9.75990E-05-2.86936E-05-2.95307E-05-6.73569E-06 4.46288E-19 2.74804E-19
 -1       666 9.86391E-05-2.94307E-05-2.96610E-05-7.24169E-06 1.79949E-19 1.10252E-18
 -1       667 1.00104E-04-3.06293E-05-2.97760E-05-7.43404E-06-9.61778E-20 9.83067E-19
 -1       668 1.02144E-04-3.24233E-05-2.98826E-05-7.07240E-06 1.39065E-19 5.64504E-19
 -1       669 1.04877E-04-3.48453E-05-3.00172E-05-5.82715E-06-1.84227E-20 3.69372E-19
 -1       670 1.08251E-04-3.76461E-05-3.02639E-05-3.32229E-06-4.19834E-19 6.68315E-19
 -1       671 1.11840E-04-4.00711E-05-3.07664E-05 6.90736E-07-1.66994E-19 1.39185E-18
 -1       672 1.14605E-04-4.06784E-05-3.16983E-05 5.98560E-06-6.80623E-20 9.55427E-19
 -1       673 1.15058E-04-3.77115E-05-3.31688E-05 1.09970E-05-3.31275E-19 1.84858E-19
 -1       674 1.12292E-04-3.07328E-05-3.49738E-05 1.27500E-05 1.12249E-18 4.20341E-19
 -1       675 1.08041E-04-2.28060E-05-3.66111E-05 8.60205E-06 1.73147E-18 4.34978E-19
 -1       676 1.06265E-04-1.94193E-05-3.73196E-05-7.65710E-07 4.99895E-19 2.91604E-19
 -1       677 1.08456E-04-2.33889E-05-3.65793E-05-9.83182E-06 7.29408E-19 7.17477E-19
 -1       678 1.12999E-04-3.17531E-05-3.48351E-05-1.32345E-05 8.63762E-19 8.21850E-19
 -1       679 1.15213E-04-3.83123E-05-3.29768E-05-1.05535E-05 5.13841E-19 4.96934E-19
 -1       680 1.14411E-04-4.07354E-05-3.15809E-05-5.47320E-06-2.57333E-19 4.39295E-19
 -1       681 1.11448E-04-3.97483E-05-3.07336E-05-3.41001E-07-2.13015E-19 6.24396E-19
 -1       682 1.07849E-04-3.71635E-05-3.02981E-05 3.37807E-06-5.07084E-19 4.58323E-19
 -1       683 1.04581E-04-3.43693E-05-3.00941E-05 5.58192E-06-1.21785E-18 9.83733E-19
 -1       684 1.01981E-04-3.20171E-05-2.99866E-05 6.57218E-06-4.71531E-19 1.11044E-18
 -1       685 1.00063E-04-3.02997E-05-2.98996E-05 6.71512E-06-5.25944E-19 1.25991E-18
 -1       686 9.87024E-05-2.91689E-05-2.98001E-05 6.33303E-06-1.41123E-20 2.47324E-19
 -1       687 9.77476E-05-2.84914E-05-2.96809E-05 5.66429E-06-1.66979E-19 1.00123E-18
 -1       688 9.70743E-05-2.81299E-05-2.95470E-05 4.87250E-06 8.52929E-19 1.12900E-18
 -1       689 9.65923E-05-2.79730E-05-2.94075E-05 4.06346E-06 5.00448E-19 3.12676E-20
 -1       690 9.62408E-05-2.79396E-05-2.92712E-05 3.30088E-06 5.56899E-19 1.26908E-18
 -1       691 9.59800E-05-2.79748E-05-2.91445E-05 2.61894E-06 2.52903E-19 1.68284E-18
 -1       692 9.57843E-05-2.80435E-05-2.90312E-05 2.03203E-06-6.87380E-19 1.58812E-18
 -1       693 9.56365E-05-2.81242E-05-2.89334E-05 1.54184E-06-6.26573E-19 6.08256E-19
 -1       694 9.55248E-05-2.82046E-05-2.88512E-05 1.14255E-06 6.21765E-19-2.13283E-19
 -1       695 9.54406E-05-2.82780E-05-2.87837E-05 8.24358E-07 1.05356E-18-3.99451E-19
 -1       696 9.53777E-05-2.83417E-05-2.87295E-05 5.76053E-07 1.00321E-18-1.04087E-18
 -1       697 9.53309E-05-2.83947E-05-2.86867E-05 3.86978E-07 2.35027E-18-2.24889E-19
 -1       698 9.52889E-05-2.84087E-05-2.86627E-05 2.84065E-07-3.92822E-19 7.10848E-19
 -1       699 1.14816E-04-5.56367E-05-2.52052E-05 2.56512E-05-2.80828E-18 4.15228E-20
 -1       700 9.50050E-05-2.81228E-05-2.86638E-05 4.22589E-08 1.89318E-18 4.62800E-19
 -1       701 9.52555E-05-2.84406E-05-2.86350E-05-1.68006E-07-2.11100E-18 7.52177E-19
 -1       702 9.50878E-05-2.82176E-05-2.86587E-05 1.80746E-07 1.58858E-18-2.68198E-18
 -1       703 9.50053E-05-2.81226E-05-2.86640E-05-4.48191E-08 7.65389E-19 6.25628E-20
 -1       704 9.50342E-05-2.81560E-05-2.86621E-05 1.21940E-07 1.36971E-18-1.65206E-18
 -1       705 9.50343E-05-2.81547E-05-2.86627E-05-1.23126E-07 7.39003E-19 1.43982E-18
 -1       706 9.50883E-05-2.82160E-05-2.86596E-05-1.81858E-07 1.75515E-18 1.86446E-18
 -1       707 9.51578E-05-2.82983E-05-2.86541E-05-2.08925E-07 1.05136E-18-8.47663E-19
 -1       708 9.42572E-05-2.07666E-05-3.14956E-05-6.41263E-06-7.28748E-19-4.27674E-19
 -1       709 7.88153E-05-3.66548E-05-1.78001E-05 3.53162E-05-3.06805E-18-6.28247E-19
 -1       710 4.94655E-05-1.74804E-05-1.32551E-05 2.32726E-05-5.86001E-19 3.71707E-18
 -1       711 3.78225E-05-1.08139E-05-1.10607E-05-1.80693E-06 1.46901E-18 3.84675E-18
 -1       712 9.55375E-05-2.66924E-05-2.95027E-05-3.32327E-07 3.65724E-19-1.63773E-19
 -1       713 9.57005E-05-2.77734E-05-2.91110E-05-3.78705E-06 2.57717E-19-3.51169E-19
 -1       714 9.51722E-05-2.35483E-05-3.06965E-05-3.64153E-06-7.55571E-19-4.11437E-19
 -1       715 9.17351E-05-1.70200E-05-3.20264E-05 3.41701E-06 7.36534E-19-6.96106E-19
 -1       716 9.55555E-05-2.56767E-05-2.99436E-05 1.65614E-06 7.04911E-19-2.01927E-19
 -1       717 1.21136E-04-1.58861E-05-4.56407E-05 1.07890E-05 1.72834E-18 6.16428E-19
 -1       718 9.16836E-05-1.69445E-05-3.20365E-05-3.37111E-06-3.58157E-19-7.67598E-19
 -1       719 4.89488E-05-1.98268E-05-1.19531E-05-2.56705E-05 1.13009E-18-7.74559E-19
 -1       720 1.10458E-04-5.48369E-05-2.36717E-05-2.90299E-05 1.66595E-18-4.00921E-19
 -1       721 1.35279E-04-4.69431E-05-3.81387E-05-6.29064E-06-1.67739E-19-3.72430E-19
 -1       722 1.29798E-04-3.07692E-05-4.27900E-05 1.39767E-05 1.81670E-18 1.08219E-18
 -1       723 1.35121E-04-5.03776E-05-3.65398E-05 4.28830E-06 6.28161E-19 2.58046E-18
 -1       724 1.24538E-04-5.85863E-05-2.82386E-05-1.85450E-05-8.61724E-19 1.52948E-18
 -1       725 9.39834E-05-4.72180E-05-1.98127E-05-3.60510E-05-1.47625E-18-7.92055E-19
 -1       726 6.23918E-05-2.98640E-05-1.34939E-05-3.55292E-05-8.81629E-19-1.74190E-18
 -1       727 4.23021E-05-1.61980E-05-1.06622E-05-2.11585E-05 1.61849E-19-2.62305E-18
 -1       728 3.95991E-05-1.18309E-05-1.13459E-05 7.39815E-06 8.50587E-19-2.19069E-18
 -1       729 1.36448E-04-5.68279E-05-3.42590E-05 8.18242E-07 5.60388E-19 2.06337E-18
 -1       730 9.47685E-05-4.85313E-05-1.95460E-05 3.56312E-05 8.26095E-19 1.30360E-18
 -1       731 7.37313E-05-3.60450E-05-1.57811E-05-3.62466E-05 1.78075E-18-2.18132E-18
 -1       732 1.32081E-04-5.73255E-05-3.21026E-05 8.95181E-06-1.43099E-18-3.15824E-19
 -1       733 1.18690E-04-1.08177E-05-4.67159E-05-5.32127E-06 1.27992E-18-1.02347E-18
 -1       734 1.31601E-04-4.70786E-05-3.64264E-05 1.14171E-05 1.25493E-18-9.95383E-19
 -1       735 9.26880E-05-1.84150E-05-3.18354E-05-4.63439E-06-6.13219E-19-7.90472E-19
 -1       736 9.07166E-05-1.55647E-05-3.22132E-05-6.71032E-07-7.60356E-20-8.11087E-19
 -1       737 9.51554E-05-2.82981E-05-2.86532E-05 2.09266E-07 1.27070E-18-1.05410E-18
 -1       738 7.94746E-05-3.64667E-05-1.81414E-05 3.33915E-05 1.24035E-18 6.54598E-19
 -1       739 9.10356E-05-1.60127E-05-3.21581E-05-2.04086E-06-2.01571E-19-6.35456E-19
 -1       740 1.25695E-04-3.58689E-05-3.87035E-05-1.42297E-05 4.06880E-19-1.50784E-18
 -1       741 5.21455E-05-1.68905E-05-1.47361E-05 1.84569E-05 1.19375E-18-6.50468E-19
 -1       742 9.52074E-05-2.83459E-05-2.86550E-05-2.32963E-07-7.72129E-19-3.45260E-18
 -1       743 1.14634E-04-1.90517E-05-4.12565E-05-1.07395E-05 8.92098E-19-1.19781E-18
 -1       744 9.45022E-05-2.21998E-05-3.09880E-05 3.02600E-06 7.64300E-19-1.27187E-19
 -1       745 9.54729E-05-2.57819E-05-2.98676E-05 1.07479E-06-3.25840E-19-4.53643E-19
 -1       746 9.53885E-05-2.63471E-05-2.95891E-05 2.38445E-06-5.86712E-19-2.60915E-19
 -1       747 9.51481E-05-2.65356E-05-2.94053E-05 3.49021E-06-2.96892E-19-5.94602E-20
 -1       748 9.47973E-05-2.64608E-05-2.92870E-05 4.49656E-06 1.23387E-19-7.75355E-20
 -1       749 9.43608E-05-2.62141E-05-2.92056E-05 5.48964E-06-4.24304E-20-7.79925E-20
 -1       750 9.38607E-05-2.58863E-05-2.91317E-05 6.53636E-06-9.51609E-20 1.04447E-19
 -1       751 9.33364E-05-2.55905E-05-2.90337E-05 7.68762E-06 1.24903E-19 3.70093E-19
 -1       752 9.28690E-05-2.54869E-05-2.88776E-05 8.98388E-06-1.86902E-19 1.00060E-18
 -1       753 9.26178E-05-2.58146E-05-2.86293E-05 1.04628E-05-3.51193E-19 5.25191E-19
 -1       754 9.28805E-05-2.69324E-05-2.82624E-05 1.21604E-05 1.72020E-19 9.55650E-20
 -1       755 9.41796E-05-2.93572E-05-2.77779E-05 1.40756E-05 5.51307E-19 4.10578E-19
 -1       756 9.73591E-05-3.37515E-05-2.72551E-05 1.60367E-05 2.75368E-19 8.60237E-19
 -1       757 1.03674E-04-4.07624E-05-2.69575E-05 1.73398E-05 1.99299E-19 1.16419E-18
 -1       758 1.14478E-04-5.01571E-05-2.74588E-05 1.63189E-05 3.72562E-19 1.23383E-18
 -1       759 1.28329E-04-5.59751E-05-3.11323E-05 6.25579E-06 8.57318E-19 1.51598E-18
 -1       760 1.07951E-04-4.46628E-05-2.70645E-05-1.71804E-05 5.67431E-19-6.98888E-19
 -1       761 9.96802E-05-3.63772E-05-2.71318E-05-1.64084E-05-1.49723E-18 1.61897E-19
 -1       762 9.51579E-05-3.07631E-05-2.75911E-05-1.45298E-05-6.91913E-19 1.07152E-18
 -1       763 9.31232E-05-2.75131E-05-2.81163E-05-1.24450E-05-5.25074E-19 1.50495E-18
 -1       764 9.24212E-05-2.58298E-05-2.85386E-05-1.05324E-05 2.40285E-19 1.67184E-18
 -1       765 9.24266E-05-2.51571E-05-2.88294E-05-8.83748E-06-5.30802E-19 1.32141E-18
 -1       766 9.27529E-05-2.50799E-05-2.90024E-05-7.34674E-06-1.12275E-18 1.75575E-18
 -1       767 9.31867E-05-2.53227E-05-2.90843E-05-6.03930E-06-6.38086E-19-3.40984E-19
 -1       768 9.36193E-05-2.57137E-05-2.91022E-05-4.90066E-06-6.98001E-19-3.02403E-19
 -1       769 9.40023E-05-2.61508E-05-2.90790E-05-3.92053E-06-9.59658E-19-5.42947E-19
 -1       770 9.43196E-05-2.65773E-05-2.90323E-05-3.08909E-06 5.29448E-19-3.77893E-19
 -1       771 9.45714E-05-2.69644E-05-2.89743E-05-2.39499E-06 7.49277E-19-2.04920E-19
 -1       772 9.47651E-05-2.73003E-05-2.89134E-05-1.82500E-06 1.79694E-18-3.16453E-19
 -1       773 9.49104E-05-2.75825E-05-2.88547E-05-1.36455E-06-1.66635E-19-2.92417E-19
 -1       774 9.50166E-05-2.78139E-05-2.88011E-05-9.98639E-07-2.38344E-19-2.93571E-18
 -1       775 9.50923E-05-2.80000E-05-2.87538E-05-7.12566E-07-2.52831E-19-2.47531E-18
 -1       776 9.51452E-05-2.81476E-05-2.87132E-05-4.93926E-07 5.70484E-19-2.71281E-18
 -1       777 9.51851E-05-2.82600E-05-2.86822E-05-3.46502E-07 5.41103E-19-2.90200E-18
 -1       778 9.55892E-05-2.67654E-05-2.94958E-05-2.20985E-06 5.18754E-19-3.15823E-19
 -1       779 9.53742E-05-2.72914E-05-2.91782E-05-6.02619E-06 3.56267E-19-3.66895E-19
 -1       780 9.53582E-05-2.72367E-05-2.91947E-05-5.14937E-06 3.67871E-19-2.46590E-19
 -1       781 9.59614E-05-2.79726E-05-2.91380E-05-7.77298E-06-3.07901E-19 4.94873E-19
 -1       782 9.68140E-05-2.89481E-05-2.90855E-05-8.55317E-06 7.49839E-20 4.91936E-19
 -1       783 9.83374E-05-3.06404E-05-2.90133E-05-9.11063E-06 3.39741E-19 7.84692E-19
 -1       784 1.00840E-04-3.32695E-05-2.89594E-05-9.19693E-06-1.76569E-20 6.18444E-19
 -1       785 1.04622E-04-3.69115E-05-2.90191E-05-8.37877E-06-7.32713E-19 1.34969E-18
 -1       786 1.09744E-04-4.11735E-05-2.93827E-05-6.01643E-06-4.51187E-19 1.20320E-18
 -1       787 1.15630E-04-4.47481E-05-3.03718E-05-1.38401E-06-1.48821E-19 1.04010E-18
 -1       788 1.20620E-04-4.51558E-05-3.23515E-05 5.67567E-06 3.39382E-19 8.86172E-19
 -1       789 1.21372E-04-3.90742E-05-3.54049E-05 1.28650E-05 5.03684E-19 4.62480E-19
 -1       790 1.12107E-04-1.50570E-05-4.18750E-05 5.36777E-06 9.56168E-19 3.31743E-19
 -1       791 1.20392E-04-4.56514E-05-3.20298E-05-4.82578E-06-7.83561E-19 4.50521E-19
 -1       792 1.14903E-04-4.43071E-05-3.02493E-05 1.87616E-06-9.79701E-19 1.15085E-18
 -1       793 1.08965E-04-4.04020E-05-2.93763E-05 6.02253E-06-6.05282E-19 2.88838E-18
 -1       794 1.03989E-04-3.61568E-05-2.90700E-05 8.09728E-06-1.04250E-18 2.79466E-18
 -1       795 1.00364E-04-3.26060E-05-2.90398E-05 8.67538E-06-4.39299E-19 4.08611E-19
 -1       796 9.79862E-05-3.00749E-05-2.91049E-05 8.38915E-06-9.91794E-19 8.13882E-19
 -1       797 9.65385E-05-2.84611E-05-2.91759E-05 7.66419E-06 5.78412E-19 1.24463E-18
 -1       798 9.57180E-05-2.75455E-05-2.92166E-05 6.74042E-06-4.25322E-19 1.44935E-19
 -1       799 9.52915E-05-2.71125E-05-2.92194E-05 5.75915E-06-8.17998E-20 7.73069E-20
 -1       800 9.50978E-05-2.69882E-05-2.91896E-05 4.80351E-06 9.32416E-19 2.90195E-19
 -1       801 9.50328E-05-2.70460E-05-2.91370E-05 3.92127E-06-2.03073E-19 8.74388E-19
 -1       802 9.50334E-05-2.71997E-05-2.90714E-05 3.13741E-06-4.63212E-19 3.04567E-18
 -1       803 9.50628E-05-2.73939E-05-2.90008E-05 2.46173E-06 2.92358E-19 3.72581E-18
 -1       804 9.51011E-05-2.75948E-05-2.89311E-05 1.89391E-06 6.29431E-19 3.67896E-19
 -1       805 9.51380E-05-2.77833E-05-2.88662E-05 1.42725E-06 9.40816E-19-1.60208E-18
 -1       806 9.51691E-05-2.79499E-05-2.88082E-05 1.05144E-06 5.12650E-19-9.38038E-19
 -1       807 9.51931E-05-2.80913E-05-2.87579E-05 7.54764E-07 2.96437E-19-6.76975E-19
 -1       808 9.52096E-05-2.82070E-05-2.87153E-05 5.26287E-07-1.36531E-19 1.44872E-18
 -1       809 9.49106E-05-2.79805E-05-2.86843E-05-1.20164E-07 2.25832E-18 5.98979E-19
 -1       810 9.50659E-05-2.81438E-05-2.86809E-05-2.88274E-07 7.53825E-19-7.85395E-19
 -1       811 9.48888E-05-2.79589E-05-2.86843E-05 5.24144E-10 2.28661E-18-4.01577E-19
 -1       812 1.22756E-04-5.33266E-05-2.98039E-05 8.53326E-06-9.46297E-19 1.31075E-18
 -1       813 1.08068E-04-5.10305E-05-2.42772E-05 2.60836E-05 7.64666E-19 2.11038E-18
 -1       814 9.52419E-05-2.40656E-05-3.05033E-05 2.48683E-06 7.74859E-19-4.17922E-20
 -1       815 9.56001E-05-2.61365E-05-2.97703E-05-8.53003E-07 5.17695E-19 3.30265E-20
 -1       816 5.20469E-05-1.46234E-05-1.57617E-05-1.38015E-05 1.86303E-18 1.76511E-18
 -1       817 8.11188E-05-3.51267E-05-1.95272E-05-3.13010E-05-1.14783E-18-6.94607E-19
 -1       818 9.49726E-05-2.80445E-05-2.86835E-05-2.21961E-07 7.25391E-19 3.79678E-18
 -1       819 9.55381E-05-2.74852E-05-2.91653E-05-6.90753E-06 1.14187E-19-1.89738E-19
 -1       820 1.19855E-04-5.35912E-05-2.83320E-05-1.40822E-05 9.70015E-19-1.24762E-18
 -1       821 9.53117E-05-2.46737E-05-3.02734E-05-5.50574E-07-5.84248E-19-5.97056E-19
 -1       822 9.95977E-05-4.39247E-05-2.37161E-05 2.59827E-05-2.64684E-18 1.57605E-18
 -1       823 9.46018E-05-4.21376E-05-2.23321E-05-2.85305E-05-1.93746E-19-4.03049E-19
 -1       824 6.96048E-05-2.53726E-05-1.87830E-05 2.62793E-05-2.11814E-18-8.07725E-19
 -1       825 5.09282E-05-1.32162E-05-1.58708E-05-8.41189E-06 2.26892E-19-2.08929E-18
 -1       826 1.18300E-04-2.27172E-05-4.12621E-05 1.30991E-05 1.68491E-18 5.68769E-19
 -1       827 5.38389E-05-1.29111E-05-1.73077E-05 7.52361E-06 6.64935E-19 2.01013E-18
 -1       828 1.09860E-04-5.07818E-05-2.52308E-05-2.33984E-05-1.28821E-18 7.69923E-20
 -1       829 6.28128E-05-2.28226E-05-1.68619E-05-2.56329E-05-3.53041E-19-8.65681E-19
 -1       830 1.26699E-04-5.28286E-05-3.16698E-05-2.17678E-06 4.09595E-19 2.03962E-18
 -1       831 6.81971E-05-2.67597E-05-1.74964E-05-2.81322E-05 7.92611E-19-1.34253E-18
 -1       832 9.24213E-05-1.86431E-05-3.16205E-05 9.13883E-07 2.41155E-19-7.72762E-19
 -1       833 1.29455E-04-4.95366E-05-3.43721E-05-4.67013E-06-2.67047E-19-2.88018E-19
 -1       834 9.22493E-05-1.83897E-05-3.16563E-05 9.33302E-09 8.18649E-20-5.26094E-19
 -1       835 9.36221E-05-2.05635E-05-3.13116E-05 2.53428E-06 6.38767E-19-5.10926E-19
 -1       836 9.50654E-05-2.81472E-05-2.86792E-05 2.87624E-07-8.24334E-19-1.41937E-18
 -1       837 9.48285E-05-2.29980E-05-3.07837E-05-2.34718E-06-7.40783E-19-5.28041E-19
 -1       838 9.35699E-05-2.04795E-05-3.13278E-05-2.49028E-06-4.27979E-19-5.18666E-19
 -1       839 9.54194E-05-2.71998E-05-2.92368E-05-4.25977E-06-1.34007E-19-1.82551E-19
 -1       840 1.20924E-04-3.96729E-05-3.49346E-05-1.15480E-05 4.37082E-19-1.06865E-18
 -1       841 1.12216E-04-4.81983E-05-2.74303E-05 1.46514E-05-2.30222E-18 1.85619E-18
 -1       842 9.51937E-05-2.82548E-05-2.86887E-05 3.88905E-07-7.22792E-19 3.58233E-18
 -1       843 9.49731E-05-2.80481E-05-2.86822E-05 2.20633E-07-3.49502E-19-1.70871E-18
 -1       844 9.55105E-05-2.70775E-05-2.93283E-05-3.30721E-06 1.15001E-19-1.31625E-19
 -1       845 9.49110E-05-2.79826E-05-2.86836E-05 1.20006E-07 2.17376E-18 6.60454E-19
 -1       846 9.28931E-05-1.93699E-05-3.15112E-05 1.78139E-06 4.84083E-19-6.71975E-19
 -1       847 9.51819E-05-2.82765E-05-2.86738E-05 3.14652E-07 3.93021E-19 2.80290E-18
 -1       848 9.28491E-05-1.93029E-05-3.15210E-05-1.74255E-06-2.31657E-19-6.18758E-19
 -1       849 5.35867E-05-1.30669E-05-1.71348E-05 2.74269E-06 8.93958E-19-1.43424E-18
 -1       850 9.54919E-05-2.53096E-05-3.00773E-05 6.21475E-07 6.86950E-19 3.78755E-20
 -1       851 6.80402E-05-2.44738E-05-1.84948E-05 2.46126E-05 9.18945E-19-2.60727E-20
 -1       852 9.51219E-05-2.81962E-05-2.86820E-05-3.24412E-07-7.02707E-19-2.11099E-18
 -1       853 9.48802E-05-2.57169E-05-2.96415E-05 2.48993E-06-1.96332E-19-8.56328E-20
 -1       854 9.43827E-05-2.57601E-05-2.94097E-05 3.43614E-06 2.34026E-21 2.44904E-19
 -1       855 9.36724E-05-2.55038E-05-2.92151E-05 4.32793E-06-1.32532E-19 2.65574E-19
 -1       856 9.27742E-05-2.50453E-05-2.90267E-05 5.23389E-06-1.69838E-19-3.04634E-19
 -1       857 9.17081E-05-2.44860E-05-2.88094E-05 6.21835E-06 2.76842E-19 1.09910E-19
 -1       858 9.05057E-05-2.39509E-05-2.85234E-05 7.35080E-06 3.74794E-20-2.01438E-19
 -1       859 8.92308E-05-2.36096E-05-2.81231E-05 8.72236E-06-3.05501E-19-4.78277E-20
 -1       860 8.80114E-05-2.37057E-05-2.75588E-05 1.04775E-05 1.96965E-19 3.57373E-19
 -1       861 8.71107E-05-2.46177E-05-2.67799E-05 1.28433E-05 6.05536E-19 2.98871E-19
 -1       862 8.70329E-05-2.69275E-05-2.57480E-05 1.61399E-05 6.49775E-19 2.50090E-19
 -1       863 8.89473E-05-3.15913E-05-2.45491E-05 2.05923E-05 6.57363E-19 6.57711E-19
 -1       864 6.70467E-05-2.08044E-05-1.96740E-05-1.93924E-05 5.57579E-19 6.36598E-21
 -1       865 8.67545E-05-3.23715E-05-2.32391E-05 2.26011E-05-1.58756E-19 3.14153E-19
 -1       866 8.73326E-05-2.83633E-05-2.52496E-05-1.77518E-05 4.37678E-19-6.73881E-19
 -1       867 8.65926E-05-2.50503E-05-2.63753E-05-1.37788E-05-3.68339E-19 3.41713E-19
 -1       868 8.71208E-05-2.35148E-05-2.72603E-05-1.09158E-05-1.14234E-19 7.99668E-19
 -1       869 8.81360E-05-2.30434E-05-2.78970E-05-8.81815E-06-1.41038E-18-1.18622E-18
 -1       870 8.92905E-05-2.31795E-05-2.83332E-05-7.19504E-06-5.16524E-20-1.28583E-18
 -1       871 9.04099E-05-2.36421E-05-2.86147E-05-5.88427E-06-1.72086E-18-1.64025E-19
 -1       872 9.14125E-05-2.42539E-05-2.87821E-05-4.79202E-06-4.59742E-19-2.65327E-19
 -1       873 9.22680E-05-2.49062E-05-2.88693E-05-3.86809E-06-5.24413E-19 9.64488E-20
 -1       874 9.29741E-05-2.55355E-05-2.89022E-05-3.08502E-06-1.36404E-18 1.13830E-18
 -1       875 9.35423E-05-2.61078E-05-2.89005E-05-2.42587E-06 4.42412E-19 1.58011E-19
 -1       876 9.39900E-05-2.66078E-05-2.88780E-05-1.87758E-06 1.52096E-18 5.73876E-19
 -1       877 9.43361E-05-2.70319E-05-2.88446E-05-1.42807E-06 1.09184E-18-4.95713E-20
 -1       878 9.45990E-05-2.73832E-05-2.88068E-05-1.06527E-06-5.36277E-19-4.37111E-19
 -1       879 9.47951E-05-2.76685E-05-2.87685E-05-7.77762E-07-1.41936E-19 5.86272E-19
 -1       880 9.49388E-05-2.78977E-05-2.87321E-05-5.52516E-07 7.63397E-19 1.70664E-18
 -1       881 6.48827E-05-1.85971E-05-1.97195E-05-1.57404E-05-1.64963E-19-5.05672E-19
 -1       882 9.42833E-05-2.81685E-05-2.83353E-05-9.81824E-06-1.60559E-19 1.38073E-19
 -1       883 9.37030E-05-2.69912E-05-2.85907E-05-8.55584E-06-1.71979E-19-1.10988E-19
 -1       884 9.85974E-05-3.37746E-05-2.77817E-05-1.22277E-05-6.52727E-19 5.12864E-19
 -1       885 1.03463E-04-3.87901E-05-2.77059E-05-1.25468E-05-6.79528E-19 6.20421E-19
 -1       886 1.10572E-04-4.48702E-05-2.81766E-05-1.11521E-05-2.72849E-19-1.77083E-20
 -1       887 9.78753E-05-3.28685E-05-2.78608E-05 1.16405E-05 3.80182E-19 2.00553E-18
 -1       888 9.51841E-05-2.95537E-05-2.81264E-05 1.03819E-05-1.30179E-18 1.45057E-18
 -1       889 9.37798E-05-2.75032E-05-2.84038E-05 8.97538E-06 1.55612E-20-2.19343E-19
 -1       890 9.31939E-05-2.63866E-05-2.86315E-05 7.61229E-06 8.95609E-19 6.76766E-19
 -1       891 9.30876E-05-2.59056E-05-2.87922E-05 6.36176E-06 2.59387E-19 1.06564E-18
 -1       892 9.32379E-05-2.58281E-05-2.88898E-05 5.24382E-06 1.11198E-18-6.54346E-19
 -1       893 9.35062E-05-2.59880E-05-2.89364E-05 4.26202E-06 1.18574E-19 3.96490E-19
 -1       894 9.38103E-05-2.62713E-05-2.89453E-05 3.41352E-06-1.31945E-18 2.40747E-19
 -1       895 9.41046E-05-2.66040E-05-2.89288E-05 2.69194E-06-2.94486E-19-6.27108E-19
 -1       896 9.43664E-05-2.69398E-05-2.88971E-05 2.08829E-06 1.17344E-18 7.43615E-19
 -1       897 9.45867E-05-2.72524E-05-2.88575E-05 1.59166E-06 1.85597E-18 2.82337E-18
 -1       898 9.47645E-05-2.75285E-05-2.88154E-05 1.18981E-06 1.01358E-18 5.28393E-19
 -1       899 9.49031E-05-2.77632E-05-2.87743E-05 8.70194E-07 4.40456E-19-4.53447E-19
 -1       900 9.50073E-05-2.79566E-05-2.87360E-05 6.21396E-07-1.72811E-18-1.46957E-18
 -1       901 9.45861E-05-4.09504E-05-2.28159E-05 2.72182E-05 9.18369E-19 9.20169E-19
 -1       902 9.52216E-05-3.91847E-05-2.39803E-05-2.35375E-05-6.11809E-19 1.25361E-19
 -1       903 8.51781E-05-3.24940E-05-2.25149E-05-2.44425E-05-5.43061E-20-1.73049E-18
 -1       904 9.47469E-05-2.77683E-05-2.87052E-05-8.24023E-08 3.55795E-18 6.00734E-19
 -1       905 1.02566E-04-3.77962E-05-2.77754E-05 1.22499E-05-5.59158E-19 2.05120E-18
 -1       906 1.06294E-04-4.23025E-05-2.74520E-05 1.37135E-05-2.44272E-18 2.15162E-18
 -1       907 9.23961E-05-1.86090E-05-3.16249E-05-8.85490E-07-8.21339E-20-8.17299E-19
 -1       908 9.57547E-05-3.03193E-05-2.80436E-05-1.11099E-05 7.55697E-20 6.18239E-19
 -1       909 9.51216E-05-2.52648E-05-2.99389E-05 1.41310E-06-3.10526E-19-2.72510E-19
 -1       910 6.85159E-05-1.89613E-05-2.11848E-05 1.50387E-05-6.58532E-19-3.98632E-19
 -1       911 6.10738E-05-1.43287E-05-1.99385E-05-5.96953E-06 4.22547E-19 1.96762E-18
 -1       912 9.52845E-05-2.62074E-05-2.96045E-05-2.47986E-06 3.28983E-19-1.21769E-19
 -1       913 7.83779E-05-2.84957E-05-2.12889E-05-2.39825E-05-4.22454E-19-6.18992E-19
 -1       914 1.16390E-04-4.93608E-05-2.87406E-05-9.87979E-06-5.33177E-19 8.88415E-19
 -1       915 9.50284E-05-2.42585E-05-3.03300E-05 1.34106E-07-4.76624E-19-7.61738E-20
 -1       916 9.53850E-05-2.56290E-05-2.98951E-05-1.30736E-06 5.34796E-19-9.67368E-20
 -1       917 9.42546E-05-2.63700E-05-2.90933E-05-5.35393E-06 2.87034E-19-2.92196E-19
 -1       918 9.48457E-05-2.33482E-05-3.06417E-05 1.18033E-06 7.02926E-19-1.80484E-19
 -1       919 6.13338E-05-1.63502E-05-1.91376E-05 1.20868E-05 1.00688E-18-1.11054E-18
 -1       920 9.47479E-05-2.77706E-05-2.87046E-05 8.66682E-08 2.32343E-18-2.42374E-19
 -1       921 6.20645E-05-1.53931E-05-1.98862E-05-7.59635E-06 7.77491E-19-1.11231E-18
 -1       922 9.50468E-05-2.80644E-05-2.87067E-05-4.29681E-07 1.44240E-18-4.64423E-19
 -1       923 9.46558E-05-2.64522E-05-2.92300E-05-4.42657E-06 5.60566E-20-6.06081E-19
 -1       924 9.36486E-05-2.64594E-05-2.87953E-05-7.38895E-06-2.81414E-19-4.34536E-19
 -1       925 1.05032E-04-4.36903E-05-2.62466E-05-1.80994E-05-6.51544E-19-5.81789E-20
 -1       926 9.83565E-05-3.88718E-05-2.54555E-05 1.92655E-05-1.51355E-18 1.26434E-18
 -1       927 9.50398E-05-2.80508E-05-2.87093E-05 4.59819E-07-1.81348E-18-1.17695E-18
 -1       928 9.49208E-05-2.79429E-05-2.87048E-05 3.64279E-07-1.41203E-18-2.11752E-18
 -1       929 9.50191E-05-2.64383E-05-2.93918E-05-3.49194E-06 5.09625E-20-2.92239E-19
 -1       930 6.70281E-05-1.54793E-05-2.20680E-05 4.52909E-06-1.13279E-18 1.18279E-18
 -1       931 9.34038E-05-2.07458E-05-3.11382E-05 2.15834E-07 2.81839E-19-6.82310E-19
 -1       932 9.52285E-05-2.43492E-05-3.03760E-05 9.48464E-07 5.98681E-19-2.55132E-19
 -1       933 9.48055E-05-2.78245E-05-2.87062E-05-2.38318E-07 1.77972E-18 8.35526E-19
 -1       934 9.45065E-05-2.26737E-05-3.07847E-05-1.07880E-06-4.51284E-19-1.91223E-19
 -1       935 9.36879E-05-2.12112E-05-3.10627E-05 6.35597E-07 3.69023E-19-6.35403E-19
 -1       936 9.39125E-05-2.16128E-05-3.09856E-05-7.89140E-07-3.46721E-19-4.42648E-19
 -1       937 9.52065E-05-2.45304E-05-3.02913E-05 1.37197E-07 4.95757E-19-1.38857E-19
 -1       938 9.38856E-05-2.63206E-05-2.89564E-05-6.32818E-06 2.04764E-19-9.48382E-20
 -1       939 9.49393E-05-2.79595E-05-2.87056E-05-3.63651E-07 5.73785E-19 1.13021E-18
 -1       940 9.33816E-05-2.49792E-05-2.93154E-05 2.96098E-06-8.07083E-20 1.18638E-19
 -1       941 9.22964E-05-2.45216E-05-2.90465E-05 3.64469E-06-1.66420E-19-2.41160E-19
 -1       942 9.09315E-05-2.38443E-05-2.87519E-05 4.35417E-06 7.67381E-20 2.10309E-19
 -1       943 8.92838E-05-2.30424E-05-2.83894E-05 5.14889E-06 1.88204E-19 2.68176E-19
 -1       944 8.73457E-05-2.22296E-05-2.79073E-05 6.11015E-06 7.75479E-20 4.58296E-19
 -1       945 8.50982E-05-2.15329E-05-2.72430E-05 7.36910E-06 1.13803E-19 2.58597E-19
 -1       946 8.25239E-05-2.11204E-05-2.63156E-05 9.16938E-06 3.59130E-19 5.08020E-19
 -1       947 7.96574E-05-2.12815E-05-2.50158E-05 1.19049E-05 5.14027E-19 2.87052E-19
 -1       948 7.68106E-05-2.25094E-05-2.32376E-05 1.63010E-05 1.06516E-18 1.61249E-19
 -1       949 8.12700E-05-2.50457E-05-2.40905E-05 1.62996E-05 2.71245E-19 5.54635E-19
 -1       950 7.30188E-05-2.07353E-05-2.23163E-05-1.59682E-05 1.06767E-18-4.00941E-19
 -1       951 9.47174E-05-2.40293E-05-3.02956E-05 5.44193E-07-2.99104E-19 4.61552E-20
 -1       952 8.07123E-05-2.05914E-05-2.57719E-05-9.88878E-06 8.16106E-19-6.25100E-19
 -1       953 8.32996E-05-2.06739E-05-2.68422E-05-7.64224E-06-1.37283E-18-2.36457E-19
 -1       954 8.55525E-05-2.12050E-05-2.75783E-05-6.09145E-06-1.35812E-18-8.95369E-19
 -1       955 8.74699E-05-2.19543E-05-2.80784E-05-4.94974E-06-1.12343E-18-2.20714E-18
 -1       956 8.90841E-05-2.27995E-05-2.84078E-05-4.04644E-06-9.08929E-19-1.63108E-18
 -1       957 9.04249E-05-2.36575E-05-2.86147E-05-3.29960E-06-3.54519E-19-1.59132E-18
 -1       958 9.15236E-05-2.44745E-05-2.87354E-05-2.66764E-06-1.62838E-19-1.51831E-18
 -1       959 9.24116E-05-2.52189E-05-2.87969E-05-2.13009E-06 1.08224E-18 2.61047E-19
 -1       960 9.31192E-05-2.58748E-05-2.88191E-05-1.67564E-06 1.19207E-18 1.47574E-18
 -1       961 9.36751E-05-2.64372E-05-2.88163E-05-1.29627E-06 1.63268E-18 1.17014E-18
 -1       962 9.41050E-05-2.69084E-05-2.87986E-05-9.84501E-07-2.78490E-19 8.18245E-19
 -1       963 9.44329E-05-2.72961E-05-2.87729E-05-7.32466E-07 1.43418E-19 1.17587E-18
 -1       964 9.46769E-05-2.76081E-05-2.87437E-05-5.30763E-07 7.99126E-19 1.07113E-18
 -1       965 9.40584E-05-3.30498E-05-2.61408E-05-1.61616E-05-7.59143E-19 3.90218E-19
 -1       966 9.00408E-05-2.48804E-05-2.79261E-05 8.17437E-06-4.01681E-19 7.21031E-19
 -1       967 9.00740E-05-2.60049E-05-2.74585E-05 1.01470E-05 1.33746E-19 2.12375E-19
 -1       968 9.44309E-05-2.29766E-05-3.06212E-05-1.39587E-07-2.70582E-19-3.16874E-19
 -1       969 9.09372E-05-2.82252E-05-2.68812E-05 1.26129E-05-2.59016E-19-1.18552E-19
 -1       970 9.04447E-05-2.44693E-05-2.82755E-05 6.59296E-06 2.74895E-19 8.57660E-19
 -1       971 9.10528E-05-2.45049E-05-2.85208E-05 5.30763E-06 1.36524E-18 8.52995E-19
 -1       972 9.17243E-05-2.48026E-05-2.86809E-05 4.25284E-06 1.50704E-19 1.42883E-18
 -1       973 9.23778E-05-2.52352E-05-2.87755E-05 3.38190E-06-5.69375E-20 4.35831E-19
 -1       974 9.29705E-05-2.57185E-05-2.88224E-05 2.66227E-06 3.41680E-19-3.73060E-19
 -1       975 9.34828E-05-2.61988E-05-2.88361E-05 2.07020E-06-6.45653E-19 3.17373E-19
 -1       976 9.39100E-05-2.66446E-05-2.88281E-05 1.58709E-06 5.82529E-20 1.86651E-18
 -1       977 9.42556E-05-2.70391E-05-2.88071E-05 1.19729E-06 3.18320E-18 2.49027E-18
 -1       978 9.45279E-05-2.73763E-05-2.87793E-05 8.86601E-07 1.81818E-18 2.98376E-18
 -1       979 9.47366E-05-2.76561E-05-2.87488E-05 6.44423E-07-3.04093E-19 1.99015E-18
 -1       980 9.47122E-05-2.56371E-05-2.96037E-05-2.49251E-06 3.16144E-19-1.34524E-19
 -1       981 9.48095E-05-2.78319E-05-2.87048E-05 2.43867E-07 1.66480E-18 2.70785E-18
 -1       982 9.35213E-05-2.09610E-05-3.10967E-05-4.20314E-07-1.12829E-19-5.11742E-19
 -1       983 9.42104E-05-2.21035E-05-3.09035E-05 9.77531E-07 4.34087E-19-3.53614E-19
 -1       984 9.48355E-05-2.78077E-05-2.87262E-05 4.89872E-07-4.62759E-19-4.17709E-19
 -1       985 9.49504E-05-2.42563E-05-3.02959E-05-4.66747E-07 2.93343E-19-1.77133E-19
 -1       986 9.46408E-05-2.48473E-05-2.99118E-05 1.46239E-06-1.57392E-19 3.03804E-19
 -1       987 9.34226E-05-3.20816E-05-2.62985E-05 1.54249E-05-6.98052E-20 1.14838E-19
 -1       988 7.73451E-05-2.05018E-05-2.43452E-05-1.23256E-05 6.41994E-19-8.40498E-19
 -1       989 9.33857E-05-2.07283E-05-3.11376E-05-1.15644E-07 2.21465E-19-3.99591E-19
 -1       990 9.41734E-05-2.51217E-05-2.95938E-05 2.25063E-06-1.19930E-20 2.80821E-19
 -1       991 9.06704E-05-2.55895E-05-2.78924E-05-9.00483E-06-2.69540E-19-5.57735E-19
 -1       992 9.49840E-05-2.51875E-05-2.99128E-05-1.54548E-06 4.88196E-19-1.28146E-19
 -1       993 6.32252E-05-1.48149E-05-2.06677E-05 1.14714E-06 1.19565E-18-1.37260E-18
 -1       994 9.45441E-05-2.75201E-05-2.87246E-05 5.28535E-09 2.93853E-18 3.03571E-18
 -1       995 7.55039E-05-1.94998E-05-2.39852E-05 1.03502E-05-6.80642E-19 2.02534E-19
 -1       996 9.40051E-05-2.23900E-05-3.06920E-05-2.77648E-08 1.46128E-19-3.71717E-19
 -1       997 7.00775E-05-1.61805E-05-2.30710E-05-5.24490E-06-4.62808E-21 8.87035E-20
 -1       998 8.80226E-05-3.11626E-05-2.43344E-05-1.95556E-05-7.51165E-19 9.82275E-20
 -1       999 9.11764E-05-2.51436E-05-2.83000E-05-7.46008E-06-2.93485E-19-2.49708E-19
 -1      1000 7.13053E-05-1.89491E-05-2.23975E-05-1.14409E-05-1.73663E-19 4.19645E-19
 -1      1001 9.42008E-05-2.57243E-05-2.93471E-05-3.36591E-06 1.15747E-19-2.53343E-19
 -1      1002 9.46849E-05-2.76637E-05-2.87235E-05 3.39086E-07 3.32291E-18 3.37339E-18
 -1      1003 9.16241E-05-2.91109E-05-2.67886E-05-1.33176E-05-4.19064E-19-2.52114E-19
 -1      1004 7.83775E-05-2.44385E-05-2.30790E-05-1.73681E-05-4.62447E-19-1.05882E-19
 -1      1005 9.06856E-05-2.67850E-05-2.73873E-05-1.09250E-05-1.21027E-20-6.12604E-19
 -1      1006 9.41866E-05-2.26781E-05-3.06453E-05-3.38653E-08 4.23810E-19-5.44960E-19
 -1      1007 9.27365E-05-2.53399E-05-2.88842E-05-5.15251E-06 3.32870E-19-1.62439E-19
 -1      1008 9.45823E-05-2.75533E-05-2.87267E-05-2.19604E-07 2.20383E-18-2.86371E-18
 -1      1009 9.35204E-05-2.55821E-05-2.91164E-05-4.22964E-06 1.09464E-19-3.38388E-19
 -1      1010 7.12947E-05-1.76791E-05-2.29640E-05 8.73782E-06 5.87439E-19-1.31839E-18
 -1      1011 9.08724E-05-2.36347E-05-2.88169E-05 2.41131E-06 3.53416E-19 1.58259E-19
 -1      1012 8.90882E-05-2.27690E-05-2.84231E-05 2.80301E-06 2.46817E-19 4.51101E-19
 -1      1013 8.68943E-05-2.17457E-05-2.79215E-05 3.24150E-06 4.71131E-19 2.89577E-19
 -1      1014 8.42289E-05-2.06602E-05-2.72455E-05 3.77989E-06 2.67473E-19 8.08439E-19
 -1      1015 8.09353E-05-1.95476E-05-2.63107E-05 4.52890E-06-3.27423E-19 6.09779E-19
 -1      1016 7.67455E-05-1.84493E-05-2.49859E-05 5.74493E-06 8.97210E-20-5.90458E-19
 -1      1017 9.40511E-05-2.24791E-05-3.06730E-05-2.98177E-08 5.30069E-20-8.20138E-20
 -1      1018 7.31139E-05-1.66494E-05-2.42036E-05 1.47094E-06-8.98164E-19 2.17414E-19
 -1      1019 8.19408E-05-1.94304E-05-2.67945E-05-3.75810E-06-1.26152E-18-3.65267E-19
 -1      1020 8.46879E-05-2.04717E-05-2.75226E-05-3.09339E-06-2.37213E-18-3.76777E-19
 -1      1021 8.68945E-05-2.15266E-05-2.80156E-05-2.58457E-06-9.23923E-19 1.46678E-19
 -1      1022 8.86817E-05-2.25502E-05-2.83426E-05-2.16432E-06-5.81773E-19 8.11594E-19
 -1      1023 9.01337E-05-2.35137E-05-2.85518E-05-1.79777E-06 3.86122E-20 5.86727E-20
 -1      1024 9.13092E-05-2.43945E-05-2.86780E-05-1.47316E-06 4.36671E-19 2.01307E-20
 -1      1025 9.22532E-05-2.51782E-05-2.87467E-05-1.18730E-06 2.80576E-18 5.32129E-19
 -1      1026 9.30031E-05-2.58585E-05-2.87765E-05-9.39408E-07 1.74882E-18 5.05450E-19
 -1      1027 9.35917E-05-2.64364E-05-2.87810E-05-7.28769E-07-1.32891E-19-9.53729E-19
 -1      1028 9.40461E-05-2.69168E-05-2.87700E-05-5.54633E-07-1.14529E-20-2.03342E-18
 -1      1029 9.43912E-05-2.73087E-05-2.87499E-05-4.14229E-07 8.22995E-19-2.97324E-18
 -1      1030 8.61405E-05-2.29115E-05-2.70994E-05 8.14362E-06-8.54756E-19-2.22644E-20
 -1      1031 8.86040E-05-2.30397E-05-2.80999E-05 4.86936E-06 1.54234E-19-7.85225E-19
 -1      1032 6.94292E-05-1.66789E-05-2.25793E-05-4.99085E-06-6.24699E-20-3.06829E-19
 -1      1033 8.73635E-05-2.27723E-05-2.76835E-05 6.26208E-06 1.09941E-19-5.48941E-21
 -1      1034 8.97711E-05-2.35357E-05-2.83872E-05 3.80624E-06 1.22610E-20 2.03592E-19
 -1      1035 9.08233E-05-2.41463E-05-2.85763E-05 2.97633E-06 3.29366E-19-4.87958E-19
 -1      1036 9.17410E-05-2.47926E-05-2.86926E-05 2.31887E-06 4.74754E-19-2.77765E-19
 -1      1037 9.25196E-05-2.54220E-05-2.87564E-05 1.79395E-06-1.35970E-18 8.97950E-19
 -1      1038 9.31643E-05-2.60025E-05-2.87839E-05 1.37394E-06-1.48750E-18 2.16079E-18
 -1      1039 9.36874E-05-2.65178E-05-2.87871E-05 1.03897E-06 1.09386E-18 2.99543E-18
 -1      1040 9.41009E-05-2.69586E-05-2.87753E-05 7.74712E-07 2.27185E-18 4.87909E-18
 -1      1041 9.44222E-05-2.73277E-05-2.87547E-05 5.68035E-07 1.12720E-18 4.51162E-18
 -1      1042 9.45622E-05-2.75039E-05-2.87392E-05 4.41731E-07 3.02092E-18 3.61398E-18
 -1      1043 8.36620E-05-2.43285E-05-2.54174E-05 1.31600E-05-3.05589E-19 3.76063E-19
 -1      1044 9.45337E-05-2.33774E-05-3.04924E-05-1.99057E-07 3.81896E-19-4.50138E-19
 -1      1045 9.44085E-05-2.39654E-05-3.01911E-05 6.14952E-07-1.49402E-19-2.88964E-19
 -1      1046 9.19189E-05-2.51347E-05-2.86219E-05-6.19984E-06 3.12253E-19 2.06664E-19
 -1      1047 8.67320E-05-2.72323E-05-2.54944E-05-1.48987E-05-6.87666E-19-2.15627E-19
 -1      1048 8.48715E-05-2.33255E-05-2.63738E-05 1.02672E-05-6.28632E-19 2.19730E-19
 -1      1049 9.23072E-05-2.42831E-05-2.91538E-05 2.01981E-06-2.54176E-19-1.30170E-19
 -1      1050 9.41819E-05-2.26147E-05-3.06699E-05-6.56771E-08-8.18489E-20-4.11763E-19
 -1      1051 9.45918E-05-2.75703E-05-2.87235E-05 1.84013E-07 2.70007E-18-3.76081E-19
 -1      1052 7.84174E-05-1.83733E-05-2.57253E-05-4.70040E-06-3.60238E-19-7.31428E-19
 -1      1053 9.42014E-05-2.35152E-05-3.02922E-05 3.82528E-08-1.21994E-19 6.57379E-20
 -1      1054 9.43056E-05-2.36735E-05-3.02714E-05-3.74537E-07 1.39923E-19-1.87517E-19
 -1      1055 7.52922E-05-1.75416E-05-2.47455E-05-5.17424E-06-3.61295E-19 8.53134E-20
 -1      1056 7.61842E-05-1.94142E-05-2.43258E-05-8.11930E-06-2.54515E-19 2.31302E-19
 -1      1057 9.43200E-05-2.72558E-05-2.87417E-05 1.56062E-07 2.69266E-18-5.89459E-19
 -1      1058 9.39664E-05-2.50877E-05-2.95196E-05-2.17621E-06 2.00226E-19-9.67601E-20
 -1      1059 8.67292E-05-2.36134E-05-2.70489E-05-8.81853E-06-2.81170E-19-5.52706E-20
 -1      1060 8.80832E-05-2.34662E-05-2.76937E-05-6.94380E-06-8.87207E-20 1.21036E-19
 -1      1061 9.41016E-05-2.45383E-05-2.98121E-05 1.15889E-06-1.16430E-19-2.77521E-19
 -1      1062 8.05548E-05-2.28266E-05-2.47320E-05-1.26253E-05-4.75370E-19 2.08804E-19
 -1      1063 9.09004E-05-2.41836E-05-2.85937E-05-4.48052E-06-4.02810E-20-4.70793E-20
 -1      1064 9.33898E-05-2.46177E-05-2.94744E-05 1.60938E-06-2.75129E-19-3.28793E-19
 -1      1065 9.21216E-05-2.46344E-05-2.89233E-05-3.60684E-06-3.67811E-20-1.91526E-20
 -1      1066 9.44802E-05-2.48424E-05-2.98463E-05-1.46850E-06 1.97761E-19-3.15715E-19
 -1      1067 9.46482E-05-2.43019E-05-3.01487E-05-8.66898E-07 2.97245E-19-5.15992E-19
 -1      1068 9.43069E-05-2.72374E-05-2.87434E-05-1.33525E-07 1.10446E-18 4.90596E-19
 -1      1069 8.96023E-05-2.29604E-05-2.85610E-05 6.41705E-07 3.61834E-19-6.72529E-20
 -1      1070 8.75531E-05-2.20218E-05-2.80855E-05 5.91691E-07-9.33638E-20 1.62680E-20
 -1      1071 8.49572E-05-2.08654E-05-2.74611E-05 4.95966E-07 2.31592E-19-1.79109E-19
 -1      1072 8.16386E-05-1.95642E-05-2.66028E-05 2.68644E-07 1.45445E-20-7.01547E-19
 -1      1073 7.77762E-05-1.83847E-05-2.54411E-05-6.93363E-08-7.41784E-19-4.03152E-19
 -1      1074 9.44304E-05-2.73698E-05-2.87402E-05 3.12463E-07 2.29153E-18 8.03667E-19
 -1      1075 8.25006E-05-1.94989E-05-2.69989E-05-1.82792E-07-3.94140E-19-7.72688E-19
 -1      1076 7.18752E-05-1.67751E-05-2.36105E-05 2.00390E-07-3.86638E-19-7.42604E-19
 -1      1077 7.63888E-05-1.74846E-05-2.52384E-05 6.88290E-07-4.23373E-19-1.04480E-18
 -1      1078 7.97546E-05-1.84927E-05-2.62517E-05 1.92761E-07-3.83084E-19-9.17718E-19
 -1      1079 8.51529E-05-2.06548E-05-2.76434E-05-3.56791E-07-8.15995E-19 2.03115E-18
 -1      1080 8.72630E-05-2.17445E-05-2.80804E-05-4.41384E-07-6.72760E-19 1.72064E-18
 -1      1081 8.89736E-05-2.27750E-05-2.83715E-05-4.63023E-07-6.67917E-19 2.71236E-18
 -1      1082 9.03649E-05-2.37297E-05-2.85584E-05-4.43472E-07-9.53916E-20 1.90861E-18
 -1      1083 9.14922E-05-2.45930E-05-2.86714E-05-3.99420E-07 1.45172E-18 5.45983E-19
 -1      1084 9.23979E-05-2.53550E-05-2.87329E-05-3.43566E-07 1.34357E-18-1.63889E-18
 -1      1085 9.31175E-05-2.60127E-05-2.87594E-05-2.85027E-07 7.52236E-20-3.59720E-18
 -1      1086 9.36850E-05-2.65698E-05-2.87632E-05-2.32176E-07-3.79083E-19-2.82260E-18
 -1      1087 9.40277E-05-2.69302E-05-2.87559E-05-1.79681E-07-4.81566E-19-6.81500E-19
 -1      1088 8.77357E-05-2.22410E-05-2.80680E-05 2.85606E-06-5.75185E-19-9.74940E-19
 -1      1089 8.39027E-05-2.08500E-05-2.70228E-05 5.11880E-06-4.00243E-19-5.35020E-19
 -1      1090 8.59744E-05-2.14802E-05-2.76396E-05 3.80600E-06 6.18320E-19-9.54765E-19
 -1      1091 9.04936E-05-2.38779E-05-2.85489E-05 1.63804E-06 6.48376E-19 7.76442E-19
 -1      1092 7.74169E-05-1.92235E-05-2.49369E-05 7.64770E-06-1.04107E-18 8.26861E-19
 -1      1093 9.15441E-05-2.46564E-05-2.86657E-05 1.24187E-06-1.02611E-18 1.68346E-18
 -1      1094 9.24068E-05-2.53677E-05-2.87307E-05 9.37986E-07-1.60117E-18 8.31392E-19
 -1      1095 9.31035E-05-2.59962E-05-2.87599E-05 7.04316E-07-1.13570E-18 3.03090E-20
 -1      1096 9.36599E-05-2.65381E-05-2.87656E-05 5.18706E-07 2.06741E-19 4.70315E-19
 -1      1097 8.95454E-05-2.37539E-05-2.81948E-05-5.55466E-06 8.19054E-20 9.64948E-21
 -1      1098 8.64921E-05-2.52695E-05-2.62375E-05-1.20365E-05-6.57362E-19 2.18348E-19
 -1      1099 9.31628E-05-2.49806E-05-2.92212E-05-2.86495E-06 6.76076E-20-4.89470E-20
 -1      1100 9.13094E-05-2.37455E-05-2.89556E-05 6.38311E-07 3.38584E-19 2.73945E-19
 -1      1101 8.92323E-05-2.30593E-05-2.83590E-05 2.15948E-06 3.41822E-19-2.48641E-19
 -1      1102 9.39644E-05-2.42272E-05-2.98878E-05 9.28003E-08-8.24017E-20 2.12865E-19
 -1      1103 8.45220E-05-2.15224E-05-2.70027E-05-5.49783E-06-7.28225E-20-2.56798E-20
 -1      1104 8.16200E-05-2.03494E-05-2.62607E-05 6.51712E-06 2.92333E-19 4.76509E-19
 -1      1105 7.63020E-05-1.83804E-05-2.48726E-05-3.97796E-06-7.87007E-19-3.75971E-19
 -1      1106 8.16546E-05-2.11924E-05-2.59026E-05-8.25107E-06-7.06785E-19-1.14841E-19
 -1      1107 8.88289E-05-2.29176E-05-2.82462E-05-3.20367E-06 9.13981E-20-3.81386E-20
 -1      1108 9.05661E-05-2.36528E-05-2.86771E-05-2.48585E-06 3.59174E-20-1.40664E-19
 -1      1109 9.41035E-05-2.70041E-05-2.87569E-05 3.73593E-07 2.97484E-18 4.23108E-19
 -1      1110 9.31212E-05-2.45751E-05-2.93775E-05-1.47753E-06-7.40839E-20-5.25330E-20
 -1      1111 9.26342E-05-2.42431E-05-2.93099E-05 5.74760E-07-3.10393E-20 2.63170E-19
 -1      1112 9.39135E-05-2.45680E-05-2.97198E-05-1.05791E-06 5.39208E-20-1.68528E-19
 -1      1113 8.65821E-05-2.17528E-05-2.77909E-05-2.18394E-06 2.06082E-20-3.69607E-19
 -1      1114 9.34194E-05-2.43676E-05-2.95921E-05 3.01730E-07-1.67405E-19 1.48839E-19
 -1      1115 9.39207E-05-2.68230E-05-2.87572E-05 2.54704E-07 2.01059E-18-2.02908E-18
 -1      1116 9.19951E-05-2.42358E-05-2.90402E-05-1.93666E-06-1.67803E-20-1.03369E-19
 -1      1117 1.16370E-04 2.56384E-10-4.17048E-05-4.12080E-05-1.12655E-19 5.10104E-18
 -1      1118 8.85425E-05 7.21549E-11-3.71974E-05-2.39292E-05-6.98802E-20 1.42492E-18
 -1      1119 8.41161E-05 4.17289E-11-3.57740E-05-1.75959E-05-5.75982E-20-2.73142E-19
 -1      1120 8.24423E-05 3.20751E-11-3.51130E-05-1.35248E-05-3.78518E-20-1.12706E-18
 -1      1121 8.16594E-05 2.71202E-11-3.47920E-05-1.02231E-05-2.78727E-20-1.61785E-18
 -1      1122 8.12493E-05 2.40915E-11-3.46275E-05-7.36653E-06-1.78142E-20-1.85462E-18
 -1      1123 8.10211E-05 2.21900E-11-3.45392E-05-4.77584E-06-1.07302E-20-1.92073E-18
 -1      1124 8.09022E-05 2.11328E-11-3.44948E-05-2.32407E-06-2.21684E-22-1.94552E-18
 -1      1125 8.08662E-05 2.08064E-11-3.44815E-05 5.13509E-08 1.27220E-21-1.91748E-18
 -1      1126 8.09052E-05 2.11809E-11-3.44956E-05 2.42950E-06 1.02008E-20-1.93919E-18
 -1      1127 8.10274E-05 2.22981E-11-3.45409E-05 4.89025E-06 1.67289E-20-1.89026E-18
 -1      1128 8.12609E-05 2.42591E-11-3.46299E-05 7.49793E-06 2.25920E-20-1.70493E-18
 -1      1129 8.16767E-05 2.74210E-11-3.47963E-05 1.03820E-05 2.59404E-20-1.42337E-18
 -1      1130 8.24619E-05 3.25614E-11-3.51215E-05 1.37299E-05 4.37810E-20-9.43575E-19
 -1      1131 8.41108E-05 4.21920E-11-3.57931E-05 1.78462E-05 5.83923E-20-6.53407E-20
 -1      1132 8.82418E-05 6.70167E-11-3.72666E-05 2.37737E-05 5.78100E-20 1.72583E-18
 -1      1133 1.06198E-04 1.63559E-10-4.04914E-05 3.59638E-05 1.16467E-19 5.39369E-18
 -1      1134 1.29544E-04-2.56382E-05-4.00991E-05-2.59309E-05-4.68197E-19 7.43441E-18
 -1      1135 9.71003E-05-2.87582E-05-3.14675E-05-6.63391E-07-1.22396E-19 6.32903E-18
 -1      1136 9.00142E-05-2.69862E-05-2.78466E-05 3.87033E-07-2.93020E-20 4.88371E-18
 -1      1137 8.83017E-05-2.65921E-05-2.66620E-05 2.48931E-07-1.98523E-22 3.74235E-18
 -1      1138 8.81885E-05-2.65404E-05-2.64832E-05 1.64358E-07 8.88227E-21 2.87687E-18
 -1      1139 8.88808E-05-2.67188E-05-2.66718E-05 1.18014E-07 1.47768E-20 2.85379E-18
 -1      1140 9.00309E-05-2.70447E-05-2.70179E-05 9.01775E-08-8.62600E-20 2.28162E-18
 -1      1141 9.14894E-05-2.74722E-05-2.74587E-05 7.34316E-08-5.07062E-21 1.43756E-18
 -1      1142 9.32044E-05-2.79822E-05-2.79777E-05 6.45508E-08-4.28339E-20 1.07256E-18
 -1      1143 9.51818E-05-2.85739E-05-2.85771E-05 6.24487E-08-5.48222E-20 6.57648E-19
 -1      1144 9.74642E-05-2.92585E-05-2.92694E-05 6.71181E-08-1.54095E-20 8.23210E-21
 -1      1145 1.00115E-04-3.00538E-05-3.00725E-05 7.90059E-08-5.36394E-20-1.81397E-19
 -1      1146 1.03199E-04-3.09777E-05-3.10031E-05 9.83937E-08-6.89066E-20-4.08376E-19
 -1      1147 1.06751E-04-3.20389E-05-3.20668E-05 1.24345E-07-3.39425E-20-8.62782E-20
 -1      1148 1.10724E-04-3.32217E-05-3.32418E-05 1.52716E-07 2.95593E-20 2.07020E-19
 -1      1149 1.14912E-04-3.44627E-05-3.44547E-05 1.72780E-07-2.23339E-20 1.52625E-19
 -1      1150 1.18844E-04-3.56191E-05-3.55519E-05 1.62862E-07-1.33373E-19 1.53525E-21
 -1      1151 1.21676E-04-3.64396E-05-3.62788E-05 8.81576E-08 1.17519E-19-3.06851E-20
 -1      1152 1.22195E-04-3.65660E-05-3.63004E-05-9.04054E-08-7.73182E-20-7.57300E-19
 -1      1153 1.19102E-04-3.56228E-05-3.53051E-05-3.83581E-07-5.08882E-20-1.24519E-18
 -1      1154 1.11770E-04-3.34435E-05-3.32173E-05-7.16497E-07 3.50228E-20-8.25539E-19
 -1      1155 1.01328E-04-3.03869E-05-3.04319E-05-8.97301E-07 9.48491E-20 1.55960E-19
 -1      1156 9.11982E-05-2.74623E-05-2.78472E-05-7.12645E-07 1.76514E-19 8.96584E-19
 -1      1157 8.58477E-05-2.59309E-05-2.65157E-05-1.53351E-07-2.43707E-19 6.19260E-20
 -1      1158 8.79742E-05-2.65388E-05-2.70415E-05 4.93848E-07-7.05353E-20-1.03852E-18
 -1      1159 9.64967E-05-2.89896E-05-2.91880E-05 8.66002E-07 3.65349E-20-3.80847E-19
 -1      1160 1.07385E-04-3.21568E-05-3.20331E-05 8.31902E-07-1.49531E-19-5.50677E-19
 -1      1161 1.16473E-04-3.48381E-05-3.45411E-05 5.39309E-07 3.98833E-20-3.75257E-18
 -1      1162 1.21575E-04-3.63713E-05-3.60718E-05 2.11659E-07 1.92971E-19-1.69894E-18
 -1      1163 1.22660E-04-3.67228E-05-3.65144E-05-2.04813E-08-6.01029E-20-6.17368E-19
 -1      1164 1.20857E-04-3.62125E-05-3.61085E-05-1.36721E-07 6.81961E-20 6.44486E-19
 -1      1165 1.17490E-04-3.52290E-05-3.52011E-05-1.69200E-07 2.20698E-19-6.57086E-19
 -1      1166 1.13593E-04-3.40791E-05-3.40930E-05-1.56865E-07-8.21395E-20-3.59168E-18
 -1      1167 1.09807E-04-3.29552E-05-3.29855E-05-1.27282E-07-2.21981E-19-5.00675E-18
 -1      1168 1.06453E-04-3.19553E-05-3.19880E-05-9.54148E-08 3.28053E-19-3.10346E-18
 -1      1169 1.03649E-04-3.11159E-05-3.11447E-05-6.76508E-08 5.24433E-22-1.31534E-18
 -1      1170 1.01394E-04-3.04388E-05-3.04618E-05-4.57742E-08-1.57185E-19-2.32074E-18
 -1      1171 9.96327E-05-2.99086E-05-2.99259E-05-2.95183E-08-5.12232E-20-1.90984E-18
 -1      1172 9.82905E-05-2.95033E-05-2.95159E-05-1.79108E-08 3.30312E-19 7.37663E-19
 -1      1173 9.72898E-05-2.92004E-05-2.92093E-05-9.88219E-09-1.11158E-19 2.48684E-19
 -1      1174 9.65601E-05-2.89790E-05-2.89851E-05-4.49493E-09-1.94753E-19-1.15530E-18
 -1      1175 9.60410E-05-2.88210E-05-2.88251E-05-9.99624E-10-3.42548E-20-3.44580E-18
 -1      1176 9.56828E-05-2.87116E-05-2.87143E-05 1.17750E-09-2.11618E-19-4.77092E-18
 -1      1177 9.54455E-05-2.86389E-05-2.86405E-05 2.46941E-09 2.34960E-19-2.59682E-18
 -1      1178 9.52980E-05-2.85933E-05-2.85944E-05 3.20718E-09 2.82510E-19-6.56410E-19
 -1      1179 9.52166E-05-2.85679E-05-2.85687E-05 3.65850E-09-5.74836E-20 1.60880E-18
 -1      1180 9.51834E-05-2.85570E-05-2.85577E-05 4.05550E-09-3.69168E-19 3.21598E-18
 -1      1181 9.51847E-05-2.85567E-05-2.85570E-05 4.52498E-09 1.44540E-19 3.00290E-18
 -1      1182 9.52086E-05-2.85640E-05-2.85617E-05 5.21966E-09 3.08837E-19 3.24414E-18
 -1      1183 9.52309E-05-2.85695E-05-2.85657E-05 1.83805E-09 5.34123E-19 3.25628E-18
 -1      1184 1.30375E-04-3.75277E-05-3.84981E-05 1.21111E-05-1.26499E-19 8.42925E-18
 -1      1185 9.62236E-05-2.80924E-05-3.12252E-05 7.95408E-07 5.39984E-21 7.03884E-18
 -1      1186 9.02383E-05-2.68926E-05-2.78312E-05 1.21847E-07 4.37281E-20 5.47788E-18
 -1      1187 8.84006E-05-2.65231E-05-2.67019E-05 1.46392E-08 3.92216E-20 4.33040E-18
 -1      1188 8.82423E-05-2.65062E-05-2.65140E-05-1.67960E-08 2.41272E-20 3.24032E-18
 -1      1189 8.89131E-05-2.67031E-05-2.66902E-05-2.35802E-08 7.41154E-20 2.68861E-18
 -1      1190 9.00438E-05-2.70355E-05-2.70272E-05-2.30611E-08 2.45739E-20 2.57101E-18
 -1      1191 9.14721E-05-2.74598E-05-2.74570E-05-2.04157E-08-5.83675E-20 3.44928E-18
 -1      1192 9.31317E-05-2.79555E-05-2.79574E-05-1.77126E-08-1.03141E-20 2.95744E-18
 -1      1193 9.50074E-05-2.85168E-05-2.85236E-05-1.64666E-08 2.90568E-20 2.11599E-18
 -1      1194 9.71100E-05-2.91460E-05-2.91583E-05-1.82576E-08 1.31515E-19 1.04754E-18
 -1      1195 9.94557E-05-2.98468E-05-2.98645E-05-2.48698E-08-3.17493E-20 9.49061E-19
 -1      1196 1.02043E-04-3.06177E-05-3.06391E-05-3.81730E-08 1.06115E-19 4.74974E-19
 -1      1197 1.04822E-04-3.14426E-05-3.14628E-05-5.96053E-08 7.99464E-20-6.64312E-19
 -1      1198 1.07654E-04-3.22795E-05-3.22889E-05-8.89372E-08-3.61767E-20-7.90189E-19
 -1      1199 1.10267E-04-3.30474E-05-3.30301E-05-1.22000E-07-1.54131E-19 2.25205E-19
 -1      1200 1.12214E-04-3.36163E-05-3.35512E-05-1.47584E-07-9.21330E-20 2.09369E-19
 -1      1201 1.12883E-04-3.38093E-05-3.36762E-05-1.45173E-07 1.22856E-19-1.02773E-18
 -1      1202 1.11593E-04-3.34318E-05-3.32270E-05-8.78843E-08 2.40670E-19-3.06912E-18
 -1      1203 1.07862E-04-3.23452E-05-3.21034E-05 4.29000E-08-1.91840E-20-1.11247E-18
 -1      1204 1.01822E-04-3.05811E-05-3.03888E-05 2.31046E-07-1.31920E-19 9.16648E-19
 -1      1205 9.45971E-05-2.84515E-05-2.84232E-05 4.07009E-07 1.57667E-19 1.14646E-18
 -1      1206 8.82573E-05-2.65497E-05-2.67569E-05 4.69984E-07 1.57138E-19-1.39797E-18
 -1      1207 8.50673E-05-2.55516E-05-2.59486E-05 3.56675E-07-1.52975E-19-2.68626E-18
 -1      1208 8.63061E-05-2.58715E-05-2.62965E-05 1.02630E-07-8.68871E-21-6.46154E-19
 -1      1209 9.14834E-05-2.73985E-05-2.76739E-05-1.70278E-07 1.40687E-20-2.85344E-20
 -1      1210 9.86497E-05-2.95554E-05-2.96024E-05-3.46299E-07 2.10052E-19-6.77626E-21
 -1      1211 1.05511E-04-3.16370E-05-3.14977E-05-3.82293E-07-3.22279E-19-7.52589E-19
 -1      1212 1.10460E-04-3.31414E-05-3.29188E-05-3.12423E-07-4.96275E-20 2.16787E-19
 -1      1213 1.12946E-04-3.38954E-05-3.36824E-05-1.98886E-07 9.02520E-20-6.06899E-19
 -1      1214 1.13238E-04-3.39823E-05-3.38270E-05-9.11126E-08 1.45569E-19-2.75749E-18
 -1      1215 1.11984E-04-3.36021E-05-3.35123E-05-1.21132E-08 1.39965E-19-2.13211E-18
 -1      1216 1.09861E-04-3.29618E-05-3.29246E-05 3.53430E-08-2.93618E-19-2.71156E-19
 -1      1217 1.07409E-04-3.22241E-05-3.22212E-05 5.77474E-08 1.34998E-19-4.82001E-19
 -1      1218 1.04984E-04-3.14960E-05-3.15119E-05 6.35792E-08-2.18881E-19-5.48163E-19
 -1      1219 1.02790E-04-3.08378E-05-3.08617E-05 5.99934E-08 2.52312E-19-3.21045E-18
 -1      1220 1.00917E-04-3.02763E-05-3.03016E-05 5.19705E-08 2.34774E-19-4.63373E-18
 -1      1221 9.93853E-05-2.98170E-05-2.98404E-05 4.25630E-08-1.53531E-19-3.28956E-18
 -1      1222 9.81740E-05-2.94539E-05-2.94739E-05 3.34405E-08-1.90360E-19-2.25261E-18
 -1      1223 9.72442E-05-2.91750E-05-2.91913E-05 2.53919E-08 6.08770E-20-3.63750E-18
 -1      1224 9.65502E-05-2.89668E-05-2.89796E-05 1.86912E-08 2.01168E-19-3.93125E-18
 -1      1225 9.60471E-05-2.88157E-05-2.88256E-05 1.33357E-08-1.19472E-19-1.20797E-18
 -1      1226 9.56943E-05-2.87097E-05-2.87171E-05 9.18831E-09-4.17637E-19 3.14180E-19
 -1      1227 9.54574E-05-2.86385E-05-2.86439E-05 6.05448E-09 6.89321E-21 6.34654E-19
 -1      1228 9.53081E-05-2.85935E-05-2.85974E-05 3.71699E-09-1.65775E-19-2.61249E-18
 -1      1229 9.52241E-05-2.85681E-05-2.85711E-05 1.95729E-09 5.18842E-19-5.40526E-18
 -1      1230 9.51883E-05-2.85571E-05-2.85594E-05 5.16652E-10 1.89506E-19-7.34373E-18
 -1      1231 9.51872E-05-2.85565E-05-2.85581E-05-1.04259E-09 3.87756E-19-8.64259E-18
 -1      1232 9.52088E-05-2.85624E-05-2.85623E-05-3.13110E-09 6.02541E-19-9.85979E-18
 -1      1233 9.52316E-05-2.85700E-05-2.85658E-05-1.78841E-09-4.52303E-19-5.00611E-18
 -1      1234 9.52383E-05-2.85770E-05-2.85660E-05-2.09397E-09-4.54090E-18 4.54156E-19
 -1      1235 9.52448E-05-2.85985E-05-2.85630E-05-4.26828E-09-7.20305E-18 2.64108E-20
 -1      1236 9.52495E-05-2.86144E-05-2.85602E-05-2.49400E-09-9.51505E-19 1.73604E-19
 -1      1237 9.52478E-05-2.86082E-05-2.85622E-05-5.44513E-10 1.22690E-19-8.98568E-19
 -1      1238 9.52402E-05-2.85817E-05-2.85692E-05 7.84402E-10 3.01728E-19-1.16558E-18
 -1      1239 9.52294E-05-2.85444E-05-2.85793E-05 1.37456E-09-3.76796E-18-1.15685E-18
 -1      1240 9.52186E-05-2.85073E-05-2.85894E-05 1.31187E-09-6.86666E-18 2.99251E-19
 -1      1241 9.52109E-05-2.84805E-05-2.85968E-05 7.55420E-10-7.23858E-18-7.77141E-19
 -1      1242 9.52082E-05-2.84713E-05-2.85993E-05-5.57000E-11-5.47852E-18-2.48545E-19
 -1      1243 9.52114E-05-2.84823E-05-2.85963E-05-8.58908E-10-1.35800E-18 8.83995E-19
 -1      1244 9.52196E-05-2.85106E-05-2.85885E-05-1.38517E-09-1.12312E-18-1.16317E-18
 -1      1245 9.52307E-05-2.85487E-05-2.85781E-05-1.40970E-09-2.43400E-18 3.25164E-19
 -1      1246 9.52415E-05-2.85861E-05-2.85680E-05-7.53190E-10 2.75752E-18 6.29567E-20
 -1      1247 9.52488E-05-2.86118E-05-2.85612E-05 6.49247E-10 6.24435E-18 1.00881E-18
 -1      1248 9.52506E-05-2.86168E-05-2.85596E-05 3.05252E-09 1.23779E-18-8.39150E-19
 -1      1249 9.52444E-05-2.85980E-05-2.85624E-05 6.48465E-09-4.25416E-18-6.63631E-19
 -1      1250 9.52386E-05-2.85778E-05-2.85659E-05 2.74955E-09-3.08600E-18 7.94472E-19
 -1      1251 3.42557E-05-1.06066E-04 1.78455E-05-1.35078E-05 2.97309E-19 7.75538E-19
 -1      1252 1.72391E-05-6.38646E-05 9.34542E-06-2.43689E-05 6.83217E-18 2.89219E-18
 -1      1253 7.37318E-06-8.20612E-06-6.06864E-06-2.51985E-07 1.00373E-17 5.96481E-18
 -1      1254 3.21855E-05 2.48331E-05-2.53679E-05 5.13791E-05 1.14519E-17 1.02991E-17
 -1      1255 1.02899E-04 1.46063E-05-4.54847E-05 9.90590E-05 7.93755E-18 1.10131E-17
 -1      1256 2.00346E-04-3.01001E-05-6.28220E-05 1.09317E-04 3.90567E-18 9.56300E-18
 -1      1257 2.81394E-04-7.64183E-05-7.40584E-05 6.65128E-05 1.22571E-18 6.10033E-18
 -1      1258 3.06470E-04-9.18676E-05-7.72886E-05-1.23501E-05-7.02508E-20 4.54073E-18
 -1      1259 2.59837E-04-6.38904E-05-7.12019E-05-8.62554E-05 1.31671E-18-1.57379E-18
 -1      1260 1.62723E-04-1.07654E-05-5.68407E-05-1.10738E-04 5.55908E-18-9.65109E-18
 -1      1261 6.96325E-05 2.37408E-05-3.73633E-05-8.24588E-05 8.00954E-18-9.96111E-18
 -1      1262 1.65157E-05 1.49731E-05-1.67499E-05-2.76540E-05 9.34447E-18-7.64532E-18
 -1      1263 8.85639E-06-3.15233E-05 1.30827E-06 1.53575E-05 6.65937E-18-3.32460E-18
 -1      1264 2.45081E-05-8.40725E-05 1.37274E-05 2.38773E-05 2.33951E-18-1.29363E-18
 -1      1265 3.70581E-05-1.12704E-04 1.90143E-05 3.69959E-06-3.89805E-18-3.23884E-19
 -1      1266 2.88284E-05-9.53236E-05 1.59448E-05-2.13655E-05-7.54240E-18-1.73314E-18
 -1      1267 1.14285E-05-4.55009E-05 4.86707E-06-2.16442E-05-9.69090E-18-4.58414E-18
 -1      1268 1.09113E-05 5.99820E-06-1.21352E-05 1.44655E-05-8.44492E-18-5.85384E-18
 -1      1269 5.36310E-05 2.52290E-05-3.27381E-05 7.05394E-05-6.56620E-18-7.27432E-18
 -1      1270 1.40149E-04-3.43580E-07-5.29052E-05 1.08805E-04-5.52435E-18-9.56808E-18
 -1      1271 2.39385E-04-5.10076E-05-6.86802E-05 9.96756E-05-2.35263E-18-5.07457E-18
 -1      1272 3.05350E-04-9.01775E-05-7.73578E-05 3.64206E-05 1.60804E-19 2.84857E-18
 -1      1273 3.00662E-04-8.73559E-05-7.66270E-05-4.86037E-05-8.11061E-19 5.72764E-18
 -1      1274 2.22475E-04-4.15117E-05-6.62174E-05-1.03859E-04-2.93878E-18 7.66395E-18
 -1      1275 1.18499E-04 8.16591E-06-4.85166E-05-1.03726E-04-6.66107E-18 1.03067E-17
 -1      1276 3.73357E-05 2.33786E-05-2.67936E-05-5.43706E-05-1.05608E-17 1.01102E-17
 -1      1277 7.55965E-06-9.41240E-06-5.80553E-06 1.56960E-06-1.54584E-17 8.37207E-18
 -1      1278 1.79656E-05-6.62679E-05 9.86216E-06 2.60645E-05-1.27817E-17 4.96975E-18
 -1      1279 3.45539E-05-1.07228E-04 1.81183E-05 1.37137E-05-5.69841E-18 9.62838E-19
 -1      1280 1.04087E-04-2.19325E-05-3.77640E-05-1.71340E-05-1.76395E-19 4.36285E-18
 -1      1281 9.02912E-05-6.70870E-06-3.59880E-05-2.02039E-05-5.54965E-19 6.10552E-19
 -1      1282 9.25425E-05-6.77271E-06-3.71533E-05-2.54953E-05-6.85885E-19 1.52725E-18
 -1      1283 8.59891E-05-4.12480E-06-3.51517E-05-1.61182E-05-5.91705E-19-6.26699E-19
 -1      1284 8.71978E-05-4.11968E-06-3.55987E-05-1.85550E-05-6.69474E-19-7.87211E-20
 -1      1285 9.21542E-05-1.05017E-05-3.50829E-05-1.87247E-05-1.01120E-18 5.83129E-19
 -1      1286 8.42163E-05-3.19574E-06-3.47353E-05-1.24861E-05-4.50304E-19-1.33072E-18
 -1      1287 8.48112E-05-3.16732E-06-3.49488E-05-1.43029E-05-5.34795E-19-9.95052E-19
 -1      1288 8.79653E-05-7.41361E-06-3.46063E-05-1.50646E-05-9.04340E-19-4.56286E-19
 -1      1289 8.32967E-05-2.70579E-06-3.45286E-05-9.36743E-06-3.56647E-19-1.72048E-18
 -1      1290 8.36161E-05-2.69092E-06-3.46351E-05-1.09031E-05-3.95551E-19-1.54681E-18
 -1      1291 8.59728E-05-5.95782E-06-3.43610E-05-1.16101E-05-6.81643E-19-1.08881E-18
 -1      1292 8.27697E-05-2.40485E-06-3.44213E-05-6.64570E-06-2.71064E-19-1.89944E-18
 -1      1293 8.29531E-05-2.39792E-06-3.44776E-05-7.98791E-06-3.02702E-19-1.81899E-18
 -1      1294 8.48942E-05-5.13602E-06-3.42371E-05-8.62072E-06-5.37661E-19-1.36147E-18
 -1      1295 8.24571E-05-2.21484E-06-3.43635E-05-4.10725E-06-1.70747E-19-1.94937E-18
 -1      1296 8.25624E-05-2.21196E-06-3.43937E-05-5.36527E-06-1.96776E-19-1.92835E-18
 -1      1297 8.42549E-05-4.62965E-06-3.41728E-05-5.95821E-06-3.83458E-19-1.55974E-18
 -1      1298 8.22985E-05-2.10917E-06-3.43368E-05-1.70573E-06-4.24939E-20-1.92928E-18
 -1      1299 8.23462E-05-2.10813E-06-3.43500E-05-2.90413E-06-7.28333E-20-1.91154E-18
 -1      1300 8.38853E-05-4.32751E-06-3.41399E-05-3.47764E-06-2.21924E-19-1.50956E-18
 -1      1301 8.22655E-05-2.07623E-06-3.43330E-05 6.40553E-07 9.25714E-20-1.93685E-18
 -1      1302 8.22645E-05-2.07630E-06-3.43328E-05-5.39480E-07 3.42618E-20-1.92859E-18
 -1      1303 8.37161E-05-4.18697E-06-3.41259E-05-1.11373E-06 8.99621E-21-1.57192E-18
 -1      1304 8.23535E-05-2.11282E-06-3.43508E-05 3.00918E-06 1.79214E-19-1.97920E-18
 -1      1305 8.23034E-05-2.11395E-06-3.43372E-05 1.80793E-06 1.60910E-19-1.97569E-18
 -1      1306 8.37206E-05-4.19158E-06-3.41260E-05 1.21383E-06 2.27480E-19-1.60838E-18
 -1      1307 8.25774E-05-2.22306E-06-3.43949E-05 5.48022E-06 2.47608E-19-1.91780E-18
 -1      1308 8.24692E-05-2.22538E-06-3.43643E-05 4.21581E-06 2.13302E-19-1.97102E-18
 -1      1309 8.38996E-05-4.34216E-06-3.41399E-05 3.58246E-06 3.33925E-19-1.65910E-18
 -1      1310 8.29721E-05-2.41366E-06-3.44782E-05 8.09677E-06 3.42215E-19-1.68677E-18
 -1      1311 8.27862E-05-2.42103E-06-3.44217E-05 6.74528E-06 2.92167E-19-1.82121E-18
 -1      1312 8.42784E-05-4.65436E-06-3.41722E-05 6.05107E-06 4.50281E-19-1.55641E-18
 -1      1313 8.36547E-05-2.72049E-06-3.46381E-05 1.10641E-05 5.06737E-19-1.34175E-18
 -1      1314 8.33285E-05-2.73589E-06-3.45298E-05 9.51126E-06 4.49960E-19-1.51562E-18
 -1      1315 8.49322E-05-5.17804E-06-3.42356E-05 8.73257E-06 6.43494E-19-1.23611E-18
 -1      1316 8.48684E-05-3.21152E-06-3.49558E-05 1.45144E-05 6.83211E-19-8.45524E-19
 -1      1317 8.42696E-05-3.24625E-06-3.47394E-05 1.26700E-05 6.20319E-19-1.15087E-18
 -1      1318 8.60511E-05-6.03677E-06-3.43606E-05 1.17724E-05 9.33543E-19-9.18395E-19
 -1      1319 8.72937E-05-4.12007E-06-3.56193E-05 1.87919E-05 7.81970E-19 1.48310E-19
 -1      1320 8.60547E-05-4.18159E-06-3.51585E-05 1.63781E-05 6.89141E-19-4.45963E-19
 -1      1321 8.80897E-05-7.53588E-06-3.46077E-05 1.53045E-05 1.10713E-18-2.75683E-19
 -1      1322 9.33444E-05-6.82099E-06-3.70487E-05 2.48394E-05 6.29769E-19 2.03796E-18
 -1      1323 9.01061E-05-6.46735E-06-3.60099E-05 2.08765E-05 6.29875E-19 8.63656E-19
 -1      1324 9.23799E-05-1.07345E-05-3.50674E-05 1.93620E-05 1.15456E-18 8.13469E-19
 -1      1325 1.23126E-04-2.48295E-05-3.88759E-05 2.81575E-05 2.58451E-19 5.63827E-18
 -1      1326 9.98496E-05-1.44032E-05-3.72574E-05 2.38342E-05 2.96991E-19 3.15562E-18
 -1      1327 1.01527E-04-1.93369E-05-3.53378E-05 2.11339E-05 1.02240E-18 2.51971E-18
 -1      1328 1.02274E-04-2.77189E-05-3.46438E-05 7.22144E-06 4.63592E-19 5.51376E-18
 -1      1329 1.04849E-04-3.01473E-05-3.34287E-05-7.83069E-06-5.16161E-19 4.52337E-18
 -1      1330 9.80703E-05-2.77947E-05-3.06970E-05-4.88131E-06-4.96944E-19 3.95088E-18
 -1      1331 9.53876E-05-2.78155E-05-2.92174E-05-2.38417E-06-3.20364E-19 3.65702E-18
 -1      1332 9.32538E-05-2.75514E-05-2.82090E-05-1.93788E-06-3.74071E-19 3.13384E-18
 -1      1333 9.94110E-05-2.80373E-05-3.09568E-05-7.67467E-06-8.57938E-19 2.37365E-18
 -1      1334 9.16595E-05-2.72190E-05-2.76055E-05-7.19240E-07-3.49705E-19 2.91888E-18
 -1      1335 9.10546E-05-2.71546E-05-2.73376E-05-6.04101E-07-2.88997E-19 2.45730E-18
 -1      1336 9.48125E-05-2.77931E-05-2.88483E-05-2.89542E-06-6.82391E-19 1.95363E-18
 -1      1337 9.04252E-05-2.70051E-05-2.71324E-05-1.91999E-08-1.67514E-19 2.18503E-18
 -1      1338 9.04982E-05-2.70733E-05-2.71416E-05 4.75679E-08-1.50752E-19 1.93347E-18
 -1      1339 9.28229E-05-2.75753E-05-2.79959E-05-7.74059E-07-4.95309E-19 1.53792E-18
 -1      1340 9.03991E-05-2.70508E-05-2.71175E-05 3.65679E-07-1.03027E-19 1.84239E-18
 -1      1341 9.08135E-05-2.71985E-05-2.72392E-05 4.07088E-07-2.00303E-19 1.71355E-18
 -1      1342 9.21385E-05-2.75041E-05-2.77165E-05 3.04383E-07-2.72083E-19 1.10752E-18
 -1      1343 9.10331E-05-2.72624E-05-2.73130E-05 6.05261E-07-2.60865E-19 1.73243E-18
 -1      1344 9.16519E-05-2.74626E-05-2.74949E-05 6.34480E-07-2.56810E-19 1.35822E-18
 -1      1345 9.22528E-05-2.75917E-05-2.77248E-05 9.30084E-07-3.39624E-19 8.86930E-19
 -1      1346 9.20839E-05-2.75862E-05-2.76325E-05 7.78546E-07-9.16979E-20 1.26267E-18
 -1      1347 9.28511E-05-2.78260E-05-2.78579E-05 8.03384E-07-1.58624E-19 1.06919E-18
 -1      1348 9.28795E-05-2.78010E-05-2.79021E-05 1.34667E-06-2.73294E-19 9.79154E-19
 -1      1349 9.34443E-05-2.79953E-05-2.80445E-05 9.29464E-07-2.19538E-19 9.81804E-19
 -1      1350 9.43450E-05-2.82720E-05-2.83096E-05 9.55052E-07-2.52101E-19 7.64282E-19
 -1      1351 9.38711E-05-2.81029E-05-2.81968E-05 1.67552E-06-3.62643E-19 7.90677E-19
 -1      1352 9.50804E-05-2.84817E-05-2.85398E-05 1.08526E-06-2.36179E-19 6.09546E-19
 -1      1353 9.61239E-05-2.87996E-05-2.88476E-05 1.11514E-06-2.59305E-19 3.49891E-19
 -1      1354 9.51607E-05-2.84836E-05-2.85865E-05 1.98652E-06-3.73656E-19 4.66789E-19
 -1      1355 9.70012E-05-2.90499E-05-2.91216E-05 1.26283E-06-2.18699E-19 3.71550E-19
 -1      1356 9.82115E-05-2.94178E-05-2.94790E-05 1.29919E-06-1.05262E-19 9.48280E-20
 -1      1357 9.67292E-05-2.89412E-05-2.90636E-05 2.32252E-06-3.27166E-19 2.92207E-19
 -1      1358 9.92402E-05-2.97122E-05-2.97996E-05 1.46959E-06-1.15394E-19-1.49243E-19
 -1      1359 1.00647E-04-3.01411E-05-3.02147E-05 1.51288E-06-2.91113E-19-4.80261E-19
 -1      1360 9.85858E-05-2.94826E-05-2.96288E-05 2.70626E-06-3.17038E-19-9.27303E-20
 -1      1361 1.01837E-04-3.04840E-05-3.05846E-05 1.70063E-06-8.14293E-20-2.30446E-19
 -1      1362 1.03463E-04-3.09836E-05-3.10629E-05 1.74858E-06-8.04764E-20-3.06566E-19
 -1      1363 1.00751E-04-3.01197E-05-3.02852E-05 3.13839E-06-2.04451E-19-3.12869E-19
 -1      1364 1.04815E-04-3.13778E-05-3.14806E-05 1.93216E-06 1.72086E-19-8.59341E-20
 -1      1365 1.06656E-04-3.19509E-05-3.20195E-05 1.97790E-06 7.23477E-20 8.40151E-20
 -1      1366 1.03238E-04-3.08657E-05-3.10318E-05 3.58803E-06 5.99524E-20-2.28012E-19
 -1      1367 1.08144E-04-3.23939E-05-3.24739E-05 2.11083E-06 4.96366E-20 5.87761E-20
 -1      1368 1.10137E-04-3.30272E-05-3.30525E-05 2.14003E-06-1.22654E-20 7.59418E-20
 -1      1369 1.06027E-04-3.17301E-05-3.18549E-05 3.97599E-06-3.89040E-20 3.14256E-19
 -1      1370 1.11688E-04-3.35054E-05-3.35159E-05 2.14067E-06-1.50142E-20 1.15885E-19
 -1      1371 1.13670E-04-3.41551E-05-3.40831E-05 2.12813E-06-5.04671E-20 3.53901E-20
 -1      1372 1.09034E-04-3.27090E-05-3.27168E-05 4.15214E-06-3.83109E-21-5.32539E-20
 -1      1373 1.15138E-04-3.46362E-05-3.45038E-05 1.87464E-06-4.46280E-20 2.10779E-19
 -1      1374 1.16796E-04-3.52088E-05-3.49651E-05 1.78270E-06-1.33639E-19 2.58080E-19
 -1      1375 1.12059E-04-3.37693E-05-3.35437E-05 3.87618E-06 1.55245E-20 4.84251E-19
 -1      1376 1.17943E-04-3.56300E-05-3.52634E-05 1.13032E-06 4.90353E-20 3.06216E-19
 -1      1377 1.18785E-04-3.59654E-05-3.54785E-05 9.15586E-07-1.81761E-19 1.57752E-19
 -1      1378 1.14743E-04-3.48189E-05-3.42179E-05 2.82866E-06-7.65969E-20 9.98361E-19
 -1      1379 1.19284E-04-3.62214E-05-3.55573E-05-2.34750E-07-3.16989E-19 3.08234E-19
 -1      1380 1.18708E-04-3.61000E-05-3.53660E-05-5.95246E-07-1.31694E-19-6.95891E-20
 -1      1381 1.16535E-04-3.56641E-05-3.45864E-05 7.06005E-07-1.19921E-19 5.86468E-19
 -1      1382 1.18207E-04-3.60438E-05-3.51436E-05-2.15392E-06-5.66453E-20-1.81980E-19
 -1      1383 1.15740E-04-3.52559E-05-3.44399E-05-2.61020E-06-2.45944E-19-5.10443E-19
 -1      1384 1.16737E-04-3.59744E-05-3.45027E-05-2.53418E-06-6.09864E-20 8.16311E-19
 -1      1385 1.14040E-04-3.47464E-05-3.39086E-05-4.12725E-06 4.11605E-20-7.16325E-19
 -1      1386 1.09775E-04-3.32564E-05-3.27547E-05-4.50111E-06-2.14670E-20-7.09178E-19
 -1      1387 1.14728E-04-3.53355E-05-3.39058E-05-6.28761E-06-1.91377E-19 3.58030E-19
 -1      1388 1.07115E-04-3.22942E-05-3.20371E-05-5.15963E-06 2.79216E-19-2.05300E-19
 -1      1389 1.02129E-04-3.04486E-05-3.07418E-05-5.17612E-06 5.70726E-19 2.18852E-19
 -1      1390 1.10446E-04-3.35041E-05-3.29089E-05-9.04047E-06 5.56269E-19-2.79071E-19
 -1      1391 9.94053E-05-2.93542E-05-3.00832E-05-4.22668E-06 2.53038E-19 5.24366E-19
 -1      1392 9.56263E-05-2.79029E-05-2.91290E-05-3.72097E-06-2.19196E-19 4.32252E-19
 -1      1393 1.04983E-04-3.08749E-05-3.18234E-05-8.81446E-06 4.81624E-19 1.12854E-19
 -1      1394 9.41491E-05-2.72785E-05-2.87930E-05-1.25144E-06-1.79015E-19 7.34907E-19
 -1      1395 9.33587E-05-2.69700E-05-2.85956E-05-4.17926E-07-2.45084E-19 3.23593E-20
 -1      1396 1.00643E-04-2.86669E-05-3.10494E-05-4.66611E-06-1.12272E-19 5.56037E-19
 -1      1397 9.39546E-05-2.72226E-05-2.87284E-05 2.40004E-06-9.78720E-20 4.11605E-19
 -1      1398 9.65601E-05-2.82320E-05-2.93810E-05 3.10177E-06-1.60526E-19 8.94679E-20
 -1      1399 9.97226E-05-2.81863E-05-3.08913E-05 1.86300E-06-1.62736E-19 1.05344E-18
 -1      1400 9.88969E-05-2.91958E-05-2.99292E-05 4.82375E-06-1.15408E-19-4.22458E-20
 -1      1401 1.03620E-04-3.09750E-05-3.11405E-05 5.04209E-06-5.18245E-20-1.87088E-19
 -1      1402 1.02765E-04-2.97445E-05-3.14215E-05 7.43701E-06-2.83941E-19 9.84080E-19
 -1      1403 1.06482E-04-3.20649E-05-3.18757E-05 5.05872E-06-2.47152E-19-4.17693E-19
 -1      1404 1.11299E-04-3.37949E-05-3.31559E-05 4.81497E-06-5.19866E-19-9.35442E-19
 -1      1405 1.08090E-04-3.23783E-05-3.24322E-05 9.46332E-06-3.30561E-19 1.42090E-19
 -1      1406 1.13534E-04-3.45353E-05-3.38052E-05 3.58194E-06-4.58615E-19-9.71017E-19
 -1      1407 1.16918E-04-3.56672E-05-3.47462E-05 3.13391E-06 2.26714E-20-1.39363E-18
 -1      1408 1.13181E-04-3.46886E-05-3.35366E-05 7.85258E-06-7.40651E-19-2.29334E-19
 -1      1409 1.17994E-04-3.59261E-05-3.51259E-05 1.52164E-06 6.39722E-19-1.66858E-18
 -1      1410 1.19440E-04-3.63435E-05-3.55578E-05 1.10720E-06 6.98035E-19-5.90488E-19
 -1      1411 1.16338E-04-3.58845E-05-3.43617E-05 4.33410E-06 1.93322E-19-3.80298E-19
 -1      1412 1.19402E-04-3.62227E-05-3.56234E-05-2.44267E-07 3.83216E-20-5.41810E-19
 -1      1413 1.19192E-04-3.60838E-05-3.55926E-05-5.21490E-07 2.87859E-20-5.89614E-20
 -1      1414 1.17164E-04-3.59779E-05-3.47050E-05 7.59882E-07 6.69672E-19-7.31760E-19
 -1      1415 1.18357E-04-3.57395E-05-3.54012E-05-1.37653E-06-4.51806E-20-3.39726E-19
 -1      1416 1.17083E-04-3.52756E-05-3.50570E-05-1.51435E-06-2.34039E-19-3.75447E-19
 -1      1417 1.16112E-04-3.53558E-05-3.45600E-05-1.85552E-06 2.08880E-19-9.12652E-19
 -1      1418 1.15806E-04-3.48346E-05-3.47056E-05-1.90886E-06-2.82641E-19-7.98381E-19
 -1      1419 1.14032E-04-3.42378E-05-3.42046E-05-1.94638E-06-2.74187E-19-9.62865E-19
 -1      1420 1.13893E-04-3.44066E-05-3.40477E-05-3.31246E-06-1.04012E-18-1.07383E-18
 -1      1421 1.12598E-04-3.37818E-05-3.37843E-05-2.01733E-06-4.89500E-19-2.35835E-18
 -1      1422 1.10723E-04-3.31761E-05-3.32441E-05-1.99646E-06-8.43107E-19-3.26637E-18
 -1      1423 1.11145E-04-3.33859E-05-3.33276E-05-3.83777E-06-1.31040E-18-1.73692E-18
 -1      1424 1.09320E-04-3.27506E-05-3.28202E-05-1.88070E-06 9.01834E-20-3.13261E-18
 -1      1425 1.07575E-04-3.22012E-05-3.23117E-05-1.83240E-06 4.24287E-19-3.05861E-18
 -1      1426 1.08319E-04-3.24275E-05-3.25379E-05-3.76345E-06-1.77610E-19-1.46618E-18
 -1      1427 1.06309E-04-3.18277E-05-3.19228E-05-1.63052E-06 1.02239E-18-2.70172E-18
 -1      1428 1.04801E-04-3.13614E-05-3.14801E-05-1.57379E-06 9.86593E-19-1.77367E-18
 -1      1429 1.05686E-04-3.15886E-05-3.17732E-05-3.37144E-06 1.01176E-18-1.32775E-18
 -1      1430 1.03716E-04-3.10468E-05-3.11441E-05-1.34817E-06-3.60791E-19-1.85112E-18
 -1      1431 1.02474E-04-3.06677E-05-3.07777E-05-1.29313E-06-2.94053E-19-1.85383E-18
 -1      1432 1.03380E-04-3.08846E-05-3.10868E-05-2.85342E-06 6.65300E-19-1.96454E-18
 -1      1433 1.01579E-04-3.04109E-05-3.04993E-05-1.07756E-06 1.56072E-20-1.93803E-18
 -1      1434 1.00591E-04-3.01123E-05-3.02067E-05-1.02880E-06-1.68063E-19-1.67662E-18
 -1      1435 1.01444E-04-3.03111E-05-3.05014E-05-2.32192E-06-2.42132E-19-2.51961E-18
 -1      1436 9.98731E-05-2.99077E-05-2.99830E-05-8.38765E-07 9.75444E-20-1.89581E-18
 -1      1437 9.91075E-05-2.96784E-05-2.97558E-05-7.97800E-07 6.12458E-19-1.42171E-18
 -1      1438 9.98690E-05-2.98544E-05-3.00202E-05-1.83438E-06 7.80892E-20-1.76718E-18
 -1      1439 9.85458E-05-2.95189E-05-2.95806E-05-6.38258E-07 3.79205E-19 1.72535E-19
 -1      1440 9.79663E-05-2.93466E-05-2.94081E-05-6.05010E-07 2.52604E-19 6.71260E-19
 -1      1441 9.86207E-05-2.94980E-05-2.96357E-05-1.41450E-06 9.37146E-19-2.02109E-19
 -1      1442 9.75360E-05-2.92247E-05-2.92739E-05-4.75423E-07-2.07310E-19 7.24235E-19
 -1      1443 9.71068E-05-2.90981E-05-2.91459E-05-4.49106E-07-3.38517E-19 9.05164E-19
 -1      1444 9.76528E-05-2.92250E-05-2.93357E-05-1.06723E-06 2.47492E-21 5.26259E-19
 -1      1445 9.67838E-05-2.90068E-05-2.90452E-05-3.46391E-07-6.91278E-19 1.90973E-19
 -1      1446 9.64732E-05-2.89158E-05-2.89523E-05-3.25966E-07-9.81029E-19-1.58777E-18
 -1      1447 9.69174E-05-2.90196E-05-2.91066E-05-7.88118E-07-1.17988E-18 6.06788E-19
 -1      1448 9.62359E-05-2.88489E-05-2.88783E-05-2.46128E-07-7.08034E-19-2.24770E-18
 -1      1449 9.60169E-05-2.87853E-05-2.88126E-05-2.30540E-07-3.12204E-19-3.03093E-18
 -1      1450 9.63702E-05-2.88683E-05-2.89353E-05-5.68661E-07-1.42297E-18-4.19332E-19
 -1      1451 9.58469E-05-2.87374E-05-2.87597E-05-1.69507E-07 3.82547E-19-2.38533E-18
 -1      1452 9.56976E-05-2.86945E-05-2.87147E-05-1.57787E-07 1.00629E-18-1.95897E-18
 -1      1453 9.59720E-05-2.87592E-05-2.88101E-05-3.99204E-07 6.10760E-19-1.69565E-18
 -1      1454 9.55793E-05-2.86613E-05-2.86779E-05-1.11809E-07 5.89471E-19-4.33240E-19
 -1      1455 9.54823E-05-2.86339E-05-2.86486E-05-1.03111E-07 6.03512E-19 1.00612E-19
 -1      1456 9.56898E-05-2.86827E-05-2.87208E-05-2.70397E-07 1.75041E-18 1.21457E-18
 -1      1457 9.54033E-05-2.86117E-05-2.86240E-05-6.89195E-08 5.97202E-19-3.82509E-19
 -1      1458 9.53449E-05-2.85956E-05-2.86062E-05-6.25305E-08 4.55460E-19 9.39805E-19
 -1      1459 9.54965E-05-2.86311E-05-2.86592E-05-1.73843E-07 5.21755E-19 1.85932E-18
 -1      1460 9.52953E-05-2.85817E-05-2.85909E-05-3.73955E-08 9.66067E-19 8.00487E-19
 -1      1461 9.52654E-05-2.85739E-05-2.85816E-05-3.27291E-08 5.03089E-19 1.39779E-18
 -1      1462 9.53701E-05-2.85980E-05-2.86186E-05-1.02367E-07 1.02503E-18 1.81143E-18
 -1      1463 9.52372E-05-2.85661E-05-2.85729E-05-1.45160E-08-4.37749E-19 1.82217E-18
 -1      1464 9.52278E-05-2.85644E-05-2.85697E-05-1.11312E-08-3.84949E-19 1.91707E-18
 -1      1465 9.52934E-05-2.85785E-05-2.85935E-05-5.01353E-08 5.52314E-19 5.59627E-19
 -1      1466 9.52148E-05-2.85609E-05-2.85658E-05 1.39975E-09 3.88212E-19 1.65286E-18
 -1      1467 9.52194E-05-2.85636E-05-2.85665E-05 3.69020E-09 6.50622E-19 2.37439E-18
 -1      1468 9.52525E-05-2.85691E-05-2.85796E-05-1.30474E-08 3.50115E-19 5.42793E-19
 -1      1469 9.52157E-05-2.85628E-05-2.85652E-05 1.03481E-08 4.43658E-19 2.60300E-18
 -1      1470 9.52281E-05-2.85689E-05-2.85674E-05 1.16812E-08 5.49656E-20 3.15679E-18
 -1      1471 9.52361E-05-2.85675E-05-2.85727E-05 1.02071E-08 1.15961E-18 1.54926E-18
 -1      1472 9.52326E-05-2.85744E-05-2.85658E-05 6.05960E-09-2.16526E-18 2.45625E-18
 -1      1473 9.52371E-05-2.85772E-05-2.85681E-05 1.47382E-08-1.83544E-18 9.03586E-19
 -1      1474 9.64104E-05-2.83161E-05-2.97178E-05 2.90611E-06 5.41492E-19 4.50031E-18
 -1      1475 1.02260E-04-2.93179E-05-3.20704E-05 4.36596E-06 4.08535E-19 5.17431E-18
 -1      1476 1.02144E-04-2.66846E-05-3.26429E-05 1.25870E-05 8.06799E-19 3.39088E-18
 -1      1477 9.20483E-05-2.74327E-05-2.77668E-05 1.05990E-06 4.56485E-19 3.50685E-18
 -1      1478 9.38976E-05-2.75597E-05-2.86502E-05 1.38310E-06 3.66792E-19 4.08870E-18
 -1      1479 9.64616E-05-2.80250E-05-2.95254E-05 4.69002E-06 7.84247E-19 2.65931E-18
 -1      1480 9.04311E-05-2.70693E-05-2.71353E-05 2.18943E-07 2.90493E-19 2.62440E-18
 -1      1481 9.09343E-05-2.70528E-05-2.73731E-05 3.87289E-07 3.69042E-19 3.21068E-18
 -1      1482 9.32046E-05-2.76215E-05-2.81512E-05 1.65203E-06 7.17477E-19 2.01610E-18
 -1      1483 9.01922E-05-2.70316E-05-2.70452E-05-2.05393E-07 3.11910E-19 2.07928E-18
 -1      1484 9.00842E-05-2.69236E-05-2.70288E-05-1.06637E-07 2.07487E-19 2.43595E-18
 -1      1485 9.18859E-05-2.74140E-05-2.76417E-05 2.62853E-07 5.05864E-19 1.46381E-18
 -1      1486 9.06986E-05-2.71933E-05-2.72013E-05-4.47392E-07 1.32607E-19 1.83470E-18
 -1      1487 9.02725E-05-2.70228E-05-2.70761E-05-3.82896E-07 1.14854E-19 1.98237E-18
 -1      1488 9.16619E-05-2.74188E-05-2.75416E-05-4.74355E-07 3.41202E-19 1.26345E-18
 -1      1489 9.16572E-05-2.74840E-05-2.74934E-05-6.03978E-07-1.36290E-19 2.08689E-18
 -1      1490 9.10405E-05-2.72703E-05-2.73102E-05-5.56707E-07-3.78113E-20 1.85889E-18
 -1      1491 9.20891E-05-2.75777E-05-2.76579E-05-9.14468E-07-2.23041E-20 1.42002E-18
 -1      1492 9.29275E-05-2.78654E-05-2.78778E-05-7.22259E-07 1.17025E-19 2.27068E-18
 -1      1493 9.21763E-05-2.76181E-05-2.76546E-05-6.82806E-07-6.01129E-20 2.16320E-18
 -1      1494 9.29367E-05-2.78449E-05-2.79072E-05-1.21300E-06-1.34005E-19 1.47030E-18
 -1      1495 9.44473E-05-2.83199E-05-2.83368E-05-8.27962E-07 2.07660E-19 1.77514E-18
 -1      1496 9.35822E-05-2.80416E-05-2.80795E-05-7.90477E-07 3.02786E-19 2.18109E-18
 -1      1497 9.40876E-05-2.81937E-05-2.82513E-05-1.44896E-06 2.64617E-19 1.35126E-18
 -1      1498 9.61969E-05-2.88426E-05-2.88646E-05-9.34791E-07 3.92812E-19 1.10633E-18
 -1      1499 9.52197E-05-2.85314E-05-2.85738E-05-8.95744E-07 1.76497E-19 1.41118E-18
 -1      1500 9.54859E-05-2.86116E-05-2.86721E-05-1.66514E-06 4.76742E-19 8.38146E-19
 -1      1501 9.81752E-05-2.94346E-05-2.94603E-05-1.04681E-06 1.61671E-19 8.87955E-19
 -1      1502 9.70801E-05-2.90872E-05-2.91347E-05-1.00483E-06 2.55775E-19 1.14664E-18
 -1      1503 9.71085E-05-2.90951E-05-2.91612E-05-1.88173E-06 3.39388E-19 5.86812E-19
 -1      1504 1.00379E-04-3.00970E-05-3.01219E-05-1.15766E-06 2.61449E-19 5.67552E-19
 -1      1505 9.91635E-05-2.97117E-05-2.97615E-05-1.11405E-06 7.19937E-20 6.73054E-19
 -1      1506 9.89435E-05-2.96443E-05-2.97129E-05-2.09913E-06 1.73075E-19 7.24653E-19
 -1      1507 1.02779E-04-3.08236E-05-3.08388E-05-1.24778E-06 3.87977E-19 7.02309E-20
 -1      1508 1.01458E-04-3.04049E-05-3.04488E-05-1.20754E-06 3.05218E-19 4.21094E-19
 -1      1509 1.00972E-04-3.02584E-05-3.03187E-05-2.29542E-06 4.86974E-19 2.54964E-19
 -1      1510 1.05291E-04-3.15927E-05-3.15828E-05-1.28063E-06 1.03342E-19-1.80967E-19
 -1      1511 1.03911E-04-3.11566E-05-3.11791E-05-1.25396E-06 2.43464E-19 7.19912E-20
 -1      1512 1.03143E-04-3.09291E-05-3.09596E-05-2.42076E-06 5.79116E-19 3.76291E-19
 -1      1513 1.07738E-04-3.23553E-05-3.22981E-05-1.19976E-06-2.45967E-19 1.42156E-19
 -1      1514 1.06404E-04-3.19368E-05-3.19130E-05-1.20345E-06-1.54083E-19-1.87426E-19
 -1      1515 1.05355E-04-3.16334E-05-3.15995E-05-2.39145E-06-1.02120E-19 3.41533E-19
 -1      1516 1.09820E-04-3.30237E-05-3.28924E-05-9.31315E-07-2.10567E-19 2.79521E-19
 -1      1517 1.08710E-04-3.26836E-05-3.25799E-05-9.88735E-07-1.14263E-19 1.02782E-19
 -1      1518 1.07422E-04-3.23233E-05-3.21778E-05-2.08917E-06-2.98910E-19 1.21516E-19
 -1      1519 1.11100E-04-3.34635E-05-3.32358E-05-4.00015E-07 3.92639E-19-3.75183E-19
 -1      1520 1.10477E-04-3.32916E-05-3.30723E-05-5.37115E-07 2.73592E-19 9.38883E-20
 -1      1521 1.09059E-04-3.29156E-05-3.26069E-05-1.37656E-06 4.16753E-19-6.48278E-20
 -1      1522 1.11043E-04-3.34998E-05-3.31781E-05 4.31057E-07 7.30331E-19-1.28699E-18
 -1      1523 1.11224E-04-3.36057E-05-3.32515E-05 1.97394E-07 4.42648E-19-5.33558E-19
 -1      1524 1.09885E-04-3.32835E-05-3.27795E-05-1.45612E-07 6.19982E-19-5.32802E-19
 -1      1525 1.09162E-04-3.29563E-05-3.25961E-05 1.49312E-06-4.80340E-19-1.72310E-18
 -1      1526 1.10431E-04-3.34373E-05-3.29772E-05 1.17631E-06 1.26175E-19-1.52304E-18
 -1      1527 1.09482E-04-3.32627E-05-3.25941E-05 1.58774E-06 5.52113E-19-2.83713E-19
 -1      1528 1.05287E-04-3.17422E-05-3.14714E-05 2.53934E-06-5.72872E-19-3.23196E-20
 -1      1529 1.07724E-04-3.26215E-05-3.21662E-05 2.20724E-06-7.08887E-19-1.19998E-18
 -1      1530 1.07544E-04-3.26905E-05-3.20012E-05 3.55500E-06-1.00604E-18-2.62766E-19
 -1      1531 9.99041E-05-2.99814E-05-2.99690E-05 3.14245E-06-1.72627E-19 6.60368E-19
 -1      1532 1.03183E-04-3.11324E-05-3.08719E-05 2.92007E-06-2.37695E-19 1.92965E-19
 -1      1533 1.04112E-04-3.15006E-05-3.10597E-05 5.15371E-06-6.43848E-19 1.50070E-19
 -1      1534 9.43203E-05-2.81019E-05-2.84555E-05 2.86049E-06 6.89981E-19-1.20808E-19
 -1      1535 9.76289E-05-2.92179E-05-2.93417E-05 2.88104E-06 4.32126E-19 7.07590E-19
 -1      1536 9.98103E-05-2.98614E-05-2.99677E-05 5.57444E-06 1.49829E-19-1.48681E-19
 -1      1537 9.03650E-05-2.67508E-05-2.74010E-05 1.55448E-06 6.27876E-19-1.65568E-18
 -1      1538 9.26132E-05-2.74347E-05-2.79904E-05 1.86583E-06 5.24962E-19-4.59807E-19
 -1      1539 9.58718E-05-2.82510E-05-2.90297E-05 4.23449E-06 1.05838E-18-2.20493E-20
 -1      1540 8.95641E-05-2.64872E-05-2.71778E-05-3.85090E-07-3.86909E-19-1.88268E-18
 -1      1541 8.98873E-05-2.64525E-05-2.72593E-05 1.16812E-07-7.38110E-20-2.24154E-18
 -1      1542 9.37193E-05-2.73130E-05-2.85482E-05 1.30579E-06 3.70352E-19-1.32298E-18
 -1      1543 9.22612E-05-2.74323E-05-2.78727E-05-2.17049E-06-3.03814E-19-5.18966E-19
 -1      1544 9.05219E-05-2.66884E-05-2.74137E-05-1.68796E-06-6.27182E-19-1.51387E-18
 -1      1545 9.42387E-05-2.74976E-05-2.86915E-05-2.15563E-06-8.00870E-19-2.12464E-18
 -1      1546 9.73900E-05-2.91796E-05-2.92354E-05-3.11587E-06-1.27589E-19-3.98529E-19
 -1      1547 9.42648E-05-2.80278E-05-2.84025E-05-2.83132E-06-1.00453E-20-5.81991E-19
 -1      1548 9.72204E-05-2.87290E-05-2.94109E-05-4.76168E-06-2.75451E-19-8.85083E-19
 -1      1549 1.03142E-04-3.10781E-05-3.08173E-05-3.03274E-06-4.08462E-21 3.18696E-20
 -1      1550 9.97109E-05-2.99204E-05-2.98830E-05-2.99975E-06 1.95612E-19 2.81956E-19
 -1      1551 1.01503E-04-3.04565E-05-3.04672E-05-5.66019E-06 7.13708E-20-6.11889E-19
 -1      1552 1.07896E-04-3.25826E-05-3.21812E-05-2.21257E-06-2.07669E-19-4.01282E-19
 -1      1553 1.05097E-04-3.17193E-05-3.13973E-05-2.36366E-06-8.49217E-20-4.42654E-19
 -1      1554 1.05662E-04-3.20375E-05-3.15432E-05-4.90127E-06 1.25334E-19-6.79479E-20
 -1      1555 1.10797E-04-3.34453E-05-3.30637E-05-1.12730E-06-2.15047E-19-5.45277E-20
 -1      1556 1.09107E-04-3.29895E-05-3.25710E-05-1.35276E-06-3.51175E-19-8.70379E-19
 -1      1557 1.08665E-04-3.30685E-05-3.23752E-05-3.17303E-06-9.81830E-20-9.02289E-19
 -1      1558 1.11765E-04-3.36820E-05-3.34049E-05-1.48354E-07 4.60356E-19-9.48048E-19
 -1      1559 1.11206E-04-3.35963E-05-3.32249E-05-3.61261E-07 2.51172E-19-4.83643E-19
 -1      1560 1.10125E-04-3.34679E-05-3.28285E-05-1.25605E-06 2.65042E-19-8.78821E-19
 -1      1561 1.11195E-04-3.34480E-05-3.32898E-05 5.49310E-07 1.23614E-19-1.87254E-18
 -1      1562 1.11518E-04-3.36246E-05-3.33645E-05 3.91084E-07 2.86069E-19-1.15967E-18
 -1      1563 1.10164E-04-3.33583E-05-3.28971E-05 3.29159E-07 3.87326E-19-7.63382E-19
 -1      1564 1.09633E-04-3.29274E-05-3.28652E-05 9.47400E-07-2.01696E-19-7.22532E-19
 -1      1565 1.10511E-04-3.32519E-05-3.31068E-05 8.50742E-07-2.93566E-19-1.59289E-18
 -1      1566 1.09161E-04-3.29251E-05-3.26589E-05 1.38612E-06-2.11176E-19-1.21391E-18
 -1      1567 1.07576E-04-3.22751E-05-3.22764E-05 1.10499E-06 7.88481E-20-8.57118E-19
 -1      1568 1.08719E-04-3.26574E-05-3.26021E-05 1.05929E-06-2.41353E-19-9.54335E-19
 -1      1569 1.07536E-04-3.23313E-05-3.22227E-05 1.93895E-06-3.74670E-19-8.43870E-19
 -1      1570 1.05393E-04-3.16002E-05-3.16366E-05 1.10040E-06 3.17818E-19-6.93158E-19
 -1      1571 1.06593E-04-3.19807E-05-3.19843E-05 1.09022E-06 2.47250E-19-7.26635E-19
 -1      1572 1.05646E-04-3.16927E-05-3.16903E-05 2.10793E-06 3.34382E-19-1.65981E-18
 -1      1573 1.03320E-04-3.09690E-05-3.10204E-05 1.00241E-06-1.37494E-19-9.19322E-19
 -1      1574 1.04447E-04-3.13143E-05-3.13506E-05 1.01377E-06 7.08513E-20-6.85303E-19
 -1      1575 1.03742E-04-3.10809E-05-3.11395E-05 2.02796E-06 6.07961E-20-7.30612E-19
 -1      1576 1.01483E-04-3.04154E-05-3.04695E-05 8.61116E-07 3.70840E-19-2.41704E-18
 -1      1577 1.02470E-04-3.07106E-05-3.07611E-05 8.83573E-07 7.15396E-19-1.42507E-18
 -1      1578 1.01981E-04-3.05340E-05-3.06208E-05 1.81095E-06 1.06369E-18-3.76725E-19
 -1      1579 9.99314E-05-2.99516E-05-3.00018E-05 7.08770E-07 2.84435E-19-3.11582E-18
 -1      1580 1.00756E-04-3.01931E-05-3.02465E-05 7.35405E-07 2.31488E-19-2.75224E-18
 -1      1581 1.00442E-04-3.00678E-05-3.01618E-05 1.53611E-06 6.16511E-19-5.69139E-19
 -1      1582 9.86697E-05-2.95765E-05-2.96198E-05 5.63894E-07-6.62786E-19-2.10983E-18
 -1      1583 9.93335E-05-2.97675E-05-2.98175E-05 5.90546E-07-4.46689E-19-3.29997E-18
 -1      1584 9.91519E-05-2.96843E-05-2.97737E-05 1.25334E-06-5.27627E-19-1.27211E-18
 -1      1585 9.76747E-05-2.92820E-05-2.93177E-05 4.35686E-07 1.58216E-19-1.81425E-18
 -1      1586 9.81924E-05-2.94286E-05-2.94724E-05 4.60116E-07 2.74392E-19-1.70922E-18
 -1      1587 9.81062E-05-2.93780E-05-2.94570E-05 9.90635E-07 1.18862E-19-1.43427E-18
 -1      1588 9.69114E-05-2.90569E-05-2.90853E-05 3.27514E-07 2.17831E-19-1.81163E-18
 -1      1589 9.73040E-05-2.91664E-05-2.92030E-05 3.48717E-07 2.52522E-19-1.50942E-18
 -1      1590 9.72824E-05-2.91396E-05-2.92061E-05 7.61259E-07 4.92074E-19-4.85314E-19
 -1      1591 9.63414E-05-2.88895E-05-2.89115E-05 2.39376E-07-9.85037E-19-5.69500E-19
 -1      1592 9.66309E-05-2.89689E-05-2.89985E-05 2.57096E-07-4.82755E-19-1.38374E-18
 -1      1593 9.66503E-05-2.89586E-05-2.90126E-05 5.69371E-07-6.46391E-19 1.17408E-18
 -1      1594 9.59277E-05-2.87684E-05-2.87850E-05 1.69507E-07 2.61567E-20 7.16363E-19
 -1      1595 9.61347E-05-2.88241E-05-2.88474E-05 1.83904E-07-5.41510E-19 2.10215E-19
 -1      1596 9.61776E-05-2.88246E-05-2.88672E-05 4.13920E-07-1.28502E-18 1.41170E-18
 -1      1597 9.56372E-05-2.86837E-05-2.86960E-05 1.15362E-07-8.99822E-19 1.52569E-18
 -1      1598 9.57799E-05-2.87212E-05-2.87392E-05 1.26813E-07-1.94964E-19 6.96783E-19
 -1      1599 9.58339E-05-2.87281E-05-2.87610E-05 2.91186E-07-2.53970E-19 2.04017E-18
 -1      1600 9.54419E-05-2.86270E-05-2.86360E-05 7.41861E-08 2.20788E-18-9.82305E-19
 -1      1601 9.55354E-05-2.86508E-05-2.86644E-05 8.31610E-08 1.08486E-18 1.02896E-18
 -1      1602 9.55919E-05-2.86610E-05-2.86859E-05 1.96337E-07 1.15784E-18 1.47608E-19
 -1      1603 9.53187E-05-2.85916E-05-2.85980E-05 4.33478E-08 1.93374E-19-2.89586E-18
 -1      1604 9.53753E-05-2.86051E-05-2.86153E-05 5.03286E-08 3.26675E-19-2.27780E-18
 -1      1605 9.54286E-05-2.86163E-05-2.86349E-05 1.24334E-07 1.85624E-18-1.96162E-18
 -1      1606 9.52495E-05-2.85719E-05-2.85765E-05 2.06074E-08 1.14796E-18-4.97678E-18
 -1      1607 9.52786E-05-2.85779E-05-2.85856E-05 2.60245E-08 1.06764E-18-3.69482E-18
 -1      1608 9.53251E-05-2.85885E-05-2.86023E-05 7.05475E-08 1.58825E-18-2.88662E-18
 -1      1609 9.52197E-05-2.85639E-05-2.85670E-05 4.13436E-09-3.50727E-19-4.94264E-18
 -1      1610 9.52287E-05-2.85643E-05-2.85701E-05 8.38267E-09 1.87343E-19-4.54677E-18
 -1      1611 9.52658E-05-2.85732E-05-2.85833E-05 3.11030E-08 6.14341E-19-1.76462E-18
 -1      1612 9.52169E-05-2.85640E-05-2.85654E-05-6.99448E-09 3.83943E-19-5.45481E-18
 -1      1613 9.52123E-05-2.85607E-05-2.85646E-05-3.69570E-09 2.43392E-19-5.03713E-18
 -1      1614 9.52382E-05-2.85670E-05-2.85740E-05 3.35144E-09 8.75279E-20-2.39093E-18
 -1      1615 9.52288E-05-2.85698E-05-2.85671E-05-1.07619E-08-1.24718E-18-4.51496E-18
 -1      1616 9.52177E-05-2.85647E-05-2.85650E-05-9.26799E-09-3.93540E-19-5.32896E-18
 -1      1617 9.52315E-05-2.85684E-05-2.85701E-05-1.29637E-08 3.09119E-20-1.56173E-18
 -1      1618 9.52333E-05-2.85748E-05-2.85662E-05-5.69980E-09-2.78095E-18-2.64234E-18
 -1      1619 9.52450E-05-2.85905E-05-2.85664E-05-8.33339E-09-2.97669E-18 1.24067E-18
 -1      1620 9.52407E-05-2.85812E-05-2.85678E-05-9.15700E-09-3.58188E-18 3.58573E-19
 -1      1621 9.52458E-05-2.85891E-05-2.85676E-05 1.42080E-09-1.66172E-19 1.20217E-18
 -1      1622 9.52448E-05-2.85875E-05-2.85676E-05-1.00596E-09-1.93909E-18 1.79852E-18
 -1      1623 9.52422E-05-2.85731E-05-2.85728E-05-6.65264E-09-1.02928E-18 2.77743E-18
 -1      1624 9.52397E-05-2.85712E-05-2.85726E-05 1.23066E-08-1.24274E-18-9.72255E-19
 -1      1625 9.52426E-05-2.85797E-05-2.85701E-05 1.01389E-08 3.57456E-19-1.13572E-18
 -1      1626 9.52391E-05-2.85598E-05-2.85775E-05 1.29259E-08-5.29006E-19 6.40792E-19
 -1      1627 9.52291E-05-2.85405E-05-2.85811E-05 1.95565E-08-1.67991E-19-1.30701E-18
 -1      1628 9.52346E-05-2.85565E-05-2.85765E-05 1.84369E-08-7.05552E-19 8.70362E-19
 -1      1629 9.52301E-05-2.85345E-05-2.85843E-05 3.08532E-08-6.06903E-19-5.17218E-19
 -1      1630 9.52170E-05-2.85056E-05-2.85907E-05 2.12691E-08-4.84153E-18-2.68711E-18
 -1      1631 9.52232E-05-2.85237E-05-2.85856E-05 2.13611E-08-1.61061E-18-3.49331E-18
 -1      1632 9.52177E-05-2.85017E-05-2.85927E-05 4.02408E-08-1.59405E-18-3.57005E-18
 -1      1633 9.52062E-05-2.84740E-05-2.85995E-05 1.73740E-08-4.65250E-18 3.43565E-19
 -1      1634 9.52116E-05-2.84898E-05-2.85951E-05 1.85674E-08-4.09194E-18-5.09907E-19
 -1      1635 9.52049E-05-2.84680E-05-2.86012E-05 3.89325E-08-2.23988E-18-1.98933E-18
 -1      1636 9.51994E-05-2.84542E-05-2.86051E-05 9.04048E-09-4.73384E-18-7.93810E-20
 -1      1637 9.52024E-05-2.84630E-05-2.86026E-05 1.09795E-08-4.90812E-18 1.19717E-18
 -1      1638 9.51945E-05-2.84404E-05-2.86083E-05 2.76363E-08-2.74924E-18 4.51490E-19
 -1      1639 9.51983E-05-2.84509E-05-2.86060E-05-1.55923E-09-1.87861E-18 8.85248E-19
 -1      1640 9.51981E-05-2.84505E-05-2.86061E-05 6.34462E-10-3.41922E-18 2.03151E-19
 -1      1641 9.51888E-05-2.84252E-05-2.86122E-05 9.43314E-09-1.83911E-18 1.05470E-18
 -1      1642 9.52030E-05-2.84648E-05-2.86021E-05-1.18170E-08-6.77586E-19 6.48463E-19
 -1      1643 9.51997E-05-2.84552E-05-2.86048E-05-9.90729E-09-2.15121E-18 1.38425E-18
 -1      1644 9.51890E-05-2.84257E-05-2.86120E-05-1.11394E-08-1.37343E-19 1.08629E-18
 -1      1645 9.52125E-05-2.84927E-05-2.85943E-05-1.91714E-08-7.04839E-19-8.65786E-19
 -1      1646 9.52069E-05-2.84763E-05-2.85989E-05-1.80429E-08-5.84273E-19-1.91586E-19
 -1      1647 9.51951E-05-2.84419E-05-2.86079E-05-2.90706E-08-5.26930E-19 5.70643E-19
 -1      1648 9.52242E-05-2.85268E-05-2.85847E-05-2.16165E-08 1.16561E-19 1.49867E-18
 -1      1649 9.52180E-05-2.85085E-05-2.85899E-05-2.15926E-08-1.44726E-18 1.98265E-19
 -1      1650 9.52057E-05-2.84700E-05-2.86007E-05-3.98084E-08-5.13374E-19-7.21309E-19
 -1      1651 9.52357E-05-2.85598E-05-2.85756E-05-1.82473E-08 2.76391E-18 1.11109E-18
 -1      1652 9.52303E-05-2.85440E-05-2.85801E-05-1.94685E-08 8.53267E-19 1.93058E-18
 -1      1653 9.52186E-05-2.85041E-05-2.85920E-05-4.04249E-08 7.52846E-19 3.15354E-18
 -1      1654 9.52435E-05-2.85825E-05-2.85694E-05-9.42346E-09 2.37907E-18-1.30759E-20
 -1      1655 9.52408E-05-2.85744E-05-2.85717E-05-1.17186E-08 2.41648E-18 1.32039E-18
 -1      1656 9.52311E-05-2.85372E-05-2.85836E-05-3.01664E-08 1.04180E-18 1.66147E-18
 -1      1657 9.52460E-05-2.85894E-05-2.85672E-05 1.39095E-09-1.26141E-18-1.93315E-18
 -1      1658 9.52462E-05-2.85911E-05-2.85670E-05-1.21470E-09 1.98301E-18-1.90494E-18
 -1      1659 9.52393E-05-2.85613E-05-2.85770E-05-1.15160E-08-3.56990E-19-1.55096E-18
 -1      1660 9.52414E-05-2.85794E-05-2.85690E-05 9.90853E-09-2.46350E-18-1.57240E-18
 -1      1661 9.52453E-05-2.85880E-05-2.85679E-05 9.07687E-09-8.70763E-19-2.21340E-18
 -1      1662 9.52441E-05-2.85690E-05-2.85746E-05 4.98774E-09-3.13483E-19-2.35426E-18
 -1      1663 9.52392E-05-2.85678E-05-2.85728E-05 1.48285E-08 2.31836E-19-1.26263E-18
 -1      1664 2.04234E-05-6.64833E-05 1.36892E-05-6.11356E-06 7.75882E-19 1.57696E-18
 -1      1665 2.39382E-05-7.67010E-05 1.58354E-05 1.94140E-06-1.86972E-18 1.60830E-18
 -1      1666 1.96126E-05-3.81081E-05 3.68688E-06 3.33179E-06 5.35410E-18 4.09032E-18
 -1      1667 2.40054E-05-6.05245E-05 9.59328E-06-4.96927E-07 2.69018E-18 2.69071E-18
 -1      1668 3.30894E-05-9.83214E-06-1.19035E-05 2.79105E-05 7.40561E-18 6.40315E-18
 -1      1669 2.76173E-05-3.10276E-05-3.21426E-06 9.94410E-06 6.44507E-18 4.14623E-18
 -1      1670 7.33882E-05-7.09304E-07-3.04438E-05 5.92429E-05 7.61906E-18 7.34208E-18
 -1      1671 4.92803E-05-6.38671E-06-2.07887E-05 3.65753E-05 7.28702E-18 6.60093E-18
 -1      1672 1.38098E-04-1.58928E-05-4.90009E-05 7.64064E-05 5.08050E-18 7.86470E-18
 -1      1673 9.76366E-05-4.23027E-06-3.96244E-05 6.35601E-05 7.21333E-18 7.28618E-18
 -1      1674 2.03904E-04-4.15119E-05-6.40999E-05 6.73013E-05 3.01099E-18 5.90721E-18
 -1      1675 1.61688E-04-2.10220E-05-5.70582E-05 7.55366E-05 3.88153E-18 7.42086E-18
 -1      1676 2.45098E-04-6.09657E-05-7.26608E-05 2.68831E-05 1.65044E-18 3.79174E-18
 -1      1677 2.20309E-04-4.71348E-05-6.90364E-05 5.45842E-05 2.31214E-18 5.20841E-18
 -1      1678 2.44088E-04-5.90553E-05-7.32992E-05-2.53370E-05 5.52689E-19 2.11081E-18
 -1      1679 2.48576E-04-6.17370E-05-7.39668E-05 1.03306E-05 8.71385E-19 3.30004E-18
 -1      1680 2.03376E-04-3.86372E-05-6.58974E-05-6.64834E-05 3.62313E-18-2.18111E-18
 -1      1681 2.37824E-04-5.74508E-05-7.09512E-05-4.27635E-05 2.22759E-18 1.79995E-18
 -1      1682 1.35750E-04-1.35077E-05-5.04490E-05-7.07952E-05 4.80395E-18-5.72764E-18
 -1      1683 1.80974E-04-3.24444E-05-5.89874E-05-7.13651E-05 3.61217E-18-3.68036E-18
 -1      1684 7.55227E-05-2.99727E-06-3.18869E-05-5.33623E-05 5.46421E-18-5.78778E-18
 -1      1685 1.10681E-04-8.12757E-06-4.16719E-05-7.19303E-05 4.85858E-18-6.48827E-18
 -1      1686 3.87097E-05-1.66906E-05-1.27771E-05-2.43375E-05 5.60228E-18-4.78235E-18
 -1      1687 5.48951E-05-3.28758E-06-2.24824E-05-4.68861E-05 6.21976E-18-5.74119E-18
 -1      1688 2.46438E-05-4.41700E-05 3.01101E-06-3.05558E-06 3.33053E-18-2.38059E-18
 -1      1689 2.41673E-05-2.10399E-05-4.42215E-06-1.48714E-05 5.07288E-18-4.82470E-18
 -1      1690 2.39616E-05-6.86152E-05 1.28404E-05 5.13932E-07-7.96211E-20-2.12150E-18
 -1      1691 1.90062E-05-5.04254E-05 8.48986E-06 2.11800E-06 2.26073E-18-2.19307E-18
 -1      1692 2.29317E-05-7.59851E-05 1.61589E-05-4.62718E-06-3.65452E-18-1.04545E-18
 -1      1693 2.20203E-05-7.31457E-05 1.55100E-05 5.27581E-06-1.24302E-18-1.38088E-18
 -1      1694 1.91437E-05-5.65192E-05 1.07253E-05-4.33942E-06-5.67089E-18-2.57922E-18
 -1      1695 2.37236E-05-7.19715E-05 1.43452E-05 2.70396E-08-4.03188E-18-1.46516E-18
 -1      1696 2.15959E-05-2.85403E-05-7.80715E-07 8.09620E-06-6.25364E-18-3.37289E-18
 -1      1697 2.41388E-05-5.15802E-05 5.99115E-06-2.68423E-07-6.15624E-18-2.55031E-18
 -1      1698 4.45269E-05-5.34361E-06-1.80079E-05 3.81915E-05-5.32445E-18-3.51010E-18
 -1      1699 3.28479E-05-2.23808E-05-8.57572E-06 1.67035E-05-6.00885E-18-3.32545E-18
 -1      1700 9.61676E-05-4.53593E-06-3.75962E-05 6.84053E-05-4.19959E-18-6.44846E-18
 -1      1701 6.41814E-05-3.57166E-06-2.74770E-05 4.68027E-05-4.78743E-18-4.64682E-18
 -1      1702 1.66556E-04-2.65916E-05-5.56868E-05 7.55387E-05-3.25176E-18-4.52400E-18
 -1      1703 1.22349E-04-9.98946E-06-4.67426E-05 6.95238E-05-4.48462E-18-5.20332E-18
 -1      1704 2.28445E-04-5.25773E-05-6.90451E-05 5.49131E-05-2.16316E-18-5.42101E-19
 -1      1705 1.89557E-04-3.25393E-05-6.30391E-05 7.15361E-05-3.27886E-18-3.95564E-18
 -1      1706 2.56600E-04-6.54834E-05-7.49859E-05 4.47641E-06-8.64609E-19 2.80855E-18
 -1      1707 2.41571E-04-5.70210E-05-7.28873E-05 3.96252E-05-1.58310E-18 8.19928E-19
 -1      1708 2.37322E-04-5.49294E-05-7.21149E-05-4.65526E-05-1.80746E-18 5.41000E-18
 -1      1709 2.57154E-04-6.60137E-05-7.48414E-05-1.34889E-05-6.35486E-19 4.44925E-18
 -1      1710 1.75404E-04-2.76486E-05-5.98484E-05-6.96371E-05-3.46119E-18 6.28160E-18
 -1      1711 2.18646E-04-4.86980E-05-6.69791E-05-5.66553E-05-2.22674E-18 5.91060E-18
 -1      1712 1.05842E-04-5.17056E-06-4.24904E-05-6.69074E-05-5.56585E-18 7.14981E-18
 -1      1713 1.50416E-04-1.99274E-05-5.20468E-05-7.78216E-05-4.13183E-18 6.56281E-18
 -1      1714 5.51126E-05-1.04416E-05-2.15131E-05-3.65021E-05-8.42628E-18 5.78354E-18
 -1      1715 8.36621E-05-5.49614E-06-3.24874E-05-6.10163E-05-6.31378E-18 6.26296E-18
 -1      1716 2.76480E-05-3.22699E-05-2.95341E-06-8.54291E-06-1.05091E-17 4.94583E-18
 -1      1717 3.34507E-05-1.09473E-05-1.18030E-05-2.71427E-05-9.46305E-18 5.91060E-18
 -1      1718 2.38209E-05-6.29042E-05 1.03243E-05 2.95115E-06-6.48234E-18 4.19085E-18
 -1      1719 1.87204E-05-3.95651E-05 4.29354E-06-4.07944E-07-9.97551E-18 6.32416E-18
 -1      1720 2.39459E-05-7.69172E-05 1.59402E-05-9.62556E-07-3.53456E-18 1.92721E-18
 -1      1721 2.07664E-05-6.81360E-05 1.40666E-05 7.33267E-06-5.89069E-18 2.22092E-18
 -1      1722 1.12611E-04-2.97113E-05-3.46098E-05 4.61598E-05 4.80352E-18 4.77642E-18
 -1      1723 7.01590E-05-3.26459E-05-1.73430E-05 3.95048E-05 4.53163E-18 4.57101E-18
 -1      1724 9.52378E-05-2.85782E-05-2.85674E-05-1.20103E-08-4.06564E-18-5.74733E-19
 -1      1725 9.52370E-05-2.85725E-05-2.85701E-05-1.61777E-08-1.43243E-18 3.90414E-19
 -1      1726 1.87741E-05-4.76580E-05 8.15496E-06 1.45181E-05 2.25734E-19 4.30145E-18
 -1      1727 3.85224E-05-4.04905E-05-2.24149E-06 2.75419E-05 3.33307E-18 4.40915E-18
 -1      1728 1.22454E-05-5.20106E-05 1.21920E-05 8.35521E-07-1.60931E-18 3.55034E-18
 -1      1729 1.56174E-04-3.05080E-05-5.09184E-05 4.32054E-05 3.94654E-18 4.74931E-18
 -1      1730 1.91076E-04-3.23246E-05-6.33536E-05 3.02516E-05 2.78187E-18 3.61514E-18
 -1      1731 2.06032E-04-3.23066E-05-6.92603E-05 8.10085E-06 1.91853E-18 2.13971E-18
 -1      1732 2.04699E-04-3.32820E-05-6.83243E-05-1.61549E-05 2.43607E-18 1.46833E-18
 -1      1733 1.79876E-04-3.22324E-05-5.94012E-05-3.41475E-05 4.16682E-18 1.18585E-19
 -1      1734 1.40159E-04-3.11374E-05-4.46231E-05-4.33239E-05 3.36759E-18-2.37423E-18
 -1      1735 9.60836E-05-3.21467E-05-2.73133E-05-4.39375E-05 3.10607E-18-3.24625E-18
 -1      1736 5.62797E-05-3.64556E-05-1.04616E-05-3.51191E-05 2.54533E-18-3.91859E-18
 -1      1737 2.87768E-05-4.36574E-05 2.77868E-06-2.21019E-05 8.12305E-19-3.30248E-18
 -1      1738 1.47602E-05-4.96899E-05 1.04826E-05-9.55082E-06-6.49674E-19-3.38390E-18
 -1      1739 1.26436E-05-4.95178E-05 1.12950E-05 5.08198E-06-2.31812E-18-2.15909E-18
 -1      1740 2.43576E-05-4.54395E-05 5.14052E-06 1.83493E-05-3.18188E-18-2.45682E-18
 -1      1741 4.82646E-05-3.86355E-05-6.83135E-06 3.06092E-05-3.43895E-18-1.73091E-18
 -1      1742 8.50828E-05-3.20565E-05-2.33060E-05 4.20439E-05-3.09082E-18-2.67705E-18
 -1      1743 1.31010E-04-3.10808E-05-4.11028E-05 4.52313E-05-2.58260E-18-2.74269E-18
 -1      1744 1.73687E-04-3.29046E-05-5.67046E-05 3.83564E-05-2.97383E-18-5.76829E-19
 -1      1745 2.04514E-04-3.50528E-05-6.74397E-05 2.19190E-05-2.97309E-18 7.41154E-19
 -1      1746 2.14768E-04-3.57712E-05-7.09351E-05-2.17367E-06-1.95495E-18 3.14747E-18
 -1      1747 1.99624E-04-3.45585E-05-6.58572E-05-2.25920E-05-2.32045E-18 4.47106E-18
 -1      1748 1.65415E-04-3.22019E-05-5.36994E-05-3.90657E-05-3.34811E-18 4.17757E-18
 -1      1749 1.20802E-04-3.30174E-05-3.65856E-05-4.40919E-05-3.77057E-18 3.08489E-18
 -1      1750 7.53373E-05-3.57768E-05-1.80408E-05-3.92083E-05-5.41000E-18 2.52246E-18
 -1      1751 3.80245E-05-4.13866E-05-1.76144E-06-2.55865E-05-5.23551E-18 4.07216E-18
 -1      1752 1.83227E-05-4.91414E-05 8.73590E-06-1.16392E-05-4.01197E-18 4.21081E-18
 -1      1753 1.05782E-04-2.31250E-05-3.55105E-05-1.66554E-05-6.45585E-19 3.63398E-18
 -1      1754 8.92581E-05-1.05781E-05-3.38459E-05-1.29377E-05-8.90152E-19-4.76403E-19
 -1      1755 9.05897E-05-1.16508E-05-3.39709E-05-1.47573E-05-1.05894E-18-7.08067E-20
 -1      1756 9.25653E-05-1.39100E-05-3.38704E-05-1.56566E-05-1.07895E-18 3.77591E-19
 -1      1757 9.42287E-05-1.58580E-05-3.40872E-05-1.73364E-05-1.08909E-18 9.45924E-19
 -1      1758 9.35127E-05-1.63544E-05-3.30821E-05-1.33884E-05-1.07065E-18 1.98682E-19
 -1      1759 8.62346E-05-7.52464E-06-3.38050E-05-7.52196E-06-5.91707E-19-1.11088E-18
 -1      1760 8.66676E-05-7.85274E-06-3.38378E-05-8.88510E-06-7.01595E-19-1.01599E-18
 -1      1761 8.55502E-05-6.82079E-06-3.38008E-05-5.05576E-06-4.09409E-19-1.19997E-18
 -1      1762 8.58156E-05-7.02212E-06-3.38174E-05-6.31890E-06-5.10920E-19-1.19158E-18
 -1      1763 8.75590E-05-9.63073E-06-3.34285E-05-6.57587E-06-6.26275E-19-1.08476E-18
 -1      1764 8.51585E-05-6.41068E-06-3.38011E-05-2.73121E-06-1.45694E-19-1.14381E-18
 -1      1765 8.53024E-05-6.52092E-06-3.38088E-05-3.91771E-06-2.91904E-19-1.16200E-18
 -1      1766 8.68424E-05-8.83663E-06-3.34612E-05-4.27668E-06-3.49139E-19-1.09730E-18
 -1      1767 8.50002E-05-6.23812E-06-3.38025E-05-4.85294E-07 8.76648E-20-1.22975E-18
 -1      1768 8.50442E-05-6.27201E-06-3.38049E-05-1.63532E-06-2.44359E-20-1.21451E-18
 -1      1769 8.64514E-05-8.40269E-06-3.34791E-05-2.08096E-06-8.24261E-20-1.11602E-18
 -1      1770 8.50539E-05-6.28202E-06-3.38045E-05 1.74822E-06 3.22028E-19-1.26404E-18
 -1      1771 8.50039E-05-6.24332E-06-3.38023E-05 5.97040E-07 2.22122E-19-1.23302E-18
 -1      1772 8.63323E-05-8.27093E-06-3.34844E-05 6.16561E-08 1.41307E-19-1.18526E-18
 -1      1773 8.53272E-05-6.54844E-06-3.38077E-05 4.03603E-06 4.25249E-19-1.35570E-18
 -1      1774 8.51763E-05-6.43170E-06-3.38001E-05 2.84596E-06 3.89523E-19-1.34441E-18
 -1      1775 8.64695E-05-8.42485E-06-3.34776E-05 2.20608E-06 3.64026E-19-1.26596E-18
 -1      1776 8.58478E-05-7.06061E-06-3.38149E-05 6.40452E-06 5.48245E-19-1.14033E-18
 -1      1777 8.55791E-05-6.85518E-06-3.37990E-05 5.15742E-06 4.73554E-19-1.27284E-18
 -1      1778 8.68761E-05-8.87772E-06-3.34581E-05 4.38700E-06 4.95012E-19-1.26524E-18
 -1      1779 8.67301E-05-7.92434E-06-3.38334E-05 9.00503E-06 8.91383E-19-8.16646E-19
 -1      1780 8.62793E-05-7.58034E-06-3.38012E-05 7.60935E-06 6.84826E-19-9.53005E-19
 -1      1781 8.76090E-05-9.69228E-06-3.34238E-05 6.66902E-06 6.97005E-19-9.66074E-19
 -1      1782 8.81908E-05-9.34671E-06-3.38774E-05 1.18612E-05 1.16382E-18-4.48319E-19
 -1      1783 8.74346E-05-8.76278E-06-3.38123E-05 1.02764E-05 9.90800E-19-6.77560E-19
 -1      1784 8.88120E-05-1.10222E-05-3.33681E-05 9.08810E-06 1.02703E-18-5.93558E-19
 -1      1785 9.07330E-05-1.18572E-05-3.39614E-05 1.49254E-05 1.33860E-18 7.08596E-20
 -1      1786 8.93652E-05-1.07396E-05-3.38372E-05 1.31275E-05 1.23267E-18-2.75947E-19
 -1      1787 9.07619E-05-1.31731E-05-3.32705E-05 1.15488E-05 1.30494E-18-2.18839E-19
 -1      1788 9.58826E-05-1.70626E-05-3.39813E-05 1.73666E-05 1.25584E-18 1.20453E-18
 -1      1789 9.29262E-05-1.43751E-05-3.38419E-05 1.58467E-05 1.28983E-18 5.24155E-19
 -1      1790 9.40583E-05-1.68946E-05-3.30588E-05 1.35051E-05 1.35435E-18 3.02708E-19
 -1      1791 1.01800E-04-2.50763E-05-3.33106E-05 1.41778E-05 1.02258E-18 2.56937E-18
 -1      1792 9.80344E-05-1.96351E-05-3.35994E-05 1.66754E-05 1.13076E-18 1.68454E-18
 -1      1793 9.73575E-05-2.18700E-05-3.24306E-05 1.29237E-05 1.25223E-18 1.16303E-18
 -1      1794 9.86959E-05-2.61272E-05-3.13188E-05 9.19888E-06 1.07332E-18 2.24980E-18
 -1      1795 1.00050E-04-1.95737E-05-3.41704E-05-1.86000E-05-8.94109E-19 2.00281E-18
 -1      1796 9.54027E-05-2.73010E-05-2.92156E-05 3.81493E-06 8.83601E-19 1.64833E-18
 -1      1797 9.77463E-05-2.73870E-05-3.01965E-05 6.15747E-06 8.85944E-19 1.99783E-18
 -1      1798 9.76208E-05-2.56266E-05-3.08478E-05 8.46160E-06 1.06011E-18 1.32080E-18
 -1      1799 9.97739E-05-2.25437E-05-3.28189E-05-1.41709E-05-9.48280E-19 1.53678E-18
 -1      1800 9.70526E-05-2.69876E-05-2.99119E-05-5.39588E-06-7.85491E-19 1.41671E-18
 -1      1801 9.53375E-05-2.70577E-05-2.92322E-05-3.56721E-06-6.87592E-19 1.20068E-18
 -1      1802 9.45970E-05-2.72686E-05-2.87571E-05-2.04120E-06-6.52950E-19 1.21361E-18
 -1      1803 9.39445E-05-2.73717E-05-2.84899E-05-1.14185E-06-6.13649E-19 1.00518E-18
 -1      1804 9.57445E-05-2.65546E-05-2.96754E-05-4.00906E-06-8.11603E-19 7.31641E-19
 -1      1805 9.35272E-05-2.74407E-05-2.82623E-05-2.37534E-07-4.46823E-19 9.61879E-19
 -1      1806 9.33849E-05-2.75377E-05-2.81896E-05 2.70573E-07-2.88954E-19 7.08932E-19
 -1      1807 9.47160E-05-2.72437E-05-2.89395E-05-1.22045E-06-6.34974E-19 5.93869E-19
 -1      1808 9.32517E-05-2.75918E-05-2.81069E-05 8.34729E-07-2.72725E-19 5.95009E-19
 -1      1809 9.34338E-05-2.77156E-05-2.81427E-05 1.15559E-06-2.77562E-19 5.97810E-19
 -1      1810 9.42584E-05-2.75783E-05-2.85968E-05 4.55705E-07-4.23108E-19 3.95353E-19
 -1      1811 9.35181E-05-2.77844E-05-2.81536E-05 1.54118E-06-2.98177E-19 6.44365E-19
 -1      1812 9.39187E-05-2.79361E-05-2.82599E-05 1.77333E-06-2.28098E-19 5.32605E-19
 -1      1813 9.42597E-05-2.78073E-05-2.84959E-05 1.54437E-06-3.23222E-19 2.37250E-19
 -1      1814 9.41686E-05-2.80254E-05-2.83369E-05 2.07289E-06-2.76456E-19 4.40096E-19
 -1      1815 9.47347E-05-2.82041E-05-2.84959E-05 2.27095E-06-3.05663E-19 3.89546E-19
 -1      1816 9.46196E-05-2.80165E-05-2.85574E-05 2.33063E-06-2.65563E-19 2.04134E-19
 -1      1817 9.51181E-05-2.83149E-05-2.86237E-05 2.54110E-06-3.65169E-19 4.38298E-19
 -1      1818 9.58282E-05-2.85224E-05-2.88277E-05 2.73836E-06-3.40986E-19 4.42145E-19
 -1      1819 9.52638E-05-2.82356E-05-2.87374E-05 2.98215E-06-3.40415E-19 2.81308E-19
 -1      1820 9.63286E-05-2.86568E-05-2.89981E-05 3.01448E-06-3.58025E-19 3.13649E-19
 -1      1821 9.71802E-05-2.88989E-05-2.92449E-05 3.23088E-06-2.00318E-19 3.61009E-19
 -1      1822 9.61496E-05-2.84806E-05-2.90107E-05 3.60268E-06-4.02964E-19 2.19558E-20
 -1      1823 9.77926E-05-2.90616E-05-2.94531E-05 3.53245E-06-4.08950E-19 1.53704E-19
 -1      1824 9.87931E-05-2.93478E-05-2.97431E-05 3.77595E-06-4.85266E-19 7.67566E-20
 -1      1825 9.72597E-05-2.87678E-05-2.93628E-05 4.25438E-06-5.11462E-19-8.03798E-20
 -1      1826 9.95199E-05-2.95478E-05-2.99858E-05 4.10602E-06-1.86285E-19 5.99441E-20
 -1      1827 1.00678E-04-2.98911E-05-3.03190E-05 4.36966E-06 1.60539E-20-1.13146E-19
 -1      1828 9.85951E-05-2.91207E-05-2.97838E-05 4.96330E-06-3.06164E-19-1.35576E-19
 -1      1829 1.01526E-04-3.01429E-05-3.05914E-05 4.70969E-06-2.90258E-20-3.10292E-20
 -1      1830 1.02843E-04-3.05587E-05-3.09642E-05 4.96462E-06 5.26798E-20 1.27854E-19
 -1      1831 1.00169E-04-2.95758E-05-3.02637E-05 5.71364E-06-1.52094E-19-2.96325E-20
 -1      1832 1.03820E-04-3.08844E-05-3.12577E-05 5.26466E-06-2.76568E-20-3.13584E-20
 -1      1833 1.05271E-04-3.13888E-05-3.16580E-05 5.44939E-06-8.28091E-21 1.59929E-19
 -1      1834 1.02003E-04-3.01883E-05-3.07876E-05 6.43204E-06 6.33649E-20 1.67512E-19
 -1      1835 1.06386E-04-3.18187E-05-3.19579E-05 5.61436E-06 5.08894E-20 2.45506E-19
 -1      1836 1.07904E-04-3.24222E-05-3.23600E-05 5.62238E-06 1.20626E-19 5.20237E-19
 -1      1837 1.04119E-04-3.10367E-05-3.13319E-05 6.96278E-06-1.30908E-20 3.98426E-19
 -1      1838 1.09158E-04-3.29909E-05-3.26442E-05 5.49875E-06-8.42914E-20 3.85827E-19
 -1      1839 1.10611E-04-3.36828E-05-3.30044E-05 5.17309E-06 9.11321E-20 4.59846E-19
 -1      1840 1.06534E-04-3.22179E-05-3.18618E-05 7.03925E-06 7.21591E-20 2.01124E-19
 -1      1841 1.11982E-04-3.44093E-05-3.32461E-05 4.54927E-06 1.38123E-19 6.46505E-19
 -1      1842 1.13146E-04-3.51253E-05-3.35028E-05 3.70430E-06-2.91035E-20 7.08457E-19
 -1      1843 1.09234E-04-3.38122E-05-3.23358E-05 6.26909E-06-4.11440E-20-4.66348E-20
 -1      1844 1.14545E-04-3.59620E-05-3.36792E-05 2.35577E-06 5.12852E-21 6.80366E-19
 -1      1845 1.15105E-04-3.65306E-05-3.37659E-05 8.60903E-07 2.24510E-19 7.47402E-19
 -1      1846 1.12110E-04-3.57825E-05-3.27198E-05 4.17731E-06 8.05674E-21 6.94991E-19
 -1      1847 1.16305E-04-3.72755E-05-3.38749E-05-1.30887E-06 1.76421E-19 8.64007E-19
 -1      1848 1.15905E-04-3.73733E-05-3.37493E-05-3.35317E-06 3.37688E-20 9.55516E-19
 -1      1849 1.14833E-04-3.77807E-05-3.30154E-05 3.90987E-07 8.76414E-20 1.29621E-18
 -1      1850 1.16475E-04-3.76012E-05-3.38260E-05-6.03827E-06-3.61577E-19 1.18212E-18
 -1      1851 1.14890E-04-3.68211E-05-3.35091E-05-8.07598E-06-1.04198E-19 1.10045E-18
 -1      1852 1.16693E-04-3.89318E-05-3.32921E-05-4.93157E-06 6.54134E-20 1.33592E-18
 -1      1853 1.14329E-04-3.60187E-05-3.36142E-05-1.02847E-05 3.33155E-19 9.84590E-19
 -1      1854 1.11755E-04-3.41948E-05-3.32114E-05-1.12544E-05 7.23609E-19 7.78198E-19
 -1      1855 1.16668E-04-3.79596E-05-3.36762E-05-1.04659E-05 1.13284E-19 1.68866E-18
 -1      1856 1.10008E-04-3.22973E-05-3.33824E-05-1.14443E-05 8.31561E-19 2.78330E-19
 -1      1857 1.07325E-04-3.00248E-05-3.30460E-05-1.02872E-05 3.80013E-19 7.05466E-19
 -1      1858 1.14098E-04-3.40870E-05-3.42566E-05-1.34308E-05 5.03826E-19 1.49758E-18
 -1      1859 1.05422E-04-2.80542E-05-3.32183E-05-7.48339E-06-2.39313E-19 1.06464E-18
 -1      1860 1.03958E-04-2.67107E-05-3.30562E-05-4.22233E-06-1.96565E-19 7.96793E-19
 -1      1861 1.10015E-04-2.87072E-05-3.49185E-05-1.07541E-05 1.81834E-19 6.02947E-19
 -1      1862 1.03503E-04-2.62357E-05-3.30933E-05 4.65714E-07-1.90291E-19 7.85180E-19
 -1      1863 1.04085E-04-2.67771E-05-3.31559E-05 4.23155E-06 6.13305E-20 1.00605E-18
 -1      1864 1.07377E-04-2.53343E-05-3.53023E-05-2.28840E-06-1.13873E-19 8.31396E-19
 -1      1865 1.05535E-04-2.82468E-05-3.30342E-05 8.15991E-06-7.37580E-20 7.50987E-19
 -1      1866 1.07837E-04-3.02809E-05-3.33098E-05 1.03751E-05-3.76731E-19 1.02240E-18
 -1      1867 1.08464E-04-2.66884E-05-3.51460E-05 7.56130E-06 1.60619E-19 4.03256E-19
 -1      1868 1.09866E-04-3.24019E-05-3.31371E-05 1.15334E-05-9.23074E-19 3.23897E-19
 -1      1869 1.12665E-04-3.45651E-05-3.35388E-05 1.14415E-05-9.34365E-19-3.50725E-19
 -1      1870 1.12332E-04-3.16473E-05-3.45793E-05 1.31142E-05-1.07277E-18 2.43049E-19
 -1      1871 1.13836E-04-3.59191E-05-3.34134E-05 9.97196E-06-4.14259E-19-5.14890E-19
 -1      1872 1.15966E-04-3.71983E-05-3.37956E-05 8.27583E-06-2.49206E-19-4.76668E-19
 -1      1873 1.15904E-04-3.65596E-05-3.39583E-05 1.24515E-05-7.49597E-19-8.06815E-19
 -1      1874 1.15881E-04-3.73896E-05-3.37209E-05 5.64962E-06-5.27430E-19 1.70260E-19
 -1      1875 1.16847E-04-3.76510E-05-3.39517E-05 3.51954E-06 2.33814E-19 5.84941E-20
 -1      1876 1.17125E-04-3.88541E-05-3.35018E-05 7.70385E-06 1.19127E-19-4.45708E-19
 -1      1877 1.15897E-04-3.70803E-05-3.38750E-05 1.06204E-06 5.92725E-19 9.36716E-20
 -1      1878 1.15777E-04-3.66865E-05-3.38967E-05-6.97585E-07 6.13199E-19-2.59953E-19
 -1      1879 1.16041E-04-3.85131E-05-3.32106E-05 2.06459E-06-6.94964E-20 4.02122E-19
 -1      1880 1.14468E-04-3.58614E-05-3.37667E-05-2.39344E-06 6.00467E-20-7.27127E-19
 -1      1881 1.13596E-04-3.51977E-05-3.35978E-05-3.50000E-06-5.58916E-19-9.51542E-19
 -1      1882 1.13663E-04-3.67630E-05-3.29610E-05-2.43555E-06-2.32471E-19-8.41433E-19
 -1      1883 1.12245E-04-3.44201E-05-3.34015E-05-4.39132E-06-9.58027E-19-9.49895E-19
 -1      1884 1.10969E-04-3.37250E-05-3.31033E-05-4.89868E-06-1.05351E-18-7.89203E-19
 -1      1885 1.10884E-04-3.47253E-05-3.26514E-05-5.19453E-06-5.52252E-19-4.82402E-19
 -1      1886 1.09719E-04-3.30998E-05-3.28567E-05-5.17748E-06-1.73144E-18-6.19105E-19
 -1      1887 1.08309E-04-3.24798E-05-3.24964E-05-5.26195E-06-1.72692E-18-1.07236E-18
 -1      1888 1.08193E-04-3.29663E-05-3.22530E-05-6.41671E-06-1.50656E-18 4.21890E-19
 -1      1889 1.07205E-04-3.20102E-05-3.22263E-05-5.15604E-06-6.99607E-19-5.63970E-19
 -1      1890 1.05835E-04-3.14958E-05-3.18567E-05-4.99355E-06 6.54925E-19-2.17003E-19
 -1      1891 1.05779E-04-3.16352E-05-3.17882E-05-6.56646E-06-1.06933E-18 5.38342E-19
 -1      1892 1.04884E-04-3.11506E-05-3.15881E-05-4.68579E-06 7.17726E-19 9.28097E-21
 -1      1893 1.03649E-04-3.07393E-05-3.12432E-05-4.40705E-06 1.04700E-18-1.07349E-19
 -1      1894 1.03691E-04-3.06886E-05-3.12978E-05-6.08717E-06 4.44477E-19 4.82647E-19
 -1      1895 1.02845E-04-3.04855E-05-3.09937E-05-4.01999E-06 6.26680E-19-9.45094E-19
 -1      1896 1.01787E-04-3.01634E-05-3.06910E-05-3.70752E-06-6.81514E-20-1.43825E-18
 -1      1897 1.01921E-04-3.00311E-05-3.08201E-05-5.30670E-06 1.21515E-19-1.67606E-19
 -1      1898 1.01117E-04-2.99752E-05-3.04706E-05-3.31380E-06-2.98516E-19-1.82765E-18
 -1      1899 1.00243E-04-2.97267E-05-3.02161E-05-3.01334E-06-3.29711E-19-1.21895E-18
 -1      1900 1.00445E-04-2.95755E-05-3.03818E-05-4.43509E-06-2.40209E-19-8.59619E-19
 -1      1901 9.96947E-05-2.95860E-05-3.00287E-05-2.65101E-06 8.71154E-20-9.53350E-19
 -1      1902 9.89924E-05-2.93969E-05-2.98216E-05-2.38424E-06 7.14490E-19-4.72439E-20
 -1      1903 9.92322E-05-2.92574E-05-2.99976E-05-3.59206E-06 3.22737E-19-3.34356E-19
 -1      1904 9.85513E-05-2.92914E-05-2.96670E-05-2.06973E-06 1.63412E-18 3.41085E-19
 -1      1905 9.80000E-05-2.91494E-05-2.95027E-05-1.84415E-06 1.53554E-18 1.35488E-18
 -1      1906 9.82520E-05-2.90334E-05-2.96726E-05-2.83692E-06 1.52003E-18 1.34402E-18
 -1      1907 9.76510E-05-2.90705E-05-2.93783E-05-1.58150E-06 1.06360E-18 9.06606E-19
 -1      1908 9.72274E-05-2.89655E-05-2.92509E-05-1.39700E-06 5.28101E-19 1.29695E-18
 -1      1909 9.74721E-05-2.88749E-05-2.94053E-05-2.19218E-06 1.59428E-18 1.50822E-18
 -1      1910 9.69561E-05-2.89071E-05-2.91530E-05-1.18370E-06-6.63537E-19 2.16726E-18
 -1      1911 9.66371E-05-2.88309E-05-2.90562E-05-1.03647E-06-1.18164E-18 1.32527E-18
 -1      1912 9.68619E-05-2.87628E-05-2.91908E-05-1.65970E-06 2.61141E-19 1.87958E-18
 -1      1913 9.64300E-05-2.87881E-05-2.89807E-05-8.66995E-07-2.02105E-18 1.97824E-18
 -1      1914 9.61948E-05-2.87340E-05-2.89087E-05-7.51818E-07-9.70285E-19 1.73617E-18
 -1      1915 9.63926E-05-2.86845E-05-2.90224E-05-1.23078E-06-1.47683E-18 3.53827E-18
 -1      1916 9.60397E-05-2.87034E-05-2.88516E-05-6.19597E-07 2.32835E-19 1.18354E-18
 -1      1917 9.58704E-05-2.86661E-05-2.87994E-05-5.31002E-07 1.15774E-18 1.62218E-18
 -1      1918 9.60382E-05-2.86308E-05-2.88927E-05-8.92171E-07-4.15662E-19 4.24158E-18
 -1      1919 9.57567E-05-2.86447E-05-2.87571E-05-4.29502E-07 2.57933E-18 9.78838E-19
 -1      1920 9.56384E-05-2.86200E-05-2.87202E-05-3.62371E-07 2.14523E-18 2.36300E-18
 -1      1921 9.57760E-05-2.85950E-05-2.87949E-05-6.29452E-07 1.24158E-18 2.26417E-18
 -1      1922 9.55571E-05-2.86055E-05-2.86897E-05-2.85609E-07 6.63642E-19 2.92681E-18
 -1      1923 9.54775E-05-2.85901E-05-2.86644E-05-2.35437E-07 6.52024E-19 3.41539E-18
 -1      1924 9.55865E-05-2.85724E-05-2.87227E-05-4.28790E-07 1.81882E-18 1.93733E-18
 -1      1925 9.54210E-05-2.85808E-05-2.86430E-05-1.78233E-07 1.34967E-20 3.22639E-18
 -1      1926 9.53704E-05-2.85721E-05-2.86266E-05-1.41242E-07 1.39896E-19 2.48927E-18
 -1      1927 9.54531E-05-2.85591E-05-2.86707E-05-2.77811E-07-5.57127E-20 2.50764E-18
 -1      1928 9.53326E-05-2.85666E-05-2.86120E-05-9.93687E-08-3.28362E-19 1.46778E-18
 -1      1929 9.53033E-05-2.85629E-05-2.86021E-05-7.26417E-08-4.97933E-19 6.38995E-19
 -1      1930 9.53623E-05-2.85525E-05-2.86341E-05-1.66058E-07-7.49757E-19 1.29188E-18
 -1      1931 9.52789E-05-2.85604E-05-2.85924E-05-4.27004E-08 9.83354E-20-5.41133E-19
 -1      1932 9.52647E-05-2.85605E-05-2.85869E-05-2.45356E-08 1.03979E-18-2.01884E-19
 -1      1933 9.53029E-05-2.85507E-05-2.86090E-05-8.53089E-08-9.17234E-19 1.08532E-18
 -1      1934 9.52508E-05-2.85608E-05-2.85806E-05-5.82585E-09 1.50935E-18-9.52385E-19
 -1      1935 9.52465E-05-2.85646E-05-2.85775E-05 3.71862E-09 9.76952E-19-6.86606E-19
 -1      1936 9.52497E-05-2.85648E-05-2.85798E-05 1.58458E-09 2.88736E-19-2.58278E-18
 -1      1937 9.52676E-05-2.85551E-05-2.85920E-05-3.07345E-08 3.08945E-19-9.62004E-19
 -1      1938 9.34920E-05-2.74180E-05-2.82873E-05 1.29562E-06 8.07864E-19 1.13221E-18
 -1      1939 9.45814E-05-2.74976E-05-2.86906E-05 2.39410E-06 8.34539E-19 1.50003E-18
 -1      1940 9.54223E-05-2.70766E-05-2.92978E-05 3.70351E-06 1.00659E-18 9.41378E-19
 -1      1941 9.26870E-05-2.74623E-05-2.79261E-05-5.95436E-08 5.39742E-19 9.07119E-19
 -1      1942 9.30460E-05-2.74595E-05-2.80563E-05 5.34717E-07 5.40698E-19 1.04110E-18
 -1      1943 9.40139E-05-2.74325E-05-2.85435E-05 1.13723E-06 6.88175E-19 7.55037E-19
 -1      1944 9.26394E-05-2.75810E-05-2.78630E-05-8.54100E-07 2.15494E-19 1.03536E-18
 -1      1945 9.25749E-05-2.75060E-05-2.78546E-05-4.95410E-07 3.75527E-19 9.91081E-19
 -1      1946 9.34420E-05-2.76008E-05-2.82298E-05-3.23057E-07 4.08061E-19 6.84548E-19
 -1      1947 9.30971E-05-2.77828E-05-2.79773E-05-1.36760E-06-1.49496E-19 8.73807E-19
 -1      1948 9.27706E-05-2.76549E-05-2.78879E-05-1.12628E-06 9.78886E-21 9.23415E-19
 -1      1949 9.34701E-05-2.77698E-05-2.81701E-05-1.21834E-06 7.68583E-20 5.87737E-19
 -1      1950 9.39102E-05-2.80553E-05-2.82111E-05-1.74342E-06 8.82428E-20 7.43693E-19
 -1      1951 9.34051E-05-2.78876E-05-2.80671E-05-1.55914E-06-1.34462E-19 8.70368E-19
 -1      1952 9.39214E-05-2.79808E-05-2.82719E-05-1.82424E-06-5.59522E-20 3.85325E-19
 -1      1953 9.49964E-05-2.83895E-05-2.85344E-05-2.06026E-06 4.96909E-19 8.17227E-19
 -1      1954 9.43545E-05-2.81883E-05-2.83486E-05-1.89928E-06 3.40203E-19 9.27529E-19
 -1      1955 9.46850E-05-2.82403E-05-2.84865E-05-2.28828E-06 2.51900E-19 3.57697E-19
 -1      1956 9.63143E-05-2.87833E-05-2.89311E-05-2.36059E-06 6.77500E-19 3.36814E-19
 -1      1957 9.55546E-05-2.85500E-05-2.87098E-05-2.20437E-06 5.92560E-19 7.28900E-19
 -1      1958 9.56975E-05-2.85505E-05-2.87866E-05-2.69214E-06 7.20346E-19 5.11438E-19
 -1      1959 9.78440E-05-2.92404E-05-2.93917E-05-2.65971E-06-7.30318E-20 5.12056E-19
 -1      1960 9.69749E-05-2.89733E-05-2.91383E-05-2.50157E-06 1.99653E-19 2.98795E-19
 -1      1961 9.69255E-05-2.89166E-05-2.91555E-05-3.07642E-06 3.26771E-19 4.48252E-19
 -1      1962 9.95707E-05-2.97676E-05-2.99076E-05-2.94590E-06 3.32274E-19 4.45404E-19
 -1      1963 9.86000E-05-2.94641E-05-2.96256E-05-2.79156E-06 1.44738E-19 4.52241E-19
 -1      1964 9.83515E-05-2.93489E-05-2.95812E-05-3.44767E-06 1.53373E-19 4.67506E-19
 -1      1965 1.01468E-04-3.03708E-05-3.04654E-05-3.17534E-06 5.86282E-19 6.40593E-19
 -1      1966 1.00413E-04-3.00303E-05-3.01615E-05-3.04584E-06 3.98240E-19 5.00932E-19
 -1      1967 9.99603E-05-2.98609E-05-3.00511E-05-3.77658E-06 3.15668E-19 2.82559E-19
 -1      1968 1.03477E-04-3.10502E-05-3.10408E-05-3.26469E-06 4.55728E-19 3.18828E-19
 -1      1969 1.02377E-04-3.06779E-05-3.07285E-05-3.20056E-06 7.27967E-19 5.45804E-19
 -1      1970 1.01725E-04-3.04679E-05-3.05470E-05-3.99128E-06 7.59207E-19 4.89868E-19
 -1      1971 1.05490E-04-3.17917E-05-3.15932E-05-3.08574E-06-3.03532E-19 4.81419E-20
 -1      1972 1.04416E-04-3.14033E-05-3.12960E-05-3.15025E-06-9.92534E-20 2.27883E-19
 -1      1973 1.03593E-04-3.11800E-05-3.10409E-05-3.97005E-06 4.82164E-21 2.62964E-19
 -1      1974 1.07323E-04-3.25522E-05-3.20620E-05-2.47176E-06-1.68771E-19-1.24226E-19
 -1      1975 1.06395E-04-3.21820E-05-3.18157E-05-2.74839E-06-3.79783E-19-1.72722E-19
 -1      1976 1.05465E-04-3.19907E-05-3.14923E-05-3.54096E-06-1.40531E-19-4.17534E-19
 -1      1977 1.08706E-04-3.32393E-05-3.23687E-05-1.25273E-06 6.21342E-19 1.77463E-20
 -1      1978 1.08091E-04-3.29487E-05-3.22204E-05-1.82805E-06 3.96425E-19 9.83816E-20
 -1      1979 1.07173E-04-3.28527E-05-3.18489E-05-2.50319E-06 1.63812E-19-7.44032E-20
 -1      1980 1.09294E-04-3.36893E-05-3.24312E-05 6.58821E-07 5.87722E-19-2.32833E-19
 -1      1981 1.09192E-04-3.35720E-05-3.24312E-05-2.61938E-07 5.68035E-19-2.27557E-21
 -1      1982 1.08467E-04-3.36429E-05-3.20550E-05-6.92344E-07 7.07656E-19 7.04869E-19
 -1      1983 1.08725E-04-3.36626E-05-3.21923E-05 3.12215E-06-2.87058E-19 3.50566E-19
 -1      1984 1.09319E-04-3.38354E-05-3.23759E-05 1.92248E-06 4.61772E-19 3.70939E-19
 -1      1985 1.09011E-04-3.41280E-05-3.20677E-05 1.88969E-06 2.90122E-19 3.19320E-19
 -1      1986 1.06759E-04-3.29028E-05-3.16591E-05 5.60273E-06-9.47883E-19 6.53804E-20
 -1      1987 1.08123E-04-3.34614E-05-3.20220E-05 4.38694E-06-9.53157E-19-1.96723E-19
 -1      1988 1.08446E-04-3.39710E-05-3.18805E-05 4.89046E-06-5.66989E-19 4.72869E-19
 -1      1989 1.03522E-04-3.13157E-05-3.09343E-05 7.14153E-06-2.21838E-19-3.82171E-19
 -1      1990 1.05499E-04-3.22422E-05-3.14117E-05 6.37852E-06-5.81882E-19-1.38027E-19
 -1      1991 1.06557E-04-3.28680E-05-3.15419E-05 7.45896E-06-5.81994E-19 1.71087E-19
 -1      1992 9.97453E-05-2.92248E-05-3.02076E-05 6.69490E-06 6.08269E-19-2.24080E-19
 -1      1993 1.01873E-04-3.02922E-05-3.06778E-05 6.88125E-06 2.31415E-19-3.25618E-19
 -1      1994 1.03582E-04-3.08462E-05-3.11515E-05 8.36860E-06 1.02629E-19 1.59083E-20
 -1      1995 9.67368E-05-2.74400E-05-2.96974E-05 3.85939E-06 1.31503E-18-4.55363E-19
 -1      1996 9.83254E-05-2.82368E-05-3.00176E-05 5.16305E-06 1.22215E-18-1.16586E-19
 -1      1997 1.00428E-04-2.85325E-05-3.08260E-05 6.62678E-06 1.25333E-18-3.03079E-21
 -1      1998 9.58092E-05-2.68646E-05-2.95654E-05-5.55269E-07-2.89837E-19-1.07857E-18
 -1      1999 9.62383E-05-2.70078E-05-2.96298E-05 1.46006E-06 5.09676E-19-6.94532E-19
 -1      2000 9.84322E-05-2.69973E-05-3.06556E-05 2.34387E-06 9.28242E-19-4.24823E-20
 -1      2001 9.74652E-05-2.78532E-05-2.98560E-05-4.74847E-06-9.33814E-19-1.80053E-18
 -1      2002 9.65352E-05-2.72624E-05-2.96409E-05-2.86169E-06-9.73757E-19-1.89303E-18
 -1      2003 9.86068E-05-2.70990E-05-3.06831E-05-2.93972E-06-4.72552E-19-4.42475E-19
 -1      2004 1.00953E-04-2.98501E-05-3.04796E-05-7.07362E-06-2.63260E-19-6.25110E-19
 -1      2005 9.90354E-05-2.88262E-05-3.00556E-05-6.02498E-06-6.00493E-19-1.42411E-18
 -1      2006 1.00869E-04-2.87778E-05-3.09047E-05-7.01413E-06-7.60437E-19-1.14856E-18
 -1      2007 1.04855E-04-3.19165E-05-3.12457E-05-7.00977E-06 5.21852E-20-1.00830E-18
 -1      2008 1.02647E-04-3.08883E-05-3.07461E-05-7.00340E-06-5.18456E-21-7.81282E-19
 -1      2009 1.04115E-04-3.11262E-05-3.12675E-05-8.47633E-06-2.07564E-19-9.19970E-19
 -1      2010 1.07914E-04-3.33258E-05-3.19397E-05-5.17781E-06 4.50721E-19-1.42341E-19
 -1      2011 1.06067E-04-3.26048E-05-3.15019E-05-5.92604E-06 2.18263E-19-2.91141E-19
 -1      2012 1.07029E-04-3.30898E-05-3.16709E-05-7.35788E-06 1.15034E-19-4.44328E-19
 -1      2013 1.09555E-04-3.38837E-05-3.24043E-05-2.65743E-06 3.81430E-20-1.10246E-18
 -1      2014 1.08427E-04-3.35568E-05-3.21197E-05-3.70171E-06 4.84198E-20-6.57956E-19
 -1      2015 1.08799E-04-3.40998E-05-3.20043E-05-4.72316E-06 1.71266E-19-5.08352E-20
 -1      2016 1.09804E-04-3.37578E-05-3.25736E-05-3.28316E-07 7.33981E-19-6.29200E-19
 -1      2017 1.09445E-04-3.37593E-05-3.24720E-05-1.30049E-06 4.05305E-19-6.35991E-19
 -1      2018 1.09275E-04-3.41834E-05-3.21816E-05-1.77776E-06 2.37566E-19-3.92125E-19
 -1      2019 1.09003E-04-3.32295E-05-3.24664E-05 1.37237E-06-4.13921E-20-2.58448E-19
 -1      2020 1.09270E-04-3.34416E-05-3.25273E-05 6.54751E-07 2.42993E-19-4.19662E-19
 -1      2021 1.08708E-04-3.36621E-05-3.21666E-05 6.74779E-07 7.23982E-20 6.76119E-19
 -1      2022 1.07554E-04-3.25317E-05-3.21521E-05 2.37395E-06-3.16489E-19-1.04186E-18
 -1      2023 1.08237E-04-3.28495E-05-3.23291E-05 1.94314E-06-2.60734E-19-1.19651E-18
 -1      2024 1.07469E-04-3.28750E-05-3.19736E-05 2.32810E-06 2.42559E-19-2.56540E-19
 -1      2025 1.05803E-04-3.18112E-05-3.17141E-05 2.79618E-06 3.06670E-19-1.53448E-18
 -1      2026 1.06702E-04-3.21613E-05-3.19567E-05 2.60548E-06-3.16516E-19-1.48034E-18
 -1      2027 1.05887E-04-3.20475E-05-3.16493E-05 3.20892E-06 2.99439E-21-1.37398E-18
 -1      2028 1.03995E-04-3.11457E-05-3.12261E-05 2.81528E-06-7.26893E-20-8.45140E-19
 -1      2029 1.04958E-04-3.14836E-05-3.14922E-05 2.79351E-06 6.59457E-20-1.37352E-18
 -1      2030 1.04203E-04-3.12935E-05-3.12497E-05 3.49165E-06 5.17650E-20-1.79268E-18
 -1      2031 1.02290E-04-3.05680E-05-3.07425E-05 2.59324E-06 8.77659E-20-6.69362E-19
 -1      2032 1.03215E-04-3.08706E-05-3.10025E-05 2.67414E-06 2.81280E-19-1.88534E-19
 -1      2033 1.02576E-04-3.06551E-05-3.08252E-05 3.37800E-06 3.32225E-20-8.40109E-19
 -1      2034 1.00771E-04-3.00862E-05-3.02974E-05 2.25242E-06 1.35867E-18 1.05614E-19
 -1      2035 1.01602E-04-3.03442E-05-3.05336E-05 2.38544E-06 6.07676E-19-1.95688E-19
 -1      2036 1.01097E-04-3.01364E-05-3.04132E-05 3.03939E-06 3.89041E-19-1.19350E-19
 -1      2037 9.94762E-05-2.96959E-05-2.99086E-05 1.87434E-06 4.09403E-19-4.08446E-19
 -1      2038 1.00187E-04-2.99080E-05-3.01125E-05 2.02540E-06 8.43171E-19 7.43772E-20
 -1      2039 9.98104E-05-2.97257E-05-3.00377E-05 2.60017E-06 1.15810E-18 9.44584E-19
 -1      2040 9.84082E-05-2.93872E-05-2.95822E-05 1.50774E-06-1.22001E-18-3.87592E-20
 -1      2041 9.89934E-05-2.95565E-05-2.97514E-05 1.65618E-06-6.81539E-19-5.52868E-19
 -1      2042 9.87282E-05-2.94065E-05-2.97107E-05 2.14094E-06-4.85586E-19 5.44639E-19
 -1      2043 9.75518E-05-2.91482E-05-2.93169E-05 1.17825E-06 2.96696E-19-1.81364E-19
 -1      2044 9.80195E-05-2.92799E-05-2.94530E-05 1.31295E-06-4.66737E-19-2.73070E-19
 -1      2045 9.78435E-05-2.91623E-05-2.94363E-05 1.70855E-06-9.37589E-19 2.42221E-19
 -1      2046 9.68823E-05-2.89669E-05-2.91070E-05 8.96507E-07-8.30019E-19 4.58511E-19
 -1      2047 9.72461E-05-2.90669E-05-2.92135E-05 1.01261E-06-3.30366E-19-6.04570E-19
 -1      2048 9.71381E-05-2.89785E-05-2.92128E-05 1.32649E-06-4.48554E-19 9.24057E-19
 -1      2049 9.63715E-05-2.88325E-05-2.89453E-05 6.64156E-07-1.24652E-18 2.08741E-18
 -1      2050 9.66472E-05-2.89066E-05-2.90265E-05 7.60596E-07-6.53776E-19 1.26077E-18
 -1      2051 9.65887E-05-2.88425E-05-2.90356E-05 1.00336E-06-1.27639E-18 6.14396E-19
 -1      2052 9.59913E-05-2.87352E-05-2.88238E-05 4.77881E-07-7.28538E-19 1.18676E-18
 -1      2053 9.61949E-05-2.87887E-05-2.88840E-05 5.55749E-07-1.44993E-18 1.01295E-18
 -1      2054 9.61706E-05-2.87440E-05-2.88985E-05 7.38863E-07-7.62023E-19 8.47614E-19
 -1      2055 9.57161E-05-2.86669E-05-2.87350E-05 3.31993E-07 1.61429E-19 9.45543E-19
 -1      2056 9.58619E-05-2.87042E-05-2.87784E-05 3.93442E-07 2.29048E-19 1.59473E-18
 -1      2057 9.58598E-05-2.86742E-05-2.87951E-05 5.27978E-07 7.54868E-20 1.21643E-19
 -1      2058 9.55232E-05-2.86207E-05-2.86721E-05 2.19993E-07 2.85633E-18 6.25830E-20
 -1      2059 9.56240E-05-2.86456E-05-2.87023E-05 2.67585E-07 1.51539E-18 5.36340E-19
 -1      2060 9.56350E-05-2.86265E-05-2.87191E-05 3.63512E-07 2.13584E-18 5.65366E-19
 -1      2061 9.53938E-05-2.85911E-05-2.86293E-05 1.35437E-07 1.32241E-18-1.31782E-18
 -1      2062 9.54600E-05-2.86067E-05-2.86493E-05 1.71780E-07 2.67035E-18-4.63014E-19
 -1      2063 9.54775E-05-2.85950E-05-2.86648E-05 2.37678E-07 2.79187E-18 7.64096E-19
 -1      2064 9.53123E-05-2.85739E-05-2.86018E-05 7.28328E-08 7.94224E-19-1.27643E-18
 -1      2065 9.53526E-05-2.85826E-05-2.86142E-05 1.00133E-07 7.92926E-19-1.43915E-18
 -1      2066 9.53717E-05-2.85759E-05-2.86276E-05 1.43125E-07 7.64223E-19-3.13732E-19
 -1      2067 9.52658E-05-2.85657E-05-2.85854E-05 2.77336E-08-3.89200E-20 1.37892E-19
 -1      2068 9.52871E-05-2.85694E-05-2.85923E-05 4.78365E-08 3.51963E-19 4.06268E-20
 -1      2069 9.53045E-05-2.85657E-05-2.86030E-05 7.38087E-08 1.67153E-19 1.15548E-18
 -1      2070 9.52441E-05-2.85648E-05-2.85765E-05-1.87490E-09-2.54421E-20-4.69709E-19
 -1      2071 9.52520E-05-2.85645E-05-2.85797E-05 1.12768E-08 4.75649E-20 2.52984E-19
 -1      2072 9.52652E-05-2.85622E-05-2.85875E-05 2.48895E-08 1.62875E-20 2.44517E-18
 -1      2073 9.52393E-05-2.85697E-05-2.85723E-05-1.26674E-08-1.00166E-18 5.25155E-19
 -1      2074 9.52394E-05-2.85652E-05-2.85743E-05-7.46299E-09-6.89127E-20 7.43584E-20
 -1      2075 9.52480E-05-2.85637E-05-2.85792E-05-1.04034E-09-5.98559E-19 2.66090E-18
 -1      2076 9.52434E-05-2.85711E-05-2.85737E-05-1.14779E-08-1.05233E-18 2.33684E-18
 -1      2077 9.52246E-05-2.85017E-05-2.85958E-05 5.41051E-08 6.03517E-19-5.38857E-20
 -1      2078 9.52321E-05-2.85166E-05-2.85918E-05 4.63001E-08 2.88769E-19-2.44215E-19
 -1      2079 9.52408E-05-2.85367E-05-2.85875E-05 3.40253E-08-4.13729E-19 2.69408E-19
 -1      2080 9.52448E-05-2.85469E-05-2.85844E-05 2.21842E-08-9.15626E-19 2.29675E-18
 -1      2081 9.52365E-05-2.85063E-05-2.85988E-05 5.80032E-08 4.36216E-19 1.00230E-18
 -1      2082 9.52469E-05-2.85599E-05-2.85800E-05 8.88911E-09-9.07864E-19 2.95699E-18
 -1      2083 9.52459E-05-2.85643E-05-2.85775E-05-6.63787E-10-1.02632E-18 3.23418E-18
 -1      2084 9.52488E-05-2.85601E-05-2.85807E-05 3.36556E-09-6.97922E-19 3.18998E-18
 -1      2085 9.52481E-05-2.85397E-05-2.85897E-05 2.85702E-08-4.86532E-19 2.49363E-18
 -1      2086 9.52055E-05-2.84634E-05-2.86042E-05 6.16974E-08-1.47145E-18-4.78523E-18
 -1      2087 9.52144E-05-2.84802E-05-2.86000E-05 5.97588E-08-6.34179E-19-2.62692E-18
 -1      2088 9.52143E-05-2.84635E-05-2.86075E-05 7.73799E-08-2.40017E-19-2.54296E-18
 -1      2089 9.51871E-05-2.84271E-05-2.86120E-05 5.48450E-08-2.08663E-19-3.96612E-19
 -1      2090 9.51953E-05-2.84428E-05-2.86081E-05 5.92228E-08-1.32963E-18-1.68303E-18
 -1      2091 9.51899E-05-2.84199E-05-2.86154E-05 8.03792E-08-4.65445E-19-2.70993E-18
 -1      2092 9.51734E-05-2.84003E-05-2.86177E-05 3.52046E-08-1.14271E-18 1.03256E-18
 -1      2093 9.51791E-05-2.84112E-05-2.86149E-05 4.47209E-08-7.79339E-19-4.99097E-19
 -1      2094 9.51677E-05-2.83820E-05-2.86219E-05 6.54607E-08 4.78598E-20-9.21876E-19
 -1      2095 9.51671E-05-2.83880E-05-2.86202E-05 7.50481E-09-1.67045E-18 9.01030E-19
 -1      2096 9.51690E-05-2.83918E-05-2.86192E-05 1.98339E-08-2.09094E-18 1.93993E-18
 -1      2097 9.51527E-05-2.83565E-05-2.86262E-05 3.60551E-08-9.16561E-19 6.11683E-19
 -1      2098 9.51694E-05-2.83924E-05-2.86191E-05-2.19328E-08-9.30094E-20 1.07164E-18
 -1      2099 9.51672E-05-2.83882E-05-2.86202E-05-9.67948E-09-2.38560E-19 1.01534E-18
 -1      2100 9.51475E-05-2.83477E-05-2.86277E-05-1.30755E-09-1.44077E-18 1.40361E-18
 -1      2101 9.51798E-05-2.84126E-05-2.86147E-05-4.64153E-08-9.38375E-19-3.58488E-20
 -1      2102 9.51739E-05-2.84013E-05-2.86175E-05-3.71349E-08-6.54092E-19 6.91557E-19
 -1      2103 9.51531E-05-2.83571E-05-2.86262E-05-3.84845E-08-1.00572E-18 1.43535E-19
 -1      2104 9.51961E-05-2.84441E-05-2.86078E-05-6.00840E-08 1.60201E-19 8.54848E-19
 -1      2105 9.51878E-05-2.84285E-05-2.86117E-05-5.60710E-08-4.43528E-19 2.73635E-19
 -1      2106 9.51685E-05-2.83828E-05-2.86218E-05-6.71820E-08-8.41565E-19 2.96206E-19
 -1      2107 9.52154E-05-2.84821E-05-2.85996E-05-5.98798E-08 1.47670E-18 3.70758E-18
 -1      2108 9.52064E-05-2.84649E-05-2.86040E-05-6.22305E-08 5.53256E-19 3.23141E-18
 -1      2109 9.51907E-05-2.84208E-05-2.86153E-05-8.12396E-08 1.41523E-18 2.33438E-18
 -1      2110 9.52334E-05-2.85189E-05-2.85914E-05-4.53097E-08 2.35434E-19 1.71636E-18
 -1      2111 9.52259E-05-2.85041E-05-2.85953E-05-5.36517E-08 3.45505E-19 2.33337E-18
 -1      2112 9.52157E-05-2.84651E-05-2.86074E-05-7.72669E-08-6.09488E-20 2.45061E-18
 -1      2113 9.52450E-05-2.85496E-05-2.85838E-05-1.98128E-08-1.08438E-18-2.75539E-18
 -1      2114 9.52422E-05-2.85390E-05-2.85870E-05-3.23836E-08-8.48608E-19-1.02277E-19
 -1      2115 9.52378E-05-2.85080E-05-2.85986E-05-5.63380E-08-1.23130E-18-2.34460E-19
 -1      2116 5.63020E-05-3.83276E-05-8.23691E-06 3.97133E-05 2.11716E-18 3.78031E-18
 -1      2117 4.18917E-05-4.02012E-05-2.05336E-06 3.26018E-05 5.89535E-19 3.43673E-18
 -1      2118 1.19617E-05-3.45966E-05 8.19848E-06 5.57104E-06-9.14584E-19 4.13056E-18
 -1      2119 1.19541E-05-3.50090E-05 8.31858E-06-3.63982E-06-2.08434E-18 3.79005E-18
 -1      2120 2.57002E-05-3.36400E-05 2.49530E-06 2.63409E-05 6.47557E-19 5.17474E-18
 -1      2121 1.80610E-05-3.58346E-05 6.09214E-06 1.65808E-05-5.31513E-19 4.72475E-18
 -1      2122 9.54654E-05-4.25554E-05-2.25894E-05 4.27455E-05 2.26327E-18 3.09675E-18
 -1      2123 7.65805E-05-4.43597E-05-1.48592E-05 3.83961E-05 2.00577E-18 3.11263E-18
 -1      2124 1.30637E-04-4.08347E-05-3.79371E-05 3.68996E-05 3.25218E-18 2.85535E-18
 -1      2125 1.09746E-04-4.17574E-05-2.97175E-05 3.63947E-05 2.94767E-18 3.31740E-18
 -1      2126 8.73581E-05-8.65524E-06-3.38188E-05-1.01374E-05-7.85729E-19-8.70644E-19
 -1      2127 8.80709E-05-9.21205E-06-3.38821E-05-1.17156E-05-8.94516E-19-6.53486E-19
 -1      2128 9.05728E-05-1.30260E-05-3.32998E-05-1.14940E-05-9.54765E-19-4.90617E-19
 -1      2129 8.87170E-05-1.08910E-05-3.33762E-05-8.99545E-06-7.78030E-19-8.81047E-19
 -1      2130 1.74717E-04-2.85661E-05-6.16760E-05 1.01604E-05 2.25861E-18 1.75209E-18
 -1      2131 1.65114E-04-2.99298E-05-5.73284E-05 1.69789E-05 2.56947E-18 2.44284E-18
 -1      2132 1.77041E-04-2.20672E-05-6.54445E-05-1.90232E-07 2.05236E-18 1.50143E-18
 -1      2133 1.75570E-04-2.33242E-05-6.43066E-05 6.31149E-06 1.99984E-18 1.99328E-18
 -1      2134 1.77142E-04-2.64881E-05-6.33833E-05-1.14441E-05 2.51611E-18 7.57671E-19
 -1      2135 1.79209E-04-2.40759E-05-6.54751E-05-2.93958E-06 1.92361E-18 1.12751E-18
 -1      2136 1.57849E-04-3.17215E-05-5.37200E-05-1.95239E-05 3.55415E-18 8.81338E-19
 -1      2137 1.74387E-04-3.14112E-05-5.98482E-05-1.67155E-05 3.85379E-18 1.34975E-18
 -1      2138 1.31133E-04-4.08075E-05-3.89359E-05-3.02441E-05 2.11885E-18-5.93770E-19
 -1      2139 1.49969E-04-3.93384E-05-4.66981E-05-2.76102E-05 2.15199E-18 5.03985E-19
 -1      2140 9.82863E-05-4.53955E-05-2.34174E-05-3.72223E-05 1.70592E-18-1.24175E-18
 -1      2141 1.18349E-04-4.38879E-05-3.16187E-05-3.90313E-05 1.70254E-18-1.26886E-18
 -1      2142 5.86982E-05-4.24384E-05-8.32200E-06-3.63870E-05 9.38513E-19-3.05927E-18
 -1      2143 7.66804E-05-4.05600E-05-1.57971E-05-4.29570E-05 1.31460E-18-2.52162E-18
 -1      2144 3.06030E-05-3.86959E-05 2.03293E-06-2.74066E-05-2.65968E-19-3.10776E-18
 -1      2145 4.20562E-05-3.73393E-05-2.87127E-06-3.47958E-05 6.96261E-19-3.82245E-18
 -1      2146 1.35345E-05-3.57518E-05 7.92423E-06-8.97707E-06-6.58992E-19-3.27632E-18
 -1      2147 1.80229E-05-3.38065E-05 5.59356E-06-1.84403E-05 1.99476E-19-3.41608E-18
 -1      2148 1.44458E-05-3.13951E-05 6.24493E-06 1.19771E-05-1.48443E-18-2.47927E-18
 -1      2149 1.22954E-05-3.40139E-05 7.83690E-06 1.40490E-06-7.53158E-19-2.65460E-18
 -1      2150 3.72427E-05-3.71695E-05-8.73476E-07 3.17076E-05-1.40396E-18-8.67573E-19
 -1      2151 2.62025E-05-3.65122E-05 3.28615E-06 2.39041E-05-1.08759E-18-1.50984E-18
 -1      2152 6.77523E-05-3.99791E-05-1.23799E-05 4.05271E-05-2.16883E-18-9.57994E-19
 -1      2153 5.15184E-05-4.24273E-05-5.37102E-06 3.37361E-05-1.83213E-18-7.61635E-19
 -1      2154 1.07844E-04-4.19316E-05-2.81385E-05 4.15378E-05-1.18415E-18-1.72837E-18
 -1      2155 8.69546E-05-4.36559E-05-1.96453E-05 3.73654E-05-1.86305E-18-1.09225E-18
 -1      2156 1.45561E-04-4.19613E-05-4.37115E-05 3.10474E-05-1.14964E-18 1.65171E-20
 -1      2157 1.25216E-04-4.28506E-05-3.56600E-05 3.24167E-05-9.08019E-19-1.07446E-18
 -1      2158 1.72900E-04-3.49013E-05-5.76740E-05 2.03031E-05-2.82168E-18 1.19813E-18
 -1      2159 1.55416E-04-3.54632E-05-5.10956E-05 2.29911E-05-2.38906E-18 7.25060E-19
 -1      2160 1.84306E-04-2.79854E-05-6.55684E-05 6.28097E-06-2.39795E-18 1.72202E-18
 -1      2161 1.77043E-04-2.91551E-05-6.21827E-05 1.41869E-05-2.51251E-18 1.19262E-18
 -1      2162 1.82821E-04-2.52096E-05-6.62829E-05-4.26973E-06-2.68594E-18 3.34176E-18
 -1      2163 1.81919E-04-2.40049E-05-6.64352E-05 2.71736E-06-3.13953E-18 2.38006E-18
 -1      2164 1.69829E-04-2.76711E-05-6.03234E-05-1.15788E-05-2.06464E-18 3.98783E-18
 -1      2165 1.83319E-04-2.85331E-05-6.47912E-05-7.12036E-06-2.09598E-18 3.84087E-18
 -1      2166 1.61525E-04-1.62836E-05-6.09933E-05 1.53891E-06-2.51061E-18 2.76641E-18
 -1      2167 1.48799E-04-3.91815E-05-4.69825E-05-2.23500E-05-2.01636E-18 2.45301E-18
 -1      2168 1.64442E-04-3.72289E-05-5.38057E-05-1.65517E-05-1.59157E-18 3.25430E-18
 -1      2169 1.19881E-04-4.60099E-05-3.21765E-05-3.10234E-05-2.04643E-18 8.32210E-19
 -1      2170 1.40593E-04-4.37317E-05-4.09241E-05-3.19168E-05-1.90540E-18 1.50179E-18
 -1      2171 1.48016E-04-4.87386E-05-4.19994E-05-1.13790E-05-7.20507E-19 5.18384E-19
 -1      2172 7.64578E-05-4.51613E-05-1.45740E-05-3.71247E-05-3.11750E-18 7.76517E-19
 -1      2173 9.84437E-05-4.47668E-05-2.31575E-05-4.17758E-05-2.96631E-18 2.66180E-19
 -1      2174 4.01752E-05-4.13011E-05-1.16331E-06-2.98405E-05-2.43649E-18 2.83047E-18
 -1      2175 5.51052E-05-3.90135E-05-7.65489E-06-3.80573E-05-3.02221E-18 1.91228E-18
 -1      2176 1.71507E-05-3.77818E-05 7.04190E-06-1.42117E-05-2.20821E-18 3.09675E-18
 -1      2177 2.46017E-05-3.61876E-05 3.64991E-06-2.32489E-05-2.96843E-18 3.35446E-18
 -1      2178 1.60896E-04-3.56654E-05-5.26055E-05 2.54757E-05 2.97486E-18 2.20737E-18
 -1      2179 1.42756E-04-3.66714E-05-4.54437E-05 2.74252E-05 3.53552E-18 2.66985E-18
 -1      2180 1.15215E-04-5.33500E-05-2.64017E-05 3.42759E-05 8.61221E-19 1.95643E-18
 -1      2181 9.72208E-05-2.43240E-05-3.13131E-05-9.70371E-06-9.00290E-19 1.33297E-18
 -1      2182 1.42082E-04-4.66788E-05-4.03528E-05 2.04506E-05 2.28837E-18 1.13333E-18
 -1      2183 1.55774E-04-3.26419E-05-5.18141E-05 5.54991E-06 2.42018E-18 1.07573E-18
 -1      2184 9.64511E-05-2.31110E-05-3.14963E-05-9.99669E-06-9.76338E-19 7.49823E-19
 -1      2185 4.14136E-05-3.49002E-05-3.21165E-06 3.55710E-05-9.46983E-19 3.76951E-18
 -1      2186 1.73668E-05-2.56450E-05 2.89413E-06 1.45692E-05-1.09670E-18 5.20502E-18
 -1      2187 9.52477E-05-2.85519E-05-2.85838E-05-1.42551E-08-9.50183E-19-2.05481E-18
 -1      2188 7.99725E-05-4.78643E-05-1.38908E-05 4.29611E-05-4.17587E-19 2.17009E-18
 -1      2189 1.64142E-05-2.72197E-05 3.75082E-06-1.19155E-05-1.37971E-18 3.81758E-18
 -1      2190 3.92097E-05-3.60405E-05-2.03827E-06-3.34875E-05-1.31544E-18 2.40388E-18
 -1      2191 1.21471E-04-5.54743E-05-2.80811E-05-3.08418E-05-1.24577E-18-6.61109E-19
 -1      2192 1.58912E-04-3.15295E-05-5.38126E-05 1.36985E-07-1.31947E-18 2.41828E-18
 -1      2193 1.64187E-04-1.68018E-05-6.18458E-05 1.68251E-08-3.09591E-18 2.44729E-18
 -1      2194 1.63678E-04-2.85847E-05-5.66690E-05 3.26044E-06-2.52839E-18 2.04135E-18
 -1      2195 1.51974E-04-4.44220E-05-4.54241E-05 1.28375E-05-1.11927E-18 1.50941E-18
 -1      2196 1.27535E-04-5.31862E-05-3.15384E-05 2.93267E-05 8.17387E-20 3.54483E-19
 -1      2197 9.04245E-05-5.02656E-05-1.74724E-05 4.03308E-05-5.48877E-19-4.22458E-20
 -1      2198 5.39349E-05-4.06286E-05-6.31706E-06 3.88820E-05 1.61360E-19-2.60674E-19
 -1      2199 2.50640E-05-2.78795E-05 7.97128E-07 2.22157E-05-8.70326E-20-2.04643E-18
 -1      2200 1.46654E-05-2.40902E-05 3.39408E-06-4.57131E-06 8.78267E-20-3.40719E-18
 -1      2201 2.90746E-05-3.13259E-05 3.24971E-07-2.83541E-05-3.25261E-19-3.18548E-18
 -1      2202 6.09029E-05-4.24304E-05-8.29413E-06-4.15183E-05-2.22770E-19-3.21184E-18
 -1      2203 1.00445E-04-5.20567E-05-2.06759E-05-3.96561E-05 2.08370E-19-1.06716E-18
 -1      2204 1.33336E-04-5.21947E-05-3.44244E-05-2.44892E-05 8.16116E-19 8.98278E-19
 -1      2205 1.52476E-04-3.89626E-05-4.79979E-05-9.90305E-06 2.34152E-18 1.91472E-18
 -1      2206 1.60282E-04-2.26856E-05-5.78177E-05-1.29322E-06 3.07536E-18 1.07616E-18
 -1      2207 1.57681E-04-1.84097E-05-5.87128E-05-1.01821E-06 2.18873E-18 1.36775E-18
 -1      2208 1.59496E-04-1.39752E-05-6.13166E-05-3.93716E-07 2.30435E-18 5.96549E-19
 -1      2209 7.83643E-05-4.79163E-05-1.31986E-05-4.15731E-05-1.32730E-18 6.05496E-19
 -1      2210 9.54611E-05-2.63801E-05-2.95897E-05 3.73479E-06 9.91280E-19 4.89406E-19
 -1      2211 9.63513E-05-2.58590E-05-3.01372E-05 5.58373E-06 1.03351E-18 5.64577E-19
 -1      2212 8.79274E-05-1.07514E-05-3.31154E-05-3.39191E-06-2.57045E-19-9.61263E-19
 -1      2213 8.82041E-05-1.10578E-05-3.30986E-05-4.47412E-06-4.26539E-19-1.05555E-18
 -1      2214 8.86118E-05-1.16023E-05-3.30505E-05-5.43193E-06-4.94197E-19-1.07240E-18
 -1      2215 8.90685E-05-1.21198E-05-3.30216E-05-6.56598E-06-6.79197E-19-9.61475E-19
 -1      2216 8.96924E-05-1.33634E-05-3.27095E-05-4.49891E-06-4.26584E-19-9.75775E-19
 -1      2217 8.75074E-05-1.02229E-05-3.31555E-05 5.73419E-07 1.71212E-19-1.06701E-18
 -1      2218 8.75026E-05-1.02173E-05-3.31560E-05-4.63002E-07 4.29032E-20-1.08199E-18
 -1      2219 8.77267E-05-1.04831E-05-3.31378E-05 2.55846E-06 3.98345E-19-1.23990E-18
 -1      2220 8.75878E-05-1.03301E-05-3.31465E-05 1.50917E-06 3.12107E-19-1.17276E-18
 -1      2221 8.87536E-05-1.21638E-05-3.28249E-05 9.52721E-07 2.35813E-19-1.03462E-18
 -1      2222 8.82402E-05-1.11054E-05-3.30939E-05 4.55556E-06 5.53238E-19-1.20338E-18
 -1      2223 8.79593E-05-1.07935E-05-3.31114E-05 3.48957E-06 4.69037E-19-1.31045E-18
 -1      2224 8.90767E-05-1.25755E-05-3.27858E-05 2.75459E-06 4.33419E-19-1.20054E-18
 -1      2225 8.91241E-05-1.21934E-05-3.30144E-05 6.64566E-06 8.42575E-19-7.82744E-19
 -1      2226 8.86556E-05-1.16610E-05-3.30444E-05 5.51427E-06 6.73020E-19-9.45567E-19
 -1      2227 8.97352E-05-1.34234E-05-3.27024E-05 4.57018E-06 6.52127E-19-9.48316E-19
 -1      2228 9.04957E-05-1.39189E-05-3.28810E-05 8.74492E-06 1.12474E-18-4.30683E-19
 -1      2229 8.97701E-05-1.30602E-05-3.29307E-05 7.58460E-06 9.50610E-19-6.29729E-19
 -1      2230 9.07947E-05-1.48123E-05-3.25559E-05 6.37286E-06 9.04730E-19-6.27771E-19
 -1      2231 9.25609E-05-1.65966E-05-3.26549E-05 1.06322E-05 1.32730E-18-1.34480E-19
 -1      2232 9.14583E-05-1.52160E-05-3.27369E-05 9.54879E-06 1.18659E-18-2.81599E-19
 -1      2233 9.23335E-05-1.69013E-05-3.23070E-05 7.98401E-06 1.07751E-18-2.83438E-19
 -1      2234 9.46587E-05-2.71314E-05-2.89192E-05 1.16528E-06 6.15978E-19 4.84508E-19
 -1      2235 9.51472E-05-2.68947E-05-2.91792E-05 2.20759E-06 8.20156E-19 5.59115E-19
 -1      2236 9.55977E-05-2.58085E-05-2.99199E-05 3.76553E-06 8.82923E-19 2.23273E-19
 -1      2237 9.61017E-05-2.50541E-05-3.04004E-05-5.67413E-06-8.35168E-19 4.25230E-19
 -1      2238 9.55190E-05-2.58087E-05-2.98883E-05-3.70661E-06-7.84505E-19 3.69184E-19
 -1      2239 1.45127E-04-4.70337E-05-4.23728E-05 9.35029E-06 1.76383E-18 1.16044E-19
 -1      2240 1.35654E-04-5.24453E-05-3.57868E-05 1.68972E-05 1.16933E-18 4.29022E-19
 -1      2241 9.54535E-05-2.64767E-05-2.95044E-05-2.27183E-06-7.81935E-19 4.72838E-19
 -1      2242 9.50908E-05-2.68486E-05-2.92413E-05-1.11493E-06-6.17193E-19 3.05242E-19
 -1      2243 9.55799E-05-2.52390E-05-3.01511E-05-3.58274E-06-8.06812E-19 1.54317E-19
 -1      2244 9.49643E-05-2.71632E-05-2.90193E-05-1.35455E-07-5.44212E-19 3.01045E-19
 -1      2245 9.48470E-05-2.73816E-05-2.89049E-05 5.99506E-07-4.64328E-19 1.07988E-19
 -1      2246 9.53942E-05-2.65330E-05-2.95270E-05-9.72256E-07-6.19495E-19-6.26093E-20
 -1      2247 9.47907E-05-2.75480E-05-2.87958E-05 1.28106E-06-3.47233E-19 7.74954E-20
 -1      2248 9.48781E-05-2.77039E-05-2.87785E-05 1.78781E-06-3.21920E-19 1.47168E-19
 -1      2249 9.52464E-05-2.72059E-05-2.91755E-05 8.29320E-07-4.65291E-19-4.17954E-20
 -1      2250 9.49128E-05-2.78007E-05-2.87497E-05 2.29560E-06-3.49232E-19 2.59508E-20
 -1      2251 9.51609E-05-2.79308E-05-2.88010E-05 2.68688E-06-3.21453E-19-1.54594E-20
 -1      2252 9.52524E-05-2.75786E-05-2.90163E-05 2.12227E-06-4.60304E-19-2.37089E-19
 -1      2253 9.52810E-05-2.79931E-05-2.88312E-05 3.10788E-06-3.78712E-19-1.12165E-19
 -1      2254 9.56603E-05-2.81156E-05-2.89343E-05 3.45347E-06-4.27133E-19-1.83751E-19
 -1      2255 9.54256E-05-2.77930E-05-2.89962E-05 3.13086E-06-4.67141E-19-2.91297E-19
 -1      2256 9.58565E-05-2.81622E-05-2.90092E-05 3.84689E-06-4.08465E-19-2.56797E-19
 -1      2257 9.63518E-05-2.82907E-05-2.91542E-05 4.19058E-06-4.29716E-19-3.60959E-19
 -1      2258 9.57530E-05-2.79220E-05-2.90792E-05 4.01012E-06-4.86136E-19-5.48750E-19
 -1      2259 9.66183E-05-2.83365E-05-2.92633E-05 4.59475E-06-5.59150E-19-2.97558E-19
 -1      2260 9.72255E-05-2.84860E-05-2.94437E-05 4.96080E-06-5.66621E-19-2.83475E-19
 -1      2261 9.62216E-05-2.80129E-05-2.92395E-05 4.86402E-06-4.68540E-19-4.75030E-19
 -1      2262 9.75639E-05-2.85490E-05-2.95786E-05 5.39540E-06-3.07348E-19-1.65585E-19
 -1      2263 9.82866E-05-2.87403E-05-2.97891E-05 5.78854E-06-1.73765E-19-1.43724E-19
 -1      2264 9.68294E-05-2.81108E-05-2.94572E-05 5.75494E-06-4.05813E-19-1.38510E-19
 -1      2265 9.87089E-05-2.88476E-05-2.99413E-05 6.25251E-06-5.29404E-20 3.60015E-21
 -1      2266 9.95562E-05-2.91118E-05-3.01753E-05 6.65291E-06-3.99090E-20 9.54884E-20
 -1      2267 9.75914E-05-2.82739E-05-2.97139E-05 6.70435E-06-7.28148E-20-7.29685E-20
 -1      2268 1.00091E-04-2.93067E-05-3.03351E-05 7.11803E-06 3.88916E-20 3.83283E-19
 -1      2269 1.01075E-04-2.96890E-05-3.05829E-05 7.47168E-06 1.45789E-19 5.58532E-19
 -1      2270 9.85487E-05-2.85901E-05-2.99899E-05 7.68523E-06 1.31683E-19 2.85943E-19
 -1      2271 1.01774E-04-3.00384E-05-3.07391E-05 7.87131E-06 6.30154E-20 4.56064E-19
 -1      2272 1.02908E-04-3.06014E-05-3.09864E-05 8.07692E-06 6.91643E-20 6.21328E-19
 -1      2273 9.97823E-05-2.91940E-05-3.02633E-05 8.60582E-06 4.43364E-20 2.20087E-19
 -1      2274 1.03861E-04-3.11996E-05-3.11282E-05 8.28957E-06-1.63329E-19 4.30506E-19
 -1      2275 1.05152E-04-3.20152E-05-3.13569E-05 8.18617E-06-1.43456E-19 2.02715E-19
 -1      2276 1.01432E-04-3.02797E-05-3.05123E-05 9.28408E-06-1.44652E-19 1.98638E-19
 -1      2277 1.06480E-04-3.29699E-05-3.14806E-05 8.01616E-06-8.62476E-20 5.07339E-19
 -1      2278 1.07908E-04-3.40848E-05-3.16741E-05 7.38397E-06-7.47358E-20 3.70162E-19
 -1      2279 1.03709E-04-3.20897E-05-3.07246E-05 9.41358E-06 8.19513E-20 5.53546E-19
 -1      2280 1.09737E-04-3.54591E-05-3.17959E-05 6.55126E-06 3.87202E-19 5.92107E-19
 -1      2281 1.11208E-04-3.68039E-05-3.19512E-05 5.15287E-06 4.23603E-19 1.09360E-18
 -1      2282 1.06868E-04-3.48306E-05-3.09198E-05 8.53049E-06 2.18394E-19 1.02707E-18
 -1      2283 1.13547E-04-3.84752E-05-3.21268E-05 3.33261E-06 1.21958E-19 1.18723E-18
 -1      2284 1.14803E-04-3.97032E-05-3.22727E-05 1.04246E-06 1.41143E-19 1.63363E-18
 -1      2285 1.11066E-04-3.84370E-05-3.11851E-05 6.02290E-06 3.92079E-19 1.28660E-18
 -1      2286 1.17316E-04-4.11345E-05-3.26169E-05-1.94769E-06 1.14171E-19 1.35984E-18
 -1      2287 1.17875E-04-4.14692E-05-3.28282E-05-4.87637E-06 3.09809E-19 1.46288E-18
 -1      2288 1.16016E-04-4.21135E-05-3.17205E-05 1.30602E-06 1.15574E-19 1.33060E-18
 -1      2289 1.19633E-04-4.15677E-05-3.34961E-05-8.57723E-06 9.48462E-20 1.55143E-18
 -1      2290 1.18943E-04-4.00123E-05-3.38603E-05-1.11615E-05 1.45147E-19 1.52562E-18
 -1      2291 1.20454E-04-4.38224E-05-3.28498E-05-5.56657E-06 1.82823E-19 1.24040E-18
 -1      2292 1.18803E-04-3.77050E-05-3.49079E-05-1.38837E-05 1.38028E-19 1.43641E-18
 -1      2293 1.16798E-04-3.40199E-05-3.54309E-05-1.44251E-05 1.41613E-19 9.29830E-19
 -1      2294 1.22191E-04-4.08866E-05-3.48405E-05-1.25956E-05 5.51233E-20 8.40621E-19
 -1      2295 1.14598E-04-2.96998E-05-3.66429E-05-1.35739E-05-1.95718E-19 1.55192E-19
 -1      2296 1.12323E-04-2.57091E-05-3.71396E-05-1.07069E-05-2.75074E-19 6.04834E-20
 -1      2297 1.19731E-04-3.22280E-05-3.75159E-05-1.53217E-05-4.45116E-19 2.00284E-19
 -1      2298 1.10577E-04-2.29006E-05-3.78120E-05-5.15502E-06 1.86347E-20-2.04016E-19
 -1      2299 1.09924E-04-2.18958E-05-3.79240E-05-2.22587E-07 2.94079E-19 3.32798E-19
 -1      2300 1.15108E-04-2.27905E-05-3.95694E-05-8.77325E-06-1.74515E-19-9.89255E-19
 -1      2301 1.10842E-04-2.30666E-05-3.76502E-05 6.64061E-06 1.13264E-19-3.23196E-19
 -1      2302 1.12423E-04-2.60840E-05-3.72926E-05 1.07001E-05-5.39110E-19-7.33491E-19
 -1      2303 1.13869E-04-1.99401E-05-4.01991E-05 4.12234E-06-3.20390E-19-1.41749E-18
 -1      2304 1.14916E-04-3.01711E-05-3.62588E-05 1.38627E-05-1.01334E-18-9.12754E-19
 -1      2305 1.17247E-04-3.43755E-05-3.57241E-05 1.48210E-05-1.20847E-18-6.45175E-19
 -1      2306 1.17497E-04-2.73623E-05-3.86389E-05 1.41790E-05-9.44124E-19-2.67875E-18
 -1      2307 1.18422E-04-3.78041E-05-3.45614E-05 1.34107E-05-9.54183E-19-1.83833E-19
 -1      2308 1.19829E-04-4.04109E-05-3.41239E-05 1.15750E-05 8.21820E-20-3.43105E-19
 -1      2309 1.21592E-04-3.74399E-05-3.60984E-05 1.49775E-05-6.62975E-19-8.76692E-19
 -1      2310 1.18814E-04-4.13516E-05-3.32759E-05 7.99390E-06 4.79973E-19-5.79591E-19
 -1      2311 1.18797E-04-4.17565E-05-3.30101E-05 5.06792E-06 5.72455E-19 4.75311E-19
 -1      2312 1.21835E-04-4.32530E-05-3.36886E-05 9.14450E-06 1.56635E-20-1.39787E-19
 -1      2313 1.16483E-04-4.07608E-05-3.25455E-05 1.66227E-06-1.72682E-19-2.32389E-19
 -1      2314 1.15499E-04-3.98147E-05-3.23920E-05-9.59314E-07-5.84234E-19-2.07339E-19
 -1      2315 1.18313E-04-4.32867E-05-3.21946E-05 1.80863E-06 8.58216E-20-2.09412E-19
 -1      2316 1.13026E-04-3.81484E-05-3.21673E-05-3.27370E-06-5.66228E-19-4.92366E-19
 -1      2317 1.11647E-04-3.67936E-05-3.20353E-05-5.03998E-06-3.16504E-19-4.76330E-19
 -1      2318 1.13395E-04-4.01474E-05-3.14515E-05-3.90128E-06-6.05687E-19 8.57931E-20
 -1      2319 1.09599E-04-3.52506E-05-3.19112E-05-6.23829E-06-4.41317E-20-2.28406E-19
 -1      2320 1.08182E-04-3.40185E-05-3.17523E-05-7.14829E-06-4.34791E-19 2.84151E-19
 -1      2321 1.08818E-04-3.63379E-05-3.11165E-05-7.27094E-06 1.26095E-20 7.53672E-19
 -1      2322 1.06669E-04-3.28757E-05-3.16475E-05-7.52854E-06-1.25362E-18 7.83621E-20
 -1      2323 1.05372E-04-3.19374E-05-3.14527E-05-7.79162E-06-1.51351E-18 2.89889E-19
 -1      2324 1.05246E-04-3.31632E-05-3.09306E-05-8.71090E-06-5.91872E-19 5.47301E-19
 -1      2325 1.04301E-04-3.11938E-05-3.13352E-05-7.66467E-06-1.56364E-18 7.02431E-19
 -1      2326 1.03170E-04-3.05411E-05-3.11168E-05-7.51883E-06-4.75212E-19 1.33994E-18
 -1      2327 1.02665E-04-3.09484E-05-3.07592E-05-8.85824E-06-1.10782E-18 3.15252E-19
 -1      2328 1.02409E-04-3.00979E-05-3.09829E-05-7.12089E-06-3.47840E-19 6.28676E-19
 -1      2329 1.01446E-04-2.96642E-05-3.07592E-05-6.75700E-06-4.82838E-20 2.87851E-19
 -1      2330 1.00837E-04-2.95719E-05-3.05562E-05-8.25462E-06-9.72659E-19 3.77977E-19
 -1      2331 1.00889E-04-2.94185E-05-3.06167E-05-6.24358E-06 4.65366E-19-1.90145E-19
 -1      2332 1.00081E-04-2.91363E-05-3.04032E-05-5.79206E-06 2.11343E-19 2.27205E-19
 -1      2333 9.95212E-05-2.87913E-05-3.03215E-05-7.27936E-06-1.36501E-20 3.34072E-20
 -1      2334 9.96582E-05-2.90101E-05-3.02622E-05-5.25753E-06-1.49739E-19 2.81698E-19
 -1      2335 9.89900E-05-2.88279E-05-3.00691E-05-4.79762E-06-1.79425E-19-1.67299E-19
 -1      2336 9.85433E-05-2.83902E-05-3.00717E-05-6.17517E-06 4.23414E-19 1.09276E-18
 -1      2337 9.86597E-05-2.87697E-05-2.99373E-05-4.29436E-06-4.97801E-19 7.72568E-19
 -1      2338 9.81151E-05-2.86522E-05-2.97698E-05-3.86886E-06 6.88292E-19 1.41000E-18
 -1      2339 9.77929E-05-2.82128E-05-2.98249E-05-5.08599E-06 2.44819E-19 1.84872E-18
 -1      2340 9.78526E-05-2.86309E-05-2.96521E-05-3.42228E-06 1.35072E-18 1.28323E-18
 -1      2341 9.74154E-05-2.85554E-05-2.95115E-05-3.05054E-06 1.70544E-18 1.36787E-18
 -1      2342 9.72038E-05-2.81589E-05-2.95949E-05-4.08917E-06 9.66267E-19 1.84190E-18
 -1      2343 9.72058E-05-2.85531E-05-2.94100E-05-2.66964E-06 1.19713E-18 1.04814E-18
 -1      2344 9.68604E-05-2.85051E-05-2.92951E-05-2.35710E-06 7.69397E-19 7.39024E-19
 -1      2345 9.67362E-05-2.81686E-05-2.93900E-05-3.21947E-06 1.04836E-18 5.19145E-19
 -1      2346 9.66937E-05-2.85119E-05-2.92102E-05-2.04153E-06 1.24983E-18 9.09149E-19
 -1      2347 9.64254E-05-2.84822E-05-2.91184E-05-1.78603E-06 6.86784E-19 1.51196E-18
 -1      2348 9.63648E-05-2.82078E-05-2.92137E-05-2.48593E-06 8.57662E-19 5.94765E-19
 -1      2349 9.62942E-05-2.84927E-05-2.90491E-05-1.53049E-06-5.58605E-19 2.03806E-18
 -1      2350 9.60894E-05-2.84753E-05-2.89773E-05-1.32620E-06-6.85353E-19 3.38649E-18
 -1      2351 9.60718E-05-2.82578E-05-2.90663E-05-1.88306E-06 5.71812E-19 8.91580E-19
 -1      2352 9.59875E-05-2.84869E-05-2.89219E-05-1.12321E-06-3.47098E-19 3.50915E-18
 -1      2353 9.58342E-05-2.84776E-05-2.88668E-05-9.62856E-07 4.71175E-19 3.81541E-18
 -1      2354 9.58434E-05-2.83090E-05-2.89461E-05-1.39792E-06-4.56160E-20 2.74896E-18
 -1      2355 9.57563E-05-2.84888E-05-2.88235E-05-8.04340E-07-2.80476E-19 3.25826E-18
 -1      2356 9.56440E-05-2.84850E-05-2.87821E-05-6.80543E-07 1.51905E-19 1.76585E-18
 -1      2357 9.56679E-05-2.83565E-05-2.88501E-05-1.01460E-06-6.14719E-19 3.28907E-18
 -1      2358 9.55855E-05-2.84952E-05-2.87488E-05-5.58726E-07 1.38939E-18 7.25477E-19
 -1      2359 9.55052E-05-2.84949E-05-2.87184E-05-4.64624E-07 7.73468E-19 2.12354E-19
 -1      2360 9.55354E-05-2.83984E-05-2.87749E-05-7.16735E-07 3.59360E-20 1.33467E-18
 -1      2361 9.54621E-05-2.85038E-05-2.86933E-05-3.72488E-07-1.61359E-19 6.23605E-19
 -1      2362 9.54063E-05-2.85057E-05-2.86714E-05-3.02078E-07-1.82154E-19 9.67245E-19
 -1      2363 9.54372E-05-2.84341E-05-2.87171E-05-4.89004E-07 6.34974E-19 6.46402E-19
 -1      2364 9.53750E-05-2.85133E-05-2.86527E-05-2.33621E-07-4.65019E-19 1.23496E-18
 -1      2365 9.53377E-05-2.85166E-05-2.86374E-05-1.82044E-07-9.86989E-19 1.95827E-18
 -1      2366 9.53656E-05-2.84640E-05-2.86733E-05-3.17804E-07-9.56838E-19 2.12516E-18
 -1      2367 9.53153E-05-2.85236E-05-2.86235E-05-1.32262E-07-1.53694E-18 1.70037E-18
 -1      2368 9.52917E-05-2.85277E-05-2.86128E-05-9.61055E-08-1.63467E-18 1.42760E-18
 -1      2369 9.53142E-05-2.84886E-05-2.86404E-05-1.91836E-07-1.31271E-18 1.92267E-18
 -1      2370 9.43166E-05-2.77777E-05-2.85026E-05-1.47508E-06 8.81510E-20 2.28850E-19
 -1      2371 9.41994E-05-2.76380E-05-2.85005E-05-1.06034E-06 2.69663E-19 3.98000E-19
 -1      2372 9.46743E-05-2.80122E-05-2.85566E-05-2.21871E-06 6.07167E-20 7.56490E-20
 -1      2373 9.43749E-05-2.78701E-05-2.84873E-05-1.91665E-06 6.51926E-20 1.20744E-19
 -1      2374 9.48880E-05-2.77588E-05-2.87843E-05-1.81868E-06 2.24560E-19-1.34701E-19
 -1      2375 9.52923E-05-2.82521E-05-2.87191E-05-2.80618E-06 4.04891E-19 4.79286E-20
 -1      2376 9.48536E-05-2.80982E-05-2.86009E-05-2.55816E-06 1.15060E-19-1.08610E-20
 -1      2377 9.51458E-05-2.79972E-05-2.87900E-05-2.68527E-06 1.59440E-19-2.65928E-19
 -1      2378 9.61277E-05-2.85179E-05-2.89634E-05-3.32322E-06 6.92615E-19 2.97623E-19
 -1      2379 9.55735E-05-2.83445E-05-2.88072E-05-3.09677E-06 5.35299E-19 1.76893E-19
 -1      2380 9.56152E-05-2.82059E-05-2.88996E-05-3.38581E-06 4.12430E-19-3.90646E-19
 -1      2381 9.71569E-05-2.88298E-05-2.92715E-05-3.81198E-06 1.53361E-19 3.88115E-19
 -1      2382 9.64993E-05-2.86277E-05-2.90846E-05-3.59386E-06 6.34704E-19 4.06567E-19
 -1      2383 9.62702E-05-2.84233E-05-2.90858E-05-4.00872E-06 5.66656E-19 5.05092E-20
 -1      2384 9.83688E-05-2.92128E-05-2.96284E-05-4.27534E-06 3.20818E-19 8.73133E-20
 -1      2385 9.76153E-05-2.89699E-05-2.94171E-05-4.07066E-06 2.24982E-19 2.11123E-19
 -1      2386 9.70996E-05-2.86851E-05-2.93282E-05-4.59475E-06 4.67163E-19 1.26558E-19
 -1      2387 9.97571E-05-2.96989E-05-3.00187E-05-4.67371E-06 5.23714E-19-4.99038E-21
 -1      2388 9.89167E-05-2.94004E-05-2.97906E-05-4.50837E-06 3.60009E-19-7.29702E-20
 -1      2389 9.81061E-05-2.90344E-05-2.96097E-05-5.13968E-06 5.36348E-19-1.38400E-20
 -1      2390 1.01312E-04-3.03267E-05-3.04225E-05-4.91742E-06 6.68175E-19 8.51218E-20
 -1      2391 1.00403E-04-2.99567E-05-3.01887E-05-4.84211E-06 7.24604E-19 1.40385E-20
 -1      2392 9.93044E-05-2.95257E-05-2.99130E-05-5.59003E-06 6.07093E-19-1.97146E-19
 -1      2393 1.03010E-04-3.11350E-05-3.08138E-05-4.85938E-06-1.23025E-19 4.32942E-19
 -1      2394 1.02066E-04-3.06819E-05-3.05902E-05-4.95233E-06 2.87293E-19 3.32902E-19
 -1      2395 1.00718E-04-3.02261E-05-3.02194E-05-5.83470E-06 3.49178E-19 3.11586E-19
 -1      2396 1.04797E-04-3.21450E-05-3.11606E-05-4.29644E-06-1.30183E-19 3.36527E-19
 -1      2397 1.03881E-04-3.16128E-05-3.09680E-05-4.65962E-06-4.35858E-20 2.51794E-19
 -1      2398 1.02371E-04-3.12044E-05-3.05097E-05-5.69765E-06-4.45358E-20 3.42846E-19
 -1      2399 1.06564E-04-3.33204E-05-3.14300E-05-2.99605E-06 2.24902E-19 4.04209E-19
 -1      2400 1.05778E-04-3.27509E-05-3.12923E-05-3.73522E-06-1.43924E-19 2.89264E-19
 -1      2401 1.04270E-04-3.25014E-05-3.07681E-05-4.94125E-06-1.10772E-19 3.02785E-19
 -1      2402 1.08110E-04-3.45015E-05-3.15999E-05-7.75011E-07 6.43183E-19 6.63029E-19
 -1      2403 1.07602E-04-3.40064E-05-3.15369E-05-1.95062E-06 6.64663E-19 7.79570E-19
 -1      2404 1.06357E-04-3.40626E-05-3.09911E-05-3.30012E-06 1.70573E-19 3.61552E-19
 -1      2405 1.09109E-04-3.53324E-05-3.16747E-05 2.34484E-06-6.87089E-20 8.19858E-19
 -1      2406 1.09065E-04-3.51190E-05-3.16931E-05 8.02229E-07 5.64872E-19 7.17343E-19
 -1      2407 1.08435E-04-3.56354E-05-3.11997E-05-5.80092E-07 5.08349E-19 7.40984E-19
 -1      2408 1.09125E-04-3.52519E-05-3.16966E-05 5.91241E-06-4.56660E-19 7.98908E-19
 -1      2409 1.09719E-04-3.56005E-05-3.17804E-05 4.30429E-06-4.53407E-19 9.54988E-19
 -1      2410 1.10084E-04-3.66702E-05-3.14470E-05 3.14677E-06-2.32812E-19 1.08237E-18
 -1      2411 1.07773E-04-3.37018E-05-3.17379E-05 8.84350E-06-5.01624E-19 8.91304E-19
 -1      2412 1.09042E-04-3.48104E-05-3.18486E-05 7.75360E-06-6.14658E-19 9.45328E-19
 -1      2413 1.10648E-04-3.63413E-05-3.18074E-05 7.25346E-06-6.50670E-19 1.33069E-18
 -1      2414 1.05144E-04-3.06869E-05-3.18553E-05 9.57856E-06 4.18717E-19 6.42243E-19
 -1      2415 1.06812E-04-3.23848E-05-3.19492E-05 9.69823E-06-4.05153E-21 9.41315E-19
 -1      2416 1.09524E-04-3.39789E-05-3.23294E-05 1.03101E-05-2.17118E-19 1.12902E-18
 -1      2417 1.02208E-04-2.73090E-05-3.20294E-05 6.93864E-06 1.25249E-18 3.23947E-19
 -1      2418 1.03651E-04-2.88971E-05-3.20833E-05 8.60651E-06 9.43555E-19 1.60979E-19
 -1      2419 1.06854E-04-2.99252E-05-3.29566E-05 1.04078E-05 1.00949E-18 7.03502E-19
 -1      2420 1.00560E-04-2.54110E-05-3.21671E-05 1.33838E-06 6.67846E-19 5.70200E-19
 -1      2421 1.01091E-04-2.60150E-05-3.21805E-05 4.09697E-06 1.32914E-18 4.43435E-19
 -1      2422 1.03991E-04-2.59493E-05-3.34902E-05 6.42144E-06 1.22533E-18 2.65217E-19
 -1      2423 1.01338E-04-2.62931E-05-3.21784E-05-4.94519E-06-3.19437E-19-4.21697E-20
 -1      2424 1.00661E-04-2.55037E-05-3.21575E-05-2.26708E-06 1.81755E-19 3.88273E-19
 -1      2425 1.02852E-04-2.44021E-05-3.36899E-05-5.45884E-07 7.02084E-19 7.83033E-19
 -1      2426 1.04122E-04-2.93686E-05-3.20842E-05-9.04886E-06-1.95817E-19-6.74807E-19
 -1      2427 1.02607E-04-2.77242E-05-3.20162E-05-7.57842E-06-5.83626E-19-5.15291E-19
 -1      2428 1.04324E-04-2.63514E-05-3.34405E-05-7.29909E-06 1.67269E-19 4.63358E-19
 -1      2429 1.07289E-04-3.28038E-05-3.19705E-05-9.70585E-06-1.70379E-19-9.16341E-19
 -1      2430 1.05617E-04-3.11588E-05-3.18634E-05-9.76996E-06-2.75014E-19-1.10371E-18
 -1      2431 1.07309E-04-3.05095E-05-3.28968E-05-1.07330E-05 1.16001E-19-5.35212E-19
 -1      2432 1.09365E-04-3.50119E-05-3.18910E-05-7.50168E-06 1.23131E-19-7.56005E-19
 -1      2433 1.08142E-04-3.40137E-05-3.17724E-05-8.65576E-06-6.01741E-20-1.28678E-18
 -1      2434 1.09871E-04-3.44258E-05-3.22908E-05-1.01758E-05-4.02403E-20-1.29173E-18
 -1      2435 1.09899E-04-3.56133E-05-3.18421E-05-4.02212E-06-1.83902E-19-6.21325E-19
 -1      2436 1.09350E-04-3.53508E-05-3.17542E-05-5.59079E-06 3.83812E-20-5.20391E-19
 -1      2437 1.10782E-04-3.64923E-05-3.18033E-05-6.91193E-06 5.82153E-20-1.81596E-18
 -1      2438 1.09171E-04-3.50225E-05-3.17731E-05-6.42063E-07-1.88647E-19-2.93806E-19
 -1      2439 1.09235E-04-3.52780E-05-3.17510E-05-2.08296E-06-1.78757E-19-5.33006E-19
 -1      2440 1.10077E-04-3.65975E-05-3.14802E-05-2.84304E-06-2.24460E-19-1.22995E-18
 -1      2441 1.07721E-04-3.38838E-05-3.16371E-05 1.91466E-06-3.12956E-19 2.88674E-19
 -1      2442 1.08215E-04-3.43799E-05-3.16932E-05 8.59280E-07-2.35038E-19 2.82413E-19
 -1      2443 1.08388E-04-3.54427E-05-3.12668E-05 6.98478E-07-7.03580E-19-1.10874E-18
 -1      2444 1.05986E-04-3.26593E-05-3.14186E-05 3.48978E-06 4.23568E-19-4.74286E-19
 -1      2445 1.06722E-04-3.32039E-05-3.15434E-05 2.86176E-06 2.79566E-19 7.36935E-20
 -1      2446 1.06361E-04-3.38481E-05-3.10875E-05 3.17624E-06 7.44827E-20-1.30358E-18
 -1      2447 1.04231E-04-3.15796E-05-3.11306E-05 4.21889E-06 8.68308E-20-1.09681E-18
 -1      2448 1.05066E-04-3.20745E-05-3.13024E-05 3.94906E-06 3.57562E-19-4.12283E-20
 -1      2449 1.04382E-04-3.23246E-05-3.08932E-05 4.57778E-06 2.77933E-20-1.13056E-19
 -1      2450 1.02596E-04-3.07188E-05-3.08002E-05 4.33612E-06 4.90638E-20-1.02540E-18
 -1      2451 1.03433E-04-3.11286E-05-3.09954E-05 4.31982E-06 1.58490E-19-6.38468E-19
 -1      2452 1.02622E-04-3.10882E-05-3.06672E-05 5.11718E-06 1.37567E-19 4.59879E-19
 -1      2453 1.01144E-04-3.00700E-05-3.04569E-05 4.06908E-06-2.40602E-19-1.77430E-21
 -1      2454 1.01924E-04-3.03923E-05-3.06553E-05 4.20814E-06-1.16204E-19-7.96438E-19
 -1      2455 1.01125E-04-3.01763E-05-3.04147E-05 5.06204E-06-1.23394E-19 1.00839E-18
 -1      2456 9.98950E-05-2.95966E-05-3.01249E-05 3.59711E-06 2.84559E-19 7.14078E-19
 -1      2457 1.00586E-04-2.98425E-05-3.03121E-05 3.81568E-06-2.05921E-19-5.03889E-20
 -1      2458 9.98795E-05-2.95441E-05-3.01507E-05 4.64895E-06-4.35574E-19 1.45715E-18
 -1      2459 9.88456E-05-2.92579E-05-2.98206E-05 3.04502E-06 5.64603E-19 2.05498E-18
 -1      2460 9.94354E-05-2.94417E-05-2.99881E-05 3.29123E-06 6.96474E-19 1.62179E-18
 -1      2461 9.88562E-05-2.91245E-05-2.98910E-05 4.05637E-06-1.21961E-19 1.51266E-18
 -1      2462 9.79825E-05-2.90187E-05-2.95535E-05 2.49152E-06-6.15239E-19 1.41261E-18
 -1      2463 9.84713E-05-2.91540E-05-2.96973E-05 2.73334E-06 4.17963E-19 1.64076E-18
 -1      2464 9.80233E-05-2.88558E-05-2.96485E-05 3.40550E-06 5.53883E-19 1.83027E-18
 -1      2465 9.72864E-05-2.88518E-05-2.93269E-05 1.98113E-06-2.35539E-19 9.46376E-20
 -1      2466 9.76810E-05-2.89498E-05-2.94464E-05 2.20101E-06-8.19724E-19 6.60239E-19
 -1      2467 9.73520E-05-2.86894E-05-2.94315E-05 2.77139E-06 5.02887E-19 9.80997E-19
 -1      2468 9.67355E-05-2.87370E-05-2.91403E-05 1.53517E-06-5.38055E-19 4.15758E-19
 -1      2469 9.70467E-05-2.88068E-05-2.92368E-05 1.72524E-06-6.38604E-20 2.32787E-19
 -1      2470 9.68171E-05-2.85905E-05-2.92441E-05 2.19554E-06-4.67268E-20-1.76691E-19
 -1      2471 9.63079E-05-2.86596E-05-2.89905E-05 1.16027E-06-1.86877E-18-1.87994E-19
 -1      2472 9.65477E-05-2.87082E-05-2.90664E-05 1.31863E-06-1.85785E-18-1.30697E-19
 -1      2473 9.63966E-05-2.85353E-05-2.90870E-05 1.69682E-06-1.33949E-18-5.73907E-19
 -1      2474 9.59826E-05-2.86087E-05-2.88730E-05 8.54382E-07-1.72738E-19-5.73151E-19
 -1      2475 9.61632E-05-2.86417E-05-2.89314E-05 9.82595E-07-4.93395E-19 3.37367E-19
 -1      2476 9.60708E-05-2.85078E-05-2.89587E-05 1.27979E-06-7.47515E-19-7.62482E-19
 -1      2477 9.57403E-05-2.85768E-05-2.87832E-05 6.10852E-07 7.95423E-19-1.14009E-18
 -1      2478 9.58730E-05-2.85982E-05-2.88269E-05 7.12226E-07-7.11851E-20-5.73634E-19
 -1      2479 9.58227E-05-2.84972E-05-2.88564E-05 9.40670E-07-8.50178E-20-1.24825E-19
 -1      2480 9.55643E-05-2.85579E-05-2.87160E-05 4.21048E-07 1.92993E-18 6.19728E-19
 -1      2481 9.56590E-05-2.85710E-05-2.87479E-05 4.99581E-07 1.26026E-18 9.95294E-20
 -1      2482 9.56372E-05-2.84967E-05-2.87767E-05 6.71306E-07 6.18067E-19-1.31907E-18
 -1      2483 9.54400E-05-2.85481E-05-2.86671E-05 2.76027E-07 2.73349E-18 1.20395E-18
 -1      2484 9.55053E-05-2.85554E-05-2.86897E-05 3.35738E-07 2.54844E-18 1.59021E-18
 -1      2485 9.55015E-05-2.85019E-05-2.87159E-05 4.61796E-07 1.40055E-18 1.63348E-18
 -1      2486 9.53552E-05-2.85446E-05-2.86324E-05 1.66947E-07 5.56788E-19 3.09673E-19
 -1      2487 9.53978E-05-2.85474E-05-2.86479E-05 2.11588E-07 1.80307E-18 1.29362E-18
 -1      2488 9.54039E-05-2.85094E-05-2.86704E-05 3.02508E-07 2.62781E-18 3.24666E-18
 -1      2489 9.52999E-05-2.85457E-05-2.86085E-05 8.75266E-08-6.70287E-19 2.18847E-18
 -1      2490 9.53262E-05-2.85455E-05-2.86186E-05 1.19948E-07-8.06663E-19 1.16023E-18
 -1      2491 9.53363E-05-2.85199E-05-2.86371E-05 1.82841E-07-2.65456E-19 1.99576E-18
 -1      2492 9.52652E-05-2.85503E-05-2.85918E-05 3.30415E-08-4.80928E-19 3.71608E-18
 -1      2493 9.52805E-05-2.85476E-05-2.85985E-05 5.52069E-08-2.02089E-19 3.00167E-18
 -1      2494 9.52915E-05-2.85319E-05-2.86126E-05 9.57531E-08-9.29343E-19 3.44493E-18
 -1      2495 9.52535E-05-2.85564E-05-2.85838E-05 1.10162E-08-3.58327E-19 3.30506E-18
 -1      2496 9.51675E-05-2.83734E-05-2.86269E-05 1.03086E-07 8.04202E-19-1.25723E-18
 -1      2497 9.51831E-05-2.83943E-05-2.86233E-05 1.07221E-07 4.62938E-19-4.03938E-18
 -1      2498 9.51383E-05-2.83313E-05-2.86324E-05 7.76287E-08 1.43964E-19-1.20188E-18
 -1      2499 9.51507E-05-2.83475E-05-2.86298E-05 9.08559E-08 2.12830E-19-3.86783E-19
 -1      2500 9.51410E-05-2.83178E-05-2.86379E-05 1.19291E-07 1.02358E-18-1.01432E-18
 -1      2501 9.52342E-05-2.84774E-05-2.86105E-05 9.11087E-08 4.08798E-19 1.88810E-19
 -1      2502 9.52468E-05-2.84976E-05-2.86061E-05 7.84028E-08 1.56061E-19 1.27796E-18
 -1      2503 9.52026E-05-2.84252E-05-2.86195E-05 1.07577E-07-6.50256E-19-3.59028E-18
 -1      2504 9.52177E-05-2.84469E-05-2.86154E-05 1.01389E-07-1.85242E-19-1.34111E-18
 -1      2505 9.52234E-05-2.84381E-05-2.86227E-05 1.22772E-07-1.08734E-19-1.30034E-18
 -1      2506 9.51833E-05-2.83758E-05-2.86314E-05 1.34244E-07 7.58035E-19-3.30599E-18
 -1      2507 9.51202E-05-2.83054E-05-2.86357E-05 3.64044E-08-2.96103E-19 9.14813E-19
 -1      2508 9.51270E-05-2.83142E-05-2.86342E-05 5.58978E-08 5.90021E-19-8.05517E-19
 -1      2509 9.51079E-05-2.82737E-05-2.86423E-05 8.15849E-08 8.62202E-19-7.49427E-19
 -1      2510 9.51164E-05-2.82996E-05-2.86363E-05-1.22092E-08-3.93055E-19 1.73876E-18
 -1      2511 9.51163E-05-2.82994E-05-2.86363E-05 9.45814E-09-1.33540E-18 2.21782E-18
 -1      2512 9.50898E-05-2.82500E-05-2.86447E-05 2.80786E-08 2.26257E-19 1.10204E-18
 -1      2513 9.51276E-05-2.83147E-05-2.86343E-05-5.83776E-08-7.50782E-19-3.17042E-19
 -1      2514 9.51206E-05-2.83057E-05-2.86357E-05-3.90805E-08-5.26309E-19 1.24810E-18
 -1      2515 9.50901E-05-2.82500E-05-2.86447E-05-3.09411E-08-3.57114E-19 1.15287E-18
 -1      2516 9.51514E-05-2.83477E-05-2.86300E-05-9.22780E-08 8.30240E-19 1.81000E-18
 -1      2517 9.51390E-05-2.83317E-05-2.86326E-05-7.95411E-08-1.78328E-19 1.61145E-19
 -1      2518 9.51085E-05-2.82737E-05-2.86426E-05-8.37721E-08 8.12879E-19 5.54739E-19
 -1      2519 9.51842E-05-2.83948E-05-2.86236E-05-1.07987E-07 1.46852E-18 2.72213E-18
 -1      2520 9.51684E-05-2.83737E-05-2.86271E-05-1.04224E-07 1.70647E-18 1.58553E-18
 -1      2521 9.51418E-05-2.83175E-05-2.86383E-05-1.20714E-07 1.61748E-18 1.77797E-18
 -1      2522 9.52193E-05-2.84486E-05-2.86155E-05-1.01563E-07-1.53641E-18 7.86173E-19
 -1      2523 9.52037E-05-2.84259E-05-2.86197E-05-1.07987E-07-8.69949E-19 2.09914E-18
 -1      2524 9.51842E-05-2.83757E-05-2.86318E-05-1.34609E-07 2.65121E-19 4.18639E-19
 -1      2525 9.52482E-05-2.85000E-05-2.86059E-05-7.55724E-08-2.08845E-18-9.11655E-19
 -1      2526 9.52367E-05-2.84795E-05-2.86106E-05-8.99049E-08-2.14766E-18 1.10198E-18
 -1      2527 9.52268E-05-2.84397E-05-2.86232E-05-1.23149E-07-1.58054E-18 1.82205E-19
 -1      2528 2.45863E-05-1.97558E-05-1.89750E-06 2.09626E-05-8.84726E-19 5.49724E-18
 -1      2529 1.90972E-05-1.81181E-05-1.14793E-07 6.85681E-06-1.49062E-18 5.32021E-18
 -1      2530 9.36215E-05-5.07011E-05-1.84567E-05 4.13778E-05-1.28940E-18-1.16202E-20
 -1      2531 7.51359E-05-4.43966E-05-1.29468E-05 4.16394E-05-1.88825E-18 1.80111E-18
 -1      2532 9.42853E-05-2.75131E-05-2.85997E-05-4.29296E-07 3.26915E-19 3.84254E-19
 -1      2533 9.44194E-05-2.73546E-05-2.86974E-05 2.02176E-07 3.83124E-19 3.86452E-19
 -1      2534 9.48783E-05-2.74305E-05-2.89227E-05-6.36391E-07 3.32096E-19 3.05561E-21
 -1      2535 9.52539E-05-2.85423E-05-2.85900E-05-2.72154E-08-5.21914E-19-1.01129E-18
 -1      2536 1.85252E-05-1.84476E-05 1.62156E-07-6.61619E-06-7.51133E-19 4.02510E-18
 -1      2537 2.44589E-05-2.17828E-05-9.61058E-07-2.06124E-05-1.09701E-18 3.18717E-18
 -1      2538 5.70879E-05-3.56227E-05-9.02681E-06 4.14439E-05-1.53038E-18 2.29737E-18
 -1      2539 4.03896E-05-2.76663E-05-5.05026E-06 3.29071E-05-1.62419E-18 3.69052E-18
 -1      2540 7.33998E-05-3.97304E-05-1.39085E-05 3.99343E-05-2.26433E-18 1.78375E-18
 -1      2541 9.51823E-05-2.00139E-05-3.22618E-05-1.13065E-05-9.82638E-19 2.04453E-19
 -1      2542 9.56306E-05-2.33616E-05-3.10012E-05-7.51435E-06-9.02586E-19 3.28537E-19
 -1      2543 9.52294E-05-2.24670E-05-3.11549E-05-7.10423E-06-8.68315E-19-3.37490E-21
 -1      2544 9.33394E-05-1.75435E-05-3.24827E-05-1.09016E-05-9.82737E-19-1.61174E-19
 -1      2545 3.61515E-05-2.90229E-05-2.93487E-06-3.05287E-05-7.13837E-19 1.66781E-18
 -1      2546 5.22322E-05-3.55101E-05-7.16301E-06-3.94915E-05-2.19805E-19 3.48554E-19
 -1      2547 1.46970E-04-1.25136E-05-5.81592E-05-1.71417E-06-3.07896E-18 2.14961E-18
 -1      2548 1.50440E-04-1.72001E-05-5.73934E-05-4.94275E-06-2.71855E-18 2.22092E-18
 -1      2549 8.75723E-05-1.03095E-05-3.31485E-05-1.39816E-06-1.86327E-20-1.07230E-18
 -1      2550 8.77012E-05-1.04504E-05-3.31408E-05-2.44602E-06-1.64411E-19-9.80282E-19
 -1      2551 8.90469E-05-1.25355E-05-3.27903E-05-2.67111E-06-2.13197E-19-8.65370E-19
 -1      2552 8.87424E-05-1.21489E-05-3.28265E-05-8.55463E-07-1.86601E-20-9.52707E-19
 -1      2553 1.43990E-04-1.21677E-05-5.68554E-05 2.95752E-06 2.25311E-18 1.08145E-18
 -1      2554 1.41300E-04-9.77299E-06-5.69023E-05-2.10054E-07 2.23278E-18 1.15689E-18
 -1      2555 7.25426E-05-4.48049E-05-1.16924E-05-4.06485E-05 6.23416E-19-6.71803E-20
 -1      2556 9.19462E-05-5.13530E-05-1.77235E-05-4.13195E-05 2.00112E-19-1.29126E-18
 -1      2557 1.43650E-04-1.37210E-05-5.62540E-05-4.78979E-06 1.96554E-18 9.96428E-19
 -1      2558 1.44981E-04-1.99648E-05-5.39343E-05-5.98068E-06 1.89820E-18 7.56400E-19
 -1      2559 1.47777E-04-2.48042E-05-5.29789E-05 4.37904E-06 2.70076E-18 1.46664E-18
 -1      2560 1.47925E-04-1.84175E-05-5.60168E-05 4.55317E-06 2.45025E-18 1.05646E-18
 -1      2561 1.44063E-04-4.41289E-05-4.29507E-05-4.95202E-06 1.41862E-18 1.72202E-18
 -1      2562 1.49370E-04-3.57322E-05-4.90786E-05 9.55734E-08 2.47641E-18 1.90540E-18
 -1      2563 1.28636E-04-5.63406E-05-3.08612E-05-2.25227E-05 6.37604E-19 8.25857E-19
 -1      2564 1.39284E-04-5.33592E-05-3.72191E-05-1.58639E-05 1.05953E-18 1.59179E-18
 -1      2565 9.42287E-05-5.19581E-05-1.79526E-05-3.96701E-05-9.47406E-19-1.31542E-18
 -1      2566 1.12560E-04-5.61275E-05-2.45005E-05-3.51496E-05-1.83383E-19-2.29069E-19
 -1      2567 5.83346E-05-3.85601E-05-8.27874E-06-4.05151E-05-8.64397E-19-2.41902E-18
 -1      2568 7.51766E-05-4.48167E-05-1.30674E-05-4.40406E-05-9.47195E-19-2.12372E-18
 -1      2569 2.69620E-05-2.40906E-05-1.08656E-06-2.41796E-05-1.00373E-19-3.14270E-18
 -1      2570 3.97880E-05-2.98090E-05-4.22317E-06-3.55553E-05-4.14411E-19-2.91083E-18
 -1      2571 1.86159E-05-1.68949E-05-5.20042E-07 6.39579E-07 3.36788E-19-3.00570E-18
 -1      2572 2.05764E-05-1.89255E-05-4.64435E-07-1.30328E-05 4.47022E-19-3.46267E-18
 -1      2573 3.58657E-05-2.56895E-05-4.12646E-06 2.98893E-05 7.17649E-19-1.12020E-18
 -1      2574 2.39243E-05-1.98279E-05-1.43302E-06 1.59467E-05 5.91970E-19-2.13113E-18
 -1      2575 6.97766E-05-4.33849E-05-1.12338E-05 4.27192E-05 3.07896E-19 4.57504E-19
 -1      2576 5.38265E-05-3.59684E-05-7.37734E-06 3.88175E-05 7.58518E-19-1.61783E-19
 -1      2577 1.05722E-04-5.47286E-05-2.20253E-05 3.80540E-05 3.46225E-19 4.96044E-19
 -1      2578 8.67762E-05-5.04155E-05-1.56191E-05 4.00224E-05 1.34466E-19 7.64599E-19
 -1      2579 1.35761E-04-5.69315E-05-3.42293E-05 2.03845E-05 6.72862E-19 1.51365E-18
 -1      2580 1.22062E-04-5.74711E-05-2.76712E-05 2.78534E-05 8.57833E-19 6.84614E-19
 -1      2581 1.51071E-04-4.30477E-05-4.66598E-05 1.05441E-06-1.06684E-18 3.09612E-18
 -1      2582 1.44204E-04-5.01531E-05-4.03814E-05 6.30604E-06 1.28127E-19 2.48498E-18
 -1      2583 1.53888E-04-2.42491E-05-5.57835E-05-4.06028E-06-2.04114E-18 2.60187E-18
 -1      2584 1.52193E-04-3.18160E-05-5.18132E-05-2.47534E-06-1.85119E-18 2.72152E-18
 -1      2585 1.47311E-04-1.68779E-05-5.63530E-05 6.23560E-06-1.80164E-18 1.11851E-18
 -1      2586 1.46282E-04-1.29229E-05-5.76743E-05 2.82712E-06-2.55507E-18 1.09156E-18
 -1      2587 1.46633E-04-3.54672E-05-4.79854E-05 6.28936E-06-4.11446E-19 1.01517E-18
 -1      2588 1.48945E-04-2.54886E-05-5.34245E-05 7.14089E-06-1.20469E-18 8.54444E-19
 -1      2589 1.42022E-04-5.40064E-05-3.77644E-05-8.26377E-06-3.66342E-19 1.73006E-19
 -1      2590 1.47060E-04-4.82735E-05-4.29468E-05-2.11278E-06-2.22267E-19 1.36161E-18
 -1      2591 1.14675E-04-5.75066E-05-2.42580E-05-3.09839E-05-4.13352E-19-5.50466E-19
 -1      2592 1.32209E-04-5.84967E-05-3.20119E-05-2.21636E-05-4.38234E-19-5.58406E-19
 -1      2593 1.46818E-04-3.05263E-05-5.04298E-05-4.46108E-06 1.99730E-18 7.42848E-19
 -1      2594 1.46130E-04-3.83826E-05-4.64143E-05-4.51078E-07 1.96734E-18 3.97682E-19
 -1      2595 9.64587E-05-2.51023E-05-3.06042E-05 7.22293E-06 1.13308E-18 6.52245E-19
 -1      2596 9.75164E-05-2.37847E-05-3.16197E-05 1.03430E-05 1.16893E-18 9.47327E-19
 -1      2597 9.59812E-05-2.13141E-05-3.20560E-05 1.15067E-05 1.31362E-18 5.73282E-19
 -1      2598 9.60413E-05-2.41470E-05-3.08459E-05 7.21401E-06 1.14415E-18 2.25531E-19
 -1      2599 1.26801E-04-5.63718E-05-3.03320E-05 2.77673E-05 3.43048E-19 7.56400E-19
 -1      2600 1.12352E-04-5.59259E-05-2.40868E-05 3.28559E-05-1.81265E-19 9.47618E-20
 -1      2601 1.33185E-04-1.08494E-05-5.27571E-05-3.55959E-06 1.98608E-18 2.51251E-19
 -1      2602 9.07366E-05-1.47350E-05-3.25668E-05-6.29224E-06-6.71065E-19-8.56132E-19
 -1      2603 8.97054E-05-1.29836E-05-3.29394E-05-7.50480E-06-7.28073E-19-9.13578E-19
 -1      2604 9.04465E-05-1.38599E-05-3.28879E-05-8.66619E-06-8.68639E-19-7.79409E-19
 -1      2605 9.51418E-05-2.68851E-05-2.92679E-05 1.10136E-06 6.22419E-19 2.18664E-19
 -1      2606 9.43653E-05-1.90765E-05-3.23113E-05 1.11796E-05 1.30812E-18 1.43069E-19
 -1      2607 1.33831E-04-5.68184E-05-3.29190E-05 1.62426E-05 3.68459E-20-2.92226E-20
 -1      2608 1.38640E-04-2.54911E-05-4.87530E-05-9.95815E-06 1.33937E-18 5.21137E-19
 -1      2609 1.08540E-04-5.60202E-05-2.21943E-05-3.32295E-05 9.20725E-19-1.16096E-18
 -1      2610 3.74380E-05-2.28343E-05-5.74571E-06-2.59969E-05-7.16802E-20 1.60873E-18
 -1      2611 1.36797E-04-5.82528E-05-3.35997E-05-1.10945E-05 4.60574E-20 7.44330E-20
 -1      2612 1.43525E-04-4.22436E-05-4.35496E-05 7.85394E-06 5.88688E-20 1.18796E-19
 -1      2613 1.38542E-04-2.02923E-05-5.06572E-05 1.19480E-05-1.38617E-18-9.02937E-19
 -1      2614 9.52604E-05-2.85422E-05-2.85937E-05 3.73131E-08-1.58278E-19 2.88787E-18
 -1      2615 1.07848E-04-5.49687E-05-2.23548E-05 3.36414E-05-1.70561E-18 1.64219E-19
 -1      2616 9.52606E-05-2.85299E-05-2.85988E-05 5.33164E-08 6.25100E-21 2.33090E-18
 -1      2617 1.42210E-04-1.88119E-05-5.27775E-05-8.30414E-06-2.21669E-18 2.05405E-18
 -1      2618 2.59828E-05-1.48617E-05-4.17419E-06-4.87559E-07-4.33826E-19 4.19557E-18
 -1      2619 4.03427E-05-2.21010E-05-7.22844E-06 2.71211E-05-1.30231E-18 4.13691E-18
 -1      2620 1.46274E-04-3.84279E-05-4.64328E-05-8.48172E-06-9.38936E-19 2.90829E-18
 -1      2621 1.40631E-04-5.58636E-05-3.63376E-05 7.61371E-06 8.54868E-19 2.65926E-18
 -1      2622 9.48346E-05-2.05484E-05-3.17930E-05 9.18570E-06 1.20679E-18 6.96155E-20
 -1      2623 1.18320E-04-5.88139E-05-2.52849E-05 2.97427E-05 1.07488E-18 1.35864E-18
 -1      2624 9.21966E-05-1.62078E-05-3.26005E-05-9.90061E-06-9.61157E-19-4.44454E-19
 -1      2625 1.37127E-04-1.12829E-05-5.39260E-05 1.02721E-06-2.35200E-18 3.62980E-19
 -1      2626 8.60932E-05-4.85998E-05-1.58405E-05 4.01693E-05 8.21198E-19 8.05422E-19
 -1      2627 4.89579E-05-2.99381E-05-7.73377E-06 3.42405E-05 9.59688E-19-3.60201E-19
 -1      2628 4.60234E-05-2.30507E-05-9.27930E-06 2.92606E-05 1.16636E-18-6.58356E-19
 -1      2629 6.25785E-05-3.38742E-05-1.20588E-05 3.68313E-05 1.16615E-18-5.02926E-20
 -1      2630 2.83702E-05-1.60531E-05-4.67137E-06 8.62411E-06 7.67253E-19-2.45936E-18
 -1      2631 3.05557E-05-1.88289E-05-4.51346E-06-1.93318E-05 7.84564E-20-2.99384E-18
 -1      2632 5.49615E-05-3.31823E-05-8.92093E-06-3.82252E-05-6.90967E-19-2.39012E-18
 -1      2633 9.09150E-05-4.95762E-05-1.73310E-05-4.03049E-05-1.43191E-18-1.18121E-18
 -1      2634 1.23315E-04-5.83089E-05-2.76616E-05-2.54184E-05 1.00373E-19 4.09964E-19
 -1      2635 1.41169E-04-5.01002E-05-3.90260E-05-3.97970E-06 1.25966E-18 1.76119E-18
 -1      2636 1.42332E-04-3.05558E-05-4.80136E-05 7.73600E-06 2.13706E-18 1.82176E-18
 -1      2637 1.42132E-04-4.44705E-05-4.18770E-05-1.34723E-06 1.11612E-18 2.92438E-19
 -1      2638 6.82173E-05-3.96381E-05-1.18196E-05-3.97283E-05 1.07107E-18-3.97364E-19
 -1      2639 1.35412E-04-1.36967E-05-5.24011E-05 6.40940E-06 2.32108E-18 1.32741E-18
 -1      2640 9.52674E-05-2.85381E-05-2.85978E-05-4.80898E-08-5.25095E-19-2.75830E-19
 -1      2641 9.52595E-05-2.85216E-05-2.86025E-05-6.24576E-08-1.64921E-18-2.36507E-19
 -1      2642 9.52615E-05-2.84928E-05-2.86146E-05-9.90248E-08-2.13618E-18 5.06045E-19
 -1      2643 9.52808E-05-2.85326E-05-2.86051E-05-7.06684E-08-1.48094E-18 1.11155E-18
 -1      2644 9.52635E-05-2.85039E-05-2.86106E-05 8.78996E-08-5.08198E-19 2.40318E-18
 -1      2645 9.52836E-05-2.85092E-05-2.86186E-05-1.12424E-07-1.91816E-18 4.73941E-19
 -1      2646 9.01924E-05-1.45269E-05-3.24497E-05 2.84733E-06 5.01086E-19-1.08044E-18
 -1      2647 8.99553E-05-1.42154E-05-3.24816E-05 1.99520E-06 3.74534E-19-1.09129E-18
 -1      2648 8.97839E-05-1.39745E-05-3.25097E-05 1.26374E-06 2.93095E-19-1.02718E-18
 -1      2649 8.97013E-05-1.38670E-05-3.25205E-05 4.01240E-07 1.60262E-19-8.17061E-19
 -1      2650 9.08945E-05-1.57602E-05-3.21852E-05 1.40103E-06 2.94649E-19-9.71791E-19
 -1      2651 9.20629E-05-1.71875E-05-3.21255E-05 5.88654E-06 9.24415E-19-4.84241E-19
 -1      2652 9.14635E-05-1.63238E-05-3.22272E-05 5.08227E-06 8.44663E-19-5.69567E-19
 -1      2653 9.36237E-05-1.95715E-05-3.17775E-05 6.99170E-06 1.05666E-18-3.11437E-19
 -1      2654 9.27727E-05-1.82509E-05-3.19570E-05 6.41336E-06 9.65449E-19-3.32053E-19
 -1      2655 9.33629E-05-1.94773E-05-3.16421E-05 5.06483E-06 9.48279E-19-2.90345E-19
 -1      2656 9.54665E-05-2.52910E-05-3.00838E-05 3.27869E-06 8.01998E-19 9.09212E-20
 -1      2657 9.57407E-05-2.44596E-05-3.05166E-05 4.99418E-06 9.10713E-19 5.85888E-20
 -1      2658 1.24502E-04-6.01583E-05-2.80009E-05 2.31304E-05 1.36690E-18 1.88179E-18
 -1      2659 1.11651E-04-5.69705E-05-2.31185E-05 3.10214E-05 7.83717E-19 1.67233E-18
 -1      2660 9.48579E-05-2.18302E-05-3.13026E-05 7.30431E-06 1.08462E-18-1.03960E-20
 -1      2661 1.29486E-04-2.04044E-05-4.74000E-05-1.16103E-05 1.55198E-18-3.49454E-19
 -1      2662 1.32438E-04-2.96663E-05-4.44231E-05-1.20529E-05 1.49819E-18-1.30125E-19
 -1      2663 1.31310E-04-5.92199E-05-3.05351E-05-1.29272E-05 6.14946E-19-1.14794E-18
 -1      2664 1.37219E-04-5.58522E-05-3.53749E-05-2.38821E-06 8.13436E-19-3.70259E-19
 -1      2665 9.55642E-05-2.56278E-05-2.99465E-05-1.76359E-06-6.63174E-19-1.67395E-19
 -1      2666 9.54681E-05-2.61742E-05-2.97037E-05-6.35430E-07-5.66288E-19-2.31540E-19
 -1      2667 9.55017E-05-2.66277E-05-2.94962E-05 2.78380E-07-4.62616E-19-1.81957E-19
 -1      2668 9.54581E-05-2.69396E-05-2.93655E-05 1.07420E-06-4.53737E-19-3.33548E-19
 -1      2669 9.55269E-05-2.58300E-05-2.98766E-05-3.73261E-07-5.50525E-19-2.86224E-19
 -1      2670 9.54385E-05-2.71727E-05-2.92434E-05 1.76558E-06-4.63613E-19-2.38801E-19
 -1      2671 9.54779E-05-2.73522E-05-2.91928E-05 2.36137E-06-4.34839E-19-1.90205E-19
 -1      2672 9.55491E-05-2.66592E-05-2.95324E-05 1.31479E-06-5.12389E-19-3.64216E-19
 -1      2673 9.54514E-05-2.74539E-05-2.91348E-05 2.91457E-06-4.29475E-19-2.88326E-19
 -1      2674 9.55722E-05-2.75552E-05-2.91431E-05 3.40411E-06-4.77849E-19-4.06085E-19
 -1      2675 9.55161E-05-2.70839E-05-2.93355E-05 2.62496E-06-4.67791E-19-3.80223E-19
 -1      2676 9.55549E-05-2.75746E-05-2.91324E-05 3.88883E-06-4.40428E-19-3.61907E-19
 -1      2677 9.57496E-05-2.76308E-05-2.91844E-05 4.33710E-06-3.33384E-19-3.13791E-19
 -1      2678 9.54839E-05-2.72513E-05-2.92485E-05 3.71449E-06-4.87672E-19-4.00921E-19
 -1      2679 9.57469E-05-2.76003E-05-2.92071E-05 4.80539E-06-2.02413E-19-1.60811E-19
 -1      2680 9.60110E-05-2.76381E-05-2.92915E-05 5.25497E-06-2.56990E-19 2.65051E-20
 -1      2681 9.54731E-05-2.72553E-05-2.92405E-05 4.70772E-06-1.45993E-19 8.14998E-20
 -1      2682 9.60277E-05-2.75869E-05-2.93355E-05 5.74240E-06-2.98506E-19 1.69035E-19
 -1      2683 9.63639E-05-2.76360E-05-2.94423E-05 6.21590E-06-2.80223E-19 3.34555E-19
 -1      2684 9.54935E-05-2.71687E-05-2.92850E-05 5.69505E-06-1.02484E-19 8.43998E-19
 -1      2685 9.64123E-05-2.75999E-05-2.94958E-05 6.74182E-06-1.76242E-19 4.81839E-19
 -1      2686 9.68341E-05-2.77012E-05-2.96151E-05 7.24068E-06-4.60541E-20 3.78423E-19
 -1      2687 9.55619E-05-2.70677E-05-2.93570E-05 6.73417E-06-8.91780E-20 8.70359E-19
 -1      2688 9.69434E-05-2.77329E-05-2.96656E-05 7.80656E-06 1.70576E-20 3.47548E-19
 -1      2689 9.74811E-05-2.79480E-05-2.97865E-05 8.30612E-06 4.02194E-20 4.02012E-19
 -1      2690 9.57183E-05-2.70533E-05-2.94308E-05 7.84981E-06-8.71576E-20 5.39707E-19
 -1      2691 9.77113E-05-2.81292E-05-2.98212E-05 8.89117E-06-7.85550E-20 9.03416E-21
 -1      2692 9.84213E-05-2.85506E-05-2.99320E-05 9.33210E-06-1.36494E-19 5.99258E-20
 -1      2693 9.60481E-05-2.72757E-05-2.94801E-05 9.02977E-06-2.81585E-19 2.27143E-19
 -1      2694 9.88825E-05-2.90040E-05-2.99401E-05 9.88376E-06 1.97641E-20-3.94391E-20
 -1      2695 9.98572E-05-2.97613E-05-3.00311E-05 1.01593E-05 1.38943E-19 1.65542E-19
 -1      2696 9.67149E-05-2.79614E-05-2.94797E-05 1.02151E-05 1.02745E-19 1.74292E-19
 -1      2697 1.00733E-04-3.06552E-05-3.00104E-05 1.05733E-05 2.36180E-19 5.57740E-19
 -1      2698 1.02101E-04-3.19019E-05-3.00818E-05 1.05132E-05 2.34325E-19 9.24666E-19
 -1      2699 9.80032E-05-2.94347E-05-2.94156E-05 1.12764E-05 3.49047E-19 2.57508E-19
 -1      2700 1.03659E-04-3.34239E-05-3.00538E-05 1.05941E-05 2.23544E-19 1.02156E-18
 -1      2701 1.05551E-04-3.52699E-05-3.01312E-05 9.95021E-06 3.31337E-19 1.02968E-18
 -1      2702 1.00357E-04-3.21033E-05-2.93065E-05 1.19605E-05 2.46582E-19 7.51909E-19
 -1      2703 1.08097E-04-3.75217E-05-3.01670E-05 9.34681E-06 2.35316E-19 1.00860E-18
 -1      2704 1.10521E-04-3.98491E-05-3.03242E-05 7.80562E-06 2.22654E-19 1.02981E-18
 -1      2705 1.04365E-04-3.63326E-05-2.92475E-05 1.17834E-05 2.16338E-19 8.88382E-19
 -1      2706 1.14208E-04-4.25884E-05-3.05834E-05 5.96938E-06 2.04454E-19 1.16121E-18
 -1      2707 1.16805E-04-4.47022E-05-3.09672E-05 3.26813E-06 5.63409E-20 9.53523E-19
 -1      2708 1.10545E-04-4.20446E-05-2.94802E-05 9.88052E-06 1.39171E-19 6.61281E-19
 -1      2709 1.21162E-04-4.68795E-05-3.17482E-05-3.57969E-07 2.36577E-19 9.83710E-19
 -1      2710 1.22949E-04-4.71472E-05-3.25838E-05-4.01887E-06 3.53120E-19 8.32011E-19
 -1      2711 1.18708E-04-4.77996E-05-3.04925E-05 5.04460E-06 1.89166E-19 7.22721E-19
 -1      2712 1.26137E-04-4.63593E-05-3.42635E-05-9.04395E-06 1.49157E-19 1.22104E-18
 -1      2713 1.25756E-04-4.28506E-05-3.56545E-05-1.20123E-05-2.94873E-20 1.03590E-18
 -1      2714 1.26764E-04-4.98091E-05-3.30653E-05-3.59006E-06 3.31249E-19 8.01267E-19
 -1      2715 1.26068E-04-3.77080E-05-3.82040E-05-1.55684E-05-3.54272E-19 1.11615E-18
 -1      2716 1.22481E-04-3.01344E-05-3.97401E-05-1.52479E-05-6.97638E-19 7.97938E-19
 -1      2717 1.30478E-04-4.29273E-05-3.78213E-05-1.27314E-05-1.49554E-19 1.44128E-18
 -1      2718 1.24419E-04-2.00952E-05-4.53647E-05-1.12311E-05-1.43032E-18 3.85188E-19
 -1      2719 1.21781E-04-1.48433E-05-4.65330E-05-5.72924E-06-1.06133E-18-3.11549E-19
 -1      2720 1.21118E-04-1.45081E-05-4.64533E-05 1.98721E-06-1.23476E-18-7.41908E-19
 -1      2721 1.22762E-04-1.74992E-05-4.59399E-05 8.67196E-06-1.71471E-18-1.96670E-18
 -1      2722 1.24766E-04-2.38597E-05-4.37855E-05 1.28532E-05-6.25746E-19-1.86090E-18
 -1      2723 1.28423E-04-3.17462E-05-4.19019E-05 1.57432E-05-2.50404E-19-1.55653E-18
 -1      2724 1.24982E-04-4.62872E-05-3.38348E-05 7.98145E-06 3.24529E-19 4.24066E-19
 -1      2725 1.23948E-04-4.74705E-05-3.27244E-05 4.32213E-06 8.58408E-19 8.82337E-19
 -1      2726 1.19799E-04-4.62939E-05-3.15913E-05-7.12316E-08 3.12082E-19 7.28164E-19
 -1      2727 1.17425E-04-4.47377E-05-3.10415E-05-3.23671E-06-2.00696E-19 7.44628E-20
 -1      2728 1.22577E-04-4.94914E-05-3.14570E-05-1.34724E-06 5.48848E-19 1.31737E-18
 -1      2729 1.13324E-04-4.20583E-05-3.05958E-05-5.81568E-06-4.60892E-19 6.25415E-19
 -1      2730 1.10760E-04-3.96774E-05-3.03672E-05-7.82255E-06-8.08222E-20 1.08212E-18
 -1      2731 1.14084E-04-4.47224E-05-2.98549E-05-7.83490E-06-1.03260E-19 1.32268E-18
 -1      2732 1.07698E-04-3.71278E-05-3.02644E-05-8.86015E-06-1.82787E-19 6.16827E-19
 -1      2733 1.05575E-04-3.50211E-05-3.01744E-05-9.82541E-06-5.77524E-19 4.51021E-19
 -1      2734 1.06902E-04-3.86472E-05-2.93586E-05-1.08392E-05-5.62953E-19 9.98199E-19
 -1      2735 1.03608E-04-3.31556E-05-3.01955E-05-9.94825E-06-6.90762E-19 1.85679E-19
 -1      2736 1.02044E-04-3.16395E-05-3.01392E-05-1.01830E-05-8.57643E-19 2.39619E-19
 -1      2737 1.01959E-04-3.36551E-05-2.93424E-05-1.15758E-05-8.71779E-19-2.88411E-19
 -1      2738 1.00902E-04-3.04728E-05-3.01767E-05-9.82836E-06-6.87060E-19-1.49509E-19
 -1      2739 9.98016E-05-2.95128E-05-3.01089E-05-9.61860E-06-6.86917E-19 3.29531E-19
 -1      2740 9.89414E-05-3.02827E-05-2.94637E-05-1.10877E-05-4.84637E-19 2.62517E-19
 -1      2741 9.91836E-05-2.88737E-05-3.01219E-05-9.04778E-06-8.35785E-19 1.28700E-18
 -1      2742 9.84070E-05-2.83221E-05-3.00326E-05-8.59924E-06-7.27574E-19 1.37914E-18
 -1      2743 9.72449E-05-2.82994E-05-2.95673E-05-1.00316E-05-3.10867E-19 1.08892E-18
 -1      2744 9.80910E-05-2.80293E-05-3.00141E-05-7.95269E-06-1.02081E-18 1.93538E-18
 -1      2745 9.75275E-05-2.77445E-05-2.99089E-05-7.40248E-06 1.85696E-19 1.74777E-18
 -1      2746 9.63461E-05-2.72863E-05-2.96054E-05-8.74886E-06-7.33997E-19 2.45894E-18
 -1      2747 9.73721E-05-2.76571E-05-2.98653E-05-6.75825E-06 6.22363E-19 1.15296E-18
 -1      2748 9.69481E-05-2.75329E-05-2.97538E-05-6.19178E-06 3.51467E-19 1.48866E-18
 -1      2749 9.58919E-05-2.68830E-05-2.95782E-05-7.42412E-06-3.07017E-19 1.72305E-18
 -1      2750 9.68718E-05-2.75559E-05-2.96948E-05-5.59217E-06 1.01904E-19 1.20251E-18
 -1      2751 9.65429E-05-2.75221E-05-2.95854E-05-5.05858E-06 3.96042E-19 1.73082E-18
 -1      2752 9.56676E-05-2.68292E-05-2.95030E-05-6.15935E-06 3.02126E-19 7.21148E-19
 -1      2753 9.65026E-05-2.75970E-05-2.95199E-05-4.52463E-06 4.38205E-19 9.89314E-19
 -1      2754 9.62426E-05-2.76103E-05-2.94187E-05-4.04890E-06 7.50910E-19 4.85966E-19
 -1      2755 9.55540E-05-2.69561E-05-2.93993E-05-5.00935E-06-1.22100E-19-2.33241E-19
 -1      2756 9.62174E-05-2.77036E-05-2.93531E-05-3.58855E-06 6.67717E-19-3.99438E-19
 -1      2757 9.60105E-05-2.77389E-05-2.92635E-05-3.18023E-06 1.78475E-19-3.69353E-19
 -1      2758 9.54897E-05-2.71615E-05-2.92837E-05-3.99983E-06-1.80291E-19-1.20879E-18
 -1      2759 9.59911E-05-2.78327E-05-2.92021E-05-2.79337E-06 9.13407E-19-9.15281E-19
 -1      2760 9.58270E-05-2.78759E-05-2.91254E-05-2.45279E-06 9.85446E-19-5.05487E-19
 -1      2761 9.54461E-05-2.73881E-05-2.91682E-05-3.13784E-06 4.45337E-19-1.22440E-18
 -1      2762 9.58099E-05-2.79615E-05-2.90706E-05-2.13460E-06 9.10240E-19-1.79991E-19
 -1      2763 9.56809E-05-2.80051E-05-2.90067E-05-1.85696E-06 4.68454E-19-1.13202E-19
 -1      2764 9.54108E-05-2.76056E-05-2.90601E-05-2.41860E-06 8.73092E-19-1.23049E-18
 -1      2765 9.56654E-05-2.80791E-05-2.89595E-05-1.60013E-06-1.37114E-19-1.08013E-19
 -1      2766 9.55653E-05-2.81194E-05-2.89076E-05-1.37816E-06-8.29499E-20 8.23535E-20
 -1      2767 9.53798E-05-2.78000E-05-2.89636E-05-1.83041E-06 2.27615E-19-1.76528E-18
 -1      2768 9.55512E-05-2.81812E-05-2.88680E-05-1.17439E-06-3.55492E-19 1.10144E-18
 -1      2769 9.54748E-05-2.82166E-05-2.88266E-05-9.99993E-07-7.62274E-19 1.04975E-18
 -1      2770 9.53518E-05-2.79661E-05-2.88805E-05-1.35800E-06 5.14586E-19-2.09908E-18
 -1      2771 9.54623E-05-2.82668E-05-2.87941E-05-8.40961E-07-1.08356E-18 8.31218E-19
 -1      2772 9.54049E-05-2.82969E-05-2.87618E-05-7.06180E-07 1.54713E-19 2.12312E-20
 -1      2773 9.53269E-05-2.81039E-05-2.88107E-05-9.84949E-07-6.79516E-19-1.12152E-18
 -1      2774 9.53940E-05-2.83370E-05-2.87357E-05-5.84113E-07 1.25217E-18-2.12440E-19
 -1      2775 9.53517E-05-2.83619E-05-2.87108E-05-4.81700E-07 5.49983E-19 3.96767E-19
 -1      2776 9.53051E-05-2.82155E-05-2.87535E-05-6.95235E-07 2.63900E-19-1.49610E-18
 -1      2777 9.53421E-05-2.83931E-05-2.86900E-05-3.89621E-07 1.35195E-20 9.81972E-19
 -1      2778 9.53116E-05-2.84138E-05-2.86711E-05-3.13121E-07-1.31744E-18 7.40350E-19
 -1      2779 9.52862E-05-2.83042E-05-2.87072E-05-4.74150E-07 2.12078E-19-1.88865E-18
 -1      2780 9.53032E-05-2.84384E-05-2.86547E-05-2.45533E-07-1.74019E-18 1.60181E-18
 -1      2781 9.52817E-05-2.84547E-05-2.86403E-05-1.90287E-07-1.40180E-18 9.17699E-19
 -1      2782 9.52698E-05-2.83747E-05-2.86701E-05-3.08376E-07-5.68224E-19-8.25341E-19
 -1      2783 9.54849E-05-2.78596E-05-2.89747E-05-2.98485E-06 2.82855E-19-4.30822E-19
 -1      2784 9.53067E-05-2.77249E-05-2.89537E-05-2.56865E-06 3.86366E-19-2.15920E-19
 -1      2785 9.52512E-05-2.84486E-05-2.86299E-05 1.54087E-07-1.50803E-18-1.38568E-19
 -1      2786 9.52724E-05-2.84858E-05-2.86223E-05 1.29477E-07-1.88197E-18 2.46555E-18
 -1      2787 9.52907E-05-2.84755E-05-2.86335E-05 1.69288E-07-1.81706E-18 1.95006E-18
 -1      2788 9.52888E-05-2.76036E-05-2.90024E-05-2.05613E-06 2.98885E-19-2.56634E-19
 -1      2789 9.52259E-05-2.74212E-05-2.90419E-05-1.51569E-06 2.37475E-19-1.44290E-19
 -1      2790 9.54960E-05-2.74273E-05-2.91827E-05-2.34516E-06 3.60323E-19-4.63255E-19
 -1      2791 9.63237E-05-2.82235E-05-2.91762E-05-4.45811E-06 2.01839E-19 2.75584E-19
 -1      2792 9.59563E-05-2.81009E-05-2.90787E-05-4.13512E-06 3.05206E-19 1.37223E-20
 -1      2793 9.69659E-05-2.84407E-05-2.93586E-05-5.12114E-06 5.54585E-19 1.43878E-19
 -1      2794 9.65108E-05-2.82866E-05-2.92382E-05-4.81667E-06 4.53241E-19 3.12425E-19
 -1      2795 9.61188E-05-2.79704E-05-2.92131E-05-4.96955E-06 2.50204E-19 2.83593E-19
 -1      2796 9.77778E-05-2.87630E-05-2.95697E-05-5.73998E-06 4.77598E-19 2.50448E-19
 -1      2797 9.72303E-05-2.85462E-05-2.94352E-05-5.46617E-06 5.00706E-19 1.62536E-19
 -1      2798 9.65734E-05-2.81559E-05-2.93285E-05-5.71251E-06 5.03500E-19 1.55367E-19
 -1      2799 9.87974E-05-2.92717E-05-2.97918E-05-6.25730E-06 4.32666E-19 2.76985E-19
 -1      2800 9.81470E-05-2.89527E-05-2.96520E-05-6.05262E-06 5.35332E-19 2.31366E-19
 -1      2801 9.72076E-05-2.84818E-05-2.94619E-05-6.40933E-06 5.70609E-19 3.15746E-19
 -1      2802 1.00083E-04-3.00662E-05-3.00075E-05-6.55695E-06 1.00660E-19 7.76305E-19
 -1      2803 9.93154E-05-2.95989E-05-2.98719E-05-6.49035E-06 3.77538E-19 5.60658E-19
 -1      2804 9.80927E-05-2.90604E-05-2.95961E-05-6.99834E-06 2.57330E-19 4.55515E-19
 -1      2805 1.01707E-04-3.12524E-05-3.02039E-05-6.45544E-06-1.78341E-19 5.37288E-19
 -1      2806 1.00811E-04-3.05935E-05-3.00805E-05-6.62832E-06-3.15387E-20 6.00385E-19
 -1      2807 9.93346E-05-3.00276E-05-2.97188E-05-7.35605E-06 6.67842E-20 1.21858E-18
 -1      2808 1.03738E-04-3.29025E-05-3.03792E-05-5.70075E-06-1.75304E-20 3.76754E-19
 -1      2809 1.02720E-04-3.20365E-05-3.02715E-05-6.24150E-06 1.26282E-20 4.02957E-19
 -1      2810 1.01070E-04-3.15238E-05-2.98285E-05-7.28398E-06 4.91070E-20 6.01420E-19
 -1      2811 1.06175E-04-3.49626E-05-3.05558E-05-3.99676E-06 2.31735E-19 2.88560E-19
 -1      2812 1.05093E-04-3.39554E-05-3.04565E-05-5.03557E-06-6.26527E-20 3.71314E-19
 -1      2813 1.03437E-04-3.36340E-05-2.99463E-05-6.49766E-06 2.49556E-20 5.50548E-19
 -1      2814 1.08839E-04-3.70994E-05-3.07954E-05-1.09801E-06-9.31074E-20 1.03307E-18
 -1      2815 1.07845E-04-3.61744E-05-3.06797E-05-2.70061E-06 9.96761E-20 4.69850E-19
 -1      2816 1.06480E-04-3.62506E-05-3.01321E-05-4.64059E-06-1.76234E-19 3.68815E-19
 -1      2817 1.11229E-04-3.85463E-05-3.12039E-05 2.97967E-06-3.75720E-19 1.40169E-18
 -1      2818 1.10609E-04-3.81443E-05-3.10292E-05 9.28826E-07-1.49922E-20 1.48329E-18
 -1      2819 1.09973E-04-3.88686E-05-3.04999E-05-1.39118E-06-3.37519E-19 1.16376E-18
 -1      2820 1.12459E-04-3.80819E-05-3.19059E-05 7.61695E-06-3.09765E-19 9.16017E-19
 -1      2821 1.12599E-04-3.88244E-05-3.16245E-05 5.57233E-06-5.32848E-19 1.05292E-18
 -1      2822 1.13219E-04-4.04090E-05-3.12123E-05 3.28080E-06-1.82943E-19 1.01545E-18
 -1      2823 1.11624E-04-3.46545E-05-3.29567E-05 1.10993E-05-3.59344E-20 5.70457E-19
 -1      2824 1.12692E-04-3.68736E-05-3.25595E-05 9.96968E-06-5.20973E-19 3.39130E-19
 -1      2825 1.14904E-04-3.92038E-05-3.24183E-05 8.53077E-06 4.13177E-21 5.63340E-19
 -1      2826 1.08694E-04-2.87222E-05-3.41986E-05 1.09227E-05 1.39389E-18 9.06180E-19
 -1      2827 1.10297E-04-3.17991E-05-3.37706E-05 1.17770E-05 1.02604E-18 8.83500E-19
 -1      2828 1.13785E-04-3.41089E-05-3.41013E-05 1.21756E-05 1.28312E-19 3.05216E-19
 -1      2829 1.05459E-04-2.33005E-05-3.51825E-05 5.81314E-06 1.39563E-18 4.39137E-19
 -1      2830 1.06705E-04-2.55824E-05-3.48993E-05 8.79745E-06 1.55549E-18 5.50206E-19
 -1      2831 1.10388E-04-2.69533E-05-3.58001E-05 1.10072E-05 1.58947E-18 1.21093E-19
 -1      2832 1.04651E-04-2.21530E-05-3.54429E-05-2.49941E-06 7.31863E-19 7.40002E-19
 -1      2833 1.04653E-04-2.20327E-05-3.54576E-05 1.31394E-06 7.20269E-19 4.15211E-19
 -1      2834 1.07318E-04-2.11985E-05-3.70103E-05 4.01590E-06 1.06657E-18 4.20472E-19
 -1      2835 1.07159E-04-2.64026E-05-3.47787E-05-9.51389E-06 4.02896E-19 2.98126E-19
 -1      2836 1.05879E-04-2.38764E-05-3.50926E-05-6.92668E-06 7.08219E-19 8.74747E-19
 -1      2837 1.07595E-04-2.12447E-05-3.69731E-05-5.67228E-06 4.66411E-19 6.56814E-19
 -1      2838 1.10833E-04-3.26079E-05-3.36397E-05-1.20179E-05 4.58857E-19-1.05552E-19
 -1      2839 1.09148E-04-2.94940E-05-3.40645E-05-1.14349E-05 6.16216E-19 5.49702E-19
 -1      2840 1.10695E-04-2.72503E-05-3.57557E-05-1.18849E-05 8.38563E-19 6.58654E-19
 -1      2841 1.12887E-04-3.72860E-05-3.24550E-05-9.61839E-06 1.96677E-19-8.15051E-19
 -1      2842 1.11921E-04-3.53000E-05-3.28329E-05-1.08961E-05 5.86774E-19-1.24321E-19
 -1      2843 1.14272E-04-3.51559E-05-3.38921E-05-1.20820E-05 7.85497E-19 9.10455E-19
 -1      2844 1.12529E-04-3.88385E-05-3.15761E-05-5.14360E-06-2.61626E-19-3.21948E-19
 -1      2845 1.12483E-04-3.82718E-05-3.18352E-05-7.21686E-06 2.47261E-20-6.89956E-19
 -1      2846 1.14852E-04-3.94978E-05-3.22625E-05-8.05811E-06 7.79965E-20-7.83373E-20
 -1      2847 1.10393E-04-3.78893E-05-3.10404E-05-6.42114E-07-8.58448E-20-4.08066E-19
 -1      2848 1.11059E-04-3.84012E-05-3.11932E-05-2.62022E-06-5.35803E-19 5.51638E-20
 -1      2849 1.12914E-04-4.02859E-05-3.11366E-05-2.83655E-06-3.81385E-19 5.91109E-19
 -1      2850 1.07628E-04-3.58175E-05-3.07387E-05 2.72829E-06-6.51867E-19-6.63223E-19
 -1      2851 1.08619E-04-3.67791E-05-3.08369E-05 1.24362E-06-9.10130E-20-4.69355E-19
 -1      2852 1.09567E-04-3.84659E-05-3.05014E-05 1.59657E-06-7.48971E-20 5.55418E-19
 -1      2853 1.04972E-04-3.36163E-05-3.05501E-05 4.79031E-06-5.19448E-19 1.47877E-19
 -1      2854 1.06012E-04-3.46096E-05-3.06350E-05 3.87477E-06-8.37426E-19-5.27200E-19
 -1      2855 1.06129E-04-3.57676E-05-3.01886E-05 4.54355E-06-1.17181E-18 4.94513E-19
 -1      2856 1.02728E-04-3.17607E-05-3.03931E-05 5.75358E-06-3.10720E-19 8.51616E-19
 -1      2857 1.03683E-04-3.25939E-05-3.04865E-05 5.32715E-06-1.77246E-19 6.33237E-19
 -1      2858 1.03210E-04-3.31928E-05-3.00372E-05 6.12293E-06-6.08819E-19 1.41955E-18
 -1      2859 1.00955E-04-3.03892E-05-3.02291E-05 5.92861E-06-3.97638E-19 1.39401E-18
 -1      2860 1.01777E-04-3.10106E-05-3.03365E-05 5.85792E-06-4.57658E-20 1.31444E-18
 -1      2861 1.00971E-04-3.11561E-05-2.99425E-05 6.67302E-06-4.68339E-19 1.00833E-18
 -1      2862 9.95916E-05-2.94625E-05-3.00481E-05 5.60574E-06-8.10358E-21 1.03312E-18
 -1      2863 1.00278E-04-2.98917E-05-3.01658E-05 5.76250E-06-7.03936E-20 1.53140E-18
 -1      2864 9.93484E-05-2.97322E-05-2.98503E-05 6.54109E-06-3.84354E-19 7.82918E-19
 -1      2865 9.85509E-05-2.88810E-05-2.98553E-05 5.00905E-06-3.52273E-19 1.57956E-18
 -1      2866 9.91162E-05-2.91607E-05-2.99761E-05 5.29117E-06-3.50825E-19 1.50689E-18
 -1      2867 9.82017E-05-2.88287E-05-2.97410E-05 6.00709E-06-1.15573E-19 2.31568E-19
 -1      2868 9.77537E-05-2.85429E-05-2.96609E-05 4.29516E-06 1.03498E-19 1.11938E-18
 -1      2869 9.82150E-05-2.87157E-05-2.97779E-05 4.62999E-06 2.44217E-19 1.40069E-18
 -1      2870 9.73943E-05-2.83099E-05-2.96142E-05 5.27115E-06 3.15584E-19 1.23770E-18
 -1      2871 9.71393E-05-2.83655E-05-2.94748E-05 3.56536E-06 1.09176E-18 2.93285E-19
 -1      2872 9.75126E-05-2.84660E-05-2.95828E-05 3.90569E-06 1.99388E-19 6.34477E-19
 -1      2873 9.68203E-05-2.80512E-05-2.94772E-05 4.46719E-06 7.48629E-19 4.22661E-19
 -1      2874 9.66637E-05-2.82885E-05-2.93045E-05 2.87983E-06 4.32360E-19 1.14851E-19
 -1      2875 9.69629E-05-2.83421E-05-2.94002E-05 3.19777E-06 1.33046E-18 1.29402E-18
 -1      2876 9.64056E-05-2.79562E-05-2.93390E-05 3.67935E-06 4.36458E-19 7.02769E-19
 -1      2877 9.62956E-05-2.82711E-05-2.91543E-05 2.27002E-06-1.97657E-20 4.02812E-19
 -1      2878 9.65325E-05-2.82952E-05-2.92363E-05 2.55129E-06 2.49736E-19 6.46471E-19
 -1      2879 9.61007E-05-2.79572E-05-2.92073E-05 2.95610E-06 4.73029E-19 1.38767E-18
 -1      2880 9.60116E-05-2.82865E-05-2.90260E-05 1.74839E-06-9.41958E-19-6.26895E-20
 -1      2881 9.61967E-05-2.82929E-05-2.90943E-05 1.98766E-06-5.19194E-19 5.98786E-19
 -1      2882 9.58735E-05-2.80092E-05-2.90872E-05 2.32137E-06-2.47380E-19 1.84209E-18
 -1      2883 9.57944E-05-2.83180E-05-2.89193E-05 1.31554E-06-2.02989E-19 1.84862E-19
 -1      2884 9.59367E-05-2.83143E-05-2.89748E-05 1.51299E-06-9.31699E-19-6.72610E-19
 -1      2885 9.57026E-05-2.80839E-05-2.89816E-05 1.78294E-06-8.28651E-19 1.08164E-18
 -1      2886 9.56300E-05-2.83554E-05-2.88327E-05 9.65265E-07 5.13703E-19-2.96087E-19
 -1      2887 9.57376E-05-2.83465E-05-2.88767E-05 1.12417E-06 4.38787E-19 2.08192E-19
 -1      2888 9.55738E-05-2.81644E-05-2.88916E-05 1.33855E-06 1.18957E-19 5.84098E-19
 -1      2889 9.55074E-05-2.83929E-05-2.87639E-05 6.87963E-07 1.05841E-18-4.16367E-19
 -1      2890 9.55871E-05-2.83819E-05-2.87980E-05 8.13080E-07 1.02929E-18-2.51617E-19
 -1      2891 9.54769E-05-2.82413E-05-2.88168E-05 9.80267E-07 6.92465E-19-5.67594E-19
 -1      2892 9.54174E-05-2.84274E-05-2.87103E-05 4.72925E-07 1.57487E-18 5.50716E-19
 -1      2893 9.54751E-05-2.84160E-05-2.87363E-05 5.69377E-07 1.03367E-18-1.29173E-19
 -1      2894 9.54042E-05-2.83098E-05-2.87561E-05 6.97437E-07 8.91131E-19-8.83392E-19
 -1      2895 9.53538E-05-2.84574E-05-2.86694E-05 3.10345E-07 1.89835E-18 1.38823E-18
 -1      2896 9.53935E-05-2.84473E-05-2.86887E-05 3.81878E-07 2.27017E-18 9.89269E-19
 -1      2897 9.53495E-05-2.83680E-05-2.87076E-05 4.78823E-07 1.79934E-18-8.23101E-19
 -1      2898 9.53058E-05-2.84699E-05-2.86431E-05 2.08258E-07-5.60709E-19 1.08319E-18
 -1      2899 9.53322E-05-2.84600E-05-2.86576E-05 2.62232E-07 6.28357E-19 1.23586E-18
 -1      2900 9.53045E-05-2.84017E-05-2.86745E-05 3.33678E-07 1.15940E-18 7.18069E-19
 -1      2901 9.52705E-05-2.84201E-05-2.86525E-05 2.40337E-07-1.77739E-18 1.89076E-19
 -1      2902 1.19197E-04-5.81580E-05-2.63177E-05 2.64690E-05-1.92552E-18-9.40207E-20
 -1      2903 1.02889E-04-5.16937E-05-2.15155E-05 3.29128E-05-2.79574E-18-2.87171E-19
 -1      2904 9.50448E-05-2.81861E-05-2.86544E-05 1.90070E-08 6.72251E-19 1.33816E-18
 -1      2905 9.50504E-05-2.81922E-05-2.86539E-05 5.07671E-08 1.40794E-18-9.28244E-20
 -1      2906 9.52775E-05-2.84691E-05-2.86310E-05-1.55879E-07-1.57750E-18 7.77401E-19
 -1      2907 9.52666E-05-2.84796E-05-2.86229E-05-1.27519E-07-1.85031E-18 7.59648E-19
 -1      2908 9.52585E-05-2.84238E-05-2.86443E-05-2.02890E-07-1.74978E-18 4.67444E-19
 -1      2909 9.51027E-05-2.82566E-05-2.86495E-05 1.41105E-07 7.45552E-19-1.65177E-18
 -1      2910 9.51264E-05-2.82827E-05-2.86468E-05 1.56533E-07 1.74483E-18-2.26983E-18
 -1      2911 9.50508E-05-2.81922E-05-2.86541E-05-5.34251E-08 4.39310E-19 7.32182E-19
 -1      2912 9.50449E-05-2.81860E-05-2.86545E-05-2.17195E-08 2.61112E-19 9.41853E-19
 -1      2913 9.50052E-05-2.81194E-05-2.86640E-05-1.28629E-09 1.07759E-18 2.46865E-19
 -1      2914 9.50631E-05-2.82087E-05-2.86529E-05 8.79713E-08 9.58580E-19-1.85184E-18
 -1      2915 9.50793E-05-2.82260E-05-2.86513E-05 1.13928E-07 1.21399E-18-1.16102E-18
 -1      2916 9.50611E-05-2.81842E-05-2.86605E-05 1.52515E-07 1.56046E-18-1.36985E-18
 -1      2917 9.50197E-05-2.81363E-05-2.86631E-05 8.27584E-08 1.45159E-18-8.10758E-19
 -1      2918 9.50796E-05-2.82251E-05-2.86518E-05-1.15348E-07 1.28749E-18 1.33291E-18
 -1      2919 9.50635E-05-2.82081E-05-2.86533E-05-8.99530E-08 2.77448E-19 8.16467E-19
 -1      2920 9.50200E-05-2.81356E-05-2.86635E-05-8.46188E-08 7.21750E-19 7.28902E-19
 -1      2921 9.51271E-05-2.82819E-05-2.86476E-05-1.57657E-07 1.52680E-18 1.10961E-18
 -1      2922 9.51032E-05-2.82556E-05-2.86501E-05-1.42500E-07 1.67707E-18 1.97764E-18
 -1      2923 9.50613E-05-2.81826E-05-2.86613E-05-1.53768E-07 1.33002E-18 2.00403E-18
 -1      2924 9.51840E-05-2.83548E-05-2.86410E-05-1.70910E-07 1.76094E-19-9.36013E-19
 -1      2925 9.51578E-05-2.83226E-05-2.86447E-05-1.70295E-07 1.46320E-18-3.33052E-19
 -1      2926 9.51224E-05-2.82544E-05-2.86570E-05-1.97305E-07 1.29820E-18 7.71630E-19
 -1      2927 9.44495E-05-2.07454E-05-3.16217E-05-7.66979E-06-8.16728E-19-2.63254E-19
 -1      2928 9.48680E-05-2.24960E-05-3.10379E-05-5.76874E-06-7.90492E-19-1.93164E-19
 -1      2929 8.29961E-05-4.23235E-05-1.75672E-05 3.82504E-05-2.68044E-18-7.47507E-20
 -1      2930 6.81910E-05-3.33048E-05-1.43216E-05 3.61543E-05-2.29435E-18 1.29130E-18
 -1      2931 5.13397E-05-2.35507E-05-1.17415E-05 3.08627E-05-1.13037E-18 3.35499E-18
 -1      2932 3.85147E-05-1.56865E-05-9.11774E-06 1.85069E-05-7.98408E-19 4.66398E-18
 -1      2933 3.15188E-05-1.23089E-05-7.90479E-06 5.89319E-06 5.17537E-19 4.30250E-18
 -1      2934 3.22824E-05-1.29323E-05-7.71160E-06-8.48447E-06 5.86782E-19 3.75299E-18
 -1      2935 9.52489E-05-2.72041E-05-2.91595E-05-8.41772E-07 2.44558E-19-1.14667E-19
 -1      2936 9.53140E-05-2.69226E-05-2.92838E-05-8.20823E-08 4.31530E-19-4.30057E-20
 -1      2937 9.54836E-05-2.69859E-05-2.93676E-05-1.07600E-06 2.59862E-19-2.87419E-19
 -1      2938 9.58316E-05-2.80477E-05-2.90413E-05-3.75834E-06 4.20094E-19-3.36310E-19
 -1      2939 9.55541E-05-2.79311E-05-2.89761E-05-3.40574E-06 2.89553E-19-4.21947E-19
 -1      2940 9.55974E-05-2.76801E-05-2.91162E-05-3.34202E-06 3.47428E-19-4.38483E-19
 -1      2941 9.58010E-05-2.78366E-05-2.91350E-05-4.19085E-06 1.10102E-19-4.76141E-20
 -1      2942 9.54192E-05-2.39066E-05-3.06311E-05-4.43619E-06-7.65754E-19-1.45914E-19
 -1      2943 9.53748E-05-2.48508E-05-3.02389E-05-2.84379E-06-7.04007E-19-1.91983E-19
 -1      2944 9.53165E-05-2.43971E-05-3.03887E-05-2.47856E-06-7.12771E-19-3.03522E-19
 -1      2945 9.46668E-05-2.21110E-05-3.10897E-05-4.95445E-06-7.61083E-19-3.97454E-19
 -1      2946 9.09432E-05-1.55690E-05-3.23298E-05 4.42053E-06 7.99594E-19-7.29808E-19
 -1      2947 9.05324E-05-1.50107E-05-3.23900E-05 3.56096E-06 6.40122E-19-9.06307E-19
 -1      2948 9.13988E-05-1.64738E-05-3.20934E-05 2.75527E-06 6.32891E-19-8.63951E-19
 -1      2949 9.22286E-05-1.76901E-05-3.19241E-05 4.02346E-06 7.56925E-19-4.90791E-19
 -1      2950 9.53440E-05-2.65230E-05-2.94959E-05 8.53569E-07 6.46633E-19-5.87137E-20
 -1      2951 9.55255E-05-2.60420E-05-2.97421E-05 1.97985E-06 6.63654E-19 6.25679E-20
 -1      2952 9.54538E-05-2.48015E-05-3.02790E-05 2.99439E-06 7.97874E-19-1.97852E-19
 -1      2953 9.55078E-05-2.61961E-05-2.97137E-05 6.37409E-07 5.87083E-19-1.41052E-19
 -1      2954 1.29790E-04-1.79213E-05-4.84346E-05 1.08997E-05 2.25321E-18 9.49100E-19
 -1      2955 1.24981E-04-1.18218E-05-4.91888E-05 6.56608E-06 1.98608E-18 6.07270E-19
 -1      2956 9.04898E-05-1.49489E-05-3.23977E-05-3.50312E-06-3.42911E-19-8.84660E-19
 -1      2957 9.08927E-05-1.54936E-05-3.23394E-05-4.36039E-06-4.84945E-19-8.73048E-19
 -1      2958 3.76333E-05-1.74189E-05-8.16730E-06-2.03353E-05 2.78674E-19 1.16446E-18
 -1      2959 4.87116E-05-2.47486E-05-9.89294E-06-3.13131E-05 7.69953E-19-1.06578E-18
 -1      2960 1.00024E-04-5.16257E-05-2.01233E-05-3.44930E-05 2.06782E-18-1.07732E-18
 -1      2961 1.17356E-04-5.83989E-05-2.57466E-05-2.67954E-05 7.02296E-19-6.09890E-19
 -1      2962 9.52502E-05-2.84553E-05-2.86265E-05-1.38700E-07-1.80986E-18 1.47778E-18
 -1      2963 1.37282E-04-4.14844E-05-4.15766E-05-7.80322E-06 5.06843E-19 4.58562E-19
 -1      2964 1.38596E-04-4.98853E-05-3.81351E-05-4.60906E-07 7.24213E-20-3.52789E-19
 -1      2965 1.36439E-04-3.51694E-05-4.36183E-05 1.03219E-05 1.75166E-18 1.55918E-18
 -1      2966 1.33558E-04-2.57685E-05-4.69258E-05 1.15840E-05 2.23934E-18 1.14074E-18
 -1      2967 1.25938E-04-2.32311E-05-4.43072E-05 1.25498E-05 1.82366E-18 8.47245E-19
 -1      2968 1.36091E-04-5.34606E-05-3.52939E-05-3.82559E-06 8.69916E-19 1.89238E-18
 -1      2969 1.38323E-04-4.63099E-05-4.01252E-05 3.86728E-06 1.24074E-18 2.11398E-18
 -1      2970 1.17028E-04-5.70761E-05-2.52489E-05-2.66303E-05-8.47192E-19 4.42442E-19
 -1      2971 1.29292E-04-5.88738E-05-3.07049E-05-1.68441E-05 1.63583E-19 1.21306E-18
 -1      2972 8.42954E-05-4.43907E-05-1.65199E-05-3.89425E-05-1.39093E-18-1.09903E-18
 -1      2973 9.94487E-05-5.18619E-05-2.06805E-05-3.65710E-05-1.16827E-18-7.47983E-19
 -1      2974 5.04263E-05-2.67847E-05-9.58312E-06-3.34095E-05-5.15631E-19-2.28042E-18
 -1      2975 6.65432E-05-3.57923E-05-1.30368E-05-3.96206E-05-8.90867E-19-1.68708E-18
 -1      2976 3.28329E-05-1.46350E-05-7.40455E-06-1.43290E-05 3.38840E-19-2.98706E-18
 -1      2977 4.00335E-05-2.00859E-05-8.08496E-06-2.65509E-05-3.54695E-20-2.80198E-18
 -1      2978 5.26364E-05-2.31842E-05-1.20018E-05-2.84101E-05-4.34634E-19-2.17624E-18
 -1      2979 3.65487E-05-1.51031E-05-8.68870E-06 1.55543E-05 8.29986E-19-1.76056E-18
 -1      2980 3.18282E-05-1.23130E-05-7.72871E-06 2.70560E-07 7.47454E-19-2.60547E-18
 -1      2981 9.21119E-05-1.65052E-05-3.24114E-05-8.48763E-06-8.39084E-19-5.38647E-19
 -1      2982 1.39651E-04-5.30645E-05-3.77894E-05-1.50505E-06 7.35860E-20 2.73433E-18
 -1      2983 1.35241E-04-5.86313E-05-3.25474E-05 9.32157E-06 1.04868E-18 1.90169E-18
 -1      2984 9.80918E-05-5.20195E-05-1.96926E-05 3.72469E-05 5.75771E-19 1.51206E-18
 -1      2985 8.23032E-05-4.43413E-05-1.59124E-05 3.87673E-05 1.03507E-18 5.32995E-19
 -1      2986 1.07781E-04-5.41136E-05-2.26489E-05 3.06852E-05 8.22998E-19 1.86672E-18
 -1      2987 6.20895E-05-3.28030E-05-1.19716E-05-3.59843E-05 1.26896E-18-1.10548E-18
 -1      2988 7.89140E-05-4.22780E-05-1.58031E-05-3.92080E-05 1.63964E-18-1.62969E-18
 -1      2989 6.14863E-05-2.79270E-05-1.37766E-05-3.11111E-05 1.67983E-18-1.92848E-18
 -1      2990 1.35724E-04-5.54389E-05-3.48069E-05 8.39108E-06-3.12926E-19-2.68509E-19
 -1      2991 1.28509E-04-5.80084E-05-3.01452E-05 1.68420E-05-1.11962E-18-1.06620E-19
 -1      2992 1.34614E-04-5.25448E-05-3.51917E-05 1.18647E-06-8.44290E-19-5.58089E-19
 -1      2993 1.23875E-04-9.15956E-06-4.97891E-05-9.77508E-07 1.78343E-18-2.60109E-19
 -1      2994 1.26459E-04-1.26513E-05-4.92279E-05-7.90973E-06 1.26144E-18-6.64603E-19
 -1      2995 1.35051E-04-3.91430E-05-4.15114E-05 1.34615E-05 5.80006E-19-9.64347E-19
 -1      2996 1.25868E-04-3.97656E-05-3.70244E-05 1.37721E-05 2.35475E-19-1.84638E-18
 -1      2997 1.27332E-04-4.46072E-05-3.56034E-05 1.20020E-05 2.20599E-19-9.78958E-19
 -1      2998 1.37552E-04-5.02649E-05-3.75774E-05 7.28246E-06 8.93937E-19-2.52522E-19
 -1      2999 9.13993E-05-1.62225E-05-3.22401E-05-5.02870E-06-6.09423E-19-8.07151E-19
 -1      3000 9.19529E-05-1.69944E-05-3.21473E-05-5.82059E-06-7.06842E-19-8.05765E-19
 -1      3001 9.21667E-05-1.75946E-05-3.19371E-05-3.98729E-06-5.04879E-19-7.43877E-19
 -1      3002 9.07198E-05-1.55167E-05-3.22154E-05 2.05886E-08 5.73048E-20-7.09355E-19
 -1      3003 8.96959E-05-1.38596E-05-3.25214E-05-3.32545E-07 1.11493E-20-8.20169E-19
 -1      3004 8.97686E-05-1.39528E-05-3.25123E-05-1.19471E-06-8.34356E-20-9.12602E-19
 -1      3005 1.33302E-04-4.09545E-05-3.97482E-05 9.72261E-06 1.04894E-18 1.71323E-18
 -1      3006 9.25960E-05-4.57535E-05-1.96425E-05-3.36080E-05 1.83065E-18-1.16266E-18
 -1      3007 9.44714E-05-2.12721E-05-3.13773E-05 6.59379E-06 1.03779E-18-1.82344E-19
 -1      3008 1.22591E-04-1.81278E-05-4.51612E-05-1.04785E-05 1.44398E-18-1.17166E-18
 -1      3009 1.33006E-04-5.24193E-05-3.46001E-05 3.15469E-06 1.43221E-18-7.18919E-19
 -1      3010 1.32177E-04-2.39199E-05-4.69220E-05-1.35849E-05-1.64039E-18 1.44684E-18
 -1      3011 9.51219E-05-2.82561E-05-2.86560E-05 1.95918E-07 1.05324E-18-2.17258E-18
 -1      3012 9.51556E-05-2.83228E-05-2.86439E-05 1.68798E-07 1.47828E-18-2.24912E-18
 -1      3013 9.51825E-05-2.83529E-05-2.86404E-05 1.72191E-07 5.36078E-19-2.07079E-18
 -1      3014 9.75739E-05-4.67147E-05-2.13979E-05 3.13011E-05-3.18140E-18-2.43734E-19
 -1      3015 1.23881E-04-5.70765E-05-2.85203E-05 1.71918E-05-1.97814E-18-2.64168E-19
 -1      3016 9.52289E-05-2.84149E-05-2.86351E-05 1.67453E-07-1.84551E-18-9.36370E-19
 -1      3017 1.29243E-04-5.84636E-05-3.01931E-05 1.31836E-05 1.09363E-18 1.77231E-18
 -1      3018 9.52301E-05-2.84220E-05-2.86316E-05-1.52063E-07-1.33089E-18-2.68388E-19
 -1      3019 3.99630E-05-1.35370E-05-1.07207E-05-6.67096E-06 6.19717E-19-2.59806E-18
 -1      3020 9.47028E-05-2.22272E-05-3.10519E-05 4.98829E-06 9.45240E-19-1.75648E-19
 -1      3021 6.40835E-05-2.69843E-05-1.53684E-05 2.99266E-05-1.76130E-18 1.63779E-18
 -1      3022 7.82781E-05-3.85743E-05-1.65834E-05-3.65689E-05-1.04492E-18-1.27219E-18
 -1      3023 1.10300E-04-5.36531E-05-2.40088E-05-2.80276E-05-1.41952E-18 1.52042E-19
 -1      3024 4.37225E-05-1.40990E-05-1.20517E-05 1.11658E-05 4.78838E-19 3.89296E-18
 -1      3025 4.29598E-05-1.50349E-05-1.13255E-05-1.38034E-05 1.09913E-18 2.25215E-18
 -1      3026 1.37532E-04-3.33385E-05-4.55421E-05-1.39391E-05-9.79382E-19 1.81329E-18
 -1      3027 1.37206E-04-4.07483E-05-4.14308E-05-1.23751E-05-4.46175E-19 2.40123E-18
 -1      3028 1.19944E-04-1.25256E-05-4.64644E-05 2.84913E-06 1.38257E-18-2.79058E-19
 -1      3029 7.52265E-05-3.86799E-05-1.52324E-05 3.71581E-05 1.23836E-18 2.01488E-19
 -1      3030 6.81590E-05-3.14537E-05-1.53081E-05 3.35234E-05 1.10940E-18 1.86771E-19
 -1      3031 8.64357E-05-4.26638E-05-1.87608E-05 3.45361E-05 1.20835E-18 7.65506E-19
 -1      3032 8.99285E-05-1.41776E-05-3.24862E-05-1.92301E-06-1.40262E-19-7.43036E-19
 -1      3033 9.01598E-05-1.44802E-05-3.24554E-05-2.78833E-06-2.68453E-19-7.31769E-19
 -1      3034 9.13587E-05-1.64157E-05-3.21013E-05-2.70869E-06-2.54443E-19-7.65169E-19
 -1      3035 9.08747E-05-1.57321E-05-3.21889E-05-1.35686E-06-1.31205E-19-7.42989E-19
 -1      3036 1.29070E-04-4.89032E-05-3.45499E-05 7.03599E-06 1.33731E-18 1.12483E-19
 -1      3037 9.28546E-05-1.81925E-05-3.19959E-05-6.87817E-06-7.70034E-19-6.53099E-19
 -1      3038 1.23270E-04-5.73442E-05-2.81199E-05-1.72354E-05 1.03645E-18-1.05117E-18
 -1      3039 1.32812E-04-3.65407E-05-4.16714E-05-1.16963E-05 4.50357E-19-3.42360E-19
 -1      3040 1.30677E-04-4.12839E-05-3.84377E-05-1.00448E-05-2.74756E-20-5.66877E-19
 -1      3041 1.25049E-04-3.06392E-05-4.09477E-05-1.41365E-05 8.80808E-19-8.52645E-19
 -1      3042 1.31092E-04-5.53635E-05-3.24191E-05-7.02612E-06 1.48840E-19 2.27222E-18
 -1      3043 4.44722E-05-1.80291E-05-1.06750E-05 2.09182E-05 1.04603E-18-9.40101E-19
 -1      3044 4.59351E-05-1.47035E-05-1.30805E-05 1.35590E-05 9.86343E-19-1.08399E-18
 -1      3045 5.40483E-05-2.18426E-05-1.34671E-05 2.51980E-05 1.20115E-18-4.06046E-19
 -1      3046 9.52316E-05-2.83942E-05-2.86450E-05-2.00113E-07-1.63267E-18-1.45097E-18
 -1      3047 9.52053E-05-2.83766E-05-2.86413E-05-1.81401E-07-3.80261E-19-2.13902E-18
 -1      3048 9.51834E-05-2.83201E-05-2.86546E-05-2.21558E-07 2.32549E-19-2.31315E-18
 -1      3049 9.52369E-05-2.83728E-05-2.86546E-05-2.38349E-07-5.35967E-19-1.82693E-18
 -1      3050 1.16626E-04-1.56725E-05-4.38398E-05-7.81493E-06 1.25022E-18-7.17874E-19
 -1      3051 1.20285E-04-2.16510E-05-4.23775E-05-1.31481E-05 1.30803E-18-1.15350E-18
 -1      3052 9.42219E-05-2.14438E-05-3.12133E-05 4.19553E-06 8.84888E-19-1.44665E-19
 -1      3053 9.36525E-05-2.03960E-05-3.13997E-05 3.86259E-06 8.09749E-19-2.63127E-19
 -1      3054 9.55458E-05-2.60463E-05-2.97750E-05 8.00628E-07-4.54061E-19-3.33809E-19
 -1      3055 9.55337E-05-2.63894E-05-2.96369E-05 1.55772E-06-4.40255E-19-2.67904E-19
 -1      3056 9.54892E-05-2.66300E-05-2.95047E-05 2.19197E-06-5.75266E-19-1.85612E-19
 -1      3057 9.54658E-05-2.67968E-05-2.94289E-05 2.79806E-06-6.62930E-19-4.46280E-19
 -1      3058 9.54174E-05-2.60658E-05-2.97237E-05 1.74136E-06-4.79215E-19-3.34565E-19
 -1      3059 9.53438E-05-2.68674E-05-2.93450E-05 3.33511E-06-4.60619E-19-2.78973E-19
 -1      3060 9.53271E-05-2.69164E-05-2.93151E-05 3.85986E-06-2.95431E-19-1.66438E-19
 -1      3061 9.52575E-05-2.64419E-05-2.94938E-05 2.94383E-06-4.35188E-19-7.60332E-20
 -1      3062 9.51504E-05-2.68701E-05-2.92649E-05 4.35258E-06-5.10905E-20-1.16784E-19
 -1      3063 9.51467E-05-2.68437E-05-2.92666E-05 4.84923E-06-2.12269E-20 1.67828E-19
 -1      3064 9.49670E-05-2.64985E-05-2.93440E-05 3.99575E-06-1.27445E-19-1.22502E-19
 -1      3065 9.49276E-05-2.67224E-05-2.92359E-05 5.34072E-06-1.40617E-19 3.57416E-19
 -1      3066 9.49424E-05-2.66590E-05-2.92563E-05 5.84644E-06-6.15234E-20 4.08080E-19
 -1      3067 9.45792E-05-2.63375E-05-2.92454E-05 4.99227E-06 7.38116E-20 1.61825E-20
 -1      3068 9.46923E-05-2.65044E-05-2.92309E-05 6.36961E-06-1.73163E-19 4.34960E-19
 -1      3069 9.47387E-05-2.64496E-05-2.92569E-05 6.90620E-06 6.95555E-21 4.46749E-19
 -1      3070 9.41166E-05-2.60499E-05-2.91690E-05 6.00978E-06-8.99108E-20 2.05953E-20
 -1      3071 9.44777E-05-2.63146E-05-2.92216E-05 7.48491E-06 1.35579E-19 5.19435E-19
 -1      3072 9.45857E-05-2.63316E-05-2.92397E-05 8.05858E-06-6.92263E-20 4.17242E-19
 -1      3073 9.36085E-05-2.57375E-05-2.90845E-05 7.10698E-06-4.68072E-20 2.08259E-19
 -1      3074 9.43553E-05-2.62930E-05-2.91781E-05 8.70942E-06-2.49911E-19 7.97287E-19
 -1      3075 9.45860E-05-2.64765E-05-2.91742E-05 9.30920E-06-1.47786E-19 8.92969E-19
 -1      3076 9.31124E-05-2.55365E-05-2.89589E-05 8.32923E-06 6.83949E-21 6.48104E-19
 -1      3077 9.44678E-05-2.66498E-05-2.90701E-05 1.00431E-05-1.98655E-19 6.61474E-19
 -1      3078 9.49336E-05-2.71418E-05-2.90326E-05 1.06366E-05 7.33798E-20 5.49377E-19
 -1      3079 9.27432E-05-2.56459E-05-2.87579E-05 9.71506E-06-2.66981E-19 9.14469E-19
 -1      3080 9.50791E-05-2.76986E-05-2.88739E-05 1.14553E-05 2.79558E-19 2.93053E-19
 -1      3081 9.59685E-05-2.87007E-05-2.88000E-05 1.19756E-05 2.98357E-19 3.57192E-19
 -1      3082 9.27203E-05-2.63638E-05-2.84506E-05 1.13013E-05-5.11241E-20 1.79128E-19
 -1      3083 9.66410E-05-2.98795E-05-2.85893E-05 1.28485E-05 3.69898E-19 5.99859E-19
 -1      3084 9.82324E-05-3.16428E-05-2.85009E-05 1.31625E-05 3.76959E-19 4.78322E-19
 -1      3085 9.34374E-05-2.81269E-05-2.80229E-05 1.31075E-05 3.26014E-19 2.36389E-19
 -1      3086 9.98520E-05-3.37255E-05-2.82800E-05 1.39540E-05 2.91182E-19 8.67478E-19
 -1      3087 1.02474E-04-3.64644E-05-2.82523E-05 1.37980E-05 1.45863E-19 7.73776E-19
 -1      3088 9.55528E-05-3.15244E-05-2.75107E-05 1.50559E-05 5.01892E-19 6.40579E-19
 -1      3089 1.05627E-04-3.96507E-05-2.81490E-05 1.40916E-05 4.98889E-20 1.08367E-18
 -1      3090 1.09452E-04-4.32509E-05-2.83519E-05 1.29920E-05 1.25784E-19 7.97084E-19
 -1      3091 1.00066E-04-3.72133E-05-2.70734E-05 1.67478E-05 2.73689E-19 9.14974E-19
 -1      3092 1.14674E-04-4.72987E-05-2.86753E-05 1.17462E-05 1.67519E-19 8.53700E-19
 -1      3093 1.19240E-04-5.05651E-05-2.94398E-05 9.02588E-06 2.38519E-19 8.58713E-19
 -1      3094 1.08268E-04-4.53548E-05-2.71587E-05 1.69412E-05 1.90536E-19 1.19798E-18
 -1      3095 1.26325E-04-5.32120E-05-3.12017E-05 3.83222E-06 7.13079E-19 9.82691E-19
 -1      3096 1.29961E-04-5.28504E-05-3.31683E-05-1.15722E-06 5.75625E-19 1.26060E-18
 -1      3097 1.13573E-04-4.65877E-05-2.87104E-05-1.14019E-05 4.56028E-19 7.35455E-19
 -1      3098 1.09296E-04-4.28659E-05-2.83034E-05-1.31643E-05 2.57667E-19 7.52986E-19
 -1      3099 1.05241E-04-3.91525E-05-2.82759E-05-1.33789E-05-1.03937E-18 1.01099E-18
 -1      3100 1.02036E-04-3.59542E-05-2.82340E-05-1.38321E-05-1.60703E-18 5.47290E-19
 -1      3101 1.03236E-04-4.05384E-05-2.70566E-05-1.68860E-05-2.54388E-19-2.11983E-19
 -1      3102 9.98043E-05-3.33634E-05-2.84319E-05-1.31286E-05-1.20751E-18 5.11327E-19
 -1      3103 9.77772E-05-3.11531E-05-2.85151E-05-1.29297E-05-3.99831E-19 8.33668E-19
 -1      3104 9.70533E-05-3.34935E-05-2.73347E-05-1.54878E-05-1.26002E-18 4.28314E-19
 -1      3105 9.67275E-05-2.95828E-05-2.87431E-05-1.20117E-05-5.01997E-19 1.22815E-18
 -1      3106 9.55646E-05-2.82560E-05-2.88353E-05-1.15055E-05-6.50177E-19 1.31963E-18
 -1      3107 9.40115E-05-2.91175E-05-2.78547E-05-1.34726E-05-3.06722E-19 1.37661E-18
 -1      3108 9.51962E-05-2.74285E-05-2.90201E-05-1.05981E-05-9.95611E-20 1.59611E-18
 -1      3109 9.45701E-05-2.67225E-05-2.90794E-05-9.96413E-06 1.89144E-19 1.89000E-18
 -1      3110 9.27229E-05-2.66588E-05-2.83321E-05-1.14786E-05-2.62020E-19 1.70713E-18
 -1      3111 9.45626E-05-2.63809E-05-2.92042E-05-9.12878E-06-2.39839E-19 1.99648E-18
 -1      3112 9.42443E-05-2.60728E-05-2.92237E-05-8.46184E-06-1.25226E-18 2.00177E-18
 -1      3113 9.24172E-05-2.54868E-05-2.86892E-05-9.67583E-06-1.32588E-19 1.05066E-18
 -1      3114 9.44022E-05-2.60203E-05-2.92941E-05-7.71310E-06-1.78924E-18 1.87975E-18
 -1      3115 9.42473E-05-2.59468E-05-2.92809E-05-7.06541E-06-5.21600E-19 1.01587E-18
 -1      3116 9.26012E-05-2.51154E-05-2.89204E-05-8.08431E-06-9.06973E-19 1.42106E-18
 -1      3117 9.44617E-05-2.60501E-05-2.93094E-05-6.40363E-06-2.25165E-19 6.04651E-19
 -1      3118 9.43873E-05-2.61032E-05-2.92740E-05-5.80478E-06-2.87501E-19-1.47649E-19
 -1      3119 9.29867E-05-2.52001E-05-2.90467E-05-6.68600E-06-7.00802E-19 6.67185E-19
 -1      3120 9.46025E-05-2.62783E-05-2.92734E-05-5.22754E-06-3.11678E-19-8.54613E-20
 -1      3121 9.45646E-05-2.63913E-05-2.92258E-05-4.69335E-06-4.49112E-19-4.37931E-19
 -1      3122 9.34193E-05-2.55179E-05-2.90955E-05-5.46336E-06-8.42598E-19-6.09933E-19
 -1      3123 9.47555E-05-2.65888E-05-2.92070E-05-4.19729E-06-4.55531E-19-6.05360E-19
 -1      3124 9.47327E-05-2.67227E-05-2.91547E-05-3.73427E-06-7.93116E-19-1.71593E-18
 -1      3125 9.38242E-05-2.59324E-05-2.90920E-05-4.40429E-06-7.83198E-19-3.23365E-19
 -1      3126 9.48910E-05-2.69155E-05-2.91260E-05-3.31477E-06-2.51572E-19-1.03927E-18
 -1      3127 9.48740E-05-2.70489E-05-2.90742E-05-2.92303E-06 5.08646E-19-1.42102E-18
 -1      3128 9.41709E-05-2.63643E-05-2.90564E-05-3.49888E-06-2.23243E-19-5.31721E-19
 -1      3129 9.49996E-05-2.72234E-05-2.90414E-05-2.57409E-06 7.51709E-19-1.30761E-18
 -1      3130 9.49847E-05-2.73457E-05-2.89933E-05-2.24958E-06 6.24647E-19-1.67833E-18
 -1      3131 9.44524E-05-2.67712E-05-2.90036E-05-2.73659E-06 8.01841E-19-5.32819E-19
 -1      3132 9.50812E-05-2.74963E-05-2.89602E-05-1.96410E-06 9.40446E-19-1.65456E-18
 -1      3133 9.50674E-05-2.76030E-05-2.89175E-05-1.70033E-06 8.62062E-19-1.10827E-18
 -1      3134 9.46727E-05-2.71326E-05-2.89439E-05-2.10511E-06 1.10714E-18-1.67032E-19
 -1      3135 9.51397E-05-2.77290E-05-2.88864E-05-1.47053E-06 3.42711E-19-8.62855E-19
 -1      3136 9.51271E-05-2.78188E-05-2.88497E-05-1.25986E-06 5.80918E-19-1.34350E-18
 -1      3137 9.48403E-05-2.74416E-05-2.88839E-05-1.59051E-06 9.28408E-19-1.04207E-19
 -1      3138 9.51799E-05-2.79216E-05-2.88217E-05-1.07785E-06 1.77380E-19-2.38419E-18
 -1      3139 9.51685E-05-2.79955E-05-2.87910E-05-9.12398E-07-9.93755E-19-2.22224E-18
 -1      3140 9.49647E-05-2.76984E-05-2.88277E-05-1.17795E-06-1.42588E-19-1.49873E-18
 -1      3141 9.52060E-05-2.80777E-05-2.87666E-05-7.70588E-07-4.62772E-19-1.94221E-18
 -1      3142 9.51960E-05-2.81373E-05-2.87414E-05-6.42869E-07-5.13844E-20-2.56724E-18
 -1      3143 9.50549E-05-2.79070E-05-2.87772E-05-8.52561E-07-2.47006E-19-3.01588E-18
 -1      3144 9.52217E-05-2.82018E-05-2.87207E-05-5.34552E-07 9.89459E-20-2.57144E-18
 -1      3145 9.52135E-05-2.82491E-05-2.87003E-05-4.37817E-07 1.70459E-19-2.76655E-18
 -1      3146 9.51184E-05-2.80734E-05-2.87332E-05-6.00647E-07-1.29142E-19-2.75700E-18
 -1      3147 9.52331E-05-2.82982E-05-2.86847E-05-3.65492E-07-1.62523E-20-2.78843E-18
 -1      3148 9.52257E-05-2.83353E-05-2.86681E-05-2.92879E-07-9.78932E-20-1.32475E-18
 -1      3149 9.51954E-05-2.83047E-05-2.86684E-05-2.88161E-07-7.57735E-19-3.21835E-18
 -1      3150 9.51646E-05-2.82046E-05-2.86975E-05-4.18579E-07 1.00006E-18-3.14893E-18
 -1      3151 9.55892E-05-2.71951E-05-2.93103E-05-2.55602E-06 4.22862E-19-3.88286E-19
 -1      3152 9.55669E-05-2.69944E-05-2.93782E-05-1.97544E-06 3.65739E-19-2.87345E-19
 -1      3153 9.61257E-05-2.77853E-05-2.92802E-05-6.05620E-06 4.19747E-19-9.79029E-20
 -1      3154 9.58601E-05-2.76644E-05-2.92277E-05-5.67954E-06 5.10866E-19-7.68679E-20
 -1      3155 9.58522E-05-2.76415E-05-2.92253E-05-5.25470E-06 3.54324E-19-2.06615E-20
 -1      3156 9.56648E-05-2.75661E-05-2.91855E-05-4.86091E-06 2.09046E-19-1.13048E-20
 -1      3157 9.53532E-05-2.72632E-05-2.91858E-05-5.58780E-06 4.44120E-19-2.04630E-19
 -1      3158 9.73190E-05-2.87189E-05-2.93921E-05-7.51603E-06-2.02407E-19 7.71770E-19
 -1      3159 9.67938E-05-2.83233E-05-2.93411E-05-7.24167E-06 1.68311E-21 2.84095E-19
 -1      3160 9.84894E-05-2.98215E-05-2.94231E-05-8.00714E-06 6.55017E-20 1.12679E-18
 -1      3161 9.77474E-05-2.91693E-05-2.93807E-05-7.87578E-06 1.17858E-19 1.04628E-18
 -1      3162 9.63496E-05-2.84565E-05-2.91124E-05-8.16897E-06-1.89447E-19 4.33634E-19
 -1      3163 1.00288E-04-3.15886E-05-2.94413E-05-8.11346E-06 1.60600E-19 5.97261E-19
 -1      3164 9.92534E-05-3.05979E-05-2.94031E-05-8.23496E-06 1.17748E-19 9.78463E-19
 -1      3165 9.75099E-05-2.97891E-05-2.90489E-05-8.84530E-06 2.40369E-19 7.22032E-19
 -1      3166 1.02926E-04-3.41477E-05-2.94847E-05-7.54593E-06 2.38906E-20 5.35402E-19
 -1      3167 1.01539E-04-3.27832E-05-2.94306E-05-8.07357E-06 1.39133E-19 5.61765E-19
 -1      3168 9.94797E-05-3.19481E-05-2.89828E-05-9.18078E-06 2.06700E-19 6.30041E-19
 -1      3169 1.06519E-04-3.74048E-05-2.96446E-05-5.89075E-06-7.00169E-19 8.65781E-19
 -1      3170 1.04810E-04-3.57805E-05-2.95286E-05-7.01200E-06-4.31047E-19 8.14995E-19
 -1      3171 1.02570E-04-3.50903E-05-2.89791E-05-8.84029E-06-3.48440E-19 9.99778E-19
 -1      3172 1.10864E-04-4.07582E-05-3.00903E-05-2.70142E-06-1.88741E-19 9.64375E-19
 -1      3173 1.09050E-04-3.92739E-05-2.98323E-05-4.55443E-06-2.83199E-19 9.44058E-19
 -1      3174 1.06972E-04-3.90453E-05-2.91799E-05-7.28452E-06-5.83688E-19 1.47963E-18
 -1      3175 1.15097E-04-4.28281E-05-3.10579E-05 2.19118E-06-2.13757E-19 8.54644E-19
 -1      3176 1.13722E-04-4.22715E-05-3.05611E-05-2.85395E-07-2.88971E-19 9.68256E-19
 -1      3177 1.12428E-04-4.29736E-05-2.98346E-05-3.80048E-06-2.81192E-19 1.04137E-18
 -1      3178 1.17536E-04-4.11359E-05-3.28002E-05 8.21620E-06 1.40316E-19 4.87907E-19
 -1      3179 1.17495E-04-4.27917E-05-3.19822E-05 5.83331E-06 1.56466E-19 1.01578E-18
 -1      3180 1.18011E-04-4.52878E-05-3.12897E-05 1.93715E-06 2.85410E-20 1.02158E-18
 -1      3181 1.16591E-04-3.42326E-05-3.52508E-05 1.26220E-05 6.53883E-19 3.02123E-19
 -1      3182 1.18159E-04-3.85933E-05-3.42301E-05 1.15387E-05 2.04370E-19 5.38878E-19
 -1      3183 1.20869E-04-4.22188E-05-3.38790E-05 9.04779E-06 5.90408E-19 5.86160E-19
 -1      3184 1.08878E-04-1.71898E-05-3.95412E-05 2.23974E-06 7.68894E-19 1.65092E-19
 -1      3185 1.09902E-04-1.91916E-05-3.90813E-05 6.89336E-06 1.37473E-18 4.69025E-19
 -1      3186 1.11218E-04-2.16472E-05-3.88140E-05-1.00051E-05 7.18615E-19-2.81413E-19
 -1      3187 1.09812E-04-1.85164E-05-3.93231E-05-5.46006E-06 4.85138E-19-3.71034E-19
 -1      3188 1.18637E-04-3.34887E-05-3.67104E-05-1.35939E-05 7.03805E-19-7.92717E-19
 -1      3189 1.16476E-04-2.81737E-05-3.79600E-05-1.24670E-05 7.33636E-19-8.34208E-19
 -1      3190 1.17240E-04-4.29436E-05-3.17653E-05-5.23921E-06-6.56742E-19 4.80814E-19
 -1      3191 1.17488E-04-4.15733E-05-3.25434E-05-7.68148E-06-1.39243E-19 4.88526E-19
 -1      3192 1.13106E-04-4.18330E-05-3.04703E-05 7.17352E-07-4.81788E-19 8.57632E-19
 -1      3193 1.14583E-04-4.26240E-05-3.09177E-05-1.61466E-06-7.11180E-19 1.22757E-18
 -1      3194 1.17426E-04-4.53139E-05-3.10794E-05-1.19772E-06-1.08338E-18 9.86770E-19
 -1      3195 1.08422E-04-3.86391E-05-2.98395E-05 4.63594E-06-4.56171E-19 1.41366E-18
 -1      3196 1.10262E-04-4.02130E-05-3.00604E-05 2.94208E-06-3.56482E-20 1.57945E-18
 -1      3197 1.11573E-04-4.24128E-05-2.97599E-05 4.08578E-06-6.30120E-19 2.06399E-18
 -1      3198 1.04336E-04-3.51644E-05-2.95915E-05 6.75537E-06-1.29498E-18 1.40558E-18
 -1      3199 1.05993E-04-3.67731E-05-2.96860E-05 5.77754E-06-9.59972E-19 1.79885E-18
 -1      3200 1.06217E-04-3.82610E-05-2.91999E-05 7.14130E-06-1.01810E-18 3.05632E-18
 -1      3201 1.01217E-04-3.22511E-05-2.95220E-05 7.56603E-06-4.62032E-19 6.28260E-19
 -1      3202 1.02536E-04-3.35740E-05-2.95631E-05 7.16024E-06-7.05229E-19 8.90809E-19
 -1      3203 1.02021E-04-3.43802E-05-2.90458E-05 8.43936E-06-6.65158E-19 1.35551E-18
 -1      3204 9.90548E-05-3.01524E-05-2.95098E-05 7.51772E-06-5.18017E-19 7.76280E-19
 -1      3205 1.00028E-04-3.10997E-05-2.95394E-05 7.50084E-06-5.00068E-19 7.74137E-19
 -1      3206 9.90738E-05-3.13336E-05-2.90695E-05 8.55731E-06-8.42269E-19 5.83160E-19
 -1      3207 9.76388E-05-2.87967E-05-2.94943E-05 6.97948E-06 1.56366E-19 3.84827E-19
 -1      3208 9.83286E-05-2.94108E-05-2.95308E-05 7.20166E-06-1.45334E-20 1.04513E-18
 -1      3209 9.72033E-05-2.92628E-05-2.91405E-05 8.03901E-06-1.15394E-19 9.55327E-19
 -1      3210 9.67436E-05-2.80108E-05-2.94540E-05 6.19248E-06-4.57043E-19 4.40302E-19
 -1      3211 9.72263E-05-2.83720E-05-2.95019E-05 6.54401E-06-4.98746E-19-1.33733E-19
 -1      3212 9.60964E-05-2.79998E-05-2.91975E-05 7.20719E-06 9.35507E-20 6.20500E-19
 -1      3213 9.61894E-05-2.76205E-05-2.93875E-05 5.31114E-06 5.39669E-19 6.97946E-19
 -1      3214 9.65288E-05-2.78067E-05-2.94446E-05 5.71675E-06 1.55767E-19 5.23152E-19
 -1      3215 9.54890E-05-2.73268E-05-2.92194E-05 6.25025E-06-1.34931E-19 1.42770E-19
 -1      3216 9.58493E-05-2.74841E-05-2.93021E-05 4.43151E-06 5.16534E-19 8.13716E-19
 -1      3217 9.60914E-05-2.75577E-05-2.93639E-05 4.84219E-06 9.54631E-19 1.14052E-18
 -1      3218 9.51874E-05-2.70492E-05-2.92056E-05 5.27916E-06 4.33217E-19-5.41292E-20
 -1      3219 9.56400E-05-2.74986E-05-2.92069E-05 3.61040E-06-5.05500E-21 1.35131E-18
 -1      3220 9.58160E-05-2.75046E-05-2.92690E-05 3.99636E-06 2.26713E-19 1.12591E-18
 -1      3221 9.50622E-05-2.70165E-05-2.91640E-05 4.35874E-06 4.44889E-19 4.55922E-19
 -1      3222 9.55095E-05-2.75942E-05-2.91101E-05 2.87804E-06-4.96426E-20 2.28837E-18
 -1      3223 9.56396E-05-2.75630E-05-2.91689E-05 3.22314E-06 6.44493E-20 2.14791E-18
 -1      3224 9.50316E-05-2.71227E-05-2.91045E-05 3.52497E-06-3.26356E-19 1.97395E-18
 -1      3225 9.54261E-05-2.77258E-05-2.90177E-05 2.24691E-06-5.18613E-19 2.45423E-18
 -1      3226 9.55236E-05-2.76771E-05-2.90710E-05 2.54430E-06-3.37148E-21 2.82278E-18
 -1      3227 9.50470E-05-2.72968E-05-2.90361E-05 2.79501E-06-2.65647E-19 3.86739E-18
 -1      3228 9.53711E-05-2.78663E-05-2.89335E-05 1.71792E-06-1.25515E-19 6.07097E-19
 -1      3229 9.54446E-05-2.78120E-05-2.89801E-05 1.96678E-06-1.71474E-19 9.30182E-19
 -1      3230 9.50808E-05-2.74944E-05-2.89658E-05 2.17341E-06 5.24529E-19 2.14329E-18
 -1      3231 9.53335E-05-2.80000E-05-2.88596E-05 1.28490E-06 6.35895E-19-6.26310E-19
 -1      3232 9.53890E-05-2.79471E-05-2.88992E-05 1.48809E-06 2.91865E-19-5.77335E-19
 -1      3233 9.51182E-05-2.76891E-05-2.88984E-05 1.65654E-06 8.91568E-19-7.51204E-19
 -1      3234 9.53068E-05-2.81193E-05-2.87966E-05 9.37849E-07 5.53538E-19-7.10930E-19
 -1      3235 9.53486E-05-2.80714E-05-2.88294E-05 1.10018E-06 3.32802E-19-1.03016E-18
 -1      3236 9.51521E-05-2.78666E-05-2.88369E-05 1.23578E-06 5.15165E-19-1.27267E-18
 -1      3237 9.52871E-05-2.82210E-05-2.87441E-05 6.65254E-07 6.90587E-19-8.37652E-19
 -1      3238 9.53183E-05-2.81796E-05-2.87707E-05 7.92272E-07 1.03473E-18-8.72639E-19
 -1      3239 9.51796E-05-2.80207E-05-2.87827E-05 8.99981E-07 6.13258E-19-1.03966E-18
 -1      3240 9.52726E-05-2.83040E-05-2.87012E-05 4.56228E-07 1.27806E-18 6.07476E-19
 -1      3241 9.52952E-05-2.82706E-05-2.87224E-05 5.52334E-07 5.22535E-19-6.28760E-20
 -1      3242 9.51994E-05-2.81493E-05-2.87362E-05 6.37419E-07 3.32272E-20 1.65067E-19
 -1      3243 9.49740E-05-2.80693E-05-2.86736E-05-1.22726E-07 1.15037E-18 1.08892E-18
 -1      3244 9.49571E-05-2.80533E-05-2.86741E-05-8.06412E-08 1.43672E-18 5.23086E-19
 -1      3245 1.30565E-04-5.39908E-05-3.26123E-05-3.93686E-07 1.31016E-18-3.53001E-19
 -1      3246 9.51141E-05-2.82232E-05-2.86675E-05-2.48430E-07 6.22957E-19-6.26340E-19
 -1      3247 9.50749E-05-2.81813E-05-2.86701E-05-2.34031E-07 1.74656E-18 2.80891E-19
 -1      3248 9.49473E-05-2.80425E-05-2.86741E-05-2.37616E-08 1.51328E-18-2.15157E-19
 -1      3249 9.49473E-05-2.80427E-05-2.86740E-05 2.28797E-08 2.07054E-18 5.77667E-19
 -1      3250 9.48997E-05-2.79657E-05-2.86844E-05-6.02603E-08 2.49282E-18-1.69847E-20
 -1      3251 1.27112E-04-5.56821E-05-3.08172E-05 9.25341E-06-1.18497E-18 6.43427E-19
 -1      3252 1.18911E-04-5.42364E-05-2.76702E-05 1.69609E-05-1.66202E-18 6.41465E-19
 -1      3253 1.12908E-04-5.48201E-05-2.49609E-05 2.53052E-05 8.60374E-19 2.27824E-18
 -1      3254 1.02442E-04-5.00278E-05-2.20051E-05 3.05728E-05 8.79008E-19 1.78255E-18
 -1      3255 9.53085E-05-2.39852E-05-3.05697E-05 3.44942E-06 8.53102E-19-1.10554E-19
 -1      3256 9.46565E-05-2.23762E-05-3.09669E-05 3.97057E-06 8.73170E-19-8.20017E-20
 -1      3257 9.48762E-05-2.31122E-05-3.07486E-05 2.77760E-06 7.71843E-19-1.12310E-19
 -1      3258 9.53700E-05-2.48617E-05-3.02271E-05 2.05813E-06 7.74978E-19-1.35670E-19
 -1      3259 9.55737E-05-2.67296E-05-2.95072E-05-1.32756E-06 3.75744E-19-1.32163E-19
 -1      3260 9.55816E-05-2.63819E-05-2.96436E-05-5.65045E-07 4.90913E-19 1.32699E-20
 -1      3261 9.55699E-05-2.64519E-05-2.96272E-05-1.54763E-06 5.04644E-19-1.93788E-19
 -1      3262 4.45549E-05-1.28209E-05-1.34384E-05-7.93735E-06 1.66253E-18 3.06075E-18
 -1      3263 5.05186E-05-1.72585E-05-1.38784E-05-1.96515E-05 1.75317E-18 9.52065E-19
 -1      3264 1.16658E-04-1.54787E-05-4.37416E-05 8.21671E-06 1.26938E-18 5.91123E-19
 -1      3265 1.15122E-04-1.23310E-05-4.43389E-05 8.30945E-08 1.11882E-18-1.23309E-19
 -1      3266 7.23911E-05-3.23992E-05-1.66598E-05-3.29445E-05-1.19029E-18-1.21380E-18
 -1      3267 8.62075E-05-4.10179E-05-1.95588E-05-3.40019E-05-1.33519E-18-7.86100E-19
 -1      3268 9.50330E-05-2.81318E-05-2.86716E-05-2.02322E-07 1.33469E-18 2.69666E-18
 -1      3269 9.50017E-05-2.81013E-05-2.86730E-05-1.70402E-07 1.00528E-18 2.89594E-18
 -1      3270 9.49421E-05-2.80091E-05-2.86840E-05-1.72349E-07 1.52609E-18 2.37778E-18
 -1      3271 9.50182E-05-2.80907E-05-2.86823E-05-2.57607E-07 1.08608E-18 1.58597E-18
 -1      3272 9.65808E-05-2.80974E-05-2.93414E-05-6.82816E-06 3.31788E-19 1.14645E-19
 -1      3273 9.62081E-05-2.78748E-05-2.92857E-05-6.48257E-06 3.59251E-19 3.72347E-20
 -1      3274 9.54412E-05-2.73868E-05-2.91719E-05-6.46689E-06 2.09320E-19-5.36069E-19
 -1      3275 9.57274E-05-2.77265E-05-2.91523E-05-7.34208E-06-1.06141E-19 1.96172E-19
 -1      3276 1.31572E-04-5.64383E-05-3.26138E-05 4.13228E-06 8.07997E-19 1.66854E-18
 -1      3277 1.24826E-04-5.74141E-05-2.87407E-05 1.52422E-05 9.75332E-19 1.80315E-18
 -1      3278 1.23907E-04-5.26576E-05-3.05976E-05-5.56668E-06 8.61949E-19 5.00411E-20
 -1      3279 1.19487E-04-5.02836E-05-2.94026E-05-9.17543E-06 7.05547E-19 2.77509E-19
 -1      3280 1.12919E-04-4.91476E-05-2.75944E-05-1.59332E-05 6.39847E-19-9.29526E-19
 -1      3281 1.25621E-04-5.59971E-05-3.01846E-05-1.00242E-05 1.09997E-18-1.72515E-18
 -1      3282 9.54171E-05-2.49449E-05-3.01922E-05-9.78457E-07-5.65771E-19-4.42237E-19
 -1      3283 9.54675E-05-2.55538E-05-2.99712E-05 1.34639E-08-4.99354E-19-4.87785E-19
 -1      3284 9.53845E-05-2.52373E-05-3.00635E-05 2.80391E-07-4.05192E-19-4.93990E-19
 -1      3285 1.27939E-04-4.35329E-05-3.61048E-05 9.52022E-06 3.86512E-19 1.61381E-18
 -1      3286 1.24994E-04-3.58428E-05-3.87447E-05 1.29497E-05 1.02422E-18 9.04009E-19
 -1      3287 1.06091E-04-4.95808E-05-2.43335E-05 2.59976E-05-2.69923E-18 1.09810E-18
 -1      3288 9.04064E-05-4.05466E-05-2.09203E-05 3.03281E-05-2.74767E-18 4.65868E-21
 -1      3289 8.50620E-05-3.89703E-05-1.92339E-05-3.20160E-05 5.97052E-19-1.37876E-18
 -1      3290 1.00869E-04-4.83281E-05-2.28384E-05-2.92217E-05 8.19081E-19-2.69939E-19
 -1      3291 7.31395E-05-3.10629E-05-1.82446E-05 3.09842E-05-2.63332E-18-1.01776E-18
 -1      3292 6.01389E-05-2.15257E-05-1.61206E-05 2.44344E-05-1.14662E-18 1.42683E-18
 -1      3293 9.52071E-05-2.83598E-05-2.86484E-05 2.08848E-07-3.36163E-19 1.40113E-21
 -1      3294 4.48679E-05-1.24194E-05-1.35917E-05-9.26047E-07 5.11568E-19-2.34067E-18
 -1      3295 4.64903E-05-1.44045E-05-1.33057E-05-1.45116E-05 2.52786E-19-2.33898E-18
 -1      3296 1.23864E-04-2.60309E-05-4.21184E-05 1.35916E-05 1.79772E-18 8.27525E-19
 -1      3297 1.19663E-04-1.96064E-05-4.34418E-05 1.14372E-05 1.69640E-18 6.57192E-19
 -1      3298 1.15581E-04-1.90296E-05-4.16502E-05 9.28278E-06 1.32518E-18 4.10427E-19
 -1      3299 5.08273E-05-1.49865E-05-1.52868E-05 1.50519E-05 1.37537E-19 2.65047E-18
 -1      3300 4.64774E-05-1.18875E-05-1.43287E-05 2.94728E-06 1.15720E-18 2.75074E-18
 -1      3301 1.02983E-04-4.87674E-05-2.26893E-05-2.90577E-05-1.52985E-18-1.19346E-19
 -1      3302 1.15904E-04-5.49630E-05-2.65775E-05-2.17345E-05-1.25996E-18 8.82926E-19
 -1      3303 5.26902E-05-1.95757E-05-1.38909E-05-2.34399E-05-1.34784E-19-1.81689E-18
 -1      3304 6.22310E-05-2.62743E-05-1.52107E-05-3.04966E-05-7.71859E-19-1.36626E-18
 -1      3305 7.22734E-05-2.89916E-05-1.81574E-05-2.84513E-05-9.03890E-19-6.69580E-19
 -1      3306 1.16210E-04-5.39800E-05-2.61752E-05-2.07821E-05 1.22248E-18-1.05352E-18
 -1      3307 1.26205E-04-5.50462E-05-3.00945E-05-9.34334E-06-2.18349E-19 2.07563E-18
 -1      3308 1.29992E-04-5.19391E-05-3.39193E-05 4.81655E-07 3.93520E-19 2.53551E-18
 -1      3309 5.88074E-05-2.33839E-05-1.48033E-05-2.66726E-05 1.13762E-18-1.16181E-18
 -1      3310 7.02135E-05-3.13520E-05-1.66262E-05-3.21686E-05 1.30803E-18-2.16978E-18
 -1      3311 9.34316E-05-1.94965E-05-3.16834E-05-5.57387E-06-6.71577E-19-6.33321E-19
 -1      3312 9.17421E-05-1.73814E-05-3.18839E-05 1.47509E-06 3.37788E-19-8.89574E-19
 -1      3313 9.15760E-05-1.71410E-05-3.19146E-05 8.37540E-07 1.97147E-19-7.70589E-19
 -1      3314 1.31972E-04-4.85460E-05-3.61826E-05-5.03585E-06-1.74383E-19-2.80844E-19
 -1      3315 1.30758E-04-5.28306E-05-3.33965E-05 1.73296E-06-7.79098E-19-3.47284E-19
 -1      3316 1.26713E-04-5.17724E-05-3.20409E-05 1.55657E-06-5.78229E-19 5.00279E-19
 -1      3317 1.28541E-04-4.33434E-05-3.65753E-05-9.49538E-06-7.04890E-20-3.81588E-19
 -1      3318 9.14914E-05-1.70134E-05-3.19323E-05 3.36460E-07 9.48957E-20-5.90092E-19
 -1      3319 9.14854E-05-1.70078E-05-3.19332E-05-3.10282E-07-3.30320E-20-6.77002E-19
 -1      3320 9.23317E-05-1.84547E-05-3.16421E-05 4.61809E-07 1.75769E-19-6.56047E-19
 -1      3321 9.40659E-05-2.13114E-05-3.11587E-05 2.79891E-06 7.08218E-19-3.11853E-19
 -1      3322 9.31557E-05-1.95786E-05-3.15559E-05 3.53457E-06 7.30456E-19-4.65612E-19
 -1      3323 9.26959E-05-1.88310E-05-3.16680E-05 3.00343E-06 6.49783E-19-5.85432E-19
 -1      3324 1.33553E-04-5.22584E-05-3.47381E-05-4.51949E-06 2.56320E-19 1.68528E-18
 -1      3325 5.65182E-05-1.77448E-05-1.62177E-05-1.71015E-05 9.92484E-20-1.62874E-18
 -1      3326 1.21036E-04-5.31812E-05-2.91349E-05 1.11984E-05 5.03766E-19 1.41931E-18
 -1      3327 5.99867E-05-2.04991E-05-1.65022E-05-2.11439E-05 1.42437E-18-8.78267E-20
 -1      3328 9.50736E-05-2.81834E-05-2.86688E-05 2.32499E-07 5.32204E-19-2.02623E-18
 -1      3329 9.51141E-05-2.82238E-05-2.86662E-05 2.48415E-07-4.86498E-20-8.78464E-19
 -1      3330 8.51998E-05-3.50371E-05-2.11798E-05 2.69217E-05-2.48167E-18-1.86453E-19
 -1      3331 9.49857E-05-2.32572E-05-3.07427E-05-3.01008E-06-7.53023E-19-4.75987E-19
 -1      3332 9.51565E-05-2.41475E-05-3.04455E-05-1.84469E-06-6.71203E-19-4.13147E-19
 -1      3333 9.50560E-05-2.38253E-05-3.05227E-05-1.42519E-06-7.05828E-19-6.18913E-19
 -1      3334 9.26505E-05-1.87565E-05-3.16804E-05-2.96819E-06-3.93828E-19-5.74628E-19
 -1      3335 9.31200E-05-1.95092E-05-3.15705E-05-3.51948E-06-5.09358E-19-7.30152E-19
 -1      3336 9.39872E-05-2.09964E-05-3.12876E-05-4.24523E-06-7.13026E-19-6.21816E-19
 -1      3337 1.16892E-04-5.45462E-05-2.66560E-05 2.04240E-05 8.20087E-19 1.66692E-18
 -1      3338 9.53744E-05-2.72177E-05-2.92141E-05-4.70602E-06 1.06103E-19-2.21786E-19
 -1      3339 9.56962E-05-2.75554E-05-2.91967E-05-4.43158E-06-5.97030E-20-2.69040E-21
 -1      3340 9.55712E-05-2.74802E-05-2.91800E-05-4.01219E-06 1.53585E-20-1.96381E-19
 -1      3341 1.12825E-04-2.22755E-05-3.88917E-05 1.07430E-05 1.73274E-18 4.41278E-19
 -1      3342 1.12984E-04-1.61282E-05-4.17992E-05-2.83840E-06 8.07964E-19-1.61221E-19
 -1      3343 1.15181E-04-2.74841E-05-3.78480E-05 1.28796E-05 1.32570E-18 4.70480E-19
 -1      3344 1.20128E-04-3.13763E-05-3.81830E-05 1.35654E-05 1.00114E-18 4.81115E-19
 -1      3345 1.18158E-04-3.93132E-05-3.38987E-05-1.09317E-05 2.90178E-19 1.29652E-19
 -1      3346 1.17064E-04-3.56716E-05-3.49362E-05-1.22115E-05 8.05131E-19-1.92918E-19
 -1      3347 1.17096E-04-5.09947E-05-2.85522E-05 1.17864E-05-1.48493E-18 1.58422E-18
 -1      3348 1.13506E-04-5.15391E-05-2.64123E-05 1.92604E-05-2.19883E-18 1.23120E-18
 -1      3349 1.05916E-04-4.59505E-05-2.56365E-05 2.02713E-05-2.54821E-18 2.31780E-18
 -1      3350 9.52640E-05-2.83217E-05-2.86880E-05 3.91662E-07 8.97207E-19 1.63174E-18
 -1      3351 9.51980E-05-2.82302E-05-2.87017E-05 4.55531E-07-5.93895E-19 2.57875E-18
 -1      3352 9.52445E-05-2.83327E-05-2.86759E-05 3.38393E-07-4.16867E-19 2.70273E-18
 -1      3353 9.50017E-05-2.81035E-05-2.86720E-05 1.69351E-07 9.73085E-19-1.52675E-18
 -1      3354 9.50328E-05-2.81342E-05-2.86705E-05 2.01215E-07 1.10241E-18-1.94455E-18
 -1      3355 9.50191E-05-2.80945E-05-2.86808E-05 2.55737E-07-5.42797E-19-1.44752E-18
 -1      3356 9.56183E-05-2.74356E-05-2.92167E-05-3.55505E-06 1.73174E-19-2.10185E-19
 -1      3357 9.55475E-05-2.73199E-05-2.92350E-05-3.08063E-06 2.44175E-19-3.08638E-19
 -1      3358 9.54473E-05-2.71384E-05-2.92798E-05-3.78773E-06-2.22807E-20-1.04319E-19
 -1      3359 8.18563E-05-3.45380E-05-1.99051E-05-2.87900E-05 2.51436E-19-7.93405E-19
 -1      3360 9.49571E-05-2.80544E-05-2.86737E-05 7.92647E-08 2.07954E-18 4.77382E-20
 -1      3361 9.49741E-05-2.80710E-05-2.86729E-05 1.22025E-07 1.52649E-18-4.72308E-19
 -1      3362 9.49421E-05-2.80118E-05-2.86830E-05 1.71528E-07 8.92682E-19-6.93449E-19
 -1      3363 9.49000E-05-2.79668E-05-2.86840E-05 6.07053E-08 2.28473E-18 5.89544E-20
 -1      3364 9.43995E-05-4.43334E-05-2.11440E-05 3.04383E-05 1.09384E-18 1.33016E-18
 -1      3365 9.23064E-05-1.82298E-05-3.17652E-05 2.56804E-06 6.41829E-19-6.79371E-19
 -1      3366 9.19875E-05-1.77470E-05-3.18307E-05 1.96028E-06 4.83784E-19-8.33777E-19
 -1      3367 9.26558E-05-1.89437E-05-3.15699E-05 1.35081E-06 3.37471E-19-7.40861E-19
 -1      3368 9.32568E-05-1.98996E-05-3.14165E-05 2.16532E-06 5.86364E-19-5.54897E-19
 -1      3369 1.08104E-04-4.85054E-05-2.53114E-05-2.17856E-05 4.63539E-19-6.80981E-19
 -1      3370 5.25455E-05-1.34614E-05-1.64247E-05-2.78760E-06 1.11683E-18 2.54099E-18
 -1      3371 9.58847E-05-4.31537E-05-2.23298E-05-2.80973E-05-1.16139E-18-2.18932E-19
 -1      3372 1.24764E-04-4.59745E-05-3.37992E-05 5.85948E-06 4.47326E-19 1.10625E-18
 -1      3373 6.10936E-05-1.86260E-05-1.78481E-05 1.71330E-05-5.38766E-19 1.11168E-18
 -1      3374 9.51645E-05-2.82879E-05-2.86633E-05 2.60309E-07 1.09451E-18 5.48499E-19
 -1      3375 9.52245E-05-2.83529E-05-2.86583E-05 2.57984E-07-8.24757E-19 2.19850E-18
 -1      3376 9.52368E-05-2.83397E-05-2.86685E-05 3.02258E-07-2.37099E-19 2.74614E-18
 -1      3377 9.51233E-05-2.82093E-05-2.86766E-05 3.03624E-07-2.72118E-19-4.92248E-19
 -1      3378 1.34604E-04-4.67299E-05-3.78173E-05-8.57607E-06 3.74812E-20 2.11382E-18
 -1      3379 9.55287E-05-2.69217E-05-2.94081E-05-2.76705E-06 3.23127E-19-2.71670E-19
 -1      3380 9.22639E-05-1.81631E-05-3.17750E-05-2.53960E-06-2.87815E-19-6.48284E-19
 -1      3381 9.32053E-05-1.98312E-05-3.14293E-05-2.12025E-06-3.62058E-19-4.74231E-19
 -1      3382 9.19538E-05-1.76931E-05-3.18382E-05-1.92326E-06-1.73770E-19-6.38879E-19
 -1      3383 1.20567E-04-4.26672E-05-3.33951E-05-8.33578E-06-2.00191E-19 2.57774E-20
 -1      3384 4.76638E-05-1.27201E-05-1.44091E-05 4.72198E-06 7.90732E-19-1.91498E-18
 -1      3385 5.19671E-05-1.31842E-05-1.64894E-05-2.37145E-06 4.12402E-19-1.57336E-18
 -1      3386 5.24064E-05-1.47919E-05-1.58530E-05 1.02129E-05 1.09062E-18-1.11221E-18
 -1      3387 9.55282E-05-2.60311E-05-2.97904E-05 1.33138E-07 5.65546E-19 3.34450E-21
 -1      3388 9.55264E-05-2.54656E-05-3.00141E-05 1.15863E-06 7.01191E-19-4.63430E-20
 -1      3389 9.53446E-05-2.46701E-05-3.02856E-05 1.54422E-06 7.20874E-19 1.56185E-20
 -1      3390 9.55287E-05-2.57279E-05-2.99199E-05-1.33632E-07 6.28222E-19 1.44954E-19
 -1      3391 6.31632E-05-2.57598E-05-1.55385E-05 2.82884E-05 9.55877E-19-1.36161E-19
 -1      3392 5.96598E-05-2.06356E-05-1.65808E-05 2.18451E-05 8.11113E-19-5.15896E-19
 -1      3393 7.25631E-05-3.01881E-05-1.82033E-05 2.88984E-05 1.10816E-18 5.92764E-19
 -1      3394 1.19156E-04-5.26759E-05-2.84551E-05-1.31450E-05-4.76297E-19 9.80838E-19
 -1      3395 9.51661E-05-2.82744E-05-2.86685E-05-2.78454E-07-1.14647E-18-2.72257E-18
 -1      3396 9.51392E-05-2.82494E-05-2.86679E-05-2.64686E-07-9.32567E-20-1.47597E-18
 -1      3397 9.50937E-05-2.81680E-05-2.86815E-05-3.06787E-07-2.96730E-19-1.42832E-18
 -1      3398 9.51540E-05-2.82257E-05-2.86822E-05-3.36618E-07-1.47677E-19-2.27930E-18
 -1      3399 9.51357E-05-2.60194E-05-2.96201E-05 2.43133E-06-3.66212E-19-2.57341E-19
 -1      3400 9.50152E-05-2.61353E-05-2.95213E-05 2.98912E-06-2.58495E-19-5.93000E-20
 -1      3401 9.47652E-05-2.61417E-05-2.94122E-05 3.46102E-06-1.66953E-19 1.81602E-20
 -1      3402 9.45884E-05-2.61134E-05-2.93452E-05 3.96457E-06 4.50838E-20 3.99702E-20
 -1      3403 9.46368E-05-2.57393E-05-2.95235E-05 2.96708E-06-9.92208E-20 1.72160E-19
 -1      3404 9.42321E-05-2.59816E-05-2.92556E-05 4.41435E-06-4.54238E-20 1.10856E-19
 -1      3405 9.40117E-05-2.58568E-05-2.92060E-05 4.90533E-06-9.21076E-20-7.56912E-21
 -1      3406 9.40382E-05-2.56325E-05-2.93116E-05 3.88304E-06-4.92670E-20 3.73749E-19
 -1      3407 9.35617E-05-2.56336E-05-2.91207E-05 5.36823E-06-1.19210E-19-4.14431E-19
 -1      3408 9.33090E-05-2.54593E-05-2.90734E-05 5.87953E-06-8.75308E-20-2.35355E-19
 -1      3409 9.32410E-05-2.52750E-05-2.91215E-05 4.77920E-06-1.71600E-19-1.17333E-19
 -1      3410 9.27760E-05-2.51943E-05-2.89752E-05 6.38802E-06 1.37313E-19-5.93127E-20
 -1      3411 9.25110E-05-2.50276E-05-2.89140E-05 6.94555E-06 2.25572E-19 2.62972E-19
 -1      3412 9.22668E-05-2.47658E-05-2.89203E-05 5.72175E-06 8.06019E-20-1.40066E-19
 -1      3413 9.19117E-05-2.47838E-05-2.87835E-05 7.53331E-06 4.00473E-20 1.84995E-19
 -1      3414 9.16754E-05-2.47037E-05-2.86908E-05 8.15946E-06-1.44232E-19 1.45364E-19
 -1      3415 9.11403E-05-2.42181E-05-2.86705E-05 6.77715E-06 1.65018E-19 2.03549E-19
 -1      3416 9.10435E-05-2.45684E-05-2.85062E-05 8.86894E-06-3.93578E-19 2.44646E-19
 -1      3417 9.09166E-05-2.46904E-05-2.83639E-05 9.58789E-06-4.56058E-19 1.85960E-19
 -1      3418 8.99069E-05-2.37788E-05-2.83293E-05 8.02461E-06-1.31400E-19-2.68881E-19
 -1      3419 9.03199E-05-2.47913E-05-2.81017E-05 1.04833E-05-1.69747E-19 2.15471E-19
 -1      3420 9.04533E-05-2.52902E-05-2.78952E-05 1.13252E-05 1.54789E-19 1.37827E-19
 -1      3421 8.86579E-05-2.36537E-05-2.78491E-05 9.57980E-06-1.03103E-19 2.59758E-19
 -1      3422 9.00300E-05-2.58205E-05-2.75329E-05 1.25019E-05 3.47727E-19 8.37620E-20
 -1      3423 9.06910E-05-2.69574E-05-2.72595E-05 1.34905E-05 5.63146E-19 3.62425E-19
 -1      3424 8.75784E-05-2.41521E-05-2.71792E-05 1.16277E-05 5.00261E-19 2.04880E-19
 -1      3425 9.07114E-05-2.82045E-05-2.67846E-05 1.50646E-05 5.93647E-19 2.91515E-19
 -1      3426 9.23374E-05-3.03507E-05-2.64779E-05 1.61684E-05 5.32613E-19 6.07586E-19
 -1      3427 8.70365E-05-2.57553E-05-2.62741E-05 1.44344E-05 5.03275E-19 3.43981E-19
 -1      3428 9.33120E-05-3.26722E-05-2.59214E-05 1.81727E-05 4.15941E-19 7.39076E-19
 -1      3429 9.66142E-05-3.63031E-05-2.57071E-05 1.91883E-05 4.73144E-19 8.50934E-19
 -1      3430 8.77552E-05-2.92071E-05-2.51265E-05 1.83050E-05 7.45556E-19 3.48971E-19
 -1      3431 5.94295E-05-1.78227E-05-1.77661E-05-1.67055E-05 1.25072E-18 2.54110E-19
 -1      3432 6.74120E-05-2.38366E-05-1.85912E-05-2.37452E-05 6.67991E-19-4.05517E-19
 -1      3433 9.23797E-05-3.81561E-05-2.33662E-05 2.44195E-05-1.45961E-18 1.00530E-18
 -1      3434 7.88673E-05-2.90194E-05-2.11216E-05 2.45059E-05-1.17725E-18-4.22219E-19
 -1      3435 9.38325E-05-2.07845E-05-3.13025E-05-3.52321E-06-6.48314E-19-5.96741E-19
 -1      3436 9.38064E-05-3.24214E-05-2.61918E-05-1.70062E-05-5.49395E-19-2.32411E-19
 -1      3437 9.13943E-05-2.96505E-05-2.64494E-05-1.60022E-05-1.96531E-19 2.77238E-19
 -1      3438 9.09674E-05-2.78875E-05-2.69663E-05-1.41623E-05-5.14708E-19 5.01973E-19
 -1      3439 8.99300E-05-2.63459E-05-2.72626E-05-1.30875E-05-1.70570E-19 6.55302E-19
 -1      3440 8.69156E-05-2.66315E-05-2.58166E-05-1.56847E-05-6.45102E-20-1.63781E-19
 -1      3441 9.01419E-05-2.54835E-05-2.76716E-05-1.16937E-05-2.99370E-19 1.05149E-18
 -1      3442 8.97866E-05-2.47106E-05-2.79077E-05-1.07350E-05 8.70746E-20 1.08523E-18
 -1      3443 8.68683E-05-2.42619E-05-2.68301E-05-1.23073E-05-2.08959E-19 1.15234E-18
 -1      3444 9.02739E-05-2.44117E-05-2.82046E-05-9.67280E-06-6.48923E-19 4.53636E-19
 -1      3445 9.02765E-05-2.41250E-05-2.83687E-05-8.84513E-06-9.55294E-19 1.11860E-19
 -1      3446 8.76650E-05-2.32744E-05-2.75880E-05-9.84261E-06-7.79890E-19-3.99969E-19
 -1      3447 9.08451E-05-2.41494E-05-2.85709E-05-8.00727E-06-1.99480E-19 9.40226E-20
 -1      3448 9.10100E-05-2.41470E-05-2.86719E-05-7.28900E-06-2.40012E-19 6.22048E-19
 -1      3449 8.87575E-05-2.31090E-05-2.81228E-05-7.99104E-06-6.62440E-19-1.62827E-18
 -1      3450 9.15662E-05-2.43461E-05-2.88005E-05-6.60538E-06-1.25905E-18 1.16866E-18
 -1      3451 9.17854E-05-2.44955E-05-2.88526E-05-5.97814E-06-1.18089E-18-2.33418E-19
 -1      3452 8.98930E-05-2.34102E-05-2.84798E-05-6.52943E-06-9.34913E-19-6.74825E-19
 -1      3453 9.22855E-05-2.47758E-05-2.89271E-05-5.40675E-06-5.58588E-19-2.99229E-19
 -1      3454 9.25043E-05-2.49948E-05-2.89447E-05-4.86013E-06-3.91018E-19-7.36908E-20
 -1      3455 9.09483E-05-2.39481E-05-2.87027E-05-5.33065E-06-1.31619E-18-5.68413E-19
 -1      3456 9.29320E-05-2.52989E-05-2.89813E-05-4.37751E-06-5.62405E-19 1.38971E-19
 -1      3457 9.31257E-05-2.55383E-05-2.89762E-05-3.90547E-06-8.41842E-19 5.37651E-19
 -1      3458 9.18705E-05-2.45804E-05-2.88287E-05-4.32394E-06-2.77936E-19-2.51619E-19
 -1      3459 9.34790E-05-2.58331E-05-2.89874E-05-3.49801E-06-1.14836E-18 9.32636E-19
 -1      3460 9.36397E-05-2.60653E-05-2.89689E-05-3.09584E-06-1.81328E-19 8.50337E-19
 -1      3461 9.26448E-05-2.52213E-05-2.88878E-05-3.47121E-06-9.79582E-19 8.80808E-19
 -1      3462 9.39241E-05-2.63334E-05-2.89641E-05-2.75450E-06 6.47162E-19-1.60553E-20
 -1      3463 9.40516E-05-2.65442E-05-2.89387E-05-2.41721E-06 7.91562E-19 1.19252E-19
 -1      3464 9.32762E-05-2.58221E-05-2.89026E-05-2.75063E-06-6.69548E-19 9.13075E-19
 -1      3465 9.42757E-05-2.67779E-05-2.89246E-05-2.13468E-06 1.06868E-18 8.44834E-19
 -1      3466 9.43739E-05-2.69614E-05-2.88967E-05-1.85644E-06 1.75063E-18 1.09084E-19
 -1      3467 9.37795E-05-2.63582E-05-2.88900E-05-2.14738E-06 1.45688E-18 2.08082E-19
 -1      3468 9.45472E-05-2.71589E-05-2.88780E-05-1.62589E-06 1.72728E-18-1.65564E-20
 -1      3469 9.46208E-05-2.73136E-05-2.88504E-05-1.40016E-06 2.51393E-19-1.26210E-19
 -1      3470 9.41727E-05-2.68202E-05-2.88617E-05-1.64896E-06 1.39602E-18 2.71374E-19
 -1      3471 9.47523E-05-2.74766E-05-2.88301E-05-1.21492E-06-6.75759E-19-3.77946E-19
 -1      3472 9.48062E-05-2.76041E-05-2.88045E-05-1.03481E-06-3.33526E-19-1.06645E-18
 -1      3473 9.44744E-05-2.72078E-05-2.88259E-05-1.24330E-06 1.11066E-19-5.68922E-19
 -1      3474 9.49042E-05-2.77359E-05-2.87845E-05-8.88493E-07-9.04622E-20-1.16321E-18
 -1      3475 9.49427E-05-2.78387E-05-2.87615E-05-7.47330E-07-1.37180E-19-3.99514E-19
 -1      3476 9.47017E-05-2.75261E-05-2.87876E-05-9.18475E-07-4.50619E-19-2.16595E-19
 -1      3477 9.50141E-05-2.79444E-05-2.87428E-05-6.32885E-07 3.07973E-19-2.78491E-19
 -1      3478 9.50428E-05-2.80262E-05-2.87230E-05-5.25626E-07 7.32248E-19 1.76886E-19
 -1      3479 9.48690E-05-2.77816E-05-2.87502E-05-6.62675E-07 3.02311E-19 1.13193E-18
 -1      3480 5.79357E-05-1.60353E-05-1.78152E-05-1.23041E-05 8.33666E-20-1.58411E-18
 -1      3481 6.35536E-05-2.05425E-05-1.82768E-05-2.05191E-05-2.06557E-19-6.93932E-19
 -1      3482 9.63558E-05-2.94264E-05-2.86659E-05-9.49202E-06 4.03799E-20 4.00608E-19
 -1      3483 9.55819E-05-2.85523E-05-2.87184E-05-9.16072E-06-6.46313E-20 1.86385E-19
 -1      3484 9.52828E-05-2.79771E-05-2.88303E-05-8.56924E-06-1.59458E-19 9.46719E-20
 -1      3485 9.48497E-05-2.74819E-05-2.88709E-05-8.15295E-06-1.50489E-19 2.41143E-19
 -1      3486 9.39489E-05-2.75745E-05-2.84645E-05-9.18299E-06-2.17385E-19 1.22001E-19
 -1      3487 1.01733E-04-3.54523E-05-2.83951E-05-1.03861E-05-7.05002E-19 9.62201E-19
 -1      3488 9.98133E-05-3.34703E-05-2.83861E-05-1.06204E-05-4.54221E-19 6.15811E-19
 -1      3489 1.06785E-04-4.01541E-05-2.85513E-05-9.36059E-06-7.31545E-19 1.14871E-18
 -1      3490 1.04199E-04-3.77640E-05-2.83872E-05-1.03196E-05-6.15577E-19 1.10806E-18
 -1      3491 1.00805E-04-3.63360E-05-2.77275E-05-1.24815E-05-7.38964E-19 5.47962E-19
 -1      3492 1.13587E-04-4.51287E-05-2.93155E-05-6.21312E-06-1.61088E-19 7.67892E-19
 -1      3493 1.10427E-04-4.29564E-05-2.88069E-05-8.44710E-06-5.94825E-19 7.03879E-19
 -1      3494 1.06661E-04-4.16259E-05-2.79132E-05-1.18841E-05-4.13673E-19 2.46910E-19
 -1      3495 1.23962E-04-4.85276E-05-3.20982E-05 2.28675E-06 5.16511E-19 1.38958E-18
 -1      3496 1.23016E-04-3.78965E-05-3.66889E-05-1.25657E-05 6.86838E-19-1.45622E-18
 -1      3497 1.20706E-04-2.69156E-05-4.02003E-05-1.34069E-05 7.84988E-19-1.78089E-18
 -1      3498 1.14243E-04-4.61794E-05-2.89881E-05 7.82233E-06-1.79058E-18 7.90857E-19
 -1      3499 1.17481E-04-4.76318E-05-2.98707E-05 4.78928E-06-1.56484E-18 4.55982E-19
 -1      3500 9.92118E-05-3.26954E-05-2.84645E-05 1.00744E-05 2.29443E-19 1.20988E-18
 -1      3501 1.01064E-04-3.46173E-05-2.84603E-05 9.94727E-06-6.56715E-20 2.49224E-18
 -1      3502 9.66371E-05-2.97960E-05-2.86255E-05 9.33951E-06-1.63022E-18 1.11786E-18
 -1      3503 9.78486E-05-3.11266E-05-2.85757E-05 9.57103E-06-9.69695E-19 9.94017E-19
 -1      3504 9.63851E-05-3.11979E-05-2.79890E-05 1.10171E-05-3.58851E-19 1.92609E-18
 -1      3505 9.51876E-05-2.79772E-05-2.87969E-05 8.29823E-06 3.15524E-20 9.98570E-19
 -1      3506 9.59240E-05-2.88087E-05-2.87466E-05 8.70575E-06-8.91868E-19 7.05246E-19
 -1      3507 9.44031E-05-2.85180E-05-2.82654E-05 9.67711E-06-8.20426E-19-7.87774E-20
 -1      3508 9.44697E-05-2.69678E-05-2.89292E-05 7.16845E-06 7.06342E-19 4.67616E-19
 -1      3509 9.48866E-05-2.74296E-05-2.88965E-05 7.65012E-06 1.17233E-18 1.01814E-18
 -1      3510 9.34510E-05-2.69391E-05-2.85199E-05 8.28953E-06 6.34998E-19 2.07972E-19
 -1      3511 9.41949E-05-2.65142E-05-2.90097E-05 6.05955E-06-1.20428E-19 3.02258E-19
 -1      3512 9.44114E-05-2.67241E-05-2.89982E-05 6.55636E-06 1.99057E-19 4.83312E-19
 -1      3513 9.31289E-05-2.61428E-05-2.87145E-05 6.98170E-06 3.91655E-19 1.18932E-18
 -1      3514 9.41689E-05-2.64151E-05-2.90428E-05 5.02607E-06 1.16005E-18-5.96694E-19
 -1      3515 9.42671E-05-2.64650E-05-2.90496E-05 5.50354E-06 4.16582E-19-6.78566E-20
 -1      3516 9.31631E-05-2.58651E-05-2.88434E-05 5.79722E-06 6.64821E-19 3.00733E-19
 -1      3517 9.42688E-05-2.65247E-05-2.90391E-05 4.09533E-06-6.65391E-20-5.04496E-20
 -1      3518 9.43014E-05-2.64808E-05-2.90590E-05 4.53356E-06 8.27456E-19-2.01971E-19
 -1      3519 9.33779E-05-2.59071E-05-2.89150E-05 4.74738E-06 5.64731E-19-6.34962E-19
 -1      3520 9.44206E-05-2.67436E-05-2.90102E-05 3.27935E-06-1.10671E-18 9.81740E-19
 -1      3521 9.44199E-05-2.66506E-05-2.90382E-05 3.66792E-06-1.01252E-18 3.49732E-19
 -1      3522 9.36657E-05-2.61293E-05-2.89422E-05 3.83241E-06-5.29070E-19 7.63622E-19
 -1      3523 9.45825E-05-2.70068E-05-2.89663E-05 2.58038E-06 3.71903E-19 1.41136E-18
 -1      3524 9.45672E-05-2.68937E-05-2.89980E-05 2.91535E-06-3.33784E-19 1.22433E-18
 -1      3525 9.39647E-05-2.64375E-05-2.89379E-05 3.04766E-06-9.11699E-19-1.60065E-19
 -1      3526 9.47328E-05-2.72746E-05-2.89152E-05 1.99410E-06 9.51164E-19 1.00168E-18
 -1      3527 9.47131E-05-2.71590E-05-2.89475E-05 2.27594E-06 1.00221E-18 2.18912E-18
 -1      3528 9.42417E-05-2.67719E-05-2.89135E-05 2.38543E-06 3.97372E-19-2.03007E-19
 -1      3529 9.48618E-05-2.75244E-05-2.88627E-05 1.51188E-06 1.61778E-18 3.56454E-19
 -1      3530 9.48427E-05-2.74164E-05-2.88934E-05 1.74393E-06 1.48658E-18 1.18369E-18
 -1      3531 9.44814E-05-2.70962E-05-2.88776E-05 1.83576E-06 1.39493E-18 2.43292E-18
 -1      3532 9.49666E-05-2.77449E-05-2.88124E-05 1.12252E-06 4.57507E-19-5.37258E-20
 -1      3533 9.49505E-05-2.76495E-05-2.88402E-05 1.30980E-06 6.87758E-19-2.16265E-19
 -1      3534 9.46791E-05-2.73906E-05-2.88365E-05 1.38705E-06 1.58171E-18 2.01991E-18
 -1      3535 9.50482E-05-2.79321E-05-2.87665E-05 8.13817E-07 1.88370E-19-2.72745E-19
 -1      3536 9.50357E-05-2.78510E-05-2.87909E-05 9.62055E-07 6.77729E-19-1.57088E-19
 -1      3537 9.48363E-05-2.76460E-05-2.87948E-05 1.02680E-06 5.94300E-19-4.12749E-19
 -1      3538 9.51096E-05-2.80855E-05-2.87259E-05 5.74422E-07-9.09433E-19 6.31762E-20
 -1      3539 9.51005E-05-2.80197E-05-2.87468E-05 6.88252E-07-8.48993E-19-6.90582E-19
 -1      3540 9.49564E-05-2.78603E-05-2.87550E-05 7.42659E-07-6.01425E-19-7.35533E-19
 -1      3541 1.00512E-04-4.61614E-05-2.34516E-05 2.70308E-05 8.74112E-19 1.44872E-18
 -1      3542 8.76751E-05-3.85564E-05-2.05149E-05 3.01430E-05 1.14831E-18 8.52962E-19
 -1      3543 8.89564E-05-3.72458E-05-2.18868E-05-2.73118E-05-7.66790E-19-2.06875E-19
 -1      3544 1.01506E-04-4.46341E-05-2.44749E-05-2.36132E-05-9.44766E-19 6.32628E-21
 -1      3545 7.73202E-05-2.96321E-05-2.01186E-05-2.60472E-05 2.24967E-19-1.21478E-18
 -1      3546 8.90374E-05-3.73994E-05-2.23755E-05-2.65983E-05-3.90112E-19-1.03706E-18
 -1      3547 7.59774E-05-2.66680E-05-2.10327E-05-2.23701E-05 1.57164E-19-6.47795E-19
 -1      3548 9.48300E-05-2.78765E-05-2.86948E-05-1.02997E-07 3.09430E-18-2.25605E-19
 -1      3549 9.48174E-05-2.78657E-05-2.86947E-05-3.88423E-08 2.79779E-18 7.58366E-20
 -1      3550 1.03426E-04-3.68949E-05-2.84347E-05 1.00578E-05-9.19319E-19 2.76287E-18
 -1      3551 1.06093E-04-3.92439E-05-2.85839E-05 9.15938E-06-9.70209E-19 2.84010E-18
 -1      3552 9.99391E-05-3.53116E-05-2.77915E-05 1.20221E-05-1.04944E-19 2.01464E-18
 -1      3553 1.08084E-04-4.14196E-05-2.84693E-05 9.63406E-06-1.61318E-18 2.55655E-18
 -1      3554 1.11340E-04-4.36452E-05-2.89005E-05 7.68327E-06-1.72180E-18 1.32727E-18
 -1      3555 1.08594E-04-4.50380E-05-2.73841E-05 1.44364E-05-2.57033E-18 2.13799E-18
 -1      3556 1.04071E-04-3.99996E-05-2.76116E-05 1.29968E-05-1.49670E-18 2.06752E-18
 -1      3557 9.42060E-05-2.17052E-05-3.10619E-05-2.45600E-06-5.90839E-19-5.70438E-19
 -1      3558 1.25044E-04-4.41643E-05-3.47421E-05-8.32798E-06-3.07579E-20-8.34010E-19
 -1      3559 9.15634E-05-1.71174E-05-3.19178E-05-8.06415E-07-7.21769E-20-8.07284E-19
 -1      3560 9.17175E-05-1.73453E-05-3.18891E-05-1.44687E-06-1.84023E-19-7.00240E-19
 -1      3561 9.26154E-05-1.88968E-05-3.15772E-05-1.31293E-06-1.58614E-19-7.41420E-19
 -1      3562 1.02182E-04-4.33867E-05-2.48260E-05-2.25034E-05 6.36598E-20-8.44823E-19
 -1      3563 9.83754E-05-3.18429E-05-2.84939E-05-1.02002E-05-9.74241E-20 5.76711E-19
 -1      3564 9.71030E-05-3.04578E-05-2.85394E-05-1.00604E-05 2.66139E-19 6.61135E-19
 -1      3565 9.49296E-05-2.92359E-05-2.81889E-05-1.04663E-05 1.48665E-20 3.47425E-19
 -1      3566 9.70118E-05-3.20315E-05-2.79069E-05-1.16772E-05-2.53171E-19 6.59299E-19
 -1      3567 9.73295E-05-3.90254E-05-2.47962E-05-2.13650E-05 9.11487E-20-1.28520E-18
 -1      3568 9.32255E-05-3.47160E-05-2.49739E-05-2.03844E-05-3.85440E-19-9.11368E-19
 -1      3569 9.52986E-05-2.55050E-05-2.99080E-05 1.23555E-06-3.14332E-19-4.69362E-19
 -1      3570 9.52576E-05-2.58214E-05-2.97630E-05 1.89773E-06-4.08827E-19-3.76532E-19
 -1      3571 9.50036E-05-2.54917E-05-2.97870E-05 1.95950E-06-2.91425E-19-2.51485E-19
 -1      3572 6.83784E-05-2.19200E-05-1.99670E-05 2.04962E-05-1.35646E-18-5.27675E-19
 -1      3573 6.12967E-05-1.60986E-05-1.92904E-05 1.15289E-05 6.00897E-20 5.85512E-19
 -1      3574 5.70926E-05-1.36437E-05-1.86101E-05 2.85274E-07 4.29552E-19 2.16981E-18
 -1      3575 5.70388E-05-1.43483E-05-1.79432E-05-9.63940E-06 1.09867E-18 2.05808E-18
 -1      3576 9.54046E-05-2.66545E-05-2.94645E-05-2.89647E-06 2.31337E-19-1.62899E-19
 -1      3577 9.54434E-05-2.64708E-05-2.95554E-05-2.33373E-06 4.17504E-19-2.44258E-19
 -1      3578 7.08681E-05-2.57576E-05-1.91553E-05-2.46150E-05-4.90789E-19-4.84873E-19
 -1      3579 7.91487E-05-3.17554E-05-2.04082E-05-2.75757E-05-7.92068E-19-7.59418E-19
 -1      3580 8.73748E-05-3.41433E-05-2.26319E-05-2.40267E-05-5.00663E-19-3.36113E-19
 -1      3581 7.15391E-05-2.33815E-05-2.04251E-05-2.00376E-05-3.32209E-19-2.92650E-19
 -1      3582 1.20871E-04-5.14708E-05-3.00562E-05-6.61478E-06 7.30963E-20 1.58399E-18
 -1      3583 1.19263E-04-4.79380E-05-3.06022E-05-2.14524E-06-1.24937E-20 1.16025E-18
 -1      3584 1.16381E-04-4.68709E-05-2.96315E-05-5.35986E-06-1.61916E-19 1.02682E-18
 -1      3585 1.13758E-04-4.98984E-05-2.71238E-05-1.60798E-05-8.60645E-19 4.60879E-19
 -1      3586 1.24414E-04-4.78263E-05-3.30590E-05-4.29423E-06-5.57288E-19 3.10226E-20
 -1      3587 9.51660E-05-2.44525E-05-3.03052E-05-2.18607E-07-5.31702E-19-3.32628E-19
 -1      3588 9.52539E-05-2.50419E-05-3.00980E-05 6.03444E-07-3.66062E-19-3.81441E-19
 -1      3589 9.50841E-05-2.47731E-05-3.01291E-05 7.87312E-07-3.99847E-19-1.54703E-19
 -1      3590 9.54944E-05-2.62162E-05-2.96946E-05-1.76020E-06 5.71862E-19-2.24652E-19
 -1      3591 9.54993E-05-2.58600E-05-2.98375E-05-1.06933E-06 5.13378E-19-1.58236E-19
 -1      3592 9.53275E-05-2.59196E-05-2.97460E-05-1.90184E-06 4.00486E-19-1.21020E-19
 -1      3593 9.48189E-05-2.68296E-05-2.91309E-05-5.69331E-06 3.54729E-19-1.77449E-19
 -1      3594 9.48110E-05-2.68039E-05-2.91490E-05-5.24870E-06 3.99883E-19-2.18005E-19
 -1      3595 9.46559E-05-2.27914E-05-3.08113E-05 2.08043E-06 7.31187E-19-1.84205E-19
 -1      3596 9.42550E-05-2.19873E-05-3.09748E-05 1.89859E-06 6.86163E-19-3.81478E-19
 -1      3597 6.41808E-05-2.00084E-05-1.87270E-05 1.79392E-05 9.19120E-19-6.97135E-19
 -1      3598 5.71633E-05-1.64962E-05-1.69728E-05 1.50882E-05 1.07580E-18-9.64082E-19
 -1      3599 5.69801E-05-1.47636E-05-1.80795E-05 7.74795E-06 9.09727E-19-1.17224E-18
 -1      3600 9.47472E-05-2.77644E-05-2.87049E-05 2.16786E-09 3.14703E-18 5.99826E-19
 -1      3601 9.48181E-05-2.78669E-05-2.86944E-05 4.13323E-08 2.24279E-18-7.20950E-19
 -1      3602 9.48308E-05-2.78789E-05-2.86941E-05 1.04448E-07 2.33010E-18 5.82978E-19
 -1      3603 6.36026E-05-1.72650E-05-1.97363E-05-1.24133E-05 5.94493E-19 7.30487E-19
 -1      3604 9.95342E-05-4.07458E-05-2.50250E-05 2.16855E-05 5.46293E-19 1.08322E-18
 -1      3605 1.04921E-04-4.59648E-05-2.51654E-05 2.21211E-05 6.57721E-19 1.23857E-18
 -1      3606 7.75685E-05-2.55432E-05-2.20946E-05 1.94378E-05-3.88907E-19-4.10679E-20
 -1      3607 8.63215E-05-3.03328E-05-2.39499E-05-2.08180E-05 4.27202E-19-1.51581E-18
 -1      3608 9.11454E-05-3.61510E-05-2.36759E-05 2.38743E-05 6.82709E-19 7.95549E-19
 -1      3609 1.13054E-04-4.70573E-05-2.84178E-05-1.06737E-05-3.86624E-19 2.83617E-19
 -1      3610 5.71854E-05-1.45022E-05-1.79735E-05-8.12308E-06 4.53202E-19-1.51963E-18
 -1      3611 6.33975E-05-1.69504E-05-1.97808E-05-1.13643E-05 1.82155E-19-1.11393E-18
 -1      3612 5.76092E-05-1.42331E-05-1.84933E-05-2.73218E-06 8.85884E-19-1.15347E-18
 -1      3613 9.50956E-05-2.81031E-05-2.87101E-05-4.63254E-07 1.29958E-18-7.36837E-19
 -1      3614 9.51177E-05-2.81651E-05-2.86946E-05-3.89124E-07 1.54855E-18-1.70776E-18
 -1      3615 9.50854E-05-2.81327E-05-2.86943E-05-3.75550E-07 6.35189E-19-1.77571E-18
 -1      3616 9.49948E-05-2.79812E-05-2.87194E-05-4.91172E-07 1.03355E-18 1.38619E-18
 -1      3617 9.50115E-05-2.68460E-05-2.92086E-05-4.79106E-06 2.07426E-19-4.13445E-19
 -1      3618 9.50426E-05-2.68229E-05-2.92384E-05-4.33823E-06-3.91247E-20-2.87239E-19
 -1      3619 9.44522E-05-2.64106E-05-2.91612E-05-4.88946E-06 1.20391E-19-6.18379E-19
 -1      3620 9.36557E-05-2.67217E-05-2.86949E-05-7.96808E-06-1.35884E-19-4.73945E-19
 -1      3621 9.48176E-05-2.72170E-05-2.89597E-05-7.58891E-06-1.98442E-19 8.95980E-20
 -1      3622 9.46027E-05-2.69750E-05-2.89859E-05-7.14338E-06-1.16864E-19-1.18356E-19
 -1      3623 1.07212E-04-4.70451E-05-2.57667E-05-2.04809E-05-9.60112E-19-2.87783E-19
 -1      3624 1.10993E-04-4.66074E-05-2.74918E-05-1.38386E-05-7.94297E-19 3.40607E-19
 -1      3625 1.07975E-04-4.43667E-05-2.72491E-05-1.44435E-05-3.38707E-19-2.52290E-21
 -1      3626 9.99423E-05-4.13681E-05-2.50967E-05-2.09603E-05-6.66297E-19-4.17561E-20
 -1      3627 1.04841E-04-4.33315E-05-2.63342E-05 1.71721E-05-2.14832E-18 1.89534E-18
 -1      3628 9.91171E-05-4.12558E-05-2.46179E-05 2.23065E-05-2.16621E-18 1.62203E-18
 -1      3629 9.26676E-05-3.57717E-05-2.43532E-05 2.11937E-05-7.14876E-19 1.08726E-18
 -1      3630 1.02280E-04-4.04828E-05-2.64372E-05 1.63952E-05-2.09566E-18 1.92137E-18
 -1      3631 8.13946E-05-3.27524E-05-2.05124E-05 2.67230E-05 1.09484E-18 6.65900E-19
 -1      3632 9.51239E-05-2.81244E-05-2.87125E-05 4.97321E-07-9.81131E-19 4.21024E-19
 -1      3633 9.50207E-05-2.80036E-05-2.87225E-05 5.38463E-07-1.74381E-18-1.12133E-18
 -1      3634 9.51203E-05-2.81545E-05-2.86992E-05 4.25967E-07-1.40366E-18 9.27265E-19
 -1      3635 9.51852E-05-2.82670E-05-2.86811E-05 3.50690E-07-2.43610E-19 3.83925E-18
 -1      3636 9.49438E-05-2.79968E-05-2.86933E-05 2.89545E-07-1.34316E-18-1.88944E-18
 -1      3637 9.49962E-05-2.80479E-05-2.86920E-05 3.24892E-07-1.16667E-18-1.51363E-18
 -1      3638 9.52249E-05-2.68250E-05-2.93114E-05-3.87902E-06-7.97754E-20-3.26061E-19
 -1      3639 9.52708E-05-2.67493E-05-2.93651E-05-3.39167E-06 6.44630E-20-1.42017E-19
 -1      3640 9.48328E-05-2.64451E-05-2.93093E-05-3.96109E-06 4.62927E-20-4.36991E-19
 -1      3641 6.76422E-05-1.70831E-05-2.16220E-05 9.29797E-06-7.41438E-19 2.20454E-19
 -1      3642 6.15108E-05-1.45894E-05-1.98813E-05 5.97145E-06-3.06897E-19 1.32919E-18
 -1      3643 6.37170E-05-1.48239E-05-2.10105E-05-2.76638E-07-5.11224E-19 1.68975E-18
 -1      3644 9.29094E-05-1.97219E-05-3.13777E-05 5.35861E-07 2.95997E-19-7.11561E-19
 -1      3645 9.28251E-05-1.95995E-05-3.13954E-05 1.34218E-07 2.09254E-19-5.96259E-19
 -1      3646 9.52253E-05-2.42090E-05-3.04406E-05 1.71195E-06 6.51567E-19-1.67299E-19
 -1      3647 9.48763E-05-2.32933E-05-3.06743E-05 1.97992E-06 6.77060E-19-1.23606E-19
 -1      3648 9.50340E-05-2.38207E-05-3.05094E-05 1.06781E-06 6.75729E-19-1.51173E-19
 -1      3649 9.53520E-05-2.48204E-05-3.02296E-05 7.88701E-07 6.26379E-19-2.20787E-19
 -1      3650 9.48563E-05-2.79047E-05-2.86952E-05-1.77336E-07 2.27636E-18 4.42860E-19
 -1      3651 9.47772E-05-2.77919E-05-2.87058E-05-1.61439E-07 2.63714E-18 1.17462E-19
 -1      3652 9.48919E-05-2.79357E-05-2.86950E-05-2.32420E-07 1.39974E-18 2.40954E-18
 -1      3653 1.11727E-04-5.02854E-05-2.59553E-05 2.09751E-05 6.24925E-19 1.63878E-18
 -1      3654 9.40420E-05-2.15714E-05-3.10528E-05-1.79543E-06-4.34415E-19-3.51986E-19
 -1      3655 9.46562E-05-2.28319E-05-3.07880E-05-1.71018E-06-6.10397E-19-4.26662E-19
 -1      3656 9.49093E-05-2.36758E-05-3.05340E-05-8.24319E-07-5.65848E-19-4.43915E-19
 -1      3657 9.51453E-05-2.63232E-05-2.94954E-05-2.99107E-06 1.89721E-19-1.18654E-19
 -1      3658 9.30602E-05-1.99554E-05-3.13404E-05 7.96465E-07 2.74223E-19-7.11777E-19
 -1      3659 9.35383E-05-2.09106E-05-3.11049E-05 4.29908E-07 3.56990E-19-6.87881E-19
 -1      3660 9.32852E-05-2.03211E-05-3.12850E-05 1.17819E-06 3.79410E-19-6.71172E-19
 -1      3661 9.37272E-05-2.10586E-05-3.11559E-05-1.59371E-06-3.28087E-19-3.76779E-19
 -1      3662 9.41928E-05-2.21027E-05-3.08884E-05-9.27654E-07-3.58554E-19-2.67347E-19
 -1      3663 9.33997E-05-2.04849E-05-3.12500E-05-1.28177E-06-2.88668E-19-5.21749E-19
 -1      3664 9.23171E-05-1.84385E-05-3.16444E-05-4.36996E-07 2.93709E-20-6.90211E-19
 -1      3665 9.52899E-05-2.50803E-05-3.00875E-05-6.06701E-07 5.33021E-19-1.52293E-19
 -1      3666 9.54158E-05-2.53574E-05-3.00311E-05-3.54348E-07 4.63727E-19-1.77407E-19
 -1      3667 9.47185E-05-2.69014E-05-2.90550E-05-6.62224E-06 4.01357E-20-1.21597E-19
 -1      3668 9.46356E-05-2.68086E-05-2.90724E-05-6.17463E-06 2.10547E-19-1.89672E-19
 -1      3669 9.40670E-05-2.63443E-05-2.90253E-05-5.83833E-06 3.89361E-19-1.40863E-19
 -1      3670 9.37594E-05-2.63877E-05-2.88772E-05-6.85433E-06-1.47467E-19-1.75958E-19
 -1      3671 9.53529E-05-2.48929E-05-3.01925E-05 3.94268E-07 6.10525E-19-1.91520E-19
 -1      3672 9.49797E-05-2.79926E-05-2.87071E-05 4.12922E-07-1.52399E-18-1.27406E-18
 -1      3673 9.50486E-05-2.80997E-05-2.86939E-05 3.69377E-07-1.23110E-18-1.39610E-18
 -1      3674 9.50539E-05-2.81047E-05-2.86936E-05-3.56352E-07 7.04291E-19-1.29992E-18
 -1      3675 9.47778E-05-2.34723E-05-3.05536E-05-4.76331E-07-4.61747E-19-1.09200E-19
 -1      3676 9.49900E-05-2.80077E-05-2.87061E-05-3.98027E-07 1.27838E-18-1.52628E-19
 -1      3677 9.50053E-05-2.80525E-05-2.86933E-05-3.26067E-07 1.00661E-18 5.28122E-19
 -1      3678 9.49526E-05-2.80039E-05-2.86944E-05-2.91756E-07 3.60624E-19 2.72714E-18
 -1      3679 9.49356E-05-2.79283E-05-2.87186E-05-4.55374E-07 7.54358E-19 7.81174E-19
 -1      3680 9.38741E-05-2.53660E-05-2.93659E-05 3.20359E-06-5.76049E-20 2.85106E-19
 -1      3681 9.35173E-05-2.52421E-05-2.92621E-05 3.63640E-06-9.91122E-20 2.76251E-19
 -1      3682 9.29731E-05-2.50133E-05-2.91339E-05 3.99581E-06-8.18826E-20 6.88631E-20
 -1      3683 9.25211E-05-2.47796E-05-2.90322E-05 4.42876E-06-1.76623E-19-8.20322E-20
 -1      3684 9.28648E-05-2.47516E-05-2.91815E-05 3.30299E-06-1.01146E-19-1.31949E-19
 -1      3685 9.18371E-05-2.44498E-05-2.88921E-05 4.80889E-06-7.96025E-20 8.14324E-20
 -1      3686 9.12999E-05-2.41562E-05-2.87747E-05 5.27216E-06 1.49892E-19 9.96555E-20
 -1      3687 9.16494E-05-2.41841E-05-2.89014E-05 3.99762E-06-1.28341E-19 3.50452E-20
 -1      3688 9.04754E-05-2.37749E-05-2.86021E-05 5.70470E-06 1.45685E-19 2.32025E-19
 -1      3689 8.98687E-05-2.34813E-05-2.84484E-05 6.23215E-06 9.99695E-20 3.41535E-20
 -1      3690 9.01563E-05-2.34445E-05-2.85749E-05 4.74660E-06 1.51116E-19 1.87645E-19
 -1      3691 8.89003E-05-2.31090E-05-2.82181E-05 6.75905E-06 1.72227E-19 8.31161E-20
 -1      3692 8.82551E-05-2.28934E-05-2.80046E-05 7.39545E-06 6.37208E-20 1.83428E-19
 -1      3693 8.83799E-05-2.26374E-05-2.81551E-05 5.62103E-06 1.49142E-19 4.03800E-19
 -1      3694 8.71359E-05-2.26042E-05-2.76862E-05 8.08316E-06-1.02016E-20 1.15323E-19
 -1      3695 8.65149E-05-2.25742E-05-2.73868E-05 8.90114E-06 1.72797E-19 5.01274E-19
 -1      3696 8.63074E-05-2.18834E-05-2.75849E-05 6.72419E-06 4.51481E-20 3.24209E-19
 -1      3697 8.52409E-05-2.24705E-05-2.69416E-05 9.86973E-06 2.90565E-19 5.09946E-19
 -1      3698 8.47745E-05-2.27961E-05-2.65282E-05 1.09886E-05 4.48185E-19 4.01030E-19
 -1      3699 8.39205E-05-2.13285E-05-2.67931E-05 8.23913E-06 2.66376E-19 3.87030E-19
 -1      3700 8.33658E-05-2.30382E-05-2.59042E-05 1.24354E-05 5.04323E-19 3.47135E-19
 -1      3701 8.32925E-05-2.39934E-05-2.53508E-05 1.40307E-05 5.05272E-19 4.44074E-19
 -1      3702 8.12162E-05-2.11958E-05-2.56831E-05 1.04822E-05 4.62379E-19 2.80962E-19
 -1      3703 8.18681E-05-2.48394E-05-2.44793E-05 1.62085E-05 9.82151E-19 2.94049E-19
 -1      3704 8.29026E-05-2.69304E-05-2.38532E-05 1.83981E-05 1.02608E-18 5.79536E-19
 -1      3705 7.83420E-05-2.19203E-05-2.41234E-05 1.40183E-05 7.37360E-19 1.61687E-19
 -1      3706 8.36317E-05-2.86027E-05-2.36358E-05 1.94212E-05 2.53580E-20 2.20679E-19
 -1      3707 7.51966E-05-2.22189E-05-2.26699E-05 1.59127E-05-1.89990E-19 4.49788E-19
 -1      3708 7.04665E-05-2.05449E-05-2.10290E-05-1.76149E-05 7.70605E-19-2.39909E-19
 -1      3709 7.83317E-05-2.61968E-05-2.22987E-05-2.00769E-05 6.01288E-19-1.51397E-18
 -1      3710 8.00280E-05-2.47679E-05-2.37846E-05-1.71702E-05 8.26612E-19-1.03460E-18
 -1      3711 6.67885E-05-1.77292E-05-2.10802E-05-1.14877E-05 6.88936E-19 7.25907E-19
 -1      3712 9.48670E-05-2.41342E-05-3.03161E-05 3.44420E-07-4.15768E-19-8.63029E-21
 -1      3713 9.49139E-05-2.46579E-05-3.01168E-05 9.71524E-07-3.40540E-19-1.67809E-20
 -1      3714 8.35589E-05-2.27101E-05-2.60530E-05-1.18232E-05 1.54174E-19 1.20872E-20
 -1      3715 8.38973E-05-2.21118E-05-2.65266E-05-1.04307E-05 3.48013E-19 4.07625E-19
 -1      3716 8.51652E-05-2.20421E-05-2.70350E-05-9.25793E-06-7.23302E-19-3.03462E-20
 -1      3717 8.56892E-05-2.19026E-05-2.73724E-05-8.27268E-06-1.39345E-18-7.11676E-19
 -1      3718 8.21588E-05-2.06404E-05-2.63283E-05-8.72619E-06-2.02712E-19-3.22268E-19
 -1      3719 8.68051E-05-2.20897E-05-2.77258E-05-7.43075E-06-1.36590E-18-1.24911E-18
 -1      3720 8.73914E-05-2.22176E-05-2.79575E-05-6.67875E-06-6.97725E-19-1.03607E-18
 -1      3721 8.45287E-05-2.09409E-05-2.72225E-05-6.84310E-06-1.47311E-18-7.58136E-19
 -1      3722 8.83475E-05-2.25456E-05-2.81969E-05-6.05064E-06-7.83544E-19-1.60040E-18
 -1      3723 8.89135E-05-2.28139E-05-2.83479E-05-5.44504E-06-1.18587E-18-8.58991E-19
 -1      3724 8.65919E-05-2.15818E-05-2.78373E-05-5.50887E-06-1.33072E-18-1.36560E-18
 -1      3725 8.97205E-05-2.32064E-05-2.85046E-05-4.94703E-06-1.23380E-18-8.27761E-19
 -1      3726 9.02264E-05-2.35376E-05-2.85962E-05-4.44145E-06-9.62940E-19-7.64184E-19
 -1      3727 8.83400E-05-2.23782E-05-2.82496E-05-4.49067E-06-8.50824E-19-2.01341E-18
 -1      3728 9.08977E-05-2.39449E-05-2.86935E-05-4.03121E-06-5.27592E-19-1.05344E-18
 -1      3729 9.13290E-05-2.42903E-05-2.87430E-05-3.60135E-06-3.12674E-19-1.08426E-18
 -1      3730 8.98037E-05-2.32296E-05-2.85159E-05-3.66789E-06-7.38843E-19-1.48313E-18
 -1      3731 9.18794E-05-2.46815E-05-2.87987E-05-3.25671E-06-3.03296E-19-6.83772E-19
 -1      3732 9.22352E-05-2.50123E-05-2.88197E-05-2.89006E-06-7.14924E-19-7.17973E-19
 -1      3733 9.10124E-05-2.40669E-05-2.86783E-05-2.97954E-06-3.02017E-19-1.18605E-18
 -1      3734 9.26803E-05-2.53694E-05-2.88469E-05-2.59934E-06-3.69939E-19 5.67050E-19
 -1      3735 9.29665E-05-2.56699E-05-2.88495E-05-2.28867E-06 3.70635E-19 9.62531E-19
 -1      3736 9.19969E-05-2.48474E-05-2.87684E-05-2.39531E-06 5.28512E-19-9.41265E-19
 -1      3737 9.33212E-05-2.59843E-05-2.88579E-05-2.04491E-06 9.35335E-19 9.24317E-19
 -1      3738 9.35468E-05-2.62473E-05-2.88492E-05-1.78487E-06 1.47882E-18 1.08924E-18
 -1      3739 9.27877E-05-2.55474E-05-2.88095E-05-1.89963E-06 1.07184E-18 1.07511E-18
 -1      3740 9.38254E-05-2.65163E-05-2.88459E-05-1.58291E-06 1.66462E-18 1.08025E-18
 -1      3741 9.39999E-05-2.67399E-05-2.88310E-05-1.36848E-06 1.43947E-18 9.04970E-19
 -1      3742 9.34139E-05-2.61564E-05-2.88186E-05-1.48300E-06 1.52192E-18 1.41244E-18
 -1      3743 9.42154E-05-2.69647E-05-2.88208E-05-1.20361E-06 1.01868E-19 3.29356E-19
 -1      3744 9.43479E-05-2.71505E-05-2.88031E-05-1.02962E-06-3.09412E-19 3.03648E-19
 -1      3745 9.39025E-05-2.66732E-05-2.88080E-05-1.13774E-06 5.05482E-19 1.24549E-18
 -1      3746 9.45121E-05-2.73348E-05-2.87893E-05-8.97120E-07-2.16778E-19 5.30105E-19
 -1      3747 9.46109E-05-2.74863E-05-2.87710E-05-7.58509E-07 1.70131E-20 8.82824E-19
 -1      3748 9.42779E-05-2.71025E-05-2.87861E-05-8.55943E-07-2.06620E-20 8.94727E-19
 -1      3749 9.47341E-05-2.76352E-05-2.87559E-05-6.54321E-07 3.84485E-19 1.13453E-18
 -1      3750 9.48087E-05-2.77560E-05-2.87382E-05-5.45479E-07 5.87958E-19 1.29226E-18
 -1      3751 9.45615E-05-2.74528E-05-2.87585E-05-6.30766E-07 5.36927E-19 9.30483E-19
 -1      3752 7.91310E-05-2.82704E-05-2.16990E-05 2.28324E-05 8.95218E-19 4.63870E-19
 -1      3753 1.04248E-04-4.10021E-05-2.70221E-05-1.49555E-05-5.52694E-19 2.30246E-19
 -1      3754 9.88426E-05-3.60752E-05-2.69022E-05-1.46229E-05-7.18893E-19 3.36476E-19
 -1      3755 9.65160E-05-3.33660E-05-2.70002E-05-1.40750E-05-6.31577E-19 4.52799E-19
 -1      3756 9.16300E-05-2.56524E-05-2.82837E-05 7.89339E-06-2.19555E-19 3.34870E-19
 -1      3757 9.19280E-05-2.61775E-05-2.81561E-05 8.58831E-06 4.05174E-20 4.33583E-20
 -1      3758 9.19654E-05-2.67805E-05-2.79399E-05 9.54474E-06 2.74159E-19-2.24780E-19
 -1      3759 9.26825E-05-2.77727E-05-2.77832E-05 1.02842E-05-3.48184E-19 7.99623E-19
 -1      3760 9.00404E-05-2.54331E-05-2.76978E-05 9.14221E-06-1.05779E-19 7.39930E-19
 -1      3761 1.22293E-04-4.93268E-05-3.10768E-05 1.19031E-06-8.27644E-19 4.11294E-19
 -1      3762 9.44624E-05-2.28385E-05-3.07034E-05-5.89729E-07-3.44788E-19-2.27081E-19
 -1      3763 9.47168E-05-2.35998E-05-3.04796E-05-4.21388E-09-3.61751E-19-1.36055E-19
 -1      3764 9.45735E-05-2.34938E-05-3.04572E-05 1.99723E-07-2.72924E-19-1.37474E-19
 -1      3765 9.41840E-05-2.23136E-05-3.08014E-05-4.76393E-07-3.28456E-19-4.46667E-19
 -1      3766 9.31490E-05-2.89235E-05-2.75212E-05 1.14435E-05-4.25307E-19 1.10125E-18
 -1      3767 9.45357E-05-3.05819E-05-2.73643E-05 1.21477E-05-4.95696E-20 1.37980E-18
 -1      3768 9.04478E-05-2.70744E-05-2.71752E-05 1.13473E-05-1.45956E-20-4.67934E-19
 -1      3769 9.17677E-05-2.52028E-05-2.85371E-05 6.48358E-06 4.32257E-19 1.50923E-18
 -1      3770 9.18229E-05-2.54138E-05-2.84463E-05 7.10665E-06 2.21888E-19 1.07054E-18
 -1      3771 9.02471E-05-2.46715E-05-2.81054E-05 7.36968E-06-1.73389E-19 8.23513E-19
 -1      3772 9.21417E-05-2.51794E-05-2.87077E-05 5.28437E-06 1.17457E-18 3.40076E-19
 -1      3773 9.20670E-05-2.51923E-05-2.86507E-05 5.83383E-06 8.33433E-19 9.70646E-19
 -1      3774 9.07637E-05-2.44852E-05-2.84022E-05 5.93952E-06 8.68060E-19 7.14430E-19
 -1      3775 9.26096E-05-2.54062E-05-2.88104E-05 4.26647E-06-9.31271E-20 4.92071E-19
 -1      3776 9.24750E-05-2.53038E-05-2.87809E-05 4.74547E-06 6.83107E-19 9.96202E-20
 -1      3777 9.14072E-05-2.46529E-05-2.86041E-05 4.77184E-06 8.61783E-19 1.28706E-18
 -1      3778 9.30882E-05-2.57629E-05-2.88618E-05 3.40613E-06-4.98407E-19 5.67207E-19
 -1      3779 9.29353E-05-2.56012E-05-2.88525E-05 3.81868E-06-3.33592E-20 5.04351E-19
 -1      3780 9.20697E-05-2.50186E-05-2.87307E-05 3.81058E-06-6.21628E-20 5.37031E-19
 -1      3781 9.35322E-05-2.61697E-05-2.88767E-05 2.68445E-06-3.95869E-19-6.46715E-19
 -1      3782 9.33841E-05-2.59856E-05-2.88813E-05 3.03496E-06-5.74596E-19 2.26108E-19
 -1      3783 9.26909E-05-2.54768E-05-2.88008E-05 3.01640E-06 1.20736E-19 1.73063E-19
 -1      3784 9.39201E-05-2.65768E-05-2.88674E-05 2.08539E-06 5.77431E-19-1.32562E-19
 -1      3785 9.37883E-05-2.63930E-05-2.88806E-05 2.37877E-06-2.38594E-19-2.81487E-19
 -1      3786 9.32408E-05-2.59587E-05-2.88305E-05 2.36138E-06 4.51164E-20-3.74434E-19
 -1      3787 9.42448E-05-2.69551E-05-2.88435E-05 1.59437E-06 6.10215E-19 2.11185E-18
 -1      3788 9.41338E-05-2.67848E-05-2.88613E-05 1.83608E-06 4.36005E-19 1.04344E-18
 -1      3789 9.37079E-05-2.64218E-05-2.88329E-05 1.82446E-06-6.35626E-19 1.27443E-18
 -1      3790 9.45074E-05-2.72895E-05-2.88118E-05 1.19749E-06 2.38842E-18 1.49668E-18
 -1      3791 9.44177E-05-2.71394E-05-2.88315E-05 1.39346E-06 2.49952E-18 2.18129E-18
 -1      3792 9.40918E-05-2.68420E-05-2.88181E-05 1.38862E-06 1.94811E-18 1.68183E-18
 -1      3793 9.47137E-05-2.75746E-05-2.87771E-05 8.81395E-07 1.29539E-18 6.89856E-19
 -1      3794 9.46436E-05-2.74469E-05-2.87968E-05 1.03767E-06 1.76458E-18 1.01169E-18
 -1      3795 9.43986E-05-2.72079E-05-2.87934E-05 1.03893E-06 2.16497E-18 3.12187E-18
 -1      3796 9.48713E-05-2.78100E-05-2.87426E-05 6.34375E-07-1.21354E-18 1.40900E-19
 -1      3797 9.48184E-05-2.77050E-05-2.87612E-05 7.55994E-07 4.76048E-20 5.78299E-19
 -1      3798 9.46372E-05-2.75169E-05-2.87641E-05 7.62523E-07 9.95555E-19 2.77869E-18
 -1      3799 9.48656E-05-2.60438E-05-2.94959E-05-2.99093E-06 2.04228E-19-2.24873E-19
 -1      3800 9.49982E-05-2.59135E-05-2.96081E-05-2.48291E-06 3.51728E-19-8.49994E-20
 -1      3801 9.48940E-05-2.79423E-05-2.86935E-05 2.32462E-07 1.86017E-19-9.59080E-20
 -1      3802 9.48648E-05-2.78830E-05-2.87049E-05 3.06105E-07-2.19556E-20-4.57736E-19
 -1      3803 9.48583E-05-2.79088E-05-2.86941E-05 1.79074E-07 2.10304E-18 1.59182E-18
 -1      3804 9.29746E-05-1.98165E-05-3.13581E-05-6.64550E-07-8.54512E-20-7.42879E-19
 -1      3805 9.31727E-05-2.01482E-05-3.13089E-05-1.03728E-06-1.70126E-19-6.55210E-19
 -1      3806 9.37033E-05-2.12336E-05-3.10450E-05-6.02016E-07-2.53888E-19-4.81213E-19
 -1      3807 9.39045E-05-2.13643E-05-3.11054E-05 1.72818E-06 5.56476E-19-4.58595E-19
 -1      3808 9.35636E-05-2.07651E-05-3.12065E-05 1.40721E-06 4.33356E-19-5.12240E-19
 -1      3809 9.39461E-05-2.15907E-05-3.09883E-05 8.12011E-07 3.73753E-19-4.69225E-19
 -1      3810 9.49371E-05-2.79309E-05-2.87179E-05 4.75469E-07-1.08874E-18-9.39665E-19
 -1      3811 9.49209E-05-2.78777E-05-2.87310E-05 5.57784E-07-1.12140E-18-8.15299E-19
 -1      3812 9.47865E-05-2.77331E-05-2.87374E-05 5.64662E-07-5.11047E-19 1.23736E-18
 -1      3813 9.48780E-05-2.78778E-05-2.87154E-05 4.24842E-07-8.94875E-19-1.66256E-18
 -1      3814 9.51654E-05-2.49555E-05-3.00963E-05-8.72681E-07 3.68682E-19-1.38111E-19
 -1      3815 9.50691E-05-2.43529E-05-3.02964E-05-1.75375E-07 3.57405E-19-8.65134E-20
 -1      3816 9.48753E-05-2.50426E-05-2.99289E-05 1.43854E-06-2.53866E-19 5.44121E-20
 -1      3817 9.47550E-05-2.52908E-05-2.97756E-05 1.96989E-06-1.78878E-19 1.03170E-19
 -1      3818 9.46927E-05-2.44389E-05-3.01004E-05 1.01287E-06-2.86566E-19 2.14995E-19
 -1      3819 9.51160E-05-2.81684E-05-2.86915E-05 3.85733E-07-9.96241E-19 3.55690E-19
 -1      3820 9.57359E-05-3.24342E-05-2.70936E-05 1.34269E-05-2.38029E-19 1.17221E-18
 -1      3821 9.80933E-05-3.49782E-05-2.70122E-05 1.39649E-05-1.58670E-19 9.87918E-19
 -1      3822 9.20265E-05-3.00788E-05-2.65722E-05 1.40040E-05-3.29708E-19 2.93043E-19
 -1      3823 8.20296E-05-2.42265E-05-2.47387E-05-1.51498E-05 5.04034E-19-8.63206E-19
 -1      3824 8.19171E-05-2.29004E-05-2.53672E-05-1.31480E-05 8.69929E-20-4.42399E-19
 -1      3825 7.93327E-05-2.05737E-05-2.50914E-05-1.09975E-05 7.23235E-19-9.32820E-19
 -1      3826 7.56358E-05-2.06001E-05-2.33821E-05-1.39256E-05 7.79532E-19-3.73618E-19
 -1      3827 9.28256E-05-1.95896E-05-3.13950E-05-7.05544E-08 2.01784E-19-4.51983E-19
 -1      3828 9.28838E-05-1.96933E-05-3.13804E-05-4.66476E-07 7.62236E-20-6.49988E-19
 -1      3829 9.34562E-05-2.08000E-05-3.11191E-05-2.69277E-07 1.92286E-20-4.81818E-19
 -1      3830 9.34024E-05-2.06882E-05-3.11401E-05 4.79036E-08 2.44941E-19-5.06963E-19
 -1      3831 9.45206E-05-2.54110E-05-2.96212E-05 2.37185E-06-4.75629E-24 1.38697E-19
 -1      3832 9.42715E-05-2.54457E-05-2.94997E-05 2.83676E-06-3.65635E-21 2.90664E-19
 -1      3833 9.37964E-05-2.50518E-05-2.94538E-05 2.60778E-06-1.07266E-19 3.33843E-19
 -1      3834 9.44213E-05-2.49857E-05-2.97508E-05 1.86002E-06-2.01629E-20 2.92446E-19
 -1      3835 9.25011E-05-2.68692E-05-2.81046E-05-9.43193E-06-2.71642E-19-2.37151E-19
 -1      3836 9.22059E-05-2.63106E-05-2.82477E-05-8.77623E-06-2.38048E-19-2.67092E-19
 -1      3837 9.51354E-05-2.57094E-05-2.97576E-05-2.00931E-06 4.23762E-19-1.07776E-19
 -1      3838 9.51825E-05-2.53943E-05-2.99077E-05-1.41810E-06 4.47047E-19-5.93653E-20
 -1      3839 9.49672E-05-2.47251E-05-3.01013E-05-1.00565E-06 4.07818E-19-1.79992E-19
 -1      3840 9.48557E-05-2.54165E-05-2.97555E-05-2.02413E-06 4.24778E-19-1.42388E-19
 -1      3841 9.45341E-05-2.26751E-05-3.07788E-05 1.08759E-06 5.95124E-19-2.93661E-19
 -1      3842 7.27935E-05-2.34686E-05-2.10267E-05 2.02297E-05 9.32034E-19-9.00370E-20
 -1      3843 6.18990E-05-1.54292E-05-1.98539E-05 6.31650E-06 1.03020E-18-1.30409E-18
 -1      3844 5.89020E-05-1.39480E-05-1.89466E-05 1.86107E-06 1.13486E-18-1.41672E-18
 -1      3845 6.23658E-05-1.50912E-05-2.02303E-05-3.03544E-06 1.07244E-18-1.11839E-18
 -1      3846 9.46461E-05-2.76469E-05-2.87149E-05-4.09818E-08 3.67167E-18 1.72925E-18
 -1      3847 9.46466E-05-2.76479E-05-2.87147E-05 4.81133E-08 2.93793E-18 1.50162E-18
 -1      3848 7.83747E-05-2.22014E-05-2.40272E-05 1.31111E-05-1.52453E-19 5.71995E-19
 -1      3849 7.25459E-05-1.93806E-05-2.26819E-05 1.25506E-05-6.25101E-19-7.36555E-20
 -1      3850 7.10260E-05-1.75647E-05-2.30135E-05 7.63029E-06-7.45875E-19 4.98019E-19
 -1      3851 9.05232E-05-3.22082E-05-2.48949E-05 1.84503E-05-2.15332E-20 2.83177E-19
 -1      3852 8.75546E-05-2.88132E-05-2.51987E-05 1.62143E-05 1.26631E-19 1.35545E-19
 -1      3853 9.37058E-05-2.15963E-05-3.09131E-05 7.00781E-08 1.94039E-19-5.52851E-19
 -1      3854 9.36932E-05-2.15904E-05-3.09129E-05-5.98310E-08 2.08795E-19-3.39071E-19
 -1      3855 9.48176E-05-2.77908E-05-2.87248E-05-4.44452E-07 5.86554E-19 7.82550E-19
 -1      3856 6.83538E-05-1.58223E-05-2.25264E-05-6.38118E-07-5.79533E-19 5.58870E-19
 -1      3857 6.62384E-05-1.52729E-05-2.15857E-05-5.51824E-06 3.12546E-19 7.75128E-19
 -1      3858 8.35772E-05-2.98486E-05-2.28944E-05-2.15327E-05-6.07945E-19-1.92761E-19
 -1      3859 9.12064E-05-3.51411E-05-2.41108E-05-2.15923E-05-7.58210E-19 5.82600E-20
 -1      3860 9.24480E-05-2.60546E-05-2.84376E-05-8.01545E-06-1.80652E-19-3.61644E-19
 -1      3861 9.24169E-05-2.58148E-05-2.85524E-05-7.42627E-06-2.57554E-19-5.46734E-19
 -1      3862 9.09201E-05-2.53637E-05-2.80999E-05-8.21431E-06-2.65946E-19-4.19517E-19
 -1      3863 9.88533E-05-3.80509E-05-2.61061E-05-1.73454E-05-6.42554E-19 8.06667E-21
 -1      3864 6.65940E-05-1.72455E-05-2.11529E-05-9.56484E-06 2.20027E-19-4.18328E-19
 -1      3865 6.83305E-05-1.88687E-05-2.11031E-05-1.35500E-05-9.61779E-20-1.17870E-19
 -1      3866 9.48713E-05-2.78884E-05-2.87060E-05-3.04820E-07 7.84705E-19 1.74653E-18
 -1      3867 9.47776E-05-2.77960E-05-2.87047E-05 1.66314E-07 2.07764E-18 1.69966E-18
 -1      3868 9.46095E-05-2.60776E-05-2.93733E-05-3.42816E-06 1.13705E-19-2.63606E-19
 -1      3869 9.44626E-05-2.56809E-05-2.94738E-05-2.93156E-06 1.98099E-19-2.51687E-19
 -1      3870 9.44274E-05-2.60894E-05-2.92858E-05-3.89511E-06 7.94574E-20-3.46468E-19
 -1      3871 9.47477E-05-2.77511E-05-2.87141E-05 2.89912E-07 2.29833E-18 3.43123E-18
 -1      3872 9.48035E-05-2.78048E-05-2.87144E-05 3.54543E-07 8.13341E-19-1.30533E-19
 -1      3873 9.47594E-05-2.77310E-05-2.87248E-05 4.16789E-07 1.27438E-18 7.72139E-19
 -1      3874 9.27181E-05-3.10705E-05-2.64745E-05-1.46798E-05-6.64380E-19 4.13956E-19
 -1      3875 9.52063E-05-3.14693E-05-2.72734E-05-1.28462E-05-4.42822E-19 3.94598E-20
 -1      3876 9.37774E-05-2.97333E-05-2.74303E-05-1.21674E-05-9.90611E-20 5.85805E-20
 -1      3877 9.54624E-05-3.53129E-05-2.58886E-05 1.72292E-05-5.58102E-19 5.70250E-19
 -1      3878 6.90179E-05-1.95760E-05-2.12474E-05 1.45839E-05 1.08006E-18-5.30163E-19
 -1      3879 7.17413E-05-2.16297E-05-2.14337E-05-1.67222E-05-2.57829E-19 1.47040E-20
 -1      3880 7.81049E-05-2.64069E-05-2.21776E-05-2.05844E-05-3.70114E-19-3.13098E-19
 -1      3881 8.34664E-05-2.78513E-05-2.37100E-05-1.84971E-05-6.90286E-19 1.15440E-19
 -1      3882 7.47961E-05-2.15861E-05-2.26994E-05-1.44121E-05-1.92002E-19-2.38029E-20
 -1      3883 9.25229E-05-2.74905E-05-2.78698E-05-1.03563E-05-1.38130E-19-1.36898E-19
 -1      3884 9.06526E-05-2.61924E-05-2.76428E-05-9.95272E-06-1.09168E-19-5.43252E-19
 -1      3885 9.32598E-05-2.85425E-05-2.77036E-05-1.10666E-05-7.47344E-20-7.28473E-20
 -1      3886 1.00550E-04-3.82479E-05-2.66806E-05 1.54196E-05-9.60426E-19 1.50309E-18
 -1      3887 9.39363E-05-2.19834E-05-3.08515E-05 2.77905E-07 4.28344E-19-6.26494E-19
 -1      3888 9.37926E-05-2.17375E-05-3.08910E-05 1.16769E-07 3.30720E-19-6.32086E-19
 -1      3889 9.40882E-05-2.24725E-05-3.06731E-05-2.89601E-08 2.52187E-19-5.28026E-19
 -1      3890 9.33092E-05-2.58229E-05-2.89153E-05-5.74014E-06 3.55666E-19-1.82668E-19
 -1      3891 9.34942E-05-2.58605E-05-2.89926E-05-5.25665E-06 3.46453E-19-3.05672E-19
 -1      3892 9.46968E-05-2.76933E-05-2.87165E-05-2.29605E-07 1.81382E-18-8.53326E-19
 -1      3893 9.46641E-05-2.76646E-05-2.87159E-05-1.49052E-07 2.76110E-18-8.78606E-19
 -1      3894 9.45630E-05-2.75313E-05-2.87256E-05-1.08511E-07 2.51740E-18-6.61968E-19
 -1      3895 9.38858E-05-2.59727E-05-2.91010E-05-4.79093E-06 1.50305E-19-3.45104E-19
 -1      3896 9.40871E-05-2.60185E-05-2.91770E-05-4.32974E-06 9.06528E-20-4.81213E-19
 -1      3897 9.31381E-05-2.54606E-05-2.90010E-05-4.68749E-06 2.65542E-19-4.12197E-19
 -1      3898 7.10669E-05-1.83065E-05-2.26511E-05-1.03854E-05 6.16693E-19 5.33247E-19
 -1      3899 7.38685E-05-1.99476E-05-2.30488E-05 1.24341E-05 7.04305E-19-4.86652E-19
 -1      3900 6.68480E-05-1.71232E-05-2.11520E-05 1.03757E-05 8.25712E-19-1.29584E-18
 -1      3901 6.69905E-05-1.62389E-05-2.18089E-05 5.23946E-06 8.68196E-19-1.51455E-18
 -1      3902 7.53399E-05-1.95846E-05-2.39880E-05 1.04150E-05 5.27731E-19-4.35762E-19
 -1      3903 9.15654E-05-2.40790E-05-2.89331E-05 3.04363E-06 1.08681E-20-1.27885E-19
 -1      3904 9.08791E-05-2.37368E-05-2.87801E-05 3.36491E-06 1.66726E-19 1.63142E-19
 -1      3905 8.99822E-05-2.33095E-05-2.85883E-05 3.60147E-06 1.67868E-19 3.34418E-19
 -1      3906 8.91522E-05-2.28958E-05-2.84004E-05 3.95183E-06 2.46616E-19 3.26279E-19
 -1      3907 9.00325E-05-2.32034E-05-2.86236E-05 2.60783E-06 2.52557E-19 3.35200E-19
 -1      3908 8.80558E-05-2.24061E-05-2.81555E-05 4.22656E-06 4.37775E-19 4.04243E-19
 -1      3909 8.70778E-05-2.19751E-05-2.79061E-05 4.64297E-06 2.10834E-19 5.24700E-19
 -1      3910 8.80672E-05-2.22613E-05-2.81788E-05 3.01582E-06 4.11142E-19 2.63218E-19
 -1      3911 8.57395E-05-2.14641E-05-2.75760E-05 4.98898E-06 3.48706E-20 6.04456E-19
 -1      3912 8.46000E-05-2.10680E-05-2.72329E-05 5.53316E-06 1.51688E-19 6.11788E-19
 -1      3913 8.56700E-05-2.12092E-05-2.75932E-05 3.50641E-06 3.31945E-19 5.93912E-19
 -1      3914 8.29476E-05-2.05741E-05-2.67752E-05 6.01680E-06 1.90814E-20 3.66670E-19
 -1      3915 8.16332E-05-2.02711E-05-2.62970E-05 6.79505E-06 1.63008E-19 4.71927E-19
 -1      3916 8.27295E-05-2.01115E-05-2.67921E-05 4.14707E-06-3.11272E-20 8.48299E-19
 -1      3917 7.95396E-05-1.98508E-05-2.56460E-05 7.57345E-06 2.87766E-19 3.12935E-20
 -1      3918 7.80979E-05-1.97644E-05-2.49754E-05 8.74553E-06 3.90894E-19-1.26385E-19
 -1      3919 7.90380E-05-1.89981E-05-2.56680E-05 5.11307E-06-1.18822E-19-8.55305E-21
 -1      3920 9.40349E-05-2.23887E-05-3.06847E-05-3.09630E-08 9.62428E-20-1.09934E-19
 -1      3921 9.37153E-05-2.16272E-05-3.09035E-05-9.26751E-08 1.30970E-19-2.37024E-19
 -1      3922 9.37830E-05-2.17454E-05-3.08829E-05-2.09857E-07-3.60122E-20-3.57139E-19
 -1      3923 9.47365E-05-2.77160E-05-2.87244E-05-3.75958E-07 1.27756E-18 7.30111E-19
 -1      3924 7.04436E-05-1.60757E-05-2.31620E-05 2.93982E-06-9.27584E-19 9.49973E-19
 -1      3925 7.14360E-05-1.64859E-05-2.36441E-05-1.80644E-06-2.73673E-19 8.10472E-20
 -1      3926 9.61502E-05-3.73703E-05-2.51603E-05-1.94651E-05-6.63187E-19-4.06940E-20
 -1      3927 8.25404E-05-2.00074E-05-2.68061E-05-5.64892E-06-1.20564E-18-6.02493E-19
 -1      3928 8.36895E-05-2.03377E-05-2.71857E-05-4.97935E-06-1.12386E-18-7.05327E-19
 -1      3929 8.50644E-05-2.08174E-05-2.75409E-05-4.55431E-06-1.83694E-18-8.60921E-19
 -1      3930 8.60354E-05-2.12274E-05-2.77994E-05-4.06220E-06-1.62934E-18-1.29050E-18
 -1      3931 8.34463E-05-1.99569E-05-2.71720E-05-3.41854E-06-1.92702E-18-3.69979E-19
 -1      3932 8.71408E-05-2.17277E-05-2.80400E-05-3.73706E-06-1.19677E-18-1.59066E-18
 -1      3933 8.79557E-05-2.21715E-05-2.82110E-05-3.34608E-06-9.32303E-19-1.26001E-18
 -1      3934 8.58852E-05-2.10030E-05-2.77780E-05-2.83427E-06-1.59523E-18-8.55201E-20
 -1      3935 8.88518E-05-2.26668E-05-2.83700E-05-3.08212E-06-5.65793E-19-5.54982E-19
 -1      3936 8.95275E-05-2.31096E-05-2.84783E-05-2.75522E-06-4.33241E-19-3.37811E-19
 -1      3937 8.78578E-05-2.20409E-05-2.81854E-05-2.37222E-06-5.94372E-19 5.25940E-19
 -1      3938 9.02557E-05-2.35797E-05-2.85794E-05-2.53082E-06-6.12202E-19-6.11910E-19
 -1      3939 9.08088E-05-2.39987E-05-2.86435E-05-2.25068E-06-3.90229E-19-8.45627E-19
 -1      3940 8.94603E-05-2.30335E-05-2.84517E-05-1.97944E-06-5.33652E-19 7.89662E-19
 -1      3941 9.13983E-05-2.44295E-05-2.87039E-05-2.05682E-06 2.21807E-19-7.62694E-19
 -1      3942 9.18451E-05-2.48108E-05-2.87375E-05-1.81560E-06 1.05265E-18-4.39401E-19
 -1      3943 9.07616E-05-2.39552E-05-2.86181E-05-1.63400E-06 2.44788E-19-6.05488E-20
 -1      3944 9.23186E-05-2.51940E-05-2.87698E-05-1.64851E-06 1.98882E-18-1.84990E-19
 -1      3945 9.26746E-05-2.55303E-05-2.87830E-05-1.44234E-06 1.86769E-18 1.46481E-19
 -1      3946 9.18119E-05-2.47871E-05-2.87145E-05-1.32875E-06 1.72705E-18 3.76302E-19
 -1      3947 9.30507E-05-2.58624E-05-2.87963E-05-1.30001E-06 1.42347E-18 8.65795E-19
 -1      3948 9.33303E-05-2.61514E-05-2.87965E-05-1.12621E-06 1.47289E-18 6.43012E-19
 -1      3949 9.26516E-05-2.55189E-05-2.87631E-05-1.06187E-06 2.32103E-18 4.29875E-19
 -1      3950 9.36254E-05-2.64328E-05-2.87977E-05-1.00708E-06 8.14274E-19-1.38660E-19
 -1      3951 9.38417E-05-2.66757E-05-2.87899E-05-8.62992E-07-2.52358E-20-1.04703E-19
 -1      3952 9.33150E-05-2.61479E-05-2.87797E-05-8.32600E-07 6.74322E-19-8.45355E-20
 -1      3953 9.40698E-05-2.69085E-05-2.87837E-05-7.65594E-07-1.51348E-19-4.04279E-19
 -1      3954 9.42345E-05-2.71091E-05-2.87716E-05-6.47365E-07 2.20645E-19 2.15734E-19
 -1      3955 9.38327E-05-2.66778E-05-2.87761E-05-6.40397E-07-1.89564E-19-1.54151E-18
 -1      3956 9.44086E-05-2.72992E-05-2.87610E-05-5.69278E-07 2.30812E-19-5.08545E-19
 -1      3957 9.45299E-05-2.74597E-05-2.87469E-05-4.75336E-07 6.21955E-19-1.79769E-19
 -1      3958 9.42283E-05-2.71144E-05-2.87603E-05-4.83500E-07 4.06641E-19-2.37594E-18
 -1      3959 8.80930E-05-2.39372E-05-2.75182E-05 8.16537E-06-4.03755E-19 3.42395E-19
 -1      3960 8.80938E-05-2.44136E-05-2.72677E-05 9.14655E-06-4.21817E-19 6.99347E-20
 -1      3961 8.98162E-05-2.37929E-05-2.83116E-05 5.10634E-06 8.84184E-19-1.11394E-19
 -1      3962 8.95107E-05-2.37318E-05-2.81809E-05 5.72409E-06 2.28880E-19-2.96358E-19
 -1      3963 6.59828E-05-1.60464E-05-2.12593E-05-6.28517E-06 4.62564E-19-6.05423E-19
 -1      3964 7.02427E-05-1.77402E-05-2.24518E-05-8.09663E-06-2.68174E-19 1.45389E-19
 -1      3965 6.62145E-05-1.57853E-05-2.16182E-05-2.12931E-06 6.91384E-19-8.19352E-19
 -1      3966 9.48913E-05-2.38161E-05-3.04677E-05 3.13778E-07 4.45233E-19-1.08878E-19
 -1      3967 9.45989E-05-2.32245E-05-3.05923E-05 2.65836E-07 3.64596E-19-2.30003E-19
 -1      3968 8.88960E-05-2.36504E-05-2.79817E-05 6.44629E-06 1.65904E-19 1.08211E-19
 -1      3969 8.86919E-05-2.37960E-05-2.77959E-05 7.21574E-06-4.91703E-20 4.30965E-19
 -1      3970 8.68015E-05-2.28391E-05-2.74006E-05 7.17546E-06-3.82519E-19 2.11671E-19
 -1      3971 9.07351E-05-2.41843E-05-2.85349E-05 4.04537E-06 6.23245E-20 9.09562E-19
 -1      3972 9.03978E-05-2.40035E-05-2.84489E-05 4.54863E-06 7.04865E-19 7.90088E-19
 -1      3973 8.92266E-05-2.32872E-05-2.82485E-05 4.32579E-06 1.67933E-19-1.29846E-19
 -1      3974 9.15890E-05-2.47024E-05-2.86765E-05 3.19272E-06 4.00746E-20 2.14513E-19
 -1      3975 9.12607E-05-2.44615E-05-2.86248E-05 3.60652E-06 2.27990E-19 7.14930E-19
 -1      3976 9.03310E-05-2.38409E-05-2.84856E-05 3.38254E-06 2.87311E-19-5.40513E-19
 -1      3977 9.23456E-05-2.52647E-05-2.87579E-05 2.50197E-06 4.67702E-19 3.75233E-20
 -1      3978 9.20480E-05-2.50035E-05-2.87312E-05 2.84326E-06 1.04754E-19 2.36918E-19
 -1      3979 9.13106E-05-2.44695E-05-2.86372E-05 2.64098E-06 2.39277E-19-3.42507E-19
 -1      3980 9.29928E-05-2.58179E-05-2.87966E-05 1.94143E-06-1.53233E-18 1.22285E-18
 -1      3981 9.27355E-05-2.55617E-05-2.87873E-05 2.22218E-06-4.43268E-19 8.09076E-19
 -1      3982 9.21537E-05-2.51074E-05-2.87265E-05 2.05121E-06-2.54363E-19 5.04483E-20
 -1      3983 9.35304E-05-2.63298E-05-2.88063E-05 1.48802E-06-8.84974E-19 2.60854E-18
 -1      3984 9.33158E-05-2.60935E-05-2.88085E-05 1.71737E-06-1.64194E-18 1.52885E-18
 -1      3985 9.28608E-05-2.57124E-05-2.87715E-05 1.57979E-06-1.49456E-18 1.17299E-18
 -1      3986 9.39661E-05-2.67836E-05-2.87974E-05 1.12420E-06 2.23924E-18 2.84482E-18
 -1      3987 9.37923E-05-2.65750E-05-2.88066E-05 1.30952E-06 1.09482E-18 2.38001E-18
 -1      3988 9.34404E-05-2.62602E-05-2.87864E-05 1.20289E-06 1.41485E-20 2.64956E-18
 -1      3989 9.43106E-05-2.71719E-05-2.87775E-05 8.35231E-07 1.89472E-18 3.93651E-18
 -1      3990 9.41735E-05-2.69939E-05-2.87906E-05 9.83295E-07 2.60054E-18 4.04757E-18
 -1      3991 9.39056E-05-2.67381E-05-2.87818E-05 9.04413E-07 1.34512E-18 4.14325E-18
 -1      3992 9.45775E-05-2.74949E-05-2.87519E-05 6.09943E-07 7.47717E-19 3.71620E-18
 -1      3993 9.44717E-05-2.73480E-05-2.87666E-05 7.24326E-07 1.62205E-18 4.07189E-18
 -1      3994 9.42700E-05-2.71435E-05-2.87654E-05 6.68699E-07 1.75473E-18 4.37568E-18
 -1      3995 9.46991E-05-2.76584E-05-2.87329E-05 4.68793E-07 1.47034E-18 1.39337E-18
 -1      3996 9.46473E-05-2.75753E-05-2.87439E-05 5.45304E-07 1.60435E-18 2.72535E-18
 -1      3997 9.44939E-05-2.74147E-05-2.87469E-05 5.02946E-07 2.17253E-18 4.62246E-18
 -1      3998 9.46239E-05-2.75867E-05-2.87313E-05 3.89214E-07 3.07743E-18 2.99671E-18
 -1      3999 8.83790E-05-2.81521E-05-2.57990E-05 1.44840E-05-1.67490E-19 1.19521E-19
 -1      4000 8.26431E-05-2.46072E-05-2.47729E-05 1.46514E-05 1.23713E-20 1.36336E-19
 -1      4001 7.94537E-05-2.20596E-05-2.46916E-05 1.19080E-05-4.29825E-19 2.65889E-19
 -1      4002 8.72566E-05-2.63513E-05-2.61539E-05 1.29097E-05-4.58288E-19 1.11120E-19
 -1      4003 9.43728E-05-2.27838E-05-3.06948E-05 3.64066E-07 3.80011E-19-4.37700E-19
 -1      4004 9.41316E-05-2.23396E-05-3.07738E-05 2.41279E-07 3.88249E-19-5.01968E-19
 -1      4005 9.43641E-05-2.29876E-05-3.05708E-05-1.07229E-07 4.68632E-19-4.60047E-19
 -1      4006 9.47339E-05-2.37854E-05-3.03967E-05-3.33951E-07 3.40853E-19-3.76048E-19
 -1      4007 9.52079E-05-2.44373E-05-3.03368E-05 5.43557E-07 5.63617E-19-1.85166E-19
 -1      4008 9.50246E-05-2.39611E-05-3.04635E-05 6.53507E-07 5.71964E-19-2.00186E-20
 -1      4009 9.45603E-05-2.39883E-05-3.02450E-05 5.84013E-07-1.50656E-19-1.62271E-19
 -1      4010 9.45170E-05-2.44118E-05-3.00512E-05 1.02989E-06-1.33894E-19-6.61794E-20
 -1      4011 9.27854E-05-2.57866E-05-2.87024E-05-6.79564E-06-1.34755E-19-2.74519E-19
 -1      4012 9.29041E-05-2.57389E-05-2.87931E-05-6.26832E-06 2.36823E-19-1.13956E-19
 -1      4013 9.23399E-05-2.52381E-05-2.87550E-05-5.66931E-06 3.19602E-19 1.19866E-19
 -1      4014 9.15531E-05-2.51325E-05-2.84642E-05-6.81988E-06 1.64442E-20 3.50410E-20
 -1      4015 9.10970E-05-3.20988E-05-2.52473E-05-1.77674E-05-6.12981E-19 3.58120E-20
 -1      4016 8.72157E-05-2.92093E-05-2.49342E-05-1.71628E-05-6.33155E-19-7.04063E-20
 -1      4017 9.04661E-05-3.01182E-05-2.58017E-05-1.55350E-05-8.11157E-19 2.63107E-19
 -1      4018 8.91776E-05-2.81661E-05-2.61439E-05-1.40678E-05-6.74490E-19 1.55754E-19
 -1      4019 8.74751E-05-2.47357E-05-2.69205E-05 1.02122E-05-2.72610E-19 1.78330E-19
 -1      4020 8.78428E-05-2.56893E-05-2.66068E-05 1.14567E-05-4.72853E-19-2.55322E-19
 -1      4021 8.43813E-05-2.38158E-05-2.59134E-05 1.16258E-05-4.14082E-19 3.18711E-19
 -1      4022 8.56029E-05-2.31270E-05-2.67472E-05 9.15828E-06-8.84173E-19 1.95338E-19
 -1      4023 9.28301E-05-2.46297E-05-2.92365E-05 2.50109E-06-1.65636E-19-1.32889E-19
 -1      4024 9.22852E-05-2.44023E-05-2.90972E-05 2.81871E-06-2.39142E-19-2.19128E-19
 -1      4025 9.16291E-05-2.39602E-05-2.89872E-05 2.21589E-06 5.98730E-20 3.79269E-20
 -1      4026 9.38597E-05-2.18157E-05-3.08820E-05-2.61251E-07-1.27328E-19-3.58385E-19
 -1      4027 9.40402E-05-2.21299E-05-3.08273E-05-4.11443E-07-2.81643E-19-4.79681E-19
 -1      4028 9.42932E-05-2.27673E-05-3.06469E-05-1.07445E-07-1.76386E-19-4.46803E-19
 -1      4029 9.41194E-05-2.25134E-05-3.06730E-05-4.21058E-08-1.94444E-20-2.48399E-19
 -1      4030 9.46699E-05-2.76736E-05-2.87140E-05 1.33885E-07 2.40232E-18-2.76969E-19
 -1      4031 9.47010E-05-2.77027E-05-2.87142E-05 2.16201E-07 1.94306E-18 1.89364E-18
 -1      4032 9.46381E-05-2.76126E-05-2.87234E-05 2.62451E-07 2.84036E-18 2.18730E-18
 -1      4033 9.45693E-05-2.75415E-05-2.87240E-05 9.58387E-08 2.98185E-18 1.55842E-18
 -1      4034 7.93907E-05-1.94174E-05-2.57262E-05-7.28242E-06 3.27446E-19-8.84814E-19
 -1      4035 8.07744E-05-1.95546E-05-2.62870E-05-6.25594E-06-1.00257E-18-4.29616E-19
 -1      4036 8.03876E-05-1.89294E-05-2.62846E-05-4.19668E-06-1.02938E-18-7.37594E-19
 -1      4037 7.33687E-05-1.83697E-05-2.36655E-05-9.01100E-06 1.64301E-19 4.97764E-20
 -1      4038 9.38687E-05-2.56532E-05-2.92313E-05-3.79688E-06 9.11225E-20-2.46767E-19
 -1      4039 7.40053E-05-1.79040E-05-2.40453E-05 5.84860E-06-9.88176E-19 2.86036E-19
 -1      4040 7.42750E-05-1.80774E-05-2.39997E-05 7.17782E-06 3.59845E-19-9.73611E-19
 -1      4041 9.41158E-05-2.29913E-05-3.04898E-05-5.63804E-09 1.53143E-20-1.73888E-19
 -1      4042 9.41359E-05-2.30347E-05-3.04811E-05 1.51419E-08-2.96249E-20 2.56933E-20
 -1      4043 9.42426E-05-2.31928E-05-3.04577E-05-2.25719E-07 3.07446E-19-3.95953E-19
 -1      4044 9.41459E-05-2.30466E-05-3.04811E-05-1.77591E-07 1.43546E-19-3.73613E-19
 -1      4045 9.42351E-05-2.35444E-05-3.02848E-05-1.80227E-07-3.06680E-20-7.39411E-20
 -1      4046 9.46214E-05-2.75701E-05-2.87348E-05-3.76139E-07 1.50379E-18-6.42219E-19
 -1      4047 8.27316E-05-2.59060E-05-2.43317E-05-1.60629E-05-5.78586E-19-2.51489E-19
 -1      4048 7.31331E-05-1.68976E-05-2.39418E-05-5.11552E-06-3.88467E-19 9.57189E-20
 -1      4049 7.60203E-05-1.89308E-05-2.45211E-05-8.70612E-06 5.03670E-21-1.61201E-19
 -1      4050 7.77965E-05-1.90775E-05-2.52404E-05-7.67089E-06 2.54485E-19-3.27058E-19
 -1      4051 7.41318E-05-1.71312E-05-2.44633E-05-2.01128E-06-3.77392E-19-7.03087E-20
 -1      4052 8.80271E-05-2.29047E-05-2.78981E-05 5.54789E-06 9.55696E-20-2.30925E-19
 -1      4053 7.27578E-05-1.80876E-05-2.34556E-05-6.66811E-06-2.36469E-19 9.77264E-20
 -1      4054 7.38669E-05-1.92394E-05-2.33801E-05-9.76247E-06-3.04402E-19 5.99000E-19
 -1      4055 9.44872E-05-2.74315E-05-2.87382E-05-3.12483E-07 1.95698E-18-3.37939E-18
 -1      4056 9.44308E-05-2.73894E-05-2.87331E-05 7.79812E-08 2.62150E-18 1.65206E-18
 -1      4057 9.44592E-05-2.74164E-05-2.87328E-05 1.69609E-07 2.92733E-18-1.23854E-18
 -1      4058 9.40770E-05-2.54067E-05-2.94315E-05-2.76531E-06 1.92980E-19-2.11871E-19
 -1      4059 9.43334E-05-2.53579E-05-2.95645E-05-2.33851E-06 3.02386E-19-5.33798E-20
 -1      4060 8.87133E-05-2.51702E-05-2.72033E-05-9.91079E-06-2.48126E-20-1.96768E-19
 -1      4061 8.87025E-05-2.46387E-05-2.74751E-05-8.93423E-06-2.25894E-19-2.42941E-19
 -1      4062 8.94025E-05-2.45195E-05-2.77864E-05-7.97401E-06-1.21292E-19-2.58843E-19
 -1      4063 8.96250E-05-2.43482E-05-2.80031E-05-7.23050E-06-2.35218E-19 6.27278E-20
 -1      4064 8.74859E-05-2.35687E-05-2.73810E-05-7.84142E-06-1.47499E-19-6.80501E-20
 -1      4065 9.43577E-05-2.46869E-05-2.98638E-05 1.30738E-06-1.27095E-19-1.21902E-20
 -1      4066 9.41308E-05-2.48368E-05-2.97014E-05 1.69338E-06-1.00590E-19-4.03796E-20
 -1      4067 9.42735E-05-2.42546E-05-2.99997E-05 8.92688E-07-1.52141E-19-2.42506E-19
 -1      4068 7.59795E-05-2.09754E-05-2.35849E-05-1.21063E-05-2.82378E-19 4.11886E-19
 -1      4069 7.94215E-05-2.36467E-05-2.39178E-05-1.49141E-05-5.63629E-19-6.67435E-20
 -1      4070 8.37811E-05-2.50466E-05-2.51013E-05-1.37856E-05-6.12325E-19-2.29084E-19
 -1      4071 7.83969E-05-2.11107E-05-2.45088E-05-1.03916E-05-3.73529E-19 1.16952E-19
 -1      4072 9.10646E-05-2.79450E-05-2.70916E-05-1.20999E-05-2.28131E-19-7.40925E-19
 -1      4073 9.14000E-05-2.46483E-05-2.86027E-05-5.33408E-06 1.63099E-19 7.92973E-20
 -1      4074 9.18116E-05-2.47744E-05-2.87416E-05-4.82595E-06 1.06186E-19-1.62221E-20
 -1      4075 9.33752E-05-2.48013E-05-2.93929E-05 2.27572E-06-1.73501E-19-1.05727E-19
 -1      4076 9.28824E-05-2.44566E-05-2.93142E-05 1.81610E-06-2.77685E-19-2.59461E-19
 -1      4077 9.37691E-05-2.48656E-05-2.95362E-05 1.93605E-06-1.70594E-19-9.09692E-21
 -1      4078 7.71028E-05-1.79297E-05-2.52485E-05-4.88896E-06-6.03718E-20-3.82733E-19
 -1      4079 9.44405E-05-2.33267E-05-3.04835E-05 2.20492E-07-1.17512E-19-2.34802E-19
 -1      4080 9.24207E-05-2.49786E-05-2.88999E-05-4.37417E-06 1.31265E-19-1.13631E-19
 -1      4081 9.28139E-05-2.51151E-05-2.90224E-05-3.92678E-06 7.89910E-20-2.97999E-19
 -1      4082 9.15363E-05-2.44065E-05-2.87608E-05-4.03521E-06-4.38674E-20 4.88008E-20
 -1      4083 9.43198E-05-2.33211E-05-3.04259E-05 2.72780E-07-9.68373E-20-3.27664E-19
 -1      4084 9.45883E-05-2.52412E-05-2.97241E-05-1.97559E-06 2.60225E-19-1.18205E-19
 -1      4085 9.47300E-05-2.50083E-05-2.98830E-05-1.51270E-06 3.45634E-19-2.27462E-19
 -1      4086 9.42353E-05-2.49591E-05-2.96814E-05-1.82632E-06 2.34065E-19-1.14898E-19
 -1      4087 9.48012E-05-2.47338E-05-3.00319E-05-1.21471E-06 3.64041E-19-2.85081E-19
 -1      4088 9.47962E-05-2.42757E-05-3.02257E-05-6.78033E-07 2.88845E-19-4.34583E-19
 -1      4089 9.45897E-05-2.38543E-05-3.03196E-05-5.32085E-07 3.38203E-19-5.41964E-19
 -1      4090 9.45663E-05-2.45672E-05-2.99970E-05-1.18556E-06 2.52267E-19-4.11247E-19
 -1      4091 9.44459E-05-2.73995E-05-2.87353E-05-1.78104E-07 2.06289E-18-1.88089E-18
 -1      4092 9.44252E-05-2.73824E-05-2.87340E-05-6.29473E-08 1.75138E-18 1.64000E-18
 -1      4093 9.43047E-05-2.72386E-05-2.87421E-05 1.29248E-08 1.75713E-18 6.35839E-19
 -1      4094 9.43469E-05-2.72686E-05-2.87465E-05-2.74824E-07 1.41553E-18-2.20546E-18
 -1      4095 9.02318E-05-2.33124E-05-2.86920E-05 1.54957E-06 4.34059E-19 2.03352E-19
 -1      4096 8.93353E-05-2.28809E-05-2.84916E-05 1.69456E-06 3.23608E-19 3.69271E-19
 -1      4097 8.82837E-05-2.23922E-05-2.82554E-05 1.74366E-06 7.28128E-20 3.37174E-19
 -1      4098 8.71958E-05-2.18870E-05-2.80007E-05 1.89565E-06 1.74707E-19 1.46059E-19
 -1      4099 8.86463E-05-2.24716E-05-2.83290E-05 6.20752E-07 1.12868E-19 1.74378E-20
 -1      4100 8.59147E-05-2.13464E-05-2.76929E-05 1.87941E-06 4.21571E-19 2.87383E-20
 -1      4101 8.45339E-05-2.07797E-05-2.73507E-05 2.03520E-06 3.99619E-19 2.17253E-19
 -1      4102 8.64493E-05-2.15094E-05-2.77874E-05 5.47129E-07 6.17383E-20 2.03718E-20
 -1      4103 8.29363E-05-2.01775E-05-2.69324E-05 2.09159E-06 1.26165E-19-7.37010E-20
 -1      4104 8.12504E-05-1.96007E-05-2.64584E-05 2.30167E-06-3.32965E-19 1.85975E-20
 -1      4105 8.34986E-05-2.01905E-05-2.70505E-05 4.27481E-07 1.76957E-19-4.92024E-19
 -1      4106 7.91999E-05-1.89406E-05-2.58735E-05 2.39013E-06-6.51597E-19 1.53262E-19
 -1      4107 7.71577E-05-1.83674E-05-2.52039E-05 2.78668E-06-4.36746E-19-5.64562E-19
 -1      4108 7.98665E-05-1.89040E-05-2.60368E-05 1.10977E-07-3.28264E-19-4.54794E-19
 -1      4109 9.45105E-05-2.74733E-05-2.87318E-05 2.46892E-07 2.56639E-18-1.29600E-19
 -1      4110 9.45594E-05-2.75193E-05-2.87320E-05 3.26095E-07 3.11983E-18 2.60535E-18
 -1      4111 9.44941E-05-2.74350E-05-2.87396E-05 3.77090E-07 2.41149E-18 3.08319E-18
 -1      4112 9.43771E-05-2.73120E-05-2.87410E-05 2.35889E-07 2.09127E-18-6.82925E-19
 -1      4113 8.21567E-05-1.94789E-05-2.68935E-05-1.93998E-06-1.11060E-18-7.92419E-19
 -1      4114 8.35717E-05-2.00111E-05-2.72649E-05-1.72270E-06-1.65133E-18-5.53673E-19
 -1      4115 7.40859E-05-1.76242E-05-2.42805E-05 3.09908E-06-1.20140E-19-8.87828E-19
 -1      4116 7.13068E-05-1.70851E-05-2.32376E-05 4.31753E-06 2.51211E-19-1.34628E-18
 -1      4117 6.79220E-05-1.58375E-05-2.21985E-05 6.52282E-07 4.48895E-19-1.05509E-18
 -1      4118 7.51878E-05-1.76984E-05-2.45644E-05 5.15034E-08-6.95779E-19-5.51413E-19
 -1      4119 7.51229E-05-1.70541E-05-2.47383E-05 1.06578E-06-6.48983E-19-4.39632E-19
 -1      4120 7.57335E-05-1.75817E-05-2.49853E-05-2.21285E-06-5.02709E-19-3.35124E-19
 -1      4121 7.73082E-05-1.79845E-05-2.54709E-05-2.16245E-06-2.66272E-19-7.69599E-19
 -1      4122 7.90034E-05-1.84441E-05-2.59891E-05-2.19642E-06-5.49245E-19-1.05543E-18
 -1      4123 8.07940E-05-1.89891E-05-2.65226E-05-1.89574E-06-1.21217E-18-7.48261E-19
 -1      4124 8.13618E-05-1.90062E-05-2.66423E-05-2.09547E-09-3.37582E-19-1.13274E-18
 -1      4125 7.83509E-05-1.79878E-05-2.57694E-05 4.45559E-07-3.70855E-19-1.74936E-18
 -1      4126 8.48865E-05-2.05761E-05-2.75822E-05-1.69319E-06-1.80342E-18 7.35453E-19
 -1      4127 8.60084E-05-2.11082E-05-2.78323E-05-1.52811E-06-8.10370E-19 1.04361E-18
 -1      4128 8.40154E-05-2.00962E-05-2.73393E-05-2.71439E-07-6.64125E-19 3.48669E-19
 -1      4129 8.70568E-05-2.16480E-05-2.80475E-05-1.48889E-06-6.05901E-19 1.04588E-18
 -1      4130 8.79627E-05-2.21612E-05-2.82139E-05-1.34497E-06-6.59672E-19 9.77624E-19
 -1      4131 8.63433E-05-2.12076E-05-2.78739E-05-3.99511E-07-6.51567E-19 1.77630E-18
 -1      4132 8.88123E-05-2.26730E-05-2.83567E-05-1.29517E-06-8.17745E-19 1.57284E-18
 -1      4133 8.95470E-05-2.31557E-05-2.84636E-05-1.16214E-06-6.09155E-20 1.44654E-18
 -1      4134 8.82205E-05-2.22647E-05-2.82347E-05-4.52305E-07-5.84529E-19 2.17657E-18
 -1      4135 9.02380E-05-2.36298E-05-2.85549E-05-1.10649E-06 3.43920E-19 7.44979E-19
 -1      4136 9.08324E-05-2.40718E-05-2.86198E-05-9.82540E-07-1.59159E-19 9.55197E-19
 -1      4137 8.97478E-05-2.32559E-05-2.84713E-05-4.53314E-07-3.54842E-19 2.38545E-18
 -1      4138 9.13921E-05-2.44999E-05-2.86745E-05-9.25610E-07 9.17664E-19 4.62168E-19
 -1      4139 9.18693E-05-2.48939E-05-2.87103E-05-8.11896E-07 2.39941E-18 6.25529E-19
 -1      4140 9.09893E-05-2.41641E-05-2.86195E-05-4.21524E-07 4.37542E-19 1.21390E-18
 -1      4141 9.23188E-05-2.52709E-05-2.87396E-05-7.57388E-07 2.27527E-18-3.69909E-19
 -1      4142 9.26979E-05-2.56137E-05-2.87556E-05-6.55517E-07 1.75806E-18-6.49019E-19
 -1      4143 9.19919E-05-2.49763E-05-2.87054E-05-3.71594E-07 1.72128E-18-1.08030E-18
 -1      4144 9.30546E-05-2.59380E-05-2.87678E-05-6.05838E-07 1.08254E-18-1.75878E-18
 -1      4145 9.33523E-05-2.62301E-05-2.87708E-05-5.16730E-07-1.08667E-19-1.92114E-18
 -1      4146 9.27932E-05-2.56857E-05-2.87484E-05-3.14560E-07 4.27255E-19-2.61816E-18
 -1      4147 9.36316E-05-2.65025E-05-2.87720E-05-4.72924E-07-5.22527E-19-1.98650E-18
 -1      4148 9.38623E-05-2.67466E-05-2.87670E-05-3.97193E-07-4.25991E-19-2.83507E-18
 -1      4149 9.34247E-05-2.62939E-05-2.87627E-05-2.58901E-07-1.78748E-19-3.30156E-18
 -1      4150 9.40322E-05-2.69215E-05-2.87627E-05-3.64745E-07-2.45349E-19-2.42169E-18
 -1      4151 9.42093E-05-2.71232E-05-2.87533E-05-3.05803E-07 1.93805E-19-2.63795E-18
 -1      4152 9.41736E-05-2.70865E-05-2.87499E-05-1.55575E-07 8.93650E-20 4.55033E-19
 -1      4153 9.38715E-05-2.67499E-05-2.87601E-05-2.05746E-07-3.37947E-19-1.80692E-18
 -1      4154 8.87520E-05-2.29249E-05-2.82323E-05 3.33857E-06-5.21495E-19-3.55271E-19
 -1      4155 8.81754E-05-2.26371E-05-2.80836E-05 3.82110E-06-4.86810E-19-1.05218E-18
 -1      4156 8.56309E-05-2.18689E-05-2.73635E-05 5.69470E-06-2.23568E-19-7.86447E-19
 -1      4157 8.50073E-05-2.18543E-05-2.70591E-05 6.58186E-06-7.61355E-19-5.22926E-19
 -1      4158 8.72892E-05-2.23093E-05-2.78761E-05 4.34410E-06 3.38024E-19-1.02759E-18
 -1      4159 8.66773E-05-2.21181E-05-2.76608E-05 4.98112E-06 6.06240E-19-6.25844E-19
 -1      4160 8.69792E-05-2.18621E-05-2.78648E-05 3.32206E-06-7.39810E-20-1.79717E-18
 -1      4161 9.11148E-05-2.43563E-05-2.86232E-05 1.98473E-06 6.95950E-19-6.63380E-20
 -1      4162 9.06599E-05-2.40126E-05-2.85626E-05 2.28148E-06 5.58726E-19-2.48987E-19
 -1      4163 7.66435E-05-1.92735E-05-2.44593E-05 8.89670E-06-8.03414E-19 1.47005E-19
 -1      4164 7.49262E-05-1.79490E-05-2.45390E-05 4.64097E-06-1.11610E-18 2.80656E-19
 -1      4165 7.65844E-05-1.82407E-05-2.50607E-05 4.10095E-06-5.86284E-19 9.74650E-20
 -1      4166 8.04387E-05-2.16940E-05-2.51513E-05 1.04600E-05-5.88096E-19 6.81737E-19
 -1      4167 9.20293E-05-2.50556E-05-2.87129E-05 1.52304E-06-1.05956E-18 7.22737E-19
 -1      4168 9.16432E-05-2.47253E-05-2.86791E-05 1.76017E-06 2.05844E-21 4.48882E-19
 -1      4169 9.10795E-05-2.42684E-05-2.86118E-05 1.43719E-06-1.86023E-20 1.10513E-18
 -1      4170 9.27830E-05-2.56980E-05-2.87586E-05 1.15994E-06-1.12139E-18 1.08512E-18
 -1      4171 9.24633E-05-2.53956E-05-2.87436E-05 1.35015E-06-1.20470E-18 1.24947E-18
 -1      4172 9.20231E-05-2.50132E-05-2.87014E-05 1.08750E-06-1.63342E-18 1.75530E-18
 -1      4173 9.33929E-05-2.62668E-05-2.87745E-05 8.73988E-07-4.49313E-20 1.79972E-18
 -1      4174 9.31336E-05-2.59998E-05-2.87719E-05 1.02651E-06-9.92318E-19 1.31554E-18
 -1      4175 9.27923E-05-2.56833E-05-2.87476E-05 8.18769E-07-1.18136E-18-5.55263E-19
 -1      4176 9.38806E-05-2.67577E-05-2.87710E-05 6.49696E-07 1.46129E-18 2.88571E-18
 -1      4177 9.36720E-05-2.65293E-05-2.87762E-05 7.69326E-07 8.13098E-19 2.25620E-18
 -1      4178 9.34062E-05-2.62671E-05-2.87642E-05 6.10913E-07-5.21657E-19 1.16707E-18
 -1      4179 9.03562E-05-2.44199E-05-2.82438E-05-6.47110E-06-2.60727E-21 7.76743E-20
 -1      4180 9.07393E-05-2.44697E-05-2.84138E-05-5.86952E-06 3.96735E-19 2.97346E-19
 -1      4181 9.02871E-05-2.39856E-05-2.84001E-05-5.00958E-06 5.88130E-20-7.47234E-20
 -1      4182 8.65545E-05-2.63092E-05-2.58647E-05-1.34584E-05-7.81417E-19-2.19277E-19
 -1      4183 8.91147E-05-2.71712E-05-2.65026E-05-1.26978E-05-5.36075E-19-1.01914E-19
 -1      4184 8.86232E-05-2.60465E-05-2.68259E-05-1.14272E-05-1.61057E-19 2.17176E-21
 -1      4185 8.35676E-05-2.40798E-05-2.54940E-05-1.23183E-05-6.33915E-19 1.95712E-19
 -1      4186 9.36750E-05-2.53534E-05-2.92868E-05-3.12115E-06 7.91215E-20-2.20774E-19
 -1      4187 9.35822E-05-2.50348E-05-2.93700E-05-2.51968E-06 1.38973E-19-1.30935E-19
 -1      4188 9.33338E-05-2.52772E-05-2.91661E-05-3.54161E-06 6.06891E-20-2.61298E-19
 -1      4189 9.44225E-05-2.35107E-05-3.03942E-05-4.16708E-07 3.94024E-19-5.04053E-19
 -1      4190 7.05460E-05-1.67099E-05-2.30908E-05-2.22212E-06-2.06114E-19-5.07412E-19
 -1      4191 9.42327E-05-2.32451E-05-3.04296E-05 2.49275E-07-5.08807E-20-1.58778E-19
 -1      4192 9.18037E-05-2.40262E-05-2.90572E-05 1.34022E-06 8.99030E-20 5.87988E-20
 -1      4193 9.10850E-05-2.37057E-05-2.88859E-05 1.49807E-06 3.94301E-19 2.77074E-19
 -1      4194 9.05443E-05-2.33559E-05-2.87632E-05 6.50730E-07 3.45646E-19 1.79180E-20
 -1      4195 9.00256E-05-2.36302E-05-2.84710E-05 2.57504E-06 8.68090E-19-5.43166E-19
 -1      4196 8.95046E-05-2.32969E-05-2.83730E-05 2.95016E-06 5.00599E-19-1.79475E-19
 -1      4197 8.85817E-05-2.26518E-05-2.82217E-05 2.50264E-06-2.47442E-19-3.11769E-19
 -1      4198 8.99399E-05-2.34700E-05-2.84601E-05 1.89523E-06 7.63468E-19-2.60690E-20
 -1      4199 9.42755E-05-2.36877E-05-3.02460E-05 3.25160E-07-1.22311E-19-9.28774E-20
 -1      4200 9.41096E-05-2.38954E-05-3.00886E-05 6.72254E-08-1.05976E-19 2.08627E-19
 -1      4201 9.41817E-05-2.40947E-05-3.00432E-05 4.12655E-07-1.36552E-19-5.64520E-21
 -1      4202 9.40071E-05-2.43507E-05-2.98528E-05 6.31941E-07-9.21000E-20-5.80049E-20
 -1      4203 9.44588E-05-2.39357E-05-3.02139E-05-6.02840E-07 2.66344E-19-2.70668E-19
 -1      4204 9.41389E-05-2.39749E-05-3.00784E-05-1.95655E-07 2.02571E-20 7.71925E-20
 -1      4205 8.57089E-05-2.25603E-05-2.70298E-05-7.06007E-06-2.32476E-19-7.58905E-20
 -1      4206 8.63130E-05-2.25729E-05-2.73567E-05-6.21826E-06-7.56924E-20-2.86808E-20
 -1      4207 8.11470E-05-2.13715E-05-2.56652E-05 9.15214E-06-8.80199E-19 6.86762E-19
 -1      4208 8.65452E-05-2.44153E-05-2.66445E-05-1.04005E-05-4.00677E-19 2.47775E-19
 -1      4209 9.26639E-05-2.48077E-05-2.90731E-05-3.23191E-06 2.08127E-20-8.48336E-20
 -1      4210 8.51044E-05-2.11734E-05-2.73473E-05 4.44568E-06 1.17261E-20-7.56913E-19
 -1      4211 8.29762E-05-2.05993E-05-2.66580E-05 5.78105E-06 9.97729E-20-7.72785E-19
 -1      4212 8.38376E-05-2.16954E-05-2.66853E-05 7.36032E-06-1.38836E-19-5.02357E-20
 -1      4213 8.31727E-05-2.17943E-05-2.63126E-05 8.34806E-06-2.55403E-19 5.78278E-19
 -1      4214 7.31769E-05-1.75984E-05-2.37735E-05-4.46765E-06-5.16285E-19-2.89061E-19
 -1      4215 7.61320E-05-1.88387E-05-2.45917E-05-5.94156E-06-4.75992E-19-1.43815E-19
 -1      4216 7.41513E-05-1.76436E-05-2.42473E-05-2.04946E-06-7.41182E-19-3.73290E-19
 -1      4217 8.41490E-05-2.32765E-05-2.60583E-05-1.01807E-05-6.93767E-19 1.40314E-19
 -1      4218 8.42668E-05-2.25348E-05-2.64994E-05-8.56268E-06-4.45160E-19-1.99331E-19
 -1      4219 8.32663E-05-2.13383E-05-2.64811E-05-6.75599E-06-3.02522E-19-1.00949E-20
 -1      4220 9.37750E-05-2.45872E-05-2.96418E-05 1.38558E-06-1.53220E-19-3.00129E-19
 -1      4221 8.88276E-05-2.35646E-05-2.79494E-05-6.22541E-06-7.87207E-20 8.51798E-20
 -1      4222 8.91412E-05-2.33495E-05-2.82156E-05-4.40314E-06-6.34141E-20 2.77928E-20
 -1      4223 8.98555E-05-2.35820E-05-2.84250E-05-3.86952E-06 5.94765E-20 5.31803E-20
 -1      4224 8.97847E-05-2.32848E-05-2.84697E-05-2.82001E-06 1.17268E-19-2.15498E-19
 -1      4225 9.07298E-05-2.39152E-05-2.86342E-05-3.46708E-06 1.39531E-19-8.84582E-20
 -1      4226 9.13447E-05-2.41684E-05-2.88039E-05-3.06631E-06 9.88503E-20 4.79421E-20
 -1      4227 9.42588E-05-2.71670E-05-2.87558E-05 4.76816E-07 1.51471E-18 2.33819E-18
 -1      4228 9.40948E-05-2.69763E-05-2.87656E-05 5.70958E-07 2.22701E-18 2.80205E-18
 -1      4229 9.44219E-05-2.73463E-05-2.87472E-05 4.38665E-07 1.63587E-18 2.39008E-18
 -1      4230 7.92221E-05-2.04203E-05-2.51467E-05-8.12615E-06-5.66976E-19 3.93771E-20
 -1      4231 8.11406E-05-2.20466E-05-2.53343E-05-1.03379E-05-5.89236E-19 1.61684E-19
 -1      4232 9.41669E-05-2.70920E-05-2.87484E-05-1.72854E-09 1.24525E-18 2.84065E-19
 -1      4233 9.31362E-05-2.47800E-05-2.92983E-05-2.16078E-06 2.20154E-20-2.60466E-20
 -1      4234 9.35423E-05-2.48393E-05-2.94506E-05-1.83193E-06-8.51582E-22-1.57391E-19
 -1      4235 9.30039E-05-2.44437E-05-2.93940E-05 1.09458E-06-1.66066E-19-1.11199E-19
 -1      4236 9.24676E-05-2.42780E-05-2.92312E-05 1.27455E-06-1.13905E-19 2.03539E-20
 -1      4237 9.20398E-05-2.40001E-05-2.91350E-05 6.12876E-07 1.82047E-19 2.80254E-19
 -1      4238 9.38986E-05-2.67789E-05-2.87625E-05 4.38648E-07 1.49763E-18 1.10840E-19
 -1      4239 7.89803E-05-1.97690E-05-2.53646E-05-6.24406E-06-7.20329E-19-2.58102E-19
 -1      4240 9.39304E-05-2.48292E-05-2.96193E-05-1.60976E-06 5.89519E-20-1.86919E-19
 -1      4241 9.41901E-05-2.47045E-05-2.97840E-05-1.26367E-06 1.38841E-19-2.83256E-19
 -1      4242 9.35550E-05-2.45752E-05-2.95488E-05-1.27217E-06-1.72889E-20-1.58039E-19
 -1      4243 9.42725E-05-2.71878E-05-2.87488E-05 3.43509E-07 2.66214E-18 2.57716E-19
 -1      4244 8.69931E-05-2.18939E-05-2.79388E-05-7.71318E-07 4.57013E-20-3.30546E-19
 -1      4245 8.56763E-05-2.13100E-05-2.76238E-05-8.20387E-07 1.01804E-19-1.59731E-19
 -1      4246 8.44801E-05-2.10640E-05-2.71995E-05-2.47523E-06-1.17526E-20-1.48780E-19
 -1      4247 8.28048E-05-2.05035E-05-2.67664E-05-2.75867E-06 8.53824E-20-2.04266E-19
 -1      4248 9.42142E-05-2.71337E-05-2.87494E-05 2.57692E-07 3.11251E-18-1.28979E-19
 -1      4249 9.37555E-05-2.44673E-05-2.97043E-05 7.51782E-07-1.62901E-19-5.12583E-20
 -1      4250 9.33964E-05-2.44917E-05-2.95333E-05 9.44994E-07-2.84422E-19-1.16883E-19
 -1      4251 9.30656E-05-2.42987E-05-2.94511E-05 4.29952E-07-1.08365E-19 1.65487E-19
 -1      4252 9.37052E-05-2.42753E-05-2.97399E-05 1.88171E-07-1.09369E-19 2.10273E-19
 -1      4253 7.69418E-05-1.84312E-05-2.51380E-05-2.05222E-06-6.72609E-19-5.37472E-19
 -1      4254 7.98915E-05-1.98473E-05-2.56381E-05 7.05954E-06-5.55903E-19 1.04945E-18
 -1      4255 8.63019E-05-2.14278E-05-2.78404E-05 1.32789E-06-3.79053E-19 1.01008E-18
 -1      4256 8.53712E-05-2.09878E-05-2.76156E-05 1.72284E-06-1.22233E-19 8.66313E-19
 -1      4257 8.73525E-05-2.19330E-05-2.80551E-05 1.20340E-06-4.42371E-19 9.24833E-19
 -1      4258 8.81370E-05-2.23849E-05-2.82079E-05 9.17266E-07-6.87105E-19 1.21106E-18
 -1      4259 8.89901E-05-2.28709E-05-2.83513E-05 8.43547E-07-3.39793E-19 1.43601E-18
 -1      4260 8.96476E-05-2.33125E-05-2.84514E-05 6.32242E-07 2.16663E-20 2.20883E-18
 -1      4261 9.03418E-05-2.37672E-05-2.85435E-05 5.92764E-07 1.89989E-19 2.17173E-18
 -1      4262 9.08877E-05-2.41819E-05-2.86055E-05 4.34314E-07-3.66199E-19 2.06117E-18
 -1      4263 9.14503E-05-2.45954E-05-2.86613E-05 4.17319E-07-1.75055E-20 1.76307E-18
 -1      4264 9.18979E-05-2.49717E-05-2.86962E-05 2.97173E-07-2.12412E-19 8.30781E-19
 -1      4265 9.23501E-05-2.53379E-05-2.87267E-05 2.94077E-07-1.35352E-19-4.85342E-19
 -1      4266 9.27121E-05-2.56693E-05-2.87430E-05 2.02684E-07-6.60501E-20-1.12023E-18
 -1      4267 9.30721E-05-2.59862E-05-2.87562E-05 2.07448E-07-6.38029E-19-1.32589E-18
 -1      4268 9.33597E-05-2.62682E-05-2.87602E-05 1.39384E-07-1.74075E-19-1.62935E-18
 -1      4269 9.36404E-05-2.65366E-05-2.87619E-05 1.43275E-07 2.56502E-20-1.50132E-18
 -1      4270 8.11952E-05-2.01559E-05-2.61948E-05-3.87107E-06-2.45512E-19-4.60862E-19
 -1      4271 8.40603E-05-2.04679E-05-2.73011E-05 1.92627E-06 8.26304E-20 9.56378E-20
 -1      4272 7.87663E-05-1.88861E-05-2.57294E-05 3.80359E-06-1.80835E-19 2.27648E-19
 -1      4273 8.80340E-05-2.27752E-05-2.79807E-05-3.97113E-06-1.81265E-19-1.71444E-19
 -1      4274 8.78305E-05-2.23488E-05-2.80263E-05-2.72195E-06-1.15061E-21-1.49101E-19
 -1      4275 9.43968E-05-2.42694E-05-3.00575E-05-8.79606E-07 1.49226E-19-3.02728E-19
 -1      4276 9.39610E-05-2.68693E-05-2.87559E-05 3.30525E-08 8.02677E-19-9.22023E-19
 -1      4277 9.41322E-05-2.70431E-05-2.87501E-05 2.03212E-07 2.48641E-18-1.12952E-18
 -1      4278 9.20560E-05-2.44372E-05-2.89807E-05-2.75962E-06 1.23690E-20-4.08834E-21
 -1      4279 9.25800E-05-2.46249E-05-2.91334E-05-2.41384E-06 9.07056E-20 6.80155E-20
 -1      4280 9.13483E-05-2.39437E-05-2.88628E-05-2.20481E-06 1.88246E-21-1.45222E-19
 -1      4281 8.72296E-05-2.25237E-05-2.77209E-05-4.55586E-06-7.39444E-20-1.10949E-19
 -1      4282 8.29519E-05-2.00768E-05-2.69753E-05 2.47975E-06-1.93431E-19 2.66004E-19
 -1      4283 8.56206E-05-2.15964E-05-2.74076E-05-3.77821E-06 2.17482E-20-3.24153E-19
 -1      4284 9.40181E-05-2.69188E-05-2.87576E-05 3.16610E-07 3.11289E-18-1.17113E-18
 -1      4285 8.16063E-05-1.96627E-05-2.66117E-05 2.79937E-06 3.59972E-20 4.64870E-19
 -1      4286 9.37872E-05-2.66942E-05-2.87590E-05 1.36293E-08 9.94151E-19-2.15805E-18
 -1      4287 9.41607E-05-2.41686E-05-2.99899E-05-7.09832E-07 9.46987E-20-1.55518E-19
 -1      4288 9.08429E-05-2.36689E-05-2.88080E-05-9.01200E-07 4.94720E-20 7.28055E-20
 -1      4289 8.99812E-05-2.32784E-05-2.86087E-05-9.55032E-07 7.15139E-20-2.96773E-19
 -1      4290 9.37999E-05-2.66786E-05-2.87617E-05 3.79834E-07 9.61383E-19-1.30707E-18
 -1      4291 9.39079E-05-2.43747E-05-2.98037E-05-4.82664E-07 8.08993E-21 5.64719E-20
 -1      4292 9.36329E-05-2.44516E-05-2.96577E-05-3.94184E-07-2.16515E-22 5.53768E-20
 -1      4293 8.03945E-05-1.93217E-05-2.62150E-05 3.35918E-06 9.04414E-20 1.75273E-19
 -1      4294 8.80973E-05-2.24262E-05-2.81520E-05-1.35517E-06 5.48446E-20-2.32038E-19
 -1      4295 8.91053E-05-2.28982E-05-2.83923E-05-1.23792E-06 2.07007E-19-3.27852E-19
 -1      4296 9.26060E-05-2.44070E-05-2.92105E-05-1.70640E-06-1.39072E-20 2.99584E-20
 -1      4297 9.22500E-05-2.42196E-05-2.91707E-05-6.51547E-07-8.13935E-20 1.08632E-19
 -1      4298 9.28188E-05-2.43782E-05-2.93422E-05-4.61917E-07-4.97032E-20 1.39714E-19
 -1      4299 9.15695E-05-2.39602E-05-2.89922E-05-6.69144E-07 5.97597E-20-2.52968E-20
 -1      4300 9.32253E-05-2.44612E-05-2.94830E-05-5.74729E-07-6.88742E-20 2.90175E-20
 -1      4301 7.92215E-05-1.96025E-05-2.55970E-05-4.39822E-06-5.77759E-19-2.83492E-19
 -3
    1PSTEP                         4           1           1          
  100CL  101 1.000000000        4301                     0    1           1
 -4  ERROR       1    1
 -5  STR(%)      1    1    0    0
 -1         1 4.12522E+01
 -1         2 2.38212E+01
 -1         3 2.77763E-03
 -1         4 3.14702E-03
 -1         5 1.40085E+01
 -1         6 1.31125E+01
 -1         7 1.31125E+01
 -1         8 3.60884E+00
 -1         9 1.79010E+00
 -1        10 1.27664E+00
 -1        11 1.03272E+00
 -1        12 8.81915E-01
 -1        13 7.85045E-01
 -1        14 7.23619E-01
 -1        15 7.25495E-01
 -1        16 7.89497E-01
 -1        17 8.82861E-01
 -1        18 1.03926E+00
 -1        19 1.29551E+00
 -1        20 1.80159E+00
 -1        21 3.45207E+00
 -1        22 8.57742E+00
 -1        23 1.31125E+01
 -1        24 4.34631E+00
 -1        25 3.35857E+00
 -1        26 2.12854E+00
 -1        27 1.43842E+00
 -1        28 1.11880E+00
 -1        29 8.99745E-01
 -1        30 7.38835E-01
 -1        31 6.13415E-01
 -1        32 5.93800E-01
 -1        33 6.68837E-01
 -1        34 7.44454E-01
 -1        35 8.19510E-01
 -1        36 1.04582E+00
 -1        37 1.32893E+00
 -1        38 1.57575E+00
 -1        39 1.67966E+00
 -1        40 1.67966E+00
 -1        41 1.62354E+00
 -1        42 1.83778E+00
 -1        43 2.71756E+00
 -1        44 4.37425E+00
 -1        45 4.70673E+00
 -1        46 4.73795E+00
 -1        47 4.73795E+00
 -1        48 3.57784E+00
 -1        49 2.08738E+00
 -1        50 1.67618E+00
 -1        51 1.67618E+00
 -1        52 1.62947E+00
 -1        53 1.62947E+00
 -1        54 1.43023E+00
 -1        55 1.15473E+00
 -1        56 9.23036E-01
 -1        57 7.13275E-01
 -1        58 5.83809E-01
 -1        59 4.81587E-01
 -1        60 3.84448E-01
 -1        61 2.98529E-01
 -1        62 2.26067E-01
 -1        63 1.67029E-01
 -1        64 1.20198E-01
 -1        65 9.89987E-02
 -1        66 7.98099E-02
 -1        67 6.23237E-02
 -1        68 4.65248E-02
 -1        69 3.19683E-02
 -1        70 2.05068E-02
 -1        71 1.07052E-02
 -1        72 1.40085E+01
 -1        73 3.42821E+00
 -1        74 2.44337E+00
 -1        75 1.69809E+00
 -1        76 1.22941E+00
 -1        77 1.03795E+00
 -1        78 8.92630E-01
 -1        79 7.80208E-01
 -1        80 6.90186E-01
 -1        81 6.13832E-01
 -1        82 5.68445E-01
 -1        83 5.95156E-01
 -1        84 5.98811E-01
 -1        85 5.98811E-01
 -1        86 7.38818E-01
 -1        87 8.75603E-01
 -1        88 9.34815E-01
 -1        89 1.19949E+00
 -1        90 1.24077E+00
 -1        91 1.47458E+00
 -1        92 1.67064E+00
 -1        93 2.53983E+00
 -1        94 2.89400E+00
 -1        95 3.30093E+00
 -1        96 3.30093E+00
 -1        97 3.00352E+00
 -1        98 2.04311E+00
 -1        99 1.28257E+00
 -1       100 8.95991E-01
 -1       101 9.77438E-01
 -1       102 1.05800E+00
 -1       103 1.05800E+00
 -1       104 9.98840E-01
 -1       105 8.66868E-01
 -1       106 7.29962E-01
 -1       107 5.95421E-01
 -1       108 4.64986E-01
 -1       109 3.48889E-01
 -1       110 2.68641E-01
 -1       111 2.09215E-01
 -1       112 1.58176E-01
 -1       113 1.16029E-01
 -1       114 8.22864E-02
 -1       115 5.59395E-02
 -1       116 4.31861E-02
 -1       117 3.44694E-02
 -1       118 2.54420E-02
 -1       119 1.76352E-02
 -1       120 1.07153E-02
 -1       121 4.29962E-03
 -1       122 3.19973E-03
 -1       123 3.19973E-03
 -1       124 2.87319E-03
 -1       125 1.62369E-03
 -1       126 1.74813E-03
 -1       127 2.59535E-03
 -1       128 2.86396E-03
 -1       129 2.86396E-03
 -1       130 2.56868E-03
 -1       131 1.67856E-03
 -1       132 1.76241E-03
 -1       133 3.03219E-03
 -1       134 3.03219E-03
 -1       135 2.98499E-03
 -1       136 4.07744E-03
 -1       137 2.46810E+01
 -1       138 4.78102E+01
 -1       139 4.78102E+01
 -1       140 2.00593E+01
 -1       141 1.18261E+01
 -1       142 1.24223E+01
 -1       143 1.24223E+01
 -1       144 1.22768E+01
 -1       145 1.21200E+01
 -1       146 1.30992E+01
 -1       147 3.13352E+01
 -1       148 3.22973E+01
 -1       149 2.77128E+01
 -1       150 2.49713E+01
 -1       151 2.55439E+01
 -1       152 2.55439E+01
 -1       153 4.12522E+01
 -1       154 1.52858E+01
 -1       155 1.20658E+01
 -1       156 1.21350E+01
 -1       157 1.21350E+01
 -1       158 1.26359E+01
 -1       159 1.26359E+01
 -1       160 2.07508E+01
 -1       161 4.82069E+01
 -1       162 4.82069E+01
 -1       163 2.46511E+01
 -1       164 6.00061E+00
 -1       165 2.26143E+00
 -1       166 1.49834E+00
 -1       167 1.14858E+00
 -1       168 9.59943E-01
 -1       169 8.44792E-01
 -1       170 7.70072E-01
 -1       171 7.25439E-01
 -1       172 7.73499E-01
 -1       173 8.47521E-01
 -1       174 9.67521E-01
 -1       175 1.16331E+00
 -1       176 1.51854E+00
 -1       177 2.24622E+00
 -1       178 3.88673E+00
 -1       179 1.40085E+01
 -1       180 4.34631E+00
 -1       181 3.35857E+00
 -1       182 2.12854E+00
 -1       183 1.44954E+00
 -1       184 1.11880E+00
 -1       185 8.99745E-01
 -1       186 7.38835E-01
 -1       187 6.13415E-01
 -1       188 5.26867E-01
 -1       189 5.93800E-01
 -1       190 6.68837E-01
 -1       191 7.44454E-01
 -1       192 9.16910E-01
 -1       193 1.09296E+00
 -1       194 1.32893E+00
 -1       195 1.57575E+00
 -1       196 1.67966E+00
 -1       197 1.62354E+00
 -1       198 1.61169E+00
 -1       199 1.83778E+00
 -1       200 2.71865E+00
 -1       201 4.37425E+00
 -1       202 4.70673E+00
 -1       203 4.73795E+00
 -1       204 3.57784E+00
 -1       205 2.10679E+00
 -1       206 1.46216E+00
 -1       207 1.67618E+00
 -1       208 1.61977E+00
 -1       209 1.62947E+00
 -1       210 1.43023E+00
 -1       211 1.18247E+00
 -1       212 1.01388E+00
 -1       213 8.61382E-01
 -1       214 6.95211E-01
 -1       215 5.38269E-01
 -1       216 4.01908E-01
 -1       217 2.98529E-01
 -1       218 2.32476E-01
 -1       219 1.77624E-01
 -1       220 1.32678E-01
 -1       221 9.89987E-02
 -1       222 7.98099E-02
 -1       223 6.23237E-02
 -1       224 4.65248E-02
 -1       225 3.19683E-02
 -1       226 2.11105E-02
 -1       227 1.08566E-02
 -1       228 3.42821E+00
 -1       229 2.44337E+00
 -1       230 1.69809E+00
 -1       231 1.22941E+00
 -1       232 1.03795E+00
 -1       233 8.92630E-01
 -1       234 7.80208E-01
 -1       235 6.90186E-01
 -1       236 6.13832E-01
 -1       237 5.41418E-01
 -1       238 5.68445E-01
 -1       239 5.95156E-01
 -1       240 5.98811E-01
 -1       241 6.07115E-01
 -1       242 7.38818E-01
 -1       243 8.75603E-01
 -1       244 9.34815E-01
 -1       245 1.19949E+00
 -1       246 1.24077E+00
 -1       247 1.47458E+00
 -1       248 1.81905E+00
 -1       249 2.53983E+00
 -1       250 2.89400E+00
 -1       251 3.30093E+00
 -1       252 3.00352E+00
 -1       253 2.04311E+00
 -1       254 1.28257E+00
 -1       255 8.28833E-01
 -1       256 8.95991E-01
 -1       257 9.77438E-01
 -1       258 1.05800E+00
 -1       259 9.98840E-01
 -1       260 8.66868E-01
 -1       261 7.29962E-01
 -1       262 6.05154E-01
 -1       263 4.87084E-01
 -1       264 3.76899E-01
 -1       265 2.81027E-01
 -1       266 2.09215E-01
 -1       267 1.58176E-01
 -1       268 1.16029E-01
 -1       269 8.46870E-02
 -1       270 5.97871E-02
 -1       271 4.31861E-02
 -1       272 3.44694E-02
 -1       273 2.54420E-02
 -1       274 1.76352E-02
 -1       275 1.07153E-02
 -1       276 5.24804E-03
 -1       277 6.10760E-03
 -1       278 6.10760E-03
 -1       279 4.62935E-03
 -1       280 3.71443E-03
 -1       281 5.62451E-03
 -1       282 6.42166E-03
 -1       283 6.42166E-03
 -1       284 6.42033E-03
 -1       285 5.55452E-03
 -1       286 3.65899E-03
 -1       287 4.89301E-03
 -1       288 6.39385E-03
 -1       289 6.39385E-03
 -1       290 7.00296E-03
 -1       291 2.94362E+01
 -1       292 2.94149E+01
 -1       293 4.78102E+01
 -1       294 2.15510E+01
 -1       295 1.12552E+01
 -1       296 1.18261E+01
 -1       297 1.24223E+01
 -1       298 1.22768E+01
 -1       299 1.21200E+01
 -1       300 1.19502E+01
 -1       301 1.30992E+01
 -1       302 3.22973E+01
 -1       303 3.22973E+01
 -1       304 2.56378E+01
 -1       305 3.01395E+01
 -1       306 3.01395E+01
 -1       307 3.67909E+01
 -1       308 4.12522E+01
 -1       309 1.52858E+01
 -1       310 1.12294E+01
 -1       311 1.20658E+01
 -1       312 1.21350E+01
 -1       313 1.19472E+01
 -1       314 1.26359E+01
 -1       315 1.11177E+01
 -1       316 2.27213E+01
 -1       317 4.82069E+01
 -1       318 3.06360E+01
 -1       319 2.94362E+01
 -1       320 1.02560E+00
 -1       321 2.42872E+00
 -1       322 7.87018E-01
 -1       323 6.82545E-01
 -1       324 6.14522E-01
 -1       325 5.65666E-01
 -1       326 5.68935E-01
 -1       327 6.17326E-01
 -1       328 6.89066E-01
 -1       329 7.88361E-01
 -1       330 9.26229E-01
 -1       331 1.13742E+00
 -1       332 1.29731E+00
 -1       333 2.17394E+00
 -1       334 1.87473E+00
 -1       335 1.72828E+00
 -1       336 1.25572E+00
 -1       337 8.81236E-01
 -1       338 7.05903E-01
 -1       339 6.00305E-01
 -1       340 4.99711E-01
 -1       341 4.01700E-01
 -1       342 4.49219E-01
 -1       343 5.14470E-01
 -1       344 6.31380E-01
 -1       345 8.04129E-01
 -1       346 9.52632E-01
 -1       347 1.08206E+00
 -1       348 1.23158E+00
 -1       349 1.27127E+00
 -1       350 1.15895E+00
 -1       351 1.16890E+00
 -1       352 1.18293E+00
 -1       353 1.81587E+00
 -1       354 2.43206E+00
 -1       355 2.91638E+00
 -1       356 2.96466E+00
 -1       357 2.70249E+00
 -1       358 2.03422E+00
 -1       359 1.41861E+00
 -1       360 1.22085E+00
 -1       361 1.09282E+00
 -1       362 1.22607E+00
 -1       363 1.26922E+00
 -1       364 1.16297E+00
 -1       365 1.04254E+00
 -1       366 9.30250E-01
 -1       367 7.85654E-01
 -1       368 6.36081E-01
 -1       369 4.97590E-01
 -1       370 3.77844E-01
 -1       371 2.79103E-01
 -1       372 2.00556E-01
 -1       373 1.39905E-01
 -1       374 9.67603E-02
 -1       375 6.89589E-02
 -1       376 5.00943E-02
 -1       377 3.64916E-02
 -1       378 2.73993E-02
 -1       379 1.83092E-02
 -1       380 1.24533E-02
 -1       381 1.14240E+00
 -1       382 8.63373E-01
 -1       383 6.55389E-01
 -1       384 5.84124E-01
 -1       385 5.42862E-01
 -1       386 4.98525E-01
 -1       387 4.52184E-01
 -1       388 4.38839E-01
 -1       389 4.75764E-01
 -1       390 5.60073E-01
 -1       391 6.60907E-01
 -1       392 7.19354E-01
 -1       393 7.19354E-01
 -1       394 6.95126E-01
 -1       395 5.46857E-01
 -1       396 5.49679E-01
 -1       397 8.58979E-01
 -1       398 1.41111E+00
 -1       399 1.71701E+00
 -1       400 1.71701E+00
 -1       401 1.68084E+00
 -1       402 1.89377E+00
 -1       403 1.93265E+00
 -1       404 1.50518E+00
 -1       405 9.56919E-01
 -1       406 6.16091E-01
 -1       407 5.75265E-01
 -1       408 7.14882E-01
 -1       409 7.57268E-01
 -1       410 7.72657E-01
 -1       411 7.14452E-01
 -1       412 6.40068E-01
 -1       413 5.53683E-01
 -1       414 4.56711E-01
 -1       415 3.62023E-01
 -1       416 2.76922E-01
 -1       417 2.04699E-01
 -1       418 1.54339E-01
 -1       419 1.16002E-01
 -1       420 8.46870E-02
 -1       421 5.97871E-02
 -1       422 4.04309E-02
 -1       423 2.63856E-02
 -1       424 1.83912E-02
 -1       425 1.24871E-02
 -1       426 5.14857E-03
 -1       427 7.93805E-03
 -1       428 9.18957E-03
 -1       429 9.18957E-03
 -1       430 5.85609E-03
 -1       431 8.64645E-03
 -1       432 1.02063E-02
 -1       433 1.02063E-02
 -1       434 1.01922E-02
 -1       435 1.01922E-02
 -1       436 8.67484E-03
 -1       437 5.93404E-03
 -1       438 8.10117E-03
 -1       439 9.23858E-03
 -1       440 2.94149E+01
 -1       441 3.19460E+01
 -1       442 3.19460E+01
 -1       443 1.67153E+01
 -1       444 9.35528E+00
 -1       445 9.05386E-01
 -1       446 9.89126E+00
 -1       447 1.05009E+01
 -1       448 9.84820E+00
 -1       449 9.01172E+00
 -1       450 6.86632E+00
 -1       451 1.20257E+01
 -1       452 2.12404E+01
 -1       453 2.57915E+01
 -1       454 3.60200E+01
 -1       455 3.60200E+01
 -1       456 2.72395E+01
 -1       457 2.49844E+01
 -1       458 1.45206E+01
 -1       459 7.91328E+00
 -1       460 8.10792E+00
 -1       461 9.76744E+00
 -1       462 1.08638E+01
 -1       463 1.02501E+01
 -1       464 7.89025E+00
 -1       465 9.96387E+00
 -1       466 1.72069E+01
 -1       467 3.06360E+01
 -1       468 3.11476E+01
 -1       469 7.34477E+00
 -1       470 1.03518E+00
 -1       471 4.74717E-01
 -1       472 5.09270E-01
 -1       473 4.08264E-01
 -1       474 4.39640E-01
 -1       475 4.75676E-01
 -1       476 5.05996E-01
 -1       477 5.07783E-01
 -1       478 6.01976E-01
 -1       479 8.63373E-01
 -1       480 7.60562E-01
 -1       481 4.93260E+00
 -1       482 6.62318E-01
 -1       483 5.23516E-01
 -1       484 4.10940E-01
 -1       485 3.54659E-01
 -1       486 2.78359E-01
 -1       487 2.84415E-01
 -1       488 3.59646E-01
 -1       489 5.21815E-01
 -1       490 6.94716E-01
 -1       491 8.68814E-01
 -1       492 1.02682E+00
 -1       493 1.14128E+00
 -1       494 1.35678E+00
 -1       495 1.57227E+00
 -1       496 1.72021E+00
 -1       497 2.08775E+00
 -1       498 2.18606E+00
 -1       499 2.38428E+00
 -1       500 5.16309E+00
 -1       501 8.55260E+00
 -1       502 7.28919E+00
 -1       503 3.73547E+00
 -1       504 2.00223E+00
 -1       505 2.28141E+00
 -1       506 1.77013E+00
 -1       507 1.68009E+00
 -1       508 1.49587E+00
 -1       509 1.27556E+00
 -1       510 1.13152E+00
 -1       511 1.00262E+00
 -1       512 8.50568E-01
 -1       513 6.97356E-01
 -1       514 5.55942E-01
 -1       515 4.32608E-01
 -1       516 3.29288E-01
 -1       517 2.45372E-01
 -1       518 1.78937E-01
 -1       519 1.27529E-01
 -1       520 8.86187E-02
 -1       521 5.98417E-02
 -1       522 3.91151E-02
 -1       523 2.46652E-02
 -1       524 1.72482E-02
 -1       525 5.24674E-01
 -1       526 4.51552E-01
 -1       527 3.67585E-01
 -1       528 2.98753E-01
 -1       529 3.41281E-01
 -1       530 3.76310E-01
 -1       531 4.87820E-01
 -1       532 5.80510E-01
 -1       533 6.60907E-01
 -1       534 7.19354E-01
 -1       535 7.47097E-01
 -1       536 6.99563E-01
 -1       537 8.25887E-01
 -1       538 8.76264E-01
 -1       539 1.20966E+00
 -1       540 1.47554E+00
 -1       541 1.84451E+00
 -1       542 1.87297E+00
 -1       543 2.00911E+00
 -1       544 1.69776E+00
 -1       545 1.47028E+00
 -1       546 1.14259E+00
 -1       547 8.78211E-01
 -1       548 8.11459E-01
 -1       549 7.41316E-01
 -1       550 7.84968E-01
 -1       551 7.55867E-01
 -1       552 6.98610E-01
 -1       553 6.35487E-01
 -1       554 5.64132E-01
 -1       555 4.77592E-01
 -1       556 3.89008E-01
 -1       557 3.06499E-01
 -1       558 2.34302E-01
 -1       559 1.73976E-01
 -1       560 1.25411E-01
 -1       561 8.75679E-02
 -1       562 5.89900E-02
 -1       563 3.91677E-02
 -1       564 2.81461E-02
 -1       565 1.97794E-02
 -1       566 1.31355E-02
 -1       567 1.20067E-02
 -1       568 1.47193E-02
 -1       569 1.62671E-02
 -1       570 1.62671E-02
 -1       571 1.50195E-02
 -1       572 1.50826E-02
 -1       573 1.50826E-02
 -1       574 1.48377E-02
 -1       575 1.21152E-02
 -1       576 1.21977E-02
 -1       577 1.21977E-02
 -1       578 3.19460E+01
 -1       579 1.22925E+01
 -1       580 6.55389E-01
 -1       581 3.11476E+01
 -1       582 2.07554E+01
 -1       583 8.42301E-01
 -1       584 2.25205E+01
 -1       585 8.55260E+00
 -1       586 4.39370E-01
 -1       587 8.55250E+00
 -1       588 1.37034E+01
 -1       589 6.98301E+00
 -1       590 6.77675E+00
 -1       591 4.27069E+00
 -1       592 7.64480E+00
 -1       593 1.04243E+01
 -1       594 1.55136E+01
 -1       595 2.57915E+01
 -1       596 3.60200E+01
 -1       597 2.72395E+01
 -1       598 1.74083E+01
 -1       599 1.18724E+01
 -1       600 7.95714E+00
 -1       601 5.15423E+00
 -1       602 6.06162E+00
 -1       603 8.55260E+00
 -1       604 7.28919E+00
 -1       605 5.51457E+00
 -1       606 1.05377E+01
 -1       607 5.19366E+00
 -1       608 1.29581E+00
 -1       609 8.57617E+00
 -1       610 5.43799E-01
 -1       611 1.43781E+01
 -1       612 1.24533E-02
 -1       613 3.45449E-01
 -1       614 3.19723E-01
 -1       615 3.59899E-01
 -1       616 3.47200E-01
 -1       617 5.06423E-01
 -1       618 6.37539E+00
 -1       619 3.80469E+00
 -1       620 6.61730E+00
 -1       621 3.33570E-01
 -1       622 2.87678E-01
 -1       623 2.06364E-01
 -1       624 1.59402E-01
 -1       625 1.45465E-01
 -1       626 2.61105E-01
 -1       627 3.99557E-01
 -1       628 5.61783E-01
 -1       629 7.49546E-01
 -1       630 9.64089E-01
 -1       631 1.20263E+00
 -1       632 1.45045E+00
 -1       633 1.75584E+00
 -1       634 2.28033E+00
 -1       635 2.79522E+00
 -1       636 3.52478E+00
 -1       637 2.38428E+00
 -1       638 5.26518E+00
 -1       639 3.57957E+00
 -1       640 3.10349E+00
 -1       641 2.52686E+00
 -1       642 2.04430E+00
 -1       643 1.59533E+00
 -1       644 1.36089E+00
 -1       645 1.12698E+00
 -1       646 9.15816E-01
 -1       647 7.33042E-01
 -1       648 5.79368E-01
 -1       649 4.52012E-01
 -1       650 3.47894E-01
 -1       651 2.63913E-01
 -1       652 1.97113E-01
 -1       653 1.44760E-01
 -1       654 1.04373E-01
 -1       655 7.37486E-02
 -1       656 5.09550E-02
 -1       657 3.43821E-02
 -1       658 2.02032E-02
 -1       659 2.46851E-01
 -1       660 2.41791E-02
 -1       661 2.92339E-01
 -1       662 2.08383E-01
 -1       663 3.07683E-01
 -1       664 4.24759E-01
 -1       665 5.38718E-01
 -1       666 6.37953E-01
 -1       667 7.38470E-01
 -1       668 8.80390E-01
 -1       669 9.97449E-01
 -1       670 1.05873E+00
 -1       671 1.35426E+00
 -1       672 1.59654E+00
 -1       673 1.72299E+00
 -1       674 2.02698E+00
 -1       675 3.29886E+00
 -1       676 3.10279E+00
 -1       677 3.94407E+00
 -1       678 2.53899E+00
 -1       679 1.59072E+00
 -1       680 1.71119E+00
 -1       681 1.32036E+00
 -1       682 1.07575E+00
 -1       683 1.02380E+00
 -1       684 9.13440E-01
 -1       685 7.83161E-01
 -1       686 6.94156E-01
 -1       687 6.09980E-01
 -1       688 5.16221E-01
 -1       689 4.23585E-01
 -1       690 3.38411E-01
 -1       691 2.63890E-01
 -1       692 2.01101E-01
 -1       693 1.49805E-01
 -1       694 1.09018E-01
 -1       695 7.73995E-02
 -1       696 5.35097E-02
 -1       697 3.54071E-02
 -1       698 2.44246E-02
 -1       699 8.60812E+00
 -1       700 2.15436E-02
 -1       701 1.21977E-02
 -1       702 2.01463E-02
 -1       703 2.17327E-02
 -1       704 2.15436E-02
 -1       705 2.17327E-02
 -1       706 2.03288E-02
 -1       707 1.56789E-02
 -1       708 5.43799E-01
 -1       709 1.08100E+01
 -1       710 1.55210E+01
 -1       711 1.48532E+01
 -1       712 3.82372E-01
 -1       713 1.79862E-01
 -1       714 3.69523E-01
 -1       715 3.59899E-01
 -1       716 4.62084E-01
 -1       717 5.68754E+00
 -1       718 3.56220E-01
 -1       719 1.59503E+01
 -1       720 9.79965E+00
 -1       721 2.76872E+00
 -1       722 3.64481E+00
 -1       723 4.39465E+00
 -1       724 7.73751E+00
 -1       725 9.79255E+00
 -1       726 1.34785E+01
 -1       727 1.67198E+01
 -1       728 1.38883E+01
 -1       729 5.61340E+00
 -1       730 9.47259E+00
 -1       731 1.14189E+01
 -1       732 4.50027E+00
 -1       733 5.60428E+00
 -1       734 3.73547E+00
 -1       735 3.96588E-01
 -1       736 3.18944E-01
 -1       737 2.41791E-02
 -1       738 9.30827E+00
 -1       739 3.43934E-01
 -1       740 3.94407E+00
 -1       741 9.23108E+00
 -1       742 1.37579E-02
 -1       743 3.94407E+00
 -1       744 2.49860E-01
 -1       745 1.39935E-01
 -1       746 1.08657E-01
 -1       747 1.60627E-01
 -1       748 2.39903E-01
 -1       749 3.45755E-01
 -1       750 4.86926E-01
 -1       751 6.59337E-01
 -1       752 8.59375E-01
 -1       753 1.12588E+00
 -1       754 1.50625E+00
 -1       755 2.04763E+00
 -1       756 2.65970E+00
 -1       757 3.37879E+00
 -1       758 5.28666E+00
 -1       759 3.52478E+00
 -1       760 5.66375E+00
 -1       761 3.80723E+00
 -1       762 2.37027E+00
 -1       763 1.78355E+00
 -1       764 1.31875E+00
 -1       765 1.03073E+00
 -1       766 8.22678E-01
 -1       767 6.58927E-01
 -1       768 5.16017E-01
 -1       769 3.96290E-01
 -1       770 2.98780E-01
 -1       771 2.21102E-01
 -1       772 1.60398E-01
 -1       773 1.13829E-01
 -1       774 8.04611E-02
 -1       775 5.55883E-02
 -1       776 3.79684E-02
 -1       777 2.36932E-02
 -1       778 1.39257E-01
 -1       779 3.50441E-01
 -1       780 2.37124E-01
 -1       781 6.23681E-01
 -1       782 7.74951E-01
 -1       783 9.20168E-01
 -1       784 1.17055E+00
 -1       785 1.46129E+00
 -1       786 1.73771E+00
 -1       787 1.76443E+00
 -1       788 2.61314E+00
 -1       789 2.64020E+00
 -1       790 3.51354E+00
 -1       791 3.25742E+00
 -1       792 2.45028E+00
 -1       793 1.66638E+00
 -1       794 1.46561E+00
 -1       795 1.18106E+00
 -1       796 9.52725E-01
 -1       797 8.17920E-01
 -1       798 6.81265E-01
 -1       799 5.59722E-01
 -1       800 4.48537E-01
 -1       801 3.51999E-01
 -1       802 2.73636E-01
 -1       803 2.09728E-01
 -1       804 1.58216E-01
 -1       805 1.17360E-01
 -1       806 8.54926E-02
 -1       807 6.10747E-02
 -1       808 4.21163E-02
 -1       809 3.07247E-02
 -1       810 2.16916E-02
 -1       811 2.95873E-02
 -1       812 4.11253E+00
 -1       813 7.88131E+00
 -1       814 2.55902E-01
 -1       815 2.00014E-01
 -1       816 9.60679E+00
 -1       817 7.28075E+00
 -1       818 3.07247E-02
 -1       819 4.80144E-01
 -1       820 6.42507E+00
 -1       821 1.53597E-01
 -1       822 7.93578E+00
 -1       823 7.48607E+00
 -1       824 8.48023E+00
 -1       825 8.47688E+00
 -1       826 3.29886E+00
 -1       827 9.60679E+00
 -1       828 7.28075E+00
 -1       829 8.91711E+00
 -1       830 4.94454E+00
 -1       831 8.61057E+00
 -1       832 2.66283E-01
 -1       833 2.35348E+00
 -1       834 2.46011E-01
 -1       835 2.73236E-01
 -1       836 2.59640E-02
 -1       837 2.72738E-01
 -1       838 2.73380E-01
 -1       839 1.59624E-01
 -1       840 2.29439E+00
 -1       841 3.54053E+00
 -1       842 3.29003E-02
 -1       843 2.94197E-02
 -1       844 1.04303E-01
 -1       845 2.94197E-02
 -1       846 2.73236E-01
 -1       847 2.59510E-02
 -1       848 2.73380E-01
 -1       849 6.77419E+00
 -1       850 2.08001E-01
 -1       851 7.77826E+00
 -1       852 2.23741E-02
 -1       853 1.71119E-01
 -1       854 2.33189E-01
 -1       855 3.24208E-01
 -1       856 4.66532E-01
 -1       857 6.42575E-01
 -1       858 8.59375E-01
 -1       859 1.12588E+00
 -1       860 1.44641E+00
 -1       861 1.99486E+00
 -1       862 3.07456E+00
 -1       863 5.88737E+00
 -1       864 6.25082E+00
 -1       865 5.63014E+00
 -1       866 4.15342E+00
 -1       867 2.65109E+00
 -1       868 1.68109E+00
 -1       869 1.31305E+00
 -1       870 1.03073E+00
 -1       871 8.03306E-01
 -1       872 6.22200E-01
 -1       873 4.78322E-01
 -1       874 3.64289E-01
 -1       875 2.74299E-01
 -1       876 2.03765E-01
 -1       877 1.48985E-01
 -1       878 1.06940E-01
 -1       879 7.50404E-02
 -1       880 5.15872E-02
 -1       881 5.68615E+00
 -1       882 1.00308E+00
 -1       883 7.46363E-01
 -1       884 1.63139E+00
 -1       885 2.26844E+00
 -1       886 2.21818E+00
 -1       887 1.62642E+00
 -1       888 1.31302E+00
 -1       889 1.02481E+00
 -1       890 7.87111E-01
 -1       891 6.25109E-01
 -1       892 5.03458E-01
 -1       893 4.11356E-01
 -1       894 3.27475E-01
 -1       895 2.54716E-01
 -1       896 1.93781E-01
 -1       897 1.44157E-01
 -1       898 1.04733E-01
 -1       899 7.41310E-02
 -1       900 5.21379E-02
 -1       901 7.77826E+00
 -1       902 4.81527E+00
 -1       903 5.66375E+00
 -1       904 4.31769E-02
 -1       905 2.08821E+00
 -1       906 2.83950E+00
 -1       907 2.64964E-01
 -1       908 1.30447E+00
 -1       909 1.31106E-01
 -1       910 5.86214E+00
 -1       911 5.73305E+00
 -1       912 1.28631E-01
 -1       913 5.00151E+00
 -1       914 2.61314E+00
 -1       915 1.10372E-01
 -1       916 1.02257E-01
 -1       917 3.27600E-01
 -1       918 1.70586E-01
 -1       919 5.28097E+00
 -1       920 3.94900E-02
 -1       921 5.18684E+00
 -1       922 3.42066E-02
 -1       923 2.43186E-01
 -1       924 5.87919E-01
 -1       925 3.53268E+00
 -1       926 3.33858E+00
 -1       927 3.73683E-02
 -1       928 4.31027E-02
 -1       929 1.76335E-01
 -1       930 5.04177E+00
 -1       931 1.80572E-01
 -1       932 1.13018E-01
 -1       933 4.39020E-02
 -1       934 1.41809E-01
 -1       935 1.87862E-01
 -1       936 1.47675E-01
 -1       937 9.69464E-02
 -1       938 4.45949E-01
 -1       939 4.39020E-02
 -1       940 2.78656E-01
 -1       941 3.98514E-01
 -1       942 5.52855E-01
 -1       943 7.55711E-01
 -1       944 1.03158E+00
 -1       945 1.42234E+00
 -1       946 1.99486E+00
 -1       947 2.74518E+00
 -1       948 5.28097E+00
 -1       949 4.33358E+00
 -1       950 5.09938E+00
 -1       951 1.21402E-01
 -1       952 2.30773E+00
 -1       953 1.67462E+00
 -1       954 1.23099E+00
 -1       955 9.12595E-01
 -1       956 6.88316E-01
 -1       957 5.23301E-01
 -1       958 3.98514E-01
 -1       959 3.02394E-01
 -1       960 2.27675E-01
 -1       961 1.69509E-01
 -1       962 1.24389E-01
 -1       963 8.97591E-02
 -1       964 6.33493E-02
 -1       965 3.15854E+00
 -1       966 9.75907E-01
 -1       967 1.38482E+00
 -1       968 1.04220E-01
 -1       969 2.19174E+00
 -1       970 7.69266E-01
 -1       971 6.25109E-01
 -1       972 4.99578E-01
 -1       973 3.93610E-01
 -1       974 3.05807E-01
 -1       975 2.34125E-01
 -1       976 1.76423E-01
 -1       977 1.30590E-01
 -1       978 9.47729E-02
 -1       979 6.74110E-02
 -1       980 1.81725E-01
 -1       981 4.31027E-02
 -1       982 1.60202E-01
 -1       983 1.87862E-01
 -1       984 5.04456E-02
 -1       985 1.15781E-01
 -1       986 1.60753E-01
 -1       987 3.13607E+00
 -1       988 3.34604E+00
 -1       989 1.67785E-01
 -1       990 2.05627E-01
 -1       991 9.87099E-01
 -1       992 1.39291E-01
 -1       993 4.27797E+00
 -1       994 5.24660E-02
 -1       995 3.47636E+00
 -1       996 9.72446E-02
 -1       997 3.56093E+00
 -1       998 3.53268E+00
 -1       999 7.77926E-01
 -1      1000 4.04791E+00
 -1      1001 2.40405E-01
 -1      1002 5.04456E-02
 -1      1003 1.59203E+00
 -1      1004 4.04791E+00
 -1      1005 1.16713E+00
 -1      1006 1.16749E-01
 -1      1007 4.45949E-01
 -1      1008 5.24660E-02
 -1      1009 3.27600E-01
 -1      1010 4.70148E+00
 -1      1011 4.39245E-01
 -1      1012 5.64290E-01
 -1      1013 7.74766E-01
 -1      1014 1.08842E+00
 -1      1015 1.60264E+00
 -1      1016 2.53967E+00
 -1      1017 8.81895E-02
 -1      1018 2.65455E+00
 -1      1019 1.28810E+00
 -1      1020 9.18242E-01
 -1      1021 6.74094E-01
 -1      1022 5.06039E-01
 -1      1023 3.85157E-01
 -1      1024 2.94218E-01
 -1      1025 2.24027E-01
 -1      1026 1.69228E-01
 -1      1027 1.26417E-01
 -1      1028 9.30209E-02
 -1      1029 7.45909E-02
 -1      1030 1.27810E+00
 -1      1031 7.52063E-01
 -1      1032 3.29136E+00
 -1      1033 9.75907E-01
 -1      1034 5.76879E-01
 -1      1035 4.42949E-01
 -1      1036 3.39159E-01
 -1      1037 2.58109E-01
 -1      1038 1.94657E-01
 -1      1039 1.45159E-01
 -1      1040 1.06390E-01
 -1      1041 7.69351E-02
 -1      1042 5.71021E-02
 -1      1043 2.54394E+00
 -1      1044 1.16749E-01
 -1      1045 1.78176E-01
 -1      1046 5.87919E-01
 -1      1047 2.37241E+00
 -1      1048 2.08852E+00
 -1      1049 3.41969E-01
 -1      1050 8.81895E-02
 -1      1051 5.09753E-02
 -1      1052 1.60895E+00
 -1      1053 1.35322E-01
 -1      1054 1.92755E-01
 -1      1055 2.06188E+00
 -1      1056 2.84288E+00
 -1      1057 7.55778E-02
 -1      1058 2.12329E-01
 -1      1059 1.39462E+00
 -1      1060 9.87099E-01
 -1      1061 2.06124E-01
 -1      1062 2.84288E+00
 -1      1063 5.44195E-01
 -1      1064 2.61968E-01
 -1      1065 4.14664E-01
 -1      1066 1.92755E-01
 -1      1067 1.15781E-01
 -1      1068 6.46919E-02
 -1      1069 5.41849E-01
 -1      1070 6.81673E-01
 -1      1071 8.84751E-01
 -1      1072 1.26946E+00
 -1      1073 2.08213E+00
 -1      1074 6.09648E-02
 -1      1075 1.18911E+00
 -1      1076 3.27028E+00
 -1      1077 2.05358E+00
 -1      1078 1.52264E+00
 -1      1079 8.58949E-01
 -1      1080 6.32614E-01
 -1      1081 4.71966E-01
 -1      1082 3.54413E-01
 -1      1083 2.66270E-01
 -1      1084 1.98819E-01
 -1      1085 1.47622E-01
 -1      1086 1.09343E-01
 -1      1087 7.45909E-02
 -1      1088 8.58949E-01
 -1      1089 1.52264E+00
 -1      1090 1.18911E+00
 -1      1091 4.71966E-01
 -1      1092 2.20336E+00
 -1      1093 3.54413E-01
 -1      1094 2.66270E-01
 -1      1095 1.98819E-01
 -1      1096 1.44412E-01
 -1      1097 8.40969E-01
 -1      1098 1.66333E+00
 -1      1099 2.97065E-01
 -1      1100 4.18293E-01
 -1      1101 6.32614E-01
 -1      1102 1.79369E-01
 -1      1103 1.39462E+00
 -1      1104 2.05358E+00
 -1      1105 2.40614E+00
 -1      1106 2.02868E+00
 -1      1107 6.70340E-01
 -1      1108 4.62780E-01
 -1      1109 8.18292E-02
 -1      1110 2.73176E-01
 -1      1111 3.23824E-01
 -1      1112 2.10734E-01
 -1      1113 8.86144E-01
 -1      1114 2.10734E-01
 -1      1115 7.93129E-02
 -1      1116 3.52647E-01
 -1      1117 1.31125E+01
 -1      1118 8.36067E+00
 -1      1119 2.69947E+00
 -1      1120 1.53337E+00
 -1      1121 1.15468E+00
 -1      1122 9.57319E-01
 -1      1123 8.33480E-01
 -1      1124 7.54332E-01
 -1      1125 7.24557E-01
 -1      1126 7.57496E-01
 -1      1127 8.36179E-01
 -1      1128 9.61059E-01
 -1      1129 1.16738E+00
 -1      1130 1.54855E+00
 -1      1131 2.62683E+00
 -1      1132 6.01474E+00
 -1      1133 1.12930E+01
 -1      1134 1.31125E+01
 -1      1135 8.72940E+00
 -1      1136 3.85244E+00
 -1      1137 2.74355E+00
 -1      1138 1.78348E+00
 -1      1139 1.27861E+00
 -1      1140 1.00927E+00
 -1      1141 8.19290E-01
 -1      1142 6.76125E-01
 -1      1143 6.03608E-01
 -1      1144 6.31319E-01
 -1      1145 7.06646E-01
 -1      1146 7.81982E-01
 -1      1147 9.32667E-01
 -1      1148 1.18738E+00
 -1      1149 1.45234E+00
 -1      1150 1.62770E+00
 -1      1151 1.67966E+00
 -1      1152 1.65160E+00
 -1      1153 1.73066E+00
 -1      1154 2.27767E+00
 -1      1155 3.54590E+00
 -1      1156 4.54049E+00
 -1      1157 4.72234E+00
 -1      1158 4.73795E+00
 -1      1159 4.15789E+00
 -1      1160 2.83261E+00
 -1      1161 1.88178E+00
 -1      1162 1.67618E+00
 -1      1163 1.65283E+00
 -1      1164 1.62947E+00
 -1      1165 1.52985E+00
 -1      1166 1.29248E+00
 -1      1167 1.03888E+00
 -1      1168 8.18155E-01
 -1      1169 6.48542E-01
 -1      1170 5.32698E-01
 -1      1171 4.33018E-01
 -1      1172 3.41489E-01
 -1      1173 2.62298E-01
 -1      1174 1.96548E-01
 -1      1175 1.43613E-01
 -1      1176 1.09598E-01
 -1      1177 8.94043E-02
 -1      1178 7.10668E-02
 -1      1179 5.44242E-02
 -1      1180 3.92465E-02
 -1      1181 2.62375E-02
 -1      1182 1.56060E-02
 -1      1183 6.92610E-03
 -1      1184 1.40085E+01
 -1      1185 8.71835E+00
 -1      1186 2.93579E+00
 -1      1187 2.07073E+00
 -1      1188 1.46375E+00
 -1      1189 1.13368E+00
 -1      1190 9.65289E-01
 -1      1191 8.36419E-01
 -1      1192 7.35197E-01
 -1      1193 6.52009E-01
 -1      1194 5.91139E-01
 -1      1195 5.81800E-01
 -1      1196 5.96983E-01
 -1      1197 5.98811E-01
 -1      1198 6.68815E-01
 -1      1199 8.07211E-01
 -1      1200 9.05209E-01
 -1      1201 1.06715E+00
 -1      1202 1.22013E+00
 -1      1203 1.35767E+00
 -1      1204 1.57261E+00
 -1      1205 2.10524E+00
 -1      1206 2.71691E+00
 -1      1207 3.09747E+00
 -1      1208 3.30093E+00
 -1      1209 3.15223E+00
 -1      1210 2.52331E+00
 -1      1211 1.66284E+00
 -1      1212 1.08928E+00
 -1      1213 9.36715E-01
 -1      1214 1.01772E+00
 -1      1215 1.05800E+00
 -1      1216 1.02842E+00
 -1      1217 9.32854E-01
 -1      1218 7.98415E-01
 -1      1219 6.62691E-01
 -1      1220 5.30203E-01
 -1      1221 4.06937E-01
 -1      1222 3.08765E-01
 -1      1223 2.38928E-01
 -1      1224 1.83695E-01
 -1      1225 1.37102E-01
 -1      1226 9.91578E-02
 -1      1227 6.91129E-02
 -1      1228 4.95628E-02
 -1      1229 3.88278E-02
 -1      1230 2.99557E-02
 -1      1231 2.15386E-02
 -1      1232 1.41753E-02
 -1      1233 6.74646E-03
 -1      1234 3.53862E-03
 -1      1235 3.74967E-03
 -1      1236 3.19973E-03
 -1      1237 3.03646E-03
 -1      1238 2.24844E-03
 -1      1239 1.68591E-03
 -1      1240 2.17174E-03
 -1      1241 2.72965E-03
 -1      1242 2.86396E-03
 -1      1243 2.71632E-03
 -1      1244 2.12362E-03
 -1      1245 1.72049E-03
 -1      1246 2.39730E-03
 -1      1247 3.03219E-03
 -1      1248 3.00859E-03
 -1      1249 3.53122E-03
 -1      1250 3.61223E-03
 -1      1251 2.42511E+01
 -1      1252 3.62456E+01
 -1      1253 4.78102E+01
 -1      1254 3.39348E+01
 -1      1255 1.59427E+01
 -1      1256 1.21242E+01
 -1      1257 1.24223E+01
 -1      1258 1.23496E+01
 -1      1259 1.21984E+01
 -1      1260 1.26096E+01
 -1      1261 2.22172E+01
 -1      1262 3.18162E+01
 -1      1263 3.00050E+01
 -1      1264 2.63420E+01
 -1      1265 2.52576E+01
 -1      1266 2.55439E+01
 -1      1267 3.33980E+01
 -1      1268 4.12522E+01
 -1      1269 2.82690E+01
 -1      1270 1.36758E+01
 -1      1271 1.21004E+01
 -1      1272 1.21350E+01
 -1      1273 1.23854E+01
 -1      1274 1.26359E+01
 -1      1275 1.66933E+01
 -1      1276 3.44788E+01
 -1      1277 4.82069E+01
 -1      1278 3.64290E+01
 -1      1279 2.42361E+01
 -1      1280 1.31125E+01
 -1      1281 4.80473E+00
 -1      1282 9.55655E+00
 -1      1283 2.02576E+00
 -1      1284 2.93513E+00
 -1      1285 4.13102E+00
 -1      1286 1.38749E+00
 -1      1287 1.64422E+00
 -1      1288 1.87988E+00
 -1      1289 1.09065E+00
 -1      1290 1.21261E+00
 -1      1291 1.32346E+00
 -1      1292 9.20929E-01
 -1      1293 9.96333E-01
 -1      1294 1.05426E+00
 -1      1295 8.14918E-01
 -1      1296 8.63353E-01
 -1      1297 9.02367E-01
 -1      1298 7.46845E-01
 -1      1299 7.77558E-01
 -1      1300 8.07432E-01
 -1      1301 7.25467E-01
 -1      1302 7.24529E-01
 -1      1303 7.47755E-01
 -1      1304 7.81498E-01
 -1      1305 7.49497E-01
 -1      1306 7.49469E-01
 -1      1307 8.65191E-01
 -1      1308 8.18509E-01
 -1      1309 8.10510E-01
 -1      1310 1.00339E+00
 -1      1311 9.25191E-01
 -1      1312 9.07521E-01
 -1      1313 1.22941E+00
 -1      1314 1.10128E+00
 -1      1315 1.06542E+00
 -1      1316 1.66007E+00
 -1      1317 1.40703E+00
 -1      1318 1.34093E+00
 -1      1319 2.84915E+00
 -1      1320 2.02390E+00
 -1      1321 1.88238E+00
 -1      1322 6.23208E+00
 -1      1323 3.66940E+00
 -1      1324 3.06648E+00
 -1      1325 1.40085E+01
 -1      1326 1.12930E+01
 -1      1327 8.94762E+00
 -1      1328 1.40085E+01
 -1      1329 8.72940E+00
 -1      1330 4.34631E+00
 -1      1331 3.85244E+00
 -1      1332 3.35857E+00
 -1      1333 3.85244E+00
 -1      1334 2.74355E+00
 -1      1335 2.12854E+00
 -1      1336 2.74355E+00
 -1      1337 1.78904E+00
 -1      1338 1.44398E+00
 -1      1339 1.78904E+00
 -1      1340 1.27861E+00
 -1      1341 1.11880E+00
 -1      1342 1.28417E+00
 -1      1343 1.00927E+00
 -1      1344 8.99745E-01
 -1      1345 1.00927E+00
 -1      1346 8.19290E-01
 -1      1347 7.38835E-01
 -1      1348 8.19290E-01
 -1      1349 6.76125E-01
 -1      1350 6.13415E-01
 -1      1351 6.76125E-01
 -1      1352 5.70141E-01
 -1      1353 5.60334E-01
 -1      1354 5.70141E-01
 -1      1355 5.93800E-01
 -1      1356 6.31319E-01
 -1      1357 5.60334E-01
 -1      1358 6.68837E-01
 -1      1359 7.06646E-01
 -1      1360 6.31319E-01
 -1      1361 7.44454E-01
 -1      1362 7.81982E-01
 -1      1363 7.06646E-01
 -1      1364 8.68210E-01
 -1      1365 9.81367E-01
 -1      1366 8.30682E-01
 -1      1367 1.06939E+00
 -1      1368 1.21095E+00
 -1      1369 1.00494E+00
 -1      1370 1.32893E+00
 -1      1371 1.45234E+00
 -1      1372 1.21095E+00
 -1      1373 1.57575E+00
 -1      1374 1.62770E+00
 -1      1375 1.45234E+00
 -1      1376 1.67966E+00
 -1      1377 1.67966E+00
 -1      1378 1.62770E+00
 -1      1379 1.65160E+00
 -1      1380 1.62354E+00
 -1      1381 1.65160E+00
 -1      1382 1.61762E+00
 -1      1383 1.72473E+00
 -1      1384 1.61762E+00
 -1      1385 1.83778E+00
 -1      1386 2.27767E+00
 -1      1387 1.72473E+00
 -1      1388 2.71811E+00
 -1      1389 3.54645E+00
 -1      1390 2.27822E+00
 -1      1391 4.37425E+00
 -1      1392 4.54049E+00
 -1      1393 3.54645E+00
 -1      1394 4.70673E+00
 -1      1395 4.72234E+00
 -1      1396 4.54049E+00
 -1      1397 4.73795E+00
 -1      1398 4.73795E+00
 -1      1399 4.72234E+00
 -1      1400 4.15789E+00
 -1      1401 3.57784E+00
 -1      1402 4.15789E+00
 -1      1403 2.84231E+00
 -1      1404 2.09708E+00
 -1      1405 2.84231E+00
 -1      1406 1.77477E+00
 -1      1407 1.56917E+00
 -1      1408 1.78448E+00
 -1      1409 1.67618E+00
 -1      1410 1.67618E+00
 -1      1411 1.56917E+00
 -1      1412 1.64798E+00
 -1      1413 1.62462E+00
 -1      1414 1.64798E+00
 -1      1415 1.62947E+00
 -1      1416 1.62947E+00
 -1      1417 1.62462E+00
 -1      1418 1.52985E+00
 -1      1419 1.43023E+00
 -1      1420 1.52985E+00
 -1      1421 1.30635E+00
 -1      1422 1.16860E+00
 -1      1423 1.30635E+00
 -1      1424 1.08430E+00
 -1      1425 9.68457E-01
 -1      1426 1.09817E+00
 -1      1427 8.92209E-01
 -1      1428 7.87329E-01
 -1      1429 9.37631E-01
 -1      1430 7.04243E-01
 -1      1431 6.39510E-01
 -1      1432 7.78297E-01
 -1      1433 5.61039E-01
 -1      1434 5.09928E-01
 -1      1435 6.16740E-01
 -1      1436 4.41747E-01
 -1      1437 3.93178E-01
 -1      1438 4.70089E-01
 -1      1439 3.41489E-01
 -1      1440 2.98529E-01
 -1      1441 3.50219E-01
 -1      1442 2.65503E-01
 -1      1443 2.29272E-01
 -1      1444 2.65503E-01
 -1      1445 2.01845E-01
 -1      1446 1.72326E-01
 -1      1447 2.05050E-01
 -1      1448 1.49853E-01
 -1      1449 1.26438E-01
 -1      1450 1.55151E-01
 -1      1451 1.09598E-01
 -1      1452 9.89987E-02
 -1      1453 1.15839E-01
 -1      1454 8.94043E-02
 -1      1455 7.98099E-02
 -1      1456 8.94043E-02
 -1      1457 7.10668E-02
 -1      1458 6.23237E-02
 -1      1459 7.10668E-02
 -1      1460 5.44242E-02
 -1      1461 4.65248E-02
 -1      1462 5.44242E-02
 -1      1463 3.92465E-02
 -1      1464 3.19683E-02
 -1      1465 3.92465E-02
 -1      1466 2.65394E-02
 -1      1467 2.08087E-02
 -1      1468 2.65394E-02
 -1      1469 1.56817E-02
 -1      1470 1.07809E-02
 -1      1471 1.59836E-02
 -1      1472 7.39131E-03
 -1      1473 7.46700E-03
 -1      1474 3.42821E+00
 -1      1475 8.71835E+00
 -1      1476 8.71835E+00
 -1      1477 2.44337E+00
 -1      1478 2.93579E+00
 -1      1479 2.93579E+00
 -1      1480 1.69809E+00
 -1      1481 2.07073E+00
 -1      1482 2.07073E+00
 -1      1483 1.22941E+00
 -1      1484 1.46375E+00
 -1      1485 1.46375E+00
 -1      1486 1.03795E+00
 -1      1487 1.13368E+00
 -1      1488 1.13368E+00
 -1      1489 8.92630E-01
 -1      1490 9.65289E-01
 -1      1491 9.65289E-01
 -1      1492 7.80208E-01
 -1      1493 8.36419E-01
 -1      1494 8.36419E-01
 -1      1495 6.90186E-01
 -1      1496 7.35197E-01
 -1      1497 7.35197E-01
 -1      1498 6.13832E-01
 -1      1499 6.52009E-01
 -1      1500 6.52009E-01
 -1      1501 5.54932E-01
 -1      1502 5.77625E-01
 -1      1503 5.77625E-01
 -1      1504 5.81800E-01
 -1      1505 5.68445E-01
 -1      1506 5.54932E-01
 -1      1507 5.96983E-01
 -1      1508 5.95156E-01
 -1      1509 5.81800E-01
 -1      1510 5.98811E-01
 -1      1511 5.98811E-01
 -1      1512 5.96983E-01
 -1      1513 6.72967E-01
 -1      1514 6.02963E-01
 -1      1515 6.02963E-01
 -1      1516 8.07211E-01
 -1      1517 7.38818E-01
 -1      1518 6.72967E-01
 -1      1519 9.05209E-01
 -1      1520 8.75603E-01
 -1      1521 8.07211E-01
 -1      1522 1.06715E+00
 -1      1523 9.34815E-01
 -1      1524 9.05209E-01
 -1      1525 1.22013E+00
 -1      1526 1.19949E+00
 -1      1527 1.06715E+00
 -1      1528 1.35767E+00
 -1      1529 1.24077E+00
 -1      1530 1.22013E+00
 -1      1531 1.57261E+00
 -1      1532 1.47458E+00
 -1      1533 1.35767E+00
 -1      1534 2.17944E+00
 -1      1535 1.74484E+00
 -1      1536 1.64681E+00
 -1      1537 2.71691E+00
 -1      1538 2.53983E+00
 -1      1539 2.17944E+00
 -1      1540 3.09747E+00
 -1      1541 2.89400E+00
 -1      1542 2.71691E+00
 -1      1543 3.30093E+00
 -1      1544 3.30093E+00
 -1      1545 3.09747E+00
 -1      1546 3.00352E+00
 -1      1547 3.15223E+00
 -1      1548 3.15223E+00
 -1      1549 2.04311E+00
 -1      1550 2.52331E+00
 -1      1551 2.52331E+00
 -1      1552 1.28257E+00
 -1      1553 1.66284E+00
 -1      1554 1.66284E+00
 -1      1555 8.62412E-01
 -1      1556 1.05570E+00
 -1      1557 1.05570E+00
 -1      1558 9.36715E-01
 -1      1559 8.95991E-01
 -1      1560 8.62412E-01
 -1      1561 1.01772E+00
 -1      1562 9.77438E-01
 -1      1563 9.36715E-01
 -1      1564 1.05800E+00
 -1      1565 1.05800E+00
 -1      1566 1.01772E+00
 -1      1567 9.98840E-01
 -1      1568 1.02842E+00
 -1      1569 1.02842E+00
 -1      1570 8.66868E-01
 -1      1571 9.32854E-01
 -1      1572 9.32854E-01
 -1      1573 7.29962E-01
 -1      1574 7.98415E-01
 -1      1575 7.98415E-01
 -1      1576 6.00288E-01
 -1      1577 6.67558E-01
 -1      1578 6.67558E-01
 -1      1579 4.76035E-01
 -1      1580 5.41252E-01
 -1      1581 5.46119E-01
 -1      1582 3.62894E-01
 -1      1583 4.20942E-01
 -1      1584 4.31991E-01
 -1      1585 2.74834E-01
 -1      1586 3.14958E-01
 -1      1587 3.28963E-01
 -1      1588 2.09215E-01
 -1      1589 2.38928E-01
 -1      1590 2.45121E-01
 -1      1591 1.58176E-01
 -1      1592 1.83695E-01
 -1      1593 1.83695E-01
 -1      1594 1.16029E-01
 -1      1595 1.37102E-01
 -1      1596 1.37102E-01
 -1      1597 8.34867E-02
 -1      1598 1.00358E-01
 -1      1599 1.00358E-01
 -1      1600 5.78633E-02
 -1      1601 7.10367E-02
 -1      1602 7.22370E-02
 -1      1603 4.31861E-02
 -1      1604 4.95628E-02
 -1      1605 5.14866E-02
 -1      1606 3.44694E-02
 -1      1607 3.88278E-02
 -1      1608 3.88278E-02
 -1      1609 2.54420E-02
 -1      1610 2.99557E-02
 -1      1611 2.99557E-02
 -1      1612 1.76352E-02
 -1      1613 2.15386E-02
 -1      1614 2.15386E-02
 -1      1615 1.07153E-02
 -1      1616 1.41753E-02
 -1      1617 1.41753E-02
 -1      1618 7.50746E-03
 -1      1619 4.22389E-03
 -1      1620 4.77383E-03
 -1      1621 4.65367E-03
 -1      1622 4.65367E-03
 -1      1623 5.67782E-03
 -1      1624 4.49040E-03
 -1      1625 4.65367E-03
 -1      1626 6.10760E-03
 -1      1627 3.12652E-03
 -1      1628 3.75127E-03
 -1      1629 5.36848E-03
 -1      1630 2.73128E-03
 -1      1631 2.66906E-03
 -1      1632 4.17189E-03
 -1      1633 4.10993E-03
 -1      1634 3.68632E-03
 -1      1635 4.66947E-03
 -1      1636 4.64281E-03
 -1      1637 4.50850E-03
 -1      1638 6.02309E-03
 -1      1639 4.64281E-03
 -1      1640 4.64281E-03
 -1      1641 6.42166E-03
 -1      1642 4.49451E-03
 -1      1643 4.64214E-03
 -1      1644 6.42100E-03
 -1      1645 3.61654E-03
 -1      1646 4.06160E-03
 -1      1647 5.98743E-03
 -1      1648 2.71070E-03
 -1      1649 2.66877E-03
 -1      1650 4.60675E-03
 -1      1651 3.96260E-03
 -1      1652 3.32771E-03
 -1      1653 4.27600E-03
 -1      1654 4.71302E-03
 -1      1655 4.71302E-03
 -1      1656 5.64343E-03
 -1      1657 4.68942E-03
 -1      1658 4.71302E-03
 -1      1659 6.39385E-03
 -1      1660 5.54020E-03
 -1      1661 4.99397E-03
 -1      1662 6.69840E-03
 -1      1663 8.92976E-03
 -1      1664 2.70586E+01
 -1      1665 2.66287E+01
 -1      1666 3.86126E+01
 -1      1667 2.70480E+01
 -1      1668 4.78102E+01
 -1      1669 4.78102E+01
 -1      1670 2.08052E+01
 -1      1671 3.46806E+01
 -1      1672 1.15407E+01
 -1      1673 1.56572E+01
 -1      1674 1.21242E+01
 -1      1675 1.18261E+01
 -1      1676 1.24223E+01
 -1      1677 1.24223E+01
 -1      1678 1.22768E+01
 -1      1679 1.23496E+01
 -1      1680 1.21200E+01
 -1      1681 1.21984E+01
 -1      1682 1.25247E+01
 -1      1683 1.20351E+01
 -1      1684 2.22172E+01
 -1      1685 1.30992E+01
 -1      1686 3.22973E+01
 -1      1687 3.18162E+01
 -1      1688 3.00050E+01
 -1      1689 3.22973E+01
 -1      1690 2.53046E+01
 -1      1691 2.66753E+01
 -1      1692 2.78417E+01
 -1      1693 2.75554E+01
 -1      1694 2.78417E+01
 -1      1695 2.78417E+01
 -1      1696 3.90215E+01
 -1      1697 3.11674E+01
 -1      1698 4.12522E+01
 -1      1699 4.12522E+01
 -1      1700 1.52858E+01
 -1      1701 2.82690E+01
 -1      1702 1.16476E+01
 -1      1703 1.32576E+01
 -1      1704 1.21004E+01
 -1      1705 1.20658E+01
 -1      1706 1.21350E+01
 -1      1707 1.21350E+01
 -1      1708 1.22915E+01
 -1      1709 1.20411E+01
 -1      1710 1.26359E+01
 -1      1711 1.26359E+01
 -1      1712 1.59342E+01
 -1      1713 1.18768E+01
 -1      1714 3.54641E+01
 -1      1715 2.17360E+01
 -1      1716 4.82069E+01
 -1      1717 4.82069E+01
 -1      1718 2.76435E+01
 -1      1719 3.94215E+01
 -1      1720 2.66287E+01
 -1      1721 2.70436E+01
 -1      1722 1.64031E+01
 -1      1723 3.46806E+01
 -1      1724 7.50746E-03
 -1      1725 7.98167E-03
 -1      1726 2.94255E+01
 -1      1727 3.86126E+01
 -1      1728 2.94362E+01
 -1      1729 1.15407E+01
 -1      1730 1.21242E+01
 -1      1731 1.23496E+01
 -1      1732 1.21984E+01
 -1      1733 1.20351E+01
 -1      1734 1.25247E+01
 -1      1735 2.26982E+01
 -1      1736 3.22973E+01
 -1      1737 2.89676E+01
 -1      1738 2.78887E+01
 -1      1739 3.01395E+01
 -1      1740 3.34652E+01
 -1      1741 3.90215E+01
 -1      1742 2.82690E+01
 -1      1743 1.32576E+01
 -1      1744 1.16476E+01
 -1      1745 1.21004E+01
 -1      1746 1.20411E+01
 -1      1747 1.22915E+01
 -1      1748 1.18768E+01
 -1      1749 1.69195E+01
 -1      1750 3.54641E+01
 -1      1751 3.94215E+01
 -1      1752 3.00361E+01
 -1      1753 9.55655E+00
 -1      1754 1.26197E+00
 -1      1755 1.64351E+00
 -1      1756 2.34507E+00
 -1      1757 4.21466E+00
 -1      1758 1.72716E+00
 -1      1759 8.73481E-01
 -1      1760 9.67797E-01
 -1      1761 7.63668E-01
 -1      1762 8.21244E-01
 -1      1763 7.34781E-01
 -1      1764 6.92297E-01
 -1      1765 7.29657E-01
 -1      1766 6.48534E-01
 -1      1767 6.45553E-01
 -1      1768 6.67869E-01
 -1      1769 5.90094E-01
 -1      1770 6.71217E-01
 -1      1771 6.47187E-01
 -1      1772 5.67301E-01
 -1      1773 7.32424E-01
 -1      1774 6.95413E-01
 -1      1775 5.93131E-01
 -1      1776 8.28294E-01
 -1      1777 7.68293E-01
 -1      1778 6.53196E-01
 -1      1779 9.75835E-01
 -1      1780 8.77941E-01
 -1      1781 7.38714E-01
 -1      1782 1.22239E+00
 -1      1783 1.04477E+00
 -1      1784 8.57295E-01
 -1      1785 1.69182E+00
 -1      1786 1.32798E+00
 -1      1787 1.03182E+00
 -1      1788 2.59202E+00
 -1      1789 1.77177E+00
 -1      1790 1.21736E+00
 -1      1791 8.09122E+00
 -1      1792 3.03034E+00
 -1      1793 1.73562E+00
 -1      1794 2.80107E+00
 -1      1795 5.17346E+00
 -1      1796 2.15905E+00
 -1      1797 2.65147E+00
 -1      1798 2.02433E+00
 -1      1799 3.38751E+00
 -1      1800 2.54343E+00
 -1      1801 1.92841E+00
 -1      1802 1.69213E+00
 -1      1803 1.35263E+00
 -1      1804 1.49200E+00
 -1      1805 1.16539E+00
 -1      1806 1.00002E+00
 -1      1807 1.06848E+00
 -1      1808 9.12352E-01
 -1      1809 8.02824E-01
 -1      1810 7.93570E-01
 -1      1811 7.50025E-01
 -1      1812 6.69570E-01
 -1      1813 6.53104E-01
 -1      1814 6.19273E-01
 -1      1815 5.56563E-01
 -1      1816 5.50008E-01
 -1      1817 5.07558E-01
 -1      1818 4.64284E-01
 -1      1819 4.50706E-01
 -1      1820 4.88043E-01
 -1      1821 5.21509E-01
 -1      1822 4.25459E-01
 -1      1823 5.54135E-01
 -1      1824 5.91653E-01
 -1      1825 4.81844E-01
 -1      1826 6.50109E-01
 -1      1827 6.87917E-01
 -1      1828 5.72925E-01
 -1      1829 7.74291E-01
 -1      1830 8.60519E-01
 -1      1831 7.17755E-01
 -1      1832 9.34771E-01
 -1      1833 1.02280E+00
 -1      1834 8.78380E-01
 -1      1835 1.08751E+00
 -1      1836 1.20549E+00
 -1      1837 1.01734E+00
 -1      1838 1.28026E+00
 -1      1839 1.40366E+00
 -1      1840 1.15682E+00
 -1      1841 1.42351E+00
 -1      1842 1.47547E+00
 -1      1843 1.25143E+00
 -1      1844 1.41931E+00
 -1      1845 1.39125E+00
 -1      1846 1.21511E+00
 -1      1847 1.39622E+00
 -1      1848 1.39029E+00
 -1      1849 1.16392E+00
 -1      1850 1.39731E+00
 -1      1851 1.51035E+00
 -1      1852 1.17591E+00
 -1      1853 1.82682E+00
 -1      1854 2.26726E+00
 -1      1855 1.49940E+00
 -1      1856 2.57536E+00
 -1      1857 3.40315E+00
 -1      1858 2.12397E+00
 -1      1859 3.64531E+00
 -1      1860 3.81156E+00
 -1      1861 2.67422E+00
 -1      1862 3.83569E+00
 -1      1863 3.85130E+00
 -1      1864 2.94052E+00
 -1      1865 3.72022E+00
 -1      1866 3.14017E+00
 -1      1867 2.83358E+00
 -1      1868 2.80603E+00
 -1      1869 2.07050E+00
 -1      1870 2.36836E+00
 -1      1871 1.76270E+00
 -1      1872 1.44038E+00
 -1      1873 1.72641E+00
 -1      1874 1.34151E+00
 -1      1875 1.44851E+00
 -1      1876 1.31973E+00
 -1      1877 1.38450E+00
 -1      1878 1.35630E+00
 -1      1879 1.15684E+00
 -1      1880 1.42292E+00
 -1      1881 1.42777E+00
 -1      1882 1.15944E+00
 -1      1883 1.44934E+00
 -1      1884 1.34973E+00
 -1      1885 1.24764E+00
 -1      1886 1.29660E+00
 -1      1887 1.17272E+00
 -1      1888 1.21609E+00
 -1      1889 1.11250E+00
 -1      1890 1.02821E+00
 -1      1891 1.10276E+00
 -1      1892 9.72064E-01
 -1      1893 8.95816E-01
 -1      1894 9.86396E-01
 -1      1895 8.23518E-01
 -1      1896 7.40432E-01
 -1      1897 8.57952E-01
 -1      1898 6.65646E-01
 -1      1899 5.87175E-01
 -1      1900 7.10868E-01
 -1      1901 5.17930E-01
 -1      1902 4.49749E-01
 -1      1903 5.66836E-01
 -1      1904 3.89876E-01
 -1      1905 3.38187E-01
 -1      1906 4.37717E-01
 -1      1907 2.88816E-01
 -1      1908 2.55790E-01
 -1      1909 3.28473E-01
 -1      1910 2.16516E-01
 -1      1911 1.89090E-01
 -1      1912 2.39829E-01
 -1      1913 1.58764E-01
 -1      1914 1.36292E-01
 -1      1915 1.70231E-01
 -1      1916 1.14719E-01
 -1      1917 9.78795E-02
 -1      1918 1.18333E-01
 -1      1919 8.39788E-02
 -1      1920 7.43844E-02
 -1      1921 8.28596E-02
 -1      1922 6.49521E-02
 -1      1923 5.62090E-02
 -1      1924 5.95266E-02
 -1      1925 4.94076E-02
 -1      1926 4.15082E-02
 -1      1927 4.32929E-02
 -1      1928 3.69621E-02
 -1      1929 2.96838E-02
 -1      1930 3.19455E-02
 -1      1931 2.51387E-02
 -1      1932 1.97099E-02
 -1      1933 2.28543E-02
 -1      1934 1.67819E-02
 -1      1935 1.16549E-02
 -1      1936 9.72811E-03
 -1      1937 1.53812E-02
 -1      1938 1.42025E+00
 -1      1939 1.79289E+00
 -1      1940 1.50856E+00
 -1      1941 1.04639E+00
 -1      1942 1.28073E+00
 -1      1943 1.00289E+00
 -1      1944 8.46669E-01
 -1      1945 9.42402E-01
 -1      1946 7.59381E-01
 -1      1947 7.38377E-01
 -1      1948 8.11036E-01
 -1      1949 6.19757E-01
 -1      1950 6.61535E-01
 -1      1951 7.17746E-01
 -1      1952 5.63493E-01
 -1      1953 5.94356E-01
 -1      1954 6.39367E-01
 -1      1955 5.20693E-01
 -1      1956 5.33008E-01
 -1      1957 5.71185E-01
 -1      1958 4.75354E-01
 -1      1959 4.90128E-01
 -1      1960 5.26336E-01
 -1      1961 4.45511E-01
 -1      1962 5.22105E-01
 -1      1963 5.08591E-01
 -1      1964 4.57302E-01
 -1      1965 5.77614E-01
 -1      1966 5.64259E-01
 -1      1967 5.17919E-01
 -1      1968 6.29859E-01
 -1      1969 6.28031E-01
 -1      1970 6.10490E-01
 -1      1971 6.63234E-01
 -1      1972 6.59082E-01
 -1      1973 6.90130E-01
 -1      1974 7.29086E-01
 -1      1975 6.63234E-01
 -1      1976 7.19354E-01
 -1      1977 7.85365E-01
 -1      1978 7.16972E-01
 -1      1979 7.07240E-01
 -1      1980 7.40836E-01
 -1      1981 7.11230E-01
 -1      1982 6.20991E-01
 -1      1983 8.74584E-01
 -1      1984 7.42247E-01
 -1      1985 5.48268E-01
 -1      1986 1.04987E+00
 -1      1987 1.02923E+00
 -1      1988 7.04329E-01
 -1      1989 1.44284E+00
 -1      1990 1.32594E+00
 -1      1991 1.13505E+00
 -1      1992 1.76803E+00
 -1      1993 1.59580E+00
 -1      1994 1.56406E+00
 -1      1995 2.12842E+00
 -1      1996 1.76803E+00
 -1      1997 1.71701E+00
 -1      1998 2.28742E+00
 -1      1999 2.11033E+00
 -1      2000 1.69893E+00
 -1      2001 2.59735E+00
 -1      2002 2.39388E+00
 -1      2003 1.78731E+00
 -1      2004 2.46808E+00
 -1      2005 2.61679E+00
 -1      2006 1.91321E+00
 -1      2007 1.77414E+00
 -1      2008 2.25435E+00
 -1      2009 1.71891E+00
 -1      2010 1.11974E+00
 -1      2011 1.50001E+00
 -1      2012 1.23105E+00
 -1      2013 7.22462E-01
 -1      2014 9.49329E-01
 -1      2015 7.86505E-01
 -1      2016 7.35628E-01
 -1      2017 7.02049E-01
 -1      2018 5.95678E-01
 -1      2019 8.46160E-01
 -1      2020 8.05437E-01
 -1      2021 6.45074E-01
 -1      2022 9.07636E-01
 -1      2023 8.67353E-01
 -1      2024 7.36075E-01
 -1      2025 8.85749E-01
 -1      2026 9.15330E-01
 -1      2027 7.64963E-01
 -1      2028 7.90660E-01
 -1      2029 8.56646E-01
 -1      2030 7.43555E-01
 -1      2031 6.85015E-01
 -1      2032 7.53468E-01
 -1      2033 6.77260E-01
 -1      2034 5.79418E-01
 -1      2035 6.41822E-01
 -1      2036 5.96875E-01
 -1      2037 4.71897E-01
 -1      2038 5.30932E-01
 -1      2039 5.05197E-01
 -1      2040 3.69461E-01
 -1      2041 4.24553E-01
 -1      2042 4.09367E-01
 -1      2043 2.78975E-01
 -1      2044 3.26910E-01
 -1      2045 3.19472E-01
 -1      2046 2.06957E-01
 -1      2047 2.42863E-01
 -1      2048 2.40811E-01
 -1      2049 1.56257E-01
 -1      2050 1.81777E-01
 -1      2051 1.79519E-01
 -1      2052 1.16016E-01
 -1      2053 1.37089E-01
 -1      2054 1.35171E-01
 -1      2055 8.46870E-02
 -1      2056 1.00358E-01
 -1      2057 1.00345E-01
 -1      2058 5.97871E-02
 -1      2059 7.22370E-02
 -1      2060 7.22370E-02
 -1      2061 4.18085E-02
 -1      2062 5.01090E-02
 -1      2063 5.01090E-02
 -1      2064 3.04275E-02
 -1      2065 3.47859E-02
 -1      2066 3.34083E-02
 -1      2067 2.19166E-02
 -1      2068 2.64303E-02
 -1      2069 2.23884E-02
 -1      2070 1.50612E-02
 -1      2071 1.89646E-02
 -1      2072 1.54392E-02
 -1      2073 7.93193E-03
 -1      2074 1.13919E-02
 -1      2075 8.81786E-03
 -1      2076 5.19831E-03
 -1      2077 6.28370E-03
 -1      2078 7.02283E-03
 -1      2079 7.64859E-03
 -1      2080 7.64859E-03
 -1      2081 8.56381E-03
 -1      2082 7.64859E-03
 -1      2083 7.21881E-03
 -1      2084 7.16907E-03
 -1      2085 9.18957E-03
 -1      2086 4.78526E-03
 -1      2087 5.24272E-03
 -1      2088 6.89707E-03
 -1      2089 7.13548E-03
 -1      2090 6.18044E-03
 -1      2091 7.25127E-03
 -1      2092 8.31396E-03
 -1      2093 7.91538E-03
 -1      2094 9.42635E-03
 -1      2095 8.31396E-03
 -1      2096 8.31396E-03
 -1      2097 1.02063E-02
 -1      2098 8.30628E-03
 -1      2099 8.30694E-03
 -1      2100 1.01992E-02
 -1      2101 7.87337E-03
 -1      2102 8.30628E-03
 -1      2103 1.01922E-02
 -1      2104 6.16691E-03
 -1      2105 7.11468E-03
 -1      2106 9.43353E-03
 -1      2107 5.41353E-03
 -1      2108 4.79651E-03
 -1      2109 7.30444E-03
 -1      2110 7.24751E-03
 -1      2111 6.49709E-03
 -1      2112 7.01761E-03
 -1      2113 7.81621E-03
 -1      2114 7.81621E-03
 -1      2115 8.66987E-03
 -1      2116 3.86126E+01
 -1      2117 2.94149E+01
 -1      2118 3.06911E+01
 -1      2119 3.06911E+01
 -1      2120 3.06804E+01
 -1      2121 3.06911E+01
 -1      2122 1.91332E+01
 -1      2123 3.22628E+01
 -1      2124 1.03052E+01
 -1      2125 1.54532E+01
 -1      2126 1.02698E+00
 -1      2127 1.20186E+00
 -1      2128 9.65493E-01
 -1      2129 8.46202E-01
 -1      2130 1.11568E+01
 -1      2131 1.08587E+01
 -1      2132 1.13889E+01
 -1      2133 1.14616E+01
 -1      2134 1.09841E+01
 -1      2135 1.10625E+01
 -1      2136 1.04809E+01
 -1      2137 1.05658E+01
 -1      2138 9.98273E+00
 -1      2139 9.40825E+00
 -1      2140 2.21615E+01
 -1      2141 1.25624E+01
 -1      2142 2.67689E+01
 -1      2143 2.67689E+01
 -1      2144 2.57147E+01
 -1      2145 2.90444E+01
 -1      2146 3.30797E+01
 -1      2147 3.08289E+01
 -1      2148 3.30797E+01
 -1      2149 3.30797E+01
 -1      2150 3.20152E+01
 -1      2151 2.86895E+01
 -1      2152 3.31183E+01
 -1      2153 3.08877E+01
 -1      2154 1.49032E+01
 -1      2155 2.78864E+01
 -1      2156 9.57134E+00
 -1      2157 1.15996E+01
 -1      2158 1.00869E+01
 -1      2159 9.66866E+00
 -1      2160 1.09512E+01
 -1      2161 1.09166E+01
 -1      2162 1.14055E+01
 -1      2163 1.14994E+01
 -1      2164 1.14430E+01
 -1      2165 1.10986E+01
 -1      2166 1.05570E+01
 -1      2167 9.50399E+00
 -1      2168 1.02631E+01
 -1      2169 1.63426E+01
 -1      2170 1.05408E+01
 -1      2171 8.92706E+00
 -1      2172 3.27069E+01
 -1      2173 1.99641E+01
 -1      2174 3.06360E+01
 -1      2175 3.94215E+01
 -1      2176 3.02919E+01
 -1      2177 3.08918E+01
 -1      2178 9.58545E+00
 -1      2179 9.29997E+00
 -1      2180 1.30353E+01
 -1      2181 2.89364E+00
 -1      2182 8.35002E+00
 -1      2183 8.61801E+00
 -1      2184 2.07850E+00
 -1      2185 3.06804E+01
 -1      2186 3.19460E+01
 -1      2187 8.12077E-03
 -1      2188 2.30651E+01
 -1      2189 3.15468E+01
 -1      2190 3.08918E+01
 -1      2191 1.35854E+01
 -1      2192 9.07020E+00
 -1      2193 1.03156E+01
 -1      2194 8.93768E+00
 -1      2195 8.01060E+00
 -1      2196 1.12169E+01
 -1      2197 1.97525E+01
 -1      2198 2.61119E+01
 -1      2199 3.16297E+01
 -1      2200 3.60200E+01
 -1      2201 3.09058E+01
 -1      2202 2.35160E+01
 -1      2203 1.66331E+01
 -1      2204 9.44602E+00
 -1      2205 7.93902E+00
 -1      2206 9.42996E+00
 -1      2207 1.01961E+01
 -1      2208 1.01746E+01
 -1      2209 2.39215E+01
 -1      2210 1.08879E+00
 -1      2211 1.45496E+00
 -1      2212 5.44620E-01
 -1      2213 5.78631E-01
 -1      2214 5.95907E-01
 -1      2215 6.48144E-01
 -1      2216 4.91994E-01
 -1      2217 4.88600E-01
 -1      2218 4.86965E-01
 -1      2219 5.28483E-01
 -1      2220 5.04288E-01
 -1      2221 4.23952E-01
 -1      2222 5.82371E-01
 -1      2223 5.46501E-01
 -1      2224 4.57658E-01
 -1      2225 6.47178E-01
 -1      2226 5.97531E-01
 -1      2227 4.90836E-01
 -1      2228 7.17006E-01
 -1      2229 6.48072E-01
 -1      2230 5.06889E-01
 -1      2231 8.69697E-01
 -1      2232 7.64102E-01
 -1      2233 5.54879E-01
 -1      2234 8.63373E-01
 -1      2235 1.00289E+00
 -1      2236 9.49279E-01
 -1      2237 1.24442E+00
 -1      2238 1.00814E+00
 -1      2239 6.13869E+00
 -1      2240 7.14394E+00
 -1      2241 9.59019E-01
 -1      2242 7.71777E-01
 -1      2243 7.11440E-01
 -1      2244 7.02376E-01
 -1      2245 6.14710E-01
 -1      2246 5.92917E-01
 -1      2247 5.58421E-01
 -1      2248 5.05622E-01
 -1      2249 4.67228E-01
 -1      2250 4.77482E-01
 -1      2251 4.27185E-01
 -1      2252 3.82799E-01
 -1      2253 3.89035E-01
 -1      2254 3.40030E-01
 -1      2255 3.16509E-01
 -1      2256 3.43058E-01
 -1      2257 3.66817E-01
 -1      2258 2.81387E-01
 -1      2259 4.04432E-01
 -1      2260 4.37058E-01
 -1      2261 3.22030E-01
 -1      2262 5.18142E-01
 -1      2263 5.76597E-01
 -1      2264 4.40730E-01
 -1      2265 6.63048E-01
 -1      2266 7.49422E-01
 -1      2267 6.08265E-01
 -1      2268 8.36471E-01
 -1      2269 9.10723E-01
 -1      2270 7.81765E-01
 -1      2271 9.89724E-01
 -1      2272 1.05444E+00
 -1      2273 9.47815E-01
 -1      2274 1.11167E+00
 -1      2275 1.18643E+00
 -1      2276 1.08405E+00
 -1      2277 1.29418E+00
 -1      2278 1.31403E+00
 -1      2279 1.24903E+00
 -1      2280 1.42177E+00
 -1      2281 1.36561E+00
 -1      2282 1.46452E+00
 -1      2283 1.43958E+00
 -1      2284 1.44455E+00
 -1      2285 1.64624E+00
 -1      2286 1.62832E+00
 -1      2287 1.63534E+00
 -1      2288 1.90398E+00
 -1      2289 1.68449E+00
 -1      2290 2.00096E+00
 -1      2291 2.13691E+00
 -1      2292 2.10008E+00
 -1      2293 2.40817E+00
 -1      2294 2.28517E+00
 -1      2295 3.79758E+00
 -1      2296 4.03974E+00
 -1      2297 3.77369E+00
 -1      2298 5.73449E+00
 -1      2299 5.75863E+00
 -1      2300 6.85785E+00
 -1      2301 5.12692E+00
 -1      2302 4.99584E+00
 -1      2303 7.92090E+00
 -1      2304 3.21898E+00
 -1      2305 2.88484E+00
 -1      2306 5.51233E+00
 -1      2307 2.01822E+00
 -1      2308 1.71042E+00
 -1      2309 2.86885E+00
 -1      2310 1.85001E+00
 -1      2311 1.75113E+00
 -1      2312 2.14182E+00
 -1      2313 1.49549E+00
 -1      2314 1.43147E+00
 -1      2315 2.02577E+00
 -1      2316 1.38646E+00
 -1      2317 1.45308E+00
 -1      2318 1.72511E+00
 -1      2319 1.36097E+00
 -1      2320 1.38254E+00
 -1      2321 1.58798E+00
 -1      2322 1.27239E+00
 -1      2323 1.21927E+00
 -1      2324 1.38571E+00
 -1      2325 1.14724E+00
 -1      2326 1.08703E+00
 -1      2327 1.20354E+00
 -1      2328 1.02258E+00
 -1      2329 9.66434E-01
 -1      2330 1.06707E+00
 -1      2331 8.90409E-01
 -1      2332 8.18111E-01
 -1      2333 9.26593E-01
 -1      2334 7.41505E-01
 -1      2335 6.66719E-01
 -1      2336 7.73962E-01
 -1      2337 5.96012E-01
 -1      2338 5.26766E-01
 -1      2339 6.26649E-01
 -1      2340 4.65099E-01
 -1      2341 4.05226E-01
 -1      2342 4.94275E-01
 -1      2343 3.53566E-01
 -1      2344 3.04195E-01
 -1      2345 3.80948E-01
 -1      2346 2.62237E-01
 -1      2347 2.22964E-01
 -1      2348 2.87330E-01
 -1      2349 1.89746E-01
 -1      2350 1.59421E-01
 -1      2351 2.12154E-01
 -1      2352 1.33717E-01
 -1      2353 1.12145E-01
 -1      2354 1.53233E-01
 -1      2355 9.26895E-02
 -1      2356 7.87888E-02
 -1      2357 1.08074E-01
 -1      2358 6.44003E-02
 -1      2359 5.49680E-02
 -1      2360 7.42302E-02
 -1      2361 4.46047E-02
 -1      2362 3.78033E-02
 -1      2363 4.94784E-02
 -1      2364 3.05784E-02
 -1      2365 2.60323E-02
 -1      2366 3.18902E-02
 -1      2367 2.23238E-02
 -1      2368 1.77787E-02
 -1      2369 2.09567E-02
 -1      2370 5.54399E-01
 -1      2371 5.90031E-01
 -1      2372 4.97207E-01
 -1      2373 5.17838E-01
 -1      2374 4.88113E-01
 -1      2375 4.33055E-01
 -1      2376 4.55224E-01
 -1      2377 4.09568E-01
 -1      2378 3.75468E-01
 -1      2379 3.98639E-01
 -1      2380 3.33169E-01
 -1      2381 3.90060E-01
 -1      2382 3.96733E-01
 -1      2383 3.20017E-01
 -1      2384 4.26037E-01
 -1      2385 4.07575E-01
 -1      2386 3.58796E-01
 -1      2387 5.23947E-01
 -1      2388 4.81792E-01
 -1      2389 4.32065E-01
 -1      2390 6.20708E-01
 -1      2391 5.70292E-01
 -1      2392 5.34165E-01
 -1      2393 6.90130E-01
 -1      2394 6.60907E-01
 -1      2395 6.20708E-01
 -1      2396 7.19354E-01
 -1      2397 7.19354E-01
 -1      2398 6.90130E-01
 -1      2399 7.21111E-01
 -1      2400 7.33225E-01
 -1      2401 7.33225E-01
 -1      2402 6.23210E-01
 -1      2403 6.97344E-01
 -1      2404 7.23330E-01
 -1      2405 6.87783E-01
 -1      2406 6.86372E-01
 -1      2407 7.62725E-01
 -1      2408 8.67621E-01
 -1      2409 7.12971E-01
 -1      2410 8.51075E-01
 -1      2411 1.31039E+00
 -1      2412 1.03432E+00
 -1      2413 1.04296E+00
 -1      2414 1.59627E+00
 -1      2415 1.44332E+00
 -1      2416 1.34260E+00
 -1      2417 1.78076E+00
 -1      2418 1.78076E+00
 -1      2419 1.66002E+00
 -1      2420 1.77691E+00
 -1      2421 1.79499E+00
 -1      2422 1.85874E+00
 -1      2423 1.95144E+00
 -1      2424 1.84498E+00
 -1      2425 1.94104E+00
 -1      2426 1.81520E+00
 -1      2427 1.79576E+00
 -1      2428 1.85343E+00
 -1      2429 1.48773E+00
 -1      2430 1.70147E+00
 -1      2431 1.58402E+00
 -1      2432 1.04975E+00
 -1      2433 1.32389E+00
 -1      2434 1.30644E+00
 -1      2435 7.47151E-01
 -1      2436 9.17565E-01
 -1      2437 1.01040E+00
 -1      2438 6.93362E-01
 -1      2439 7.13775E-01
 -1      2440 8.44835E-01
 -1      2441 7.28099E-01
 -1      2442 6.58291E-01
 -1      2443 7.76388E-01
 -1      2444 7.71118E-01
 -1      2445 7.49925E-01
 -1      2446 7.63142E-01
 -1      2447 7.64262E-01
 -1      2448 7.56568E-01
 -1      2449 7.70417E-01
 -1      2450 7.06531E-01
 -1      2451 7.35633E-01
 -1      2452 7.27238E-01
 -1      2453 6.37778E-01
 -1      2454 6.74970E-01
 -1      2455 6.67049E-01
 -1      2456 5.58907E-01
 -1      2457 6.02100E-01
 -1      2458 5.99810E-01
 -1      2459 4.67152E-01
 -1      2460 5.15638E-01
 -1      2461 5.20862E-01
 -1      2462 3.75516E-01
 -1      2463 4.22859E-01
 -1      2464 4.33300E-01
 -1      2465 2.91710E-01
 -1      2466 3.34261E-01
 -1      2467 3.47754E-01
 -1      2468 2.19501E-01
 -1      2469 2.55612E-01
 -1      2470 2.70400E-01
 -1      2471 1.64158E-01
 -1      2472 1.89338E-01
 -1      2473 2.04139E-01
 -1      2474 1.20706E-01
 -1      2475 1.39875E-01
 -1      2476 1.49694E-01
 -1      2477 8.61275E-02
 -1      2478 1.01785E-01
 -1      2479 1.06489E-01
 -1      2480 5.93885E-02
 -1      2481 7.18385E-02
 -1      2482 7.32789E-02
 -1      2483 3.97993E-02
 -1      2484 4.94774E-02
 -1      2485 4.90788E-02
 -1      2486 2.72658E-02
 -1      2487 3.42885E-02
 -1      2488 3.36569E-02
 -1      2489 1.90853E-02
 -1      2490 2.30825E-02
 -1      2491 2.39627E-02
 -1      2492 1.28113E-02
 -1      2493 1.57633E-02
 -1      2494 1.64574E-02
 -1      2495 1.08384E-02
 -1      2496 1.03266E-02
 -1      2497 8.93141E-03
 -1      2498 1.24628E-02
 -1      2499 1.16829E-02
 -1      2500 1.33630E-02
 -1      2501 1.21026E-02
 -1      2502 1.27284E-02
 -1      2503 1.10616E-02
 -1      2504 1.21026E-02
 -1      2505 1.62671E-02
 -1      2506 1.41369E-02
 -1      2507 1.26129E-02
 -1      2508 1.26129E-02
 -1      2509 1.48694E-02
 -1      2510 1.26374E-02
 -1      2511 1.26444E-02
 -1      2512 1.50511E-02
 -1      2513 1.26374E-02
 -1      2514 1.26374E-02
 -1      2515 1.50826E-02
 -1      2516 1.17563E-02
 -1      2517 1.25149E-02
 -1      2518 1.49601E-02
 -1      2519 9.02462E-03
 -1      2520 1.03950E-02
 -1      2521 1.34764E-02
 -1      2522 1.01494E-02
 -1      2523 9.06588E-03
 -1      2524 1.21565E-02
 -1      2525 1.07181E-02
 -1      2526 1.01494E-02
 -1      2527 1.21977E-02
 -1      2528 3.19460E+01
 -1      2529 3.19460E+01
 -1      2530 1.45039E+01
 -1      2531 2.08537E+01
 -1      2532 6.55389E-01
 -1      2533 7.59381E-01
 -1      2534 5.90031E-01
 -1      2535 1.08459E-02
 -1      2536 3.15468E+01
 -1      2537 3.11476E+01
 -1      2538 2.50851E+01
 -1      2539 2.63507E+01
 -1      2540 1.65239E+01
 -1      2541 1.63551E+00
 -1      2542 1.28529E+00
 -1      2543 8.01431E-01
 -1      2544 9.33950E-01
 -1      2545 2.68340E+01
 -1      2546 2.65783E+01
 -1      2547 9.70821E+00
 -1      2548 9.16002E+00
 -1      2549 5.02518E-01
 -1      2550 5.26946E-01
 -1      2551 4.57044E-01
 -1      2552 4.23817E-01
 -1      2553 9.20035E+00
 -1      2554 9.52671E+00
 -1      2555 2.21697E+01
 -1      2556 1.54552E+01
 -1      2557 8.74197E+00
 -1      2558 8.43713E+00
 -1      2559 7.89423E+00
 -1      2560 8.31247E+00
 -1      2561 5.56850E+00
 -1      2562 6.64120E+00
 -1      2563 9.83526E+00
 -1      2564 7.25556E+00
 -1      2565 1.58324E+01
 -1      2566 1.12250E+01
 -1      2567 2.06526E+01
 -1      2568 1.83770E+01
 -1      2569 3.09058E+01
 -1      2570 2.57915E+01
 -1      2571 3.60200E+01
 -1      2572 3.60200E+01
 -1      2573 2.72395E+01
 -1      2574 3.16297E+01
 -1      2575 2.11964E+01
 -1      2576 2.23239E+01
 -1      2577 1.31965E+01
 -1      2578 1.84284E+01
 -1      2579 7.93521E+00
 -1      2580 1.12389E+01
 -1      2581 6.63107E+00
 -1      2582 6.53375E+00
 -1      2583 7.91453E+00
 -1      2584 7.08477E+00
 -1      2585 9.40137E+00
 -1      2586 9.70821E+00
 -1      2587 7.58972E+00
 -1      2588 8.76967E+00
 -1      2589 7.73922E+00
 -1      2590 6.70241E+00
 -1      2591 1.38723E+01
 -1      2592 1.02508E+01
 -1      2593 7.54246E+00
 -1      2594 6.26921E+00
 -1      2595 1.58527E+00
 -1      2596 1.73487E+00
 -1      2597 1.29656E+00
 -1      2598 1.16550E+00
 -1      2599 8.96572E+00
 -1      2600 1.26457E+01
 -1      2601 7.76775E+00
 -1      2602 5.26534E-01
 -1      2603 6.65408E-01
 -1      2604 7.24593E-01
 -1      2605 7.59381E-01
 -1      2606 1.21661E+00
 -1      2607 6.75438E+00
 -1      2608 6.08833E+00
 -1      2609 1.21205E+01
 -1      2610 2.68340E+01
 -1      2611 8.02613E+00
 -1      2612 6.40188E+00
 -1      2613 7.92090E+00
 -1      2614 1.11625E-02
 -1      2615 1.04343E+01
 -1      2616 1.11625E-02
 -1      2617 7.30711E+00
 -1      2618 3.15468E+01
 -1      2619 2.63507E+01
 -1      2620 5.60792E+00
 -1      2621 6.55568E+00
 -1      2622 9.48892E-01
 -1      2623 9.91475E+00
 -1      2624 8.73844E-01
 -1      2625 8.55260E+00
 -1      2626 1.46404E+01
 -1      2627 2.08088E+01
 -1      2628 2.08088E+01
 -1      2629 1.58932E+01
 -1      2630 3.16297E+01
 -1      2631 3.09058E+01
 -1      2632 2.06526E+01
 -1      2633 1.29689E+01
 -1      2634 9.03453E+00
 -1      2635 5.95774E+00
 -1      2636 5.52372E+00
 -1      2637 5.06313E+00
 -1      2638 1.81119E+01
 -1      2639 7.66462E+00
 -1      2640 1.24533E-02
 -1      2641 1.08459E-02
 -1      2642 1.23255E-02
 -1      2643 1.53812E-02
 -1      2644 1.47013E-02
 -1      2645 1.48507E-02
 -1      2646 4.10562E-01
 -1      2647 3.92544E-01
 -1      2648 3.79682E-01
 -1      2649 3.63994E-01
 -1      2650 3.32586E-01
 -1      2651 4.33841E-01
 -1      2652 4.32948E-01
 -1      2653 4.74588E-01
 -1      2654 4.27492E-01
 -1      2655 3.53550E-01
 -1      2656 6.84898E-01
 -1      2657 7.70804E-01
 -1      2658 7.16627E+00
 -1      2659 9.12388E+00
 -1      2660 8.18580E-01
 -1      2661 5.39385E+00
 -1      2662 4.49917E+00
 -1      2663 8.57749E+00
 -1      2664 6.06593E+00
 -1      2665 4.97944E-01
 -1      2666 4.28543E-01
 -1      2667 4.05597E-01
 -1      2668 3.49309E-01
 -1      2669 3.10624E-01
 -1      2670 3.08652E-01
 -1      2671 2.80511E-01
 -1      2672 2.47021E-01
 -1      2673 2.57031E-01
 -1      2674 2.18881E-01
 -1      2675 1.82883E-01
 -1      2676 2.11912E-01
 -1      2677 2.14940E-01
 -1      2678 1.52434E-01
 -1      2679 2.72760E-01
 -1      2680 3.10375E-01
 -1      2681 2.03285E-01
 -1      2682 3.79601E-01
 -1      2683 4.60686E-01
 -1      2684 3.30331E-01
 -1      2685 5.41799E-01
 -1      2686 6.28249E-01
 -1      2687 4.80670E-01
 -1      2688 7.22131E-01
 -1      2689 8.09180E-01
 -1      2690 6.55664E-01
 -1      2691 9.16451E-01
 -1      2692 9.95452E-01
 -1      2693 8.56817E-01
 -1      2694 1.11472E+00
 -1      2695 1.17195E+00
 -1      2696 1.08336E+00
 -1      2697 1.29586E+00
 -1      2698 1.40361E+00
 -1      2699 1.32654E+00
 -1      2700 1.55631E+00
 -1      2701 1.66405E+00
 -1      2702 1.60314E+00
 -1      2703 1.92630E+00
 -1      2704 2.00027E+00
 -1      2705 2.01808E+00
 -1      2706 2.25771E+00
 -1      2707 2.44149E+00
 -1      2708 2.53777E+00
 -1      2709 2.80627E+00
 -1      2710 2.85542E+00
 -1      2711 3.16000E+00
 -1      2712 2.28517E+00
 -1      2713 2.38428E+00
 -1      2714 2.95453E+00
 -1      2715 3.82473E+00
 -1      2716 5.21413E+00
 -1      2717 3.82473E+00
 -1      2718 6.85785E+00
 -1      2719 8.55260E+00
 -1      2720 8.55260E+00
 -1      2721 7.92090E+00
 -1      2722 7.28919E+00
 -1      2723 5.51233E+00
 -1      2724 2.79090E+00
 -1      2725 2.93049E+00
 -1      2726 2.69245E+00
 -1      2727 2.43681E+00
 -1      2728 3.34153E+00
 -1      2729 2.14849E+00
 -1      2730 2.10348E+00
 -1      2731 2.81518E+00
 -1      2732 1.86219E+00
 -1      2733 1.77008E+00
 -1      2734 2.28558E+00
 -1      2735 1.54560E+00
 -1      2736 1.43544E+00
 -1      2737 1.81981E+00
 -1      2738 1.31823E+00
 -1      2739 1.24620E+00
 -1      2740 1.47811E+00
 -1      2741 1.12925E+00
 -1      2742 1.06480E+00
 -1      2743 1.24393E+00
 -1      2744 9.59217E-01
 -1      2745 8.83192E-01
 -1      2746 1.02140E+00
 -1      2747 7.91805E-01
 -1      2748 7.15199E-01
 -1      2749 8.24429E-01
 -1      2750 6.38362E-01
 -1      2751 5.67655E-01
 -1      2752 6.56205E-01
 -1      2753 5.03977E-01
 -1      2754 4.42310E-01
 -1      2755 5.15690E-01
 -1      2756 3.90251E-01
 -1      2757 3.38591E-01
 -1      2758 3.99953E-01
 -1      2759 2.96600E-01
 -1      2760 2.54642E-01
 -1      2761 3.05904E-01
 -1      2762 2.21242E-01
 -1      2763 1.88025E-01
 -1      2764 2.30513E-01
 -1      2765 1.61849E-01
 -1      2766 1.36145E-01
 -1      2767 1.70937E-01
 -1      2768 1.15951E-01
 -1      2769 9.64958E-02
 -1      2770 1.24567E-01
 -1      2771 8.11837E-02
 -1      2772 6.67952E-02
 -1      2773 8.90608E-02
 -1      2774 5.53983E-02
 -1      2775 4.50350E-02
 -1      2776 6.23518E-02
 -1      2777 3.67486E-02
 -1      2778 2.95237E-02
 -1      2779 4.26685E-02
 -1      2780 2.24342E-02
 -1      2781 1.87257E-02
 -1      2782 2.72927E-02
 -1      2783 3.07218E-01
 -1      2784 3.49201E-01
 -1      2785 2.02231E-02
 -1      2786 1.86573E-02
 -1      2787 2.19793E-02
 -1      2788 3.71945E-01
 -1      2789 4.08506E-01
 -1      2790 2.69595E-01
 -1      2791 2.74832E-01
 -1      2792 2.53568E-01
 -1      2793 3.41997E-01
 -1      2794 3.24482E-01
 -1      2795 2.58033E-01
 -1      2796 4.56290E-01
 -1      2797 4.00535E-01
 -1      2798 3.66221E-01
 -1      2799 5.59614E-01
 -1      2800 5.13269E-01
 -1      2801 4.81738E-01
 -1      2802 6.49430E-01
 -1      2803 6.09232E-01
 -1      2804 5.88336E-01
 -1      2805 7.28912E-01
 -1      2806 6.99688E-01
 -1      2807 6.88212E-01
 -1      2808 8.13744E-01
 -1      2809 7.99872E-01
 -1      2810 8.09430E-01
 -1      2811 8.48506E-01
 -1      2812 8.72273E-01
 -1      2813 9.38919E-01
 -1      2814 9.42310E-01
 -1      2815 8.79148E-01
 -1      2816 1.02809E+00
 -1      2817 1.11526E+00
 -1      2818 1.09007E+00
 -1      2819 1.20650E+00
 -1      2820 1.40310E+00
 -1      2821 1.23640E+00
 -1      2822 1.47540E+00
 -1      2823 1.59926E+00
 -1      2824 1.46632E+00
 -1      2825 1.65976E+00
 -1      2826 1.93575E+00
 -1      2827 1.75126E+00
 -1      2828 1.87499E+00
 -1      2829 2.58592E+00
 -1      2830 2.57169E+00
 -1      2831 2.66292E+00
 -1      2832 2.55595E+00
 -1      2833 2.48788E+00
 -1      2834 3.20083E+00
 -1      2835 2.82091E+00
 -1      2836 2.97659E+00
 -1      2837 3.52343E+00
 -1      2838 2.00464E+00
 -1      2839 2.11837E+00
 -1      2840 3.24153E+00
 -1      2841 1.36666E+00
 -1      2842 1.53050E+00
 -1      2843 2.06486E+00
 -1      2844 1.29470E+00
 -1      2845 1.42689E+00
 -1      2846 1.65096E+00
 -1      2847 1.06591E+00
 -1      2848 1.09929E+00
 -1      2849 1.51578E+00
 -1      2850 9.08535E-01
 -1      2851 9.43607E-01
 -1      2852 1.19806E+00
 -1      2853 9.04386E-01
 -1      2854 8.82560E-01
 -1      2855 1.04978E+00
 -1      2856 8.34654E-01
 -1      2857 8.49204E-01
 -1      2858 9.68622E-01
 -1      2859 7.40886E-01
 -1      2860 7.69514E-01
 -1      2861 8.48301E-01
 -1      2862 6.64822E-01
 -1      2863 6.96383E-01
 -1      2864 7.38659E-01
 -1      2865 5.87056E-01
 -1      2866 6.22734E-01
 -1      2867 6.52068E-01
 -1      2868 4.96907E-01
 -1      2869 5.40177E-01
 -1      2870 5.63101E-01
 -1      2871 4.06297E-01
 -1      2872 4.50589E-01
 -1      2873 4.69903E-01
 -1      2874 3.22455E-01
 -1      2875 3.63710E-01
 -1      2876 3.80998E-01
 -1      2877 2.49096E-01
 -1      2878 2.85195E-01
 -1      2879 3.01151E-01
 -1      2880 1.87539E-01
 -1      2881 2.17702E-01
 -1      2882 2.32496E-01
 -1      2883 1.37608E-01
 -1      2884 1.61891E-01
 -1      2885 1.75453E-01
 -1      2886 9.82929E-02
 -1      2887 1.17214E-01
 -1      2888 1.29411E-01
 -1      2889 6.81947E-02
 -1      2890 8.24837E-02
 -1      2891 9.32087E-02
 -1      2892 4.63387E-02
 -1      2893 5.62498E-02
 -1      2894 6.54546E-02
 -1      2895 3.17766E-02
 -1      2896 3.72874E-02
 -1      2897 4.44584E-02
 -1      2898 2.21020E-02
 -1      2899 2.62853E-02
 -1      2900 2.99159E-02
 -1      2901 2.43019E-02
 -1      2902 8.59214E+00
 -1      2903 1.04503E+01
 -1      2904 1.83131E-02
 -1      2905 1.82816E-02
 -1      2906 1.47230E-02
 -1      2907 1.23255E-02
 -1      2908 1.62005E-02
 -1      2909 1.74328E-02
 -1      2910 1.60765E-02
 -1      2911 1.84076E-02
 -1      2912 1.84076E-02
 -1      2913 2.16382E-02
 -1      2914 1.82816E-02
 -1      2915 1.81315E-02
 -1      2916 2.08449E-02
 -1      2917 2.15436E-02
 -1      2918 1.82852E-02
 -1      2919 1.84076E-02
 -1      2920 2.17327E-02
 -1      2921 1.62220E-02
 -1      2922 1.75832E-02
 -1      2923 2.10308E-02
 -1      2924 1.39383E-02
 -1      2925 1.38970E-02
 -1      2926 1.80038E-02
 -1      2927 6.93050E-01
 -1      2928 6.52180E-01
 -1      2929 1.15512E+01
 -1      2930 1.57827E+01
 -1      2931 1.81382E+01
 -1      2932 2.37335E+01
 -1      2933 2.33996E+01
 -1      2934 2.30004E+01
 -1      2935 4.53523E-01
 -1      2936 5.18881E-01
 -1      2937 3.37356E-01
 -1      2938 2.39308E-01
 -1      2939 2.73724E-01
 -1      2940 2.13356E-01
 -1      2941 1.94123E-01
 -1      2942 5.65042E-01
 -1      2943 5.15921E-01
 -1      2944 3.51546E-01
 -1      2945 4.56661E-01
 -1      2946 4.32948E-01
 -1      2947 4.17788E-01
 -1      2948 3.52674E-01
 -1      2949 3.59899E-01
 -1      2950 5.58737E-01
 -1      2951 6.62729E-01
 -1      2952 4.84254E-01
 -1      2953 4.22228E-01
 -1      2954 6.23214E+00
 -1      2955 7.12002E+00
 -1      2956 4.15469E-01
 -1      2957 4.32745E-01
 -1      2958 2.35490E+01
 -1      2959 1.92354E+01
 -1      2960 1.17515E+01
 -1      2961 1.01687E+01
 -1      2962 1.21977E-02
 -1      2963 3.98119E+00
 -1      2964 3.85066E+00
 -1      2965 3.95775E+00
 -1      2966 5.21078E+00
 -1      2967 4.66617E+00
 -1      2968 6.01972E+00
 -1      2969 4.33267E+00
 -1      2970 9.08089E+00
 -1      2971 7.69115E+00
 -1      2972 1.26531E+01
 -1      2973 1.01084E+01
 -1      2974 1.96350E+01
 -1      2975 1.44961E+01
 -1      2976 2.63699E+01
 -1      2977 2.12556E+01
 -1      2978 1.50991E+01
 -1      2979 2.05639E+01
 -1      2980 2.49542E+01
 -1      2981 7.24593E-01
 -1      2982 5.38381E+00
 -1      2983 6.78527E+00
 -1      2984 1.06725E+01
 -1      2985 1.34405E+01
 -1      2986 7.92399E+00
 -1      2987 1.69697E+01
 -1      2988 1.25612E+01
 -1      2989 1.36846E+01
 -1      2990 4.71644E+00
 -1      2991 6.53822E+00
 -1      2992 3.63450E+00
 -1      2993 7.07839E+00
 -1      2994 6.29364E+00
 -1      2995 5.51233E+00
 -1      2996 3.73547E+00
 -1      2997 2.86885E+00
 -1      2998 4.62502E+00
 -1      2999 4.52929E-01
 -1      3000 4.70193E-01
 -1      3001 3.76404E-01
 -1      3002 3.19334E-01
 -1      3003 3.63604E-01
 -1      3004 3.79157E-01
 -1      3005 4.01973E+00
 -1      3006 1.06093E+01
 -1      3007 5.54199E-01
 -1      3008 4.70448E+00
 -1      3009 5.17638E+00
 -1      3010 6.90889E+00
 -1      3011 2.21627E-02
 -1      3012 1.80929E-02
 -1      3013 2.02231E-02
 -1      3014 9.70906E+00
 -1      3015 6.55420E+00
 -1      3016 2.02231E-02
 -1      3017 5.99439E+00
 -1      3018 1.21977E-02
 -1      3019 1.53040E+01
 -1      3020 4.26812E-01
 -1      3021 1.31655E+01
 -1      3022 1.16355E+01
 -1      3023 8.76503E+00
 -1      3024 1.51871E+01
 -1      3025 1.54018E+01
 -1      3026 5.66340E+00
 -1      3027 5.20970E+00
 -1      3028 5.64591E+00
 -1      3029 1.33583E+01
 -1      3030 1.18432E+01
 -1      3031 9.39043E+00
 -1      3032 3.91652E-01
 -1      3033 4.09326E-01
 -1      3034 3.50077E-01
 -1      3035 3.31439E-01
 -1      3036 3.65752E+00
 -1      3037 5.43799E-01
 -1      3038 8.20847E+00
 -1      3039 4.56886E+00
 -1      3040 3.35639E+00
 -1      3041 3.87438E+00
 -1      3042 6.06608E+00
 -1      3043 1.82353E+01
 -1      3044 1.15597E+01
 -1      3045 1.18046E+01
 -1      3046 1.29778E-02
 -1      3047 1.29778E-02
 -1      3048 1.47184E-02
 -1      3049 1.69805E-02
 -1      3050 4.77417E+00
 -1      3051 3.87438E+00
 -1      3052 2.98530E-01
 -1      3053 3.04880E-01
 -1      3054 2.13806E-01
 -1      3055 1.73149E-01
 -1      3056 1.57510E-01
 -1      3057 1.34029E-01
 -1      3058 1.24296E-01
 -1      3059 1.60015E-01
 -1      3060 1.53046E-01
 -1      3061 1.34642E-01
 -1      3062 1.92684E-01
 -1      3063 2.50504E-01
 -1      3064 2.00265E-01
 -1      3065 3.03430E-01
 -1      3066 3.72656E-01
 -1      3067 2.92829E-01
 -1      3068 4.43241E-01
 -1      3069 5.24354E-01
 -1      3070 4.16340E-01
 -1      3071 6.10560E-01
 -1      3072 7.04441E-01
 -1      3073 5.73131E-01
 -1      3074 8.04460E-01
 -1      3075 9.11732E-01
 -1      3076 7.59356E-01
 -1      3077 1.04498E+00
 -1      3078 1.16425E+00
 -1      3079 9.92626E-01
 -1      3080 1.35444E+00
 -1      3081 1.47835E+00
 -1      3082 1.31606E+00
 -1      3083 1.74904E+00
 -1      3084 1.90174E+00
 -1      3085 1.77694E+00
 -1      3086 2.20777E+00
 -1      3087 2.47001E+00
 -1      3088 2.35367E+00
 -1      3089 2.82956E+00
 -1      3090 3.08700E+00
 -1      3091 3.01924E+00
 -1      3092 4.04094E+00
 -1      3093 4.40572E+00
 -1      3094 4.33273E+00
 -1      3095 3.52478E+00
 -1      3096 2.95453E+00
 -1      3097 4.38362E+00
 -1      3098 4.09530E+00
 -1      3099 3.16704E+00
 -1      3100 2.92576E+00
 -1      3101 4.73549E+00
 -1      3102 2.20728E+00
 -1      3103 1.98280E+00
 -1      3104 3.08875E+00
 -1      3105 1.68944E+00
 -1      3106 1.57222E+00
 -1      3107 2.07691E+00
 -1      3108 1.33982E+00
 -1      3109 1.22287E+00
 -1      3110 1.55115E+00
 -1      3111 1.07885E+00
 -1      3112 9.73273E-01
 -1      3113 1.17474E+00
 -1      3114 8.69247E-01
 -1      3115 7.77860E-01
 -1      3116 9.26704E-01
 -1      3117 6.95984E-01
 -1      3118 6.19147E-01
 -1      3119 7.40802E-01
 -1      3120 5.47693E-01
 -1      3121 4.84015E-01
 -1      3122 5.87472E-01
 -1      3123 4.24151E-01
 -1      3124 3.72092E-01
 -1      3125 4.56154E-01
 -1      3126 3.23337E-01
 -1      3127 2.81346E-01
 -1      3128 3.47535E-01
 -1      3129 2.42507E-01
 -1      3130 2.09108E-01
 -1      3131 2.59941E-01
 -1      3132 1.78756E-01
 -1      3133 1.52579E-01
 -1      3134 1.90750E-01
 -1      3135 1.29295E-01
 -1      3136 1.09101E-01
 -1      3137 1.37113E-01
 -1      3138 9.24170E-02
 -1      3139 7.71049E-02
 -1      3140 9.71451E-02
 -1      3141 6.46684E-02
 -1      3142 5.32716E-02
 -1      3143 6.80247E-02
 -1      3144 4.44617E-02
 -1      3145 3.61753E-02
 -1      3146 4.67783E-02
 -1      3147 2.90377E-02
 -1      3148 2.19482E-02
 -1      3149 1.87255E-02
 -1      3150 3.08308E-02
 -1      3151 1.93054E-01
 -1      3152 2.15798E-01
 -1      3153 3.87600E-01
 -1      3154 3.29062E-01
 -1      3155 2.72403E-01
 -1      3156 2.22754E-01
 -1      3157 2.93782E-01
 -1      3158 6.30817E-01
 -1      3159 5.81199E-01
 -1      3160 7.56710E-01
 -1      3161 7.06452E-01
 -1      3162 6.99316E-01
 -1      3163 9.00279E-01
 -1      3164 8.29319E-01
 -1      3165 8.47559E-01
 -1      3166 1.08400E+00
 -1      3167 1.02547E+00
 -1      3168 1.04536E+00
 -1      3169 1.26001E+00
 -1      3170 1.22937E+00
 -1      3171 1.31592E+00
 -1      3172 1.54599E+00
 -1      3173 1.39822E+00
 -1      3174 1.59950E+00
 -1      3175 1.68049E+00
 -1      3176 1.55935E+00
 -1      3177 1.75107E+00
 -1      3178 2.16806E+00
 -1      3179 2.10484E+00
 -1      3180 2.18879E+00
 -1      3181 2.33359E+00
 -1      3182 2.18159E+00
 -1      3183 2.62667E+00
 -1      3184 3.30817E+00
 -1      3185 3.40620E+00
 -1      3186 3.94407E+00
 -1      3187 3.52343E+00
 -1      3188 3.24153E+00
 -1      3189 3.94407E+00
 -1      3190 2.48431E+00
 -1      3191 2.42407E+00
 -1      3192 1.88532E+00
 -1      3193 2.08073E+00
 -1      3194 2.85385E+00
 -1      3195 1.37107E+00
 -1      3196 1.49337E+00
 -1      3197 2.05833E+00
 -1      3198 1.24470E+00
 -1      3199 1.27068E+00
 -1      3200 1.56599E+00
 -1      3201 1.04725E+00
 -1      3202 1.10243E+00
 -1      3203 1.32333E+00
 -1      3204 8.67943E-01
 -1      3205 9.33083E-01
 -1      3206 1.06689E+00
 -1      3207 7.56038E-01
 -1      3208 8.00541E-01
 -1      3209 8.85323E-01
 -1      3210 6.45623E-01
 -1      3211 6.87711E-01
 -1      3212 7.49593E-01
 -1      3213 5.37972E-01
 -1      3214 5.84851E-01
 -1      3215 6.20494E-01
 -1      3216 4.36061E-01
 -1      3217 4.82379E-01
 -1      3218 5.04130E-01
 -1      3219 3.45205E-01
 -1      3220 3.87792E-01
 -1      3221 4.00268E-01
 -1      3222 2.68763E-01
 -1      3223 3.06024E-01
 -1      3224 3.12817E-01
 -1      3225 2.05415E-01
 -1      3226 2.36809E-01
 -1      3227 2.41682E-01
 -1      3228 1.54011E-01
 -1      3229 1.79659E-01
 -1      3230 1.83972E-01
 -1      3231 1.13189E-01
 -1      3232 1.33582E-01
 -1      3233 1.37788E-01
 -1      3234 8.14461E-02
 -1      3235 9.72552E-02
 -1      3236 1.01426E-01
 -1      3237 5.72922E-02
 -1      3238 6.92371E-02
 -1      3239 7.32837E-02
 -1      3240 3.87617E-02
 -1      3241 4.78130E-02
 -1      3242 5.15955E-02
 -1      3243 2.62287E-02
 -1      3244 2.62287E-02
 -1      3245 5.09843E+00
 -1      3246 1.86852E-02
 -1      3247 2.10102E-02
 -1      3248 2.56600E-02
 -1      3249 2.55655E-02
 -1      3250 3.01560E-02
 -1      3251 4.30641E+00
 -1      3252 6.36033E+00
 -1      3253 7.12835E+00
 -1      3254 8.67695E+00
 -1      3255 3.81162E-01
 -1      3256 3.01551E-01
 -1      3257 2.52881E-01
 -1      3258 3.58993E-01
 -1      3259 2.46177E-01
 -1      3260 2.91193E-01
 -1      3261 1.69636E-01
 -1      3262 1.22300E+01
 -1      3263 1.27786E+01
 -1      3264 4.60054E+00
 -1      3265 4.55891E+00
 -1      3266 1.03796E+01
 -1      3267 8.53665E+00
 -1      3268 2.55267E-02
 -1      3269 2.62287E-02
 -1      3270 3.07247E-02
 -1      3271 2.62081E-02
 -1      3272 5.09431E-01
 -1      3273 4.52452E-01
 -1      3274 4.15292E-01
 -1      3275 5.51912E-01
 -1      3276 4.56909E+00
 -1      3277 4.95009E+00
 -1      3278 5.00232E+00
 -1      3279 4.76428E+00
 -1      3280 6.04441E+00
 -1      3281 6.52118E+00
 -1      3282 2.43583E-01
 -1      3283 2.20637E-01
 -1      3284 1.46766E-01
 -1      3285 3.51742E+00
 -1      3286 3.14250E+00
 -1      3287 8.27195E+00
 -1      3288 9.37289E+00
 -1      3289 9.45248E+00
 -1      3290 8.64286E+00
 -1      3291 9.64511E+00
 -1      3292 1.20006E+01
 -1      3293 2.41791E-02
 -1      3294 1.11826E+01
 -1      3295 1.25983E+01
 -1      3296 3.47183E+00
 -1      3297 4.49320E+00
 -1      3298 3.40620E+00
 -1      3299 1.25639E+01
 -1      3300 1.22300E+01
 -1      3301 8.53665E+00
 -1      3302 7.50913E+00
 -1      3303 1.28184E+01
 -1      3304 1.11978E+01
 -1      3305 8.09893E+00
 -1      3306 8.11236E+00
 -1      3307 6.34103E+00
 -1      3308 4.66959E+00
 -1      3309 1.22804E+01
 -1      3310 1.00147E+01
 -1      3311 4.70193E-01
 -1      3312 3.05866E-01
 -1      3313 2.93003E-01
 -1      3314 2.56110E+00
 -1      3315 3.42688E+00
 -1      3316 3.23301E+00
 -1      3317 3.14878E+00
 -1      3318 2.82867E-01
 -1      3319 2.82478E-01
 -1      3320 2.56147E-01
 -1      3321 2.61548E-01
 -1      3322 3.16568E-01
 -1      3323 3.16568E-01
 -1      3324 3.99884E+00
 -1      3325 8.69699E+00
 -1      3326 4.40572E+00
 -1      3327 9.10868E+00
 -1      3328 2.30551E-02
 -1      3329 2.50715E-02
 -1      3330 8.20800E+00
 -1      3331 3.21131E-01
 -1      3332 3.03154E-01
 -1      3333 2.13168E-01
 -1      3334 3.14800E-01
 -1      3335 3.34984E-01
 -1      3336 3.83055E-01
 -1      3337 5.83103E+00
 -1      3338 1.98374E-01
 -1      3339 1.84004E-01
 -1      3340 1.69743E-01
 -1      3341 3.29886E+00
 -1      3342 3.72880E+00
 -1      3343 2.66292E+00
 -1      3344 2.96953E+00
 -1      3345 1.94256E+00
 -1      3346 2.41669E+00
 -1      3347 3.82653E+00
 -1      3348 6.07433E+00
 -1      3349 5.73816E+00
 -1      3350 3.41537E-02
 -1      3351 3.75083E-02
 -1      3352 2.86624E-02
 -1      3353 2.54817E-02
 -1      3354 2.47830E-02
 -1      3355 2.76919E-02
 -1      3356 1.42083E-01
 -1      3357 1.75577E-01
 -1      3358 1.31964E-01
 -1      3359 8.04832E+00
 -1      3360 2.54817E-02
 -1      3361 2.54817E-02
 -1      3362 2.94197E-02
 -1      3363 2.95035E-02
 -1      3364 8.59479E+00
 -1      3365 3.16568E-01
 -1      3366 3.09343E-01
 -1      3367 2.69760E-01
 -1      3368 2.73236E-01
 -1      3369 6.95557E+00
 -1      3370 9.60679E+00
 -1      3371 7.28075E+00
 -1      3372 3.79237E+00
 -1      3373 9.04351E+00
 -1      3374 2.50651E-02
 -1      3375 2.50651E-02
 -1      3376 2.51878E-02
 -1      3377 2.59575E-02
 -1      3378 5.43929E+00
 -1      3379 1.21780E-01
 -1      3380 3.14800E-01
 -1      3381 2.73380E-01
 -1      3382 3.08657E-01
 -1      3383 2.77591E+00
 -1      3384 1.03313E+01
 -1      3385 7.62554E+00
 -1      3386 8.00264E+00
 -1      3387 2.95187E-01
 -1      3388 3.35043E-01
 -1      3389 2.31952E-01
 -1      3390 2.04008E-01
 -1      3391 1.10782E+01
 -1      3392 8.50467E+00
 -1      3393 8.54326E+00
 -1      3394 6.11265E+00
 -1      3395 1.80660E-02
 -1      3396 1.90265E-02
 -1      3397 2.20329E-02
 -1      3398 2.30337E-02
 -1      3399 1.39888E-01
 -1      3400 1.65873E-01
 -1      3401 1.96908E-01
 -1      3402 2.36546E-01
 -1      3403 2.02154E-01
 -1      3404 2.82056E-01
 -1      3405 3.34982E-01
 -1      3406 2.78699E-01
 -1      3407 4.06143E-01
 -1      3408 4.76729E-01
 -1      3409 3.95370E-01
 -1      3410 5.64750E-01
 -1      3411 6.50956E-01
 -1      3412 5.54553E-01
 -1      3413 7.59356E-01
 -1      3414 8.59375E-01
 -1      3415 7.50975E-01
 -1      3416 9.92626E-01
 -1      3417 1.12588E+00
 -1      3418 9.92626E-01
 -1      3419 1.28615E+00
 -1      3420 1.47633E+00
 -1      3421 1.28615E+00
 -1      3422 1.75055E+00
 -1      3423 2.02125E+00
 -1      3424 1.72064E+00
 -1      3425 2.56110E+00
 -1      3426 2.86713E+00
 -1      3427 2.53471E+00
 -1      3428 4.27353E+00
 -1      3429 4.63308E+00
 -1      3430 4.48096E+00
 -1      3431 7.92881E+00
 -1      3432 7.43069E+00
 -1      3433 6.78296E+00
 -1      3434 7.05518E+00
 -1      3435 3.34663E-01
 -1      3436 3.98032E+00
 -1      3437 3.26184E+00
 -1      3438 2.51068E+00
 -1      3439 2.21732E+00
 -1      3440 3.40225E+00
 -1      3441 1.73232E+00
 -1      3442 1.49992E+00
 -1      3443 2.16609E+00
 -1      3444 1.31590E+00
 -1      3445 1.17189E+00
 -1      3446 1.49707E+00
 -1      3447 1.03073E+00
 -1      3448 9.26704E-01
 -1      3449 1.17189E+00
 -1      3450 8.12992E-01
 -1      3451 7.31117E-01
 -1      3452 9.17019E-01
 -1      3453 6.40564E-01
 -1      3454 5.69109E-01
 -1      3455 7.12753E-01
 -1      3456 4.97170E-01
 -1      3457 4.37306E-01
 -1      3458 5.50261E-01
 -1      3459 3.80289E-01
 -1      3460 3.31534E-01
 -1      3461 4.21305E-01
 -1      3462 2.86539E-01
 -1      3463 2.47700E-01
 -1      3464 3.19294E-01
 -1      3465 2.12433E-01
 -1      3466 1.82081E-01
 -1      3467 2.39032E-01
 -1      3468 1.54692E-01
 -1      3469 1.31407E-01
 -1      3470 1.76375E-01
 -1      3471 1.10384E-01
 -1      3472 9.37005E-02
 -1      3473 1.27963E-01
 -1      3474 7.77508E-02
 -1      3475 6.53144E-02
 -1      3476 9.09902E-02
 -1      3477 5.35877E-02
 -1      3478 4.47778E-02
 -1      3479 6.33138E-02
 -1      3480 7.08151E+00
 -1      3481 7.30163E+00
 -1      3482 9.61626E-01
 -1      3483 8.89018E-01
 -1      3484 7.60657E-01
 -1      3485 6.85022E-01
 -1      3486 8.74724E-01
 -1      3487 1.54634E+00
 -1      3488 1.40097E+00
 -1      3489 2.00308E+00
 -1      3490 1.86487E+00
 -1      3491 1.94991E+00
 -1      3492 1.99131E+00
 -1      3493 1.97795E+00
 -1      3494 2.24331E+00
 -1      3495 3.77884E+00
 -1      3496 3.11923E+00
 -1      3497 3.94407E+00
 -1      3498 2.99540E+00
 -1      3499 3.39898E+00
 -1      3500 1.40374E+00
 -1      3501 1.54601E+00
 -1      3502 1.13288E+00
 -1      3503 1.24704E+00
 -1      3504 1.46972E+00
 -1      3505 9.21365E-01
 -1      3506 9.88767E-01
 -1      3507 1.16892E+00
 -1      3508 7.34188E-01
 -1      3509 8.02515E-01
 -1      3510 9.05960E-01
 -1      3511 5.92416E-01
 -1      3512 6.53187E-01
 -1      3513 7.06110E-01
 -1      3514 4.75997E-01
 -1      3515 5.31590E-01
 -1      3516 5.64283E-01
 -1      3517 3.81677E-01
 -1      3518 4.29947E-01
 -1      3519 4.57407E-01
 -1      3520 3.00555E-01
 -1      3521 3.39737E-01
 -1      3522 3.69415E-01
 -1      3523 2.32222E-01
 -1      3524 2.64176E-01
 -1      3525 2.91095E-01
 -1      3526 1.75999E-01
 -1      3527 2.01755E-01
 -1      3528 2.24249E-01
 -1      3529 1.30758E-01
 -1      3530 1.51186E-01
 -1      3531 1.68969E-01
 -1      3532 9.51130E-02
 -1      3533 1.11047E-01
 -1      3534 1.24445E-01
 -1      3535 6.76029E-02
 -1      3536 7.98118E-02
 -1      3537 8.94322E-02
 -1      3538 4.71271E-02
 -1      3539 5.66063E-02
 -1      3540 6.31345E-02
 -1      3541 7.82979E+00
 -1      3542 8.54326E+00
 -1      3543 6.04801E+00
 -1      3544 6.04801E+00
 -1      3545 7.13716E+00
 -1      3546 6.57491E+00
 -1      3547 5.95728E+00
 -1      3548 3.69508E-02
 -1      3549 3.63821E-02
 -1      3550 1.77691E+00
 -1      3551 1.87730E+00
 -1      3552 1.85732E+00
 -1      3553 2.25294E+00
 -1      3554 2.64489E+00
 -1      3555 3.19002E+00
 -1      3556 2.46386E+00
 -1      3557 2.73059E-01
 -1      3558 2.32394E+00
 -1      3559 2.91954E-01
 -1      3560 3.04449E-01
 -1      3561 2.69172E-01
 -1      3562 6.57491E+00
 -1      3563 1.23751E+00
 -1      3564 1.11232E+00
 -1      3565 1.15378E+00
 -1      3566 1.46793E+00
 -1      3567 5.66375E+00
 -1      3568 4.73549E+00
 -1      3569 1.35520E-01
 -1      3570 1.19882E-01
 -1      3571 1.51113E-01
 -1      3572 7.17118E+00
 -1      3573 7.73447E+00
 -1      3574 7.66992E+00
 -1      3575 7.66992E+00
 -1      3576 1.16467E-01
 -1      3577 1.33944E-01
 -1      3578 6.95931E+00
 -1      3579 6.14113E+00
 -1      3580 4.90839E+00
 -1      3581 5.34383E+00
 -1      3582 3.77884E+00
 -1      3583 2.61314E+00
 -1      3584 2.18879E+00
 -1      3585 4.94695E+00
 -1      3586 2.80545E+00
 -1      3587 1.31984E-01
 -1      3588 1.25153E-01
 -1      3589 1.20739E-01
 -1      3590 1.20757E-01
 -1      3591 1.51136E-01
 -1      3592 1.15444E-01
 -1      3593 3.39020E-01
 -1      3594 2.82362E-01
 -1      3595 2.10223E-01
 -1      3596 2.21911E-01
 -1      3597 6.52962E+00
 -1      3598 7.25603E+00
 -1      3599 6.02758E+00
 -1      3600 4.13335E-02
 -1      3601 3.45387E-02
 -1      3602 3.44549E-02
 -1      3603 5.99194E+00
 -1      3604 5.57852E+00
 -1      3605 6.53246E+00
 -1      3606 5.74614E+00
 -1      3607 4.90858E+00
 -1      3608 6.83281E+00
 -1      3609 2.41566E+00
 -1      3610 6.83186E+00
 -1      3611 5.43650E+00
 -1      3612 5.98052E+00
 -1      3613 3.60875E-02
 -1      3614 2.89499E-02
 -1      3615 2.82904E-02
 -1      3616 4.28969E-02
 -1      3617 2.40155E-01
 -1      3618 2.01405E-01
 -1      3619 2.85393E-01
 -1      3620 6.67141E-01
 -1      3621 6.05800E-01
 -1      3622 5.34032E-01
 -1      3623 5.40672E+00
 -1      3624 3.07291E+00
 -1      3625 2.87543E+00
 -1      3626 4.17397E+00
 -1      3627 3.43956E+00
 -1      3628 5.63718E+00
 -1      3629 4.48436E+00
 -1      3630 3.08904E+00
 -1      3631 7.77826E+00
 -1      3632 3.97423E-02
 -1      3633 4.47531E-02
 -1      3634 3.51343E-02
 -1      3635 2.94256E-02
 -1      3636 3.62612E-02
 -1      3637 3.45333E-02
 -1      3638 1.67980E-01
 -1      3639 1.40319E-01
 -1      3640 2.09761E-01
 -1      3641 5.45196E+00
 -1      3642 7.32428E+00
 -1      3643 5.38741E+00
 -1      3644 2.23428E-01
 -1      3645 2.13291E-01
 -1      3646 1.84460E-01
 -1      3647 1.81439E-01
 -1      3648 1.41802E-01
 -1      3649 1.60510E-01
 -1      3650 3.73133E-02
 -1      3651 4.35395E-02
 -1      3652 3.73133E-02
 -1      3653 6.58399E+00
 -1      3654 2.07595E-01
 -1      3655 2.07274E-01
 -1      3656 1.47703E-01
 -1      3657 1.52483E-01
 -1      3658 2.27073E-01
 -1      3659 1.84217E-01
 -1      3660 2.30549E-01
 -1      3661 2.10528E-01
 -1      3662 1.44742E-01
 -1      3663 2.10528E-01
 -1      3664 2.55488E-01
 -1      3665 9.96016E-02
 -1      3666 1.48480E-01
 -1      3667 4.63046E-01
 -1      3668 3.98194E-01
 -1      3669 3.86774E-01
 -1      3670 5.16934E-01
 -1      3671 1.52474E-01
 -1      3672 4.02355E-02
 -1      3673 3.16661E-02
 -1      3674 2.79491E-02
 -1      3675 1.26090E-01
 -1      3676 3.90543E-02
 -1      3677 3.27968E-02
 -1      3678 3.73133E-02
 -1      3679 4.77446E-02
 -1      3680 2.55922E-01
 -1      3681 3.01432E-01
 -1      3682 3.61361E-01
 -1      3683 4.32523E-01
 -1      3684 3.38585E-01
 -1      3685 5.09693E-01
 -1      3686 5.97715E-01
 -1      3687 4.75684E-01
 -1      3688 6.99143E-01
 -1      3689 8.07543E-01
 -1      3690 6.54283E-01
 -1      3691 9.45475E-01
 -1      3692 1.07873E+00
 -1      3693 8.93643E-01
 -1      3694 1.27411E+00
 -1      3695 1.43438E+00
 -1      3696 1.22696E+00
 -1      3697 1.72064E+00
 -1      3698 1.99486E+00
 -1      3699 1.70860E+00
 -1      3700 2.37002E+00
 -1      3701 2.90987E+00
 -1      3702 2.37002E+00
 -1      3703 4.17776E+00
 -1      3704 5.58417E+00
 -1      3705 4.01308E+00
 -1      3706 4.98186E+00
 -1      3707 5.09786E+00
 -1      3708 5.67510E+00
 -1      3709 5.38156E+00
 -1      3710 4.62640E+00
 -1      3711 5.41622E+00
 -1      3712 1.15887E-01
 -1      3713 1.26254E-01
 -1      3714 2.47941E+00
 -1      3715 1.99441E+00
 -1      3716 1.67786E+00
 -1      3717 1.49384E+00
 -1      3718 1.99118E+00
 -1      3719 1.27202E+00
 -1      3720 1.13086E+00
 -1      3721 1.45280E+00
 -1      3722 9.71663E-01
 -1      3723 8.57951E-01
 -1      3724 1.07179E+00
 -1      3725 7.45811E-01
 -1      3726 6.55258E-01
 -1      3727 8.00455E-01
 -1      3728 5.72751E-01
 -1      3729 5.00812E-01
 -1      3730 6.05808E-01
 -1      3731 4.38418E-01
 -1      3732 3.81401E-01
 -1      3733 4.60908E-01
 -1      3734 3.33341E-01
 -1      3735 2.88347E-01
 -1      3736 3.50454E-01
 -1      3737 2.50987E-01
 -1      3738 2.15720E-01
 -1      3739 2.65035E-01
 -1      3740 1.86637E-01
 -1      3741 1.59247E-01
 -1      3742 1.98592E-01
 -1      3743 1.36687E-01
 -1      3744 1.15664E-01
 -1      3745 1.46949E-01
 -1      3746 9.83495E-02
 -1      3747 8.23997E-02
 -1      3748 1.07074E-01
 -1      3749 6.91949E-02
 -1      3750 5.74682E-02
 -1      3751 7.65542E-02
 -1      3752 6.83281E+00
 -1      3753 2.90056E+00
 -1      3754 2.71349E+00
 -1      3755 2.39496E+00
 -1      3756 8.81509E-01
 -1      3757 1.00036E+00
 -1      3758 1.20481E+00
 -1      3759 1.34892E+00
 -1      3760 1.18036E+00
 -1      3761 3.68498E+00
 -1      3762 1.23015E-01
 -1      3763 1.07296E-01
 -1      3764 1.12811E-01
 -1      3765 1.25948E-01
 -1      3766 1.75238E+00
 -1      3767 1.90908E+00
 -1      3768 1.78828E+00
 -1      3769 6.97187E-01
 -1      3770 7.78188E-01
 -1      3771 8.72586E-01
 -1      3772 5.64283E-01
 -1      3773 6.25109E-01
 -1      3774 6.97187E-01
 -1      3775 4.55467E-01
 -1      3776 5.01518E-01
 -1      3777 5.62343E-01
 -1      3778 3.60543E-01
 -1      3779 4.02483E-01
 -1      3780 4.46594E-01
 -1      3781 2.80262E-01
 -1      3782 3.16641E-01
 -1      3783 3.49709E-01
 -1      3784 2.13953E-01
 -1      3785 2.44420E-01
 -1      3786 2.69966E-01
 -1      3787 1.60290E-01
 -1      3788 1.85102E-01
 -1      3789 2.05274E-01
 -1      3790 1.17662E-01
 -1      3791 1.37373E-01
 -1      3792 1.53506E-01
 -1      3793 8.44520E-02
 -1      3794 9.97531E-02
 -1      3795 1.12681E-01
 -1      3796 5.97744E-02
 -1      3797 7.07710E-02
 -1      3798 8.10919E-02
 -1      3799 1.79030E-01
 -1      3800 1.55178E-01
 -1      3801 3.62612E-02
 -1      3802 4.31027E-02
 -1      3803 3.62612E-02
 -1      3804 2.12583E-01
 -1      3805 2.16791E-01
 -1      3806 1.53939E-01
 -1      3807 2.30549E-01
 -1      3808 2.30549E-01
 -1      3809 1.87862E-01
 -1      3810 4.39070E-02
 -1      3811 5.12918E-02
 -1      3812 5.89283E-02
 -1      3813 4.67742E-02
 -1      3814 1.09019E-01
 -1      3815 1.06364E-01
 -1      3816 1.45929E-01
 -1      3817 1.65936E-01
 -1      3818 1.41077E-01
 -1      3819 3.16597E-02
 -1      3820 2.38125E+00
 -1      3821 2.61214E+00
 -1      3822 2.66390E+00
 -1      3823 3.74973E+00
 -1      3824 2.99856E+00
 -1      3825 2.82688E+00
 -1      3826 4.22271E+00
 -1      3827 2.06898E-01
 -1      3828 2.16375E-01
 -1      3829 1.63994E-01
 -1      3830 1.74178E-01
 -1      3831 1.88373E-01
 -1      3832 2.19408E-01
 -1      3833 2.42141E-01
 -1      3834 1.83190E-01
 -1      3835 9.95092E-01
 -1      3836 8.66731E-01
 -1      3837 1.33961E-01
 -1      3838 1.20774E-01
 -1      3839 1.27536E-01
 -1      3840 1.60508E-01
 -1      3841 1.79224E-01
 -1      3842 6.52962E+00
 -1      3843 4.77947E+00
 -1      3844 5.52608E+00
 -1      3845 4.73240E+00
 -1      3846 4.78215E-02
 -1      3847 4.59780E-02
 -1      3848 3.90497E+00
 -1      3849 4.66925E+00
 -1      3850 4.25906E+00
 -1      3851 4.38311E+00
 -1      3852 3.73482E+00
 -1      3853 1.38908E-01
 -1      3854 1.32515E-01
 -1      3855 5.36256E-02
 -1      3856 4.30135E+00
 -1      3857 4.64699E+00
 -1      3858 4.26709E+00
 -1      3859 4.17397E+00
 -1      3860 7.62144E-01
 -1      3861 6.82922E-01
 -1      3862 8.82512E-01
 -1      3863 3.34561E+00
 -1      3864 4.61738E+00
 -1      3865 4.86703E+00
 -1      3866 4.39020E-02
 -1      3867 4.12964E-02
 -1      3868 2.08370E-01
 -1      3869 2.11065E-01
 -1      3870 2.41795E-01
 -1      3871 4.67742E-02
 -1      3872 4.67742E-02
 -1      3873 5.04456E-02
 -1      3874 2.37529E+00
 -1      3875 1.61171E+00
 -1      3876 1.44825E+00
 -1      3877 3.23733E+00
 -1      3878 5.28097E+00
 -1      3879 4.86703E+00
 -1      3880 4.52471E+00
 -1      3881 3.79030E+00
 -1      3882 4.04791E+00
 -1      3883 1.08510E+00
 -1      3884 1.07711E+00
 -1      3885 1.23580E+00
 -1      3886 2.71340E+00
 -1      3887 1.52305E-01
 -1      3888 1.48660E-01
 -1      3889 1.06997E-01
 -1      3890 4.45949E-01
 -1      3891 3.86774E-01
 -1      3892 4.81840E-02
 -1      3893 4.78215E-02
 -1      3894 5.24660E-02
 -1      3895 3.27600E-01
 -1      3896 2.85393E-01
 -1      3897 3.86774E-01
 -1      3898 4.33016E+00
 -1      3899 4.99122E+00
 -1      3900 4.99122E+00
 -1      3901 4.48972E+00
 -1      3902 3.72333E+00
 -1      3903 4.18879E-01
 -1      3904 4.96050E-01
 -1      3905 5.58573E-01
 -1      3906 6.60000E-01
 -1      3907 5.01767E-01
 -1      3908 7.65238E-01
 -1      3909 9.03171E-01
 -1      3910 6.69528E-01
 -1      3911 1.06000E+00
 -1      3912 1.25538E+00
 -1      3913 9.31595E-01
 -1      3914 1.51249E+00
 -1      3915 1.79875E+00
 -1      3916 1.34553E+00
 -1      3917 2.26726E+00
 -1      3918 2.64243E+00
 -1      3919 2.07116E+00
 -1      3920 9.27170E-02
 -1      3921 1.27987E-01
 -1      3922 1.24196E-01
 -1      3923 5.36256E-02
 -1      3924 3.84816E+00
 -1      3925 3.10774E+00
 -1      3926 3.53268E+00
 -1      3927 1.48136E+00
 -1      3928 1.25954E+00
 -1      3929 1.07461E+00
 -1      3930 9.15419E-01
 -1      3931 1.10317E+00
 -1      3932 7.93344E-01
 -1      3933 6.81205E-01
 -1      3934 7.96168E-01
 -1      3935 5.97177E-01
 -1      3936 5.14670E-01
 -1      3937 5.90066E-01
 -1      3938 4.54229E-01
 -1      3939 3.91836E-01
 -1      3940 4.45598E-01
 -1      3941 3.46366E-01
 -1      3942 2.98306E-01
 -1      3943 3.39687E-01
 -1      3944 2.63211E-01
 -1      3945 2.25851E-01
 -1      3946 2.59122E-01
 -1      3947 1.98452E-01
 -1      3948 1.69368E-01
 -1      3949 1.96628E-01
 -1      3950 1.47963E-01
 -1      3951 1.25403E-01
 -1      3952 1.47823E-01
 -1      3953 1.08705E-01
 -1      3954 9.13900E-02
 -1      3955 1.09719E-01
 -1      3956 8.21750E-02
 -1      3957 6.89701E-02
 -1      3958 8.38059E-02
 -1      3959 1.12700E+00
 -1      3960 1.33146E+00
 -1      3961 6.88586E-01
 -1      3962 7.60664E-01
 -1      3963 4.23910E+00
 -1      3964 3.66963E+00
 -1      3965 3.78466E+00
 -1      3966 1.43183E-01
 -1      3967 1.51821E-01
 -1      3968 8.72586E-01
 -1      3969 9.75907E-01
 -1      3970 1.12700E+00
 -1      3971 5.38229E-01
 -1      3972 6.00994E-01
 -1      3973 6.64471E-01
 -1      3974 4.18280E-01
 -1      3975 4.71263E-01
 -1      3976 5.09914E-01
 -1      3977 3.22483E-01
 -1      3978 3.66385E-01
 -1      3979 3.91054E-01
 -1      3980 2.46117E-01
 -1      3981 2.81958E-01
 -1      3982 2.98634E-01
 -1      3983 1.85540E-01
 -1      3984 2.14391E-01
 -1      3985 2.26383E-01
 -1      3986 1.37874E-01
 -1      3987 1.60791E-01
 -1      3988 1.69908E-01
 -1      3989 1.00581E-01
 -1      3990 1.18490E-01
 -1      3991 1.25774E-01
 -1      3992 7.21731E-02
 -1      3993 8.58540E-02
 -1      3994 9.16623E-02
 -1      3995 5.37739E-02
 -1      3996 6.22565E-02
 -1      3997 6.70186E-02
 -1      3998 5.37739E-02
 -1      3999 2.84001E+00
 -1      4000 3.43876E+00
 -1      4001 3.01015E+00
 -1      4002 2.36784E+00
 -1      4003 1.52305E-01
 -1      4004 1.52305E-01
 -1      4005 1.16749E-01
 -1      4006 1.16265E-01
 -1      4007 1.04982E-01
 -1      4008 1.33766E-01
 -1      4009 1.49789E-01
 -1      4010 1.69464E-01
 -1      4011 5.87919E-01
 -1      4012 5.16934E-01
 -1      4013 5.16934E-01
 -1      4014 6.82922E-01
 -1      4015 3.34561E+00
 -1      4016 2.95254E+00
 -1      4017 2.76547E+00
 -1      4018 1.98222E+00
 -1      4019 1.73667E+00
 -1      4020 2.14013E+00
 -1      4021 2.31623E+00
 -1      4022 1.68331E+00
 -1      4023 3.10313E-01
 -1      4024 3.70242E-01
 -1      4025 3.90607E-01
 -1      4026 1.24196E-01
 -1      4027 1.17932E-01
 -1      4028 9.62048E-02
 -1      4029 8.81895E-02
 -1      4030 4.52326E-02
 -1      4031 4.70390E-02
 -1      4032 5.07105E-02
 -1      4033 5.17206E-02
 -1      4034 1.95834E+00
 -1      4035 1.64179E+00
 -1      4036 1.44853E+00
 -1      4037 3.45349E+00
 -1      4038 2.84002E-01
 -1      4039 3.06545E+00
 -1      4040 3.62057E+00
 -1      4041 1.16283E-01
 -1      4042 1.11756E-01
 -1      4043 1.54752E-01
 -1      4044 1.45000E-01
 -1      4045 1.64038E-01
 -1      4046 5.79076E-02
 -1      4047 3.21016E+00
 -1      4048 2.81141E+00
 -1      4049 2.70396E+00
 -1      4050 2.18480E+00
 -1      4051 2.35821E+00
 -1      4052 8.63985E-01
 -1      4053 3.06712E+00
 -1      4054 3.44539E+00
 -1      4055 6.35285E-02
 -1      4056 6.40219E-02
 -1      4057 6.32765E-02
 -1      4058 2.26367E-01
 -1      4059 1.97027E-01
 -1      4060 1.28087E+00
 -1      4061 1.19086E+00
 -1      4062 9.87099E-01
 -1      4063 8.82512E-01
 -1      4064 1.19086E+00
 -1      4065 1.83438E-01
 -1      4066 2.05876E-01
 -1      4067 1.92150E-01
 -1      4068 3.44539E+00
 -1      4069 3.44539E+00
 -1      4070 2.60764E+00
 -1      4071 2.84288E+00
 -1      4072 1.37958E+00
 -1      4073 5.66057E-01
 -1      4074 4.95072E-01
 -1      4075 2.70312E-01
 -1      4076 3.01969E-01
 -1      4077 2.33797E-01
 -1      4078 1.83541E+00
 -1      4079 1.04796E-01
 -1      4080 4.30306E-01
 -1      4081 3.71132E-01
 -1      4082 4.79430E-01
 -1      4083 1.33183E-01
 -1      4084 1.87240E-01
 -1      4085 1.66023E-01
 -1      4086 2.02542E-01
 -1      4087 1.27536E-01
 -1      4088 1.15781E-01
 -1      4089 1.16265E-01
 -1      4090 1.54268E-01
 -1      4091 5.85789E-02
 -1      4092 5.85789E-02
 -1      4093 7.01349E-02
 -1      4094 6.96414E-02
 -1      4095 4.90547E-01
 -1      4096 5.53070E-01
 -1      4097 6.22982E-01
 -1      4098 7.28220E-01
 -1      4099 6.11761E-01
 -1      4100 8.29758E-01
 -1      4101 9.86587E-01
 -1      4102 7.83212E-01
 -1      4103 1.17894E+00
 -1      4104 1.43605E+00
 -1      4105 1.07710E+00
 -1      4106 1.84239E+00
 -1      4107 2.31090E+00
 -1      4108 1.67579E+00
 -1      4109 5.59700E-02
 -1      4110 5.57052E-02
 -1      4111 5.90334E-02
 -1      4112 6.82713E-02
 -1      4113 1.23861E+00
 -1      4114 1.05368E+00
 -1      4115 2.90497E+00
 -1      4116 3.98588E+00
 -1      4117 3.77412E+00
 -1      4118 2.67621E+00
 -1      4119 2.35407E+00
 -1      4120 2.05773E+00
 -1      4121 1.83127E+00
 -1      4122 1.56579E+00
 -1      4123 1.40537E+00
 -1      4124 1.35587E+00
 -1      4125 1.78811E+00
 -1      4126 8.88596E-01
 -1      4127 7.66521E-01
 -1      4128 1.02403E+00
 -1      4129 6.53354E-01
 -1      4130 5.69327E-01
 -1      4131 7.45782E-01
 -1      4132 4.89002E-01
 -1      4133 4.28562E-01
 -1      4134 5.52290E-01
 -1      4135 3.69785E-01
 -1      4136 3.24315E-01
 -1      4137 4.13190E-01
 -1      4138 2.80244E-01
 -1      4139 2.45149E-01
 -1      4140 3.10342E-01
 -1      4141 2.11423E-01
 -1      4142 1.84024E-01
 -1      4143 2.32545E-01
 -1      4144 1.58425E-01
 -1      4145 1.37020E-01
 -1      4146 1.73221E-01
 -1      4147 1.17880E-01
 -1      4148 1.01182E-01
 -1      4149 1.28483E-01
 -1      4150 8.38059E-02
 -1      4151 7.45909E-02
 -1      4152 6.96414E-02
 -1      4153 9.19669E-02
 -1      4154 7.17914E-01
 -1      4155 8.05506E-01
 -1      4156 1.24927E+00
 -1      4157 1.40037E+00
 -1      4158 9.70587E-01
 -1      4159 1.08251E+00
 -1      4160 1.02403E+00
 -1      4161 4.05563E-01
 -1      4162 4.57458E-01
 -1      4163 2.83986E+00
 -1      4164 2.42895E+00
 -1      4165 2.12847E+00
 -1      4166 2.37365E+00
 -1      4167 3.06261E-01
 -1      4168 3.46786E-01
 -1      4169 4.13190E-01
 -1      4170 2.30463E-01
 -1      4171 2.62190E-01
 -1      4172 3.10342E-01
 -1      4173 1.71989E-01
 -1      4174 1.96738E-01
 -1      4175 2.32545E-01
 -1      4176 1.25401E-01
 -1      4177 1.44786E-01
 -1      4178 1.71616E-01
 -1      4179 8.09447E-01
 -1      4180 7.14444E-01
 -1      4181 6.92582E-01
 -1      4182 2.01787E+00
 -1      4183 1.62768E+00
 -1      4184 1.41523E+00
 -1      4185 2.25310E+00
 -1      4186 2.68735E-01
 -1      4187 2.54697E-01
 -1      4188 3.12332E-01
 -1      4189 1.16265E-01
 -1      4190 3.28082E+00
 -1      4191 1.33183E-01
 -1      4192 3.80131E-01
 -1      4193 4.28769E-01
 -1      4194 4.80071E-01
 -1      4195 5.37782E-01
 -1      4196 6.04747E-01
 -1      4197 7.45782E-01
 -1      4198 5.52290E-01
 -1      4199 1.56749E-01
 -1      4200 1.57345E-01
 -1      4201 1.78773E-01
 -1      4202 1.92747E-01
 -1      4203 1.54268E-01
 -1      4204 1.86062E-01
 -1      4205 1.39462E+00
 -1      4206 1.19086E+00
 -1      4207 2.14594E+00
 -1      4208 1.52897E+00
 -1      4209 3.55865E-01
 -1      4210 1.35587E+00
 -1      4211 1.78811E+00
 -1      4212 1.66584E+00
 -1      4213 2.07105E+00
 -1      4214 2.84875E+00
 -1      4215 2.62451E+00
 -1      4216 2.83821E+00
 -1      4217 1.84600E+00
 -1      4218 1.71165E+00
 -1      4219 1.71165E+00
 -1      4220 2.34046E-01
 -1      4221 9.14034E-01
 -1      4222 7.55655E-01
 -1      4223 6.07268E-01
 -1      4224 5.66560E-01
 -1      4225 5.03488E-01
 -1      4226 4.38722E-01
 -1      4227 7.93822E-02
 -1      4228 9.41094E-02
 -1      4229 6.89499E-02
 -1      4230 2.43578E+00
 -1      4231 2.43578E+00
 -1      4232 7.50844E-02
 -1      4233 2.85120E-01
 -1      4234 2.42753E-01
 -1      4235 2.92896E-01
 -1      4236 3.32897E-01
 -1      4237 3.71059E-01
 -1      4238 1.13121E-01
 -1      4239 2.21741E+00
 -1      4240 2.11532E-01
 -1      4241 2.01745E-01
 -1      4242 2.41955E-01
 -1      4243 7.13970E-02
 -1      4244 7.83908E-01
 -1      4245 8.85447E-01
 -1      4246 1.13969E+00
 -1      4247 1.33204E+00
 -1      4248 7.87035E-02
 -1      4249 2.08429E-01
 -1      4250 2.36351E-01
 -1      4251 2.67279E-01
 -1      4252 1.95052E-01
 -1      4253 2.24413E+00
 -1      4254 2.12847E+00
 -1      4255 8.58949E-01
 -1      4256 1.02403E+00
 -1      4257 7.45782E-01
 -1      4258 6.32614E-01
 -1      4259 5.52290E-01
 -1      4260 4.71966E-01
 -1      4261 4.13190E-01
 -1      4262 3.54413E-01
 -1      4263 3.10342E-01
 -1      4264 2.66270E-01
 -1      4265 2.32545E-01
 -1      4266 1.98819E-01
 -1      4267 1.73221E-01
 -1      4268 1.46017E-01
 -1      4269 1.26878E-01
 -1      4270 1.64907E+00
 -1      4271 1.18911E+00
 -1      4272 2.05358E+00
 -1      4273 8.63557E-01
 -1      4274 7.78242E-01
 -1      4275 1.92755E-01
 -1      4276 7.69519E-02
 -1      4277 7.74454E-02
 -1      4278 3.83656E-01
 -1      4279 3.24856E-01
 -1      4280 4.07714E-01
 -1      4281 9.36622E-01
 -1      4282 1.35587E+00
 -1      4283 1.14038E+00
 -1      4284 8.05710E-02
 -1      4285 1.52264E+00
 -1      4286 9.43279E-02
 -1      4287 2.01745E-01
 -1      4288 4.40537E-01
 -1      4289 5.02315E-01
 -1      4290 1.11863E-01
 -1      4291 1.95052E-01
 -1      4292 2.10734E-01
 -1      4293 1.78811E+00
 -1      4294 6.76007E-01
 -1      4295 6.06095E-01
 -1      4296 3.12912E-01
 -1      4297 3.38236E-01
 -1      4298 2.98500E-01
 -1      4299 3.85470E-01
 -1      4300 2.41955E-01
 -1      4301 2.05541E+00
 -3
 9999
