    1C
    1UUSER                                                              
    1UDATE              27.october.2022                                 
    1UTIME              00:24:21                                        
    1UHOST                                                              
    1UPGM               CalculiX                                        
    1UVERSION           Version 2.17                             
    1UCOMPILETIME       Thu Jul 23 21:43:50 CEST 2020                    
    1UDIR                                                               
    1UDBN                                                               
    1UMAT    1SOLIDMATERIAL                                             
    2C                          4249                                     1
 -1         1 5.42640E+01 3.37755E+01 0.00000E+00
 -1         2 6.12749E+01 2.67755E+01 0.00000E+00
 -1         3 1.50000E+02 0.00000E+00 0.00000E+00
 -1         4 1.50000E+02 5.00000E+01 0.00000E+00
 -1         5 0.00000E+00 0.00000E+00 0.00000E+00
 -1         6 0.00000E+00 5.00000E+01 0.00000E+00
 -1         7 0.00000E+00 4.70500E+01 0.00000E+00
 -1         8 0.00000E+00 4.41000E+01 0.00000E+00
 -1         9 0.00000E+00 4.11500E+01 0.00000E+00
 -1        10 0.00000E+00 3.82000E+01 0.00000E+00
 -1        11 0.00000E+00 3.52500E+01 0.00000E+00
 -1        12 0.00000E+00 3.23500E+01 0.00000E+00
 -1        13 0.00000E+00 2.94000E+01 0.00000E+00
 -1        14 0.00000E+00 2.64500E+01 0.00000E+00
 -1        15 0.00000E+00 2.35000E+01 0.00000E+00
 -1        16 0.00000E+00 2.05500E+01 0.00000E+00
 -1        17 0.00000E+00 1.76000E+01 0.00000E+00
 -1        18 0.00000E+00 1.47000E+01 0.00000E+00
 -1        19 0.00000E+00 1.17500E+01 0.00000E+00
 -1        20 0.00000E+00 8.80000E+00 0.00000E+00
 -1        21 0.00000E+00 5.85000E+00 0.00000E+00
 -1        22 0.00000E+00 2.90000E+00 0.00000E+00
 -1        23 3.15000E+00 5.00000E+01 0.00000E+00
 -1        24 6.15000E+00 5.00000E+01 0.00000E+00
 -1        25 9.15000E+00 5.00000E+01 0.00000E+00
 -1        26 1.21500E+01 5.00000E+01 0.00000E+00
 -1        27 1.51500E+01 5.00000E+01 0.00000E+00
 -1        28 1.81500E+01 5.00000E+01 0.00000E+00
 -1        29 2.11500E+01 5.00000E+01 0.00000E+00
 -1        30 2.41500E+01 5.00000E+01 0.00000E+00
 -1        31 2.71500E+01 5.00000E+01 0.00000E+00
 -1        32 3.01500E+01 5.00000E+01 0.00000E+00
 -1        33 3.31500E+01 5.00000E+01 0.00000E+00
 -1        34 3.61500E+01 5.00000E+01 0.00000E+00
 -1        35 3.91500E+01 5.00000E+01 0.00000E+00
 -1        36 4.21500E+01 5.00000E+01 0.00000E+00
 -1        37 4.51500E+01 5.00000E+01 0.00000E+00
 -1        38 4.81500E+01 5.00000E+01 0.00000E+00
 -1        39 5.11500E+01 5.00000E+01 0.00000E+00
 -1        40 5.41500E+01 5.00000E+01 0.00000E+00
 -1        41 5.71500E+01 5.00000E+01 0.00000E+00
 -1        42 6.01500E+01 5.00000E+01 0.00000E+00
 -1        43 6.31500E+01 5.00000E+01 0.00000E+00
 -1        44 6.61500E+01 5.00000E+01 0.00000E+00
 -1        45 6.91500E+01 5.00000E+01 0.00000E+00
 -1        46 7.21500E+01 5.00000E+01 0.00000E+00
 -1        47 7.51500E+01 5.00000E+01 0.00000E+00
 -1        48 7.81500E+01 5.00000E+01 0.00000E+00
 -1        49 8.11500E+01 5.00000E+01 0.00000E+00
 -1        50 8.41500E+01 5.00000E+01 0.00000E+00
 -1        51 8.71500E+01 5.00000E+01 0.00000E+00
 -1        52 9.01500E+01 5.00000E+01 0.00000E+00
 -1        53 9.31500E+01 5.00000E+01 0.00000E+00
 -1        54 9.61500E+01 5.00000E+01 0.00000E+00
 -1        55 9.91500E+01 5.00000E+01 0.00000E+00
 -1        56 1.02150E+02 5.00000E+01 0.00000E+00
 -1        57 1.05150E+02 5.00000E+01 0.00000E+00
 -1        58 1.08150E+02 5.00000E+01 0.00000E+00
 -1        59 1.11150E+02 5.00000E+01 0.00000E+00
 -1        60 1.14150E+02 5.00000E+01 0.00000E+00
 -1        61 1.17150E+02 5.00000E+01 0.00000E+00
 -1        62 1.20150E+02 5.00000E+01 0.00000E+00
 -1        63 1.23150E+02 5.00000E+01 0.00000E+00
 -1        64 1.26150E+02 5.00000E+01 0.00000E+00
 -1        65 1.29150E+02 5.00000E+01 0.00000E+00
 -1        66 1.32150E+02 5.00000E+01 0.00000E+00
 -1        67 1.35150E+02 5.00000E+01 0.00000E+00
 -1        68 1.38150E+02 5.00000E+01 0.00000E+00
 -1        69 1.41150E+02 5.00000E+01 0.00000E+00
 -1        70 1.44150E+02 5.00000E+01 0.00000E+00
 -1        71 1.47150E+02 5.00000E+01 0.00000E+00
 -1        72 3.15000E+00 0.00000E+00 0.00000E+00
 -1        73 6.15000E+00 0.00000E+00 0.00000E+00
 -1        74 9.15000E+00 0.00000E+00 0.00000E+00
 -1        75 1.21500E+01 0.00000E+00 0.00000E+00
 -1        76 1.51500E+01 0.00000E+00 0.00000E+00
 -1        77 1.81500E+01 0.00000E+00 0.00000E+00
 -1        78 2.11500E+01 0.00000E+00 0.00000E+00
 -1        79 2.41500E+01 0.00000E+00 0.00000E+00
 -1        80 2.71500E+01 0.00000E+00 0.00000E+00
 -1        81 3.01500E+01 0.00000E+00 0.00000E+00
 -1        82 3.31500E+01 0.00000E+00 0.00000E+00
 -1        83 3.61500E+01 0.00000E+00 0.00000E+00
 -1        84 3.91500E+01 0.00000E+00 0.00000E+00
 -1        85 4.21500E+01 0.00000E+00 0.00000E+00
 -1        86 4.51500E+01 0.00000E+00 0.00000E+00
 -1        87 4.81500E+01 0.00000E+00 0.00000E+00
 -1        88 5.11500E+01 0.00000E+00 0.00000E+00
 -1        89 5.41500E+01 0.00000E+00 0.00000E+00
 -1        90 5.71500E+01 0.00000E+00 0.00000E+00
 -1        91 6.01500E+01 0.00000E+00 0.00000E+00
 -1        92 6.31500E+01 0.00000E+00 0.00000E+00
 -1        93 6.61500E+01 0.00000E+00 0.00000E+00
 -1        94 6.91500E+01 0.00000E+00 0.00000E+00
 -1        95 7.21500E+01 0.00000E+00 0.00000E+00
 -1        96 7.51500E+01 0.00000E+00 0.00000E+00
 -1        97 7.81500E+01 0.00000E+00 0.00000E+00
 -1        98 8.11500E+01 0.00000E+00 0.00000E+00
 -1        99 8.41500E+01 0.00000E+00 0.00000E+00
 -1       100 8.71500E+01 0.00000E+00 0.00000E+00
 -1       101 9.01500E+01 0.00000E+00 0.00000E+00
 -1       102 9.31500E+01 0.00000E+00 0.00000E+00
 -1       103 9.61500E+01 0.00000E+00 0.00000E+00
 -1       104 9.91500E+01 0.00000E+00 0.00000E+00
 -1       105 1.02150E+02 0.00000E+00 0.00000E+00
 -1       106 1.05150E+02 0.00000E+00 0.00000E+00
 -1       107 1.08150E+02 0.00000E+00 0.00000E+00
 -1       108 1.11150E+02 0.00000E+00 0.00000E+00
 -1       109 1.14150E+02 0.00000E+00 0.00000E+00
 -1       110 1.17150E+02 0.00000E+00 0.00000E+00
 -1       111 1.20150E+02 0.00000E+00 0.00000E+00
 -1       112 1.23150E+02 0.00000E+00 0.00000E+00
 -1       113 1.26150E+02 0.00000E+00 0.00000E+00
 -1       114 1.29150E+02 0.00000E+00 0.00000E+00
 -1       115 1.32150E+02 0.00000E+00 0.00000E+00
 -1       116 1.35150E+02 0.00000E+00 0.00000E+00
 -1       117 1.38150E+02 0.00000E+00 0.00000E+00
 -1       118 1.41150E+02 0.00000E+00 0.00000E+00
 -1       119 1.44150E+02 0.00000E+00 0.00000E+00
 -1       120 1.47150E+02 0.00000E+00 0.00000E+00
 -1       121 1.50000E+02 2.95000E+00 0.00000E+00
 -1       122 1.50000E+02 5.90000E+00 0.00000E+00
 -1       123 1.50000E+02 8.85000E+00 0.00000E+00
 -1       124 1.50000E+02 1.18000E+01 0.00000E+00
 -1       125 1.50000E+02 1.47500E+01 0.00000E+00
 -1       126 1.50000E+02 1.76500E+01 0.00000E+00
 -1       127 1.50000E+02 2.06000E+01 0.00000E+00
 -1       128 1.50000E+02 2.35500E+01 0.00000E+00
 -1       129 1.50000E+02 2.65000E+01 0.00000E+00
 -1       130 1.50000E+02 2.94500E+01 0.00000E+00
 -1       131 1.50000E+02 3.24000E+01 0.00000E+00
 -1       132 1.50000E+02 3.53000E+01 0.00000E+00
 -1       133 1.50000E+02 3.82500E+01 0.00000E+00
 -1       134 1.50000E+02 4.12000E+01 0.00000E+00
 -1       135 1.50000E+02 4.41500E+01 0.00000E+00
 -1       136 1.50000E+02 4.71000E+01 0.00000E+00
 -1       137 6.11245E+01 2.53325E+01 0.00000E+00
 -1       138 6.05925E+01 2.37608E+01 0.00000E+00
 -1       139 5.98273E+01 2.25128E+01 0.00000E+00
 -1       140 5.86941E+01 2.13468E+01 0.00000E+00
 -1       141 5.74599E+01 2.05421E+01 0.00000E+00
 -1       142 5.59429E+01 1.99772E+01 0.00000E+00
 -1       143 5.44950E+01 1.97790E+01 0.00000E+00
 -1       144 5.28355E+01 1.99251E+01 0.00000E+00
 -1       145 5.13877E+01 2.03987E+01 0.00000E+00
 -1       146 4.99620E+01 2.12620E+01 0.00000E+00
 -1       147 4.88000E+01 2.24138E+01 0.00000E+00
 -1       148 4.79699E+01 2.37346E+01 0.00000E+00
 -1       149 4.74761E+01 2.51091E+01 0.00000E+00
 -1       150 4.72754E+01 2.66915E+01 0.00000E+00
 -1       151 4.74255E+01 2.82199E+01 0.00000E+00
 -1       152 4.79327E+01 2.97380E+01 0.00000E+00
 -1       153 4.87239E+01 3.10400E+01 0.00000E+00
 -1       154 4.97796E+01 3.21414E+01 0.00000E+00
 -1       155 5.11918E+01 3.30600E+01 0.00000E+00
 -1       156 5.27280E+01 3.36025E+01 0.00000E+00
 -1       157 5.56224E+01 3.36446E+01 0.00000E+00
 -1       158 5.70379E+01 3.32072E+01 0.00000E+00
 -1       159 5.82559E+01 3.25333E+01 0.00000E+00
 -1       160 5.93000E+01 3.16487E+01 0.00000E+00
 -1       161 6.01468E+01 3.05861E+01 0.00000E+00
 -1       162 6.07659E+01 2.93961E+01 0.00000E+00
 -1       163 6.11469E+01 2.81078E+01 0.00000E+00
 -1       164 2.59800E+00 4.55750E+01 0.00000E+00
 -1       165 2.59800E+00 4.26250E+01 0.00000E+00
 -1       166 2.59800E+00 3.96750E+01 0.00000E+00
 -1       167 2.59800E+00 3.67250E+01 0.00000E+00
 -1       168 2.59800E+00 3.38250E+01 0.00000E+00
 -1       169 2.59800E+00 3.08750E+01 0.00000E+00
 -1       170 2.59800E+00 2.79250E+01 0.00000E+00
 -1       171 2.59800E+00 2.49750E+01 0.00000E+00
 -1       172 2.59800E+00 2.20250E+01 0.00000E+00
 -1       173 2.59800E+00 1.90750E+01 0.00000E+00
 -1       174 2.59800E+00 1.61750E+01 0.00000E+00
 -1       175 2.59800E+00 1.32250E+01 0.00000E+00
 -1       176 2.59800E+00 1.02750E+01 0.00000E+00
 -1       177 2.59800E+00 7.32500E+00 0.00000E+00
 -1       178 2.59800E+00 4.37500E+00 0.00000E+00
 -1       179 2.87400E+00 2.18750E+00 0.00000E+00
 -1       180 4.65000E+00 4.74020E+01 0.00000E+00
 -1       181 7.65000E+00 4.74020E+01 0.00000E+00
 -1       182 1.06500E+01 4.74020E+01 0.00000E+00
 -1       183 1.36500E+01 4.74020E+01 0.00000E+00
 -1       184 1.66500E+01 4.74020E+01 0.00000E+00
 -1       185 1.96500E+01 4.74020E+01 0.00000E+00
 -1       186 2.26500E+01 4.74020E+01 0.00000E+00
 -1       187 2.56500E+01 4.74020E+01 0.00000E+00
 -1       188 2.86500E+01 4.74020E+01 0.00000E+00
 -1       189 3.16500E+01 4.74020E+01 0.00000E+00
 -1       190 3.46500E+01 4.74020E+01 0.00000E+00
 -1       191 3.76500E+01 4.74020E+01 0.00000E+00
 -1       192 4.06500E+01 4.74020E+01 0.00000E+00
 -1       193 4.36500E+01 4.74020E+01 0.00000E+00
 -1       194 4.66500E+01 4.74020E+01 0.00000E+00
 -1       195 4.96500E+01 4.74020E+01 0.00000E+00
 -1       196 5.26500E+01 4.74020E+01 0.00000E+00
 -1       197 5.56500E+01 4.74020E+01 0.00000E+00
 -1       198 5.86500E+01 4.74020E+01 0.00000E+00
 -1       199 6.16500E+01 4.74020E+01 0.00000E+00
 -1       200 6.46500E+01 4.74020E+01 0.00000E+00
 -1       201 6.76500E+01 4.74020E+01 0.00000E+00
 -1       202 7.06500E+01 4.74020E+01 0.00000E+00
 -1       203 7.36500E+01 4.74020E+01 0.00000E+00
 -1       204 7.66500E+01 4.74020E+01 0.00000E+00
 -1       205 7.96500E+01 4.74020E+01 0.00000E+00
 -1       206 8.26500E+01 4.74020E+01 0.00000E+00
 -1       207 8.56500E+01 4.74020E+01 0.00000E+00
 -1       208 8.86500E+01 4.74020E+01 0.00000E+00
 -1       209 9.16500E+01 4.74020E+01 0.00000E+00
 -1       210 9.46500E+01 4.74020E+01 0.00000E+00
 -1       211 9.76500E+01 4.74020E+01 0.00000E+00
 -1       212 1.00650E+02 4.74020E+01 0.00000E+00
 -1       213 1.03650E+02 4.74020E+01 0.00000E+00
 -1       214 1.06650E+02 4.74020E+01 0.00000E+00
 -1       215 1.09650E+02 4.74020E+01 0.00000E+00
 -1       216 1.12650E+02 4.74020E+01 0.00000E+00
 -1       217 1.15650E+02 4.74020E+01 0.00000E+00
 -1       218 1.18650E+02 4.74020E+01 0.00000E+00
 -1       219 1.21650E+02 4.74020E+01 0.00000E+00
 -1       220 1.24650E+02 4.74020E+01 0.00000E+00
 -1       221 1.27650E+02 4.74020E+01 0.00000E+00
 -1       222 1.30650E+02 4.74020E+01 0.00000E+00
 -1       223 1.33650E+02 4.74020E+01 0.00000E+00
 -1       224 1.36650E+02 4.74020E+01 0.00000E+00
 -1       225 1.39650E+02 4.74020E+01 0.00000E+00
 -1       226 1.42650E+02 4.74020E+01 0.00000E+00
 -1       227 1.45650E+02 4.74020E+01 0.00000E+00
 -1       228 5.87400E+00 2.18750E+00 0.00000E+00
 -1       229 8.87400E+00 2.18750E+00 0.00000E+00
 -1       230 1.18740E+01 2.18750E+00 0.00000E+00
 -1       231 1.48740E+01 2.18750E+00 0.00000E+00
 -1       232 1.78740E+01 2.18750E+00 0.00000E+00
 -1       233 2.08740E+01 2.18750E+00 0.00000E+00
 -1       234 2.38740E+01 2.18750E+00 0.00000E+00
 -1       235 2.68740E+01 2.18750E+00 0.00000E+00
 -1       236 2.98740E+01 2.18750E+00 0.00000E+00
 -1       237 3.28740E+01 2.18750E+00 0.00000E+00
 -1       238 3.58740E+01 2.18750E+00 0.00000E+00
 -1       239 3.88740E+01 2.18750E+00 0.00000E+00
 -1       240 4.18740E+01 2.18750E+00 0.00000E+00
 -1       241 4.48740E+01 2.18750E+00 0.00000E+00
 -1       242 4.78740E+01 2.18750E+00 0.00000E+00
 -1       243 5.08740E+01 2.18750E+00 0.00000E+00
 -1       244 5.38740E+01 2.18750E+00 0.00000E+00
 -1       245 5.68740E+01 2.18750E+00 0.00000E+00
 -1       246 5.98740E+01 2.18750E+00 0.00000E+00
 -1       247 6.28740E+01 2.18750E+00 0.00000E+00
 -1       248 6.58740E+01 2.18750E+00 0.00000E+00
 -1       249 6.88740E+01 2.18750E+00 0.00000E+00
 -1       250 7.18740E+01 2.18750E+00 0.00000E+00
 -1       251 7.48740E+01 2.18750E+00 0.00000E+00
 -1       252 7.78740E+01 2.18750E+00 0.00000E+00
 -1       253 8.08740E+01 2.18750E+00 0.00000E+00
 -1       254 8.38740E+01 2.18750E+00 0.00000E+00
 -1       255 8.68740E+01 2.18750E+00 0.00000E+00
 -1       256 8.98740E+01 2.18750E+00 0.00000E+00
 -1       257 9.28740E+01 2.18750E+00 0.00000E+00
 -1       258 9.58740E+01 2.18750E+00 0.00000E+00
 -1       259 9.88740E+01 2.18750E+00 0.00000E+00
 -1       260 1.01874E+02 2.18750E+00 0.00000E+00
 -1       261 1.04874E+02 2.18750E+00 0.00000E+00
 -1       262 1.07874E+02 2.18750E+00 0.00000E+00
 -1       263 1.10874E+02 2.18750E+00 0.00000E+00
 -1       264 1.13874E+02 2.18750E+00 0.00000E+00
 -1       265 1.16874E+02 2.18750E+00 0.00000E+00
 -1       266 1.19874E+02 2.18750E+00 0.00000E+00
 -1       267 1.22874E+02 2.18750E+00 0.00000E+00
 -1       268 1.25874E+02 2.18750E+00 0.00000E+00
 -1       269 1.28874E+02 2.18750E+00 0.00000E+00
 -1       270 1.31874E+02 2.18750E+00 0.00000E+00
 -1       271 1.34874E+02 2.18750E+00 0.00000E+00
 -1       272 1.37874E+02 2.18750E+00 0.00000E+00
 -1       273 1.40874E+02 2.18750E+00 0.00000E+00
 -1       274 1.43874E+02 2.18750E+00 0.00000E+00
 -1       275 1.46874E+02 2.18750E+00 0.00000E+00
 -1       276 1.47402E+02 4.42500E+00 0.00000E+00
 -1       277 1.47402E+02 7.37500E+00 0.00000E+00
 -1       278 1.47402E+02 1.03250E+01 0.00000E+00
 -1       279 1.47402E+02 1.32750E+01 0.00000E+00
 -1       280 1.47402E+02 1.61750E+01 0.00000E+00
 -1       281 1.47402E+02 1.91250E+01 0.00000E+00
 -1       282 1.47402E+02 2.20750E+01 0.00000E+00
 -1       283 1.47402E+02 2.50250E+01 0.00000E+00
 -1       284 1.47402E+02 2.79750E+01 0.00000E+00
 -1       285 1.47402E+02 3.09250E+01 0.00000E+00
 -1       286 1.47402E+02 3.38250E+01 0.00000E+00
 -1       287 1.47402E+02 3.67750E+01 0.00000E+00
 -1       288 1.47402E+02 3.97250E+01 0.00000E+00
 -1       289 1.47402E+02 4.26750E+01 0.00000E+00
 -1       290 1.46526E+02 4.50385E+01 0.00000E+00
 -1       291 6.24056E+01 2.59284E+01 0.00000E+00
 -1       292 6.23243E+01 2.40504E+01 0.00000E+00
 -1       293 6.15292E+01 2.23280E+01 0.00000E+00
 -1       294 6.03104E+01 2.09096E+01 0.00000E+00
 -1       295 5.87392E+01 1.99289E+01 0.00000E+00
 -1       296 5.72415E+01 1.88094E+01 0.00000E+00
 -1       297 5.53947E+01 1.85939E+01 0.00000E+00
 -1       298 5.35442E+01 1.84774E+01 0.00000E+00
 -1       299 5.17347E+01 1.90096E+01 0.00000E+00
 -1       300 4.98733E+01 1.95066E+01 0.00000E+00
 -1       301 4.84095E+01 2.08578E+01 0.00000E+00
 -1       302 4.70747E+01 2.22507E+01 0.00000E+00
 -1       303 4.65032E+01 2.39836E+01 0.00000E+00
 -1       304 4.59237E+01 2.57161E+01 0.00000E+00
 -1       305 4.60605E+01 2.75824E+01 0.00000E+00
 -1       306 4.62908E+01 2.94428E+01 0.00000E+00
 -1       307 4.72206E+01 3.10621E+01 0.00000E+00
 -1       308 4.83765E+01 3.24297E+01 0.00000E+00
 -1       309 4.98246E+01 3.36170E+01 0.00000E+00
 -1       310 5.15004E+01 3.46325E+01 0.00000E+00
 -1       311 5.33509E+01 3.49770E+01 0.00000E+00
 -1       312 5.50595E+01 3.49169E+01 0.00000E+00
 -1       313 5.67376E+01 3.47443E+01 0.00000E+00
 -1       314 5.82744E+01 3.40044E+01 0.00000E+00
 -1       315 5.95617E+01 3.30160E+01 0.00000E+00
 -1       316 6.06716E+01 3.18730E+01 0.00000E+00
 -1       317 6.15319E+01 3.05506E+01 0.00000E+00
 -1       318 6.21190E+01 2.90959E+01 0.00000E+00
 -1       319 6.24178E+01 2.75576E+01 0.00000E+00
 -1       320 5.19600E+00 4.11500E+01 0.00000E+00
 -1       321 5.19600E+00 4.41000E+01 0.00000E+00
 -1       322 5.19600E+00 3.52750E+01 0.00000E+00
 -1       323 5.19600E+00 3.23250E+01 0.00000E+00
 -1       324 5.19600E+00 2.93750E+01 0.00000E+00
 -1       325 5.19600E+00 2.64250E+01 0.00000E+00
 -1       326 5.19600E+00 2.34750E+01 0.00000E+00
 -1       327 5.19600E+00 2.05250E+01 0.00000E+00
 -1       328 5.19600E+00 1.76250E+01 0.00000E+00
 -1       329 5.19600E+00 1.46750E+01 0.00000E+00
 -1       330 5.19600E+00 1.17250E+01 0.00000E+00
 -1       331 5.19600E+00 8.77500E+00 0.00000E+00
 -1       332 5.19600E+00 5.82500E+00 0.00000E+00
 -1       333 5.53500E+00 4.00625E+00 0.00000E+00
 -1       334 8.53500E+00 4.00625E+00 0.00000E+00
 -1       335 9.15000E+00 4.48040E+01 0.00000E+00
 -1       336 1.21500E+01 4.48040E+01 0.00000E+00
 -1       337 1.51500E+01 4.48040E+01 0.00000E+00
 -1       338 1.81500E+01 4.48040E+01 0.00000E+00
 -1       339 2.11500E+01 4.48040E+01 0.00000E+00
 -1       340 2.41500E+01 4.48040E+01 0.00000E+00
 -1       341 2.71500E+01 4.48040E+01 0.00000E+00
 -1       342 3.01500E+01 4.48040E+01 0.00000E+00
 -1       343 3.31500E+01 4.48040E+01 0.00000E+00
 -1       344 3.61500E+01 4.48040E+01 0.00000E+00
 -1       345 3.91500E+01 4.48040E+01 0.00000E+00
 -1       346 4.21500E+01 4.48040E+01 0.00000E+00
 -1       347 4.51500E+01 4.48040E+01 0.00000E+00
 -1       348 4.81500E+01 4.48040E+01 0.00000E+00
 -1       349 5.11500E+01 4.48040E+01 0.00000E+00
 -1       350 5.41500E+01 4.48040E+01 0.00000E+00
 -1       351 5.71500E+01 4.48040E+01 0.00000E+00
 -1       352 6.01500E+01 4.48040E+01 0.00000E+00
 -1       353 6.31500E+01 4.48040E+01 0.00000E+00
 -1       354 6.61500E+01 4.48040E+01 0.00000E+00
 -1       355 6.91500E+01 4.48040E+01 0.00000E+00
 -1       356 7.21500E+01 4.48040E+01 0.00000E+00
 -1       357 7.51500E+01 4.48040E+01 0.00000E+00
 -1       358 7.81500E+01 4.48040E+01 0.00000E+00
 -1       359 8.11500E+01 4.48040E+01 0.00000E+00
 -1       360 8.41500E+01 4.48040E+01 0.00000E+00
 -1       361 8.71500E+01 4.48040E+01 0.00000E+00
 -1       362 9.01500E+01 4.48040E+01 0.00000E+00
 -1       363 9.31500E+01 4.48040E+01 0.00000E+00
 -1       364 9.61500E+01 4.48040E+01 0.00000E+00
 -1       365 9.91500E+01 4.48040E+01 0.00000E+00
 -1       366 1.02150E+02 4.48040E+01 0.00000E+00
 -1       367 1.05150E+02 4.48040E+01 0.00000E+00
 -1       368 1.08150E+02 4.48040E+01 0.00000E+00
 -1       369 1.11150E+02 4.48040E+01 0.00000E+00
 -1       370 1.14150E+02 4.48040E+01 0.00000E+00
 -1       371 1.17150E+02 4.48040E+01 0.00000E+00
 -1       372 1.20150E+02 4.48040E+01 0.00000E+00
 -1       373 1.23150E+02 4.48040E+01 0.00000E+00
 -1       374 1.26150E+02 4.48040E+01 0.00000E+00
 -1       375 1.29150E+02 4.48040E+01 0.00000E+00
 -1       376 1.32150E+02 4.48040E+01 0.00000E+00
 -1       377 1.35150E+02 4.48040E+01 0.00000E+00
 -1       378 1.38150E+02 4.48040E+01 0.00000E+00
 -1       379 1.41150E+02 4.48040E+01 0.00000E+00
 -1       380 1.43838E+02 4.49212E+01 0.00000E+00
 -1       381 1.15350E+01 4.00625E+00 0.00000E+00
 -1       382 1.45350E+01 4.00625E+00 0.00000E+00
 -1       383 1.75350E+01 4.00625E+00 0.00000E+00
 -1       384 2.05350E+01 4.00625E+00 0.00000E+00
 -1       385 2.35350E+01 4.00625E+00 0.00000E+00
 -1       386 2.65350E+01 4.00625E+00 0.00000E+00
 -1       387 2.95350E+01 4.00625E+00 0.00000E+00
 -1       388 3.25350E+01 4.00625E+00 0.00000E+00
 -1       389 3.55350E+01 4.00625E+00 0.00000E+00
 -1       390 3.85350E+01 4.00625E+00 0.00000E+00
 -1       391 4.15350E+01 4.00625E+00 0.00000E+00
 -1       392 4.45350E+01 4.00625E+00 0.00000E+00
 -1       393 4.75350E+01 4.00625E+00 0.00000E+00
 -1       394 5.05350E+01 4.00625E+00 0.00000E+00
 -1       395 5.35350E+01 4.00625E+00 0.00000E+00
 -1       396 5.65350E+01 4.00625E+00 0.00000E+00
 -1       397 5.95350E+01 4.00625E+00 0.00000E+00
 -1       398 6.25350E+01 4.00625E+00 0.00000E+00
 -1       399 6.55350E+01 4.00625E+00 0.00000E+00
 -1       400 6.85350E+01 4.00625E+00 0.00000E+00
 -1       401 7.15350E+01 4.00625E+00 0.00000E+00
 -1       402 7.45350E+01 4.00625E+00 0.00000E+00
 -1       403 7.75350E+01 4.00625E+00 0.00000E+00
 -1       404 8.05350E+01 4.00625E+00 0.00000E+00
 -1       405 8.35350E+01 4.00625E+00 0.00000E+00
 -1       406 8.65350E+01 4.00625E+00 0.00000E+00
 -1       407 8.95350E+01 4.00625E+00 0.00000E+00
 -1       408 9.25350E+01 4.00625E+00 0.00000E+00
 -1       409 9.55350E+01 4.00625E+00 0.00000E+00
 -1       410 9.85350E+01 4.00625E+00 0.00000E+00
 -1       411 1.01535E+02 4.00625E+00 0.00000E+00
 -1       412 1.04535E+02 4.00625E+00 0.00000E+00
 -1       413 1.07535E+02 4.00625E+00 0.00000E+00
 -1       414 1.10535E+02 4.00625E+00 0.00000E+00
 -1       415 1.13535E+02 4.00625E+00 0.00000E+00
 -1       416 1.16535E+02 4.00625E+00 0.00000E+00
 -1       417 1.19535E+02 4.00625E+00 0.00000E+00
 -1       418 1.22535E+02 4.00625E+00 0.00000E+00
 -1       419 1.25535E+02 4.00625E+00 0.00000E+00
 -1       420 1.28535E+02 4.00625E+00 0.00000E+00
 -1       421 1.31535E+02 4.00625E+00 0.00000E+00
 -1       422 1.34535E+02 4.00625E+00 0.00000E+00
 -1       423 1.37535E+02 4.00625E+00 0.00000E+00
 -1       424 1.40535E+02 4.00625E+00 0.00000E+00
 -1       425 1.43535E+02 4.00625E+00 0.00000E+00
 -1       426 1.45469E+02 4.21562E+00 0.00000E+00
 -1       427 1.44804E+02 1.18000E+01 0.00000E+00
 -1       428 1.44804E+02 8.85000E+00 0.00000E+00
 -1       429 1.45136E+02 6.53281E+00 0.00000E+00
 -1       430 1.44804E+02 1.47000E+01 0.00000E+00
 -1       431 1.44804E+02 1.76500E+01 0.00000E+00
 -1       432 1.44804E+02 2.06000E+01 0.00000E+00
 -1       433 1.44804E+02 2.35500E+01 0.00000E+00
 -1       434 1.44804E+02 2.65000E+01 0.00000E+00
 -1       435 1.44804E+02 2.94500E+01 0.00000E+00
 -1       436 1.44804E+02 3.23500E+01 0.00000E+00
 -1       437 1.44804E+02 3.53000E+01 0.00000E+00
 -1       438 1.44804E+02 3.82500E+01 0.00000E+00
 -1       439 1.44804E+02 4.12000E+01 0.00000E+00
 -1       440 6.34840E+01 2.24704E+01 0.00000E+00
 -1       441 6.39592E+01 2.67314E+01 0.00000E+00
 -1       442 6.38779E+01 2.48535E+01 0.00000E+00
 -1       443 6.21570E+01 2.05556E+01 0.00000E+00
 -1       444 6.03442E+01 1.91065E+01 0.00000E+00
 -1       445 5.19600E+00 3.82125E+01 0.00000E+00
 -1       446 5.65072E+01 1.70813E+01 0.00000E+00
 -1       447 5.46567E+01 1.69649E+01 0.00000E+00
 -1       448 5.22501E+01 1.74196E+01 0.00000E+00
 -1       449 5.03887E+01 1.79166E+01 0.00000E+00
 -1       450 4.81486E+01 1.91066E+01 0.00000E+00
 -1       451 4.65038E+01 2.03676E+01 0.00000E+00
 -1       452 4.52397E+01 2.26063E+01 0.00000E+00
 -1       453 4.46601E+01 2.43388E+01 0.00000E+00
 -1       454 4.46994E+01 2.67440E+01 0.00000E+00
 -1       455 4.45566E+01 2.87130E+01 0.00000E+00
 -1       456 4.55589E+01 3.09396E+01 0.00000E+00
 -1       457 4.67446E+01 3.26367E+01 0.00000E+00
 -1       458 4.80663E+01 3.42849E+01 0.00000E+00
 -1       459 4.97737E+01 3.55916E+01 0.00000E+00
 -1       460 5.21270E+01 3.64085E+01 0.00000E+00
 -1       461 5.42715E+01 3.68285E+01 0.00000E+00
 -1       462 5.59496E+01 3.66559E+01 0.00000E+00
 -1       463 5.81774E+01 3.57687E+01 0.00000E+00
 -1       464 5.98605E+01 3.47377E+01 0.00000E+00
 -1       465 6.10466E+01 3.33475E+01 0.00000E+00
 -1       466 6.23287E+01 3.20100E+01 0.00000E+00
 -1       467 6.31051E+01 3.03397E+01 0.00000E+00
 -1       468 6.36230E+01 2.85898E+01 0.00000E+00
 -1       469 5.88466E+01 1.79870E+01 0.00000E+00
 -1       470 4.86640E+01 1.75166E+01 0.00000E+00
 -1       471 1.00350E+01 6.60425E+00 0.00000E+00
 -1       472 7.79400E+00 3.08500E+01 0.00000E+00
 -1       473 7.79400E+00 3.38000E+01 0.00000E+00
 -1       474 7.79400E+00 2.49500E+01 0.00000E+00
 -1       475 7.79400E+00 2.20000E+01 0.00000E+00
 -1       476 7.79400E+00 1.91000E+01 0.00000E+00
 -1       477 7.79400E+00 1.61500E+01 0.00000E+00
 -1       478 7.79400E+00 1.32000E+01 0.00000E+00
 -1       479 7.79400E+00 1.02500E+01 0.00000E+00
 -1       480 6.55384E+01 2.33549E+01 0.00000E+00
 -1       481 1.30350E+01 6.60425E+00 0.00000E+00
 -1       482 1.06500E+01 4.22060E+01 0.00000E+00
 -1       483 5.84171E+01 1.56222E+01 0.00000E+00
 -1       484 1.36500E+01 4.22060E+01 0.00000E+00
 -1       485 1.66500E+01 4.22060E+01 0.00000E+00
 -1       486 1.96500E+01 4.22060E+01 0.00000E+00
 -1       487 2.26500E+01 4.22060E+01 0.00000E+00
 -1       488 2.56500E+01 4.22060E+01 0.00000E+00
 -1       489 2.86500E+01 4.22060E+01 0.00000E+00
 -1       490 3.16500E+01 4.22060E+01 0.00000E+00
 -1       491 3.46500E+01 4.22060E+01 0.00000E+00
 -1       492 3.76500E+01 4.22060E+01 0.00000E+00
 -1       493 4.06500E+01 4.22060E+01 0.00000E+00
 -1       494 4.36500E+01 4.22060E+01 0.00000E+00
 -1       495 4.66500E+01 4.22060E+01 0.00000E+00
 -1       496 4.96500E+01 4.22060E+01 0.00000E+00
 -1       497 5.26500E+01 4.22060E+01 0.00000E+00
 -1       498 5.56500E+01 4.22060E+01 0.00000E+00
 -1       499 5.86500E+01 4.22060E+01 0.00000E+00
 -1       500 6.16500E+01 4.22060E+01 0.00000E+00
 -1       501 6.46500E+01 4.22060E+01 0.00000E+00
 -1       502 6.76500E+01 4.22060E+01 0.00000E+00
 -1       503 7.06500E+01 4.22060E+01 0.00000E+00
 -1       504 7.36500E+01 4.22060E+01 0.00000E+00
 -1       505 7.66500E+01 4.22060E+01 0.00000E+00
 -1       506 7.96500E+01 4.22060E+01 0.00000E+00
 -1       507 8.26500E+01 4.22060E+01 0.00000E+00
 -1       508 8.56500E+01 4.22060E+01 0.00000E+00
 -1       509 8.86500E+01 4.22060E+01 0.00000E+00
 -1       510 9.16500E+01 4.22060E+01 0.00000E+00
 -1       511 9.46500E+01 4.22060E+01 0.00000E+00
 -1       512 9.76500E+01 4.22060E+01 0.00000E+00
 -1       513 1.00650E+02 4.22060E+01 0.00000E+00
 -1       514 1.03650E+02 4.22060E+01 0.00000E+00
 -1       515 1.06650E+02 4.22060E+01 0.00000E+00
 -1       516 1.09650E+02 4.22060E+01 0.00000E+00
 -1       517 1.12650E+02 4.22060E+01 0.00000E+00
 -1       518 1.15650E+02 4.22060E+01 0.00000E+00
 -1       519 1.18650E+02 4.22060E+01 0.00000E+00
 -1       520 1.21650E+02 4.22060E+01 0.00000E+00
 -1       521 1.24650E+02 4.22060E+01 0.00000E+00
 -1       522 1.27650E+02 4.22060E+01 0.00000E+00
 -1       523 1.30650E+02 4.22060E+01 0.00000E+00
 -1       524 1.33650E+02 4.22060E+01 0.00000E+00
 -1       525 1.36650E+02 4.22060E+01 0.00000E+00
 -1       526 1.39650E+02 4.22060E+01 0.00000E+00
 -1       527 1.90350E+01 6.60425E+00 0.00000E+00
 -1       528 2.20350E+01 6.60425E+00 0.00000E+00
 -1       529 2.50350E+01 6.60425E+00 0.00000E+00
 -1       530 2.80350E+01 6.60425E+00 0.00000E+00
 -1       531 3.10350E+01 6.60425E+00 0.00000E+00
 -1       532 3.40350E+01 6.60425E+00 0.00000E+00
 -1       533 3.70350E+01 6.60425E+00 0.00000E+00
 -1       534 4.00350E+01 6.60425E+00 0.00000E+00
 -1       535 4.30350E+01 6.60425E+00 0.00000E+00
 -1       536 4.60350E+01 6.60425E+00 0.00000E+00
 -1       537 4.90350E+01 6.60425E+00 0.00000E+00
 -1       538 5.20350E+01 6.60425E+00 0.00000E+00
 -1       539 5.50350E+01 6.60425E+00 0.00000E+00
 -1       540 5.80350E+01 6.60425E+00 0.00000E+00
 -1       541 6.10350E+01 6.60425E+00 0.00000E+00
 -1       542 6.40350E+01 6.60425E+00 0.00000E+00
 -1       543 6.70350E+01 6.60425E+00 0.00000E+00
 -1       544 7.00350E+01 6.60425E+00 0.00000E+00
 -1       545 7.30350E+01 6.60425E+00 0.00000E+00
 -1       546 7.60350E+01 6.60425E+00 0.00000E+00
 -1       547 7.90350E+01 6.60425E+00 0.00000E+00
 -1       548 8.20350E+01 6.60425E+00 0.00000E+00
 -1       549 8.50350E+01 6.60425E+00 0.00000E+00
 -1       550 8.80350E+01 6.60425E+00 0.00000E+00
 -1       551 9.10350E+01 6.60425E+00 0.00000E+00
 -1       552 9.40350E+01 6.60425E+00 0.00000E+00
 -1       553 9.70350E+01 6.60425E+00 0.00000E+00
 -1       554 1.00035E+02 6.60425E+00 0.00000E+00
 -1       555 1.03035E+02 6.60425E+00 0.00000E+00
 -1       556 1.06035E+02 6.60425E+00 0.00000E+00
 -1       557 1.09035E+02 6.60425E+00 0.00000E+00
 -1       558 1.12035E+02 6.60425E+00 0.00000E+00
 -1       559 1.15035E+02 6.60425E+00 0.00000E+00
 -1       560 1.18035E+02 6.60425E+00 0.00000E+00
 -1       561 1.21035E+02 6.60425E+00 0.00000E+00
 -1       562 1.24035E+02 6.60425E+00 0.00000E+00
 -1       563 1.27035E+02 6.60425E+00 0.00000E+00
 -1       564 1.30035E+02 6.60425E+00 0.00000E+00
 -1       565 1.33035E+02 6.60425E+00 0.00000E+00
 -1       566 1.36035E+02 6.60425E+00 0.00000E+00
 -1       567 1.39035E+02 6.60425E+00 0.00000E+00
 -1       568 1.42035E+02 6.60425E+00 0.00000E+00
 -1       569 1.42206E+02 1.61750E+01 0.00000E+00
 -1       570 1.42206E+02 1.91250E+01 0.00000E+00
 -1       571 1.42206E+02 1.03250E+01 0.00000E+00
 -1       572 1.42206E+02 1.32500E+01 0.00000E+00
 -1       573 1.42206E+02 2.20750E+01 0.00000E+00
 -1       574 1.42206E+02 2.50250E+01 0.00000E+00
 -1       575 1.42206E+02 2.79750E+01 0.00000E+00
 -1       576 1.42206E+02 3.08750E+01 0.00000E+00
 -1       577 1.42206E+02 3.38250E+01 0.00000E+00
 -1       578 1.42206E+02 3.67750E+01 0.00000E+00
 -1       579 1.42206E+02 3.97250E+01 0.00000E+00
 -1       580 6.42302E+01 2.05360E+01 0.00000E+00
 -1       581 6.53139E+01 2.79361E+01 0.00000E+00
 -1       582 1.60350E+01 6.60425E+00 0.00000E+00
 -1       583 6.52972E+01 2.57328E+01 0.00000E+00
 -1       584 6.48480E+01 2.99039E+01 0.00000E+00
 -1       585 7.92300E+00 4.16780E+01 0.00000E+00
 -1       586 6.26354E+01 1.80987E+01 0.00000E+00
 -1       587 5.28696E+01 3.83016E+01 0.00000E+00
 -1       588 4.43783E+01 2.06436E+01 0.00000E+00
 -1       589 7.79400E+00 2.79000E+01 0.00000E+00
 -1       590 4.63336E+01 1.84425E+01 0.00000E+00
 -1       591 5.56897E+01 1.53114E+01 0.00000E+00
 -1       592 5.31505E+01 1.55893E+01 0.00000E+00
 -1       593 5.08769E+01 1.60110E+01 0.00000E+00
 -1       594 4.29174E+01 2.76045E+01 0.00000E+00
 -1       595 4.35618E+01 2.30082E+01 0.00000E+00
 -1       596 5.98710E+01 3.66443E+01 0.00000E+00
 -1       597 4.28782E+01 2.51992E+01 0.00000E+00
 -1       598 4.34938E+01 3.05303E+01 0.00000E+00
 -1       599 4.47458E+01 3.27704E+01 0.00000E+00
 -1       600 4.60674E+01 3.45338E+01 0.00000E+00
 -1       601 4.78776E+01 3.63002E+01 0.00000E+00
 -1       602 5.02230E+01 3.80952E+01 0.00000E+00
 -1       603 5.53202E+01 3.87817E+01 0.00000E+00
 -1       604 5.77601E+01 3.79614E+01 0.00000E+00
 -1       605 6.18858E+01 3.52645E+01 0.00000E+00
 -1       606 6.31679E+01 3.39271E+01 0.00000E+00
 -1       607 6.41963E+01 3.18625E+01 0.00000E+00
 -1       608 6.05263E+01 1.68604E+01 0.00000E+00
 -1       609 7.61550E+00 6.21462E+00 0.00000E+00
 -1       610 7.79400E+00 3.67375E+01 0.00000E+00
 -1       611 6.62846E+01 2.14206E+01 0.00000E+00
 -1       612 1.41678E+02 4.22645E+01 0.00000E+00
 -1       613 4.18546E+01 2.94218E+01 0.00000E+00
 -1       614 4.91522E+01 1.56111E+01 0.00000E+00
 -1       615 4.42081E+01 1.87185E+01 0.00000E+00
 -1       616 1.03920E+01 2.05500E+01 0.00000E+00
 -1       617 1.03920E+01 2.35000E+01 0.00000E+00
 -1       618 1.03920E+01 1.46750E+01 0.00000E+00
 -1       619 1.03920E+01 1.17250E+01 0.00000E+00
 -1       620 6.51485E+01 1.81948E+01 0.00000E+00
 -1       621 1.15350E+01 9.20225E+00 0.00000E+00
 -1       622 6.72909E+01 2.47338E+01 0.00000E+00
 -1       623 5.99008E+01 3.90423E+01 0.00000E+00
 -1       624 1.51500E+01 3.96080E+01 0.00000E+00
 -1       625 1.81500E+01 3.96080E+01 0.00000E+00
 -1       626 2.11500E+01 3.96080E+01 0.00000E+00
 -1       627 2.41500E+01 3.96080E+01 0.00000E+00
 -1       628 2.71500E+01 3.96080E+01 0.00000E+00
 -1       629 3.01500E+01 3.96080E+01 0.00000E+00
 -1       630 3.31500E+01 3.96080E+01 0.00000E+00
 -1       631 3.61500E+01 3.96080E+01 0.00000E+00
 -1       632 3.91500E+01 3.96080E+01 0.00000E+00
 -1       633 4.21500E+01 3.96080E+01 0.00000E+00
 -1       634 4.51500E+01 3.96080E+01 0.00000E+00
 -1       635 6.29008E+01 3.90423E+01 0.00000E+00
 -1       636 6.59008E+01 3.90423E+01 0.00000E+00
 -1       637 6.89008E+01 3.90423E+01 0.00000E+00
 -1       638 7.19008E+01 3.90423E+01 0.00000E+00
 -1       639 7.49008E+01 3.90423E+01 0.00000E+00
 -1       640 7.79008E+01 3.90423E+01 0.00000E+00
 -1       641 8.09008E+01 3.90423E+01 0.00000E+00
 -1       642 8.39008E+01 3.90423E+01 0.00000E+00
 -1       643 8.69008E+01 3.90423E+01 0.00000E+00
 -1       644 8.99008E+01 3.90423E+01 0.00000E+00
 -1       645 9.29008E+01 3.90423E+01 0.00000E+00
 -1       646 9.59008E+01 3.90423E+01 0.00000E+00
 -1       647 9.89008E+01 3.90423E+01 0.00000E+00
 -1       648 1.01901E+02 3.90423E+01 0.00000E+00
 -1       649 1.04901E+02 3.90423E+01 0.00000E+00
 -1       650 1.07901E+02 3.90423E+01 0.00000E+00
 -1       651 1.10901E+02 3.90423E+01 0.00000E+00
 -1       652 1.13901E+02 3.90423E+01 0.00000E+00
 -1       653 1.16901E+02 3.90423E+01 0.00000E+00
 -1       654 1.19901E+02 3.90423E+01 0.00000E+00
 -1       655 1.22901E+02 3.90423E+01 0.00000E+00
 -1       656 1.25901E+02 3.90423E+01 0.00000E+00
 -1       657 1.28901E+02 3.90423E+01 0.00000E+00
 -1       658 1.31901E+02 3.90423E+01 0.00000E+00
 -1       659 1.34901E+02 3.90423E+01 0.00000E+00
 -1       660 1.37901E+02 3.90423E+01 0.00000E+00
 -1       661 2.35350E+01 9.20225E+00 0.00000E+00
 -1       662 4.39001E+01 3.47812E+01 0.00000E+00
 -1       663 2.05350E+01 9.20225E+00 0.00000E+00
 -1       664 2.95350E+01 9.20225E+00 0.00000E+00
 -1       665 3.25350E+01 9.20225E+00 0.00000E+00
 -1       666 3.55350E+01 9.20225E+00 0.00000E+00
 -1       667 3.85350E+01 9.20225E+00 0.00000E+00
 -1       668 4.15350E+01 9.20225E+00 0.00000E+00
 -1       669 4.45350E+01 9.20225E+00 0.00000E+00
 -1       670 4.75350E+01 9.20225E+00 0.00000E+00
 -1       671 5.05350E+01 9.20225E+00 0.00000E+00
 -1       672 5.35350E+01 9.20225E+00 0.00000E+00
 -1       673 5.65350E+01 9.20225E+00 0.00000E+00
 -1       674 5.95350E+01 9.20225E+00 0.00000E+00
 -1       675 6.25350E+01 9.20225E+00 0.00000E+00
 -1       676 6.55350E+01 9.20225E+00 0.00000E+00
 -1       677 6.85350E+01 9.20225E+00 0.00000E+00
 -1       678 7.15350E+01 9.20225E+00 0.00000E+00
 -1       679 7.45350E+01 9.20225E+00 0.00000E+00
 -1       680 7.75350E+01 9.20225E+00 0.00000E+00
 -1       681 8.05350E+01 9.20225E+00 0.00000E+00
 -1       682 8.35350E+01 9.20225E+00 0.00000E+00
 -1       683 8.65350E+01 9.20225E+00 0.00000E+00
 -1       684 8.95350E+01 9.20225E+00 0.00000E+00
 -1       685 9.25350E+01 9.20225E+00 0.00000E+00
 -1       686 9.55350E+01 9.20225E+00 0.00000E+00
 -1       687 9.85350E+01 9.20225E+00 0.00000E+00
 -1       688 1.01535E+02 9.20225E+00 0.00000E+00
 -1       689 1.04535E+02 9.20225E+00 0.00000E+00
 -1       690 1.07535E+02 9.20225E+00 0.00000E+00
 -1       691 1.10535E+02 9.20225E+00 0.00000E+00
 -1       692 1.13535E+02 9.20225E+00 0.00000E+00
 -1       693 1.16535E+02 9.20225E+00 0.00000E+00
 -1       694 1.19535E+02 9.20225E+00 0.00000E+00
 -1       695 1.22535E+02 9.20225E+00 0.00000E+00
 -1       696 1.25535E+02 9.20225E+00 0.00000E+00
 -1       697 1.28535E+02 9.20225E+00 0.00000E+00
 -1       698 1.31535E+02 9.20225E+00 0.00000E+00
 -1       699 1.34535E+02 9.20225E+00 0.00000E+00
 -1       700 1.37535E+02 9.20225E+00 0.00000E+00
 -1       701 1.39870E+02 9.76363E+00 0.00000E+00
 -1       702 1.39608E+02 2.35500E+01 0.00000E+00
 -1       703 1.40053E+02 3.93836E+01 0.00000E+00
 -1       704 1.39608E+02 1.76500E+01 0.00000E+00
 -1       705 1.39608E+02 2.65000E+01 0.00000E+00
 -1       706 1.39608E+02 2.06000E+01 0.00000E+00
 -1       707 1.75350E+01 9.20225E+00 0.00000E+00
 -1       708 1.39608E+02 2.94000E+01 0.00000E+00
 -1       709 1.39608E+02 3.23500E+01 0.00000E+00
 -1       710 1.39608E+02 3.53000E+01 0.00000E+00
 -1       711 4.08478E+01 2.64353E+01 0.00000E+00
 -1       712 9.78035E+00 3.93914E+01 0.00000E+00
 -1       713 6.66684E+01 2.92958E+01 0.00000E+00
 -1       714 4.79061E+01 3.86928E+01 0.00000E+00
 -1       715 2.65350E+01 9.20225E+00 0.00000E+00
 -1       716 1.24652E+01 3.94997E+01 0.00000E+00
 -1       717 6.61495E+01 3.14248E+01 0.00000E+00
 -1       718 5.72666E+01 1.35962E+01 0.00000E+00
 -1       719 1.03920E+01 1.76125E+01 0.00000E+00
 -1       720 5.41970E+01 1.34122E+01 0.00000E+00
 -1       721 4.24764E+01 3.25688E+01 0.00000E+00
 -1       722 1.03920E+01 3.23250E+01 0.00000E+00
 -1       723 5.17009E+01 1.41138E+01 0.00000E+00
 -1       724 4.21904E+01 2.12114E+01 0.00000E+00
 -1       725 6.73076E+01 2.69371E+01 0.00000E+00
 -1       726 4.56577E+01 3.67644E+01 0.00000E+00
 -1       727 4.15069E+01 2.34025E+01 0.00000E+00
 -1       728 1.45350E+01 9.20225E+00 0.00000E+00
 -1       729 4.68219E+01 1.65369E+01 0.00000E+00
 -1       730 6.55173E+01 3.38089E+01 0.00000E+00
 -1       731 6.37649E+01 3.57827E+01 0.00000E+00
 -1       732 6.18329E+01 3.74125E+01 0.00000E+00
 -1       733 1.03920E+01 3.52625E+01 0.00000E+00
 -1       734 1.03920E+01 2.64500E+01 0.00000E+00
 -1       735 6.72029E+01 1.90793E+01 0.00000E+00
 -1       736 6.39767E+01 1.59305E+01 0.00000E+00
 -1       737 1.39608E+02 1.47250E+01 0.00000E+00
 -1       738 1.39739E+02 1.22443E+01 0.00000E+00
 -1       739 6.80371E+01 2.27995E+01 0.00000E+00
 -1       740 6.05097E+01 1.44732E+01 0.00000E+00
 -1       741 4.08371E+01 3.14604E+01 0.00000E+00
 -1       742 4.20203E+01 1.92863E+01 0.00000E+00
 -1       743 1.03920E+01 2.93875E+01 0.00000E+00
 -1       744 5.93592E+01 1.24473E+01 0.00000E+00
 -1       745 4.46964E+01 1.68129E+01 0.00000E+00
 -1       746 4.99762E+01 1.37138E+01 0.00000E+00
 -1       747 6.22432E+01 1.52019E+01 0.00000E+00
 -1       748 1.29900E+01 1.32000E+01 0.00000E+00
 -1       749 4.32445E+01 3.71326E+01 0.00000E+00
 -1       750 6.65323E+01 1.60434E+01 0.00000E+00
 -1       751 5.58745E+01 1.11231E+01 0.00000E+00
 -1       752 1.96500E+01 3.70100E+01 0.00000E+00
 -1       753 2.26500E+01 3.70100E+01 0.00000E+00
 -1       754 2.56500E+01 3.70100E+01 0.00000E+00
 -1       755 2.86500E+01 3.70100E+01 0.00000E+00
 -1       756 3.16500E+01 3.70100E+01 0.00000E+00
 -1       757 3.46500E+01 3.70100E+01 0.00000E+00
 -1       758 3.76500E+01 3.70100E+01 0.00000E+00
 -1       759 6.74008E+01 3.64443E+01 0.00000E+00
 -1       760 7.04008E+01 3.64443E+01 0.00000E+00
 -1       761 7.34008E+01 3.64443E+01 0.00000E+00
 -1       762 7.64008E+01 3.64443E+01 0.00000E+00
 -1       763 7.94008E+01 3.64443E+01 0.00000E+00
 -1       764 8.24008E+01 3.64443E+01 0.00000E+00
 -1       765 8.54008E+01 3.64443E+01 0.00000E+00
 -1       766 8.84008E+01 3.64443E+01 0.00000E+00
 -1       767 9.14008E+01 3.64443E+01 0.00000E+00
 -1       768 9.44008E+01 3.64443E+01 0.00000E+00
 -1       769 9.74008E+01 3.64443E+01 0.00000E+00
 -1       770 1.00401E+02 3.64443E+01 0.00000E+00
 -1       771 1.03401E+02 3.64443E+01 0.00000E+00
 -1       772 1.06401E+02 3.64443E+01 0.00000E+00
 -1       773 1.09401E+02 3.64443E+01 0.00000E+00
 -1       774 1.12401E+02 3.64443E+01 0.00000E+00
 -1       775 1.15401E+02 3.64443E+01 0.00000E+00
 -1       776 1.18401E+02 3.64443E+01 0.00000E+00
 -1       777 1.21401E+02 3.64443E+01 0.00000E+00
 -1       778 1.24401E+02 3.64443E+01 0.00000E+00
 -1       779 1.27401E+02 3.64443E+01 0.00000E+00
 -1       780 1.30401E+02 3.64443E+01 0.00000E+00
 -1       781 1.33401E+02 3.64443E+01 0.00000E+00
 -1       782 1.36401E+02 3.64443E+01 0.00000E+00
 -1       783 1.37010E+02 2.79500E+01 0.00000E+00
 -1       784 3.40350E+01 1.18003E+01 0.00000E+00
 -1       785 3.10350E+01 1.18003E+01 0.00000E+00
 -1       786 4.00350E+01 1.18003E+01 0.00000E+00
 -1       787 4.30350E+01 1.18003E+01 0.00000E+00
 -1       788 4.60350E+01 1.18003E+01 0.00000E+00
 -1       789 6.40350E+01 1.18003E+01 0.00000E+00
 -1       790 6.70350E+01 1.18003E+01 0.00000E+00
 -1       791 7.00350E+01 1.18003E+01 0.00000E+00
 -1       792 7.30350E+01 1.18003E+01 0.00000E+00
 -1       793 7.60350E+01 1.18003E+01 0.00000E+00
 -1       794 7.90350E+01 1.18003E+01 0.00000E+00
 -1       795 8.20350E+01 1.18003E+01 0.00000E+00
 -1       796 8.50350E+01 1.18003E+01 0.00000E+00
 -1       797 8.80350E+01 1.18003E+01 0.00000E+00
 -1       798 9.10350E+01 1.18003E+01 0.00000E+00
 -1       799 9.40350E+01 1.18003E+01 0.00000E+00
 -1       800 9.70350E+01 1.18003E+01 0.00000E+00
 -1       801 1.00035E+02 1.18003E+01 0.00000E+00
 -1       802 1.03035E+02 1.18003E+01 0.00000E+00
 -1       803 1.06035E+02 1.18003E+01 0.00000E+00
 -1       804 1.09035E+02 1.18003E+01 0.00000E+00
 -1       805 1.12035E+02 1.18003E+01 0.00000E+00
 -1       806 1.15035E+02 1.18003E+01 0.00000E+00
 -1       807 1.18035E+02 1.18003E+01 0.00000E+00
 -1       808 1.21035E+02 1.18003E+01 0.00000E+00
 -1       809 1.24035E+02 1.18003E+01 0.00000E+00
 -1       810 1.27035E+02 1.18003E+01 0.00000E+00
 -1       811 1.30035E+02 1.18003E+01 0.00000E+00
 -1       812 1.33035E+02 1.18003E+01 0.00000E+00
 -1       813 1.36035E+02 1.18003E+01 0.00000E+00
 -1       814 1.37887E+02 1.20223E+01 0.00000E+00
 -1       815 1.29900E+01 2.20250E+01 0.00000E+00
 -1       816 1.37010E+02 3.09000E+01 0.00000E+00
 -1       817 1.37010E+02 2.50000E+01 0.00000E+00
 -1       818 6.96846E+01 2.58173E+01 0.00000E+00
 -1       819 3.92496E+01 2.86370E+01 0.00000E+00
 -1       820 3.70350E+01 1.18003E+01 0.00000E+00
 -1       821 1.37625E+01 1.12011E+01 0.00000E+00
 -1       822 2.20350E+01 1.18003E+01 0.00000E+00
 -1       823 1.66500E+01 3.70100E+01 0.00000E+00
 -1       824 6.79771E+01 3.31853E+01 0.00000E+00
 -1       825 1.90350E+01 1.18003E+01 0.00000E+00
 -1       826 4.72300E+01 1.41686E+01 0.00000E+00
 -1       827 4.14641E+01 3.47845E+01 0.00000E+00
 -1       828 4.02114E+01 2.17961E+01 0.00000E+00
 -1       829 6.84960E+01 3.10564E+01 0.00000E+00
 -1       830 6.91352E+01 2.86976E+01 0.00000E+00
 -1       831 3.91739E+01 2.44835E+01 0.00000E+00
 -1       832 1.29900E+01 2.49750E+01 0.00000E+00
 -1       833 2.50350E+01 1.18003E+01 0.00000E+00
 -1       834 1.37010E+02 1.61875E+01 0.00000E+00
 -1       835 5.26179E+01 1.16580E+01 0.00000E+00
 -1       836 3.75756E+01 2.66852E+01 0.00000E+00
 -1       837 1.29900E+01 3.37938E+01 0.00000E+00
 -1       838 1.39652E+01 3.69017E+01 0.00000E+00
 -1       839 1.37010E+02 2.20500E+01 0.00000E+00
 -1       840 2.80350E+01 1.18003E+01 0.00000E+00
 -1       841 1.37010E+02 1.91187E+01 0.00000E+00
 -1       842 1.29900E+01 1.90875E+01 0.00000E+00
 -1       843 7.04308E+01 2.38830E+01 0.00000E+00
 -1       844 1.37010E+02 3.38250E+01 0.00000E+00
 -1       845 6.89554E+01 2.04583E+01 0.00000E+00
 -1       846 4.51045E+01 1.44446E+01 0.00000E+00
 -1       847 3.98249E+01 3.36761E+01 0.00000E+00
 -1       848 4.00412E+01 1.98710E+01 0.00000E+00
 -1       849 1.29900E+01 1.61375E+01 0.00000E+00
 -1       850 4.25085E+01 1.73807E+01 0.00000E+00
 -1       851 1.63988E+01 1.15007E+01 0.00000E+00
 -1       852 1.29900E+01 3.08563E+01 0.00000E+00
 -1       853 2.41500E+01 3.44120E+01 0.00000E+00
 -1       854 2.71500E+01 3.44120E+01 0.00000E+00
 -1       855 3.01500E+01 3.44120E+01 0.00000E+00
 -1       856 3.31500E+01 3.44120E+01 0.00000E+00
 -1       857 3.61500E+01 3.44120E+01 0.00000E+00
 -1       858 7.19008E+01 3.38463E+01 0.00000E+00
 -1       859 7.49008E+01 3.38463E+01 0.00000E+00
 -1       860 7.79008E+01 3.38463E+01 0.00000E+00
 -1       861 8.09008E+01 3.38463E+01 0.00000E+00
 -1       862 8.39008E+01 3.38463E+01 0.00000E+00
 -1       863 8.69008E+01 3.38463E+01 0.00000E+00
 -1       864 8.99008E+01 3.38463E+01 0.00000E+00
 -1       865 9.29008E+01 3.38463E+01 0.00000E+00
 -1       866 9.59008E+01 3.38463E+01 0.00000E+00
 -1       867 9.89008E+01 3.38463E+01 0.00000E+00
 -1       868 1.01901E+02 3.38463E+01 0.00000E+00
 -1       869 1.04901E+02 3.38463E+01 0.00000E+00
 -1       870 1.07901E+02 3.38463E+01 0.00000E+00
 -1       871 1.10901E+02 3.38463E+01 0.00000E+00
 -1       872 1.13901E+02 3.38463E+01 0.00000E+00
 -1       873 1.16901E+02 3.38463E+01 0.00000E+00
 -1       874 1.19901E+02 3.38463E+01 0.00000E+00
 -1       875 1.22901E+02 3.38463E+01 0.00000E+00
 -1       876 1.25901E+02 3.38463E+01 0.00000E+00
 -1       877 1.28901E+02 3.38463E+01 0.00000E+00
 -1       878 1.31901E+02 3.38463E+01 0.00000E+00
 -1       879 1.34455E+02 3.38356E+01 0.00000E+00
 -1       880 1.37449E+02 1.41049E+01 0.00000E+00
 -1       881 4.15350E+01 1.43982E+01 0.00000E+00
 -1       882 6.85350E+01 1.43982E+01 0.00000E+00
 -1       883 7.45350E+01 1.43982E+01 0.00000E+00
 -1       884 7.75350E+01 1.43982E+01 0.00000E+00
 -1       885 8.05350E+01 1.43982E+01 0.00000E+00
 -1       886 8.35350E+01 1.43982E+01 0.00000E+00
 -1       887 8.65350E+01 1.43982E+01 0.00000E+00
 -1       888 8.95350E+01 1.43982E+01 0.00000E+00
 -1       889 9.25350E+01 1.43982E+01 0.00000E+00
 -1       890 9.55350E+01 1.43982E+01 0.00000E+00
 -1       891 9.85350E+01 1.43982E+01 0.00000E+00
 -1       892 1.01535E+02 1.43982E+01 0.00000E+00
 -1       893 1.04535E+02 1.43982E+01 0.00000E+00
 -1       894 1.07535E+02 1.43982E+01 0.00000E+00
 -1       895 1.10535E+02 1.43982E+01 0.00000E+00
 -1       896 1.13535E+02 1.43982E+01 0.00000E+00
 -1       897 1.16535E+02 1.43982E+01 0.00000E+00
 -1       898 1.19535E+02 1.43982E+01 0.00000E+00
 -1       899 1.22535E+02 1.43982E+01 0.00000E+00
 -1       900 1.25535E+02 1.43982E+01 0.00000E+00
 -1       901 1.28535E+02 1.43982E+01 0.00000E+00
 -1       902 1.31535E+02 1.43982E+01 0.00000E+00
 -1       903 1.34412E+02 2.64750E+01 0.00000E+00
 -1       904 7.15350E+01 1.43982E+01 0.00000E+00
 -1       905 7.14238E+01 2.76416E+01 0.00000E+00
 -1       906 3.78181E+01 3.13000E+01 0.00000E+00
 -1       907 1.34412E+02 2.94250E+01 0.00000E+00
 -1       908 2.05350E+01 1.43982E+01 0.00000E+00
 -1       909 3.25350E+01 1.43982E+01 0.00000E+00
 -1       910 2.11500E+01 3.44120E+01 0.00000E+00
 -1       911 7.09562E+01 3.04571E+01 0.00000E+00
 -1       912 1.29900E+01 2.79188E+01 0.00000E+00
 -1       913 3.77800E+01 2.24014E+01 0.00000E+00
 -1       914 6.22358E+01 1.27930E+01 0.00000E+00
 -1       915 6.82848E+01 1.74223E+01 0.00000E+00
 -1       916 1.81500E+01 3.44120E+01 0.00000E+00
 -1       917 2.35350E+01 1.43982E+01 0.00000E+00
 -1       918 1.55880E+01 2.35000E+01 0.00000E+00
 -1       919 3.61441E+01 2.93482E+01 0.00000E+00
 -1       920 3.61817E+01 2.46031E+01 0.00000E+00
 -1       921 1.55700E+01 3.41029E+01 0.00000E+00
 -1       922 2.95350E+01 1.43982E+01 0.00000E+00
 -1       923 1.56263E+01 1.34996E+01 0.00000E+00
 -1       924 3.85350E+01 1.43982E+01 0.00000E+00
 -1       925 1.75351E+01 1.43983E+01 0.00000E+00
 -1       926 1.34412E+02 2.35250E+01 0.00000E+00
 -1       927 1.34535E+02 1.43982E+01 0.00000E+00
 -1       928 7.13491E+01 2.15418E+01 0.00000E+00
 -1       929 1.55880E+01 2.05625E+01 0.00000E+00
 -1       930 1.55700E+01 3.11654E+01 0.00000E+00
 -1       931 3.55350E+01 1.43982E+01 0.00000E+00
 -1       932 3.76098E+01 2.04763E+01 0.00000E+00
 -1       933 4.05295E+01 1.79654E+01 0.00000E+00
 -1       934 7.21701E+01 2.57073E+01 0.00000E+00
 -1       935 1.34535E+02 1.73295E+01 0.00000E+00
 -1       936 2.86500E+01 3.18140E+01 0.00000E+00
 -1       937 3.16500E+01 3.18140E+01 0.00000E+00
 -1       938 7.39562E+01 3.04571E+01 0.00000E+00
 -1       939 7.69562E+01 3.04571E+01 0.00000E+00
 -1       940 7.99562E+01 3.04571E+01 0.00000E+00
 -1       941 8.29562E+01 3.04571E+01 0.00000E+00
 -1       942 8.59562E+01 3.04571E+01 0.00000E+00
 -1       943 8.89562E+01 3.04571E+01 0.00000E+00
 -1       944 9.19562E+01 3.04571E+01 0.00000E+00
 -1       945 9.49562E+01 3.04571E+01 0.00000E+00
 -1       946 9.79562E+01 3.04571E+01 0.00000E+00
 -1       947 1.00956E+02 3.04571E+01 0.00000E+00
 -1       948 1.03956E+02 3.04571E+01 0.00000E+00
 -1       949 1.06956E+02 3.04571E+01 0.00000E+00
 -1       950 1.09956E+02 3.04571E+01 0.00000E+00
 -1       951 1.12956E+02 3.04571E+01 0.00000E+00
 -1       952 1.15956E+02 3.04571E+01 0.00000E+00
 -1       953 1.18956E+02 3.04571E+01 0.00000E+00
 -1       954 1.21956E+02 3.04571E+01 0.00000E+00
 -1       955 1.24956E+02 3.04571E+01 0.00000E+00
 -1       956 1.27956E+02 3.04571E+01 0.00000E+00
 -1       957 1.30956E+02 3.04571E+01 0.00000E+00
 -1       958 1.90351E+01 1.69963E+01 0.00000E+00
 -1       959 2.65350E+01 1.43982E+01 0.00000E+00
 -1       960 8.20350E+01 1.69963E+01 0.00000E+00
 -1       961 7.60350E+01 1.69963E+01 0.00000E+00
 -1       962 8.50350E+01 1.69963E+01 0.00000E+00
 -1       963 8.80350E+01 1.69963E+01 0.00000E+00
 -1       964 9.10350E+01 1.69963E+01 0.00000E+00
 -1       965 9.40350E+01 1.69963E+01 0.00000E+00
 -1       966 9.70350E+01 1.69963E+01 0.00000E+00
 -1       967 1.00035E+02 1.69963E+01 0.00000E+00
 -1       968 1.03035E+02 1.69963E+01 0.00000E+00
 -1       969 1.06035E+02 1.69963E+01 0.00000E+00
 -1       970 1.09035E+02 1.69963E+01 0.00000E+00
 -1       971 1.12035E+02 1.69963E+01 0.00000E+00
 -1       972 1.15035E+02 1.69963E+01 0.00000E+00
 -1       973 1.18035E+02 1.69963E+01 0.00000E+00
 -1       974 1.21035E+02 1.69963E+01 0.00000E+00
 -1       975 1.24035E+02 1.69963E+01 0.00000E+00
 -1       976 1.27035E+02 1.69963E+01 0.00000E+00
 -1       977 1.30035E+02 1.69963E+01 0.00000E+00
 -1       978 7.09493E+01 1.84258E+01 0.00000E+00
 -1       979 1.34412E+02 2.05938E+01 0.00000E+00
 -1       980 1.96500E+01 3.18140E+01 0.00000E+00
 -1       981 1.31814E+02 2.79500E+01 0.00000E+00
 -1       982 1.55880E+01 2.64438E+01 0.00000E+00
 -1       983 1.52625E+01 1.67429E+01 0.00000E+00
 -1       984 1.55790E+01 2.88046E+01 0.00000E+00
 -1       985 1.76100E+01 3.14897E+01 0.00000E+00
 -1       986 2.26500E+01 3.18140E+01 0.00000E+00
 -1       987 7.12422E+01 1.64120E+01 0.00000E+00
 -1       988 1.32285E+02 1.71629E+01 0.00000E+00
 -1       989 7.90350E+01 1.69963E+01 0.00000E+00
 -1       990 2.56500E+01 3.18140E+01 0.00000E+00
 -1       991 3.50090E+01 3.20154E+01 0.00000E+00
 -1       992 3.47502E+01 2.72661E+01 0.00000E+00
 -1       993 3.10350E+01 1.69963E+01 0.00000E+00
 -1       994 2.20351E+01 1.69963E+01 0.00000E+00
 -1       995 7.45632E+01 2.80822E+01 0.00000E+00
 -1       996 1.31814E+02 2.50000E+01 0.00000E+00
 -1       997 3.40350E+01 1.69963E+01 0.00000E+00
 -1       998 7.36386E+01 1.67041E+01 0.00000E+00
 -1       999 1.81860E+01 2.20313E+01 0.00000E+00
 -1      1000 3.51861E+01 2.21994E+01 0.00000E+00
 -1      1001 3.80981E+01 1.85707E+01 0.00000E+00
 -1      1002 7.30883E+01 2.33660E+01 0.00000E+00
 -1      1003 1.81860E+01 2.49750E+01 0.00000E+00
 -1      1004 3.27851E+01 2.91468E+01 0.00000E+00
 -1      1005 3.49187E+01 1.92571E+01 0.00000E+00
 -1      1006 2.80350E+01 1.69963E+01 0.00000E+00
 -1      1007 7.84562E+01 2.78591E+01 0.00000E+00
 -1      1008 8.14562E+01 2.78591E+01 0.00000E+00
 -1      1009 8.44562E+01 2.78591E+01 0.00000E+00
 -1      1010 8.74562E+01 2.78591E+01 0.00000E+00
 -1      1011 9.04562E+01 2.78591E+01 0.00000E+00
 -1      1012 9.34562E+01 2.78591E+01 0.00000E+00
 -1      1013 9.64562E+01 2.78591E+01 0.00000E+00
 -1      1014 9.94562E+01 2.78591E+01 0.00000E+00
 -1      1015 1.02456E+02 2.78591E+01 0.00000E+00
 -1      1016 1.05456E+02 2.78591E+01 0.00000E+00
 -1      1017 1.08456E+02 2.78591E+01 0.00000E+00
 -1      1018 1.11456E+02 2.78591E+01 0.00000E+00
 -1      1019 1.14456E+02 2.78591E+01 0.00000E+00
 -1      1020 1.17456E+02 2.78591E+01 0.00000E+00
 -1      1021 1.20456E+02 2.78591E+01 0.00000E+00
 -1      1022 1.23456E+02 2.78591E+01 0.00000E+00
 -1      1023 1.26456E+02 2.78591E+01 0.00000E+00
 -1      1024 1.29135E+02 2.79045E+01 0.00000E+00
 -1      1025 2.50350E+01 1.69963E+01 0.00000E+00
 -1      1026 8.65350E+01 1.95942E+01 0.00000E+00
 -1      1027 8.35350E+01 1.95942E+01 0.00000E+00
 -1      1028 9.25350E+01 1.95942E+01 0.00000E+00
 -1      1029 9.55350E+01 1.95942E+01 0.00000E+00
 -1      1030 9.85350E+01 1.95942E+01 0.00000E+00
 -1      1031 1.01535E+02 1.95942E+01 0.00000E+00
 -1      1032 1.04535E+02 1.95942E+01 0.00000E+00
 -1      1033 1.07535E+02 1.95942E+01 0.00000E+00
 -1      1034 1.10535E+02 1.95942E+01 0.00000E+00
 -1      1035 1.13535E+02 1.95942E+01 0.00000E+00
 -1      1036 1.16535E+02 1.95942E+01 0.00000E+00
 -1      1037 1.19535E+02 1.95942E+01 0.00000E+00
 -1      1038 1.22535E+02 1.95942E+01 0.00000E+00
 -1      1039 1.25535E+02 1.95942E+01 0.00000E+00
 -1      1040 1.28535E+02 1.95942E+01 0.00000E+00
 -1      1041 8.05350E+01 1.95942E+01 0.00000E+00
 -1      1042 1.31814E+02 2.20688E+01 0.00000E+00
 -1      1043 2.11500E+01 2.92160E+01 0.00000E+00
 -1      1044 2.97851E+01 2.91468E+01 0.00000E+00
 -1      1045 1.32049E+02 1.96158E+01 0.00000E+00
 -1      1046 3.34801E+01 2.43141E+01 0.00000E+00
 -1      1047 7.37261E+01 1.96532E+01 0.00000E+00
 -1      1048 2.11860E+01 2.20313E+01 0.00000E+00
 -1      1049 7.75350E+01 1.95942E+01 0.00000E+00
 -1      1050 8.95350E+01 1.95942E+01 0.00000E+00
 -1      1051 1.76190E+01 2.91289E+01 0.00000E+00
 -1      1052 2.67851E+01 2.91468E+01 0.00000E+00
 -1      1053 2.95350E+01 1.95942E+01 0.00000E+00
 -1      1054 3.24650E+01 2.09634E+01 0.00000E+00
 -1      1055 7.60632E+01 2.54842E+01 0.00000E+00
 -1      1056 1.93845E+01 2.91724E+01 0.00000E+00
 -1      1057 1.79025E+01 2.70519E+01 0.00000E+00
 -1      1058 2.39675E+01 2.91814E+01 0.00000E+00
 -1      1059 3.15150E+01 2.61948E+01 0.00000E+00
 -1      1060 1.28565E+02 2.46909E+01 0.00000E+00
 -1      1061 8.29562E+01 2.52611E+01 0.00000E+00
 -1      1062 8.59562E+01 2.52611E+01 0.00000E+00
 -1      1063 8.89562E+01 2.52611E+01 0.00000E+00
 -1      1064 9.19562E+01 2.52611E+01 0.00000E+00
 -1      1065 9.49562E+01 2.52611E+01 0.00000E+00
 -1      1066 9.79562E+01 2.52611E+01 0.00000E+00
 -1      1067 1.00956E+02 2.52611E+01 0.00000E+00
 -1      1068 1.03956E+02 2.52611E+01 0.00000E+00
 -1      1069 1.06956E+02 2.52611E+01 0.00000E+00
 -1      1070 1.09956E+02 2.52611E+01 0.00000E+00
 -1      1071 1.12956E+02 2.52611E+01 0.00000E+00
 -1      1072 1.15956E+02 2.52611E+01 0.00000E+00
 -1      1073 1.18956E+02 2.52611E+01 0.00000E+00
 -1      1074 1.21956E+02 2.52611E+01 0.00000E+00
 -1      1075 1.24956E+02 2.52611E+01 0.00000E+00
 -1      1076 1.00035E+02 2.21922E+01 0.00000E+00
 -1      1077 7.90897E+01 2.48276E+01 0.00000E+00
 -1      1078 8.50350E+01 2.21922E+01 0.00000E+00
 -1      1079 9.70350E+01 2.21922E+01 0.00000E+00
 -1      1080 9.40350E+01 2.21922E+01 0.00000E+00
 -1      1081 1.03035E+02 2.21922E+01 0.00000E+00
 -1      1082 1.06035E+02 2.21922E+01 0.00000E+00
 -1      1083 1.09035E+02 2.21922E+01 0.00000E+00
 -1      1084 1.12035E+02 2.21922E+01 0.00000E+00
 -1      1085 1.15035E+02 2.21922E+01 0.00000E+00
 -1      1086 1.18035E+02 2.21922E+01 0.00000E+00
 -1      1087 1.21035E+02 2.21922E+01 0.00000E+00
 -1      1088 1.24035E+02 2.21922E+01 0.00000E+00
 -1      1089 8.20350E+01 2.21922E+01 0.00000E+00
 -1      1090 2.41860E+01 2.20312E+01 0.00000E+00
 -1      1091 7.90350E+01 2.21922E+01 0.00000E+00
 -1      1092 3.05250E+01 2.28945E+01 0.00000E+00
 -1      1093 7.64079E+01 2.22404E+01 0.00000E+00
 -1      1094 2.15056E+01 2.53575E+01 0.00000E+00
 -1      1095 2.25268E+01 2.66009E+01 0.00000E+00
 -1      1096 9.10350E+01 2.21922E+01 0.00000E+00
 -1      1097 8.80350E+01 2.21922E+01 0.00000E+00
 -1      1098 2.75415E+01 2.19909E+01 0.00000E+00
 -1      1099 1.27035E+02 2.21922E+01 0.00000E+00
 -1      1100 2.85150E+01 2.61948E+01 0.00000E+00
 -1      1101 2.65351E+01 1.95943E+01 0.00000E+00
 -1      1102 2.53444E+01 2.65663E+01 0.00000E+00
 -1      1103 2.48687E+01 2.53245E+01 0.00000E+00
 -1      1104 0.00000E+00 4.85250E+01 0.00000E+00
 -1      1105 0.00000E+00 4.55750E+01 0.00000E+00
 -1      1106 0.00000E+00 4.26250E+01 0.00000E+00
 -1      1107 0.00000E+00 3.96750E+01 0.00000E+00
 -1      1108 0.00000E+00 3.67250E+01 0.00000E+00
 -1      1109 0.00000E+00 3.38000E+01 0.00000E+00
 -1      1110 0.00000E+00 3.08750E+01 0.00000E+00
 -1      1111 0.00000E+00 2.79250E+01 0.00000E+00
 -1      1112 0.00000E+00 2.49750E+01 0.00000E+00
 -1      1113 0.00000E+00 2.20250E+01 0.00000E+00
 -1      1114 0.00000E+00 1.90750E+01 0.00000E+00
 -1      1115 0.00000E+00 1.61500E+01 0.00000E+00
 -1      1116 0.00000E+00 1.32250E+01 0.00000E+00
 -1      1117 0.00000E+00 1.02750E+01 0.00000E+00
 -1      1118 0.00000E+00 7.32500E+00 0.00000E+00
 -1      1119 0.00000E+00 4.37500E+00 0.00000E+00
 -1      1120 0.00000E+00 1.45000E+00 0.00000E+00
 -1      1121 1.57500E+00 5.00000E+01 0.00000E+00
 -1      1122 4.65000E+00 5.00000E+01 0.00000E+00
 -1      1123 7.65000E+00 5.00000E+01 0.00000E+00
 -1      1124 1.06500E+01 5.00000E+01 0.00000E+00
 -1      1125 1.36500E+01 5.00000E+01 0.00000E+00
 -1      1126 1.66500E+01 5.00000E+01 0.00000E+00
 -1      1127 1.96500E+01 5.00000E+01 0.00000E+00
 -1      1128 2.26500E+01 5.00000E+01 0.00000E+00
 -1      1129 2.56500E+01 5.00000E+01 0.00000E+00
 -1      1130 2.86500E+01 5.00000E+01 0.00000E+00
 -1      1131 3.16500E+01 5.00000E+01 0.00000E+00
 -1      1132 3.46500E+01 5.00000E+01 0.00000E+00
 -1      1133 3.76500E+01 5.00000E+01 0.00000E+00
 -1      1134 4.06500E+01 5.00000E+01 0.00000E+00
 -1      1135 4.36500E+01 5.00000E+01 0.00000E+00
 -1      1136 4.66500E+01 5.00000E+01 0.00000E+00
 -1      1137 4.96500E+01 5.00000E+01 0.00000E+00
 -1      1138 5.26500E+01 5.00000E+01 0.00000E+00
 -1      1139 5.56500E+01 5.00000E+01 0.00000E+00
 -1      1140 5.86500E+01 5.00000E+01 0.00000E+00
 -1      1141 6.16500E+01 5.00000E+01 0.00000E+00
 -1      1142 6.46500E+01 5.00000E+01 0.00000E+00
 -1      1143 6.76500E+01 5.00000E+01 0.00000E+00
 -1      1144 7.06500E+01 5.00000E+01 0.00000E+00
 -1      1145 7.36500E+01 5.00000E+01 0.00000E+00
 -1      1146 7.66500E+01 5.00000E+01 0.00000E+00
 -1      1147 7.96500E+01 5.00000E+01 0.00000E+00
 -1      1148 8.26500E+01 5.00000E+01 0.00000E+00
 -1      1149 8.56500E+01 5.00000E+01 0.00000E+00
 -1      1150 8.86500E+01 5.00000E+01 0.00000E+00
 -1      1151 9.16500E+01 5.00000E+01 0.00000E+00
 -1      1152 9.46500E+01 5.00000E+01 0.00000E+00
 -1      1153 9.76500E+01 5.00000E+01 0.00000E+00
 -1      1154 1.00650E+02 5.00000E+01 0.00000E+00
 -1      1155 1.03650E+02 5.00000E+01 0.00000E+00
 -1      1156 1.06650E+02 5.00000E+01 0.00000E+00
 -1      1157 1.09650E+02 5.00000E+01 0.00000E+00
 -1      1158 1.12650E+02 5.00000E+01 0.00000E+00
 -1      1159 1.15650E+02 5.00000E+01 0.00000E+00
 -1      1160 1.18650E+02 5.00000E+01 0.00000E+00
 -1      1161 1.21650E+02 5.00000E+01 0.00000E+00
 -1      1162 1.24650E+02 5.00000E+01 0.00000E+00
 -1      1163 1.27650E+02 5.00000E+01 0.00000E+00
 -1      1164 1.30650E+02 5.00000E+01 0.00000E+00
 -1      1165 1.33650E+02 5.00000E+01 0.00000E+00
 -1      1166 1.36650E+02 5.00000E+01 0.00000E+00
 -1      1167 1.39650E+02 5.00000E+01 0.00000E+00
 -1      1168 1.42650E+02 5.00000E+01 0.00000E+00
 -1      1169 1.45650E+02 5.00000E+01 0.00000E+00
 -1      1170 1.48575E+02 5.00000E+01 0.00000E+00
 -1      1171 1.57500E+00 0.00000E+00 0.00000E+00
 -1      1172 4.65000E+00 0.00000E+00 0.00000E+00
 -1      1173 7.65000E+00 0.00000E+00 0.00000E+00
 -1      1174 1.06500E+01 0.00000E+00 0.00000E+00
 -1      1175 1.36500E+01 0.00000E+00 0.00000E+00
 -1      1176 1.66500E+01 0.00000E+00 0.00000E+00
 -1      1177 1.96500E+01 0.00000E+00 0.00000E+00
 -1      1178 2.26500E+01 0.00000E+00 0.00000E+00
 -1      1179 2.56500E+01 0.00000E+00 0.00000E+00
 -1      1180 2.86500E+01 0.00000E+00 0.00000E+00
 -1      1181 3.16500E+01 0.00000E+00 0.00000E+00
 -1      1182 3.46500E+01 0.00000E+00 0.00000E+00
 -1      1183 3.76500E+01 0.00000E+00 0.00000E+00
 -1      1184 4.06500E+01 0.00000E+00 0.00000E+00
 -1      1185 4.36500E+01 0.00000E+00 0.00000E+00
 -1      1186 4.66500E+01 0.00000E+00 0.00000E+00
 -1      1187 4.96500E+01 0.00000E+00 0.00000E+00
 -1      1188 5.26500E+01 0.00000E+00 0.00000E+00
 -1      1189 5.56500E+01 0.00000E+00 0.00000E+00
 -1      1190 5.86500E+01 0.00000E+00 0.00000E+00
 -1      1191 6.16500E+01 0.00000E+00 0.00000E+00
 -1      1192 6.46500E+01 0.00000E+00 0.00000E+00
 -1      1193 6.76500E+01 0.00000E+00 0.00000E+00
 -1      1194 7.06500E+01 0.00000E+00 0.00000E+00
 -1      1195 7.36500E+01 0.00000E+00 0.00000E+00
 -1      1196 7.66500E+01 0.00000E+00 0.00000E+00
 -1      1197 7.96500E+01 0.00000E+00 0.00000E+00
 -1      1198 8.26500E+01 0.00000E+00 0.00000E+00
 -1      1199 8.56500E+01 0.00000E+00 0.00000E+00
 -1      1200 8.86500E+01 0.00000E+00 0.00000E+00
 -1      1201 9.16500E+01 0.00000E+00 0.00000E+00
 -1      1202 9.46500E+01 0.00000E+00 0.00000E+00
 -1      1203 9.76500E+01 0.00000E+00 0.00000E+00
 -1      1204 1.00650E+02 0.00000E+00 0.00000E+00
 -1      1205 1.03650E+02 0.00000E+00 0.00000E+00
 -1      1206 1.06650E+02 0.00000E+00 0.00000E+00
 -1      1207 1.09650E+02 0.00000E+00 0.00000E+00
 -1      1208 1.12650E+02 0.00000E+00 0.00000E+00
 -1      1209 1.15650E+02 0.00000E+00 0.00000E+00
 -1      1210 1.18650E+02 0.00000E+00 0.00000E+00
 -1      1211 1.21650E+02 0.00000E+00 0.00000E+00
 -1      1212 1.24650E+02 0.00000E+00 0.00000E+00
 -1      1213 1.27650E+02 0.00000E+00 0.00000E+00
 -1      1214 1.30650E+02 0.00000E+00 0.00000E+00
 -1      1215 1.33650E+02 0.00000E+00 0.00000E+00
 -1      1216 1.36650E+02 0.00000E+00 0.00000E+00
 -1      1217 1.39650E+02 0.00000E+00 0.00000E+00
 -1      1218 1.42650E+02 0.00000E+00 0.00000E+00
 -1      1219 1.45650E+02 0.00000E+00 0.00000E+00
 -1      1220 1.48575E+02 0.00000E+00 0.00000E+00
 -1      1221 1.50000E+02 1.47500E+00 0.00000E+00
 -1      1222 1.50000E+02 4.42500E+00 0.00000E+00
 -1      1223 1.50000E+02 7.37500E+00 0.00000E+00
 -1      1224 1.50000E+02 1.03250E+01 0.00000E+00
 -1      1225 1.50000E+02 1.32750E+01 0.00000E+00
 -1      1226 1.50000E+02 1.62000E+01 0.00000E+00
 -1      1227 1.50000E+02 1.91250E+01 0.00000E+00
 -1      1228 1.50000E+02 2.20750E+01 0.00000E+00
 -1      1229 1.50000E+02 2.50250E+01 0.00000E+00
 -1      1230 1.50000E+02 2.79750E+01 0.00000E+00
 -1      1231 1.50000E+02 3.09250E+01 0.00000E+00
 -1      1232 1.50000E+02 3.38500E+01 0.00000E+00
 -1      1233 1.50000E+02 3.67750E+01 0.00000E+00
 -1      1234 1.50000E+02 3.97250E+01 0.00000E+00
 -1      1235 1.50000E+02 4.26750E+01 0.00000E+00
 -1      1236 1.50000E+02 4.56250E+01 0.00000E+00
 -1      1237 1.50000E+02 4.85500E+01 0.00000E+00
 -1      1238 6.12372E+01 2.60501E+01 0.00000E+00
 -1      1239 6.09052E+01 2.45308E+01 0.00000E+00
 -1      1240 6.02426E+01 2.31168E+01 0.00000E+00
 -1      1241 5.92947E+01 2.18968E+01 0.00000E+00
 -1      1242 5.80982E+01 2.09119E+01 0.00000E+00
 -1      1243 5.67178E+01 2.02157E+01 0.00000E+00
 -1      1244 5.52241E+01 1.98402E+01 0.00000E+00
 -1      1245 5.36609E+01 1.98025E+01 0.00000E+00
 -1      1246 5.20987E+01 2.01224E+01 0.00000E+00
 -1      1247 5.06491E+01 2.07878E+01 0.00000E+00
 -1      1248 4.93472E+01 2.18038E+01 0.00000E+00
 -1      1249 4.83480E+01 2.30510E+01 0.00000E+00
 -1      1250 4.76871E+01 2.44089E+01 0.00000E+00
 -1      1251 4.73305E+01 2.58946E+01 0.00000E+00
 -1      1252 4.73084E+01 2.74598E+01 0.00000E+00
 -1      1253 4.76356E+01 2.89935E+01 0.00000E+00
 -1      1254 4.82927E+01 3.04106E+01 0.00000E+00
 -1      1255 4.92217E+01 3.16196E+01 0.00000E+00
 -1      1256 5.04580E+01 3.26433E+01 0.00000E+00
 -1      1257 5.19441E+01 3.33761E+01 0.00000E+00
 -1      1258 5.34912E+01 3.37315E+01 0.00000E+00
 -1      1259 5.49464E+01 3.37432E+01 0.00000E+00
 -1      1260 5.63418E+01 3.34634E+01 0.00000E+00
 -1      1261 5.76637E+01 3.29006E+01 0.00000E+00
 -1      1262 5.87997E+01 3.21166E+01 0.00000E+00
 -1      1263 5.97493E+01 3.11380E+01 0.00000E+00
 -1      1264 6.04849E+01 3.00060E+01 0.00000E+00
 -1      1265 6.09874E+01 2.87611E+01 0.00000E+00
 -1      1266 6.12428E+01 2.74448E+01 0.00000E+00
 -1      1267 1.57500E+00 4.85250E+01 0.00000E+00
 -1      1268 1.29900E+00 4.48375E+01 0.00000E+00
 -1      1269 1.29900E+00 4.63125E+01 0.00000E+00
 -1      1270 1.29900E+00 4.18875E+01 0.00000E+00
 -1      1271 1.29900E+00 4.33625E+01 0.00000E+00
 -1      1272 2.59800E+00 4.41000E+01 0.00000E+00
 -1      1273 1.29900E+00 3.89375E+01 0.00000E+00
 -1      1274 1.29900E+00 4.04125E+01 0.00000E+00
 -1      1275 2.59800E+00 4.11500E+01 0.00000E+00
 -1      1276 1.29900E+00 3.59875E+01 0.00000E+00
 -1      1277 1.29900E+00 3.74625E+01 0.00000E+00
 -1      1278 2.59800E+00 3.82000E+01 0.00000E+00
 -1      1279 1.29900E+00 3.30875E+01 0.00000E+00
 -1      1280 1.29900E+00 3.45375E+01 0.00000E+00
 -1      1281 2.59800E+00 3.52750E+01 0.00000E+00
 -1      1282 1.29900E+00 3.01375E+01 0.00000E+00
 -1      1283 1.29900E+00 3.16125E+01 0.00000E+00
 -1      1284 2.59800E+00 3.23500E+01 0.00000E+00
 -1      1285 1.29900E+00 2.71875E+01 0.00000E+00
 -1      1286 1.29900E+00 2.86625E+01 0.00000E+00
 -1      1287 2.59800E+00 2.94000E+01 0.00000E+00
 -1      1288 1.29900E+00 2.42375E+01 0.00000E+00
 -1      1289 1.29900E+00 2.57125E+01 0.00000E+00
 -1      1290 2.59800E+00 2.64500E+01 0.00000E+00
 -1      1291 1.29900E+00 2.12875E+01 0.00000E+00
 -1      1292 1.29900E+00 2.27625E+01 0.00000E+00
 -1      1293 2.59800E+00 2.35000E+01 0.00000E+00
 -1      1294 1.29900E+00 1.83375E+01 0.00000E+00
 -1      1295 1.29900E+00 1.98125E+01 0.00000E+00
 -1      1296 2.59800E+00 2.05500E+01 0.00000E+00
 -1      1297 1.29900E+00 1.54375E+01 0.00000E+00
 -1      1298 1.29900E+00 1.68875E+01 0.00000E+00
 -1      1299 2.59800E+00 1.76250E+01 0.00000E+00
 -1      1300 1.29900E+00 1.24875E+01 0.00000E+00
 -1      1301 1.29900E+00 1.39625E+01 0.00000E+00
 -1      1302 2.59800E+00 1.47000E+01 0.00000E+00
 -1      1303 1.29900E+00 9.53750E+00 0.00000E+00
 -1      1304 1.29900E+00 1.10125E+01 0.00000E+00
 -1      1305 2.59800E+00 1.17500E+01 0.00000E+00
 -1      1306 1.29900E+00 6.58750E+00 0.00000E+00
 -1      1307 1.29900E+00 8.06250E+00 0.00000E+00
 -1      1308 2.59800E+00 8.80000E+00 0.00000E+00
 -1      1309 1.29900E+00 3.63750E+00 0.00000E+00
 -1      1310 1.29900E+00 5.11250E+00 0.00000E+00
 -1      1311 2.59800E+00 5.85000E+00 0.00000E+00
 -1      1312 1.43700E+00 1.09375E+00 0.00000E+00
 -1      1313 1.43700E+00 2.54375E+00 0.00000E+00
 -1      1314 2.73600E+00 3.28125E+00 0.00000E+00
 -1      1315 3.01200E+00 1.09375E+00 0.00000E+00
 -1      1316 3.90000E+00 4.87010E+01 0.00000E+00
 -1      1317 5.40000E+00 4.87010E+01 0.00000E+00
 -1      1318 6.90000E+00 4.87010E+01 0.00000E+00
 -1      1319 8.40000E+00 4.87010E+01 0.00000E+00
 -1      1320 6.15000E+00 4.74020E+01 0.00000E+00
 -1      1321 9.90000E+00 4.87010E+01 0.00000E+00
 -1      1322 1.14000E+01 4.87010E+01 0.00000E+00
 -1      1323 9.15000E+00 4.74020E+01 0.00000E+00
 -1      1324 1.29000E+01 4.87010E+01 0.00000E+00
 -1      1325 1.44000E+01 4.87010E+01 0.00000E+00
 -1      1326 1.21500E+01 4.74020E+01 0.00000E+00
 -1      1327 1.59000E+01 4.87010E+01 0.00000E+00
 -1      1328 1.74000E+01 4.87010E+01 0.00000E+00
 -1      1329 1.51500E+01 4.74020E+01 0.00000E+00
 -1      1330 1.89000E+01 4.87010E+01 0.00000E+00
 -1      1331 2.04000E+01 4.87010E+01 0.00000E+00
 -1      1332 1.81500E+01 4.74020E+01 0.00000E+00
 -1      1333 2.19000E+01 4.87010E+01 0.00000E+00
 -1      1334 2.34000E+01 4.87010E+01 0.00000E+00
 -1      1335 2.11500E+01 4.74020E+01 0.00000E+00
 -1      1336 2.49000E+01 4.87010E+01 0.00000E+00
 -1      1337 2.64000E+01 4.87010E+01 0.00000E+00
 -1      1338 2.41500E+01 4.74020E+01 0.00000E+00
 -1      1339 2.79000E+01 4.87010E+01 0.00000E+00
 -1      1340 2.94000E+01 4.87010E+01 0.00000E+00
 -1      1341 2.71500E+01 4.74020E+01 0.00000E+00
 -1      1342 3.09000E+01 4.87010E+01 0.00000E+00
 -1      1343 3.24000E+01 4.87010E+01 0.00000E+00
 -1      1344 3.01500E+01 4.74020E+01 0.00000E+00
 -1      1345 3.39000E+01 4.87010E+01 0.00000E+00
 -1      1346 3.54000E+01 4.87010E+01 0.00000E+00
 -1      1347 3.31500E+01 4.74020E+01 0.00000E+00
 -1      1348 3.69000E+01 4.87010E+01 0.00000E+00
 -1      1349 3.84000E+01 4.87010E+01 0.00000E+00
 -1      1350 3.61500E+01 4.74020E+01 0.00000E+00
 -1      1351 3.99000E+01 4.87010E+01 0.00000E+00
 -1      1352 4.14000E+01 4.87010E+01 0.00000E+00
 -1      1353 3.91500E+01 4.74020E+01 0.00000E+00
 -1      1354 4.29000E+01 4.87010E+01 0.00000E+00
 -1      1355 4.44000E+01 4.87010E+01 0.00000E+00
 -1      1356 4.21500E+01 4.74020E+01 0.00000E+00
 -1      1357 4.59000E+01 4.87010E+01 0.00000E+00
 -1      1358 4.74000E+01 4.87010E+01 0.00000E+00
 -1      1359 4.51500E+01 4.74020E+01 0.00000E+00
 -1      1360 4.89000E+01 4.87010E+01 0.00000E+00
 -1      1361 5.04000E+01 4.87010E+01 0.00000E+00
 -1      1362 4.81500E+01 4.74020E+01 0.00000E+00
 -1      1363 5.19000E+01 4.87010E+01 0.00000E+00
 -1      1364 5.34000E+01 4.87010E+01 0.00000E+00
 -1      1365 5.11500E+01 4.74020E+01 0.00000E+00
 -1      1366 5.49000E+01 4.87010E+01 0.00000E+00
 -1      1367 5.64000E+01 4.87010E+01 0.00000E+00
 -1      1368 5.41500E+01 4.74020E+01 0.00000E+00
 -1      1369 5.79000E+01 4.87010E+01 0.00000E+00
 -1      1370 5.94000E+01 4.87010E+01 0.00000E+00
 -1      1371 5.71500E+01 4.74020E+01 0.00000E+00
 -1      1372 6.09000E+01 4.87010E+01 0.00000E+00
 -1      1373 6.24000E+01 4.87010E+01 0.00000E+00
 -1      1374 6.01500E+01 4.74020E+01 0.00000E+00
 -1      1375 6.39000E+01 4.87010E+01 0.00000E+00
 -1      1376 6.54000E+01 4.87010E+01 0.00000E+00
 -1      1377 6.31500E+01 4.74020E+01 0.00000E+00
 -1      1378 6.69000E+01 4.87010E+01 0.00000E+00
 -1      1379 6.84000E+01 4.87010E+01 0.00000E+00
 -1      1380 6.61500E+01 4.74020E+01 0.00000E+00
 -1      1381 6.99000E+01 4.87010E+01 0.00000E+00
 -1      1382 7.14000E+01 4.87010E+01 0.00000E+00
 -1      1383 6.91500E+01 4.74020E+01 0.00000E+00
 -1      1384 7.29000E+01 4.87010E+01 0.00000E+00
 -1      1385 7.44000E+01 4.87010E+01 0.00000E+00
 -1      1386 7.21500E+01 4.74020E+01 0.00000E+00
 -1      1387 7.59000E+01 4.87010E+01 0.00000E+00
 -1      1388 7.74000E+01 4.87010E+01 0.00000E+00
 -1      1389 7.51500E+01 4.74020E+01 0.00000E+00
 -1      1390 7.89000E+01 4.87010E+01 0.00000E+00
 -1      1391 8.04000E+01 4.87010E+01 0.00000E+00
 -1      1392 7.81500E+01 4.74020E+01 0.00000E+00
 -1      1393 8.19000E+01 4.87010E+01 0.00000E+00
 -1      1394 8.34000E+01 4.87010E+01 0.00000E+00
 -1      1395 8.11500E+01 4.74020E+01 0.00000E+00
 -1      1396 8.49000E+01 4.87010E+01 0.00000E+00
 -1      1397 8.64000E+01 4.87010E+01 0.00000E+00
 -1      1398 8.41500E+01 4.74020E+01 0.00000E+00
 -1      1399 8.79000E+01 4.87010E+01 0.00000E+00
 -1      1400 8.94000E+01 4.87010E+01 0.00000E+00
 -1      1401 8.71500E+01 4.74020E+01 0.00000E+00
 -1      1402 9.09000E+01 4.87010E+01 0.00000E+00
 -1      1403 9.24000E+01 4.87010E+01 0.00000E+00
 -1      1404 9.01500E+01 4.74020E+01 0.00000E+00
 -1      1405 9.39000E+01 4.87010E+01 0.00000E+00
 -1      1406 9.54000E+01 4.87010E+01 0.00000E+00
 -1      1407 9.31500E+01 4.74020E+01 0.00000E+00
 -1      1408 9.69000E+01 4.87010E+01 0.00000E+00
 -1      1409 9.84000E+01 4.87010E+01 0.00000E+00
 -1      1410 9.61500E+01 4.74020E+01 0.00000E+00
 -1      1411 9.99000E+01 4.87010E+01 0.00000E+00
 -1      1412 1.01400E+02 4.87010E+01 0.00000E+00
 -1      1413 9.91500E+01 4.74020E+01 0.00000E+00
 -1      1414 1.02900E+02 4.87010E+01 0.00000E+00
 -1      1415 1.04400E+02 4.87010E+01 0.00000E+00
 -1      1416 1.02150E+02 4.74020E+01 0.00000E+00
 -1      1417 1.05900E+02 4.87010E+01 0.00000E+00
 -1      1418 1.07400E+02 4.87010E+01 0.00000E+00
 -1      1419 1.05150E+02 4.74020E+01 0.00000E+00
 -1      1420 1.08900E+02 4.87010E+01 0.00000E+00
 -1      1421 1.10400E+02 4.87010E+01 0.00000E+00
 -1      1422 1.08150E+02 4.74020E+01 0.00000E+00
 -1      1423 1.11900E+02 4.87010E+01 0.00000E+00
 -1      1424 1.13400E+02 4.87010E+01 0.00000E+00
 -1      1425 1.11150E+02 4.74020E+01 0.00000E+00
 -1      1426 1.14900E+02 4.87010E+01 0.00000E+00
 -1      1427 1.16400E+02 4.87010E+01 0.00000E+00
 -1      1428 1.14150E+02 4.74020E+01 0.00000E+00
 -1      1429 1.17900E+02 4.87010E+01 0.00000E+00
 -1      1430 1.19400E+02 4.87010E+01 0.00000E+00
 -1      1431 1.17150E+02 4.74020E+01 0.00000E+00
 -1      1432 1.20900E+02 4.87010E+01 0.00000E+00
 -1      1433 1.22400E+02 4.87010E+01 0.00000E+00
 -1      1434 1.20150E+02 4.74020E+01 0.00000E+00
 -1      1435 1.23900E+02 4.87010E+01 0.00000E+00
 -1      1436 1.25400E+02 4.87010E+01 0.00000E+00
 -1      1437 1.23150E+02 4.74020E+01 0.00000E+00
 -1      1438 1.26900E+02 4.87010E+01 0.00000E+00
 -1      1439 1.28400E+02 4.87010E+01 0.00000E+00
 -1      1440 1.26150E+02 4.74020E+01 0.00000E+00
 -1      1441 1.29900E+02 4.87010E+01 0.00000E+00
 -1      1442 1.31400E+02 4.87010E+01 0.00000E+00
 -1      1443 1.29150E+02 4.74020E+01 0.00000E+00
 -1      1444 1.32900E+02 4.87010E+01 0.00000E+00
 -1      1445 1.34400E+02 4.87010E+01 0.00000E+00
 -1      1446 1.32150E+02 4.74020E+01 0.00000E+00
 -1      1447 1.35900E+02 4.87010E+01 0.00000E+00
 -1      1448 1.37400E+02 4.87010E+01 0.00000E+00
 -1      1449 1.35150E+02 4.74020E+01 0.00000E+00
 -1      1450 1.38900E+02 4.87010E+01 0.00000E+00
 -1      1451 1.40400E+02 4.87010E+01 0.00000E+00
 -1      1452 1.38150E+02 4.74020E+01 0.00000E+00
 -1      1453 1.41900E+02 4.87010E+01 0.00000E+00
 -1      1454 1.43400E+02 4.87010E+01 0.00000E+00
 -1      1455 1.41150E+02 4.74020E+01 0.00000E+00
 -1      1456 1.44900E+02 4.87010E+01 0.00000E+00
 -1      1457 1.46400E+02 4.87010E+01 0.00000E+00
 -1      1458 1.44150E+02 4.74020E+01 0.00000E+00
 -1      1459 1.48575E+02 4.85500E+01 0.00000E+00
 -1      1460 1.47825E+02 4.72510E+01 0.00000E+00
 -1      1461 6.01200E+00 1.09375E+00 0.00000E+00
 -1      1462 4.51200E+00 1.09375E+00 0.00000E+00
 -1      1463 4.37400E+00 2.18750E+00 0.00000E+00
 -1      1464 9.01200E+00 1.09375E+00 0.00000E+00
 -1      1465 7.51200E+00 1.09375E+00 0.00000E+00
 -1      1466 7.37400E+00 2.18750E+00 0.00000E+00
 -1      1467 1.20120E+01 1.09375E+00 0.00000E+00
 -1      1468 1.05120E+01 1.09375E+00 0.00000E+00
 -1      1469 1.03740E+01 2.18750E+00 0.00000E+00
 -1      1470 1.50120E+01 1.09375E+00 0.00000E+00
 -1      1471 1.35120E+01 1.09375E+00 0.00000E+00
 -1      1472 1.33740E+01 2.18750E+00 0.00000E+00
 -1      1473 1.80120E+01 1.09375E+00 0.00000E+00
 -1      1474 1.65120E+01 1.09375E+00 0.00000E+00
 -1      1475 1.63740E+01 2.18750E+00 0.00000E+00
 -1      1476 2.10120E+01 1.09375E+00 0.00000E+00
 -1      1477 1.95120E+01 1.09375E+00 0.00000E+00
 -1      1478 1.93740E+01 2.18750E+00 0.00000E+00
 -1      1479 2.40120E+01 1.09375E+00 0.00000E+00
 -1      1480 2.25120E+01 1.09375E+00 0.00000E+00
 -1      1481 2.23740E+01 2.18750E+00 0.00000E+00
 -1      1482 2.70120E+01 1.09375E+00 0.00000E+00
 -1      1483 2.55120E+01 1.09375E+00 0.00000E+00
 -1      1484 2.53740E+01 2.18750E+00 0.00000E+00
 -1      1485 3.00120E+01 1.09375E+00 0.00000E+00
 -1      1486 2.85120E+01 1.09375E+00 0.00000E+00
 -1      1487 2.83740E+01 2.18750E+00 0.00000E+00
 -1      1488 3.30120E+01 1.09375E+00 0.00000E+00
 -1      1489 3.15120E+01 1.09375E+00 0.00000E+00
 -1      1490 3.13740E+01 2.18750E+00 0.00000E+00
 -1      1491 3.60120E+01 1.09375E+00 0.00000E+00
 -1      1492 3.45120E+01 1.09375E+00 0.00000E+00
 -1      1493 3.43740E+01 2.18750E+00 0.00000E+00
 -1      1494 3.90120E+01 1.09375E+00 0.00000E+00
 -1      1495 3.75120E+01 1.09375E+00 0.00000E+00
 -1      1496 3.73740E+01 2.18750E+00 0.00000E+00
 -1      1497 4.20120E+01 1.09375E+00 0.00000E+00
 -1      1498 4.05120E+01 1.09375E+00 0.00000E+00
 -1      1499 4.03740E+01 2.18750E+00 0.00000E+00
 -1      1500 4.50120E+01 1.09375E+00 0.00000E+00
 -1      1501 4.35120E+01 1.09375E+00 0.00000E+00
 -1      1502 4.33740E+01 2.18750E+00 0.00000E+00
 -1      1503 4.80120E+01 1.09375E+00 0.00000E+00
 -1      1504 4.65120E+01 1.09375E+00 0.00000E+00
 -1      1505 4.63740E+01 2.18750E+00 0.00000E+00
 -1      1506 5.10120E+01 1.09375E+00 0.00000E+00
 -1      1507 4.95120E+01 1.09375E+00 0.00000E+00
 -1      1508 4.93740E+01 2.18750E+00 0.00000E+00
 -1      1509 5.40120E+01 1.09375E+00 0.00000E+00
 -1      1510 5.25120E+01 1.09375E+00 0.00000E+00
 -1      1511 5.23740E+01 2.18750E+00 0.00000E+00
 -1      1512 5.70120E+01 1.09375E+00 0.00000E+00
 -1      1513 5.55120E+01 1.09375E+00 0.00000E+00
 -1      1514 5.53740E+01 2.18750E+00 0.00000E+00
 -1      1515 6.00120E+01 1.09375E+00 0.00000E+00
 -1      1516 5.85120E+01 1.09375E+00 0.00000E+00
 -1      1517 5.83740E+01 2.18750E+00 0.00000E+00
 -1      1518 6.30120E+01 1.09375E+00 0.00000E+00
 -1      1519 6.15120E+01 1.09375E+00 0.00000E+00
 -1      1520 6.13740E+01 2.18750E+00 0.00000E+00
 -1      1521 6.60120E+01 1.09375E+00 0.00000E+00
 -1      1522 6.45120E+01 1.09375E+00 0.00000E+00
 -1      1523 6.43740E+01 2.18750E+00 0.00000E+00
 -1      1524 6.90120E+01 1.09375E+00 0.00000E+00
 -1      1525 6.75120E+01 1.09375E+00 0.00000E+00
 -1      1526 6.73740E+01 2.18750E+00 0.00000E+00
 -1      1527 7.20120E+01 1.09375E+00 0.00000E+00
 -1      1528 7.05120E+01 1.09375E+00 0.00000E+00
 -1      1529 7.03740E+01 2.18750E+00 0.00000E+00
 -1      1530 7.50120E+01 1.09375E+00 0.00000E+00
 -1      1531 7.35120E+01 1.09375E+00 0.00000E+00
 -1      1532 7.33740E+01 2.18750E+00 0.00000E+00
 -1      1533 7.80120E+01 1.09375E+00 0.00000E+00
 -1      1534 7.65120E+01 1.09375E+00 0.00000E+00
 -1      1535 7.63740E+01 2.18750E+00 0.00000E+00
 -1      1536 8.10120E+01 1.09375E+00 0.00000E+00
 -1      1537 7.95120E+01 1.09375E+00 0.00000E+00
 -1      1538 7.93740E+01 2.18750E+00 0.00000E+00
 -1      1539 8.40120E+01 1.09375E+00 0.00000E+00
 -1      1540 8.25120E+01 1.09375E+00 0.00000E+00
 -1      1541 8.23740E+01 2.18750E+00 0.00000E+00
 -1      1542 8.70120E+01 1.09375E+00 0.00000E+00
 -1      1543 8.55120E+01 1.09375E+00 0.00000E+00
 -1      1544 8.53740E+01 2.18750E+00 0.00000E+00
 -1      1545 9.00120E+01 1.09375E+00 0.00000E+00
 -1      1546 8.85120E+01 1.09375E+00 0.00000E+00
 -1      1547 8.83740E+01 2.18750E+00 0.00000E+00
 -1      1548 9.30120E+01 1.09375E+00 0.00000E+00
 -1      1549 9.15120E+01 1.09375E+00 0.00000E+00
 -1      1550 9.13740E+01 2.18750E+00 0.00000E+00
 -1      1551 9.60120E+01 1.09375E+00 0.00000E+00
 -1      1552 9.45120E+01 1.09375E+00 0.00000E+00
 -1      1553 9.43740E+01 2.18750E+00 0.00000E+00
 -1      1554 9.90120E+01 1.09375E+00 0.00000E+00
 -1      1555 9.75120E+01 1.09375E+00 0.00000E+00
 -1      1556 9.73740E+01 2.18750E+00 0.00000E+00
 -1      1557 1.02012E+02 1.09375E+00 0.00000E+00
 -1      1558 1.00512E+02 1.09375E+00 0.00000E+00
 -1      1559 1.00374E+02 2.18750E+00 0.00000E+00
 -1      1560 1.05012E+02 1.09375E+00 0.00000E+00
 -1      1561 1.03512E+02 1.09375E+00 0.00000E+00
 -1      1562 1.03374E+02 2.18750E+00 0.00000E+00
 -1      1563 1.08012E+02 1.09375E+00 0.00000E+00
 -1      1564 1.06512E+02 1.09375E+00 0.00000E+00
 -1      1565 1.06374E+02 2.18750E+00 0.00000E+00
 -1      1566 1.11012E+02 1.09375E+00 0.00000E+00
 -1      1567 1.09512E+02 1.09375E+00 0.00000E+00
 -1      1568 1.09374E+02 2.18750E+00 0.00000E+00
 -1      1569 1.14012E+02 1.09375E+00 0.00000E+00
 -1      1570 1.12512E+02 1.09375E+00 0.00000E+00
 -1      1571 1.12374E+02 2.18750E+00 0.00000E+00
 -1      1572 1.17012E+02 1.09375E+00 0.00000E+00
 -1      1573 1.15512E+02 1.09375E+00 0.00000E+00
 -1      1574 1.15374E+02 2.18750E+00 0.00000E+00
 -1      1575 1.20012E+02 1.09375E+00 0.00000E+00
 -1      1576 1.18512E+02 1.09375E+00 0.00000E+00
 -1      1577 1.18374E+02 2.18750E+00 0.00000E+00
 -1      1578 1.23012E+02 1.09375E+00 0.00000E+00
 -1      1579 1.21512E+02 1.09375E+00 0.00000E+00
 -1      1580 1.21374E+02 2.18750E+00 0.00000E+00
 -1      1581 1.26012E+02 1.09375E+00 0.00000E+00
 -1      1582 1.24512E+02 1.09375E+00 0.00000E+00
 -1      1583 1.24374E+02 2.18750E+00 0.00000E+00
 -1      1584 1.29012E+02 1.09375E+00 0.00000E+00
 -1      1585 1.27512E+02 1.09375E+00 0.00000E+00
 -1      1586 1.27374E+02 2.18750E+00 0.00000E+00
 -1      1587 1.32012E+02 1.09375E+00 0.00000E+00
 -1      1588 1.30512E+02 1.09375E+00 0.00000E+00
 -1      1589 1.30374E+02 2.18750E+00 0.00000E+00
 -1      1590 1.35012E+02 1.09375E+00 0.00000E+00
 -1      1591 1.33512E+02 1.09375E+00 0.00000E+00
 -1      1592 1.33374E+02 2.18750E+00 0.00000E+00
 -1      1593 1.38012E+02 1.09375E+00 0.00000E+00
 -1      1594 1.36512E+02 1.09375E+00 0.00000E+00
 -1      1595 1.36374E+02 2.18750E+00 0.00000E+00
 -1      1596 1.41012E+02 1.09375E+00 0.00000E+00
 -1      1597 1.39512E+02 1.09375E+00 0.00000E+00
 -1      1598 1.39374E+02 2.18750E+00 0.00000E+00
 -1      1599 1.44012E+02 1.09375E+00 0.00000E+00
 -1      1600 1.42512E+02 1.09375E+00 0.00000E+00
 -1      1601 1.42374E+02 2.18750E+00 0.00000E+00
 -1      1602 1.47012E+02 1.09375E+00 0.00000E+00
 -1      1603 1.45512E+02 1.09375E+00 0.00000E+00
 -1      1604 1.45374E+02 2.18750E+00 0.00000E+00
 -1      1605 1.48575E+02 1.47500E+00 0.00000E+00
 -1      1606 1.48701E+02 5.16250E+00 0.00000E+00
 -1      1607 1.48701E+02 3.68750E+00 0.00000E+00
 -1      1608 1.48701E+02 8.11250E+00 0.00000E+00
 -1      1609 1.48701E+02 6.63750E+00 0.00000E+00
 -1      1610 1.47402E+02 5.90000E+00 0.00000E+00
 -1      1611 1.48701E+02 1.10625E+01 0.00000E+00
 -1      1612 1.48701E+02 9.58750E+00 0.00000E+00
 -1      1613 1.47402E+02 8.85000E+00 0.00000E+00
 -1      1614 1.48701E+02 1.40125E+01 0.00000E+00
 -1      1615 1.48701E+02 1.25375E+01 0.00000E+00
 -1      1616 1.47402E+02 1.18000E+01 0.00000E+00
 -1      1617 1.48701E+02 1.69125E+01 0.00000E+00
 -1      1618 1.48701E+02 1.54625E+01 0.00000E+00
 -1      1619 1.47402E+02 1.47250E+01 0.00000E+00
 -1      1620 1.48701E+02 1.98625E+01 0.00000E+00
 -1      1621 1.48701E+02 1.83875E+01 0.00000E+00
 -1      1622 1.47402E+02 1.76500E+01 0.00000E+00
 -1      1623 1.48701E+02 2.28125E+01 0.00000E+00
 -1      1624 1.48701E+02 2.13375E+01 0.00000E+00
 -1      1625 1.47402E+02 2.06000E+01 0.00000E+00
 -1      1626 1.48701E+02 2.57625E+01 0.00000E+00
 -1      1627 1.48701E+02 2.42875E+01 0.00000E+00
 -1      1628 1.47402E+02 2.35500E+01 0.00000E+00
 -1      1629 1.48701E+02 2.87125E+01 0.00000E+00
 -1      1630 1.48701E+02 2.72375E+01 0.00000E+00
 -1      1631 1.47402E+02 2.65000E+01 0.00000E+00
 -1      1632 1.48701E+02 3.16625E+01 0.00000E+00
 -1      1633 1.48701E+02 3.01875E+01 0.00000E+00
 -1      1634 1.47402E+02 2.94500E+01 0.00000E+00
 -1      1635 1.48701E+02 3.45625E+01 0.00000E+00
 -1      1636 1.48701E+02 3.31125E+01 0.00000E+00
 -1      1637 1.47402E+02 3.23750E+01 0.00000E+00
 -1      1638 1.48701E+02 3.75125E+01 0.00000E+00
 -1      1639 1.48701E+02 3.60375E+01 0.00000E+00
 -1      1640 1.47402E+02 3.53000E+01 0.00000E+00
 -1      1641 1.48701E+02 4.04625E+01 0.00000E+00
 -1      1642 1.48701E+02 3.89875E+01 0.00000E+00
 -1      1643 1.47402E+02 3.82500E+01 0.00000E+00
 -1      1644 1.48701E+02 4.34125E+01 0.00000E+00
 -1      1645 1.48701E+02 4.19375E+01 0.00000E+00
 -1      1646 1.47402E+02 4.12000E+01 0.00000E+00
 -1      1647 1.48263E+02 4.60692E+01 0.00000E+00
 -1      1648 1.48263E+02 4.45942E+01 0.00000E+00
 -1      1649 1.46964E+02 4.38568E+01 0.00000E+00
 -1      1650 1.46088E+02 4.62202E+01 0.00000E+00
 -1      1651 6.17651E+01 2.56304E+01 0.00000E+00
 -1      1652 6.18402E+01 2.63520E+01 0.00000E+00
 -1      1653 6.14584E+01 2.39056E+01 0.00000E+00
 -1      1654 6.17244E+01 2.46915E+01 0.00000E+00
 -1      1655 6.06783E+01 2.24204E+01 0.00000E+00
 -1      1656 6.10608E+01 2.30444E+01 0.00000E+00
 -1      1657 5.95022E+01 2.11282E+01 0.00000E+00
 -1      1658 6.00688E+01 2.17112E+01 0.00000E+00
 -1      1659 5.80996E+01 2.02355E+01 0.00000E+00
 -1      1660 5.87166E+01 2.06379E+01 0.00000E+00
 -1      1661 5.65922E+01 1.93933E+01 0.00000E+00
 -1      1662 5.73507E+01 1.96758E+01 0.00000E+00
 -1      1663 5.49449E+01 1.91864E+01 0.00000E+00
 -1      1664 5.56688E+01 1.92855E+01 0.00000E+00
 -1      1665 5.31898E+01 1.92013E+01 0.00000E+00
 -1      1666 5.40196E+01 1.91282E+01 0.00000E+00
 -1      1667 5.15612E+01 1.97041E+01 0.00000E+00
 -1      1668 5.22851E+01 1.94674E+01 0.00000E+00
 -1      1669 4.99176E+01 2.03843E+01 0.00000E+00
 -1      1670 5.06305E+01 1.99526E+01 0.00000E+00
 -1      1671 4.86048E+01 2.16358E+01 0.00000E+00
 -1      1672 4.91858E+01 2.10599E+01 0.00000E+00
 -1      1673 4.75223E+01 2.29927E+01 0.00000E+00
 -1      1674 4.79373E+01 2.23323E+01 0.00000E+00
 -1      1675 4.69897E+01 2.45464E+01 0.00000E+00
 -1      1676 4.72366E+01 2.38591E+01 0.00000E+00
 -1      1677 4.65995E+01 2.62038E+01 0.00000E+00
 -1      1678 4.66999E+01 2.54126E+01 0.00000E+00
 -1      1679 4.67430E+01 2.79012E+01 0.00000E+00
 -1      1680 4.66679E+01 2.71370E+01 0.00000E+00
 -1      1681 4.71117E+01 2.95904E+01 0.00000E+00
 -1      1682 4.68581E+01 2.88313E+01 0.00000E+00
 -1      1683 4.79722E+01 3.10511E+01 0.00000E+00
 -1      1684 4.75766E+01 3.04000E+01 0.00000E+00
 -1      1685 4.90781E+01 3.22856E+01 0.00000E+00
 -1      1686 4.85502E+01 3.17349E+01 0.00000E+00
 -1      1687 5.05082E+01 3.33385E+01 0.00000E+00
 -1      1688 4.98021E+01 3.28792E+01 0.00000E+00
 -1      1689 5.21142E+01 3.41175E+01 0.00000E+00
 -1      1690 5.13461E+01 3.38462E+01 0.00000E+00
 -1      1691 5.38075E+01 3.43763E+01 0.00000E+00
 -1      1692 5.30395E+01 3.42898E+01 0.00000E+00
 -1      1693 5.53410E+01 3.42807E+01 0.00000E+00
 -1      1694 5.46618E+01 3.43462E+01 0.00000E+00
 -1      1695 5.68878E+01 3.39757E+01 0.00000E+00
 -1      1696 5.61800E+01 3.41945E+01 0.00000E+00
 -1      1697 5.82652E+01 3.32688E+01 0.00000E+00
 -1      1698 5.76562E+01 3.36058E+01 0.00000E+00
 -1      1699 5.94309E+01 3.23324E+01 0.00000E+00
 -1      1700 5.89088E+01 3.27747E+01 0.00000E+00
 -1      1701 6.04092E+01 3.12296E+01 0.00000E+00
 -1      1702 5.99858E+01 3.17609E+01 0.00000E+00
 -1      1703 6.11489E+01 2.99733E+01 0.00000E+00
 -1      1704 6.08394E+01 3.05684E+01 0.00000E+00
 -1      1705 6.16330E+01 2.86018E+01 0.00000E+00
 -1      1706 6.14424E+01 2.92460E+01 0.00000E+00
 -1      1707 6.18463E+01 2.71666E+01 0.00000E+00
 -1      1708 6.17823E+01 2.78327E+01 0.00000E+00
 -1      1709 5.95248E+01 2.04193E+01 0.00000E+00
 -1      1710 6.09198E+01 2.16188E+01 0.00000E+00
 -1      1711 1.48437E+02 2.56875E+00 0.00000E+00
 -1      1712 1.47138E+02 3.30625E+00 0.00000E+00
 -1      1713 6.23650E+01 2.49894E+01 0.00000E+00
 -1      1714 6.19268E+01 2.31892E+01 0.00000E+00
 -1      1715 6.24117E+01 2.67430E+01 0.00000E+00
 -1      1716 5.79904E+01 1.93692E+01 0.00000E+00
 -1      1717 5.63181E+01 1.87016E+01 0.00000E+00
 -1      1718 5.44695E+01 1.85356E+01 0.00000E+00
 -1      1719 5.26394E+01 1.87435E+01 0.00000E+00
 -1      1720 5.08040E+01 1.92581E+01 0.00000E+00
 -1      1721 4.91414E+01 2.01822E+01 0.00000E+00
 -1      1722 4.77421E+01 2.15543E+01 0.00000E+00
 -1      1723 4.67889E+01 2.31172E+01 0.00000E+00
 -1      1724 4.62134E+01 2.48499E+01 0.00000E+00
 -1      1725 4.59921E+01 2.66493E+01 0.00000E+00
 -1      1726 4.61756E+01 2.85126E+01 0.00000E+00
 -1      1727 4.67557E+01 3.02524E+01 0.00000E+00
 -1      1728 4.77985E+01 3.17459E+01 0.00000E+00
 -1      1729 4.91006E+01 3.30234E+01 0.00000E+00
 -1      1730 5.06625E+01 3.41247E+01 0.00000E+00
 -1      1731 5.24257E+01 3.48047E+01 0.00000E+00
 -1      1732 5.42052E+01 3.49470E+01 0.00000E+00
 -1      1733 5.58986E+01 3.48306E+01 0.00000E+00
 -1      1734 5.75060E+01 3.43743E+01 0.00000E+00
 -1      1735 5.89181E+01 3.35102E+01 0.00000E+00
 -1      1736 6.01166E+01 3.24445E+01 0.00000E+00
 -1      1737 6.11018E+01 3.12118E+01 0.00000E+00
 -1      1738 6.18255E+01 2.98232E+01 0.00000E+00
 -1      1739 6.22684E+01 2.83267E+01 0.00000E+00
 -1      1740 2.87400E+00 4.77875E+01 0.00000E+00
 -1      1741 3.89700E+00 4.04125E+01 0.00000E+00
 -1      1742 3.89700E+00 4.18875E+01 0.00000E+00
 -1      1743 3.89700E+00 4.33625E+01 0.00000E+00
 -1      1744 3.89700E+00 4.48375E+01 0.00000E+00
 -1      1745 5.19600E+00 4.26250E+01 0.00000E+00
 -1      1746 3.89700E+00 3.45500E+01 0.00000E+00
 -1      1747 3.89700E+00 3.60000E+01 0.00000E+00
 -1      1748 3.89700E+00 3.16000E+01 0.00000E+00
 -1      1749 3.89700E+00 3.30750E+01 0.00000E+00
 -1      1750 5.19600E+00 3.38000E+01 0.00000E+00
 -1      1751 3.89700E+00 2.86500E+01 0.00000E+00
 -1      1752 3.89700E+00 3.01250E+01 0.00000E+00
 -1      1753 5.19600E+00 3.08500E+01 0.00000E+00
 -1      1754 3.89700E+00 2.57000E+01 0.00000E+00
 -1      1755 3.89700E+00 2.71750E+01 0.00000E+00
 -1      1756 5.19600E+00 2.79000E+01 0.00000E+00
 -1      1757 3.89700E+00 2.27500E+01 0.00000E+00
 -1      1758 3.89700E+00 2.42250E+01 0.00000E+00
 -1      1759 5.19600E+00 2.49500E+01 0.00000E+00
 -1      1760 3.89700E+00 1.98000E+01 0.00000E+00
 -1      1761 3.89700E+00 2.12750E+01 0.00000E+00
 -1      1762 5.19600E+00 2.20000E+01 0.00000E+00
 -1      1763 3.89700E+00 1.69000E+01 0.00000E+00
 -1      1764 3.89700E+00 1.83500E+01 0.00000E+00
 -1      1765 5.19600E+00 1.90750E+01 0.00000E+00
 -1      1766 3.89700E+00 1.39500E+01 0.00000E+00
 -1      1767 3.89700E+00 1.54250E+01 0.00000E+00
 -1      1768 5.19600E+00 1.61500E+01 0.00000E+00
 -1      1769 3.89700E+00 1.10000E+01 0.00000E+00
 -1      1770 3.89700E+00 1.24750E+01 0.00000E+00
 -1      1771 5.19600E+00 1.32000E+01 0.00000E+00
 -1      1772 3.89700E+00 8.05000E+00 0.00000E+00
 -1      1773 3.89700E+00 9.52500E+00 0.00000E+00
 -1      1774 5.19600E+00 1.02500E+01 0.00000E+00
 -1      1775 3.89700E+00 5.10000E+00 0.00000E+00
 -1      1776 3.89700E+00 6.57500E+00 0.00000E+00
 -1      1777 5.19600E+00 7.30000E+00 0.00000E+00
 -1      1778 4.20450E+00 3.09687E+00 0.00000E+00
 -1      1779 4.06650E+00 4.19063E+00 0.00000E+00
 -1      1780 5.36550E+00 4.91563E+00 0.00000E+00
 -1      1781 5.70450E+00 3.09687E+00 0.00000E+00
 -1      1782 3.62400E+00 4.64885E+01 0.00000E+00
 -1      1783 8.70450E+00 3.09687E+00 0.00000E+00
 -1      1784 7.20450E+00 3.09687E+00 0.00000E+00
 -1      1785 7.03500E+00 4.00625E+00 0.00000E+00
 -1      1786 4.92300E+00 4.57510E+01 0.00000E+00
 -1      1787 8.40000E+00 4.61030E+01 0.00000E+00
 -1      1788 9.90000E+00 4.61030E+01 0.00000E+00
 -1      1789 1.14000E+01 4.61030E+01 0.00000E+00
 -1      1790 1.29000E+01 4.61030E+01 0.00000E+00
 -1      1791 1.06500E+01 4.48040E+01 0.00000E+00
 -1      1792 1.44000E+01 4.61030E+01 0.00000E+00
 -1      1793 1.59000E+01 4.61030E+01 0.00000E+00
 -1      1794 1.36500E+01 4.48040E+01 0.00000E+00
 -1      1795 1.74000E+01 4.61030E+01 0.00000E+00
 -1      1796 1.89000E+01 4.61030E+01 0.00000E+00
 -1      1797 1.66500E+01 4.48040E+01 0.00000E+00
 -1      1798 2.04000E+01 4.61030E+01 0.00000E+00
 -1      1799 2.19000E+01 4.61030E+01 0.00000E+00
 -1      1800 1.96500E+01 4.48040E+01 0.00000E+00
 -1      1801 2.34000E+01 4.61030E+01 0.00000E+00
 -1      1802 2.49000E+01 4.61030E+01 0.00000E+00
 -1      1803 2.26500E+01 4.48040E+01 0.00000E+00
 -1      1804 2.64000E+01 4.61030E+01 0.00000E+00
 -1      1805 2.79000E+01 4.61030E+01 0.00000E+00
 -1      1806 2.56500E+01 4.48040E+01 0.00000E+00
 -1      1807 2.94000E+01 4.61030E+01 0.00000E+00
 -1      1808 3.09000E+01 4.61030E+01 0.00000E+00
 -1      1809 2.86500E+01 4.48040E+01 0.00000E+00
 -1      1810 3.24000E+01 4.61030E+01 0.00000E+00
 -1      1811 3.39000E+01 4.61030E+01 0.00000E+00
 -1      1812 3.16500E+01 4.48040E+01 0.00000E+00
 -1      1813 3.54000E+01 4.61030E+01 0.00000E+00
 -1      1814 3.69000E+01 4.61030E+01 0.00000E+00
 -1      1815 3.46500E+01 4.48040E+01 0.00000E+00
 -1      1816 3.84000E+01 4.61030E+01 0.00000E+00
 -1      1817 3.99000E+01 4.61030E+01 0.00000E+00
 -1      1818 3.76500E+01 4.48040E+01 0.00000E+00
 -1      1819 4.14000E+01 4.61030E+01 0.00000E+00
 -1      1820 4.29000E+01 4.61030E+01 0.00000E+00
 -1      1821 4.06500E+01 4.48040E+01 0.00000E+00
 -1      1822 4.44000E+01 4.61030E+01 0.00000E+00
 -1      1823 4.59000E+01 4.61030E+01 0.00000E+00
 -1      1824 4.36500E+01 4.48040E+01 0.00000E+00
 -1      1825 4.74000E+01 4.61030E+01 0.00000E+00
 -1      1826 4.89000E+01 4.61030E+01 0.00000E+00
 -1      1827 4.66500E+01 4.48040E+01 0.00000E+00
 -1      1828 5.04000E+01 4.61030E+01 0.00000E+00
 -1      1829 5.19000E+01 4.61030E+01 0.00000E+00
 -1      1830 4.96500E+01 4.48040E+01 0.00000E+00
 -1      1831 5.34000E+01 4.61030E+01 0.00000E+00
 -1      1832 5.49000E+01 4.61030E+01 0.00000E+00
 -1      1833 5.26500E+01 4.48040E+01 0.00000E+00
 -1      1834 5.64000E+01 4.61030E+01 0.00000E+00
 -1      1835 5.79000E+01 4.61030E+01 0.00000E+00
 -1      1836 5.56500E+01 4.48040E+01 0.00000E+00
 -1      1837 5.94000E+01 4.61030E+01 0.00000E+00
 -1      1838 6.09000E+01 4.61030E+01 0.00000E+00
 -1      1839 5.86500E+01 4.48040E+01 0.00000E+00
 -1      1840 6.24000E+01 4.61030E+01 0.00000E+00
 -1      1841 6.39000E+01 4.61030E+01 0.00000E+00
 -1      1842 6.16500E+01 4.48040E+01 0.00000E+00
 -1      1843 6.54000E+01 4.61030E+01 0.00000E+00
 -1      1844 6.69000E+01 4.61030E+01 0.00000E+00
 -1      1845 6.46500E+01 4.48040E+01 0.00000E+00
 -1      1846 6.84000E+01 4.61030E+01 0.00000E+00
 -1      1847 6.99000E+01 4.61030E+01 0.00000E+00
 -1      1848 6.76500E+01 4.48040E+01 0.00000E+00
 -1      1849 7.14000E+01 4.61030E+01 0.00000E+00
 -1      1850 7.29000E+01 4.61030E+01 0.00000E+00
 -1      1851 7.06500E+01 4.48040E+01 0.00000E+00
 -1      1852 7.44000E+01 4.61030E+01 0.00000E+00
 -1      1853 7.59000E+01 4.61030E+01 0.00000E+00
 -1      1854 7.36500E+01 4.48040E+01 0.00000E+00
 -1      1855 7.74000E+01 4.61030E+01 0.00000E+00
 -1      1856 7.89000E+01 4.61030E+01 0.00000E+00
 -1      1857 7.66500E+01 4.48040E+01 0.00000E+00
 -1      1858 8.04000E+01 4.61030E+01 0.00000E+00
 -1      1859 8.19000E+01 4.61030E+01 0.00000E+00
 -1      1860 7.96500E+01 4.48040E+01 0.00000E+00
 -1      1861 8.34000E+01 4.61030E+01 0.00000E+00
 -1      1862 8.49000E+01 4.61030E+01 0.00000E+00
 -1      1863 8.26500E+01 4.48040E+01 0.00000E+00
 -1      1864 8.64000E+01 4.61030E+01 0.00000E+00
 -1      1865 8.79000E+01 4.61030E+01 0.00000E+00
 -1      1866 8.56500E+01 4.48040E+01 0.00000E+00
 -1      1867 8.94000E+01 4.61030E+01 0.00000E+00
 -1      1868 9.09000E+01 4.61030E+01 0.00000E+00
 -1      1869 8.86500E+01 4.48040E+01 0.00000E+00
 -1      1870 9.24000E+01 4.61030E+01 0.00000E+00
 -1      1871 9.39000E+01 4.61030E+01 0.00000E+00
 -1      1872 9.16500E+01 4.48040E+01 0.00000E+00
 -1      1873 9.54000E+01 4.61030E+01 0.00000E+00
 -1      1874 9.69000E+01 4.61030E+01 0.00000E+00
 -1      1875 9.46500E+01 4.48040E+01 0.00000E+00
 -1      1876 9.84000E+01 4.61030E+01 0.00000E+00
 -1      1877 9.99000E+01 4.61030E+01 0.00000E+00
 -1      1878 9.76500E+01 4.48040E+01 0.00000E+00
 -1      1879 1.01400E+02 4.61030E+01 0.00000E+00
 -1      1880 1.02900E+02 4.61030E+01 0.00000E+00
 -1      1881 1.00650E+02 4.48040E+01 0.00000E+00
 -1      1882 1.04400E+02 4.61030E+01 0.00000E+00
 -1      1883 1.05900E+02 4.61030E+01 0.00000E+00
 -1      1884 1.03650E+02 4.48040E+01 0.00000E+00
 -1      1885 1.07400E+02 4.61030E+01 0.00000E+00
 -1      1886 1.08900E+02 4.61030E+01 0.00000E+00
 -1      1887 1.06650E+02 4.48040E+01 0.00000E+00
 -1      1888 1.10400E+02 4.61030E+01 0.00000E+00
 -1      1889 1.11900E+02 4.61030E+01 0.00000E+00
 -1      1890 1.09650E+02 4.48040E+01 0.00000E+00
 -1      1891 1.13400E+02 4.61030E+01 0.00000E+00
 -1      1892 1.14900E+02 4.61030E+01 0.00000E+00
 -1      1893 1.12650E+02 4.48040E+01 0.00000E+00
 -1      1894 1.16400E+02 4.61030E+01 0.00000E+00
 -1      1895 1.17900E+02 4.61030E+01 0.00000E+00
 -1      1896 1.15650E+02 4.48040E+01 0.00000E+00
 -1      1897 1.19400E+02 4.61030E+01 0.00000E+00
 -1      1898 1.20900E+02 4.61030E+01 0.00000E+00
 -1      1899 1.18650E+02 4.48040E+01 0.00000E+00
 -1      1900 1.22400E+02 4.61030E+01 0.00000E+00
 -1      1901 1.23900E+02 4.61030E+01 0.00000E+00
 -1      1902 1.21650E+02 4.48040E+01 0.00000E+00
 -1      1903 1.25400E+02 4.61030E+01 0.00000E+00
 -1      1904 1.26900E+02 4.61030E+01 0.00000E+00
 -1      1905 1.24650E+02 4.48040E+01 0.00000E+00
 -1      1906 1.28400E+02 4.61030E+01 0.00000E+00
 -1      1907 1.29900E+02 4.61030E+01 0.00000E+00
 -1      1908 1.27650E+02 4.48040E+01 0.00000E+00
 -1      1909 1.31400E+02 4.61030E+01 0.00000E+00
 -1      1910 1.32900E+02 4.61030E+01 0.00000E+00
 -1      1911 1.30650E+02 4.48040E+01 0.00000E+00
 -1      1912 1.34400E+02 4.61030E+01 0.00000E+00
 -1      1913 1.35900E+02 4.61030E+01 0.00000E+00
 -1      1914 1.33650E+02 4.48040E+01 0.00000E+00
 -1      1915 1.37400E+02 4.61030E+01 0.00000E+00
 -1      1916 1.38900E+02 4.61030E+01 0.00000E+00
 -1      1917 1.36650E+02 4.48040E+01 0.00000E+00
 -1      1918 1.40400E+02 4.61030E+01 0.00000E+00
 -1      1919 1.41900E+02 4.61030E+01 0.00000E+00
 -1      1920 1.39650E+02 4.48040E+01 0.00000E+00
 -1      1921 1.43244E+02 4.61616E+01 0.00000E+00
 -1      1922 1.44744E+02 4.61616E+01 0.00000E+00
 -1      1923 1.45182E+02 4.49799E+01 0.00000E+00
 -1      1924 1.42494E+02 4.48626E+01 0.00000E+00
 -1      1925 1.17045E+01 3.09687E+00 0.00000E+00
 -1      1926 1.02045E+01 3.09687E+00 0.00000E+00
 -1      1927 1.00350E+01 4.00625E+00 0.00000E+00
 -1      1928 1.47045E+01 3.09687E+00 0.00000E+00
 -1      1929 1.32045E+01 3.09687E+00 0.00000E+00
 -1      1930 1.30350E+01 4.00625E+00 0.00000E+00
 -1      1931 1.77045E+01 3.09687E+00 0.00000E+00
 -1      1932 1.62045E+01 3.09687E+00 0.00000E+00
 -1      1933 1.60350E+01 4.00625E+00 0.00000E+00
 -1      1934 2.07045E+01 3.09687E+00 0.00000E+00
 -1      1935 1.92045E+01 3.09687E+00 0.00000E+00
 -1      1936 1.90350E+01 4.00625E+00 0.00000E+00
 -1      1937 2.37045E+01 3.09687E+00 0.00000E+00
 -1      1938 2.22045E+01 3.09687E+00 0.00000E+00
 -1      1939 2.20350E+01 4.00625E+00 0.00000E+00
 -1      1940 2.67045E+01 3.09687E+00 0.00000E+00
 -1      1941 2.52045E+01 3.09687E+00 0.00000E+00
 -1      1942 2.50350E+01 4.00625E+00 0.00000E+00
 -1      1943 2.97045E+01 3.09687E+00 0.00000E+00
 -1      1944 2.82045E+01 3.09687E+00 0.00000E+00
 -1      1945 2.80350E+01 4.00625E+00 0.00000E+00
 -1      1946 3.27045E+01 3.09687E+00 0.00000E+00
 -1      1947 3.12045E+01 3.09687E+00 0.00000E+00
 -1      1948 3.10350E+01 4.00625E+00 0.00000E+00
 -1      1949 3.57045E+01 3.09687E+00 0.00000E+00
 -1      1950 3.42045E+01 3.09687E+00 0.00000E+00
 -1      1951 3.40350E+01 4.00625E+00 0.00000E+00
 -1      1952 3.87045E+01 3.09687E+00 0.00000E+00
 -1      1953 3.72045E+01 3.09687E+00 0.00000E+00
 -1      1954 3.70350E+01 4.00625E+00 0.00000E+00
 -1      1955 4.17045E+01 3.09687E+00 0.00000E+00
 -1      1956 4.02045E+01 3.09687E+00 0.00000E+00
 -1      1957 4.00350E+01 4.00625E+00 0.00000E+00
 -1      1958 4.47045E+01 3.09687E+00 0.00000E+00
 -1      1959 4.32045E+01 3.09687E+00 0.00000E+00
 -1      1960 4.30350E+01 4.00625E+00 0.00000E+00
 -1      1961 4.77045E+01 3.09687E+00 0.00000E+00
 -1      1962 4.62045E+01 3.09687E+00 0.00000E+00
 -1      1963 4.60350E+01 4.00625E+00 0.00000E+00
 -1      1964 5.07045E+01 3.09687E+00 0.00000E+00
 -1      1965 4.92045E+01 3.09687E+00 0.00000E+00
 -1      1966 4.90350E+01 4.00625E+00 0.00000E+00
 -1      1967 5.37045E+01 3.09687E+00 0.00000E+00
 -1      1968 5.22045E+01 3.09687E+00 0.00000E+00
 -1      1969 5.20350E+01 4.00625E+00 0.00000E+00
 -1      1970 5.67045E+01 3.09687E+00 0.00000E+00
 -1      1971 5.52045E+01 3.09687E+00 0.00000E+00
 -1      1972 5.50350E+01 4.00625E+00 0.00000E+00
 -1      1973 5.97045E+01 3.09687E+00 0.00000E+00
 -1      1974 5.82045E+01 3.09687E+00 0.00000E+00
 -1      1975 5.80350E+01 4.00625E+00 0.00000E+00
 -1      1976 6.27045E+01 3.09687E+00 0.00000E+00
 -1      1977 6.12045E+01 3.09687E+00 0.00000E+00
 -1      1978 6.10350E+01 4.00625E+00 0.00000E+00
 -1      1979 6.57045E+01 3.09687E+00 0.00000E+00
 -1      1980 6.42045E+01 3.09687E+00 0.00000E+00
 -1      1981 6.40350E+01 4.00625E+00 0.00000E+00
 -1      1982 6.87045E+01 3.09687E+00 0.00000E+00
 -1      1983 6.72045E+01 3.09687E+00 0.00000E+00
 -1      1984 6.70350E+01 4.00625E+00 0.00000E+00
 -1      1985 7.17045E+01 3.09687E+00 0.00000E+00
 -1      1986 7.02045E+01 3.09687E+00 0.00000E+00
 -1      1987 7.00350E+01 4.00625E+00 0.00000E+00
 -1      1988 7.47045E+01 3.09687E+00 0.00000E+00
 -1      1989 7.32045E+01 3.09687E+00 0.00000E+00
 -1      1990 7.30350E+01 4.00625E+00 0.00000E+00
 -1      1991 7.77045E+01 3.09687E+00 0.00000E+00
 -1      1992 7.62045E+01 3.09687E+00 0.00000E+00
 -1      1993 7.60350E+01 4.00625E+00 0.00000E+00
 -1      1994 8.07045E+01 3.09687E+00 0.00000E+00
 -1      1995 7.92045E+01 3.09687E+00 0.00000E+00
 -1      1996 7.90350E+01 4.00625E+00 0.00000E+00
 -1      1997 8.37045E+01 3.09687E+00 0.00000E+00
 -1      1998 8.22045E+01 3.09687E+00 0.00000E+00
 -1      1999 8.20350E+01 4.00625E+00 0.00000E+00
 -1      2000 8.67045E+01 3.09687E+00 0.00000E+00
 -1      2001 8.52045E+01 3.09687E+00 0.00000E+00
 -1      2002 8.50350E+01 4.00625E+00 0.00000E+00
 -1      2003 8.97045E+01 3.09687E+00 0.00000E+00
 -1      2004 8.82045E+01 3.09687E+00 0.00000E+00
 -1      2005 8.80350E+01 4.00625E+00 0.00000E+00
 -1      2006 9.27045E+01 3.09687E+00 0.00000E+00
 -1      2007 9.12045E+01 3.09687E+00 0.00000E+00
 -1      2008 9.10350E+01 4.00625E+00 0.00000E+00
 -1      2009 9.57045E+01 3.09687E+00 0.00000E+00
 -1      2010 9.42045E+01 3.09687E+00 0.00000E+00
 -1      2011 9.40350E+01 4.00625E+00 0.00000E+00
 -1      2012 9.87045E+01 3.09687E+00 0.00000E+00
 -1      2013 9.72045E+01 3.09687E+00 0.00000E+00
 -1      2014 9.70350E+01 4.00625E+00 0.00000E+00
 -1      2015 1.01704E+02 3.09687E+00 0.00000E+00
 -1      2016 1.00204E+02 3.09687E+00 0.00000E+00
 -1      2017 1.00035E+02 4.00625E+00 0.00000E+00
 -1      2018 1.04704E+02 3.09687E+00 0.00000E+00
 -1      2019 1.03204E+02 3.09687E+00 0.00000E+00
 -1      2020 1.03035E+02 4.00625E+00 0.00000E+00
 -1      2021 1.07704E+02 3.09687E+00 0.00000E+00
 -1      2022 1.06204E+02 3.09687E+00 0.00000E+00
 -1      2023 1.06035E+02 4.00625E+00 0.00000E+00
 -1      2024 1.10704E+02 3.09687E+00 0.00000E+00
 -1      2025 1.09204E+02 3.09687E+00 0.00000E+00
 -1      2026 1.09035E+02 4.00625E+00 0.00000E+00
 -1      2027 1.13704E+02 3.09687E+00 0.00000E+00
 -1      2028 1.12204E+02 3.09687E+00 0.00000E+00
 -1      2029 1.12035E+02 4.00625E+00 0.00000E+00
 -1      2030 1.16704E+02 3.09687E+00 0.00000E+00
 -1      2031 1.15204E+02 3.09687E+00 0.00000E+00
 -1      2032 1.15035E+02 4.00625E+00 0.00000E+00
 -1      2033 1.19704E+02 3.09687E+00 0.00000E+00
 -1      2034 1.18204E+02 3.09687E+00 0.00000E+00
 -1      2035 1.18035E+02 4.00625E+00 0.00000E+00
 -1      2036 1.22704E+02 3.09687E+00 0.00000E+00
 -1      2037 1.21204E+02 3.09687E+00 0.00000E+00
 -1      2038 1.21035E+02 4.00625E+00 0.00000E+00
 -1      2039 1.25704E+02 3.09687E+00 0.00000E+00
 -1      2040 1.24204E+02 3.09687E+00 0.00000E+00
 -1      2041 1.24035E+02 4.00625E+00 0.00000E+00
 -1      2042 1.28704E+02 3.09687E+00 0.00000E+00
 -1      2043 1.27204E+02 3.09687E+00 0.00000E+00
 -1      2044 1.27035E+02 4.00625E+00 0.00000E+00
 -1      2045 1.31704E+02 3.09687E+00 0.00000E+00
 -1      2046 1.30204E+02 3.09687E+00 0.00000E+00
 -1      2047 1.30035E+02 4.00625E+00 0.00000E+00
 -1      2048 1.34704E+02 3.09687E+00 0.00000E+00
 -1      2049 1.33204E+02 3.09687E+00 0.00000E+00
 -1      2050 1.33035E+02 4.00625E+00 0.00000E+00
 -1      2051 1.37704E+02 3.09687E+00 0.00000E+00
 -1      2052 1.36204E+02 3.09687E+00 0.00000E+00
 -1      2053 1.36035E+02 4.00625E+00 0.00000E+00
 -1      2054 1.40704E+02 3.09687E+00 0.00000E+00
 -1      2055 1.39204E+02 3.09687E+00 0.00000E+00
 -1      2056 1.39035E+02 4.00625E+00 0.00000E+00
 -1      2057 1.43704E+02 3.09687E+00 0.00000E+00
 -1      2058 1.42204E+02 3.09687E+00 0.00000E+00
 -1      2059 1.42035E+02 4.00625E+00 0.00000E+00
 -1      2060 1.46171E+02 3.20156E+00 0.00000E+00
 -1      2061 1.44671E+02 3.20156E+00 0.00000E+00
 -1      2062 1.44502E+02 4.11094E+00 0.00000E+00
 -1      2063 1.46435E+02 4.32031E+00 0.00000E+00
 -1      2064 1.46103E+02 1.25375E+01 0.00000E+00
 -1      2065 1.46103E+02 1.10625E+01 0.00000E+00
 -1      2066 1.46103E+02 9.58750E+00 0.00000E+00
 -1      2067 1.46103E+02 8.11250E+00 0.00000E+00
 -1      2068 1.44804E+02 1.03250E+01 0.00000E+00
 -1      2069 1.46269E+02 6.95391E+00 0.00000E+00
 -1      2070 1.46269E+02 5.47891E+00 0.00000E+00
 -1      2071 1.45302E+02 5.37422E+00 0.00000E+00
 -1      2072 1.44970E+02 7.69141E+00 0.00000E+00
 -1      2073 1.46103E+02 1.54375E+01 0.00000E+00
 -1      2074 1.46103E+02 1.39875E+01 0.00000E+00
 -1      2075 1.44804E+02 1.32500E+01 0.00000E+00
 -1      2076 1.46103E+02 1.83875E+01 0.00000E+00
 -1      2077 1.46103E+02 1.69125E+01 0.00000E+00
 -1      2078 1.44804E+02 1.61750E+01 0.00000E+00
 -1      2079 1.46103E+02 2.13375E+01 0.00000E+00
 -1      2080 1.46103E+02 1.98625E+01 0.00000E+00
 -1      2081 1.44804E+02 1.91250E+01 0.00000E+00
 -1      2082 1.46103E+02 2.42875E+01 0.00000E+00
 -1      2083 1.46103E+02 2.28125E+01 0.00000E+00
 -1      2084 1.44804E+02 2.20750E+01 0.00000E+00
 -1      2085 1.46103E+02 2.72375E+01 0.00000E+00
 -1      2086 1.46103E+02 2.57625E+01 0.00000E+00
 -1      2087 1.44804E+02 2.50250E+01 0.00000E+00
 -1      2088 1.46103E+02 3.01875E+01 0.00000E+00
 -1      2089 1.46103E+02 2.87125E+01 0.00000E+00
 -1      2090 1.44804E+02 2.79750E+01 0.00000E+00
 -1      2091 1.46103E+02 3.30875E+01 0.00000E+00
 -1      2092 1.46103E+02 3.16375E+01 0.00000E+00
 -1      2093 1.44804E+02 3.09000E+01 0.00000E+00
 -1      2094 1.46103E+02 3.60375E+01 0.00000E+00
 -1      2095 1.46103E+02 3.45625E+01 0.00000E+00
 -1      2096 1.44804E+02 3.38250E+01 0.00000E+00
 -1      2097 1.46103E+02 3.89875E+01 0.00000E+00
 -1      2098 1.46103E+02 3.75125E+01 0.00000E+00
 -1      2099 1.44804E+02 3.67750E+01 0.00000E+00
 -1      2100 1.46103E+02 4.19375E+01 0.00000E+00
 -1      2101 1.46103E+02 4.04625E+01 0.00000E+00
 -1      2102 1.44804E+02 3.97250E+01 0.00000E+00
 -1      2103 6.25066E+01 2.23992E+01 0.00000E+00
 -1      2104 6.29041E+01 2.32604E+01 0.00000E+00
 -1      2105 6.31824E+01 2.63299E+01 0.00000E+00
 -1      2106 6.31885E+01 2.71445E+01 0.00000E+00
 -1      2107 6.31011E+01 2.44519E+01 0.00000E+00
 -1      2108 6.31417E+01 2.53909E+01 0.00000E+00
 -1      2109 6.39185E+01 2.57924E+01 0.00000E+00
 -1      2110 6.12337E+01 2.07326E+01 0.00000E+00
 -1      2111 6.18431E+01 2.14418E+01 0.00000E+00
 -1      2112 5.95417E+01 1.95177E+01 0.00000E+00
 -1      2113 6.03273E+01 2.00081E+01 0.00000E+00
 -1      2114 3.89700E+00 3.74688E+01 0.00000E+00
 -1      2115 3.89700E+00 3.89437E+01 0.00000E+00
 -1      2116 5.19600E+00 3.96813E+01 0.00000E+00
 -1      2117 5.19600E+00 3.67438E+01 0.00000E+00
 -1      2118 5.59510E+01 1.78376E+01 0.00000E+00
 -1      2119 5.68744E+01 1.79454E+01 0.00000E+00
 -1      2120 5.41004E+01 1.77211E+01 0.00000E+00
 -1      2121 5.50257E+01 1.77794E+01 0.00000E+00
 -1      2122 5.55820E+01 1.70231E+01 0.00000E+00
 -1      2123 5.19924E+01 1.82146E+01 0.00000E+00
 -1      2124 5.28971E+01 1.79485E+01 0.00000E+00
 -1      2125 5.01310E+01 1.87116E+01 0.00000E+00
 -1      2126 5.10617E+01 1.84631E+01 0.00000E+00
 -1      2127 5.13194E+01 1.76681E+01 0.00000E+00
 -1      2128 4.82791E+01 1.99822E+01 0.00000E+00
 -1      2129 4.90109E+01 1.93066E+01 0.00000E+00
 -1      2130 4.67892E+01 2.13092E+01 0.00000E+00
 -1      2131 4.74567E+01 2.06127E+01 0.00000E+00
 -1      2132 4.58714E+01 2.32950E+01 0.00000E+00
 -1      2133 4.61572E+01 2.24285E+01 0.00000E+00
 -1      2134 4.52919E+01 2.50274E+01 0.00000E+00
 -1      2135 4.55817E+01 2.41612E+01 0.00000E+00
 -1      2136 4.49499E+01 2.34725E+01 0.00000E+00
 -1      2137 4.53799E+01 2.71632E+01 0.00000E+00
 -1      2138 4.53115E+01 2.62301E+01 0.00000E+00
 -1      2139 4.54237E+01 2.90779E+01 0.00000E+00
 -1      2140 4.53086E+01 2.81477E+01 0.00000E+00
 -1      2141 4.63897E+01 3.10008E+01 0.00000E+00
 -1      2142 4.59248E+01 3.01912E+01 0.00000E+00
 -1      2143 4.75606E+01 3.25332E+01 0.00000E+00
 -1      2144 4.69826E+01 3.18494E+01 0.00000E+00
 -1      2145 4.89455E+01 3.39509E+01 0.00000E+00
 -1      2146 4.82214E+01 3.33573E+01 0.00000E+00
 -1      2147 5.06371E+01 3.51120E+01 0.00000E+00
 -1      2148 4.97992E+01 3.46043E+01 0.00000E+00
 -1      2149 5.27390E+01 3.56928E+01 0.00000E+00
 -1      2150 5.18137E+01 3.55205E+01 0.00000E+00
 -1      2151 5.46655E+01 3.58727E+01 0.00000E+00
 -1      2152 5.38112E+01 3.59028E+01 0.00000E+00
 -1      2153 5.63436E+01 3.57001E+01 0.00000E+00
 -1      2154 5.55045E+01 3.57864E+01 0.00000E+00
 -1      2155 5.51105E+01 3.67422E+01 0.00000E+00
 -1      2156 5.82259E+01 3.48865E+01 0.00000E+00
 -1      2157 5.74575E+01 3.52565E+01 0.00000E+00
 -1      2158 5.97111E+01 3.38769E+01 0.00000E+00
 -1      2159 5.90675E+01 3.43710E+01 0.00000E+00
 -1      2160 6.08591E+01 3.26102E+01 0.00000E+00
 -1      2161 6.03041E+01 3.31818E+01 0.00000E+00
 -1      2162 6.19303E+01 3.12803E+01 0.00000E+00
 -1      2163 6.15002E+01 3.19415E+01 0.00000E+00
 -1      2164 6.26121E+01 2.97178E+01 0.00000E+00
 -1      2165 6.23185E+01 3.04451E+01 0.00000E+00
 -1      2166 6.30204E+01 2.80737E+01 0.00000E+00
 -1      2167 6.28710E+01 2.88428E+01 0.00000E+00
 -1      2168 5.80440E+01 1.83982E+01 0.00000E+00
 -1      2169 5.87929E+01 1.89580E+01 0.00000E+00
 -1      2170 5.95954E+01 1.85468E+01 0.00000E+00
 -1      2171 6.42300E+00 4.57510E+01 0.00000E+00
 -1      2172 5.76769E+01 1.75342E+01 0.00000E+00
 -1      2173 7.17300E+00 4.44520E+01 0.00000E+00
 -1      2174 6.36809E+01 2.36619E+01 0.00000E+00
 -1      2175 6.28205E+01 2.15130E+01 0.00000E+00
 -1      2176 1.45665E+02 4.31193E+01 0.00000E+00
 -1      2177 6.37911E+01 2.76606E+01 0.00000E+00
 -1      2178 6.12506E+01 1.98310E+01 0.00000E+00
 -1      2179 6.33641E+01 2.94647E+01 0.00000E+00
 -1      2180 6.27169E+01 3.11748E+01 0.00000E+00
 -1      2181 6.16876E+01 3.26788E+01 0.00000E+00
 -1      2182 6.04535E+01 3.40426E+01 0.00000E+00
 -1      2183 5.70635E+01 3.62123E+01 0.00000E+00
 -1      2184 5.31993E+01 3.66185E+01 0.00000E+00
 -1      2185 5.09504E+01 3.60000E+01 0.00000E+00
 -1      2186 4.89200E+01 3.49382E+01 0.00000E+00
 -1      2187 4.74055E+01 3.34608E+01 0.00000E+00
 -1      2188 4.61518E+01 3.17882E+01 0.00000E+00
 -1      2189 4.50578E+01 2.98263E+01 0.00000E+00
 -1      2190 4.46797E+01 2.55414E+01 0.00000E+00
 -1      2191 4.58717E+01 2.14869E+01 0.00000E+00
 -1      2192 4.92686E+01 1.85116E+01 0.00000E+00
 -1      2193 4.95263E+01 1.77166E+01 0.00000E+00
 -1      2194 4.84063E+01 1.83116E+01 0.00000E+00
 -1      2195 5.34534E+01 1.71922E+01 0.00000E+00
 -1      2196 4.73262E+01 1.97371E+01 0.00000E+00
 -1      2197 4.46280E+01 2.77285E+01 0.00000E+00
 -1      2198 5.90189E+01 3.52532E+01 0.00000E+00
 -1      2199 1.07850E+01 5.30525E+00 0.00000E+00
 -1      2200 9.28500E+00 5.30525E+00 0.00000E+00
 -1      2201 6.49500E+00 3.01125E+01 0.00000E+00
 -1      2202 6.49500E+00 3.15875E+01 0.00000E+00
 -1      2203 6.49500E+00 3.30625E+01 0.00000E+00
 -1      2204 6.49500E+00 3.45375E+01 0.00000E+00
 -1      2205 7.79400E+00 3.23250E+01 0.00000E+00
 -1      2206 6.49500E+00 2.42125E+01 0.00000E+00
 -1      2207 6.49500E+00 2.56875E+01 0.00000E+00
 -1      2208 6.49500E+00 2.12625E+01 0.00000E+00
 -1      2209 6.49500E+00 2.27375E+01 0.00000E+00
 -1      2210 7.79400E+00 2.34750E+01 0.00000E+00
 -1      2211 6.49500E+00 1.83625E+01 0.00000E+00
 -1      2212 6.49500E+00 1.98125E+01 0.00000E+00
 -1      2213 7.79400E+00 2.05500E+01 0.00000E+00
 -1      2214 6.49500E+00 1.54125E+01 0.00000E+00
 -1      2215 6.49500E+00 1.68875E+01 0.00000E+00
 -1      2216 7.79400E+00 1.76250E+01 0.00000E+00
 -1      2217 6.49500E+00 1.24625E+01 0.00000E+00
 -1      2218 6.49500E+00 1.39375E+01 0.00000E+00
 -1      2219 7.79400E+00 1.46750E+01 0.00000E+00
 -1      2220 6.49500E+00 9.51250E+00 0.00000E+00
 -1      2221 6.49500E+00 1.09875E+01 0.00000E+00
 -1      2222 7.79400E+00 1.17250E+01 0.00000E+00
 -1      2223 6.45112E+01 2.29126E+01 0.00000E+00
 -1      2224 6.47082E+01 2.41042E+01 0.00000E+00
 -1      2225 1.37850E+01 5.30525E+00 0.00000E+00
 -1      2226 1.22850E+01 5.30525E+00 0.00000E+00
 -1      2227 1.15350E+01 6.60425E+00 0.00000E+00
 -1      2228 9.90000E+00 4.35050E+01 0.00000E+00
 -1      2229 1.14000E+01 4.35050E+01 0.00000E+00
 -1      2230 5.74622E+01 1.63518E+01 0.00000E+00
 -1      2231 5.86318E+01 1.68046E+01 0.00000E+00
 -1      2232 1.29000E+01 4.35050E+01 0.00000E+00
 -1      2233 1.44000E+01 4.35050E+01 0.00000E+00
 -1      2234 1.21500E+01 4.22060E+01 0.00000E+00
 -1      2235 1.59000E+01 4.35050E+01 0.00000E+00
 -1      2236 1.74000E+01 4.35050E+01 0.00000E+00
 -1      2237 1.51500E+01 4.22060E+01 0.00000E+00
 -1      2238 1.89000E+01 4.35050E+01 0.00000E+00
 -1      2239 2.04000E+01 4.35050E+01 0.00000E+00
 -1      2240 1.81500E+01 4.22060E+01 0.00000E+00
 -1      2241 2.19000E+01 4.35050E+01 0.00000E+00
 -1      2242 2.34000E+01 4.35050E+01 0.00000E+00
 -1      2243 2.11500E+01 4.22060E+01 0.00000E+00
 -1      2244 2.49000E+01 4.35050E+01 0.00000E+00
 -1      2245 2.64000E+01 4.35050E+01 0.00000E+00
 -1      2246 2.41500E+01 4.22060E+01 0.00000E+00
 -1      2247 2.79000E+01 4.35050E+01 0.00000E+00
 -1      2248 2.94000E+01 4.35050E+01 0.00000E+00
 -1      2249 2.71500E+01 4.22060E+01 0.00000E+00
 -1      2250 3.09000E+01 4.35050E+01 0.00000E+00
 -1      2251 3.24000E+01 4.35050E+01 0.00000E+00
 -1      2252 3.01500E+01 4.22060E+01 0.00000E+00
 -1      2253 3.39000E+01 4.35050E+01 0.00000E+00
 -1      2254 3.54000E+01 4.35050E+01 0.00000E+00
 -1      2255 3.31500E+01 4.22060E+01 0.00000E+00
 -1      2256 3.69000E+01 4.35050E+01 0.00000E+00
 -1      2257 3.84000E+01 4.35050E+01 0.00000E+00
 -1      2258 3.61500E+01 4.22060E+01 0.00000E+00
 -1      2259 3.99000E+01 4.35050E+01 0.00000E+00
 -1      2260 4.14000E+01 4.35050E+01 0.00000E+00
 -1      2261 3.91500E+01 4.22060E+01 0.00000E+00
 -1      2262 4.29000E+01 4.35050E+01 0.00000E+00
 -1      2263 4.44000E+01 4.35050E+01 0.00000E+00
 -1      2264 4.21500E+01 4.22060E+01 0.00000E+00
 -1      2265 4.59000E+01 4.35050E+01 0.00000E+00
 -1      2266 4.74000E+01 4.35050E+01 0.00000E+00
 -1      2267 4.51500E+01 4.22060E+01 0.00000E+00
 -1      2268 4.89000E+01 4.35050E+01 0.00000E+00
 -1      2269 5.04000E+01 4.35050E+01 0.00000E+00
 -1      2270 4.81500E+01 4.22060E+01 0.00000E+00
 -1      2271 5.19000E+01 4.35050E+01 0.00000E+00
 -1      2272 5.34000E+01 4.35050E+01 0.00000E+00
 -1      2273 5.11500E+01 4.22060E+01 0.00000E+00
 -1      2274 5.49000E+01 4.35050E+01 0.00000E+00
 -1      2275 5.64000E+01 4.35050E+01 0.00000E+00
 -1      2276 5.41500E+01 4.22060E+01 0.00000E+00
 -1      2277 5.79000E+01 4.35050E+01 0.00000E+00
 -1      2278 5.94000E+01 4.35050E+01 0.00000E+00
 -1      2279 5.71500E+01 4.22060E+01 0.00000E+00
 -1      2280 6.09000E+01 4.35050E+01 0.00000E+00
 -1      2281 6.24000E+01 4.35050E+01 0.00000E+00
 -1      2282 6.01500E+01 4.22060E+01 0.00000E+00
 -1      2283 6.39000E+01 4.35050E+01 0.00000E+00
 -1      2284 6.54000E+01 4.35050E+01 0.00000E+00
 -1      2285 6.31500E+01 4.22060E+01 0.00000E+00
 -1      2286 6.69000E+01 4.35050E+01 0.00000E+00
 -1      2287 6.84000E+01 4.35050E+01 0.00000E+00
 -1      2288 6.61500E+01 4.22060E+01 0.00000E+00
 -1      2289 6.99000E+01 4.35050E+01 0.00000E+00
 -1      2290 7.14000E+01 4.35050E+01 0.00000E+00
 -1      2291 6.91500E+01 4.22060E+01 0.00000E+00
 -1      2292 7.29000E+01 4.35050E+01 0.00000E+00
 -1      2293 7.44000E+01 4.35050E+01 0.00000E+00
 -1      2294 7.21500E+01 4.22060E+01 0.00000E+00
 -1      2295 7.59000E+01 4.35050E+01 0.00000E+00
 -1      2296 7.74000E+01 4.35050E+01 0.00000E+00
 -1      2297 7.51500E+01 4.22060E+01 0.00000E+00
 -1      2298 7.89000E+01 4.35050E+01 0.00000E+00
 -1      2299 8.04000E+01 4.35050E+01 0.00000E+00
 -1      2300 7.81500E+01 4.22060E+01 0.00000E+00
 -1      2301 8.19000E+01 4.35050E+01 0.00000E+00
 -1      2302 8.34000E+01 4.35050E+01 0.00000E+00
 -1      2303 8.11500E+01 4.22060E+01 0.00000E+00
 -1      2304 8.49000E+01 4.35050E+01 0.00000E+00
 -1      2305 8.64000E+01 4.35050E+01 0.00000E+00
 -1      2306 8.41500E+01 4.22060E+01 0.00000E+00
 -1      2307 8.79000E+01 4.35050E+01 0.00000E+00
 -1      2308 8.94000E+01 4.35050E+01 0.00000E+00
 -1      2309 8.71500E+01 4.22060E+01 0.00000E+00
 -1      2310 9.09000E+01 4.35050E+01 0.00000E+00
 -1      2311 9.24000E+01 4.35050E+01 0.00000E+00
 -1      2312 9.01500E+01 4.22060E+01 0.00000E+00
 -1      2313 9.39000E+01 4.35050E+01 0.00000E+00
 -1      2314 9.54000E+01 4.35050E+01 0.00000E+00
 -1      2315 9.31500E+01 4.22060E+01 0.00000E+00
 -1      2316 9.69000E+01 4.35050E+01 0.00000E+00
 -1      2317 9.84000E+01 4.35050E+01 0.00000E+00
 -1      2318 9.61500E+01 4.22060E+01 0.00000E+00
 -1      2319 9.99000E+01 4.35050E+01 0.00000E+00
 -1      2320 1.01400E+02 4.35050E+01 0.00000E+00
 -1      2321 9.91500E+01 4.22060E+01 0.00000E+00
 -1      2322 1.02900E+02 4.35050E+01 0.00000E+00
 -1      2323 1.04400E+02 4.35050E+01 0.00000E+00
 -1      2324 1.02150E+02 4.22060E+01 0.00000E+00
 -1      2325 1.05900E+02 4.35050E+01 0.00000E+00
 -1      2326 1.07400E+02 4.35050E+01 0.00000E+00
 -1      2327 1.05150E+02 4.22060E+01 0.00000E+00
 -1      2328 1.08900E+02 4.35050E+01 0.00000E+00
 -1      2329 1.10400E+02 4.35050E+01 0.00000E+00
 -1      2330 1.08150E+02 4.22060E+01 0.00000E+00
 -1      2331 1.11900E+02 4.35050E+01 0.00000E+00
 -1      2332 1.13400E+02 4.35050E+01 0.00000E+00
 -1      2333 1.11150E+02 4.22060E+01 0.00000E+00
 -1      2334 1.14900E+02 4.35050E+01 0.00000E+00
 -1      2335 1.16400E+02 4.35050E+01 0.00000E+00
 -1      2336 1.14150E+02 4.22060E+01 0.00000E+00
 -1      2337 1.17900E+02 4.35050E+01 0.00000E+00
 -1      2338 1.19400E+02 4.35050E+01 0.00000E+00
 -1      2339 1.17150E+02 4.22060E+01 0.00000E+00
 -1      2340 1.20900E+02 4.35050E+01 0.00000E+00
 -1      2341 1.22400E+02 4.35050E+01 0.00000E+00
 -1      2342 1.20150E+02 4.22060E+01 0.00000E+00
 -1      2343 1.23900E+02 4.35050E+01 0.00000E+00
 -1      2344 1.25400E+02 4.35050E+01 0.00000E+00
 -1      2345 1.23150E+02 4.22060E+01 0.00000E+00
 -1      2346 1.26900E+02 4.35050E+01 0.00000E+00
 -1      2347 1.28400E+02 4.35050E+01 0.00000E+00
 -1      2348 1.26150E+02 4.22060E+01 0.00000E+00
 -1      2349 1.29900E+02 4.35050E+01 0.00000E+00
 -1      2350 1.31400E+02 4.35050E+01 0.00000E+00
 -1      2351 1.29150E+02 4.22060E+01 0.00000E+00
 -1      2352 1.32900E+02 4.35050E+01 0.00000E+00
 -1      2353 1.34400E+02 4.35050E+01 0.00000E+00
 -1      2354 1.32150E+02 4.22060E+01 0.00000E+00
 -1      2355 1.35900E+02 4.35050E+01 0.00000E+00
 -1      2356 1.37400E+02 4.35050E+01 0.00000E+00
 -1      2357 1.35150E+02 4.22060E+01 0.00000E+00
 -1      2358 1.38900E+02 4.35050E+01 0.00000E+00
 -1      2359 1.40400E+02 4.35050E+01 0.00000E+00
 -1      2360 1.38150E+02 4.22060E+01 0.00000E+00
 -1      2361 1.97850E+01 5.30525E+00 0.00000E+00
 -1      2362 1.82850E+01 5.30525E+00 0.00000E+00
 -1      2363 2.27850E+01 5.30525E+00 0.00000E+00
 -1      2364 2.12850E+01 5.30525E+00 0.00000E+00
 -1      2365 2.05350E+01 6.60425E+00 0.00000E+00
 -1      2366 2.57850E+01 5.30525E+00 0.00000E+00
 -1      2367 2.42850E+01 5.30525E+00 0.00000E+00
 -1      2368 2.35350E+01 6.60425E+00 0.00000E+00
 -1      2369 2.87850E+01 5.30525E+00 0.00000E+00
 -1      2370 2.72850E+01 5.30525E+00 0.00000E+00
 -1      2371 2.65350E+01 6.60425E+00 0.00000E+00
 -1      2372 3.17850E+01 5.30525E+00 0.00000E+00
 -1      2373 3.02850E+01 5.30525E+00 0.00000E+00
 -1      2374 2.95350E+01 6.60425E+00 0.00000E+00
 -1      2375 3.47850E+01 5.30525E+00 0.00000E+00
 -1      2376 3.32850E+01 5.30525E+00 0.00000E+00
 -1      2377 3.25350E+01 6.60425E+00 0.00000E+00
 -1      2378 3.77850E+01 5.30525E+00 0.00000E+00
 -1      2379 3.62850E+01 5.30525E+00 0.00000E+00
 -1      2380 3.55350E+01 6.60425E+00 0.00000E+00
 -1      2381 4.07850E+01 5.30525E+00 0.00000E+00
 -1      2382 3.92850E+01 5.30525E+00 0.00000E+00
 -1      2383 3.85350E+01 6.60425E+00 0.00000E+00
 -1      2384 4.37850E+01 5.30525E+00 0.00000E+00
 -1      2385 4.22850E+01 5.30525E+00 0.00000E+00
 -1      2386 4.15350E+01 6.60425E+00 0.00000E+00
 -1      2387 4.67850E+01 5.30525E+00 0.00000E+00
 -1      2388 4.52850E+01 5.30525E+00 0.00000E+00
 -1      2389 4.45350E+01 6.60425E+00 0.00000E+00
 -1      2390 4.97850E+01 5.30525E+00 0.00000E+00
 -1      2391 4.82850E+01 5.30525E+00 0.00000E+00
 -1      2392 4.75350E+01 6.60425E+00 0.00000E+00
 -1      2393 5.27850E+01 5.30525E+00 0.00000E+00
 -1      2394 5.12850E+01 5.30525E+00 0.00000E+00
 -1      2395 5.05350E+01 6.60425E+00 0.00000E+00
 -1      2396 5.57850E+01 5.30525E+00 0.00000E+00
 -1      2397 5.42850E+01 5.30525E+00 0.00000E+00
 -1      2398 5.35350E+01 6.60425E+00 0.00000E+00
 -1      2399 5.87850E+01 5.30525E+00 0.00000E+00
 -1      2400 5.72850E+01 5.30525E+00 0.00000E+00
 -1      2401 5.65350E+01 6.60425E+00 0.00000E+00
 -1      2402 6.17850E+01 5.30525E+00 0.00000E+00
 -1      2403 6.02850E+01 5.30525E+00 0.00000E+00
 -1      2404 5.95350E+01 6.60425E+00 0.00000E+00
 -1      2405 6.47850E+01 5.30525E+00 0.00000E+00
 -1      2406 6.32850E+01 5.30525E+00 0.00000E+00
 -1      2407 6.25350E+01 6.60425E+00 0.00000E+00
 -1      2408 6.77850E+01 5.30525E+00 0.00000E+00
 -1      2409 6.62850E+01 5.30525E+00 0.00000E+00
 -1      2410 6.55350E+01 6.60425E+00 0.00000E+00
 -1      2411 7.07850E+01 5.30525E+00 0.00000E+00
 -1      2412 6.92850E+01 5.30525E+00 0.00000E+00
 -1      2413 6.85350E+01 6.60425E+00 0.00000E+00
 -1      2414 7.37850E+01 5.30525E+00 0.00000E+00
 -1      2415 7.22850E+01 5.30525E+00 0.00000E+00
 -1      2416 7.15350E+01 6.60425E+00 0.00000E+00
 -1      2417 7.67850E+01 5.30525E+00 0.00000E+00
 -1      2418 7.52850E+01 5.30525E+00 0.00000E+00
 -1      2419 7.45350E+01 6.60425E+00 0.00000E+00
 -1      2420 7.97850E+01 5.30525E+00 0.00000E+00
 -1      2421 7.82850E+01 5.30525E+00 0.00000E+00
 -1      2422 7.75350E+01 6.60425E+00 0.00000E+00
 -1      2423 8.27850E+01 5.30525E+00 0.00000E+00
 -1      2424 8.12850E+01 5.30525E+00 0.00000E+00
 -1      2425 8.05350E+01 6.60425E+00 0.00000E+00
 -1      2426 8.57850E+01 5.30525E+00 0.00000E+00
 -1      2427 8.42850E+01 5.30525E+00 0.00000E+00
 -1      2428 8.35350E+01 6.60425E+00 0.00000E+00
 -1      2429 8.87850E+01 5.30525E+00 0.00000E+00
 -1      2430 8.72850E+01 5.30525E+00 0.00000E+00
 -1      2431 8.65350E+01 6.60425E+00 0.00000E+00
 -1      2432 9.17850E+01 5.30525E+00 0.00000E+00
 -1      2433 9.02850E+01 5.30525E+00 0.00000E+00
 -1      2434 8.95350E+01 6.60425E+00 0.00000E+00
 -1      2435 9.47850E+01 5.30525E+00 0.00000E+00
 -1      2436 9.32850E+01 5.30525E+00 0.00000E+00
 -1      2437 9.25350E+01 6.60425E+00 0.00000E+00
 -1      2438 9.77850E+01 5.30525E+00 0.00000E+00
 -1      2439 9.62850E+01 5.30525E+00 0.00000E+00
 -1      2440 9.55350E+01 6.60425E+00 0.00000E+00
 -1      2441 1.00785E+02 5.30525E+00 0.00000E+00
 -1      2442 9.92850E+01 5.30525E+00 0.00000E+00
 -1      2443 9.85350E+01 6.60425E+00 0.00000E+00
 -1      2444 1.03785E+02 5.30525E+00 0.00000E+00
 -1      2445 1.02285E+02 5.30525E+00 0.00000E+00
 -1      2446 1.01535E+02 6.60425E+00 0.00000E+00
 -1      2447 1.06785E+02 5.30525E+00 0.00000E+00
 -1      2448 1.05285E+02 5.30525E+00 0.00000E+00
 -1      2449 1.04535E+02 6.60425E+00 0.00000E+00
 -1      2450 1.09785E+02 5.30525E+00 0.00000E+00
 -1      2451 1.08285E+02 5.30525E+00 0.00000E+00
 -1      2452 1.07535E+02 6.60425E+00 0.00000E+00
 -1      2453 1.12785E+02 5.30525E+00 0.00000E+00
 -1      2454 1.11285E+02 5.30525E+00 0.00000E+00
 -1      2455 1.10535E+02 6.60425E+00 0.00000E+00
 -1      2456 1.15785E+02 5.30525E+00 0.00000E+00
 -1      2457 1.14285E+02 5.30525E+00 0.00000E+00
 -1      2458 1.13535E+02 6.60425E+00 0.00000E+00
 -1      2459 1.18785E+02 5.30525E+00 0.00000E+00
 -1      2460 1.17285E+02 5.30525E+00 0.00000E+00
 -1      2461 1.16535E+02 6.60425E+00 0.00000E+00
 -1      2462 1.21785E+02 5.30525E+00 0.00000E+00
 -1      2463 1.20285E+02 5.30525E+00 0.00000E+00
 -1      2464 1.19535E+02 6.60425E+00 0.00000E+00
 -1      2465 1.24785E+02 5.30525E+00 0.00000E+00
 -1      2466 1.23285E+02 5.30525E+00 0.00000E+00
 -1      2467 1.22535E+02 6.60425E+00 0.00000E+00
 -1      2468 1.27785E+02 5.30525E+00 0.00000E+00
 -1      2469 1.26285E+02 5.30525E+00 0.00000E+00
 -1      2470 1.25535E+02 6.60425E+00 0.00000E+00
 -1      2471 1.30785E+02 5.30525E+00 0.00000E+00
 -1      2472 1.29285E+02 5.30525E+00 0.00000E+00
 -1      2473 1.28535E+02 6.60425E+00 0.00000E+00
 -1      2474 1.33785E+02 5.30525E+00 0.00000E+00
 -1      2475 1.32285E+02 5.30525E+00 0.00000E+00
 -1      2476 1.31535E+02 6.60425E+00 0.00000E+00
 -1      2477 1.36785E+02 5.30525E+00 0.00000E+00
 -1      2478 1.35285E+02 5.30525E+00 0.00000E+00
 -1      2479 1.34535E+02 6.60425E+00 0.00000E+00
 -1      2480 1.39785E+02 5.30525E+00 0.00000E+00
 -1      2481 1.38285E+02 5.30525E+00 0.00000E+00
 -1      2482 1.37535E+02 6.60425E+00 0.00000E+00
 -1      2483 1.42785E+02 5.30525E+00 0.00000E+00
 -1      2484 1.41285E+02 5.30525E+00 0.00000E+00
 -1      2485 1.40535E+02 6.60425E+00 0.00000E+00
 -1      2486 1.44336E+02 5.26953E+00 0.00000E+00
 -1      2487 1.43505E+02 1.69125E+01 0.00000E+00
 -1      2488 1.43505E+02 1.54375E+01 0.00000E+00
 -1      2489 1.43505E+02 1.98625E+01 0.00000E+00
 -1      2490 1.43505E+02 1.83875E+01 0.00000E+00
 -1      2491 1.42206E+02 1.76500E+01 0.00000E+00
 -1      2492 1.43505E+02 1.10625E+01 0.00000E+00
 -1      2493 1.43505E+02 9.58750E+00 0.00000E+00
 -1      2494 1.43505E+02 1.39750E+01 0.00000E+00
 -1      2495 1.43505E+02 1.25250E+01 0.00000E+00
 -1      2496 1.42206E+02 1.17875E+01 0.00000E+00
 -1      2497 1.42206E+02 1.47125E+01 0.00000E+00
 -1      2498 1.43505E+02 2.28125E+01 0.00000E+00
 -1      2499 1.43505E+02 2.13375E+01 0.00000E+00
 -1      2500 1.42206E+02 2.06000E+01 0.00000E+00
 -1      2501 1.43505E+02 2.57625E+01 0.00000E+00
 -1      2502 1.43505E+02 2.42875E+01 0.00000E+00
 -1      2503 1.42206E+02 2.35500E+01 0.00000E+00
 -1      2504 1.43505E+02 2.87125E+01 0.00000E+00
 -1      2505 1.43505E+02 2.72375E+01 0.00000E+00
 -1      2506 1.42206E+02 2.65000E+01 0.00000E+00
 -1      2507 1.43505E+02 3.16125E+01 0.00000E+00
 -1      2508 1.43505E+02 3.01625E+01 0.00000E+00
 -1      2509 1.42206E+02 2.94250E+01 0.00000E+00
 -1      2510 1.43505E+02 3.45625E+01 0.00000E+00
 -1      2511 1.43505E+02 3.30875E+01 0.00000E+00
 -1      2512 1.42206E+02 3.23500E+01 0.00000E+00
 -1      2513 1.43505E+02 3.75125E+01 0.00000E+00
 -1      2514 1.43505E+02 3.60375E+01 0.00000E+00
 -1      2515 1.42206E+02 3.53000E+01 0.00000E+00
 -1      2516 1.43505E+02 4.04625E+01 0.00000E+00
 -1      2517 1.43505E+02 3.89875E+01 0.00000E+00
 -1      2518 1.42206E+02 3.82500E+01 0.00000E+00
 -1      2519 6.31936E+01 2.05458E+01 0.00000E+00
 -1      2520 6.38571E+01 2.15032E+01 0.00000E+00
 -1      2521 1.44321E+02 4.30606E+01 0.00000E+00
 -1      2522 6.46366E+01 2.73337E+01 0.00000E+00
 -1      2523 6.44685E+01 2.82629E+01 0.00000E+00
 -1      2524 1.67850E+01 5.30525E+00 0.00000E+00
 -1      2525 1.52850E+01 5.30525E+00 0.00000E+00
 -1      2526 1.75350E+01 6.60425E+00 0.00000E+00
 -1      2527 6.45876E+01 2.52931E+01 0.00000E+00
 -1      2528 6.46282E+01 2.62321E+01 0.00000E+00
 -1      2529 6.42355E+01 2.92469E+01 0.00000E+00
 -1      2530 6.39766E+01 3.01218E+01 0.00000E+00
 -1      2531 6.55950E+00 4.28890E+01 0.00000E+00
 -1      2532 8.53650E+00 4.32410E+01 0.00000E+00
 -1      2533 9.28650E+00 4.19420E+01 0.00000E+00
 -1      2534 6.55950E+00 4.14140E+01 0.00000E+00
 -1      2535 6.14898E+01 1.86026E+01 0.00000E+00
 -1      2536 6.23962E+01 1.93271E+01 0.00000E+00
 -1      2537 5.35705E+01 3.75650E+01 0.00000E+00
 -1      2538 5.24983E+01 3.73551E+01 0.00000E+00
 -1      2539 4.48090E+01 2.16249E+01 0.00000E+00
 -1      2540 4.54410E+01 2.05056E+01 0.00000E+00
 -1      2541 6.49500E+00 2.71625E+01 0.00000E+00
 -1      2542 6.49500E+00 2.86375E+01 0.00000E+00
 -1      2543 7.79400E+00 2.93750E+01 0.00000E+00
 -1      2544 7.79400E+00 2.64250E+01 0.00000E+00
 -1      2545 4.64187E+01 1.94050E+01 0.00000E+00
 -1      2546 4.72411E+01 1.87745E+01 0.00000E+00
 -1      2547 5.51732E+01 1.61381E+01 0.00000E+00
 -1      2548 5.60985E+01 1.61963E+01 0.00000E+00
 -1      2549 5.27003E+01 1.65044E+01 0.00000E+00
 -1      2550 5.39036E+01 1.62771E+01 0.00000E+00
 -1      2551 5.06328E+01 1.69638E+01 0.00000E+00
 -1      2552 5.15635E+01 1.67153E+01 0.00000E+00
 -1      2553 4.37370E+01 2.81588E+01 0.00000E+00
 -1      2554 4.38084E+01 2.71743E+01 0.00000E+00
 -1      2555 4.41110E+01 2.36735E+01 0.00000E+00
 -1      2556 4.44007E+01 2.28072E+01 0.00000E+00
 -1      2557 5.98658E+01 3.56910E+01 0.00000E+00
 -1      2558 5.90242E+01 3.62065E+01 0.00000E+00
 -1      2559 4.37888E+01 2.59716E+01 0.00000E+00
 -1      2560 4.37692E+01 2.47690E+01 0.00000E+00
 -1      2561 4.28978E+01 2.64019E+01 0.00000E+00
 -1      2562 4.45264E+01 3.07349E+01 0.00000E+00
 -1      2563 4.40252E+01 2.96216E+01 0.00000E+00
 -1      2564 4.57452E+01 3.27036E+01 0.00000E+00
 -1      2565 4.51524E+01 3.18550E+01 0.00000E+00
 -1      2566 4.70669E+01 3.44093E+01 0.00000E+00
 -1      2567 4.64060E+01 3.35853E+01 0.00000E+00
 -1      2568 4.88257E+01 3.59459E+01 0.00000E+00
 -1      2569 4.79720E+01 3.52926E+01 0.00000E+00
 -1      2570 5.11750E+01 3.72519E+01 0.00000E+00
 -1      2571 4.99984E+01 3.68434E+01 0.00000E+00
 -1      2572 5.56349E+01 3.77188E+01 0.00000E+00
 -1      2573 5.47958E+01 3.78051E+01 0.00000E+00
 -1      2574 5.79687E+01 3.68650E+01 0.00000E+00
 -1      2575 5.68548E+01 3.73086E+01 0.00000E+00
 -1      2576 6.14662E+01 3.43060E+01 0.00000E+00
 -1      2577 6.08731E+01 3.50011E+01 0.00000E+00
 -1      2578 6.27483E+01 3.29686E+01 0.00000E+00
 -1      2579 6.21072E+01 3.36373E+01 0.00000E+00
 -1      2580 6.25268E+01 3.45958E+01 0.00000E+00
 -1      2581 6.36507E+01 3.11011E+01 0.00000E+00
 -1      2582 6.32625E+01 3.19363E+01 0.00000E+00
 -1      2583 5.96864E+01 1.74237E+01 0.00000E+00
 -1      2584 6.04353E+01 1.79835E+01 0.00000E+00
 -1      2585 6.15808E+01 1.74795E+01 0.00000E+00
 -1      2586 5.94717E+01 1.62413E+01 0.00000E+00
 -1      2587 8.07525E+00 5.11044E+00 0.00000E+00
 -1      2588 6.57525E+00 5.11044E+00 0.00000E+00
 -1      2589 6.40575E+00 6.01981E+00 0.00000E+00
 -1      2590 8.82525E+00 6.40944E+00 0.00000E+00
 -1      2591 4.74988E+01 1.79795E+01 0.00000E+00
 -1      2592 7.79400E+00 3.52687E+01 0.00000E+00
 -1      2593 6.49500E+00 3.60062E+01 0.00000E+00
 -1      2594 6.49500E+00 3.74750E+01 0.00000E+00
 -1      2595 6.54178E+01 2.45438E+01 0.00000E+00
 -1      2596 6.48843E+01 2.19455E+01 0.00000E+00
 -1      2597 6.59115E+01 2.23877E+01 0.00000E+00
 -1      2598 6.52574E+01 2.09783E+01 0.00000E+00
 -1      2599 6.40575E+00 7.49481E+00 0.00000E+00
 -1      2600 5.88155E+01 3.73028E+01 0.00000E+00
 -1      2601 5.65401E+01 3.83715E+01 0.00000E+00
 -1      2602 5.15463E+01 3.81984E+01 0.00000E+00
 -1      2603 6.50810E+01 2.89200E+01 0.00000E+00
 -1      2604 4.90503E+01 3.71977E+01 0.00000E+00
 -1      2605 1.43586E+02 6.56853E+00 0.00000E+00
 -1      2606 1.43419E+02 7.72713E+00 0.00000E+00
 -1      2607 4.69725E+01 3.54170E+01 0.00000E+00
 -1      2608 7.70475E+00 8.23231E+00 0.00000E+00
 -1      2609 6.34328E+01 1.93174E+01 0.00000E+00
 -1      2610 1.42758E+02 4.35929E+01 0.00000E+00
 -1      2611 1.43241E+02 4.17323E+01 0.00000E+00
 -1      2612 1.41942E+02 4.09948E+01 0.00000E+00
 -1      2613 1.41414E+02 4.35342E+01 0.00000E+00
 -1      2614 4.54066E+01 3.36521E+01 0.00000E+00
 -1      2615 6.53056E+01 2.68344E+01 0.00000E+00
 -1      2616 1.45350E+01 6.60425E+00 0.00000E+00
 -1      2617 6.45221E+01 3.08832E+01 0.00000E+00
 -1      2618 6.08784E+01 3.59544E+01 0.00000E+00
 -1      2619 6.36821E+01 3.28948E+01 0.00000E+00
 -1      2620 5.40949E+01 3.85417E+01 0.00000E+00
 -1      2621 4.32200E+01 2.41037E+01 0.00000E+00
 -1      2622 4.32056E+01 2.90674E+01 0.00000E+00
 -1      2623 4.23860E+01 2.85132E+01 0.00000E+00
 -1      2624 4.26742E+01 2.99761E+01 0.00000E+00
 -1      2625 4.97704E+01 1.67638E+01 0.00000E+00
 -1      2626 5.00146E+01 1.58110E+01 0.00000E+00
 -1      2627 4.89081E+01 1.65638E+01 0.00000E+00
 -1      2628 5.20137E+01 1.58001E+01 0.00000E+00
 -1      2629 4.42932E+01 1.96811E+01 0.00000E+00
 -1      2630 4.53560E+01 1.95430E+01 0.00000E+00
 -1      2631 4.52709E+01 1.85805E+01 0.00000E+00
 -1      2632 4.39700E+01 2.18259E+01 0.00000E+00
 -1      2633 6.55950E+00 3.99453E+01 0.00000E+00
 -1      2634 5.70534E+01 1.54668E+01 0.00000E+00
 -1      2635 5.44201E+01 1.54503E+01 0.00000E+00
 -1      2636 4.41198E+01 3.16504E+01 0.00000E+00
 -1      2637 1.42120E+02 8.46463E+00 0.00000E+00
 -1      2638 1.40664E+02 4.22352E+01 0.00000E+00
 -1      2639 9.09300E+00 1.98250E+01 0.00000E+00
 -1      2640 9.09300E+00 2.12750E+01 0.00000E+00
 -1      2641 9.09300E+00 2.27500E+01 0.00000E+00
 -1      2642 9.09300E+00 2.42250E+01 0.00000E+00
 -1      2643 1.03920E+01 2.20250E+01 0.00000E+00
 -1      2644 9.09300E+00 1.39375E+01 0.00000E+00
 -1      2645 9.09300E+00 1.54125E+01 0.00000E+00
 -1      2646 9.09300E+00 1.09875E+01 0.00000E+00
 -1      2647 9.09300E+00 1.24625E+01 0.00000E+00
 -1      2648 1.03920E+01 1.32000E+01 0.00000E+00
 -1      2649 6.38919E+01 1.81467E+01 0.00000E+00
 -1      2650 6.46893E+01 1.93654E+01 0.00000E+00
 -1      2651 1.22850E+01 7.90325E+00 0.00000E+00
 -1      2652 1.07850E+01 7.90325E+00 0.00000E+00
 -1      2653 6.64146E+01 2.40443E+01 0.00000E+00
 -1      2654 6.62940E+01 2.52333E+01 0.00000E+00
 -1      2655 8.91450E+00 8.42712E+00 0.00000E+00
 -1      2656 5.98859E+01 3.78433E+01 0.00000E+00
 -1      2657 5.88304E+01 3.85018E+01 0.00000E+00
 -1      2658 1.44000E+01 4.09070E+01 0.00000E+00
 -1      2659 1.59000E+01 4.09070E+01 0.00000E+00
 -1      2660 1.74000E+01 4.09070E+01 0.00000E+00
 -1      2661 1.89000E+01 4.09070E+01 0.00000E+00
 -1      2662 1.66500E+01 3.96080E+01 0.00000E+00
 -1      2663 2.04000E+01 4.09070E+01 0.00000E+00
 -1      2664 2.19000E+01 4.09070E+01 0.00000E+00
 -1      2665 1.96500E+01 3.96080E+01 0.00000E+00
 -1      2666 2.34000E+01 4.09070E+01 0.00000E+00
 -1      2667 2.49000E+01 4.09070E+01 0.00000E+00
 -1      2668 2.26500E+01 3.96080E+01 0.00000E+00
 -1      2669 2.64000E+01 4.09070E+01 0.00000E+00
 -1      2670 2.79000E+01 4.09070E+01 0.00000E+00
 -1      2671 2.56500E+01 3.96080E+01 0.00000E+00
 -1      2672 2.94000E+01 4.09070E+01 0.00000E+00
 -1      2673 3.09000E+01 4.09070E+01 0.00000E+00
 -1      2674 2.86500E+01 3.96080E+01 0.00000E+00
 -1      2675 3.24000E+01 4.09070E+01 0.00000E+00
 -1      2676 3.39000E+01 4.09070E+01 0.00000E+00
 -1      2677 3.16500E+01 3.96080E+01 0.00000E+00
 -1      2678 3.54000E+01 4.09070E+01 0.00000E+00
 -1      2679 3.69000E+01 4.09070E+01 0.00000E+00
 -1      2680 3.46500E+01 3.96080E+01 0.00000E+00
 -1      2681 3.84000E+01 4.09070E+01 0.00000E+00
 -1      2682 3.99000E+01 4.09070E+01 0.00000E+00
 -1      2683 3.76500E+01 3.96080E+01 0.00000E+00
 -1      2684 4.14000E+01 4.09070E+01 0.00000E+00
 -1      2685 4.29000E+01 4.09070E+01 0.00000E+00
 -1      2686 4.06500E+01 3.96080E+01 0.00000E+00
 -1      2687 4.44000E+01 4.09070E+01 0.00000E+00
 -1      2688 4.59000E+01 4.09070E+01 0.00000E+00
 -1      2689 4.36500E+01 3.96080E+01 0.00000E+00
 -1      2690 4.99365E+01 4.01506E+01 0.00000E+00
 -1      2691 5.14365E+01 4.01506E+01 0.00000E+00
 -1      2692 5.39851E+01 4.04938E+01 0.00000E+00
 -1      2693 5.54851E+01 4.04938E+01 0.00000E+00
 -1      2694 5.69851E+01 4.04938E+01 0.00000E+00
 -1      2695 5.92754E+01 4.06241E+01 0.00000E+00
 -1      2696 6.07754E+01 4.06241E+01 0.00000E+00
 -1      2697 6.22754E+01 4.06241E+01 0.00000E+00
 -1      2698 6.37754E+01 4.06241E+01 0.00000E+00
 -1      2699 6.14008E+01 3.90423E+01 0.00000E+00
 -1      2700 6.52754E+01 4.06241E+01 0.00000E+00
 -1      2701 6.67754E+01 4.06241E+01 0.00000E+00
 -1      2702 6.44008E+01 3.90423E+01 0.00000E+00
 -1      2703 6.82754E+01 4.06241E+01 0.00000E+00
 -1      2704 6.97754E+01 4.06241E+01 0.00000E+00
 -1      2705 6.74008E+01 3.90423E+01 0.00000E+00
 -1      2706 7.12754E+01 4.06241E+01 0.00000E+00
 -1      2707 7.27754E+01 4.06241E+01 0.00000E+00
 -1      2708 7.04008E+01 3.90423E+01 0.00000E+00
 -1      2709 7.42754E+01 4.06241E+01 0.00000E+00
 -1      2710 7.57754E+01 4.06241E+01 0.00000E+00
 -1      2711 7.34008E+01 3.90423E+01 0.00000E+00
 -1      2712 7.72754E+01 4.06241E+01 0.00000E+00
 -1      2713 7.87754E+01 4.06241E+01 0.00000E+00
 -1      2714 7.64008E+01 3.90423E+01 0.00000E+00
 -1      2715 8.02754E+01 4.06241E+01 0.00000E+00
 -1      2716 8.17754E+01 4.06241E+01 0.00000E+00
 -1      2717 7.94008E+01 3.90423E+01 0.00000E+00
 -1      2718 8.32754E+01 4.06241E+01 0.00000E+00
 -1      2719 8.47754E+01 4.06241E+01 0.00000E+00
 -1      2720 8.24008E+01 3.90423E+01 0.00000E+00
 -1      2721 8.62754E+01 4.06241E+01 0.00000E+00
 -1      2722 8.77754E+01 4.06241E+01 0.00000E+00
 -1      2723 8.54008E+01 3.90423E+01 0.00000E+00
 -1      2724 8.92754E+01 4.06241E+01 0.00000E+00
 -1      2725 9.07754E+01 4.06241E+01 0.00000E+00
 -1      2726 8.84008E+01 3.90423E+01 0.00000E+00
 -1      2727 9.22754E+01 4.06241E+01 0.00000E+00
 -1      2728 9.37754E+01 4.06241E+01 0.00000E+00
 -1      2729 9.14008E+01 3.90423E+01 0.00000E+00
 -1      2730 9.52754E+01 4.06241E+01 0.00000E+00
 -1      2731 9.67754E+01 4.06241E+01 0.00000E+00
 -1      2732 9.44008E+01 3.90423E+01 0.00000E+00
 -1      2733 9.82754E+01 4.06241E+01 0.00000E+00
 -1      2734 9.97754E+01 4.06241E+01 0.00000E+00
 -1      2735 9.74008E+01 3.90423E+01 0.00000E+00
 -1      2736 1.01275E+02 4.06241E+01 0.00000E+00
 -1      2737 1.02775E+02 4.06241E+01 0.00000E+00
 -1      2738 1.00401E+02 3.90423E+01 0.00000E+00
 -1      2739 1.04275E+02 4.06241E+01 0.00000E+00
 -1      2740 1.05775E+02 4.06241E+01 0.00000E+00
 -1      2741 1.03401E+02 3.90423E+01 0.00000E+00
 -1      2742 1.07275E+02 4.06241E+01 0.00000E+00
 -1      2743 1.08775E+02 4.06241E+01 0.00000E+00
 -1      2744 1.06401E+02 3.90423E+01 0.00000E+00
 -1      2745 1.10275E+02 4.06241E+01 0.00000E+00
 -1      2746 1.11775E+02 4.06241E+01 0.00000E+00
 -1      2747 1.09401E+02 3.90423E+01 0.00000E+00
 -1      2748 1.13275E+02 4.06241E+01 0.00000E+00
 -1      2749 1.14775E+02 4.06241E+01 0.00000E+00
 -1      2750 1.12401E+02 3.90423E+01 0.00000E+00
 -1      2751 1.16275E+02 4.06241E+01 0.00000E+00
 -1      2752 1.17775E+02 4.06241E+01 0.00000E+00
 -1      2753 1.15401E+02 3.90423E+01 0.00000E+00
 -1      2754 1.19275E+02 4.06241E+01 0.00000E+00
 -1      2755 1.20775E+02 4.06241E+01 0.00000E+00
 -1      2756 1.18401E+02 3.90423E+01 0.00000E+00
 -1      2757 1.22275E+02 4.06241E+01 0.00000E+00
 -1      2758 1.23775E+02 4.06241E+01 0.00000E+00
 -1      2759 1.21401E+02 3.90423E+01 0.00000E+00
 -1      2760 1.25275E+02 4.06241E+01 0.00000E+00
 -1      2761 1.26775E+02 4.06241E+01 0.00000E+00
 -1      2762 1.24401E+02 3.90423E+01 0.00000E+00
 -1      2763 1.28275E+02 4.06241E+01 0.00000E+00
 -1      2764 1.29775E+02 4.06241E+01 0.00000E+00
 -1      2765 1.27401E+02 3.90423E+01 0.00000E+00
 -1      2766 1.31275E+02 4.06241E+01 0.00000E+00
 -1      2767 1.32775E+02 4.06241E+01 0.00000E+00
 -1      2768 1.30401E+02 3.90423E+01 0.00000E+00
 -1      2769 1.34275E+02 4.06241E+01 0.00000E+00
 -1      2770 1.35775E+02 4.06241E+01 0.00000E+00
 -1      2771 1.33401E+02 3.90423E+01 0.00000E+00
 -1      2772 1.37275E+02 4.06241E+01 0.00000E+00
 -1      2773 1.38775E+02 4.06241E+01 0.00000E+00
 -1      2774 1.36401E+02 3.90423E+01 0.00000E+00
 -1      2775 2.42850E+01 7.90325E+00 0.00000E+00
 -1      2776 2.27850E+01 7.90325E+00 0.00000E+00
 -1      2777 4.49838E+01 3.46575E+01 0.00000E+00
 -1      2778 4.43230E+01 3.37758E+01 0.00000E+00
 -1      2779 2.12850E+01 7.90325E+00 0.00000E+00
 -1      2780 1.97850E+01 7.90325E+00 0.00000E+00
 -1      2781 2.20350E+01 9.20225E+00 0.00000E+00
 -1      2782 3.02850E+01 7.90325E+00 0.00000E+00
 -1      2783 2.87850E+01 7.90325E+00 0.00000E+00
 -1      2784 3.32850E+01 7.90325E+00 0.00000E+00
 -1      2785 3.17850E+01 7.90325E+00 0.00000E+00
 -1      2786 3.10350E+01 9.20225E+00 0.00000E+00
 -1      2787 3.62850E+01 7.90325E+00 0.00000E+00
 -1      2788 3.47850E+01 7.90325E+00 0.00000E+00
 -1      2789 3.40350E+01 9.20225E+00 0.00000E+00
 -1      2790 3.92850E+01 7.90325E+00 0.00000E+00
 -1      2791 3.77850E+01 7.90325E+00 0.00000E+00
 -1      2792 3.70350E+01 9.20225E+00 0.00000E+00
 -1      2793 4.22850E+01 7.90325E+00 0.00000E+00
 -1      2794 4.07850E+01 7.90325E+00 0.00000E+00
 -1      2795 4.00350E+01 9.20225E+00 0.00000E+00
 -1      2796 4.52850E+01 7.90325E+00 0.00000E+00
 -1      2797 4.37850E+01 7.90325E+00 0.00000E+00
 -1      2798 4.30350E+01 9.20225E+00 0.00000E+00
 -1      2799 4.82850E+01 7.90325E+00 0.00000E+00
 -1      2800 4.67850E+01 7.90325E+00 0.00000E+00
 -1      2801 4.60350E+01 9.20225E+00 0.00000E+00
 -1      2802 5.12850E+01 7.90325E+00 0.00000E+00
 -1      2803 4.97850E+01 7.90325E+00 0.00000E+00
 -1      2804 4.90350E+01 9.20225E+00 0.00000E+00
 -1      2805 5.42850E+01 7.90325E+00 0.00000E+00
 -1      2806 5.27850E+01 7.90325E+00 0.00000E+00
 -1      2807 5.20350E+01 9.20225E+00 0.00000E+00
 -1      2808 5.72850E+01 7.90325E+00 0.00000E+00
 -1      2809 5.57850E+01 7.90325E+00 0.00000E+00
 -1      2810 5.50350E+01 9.20225E+00 0.00000E+00
 -1      2811 6.02850E+01 7.90325E+00 0.00000E+00
 -1      2812 5.87850E+01 7.90325E+00 0.00000E+00
 -1      2813 5.80350E+01 9.20225E+00 0.00000E+00
 -1      2814 6.32850E+01 7.90325E+00 0.00000E+00
 -1      2815 6.17850E+01 7.90325E+00 0.00000E+00
 -1      2816 6.10350E+01 9.20225E+00 0.00000E+00
 -1      2817 6.62850E+01 7.90325E+00 0.00000E+00
 -1      2818 6.47850E+01 7.90325E+00 0.00000E+00
 -1      2819 6.40350E+01 9.20225E+00 0.00000E+00
 -1      2820 6.92850E+01 7.90325E+00 0.00000E+00
 -1      2821 6.77850E+01 7.90325E+00 0.00000E+00
 -1      2822 6.70350E+01 9.20225E+00 0.00000E+00
 -1      2823 7.22850E+01 7.90325E+00 0.00000E+00
 -1      2824 7.07850E+01 7.90325E+00 0.00000E+00
 -1      2825 7.00350E+01 9.20225E+00 0.00000E+00
 -1      2826 7.52850E+01 7.90325E+00 0.00000E+00
 -1      2827 7.37850E+01 7.90325E+00 0.00000E+00
 -1      2828 7.30350E+01 9.20225E+00 0.00000E+00
 -1      2829 7.82850E+01 7.90325E+00 0.00000E+00
 -1      2830 7.67850E+01 7.90325E+00 0.00000E+00
 -1      2831 7.60350E+01 9.20225E+00 0.00000E+00
 -1      2832 8.12850E+01 7.90325E+00 0.00000E+00
 -1      2833 7.97850E+01 7.90325E+00 0.00000E+00
 -1      2834 7.90350E+01 9.20225E+00 0.00000E+00
 -1      2835 8.42850E+01 7.90325E+00 0.00000E+00
 -1      2836 8.27850E+01 7.90325E+00 0.00000E+00
 -1      2837 8.20350E+01 9.20225E+00 0.00000E+00
 -1      2838 8.72850E+01 7.90325E+00 0.00000E+00
 -1      2839 8.57850E+01 7.90325E+00 0.00000E+00
 -1      2840 8.50350E+01 9.20225E+00 0.00000E+00
 -1      2841 9.02850E+01 7.90325E+00 0.00000E+00
 -1      2842 8.87850E+01 7.90325E+00 0.00000E+00
 -1      2843 8.80350E+01 9.20225E+00 0.00000E+00
 -1      2844 9.32850E+01 7.90325E+00 0.00000E+00
 -1      2845 9.17850E+01 7.90325E+00 0.00000E+00
 -1      2846 9.10350E+01 9.20225E+00 0.00000E+00
 -1      2847 9.62850E+01 7.90325E+00 0.00000E+00
 -1      2848 9.47850E+01 7.90325E+00 0.00000E+00
 -1      2849 9.40350E+01 9.20225E+00 0.00000E+00
 -1      2850 9.92850E+01 7.90325E+00 0.00000E+00
 -1      2851 9.77850E+01 7.90325E+00 0.00000E+00
 -1      2852 9.70350E+01 9.20225E+00 0.00000E+00
 -1      2853 1.02285E+02 7.90325E+00 0.00000E+00
 -1      2854 1.00785E+02 7.90325E+00 0.00000E+00
 -1      2855 1.00035E+02 9.20225E+00 0.00000E+00
 -1      2856 1.05285E+02 7.90325E+00 0.00000E+00
 -1      2857 1.03785E+02 7.90325E+00 0.00000E+00
 -1      2858 1.03035E+02 9.20225E+00 0.00000E+00
 -1      2859 1.08285E+02 7.90325E+00 0.00000E+00
 -1      2860 1.06785E+02 7.90325E+00 0.00000E+00
 -1      2861 1.06035E+02 9.20225E+00 0.00000E+00
 -1      2862 1.11285E+02 7.90325E+00 0.00000E+00
 -1      2863 1.09785E+02 7.90325E+00 0.00000E+00
 -1      2864 1.09035E+02 9.20225E+00 0.00000E+00
 -1      2865 1.14285E+02 7.90325E+00 0.00000E+00
 -1      2866 1.12785E+02 7.90325E+00 0.00000E+00
 -1      2867 1.12035E+02 9.20225E+00 0.00000E+00
 -1      2868 1.17285E+02 7.90325E+00 0.00000E+00
 -1      2869 1.15785E+02 7.90325E+00 0.00000E+00
 -1      2870 1.15035E+02 9.20225E+00 0.00000E+00
 -1      2871 1.20285E+02 7.90325E+00 0.00000E+00
 -1      2872 1.18785E+02 7.90325E+00 0.00000E+00
 -1      2873 1.18035E+02 9.20225E+00 0.00000E+00
 -1      2874 1.23285E+02 7.90325E+00 0.00000E+00
 -1      2875 1.21785E+02 7.90325E+00 0.00000E+00
 -1      2876 1.21035E+02 9.20225E+00 0.00000E+00
 -1      2877 1.26285E+02 7.90325E+00 0.00000E+00
 -1      2878 1.24785E+02 7.90325E+00 0.00000E+00
 -1      2879 1.24035E+02 9.20225E+00 0.00000E+00
 -1      2880 1.29285E+02 7.90325E+00 0.00000E+00
 -1      2881 1.27785E+02 7.90325E+00 0.00000E+00
 -1      2882 1.27035E+02 9.20225E+00 0.00000E+00
 -1      2883 1.32285E+02 7.90325E+00 0.00000E+00
 -1      2884 1.30785E+02 7.90325E+00 0.00000E+00
 -1      2885 1.30035E+02 9.20225E+00 0.00000E+00
 -1      2886 1.35285E+02 7.90325E+00 0.00000E+00
 -1      2887 1.33785E+02 7.90325E+00 0.00000E+00
 -1      2888 1.33035E+02 9.20225E+00 0.00000E+00
 -1      2889 1.38285E+02 7.90325E+00 0.00000E+00
 -1      2890 1.36785E+02 7.90325E+00 0.00000E+00
 -1      2891 1.36035E+02 9.20225E+00 0.00000E+00
 -1      2892 1.40953E+02 8.18394E+00 0.00000E+00
 -1      2893 1.39453E+02 8.18394E+00 0.00000E+00
 -1      2894 1.38703E+02 9.48294E+00 0.00000E+00
 -1      2895 1.41038E+02 1.00443E+01 0.00000E+00
 -1      2896 1.40907E+02 2.42875E+01 0.00000E+00
 -1      2897 1.40907E+02 2.28125E+01 0.00000E+00
 -1      2898 1.39852E+02 4.07948E+01 0.00000E+00
 -1      2899 1.40866E+02 4.08241E+01 0.00000E+00
 -1      2900 1.41130E+02 3.95543E+01 0.00000E+00
 -1      2901 1.38977E+02 3.92130E+01 0.00000E+00
 -1      2902 1.40907E+02 1.83875E+01 0.00000E+00
 -1      2903 1.40907E+02 1.69125E+01 0.00000E+00
 -1      2904 1.40907E+02 2.72375E+01 0.00000E+00
 -1      2905 1.40907E+02 2.57625E+01 0.00000E+00
 -1      2906 1.39608E+02 2.50250E+01 0.00000E+00
 -1      2907 1.40907E+02 2.13375E+01 0.00000E+00
 -1      2908 1.40907E+02 1.98625E+01 0.00000E+00
 -1      2909 1.39608E+02 1.91250E+01 0.00000E+00
 -1      2910 1.39608E+02 2.20750E+01 0.00000E+00
 -1      2911 1.82850E+01 7.90325E+00 0.00000E+00
 -1      2912 1.67850E+01 7.90325E+00 0.00000E+00
 -1      2913 1.90350E+01 9.20225E+00 0.00000E+00
 -1      2914 1.40907E+02 3.01375E+01 0.00000E+00
 -1      2915 1.40907E+02 2.86875E+01 0.00000E+00
 -1      2916 1.39608E+02 2.79500E+01 0.00000E+00
 -1      2917 1.40907E+02 3.30875E+01 0.00000E+00
 -1      2918 1.40907E+02 3.16125E+01 0.00000E+00
 -1      2919 1.39608E+02 3.08750E+01 0.00000E+00
 -1      2920 1.40907E+02 3.60375E+01 0.00000E+00
 -1      2921 1.40907E+02 3.45625E+01 0.00000E+00
 -1      2922 1.39608E+02 3.38250E+01 0.00000E+00
 -1      2923 1.41130E+02 3.80793E+01 0.00000E+00
 -1      2924 4.18826E+01 2.70199E+01 0.00000E+00
 -1      2925 4.18630E+01 2.58173E+01 0.00000E+00
 -1      2926 8.85168E+00 4.05347E+01 0.00000E+00
 -1      2927 1.02152E+01 4.07987E+01 0.00000E+00
 -1      2928 6.59912E+01 2.86160E+01 0.00000E+00
 -1      2929 6.57582E+01 2.95999E+01 0.00000E+00
 -1      2930 4.90646E+01 3.83940E+01 0.00000E+00
 -1      2931 4.78919E+01 3.74965E+01 0.00000E+00
 -1      2932 2.72850E+01 7.90325E+00 0.00000E+00
 -1      2933 2.57850E+01 7.90325E+00 0.00000E+00
 -1      2934 2.50350E+01 9.20225E+00 0.00000E+00
 -1      2935 2.80350E+01 9.20225E+00 0.00000E+00
 -1      2936 1.15576E+01 4.08528E+01 0.00000E+00
 -1      2937 1.30576E+01 4.08528E+01 0.00000E+00
 -1      2938 1.38076E+01 3.95538E+01 0.00000E+00
 -1      2939 1.11228E+01 3.94455E+01 0.00000E+00
 -1      2940 6.54988E+01 3.06643E+01 0.00000E+00
 -1      2941 6.51729E+01 3.16436E+01 0.00000E+00
 -1      2942 5.64781E+01 1.44538E+01 0.00000E+00
 -1      2943 5.78419E+01 1.46092E+01 0.00000E+00
 -1      2944 9.09300E+00 1.68813E+01 0.00000E+00
 -1      2945 9.09300E+00 1.83563E+01 0.00000E+00
 -1      2946 1.03920E+01 1.90812E+01 0.00000E+00
 -1      2947 1.03920E+01 1.61437E+01 0.00000E+00
 -1      2948 5.36738E+01 1.45007E+01 0.00000E+00
 -1      2949 5.49434E+01 1.43618E+01 0.00000E+00
 -1      2950 4.36111E+01 3.26696E+01 0.00000E+00
 -1      2951 4.29851E+01 3.15496E+01 0.00000E+00
 -1      2952 9.09300E+00 3.15875E+01 0.00000E+00
 -1      2953 9.09300E+00 3.30625E+01 0.00000E+00
 -1      2954 7.48818E+00 3.88019E+01 0.00000E+00
 -1      2955 5.12889E+01 1.50624E+01 0.00000E+00
 -1      2956 5.24257E+01 1.48515E+01 0.00000E+00
 -1      2957 4.28761E+01 2.21098E+01 0.00000E+00
 -1      2958 4.32844E+01 2.09275E+01 0.00000E+00
 -1      2959 6.63024E+01 2.63349E+01 0.00000E+00
 -1      2960 6.63108E+01 2.74366E+01 0.00000E+00
 -1      2961 6.72992E+01 2.58355E+01 0.00000E+00
 -1      2962 4.67677E+01 3.65323E+01 0.00000E+00
 -1      2963 4.58625E+01 3.56491E+01 0.00000E+00
 -1      2964 4.21925E+01 2.43009E+01 0.00000E+00
 -1      2965 4.25343E+01 2.32053E+01 0.00000E+00
 -1      2966 4.18486E+01 2.23069E+01 0.00000E+00
 -1      2967 1.52850E+01 7.90325E+00 0.00000E+00
 -1      2968 1.37850E+01 7.90325E+00 0.00000E+00
 -1      2969 1.30350E+01 9.20225E+00 0.00000E+00
 -1      2970 1.60350E+01 9.20225E+00 0.00000E+00
 -1      2971 4.65778E+01 1.74897E+01 0.00000E+00
 -1      2972 4.77429E+01 1.70268E+01 0.00000E+00
 -1      2973 4.79871E+01 1.60740E+01 0.00000E+00
 -1      2974 6.48568E+01 3.28357E+01 0.00000E+00
 -1      2975 6.43426E+01 3.38680E+01 0.00000E+00
 -1      2976 6.34664E+01 3.48549E+01 0.00000E+00
 -1      2977 6.28253E+01 3.55236E+01 0.00000E+00
 -1      2978 6.18593E+01 3.63385E+01 0.00000E+00
 -1      2979 6.08520E+01 3.70284E+01 0.00000E+00
 -1      2980 6.08669E+01 3.82274E+01 0.00000E+00
 -1      2981 6.27989E+01 3.65976E+01 0.00000E+00
 -1      2982 4.87781E+01 4.04494E+01 0.00000E+00
 -1      2983 9.09300E+00 3.45313E+01 0.00000E+00
 -1      2984 9.09300E+00 3.60000E+01 0.00000E+00
 -1      2985 1.03920E+01 3.37938E+01 0.00000E+00
 -1      2986 1.03920E+01 2.49750E+01 0.00000E+00
 -1      2987 9.09300E+00 2.57000E+01 0.00000E+00
 -1      2988 9.09300E+00 2.71750E+01 0.00000E+00
 -1      2989 6.61757E+01 1.86371E+01 0.00000E+00
 -1      2990 6.57165E+01 1.98077E+01 0.00000E+00
 -1      2991 6.67438E+01 2.02499E+01 0.00000E+00
 -1      2992 6.33061E+01 1.70146E+01 0.00000E+00
 -1      2993 6.45626E+01 1.70627E+01 0.00000E+00
 -1      2994 4.47789E+01 3.57728E+01 0.00000E+00
 -1      2995 9.66450E+00 9.72612E+00 0.00000E+00
 -1      2996 4.65281E+01 3.91504E+01 0.00000E+00
 -1      2997 4.72781E+01 4.04494E+01 0.00000E+00
 -1      2998 5.57318E+01 1.35042E+01 0.00000E+00
 -1      2999 5.27598E+01 4.02538E+01 0.00000E+00
 -1      3000 1.39608E+02 1.61875E+01 0.00000E+00
 -1      3001 1.40907E+02 1.54500E+01 0.00000E+00
 -1      3002 1.40907E+02 1.39875E+01 0.00000E+00
 -1      3003 5.82050E+01 4.00837E+01 0.00000E+00
 -1      3004 4.31882E+01 3.36750E+01 0.00000E+00
 -1      3005 1.40973E+02 1.27472E+01 0.00000E+00
 -1      3006 1.40973E+02 1.12847E+01 0.00000E+00
 -1      3007 1.39805E+02 1.10040E+01 0.00000E+00
 -1      3008 1.39674E+02 1.34847E+01 0.00000E+00
 -1      3009 6.69880E+01 2.81165E+01 0.00000E+00
 -1      3010 1.39831E+02 3.73418E+01 0.00000E+00
 -1      3011 5.29490E+01 1.37630E+01 0.00000E+00
 -1      3012 4.13512E+01 2.79286E+01 0.00000E+00
 -1      3013 6.71609E+01 2.21100E+01 0.00000E+00
 -1      3014 6.67878E+01 2.30772E+01 0.00000E+00
 -1      3015 6.76640E+01 2.37667E+01 0.00000E+00
 -1      3016 6.58334E+01 3.26168E+01 0.00000E+00
 -1      3017 6.64090E+01 3.03603E+01 0.00000E+00
 -1      3018 5.94634E+01 1.50477E+01 0.00000E+00
 -1      3019 6.05180E+01 1.56668E+01 0.00000E+00
 -1      3020 1.09635E+01 1.04636E+01 0.00000E+00
 -1      3021 4.67819E+01 3.77286E+01 0.00000E+00
 -1      3022 4.21655E+01 3.09953E+01 0.00000E+00
 -1      3023 4.13458E+01 3.04411E+01 0.00000E+00
 -1      3024 4.16567E+01 3.20146E+01 0.00000E+00
 -1      3025 6.46411E+01 3.47958E+01 0.00000E+00
 -1      3026 4.31993E+01 1.99649E+01 0.00000E+00
 -1      3027 4.31142E+01 1.90024E+01 0.00000E+00
 -1      3028 4.21054E+01 2.02488E+01 0.00000E+00
 -1      3029 9.09300E+00 2.86437E+01 0.00000E+00
 -1      3030 9.09300E+00 3.01187E+01 0.00000E+00
 -1      3031 1.03920E+01 3.08563E+01 0.00000E+00
 -1      3032 1.03920E+01 2.79188E+01 0.00000E+00
 -1      3033 8.78718E+00 3.80644E+01 0.00000E+00
 -1      3034 5.83129E+01 1.30217E+01 0.00000E+00
 -1      3035 5.88881E+01 1.40347E+01 0.00000E+00
 -1      3036 5.99344E+01 1.34602E+01 0.00000E+00
 -1      3037 4.55150E+01 1.76277E+01 0.00000E+00
 -1      3038 4.57591E+01 1.66749E+01 0.00000E+00
 -1      3039 4.44522E+01 1.77657E+01 0.00000E+00
 -1      3040 4.95642E+01 1.46625E+01 0.00000E+00
 -1      3041 5.04265E+01 1.48624E+01 0.00000E+00
 -1      3042 5.08385E+01 1.39138E+01 0.00000E+00
 -1      3043 6.13847E+01 1.60312E+01 0.00000E+00
 -1      3044 6.24393E+01 1.66503E+01 0.00000E+00
 -1      3045 6.31100E+01 1.55662E+01 0.00000E+00
 -1      3046 6.13765E+01 1.48376E+01 0.00000E+00
 -1      3047 1.16910E+01 1.24625E+01 0.00000E+00
 -1      3048 1.16910E+01 1.39375E+01 0.00000E+00
 -1      3049 4.44511E+01 3.69485E+01 0.00000E+00
 -1      3050 4.35723E+01 3.59569E+01 0.00000E+00
 -1      3051 6.52545E+01 1.59870E+01 0.00000E+00
 -1      3052 6.58404E+01 1.71191E+01 0.00000E+00
 -1      3053 4.54038E+01 3.81862E+01 0.00000E+00
 -1      3054 5.50358E+01 1.22677E+01 0.00000E+00
 -1      3055 5.65706E+01 1.23597E+01 0.00000E+00
 -1      3056 1.89000E+01 3.83090E+01 0.00000E+00
 -1      3057 2.04000E+01 3.83090E+01 0.00000E+00
 -1      3058 2.19000E+01 3.83090E+01 0.00000E+00
 -1      3059 2.34000E+01 3.83090E+01 0.00000E+00
 -1      3060 2.11500E+01 3.70100E+01 0.00000E+00
 -1      3061 2.49000E+01 3.83090E+01 0.00000E+00
 -1      3062 2.64000E+01 3.83090E+01 0.00000E+00
 -1      3063 2.41500E+01 3.70100E+01 0.00000E+00
 -1      3064 2.79000E+01 3.83090E+01 0.00000E+00
 -1      3065 2.94000E+01 3.83090E+01 0.00000E+00
 -1      3066 2.71500E+01 3.70100E+01 0.00000E+00
 -1      3067 3.09000E+01 3.83090E+01 0.00000E+00
 -1      3068 3.24000E+01 3.83090E+01 0.00000E+00
 -1      3069 3.01500E+01 3.70100E+01 0.00000E+00
 -1      3070 3.39000E+01 3.83090E+01 0.00000E+00
 -1      3071 3.54000E+01 3.83090E+01 0.00000E+00
 -1      3072 3.31500E+01 3.70100E+01 0.00000E+00
 -1      3073 3.69000E+01 3.83090E+01 0.00000E+00
 -1      3074 3.84000E+01 3.83090E+01 0.00000E+00
 -1      3075 3.61500E+01 3.70100E+01 0.00000E+00
 -1      3076 4.26972E+01 3.83703E+01 0.00000E+00
 -1      3077 4.41972E+01 3.83703E+01 0.00000E+00
 -1      3078 6.66508E+01 3.77433E+01 0.00000E+00
 -1      3079 6.81508E+01 3.77433E+01 0.00000E+00
 -1      3080 6.96508E+01 3.77433E+01 0.00000E+00
 -1      3081 7.11508E+01 3.77433E+01 0.00000E+00
 -1      3082 6.89008E+01 3.64443E+01 0.00000E+00
 -1      3083 7.26508E+01 3.77433E+01 0.00000E+00
 -1      3084 7.41508E+01 3.77433E+01 0.00000E+00
 -1      3085 7.19008E+01 3.64443E+01 0.00000E+00
 -1      3086 7.56508E+01 3.77433E+01 0.00000E+00
 -1      3087 7.71508E+01 3.77433E+01 0.00000E+00
 -1      3088 7.49008E+01 3.64443E+01 0.00000E+00
 -1      3089 7.86508E+01 3.77433E+01 0.00000E+00
 -1      3090 8.01508E+01 3.77433E+01 0.00000E+00
 -1      3091 7.79008E+01 3.64443E+01 0.00000E+00
 -1      3092 8.16508E+01 3.77433E+01 0.00000E+00
 -1      3093 8.31508E+01 3.77433E+01 0.00000E+00
 -1      3094 8.09008E+01 3.64443E+01 0.00000E+00
 -1      3095 8.46508E+01 3.77433E+01 0.00000E+00
 -1      3096 8.61508E+01 3.77433E+01 0.00000E+00
 -1      3097 8.39008E+01 3.64443E+01 0.00000E+00
 -1      3098 8.76508E+01 3.77433E+01 0.00000E+00
 -1      3099 8.91508E+01 3.77433E+01 0.00000E+00
 -1      3100 8.69008E+01 3.64443E+01 0.00000E+00
 -1      3101 9.06508E+01 3.77433E+01 0.00000E+00
 -1      3102 9.21508E+01 3.77433E+01 0.00000E+00
 -1      3103 8.99008E+01 3.64443E+01 0.00000E+00
 -1      3104 9.36508E+01 3.77433E+01 0.00000E+00
 -1      3105 9.51508E+01 3.77433E+01 0.00000E+00
 -1      3106 9.29008E+01 3.64443E+01 0.00000E+00
 -1      3107 9.66508E+01 3.77433E+01 0.00000E+00
 -1      3108 9.81508E+01 3.77433E+01 0.00000E+00
 -1      3109 9.59008E+01 3.64443E+01 0.00000E+00
 -1      3110 9.96508E+01 3.77433E+01 0.00000E+00
 -1      3111 1.01151E+02 3.77433E+01 0.00000E+00
 -1      3112 9.89008E+01 3.64443E+01 0.00000E+00
 -1      3113 1.02651E+02 3.77433E+01 0.00000E+00
 -1      3114 1.04151E+02 3.77433E+01 0.00000E+00
 -1      3115 1.01901E+02 3.64443E+01 0.00000E+00
 -1      3116 1.05651E+02 3.77433E+01 0.00000E+00
 -1      3117 1.07151E+02 3.77433E+01 0.00000E+00
 -1      3118 1.04901E+02 3.64443E+01 0.00000E+00
 -1      3119 1.08651E+02 3.77433E+01 0.00000E+00
 -1      3120 1.10151E+02 3.77433E+01 0.00000E+00
 -1      3121 1.07901E+02 3.64443E+01 0.00000E+00
 -1      3122 1.11651E+02 3.77433E+01 0.00000E+00
 -1      3123 1.13151E+02 3.77433E+01 0.00000E+00
 -1      3124 1.10901E+02 3.64443E+01 0.00000E+00
 -1      3125 1.14651E+02 3.77433E+01 0.00000E+00
 -1      3126 1.16151E+02 3.77433E+01 0.00000E+00
 -1      3127 1.13901E+02 3.64443E+01 0.00000E+00
 -1      3128 1.17651E+02 3.77433E+01 0.00000E+00
 -1      3129 1.19151E+02 3.77433E+01 0.00000E+00
 -1      3130 1.16901E+02 3.64443E+01 0.00000E+00
 -1      3131 1.20651E+02 3.77433E+01 0.00000E+00
 -1      3132 1.22151E+02 3.77433E+01 0.00000E+00
 -1      3133 1.19901E+02 3.64443E+01 0.00000E+00
 -1      3134 1.23651E+02 3.77433E+01 0.00000E+00
 -1      3135 1.25151E+02 3.77433E+01 0.00000E+00
 -1      3136 1.22901E+02 3.64443E+01 0.00000E+00
 -1      3137 1.26651E+02 3.77433E+01 0.00000E+00
 -1      3138 1.28151E+02 3.77433E+01 0.00000E+00
 -1      3139 1.25901E+02 3.64443E+01 0.00000E+00
 -1      3140 1.29651E+02 3.77433E+01 0.00000E+00
 -1      3141 1.31151E+02 3.77433E+01 0.00000E+00
 -1      3142 1.28901E+02 3.64443E+01 0.00000E+00
 -1      3143 1.32651E+02 3.77433E+01 0.00000E+00
 -1      3144 1.34151E+02 3.77433E+01 0.00000E+00
 -1      3145 1.31901E+02 3.64443E+01 0.00000E+00
 -1      3146 1.35651E+02 3.77433E+01 0.00000E+00
 -1      3147 1.37151E+02 3.77433E+01 0.00000E+00
 -1      3148 1.34901E+02 3.64443E+01 0.00000E+00
 -1      3149 1.38309E+02 2.86750E+01 0.00000E+00
 -1      3150 1.38309E+02 2.72250E+01 0.00000E+00
 -1      3151 3.47850E+01 1.05013E+01 0.00000E+00
 -1      3152 3.32850E+01 1.05013E+01 0.00000E+00
 -1      3153 3.17850E+01 1.05013E+01 0.00000E+00
 -1      3154 3.02850E+01 1.05013E+01 0.00000E+00
 -1      3155 3.25350E+01 1.18003E+01 0.00000E+00
 -1      3156 4.07850E+01 1.05013E+01 0.00000E+00
 -1      3157 3.92850E+01 1.05013E+01 0.00000E+00
 -1      3158 4.37850E+01 1.05013E+01 0.00000E+00
 -1      3159 4.22850E+01 1.05013E+01 0.00000E+00
 -1      3160 4.15350E+01 1.18003E+01 0.00000E+00
 -1      3161 4.67850E+01 1.05013E+01 0.00000E+00
 -1      3162 4.52850E+01 1.05013E+01 0.00000E+00
 -1      3163 4.45350E+01 1.18003E+01 0.00000E+00
 -1      3164 5.02556E+01 1.14580E+01 0.00000E+00
 -1      3165 4.87556E+01 1.14580E+01 0.00000E+00
 -1      3166 5.62048E+01 1.01627E+01 0.00000E+00
 -1      3167 5.47048E+01 1.01627E+01 0.00000E+00
 -1      3168 5.94471E+01 1.08248E+01 0.00000E+00
 -1      3169 5.79471E+01 1.08248E+01 0.00000E+00
 -1      3170 6.09471E+01 1.08248E+01 0.00000E+00
 -1      3171 6.47850E+01 1.05013E+01 0.00000E+00
 -1      3172 6.32850E+01 1.05013E+01 0.00000E+00
 -1      3173 6.77850E+01 1.05013E+01 0.00000E+00
 -1      3174 6.62850E+01 1.05013E+01 0.00000E+00
 -1      3175 6.55350E+01 1.18003E+01 0.00000E+00
 -1      3176 7.07850E+01 1.05013E+01 0.00000E+00
 -1      3177 6.92850E+01 1.05013E+01 0.00000E+00
 -1      3178 6.85350E+01 1.18003E+01 0.00000E+00
 -1      3179 7.37850E+01 1.05013E+01 0.00000E+00
 -1      3180 7.22850E+01 1.05013E+01 0.00000E+00
 -1      3181 7.15350E+01 1.18003E+01 0.00000E+00
 -1      3182 7.67850E+01 1.05013E+01 0.00000E+00
 -1      3183 7.52850E+01 1.05013E+01 0.00000E+00
 -1      3184 7.45350E+01 1.18003E+01 0.00000E+00
 -1      3185 7.97850E+01 1.05013E+01 0.00000E+00
 -1      3186 7.82850E+01 1.05013E+01 0.00000E+00
 -1      3187 7.75350E+01 1.18003E+01 0.00000E+00
 -1      3188 8.27850E+01 1.05013E+01 0.00000E+00
 -1      3189 8.12850E+01 1.05013E+01 0.00000E+00
 -1      3190 8.05350E+01 1.18003E+01 0.00000E+00
 -1      3191 8.57850E+01 1.05013E+01 0.00000E+00
 -1      3192 8.42850E+01 1.05013E+01 0.00000E+00
 -1      3193 8.35350E+01 1.18003E+01 0.00000E+00
 -1      3194 8.87850E+01 1.05013E+01 0.00000E+00
 -1      3195 8.72850E+01 1.05013E+01 0.00000E+00
 -1      3196 8.65350E+01 1.18003E+01 0.00000E+00
 -1      3197 9.17850E+01 1.05013E+01 0.00000E+00
 -1      3198 9.02850E+01 1.05013E+01 0.00000E+00
 -1      3199 8.95350E+01 1.18003E+01 0.00000E+00
 -1      3200 9.47850E+01 1.05013E+01 0.00000E+00
 -1      3201 9.32850E+01 1.05013E+01 0.00000E+00
 -1      3202 9.25350E+01 1.18003E+01 0.00000E+00
 -1      3203 9.77850E+01 1.05013E+01 0.00000E+00
 -1      3204 9.62850E+01 1.05013E+01 0.00000E+00
 -1      3205 9.55350E+01 1.18003E+01 0.00000E+00
 -1      3206 1.00785E+02 1.05013E+01 0.00000E+00
 -1      3207 9.92850E+01 1.05013E+01 0.00000E+00
 -1      3208 9.85350E+01 1.18003E+01 0.00000E+00
 -1      3209 1.03785E+02 1.05013E+01 0.00000E+00
 -1      3210 1.02285E+02 1.05013E+01 0.00000E+00
 -1      3211 1.01535E+02 1.18003E+01 0.00000E+00
 -1      3212 1.06785E+02 1.05013E+01 0.00000E+00
 -1      3213 1.05285E+02 1.05013E+01 0.00000E+00
 -1      3214 1.04535E+02 1.18003E+01 0.00000E+00
 -1      3215 1.09785E+02 1.05013E+01 0.00000E+00
 -1      3216 1.08285E+02 1.05013E+01 0.00000E+00
 -1      3217 1.07535E+02 1.18003E+01 0.00000E+00
 -1      3218 1.12785E+02 1.05013E+01 0.00000E+00
 -1      3219 1.11285E+02 1.05013E+01 0.00000E+00
 -1      3220 1.10535E+02 1.18003E+01 0.00000E+00
 -1      3221 1.15785E+02 1.05013E+01 0.00000E+00
 -1      3222 1.14285E+02 1.05013E+01 0.00000E+00
 -1      3223 1.13535E+02 1.18003E+01 0.00000E+00
 -1      3224 1.18785E+02 1.05013E+01 0.00000E+00
 -1      3225 1.17285E+02 1.05013E+01 0.00000E+00
 -1      3226 1.16535E+02 1.18003E+01 0.00000E+00
 -1      3227 1.21785E+02 1.05013E+01 0.00000E+00
 -1      3228 1.20285E+02 1.05013E+01 0.00000E+00
 -1      3229 1.19535E+02 1.18003E+01 0.00000E+00
 -1      3230 1.24785E+02 1.05013E+01 0.00000E+00
 -1      3231 1.23285E+02 1.05013E+01 0.00000E+00
 -1      3232 1.22535E+02 1.18003E+01 0.00000E+00
 -1      3233 1.27785E+02 1.05013E+01 0.00000E+00
 -1      3234 1.26285E+02 1.05013E+01 0.00000E+00
 -1      3235 1.25535E+02 1.18003E+01 0.00000E+00
 -1      3236 1.30785E+02 1.05013E+01 0.00000E+00
 -1      3237 1.29285E+02 1.05013E+01 0.00000E+00
 -1      3238 1.28535E+02 1.18003E+01 0.00000E+00
 -1      3239 1.33785E+02 1.05013E+01 0.00000E+00
 -1      3240 1.32285E+02 1.05013E+01 0.00000E+00
 -1      3241 1.31535E+02 1.18003E+01 0.00000E+00
 -1      3242 1.36785E+02 1.05013E+01 0.00000E+00
 -1      3243 1.35285E+02 1.05013E+01 0.00000E+00
 -1      3244 1.34535E+02 1.18003E+01 0.00000E+00
 -1      3245 1.38879E+02 1.08930E+01 0.00000E+00
 -1      3246 1.37711E+02 1.06123E+01 0.00000E+00
 -1      3247 1.36961E+02 1.19113E+01 0.00000E+00
 -1      3248 1.38813E+02 1.21333E+01 0.00000E+00
 -1      3249 1.38754E+02 3.71711E+01 0.00000E+00
 -1      3250 1.16910E+01 2.12875E+01 0.00000E+00
 -1      3251 1.16910E+01 2.27625E+01 0.00000E+00
 -1      3252 4.11773E+01 2.49189E+01 0.00000E+00
 -1      3253 1.38309E+02 3.16250E+01 0.00000E+00
 -1      3254 1.38309E+02 3.01500E+01 0.00000E+00
 -1      3255 1.37010E+02 2.94250E+01 0.00000E+00
 -1      3256 1.38309E+02 2.57500E+01 0.00000E+00
 -1      3257 1.38309E+02 2.42750E+01 0.00000E+00
 -1      3258 1.37010E+02 2.64750E+01 0.00000E+00
 -1      3259 6.84877E+01 2.52756E+01 0.00000E+00
 -1      3260 6.84961E+01 2.63772E+01 0.00000E+00
 -1      3261 4.05521E+01 2.90294E+01 0.00000E+00
 -1      3262 4.00487E+01 2.75362E+01 0.00000E+00
 -1      3263 3.77850E+01 1.05013E+01 0.00000E+00
 -1      3264 3.62850E+01 1.05013E+01 0.00000E+00
 -1      3265 3.55350E+01 1.18003E+01 0.00000E+00
 -1      3266 3.85350E+01 1.18003E+01 0.00000E+00
 -1      3267 1.26488E+01 1.02017E+01 0.00000E+00
 -1      3268 1.20772E+01 1.14631E+01 0.00000E+00
 -1      3269 1.33763E+01 1.22006E+01 0.00000E+00
 -1      3270 1.41488E+01 1.02017E+01 0.00000E+00
 -1      3271 2.27850E+01 1.05013E+01 0.00000E+00
 -1      3272 2.12850E+01 1.05013E+01 0.00000E+00
 -1      3273 6.23669E+01 3.82274E+01 0.00000E+00
 -1      3274 1.59000E+01 3.83090E+01 0.00000E+00
 -1      3275 1.74000E+01 3.83090E+01 0.00000E+00
 -1      3276 1.81500E+01 3.70100E+01 0.00000E+00
 -1      3277 6.70633E+01 3.23050E+01 0.00000E+00
 -1      3278 6.67472E+01 3.34971E+01 0.00000E+00
 -1      3279 1.97850E+01 1.05013E+01 0.00000E+00
 -1      3280 1.82850E+01 1.05013E+01 0.00000E+00
 -1      3281 2.05350E+01 1.18003E+01 0.00000E+00
 -1      3282 1.38004E+02 3.58721E+01 0.00000E+00
 -1      3283 6.64591E+01 3.51266E+01 0.00000E+00
 -1      3284 6.55829E+01 3.61135E+01 0.00000E+00
 -1      3285 1.00862E+01 3.73269E+01 0.00000E+00
 -1      3286 4.70260E+01 1.53528E+01 0.00000E+00
 -1      3287 4.81911E+01 1.48898E+01 0.00000E+00
 -1      3288 4.26821E+01 3.47829E+01 0.00000E+00
 -1      3289 4.19703E+01 3.36767E+01 0.00000E+00
 -1      3290 4.08591E+01 2.25993E+01 0.00000E+00
 -1      3291 4.12009E+01 2.15038E+01 0.00000E+00
 -1      3292 6.75822E+01 3.01761E+01 0.00000E+00
 -1      3293 6.73228E+01 3.12406E+01 0.00000E+00
 -1      3294 6.82366E+01 3.21208E+01 0.00000E+00
 -1      3295 6.82214E+01 2.78174E+01 0.00000E+00
 -1      3296 6.79018E+01 2.89967E+01 0.00000E+00
 -1      3297 6.88156E+01 2.98770E+01 0.00000E+00
 -1      3298 4.00108E+01 2.54594E+01 0.00000E+00
 -1      3299 4.03404E+01 2.39430E+01 0.00000E+00
 -1      3300 1.16910E+01 2.42375E+01 0.00000E+00
 -1      3301 1.16910E+01 2.57125E+01 0.00000E+00
 -1      3302 1.29900E+01 2.35000E+01 0.00000E+00
 -1      3303 6.68676E+01 1.75614E+01 0.00000E+00
 -1      3304 2.42850E+01 1.05013E+01 0.00000E+00
 -1      3305 2.35350E+01 1.18003E+01 0.00000E+00
 -1      3306 2.57850E+01 1.05013E+01 0.00000E+00
 -1      3307 4.23543E+01 3.59586E+01 0.00000E+00
 -1      3308 1.38309E+02 1.69188E+01 0.00000E+00
 -1      3309 1.38309E+02 1.54563E+01 0.00000E+00
 -1      3310 5.34075E+01 1.25351E+01 0.00000E+00
 -1      3311 5.42462E+01 1.13906E+01 0.00000E+00
 -1      3312 5.30765E+01 1.04301E+01 0.00000E+00
 -1      3313 5.21594E+01 1.28859E+01 0.00000E+00
 -1      3314 3.95571E+01 3.58973E+01 0.00000E+00
 -1      3315 4.03071E+01 3.71963E+01 0.00000E+00
 -1      3316 3.92117E+01 2.65603E+01 0.00000E+00
 -1      3317 3.83747E+01 2.55844E+01 0.00000E+00
 -1      3318 3.84126E+01 2.76611E+01 0.00000E+00
 -1      3319 4.18071E+01 3.71963E+01 0.00000E+00
 -1      3320 6.94099E+01 2.72575E+01 0.00000E+00
 -1      3321 1.16910E+01 3.30594E+01 0.00000E+00
 -1      3322 1.16910E+01 3.45281E+01 0.00000E+00
 -1      3323 1.32152E+01 3.82007E+01 0.00000E+00
 -1      3324 1.45576E+01 3.82548E+01 0.00000E+00
 -1      3325 1.53076E+01 3.69558E+01 0.00000E+00
 -1      3326 6.33329E+01 3.74125E+01 0.00000E+00
 -1      3327 6.48329E+01 3.74125E+01 0.00000E+00
 -1      3328 1.37010E+02 2.35250E+01 0.00000E+00
 -1      3329 1.38309E+02 2.28000E+01 0.00000E+00
 -1      3330 1.38309E+02 2.13250E+01 0.00000E+00
 -1      3331 1.14286E+01 3.73811E+01 0.00000E+00
 -1      3332 2.95350E+01 1.18003E+01 0.00000E+00
 -1      3333 2.87850E+01 1.05013E+01 0.00000E+00
 -1      3334 2.72850E+01 1.05013E+01 0.00000E+00
 -1      3335 4.80056E+01 1.27570E+01 0.00000E+00
 -1      3336 5.15765E+01 1.04301E+01 0.00000E+00
 -1      3337 6.16971E+01 1.21238E+01 0.00000E+00
 -1      3338 4.00433E+01 3.00487E+01 0.00000E+00
 -1      3339 1.38309E+02 1.98594E+01 0.00000E+00
 -1      3340 1.38309E+02 1.83844E+01 0.00000E+00
 -1      3341 1.37010E+02 1.76531E+01 0.00000E+00
 -1      3342 1.37010E+02 2.05844E+01 0.00000E+00
 -1      3343 1.16910E+01 1.98188E+01 0.00000E+00
 -1      3344 1.29900E+01 2.05562E+01 0.00000E+00
 -1      3345 1.16910E+01 1.83500E+01 0.00000E+00
 -1      3346 6.88608E+01 2.43084E+01 0.00000E+00
 -1      3347 7.00577E+01 2.48502E+01 0.00000E+00
 -1      3348 6.92339E+01 2.33413E+01 0.00000E+00
 -1      3349 1.38309E+02 3.45625E+01 0.00000E+00
 -1      3350 1.38309E+02 3.30875E+01 0.00000E+00
 -1      3351 6.76200E+01 2.09394E+01 0.00000E+00
 -1      3352 6.84962E+01 2.16289E+01 0.00000E+00
 -1      3353 6.80791E+01 1.97688E+01 0.00000E+00
 -1      3354 1.36705E+02 3.51346E+01 0.00000E+00
 -1      3355 4.86031E+01 1.39412E+01 0.00000E+00
 -1      3356 3.96926E+01 2.31398E+01 0.00000E+00
 -1      3357 4.49004E+01 1.56288E+01 0.00000E+00
 -1      3358 4.59632E+01 1.54908E+01 0.00000E+00
 -1      3359 4.61673E+01 1.43066E+01 0.00000E+00
 -1      3360 4.11506E+01 3.31225E+01 0.00000E+00
 -1      3361 4.03310E+01 3.25682E+01 0.00000E+00
 -1      3362 4.06445E+01 3.42303E+01 0.00000E+00
 -1      3363 4.11158E+01 2.05412E+01 0.00000E+00
 -1      3364 4.10308E+01 1.95786E+01 0.00000E+00
 -1      3365 4.01263E+01 2.08336E+01 0.00000E+00
 -1      3366 1.29900E+01 1.46687E+01 0.00000E+00
 -1      3367 1.16910E+01 1.54063E+01 0.00000E+00
 -1      3368 1.16910E+01 1.68750E+01 0.00000E+00
 -1      3369 6.76890E+01 3.48148E+01 0.00000E+00
 -1      3370 5.76168E+01 1.17852E+01 0.00000E+00
 -1      3371 4.33583E+01 1.80496E+01 0.00000E+00
 -1      3372 4.36025E+01 1.70968E+01 0.00000E+00
 -1      3373 4.22644E+01 1.83335E+01 0.00000E+00
 -1      3374 1.37010E+02 3.23625E+01 0.00000E+00
 -1      3375 1.69669E+01 1.03515E+01 0.00000E+00
 -1      3376 1.54669E+01 1.03515E+01 0.00000E+00
 -1      3377 1.50806E+01 1.13509E+01 0.00000E+00
 -1      3378 1.77169E+01 1.16505E+01 0.00000E+00
 -1      3379 1.16910E+01 3.01219E+01 0.00000E+00
 -1      3380 1.16910E+01 3.15906E+01 0.00000E+00
 -1      3381 1.29900E+01 3.23250E+01 0.00000E+00
 -1      3382 5.12970E+01 1.26859E+01 0.00000E+00
 -1      3383 2.34000E+01 3.57110E+01 0.00000E+00
 -1      3384 2.49000E+01 3.57110E+01 0.00000E+00
 -1      3385 2.64000E+01 3.57110E+01 0.00000E+00
 -1      3386 2.79000E+01 3.57110E+01 0.00000E+00
 -1      3387 2.56500E+01 3.44120E+01 0.00000E+00
 -1      3388 2.94000E+01 3.57110E+01 0.00000E+00
 -1      3389 3.09000E+01 3.57110E+01 0.00000E+00
 -1      3390 2.86500E+01 3.44120E+01 0.00000E+00
 -1      3391 3.24000E+01 3.57110E+01 0.00000E+00
 -1      3392 3.39000E+01 3.57110E+01 0.00000E+00
 -1      3393 3.16500E+01 3.44120E+01 0.00000E+00
 -1      3394 3.54000E+01 3.57110E+01 0.00000E+00
 -1      3395 3.69000E+01 3.57110E+01 0.00000E+00
 -1      3396 3.46500E+01 3.44120E+01 0.00000E+00
 -1      3397 7.11508E+01 3.51453E+01 0.00000E+00
 -1      3398 7.26508E+01 3.51453E+01 0.00000E+00
 -1      3399 7.41508E+01 3.51453E+01 0.00000E+00
 -1      3400 7.56508E+01 3.51453E+01 0.00000E+00
 -1      3401 7.34008E+01 3.38463E+01 0.00000E+00
 -1      3402 7.71508E+01 3.51453E+01 0.00000E+00
 -1      3403 7.86508E+01 3.51453E+01 0.00000E+00
 -1      3404 7.64008E+01 3.38463E+01 0.00000E+00
 -1      3405 8.01508E+01 3.51453E+01 0.00000E+00
 -1      3406 8.16508E+01 3.51453E+01 0.00000E+00
 -1      3407 7.94008E+01 3.38463E+01 0.00000E+00
 -1      3408 8.31508E+01 3.51453E+01 0.00000E+00
 -1      3409 8.46508E+01 3.51453E+01 0.00000E+00
 -1      3410 8.24008E+01 3.38463E+01 0.00000E+00
 -1      3411 8.61508E+01 3.51453E+01 0.00000E+00
 -1      3412 8.76508E+01 3.51453E+01 0.00000E+00
 -1      3413 8.54008E+01 3.38463E+01 0.00000E+00
 -1      3414 8.91508E+01 3.51453E+01 0.00000E+00
 -1      3415 9.06508E+01 3.51453E+01 0.00000E+00
 -1      3416 8.84008E+01 3.38463E+01 0.00000E+00
 -1      3417 9.21508E+01 3.51453E+01 0.00000E+00
 -1      3418 9.36508E+01 3.51453E+01 0.00000E+00
 -1      3419 9.14008E+01 3.38463E+01 0.00000E+00
 -1      3420 9.51508E+01 3.51453E+01 0.00000E+00
 -1      3421 9.66508E+01 3.51453E+01 0.00000E+00
 -1      3422 9.44008E+01 3.38463E+01 0.00000E+00
 -1      3423 9.81508E+01 3.51453E+01 0.00000E+00
 -1      3424 9.96508E+01 3.51453E+01 0.00000E+00
 -1      3425 9.74008E+01 3.38463E+01 0.00000E+00
 -1      3426 1.01151E+02 3.51453E+01 0.00000E+00
 -1      3427 1.02651E+02 3.51453E+01 0.00000E+00
 -1      3428 1.00401E+02 3.38463E+01 0.00000E+00
 -1      3429 1.04151E+02 3.51453E+01 0.00000E+00
 -1      3430 1.05651E+02 3.51453E+01 0.00000E+00
 -1      3431 1.03401E+02 3.38463E+01 0.00000E+00
 -1      3432 1.07151E+02 3.51453E+01 0.00000E+00
 -1      3433 1.08651E+02 3.51453E+01 0.00000E+00
 -1      3434 1.06401E+02 3.38463E+01 0.00000E+00
 -1      3435 1.10151E+02 3.51453E+01 0.00000E+00
 -1      3436 1.11651E+02 3.51453E+01 0.00000E+00
 -1      3437 1.09401E+02 3.38463E+01 0.00000E+00
 -1      3438 1.13151E+02 3.51453E+01 0.00000E+00
 -1      3439 1.14651E+02 3.51453E+01 0.00000E+00
 -1      3440 1.12401E+02 3.38463E+01 0.00000E+00
 -1      3441 1.16151E+02 3.51453E+01 0.00000E+00
 -1      3442 1.17651E+02 3.51453E+01 0.00000E+00
 -1      3443 1.15401E+02 3.38463E+01 0.00000E+00
 -1      3444 1.19151E+02 3.51453E+01 0.00000E+00
 -1      3445 1.20651E+02 3.51453E+01 0.00000E+00
 -1      3446 1.18401E+02 3.38463E+01 0.00000E+00
 -1      3447 1.22151E+02 3.51453E+01 0.00000E+00
 -1      3448 1.23651E+02 3.51453E+01 0.00000E+00
 -1      3449 1.21401E+02 3.38463E+01 0.00000E+00
 -1      3450 1.25151E+02 3.51453E+01 0.00000E+00
 -1      3451 1.26651E+02 3.51453E+01 0.00000E+00
 -1      3452 1.24401E+02 3.38463E+01 0.00000E+00
 -1      3453 1.28151E+02 3.51453E+01 0.00000E+00
 -1      3454 1.29651E+02 3.51453E+01 0.00000E+00
 -1      3455 1.27401E+02 3.38463E+01 0.00000E+00
 -1      3456 1.31151E+02 3.51453E+01 0.00000E+00
 -1      3457 1.32651E+02 3.51453E+01 0.00000E+00
 -1      3458 1.30401E+02 3.38463E+01 0.00000E+00
 -1      3459 1.33928E+02 3.51399E+01 0.00000E+00
 -1      3460 1.35428E+02 3.51399E+01 0.00000E+00
 -1      3461 1.35733E+02 3.38303E+01 0.00000E+00
 -1      3462 1.33178E+02 3.38410E+01 0.00000E+00
 -1      3463 1.38528E+02 1.44149E+01 0.00000E+00
 -1      3464 1.38594E+02 1.31746E+01 0.00000E+00
 -1      3465 1.37668E+02 1.30636E+01 0.00000E+00
 -1      3466 1.37229E+02 1.51462E+01 0.00000E+00
 -1      3467 4.55698E+01 1.31224E+01 0.00000E+00
 -1      3468 4.40698E+01 1.31224E+01 0.00000E+00
 -1      3469 4.22850E+01 1.30992E+01 0.00000E+00
 -1      3470 4.07850E+01 1.30992E+01 0.00000E+00
 -1      3471 3.88071E+01 3.45983E+01 0.00000E+00
 -1      3472 6.92850E+01 1.30992E+01 0.00000E+00
 -1      3473 6.77850E+01 1.30992E+01 0.00000E+00
 -1      3474 6.67837E+01 1.39218E+01 0.00000E+00
 -1      3475 6.52837E+01 1.39218E+01 0.00000E+00
 -1      3476 7.52850E+01 1.30992E+01 0.00000E+00
 -1      3477 7.37850E+01 1.30992E+01 0.00000E+00
 -1      3478 7.82850E+01 1.30992E+01 0.00000E+00
 -1      3479 7.67850E+01 1.30992E+01 0.00000E+00
 -1      3480 7.60350E+01 1.43982E+01 0.00000E+00
 -1      3481 8.12850E+01 1.30992E+01 0.00000E+00
 -1      3482 7.97850E+01 1.30992E+01 0.00000E+00
 -1      3483 7.90350E+01 1.43982E+01 0.00000E+00
 -1      3484 8.42850E+01 1.30992E+01 0.00000E+00
 -1      3485 8.27850E+01 1.30992E+01 0.00000E+00
 -1      3486 8.20350E+01 1.43982E+01 0.00000E+00
 -1      3487 8.72850E+01 1.30992E+01 0.00000E+00
 -1      3488 8.57850E+01 1.30992E+01 0.00000E+00
 -1      3489 8.50350E+01 1.43982E+01 0.00000E+00
 -1      3490 9.02850E+01 1.30992E+01 0.00000E+00
 -1      3491 8.87850E+01 1.30992E+01 0.00000E+00
 -1      3492 8.80350E+01 1.43982E+01 0.00000E+00
 -1      3493 9.32850E+01 1.30992E+01 0.00000E+00
 -1      3494 9.17850E+01 1.30992E+01 0.00000E+00
 -1      3495 9.10350E+01 1.43982E+01 0.00000E+00
 -1      3496 9.62850E+01 1.30992E+01 0.00000E+00
 -1      3497 9.47850E+01 1.30992E+01 0.00000E+00
 -1      3498 9.40350E+01 1.43982E+01 0.00000E+00
 -1      3499 9.92850E+01 1.30992E+01 0.00000E+00
 -1      3500 9.77850E+01 1.30992E+01 0.00000E+00
 -1      3501 9.70350E+01 1.43982E+01 0.00000E+00
 -1      3502 1.02285E+02 1.30992E+01 0.00000E+00
 -1      3503 1.00785E+02 1.30992E+01 0.00000E+00
 -1      3504 1.00035E+02 1.43982E+01 0.00000E+00
 -1      3505 1.05285E+02 1.30992E+01 0.00000E+00
 -1      3506 1.03785E+02 1.30992E+01 0.00000E+00
 -1      3507 1.03035E+02 1.43982E+01 0.00000E+00
 -1      3508 1.08285E+02 1.30992E+01 0.00000E+00
 -1      3509 1.06785E+02 1.30992E+01 0.00000E+00
 -1      3510 1.06035E+02 1.43982E+01 0.00000E+00
 -1      3511 1.11285E+02 1.30992E+01 0.00000E+00
 -1      3512 1.09785E+02 1.30992E+01 0.00000E+00
 -1      3513 1.09035E+02 1.43982E+01 0.00000E+00
 -1      3514 1.14285E+02 1.30992E+01 0.00000E+00
 -1      3515 1.12785E+02 1.30992E+01 0.00000E+00
 -1      3516 1.12035E+02 1.43982E+01 0.00000E+00
 -1      3517 1.17285E+02 1.30992E+01 0.00000E+00
 -1      3518 1.15785E+02 1.30992E+01 0.00000E+00
 -1      3519 1.15035E+02 1.43982E+01 0.00000E+00
 -1      3520 1.20285E+02 1.30992E+01 0.00000E+00
 -1      3521 1.18785E+02 1.30992E+01 0.00000E+00
 -1      3522 1.18035E+02 1.43982E+01 0.00000E+00
 -1      3523 1.23285E+02 1.30992E+01 0.00000E+00
 -1      3524 1.21785E+02 1.30992E+01 0.00000E+00
 -1      3525 1.21035E+02 1.43982E+01 0.00000E+00
 -1      3526 1.26285E+02 1.30992E+01 0.00000E+00
 -1      3527 1.24785E+02 1.30992E+01 0.00000E+00
 -1      3528 1.24035E+02 1.43982E+01 0.00000E+00
 -1      3529 1.29285E+02 1.30992E+01 0.00000E+00
 -1      3530 1.27785E+02 1.30992E+01 0.00000E+00
 -1      3531 1.27035E+02 1.43982E+01 0.00000E+00
 -1      3532 1.32285E+02 1.30992E+01 0.00000E+00
 -1      3533 1.30785E+02 1.30992E+01 0.00000E+00
 -1      3534 1.30035E+02 1.43982E+01 0.00000E+00
 -1      3535 1.35711E+02 2.72125E+01 0.00000E+00
 -1      3536 1.35711E+02 2.57375E+01 0.00000E+00
 -1      3537 1.21786E+01 3.60821E+01 0.00000E+00
 -1      3538 7.22850E+01 1.30992E+01 0.00000E+00
 -1      3539 7.07850E+01 1.30992E+01 0.00000E+00
 -1      3540 7.00350E+01 1.43982E+01 0.00000E+00
 -1      3541 7.30350E+01 1.43982E+01 0.00000E+00
 -1      3542 7.05542E+01 2.67295E+01 0.00000E+00
 -1      3543 7.02795E+01 2.81696E+01 0.00000E+00
 -1      3544 3.93276E+01 3.13802E+01 0.00000E+00
 -1      3545 3.85338E+01 2.99685E+01 0.00000E+00
 -1      3546 1.35711E+02 3.01625E+01 0.00000E+00
 -1      3547 1.35711E+02 2.86875E+01 0.00000E+00
 -1      3548 1.34412E+02 2.79500E+01 0.00000E+00
 -1      3549 6.40059E+01 1.38654E+01 0.00000E+00
 -1      3550 2.12850E+01 1.30992E+01 0.00000E+00
 -1      3551 1.97850E+01 1.30992E+01 0.00000E+00
 -1      3552 3.32850E+01 1.30992E+01 0.00000E+00
 -1      3553 3.17850E+01 1.30992E+01 0.00000E+00
 -1      3554 6.91890E+01 3.48148E+01 0.00000E+00
 -1      3555 2.04000E+01 3.57110E+01 0.00000E+00
 -1      3556 2.19000E+01 3.57110E+01 0.00000E+00
 -1      3557 2.26500E+01 3.44120E+01 0.00000E+00
 -1      3558 7.00457E+01 2.95773E+01 0.00000E+00
 -1      3559 6.97261E+01 3.07567E+01 0.00000E+00
 -1      3560 1.16910E+01 2.71844E+01 0.00000E+00
 -1      3561 1.16910E+01 2.86531E+01 0.00000E+00
 -1      3562 1.29900E+01 2.93875E+01 0.00000E+00
 -1      3563 3.84769E+01 2.34425E+01 0.00000E+00
 -1      3564 3.89957E+01 2.20988E+01 0.00000E+00
 -1      3565 6.13728E+01 1.36331E+01 0.00000E+00
 -1      3566 6.22395E+01 1.39975E+01 0.00000E+00
 -1      3567 6.31391E+01 1.35011E+01 0.00000E+00
 -1      3568 6.74085E+01 1.67329E+01 0.00000E+00
 -1      3569 6.77438E+01 1.82508E+01 0.00000E+00
 -1      3570 6.86201E+01 1.89403E+01 0.00000E+00
 -1      3571 1.35733E+02 3.23678E+01 0.00000E+00
 -1      3572 1.34776E+01 3.53477E+01 0.00000E+00
 -1      3573 1.74000E+01 3.57110E+01 0.00000E+00
 -1      3574 1.89000E+01 3.57110E+01 0.00000E+00
 -1      3575 1.96500E+01 3.44120E+01 0.00000E+00
 -1      3576 6.75337E+01 1.52208E+01 0.00000E+00
 -1      3577 6.99390E+01 3.35158E+01 0.00000E+00
 -1      3578 2.65350E+01 1.18003E+01 0.00000E+00
 -1      3579 1.29900E+01 1.76125E+01 0.00000E+00
 -1      3580 2.42850E+01 1.30992E+01 0.00000E+00
 -1      3581 2.27850E+01 1.30992E+01 0.00000E+00
 -1      3582 2.20350E+01 1.43982E+01 0.00000E+00
 -1      3583 1.42890E+01 2.27625E+01 0.00000E+00
 -1      3584 1.42890E+01 2.42375E+01 0.00000E+00
 -1      3585 3.76968E+01 2.89926E+01 0.00000E+00
 -1      3586 3.68599E+01 2.80167E+01 0.00000E+00
 -1      3587 3.69811E+01 3.03241E+01 0.00000E+00
 -1      3588 3.68787E+01 2.56442E+01 0.00000E+00
 -1      3589 3.76778E+01 2.45433E+01 0.00000E+00
 -1      3590 3.69809E+01 2.35023E+01 0.00000E+00
 -1      3591 1.29900E+01 2.64469E+01 0.00000E+00
 -1      3592 6.07975E+01 1.26201E+01 0.00000E+00
 -1      3593 1.47676E+01 3.55023E+01 0.00000E+00
 -1      3594 1.61100E+01 3.55564E+01 0.00000E+00
 -1      3595 1.68600E+01 3.42574E+01 0.00000E+00
 -1      3596 1.42800E+01 3.39483E+01 0.00000E+00
 -1      3597 1.34434E+02 3.16303E+01 0.00000E+00
 -1      3598 3.02850E+01 1.30992E+01 0.00000E+00
 -1      3599 2.87850E+01 1.30992E+01 0.00000E+00
 -1      3600 3.10350E+01 1.43982E+01 0.00000E+00
 -1      3601 4.33198E+01 1.44214E+01 0.00000E+00
 -1      3602 1.46944E+01 1.23503E+01 0.00000E+00
 -1      3603 1.43081E+01 1.33498E+01 0.00000E+00
 -1      3604 1.60125E+01 1.25001E+01 0.00000E+00
 -1      3605 4.00350E+01 1.43982E+01 0.00000E+00
 -1      3606 3.92850E+01 1.30992E+01 0.00000E+00
 -1      3607 3.77850E+01 1.30992E+01 0.00000E+00
 -1      3608 1.90350E+01 1.43983E+01 0.00000E+00
 -1      3609 1.82850E+01 1.30993E+01 0.00000E+00
 -1      3610 7.11900E+01 2.90493E+01 0.00000E+00
 -1      3611 1.34412E+02 2.50000E+01 0.00000E+00
 -1      3612 1.35711E+02 2.42625E+01 0.00000E+00
 -1      3613 1.35711E+02 2.27875E+01 0.00000E+00
 -1      3614 1.35285E+02 1.30992E+01 0.00000E+00
 -1      3615 1.33785E+02 1.30992E+01 0.00000E+00
 -1      3616 1.36742E+02 1.29526E+01 0.00000E+00
 -1      3617 1.69669E+01 1.29495E+01 0.00000E+00
 -1      3618 6.96931E+01 2.21707E+01 0.00000E+00
 -1      3619 7.08899E+01 2.27124E+01 0.00000E+00
 -1      3620 7.01522E+01 2.10000E+01 0.00000E+00
 -1      3621 1.42890E+01 2.12938E+01 0.00000E+00
 -1      3622 1.55880E+01 2.20313E+01 0.00000E+00
 -1      3623 1.42890E+01 1.98250E+01 0.00000E+00
 -1      3624 1.35992E+02 1.42516E+01 0.00000E+00
 -1      3625 4.66325E+01 1.29844E+01 0.00000E+00
 -1      3626 3.88215E+01 3.24880E+01 0.00000E+00
 -1      3627 1.42800E+01 3.24796E+01 0.00000E+00
 -1      3628 1.55700E+01 3.26341E+01 0.00000E+00
 -1      3629 1.42800E+01 3.10108E+01 0.00000E+00
 -1      3630 3.62850E+01 1.30992E+01 0.00000E+00
 -1      3631 3.47850E+01 1.30992E+01 0.00000E+00
 -1      3632 3.40350E+01 1.43982E+01 0.00000E+00
 -1      3633 3.70350E+01 1.43982E+01 0.00000E+00
 -1      3634 4.31157E+01 1.56056E+01 0.00000E+00
 -1      3635 1.35773E+02 1.52929E+01 0.00000E+00
 -1      3636 3.89106E+01 2.11362E+01 0.00000E+00
 -1      3637 3.88255E+01 2.01736E+01 0.00000E+00
 -1      3638 3.76949E+01 2.14388E+01 0.00000E+00
 -1      3639 1.43081E+01 1.48185E+01 0.00000E+00
 -1      3640 6.84099E+01 1.59103E+01 0.00000E+00
 -1      3641 4.12749E+01 1.86259E+01 0.00000E+00
 -1      3642 4.15190E+01 1.76731E+01 0.00000E+00
 -1      3643 4.02854E+01 1.89182E+01 0.00000E+00
 -1      3644 7.13004E+01 2.47952E+01 0.00000E+00
 -1      3645 7.09273E+01 2.57623E+01 0.00000E+00
 -1      3646 7.17970E+01 2.66744E+01 0.00000E+00
 -1      3647 1.33035E+02 1.43982E+01 0.00000E+00
 -1      3648 4.20218E+01 1.58895E+01 0.00000E+00
 -1      3649 1.35773E+02 1.82241E+01 0.00000E+00
 -1      3650 1.35773E+02 1.67585E+01 0.00000E+00
 -1      3651 1.34535E+02 1.58639E+01 0.00000E+00
 -1      3652 7.01984E+01 3.24513E+01 0.00000E+00
 -1      3653 7.14285E+01 3.21517E+01 0.00000E+00
 -1      3654 2.79000E+01 3.31130E+01 0.00000E+00
 -1      3655 2.94000E+01 3.31130E+01 0.00000E+00
 -1      3656 3.09000E+01 3.31130E+01 0.00000E+00
 -1      3657 3.24000E+01 3.31130E+01 0.00000E+00
 -1      3658 3.01500E+01 3.18140E+01 0.00000E+00
 -1      3659 7.29285E+01 3.21517E+01 0.00000E+00
 -1      3660 7.44285E+01 3.21517E+01 0.00000E+00
 -1      3661 7.24562E+01 3.04571E+01 0.00000E+00
 -1      3662 7.59285E+01 3.21517E+01 0.00000E+00
 -1      3663 7.74285E+01 3.21517E+01 0.00000E+00
 -1      3664 7.54562E+01 3.04571E+01 0.00000E+00
 -1      3665 7.89285E+01 3.21517E+01 0.00000E+00
 -1      3666 8.04285E+01 3.21517E+01 0.00000E+00
 -1      3667 7.84562E+01 3.04571E+01 0.00000E+00
 -1      3668 8.19285E+01 3.21517E+01 0.00000E+00
 -1      3669 8.34285E+01 3.21517E+01 0.00000E+00
 -1      3670 8.14562E+01 3.04571E+01 0.00000E+00
 -1      3671 8.49285E+01 3.21517E+01 0.00000E+00
 -1      3672 8.64285E+01 3.21517E+01 0.00000E+00
 -1      3673 8.44562E+01 3.04571E+01 0.00000E+00
 -1      3674 8.79285E+01 3.21517E+01 0.00000E+00
 -1      3675 8.94285E+01 3.21517E+01 0.00000E+00
 -1      3676 8.74562E+01 3.04571E+01 0.00000E+00
 -1      3677 9.09285E+01 3.21517E+01 0.00000E+00
 -1      3678 9.24285E+01 3.21517E+01 0.00000E+00
 -1      3679 9.04562E+01 3.04571E+01 0.00000E+00
 -1      3680 9.39285E+01 3.21517E+01 0.00000E+00
 -1      3681 9.54285E+01 3.21517E+01 0.00000E+00
 -1      3682 9.34562E+01 3.04571E+01 0.00000E+00
 -1      3683 9.69285E+01 3.21517E+01 0.00000E+00
 -1      3684 9.84285E+01 3.21517E+01 0.00000E+00
 -1      3685 9.64562E+01 3.04571E+01 0.00000E+00
 -1      3686 9.99285E+01 3.21517E+01 0.00000E+00
 -1      3687 1.01429E+02 3.21517E+01 0.00000E+00
 -1      3688 9.94562E+01 3.04571E+01 0.00000E+00
 -1      3689 1.02929E+02 3.21517E+01 0.00000E+00
 -1      3690 1.04429E+02 3.21517E+01 0.00000E+00
 -1      3691 1.02456E+02 3.04571E+01 0.00000E+00
 -1      3692 1.05929E+02 3.21517E+01 0.00000E+00
 -1      3693 1.07429E+02 3.21517E+01 0.00000E+00
 -1      3694 1.05456E+02 3.04571E+01 0.00000E+00
 -1      3695 1.08929E+02 3.21517E+01 0.00000E+00
 -1      3696 1.10429E+02 3.21517E+01 0.00000E+00
 -1      3697 1.08456E+02 3.04571E+01 0.00000E+00
 -1      3698 1.11929E+02 3.21517E+01 0.00000E+00
 -1      3699 1.13429E+02 3.21517E+01 0.00000E+00
 -1      3700 1.11456E+02 3.04571E+01 0.00000E+00
 -1      3701 1.14929E+02 3.21517E+01 0.00000E+00
 -1      3702 1.16429E+02 3.21517E+01 0.00000E+00
 -1      3703 1.14456E+02 3.04571E+01 0.00000E+00
 -1      3704 1.17929E+02 3.21517E+01 0.00000E+00
 -1      3705 1.19429E+02 3.21517E+01 0.00000E+00
 -1      3706 1.17456E+02 3.04571E+01 0.00000E+00
 -1      3707 1.20929E+02 3.21517E+01 0.00000E+00
 -1      3708 1.22429E+02 3.21517E+01 0.00000E+00
 -1      3709 1.20456E+02 3.04571E+01 0.00000E+00
 -1      3710 1.23929E+02 3.21517E+01 0.00000E+00
 -1      3711 1.25429E+02 3.21517E+01 0.00000E+00
 -1      3712 1.23456E+02 3.04571E+01 0.00000E+00
 -1      3713 1.26929E+02 3.21517E+01 0.00000E+00
 -1      3714 1.28429E+02 3.21517E+01 0.00000E+00
 -1      3715 1.26456E+02 3.04571E+01 0.00000E+00
 -1      3716 1.29929E+02 3.21517E+01 0.00000E+00
 -1      3717 1.31429E+02 3.21517E+01 0.00000E+00
 -1      3718 1.29456E+02 3.04571E+01 0.00000E+00
 -1      3719 1.65807E+01 1.39489E+01 0.00000E+00
 -1      3720 1.97850E+01 1.56973E+01 0.00000E+00
 -1      3721 1.82851E+01 1.56973E+01 0.00000E+00
 -1      3722 2.72850E+01 1.30992E+01 0.00000E+00
 -1      3723 2.57850E+01 1.30992E+01 0.00000E+00
 -1      3724 2.50350E+01 1.43982E+01 0.00000E+00
 -1      3725 8.27850E+01 1.56973E+01 0.00000E+00
 -1      3726 8.12850E+01 1.56973E+01 0.00000E+00
 -1      3727 7.26900E+01 2.90493E+01 0.00000E+00
 -1      3728 7.67850E+01 1.56973E+01 0.00000E+00
 -1      3729 7.52850E+01 1.56973E+01 0.00000E+00
 -1      3730 8.57850E+01 1.56973E+01 0.00000E+00
 -1      3731 8.42850E+01 1.56973E+01 0.00000E+00
 -1      3732 8.35350E+01 1.69963E+01 0.00000E+00
 -1      3733 8.87850E+01 1.56973E+01 0.00000E+00
 -1      3734 8.72850E+01 1.56973E+01 0.00000E+00
 -1      3735 8.65350E+01 1.69963E+01 0.00000E+00
 -1      3736 9.17850E+01 1.56973E+01 0.00000E+00
 -1      3737 9.02850E+01 1.56973E+01 0.00000E+00
 -1      3738 8.95350E+01 1.69963E+01 0.00000E+00
 -1      3739 9.47850E+01 1.56973E+01 0.00000E+00
 -1      3740 9.32850E+01 1.56973E+01 0.00000E+00
 -1      3741 9.25350E+01 1.69963E+01 0.00000E+00
 -1      3742 9.77850E+01 1.56973E+01 0.00000E+00
 -1      3743 9.62850E+01 1.56973E+01 0.00000E+00
 -1      3744 9.55350E+01 1.69963E+01 0.00000E+00
 -1      3745 1.00785E+02 1.56973E+01 0.00000E+00
 -1      3746 9.92850E+01 1.56973E+01 0.00000E+00
 -1      3747 9.85350E+01 1.69963E+01 0.00000E+00
 -1      3748 1.03785E+02 1.56973E+01 0.00000E+00
 -1      3749 1.02285E+02 1.56973E+01 0.00000E+00
 -1      3750 1.01535E+02 1.69963E+01 0.00000E+00
 -1      3751 1.06785E+02 1.56973E+01 0.00000E+00
 -1      3752 1.05285E+02 1.56973E+01 0.00000E+00
 -1      3753 1.04535E+02 1.69963E+01 0.00000E+00
 -1      3754 1.09785E+02 1.56973E+01 0.00000E+00
 -1      3755 1.08285E+02 1.56973E+01 0.00000E+00
 -1      3756 1.07535E+02 1.69963E+01 0.00000E+00
 -1      3757 1.12785E+02 1.56973E+01 0.00000E+00
 -1      3758 1.11285E+02 1.56973E+01 0.00000E+00
 -1      3759 1.10535E+02 1.69963E+01 0.00000E+00
 -1      3760 1.15785E+02 1.56973E+01 0.00000E+00
 -1      3761 1.14285E+02 1.56973E+01 0.00000E+00
 -1      3762 1.13535E+02 1.69963E+01 0.00000E+00
 -1      3763 1.18785E+02 1.56973E+01 0.00000E+00
 -1      3764 1.17285E+02 1.56973E+01 0.00000E+00
 -1      3765 1.16535E+02 1.69963E+01 0.00000E+00
 -1      3766 1.21785E+02 1.56973E+01 0.00000E+00
 -1      3767 1.20285E+02 1.56973E+01 0.00000E+00
 -1      3768 1.19535E+02 1.69963E+01 0.00000E+00
 -1      3769 1.24785E+02 1.56973E+01 0.00000E+00
 -1      3770 1.23285E+02 1.56973E+01 0.00000E+00
 -1      3771 1.22535E+02 1.69963E+01 0.00000E+00
 -1      3772 1.27785E+02 1.56973E+01 0.00000E+00
 -1      3773 1.26285E+02 1.56973E+01 0.00000E+00
 -1      3774 1.25535E+02 1.69963E+01 0.00000E+00
 -1      3775 1.30785E+02 1.56973E+01 0.00000E+00
 -1      3776 1.29285E+02 1.56973E+01 0.00000E+00
 -1      3777 1.28535E+02 1.69963E+01 0.00000E+00
 -1      3778 4.10322E+01 1.61818E+01 0.00000E+00
 -1      3779 6.96171E+01 1.79241E+01 0.00000E+00
 -1      3780 6.99523E+01 1.94420E+01 0.00000E+00
 -1      3781 1.35711E+02 2.13219E+01 0.00000E+00
 -1      3782 1.35711E+02 1.98563E+01 0.00000E+00
 -1      3783 1.34412E+02 2.20594E+01 0.00000E+00
 -1      3784 1.89000E+01 3.31130E+01 0.00000E+00
 -1      3785 2.04000E+01 3.31130E+01 0.00000E+00
 -1      3786 1.33113E+02 2.86875E+01 0.00000E+00
 -1      3787 1.33113E+02 2.72125E+01 0.00000E+00
 -1      3788 1.55880E+01 2.49719E+01 0.00000E+00
 -1      3789 1.42890E+01 2.57094E+01 0.00000E+00
 -1      3790 1.42890E+01 2.71812E+01 0.00000E+00
 -1      3791 1.54444E+01 1.51212E+01 0.00000E+00
 -1      3792 1.41263E+01 1.64402E+01 0.00000E+00
 -1      3793 1.41263E+01 1.79152E+01 0.00000E+00
 -1      3794 1.63988E+01 1.55706E+01 0.00000E+00
 -1      3795 1.42845E+01 2.83617E+01 0.00000E+00
 -1      3796 1.42845E+01 2.98304E+01 0.00000E+00
 -1      3797 1.55745E+01 2.99850E+01 0.00000E+00
 -1      3798 1.55835E+01 2.76242E+01 0.00000E+00
 -1      3799 1.65900E+01 3.27963E+01 0.00000E+00
 -1      3800 1.78800E+01 3.29508E+01 0.00000E+00
 -1      3801 1.86300E+01 3.16518E+01 0.00000E+00
 -1      3802 1.65900E+01 3.13275E+01 0.00000E+00
 -1      3803 2.19000E+01 3.31130E+01 0.00000E+00
 -1      3804 2.34000E+01 3.31130E+01 0.00000E+00
 -1      3805 2.11500E+01 3.18140E+01 0.00000E+00
 -1      3806 6.98886E+01 1.54051E+01 0.00000E+00
 -1      3807 6.97635E+01 1.69172E+01 0.00000E+00
 -1      3808 7.10957E+01 1.74189E+01 0.00000E+00
 -1      3809 7.13886E+01 1.54051E+01 0.00000E+00
 -1      3810 1.33410E+02 1.57806E+01 0.00000E+00
 -1      3811 1.31910E+02 1.57806E+01 0.00000E+00
 -1      3812 1.31160E+02 1.70796E+01 0.00000E+00
 -1      3813 1.33410E+02 1.72462E+01 0.00000E+00
 -1      3814 7.97850E+01 1.56973E+01 0.00000E+00
 -1      3815 7.82850E+01 1.56973E+01 0.00000E+00
 -1      3816 8.05350E+01 1.69963E+01 0.00000E+00
 -1      3817 2.49000E+01 3.31130E+01 0.00000E+00
 -1      3818 2.64000E+01 3.31130E+01 0.00000E+00
 -1      3819 2.71500E+01 3.18140E+01 0.00000E+00
 -1      3820 2.41500E+01 3.18140E+01 0.00000E+00
 -1      3821 3.64135E+01 3.16577E+01 0.00000E+00
 -1      3822 3.55766E+01 3.06818E+01 0.00000E+00
 -1      3823 3.54472E+01 2.83071E+01 0.00000E+00
 -1      3824 3.61629E+01 2.69756E+01 0.00000E+00
 -1      3825 3.54660E+01 2.59346E+01 0.00000E+00
 -1      3826 3.33295E+01 3.19147E+01 0.00000E+00
 -1      3827 3.40795E+01 3.32137E+01 0.00000E+00
 -1      3828 3.55795E+01 3.32137E+01 0.00000E+00
 -1      3829 1.32706E+02 3.21464E+01 0.00000E+00
 -1      3830 1.32684E+02 2.99410E+01 0.00000E+00
 -1      3831 2.80350E+01 1.43982E+01 0.00000E+00
 -1      3832 3.17850E+01 1.56973E+01 0.00000E+00
 -1      3833 3.02850E+01 1.56973E+01 0.00000E+00
 -1      3834 2.12850E+01 1.56973E+01 0.00000E+00
 -1      3835 2.05351E+01 1.69963E+01 0.00000E+00
 -1      3836 2.27850E+01 1.56973E+01 0.00000E+00
 -1      3837 3.95322E+01 1.61818E+01 0.00000E+00
 -1      3838 7.29935E+01 2.78619E+01 0.00000E+00
 -1      3839 7.42597E+01 2.92696E+01 0.00000E+00
 -1      3840 7.57597E+01 2.92696E+01 0.00000E+00
 -1      3841 7.33666E+01 2.68947E+01 0.00000E+00
 -1      3842 7.75350E+01 1.69963E+01 0.00000E+00
 -1      3843 1.33113E+02 2.57375E+01 0.00000E+00
 -1      3844 1.33113E+02 2.42625E+01 0.00000E+00
 -1      3845 1.31814E+02 2.64750E+01 0.00000E+00
 -1      3846 1.34473E+02 1.89616E+01 0.00000E+00
 -1      3847 3.32850E+01 1.56973E+01 0.00000E+00
 -1      3848 3.25350E+01 1.69963E+01 0.00000E+00
 -1      3849 3.47850E+01 1.56973E+01 0.00000E+00
 -1      3850 7.11492E+01 1.99838E+01 0.00000E+00
 -1      3851 1.54253E+01 1.86527E+01 0.00000E+00
 -1      3852 7.40868E+01 1.55512E+01 0.00000E+00
 -1      3853 7.25868E+01 1.55512E+01 0.00000E+00
 -1      3854 7.24404E+01 1.65581E+01 0.00000E+00
 -1      3855 7.48368E+01 1.68502E+01 0.00000E+00
 -1      3856 1.68870E+01 2.12969E+01 0.00000E+00
 -1      3857 1.68870E+01 2.27656E+01 0.00000E+00
 -1      3858 3.56839E+01 2.34013E+01 0.00000E+00
 -1      3859 3.64830E+01 2.23004E+01 0.00000E+00
 -1      3860 1.71488E+01 1.68696E+01 0.00000E+00
 -1      3861 1.31385E+02 2.92035E+01 0.00000E+00
 -1      3862 3.69840E+01 3.28560E+01 0.00000E+00
 -1      3863 3.63979E+01 2.13378E+01 0.00000E+00
 -1      3864 3.78539E+01 1.95235E+01 0.00000E+00
 -1      3865 3.90697E+01 1.92209E+01 0.00000E+00
 -1      3866 3.93138E+01 1.82681E+01 0.00000E+00
 -1      3867 7.17596E+01 2.36245E+01 0.00000E+00
 -1      3868 7.26292E+01 2.45367E+01 0.00000E+00
 -1      3869 7.22187E+01 2.24539E+01 0.00000E+00
 -1      3870 6.31354E+01 1.22966E+01 0.00000E+00
 -1      3871 1.81860E+01 2.35031E+01 0.00000E+00
 -1      3872 1.68870E+01 2.42375E+01 0.00000E+00
 -1      3873 1.68870E+01 2.57094E+01 0.00000E+00
 -1      3874 3.22175E+01 3.04804E+01 0.00000E+00
 -1      3875 3.38970E+01 3.05811E+01 0.00000E+00
 -1      3876 3.44646E+01 2.92475E+01 0.00000E+00
 -1      3877 3.79874E+01 3.40440E+01 0.00000E+00
 -1      3878 3.50524E+01 2.07283E+01 0.00000E+00
 -1      3879 3.62643E+01 1.98667E+01 0.00000E+00
 -1      3880 2.95350E+01 1.69963E+01 0.00000E+00
 -1      3881 2.87850E+01 1.56973E+01 0.00000E+00
 -1      3882 2.72850E+01 1.56973E+01 0.00000E+00
 -1      3883 7.77062E+01 2.91581E+01 0.00000E+00
 -1      3884 7.92062E+01 2.91581E+01 0.00000E+00
 -1      3885 8.07062E+01 2.91581E+01 0.00000E+00
 -1      3886 8.22062E+01 2.91581E+01 0.00000E+00
 -1      3887 7.99562E+01 2.78591E+01 0.00000E+00
 -1      3888 8.37062E+01 2.91581E+01 0.00000E+00
 -1      3889 8.52062E+01 2.91581E+01 0.00000E+00
 -1      3890 8.29562E+01 2.78591E+01 0.00000E+00
 -1      3891 8.67062E+01 2.91581E+01 0.00000E+00
 -1      3892 8.82062E+01 2.91581E+01 0.00000E+00
 -1      3893 8.59562E+01 2.78591E+01 0.00000E+00
 -1      3894 8.97062E+01 2.91581E+01 0.00000E+00
 -1      3895 9.12062E+01 2.91581E+01 0.00000E+00
 -1      3896 8.89562E+01 2.78591E+01 0.00000E+00
 -1      3897 9.27062E+01 2.91581E+01 0.00000E+00
 -1      3898 9.42062E+01 2.91581E+01 0.00000E+00
 -1      3899 9.19562E+01 2.78591E+01 0.00000E+00
 -1      3900 9.57062E+01 2.91581E+01 0.00000E+00
 -1      3901 9.72062E+01 2.91581E+01 0.00000E+00
 -1      3902 9.49562E+01 2.78591E+01 0.00000E+00
 -1      3903 9.87062E+01 2.91581E+01 0.00000E+00
 -1      3904 1.00206E+02 2.91581E+01 0.00000E+00
 -1      3905 9.79562E+01 2.78591E+01 0.00000E+00
 -1      3906 1.01706E+02 2.91581E+01 0.00000E+00
 -1      3907 1.03206E+02 2.91581E+01 0.00000E+00
 -1      3908 1.00956E+02 2.78591E+01 0.00000E+00
 -1      3909 1.04706E+02 2.91581E+01 0.00000E+00
 -1      3910 1.06206E+02 2.91581E+01 0.00000E+00
 -1      3911 1.03956E+02 2.78591E+01 0.00000E+00
 -1      3912 1.07706E+02 2.91581E+01 0.00000E+00
 -1      3913 1.09206E+02 2.91581E+01 0.00000E+00
 -1      3914 1.06956E+02 2.78591E+01 0.00000E+00
 -1      3915 1.10706E+02 2.91581E+01 0.00000E+00
 -1      3916 1.12206E+02 2.91581E+01 0.00000E+00
 -1      3917 1.09956E+02 2.78591E+01 0.00000E+00
 -1      3918 1.13706E+02 2.91581E+01 0.00000E+00
 -1      3919 1.15206E+02 2.91581E+01 0.00000E+00
 -1      3920 1.12956E+02 2.78591E+01 0.00000E+00
 -1      3921 1.16706E+02 2.91581E+01 0.00000E+00
 -1      3922 1.18206E+02 2.91581E+01 0.00000E+00
 -1      3923 1.15956E+02 2.78591E+01 0.00000E+00
 -1      3924 1.19706E+02 2.91581E+01 0.00000E+00
 -1      3925 1.21206E+02 2.91581E+01 0.00000E+00
 -1      3926 1.18956E+02 2.78591E+01 0.00000E+00
 -1      3927 1.22706E+02 2.91581E+01 0.00000E+00
 -1      3928 1.24206E+02 2.91581E+01 0.00000E+00
 -1      3929 1.21956E+02 2.78591E+01 0.00000E+00
 -1      3930 1.25706E+02 2.91581E+01 0.00000E+00
 -1      3931 1.27206E+02 2.91581E+01 0.00000E+00
 -1      3932 1.24956E+02 2.78591E+01 0.00000E+00
 -1      3933 1.28546E+02 2.91808E+01 0.00000E+00
 -1      3934 1.30046E+02 2.91808E+01 0.00000E+00
 -1      3935 1.30475E+02 2.79273E+01 0.00000E+00
 -1      3936 1.27796E+02 2.78818E+01 0.00000E+00
 -1      3937 2.57850E+01 1.56973E+01 0.00000E+00
 -1      3938 2.42850E+01 1.56973E+01 0.00000E+00
 -1      3939 2.35350E+01 1.69963E+01 0.00000E+00
 -1      3940 2.65350E+01 1.69963E+01 0.00000E+00
 -1      3941 8.72850E+01 1.82952E+01 0.00000E+00
 -1      3942 8.57850E+01 1.82952E+01 0.00000E+00
 -1      3943 8.42850E+01 1.82952E+01 0.00000E+00
 -1      3944 8.27850E+01 1.82952E+01 0.00000E+00
 -1      3945 8.50350E+01 1.95942E+01 0.00000E+00
 -1      3946 9.32850E+01 1.82952E+01 0.00000E+00
 -1      3947 9.17850E+01 1.82952E+01 0.00000E+00
 -1      3948 9.62850E+01 1.82952E+01 0.00000E+00
 -1      3949 9.47850E+01 1.82952E+01 0.00000E+00
 -1      3950 9.40350E+01 1.95942E+01 0.00000E+00
 -1      3951 9.92850E+01 1.82952E+01 0.00000E+00
 -1      3952 9.77850E+01 1.82952E+01 0.00000E+00
 -1      3953 9.70350E+01 1.95942E+01 0.00000E+00
 -1      3954 1.02285E+02 1.82952E+01 0.00000E+00
 -1      3955 1.00785E+02 1.82952E+01 0.00000E+00
 -1      3956 1.00035E+02 1.95942E+01 0.00000E+00
 -1      3957 1.05285E+02 1.82952E+01 0.00000E+00
 -1      3958 1.03785E+02 1.82952E+01 0.00000E+00
 -1      3959 1.03035E+02 1.95942E+01 0.00000E+00
 -1      3960 1.08285E+02 1.82952E+01 0.00000E+00
 -1      3961 1.06785E+02 1.82952E+01 0.00000E+00
 -1      3962 1.06035E+02 1.95942E+01 0.00000E+00
 -1      3963 1.11285E+02 1.82952E+01 0.00000E+00
 -1      3964 1.09785E+02 1.82952E+01 0.00000E+00
 -1      3965 1.09035E+02 1.95942E+01 0.00000E+00
 -1      3966 1.14285E+02 1.82952E+01 0.00000E+00
 -1      3967 1.12785E+02 1.82952E+01 0.00000E+00
 -1      3968 1.12035E+02 1.95942E+01 0.00000E+00
 -1      3969 1.17285E+02 1.82952E+01 0.00000E+00
 -1      3970 1.15785E+02 1.82952E+01 0.00000E+00
 -1      3971 1.15035E+02 1.95942E+01 0.00000E+00
 -1      3972 1.20285E+02 1.82952E+01 0.00000E+00
 -1      3973 1.18785E+02 1.82952E+01 0.00000E+00
 -1      3974 1.18035E+02 1.95942E+01 0.00000E+00
 -1      3975 1.23285E+02 1.82952E+01 0.00000E+00
 -1      3976 1.21785E+02 1.82952E+01 0.00000E+00
 -1      3977 1.21035E+02 1.95942E+01 0.00000E+00
 -1      3978 1.26285E+02 1.82952E+01 0.00000E+00
 -1      3979 1.24785E+02 1.82952E+01 0.00000E+00
 -1      3980 1.24035E+02 1.95942E+01 0.00000E+00
 -1      3981 1.29285E+02 1.82952E+01 0.00000E+00
 -1      3982 1.27785E+02 1.82952E+01 0.00000E+00
 -1      3983 1.27035E+02 1.95942E+01 0.00000E+00
 -1      3984 8.12850E+01 1.82952E+01 0.00000E+00
 -1      3985 7.97850E+01 1.82952E+01 0.00000E+00
 -1      3986 8.20350E+01 1.95942E+01 0.00000E+00
 -1      3987 1.33113E+02 2.27969E+01 0.00000E+00
 -1      3988 1.33113E+02 2.13312E+01 0.00000E+00
 -1      3989 1.31814E+02 2.35344E+01 0.00000E+00
 -1      3990 2.04000E+01 3.05150E+01 0.00000E+00
 -1      3991 2.19000E+01 3.05150E+01 0.00000E+00
 -1      3992 2.92175E+01 3.04804E+01 0.00000E+00
 -1      3993 3.07175E+01 3.04804E+01 0.00000E+00
 -1      3994 3.12851E+01 2.91468E+01 0.00000E+00
 -1      3995 1.33231E+02 2.01048E+01 0.00000E+00
 -1      3996 1.33292E+02 1.84727E+01 0.00000E+00
 -1      3997 1.32167E+02 1.83893E+01 0.00000E+00
 -1      3998 1.31932E+02 2.08423E+01 0.00000E+00
 -1      3999 3.48309E+01 2.44586E+01 0.00000E+00
 -1      4000 3.43331E+01 2.32568E+01 0.00000E+00
 -1      4001 1.73115E+01 1.87794E+01 0.00000E+00
 -1      4002 3.83165E+01 1.64845E+01 0.00000E+00
 -1      4003 3.68165E+01 1.64845E+01 0.00000E+00
 -1      4004 1.86105E+01 1.95138E+01 0.00000E+00
 -1      4005 7.23377E+01 1.90395E+01 0.00000E+00
 -1      4006 7.25376E+01 2.05975E+01 0.00000E+00
 -1      4007 2.01105E+01 1.95138E+01 0.00000E+00
 -1      4008 1.96860E+01 2.20313E+01 0.00000E+00
 -1      4009 2.16105E+01 1.95138E+01 0.00000E+00
 -1      4010 7.82850E+01 1.82952E+01 0.00000E+00
 -1      4011 7.67850E+01 1.82952E+01 0.00000E+00
 -1      4012 7.90350E+01 1.95942E+01 0.00000E+00
 -1      4013 9.02850E+01 1.82952E+01 0.00000E+00
 -1      4014 8.87850E+01 1.82952E+01 0.00000E+00
 -1      4015 8.80350E+01 1.95942E+01 0.00000E+00
 -1      4016 9.10350E+01 1.95942E+01 0.00000E+00
 -1      4017 3.41152E+01 2.57901E+01 0.00000E+00
 -1      4018 1.65990E+01 2.89667E+01 0.00000E+00
 -1      4019 1.65945E+01 3.01471E+01 0.00000E+00
 -1      4020 1.76145E+01 3.03093E+01 0.00000E+00
 -1      4021 2.62175E+01 3.04804E+01 0.00000E+00
 -1      4022 2.77175E+01 3.04804E+01 0.00000E+00
 -1      4023 2.82851E+01 2.91468E+01 0.00000E+00
 -1      4024 3.02850E+01 1.82952E+01 0.00000E+00
 -1      4025 2.87850E+01 1.82952E+01 0.00000E+00
 -1      4026 3.38255E+01 2.15814E+01 0.00000E+00
 -1      4027 3.36919E+01 2.01103E+01 0.00000E+00
 -1      4028 7.65097E+01 2.79706E+01 0.00000E+00
 -1      4029 1.31042E+02 1.83060E+01 0.00000E+00
 -1      4030 1.30475E+02 2.64523E+01 0.00000E+00
 -1      4031 7.56305E+01 1.96237E+01 0.00000E+00
 -1      4032 7.48805E+01 1.83247E+01 0.00000E+00
 -1      4033 7.41166E+01 2.55957E+01 0.00000E+00
 -1      4034 7.53132E+01 2.67832E+01 0.00000E+00
 -1      4035 7.72597E+01 2.66716E+01 0.00000E+00
 -1      4036 3.29726E+01 2.26388E+01 0.00000E+00
 -1      4037 7.36823E+01 1.81787E+01 0.00000E+00
 -1      4038 1.30292E+02 1.96050E+01 0.00000E+00
 -1      4039 3.60665E+01 1.77835E+01 0.00000E+00
 -1      4040 7.34072E+01 2.15096E+01 0.00000E+00
 -1      4041 1.84972E+01 3.03311E+01 0.00000E+00
 -1      4042 1.95173E+01 3.04932E+01 0.00000E+00
 -1      4043 2.02673E+01 2.91942E+01 0.00000E+00
 -1      4044 1.85018E+01 2.91507E+01 0.00000E+00
 -1      4045 3.65084E+01 1.89139E+01 0.00000E+00
 -1      4046 7.45757E+01 2.44251E+01 0.00000E+00
 -1      4047 7.22940E+01 1.75650E+01 0.00000E+00
 -1      4048 1.96860E+01 2.35031E+01 0.00000E+00
 -1      4049 1.67453E+01 2.67478E+01 0.00000E+00
 -1      4050 1.67407E+01 2.79282E+01 0.00000E+00
 -1      4051 1.77607E+01 2.80904E+01 0.00000E+00
 -1      4052 1.80443E+01 2.60135E+01 0.00000E+00
 -1      4053 2.33088E+01 3.04977E+01 0.00000E+00
 -1      4054 2.48088E+01 3.04977E+01 0.00000E+00
 -1      4055 2.53763E+01 2.91641E+01 0.00000E+00
 -1      4056 2.25588E+01 2.91987E+01 0.00000E+00
 -1      4057 3.37676E+01 2.82064E+01 0.00000E+00
 -1      4058 3.17500E+01 1.89798E+01 0.00000E+00
 -1      4059 3.10000E+01 2.02788E+01 0.00000E+00
 -1      4060 3.31326E+01 2.67304E+01 0.00000E+00
 -1      4061 3.24975E+01 2.52545E+01 0.00000E+00
 -1      4062 3.21500E+01 2.76708E+01 0.00000E+00
 -1      4063 1.28850E+02 2.62977E+01 0.00000E+00
 -1      4064 1.30189E+02 2.48454E+01 0.00000E+00
 -1      4065 8.22062E+01 2.65601E+01 0.00000E+00
 -1      4066 8.37062E+01 2.65601E+01 0.00000E+00
 -1      4067 8.52062E+01 2.65601E+01 0.00000E+00
 -1      4068 8.67062E+01 2.65601E+01 0.00000E+00
 -1      4069 8.44562E+01 2.52611E+01 0.00000E+00
 -1      4070 8.82062E+01 2.65601E+01 0.00000E+00
 -1      4071 8.97062E+01 2.65601E+01 0.00000E+00
 -1      4072 8.74562E+01 2.52611E+01 0.00000E+00
 -1      4073 9.12062E+01 2.65601E+01 0.00000E+00
 -1      4074 9.27062E+01 2.65601E+01 0.00000E+00
 -1      4075 9.04562E+01 2.52611E+01 0.00000E+00
 -1      4076 9.42062E+01 2.65601E+01 0.00000E+00
 -1      4077 9.57062E+01 2.65601E+01 0.00000E+00
 -1      4078 9.34562E+01 2.52611E+01 0.00000E+00
 -1      4079 9.72062E+01 2.65601E+01 0.00000E+00
 -1      4080 9.87062E+01 2.65601E+01 0.00000E+00
 -1      4081 9.64562E+01 2.52611E+01 0.00000E+00
 -1      4082 1.00206E+02 2.65601E+01 0.00000E+00
 -1      4083 1.01706E+02 2.65601E+01 0.00000E+00
 -1      4084 9.94562E+01 2.52611E+01 0.00000E+00
 -1      4085 1.03206E+02 2.65601E+01 0.00000E+00
 -1      4086 1.04706E+02 2.65601E+01 0.00000E+00
 -1      4087 1.02456E+02 2.52611E+01 0.00000E+00
 -1      4088 1.06206E+02 2.65601E+01 0.00000E+00
 -1      4089 1.07706E+02 2.65601E+01 0.00000E+00
 -1      4090 1.05456E+02 2.52611E+01 0.00000E+00
 -1      4091 1.09206E+02 2.65601E+01 0.00000E+00
 -1      4092 1.10706E+02 2.65601E+01 0.00000E+00
 -1      4093 1.08456E+02 2.52611E+01 0.00000E+00
 -1      4094 1.12206E+02 2.65601E+01 0.00000E+00
 -1      4095 1.13706E+02 2.65601E+01 0.00000E+00
 -1      4096 1.11456E+02 2.52611E+01 0.00000E+00
 -1      4097 1.15206E+02 2.65601E+01 0.00000E+00
 -1      4098 1.16706E+02 2.65601E+01 0.00000E+00
 -1      4099 1.14456E+02 2.52611E+01 0.00000E+00
 -1      4100 1.18206E+02 2.65601E+01 0.00000E+00
 -1      4101 1.19706E+02 2.65601E+01 0.00000E+00
 -1      4102 1.17456E+02 2.52611E+01 0.00000E+00
 -1      4103 1.21206E+02 2.65601E+01 0.00000E+00
 -1      4104 1.22706E+02 2.65601E+01 0.00000E+00
 -1      4105 1.20456E+02 2.52611E+01 0.00000E+00
 -1      4106 1.24206E+02 2.65601E+01 0.00000E+00
 -1      4107 1.25706E+02 2.65601E+01 0.00000E+00
 -1      4108 1.23456E+02 2.52611E+01 0.00000E+00
 -1      4109 1.27511E+02 2.62750E+01 0.00000E+00
 -1      4110 1.00785E+02 2.08932E+01 0.00000E+00
 -1      4111 9.92850E+01 2.08932E+01 0.00000E+00
 -1      4112 7.75764E+01 2.51559E+01 0.00000E+00
 -1      4113 7.87730E+01 2.63433E+01 0.00000E+00
 -1      4114 8.57850E+01 2.08932E+01 0.00000E+00
 -1      4115 8.42850E+01 2.08932E+01 0.00000E+00
 -1      4116 9.77850E+01 2.08932E+01 0.00000E+00
 -1      4117 9.62850E+01 2.08932E+01 0.00000E+00
 -1      4118 9.85350E+01 2.21922E+01 0.00000E+00
 -1      4119 9.47850E+01 2.08932E+01 0.00000E+00
 -1      4120 9.32850E+01 2.08932E+01 0.00000E+00
 -1      4121 9.55350E+01 2.21922E+01 0.00000E+00
 -1      4122 1.03785E+02 2.08932E+01 0.00000E+00
 -1      4123 1.02285E+02 2.08932E+01 0.00000E+00
 -1      4124 1.01535E+02 2.21922E+01 0.00000E+00
 -1      4125 1.06785E+02 2.08932E+01 0.00000E+00
 -1      4126 1.05285E+02 2.08932E+01 0.00000E+00
 -1      4127 1.04535E+02 2.21922E+01 0.00000E+00
 -1      4128 1.09785E+02 2.08932E+01 0.00000E+00
 -1      4129 1.08285E+02 2.08932E+01 0.00000E+00
 -1      4130 1.07535E+02 2.21922E+01 0.00000E+00
 -1      4131 1.12785E+02 2.08932E+01 0.00000E+00
 -1      4132 1.11285E+02 2.08932E+01 0.00000E+00
 -1      4133 1.10535E+02 2.21922E+01 0.00000E+00
 -1      4134 1.15785E+02 2.08932E+01 0.00000E+00
 -1      4135 1.14285E+02 2.08932E+01 0.00000E+00
 -1      4136 1.13535E+02 2.21922E+01 0.00000E+00
 -1      4137 1.18785E+02 2.08932E+01 0.00000E+00
 -1      4138 1.17285E+02 2.08932E+01 0.00000E+00
 -1      4139 1.16535E+02 2.21922E+01 0.00000E+00
 -1      4140 1.21785E+02 2.08932E+01 0.00000E+00
 -1      4141 1.20285E+02 2.08932E+01 0.00000E+00
 -1      4142 1.19535E+02 2.21922E+01 0.00000E+00
 -1      4143 1.24785E+02 2.08932E+01 0.00000E+00
 -1      4144 1.23285E+02 2.08932E+01 0.00000E+00
 -1      4145 1.22535E+02 2.21922E+01 0.00000E+00
 -1      4146 8.27850E+01 2.08932E+01 0.00000E+00
 -1      4147 8.12850E+01 2.08932E+01 0.00000E+00
 -1      4148 8.35350E+01 2.21922E+01 0.00000E+00
 -1      4149 1.30189E+02 2.33798E+01 0.00000E+00
 -1      4150 3.06500E+01 2.76708E+01 0.00000E+00
 -1      4151 1.30174E+02 2.08315E+01 0.00000E+00
 -1      4152 2.31105E+01 1.95138E+01 0.00000E+00
 -1      4153 2.26860E+01 2.20312E+01 0.00000E+00
 -1      4154 2.46105E+01 1.95138E+01 0.00000E+00
 -1      4155 7.97850E+01 2.08932E+01 0.00000E+00
 -1      4156 7.82850E+01 2.08932E+01 0.00000E+00
 -1      4157 8.05350E+01 2.21922E+01 0.00000E+00
 -1      4158 3.20025E+01 2.36043E+01 0.00000E+00
 -1      4159 3.14950E+01 2.19290E+01 0.00000E+00
 -1      4160 3.00300E+01 2.12444E+01 0.00000E+00
 -1      4161 3.10200E+01 2.45447E+01 0.00000E+00
 -1      4162 7.47481E+01 2.28032E+01 0.00000E+00
 -1      4163 7.62355E+01 2.38623E+01 0.00000E+00
 -1      4164 7.77488E+01 2.35340E+01 0.00000E+00
 -1      4165 7.50670E+01 2.09468E+01 0.00000E+00
 -1      4166 8.02730E+01 2.63433E+01 0.00000E+00
 -1      4167 2.13458E+01 2.36944E+01 0.00000E+00
 -1      4168 1.98458E+01 2.51662E+01 0.00000E+00
 -1      4169 3.32500E+01 1.89798E+01 0.00000E+00
 -1      4170 1.28550E+02 2.21426E+01 0.00000E+00
 -1      4171 2.18384E+01 2.79084E+01 0.00000E+00
 -1      4172 2.32472E+01 2.78911E+01 0.00000E+00
 -1      4173 1.95263E+01 2.81340E+01 0.00000E+00
 -1      4174 2.02147E+01 2.68264E+01 0.00000E+00
 -1      4175 9.25350E+01 2.21922E+01 0.00000E+00
 -1      4176 9.17850E+01 2.08932E+01 0.00000E+00
 -1      4177 9.02850E+01 2.08932E+01 0.00000E+00
 -1      4178 1.26761E+02 2.49760E+01 0.00000E+00
 -1      4179 8.72850E+01 2.08932E+01 0.00000E+00
 -1      4180 8.65350E+01 2.21922E+01 0.00000E+00
 -1      4181 8.87850E+01 2.08932E+01 0.00000E+00
 -1      4182 7.69715E+01 2.09173E+01 0.00000E+00
 -1      4183 2.90333E+01 2.24427E+01 0.00000E+00
 -1      4184 2.85383E+01 2.07925E+01 0.00000E+00
 -1      4185 1.27785E+02 2.08932E+01 0.00000E+00
 -1      4186 1.26285E+02 2.08932E+01 0.00000E+00
 -1      4187 2.28458E+01 2.36944E+01 0.00000E+00
 -1      4188 3.44768E+01 1.81267E+01 0.00000E+00
 -1      4189 2.91500E+01 2.76708E+01 0.00000E+00
 -1      4190 3.00150E+01 2.61948E+01 0.00000E+00
 -1      4191 2.76500E+01 2.76708E+01 0.00000E+00
 -1      4192 7.77215E+01 2.22163E+01 0.00000E+00
 -1      4193 2.80350E+01 1.95943E+01 0.00000E+00
 -1      4194 2.72850E+01 1.82953E+01 0.00000E+00
 -1      4195 1.25535E+02 2.21922E+01 0.00000E+00
 -1      4196 2.70383E+01 2.07926E+01 0.00000E+00
 -1      4197 8.10230E+01 2.50443E+01 0.00000E+00
 -1      4198 7.90624E+01 2.35099E+01 0.00000E+00
 -1      4199 2.57851E+01 1.82953E+01 0.00000E+00
 -1      4200 2.95200E+01 2.45447E+01 0.00000E+00
 -1      4201 2.80282E+01 2.40928E+01 0.00000E+00
 -1      4202 8.69956E+01 2.37267E+01 0.00000E+00
 -1      4203 8.84956E+01 2.37267E+01 0.00000E+00
 -1      4204 8.99956E+01 2.37267E+01 0.00000E+00
 -1      4205 9.14956E+01 2.37267E+01 0.00000E+00
 -1      4206 9.29956E+01 2.37267E+01 0.00000E+00
 -1      4207 9.44956E+01 2.37267E+01 0.00000E+00
 -1      4208 9.59956E+01 2.37267E+01 0.00000E+00
 -1      4209 9.74956E+01 2.37267E+01 0.00000E+00
 -1      4210 9.89956E+01 2.37267E+01 0.00000E+00
 -1      4211 1.00496E+02 2.37267E+01 0.00000E+00
 -1      4212 1.01996E+02 2.37267E+01 0.00000E+00
 -1      4213 1.03496E+02 2.37267E+01 0.00000E+00
 -1      4214 1.04996E+02 2.37267E+01 0.00000E+00
 -1      4215 1.06496E+02 2.37267E+01 0.00000E+00
 -1      4216 1.07996E+02 2.37267E+01 0.00000E+00
 -1      4217 1.09496E+02 2.37267E+01 0.00000E+00
 -1      4218 1.10996E+02 2.37267E+01 0.00000E+00
 -1      4219 1.12496E+02 2.37267E+01 0.00000E+00
 -1      4220 1.13996E+02 2.37267E+01 0.00000E+00
 -1      4221 1.15496E+02 2.37267E+01 0.00000E+00
 -1      4222 1.16996E+02 2.37267E+01 0.00000E+00
 -1      4223 1.18496E+02 2.37267E+01 0.00000E+00
 -1      4224 1.19996E+02 2.37267E+01 0.00000E+00
 -1      4225 1.21496E+02 2.37267E+01 0.00000E+00
 -1      4226 1.22996E+02 2.37267E+01 0.00000E+00
 -1      4227 1.24496E+02 2.37267E+01 0.00000E+00
 -1      4228 1.97040E+01 2.62047E+01 0.00000E+00
 -1      4229 2.39356E+01 2.65836E+01 0.00000E+00
 -1      4230 2.46560E+01 2.78738E+01 0.00000E+00
 -1      4231 2.60647E+01 2.78565E+01 0.00000E+00
 -1      4232 8.39956E+01 2.37267E+01 0.00000E+00
 -1      4233 8.24956E+01 2.37267E+01 0.00000E+00
 -1      4234 8.05624E+01 2.35099E+01 0.00000E+00
 -1      4235 8.54956E+01 2.37267E+01 0.00000E+00
 -1      4236 1.26300E+02 2.34416E+01 0.00000E+00
 -1      4237 8.95350E+01 2.21922E+01 0.00000E+00
 -1      4238 1.27800E+02 2.34416E+01 0.00000E+00
 -1      4239 2.58638E+01 2.20110E+01 0.00000E+00
 -1      4240 2.53605E+01 2.08128E+01 0.00000E+00
 -1      4241 2.45273E+01 2.36779E+01 0.00000E+00
 -1      4242 2.31872E+01 2.53410E+01 0.00000E+00
 -1      4243 2.69297E+01 2.63806E+01 0.00000E+00
 -1      4244 1.86435E+01 2.81122E+01 0.00000E+00
 -1      4245 2.64430E+01 2.42786E+01 0.00000E+00
 -1      4246 2.62051E+01 2.36577E+01 0.00000E+00
 -1      4247 2.36978E+01 2.59627E+01 0.00000E+00
 -1      4248 2.20162E+01 2.59792E+01 0.00000E+00
 -1      4249 2.51066E+01 2.59454E+01 0.00000E+00
 -3
    3C                          2043                                     1
 -1       164    8    0    1
 -2         6         7        23      1104      1267      1121
 -1       165    8    0    1
 -2         7         8       164      1105      1268      1269
 -1       166    8    0    1
 -2         8         9       165      1106      1270      1271
 -1       167    8    0    1
 -2         8       165       164      1271      1272      1268
 -1       168    8    0    1
 -2         9        10       166      1107      1273      1274
 -1       169    8    0    1
 -2         9       166       165      1274      1275      1270
 -1       170    8    0    1
 -2        10        11       167      1108      1276      1277
 -1       171    8    0    1
 -2        10       167       166      1277      1278      1273
 -1       172    8    0    1
 -2        11        12       168      1109      1279      1280
 -1       173    8    0    1
 -2        11       168       167      1280      1281      1276
 -1       174    8    0    1
 -2        12        13       169      1110      1282      1283
 -1       175    8    0    1
 -2        12       169       168      1283      1284      1279
 -1       176    8    0    1
 -2        13        14       170      1111      1285      1286
 -1       177    8    0    1
 -2        13       170       169      1286      1287      1282
 -1       178    8    0    1
 -2        14        15       171      1112      1288      1289
 -1       179    8    0    1
 -2        14       171       170      1289      1290      1285
 -1       180    8    0    1
 -2        15        16       172      1113      1291      1292
 -1       181    8    0    1
 -2        15       172       171      1292      1293      1288
 -1       182    8    0    1
 -2        16        17       173      1114      1294      1295
 -1       183    8    0    1
 -2        16       173       172      1295      1296      1291
 -1       184    8    0    1
 -2        17        18       174      1115      1297      1298
 -1       185    8    0    1
 -2        17       174       173      1298      1299      1294
 -1       186    8    0    1
 -2        18        19       175      1116      1300      1301
 -1       187    8    0    1
 -2        18       175       174      1301      1302      1297
 -1       188    8    0    1
 -2        19        20       176      1117      1303      1304
 -1       189    8    0    1
 -2        19       176       175      1304      1305      1300
 -1       190    8    0    1
 -2        20        21       177      1118      1306      1307
 -1       191    8    0    1
 -2        20       177       176      1307      1308      1303
 -1       192    8    0    1
 -2        21        22       178      1119      1309      1310
 -1       193    8    0    1
 -2        21       178       177      1310      1311      1306
 -1       194    8    0    1
 -2        22         5       179      1120      1312      1313
 -1       195    8    0    1
 -2       178        22       179      1309      1313      1314
 -1       196    8    0    1
 -2         5        72       179      1171      1315      1312
 -1       197    8    0    1
 -2        24        23       180      1122      1316      1317
 -1       198    8    0    1
 -2        25        24       181      1123      1318      1319
 -1       199    8    0    1
 -2        24       180       181      1317      1320      1318
 -1       200    8    0    1
 -2        26        25       182      1124      1321      1322
 -1       201    8    0    1
 -2        25       181       182      1319      1323      1321
 -1       202    8    0    1
 -2        27        26       183      1125      1324      1325
 -1       203    8    0    1
 -2        26       182       183      1322      1326      1324
 -1       204    8    0    1
 -2        28        27       184      1126      1327      1328
 -1       205    8    0    1
 -2        27       183       184      1325      1329      1327
 -1       206    8    0    1
 -2        29        28       185      1127      1330      1331
 -1       207    8    0    1
 -2        28       184       185      1328      1332      1330
 -1       208    8    0    1
 -2        30        29       186      1128      1333      1334
 -1       209    8    0    1
 -2        29       185       186      1331      1335      1333
 -1       210    8    0    1
 -2        31        30       187      1129      1336      1337
 -1       211    8    0    1
 -2        30       186       187      1334      1338      1336
 -1       212    8    0    1
 -2        32        31       188      1130      1339      1340
 -1       213    8    0    1
 -2        31       187       188      1337      1341      1339
 -1       214    8    0    1
 -2        33        32       189      1131      1342      1343
 -1       215    8    0    1
 -2        32       188       189      1340      1344      1342
 -1       216    8    0    1
 -2        34        33       190      1132      1345      1346
 -1       217    8    0    1
 -2        33       189       190      1343      1347      1345
 -1       218    8    0    1
 -2        35        34       191      1133      1348      1349
 -1       219    8    0    1
 -2        34       190       191      1346      1350      1348
 -1       220    8    0    1
 -2        36        35       192      1134      1351      1352
 -1       221    8    0    1
 -2        35       191       192      1349      1353      1351
 -1       222    8    0    1
 -2        37        36       193      1135      1354      1355
 -1       223    8    0    1
 -2        36       192       193      1352      1356      1354
 -1       224    8    0    1
 -2        38        37       194      1136      1357      1358
 -1       225    8    0    1
 -2        37       193       194      1355      1359      1357
 -1       226    8    0    1
 -2        39        38       195      1137      1360      1361
 -1       227    8    0    1
 -2        38       194       195      1358      1362      1360
 -1       228    8    0    1
 -2        40        39       196      1138      1363      1364
 -1       229    8    0    1
 -2        39       195       196      1361      1365      1363
 -1       230    8    0    1
 -2        41        40       197      1139      1366      1367
 -1       231    8    0    1
 -2        40       196       197      1364      1368      1366
 -1       232    8    0    1
 -2        42        41       198      1140      1369      1370
 -1       233    8    0    1
 -2        41       197       198      1367      1371      1369
 -1       234    8    0    1
 -2        43        42       199      1141      1372      1373
 -1       235    8    0    1
 -2        42       198       199      1370      1374      1372
 -1       236    8    0    1
 -2        44        43       200      1142      1375      1376
 -1       237    8    0    1
 -2        43       199       200      1373      1377      1375
 -1       238    8    0    1
 -2        45        44       201      1143      1378      1379
 -1       239    8    0    1
 -2        44       200       201      1376      1380      1378
 -1       240    8    0    1
 -2        46        45       202      1144      1381      1382
 -1       241    8    0    1
 -2        45       201       202      1379      1383      1381
 -1       242    8    0    1
 -2        47        46       203      1145      1384      1385
 -1       243    8    0    1
 -2        46       202       203      1382      1386      1384
 -1       244    8    0    1
 -2        48        47       204      1146      1387      1388
 -1       245    8    0    1
 -2        47       203       204      1385      1389      1387
 -1       246    8    0    1
 -2        49        48       205      1147      1390      1391
 -1       247    8    0    1
 -2        48       204       205      1388      1392      1390
 -1       248    8    0    1
 -2        50        49       206      1148      1393      1394
 -1       249    8    0    1
 -2        49       205       206      1391      1395      1393
 -1       250    8    0    1
 -2        51        50       207      1149      1396      1397
 -1       251    8    0    1
 -2        50       206       207      1394      1398      1396
 -1       252    8    0    1
 -2        52        51       208      1150      1399      1400
 -1       253    8    0    1
 -2        51       207       208      1397      1401      1399
 -1       254    8    0    1
 -2        53        52       209      1151      1402      1403
 -1       255    8    0    1
 -2        52       208       209      1400      1404      1402
 -1       256    8    0    1
 -2        54        53       210      1152      1405      1406
 -1       257    8    0    1
 -2        53       209       210      1403      1407      1405
 -1       258    8    0    1
 -2        55        54       211      1153      1408      1409
 -1       259    8    0    1
 -2        54       210       211      1406      1410      1408
 -1       260    8    0    1
 -2        56        55       212      1154      1411      1412
 -1       261    8    0    1
 -2        55       211       212      1409      1413      1411
 -1       262    8    0    1
 -2        57        56       213      1155      1414      1415
 -1       263    8    0    1
 -2        56       212       213      1412      1416      1414
 -1       264    8    0    1
 -2        58        57       214      1156      1417      1418
 -1       265    8    0    1
 -2        57       213       214      1415      1419      1417
 -1       266    8    0    1
 -2        59        58       215      1157      1420      1421
 -1       267    8    0    1
 -2        58       214       215      1418      1422      1420
 -1       268    8    0    1
 -2        60        59       216      1158      1423      1424
 -1       269    8    0    1
 -2        59       215       216      1421      1425      1423
 -1       270    8    0    1
 -2        61        60       217      1159      1426      1427
 -1       271    8    0    1
 -2        60       216       217      1424      1428      1426
 -1       272    8    0    1
 -2        62        61       218      1160      1429      1430
 -1       273    8    0    1
 -2        61       217       218      1427      1431      1429
 -1       274    8    0    1
 -2        63        62       219      1161      1432      1433
 -1       275    8    0    1
 -2        62       218       219      1430      1434      1432
 -1       276    8    0    1
 -2        64        63       220      1162      1435      1436
 -1       277    8    0    1
 -2        63       219       220      1433      1437      1435
 -1       278    8    0    1
 -2        65        64       221      1163      1438      1439
 -1       279    8    0    1
 -2        64       220       221      1436      1440      1438
 -1       280    8    0    1
 -2        66        65       222      1164      1441      1442
 -1       281    8    0    1
 -2        65       221       222      1439      1443      1441
 -1       282    8    0    1
 -2        67        66       223      1165      1444      1445
 -1       283    8    0    1
 -2        66       222       223      1442      1446      1444
 -1       284    8    0    1
 -2        68        67       224      1166      1447      1448
 -1       285    8    0    1
 -2        67       223       224      1445      1449      1447
 -1       286    8    0    1
 -2        69        68       225      1167      1450      1451
 -1       287    8    0    1
 -2        68       224       225      1448      1452      1450
 -1       288    8    0    1
 -2        70        69       226      1168      1453      1454
 -1       289    8    0    1
 -2        69       225       226      1451      1455      1453
 -1       290    8    0    1
 -2        71        70       227      1169      1456      1457
 -1       291    8    0    1
 -2        70       226       227      1454      1458      1456
 -1       292    8    0    1
 -2         4        71       136      1170      1459      1237
 -1       293    8    0    1
 -2       136        71       227      1459      1457      1460
 -1       294    8    0    1
 -2        72        73       228      1172      1461      1462
 -1       295    8    0    1
 -2        72       228       179      1462      1463      1315
 -1       296    8    0    1
 -2        73        74       229      1173      1464      1465
 -1       297    8    0    1
 -2        73       229       228      1465      1466      1461
 -1       298    8    0    1
 -2        74        75       230      1174      1467      1468
 -1       299    8    0    1
 -2        74       230       229      1468      1469      1464
 -1       300    8    0    1
 -2        75        76       231      1175      1470      1471
 -1       301    8    0    1
 -2        75       231       230      1471      1472      1467
 -1       302    8    0    1
 -2        76        77       232      1176      1473      1474
 -1       303    8    0    1
 -2        76       232       231      1474      1475      1470
 -1       304    8    0    1
 -2        77        78       233      1177      1476      1477
 -1       305    8    0    1
 -2        77       233       232      1477      1478      1473
 -1       306    8    0    1
 -2        78        79       234      1178      1479      1480
 -1       307    8    0    1
 -2        78       234       233      1480      1481      1476
 -1       308    8    0    1
 -2        79        80       235      1179      1482      1483
 -1       309    8    0    1
 -2        79       235       234      1483      1484      1479
 -1       310    8    0    1
 -2        80        81       236      1180      1485      1486
 -1       311    8    0    1
 -2        80       236       235      1486      1487      1482
 -1       312    8    0    1
 -2        81        82       237      1181      1488      1489
 -1       313    8    0    1
 -2        81       237       236      1489      1490      1485
 -1       314    8    0    1
 -2        82        83       238      1182      1491      1492
 -1       315    8    0    1
 -2        82       238       237      1492      1493      1488
 -1       316    8    0    1
 -2        83        84       239      1183      1494      1495
 -1       317    8    0    1
 -2        83       239       238      1495      1496      1491
 -1       318    8    0    1
 -2        84        85       240      1184      1497      1498
 -1       319    8    0    1
 -2        84       240       239      1498      1499      1494
 -1       320    8    0    1
 -2        85        86       241      1185      1500      1501
 -1       321    8    0    1
 -2        85       241       240      1501      1502      1497
 -1       322    8    0    1
 -2        86        87       242      1186      1503      1504
 -1       323    8    0    1
 -2        86       242       241      1504      1505      1500
 -1       324    8    0    1
 -2        87        88       243      1187      1506      1507
 -1       325    8    0    1
 -2        87       243       242      1507      1508      1503
 -1       326    8    0    1
 -2        88        89       244      1188      1509      1510
 -1       327    8    0    1
 -2        88       244       243      1510      1511      1506
 -1       328    8    0    1
 -2        89        90       245      1189      1512      1513
 -1       329    8    0    1
 -2        89       245       244      1513      1514      1509
 -1       330    8    0    1
 -2        90        91       246      1190      1515      1516
 -1       331    8    0    1
 -2        90       246       245      1516      1517      1512
 -1       332    8    0    1
 -2        91        92       247      1191      1518      1519
 -1       333    8    0    1
 -2        91       247       246      1519      1520      1515
 -1       334    8    0    1
 -2        92        93       248      1192      1521      1522
 -1       335    8    0    1
 -2        92       248       247      1522      1523      1518
 -1       336    8    0    1
 -2        93        94       249      1193      1524      1525
 -1       337    8    0    1
 -2        93       249       248      1525      1526      1521
 -1       338    8    0    1
 -2        94        95       250      1194      1527      1528
 -1       339    8    0    1
 -2        94       250       249      1528      1529      1524
 -1       340    8    0    1
 -2        95        96       251      1195      1530      1531
 -1       341    8    0    1
 -2        95       251       250      1531      1532      1527
 -1       342    8    0    1
 -2        96        97       252      1196      1533      1534
 -1       343    8    0    1
 -2        96       252       251      1534      1535      1530
 -1       344    8    0    1
 -2        97        98       253      1197      1536      1537
 -1       345    8    0    1
 -2        97       253       252      1537      1538      1533
 -1       346    8    0    1
 -2        98        99       254      1198      1539      1540
 -1       347    8    0    1
 -2        98       254       253      1540      1541      1536
 -1       348    8    0    1
 -2        99       100       255      1199      1542      1543
 -1       349    8    0    1
 -2        99       255       254      1543      1544      1539
 -1       350    8    0    1
 -2       100       101       256      1200      1545      1546
 -1       351    8    0    1
 -2       100       256       255      1546      1547      1542
 -1       352    8    0    1
 -2       101       102       257      1201      1548      1549
 -1       353    8    0    1
 -2       101       257       256      1549      1550      1545
 -1       354    8    0    1
 -2       102       103       258      1202      1551      1552
 -1       355    8    0    1
 -2       102       258       257      1552      1553      1548
 -1       356    8    0    1
 -2       103       104       259      1203      1554      1555
 -1       357    8    0    1
 -2       103       259       258      1555      1556      1551
 -1       358    8    0    1
 -2       104       105       260      1204      1557      1558
 -1       359    8    0    1
 -2       104       260       259      1558      1559      1554
 -1       360    8    0    1
 -2       105       106       261      1205      1560      1561
 -1       361    8    0    1
 -2       105       261       260      1561      1562      1557
 -1       362    8    0    1
 -2       106       107       262      1206      1563      1564
 -1       363    8    0    1
 -2       106       262       261      1564      1565      1560
 -1       364    8    0    1
 -2       107       108       263      1207      1566      1567
 -1       365    8    0    1
 -2       107       263       262      1567      1568      1563
 -1       366    8    0    1
 -2       108       109       264      1208      1569      1570
 -1       367    8    0    1
 -2       108       264       263      1570      1571      1566
 -1       368    8    0    1
 -2       109       110       265      1209      1572      1573
 -1       369    8    0    1
 -2       109       265       264      1573      1574      1569
 -1       370    8    0    1
 -2       110       111       266      1210      1575      1576
 -1       371    8    0    1
 -2       110       266       265      1576      1577      1572
 -1       372    8    0    1
 -2       111       112       267      1211      1578      1579
 -1       373    8    0    1
 -2       111       267       266      1579      1580      1575
 -1       374    8    0    1
 -2       112       113       268      1212      1581      1582
 -1       375    8    0    1
 -2       112       268       267      1582      1583      1578
 -1       376    8    0    1
 -2       113       114       269      1213      1584      1585
 -1       377    8    0    1
 -2       113       269       268      1585      1586      1581
 -1       378    8    0    1
 -2       114       115       270      1214      1587      1588
 -1       379    8    0    1
 -2       114       270       269      1588      1589      1584
 -1       380    8    0    1
 -2       115       116       271      1215      1590      1591
 -1       381    8    0    1
 -2       115       271       270      1591      1592      1587
 -1       382    8    0    1
 -2       116       117       272      1216      1593      1594
 -1       383    8    0    1
 -2       116       272       271      1594      1595      1590
 -1       384    8    0    1
 -2       117       118       273      1217      1596      1597
 -1       385    8    0    1
 -2       117       273       272      1597      1598      1593
 -1       386    8    0    1
 -2       118       119       274      1218      1599      1600
 -1       387    8    0    1
 -2       118       274       273      1600      1601      1596
 -1       388    8    0    1
 -2       119       120       275      1219      1602      1603
 -1       389    8    0    1
 -2       119       275       274      1603      1604      1599
 -1       390    8    0    1
 -2       120         3       121      1220      1221      1605
 -1       391    8    0    1
 -2       121       122       276      1222      1606      1607
 -1       392    8    0    1
 -2       122       123       277      1223      1608      1609
 -1       393    8    0    1
 -2       122       277       276      1609      1610      1606
 -1       394    8    0    1
 -2       123       124       278      1224      1611      1612
 -1       395    8    0    1
 -2       123       278       277      1612      1613      1608
 -1       396    8    0    1
 -2       124       125       279      1225      1614      1615
 -1       397    8    0    1
 -2       124       279       278      1615      1616      1611
 -1       398    8    0    1
 -2       125       126       280      1226      1617      1618
 -1       399    8    0    1
 -2       125       280       279      1618      1619      1614
 -1       400    8    0    1
 -2       126       127       281      1227      1620      1621
 -1       401    8    0    1
 -2       126       281       280      1621      1622      1617
 -1       402    8    0    1
 -2       127       128       282      1228      1623      1624
 -1       403    8    0    1
 -2       127       282       281      1624      1625      1620
 -1       404    8    0    1
 -2       128       129       283      1229      1626      1627
 -1       405    8    0    1
 -2       128       283       282      1627      1628      1623
 -1       406    8    0    1
 -2       129       130       284      1230      1629      1630
 -1       407    8    0    1
 -2       129       284       283      1630      1631      1626
 -1       408    8    0    1
 -2       130       131       285      1231      1632      1633
 -1       409    8    0    1
 -2       130       285       284      1633      1634      1629
 -1       410    8    0    1
 -2       131       132       286      1232      1635      1636
 -1       411    8    0    1
 -2       131       286       285      1636      1637      1632
 -1       412    8    0    1
 -2       132       133       287      1233      1638      1639
 -1       413    8    0    1
 -2       132       287       286      1639      1640      1635
 -1       414    8    0    1
 -2       133       134       288      1234      1641      1642
 -1       415    8    0    1
 -2       133       288       287      1642      1643      1638
 -1       416    8    0    1
 -2       134       135       289      1235      1644      1645
 -1       417    8    0    1
 -2       134       289       288      1645      1646      1641
 -1       418    8    0    1
 -2       135       136       290      1236      1647      1648
 -1       419    8    0    1
 -2       289       135       290      1644      1648      1649
 -1       420    8    0    1
 -2       136       227       290      1460      1650      1647
 -1       421    8    0    1
 -2         2       137       291      1238      1651      1652
 -1       422    8    0    1
 -2       137       138       292      1239      1653      1654
 -1       423    8    0    1
 -2       138       139       293      1240      1655      1656
 -1       424    8    0    1
 -2       139       140       294      1241      1657      1658
 -1       425    8    0    1
 -2       140       141       295      1242      1659      1660
 -1       426    8    0    1
 -2       141       142       296      1243      1661      1662
 -1       427    8    0    1
 -2       142       143       297      1244      1663      1664
 -1       428    8    0    1
 -2       143       144       298      1245      1665      1666
 -1       429    8    0    1
 -2       144       145       299      1246      1667      1668
 -1       430    8    0    1
 -2       145       146       300      1247      1669      1670
 -1       431    8    0    1
 -2       146       147       301      1248      1671      1672
 -1       432    8    0    1
 -2       147       148       302      1249      1673      1674
 -1       433    8    0    1
 -2       148       149       303      1250      1675      1676
 -1       434    8    0    1
 -2       149       150       304      1251      1677      1678
 -1       435    8    0    1
 -2       150       151       305      1252      1679      1680
 -1       436    8    0    1
 -2       151       152       306      1253      1681      1682
 -1       437    8    0    1
 -2       152       153       307      1254      1683      1684
 -1       438    8    0    1
 -2       153       154       308      1255      1685      1686
 -1       439    8    0    1
 -2       154       155       309      1256      1687      1688
 -1       440    8    0    1
 -2       155       156       310      1257      1689      1690
 -1       441    8    0    1
 -2       156         1       311      1258      1691      1692
 -1       442    8    0    1
 -2         1       157       312      1259      1693      1694
 -1       443    8    0    1
 -2       157       158       313      1260      1695      1696
 -1       444    8    0    1
 -2       158       159       314      1261      1697      1698
 -1       445    8    0    1
 -2       159       160       315      1262      1699      1700
 -1       446    8    0    1
 -2       160       161       316      1263      1701      1702
 -1       447    8    0    1
 -2       161       162       317      1264      1703      1704
 -1       448    8    0    1
 -2       162       163       318      1265      1705      1706
 -1       449    8    0    1
 -2       163         2       319      1266      1707      1708
 -1       450    8    0    1
 -2       294       140       295      1657      1660      1709
 -1       451    8    0    1
 -2       293       139       294      1655      1658      1710
 -1       452    8    0    1
 -2       120       121       275      1605      1711      1602
 -1       453    8    0    1
 -2       121       276       275      1607      1712      1711
 -1       454    8    0    1
 -2       291       137       292      1651      1654      1713
 -1       455    8    0    1
 -2       292       138       293      1653      1656      1714
 -1       456    8    0    1
 -2         2       291       319      1652      1715      1707
 -1       457    8    0    1
 -2       141       296       295      1662      1716      1659
 -1       458    8    0    1
 -2       142       297       296      1664      1717      1661
 -1       459    8    0    1
 -2       143       298       297      1666      1718      1663
 -1       460    8    0    1
 -2       144       299       298      1668      1719      1665
 -1       461    8    0    1
 -2       145       300       299      1670      1720      1667
 -1       462    8    0    1
 -2       146       301       300      1672      1721      1669
 -1       463    8    0    1
 -2       147       302       301      1674      1722      1671
 -1       464    8    0    1
 -2       148       303       302      1676      1723      1673
 -1       465    8    0    1
 -2       149       304       303      1678      1724      1675
 -1       466    8    0    1
 -2       150       305       304      1680      1725      1677
 -1       467    8    0    1
 -2       151       306       305      1682      1726      1679
 -1       468    8    0    1
 -2       152       307       306      1684      1727      1681
 -1       469    8    0    1
 -2       153       308       307      1686      1728      1683
 -1       470    8    0    1
 -2       154       309       308      1688      1729      1685
 -1       471    8    0    1
 -2       155       310       309      1690      1730      1687
 -1       472    8    0    1
 -2       156       311       310      1692      1731      1689
 -1       473    8    0    1
 -2         1       312       311      1694      1732      1691
 -1       474    8    0    1
 -2       157       313       312      1696      1733      1693
 -1       475    8    0    1
 -2       158       314       313      1698      1734      1695
 -1       476    8    0    1
 -2       159       315       314      1700      1735      1697
 -1       477    8    0    1
 -2       160       316       315      1702      1736      1699
 -1       478    8    0    1
 -2       161       317       316      1704      1737      1701
 -1       479    8    0    1
 -2       162       318       317      1706      1738      1703
 -1       480    8    0    1
 -2       163       319       318      1708      1739      1705
 -1       481    8    0    1
 -2        23         7       164      1267      1269      1740
 -1       482    8    0    1
 -2       165       166       320      1275      1741      1742
 -1       483    8    0    1
 -2       164       165       321      1272      1743      1744
 -1       484    8    0    1
 -2       165       320       321      1742      1745      1743
 -1       485    8    0    1
 -2       167       168       322      1281      1746      1747
 -1       486    8    0    1
 -2       168       169       323      1284      1748      1749
 -1       487    8    0    1
 -2       168       323       322      1749      1750      1746
 -1       488    8    0    1
 -2       169       170       324      1287      1751      1752
 -1       489    8    0    1
 -2       169       324       323      1752      1753      1748
 -1       490    8    0    1
 -2       170       171       325      1290      1754      1755
 -1       491    8    0    1
 -2       170       325       324      1755      1756      1751
 -1       492    8    0    1
 -2       171       172       326      1293      1757      1758
 -1       493    8    0    1
 -2       171       326       325      1758      1759      1754
 -1       494    8    0    1
 -2       172       173       327      1296      1760      1761
 -1       495    8    0    1
 -2       172       327       326      1761      1762      1757
 -1       496    8    0    1
 -2       173       174       328      1299      1763      1764
 -1       497    8    0    1
 -2       173       328       327      1764      1765      1760
 -1       498    8    0    1
 -2       174       175       329      1302      1766      1767
 -1       499    8    0    1
 -2       174       329       328      1767      1768      1763
 -1       500    8    0    1
 -2       175       176       330      1305      1769      1770
 -1       501    8    0    1
 -2       175       330       329      1770      1771      1766
 -1       502    8    0    1
 -2       176       177       331      1308      1772      1773
 -1       503    8    0    1
 -2       176       331       330      1773      1774      1769
 -1       504    8    0    1
 -2       177       178       332      1311      1775      1776
 -1       505    8    0    1
 -2       177       332       331      1776      1777      1772
 -1       506    8    0    1
 -2       178       179       333      1314      1778      1779
 -1       507    8    0    1
 -2       332       178       333      1775      1779      1780
 -1       508    8    0    1
 -2       179       228       333      1463      1781      1778
 -1       509    8    0    1
 -2       180        23       164      1316      1740      1782
 -1       510    8    0    1
 -2       228       229       334      1466      1783      1784
 -1       511    8    0    1
 -2       228       334       333      1784      1785      1781
 -1       512    8    0    1
 -2       180       164       321      1782      1744      1786
 -1       513    8    0    1
 -2       182       181       335      1323      1787      1788
 -1       514    8    0    1
 -2       183       182       336      1326      1789      1790
 -1       515    8    0    1
 -2       182       335       336      1788      1791      1789
 -1       516    8    0    1
 -2       184       183       337      1329      1792      1793
 -1       517    8    0    1
 -2       183       336       337      1790      1794      1792
 -1       518    8    0    1
 -2       185       184       338      1332      1795      1796
 -1       519    8    0    1
 -2       184       337       338      1793      1797      1795
 -1       520    8    0    1
 -2       186       185       339      1335      1798      1799
 -1       521    8    0    1
 -2       185       338       339      1796      1800      1798
 -1       522    8    0    1
 -2       187       186       340      1338      1801      1802
 -1       523    8    0    1
 -2       186       339       340      1799      1803      1801
 -1       524    8    0    1
 -2       188       187       341      1341      1804      1805
 -1       525    8    0    1
 -2       187       340       341      1802      1806      1804
 -1       526    8    0    1
 -2       189       188       342      1344      1807      1808
 -1       527    8    0    1
 -2       188       341       342      1805      1809      1807
 -1       528    8    0    1
 -2       190       189       343      1347      1810      1811
 -1       529    8    0    1
 -2       189       342       343      1808      1812      1810
 -1       530    8    0    1
 -2       191       190       344      1350      1813      1814
 -1       531    8    0    1
 -2       190       343       344      1811      1815      1813
 -1       532    8    0    1
 -2       192       191       345      1353      1816      1817
 -1       533    8    0    1
 -2       191       344       345      1814      1818      1816
 -1       534    8    0    1
 -2       193       192       346      1356      1819      1820
 -1       535    8    0    1
 -2       192       345       346      1817      1821      1819
 -1       536    8    0    1
 -2       194       193       347      1359      1822      1823
 -1       537    8    0    1
 -2       193       346       347      1820      1824      1822
 -1       538    8    0    1
 -2       195       194       348      1362      1825      1826
 -1       539    8    0    1
 -2       194       347       348      1823      1827      1825
 -1       540    8    0    1
 -2       196       195       349      1365      1828      1829
 -1       541    8    0    1
 -2       195       348       349      1826      1830      1828
 -1       542    8    0    1
 -2       197       196       350      1368      1831      1832
 -1       543    8    0    1
 -2       196       349       350      1829      1833      1831
 -1       544    8    0    1
 -2       198       197       351      1371      1834      1835
 -1       545    8    0    1
 -2       197       350       351      1832      1836      1834
 -1       546    8    0    1
 -2       199       198       352      1374      1837      1838
 -1       547    8    0    1
 -2       198       351       352      1835      1839      1837
 -1       548    8    0    1
 -2       200       199       353      1377      1840      1841
 -1       549    8    0    1
 -2       199       352       353      1838      1842      1840
 -1       550    8    0    1
 -2       201       200       354      1380      1843      1844
 -1       551    8    0    1
 -2       200       353       354      1841      1845      1843
 -1       552    8    0    1
 -2       202       201       355      1383      1846      1847
 -1       553    8    0    1
 -2       201       354       355      1844      1848      1846
 -1       554    8    0    1
 -2       203       202       356      1386      1849      1850
 -1       555    8    0    1
 -2       202       355       356      1847      1851      1849
 -1       556    8    0    1
 -2       204       203       357      1389      1852      1853
 -1       557    8    0    1
 -2       203       356       357      1850      1854      1852
 -1       558    8    0    1
 -2       205       204       358      1392      1855      1856
 -1       559    8    0    1
 -2       204       357       358      1853      1857      1855
 -1       560    8    0    1
 -2       206       205       359      1395      1858      1859
 -1       561    8    0    1
 -2       205       358       359      1856      1860      1858
 -1       562    8    0    1
 -2       207       206       360      1398      1861      1862
 -1       563    8    0    1
 -2       206       359       360      1859      1863      1861
 -1       564    8    0    1
 -2       208       207       361      1401      1864      1865
 -1       565    8    0    1
 -2       207       360       361      1862      1866      1864
 -1       566    8    0    1
 -2       209       208       362      1404      1867      1868
 -1       567    8    0    1
 -2       208       361       362      1865      1869      1867
 -1       568    8    0    1
 -2       210       209       363      1407      1870      1871
 -1       569    8    0    1
 -2       209       362       363      1868      1872      1870
 -1       570    8    0    1
 -2       211       210       364      1410      1873      1874
 -1       571    8    0    1
 -2       210       363       364      1871      1875      1873
 -1       572    8    0    1
 -2       212       211       365      1413      1876      1877
 -1       573    8    0    1
 -2       211       364       365      1874      1878      1876
 -1       574    8    0    1
 -2       213       212       366      1416      1879      1880
 -1       575    8    0    1
 -2       212       365       366      1877      1881      1879
 -1       576    8    0    1
 -2       214       213       367      1419      1882      1883
 -1       577    8    0    1
 -2       213       366       367      1880      1884      1882
 -1       578    8    0    1
 -2       215       214       368      1422      1885      1886
 -1       579    8    0    1
 -2       214       367       368      1883      1887      1885
 -1       580    8    0    1
 -2       216       215       369      1425      1888      1889
 -1       581    8    0    1
 -2       215       368       369      1886      1890      1888
 -1       582    8    0    1
 -2       217       216       370      1428      1891      1892
 -1       583    8    0    1
 -2       216       369       370      1889      1893      1891
 -1       584    8    0    1
 -2       218       217       371      1431      1894      1895
 -1       585    8    0    1
 -2       217       370       371      1892      1896      1894
 -1       586    8    0    1
 -2       219       218       372      1434      1897      1898
 -1       587    8    0    1
 -2       218       371       372      1895      1899      1897
 -1       588    8    0    1
 -2       220       219       373      1437      1900      1901
 -1       589    8    0    1
 -2       219       372       373      1898      1902      1900
 -1       590    8    0    1
 -2       221       220       374      1440      1903      1904
 -1       591    8    0    1
 -2       220       373       374      1901      1905      1903
 -1       592    8    0    1
 -2       222       221       375      1443      1906      1907
 -1       593    8    0    1
 -2       221       374       375      1904      1908      1906
 -1       594    8    0    1
 -2       223       222       376      1446      1909      1910
 -1       595    8    0    1
 -2       222       375       376      1907      1911      1909
 -1       596    8    0    1
 -2       224       223       377      1449      1912      1913
 -1       597    8    0    1
 -2       223       376       377      1910      1914      1912
 -1       598    8    0    1
 -2       225       224       378      1452      1915      1916
 -1       599    8    0    1
 -2       224       377       378      1913      1917      1915
 -1       600    8    0    1
 -2       226       225       379      1455      1918      1919
 -1       601    8    0    1
 -2       225       378       379      1916      1920      1918
 -1       602    8    0    1
 -2       227       226       380      1458      1921      1922
 -1       603    8    0    1
 -2       290       227       380      1650      1922      1923
 -1       604    8    0    1
 -2       226       379       380      1919      1924      1921
 -1       605    8    0    1
 -2       229       230       381      1469      1925      1926
 -1       606    8    0    1
 -2       229       381       334      1926      1927      1783
 -1       607    8    0    1
 -2       230       231       382      1472      1928      1929
 -1       608    8    0    1
 -2       230       382       381      1929      1930      1925
 -1       609    8    0    1
 -2       231       232       383      1475      1931      1932
 -1       610    8    0    1
 -2       231       383       382      1932      1933      1928
 -1       611    8    0    1
 -2       232       233       384      1478      1934      1935
 -1       612    8    0    1
 -2       232       384       383      1935      1936      1931
 -1       613    8    0    1
 -2       233       234       385      1481      1937      1938
 -1       614    8    0    1
 -2       233       385       384      1938      1939      1934
 -1       615    8    0    1
 -2       234       235       386      1484      1940      1941
 -1       616    8    0    1
 -2       234       386       385      1941      1942      1937
 -1       617    8    0    1
 -2       235       236       387      1487      1943      1944
 -1       618    8    0    1
 -2       235       387       386      1944      1945      1940
 -1       619    8    0    1
 -2       236       237       388      1490      1946      1947
 -1       620    8    0    1
 -2       236       388       387      1947      1948      1943
 -1       621    8    0    1
 -2       237       238       389      1493      1949      1950
 -1       622    8    0    1
 -2       237       389       388      1950      1951      1946
 -1       623    8    0    1
 -2       238       239       390      1496      1952      1953
 -1       624    8    0    1
 -2       238       390       389      1953      1954      1949
 -1       625    8    0    1
 -2       239       240       391      1499      1955      1956
 -1       626    8    0    1
 -2       239       391       390      1956      1957      1952
 -1       627    8    0    1
 -2       240       241       392      1502      1958      1959
 -1       628    8    0    1
 -2       240       392       391      1959      1960      1955
 -1       629    8    0    1
 -2       241       242       393      1505      1961      1962
 -1       630    8    0    1
 -2       241       393       392      1962      1963      1958
 -1       631    8    0    1
 -2       242       243       394      1508      1964      1965
 -1       632    8    0    1
 -2       242       394       393      1965      1966      1961
 -1       633    8    0    1
 -2       243       244       395      1511      1967      1968
 -1       634    8    0    1
 -2       243       395       394      1968      1969      1964
 -1       635    8    0    1
 -2       244       245       396      1514      1970      1971
 -1       636    8    0    1
 -2       244       396       395      1971      1972      1967
 -1       637    8    0    1
 -2       245       246       397      1517      1973      1974
 -1       638    8    0    1
 -2       245       397       396      1974      1975      1970
 -1       639    8    0    1
 -2       246       247       398      1520      1976      1977
 -1       640    8    0    1
 -2       246       398       397      1977      1978      1973
 -1       641    8    0    1
 -2       247       248       399      1523      1979      1980
 -1       642    8    0    1
 -2       247       399       398      1980      1981      1976
 -1       643    8    0    1
 -2       248       249       400      1526      1982      1983
 -1       644    8    0    1
 -2       248       400       399      1983      1984      1979
 -1       645    8    0    1
 -2       249       250       401      1529      1985      1986
 -1       646    8    0    1
 -2       249       401       400      1986      1987      1982
 -1       647    8    0    1
 -2       250       251       402      1532      1988      1989
 -1       648    8    0    1
 -2       250       402       401      1989      1990      1985
 -1       649    8    0    1
 -2       251       252       403      1535      1991      1992
 -1       650    8    0    1
 -2       251       403       402      1992      1993      1988
 -1       651    8    0    1
 -2       252       253       404      1538      1994      1995
 -1       652    8    0    1
 -2       252       404       403      1995      1996      1991
 -1       653    8    0    1
 -2       253       254       405      1541      1997      1998
 -1       654    8    0    1
 -2       253       405       404      1998      1999      1994
 -1       655    8    0    1
 -2       254       255       406      1544      2000      2001
 -1       656    8    0    1
 -2       254       406       405      2001      2002      1997
 -1       657    8    0    1
 -2       255       256       407      1547      2003      2004
 -1       658    8    0    1
 -2       255       407       406      2004      2005      2000
 -1       659    8    0    1
 -2       256       257       408      1550      2006      2007
 -1       660    8    0    1
 -2       256       408       407      2007      2008      2003
 -1       661    8    0    1
 -2       257       258       409      1553      2009      2010
 -1       662    8    0    1
 -2       257       409       408      2010      2011      2006
 -1       663    8    0    1
 -2       258       259       410      1556      2012      2013
 -1       664    8    0    1
 -2       258       410       409      2013      2014      2009
 -1       665    8    0    1
 -2       259       260       411      1559      2015      2016
 -1       666    8    0    1
 -2       259       411       410      2016      2017      2012
 -1       667    8    0    1
 -2       260       261       412      1562      2018      2019
 -1       668    8    0    1
 -2       260       412       411      2019      2020      2015
 -1       669    8    0    1
 -2       261       262       413      1565      2021      2022
 -1       670    8    0    1
 -2       261       413       412      2022      2023      2018
 -1       671    8    0    1
 -2       262       263       414      1568      2024      2025
 -1       672    8    0    1
 -2       262       414       413      2025      2026      2021
 -1       673    8    0    1
 -2       263       264       415      1571      2027      2028
 -1       674    8    0    1
 -2       263       415       414      2028      2029      2024
 -1       675    8    0    1
 -2       264       265       416      1574      2030      2031
 -1       676    8    0    1
 -2       264       416       415      2031      2032      2027
 -1       677    8    0    1
 -2       265       266       417      1577      2033      2034
 -1       678    8    0    1
 -2       265       417       416      2034      2035      2030
 -1       679    8    0    1
 -2       266       267       418      1580      2036      2037
 -1       680    8    0    1
 -2       266       418       417      2037      2038      2033
 -1       681    8    0    1
 -2       267       268       419      1583      2039      2040
 -1       682    8    0    1
 -2       267       419       418      2040      2041      2036
 -1       683    8    0    1
 -2       268       269       420      1586      2042      2043
 -1       684    8    0    1
 -2       268       420       419      2043      2044      2039
 -1       685    8    0    1
 -2       269       270       421      1589      2045      2046
 -1       686    8    0    1
 -2       269       421       420      2046      2047      2042
 -1       687    8    0    1
 -2       270       271       422      1592      2048      2049
 -1       688    8    0    1
 -2       270       422       421      2049      2050      2045
 -1       689    8    0    1
 -2       271       272       423      1595      2051      2052
 -1       690    8    0    1
 -2       271       423       422      2052      2053      2048
 -1       691    8    0    1
 -2       272       273       424      1598      2054      2055
 -1       692    8    0    1
 -2       272       424       423      2055      2056      2051
 -1       693    8    0    1
 -2       273       274       425      1601      2057      2058
 -1       694    8    0    1
 -2       273       425       424      2058      2059      2054
 -1       695    8    0    1
 -2       274       275       426      1604      2060      2061
 -1       696    8    0    1
 -2       425       274       426      2057      2061      2062
 -1       697    8    0    1
 -2       275       276       426      1712      2063      2060
 -1       698    8    0    1
 -2       278       279       427      1616      2064      2065
 -1       699    8    0    1
 -2       277       278       428      1613      2066      2067
 -1       700    8    0    1
 -2       278       427       428      2065      2068      2066
 -1       701    8    0    1
 -2       276       277       429      1610      2069      2070
 -1       702    8    0    1
 -2       426       276       429      2063      2070      2071
 -1       703    8    0    1
 -2       277       428       429      2067      2072      2069
 -1       704    8    0    1
 -2       279       280       430      1619      2073      2074
 -1       705    8    0    1
 -2       279       430       427      2074      2075      2064
 -1       706    8    0    1
 -2       280       281       431      1622      2076      2077
 -1       707    8    0    1
 -2       280       431       430      2077      2078      2073
 -1       708    8    0    1
 -2       281       282       432      1625      2079      2080
 -1       709    8    0    1
 -2       281       432       431      2080      2081      2076
 -1       710    8    0    1
 -2       282       283       433      1628      2082      2083
 -1       711    8    0    1
 -2       282       433       432      2083      2084      2079
 -1       712    8    0    1
 -2       283       284       434      1631      2085      2086
 -1       713    8    0    1
 -2       283       434       433      2086      2087      2082
 -1       714    8    0    1
 -2       284       285       435      1634      2088      2089
 -1       715    8    0    1
 -2       284       435       434      2089      2090      2085
 -1       716    8    0    1
 -2       285       286       436      1637      2091      2092
 -1       717    8    0    1
 -2       285       436       435      2092      2093      2088
 -1       718    8    0    1
 -2       286       287       437      1640      2094      2095
 -1       719    8    0    1
 -2       286       437       436      2095      2096      2091
 -1       720    8    0    1
 -2       287       288       438      1643      2097      2098
 -1       721    8    0    1
 -2       287       438       437      2098      2099      2094
 -1       722    8    0    1
 -2       288       289       439      1646      2100      2101
 -1       723    8    0    1
 -2       288       439       438      2101      2102      2097
 -1       724    8    0    1
 -2       292       293       440      1714      2103      2104
 -1       725    8    0    1
 -2       319       291       441      1715      2105      2106
 -1       726    8    0    1
 -2       291       292       442      1713      2107      2108
 -1       727    8    0    1
 -2       291       442       441      2108      2109      2105
 -1       728    8    0    1
 -2       293       294       443      1710      2110      2111
 -1       729    8    0    1
 -2       294       295       444      1709      2112      2113
 -1       730    8    0    1
 -2       166       167       445      1278      2114      2115
 -1       731    8    0    1
 -2       320       166       445      1741      2115      2116
 -1       732    8    0    1
 -2       167       322       445      1747      2117      2114
 -1       733    8    0    1
 -2       296       297       446      1717      2118      2119
 -1       734    8    0    1
 -2       297       298       447      1718      2120      2121
 -1       735    8    0    1
 -2       297       447       446      2121      2122      2118
 -1       736    8    0    1
 -2       298       299       448      1719      2123      2124
 -1       737    8    0    1
 -2       299       300       449      1720      2125      2126
 -1       738    8    0    1
 -2       299       449       448      2126      2127      2123
 -1       739    8    0    1
 -2       300       301       450      1721      2128      2129
 -1       740    8    0    1
 -2       301       302       451      1722      2130      2131
 -1       741    8    0    1
 -2       302       303       452      1723      2132      2133
 -1       742    8    0    1
 -2       303       304       453      1724      2134      2135
 -1       743    8    0    1
 -2       303       453       452      2135      2136      2132
 -1       744    8    0    1
 -2       304       305       454      1725      2137      2138
 -1       745    8    0    1
 -2       305       306       455      1726      2139      2140
 -1       746    8    0    1
 -2       306       307       456      1727      2141      2142
 -1       747    8    0    1
 -2       307       308       457      1728      2143      2144
 -1       748    8    0    1
 -2       308       309       458      1729      2145      2146
 -1       749    8    0    1
 -2       309       310       459      1730      2147      2148
 -1       750    8    0    1
 -2       310       311       460      1731      2149      2150
 -1       751    8    0    1
 -2       311       312       461      1732      2151      2152
 -1       752    8    0    1
 -2       312       313       462      1733      2153      2154
 -1       753    8    0    1
 -2       312       462       461      2154      2155      2151
 -1       754    8    0    1
 -2       313       314       463      1734      2156      2157
 -1       755    8    0    1
 -2       314       315       464      1735      2158      2159
 -1       756    8    0    1
 -2       315       316       465      1736      2160      2161
 -1       757    8    0    1
 -2       316       317       466      1737      2162      2163
 -1       758    8    0    1
 -2       317       318       467      1738      2164      2165
 -1       759    8    0    1
 -2       318       319       468      1739      2166      2167
 -1       760    8    0    1
 -2       295       296       469      1716      2168      2169
 -1       761    8    0    1
 -2       295       469       444      2169      2170      2112
 -1       762    8    0    1
 -2       180       321       181      1786      2171      1320
 -1       763    8    0    1
 -2       296       446       469      2119      2172      2168
 -1       764    8    0    1
 -2       335       181       321      1787      2171      2173
 -1       765    8    0    1
 -2       442       292       440      2107      2104      2174
 -1       766    8    0    1
 -2       293       443       440      2111      2175      2103
 -1       767    8    0    1
 -2       439       289       290      2100      1649      2176
 -1       768    8    0    1
 -2       319       441       468      2106      2177      2166
 -1       769    8    0    1
 -2       443       294       444      2110      2113      2178
 -1       770    8    0    1
 -2       467       318       468      2164      2167      2179
 -1       771    8    0    1
 -2       466       317       467      2162      2165      2180
 -1       772    8    0    1
 -2       465       316       466      2160      2163      2181
 -1       773    8    0    1
 -2       464       315       465      2158      2161      2182
 -1       774    8    0    1
 -2       462       313       463      2153      2157      2183
 -1       775    8    0    1
 -2       460       311       461      2149      2152      2184
 -1       776    8    0    1
 -2       459       310       460      2147      2150      2185
 -1       777    8    0    1
 -2       458       309       459      2145      2148      2186
 -1       778    8    0    1
 -2       457       308       458      2143      2146      2187
 -1       779    8    0    1
 -2       456       307       457      2141      2144      2188
 -1       780    8    0    1
 -2       455       306       456      2139      2142      2189
 -1       781    8    0    1
 -2       453       304       454      2134      2138      2190
 -1       782    8    0    1
 -2       451       302       452      2130      2133      2191
 -1       783    8    0    1
 -2       449       300       470      2125      2192      2193
 -1       784    8    0    1
 -2       300       450       470      2129      2194      2192
 -1       785    8    0    1
 -2       298       448       447      2124      2195      2120
 -1       786    8    0    1
 -2       450       301       451      2128      2131      2196
 -1       787    8    0    1
 -2       454       305       455      2137      2140      2197
 -1       788    8    0    1
 -2       463       314       464      2156      2159      2198
 -1       789    8    0    1
 -2       334       381       471      1927      2199      2200
 -1       790    8    0    1
 -2       323       324       472      1753      2201      2202
 -1       791    8    0    1
 -2       322       323       473      1750      2203      2204
 -1       792    8    0    1
 -2       323       472       473      2202      2205      2203
 -1       793    8    0    1
 -2       325       326       474      1759      2206      2207
 -1       794    8    0    1
 -2       326       327       475      1762      2208      2209
 -1       795    8    0    1
 -2       326       475       474      2209      2210      2206
 -1       796    8    0    1
 -2       327       328       476      1765      2211      2212
 -1       797    8    0    1
 -2       327       476       475      2212      2213      2208
 -1       798    8    0    1
 -2       328       329       477      1768      2214      2215
 -1       799    8    0    1
 -2       328       477       476      2215      2216      2211
 -1       800    8    0    1
 -2       329       330       478      1771      2217      2218
 -1       801    8    0    1
 -2       329       478       477      2218      2219      2214
 -1       802    8    0    1
 -2       330       331       479      1774      2220      2221
 -1       803    8    0    1
 -2       330       479       478      2221      2222      2217
 -1       804    8    0    1
 -2       442       440       480      2174      2223      2224
 -1       805    8    0    1
 -2       381       382       481      1930      2225      2226
 -1       806    8    0    1
 -2       381       481       471      2226      2227      2199
 -1       807    8    0    1
 -2       336       335       482      1791      2228      2229
 -1       808    8    0    1
 -2       469       446       483      2172      2230      2231
 -1       809    8    0    1
 -2       337       336       484      1794      2232      2233
 -1       810    8    0    1
 -2       336       482       484      2229      2234      2232
 -1       811    8    0    1
 -2       338       337       485      1797      2235      2236
 -1       812    8    0    1
 -2       337       484       485      2233      2237      2235
 -1       813    8    0    1
 -2       339       338       486      1800      2238      2239
 -1       814    8    0    1
 -2       338       485       486      2236      2240      2238
 -1       815    8    0    1
 -2       340       339       487      1803      2241      2242
 -1       816    8    0    1
 -2       339       486       487      2239      2243      2241
 -1       817    8    0    1
 -2       341       340       488      1806      2244      2245
 -1       818    8    0    1
 -2       340       487       488      2242      2246      2244
 -1       819    8    0    1
 -2       342       341       489      1809      2247      2248
 -1       820    8    0    1
 -2       341       488       489      2245      2249      2247
 -1       821    8    0    1
 -2       343       342       490      1812      2250      2251
 -1       822    8    0    1
 -2       342       489       490      2248      2252      2250
 -1       823    8    0    1
 -2       344       343       491      1815      2253      2254
 -1       824    8    0    1
 -2       343       490       491      2251      2255      2253
 -1       825    8    0    1
 -2       345       344       492      1818      2256      2257
 -1       826    8    0    1
 -2       344       491       492      2254      2258      2256
 -1       827    8    0    1
 -2       346       345       493      1821      2259      2260
 -1       828    8    0    1
 -2       345       492       493      2257      2261      2259
 -1       829    8    0    1
 -2       347       346       494      1824      2262      2263
 -1       830    8    0    1
 -2       346       493       494      2260      2264      2262
 -1       831    8    0    1
 -2       348       347       495      1827      2265      2266
 -1       832    8    0    1
 -2       347       494       495      2263      2267      2265
 -1       833    8    0    1
 -2       349       348       496      1830      2268      2269
 -1       834    8    0    1
 -2       348       495       496      2266      2270      2268
 -1       835    8    0    1
 -2       350       349       497      1833      2271      2272
 -1       836    8    0    1
 -2       349       496       497      2269      2273      2271
 -1       837    8    0    1
 -2       351       350       498      1836      2274      2275
 -1       838    8    0    1
 -2       350       497       498      2272      2276      2274
 -1       839    8    0    1
 -2       352       351       499      1839      2277      2278
 -1       840    8    0    1
 -2       351       498       499      2275      2279      2277
 -1       841    8    0    1
 -2       353       352       500      1842      2280      2281
 -1       842    8    0    1
 -2       352       499       500      2278      2282      2280
 -1       843    8    0    1
 -2       354       353       501      1845      2283      2284
 -1       844    8    0    1
 -2       353       500       501      2281      2285      2283
 -1       845    8    0    1
 -2       355       354       502      1848      2286      2287
 -1       846    8    0    1
 -2       354       501       502      2284      2288      2286
 -1       847    8    0    1
 -2       356       355       503      1851      2289      2290
 -1       848    8    0    1
 -2       355       502       503      2287      2291      2289
 -1       849    8    0    1
 -2       357       356       504      1854      2292      2293
 -1       850    8    0    1
 -2       356       503       504      2290      2294      2292
 -1       851    8    0    1
 -2       358       357       505      1857      2295      2296
 -1       852    8    0    1
 -2       357       504       505      2293      2297      2295
 -1       853    8    0    1
 -2       359       358       506      1860      2298      2299
 -1       854    8    0    1
 -2       358       505       506      2296      2300      2298
 -1       855    8    0    1
 -2       360       359       507      1863      2301      2302
 -1       856    8    0    1
 -2       359       506       507      2299      2303      2301
 -1       857    8    0    1
 -2       361       360       508      1866      2304      2305
 -1       858    8    0    1
 -2       360       507       508      2302      2306      2304
 -1       859    8    0    1
 -2       362       361       509      1869      2307      2308
 -1       860    8    0    1
 -2       361       508       509      2305      2309      2307
 -1       861    8    0    1
 -2       363       362       510      1872      2310      2311
 -1       862    8    0    1
 -2       362       509       510      2308      2312      2310
 -1       863    8    0    1
 -2       364       363       511      1875      2313      2314
 -1       864    8    0    1
 -2       363       510       511      2311      2315      2313
 -1       865    8    0    1
 -2       365       364       512      1878      2316      2317
 -1       866    8    0    1
 -2       364       511       512      2314      2318      2316
 -1       867    8    0    1
 -2       366       365       513      1881      2319      2320
 -1       868    8    0    1
 -2       365       512       513      2317      2321      2319
 -1       869    8    0    1
 -2       367       366       514      1884      2322      2323
 -1       870    8    0    1
 -2       366       513       514      2320      2324      2322
 -1       871    8    0    1
 -2       368       367       515      1887      2325      2326
 -1       872    8    0    1
 -2       367       514       515      2323      2327      2325
 -1       873    8    0    1
 -2       369       368       516      1890      2328      2329
 -1       874    8    0    1
 -2       368       515       516      2326      2330      2328
 -1       875    8    0    1
 -2       370       369       517      1893      2331      2332
 -1       876    8    0    1
 -2       369       516       517      2329      2333      2331
 -1       877    8    0    1
 -2       371       370       518      1896      2334      2335
 -1       878    8    0    1
 -2       370       517       518      2332      2336      2334
 -1       879    8    0    1
 -2       372       371       519      1899      2337      2338
 -1       880    8    0    1
 -2       371       518       519      2335      2339      2337
 -1       881    8    0    1
 -2       373       372       520      1902      2340      2341
 -1       882    8    0    1
 -2       372       519       520      2338      2342      2340
 -1       883    8    0    1
 -2       374       373       521      1905      2343      2344
 -1       884    8    0    1
 -2       373       520       521      2341      2345      2343
 -1       885    8    0    1
 -2       375       374       522      1908      2346      2347
 -1       886    8    0    1
 -2       374       521       522      2344      2348      2346
 -1       887    8    0    1
 -2       376       375       523      1911      2349      2350
 -1       888    8    0    1
 -2       375       522       523      2347      2351      2349
 -1       889    8    0    1
 -2       377       376       524      1914      2352      2353
 -1       890    8    0    1
 -2       376       523       524      2350      2354      2352
 -1       891    8    0    1
 -2       378       377       525      1917      2355      2356
 -1       892    8    0    1
 -2       377       524       525      2353      2357      2355
 -1       893    8    0    1
 -2       379       378       526      1920      2358      2359
 -1       894    8    0    1
 -2       378       525       526      2356      2360      2358
 -1       895    8    0    1
 -2       383       384       527      1936      2361      2362
 -1       896    8    0    1
 -2       384       385       528      1939      2363      2364
 -1       897    8    0    1
 -2       384       528       527      2364      2365      2361
 -1       898    8    0    1
 -2       385       386       529      1942      2366      2367
 -1       899    8    0    1
 -2       385       529       528      2367      2368      2363
 -1       900    8    0    1
 -2       386       387       530      1945      2369      2370
 -1       901    8    0    1
 -2       386       530       529      2370      2371      2366
 -1       902    8    0    1
 -2       387       388       531      1948      2372      2373
 -1       903    8    0    1
 -2       387       531       530      2373      2374      2369
 -1       904    8    0    1
 -2       388       389       532      1951      2375      2376
 -1       905    8    0    1
 -2       388       532       531      2376      2377      2372
 -1       906    8    0    1
 -2       389       390       533      1954      2378      2379
 -1       907    8    0    1
 -2       389       533       532      2379      2380      2375
 -1       908    8    0    1
 -2       390       391       534      1957      2381      2382
 -1       909    8    0    1
 -2       390       534       533      2382      2383      2378
 -1       910    8    0    1
 -2       391       392       535      1960      2384      2385
 -1       911    8    0    1
 -2       391       535       534      2385      2386      2381
 -1       912    8    0    1
 -2       392       393       536      1963      2387      2388
 -1       913    8    0    1
 -2       392       536       535      2388      2389      2384
 -1       914    8    0    1
 -2       393       394       537      1966      2390      2391
 -1       915    8    0    1
 -2       393       537       536      2391      2392      2387
 -1       916    8    0    1
 -2       394       395       538      1969      2393      2394
 -1       917    8    0    1
 -2       394       538       537      2394      2395      2390
 -1       918    8    0    1
 -2       395       396       539      1972      2396      2397
 -1       919    8    0    1
 -2       395       539       538      2397      2398      2393
 -1       920    8    0    1
 -2       396       397       540      1975      2399      2400
 -1       921    8    0    1
 -2       396       540       539      2400      2401      2396
 -1       922    8    0    1
 -2       397       398       541      1978      2402      2403
 -1       923    8    0    1
 -2       397       541       540      2403      2404      2399
 -1       924    8    0    1
 -2       398       399       542      1981      2405      2406
 -1       925    8    0    1
 -2       398       542       541      2406      2407      2402
 -1       926    8    0    1
 -2       399       400       543      1984      2408      2409
 -1       927    8    0    1
 -2       399       543       542      2409      2410      2405
 -1       928    8    0    1
 -2       400       401       544      1987      2411      2412
 -1       929    8    0    1
 -2       400       544       543      2412      2413      2408
 -1       930    8    0    1
 -2       401       402       545      1990      2414      2415
 -1       931    8    0    1
 -2       401       545       544      2415      2416      2411
 -1       932    8    0    1
 -2       402       403       546      1993      2417      2418
 -1       933    8    0    1
 -2       402       546       545      2418      2419      2414
 -1       934    8    0    1
 -2       403       404       547      1996      2420      2421
 -1       935    8    0    1
 -2       403       547       546      2421      2422      2417
 -1       936    8    0    1
 -2       404       405       548      1999      2423      2424
 -1       937    8    0    1
 -2       404       548       547      2424      2425      2420
 -1       938    8    0    1
 -2       405       406       549      2002      2426      2427
 -1       939    8    0    1
 -2       405       549       548      2427      2428      2423
 -1       940    8    0    1
 -2       406       407       550      2005      2429      2430
 -1       941    8    0    1
 -2       406       550       549      2430      2431      2426
 -1       942    8    0    1
 -2       407       408       551      2008      2432      2433
 -1       943    8    0    1
 -2       407       551       550      2433      2434      2429
 -1       944    8    0    1
 -2       408       409       552      2011      2435      2436
 -1       945    8    0    1
 -2       408       552       551      2436      2437      2432
 -1       946    8    0    1
 -2       409       410       553      2014      2438      2439
 -1       947    8    0    1
 -2       409       553       552      2439      2440      2435
 -1       948    8    0    1
 -2       410       411       554      2017      2441      2442
 -1       949    8    0    1
 -2       410       554       553      2442      2443      2438
 -1       950    8    0    1
 -2       411       412       555      2020      2444      2445
 -1       951    8    0    1
 -2       411       555       554      2445      2446      2441
 -1       952    8    0    1
 -2       412       413       556      2023      2447      2448
 -1       953    8    0    1
 -2       412       556       555      2448      2449      2444
 -1       954    8    0    1
 -2       413       414       557      2026      2450      2451
 -1       955    8    0    1
 -2       413       557       556      2451      2452      2447
 -1       956    8    0    1
 -2       414       415       558      2029      2453      2454
 -1       957    8    0    1
 -2       414       558       557      2454      2455      2450
 -1       958    8    0    1
 -2       415       416       559      2032      2456      2457
 -1       959    8    0    1
 -2       415       559       558      2457      2458      2453
 -1       960    8    0    1
 -2       416       417       560      2035      2459      2460
 -1       961    8    0    1
 -2       416       560       559      2460      2461      2456
 -1       962    8    0    1
 -2       417       418       561      2038      2462      2463
 -1       963    8    0    1
 -2       417       561       560      2463      2464      2459
 -1       964    8    0    1
 -2       418       419       562      2041      2465      2466
 -1       965    8    0    1
 -2       418       562       561      2466      2467      2462
 -1       966    8    0    1
 -2       419       420       563      2044      2468      2469
 -1       967    8    0    1
 -2       419       563       562      2469      2470      2465
 -1       968    8    0    1
 -2       420       421       564      2047      2471      2472
 -1       969    8    0    1
 -2       420       564       563      2472      2473      2468
 -1       970    8    0    1
 -2       421       422       565      2050      2474      2475
 -1       971    8    0    1
 -2       421       565       564      2475      2476      2471
 -1       972    8    0    1
 -2       422       423       566      2053      2477      2478
 -1       973    8    0    1
 -2       422       566       565      2478      2479      2474
 -1       974    8    0    1
 -2       423       424       567      2056      2480      2481
 -1       975    8    0    1
 -2       423       567       566      2481      2482      2477
 -1       976    8    0    1
 -2       424       425       568      2059      2483      2484
 -1       977    8    0    1
 -2       424       568       567      2484      2485      2480
 -1       978    8    0    1
 -2       425       426       429      2062      2071      2486
 -1       979    8    0    1
 -2       430       431       569      2078      2487      2488
 -1       980    8    0    1
 -2       431       432       570      2081      2489      2490
 -1       981    8    0    1
 -2       431       570       569      2490      2491      2487
 -1       982    8    0    1
 -2       428       427       571      2068      2492      2493
 -1       983    8    0    1
 -2       427       430       572      2075      2494      2495
 -1       984    8    0    1
 -2       571       427       572      2492      2495      2496
 -1       985    8    0    1
 -2       430       569       572      2488      2497      2494
 -1       986    8    0    1
 -2       432       433       573      2084      2498      2499
 -1       987    8    0    1
 -2       432       573       570      2499      2500      2489
 -1       988    8    0    1
 -2       433       434       574      2087      2501      2502
 -1       989    8    0    1
 -2       433       574       573      2502      2503      2498
 -1       990    8    0    1
 -2       434       435       575      2090      2504      2505
 -1       991    8    0    1
 -2       434       575       574      2505      2506      2501
 -1       992    8    0    1
 -2       435       436       576      2093      2507      2508
 -1       993    8    0    1
 -2       435       576       575      2508      2509      2504
 -1       994    8    0    1
 -2       436       437       577      2096      2510      2511
 -1       995    8    0    1
 -2       436       577       576      2511      2512      2507
 -1       996    8    0    1
 -2       437       438       578      2099      2513      2514
 -1       997    8    0    1
 -2       437       578       577      2514      2515      2510
 -1       998    8    0    1
 -2       438       439       579      2102      2516      2517
 -1       999    8    0    1
 -2       438       579       578      2517      2518      2513
 -1      1000    8    0    1
 -2       440       443       580      2175      2519      2520
 -1      1001    8    0    1
 -2       439       290       380      2176      1923      2521
 -1      1002    8    0    1
 -2       468       441       581      2177      2522      2523
 -1      1003    8    0    1
 -2       382       383       582      1933      2524      2525
 -1      1004    8    0    1
 -2       383       527       582      2362      2526      2524
 -1      1005    8    0    1
 -2       441       442       583      2109      2527      2528
 -1      1006    8    0    1
 -2       467       468       584      2179      2529      2530
 -1      1007    8    0    1
 -2       335       321       585      2173      2531      2532
 -1      1008    8    0    1
 -2       482       335       585      2228      2532      2533
 -1      1009    8    0    1
 -2       321       320       585      1745      2534      2531
 -1      1010    8    0    1
 -2       443       444       586      2178      2535      2536
 -1      1011    8    0    1
 -2       460       461       587      2184      2537      2538
 -1      1012    8    0    1
 -2       451       452       588      2191      2539      2540
 -1      1013    8    0    1
 -2       324       325       589      1756      2541      2542
 -1      1014    8    0    1
 -2       472       324       589      2201      2542      2543
 -1      1015    8    0    1
 -2       325       474       589      2207      2544      2541
 -1      1016    8    0    1
 -2       450       451       590      2196      2545      2546
 -1      1017    8    0    1
 -2       446       447       591      2122      2547      2548
 -1      1018    8    0    1
 -2       447       448       592      2195      2549      2550
 -1      1019    8    0    1
 -2       448       449       593      2127      2551      2552
 -1      1020    8    0    1
 -2       454       455       594      2197      2553      2554
 -1      1021    8    0    1
 -2       452       453       595      2136      2555      2556
 -1      1022    8    0    1
 -2       463       464       596      2198      2557      2558
 -1      1023    8    0    1
 -2       453       454       597      2190      2559      2560
 -1      1024    8    0    1
 -2       454       594       597      2554      2561      2559
 -1      1025    8    0    1
 -2       455       456       598      2189      2562      2563
 -1      1026    8    0    1
 -2       456       457       599      2188      2564      2565
 -1      1027    8    0    1
 -2       457       458       600      2187      2566      2567
 -1      1028    8    0    1
 -2       458       459       601      2186      2568      2569
 -1      1029    8    0    1
 -2       459       460       602      2185      2570      2571
 -1      1030    8    0    1
 -2       461       462       603      2155      2572      2573
 -1      1031    8    0    1
 -2       462       463       604      2183      2574      2575
 -1      1032    8    0    1
 -2       464       465       605      2182      2576      2577
 -1      1033    8    0    1
 -2       465       466       606      2181      2578      2579
 -1      1034    8    0    1
 -2       465       606       605      2579      2580      2576
 -1      1035    8    0    1
 -2       466       467       607      2180      2581      2582
 -1      1036    8    0    1
 -2       444       469       608      2170      2583      2584
 -1      1037    8    0    1
 -2       586       444       608      2535      2584      2585
 -1      1038    8    0    1
 -2       469       483       608      2231      2586      2583
 -1      1039    8    0    1
 -2       333       334       609      1785      2587      2588
 -1      1040    8    0    1
 -2       332       333       609      1780      2588      2589
 -1      1041    8    0    1
 -2       334       471       609      2200      2590      2587
 -1      1042    8    0    1
 -2       450       590       470      2546      2591      2194
 -1      1043    8    0    1
 -2       322       473       610      2204      2592      2593
 -1      1044    8    0    1
 -2       322       610       445      2593      2594      2117
 -1      1045    8    0    1
 -2       442       480       583      2224      2595      2527
 -1      1046    8    0    1
 -2       480       440       611      2223      2596      2597
 -1      1047    8    0    1
 -2       440       580       611      2520      2598      2596
 -1      1048    8    0    1
 -2       331       332       609      1777      2589      2599
 -1      1049    8    0    1
 -2       604       463       596      2574      2558      2600
 -1      1050    8    0    1
 -2       603       462       604      2572      2575      2601
 -1      1051    8    0    1
 -2       602       460       587      2570      2538      2602
 -1      1052    8    0    1
 -2       468       581       584      2523      2603      2529
 -1      1053    8    0    1
 -2       601       459       602      2568      2571      2604
 -1      1054    8    0    1
 -2       425       429       568      2486      2605      2483
 -1      1055    8    0    1
 -2       429       428       568      2072      2606      2605
 -1      1056    8    0    1
 -2       600       458       601      2566      2569      2607
 -1      1057    8    0    1
 -2       331       609       479      2599      2608      2220
 -1      1058    8    0    1
 -2       580       443       586      2519      2536      2609
 -1      1059    8    0    1
 -2       439       380       612      2521      2610      2611
 -1      1060    8    0    1
 -2       579       439       612      2516      2611      2612
 -1      1061    8    0    1
 -2       380       379       612      1924      2613      2610
 -1      1062    8    0    1
 -2       599       457       600      2564      2567      2614
 -1      1063    8    0    1
 -2       581       441       583      2522      2528      2615
 -1      1064    8    0    1
 -2       382       582       481      2525      2616      2225
 -1      1065    8    0    1
 -2       467       584       607      2530      2617      2581
 -1      1066    8    0    1
 -2       596       464       605      2557      2577      2618
 -1      1067    8    0    1
 -2       606       466       607      2578      2582      2619
 -1      1068    8    0    1
 -2       587       461       603      2537      2573      2620
 -1      1069    8    0    1
 -2       595       453       597      2555      2560      2621
 -1      1070    8    0    1
 -2       594       455       613      2553      2622      2623
 -1      1071    8    0    1
 -2       455       598       613      2563      2624      2622
 -1      1072    8    0    1
 -2       593       449       614      2551      2625      2626
 -1      1073    8    0    1
 -2       449       470       614      2193      2627      2625
 -1      1074    8    0    1
 -2       592       448       593      2549      2552      2628
 -1      1075    8    0    1
 -2       451       588       615      2540      2629      2630
 -1      1076    8    0    1
 -2       451       615       590      2630      2631      2545
 -1      1077    8    0    1
 -2       588       452       595      2539      2556      2632
 -1      1078    8    0    1
 -2       585       320       445      2534      2116      2633
 -1      1079    8    0    1
 -2       483       446       591      2230      2548      2634
 -1      1080    8    0    1
 -2       591       447       592      2547      2550      2635
 -1      1081    8    0    1
 -2       598       456       599      2562      2565      2636
 -1      1082    8    0    1
 -2       568       428       571      2606      2493      2637
 -1      1083    8    0    1
 -2       612       379       526      2613      2359      2638
 -1      1084    8    0    1
 -2       475       476       616      2213      2639      2640
 -1      1085    8    0    1
 -2       474       475       617      2210      2641      2642
 -1      1086    8    0    1
 -2       475       616       617      2640      2643      2641
 -1      1087    8    0    1
 -2       477       478       618      2219      2644      2645
 -1      1088    8    0    1
 -2       478       479       619      2222      2646      2647
 -1      1089    8    0    1
 -2       478       619       618      2647      2648      2644
 -1      1090    8    0    1
 -2       580       586       620      2609      2649      2650
 -1      1091    8    0    1
 -2       471       481       621      2227      2651      2652
 -1      1092    8    0    1
 -2       583       480       622      2595      2653      2654
 -1      1093    8    0    1
 -2       609       471       479      2590      2655      2608
 -1      1094    8    0    1
 -2       604       596       623      2600      2656      2657
 -1      1095    8    0    1
 -2       485       484       624      2237      2658      2659
 -1      1096    8    0    1
 -2       486       485       625      2240      2660      2661
 -1      1097    8    0    1
 -2       485       624       625      2659      2662      2660
 -1      1098    8    0    1
 -2       487       486       626      2243      2663      2664
 -1      1099    8    0    1
 -2       486       625       626      2661      2665      2663
 -1      1100    8    0    1
 -2       488       487       627      2246      2666      2667
 -1      1101    8    0    1
 -2       487       626       627      2664      2668      2666
 -1      1102    8    0    1
 -2       489       488       628      2249      2669      2670
 -1      1103    8    0    1
 -2       488       627       628      2667      2671      2669
 -1      1104    8    0    1
 -2       490       489       629      2252      2672      2673
 -1      1105    8    0    1
 -2       489       628       629      2670      2674      2672
 -1      1106    8    0    1
 -2       491       490       630      2255      2675      2676
 -1      1107    8    0    1
 -2       490       629       630      2673      2677      2675
 -1      1108    8    0    1
 -2       492       491       631      2258      2678      2679
 -1      1109    8    0    1
 -2       491       630       631      2676      2680      2678
 -1      1110    8    0    1
 -2       493       492       632      2261      2681      2682
 -1      1111    8    0    1
 -2       492       631       632      2679      2683      2681
 -1      1112    8    0    1
 -2       494       493       633      2264      2684      2685
 -1      1113    8    0    1
 -2       493       632       633      2682      2686      2684
 -1      1114    8    0    1
 -2       495       494       634      2267      2687      2688
 -1      1115    8    0    1
 -2       494       633       634      2685      2689      2687
 -1      1116    8    0    1
 -2       497       496       602      2273      2690      2691
 -1      1117    8    0    1
 -2       498       497       603      2276      2692      2693
 -1      1118    8    0    1
 -2       499       498       603      2279      2693      2694
 -1      1119    8    0    1
 -2       500       499       623      2282      2695      2696
 -1      1120    8    0    1
 -2       501       500       635      2285      2697      2698
 -1      1121    8    0    1
 -2       500       623       635      2696      2699      2697
 -1      1122    8    0    1
 -2       502       501       636      2288      2700      2701
 -1      1123    8    0    1
 -2       501       635       636      2698      2702      2700
 -1      1124    8    0    1
 -2       503       502       637      2291      2703      2704
 -1      1125    8    0    1
 -2       502       636       637      2701      2705      2703
 -1      1126    8    0    1
 -2       504       503       638      2294      2706      2707
 -1      1127    8    0    1
 -2       503       637       638      2704      2708      2706
 -1      1128    8    0    1
 -2       505       504       639      2297      2709      2710
 -1      1129    8    0    1
 -2       504       638       639      2707      2711      2709
 -1      1130    8    0    1
 -2       506       505       640      2300      2712      2713
 -1      1131    8    0    1
 -2       505       639       640      2710      2714      2712
 -1      1132    8    0    1
 -2       507       506       641      2303      2715      2716
 -1      1133    8    0    1
 -2       506       640       641      2713      2717      2715
 -1      1134    8    0    1
 -2       508       507       642      2306      2718      2719
 -1      1135    8    0    1
 -2       507       641       642      2716      2720      2718
 -1      1136    8    0    1
 -2       509       508       643      2309      2721      2722
 -1      1137    8    0    1
 -2       508       642       643      2719      2723      2721
 -1      1138    8    0    1
 -2       510       509       644      2312      2724      2725
 -1      1139    8    0    1
 -2       509       643       644      2722      2726      2724
 -1      1140    8    0    1
 -2       511       510       645      2315      2727      2728
 -1      1141    8    0    1
 -2       510       644       645      2725      2729      2727
 -1      1142    8    0    1
 -2       512       511       646      2318      2730      2731
 -1      1143    8    0    1
 -2       511       645       646      2728      2732      2730
 -1      1144    8    0    1
 -2       513       512       647      2321      2733      2734
 -1      1145    8    0    1
 -2       512       646       647      2731      2735      2733
 -1      1146    8    0    1
 -2       514       513       648      2324      2736      2737
 -1      1147    8    0    1
 -2       513       647       648      2734      2738      2736
 -1      1148    8    0    1
 -2       515       514       649      2327      2739      2740
 -1      1149    8    0    1
 -2       514       648       649      2737      2741      2739
 -1      1150    8    0    1
 -2       516       515       650      2330      2742      2743
 -1      1151    8    0    1
 -2       515       649       650      2740      2744      2742
 -1      1152    8    0    1
 -2       517       516       651      2333      2745      2746
 -1      1153    8    0    1
 -2       516       650       651      2743      2747      2745
 -1      1154    8    0    1
 -2       518       517       652      2336      2748      2749
 -1      1155    8    0    1
 -2       517       651       652      2746      2750      2748
 -1      1156    8    0    1
 -2       519       518       653      2339      2751      2752
 -1      1157    8    0    1
 -2       518       652       653      2749      2753      2751
 -1      1158    8    0    1
 -2       520       519       654      2342      2754      2755
 -1      1159    8    0    1
 -2       519       653       654      2752      2756      2754
 -1      1160    8    0    1
 -2       521       520       655      2345      2757      2758
 -1      1161    8    0    1
 -2       520       654       655      2755      2759      2757
 -1      1162    8    0    1
 -2       522       521       656      2348      2760      2761
 -1      1163    8    0    1
 -2       521       655       656      2758      2762      2760
 -1      1164    8    0    1
 -2       523       522       657      2351      2763      2764
 -1      1165    8    0    1
 -2       522       656       657      2761      2765      2763
 -1      1166    8    0    1
 -2       524       523       658      2354      2766      2767
 -1      1167    8    0    1
 -2       523       657       658      2764      2768      2766
 -1      1168    8    0    1
 -2       525       524       659      2357      2769      2770
 -1      1169    8    0    1
 -2       524       658       659      2767      2771      2769
 -1      1170    8    0    1
 -2       526       525       660      2360      2772      2773
 -1      1171    8    0    1
 -2       525       659       660      2770      2774      2772
 -1      1172    8    0    1
 -2       528       529       661      2368      2775      2776
 -1      1173    8    0    1
 -2       599       600       662      2614      2777      2778
 -1      1174    8    0    1
 -2       527       528       663      2365      2779      2780
 -1      1175    8    0    1
 -2       528       661       663      2776      2781      2779
 -1      1176    8    0    1
 -2       530       531       664      2374      2782      2783
 -1      1177    8    0    1
 -2       531       532       665      2377      2784      2785
 -1      1178    8    0    1
 -2       531       665       664      2785      2786      2782
 -1      1179    8    0    1
 -2       532       533       666      2380      2787      2788
 -1      1180    8    0    1
 -2       532       666       665      2788      2789      2784
 -1      1181    8    0    1
 -2       533       534       667      2383      2790      2791
 -1      1182    8    0    1
 -2       533       667       666      2791      2792      2787
 -1      1183    8    0    1
 -2       534       535       668      2386      2793      2794
 -1      1184    8    0    1
 -2       534       668       667      2794      2795      2790
 -1      1185    8    0    1
 -2       535       536       669      2389      2796      2797
 -1      1186    8    0    1
 -2       535       669       668      2797      2798      2793
 -1      1187    8    0    1
 -2       536       537       670      2392      2799      2800
 -1      1188    8    0    1
 -2       536       670       669      2800      2801      2796
 -1      1189    8    0    1
 -2       537       538       671      2395      2802      2803
 -1      1190    8    0    1
 -2       537       671       670      2803      2804      2799
 -1      1191    8    0    1
 -2       538       539       672      2398      2805      2806
 -1      1192    8    0    1
 -2       538       672       671      2806      2807      2802
 -1      1193    8    0    1
 -2       539       540       673      2401      2808      2809
 -1      1194    8    0    1
 -2       539       673       672      2809      2810      2805
 -1      1195    8    0    1
 -2       540       541       674      2404      2811      2812
 -1      1196    8    0    1
 -2       540       674       673      2812      2813      2808
 -1      1197    8    0    1
 -2       541       542       675      2407      2814      2815
 -1      1198    8    0    1
 -2       541       675       674      2815      2816      2811
 -1      1199    8    0    1
 -2       542       543       676      2410      2817      2818
 -1      1200    8    0    1
 -2       542       676       675      2818      2819      2814
 -1      1201    8    0    1
 -2       543       544       677      2413      2820      2821
 -1      1202    8    0    1
 -2       543       677       676      2821      2822      2817
 -1      1203    8    0    1
 -2       544       545       678      2416      2823      2824
 -1      1204    8    0    1
 -2       544       678       677      2824      2825      2820
 -1      1205    8    0    1
 -2       545       546       679      2419      2826      2827
 -1      1206    8    0    1
 -2       545       679       678      2827      2828      2823
 -1      1207    8    0    1
 -2       546       547       680      2422      2829      2830
 -1      1208    8    0    1
 -2       546       680       679      2830      2831      2826
 -1      1209    8    0    1
 -2       547       548       681      2425      2832      2833
 -1      1210    8    0    1
 -2       547       681       680      2833      2834      2829
 -1      1211    8    0    1
 -2       548       549       682      2428      2835      2836
 -1      1212    8    0    1
 -2       548       682       681      2836      2837      2832
 -1      1213    8    0    1
 -2       549       550       683      2431      2838      2839
 -1      1214    8    0    1
 -2       549       683       682      2839      2840      2835
 -1      1215    8    0    1
 -2       550       551       684      2434      2841      2842
 -1      1216    8    0    1
 -2       550       684       683      2842      2843      2838
 -1      1217    8    0    1
 -2       551       552       685      2437      2844      2845
 -1      1218    8    0    1
 -2       551       685       684      2845      2846      2841
 -1      1219    8    0    1
 -2       552       553       686      2440      2847      2848
 -1      1220    8    0    1
 -2       552       686       685      2848      2849      2844
 -1      1221    8    0    1
 -2       553       554       687      2443      2850      2851
 -1      1222    8    0    1
 -2       553       687       686      2851      2852      2847
 -1      1223    8    0    1
 -2       554       555       688      2446      2853      2854
 -1      1224    8    0    1
 -2       554       688       687      2854      2855      2850
 -1      1225    8    0    1
 -2       555       556       689      2449      2856      2857
 -1      1226    8    0    1
 -2       555       689       688      2857      2858      2853
 -1      1227    8    0    1
 -2       556       557       690      2452      2859      2860
 -1      1228    8    0    1
 -2       556       690       689      2860      2861      2856
 -1      1229    8    0    1
 -2       557       558       691      2455      2862      2863
 -1      1230    8    0    1
 -2       557       691       690      2863      2864      2859
 -1      1231    8    0    1
 -2       558       559       692      2458      2865      2866
 -1      1232    8    0    1
 -2       558       692       691      2866      2867      2862
 -1      1233    8    0    1
 -2       559       560       693      2461      2868      2869
 -1      1234    8    0    1
 -2       559       693       692      2869      2870      2865
 -1      1235    8    0    1
 -2       560       561       694      2464      2871      2872
 -1      1236    8    0    1
 -2       560       694       693      2872      2873      2868
 -1      1237    8    0    1
 -2       561       562       695      2467      2874      2875
 -1      1238    8    0    1
 -2       561       695       694      2875      2876      2871
 -1      1239    8    0    1
 -2       562       563       696      2470      2877      2878
 -1      1240    8    0    1
 -2       562       696       695      2878      2879      2874
 -1      1241    8    0    1
 -2       563       564       697      2473      2880      2881
 -1      1242    8    0    1
 -2       563       697       696      2881      2882      2877
 -1      1243    8    0    1
 -2       564       565       698      2476      2883      2884
 -1      1244    8    0    1
 -2       564       698       697      2884      2885      2880
 -1      1245    8    0    1
 -2       565       566       699      2479      2886      2887
 -1      1246    8    0    1
 -2       565       699       698      2887      2888      2883
 -1      1247    8    0    1
 -2       566       567       700      2482      2889      2890
 -1      1248    8    0    1
 -2       566       700       699      2890      2891      2886
 -1      1249    8    0    1
 -2       567       568       701      2485      2892      2893
 -1      1250    8    0    1
 -2       700       567       701      2889      2893      2894
 -1      1251    8    0    1
 -2       568       571       701      2637      2895      2892
 -1      1252    8    0    1
 -2       573       574       702      2503      2896      2897
 -1      1253    8    0    1
 -2       612       526       703      2638      2898      2899
 -1      1254    8    0    1
 -2       579       612       703      2612      2899      2900
 -1      1255    8    0    1
 -2       526       660       703      2773      2901      2898
 -1      1256    8    0    1
 -2       569       570       704      2491      2902      2903
 -1      1257    8    0    1
 -2       574       575       705      2506      2904      2905
 -1      1258    8    0    1
 -2       574       705       702      2905      2906      2896
 -1      1259    8    0    1
 -2       570       573       706      2500      2907      2908
 -1      1260    8    0    1
 -2       704       570       706      2902      2908      2909
 -1      1261    8    0    1
 -2       573       702       706      2897      2910      2907
 -1      1262    8    0    1
 -2       582       527       707      2526      2911      2912
 -1      1263    8    0    1
 -2       527       663       707      2780      2913      2911
 -1      1264    8    0    1
 -2       575       576       708      2509      2914      2915
 -1      1265    8    0    1
 -2       575       708       705      2915      2916      2904
 -1      1266    8    0    1
 -2       576       577       709      2512      2917      2918
 -1      1267    8    0    1
 -2       576       709       708      2918      2919      2914
 -1      1268    8    0    1
 -2       577       578       710      2515      2920      2921
 -1      1269    8    0    1
 -2       577       710       709      2921      2922      2917
 -1      1270    8    0    1
 -2       578       579       703      2518      2900      2923
 -1      1271    8    0    1
 -2       597       594       711      2561      2924      2925
 -1      1272    8    0    1
 -2       482       585       712      2533      2926      2927
 -1      1273    8    0    1
 -2       584       581       713      2603      2928      2929
 -1      1274    8    0    1
 -2       601       602       714      2604      2930      2931
 -1      1275    8    0    1
 -2       529       530       715      2371      2932      2933
 -1      1276    8    0    1
 -2       661       529       715      2775      2933      2934
 -1      1277    8    0    1
 -2       530       664       715      2783      2935      2932
 -1      1278    8    0    1
 -2       484       482       716      2234      2936      2937
 -1      1279    8    0    1
 -2       624       484       716      2658      2937      2938
 -1      1280    8    0    1
 -2       482       712       716      2927      2939      2936
 -1      1281    8    0    1
 -2       607       584       717      2617      2940      2941
 -1      1282    8    0    1
 -2       483       591       718      2634      2942      2943
 -1      1283    8    0    1
 -2       476       477       719      2216      2944      2945
 -1      1284    8    0    1
 -2       616       476       719      2639      2945      2946
 -1      1285    8    0    1
 -2       477       618       719      2645      2947      2944
 -1      1286    8    0    1
 -2       591       592       720      2635      2948      2949
 -1      1287    8    0    1
 -2       598       599       721      2636      2950      2951
 -1      1288    8    0    1
 -2       473       472       722      2205      2952      2953
 -1      1289    8    0    1
 -2       585       445       712      2633      2954      2926
 -1      1290    8    0    1
 -2       592       593       723      2628      2955      2956
 -1      1291    8    0    1
 -2       588       595       724      2632      2957      2958
 -1      1292    8    0    1
 -2       581       583       725      2615      2959      2960
 -1      1293    8    0    1
 -2       583       622       725      2654      2961      2959
 -1      1294    8    0    1
 -2       600       601       726      2607      2962      2963
 -1      1295    8    0    1
 -2       595       597       727      2621      2964      2965
 -1      1296    8    0    1
 -2       595       727       724      2965      2966      2957
 -1      1297    8    0    1
 -2       481       582       728      2616      2967      2968
 -1      1298    8    0    1
 -2       621       481       728      2651      2968      2969
 -1      1299    8    0    1
 -2       582       707       728      2912      2970      2967
 -1      1300    8    0    1
 -2       470       590       729      2591      2971      2972
 -1      1301    8    0    1
 -2       470       729       614      2972      2973      2627
 -1      1302    8    0    1
 -2       606       607       730      2619      2974      2975
 -1      1303    8    0    1
 -2       605       606       731      2580      2976      2977
 -1      1304    8    0    1
 -2       596       605       732      2618      2978      2979
 -1      1305    8    0    1
 -2       623       596       732      2656      2979      2980
 -1      1306    8    0    1
 -2       605       731       732      2977      2981      2978
 -1      1307    8    0    1
 -2       602       496       714      2690      2982      2930
 -1      1308    8    0    1
 -2       610       473       733      2592      2983      2984
 -1      1309    8    0    1
 -2       473       722       733      2953      2985      2983
 -1      1310    8    0    1
 -2       474       617       734      2642      2986      2987
 -1      1311    8    0    1
 -2       474       734       589      2987      2988      2544
 -1      1312    8    0    1
 -2       580       620       735      2650      2989      2990
 -1      1313    8    0    1
 -2       580       735       611      2990      2991      2598
 -1      1314    8    0    1
 -2       620       586       736      2649      2992      2993
 -1      1315    8    0    1
 -2       600       726       662      2963      2994      2777
 -1      1316    8    0    1
 -2       479       471       621      2655      2652      2995
 -1      1317    8    0    1
 -2       495       634       714      2688      2996      2997
 -1      1318    8    0    1
 -2       591       720       718      2949      2998      2942
 -1      1319    8    0    1
 -2       497       602       587      2691      2602      2999
 -1      1320    8    0    1
 -2       496       495       714      2270      2997      2982
 -1      1321    8    0    1
 -2       569       704       737      2903      3000      3001
 -1      1322    8    0    1
 -2       569       737       572      3001      3002      2497
 -1      1323    8    0    1
 -2       499       603       604      2694      2601      3003
 -1      1324    8    0    1
 -2       623       499       604      2695      3003      2657
 -1      1325    8    0    1
 -2       599       662       721      2778      3004      2950
 -1      1326    8    0    1
 -2       571       572       738      2496      3005      3006
 -1      1327    8    0    1
 -2       701       571       738      2895      3006      3007
 -1      1328    8    0    1
 -2       572       737       738      3002      3008      3005
 -1      1329    8    0    1
 -2       713       581       725      2928      2960      3009
 -1      1330    8    0    1
 -2       578       703       710      2923      3010      2920
 -1      1331    8    0    1
 -2       592       723       720      2956      3011      2948
 -1      1332    8    0    1
 -2       711       594       613      2924      2623      3012
 -1      1333    8    0    1
 -2       480       611       739      2597      3013      3014
 -1      1334    8    0    1
 -2       480       739       622      3014      3015      2653
 -1      1335    8    0    1
 -2       607       717       730      2941      3016      2974
 -1      1336    8    0    1
 -2       584       713       717      2929      3017      2940
 -1      1337    8    0    1
 -2       608       483       740      2586      3018      3019
 -1      1338    8    0    1
 -2       479       621       619      2995      3020      2646
 -1      1339    8    0    1
 -2       601       714       726      2931      3021      2962
 -1      1340    8    0    1
 -2       613       598       741      2624      3022      3023
 -1      1341    8    0    1
 -2       598       721       741      2951      3024      3022
 -1      1342    8    0    1
 -2       606       730       731      2975      3025      2976
 -1      1343    8    0    1
 -2       615       588       742      2629      3026      3027
 -1      1344    8    0    1
 -2       588       724       742      2958      3028      3026
 -1      1345    8    0    1
 -2       603       497       587      2692      2999      2620
 -1      1346    8    0    1
 -2       472       589       743      2543      3029      3030
 -1      1347    8    0    1
 -2       722       472       743      2952      3030      3031
 -1      1348    8    0    1
 -2       589       734       743      2988      3032      3029
 -1      1349    8    0    1
 -2       445       610       712      2594      3033      2954
 -1      1350    8    0    1
 -2       483       718       744      2943      3034      3035
 -1      1351    8    0    1
 -2       483       744       740      3035      3036      3018
 -1      1352    8    0    1
 -2       729       590       745      2971      3037      3038
 -1      1353    8    0    1
 -2       590       615       745      2631      3039      3037
 -1      1354    8    0    1
 -2       593       614       746      2626      3040      3041
 -1      1355    8    0    1
 -2       593       746       723      3041      3042      2955
 -1      1356    8    0    1
 -2       586       608       747      2585      3043      3044
 -1      1357    8    0    1
 -2       736       586       747      2992      3044      3045
 -1      1358    8    0    1
 -2       608       740       747      3019      3046      3043
 -1      1359    8    0    1
 -2       618       619       748      2648      3047      3048
 -1      1360    8    0    1
 -2       662       726       749      2994      3049      3050
 -1      1361    8    0    1
 -2       620       736       750      2993      3051      3052
 -1      1362    8    0    1
 -2       714       634       726      2996      3053      3021
 -1      1363    8    0    1
 -2       718       720       751      2998      3054      3055
 -1      1364    8    0    1
 -2       626       625       752      2665      3056      3057
 -1      1365    8    0    1
 -2       627       626       753      2668      3058      3059
 -1      1366    8    0    1
 -2       626       752       753      3057      3060      3058
 -1      1367    8    0    1
 -2       628       627       754      2671      3061      3062
 -1      1368    8    0    1
 -2       627       753       754      3059      3063      3061
 -1      1369    8    0    1
 -2       629       628       755      2674      3064      3065
 -1      1370    8    0    1
 -2       628       754       755      3062      3066      3064
 -1      1371    8    0    1
 -2       630       629       756      2677      3067      3068
 -1      1372    8    0    1
 -2       629       755       756      3065      3069      3067
 -1      1373    8    0    1
 -2       631       630       757      2680      3070      3071
 -1      1374    8    0    1
 -2       630       756       757      3068      3072      3070
 -1      1375    8    0    1
 -2       632       631       758      2683      3073      3074
 -1      1376    8    0    1
 -2       631       757       758      3071      3075      3073
 -1      1377    8    0    1
 -2       634       633       749      2689      3076      3077
 -1      1378    8    0    1
 -2       637       636       759      2705      3078      3079
 -1      1379    8    0    1
 -2       638       637       760      2708      3080      3081
 -1      1380    8    0    1
 -2       637       759       760      3079      3082      3080
 -1      1381    8    0    1
 -2       639       638       761      2711      3083      3084
 -1      1382    8    0    1
 -2       638       760       761      3081      3085      3083
 -1      1383    8    0    1
 -2       640       639       762      2714      3086      3087
 -1      1384    8    0    1
 -2       639       761       762      3084      3088      3086
 -1      1385    8    0    1
 -2       641       640       763      2717      3089      3090
 -1      1386    8    0    1
 -2       640       762       763      3087      3091      3089
 -1      1387    8    0    1
 -2       642       641       764      2720      3092      3093
 -1      1388    8    0    1
 -2       641       763       764      3090      3094      3092
 -1      1389    8    0    1
 -2       643       642       765      2723      3095      3096
 -1      1390    8    0    1
 -2       642       764       765      3093      3097      3095
 -1      1391    8    0    1
 -2       644       643       766      2726      3098      3099
 -1      1392    8    0    1
 -2       643       765       766      3096      3100      3098
 -1      1393    8    0    1
 -2       645       644       767      2729      3101      3102
 -1      1394    8    0    1
 -2       644       766       767      3099      3103      3101
 -1      1395    8    0    1
 -2       646       645       768      2732      3104      3105
 -1      1396    8    0    1
 -2       645       767       768      3102      3106      3104
 -1      1397    8    0    1
 -2       647       646       769      2735      3107      3108
 -1      1398    8    0    1
 -2       646       768       769      3105      3109      3107
 -1      1399    8    0    1
 -2       648       647       770      2738      3110      3111
 -1      1400    8    0    1
 -2       647       769       770      3108      3112      3110
 -1      1401    8    0    1
 -2       649       648       771      2741      3113      3114
 -1      1402    8    0    1
 -2       648       770       771      3111      3115      3113
 -1      1403    8    0    1
 -2       650       649       772      2744      3116      3117
 -1      1404    8    0    1
 -2       649       771       772      3114      3118      3116
 -1      1405    8    0    1
 -2       651       650       773      2747      3119      3120
 -1      1406    8    0    1
 -2       650       772       773      3117      3121      3119
 -1      1407    8    0    1
 -2       652       651       774      2750      3122      3123
 -1      1408    8    0    1
 -2       651       773       774      3120      3124      3122
 -1      1409    8    0    1
 -2       653       652       775      2753      3125      3126
 -1      1410    8    0    1
 -2       652       774       775      3123      3127      3125
 -1      1411    8    0    1
 -2       654       653       776      2756      3128      3129
 -1      1412    8    0    1
 -2       653       775       776      3126      3130      3128
 -1      1413    8    0    1
 -2       655       654       777      2759      3131      3132
 -1      1414    8    0    1
 -2       654       776       777      3129      3133      3131
 -1      1415    8    0    1
 -2       656       655       778      2762      3134      3135
 -1      1416    8    0    1
 -2       655       777       778      3132      3136      3134
 -1      1417    8    0    1
 -2       657       656       779      2765      3137      3138
 -1      1418    8    0    1
 -2       656       778       779      3135      3139      3137
 -1      1419    8    0    1
 -2       658       657       780      2768      3140      3141
 -1      1420    8    0    1
 -2       657       779       780      3138      3142      3140
 -1      1421    8    0    1
 -2       659       658       781      2771      3143      3144
 -1      1422    8    0    1
 -2       658       780       781      3141      3145      3143
 -1      1423    8    0    1
 -2       660       659       782      2774      3146      3147
 -1      1424    8    0    1
 -2       659       781       782      3144      3148      3146
 -1      1425    8    0    1
 -2       705       708       783      2916      3149      3150
 -1      1426    8    0    1
 -2       665       666       784      2789      3151      3152
 -1      1427    8    0    1
 -2       664       665       785      2786      3153      3154
 -1      1428    8    0    1
 -2       665       784       785      3152      3155      3153
 -1      1429    8    0    1
 -2       667       668       786      2795      3156      3157
 -1      1430    8    0    1
 -2       668       669       787      2798      3158      3159
 -1      1431    8    0    1
 -2       668       787       786      3159      3160      3156
 -1      1432    8    0    1
 -2       669       670       788      2801      3161      3162
 -1      1433    8    0    1
 -2       669       788       787      3162      3163      3158
 -1      1434    8    0    1
 -2       670       671       746      2804      3164      3165
 -1      1435    8    0    1
 -2       672       673       751      2810      3166      3167
 -1      1436    8    0    1
 -2       673       674       744      2813      3168      3169
 -1      1437    8    0    1
 -2       674       675       744      2816      3170      3168
 -1      1438    8    0    1
 -2       675       676       789      2819      3171      3172
 -1      1439    8    0    1
 -2       676       677       790      2822      3173      3174
 -1      1440    8    0    1
 -2       676       790       789      3174      3175      3171
 -1      1441    8    0    1
 -2       677       678       791      2825      3176      3177
 -1      1442    8    0    1
 -2       677       791       790      3177      3178      3173
 -1      1443    8    0    1
 -2       678       679       792      2828      3179      3180
 -1      1444    8    0    1
 -2       678       792       791      3180      3181      3176
 -1      1445    8    0    1
 -2       679       680       793      2831      3182      3183
 -1      1446    8    0    1
 -2       679       793       792      3183      3184      3179
 -1      1447    8    0    1
 -2       680       681       794      2834      3185      3186
 -1      1448    8    0    1
 -2       680       794       793      3186      3187      3182
 -1      1449    8    0    1
 -2       681       682       795      2837      3188      3189
 -1      1450    8    0    1
 -2       681       795       794      3189      3190      3185
 -1      1451    8    0    1
 -2       682       683       796      2840      3191      3192
 -1      1452    8    0    1
 -2       682       796       795      3192      3193      3188
 -1      1453    8    0    1
 -2       683       684       797      2843      3194      3195
 -1      1454    8    0    1
 -2       683       797       796      3195      3196      3191
 -1      1455    8    0    1
 -2       684       685       798      2846      3197      3198
 -1      1456    8    0    1
 -2       684       798       797      3198      3199      3194
 -1      1457    8    0    1
 -2       685       686       799      2849      3200      3201
 -1      1458    8    0    1
 -2       685       799       798      3201      3202      3197
 -1      1459    8    0    1
 -2       686       687       800      2852      3203      3204
 -1      1460    8    0    1
 -2       686       800       799      3204      3205      3200
 -1      1461    8    0    1
 -2       687       688       801      2855      3206      3207
 -1      1462    8    0    1
 -2       687       801       800      3207      3208      3203
 -1      1463    8    0    1
 -2       688       689       802      2858      3209      3210
 -1      1464    8    0    1
 -2       688       802       801      3210      3211      3206
 -1      1465    8    0    1
 -2       689       690       803      2861      3212      3213
 -1      1466    8    0    1
 -2       689       803       802      3213      3214      3209
 -1      1467    8    0    1
 -2       690       691       804      2864      3215      3216
 -1      1468    8    0    1
 -2       690       804       803      3216      3217      3212
 -1      1469    8    0    1
 -2       691       692       805      2867      3218      3219
 -1      1470    8    0    1
 -2       691       805       804      3219      3220      3215
 -1      1471    8    0    1
 -2       692       693       806      2870      3221      3222
 -1      1472    8    0    1
 -2       692       806       805      3222      3223      3218
 -1      1473    8    0    1
 -2       693       694       807      2873      3224      3225
 -1      1474    8    0    1
 -2       693       807       806      3225      3226      3221
 -1      1475    8    0    1
 -2       694       695       808      2876      3227      3228
 -1      1476    8    0    1
 -2       694       808       807      3228      3229      3224
 -1      1477    8    0    1
 -2       695       696       809      2879      3230      3231
 -1      1478    8    0    1
 -2       695       809       808      3231      3232      3227
 -1      1479    8    0    1
 -2       696       697       810      2882      3233      3234
 -1      1480    8    0    1
 -2       696       810       809      3234      3235      3230
 -1      1481    8    0    1
 -2       697       698       811      2885      3236      3237
 -1      1482    8    0    1
 -2       697       811       810      3237      3238      3233
 -1      1483    8    0    1
 -2       698       699       812      2888      3239      3240
 -1      1484    8    0    1
 -2       698       812       811      3240      3241      3236
 -1      1485    8    0    1
 -2       699       700       813      2891      3242      3243
 -1      1486    8    0    1
 -2       699       813       812      3243      3244      3239
 -1      1487    8    0    1
 -2       700       701       814      2894      3245      3246
 -1      1488    8    0    1
 -2       813       700       814      3242      3246      3247
 -1      1489    8    0    1
 -2       701       738       814      3007      3248      3245
 -1      1490    8    0    1
 -2       703       660       710      2901      3249      3010
 -1      1491    8    0    1
 -2       617       616       815      2643      3250      3251
 -1      1492    8    0    1
 -2       597       711       727      2925      3252      2964
 -1      1493    8    0    1
 -2       708       709       816      2919      3253      3254
 -1      1494    8    0    1
 -2       708       816       783      3254      3255      3149
 -1      1495    8    0    1
 -2       702       705       817      2906      3256      3257
 -1      1496    8    0    1
 -2       705       783       817      3150      3258      3256
 -1      1497    8    0    1
 -2       725       622       818      2961      3259      3260
 -1      1498    8    0    1
 -2       711       613       819      3012      3261      3262
 -1      1499    8    0    1
 -2       666       667       820      2792      3263      3264
 -1      1500    8    0    1
 -2       784       666       820      3151      3264      3265
 -1      1501    8    0    1
 -2       667       786       820      3157      3266      3263
 -1      1502    8    0    1
 -2       619       621       821      3020      3267      3268
 -1      1503    8    0    1
 -2       748       619       821      3047      3268      3269
 -1      1504    8    0    1
 -2       621       728       821      2969      3270      3267
 -1      1505    8    0    1
 -2       663       661       822      2781      3271      3272
 -1      1506    8    0    1
 -2       635       623       732      2699      2980      3273
 -1      1507    8    0    1
 -2       625       624       823      2662      3274      3275
 -1      1508    8    0    1
 -2       625       823       752      3275      3276      3056
 -1      1509    8    0    1
 -2       730       717       824      3016      3277      3278
 -1      1510    8    0    1
 -2       707       663       825      2913      3279      3280
 -1      1511    8    0    1
 -2       663       822       825      3272      3281      3279
 -1      1512    8    0    1
 -2       710       660       782      3249      3147      3282
 -1      1513    8    0    1
 -2       731       730       759      3025      3283      3284
 -1      1514    8    0    1
 -2       712       610       733      3033      2984      3285
 -1      1515    8    0    1
 -2       614       729       826      2973      3286      3287
 -1      1516    8    0    1
 -2       721       662       827      3004      3288      3289
 -1      1517    8    0    1
 -2       724       727       828      2966      3290      3291
 -1      1518    8    0    1
 -2       717       713       829      3017      3292      3293
 -1      1519    8    0    1
 -2       717       829       824      3293      3294      3277
 -1      1520    8    0    1
 -2       713       725       830      3009      3295      3296
 -1      1521    8    0    1
 -2       713       830       829      3296      3297      3292
 -1      1522    8    0    1
 -2       726       634       749      3053      3077      3049
 -1      1523    8    0    1
 -2       727       711       831      3252      3298      3299
 -1      1524    8    0    1
 -2       734       617       832      2986      3300      3301
 -1      1525    8    0    1
 -2       617       815       832      3251      3302      3300
 -1      1526    8    0    1
 -2       735       620       750      2989      3052      3303
 -1      1527    8    0    1
 -2       822       661       833      3271      3304      3305
 -1      1528    8    0    1
 -2       661       715       833      2934      3306      3304
 -1      1529    8    0    1
 -2       662       749       827      3050      3307      3288
 -1      1530    8    0    1
 -2       737       704       834      3000      3308      3309
 -1      1531    8    0    1
 -2       751       720       835      3054      3310      3311
 -1      1532    8    0    1
 -2       672       751       835      3167      3311      3312
 -1      1533    8    0    1
 -2       720       723       835      3011      3313      3310
 -1      1534    8    0    1
 -2       632       758       827      3074      3314      3315
 -1      1535    8    0    1
 -2       831       711       836      3298      3316      3317
 -1      1536    8    0    1
 -2       711       819       836      3262      3318      3316
 -1      1537    8    0    1
 -2       633       632       827      2686      3315      3319
 -1      1538    8    0    1
 -2       725       818       830      3260      3320      3295
 -1      1539    8    0    1
 -2       733       722       837      2985      3321      3322
 -1      1540    8    0    1
 -2       624       716       838      2938      3323      3324
 -1      1541    8    0    1
 -2       624       838       823      3324      3325      3274
 -1      1542    8    0    1
 -2       636       635       731      2702      3326      3327
 -1      1543    8    0    1
 -2       731       759       636      3284      3078      3327
 -1      1544    8    0    1
 -2       702       817       839      3257      3328      3329
 -1      1545    8    0    1
 -2       702       839       706      3329      3330      2910
 -1      1546    8    0    1
 -2       716       712       733      2939      3285      3331
 -1      1547    8    0    1
 -2       664       785       840      3154      3332      3333
 -1      1548    8    0    1
 -2       664       840       715      3333      3334      2935
 -1      1549    8    0    1
 -2       788       670       746      3161      3165      3335
 -1      1550    8    0    1
 -2       671       672       835      2807      3312      3336
 -1      1551    8    0    1
 -2       744       675       789      3170      3172      3337
 -1      1552    8    0    1
 -2       819       613       741      3261      3023      3338
 -1      1553    8    0    1
 -2       704       706       841      2909      3339      3340
 -1      1554    8    0    1
 -2       834       704       841      3308      3340      3341
 -1      1555    8    0    1
 -2       706       839       841      3330      3342      3339
 -1      1556    8    0    1
 -2       815       616       842      3250      3343      3344
 -1      1557    8    0    1
 -2       616       719       842      2946      3345      3343
 -1      1558    8    0    1
 -2       818       622       843      3259      3346      3347
 -1      1559    8    0    1
 -2       622       739       843      3015      3348      3346
 -1      1560    8    0    1
 -2       709       710       844      2922      3349      3350
 -1      1561    8    0    1
 -2       739       611       845      3013      3351      3352
 -1      1562    8    0    1
 -2       611       735       845      2991      3353      3351
 -1      1563    8    0    1
 -2       732       731       635      2981      3326      3273
 -1      1564    8    0    1
 -2       710       782       844      3282      3354      3349
 -1      1565    8    0    1
 -2       614       826       746      3287      3355      3040
 -1      1566    8    0    1
 -2       828       727       831      3290      3299      3356
 -1      1567    8    0    1
 -2       729       745       846      3038      3357      3358
 -1      1568    8    0    1
 -2       729       846       826      3358      3359      3286
 -1      1569    8    0    1
 -2       741       721       847      3024      3360      3361
 -1      1570    8    0    1
 -2       721       827       847      3289      3362      3360
 -1      1571    8    0    1
 -2       742       724       848      3028      3363      3364
 -1      1572    8    0    1
 -2       724       828       848      3291      3365      3363
 -1      1573    8    0    1
 -2       618       748       849      3048      3366      3367
 -1      1574    8    0    1
 -2       618       849       719      3367      3368      2947
 -1      1575    8    0    1
 -2       730       824       759      3278      3369      3283
 -1      1576    8    0    1
 -2       744       718       751      3034      3055      3370
 -1      1577    8    0    1
 -2       745       615       850      3039      3371      3372
 -1      1578    8    0    1
 -2       615       742       850      3027      3373      3371
 -1      1579    8    0    1
 -2       709       844       816      3350      3374      3253
 -1      1580    8    0    1
 -2       728       707       851      2970      3375      3376
 -1      1581    8    0    1
 -2       821       728       851      3270      3376      3377
 -1      1582    8    0    1
 -2       707       825       851      3280      3378      3375
 -1      1583    8    0    1
 -2       722       743       852      3031      3379      3380
 -1      1584    8    0    1
 -2       722       852       837      3380      3381      3321
 -1      1585    8    0    1
 -2       835       723       746      3313      3042      3382
 -1      1586    8    0    1
 -2       754       753       853      3063      3383      3384
 -1      1587    8    0    1
 -2       755       754       854      3066      3385      3386
 -1      1588    8    0    1
 -2       754       853       854      3384      3387      3385
 -1      1589    8    0    1
 -2       756       755       855      3069      3388      3389
 -1      1590    8    0    1
 -2       755       854       855      3386      3390      3388
 -1      1591    8    0    1
 -2       757       756       856      3072      3391      3392
 -1      1592    8    0    1
 -2       756       855       856      3389      3393      3391
 -1      1593    8    0    1
 -2       758       757       857      3075      3394      3395
 -1      1594    8    0    1
 -2       757       856       857      3392      3396      3394
 -1      1595    8    0    1
 -2       835       746       671      3382      3164      3336
 -1      1596    8    0    1
 -2       761       760       858      3085      3397      3398
 -1      1597    8    0    1
 -2       762       761       859      3088      3399      3400
 -1      1598    8    0    1
 -2       761       858       859      3398      3401      3399
 -1      1599    8    0    1
 -2       763       762       860      3091      3402      3403
 -1      1600    8    0    1
 -2       762       859       860      3400      3404      3402
 -1      1601    8    0    1
 -2       764       763       861      3094      3405      3406
 -1      1602    8    0    1
 -2       763       860       861      3403      3407      3405
 -1      1603    8    0    1
 -2       765       764       862      3097      3408      3409
 -1      1604    8    0    1
 -2       764       861       862      3406      3410      3408
 -1      1605    8    0    1
 -2       766       765       863      3100      3411      3412
 -1      1606    8    0    1
 -2       765       862       863      3409      3413      3411
 -1      1607    8    0    1
 -2       767       766       864      3103      3414      3415
 -1      1608    8    0    1
 -2       766       863       864      3412      3416      3414
 -1      1609    8    0    1
 -2       768       767       865      3106      3417      3418
 -1      1610    8    0    1
 -2       767       864       865      3415      3419      3417
 -1      1611    8    0    1
 -2       769       768       866      3109      3420      3421
 -1      1612    8    0    1
 -2       768       865       866      3418      3422      3420
 -1      1613    8    0    1
 -2       770       769       867      3112      3423      3424
 -1      1614    8    0    1
 -2       769       866       867      3421      3425      3423
 -1      1615    8    0    1
 -2       771       770       868      3115      3426      3427
 -1      1616    8    0    1
 -2       770       867       868      3424      3428      3426
 -1      1617    8    0    1
 -2       772       771       869      3118      3429      3430
 -1      1618    8    0    1
 -2       771       868       869      3427      3431      3429
 -1      1619    8    0    1
 -2       773       772       870      3121      3432      3433
 -1      1620    8    0    1
 -2       772       869       870      3430      3434      3432
 -1      1621    8    0    1
 -2       774       773       871      3124      3435      3436
 -1      1622    8    0    1
 -2       773       870       871      3433      3437      3435
 -1      1623    8    0    1
 -2       775       774       872      3127      3438      3439
 -1      1624    8    0    1
 -2       774       871       872      3436      3440      3438
 -1      1625    8    0    1
 -2       776       775       873      3130      3441      3442
 -1      1626    8    0    1
 -2       775       872       873      3439      3443      3441
 -1      1627    8    0    1
 -2       777       776       874      3133      3444      3445
 -1      1628    8    0    1
 -2       776       873       874      3442      3446      3444
 -1      1629    8    0    1
 -2       778       777       875      3136      3447      3448
 -1      1630    8    0    1
 -2       777       874       875      3445      3449      3447
 -1      1631    8    0    1
 -2       779       778       876      3139      3450      3451
 -1      1632    8    0    1
 -2       778       875       876      3448      3452      3450
 -1      1633    8    0    1
 -2       780       779       877      3142      3453      3454
 -1      1634    8    0    1
 -2       779       876       877      3451      3455      3453
 -1      1635    8    0    1
 -2       781       780       878      3145      3456      3457
 -1      1636    8    0    1
 -2       780       877       878      3454      3458      3456
 -1      1637    8    0    1
 -2       782       781       879      3148      3459      3460
 -1      1638    8    0    1
 -2       844       782       879      3354      3460      3461
 -1      1639    8    0    1
 -2       781       878       879      3457      3462      3459
 -1      1640    8    0    1
 -2       738       737       880      3008      3463      3464
 -1      1641    8    0    1
 -2       814       738       880      3248      3464      3465
 -1      1642    8    0    1
 -2       737       834       880      3309      3466      3463
 -1      1643    8    0    1
 -2       787       788       846      3163      3467      3468
 -1      1644    8    0    1
 -2       786       787       881      3160      3469      3470
 -1      1645    8    0    1
 -2       827       758       857      3314      3395      3471
 -1      1646    8    0    1
 -2       673       744       751      3169      3370      3166
 -1      1647    8    0    1
 -2       790       791       882      3178      3472      3473
 -1      1648    8    0    1
 -2       789       790       750      3175      3474      3475
 -1      1649    8    0    1
 -2       792       793       883      3184      3476      3477
 -1      1650    8    0    1
 -2       793       794       884      3187      3478      3479
 -1      1651    8    0    1
 -2       793       884       883      3479      3480      3476
 -1      1652    8    0    1
 -2       794       795       885      3190      3481      3482
 -1      1653    8    0    1
 -2       794       885       884      3482      3483      3478
 -1      1654    8    0    1
 -2       795       796       886      3193      3484      3485
 -1      1655    8    0    1
 -2       795       886       885      3485      3486      3481
 -1      1656    8    0    1
 -2       796       797       887      3196      3487      3488
 -1      1657    8    0    1
 -2       796       887       886      3488      3489      3484
 -1      1658    8    0    1
 -2       797       798       888      3199      3490      3491
 -1      1659    8    0    1
 -2       797       888       887      3491      3492      3487
 -1      1660    8    0    1
 -2       798       799       889      3202      3493      3494
 -1      1661    8    0    1
 -2       798       889       888      3494      3495      3490
 -1      1662    8    0    1
 -2       799       800       890      3205      3496      3497
 -1      1663    8    0    1
 -2       799       890       889      3497      3498      3493
 -1      1664    8    0    1
 -2       800       801       891      3208      3499      3500
 -1      1665    8    0    1
 -2       800       891       890      3500      3501      3496
 -1      1666    8    0    1
 -2       801       802       892      3211      3502      3503
 -1      1667    8    0    1
 -2       801       892       891      3503      3504      3499
 -1      1668    8    0    1
 -2       802       803       893      3214      3505      3506
 -1      1669    8    0    1
 -2       802       893       892      3506      3507      3502
 -1      1670    8    0    1
 -2       803       804       894      3217      3508      3509
 -1      1671    8    0    1
 -2       803       894       893      3509      3510      3505
 -1      1672    8    0    1
 -2       804       805       895      3220      3511      3512
 -1      1673    8    0    1
 -2       804       895       894      3512      3513      3508
 -1      1674    8    0    1
 -2       805       806       896      3223      3514      3515
 -1      1675    8    0    1
 -2       805       896       895      3515      3516      3511
 -1      1676    8    0    1
 -2       806       807       897      3226      3517      3518
 -1      1677    8    0    1
 -2       806       897       896      3518      3519      3514
 -1      1678    8    0    1
 -2       807       808       898      3229      3520      3521
 -1      1679    8    0    1
 -2       807       898       897      3521      3522      3517
 -1      1680    8    0    1
 -2       808       809       899      3232      3523      3524
 -1      1681    8    0    1
 -2       808       899       898      3524      3525      3520
 -1      1682    8    0    1
 -2       809       810       900      3235      3526      3527
 -1      1683    8    0    1
 -2       809       900       899      3527      3528      3523
 -1      1684    8    0    1
 -2       810       811       901      3238      3529      3530
 -1      1685    8    0    1
 -2       810       901       900      3530      3531      3526
 -1      1686    8    0    1
 -2       811       812       902      3241      3532      3533
 -1      1687    8    0    1
 -2       811       902       901      3533      3534      3529
 -1      1688    8    0    1
 -2       817       783       903      3258      3535      3536
 -1      1689    8    0    1
 -2       716       733       838      3331      3537      3323
 -1      1690    8    0    1
 -2       791       792       904      3181      3538      3539
 -1      1691    8    0    1
 -2       882       791       904      3472      3539      3540
 -1      1692    8    0    1
 -2       792       883       904      3477      3541      3538
 -1      1693    8    0    1
 -2       830       818       905      3320      3542      3543
 -1      1694    8    0    1
 -2       819       741       906      3338      3544      3545
 -1      1695    8    0    1
 -2       783       816       907      3255      3546      3547
 -1      1696    8    0    1
 -2       783       907       903      3547      3548      3535
 -1      1697    8    0    1
 -2       750       736       789      3051      3549      3475
 -1      1698    8    0    1
 -2       825       822       908      3281      3550      3551
 -1      1699    8    0    1
 -2       785       784       909      3155      3552      3553
 -1      1700    8    0    1
 -2       760       759       824      3082      3369      3554
 -1      1701    8    0    1
 -2       753       752       910      3060      3555      3556
 -1      1702    8    0    1
 -2       753       910       853      3556      3557      3383
 -1      1703    8    0    1
 -2       829       830       911      3297      3558      3559
 -1      1704    8    0    1
 -2       743       734       912      3032      3560      3561
 -1      1705    8    0    1
 -2       743       912       852      3561      3562      3379
 -1      1706    8    0    1
 -2       828       831       913      3356      3563      3564
 -1      1707    8    0    1
 -2       747       740       914      3046      3565      3566
 -1      1708    8    0    1
 -2       736       747       789      3045      3567      3549
 -1      1709    8    0    1
 -2       735       750       915      3303      3568      3569
 -1      1710    8    0    1
 -2       735       915       845      3569      3570      3353
 -1      1711    8    0    1
 -2       816       844       879      3374      3461      3571
 -1      1712    8    0    1
 -2       733       837       838      3322      3572      3537
 -1      1713    8    0    1
 -2       752       823       916      3276      3573      3574
 -1      1714    8    0    1
 -2       752       916       910      3574      3575      3555
 -1      1715    8    0    1
 -2       750       790       882      3474      3473      3576
 -1      1716    8    0    1
 -2       760       824       858      3554      3577      3397
 -1      1717    8    0    1
 -2       833       715       840      3306      3334      3578
 -1      1718    8    0    1
 -2       842       719       849      3345      3368      3579
 -1      1719    8    0    1
 -2       822       833       917      3305      3580      3581
 -1      1720    8    0    1
 -2       822       917       908      3581      3582      3550
 -1      1721    8    0    1
 -2       832       815       918      3302      3583      3584
 -1      1722    8    0    1
 -2       836       819       919      3318      3585      3586
 -1      1723    8    0    1
 -2       819       906       919      3545      3587      3585
 -1      1724    8    0    1
 -2       831       836       920      3317      3588      3589
 -1      1725    8    0    1
 -2       831       920       913      3589      3590      3563
 -1      1726    8    0    1
 -2       912       734       832      3560      3301      3591
 -1      1727    8    0    1
 -2       914       740       744      3565      3036      3592
 -1      1728    8    0    1
 -2       749       633       827      3076      3319      3307
 -1      1729    8    0    1
 -2       823       838       921      3325      3593      3594
 -1      1730    8    0    1
 -2       916       823       921      3573      3594      3595
 -1      1731    8    0    1
 -2       838       837       921      3572      3596      3593
 -1      1732    8    0    1
 -2       907       816       879      3546      3571      3597
 -1      1733    8    0    1
 -2       840       785       922      3332      3598      3599
 -1      1734    8    0    1
 -2       785       909       922      3553      3600      3598
 -1      1735    8    0    1
 -2       881       787       846      3469      3468      3601
 -1      1736    8    0    1
 -2       748       821       923      3269      3602      3603
 -1      1737    8    0    1
 -2       821       851       923      3377      3604      3602
 -1      1738    8    0    1
 -2       786       881       924      3470      3605      3606
 -1      1739    8    0    1
 -2       786       924       820      3606      3607      3266
 -1      1740    8    0    1
 -2       825       908       925      3551      3608      3609
 -1      1741    8    0    1
 -2       830       905       911      3543      3610      3558
 -1      1742    8    0    1
 -2       817       903       926      3536      3611      3612
 -1      1743    8    0    1
 -2       817       926       839      3612      3613      3328
 -1      1744    8    0    1
 -2       812       813       927      3244      3614      3615
 -1      1745    8    0    1
 -2       813       814       880      3247      3465      3616
 -1      1746    8    0    1
 -2       825       925       851      3609      3617      3378
 -1      1747    8    0    1
 -2       843       739       928      3348      3618      3619
 -1      1748    8    0    1
 -2       739       845       928      3352      3620      3618
 -1      1749    8    0    1
 -2       918       815       929      3583      3621      3622
 -1      1750    8    0    1
 -2       815       842       929      3344      3623      3621
 -1      1751    8    0    1
 -2       927       813       880      3614      3616      3624
 -1      1752    8    0    1
 -2       746       826       788      3355      3625      3335
 -1      1753    8    0    1
 -2       906       741       847      3544      3361      3626
 -1      1754    8    0    1
 -2       921       837       930      3596      3627      3628
 -1      1755    8    0    1
 -2       837       852       930      3381      3629      3627
 -1      1756    8    0    1
 -2       784       820       931      3265      3630      3631
 -1      1757    8    0    1
 -2       909       784       931      3552      3631      3632
 -1      1758    8    0    1
 -2       820       924       931      3607      3633      3630
 -1      1759    8    0    1
 -2       846       745       881      3357      3634      3601
 -1      1760    8    0    1
 -2       880       834       927      3466      3635      3624
 -1      1761    8    0    1
 -2       848       828       932      3365      3636      3637
 -1      1762    8    0    1
 -2       828       913       932      3564      3638      3636
 -1      1763    8    0    1
 -2       849       748       923      3366      3603      3639
 -1      1764    8    0    1
 -2       750       882       915      3576      3640      3568
 -1      1765    8    0    1
 -2       850       742       933      3373      3641      3642
 -1      1766    8    0    1
 -2       742       848       933      3364      3643      3641
 -1      1767    8    0    1
 -2       818       843       934      3347      3644      3645
 -1      1768    8    0    1
 -2       818       934       905      3645      3646      3542
 -1      1769    8    0    1
 -2       812       927       902      3615      3647      3532
 -1      1770    8    0    1
 -2       745       850       881      3372      3648      3634
 -1      1771    8    0    1
 -2       834       841       935      3341      3649      3650
 -1      1772    8    0    1
 -2       834       935       927      3650      3651      3635
 -1      1773    8    0    1
 -2       824       829       858      3294      3652      3577
 -1      1774    8    0    1
 -2       826       846       788      3359      3467      3625
 -1      1775    8    0    1
 -2       858       829       911      3652      3559      3653
 -1      1776    8    0    1
 -2       855       854       936      3390      3654      3655
 -1      1777    8    0    1
 -2       856       855       937      3393      3656      3657
 -1      1778    8    0    1
 -2       855       936       937      3655      3658      3656
 -1      1779    8    0    1
 -2       859       858       938      3401      3659      3660
 -1      1780    8    0    1
 -2       858       911       938      3653      3661      3659
 -1      1781    8    0    1
 -2       860       859       939      3404      3662      3663
 -1      1782    8    0    1
 -2       859       938       939      3660      3664      3662
 -1      1783    8    0    1
 -2       861       860       940      3407      3665      3666
 -1      1784    8    0    1
 -2       860       939       940      3663      3667      3665
 -1      1785    8    0    1
 -2       862       861       941      3410      3668      3669
 -1      1786    8    0    1
 -2       861       940       941      3666      3670      3668
 -1      1787    8    0    1
 -2       863       862       942      3413      3671      3672
 -1      1788    8    0    1
 -2       862       941       942      3669      3673      3671
 -1      1789    8    0    1
 -2       864       863       943      3416      3674      3675
 -1      1790    8    0    1
 -2       863       942       943      3672      3676      3674
 -1      1791    8    0    1
 -2       865       864       944      3419      3677      3678
 -1      1792    8    0    1
 -2       864       943       944      3675      3679      3677
 -1      1793    8    0    1
 -2       866       865       945      3422      3680      3681
 -1      1794    8    0    1
 -2       865       944       945      3678      3682      3680
 -1      1795    8    0    1
 -2       867       866       946      3425      3683      3684
 -1      1796    8    0    1
 -2       866       945       946      3681      3685      3683
 -1      1797    8    0    1
 -2       868       867       947      3428      3686      3687
 -1      1798    8    0    1
 -2       867       946       947      3684      3688      3686
 -1      1799    8    0    1
 -2       869       868       948      3431      3689      3690
 -1      1800    8    0    1
 -2       868       947       948      3687      3691      3689
 -1      1801    8    0    1
 -2       870       869       949      3434      3692      3693
 -1      1802    8    0    1
 -2       869       948       949      3690      3694      3692
 -1      1803    8    0    1
 -2       871       870       950      3437      3695      3696
 -1      1804    8    0    1
 -2       870       949       950      3693      3697      3695
 -1      1805    8    0    1
 -2       872       871       951      3440      3698      3699
 -1      1806    8    0    1
 -2       871       950       951      3696      3700      3698
 -1      1807    8    0    1
 -2       873       872       952      3443      3701      3702
 -1      1808    8    0    1
 -2       872       951       952      3699      3703      3701
 -1      1809    8    0    1
 -2       874       873       953      3446      3704      3705
 -1      1810    8    0    1
 -2       873       952       953      3702      3706      3704
 -1      1811    8    0    1
 -2       875       874       954      3449      3707      3708
 -1      1812    8    0    1
 -2       874       953       954      3705      3709      3707
 -1      1813    8    0    1
 -2       876       875       955      3452      3710      3711
 -1      1814    8    0    1
 -2       875       954       955      3708      3712      3710
 -1      1815    8    0    1
 -2       877       876       956      3455      3713      3714
 -1      1816    8    0    1
 -2       876       955       956      3711      3715      3713
 -1      1817    8    0    1
 -2       878       877       957      3458      3716      3717
 -1      1818    8    0    1
 -2       877       956       957      3714      3718      3716
 -1      1819    8    0    1
 -2       923       851       925      3604      3617      3719
 -1      1820    8    0    1
 -2       925       908       958      3608      3720      3721
 -1      1821    8    0    1
 -2       833       840       959      3578      3722      3723
 -1      1822    8    0    1
 -2       833       959       917      3723      3724      3580
 -1      1823    8    0    1
 -2       885       886       960      3486      3725      3726
 -1      1824    8    0    1
 -2       911       905       938      3610      3727      3661
 -1      1825    8    0    1
 -2       883       884       961      3480      3728      3729
 -1      1826    8    0    1
 -2       886       887       962      3489      3730      3731
 -1      1827    8    0    1
 -2       886       962       960      3731      3732      3725
 -1      1828    8    0    1
 -2       887       888       963      3492      3733      3734
 -1      1829    8    0    1
 -2       887       963       962      3734      3735      3730
 -1      1830    8    0    1
 -2       888       889       964      3495      3736      3737
 -1      1831    8    0    1
 -2       888       964       963      3737      3738      3733
 -1      1832    8    0    1
 -2       889       890       965      3498      3739      3740
 -1      1833    8    0    1
 -2       889       965       964      3740      3741      3736
 -1      1834    8    0    1
 -2       890       891       966      3501      3742      3743
 -1      1835    8    0    1
 -2       890       966       965      3743      3744      3739
 -1      1836    8    0    1
 -2       891       892       967      3504      3745      3746
 -1      1837    8    0    1
 -2       891       967       966      3746      3747      3742
 -1      1838    8    0    1
 -2       892       893       968      3507      3748      3749
 -1      1839    8    0    1
 -2       892       968       967      3749      3750      3745
 -1      1840    8    0    1
 -2       893       894       969      3510      3751      3752
 -1      1841    8    0    1
 -2       893       969       968      3752      3753      3748
 -1      1842    8    0    1
 -2       894       895       970      3513      3754      3755
 -1      1843    8    0    1
 -2       894       970       969      3755      3756      3751
 -1      1844    8    0    1
 -2       895       896       971      3516      3757      3758
 -1      1845    8    0    1
 -2       895       971       970      3758      3759      3754
 -1      1846    8    0    1
 -2       896       897       972      3519      3760      3761
 -1      1847    8    0    1
 -2       896       972       971      3761      3762      3757
 -1      1848    8    0    1
 -2       897       898       973      3522      3763      3764
 -1      1849    8    0    1
 -2       897       973       972      3764      3765      3760
 -1      1850    8    0    1
 -2       898       899       974      3525      3766      3767
 -1      1851    8    0    1
 -2       898       974       973      3767      3768      3763
 -1      1852    8    0    1
 -2       899       900       975      3528      3769      3770
 -1      1853    8    0    1
 -2       899       975       974      3770      3771      3766
 -1      1854    8    0    1
 -2       900       901       976      3531      3772      3773
 -1      1855    8    0    1
 -2       900       976       975      3773      3774      3769
 -1      1856    8    0    1
 -2       901       902       977      3534      3775      3776
 -1      1857    8    0    1
 -2       901       977       976      3776      3777      3772
 -1      1858    8    0    1
 -2       881       850       933      3648      3642      3778
 -1      1859    8    0    1
 -2       845       915       978      3570      3779      3780
 -1      1860    8    0    1
 -2       841       839       979      3342      3781      3782
 -1      1861    8    0    1
 -2       839       926       979      3613      3783      3781
 -1      1862    8    0    1
 -2       910       916       980      3575      3784      3785
 -1      1863    8    0    1
 -2       903       907       981      3548      3786      3787
 -1      1864    8    0    1
 -2       832       918       982      3584      3788      3789
 -1      1865    8    0    1
 -2       832       982       912      3789      3790      3591
 -1      1866    8    0    1
 -2       849       923       983      3639      3791      3792
 -1      1867    8    0    1
 -2       842       849       983      3579      3792      3793
 -1      1868    8    0    1
 -2       923       925       983      3719      3794      3791
 -1      1869    8    0    1
 -2       852       912       984      3562      3795      3796
 -1      1870    8    0    1
 -2       930       852       984      3629      3796      3797
 -1      1871    8    0    1
 -2       912       982       984      3790      3798      3795
 -1      1872    8    0    1
 -2       916       921       985      3595      3799      3800
 -1      1873    8    0    1
 -2       980       916       985      3784      3800      3801
 -1      1874    8    0    1
 -2       921       930       985      3628      3802      3799
 -1      1875    8    0    1
 -2       853       910       986      3557      3803      3804
 -1      1876    8    0    1
 -2       910       980       986      3785      3805      3803
 -1      1877    8    0    1
 -2       915       882       987      3640      3806      3807
 -1      1878    8    0    1
 -2       978       915       987      3779      3807      3808
 -1      1879    8    0    1
 -2       882       904       987      3540      3809      3806
 -1      1880    8    0    1
 -2       902       927       988      3647      3810      3811
 -1      1881    8    0    1
 -2       977       902       988      3775      3811      3812
 -1      1882    8    0    1
 -2       927       935       988      3651      3813      3810
 -1      1883    8    0    1
 -2       884       885       989      3483      3814      3815
 -1      1884    8    0    1
 -2       885       960       989      3726      3816      3814
 -1      1885    8    0    1
 -2       854       853       990      3387      3817      3818
 -1      1886    8    0    1
 -2       936       854       990      3654      3818      3819
 -1      1887    8    0    1
 -2       853       986       990      3804      3820      3817
 -1      1888    8    0    1
 -2       919       906       991      3587      3821      3822
 -1      1889    8    0    1
 -2       836       919       992      3586      3823      3824
 -1      1890    8    0    1
 -2       836       992       920      3824      3825      3588
 -1      1891    8    0    1
 -2       856       937       991      3657      3826      3827
 -1      1892    8    0    1
 -2       857       856       991      3396      3827      3828
 -1      1893    8    0    1
 -2       907       879       957      3597      3829      3830
 -1      1894    8    0    1
 -2       959       840       922      3722      3599      3831
 -1      1895    8    0    1
 -2       879       878       957      3462      3717      3829
 -1      1896    8    0    1
 -2       922       909       993      3600      3832      3833
 -1      1897    8    0    1
 -2       958       908       994      3720      3834      3835
 -1      1898    8    0    1
 -2       908       917       994      3582      3836      3834
 -1      1899    8    0    1
 -2       924       881       933      3605      3778      3837
 -1      1900    8    0    1
 -2       938       905       995      3727      3838      3839
 -1      1901    8    0    1
 -2       939       938       995      3664      3839      3840
 -1      1902    8    0    1
 -2       905       934       995      3646      3841      3838
 -1      1903    8    0    1
 -2       961       884       989      3728      3815      3842
 -1      1904    8    0    1
 -2       926       903       996      3611      3843      3844
 -1      1905    8    0    1
 -2       903       981       996      3787      3845      3843
 -1      1906    8    0    1
 -2       841       979       935      3782      3846      3649
 -1      1907    8    0    1
 -2       993       909       997      3832      3847      3848
 -1      1908    8    0    1
 -2       909       931       997      3632      3849      3847
 -1      1909    8    0    1
 -2       928       845       978      3620      3780      3850
 -1      1910    8    0    1
 -2       929       842       983      3623      3793      3851
 -1      1911    8    0    1
 -2       904       883       998      3541      3852      3853
 -1      1912    8    0    1
 -2       987       904       998      3809      3853      3854
 -1      1913    8    0    1
 -2       883       961       998      3729      3855      3852
 -1      1914    8    0    1
 -2       918       929       999      3622      3856      3857
 -1      1915    8    0    1
 -2       913       920      1000      3590      3858      3859
 -1      1916    8    0    1
 -2       983       925       958      3794      3721      3860
 -1      1917    8    0    1
 -2       981       907       957      3786      3830      3861
 -1      1918    8    0    1
 -2       991       906       857      3821      3862      3828
 -1      1919    8    0    1
 -2       932       913      1000      3638      3859      3863
 -1      1920    8    0    1
 -2       848       932      1001      3637      3864      3865
 -1      1921    8    0    1
 -2       848      1001       933      3865      3866      3643
 -1      1922    8    0    1
 -2       934       843      1002      3644      3867      3868
 -1      1923    8    0    1
 -2       843       928      1002      3619      3869      3867
 -1      1924    8    0    1
 -2       747       914       789      3566      3870      3567
 -1      1925    8    0    1
 -2       918       999      1003      3857      3871      3872
 -1      1926    8    0    1
 -2       918      1003       982      3872      3873      3788
 -1      1927    8    0    1
 -2       991       937      1004      3826      3874      3875
 -1      1928    8    0    1
 -2       991      1004       919      3875      3876      3822
 -1      1929    8    0    1
 -2       857       906       847      3862      3626      3877
 -1      1930    8    0    1
 -2       932      1000      1005      3863      3878      3879
 -1      1931    8    0    1
 -2       922       993      1006      3833      3880      3881
 -1      1932    8    0    1
 -2       922      1006       959      3881      3882      3831
 -1      1933    8    0    1
 -2       940       939      1007      3667      3883      3884
 -1      1934    8    0    1
 -2       941       940      1008      3670      3885      3886
 -1      1935    8    0    1
 -2       940      1007      1008      3884      3887      3885
 -1      1936    8    0    1
 -2       942       941      1009      3673      3888      3889
 -1      1937    8    0    1
 -2       941      1008      1009      3886      3890      3888
 -1      1938    8    0    1
 -2       943       942      1010      3676      3891      3892
 -1      1939    8    0    1
 -2       942      1009      1010      3889      3893      3891
 -1      1940    8    0    1
 -2       944       943      1011      3679      3894      3895
 -1      1941    8    0    1
 -2       943      1010      1011      3892      3896      3894
 -1      1942    8    0    1
 -2       945       944      1012      3682      3897      3898
 -1      1943    8    0    1
 -2       944      1011      1012      3895      3899      3897
 -1      1944    8    0    1
 -2       946       945      1013      3685      3900      3901
 -1      1945    8    0    1
 -2       945      1012      1013      3898      3902      3900
 -1      1946    8    0    1
 -2       947       946      1014      3688      3903      3904
 -1      1947    8    0    1
 -2       946      1013      1014      3901      3905      3903
 -1      1948    8    0    1
 -2       948       947      1015      3691      3906      3907
 -1      1949    8    0    1
 -2       947      1014      1015      3904      3908      3906
 -1      1950    8    0    1
 -2       949       948      1016      3694      3909      3910
 -1      1951    8    0    1
 -2       948      1015      1016      3907      3911      3909
 -1      1952    8    0    1
 -2       950       949      1017      3697      3912      3913
 -1      1953    8    0    1
 -2       949      1016      1017      3910      3914      3912
 -1      1954    8    0    1
 -2       951       950      1018      3700      3915      3916
 -1      1955    8    0    1
 -2       950      1017      1018      3913      3917      3915
 -1      1956    8    0    1
 -2       952       951      1019      3703      3918      3919
 -1      1957    8    0    1
 -2       951      1018      1019      3916      3920      3918
 -1      1958    8    0    1
 -2       953       952      1020      3706      3921      3922
 -1      1959    8    0    1
 -2       952      1019      1020      3919      3923      3921
 -1      1960    8    0    1
 -2       954       953      1021      3709      3924      3925
 -1      1961    8    0    1
 -2       953      1020      1021      3922      3926      3924
 -1      1962    8    0    1
 -2       955       954      1022      3712      3927      3928
 -1      1963    8    0    1
 -2       954      1021      1022      3925      3929      3927
 -1      1964    8    0    1
 -2       956       955      1023      3715      3930      3931
 -1      1965    8    0    1
 -2       955      1022      1023      3928      3932      3930
 -1      1966    8    0    1
 -2       957       956      1024      3718      3933      3934
 -1      1967    8    0    1
 -2       981       957      1024      3861      3934      3935
 -1      1968    8    0    1
 -2       956      1023      1024      3931      3936      3933
 -1      1969    8    0    1
 -2       917       959      1025      3724      3937      3938
 -1      1970    8    0    1
 -2       994       917      1025      3836      3938      3939
 -1      1971    8    0    1
 -2       959      1006      1025      3882      3940      3937
 -1      1972    8    0    1
 -2       962       963      1026      3735      3941      3942
 -1      1973    8    0    1
 -2       960       962      1027      3732      3943      3944
 -1      1974    8    0    1
 -2       962      1026      1027      3942      3945      3943
 -1      1975    8    0    1
 -2       964       965      1028      3741      3946      3947
 -1      1976    8    0    1
 -2       965       966      1029      3744      3948      3949
 -1      1977    8    0    1
 -2       965      1029      1028      3949      3950      3946
 -1      1978    8    0    1
 -2       966       967      1030      3747      3951      3952
 -1      1979    8    0    1
 -2       966      1030      1029      3952      3953      3948
 -1      1980    8    0    1
 -2       967       968      1031      3750      3954      3955
 -1      1981    8    0    1
 -2       967      1031      1030      3955      3956      3951
 -1      1982    8    0    1
 -2       968       969      1032      3753      3957      3958
 -1      1983    8    0    1
 -2       968      1032      1031      3958      3959      3954
 -1      1984    8    0    1
 -2       969       970      1033      3756      3960      3961
 -1      1985    8    0    1
 -2       969      1033      1032      3961      3962      3957
 -1      1986    8    0    1
 -2       970       971      1034      3759      3963      3964
 -1      1987    8    0    1
 -2       970      1034      1033      3964      3965      3960
 -1      1988    8    0    1
 -2       971       972      1035      3762      3966      3967
 -1      1989    8    0    1
 -2       971      1035      1034      3967      3968      3963
 -1      1990    8    0    1
 -2       972       973      1036      3765      3969      3970
 -1      1991    8    0    1
 -2       972      1036      1035      3970      3971      3966
 -1      1992    8    0    1
 -2       973       974      1037      3768      3972      3973
 -1      1993    8    0    1
 -2       973      1037      1036      3973      3974      3969
 -1      1994    8    0    1
 -2       974       975      1038      3771      3975      3976
 -1      1995    8    0    1
 -2       974      1038      1037      3976      3977      3972
 -1      1996    8    0    1
 -2       975       976      1039      3774      3978      3979
 -1      1997    8    0    1
 -2       975      1039      1038      3979      3980      3975
 -1      1998    8    0    1
 -2       976       977      1040      3777      3981      3982
 -1      1999    8    0    1
 -2       976      1040      1039      3982      3983      3978
 -1      2000    8    0    1
 -2       989       960      1041      3816      3984      3985
 -1      2001    8    0    1
 -2       960      1027      1041      3944      3986      3984
 -1      2002    8    0    1
 -2       979       926      1042      3783      3987      3988
 -1      2003    8    0    1
 -2       926       996      1042      3844      3989      3987
 -1      2004    8    0    1
 -2       986       980      1043      3805      3990      3991
 -1      2005    8    0    1
 -2       937       936      1044      3658      3992      3993
 -1      2006    8    0    1
 -2       937      1044      1004      3993      3994      3874
 -1      2007    8    0    1
 -2       935       979      1045      3846      3995      3996
 -1      2008    8    0    1
 -2       988       935      1045      3813      3996      3997
 -1      2009    8    0    1
 -2       979      1042      1045      3988      3998      3995
 -1      2010    8    0    1
 -2      1000       920      1046      3858      3999      4000
 -1      2011    8    0    1
 -2       983       958       929      3860      4001      3851
 -1      2012    8    0    1
 -2       931       924      1001      3633      4002      4003
 -1      2013    8    0    1
 -2       999       929       958      3856      4001      4004
 -1      2014    8    0    1
 -2       928       978      1047      3850      4005      4006
 -1      2015    8    0    1
 -2       999       958      1048      4004      4007      4008
 -1      2016    8    0    1
 -2       958       994      1048      3835      4009      4007
 -1      2017    8    0    1
 -2       961       989      1049      3842      4010      4011
 -1      2018    8    0    1
 -2       989      1041      1049      3985      4012      4010
 -1      2019    8    0    1
 -2       924       933      1001      3837      3866      4002
 -1      2020    8    0    1
 -2       963       964      1050      3738      4013      4014
 -1      2021    8    0    1
 -2      1026       963      1050      3941      4014      4015
 -1      2022    8    0    1
 -2       964      1028      1050      3947      4016      4013
 -1      2023    8    0    1
 -2       920       992      1046      3825      4017      3999
 -1      2024    8    0    1
 -2       930       984      1051      3797      4018      4019
 -1      2025    8    0    1
 -2       930      1051       985      4019      4020      3802
 -1      2026    8    0    1
 -2       936       990      1052      3819      4021      4022
 -1      2027    8    0    1
 -2       936      1052      1044      4022      4023      3992
 -1      2028    8    0    1
 -2      1006       993      1053      3880      4024      4025
 -1      2029    8    0    1
 -2       744       789       914      3337      3870      3592
 -1      2030    8    0    1
 -2      1005      1000      1054      3878      4026      4027
 -1      2031    8    0    1
 -2      1007       939       995      3883      3840      4028
 -1      2032    8    0    1
 -2       977       988      1045      3812      3997      4029
 -1      2033    8    0    1
 -2       981      1024       996      3935      4030      3845
 -1      2034    8    0    1
 -2       961      1049      1047      4011      4031      4032
 -1      2035    8    0    1
 -2       995       934      1055      3841      4033      4034
 -1      2036    8    0    1
 -2       995      1055      1007      4034      4035      4028
 -1      2037    8    0    1
 -2       827       857       847      3471      3877      3362
 -1      2038    8    0    1
 -2      1000      1046      1054      4000      4036      4026
 -1      2039    8    0    1
 -2       961      1047       998      4032      4037      3855
 -1      2040    8    0    1
 -2      1040       977      1045      3981      4029      4038
 -1      2041    8    0    1
 -2       997       931      1001      3849      4003      4039
 -1      2042    8    0    1
 -2       928      1047      1002      4006      4040      3869
 -1      2043    8    0    1
 -2       980       985      1056      3801      4041      4042
 -1      2044    8    0    1
 -2      1043       980      1056      3990      4042      4043
 -1      2045    8    0    1
 -2       985      1051      1056      4020      4044      4041
 -1      2046    8    0    1
 -2       932      1005      1001      3879      4045      3864
 -1      2047    8    0    1
 -2       934      1002      1055      3868      4046      4033
 -1      2048    8    0    1
 -2       978       987       998      3808      3854      4047
 -1      2049    8    0    1
 -2      1047       978       998      4005      4047      4037
 -1      2050    8    0    1
 -2       999      1048      1003      4008      4048      3871
 -1      2051    8    0    1
 -2       984       982      1057      3798      4049      4050
 -1      2052    8    0    1
 -2      1051       984      1057      4018      4050      4051
 -1      2053    8    0    1
 -2       982      1003      1057      3873      4052      4049
 -1      2054    8    0    1
 -2       990       986      1058      3820      4053      4054
 -1      2055    8    0    1
 -2      1052       990      1058      4021      4054      4055
 -1      2056    8    0    1
 -2       986      1043      1058      3991      4056      4053
 -1      2057    8    0    1
 -2       919      1004       992      3876      4057      3823
 -1      2058    8    0    1
 -2      1053       993      1054      4024      4058      4059
 -1      2059    8    0    1
 -2      1046       992      1059      4017      4060      4061
 -1      2060    8    0    1
 -2       992      1004      1059      4057      4062      4060
 -1      2061    8    0    1
 -2       996      1024      1060      4030      4063      4064
 -1      2062    8    0    1
 -2      1009      1008      1061      3890      4065      4066
 -1      2063    8    0    1
 -2      1010      1009      1062      3893      4067      4068
 -1      2064    8    0    1
 -2      1009      1061      1062      4066      4069      4067
 -1      2065    8    0    1
 -2      1011      1010      1063      3896      4070      4071
 -1      2066    8    0    1
 -2      1010      1062      1063      4068      4072      4070
 -1      2067    8    0    1
 -2      1012      1011      1064      3899      4073      4074
 -1      2068    8    0    1
 -2      1011      1063      1064      4071      4075      4073
 -1      2069    8    0    1
 -2      1013      1012      1065      3902      4076      4077
 -1      2070    8    0    1
 -2      1012      1064      1065      4074      4078      4076
 -1      2071    8    0    1
 -2      1014      1013      1066      3905      4079      4080
 -1      2072    8    0    1
 -2      1013      1065      1066      4077      4081      4079
 -1      2073    8    0    1
 -2      1015      1014      1067      3908      4082      4083
 -1      2074    8    0    1
 -2      1014      1066      1067      4080      4084      4082
 -1      2075    8    0    1
 -2      1016      1015      1068      3911      4085      4086
 -1      2076    8    0    1
 -2      1015      1067      1068      4083      4087      4085
 -1      2077    8    0    1
 -2      1017      1016      1069      3914      4088      4089
 -1      2078    8    0    1
 -2      1016      1068      1069      4086      4090      4088
 -1      2079    8    0    1
 -2      1018      1017      1070      3917      4091      4092
 -1      2080    8    0    1
 -2      1017      1069      1070      4089      4093      4091
 -1      2081    8    0    1
 -2      1019      1018      1071      3920      4094      4095
 -1      2082    8    0    1
 -2      1018      1070      1071      4092      4096      4094
 -1      2083    8    0    1
 -2      1020      1019      1072      3923      4097      4098
 -1      2084    8    0    1
 -2      1019      1071      1072      4095      4099      4097
 -1      2085    8    0    1
 -2      1021      1020      1073      3926      4100      4101
 -1      2086    8    0    1
 -2      1020      1072      1073      4098      4102      4100
 -1      2087    8    0    1
 -2      1022      1021      1074      3929      4103      4104
 -1      2088    8    0    1
 -2      1021      1073      1074      4101      4105      4103
 -1      2089    8    0    1
 -2      1023      1022      1075      3932      4106      4107
 -1      2090    8    0    1
 -2      1022      1074      1075      4104      4108      4106
 -1      2091    8    0    1
 -2      1024      1023      1060      3936      4109      4063
 -1      2092    8    0    1
 -2      1030      1031      1076      3956      4110      4111
 -1      2093    8    0    1
 -2      1007      1055      1077      4035      4112      4113
 -1      2094    8    0    1
 -2      1027      1026      1078      3945      4114      4115
 -1      2095    8    0    1
 -2      1029      1030      1079      3953      4116      4117
 -1      2096    8    0    1
 -2      1030      1076      1079      4111      4118      4116
 -1      2097    8    0    1
 -2      1028      1029      1080      3950      4119      4120
 -1      2098    8    0    1
 -2      1029      1079      1080      4117      4121      4119
 -1      2099    8    0    1
 -2      1031      1032      1081      3959      4122      4123
 -1      2100    8    0    1
 -2      1031      1081      1076      4123      4124      4110
 -1      2101    8    0    1
 -2      1032      1033      1082      3962      4125      4126
 -1      2102    8    0    1
 -2      1032      1082      1081      4126      4127      4122
 -1      2103    8    0    1
 -2      1033      1034      1083      3965      4128      4129
 -1      2104    8    0    1
 -2      1033      1083      1082      4129      4130      4125
 -1      2105    8    0    1
 -2      1034      1035      1084      3968      4131      4132
 -1      2106    8    0    1
 -2      1034      1084      1083      4132      4133      4128
 -1      2107    8    0    1
 -2      1035      1036      1085      3971      4134      4135
 -1      2108    8    0    1
 -2      1035      1085      1084      4135      4136      4131
 -1      2109    8    0    1
 -2      1036      1037      1086      3974      4137      4138
 -1      2110    8    0    1
 -2      1036      1086      1085      4138      4139      4134
 -1      2111    8    0    1
 -2      1037      1038      1087      3977      4140      4141
 -1      2112    8    0    1
 -2      1037      1087      1086      4141      4142      4137
 -1      2113    8    0    1
 -2      1038      1039      1088      3980      4143      4144
 -1      2114    8    0    1
 -2      1038      1088      1087      4144      4145      4140
 -1      2115    8    0    1
 -2      1041      1027      1089      3986      4146      4147
 -1      2116    8    0    1
 -2      1027      1078      1089      4115      4148      4146
 -1      2117    8    0    1
 -2      1042       996      1060      3989      4064      4149
 -1      2118    8    0    1
 -2      1004      1044      1059      3994      4150      4062
 -1      2119    8    0    1
 -2      1045      1042      1040      3998      4151      4038
 -1      2120    8    0    1
 -2      1048       994      1090      4009      4152      4153
 -1      2121    8    0    1
 -2       994      1025      1090      3939      4154      4152
 -1      2122    8    0    1
 -2      1049      1041      1091      4012      4155      4156
 -1      2123    8    0    1
 -2      1041      1089      1091      4147      4157      4155
 -1      2124    8    0    1
 -2      1054      1046      1092      4036      4158      4159
 -1      2125    8    0    1
 -2      1053      1054      1092      4059      4159      4160
 -1      2126    8    0    1
 -2      1046      1059      1092      4061      4161      4158
 -1      2127    8    0    1
 -2      1055      1002      1093      4046      4162      4163
 -1      2128    8    0    1
 -2      1077      1055      1093      4112      4163      4164
 -1      2129    8    0    1
 -2      1002      1047      1093      4040      4165      4162
 -1      2130    8    0    1
 -2      1008      1007      1077      3887      4113      4166
 -1      2131    8    0    1
 -2      1003      1048      1094      4048      4167      4168
 -1      2132    8    0    1
 -2       993       997      1054      3848      4169      4058
 -1      2133    8    0    1
 -2      1040      1042      1060      4151      4149      4170
 -1      2134    8    0    1
 -2      1058      1043      1095      4056      4171      4172
 -1      2135    8    0    1
 -2      1095      1043      1057      4171      4173      4174
 -1      2136    8    0    1
 -2      1028      1080      1096      4120      4175      4176
 -1      2137    8    0    1
 -2      1028      1096      1050      4176      4177      4016
 -1      2138    8    0    1
 -2      1023      1075      1060      4107      4178      4109
 -1      2139    8    0    1
 -2      1078      1026      1097      4114      4179      4180
 -1      2140    8    0    1
 -2      1026      1050      1097      4015      4181      4179
 -1      2141    8    0    1
 -2      1047      1049      1093      4031      4182      4165
 -1      2142    8    0    1
 -2      1053      1092      1098      4160      4183      4184
 -1      2143    8    0    1
 -2      1039      1040      1099      3983      4185      4186
 -1      2144    8    0    1
 -2      1048      1090      1094      4153      4187      4167
 -1      2145    8    0    1
 -2      1005      1054       997      4027      4169      4188
 -1      2146    8    0    1
 -2      1059      1044      1100      4150      4189      4190
 -1      2147    8    0    1
 -2      1044      1052      1100      4023      4191      4189
 -1      2148    8    0    1
 -2      1093      1049      1091      4182      4156      4192
 -1      2149    8    0    1
 -2      1006      1053      1101      4025      4193      4194
 -1      2150    8    0    1
 -2      1039      1099      1088      4186      4195      4143
 -1      2151    8    0    1
 -2      1101      1053      1098      4193      4184      4196
 -1      2152    8    0    1
 -2      1005       997      1001      4188      4039      4045
 -1      2153    8    0    1
 -2      1061      1008      1077      4065      4166      4197
 -1      2154    8    0    1
 -2      1077      1093      1091      4164      4192      4198
 -1      2155    8    0    1
 -2      1006      1101      1025      4194      4199      3940
 -1      2156    8    0    1
 -2      1098      1092      1100      4183      4200      4201
 -1      2157    8    0    1
 -2      1063      1062      1097      4072      4202      4203
 -1      2158    8    0    1
 -2      1064      1063      1096      4075      4204      4205
 -1      2159    8    0    1
 -2      1065      1064      1080      4078      4206      4207
 -1      2160    8    0    1
 -2      1066      1065      1079      4081      4208      4209
 -1      2161    8    0    1
 -2      1067      1066      1076      4084      4210      4211
 -1      2162    8    0    1
 -2      1068      1067      1081      4087      4212      4213
 -1      2163    8    0    1
 -2      1069      1068      1082      4090      4214      4215
 -1      2164    8    0    1
 -2      1070      1069      1083      4093      4216      4217
 -1      2165    8    0    1
 -2      1071      1070      1084      4096      4218      4219
 -1      2166    8    0    1
 -2      1072      1071      1085      4099      4220      4221
 -1      2167    8    0    1
 -2      1073      1072      1086      4102      4222      4223
 -1      2168    8    0    1
 -2      1074      1073      1087      4105      4224      4225
 -1      2169    8    0    1
 -2      1075      1074      1088      4108      4226      4227
 -1      2170    8    0    1
 -2      1081      1082      1068      4127      4214      4213
 -1      2171    8    0    1
 -2      1003      1094      1057      4168      4228      4052
 -1      2172    8    0    1
 -2      1058      1095      1102      4172      4229      4230
 -1      2173    8    0    1
 -2      1058      1102      1052      4230      4231      4055
 -1      2174    8    0    1
 -2      1076      1081      1067      4124      4212      4211
 -1      2175    8    0    1
 -2      1080      1079      1065      4121      4208      4207
 -1      2176    8    0    1
 -2      1082      1083      1069      4130      4216      4215
 -1      2177    8    0    1
 -2      1083      1084      1070      4133      4218      4217
 -1      2178    8    0    1
 -2      1084      1085      1071      4136      4220      4219
 -1      2179    8    0    1
 -2      1085      1086      1072      4139      4222      4221
 -1      2180    8    0    1
 -2      1086      1087      1073      4142      4224      4223
 -1      2181    8    0    1
 -2      1087      1088      1074      4145      4226      4225
 -1      2182    8    0    1
 -2      1089      1078      1061      4148      4232      4233
 -1      2183    8    0    1
 -2      1080      1064      1096      4206      4205      4175
 -1      2184    8    0    1
 -2      1061      1077      1089      4197      4234      4233
 -1      2185    8    0    1
 -2      1061      1078      1062      4232      4235      4069
 -1      2186    8    0    1
 -2      1091      1089      1077      4157      4234      4198
 -1      2187    8    0    1
 -2      1060      1075      1088      4178      4227      4236
 -1      2188    8    0    1
 -2      1092      1059      1100      4161      4190      4200
 -1      2189    8    0    1
 -2      1079      1076      1066      4118      4210      4209
 -1      2190    8    0    1
 -2      1062      1078      1097      4235      4180      4202
 -1      2191    8    0    1
 -2      1050      1096      1097      4177      4237      4181
 -1      2192    8    0    1
 -2      1099      1040      1060      4185      4170      4238
 -1      2193    8    0    1
 -2      1063      1097      1096      4203      4237      4204
 -1      2194    8    0    1
 -2      1101      1098      1090      4196      4239      4240
 -1      2195    8    0    1
 -2      1094      1090      1103      4187      4241      4242
 -1      2196    8    0    1
 -2      1090      1025      1101      4154      4199      4240
 -1      2197    8    0    1
 -2      1100      1052      1102      4191      4231      4243
 -1      2198    8    0    1
 -2      1056      1051      1057      4044      4051      4244
 -1      2199    8    0    1
 -2      1098      1100      1102      4201      4243      4245
 -1      2200    8    0    1
 -2      1090      1098      1103      4239      4246      4241
 -1      2201    8    0    1
 -2      1099      1060      1088      4238      4236      4195
 -1      2202    8    0    1
 -2      1094      1103      1095      4242      4247      4248
 -1      2203    8    0    1
 -2      1043      1056      1057      4043      4244      4173
 -1      2204    8    0    1
 -2      1095      1057      1094      4174      4228      4248
 -1      2205    8    0    1
 -2      1102      1095      1103      4229      4247      4249
 -1      2206    8    0    1
 -2      1098      1102      1103      4245      4249      4246
 -3
    1PSTEP                         1           1           1          
  100CL  101 1.000000000        4249                     0    1           1
 -4  DISP        4    1
 -5  D1          1    2    1    0
 -5  D2          1    2    2    0
 -5  D3          1    2    3    0
 -5  ALL         1    2    0    0    1ALL
 -1         1 5.63159E-03-1.00728E-03-2.03812E-14
 -1         2 7.79800E-03-1.63200E-04-2.54031E-14
 -1         3 1.49936E-02-7.45762E-05-1.25247E-13
 -1         4 1.54083E-02-1.50586E-03-1.29008E-13
 -1         5 0.00000E+00 0.00000E+00 0.00000E+00
 -1         6 0.00000E+00 0.00000E+00 0.00000E+00
 -1         7 0.00000E+00 0.00000E+00 0.00000E+00
 -1         8 0.00000E+00 0.00000E+00 0.00000E+00
 -1         9 0.00000E+00 0.00000E+00 0.00000E+00
 -1        10 0.00000E+00 0.00000E+00 0.00000E+00
 -1        11 0.00000E+00 0.00000E+00 0.00000E+00
 -1        12 0.00000E+00 0.00000E+00 0.00000E+00
 -1        13 0.00000E+00 0.00000E+00 0.00000E+00
 -1        14 0.00000E+00 0.00000E+00 0.00000E+00
 -1        15 0.00000E+00 0.00000E+00 0.00000E+00
 -1        16 0.00000E+00 0.00000E+00 0.00000E+00
 -1        17 0.00000E+00 0.00000E+00 0.00000E+00
 -1        18 0.00000E+00 0.00000E+00 0.00000E+00
 -1        19 0.00000E+00 0.00000E+00 0.00000E+00
 -1        20 0.00000E+00 0.00000E+00 0.00000E+00
 -1        21 0.00000E+00 0.00000E+00 0.00000E+00
 -1        22 0.00000E+00 0.00000E+00 0.00000E+00
 -1        23 4.08824E-04-2.51883E-04 2.16976E-17
 -1        24 7.03803E-04-3.81473E-04-1.20245E-16
 -1        25 9.81080E-04-4.67968E-04-4.17875E-16
 -1        26 1.25670E-03-5.26312E-04-8.63947E-16
 -1        27 1.53591E-03-5.66141E-04-1.45380E-15
 -1        28 1.82190E-03-5.93632E-04-2.18492E-15
 -1        29 2.11705E-03-6.13817E-04-3.05276E-15
 -1        30 2.42337E-03-6.31449E-04-4.05474E-15
 -1        31 2.74252E-03-6.51553E-04-5.18806E-15
 -1        32 3.07550E-03-6.79740E-04-6.44730E-15
 -1        33 3.42208E-03-7.22235E-04-7.82665E-15
 -1        34 3.77976E-03-7.85320E-04-9.31948E-15
 -1        35 4.14264E-03-8.73748E-04-1.09257E-14
 -1        36 4.50081E-03-9.87828E-04-1.26465E-14
 -1        37 4.84148E-03-1.11957E-03-1.44832E-14
 -1        38 5.15335E-03-1.25001E-03-1.64405E-14
 -1        39 5.43343E-03-1.35167E-03-1.85165E-14
 -1        40 5.69200E-03-1.39854E-03-2.07153E-14
 -1        41 5.95009E-03-1.37920E-03-2.30395E-14
 -1        42 6.22927E-03-1.30363E-03-2.54830E-14
 -1        43 6.54087E-03-1.19748E-03-2.80329E-14
 -1        44 6.88282E-03-1.08871E-03-3.06907E-14
 -1        45 7.24432E-03-9.97282E-04-3.34500E-14
 -1        46 7.61270E-03-9.32261E-04-3.63090E-14
 -1        47 7.97798E-03-8.94227E-04-3.92541E-14
 -1        48 8.33422E-03-8.79214E-04-4.22685E-14
 -1        49 8.67897E-03-8.81783E-04-4.53564E-14
 -1        50 9.01206E-03-8.96746E-04-4.85114E-14
 -1        51 9.33457E-03-9.19855E-04-5.17236E-14
 -1        52 9.64811E-03-9.47926E-04-5.49982E-14
 -1        53 9.95433E-03-9.78710E-04-5.83298E-14
 -1        54 1.02548E-02-1.01069E-03-6.17264E-14
 -1        55 1.05509E-02-1.04291E-03-6.51888E-14
 -1        56 1.08436E-02-1.07478E-03-6.86999E-14
 -1        57 1.11339E-02-1.10597E-03-7.22669E-14
 -1        58 1.14224E-02-1.13635E-03-7.58805E-14
 -1        59 1.17097E-02-1.16588E-03-7.95339E-14
 -1        60 1.19962E-02-1.19460E-03-8.32191E-14
 -1        61 1.22821E-02-1.22260E-03-8.69370E-14
 -1        62 1.25677E-02-1.24995E-03-9.06967E-14
 -1        63 1.28531E-02-1.27676E-03-9.44958E-14
 -1        64 1.31384E-02-1.30313E-03-9.83367E-14
 -1        65 1.34237E-02-1.32914E-03-1.02196E-13
 -1        66 1.37091E-02-1.35488E-03-1.06058E-13
 -1        67 1.39945E-02-1.38042E-03-1.09910E-13
 -1        68 1.42800E-02-1.40583E-03-1.13755E-13
 -1        69 1.45655E-02-1.43116E-03-1.17598E-13
 -1        70 1.48512E-02-1.45646E-03-1.21441E-13
 -1        71 1.51369E-02-1.48178E-03-1.25304E-13
 -1        72 4.11234E-04 2.52905E-04 7.74459E-17
 -1        73 7.03805E-04 3.84936E-04 3.18993E-17
 -1        74 9.81600E-04 4.71173E-04-1.36050E-16
 -1        75 1.25707E-03 5.30318E-04-4.29344E-16
 -1        76 1.53552E-03 5.71336E-04-8.50184E-16
 -1        77 1.81994E-03 6.00376E-04-1.39751E-15
 -1        78 2.11222E-03 6.22386E-04-2.07115E-15
 -1        79 2.41365E-03 6.41865E-04-2.86760E-15
 -1        80 2.72487E-03 6.63240E-04-3.78516E-15
 -1        81 3.04565E-03 6.90951E-04-4.82629E-15
 -1        82 3.37444E-03 7.29234E-04-5.99292E-15
 -1        83 3.70793E-03 7.81433E-04-7.27843E-15
 -1        84 4.04067E-03 8.48774E-04-8.67807E-15
 -1        85 4.36543E-03 9.28675E-04-1.01955E-14
 -1        86 4.67464E-03 1.01321E-03-1.18356E-14
 -1        87 4.96315E-03 1.08896E-03-1.36069E-14
 -1        88 5.23130E-03 1.13951E-03-1.55046E-14
 -1        89 5.48656E-03 1.15084E-03-1.75226E-14
 -1        90 5.74159E-03 1.11711E-03-1.96661E-14
 -1        91 6.00933E-03 1.04340E-03-2.19394E-14
 -1        92 6.29789E-03 9.43372E-04-2.43455E-14
 -1        93 6.60833E-03 8.33591E-04-2.68800E-14
 -1        94 6.93599E-03 7.28088E-04-2.95288E-14
 -1        95 7.27357E-03 6.35591E-04-3.22704E-14
 -1        96 7.61396E-03 5.59515E-04-3.50996E-14
 -1        97 7.95181E-03 4.99485E-04-3.80121E-14
 -1        98 8.28386E-03 4.53085E-04-4.10186E-14
 -1        99 8.60867E-03 4.17203E-04-4.41082E-14
 -1       100 8.92605E-03 3.88820E-04-4.72811E-14
 -1       101 9.23653E-03 3.65386E-04-5.05351E-14
 -1       102 9.54105E-03 3.44921E-04-5.38539E-14
 -1       103 9.84062E-03 3.25986E-04-5.72331E-14
 -1       104 1.01362E-02 3.07592E-04-6.06561E-14
 -1       105 1.04288E-02 2.89099E-04-6.41309E-14
 -1       106 1.07190E-02 2.70128E-04-6.76670E-14
 -1       107 1.10076E-02 2.50481E-04-7.12576E-14
 -1       108 1.12949E-02 2.30085E-04-7.49112E-14
 -1       109 1.15814E-02 2.08945E-04-7.86235E-14
 -1       110 1.18674E-02 1.87114E-04-8.23690E-14
 -1       111 1.21530E-02 1.64670E-04-8.61474E-14
 -1       112 1.24384E-02 1.41702E-04-8.99602E-14
 -1       113 1.27237E-02 1.18298E-04-9.38065E-14
 -1       114 1.30090E-02 9.45460E-05-9.76845E-14
 -1       115 1.32944E-02 7.05238E-05-1.01587E-13
 -1       116 1.35798E-02 4.63028E-05-1.05509E-13
 -1       117 1.38653E-02 2.19472E-05-1.09448E-13
 -1       118 1.41509E-02-2.48519E-06-1.13426E-13
 -1       119 1.44365E-02-2.69433E-05-1.17435E-13
 -1       120 1.47222E-02-5.13855E-05-1.21447E-13
 -1       121 1.50176E-02-1.58860E-04-1.25507E-13
 -1       122 1.50416E-02-2.43165E-04-1.25767E-13
 -1       123 1.50655E-02-3.27520E-04-1.26005E-13
 -1       124 1.50895E-02-4.11935E-04-1.26238E-13
 -1       125 1.51135E-02-4.96408E-04-1.26459E-13
 -1       126 1.51372E-02-5.79499E-04-1.26695E-13
 -1       127 1.51615E-02-6.64057E-04-1.26932E-13
 -1       128 1.51858E-02-7.48638E-04-1.27162E-13
 -1       129 1.52103E-02-8.33227E-04-1.27378E-13
 -1       130 1.52349E-02-9.17808E-04-1.27581E-13
 -1       131 1.52596E-02-1.00237E-03-1.27787E-13
 -1       132 1.52840E-02-1.08546E-03-1.27977E-13
 -1       133 1.53089E-02-1.16993E-03-1.28206E-13
 -1       134 1.53338E-02-1.25435E-03-1.28415E-13
 -1       135 1.53588E-02-1.33870E-03-1.28610E-13
 -1       136 1.53838E-02-1.42301E-03-1.28814E-13
 -1       137 7.74225E-03 6.28116E-06-2.51847E-14
 -1       138 7.56762E-03 1.90763E-04-2.46507E-14
 -1       139 7.32328E-03 3.41539E-04-2.39502E-14
 -1       140 6.96518E-03 4.87749E-04-2.29731E-14
 -1       141 6.57453E-03 5.92246E-04-2.19629E-14
 -1       142 6.09973E-03 6.70568E-04-2.07771E-14
 -1       143 5.64343E-03 7.02332E-04-1.96984E-14
 -1       144 5.12403E-03 6.91238E-04-1.85245E-14
 -1       145 4.66954E-03 6.37985E-04-1.75479E-14
 -1       146 4.22715E-03 5.36269E-04-1.66334E-14
 -1       147 3.86666E-03 4.00774E-04-1.59314E-14
 -1       148 3.61089E-03 2.46935E-04-1.54673E-14
 -1       149 3.46020E-03 8.55382E-05-1.52262E-14
 -1       150 3.40094E-03-9.86249E-05-1.51859E-14
 -1       151 3.45104E-03-2.81149E-04-1.53690E-14
 -1       152 3.61313E-03-4.64446E-04-1.57798E-14
 -1       153 3.86435E-03-6.28438E-04-1.63653E-14
 -1       154 4.20011E-03-7.72856E-04-1.71262E-14
 -1       155 4.65123E-03-8.99130E-04-1.81414E-14
 -1       156 5.14099E-03-9.78363E-04-1.92558E-14
 -1       157 6.06495E-03-9.93600E-04-2.13860E-14
 -1       158 6.51141E-03-9.38146E-04-2.24401E-14
 -1       159 6.89286E-03-8.52418E-04-2.33448E-14
 -1       160 7.21585E-03-7.41840E-04-2.41143E-14
 -1       161 7.47356E-03-6.12105E-04-2.47282E-14
 -1       162 7.65807E-03-4.69984E-04-2.51558E-14
 -1       163 7.76737E-03-3.18564E-04-2.53861E-14
 -1       164 2.43229E-04-1.17047E-04-3.97225E-17
 -1       165 2.28062E-04-8.49359E-05-5.81810E-17
 -1       166 2.21244E-04-6.26795E-05-6.72510E-17
 -1       167 2.16974E-04-4.55671E-05-7.14252E-17
 -1       168 2.13998E-04-3.19147E-05-7.28042E-17
 -1       169 2.11902E-04-2.01766E-05-7.29024E-17
 -1       170 2.10671E-04-9.78305E-06-7.17335E-17
 -1       171 2.10297E-04-8.82842E-09-7.02123E-17
 -1       172 2.10774E-04 9.83342E-06-6.78711E-17
 -1       173 2.12082E-04 2.04187E-05-6.48421E-17
 -1       174 2.14165E-04 3.22240E-05-6.03968E-17
 -1       175 2.17171E-04 4.64351E-05-5.37087E-17
 -1       176 2.21418E-04 6.39358E-05-4.35036E-17
 -1       177 2.28169E-04 8.66306E-05-2.76709E-17
 -1       178 2.42110E-04 1.19400E-04-1.79232E-18
 -1       179 2.99460E-04 1.77301E-04 2.63292E-17
 -1       180 4.73030E-04-2.48340E-04-1.04934E-16
 -1       181 7.76722E-04-3.55317E-04-3.49391E-16
 -1       182 1.06895E-03-4.26636E-04-7.36380E-16
 -1       183 1.35809E-03-4.74373E-04-1.26433E-15
 -1       184 1.64853E-03-5.06087E-04-1.93027E-15
 -1       185 1.94325E-03-5.27429E-04-2.73178E-15
 -1       186 2.24444E-03-5.43323E-04-3.66543E-15
 -1       187 2.55376E-03-5.58701E-04-4.72819E-15
 -1       188 2.87239E-03-5.78990E-04-5.91604E-15
 -1       189 3.20083E-03-6.10384E-04-7.22530E-15
 -1       190 3.53853E-03-6.59698E-04-8.65031E-15
 -1       191 3.88338E-03-7.33424E-04-1.01879E-14
 -1       192 4.23117E-03-8.35443E-04-1.18386E-14
 -1       193 4.57563E-03-9.63197E-04-1.36022E-14
 -1       194 4.90956E-03-1.10333E-03-1.54856E-14
 -1       195 5.22786E-03-1.23019E-03-1.74878E-14
 -1       196 5.53151E-03-1.31211E-03-1.96127E-14
 -1       197 5.82895E-03-1.32613E-03-2.18629E-14
 -1       198 6.13241E-03-1.27118E-03-2.42370E-14
 -1       199 6.45087E-03-1.16933E-03-2.67246E-14
 -1       200 6.78585E-03-1.05234E-03-2.93207E-14
 -1       201 7.13265E-03-9.46785E-04-3.20200E-14
 -1       202 7.48421E-03-8.67202E-04-3.48206E-14
 -1       203 7.83423E-03-8.17156E-04-3.77113E-14
 -1       204 8.17847E-03-7.93575E-04-4.06794E-14
 -1       205 8.51477E-03-7.90750E-04-4.37219E-14
 -1       206 8.84252E-03-8.02784E-04-4.68350E-14
 -1       207 9.16210E-03-8.24685E-04-5.00128E-14
 -1       208 9.47439E-03-8.52651E-04-5.32489E-14
 -1       209 9.78051E-03-8.83978E-04-5.65486E-14
 -1       210 1.00815E-02-9.16839E-04-5.99062E-14
 -1       211 1.03785E-02-9.50060E-04-6.33268E-14
 -1       212 1.06723E-02-9.82934E-04-6.68071E-14
 -1       213 1.09637E-02-1.01507E-03-7.03385E-14
 -1       214 1.12533E-02-1.04629E-03-7.39223E-14
 -1       215 1.15415E-02-1.07654E-03-7.75530E-14
 -1       216 1.18288E-02-1.10587E-03-8.12172E-14
 -1       217 1.21154E-02-1.13436E-03-8.49156E-14
 -1       218 1.24015E-02-1.16211E-03-8.86526E-14
 -1       219 1.26873E-02-1.18923E-03-9.24299E-14
 -1       220 1.29730E-02-1.21584E-03-9.62436E-14
 -1       221 1.32586E-02-1.24202E-03-1.00085E-13
 -1       222 1.35441E-02-1.26789E-03-1.03936E-13
 -1       223 1.38296E-02-1.29351E-03-1.07794E-13
 -1       224 1.41152E-02-1.31896E-03-1.11644E-13
 -1       225 1.44008E-02-1.34430E-03-1.15491E-13
 -1       226 1.46864E-02-1.36960E-03-1.19338E-13
 -1       227 1.49721E-02-1.39489E-03-1.23198E-13
 -1       228 6.10148E-04 3.12102E-04-4.39915E-17
 -1       229 9.05698E-04 4.02814E-04-2.29383E-16
 -1       230 1.19402E-03 4.64195E-04-5.35979E-16
 -1       231 1.48121E-03 5.05972E-04-9.66105E-16
 -1       232 1.77087E-03 5.34728E-04-1.52046E-15
 -1       233 2.06529E-03 5.55643E-04-2.19933E-15
 -1       234 2.36592E-03 5.73373E-04-3.00087E-15
 -1       235 2.67357E-03 5.92487E-04-3.92281E-15
 -1       236 2.98832E-03 6.17628E-04-4.96470E-15
 -1       237 3.30932E-03 6.53352E-04-6.12854E-15
 -1       238 3.63452E-03 7.03502E-04-7.41110E-15
 -1       239 3.96056E-03 7.69976E-04-8.80941E-15
 -1       240 4.28291E-03 8.50920E-04-1.03247E-14
 -1       241 4.59675E-03 9.38880E-04-1.19606E-14
 -1       242 4.89853E-03 1.02018E-03-1.37251E-14
 -1       243 5.18793E-03 1.07723E-03-1.56137E-14
 -1       244 5.46900E-03 1.09409E-03-1.76272E-14
 -1       245 5.74929E-03 1.06329E-03-1.97646E-14
 -1       246 6.03679E-03 9.89411E-04-2.20312E-14
 -1       247 6.33671E-03 8.86856E-04-2.44313E-14
 -1       248 6.64993E-03 7.73539E-04-2.69564E-14
 -1       249 6.97367E-03 6.64702E-04-2.95956E-14
 -1       250 7.30338E-03 5.69758E-04-3.23276E-14
 -1       251 7.63449E-03 4.92303E-04-3.51491E-14
 -1       252 7.96343E-03 4.31827E-04-3.80571E-14
 -1       253 8.28793E-03 3.85661E-04-4.10535E-14
 -1       254 8.60687E-03 3.50433E-04-4.41346E-14
 -1       255 8.92002E-03 3.22915E-04-4.72962E-14
 -1       256 9.22767E-03 3.00406E-04-5.05333E-14
 -1       257 9.53046E-03 2.80833E-04-5.38402E-14
 -1       258 9.82911E-03 2.62702E-04-5.72056E-14
 -1       259 1.01244E-02 2.45001E-04-6.06251E-14
 -1       260 1.04170E-02 2.27087E-04-6.40970E-14
 -1       261 1.07074E-02 2.08584E-04-6.76298E-14
 -1       262 1.09964E-02 1.89308E-04-7.12159E-14
 -1       263 1.12841E-02 1.69198E-04-7.48546E-14
 -1       264 1.15711E-02 1.48274E-04-7.85477E-14
 -1       265 1.18574E-02 1.26602E-04-8.22821E-14
 -1       266 1.21434E-02 1.04272E-04-8.60518E-14
 -1       267 1.24291E-02 8.13821E-05-8.98589E-14
 -1       268 1.27147E-02 5.80305E-05-9.36970E-14
 -1       269 1.30002E-02 3.43094E-05-9.75709E-14
 -1       270 1.32857E-02 1.03030E-05-1.01469E-13
 -1       271 1.35712E-02-1.39135E-05-1.05383E-13
 -1       272 1.38568E-02-3.82727E-05-1.09315E-13
 -1       273 1.41424E-02-6.27144E-05-1.13281E-13
 -1       274 1.44280E-02-8.71845E-05-1.17276E-13
 -1       275 1.47137E-02-1.11638E-04-1.21276E-13
 -1       276 1.47822E-02-1.79877E-04-1.22183E-13
 -1       277 1.48061E-02-2.64203E-04-1.22440E-13
 -1       278 1.48301E-02-3.48565E-04-1.22691E-13
 -1       279 1.48540E-02-4.32964E-04-1.22941E-13
 -1       280 1.48777E-02-5.15965E-04-1.23179E-13
 -1       281 1.49018E-02-6.00423E-04-1.23419E-13
 -1       282 1.49261E-02-6.84900E-04-1.23658E-13
 -1       283 1.49505E-02-7.69386E-04-1.23891E-13
 -1       284 1.49750E-02-8.53871E-04-1.24113E-13
 -1       285 1.49997E-02-9.38348E-04-1.24328E-13
 -1       286 1.50241E-02-1.02138E-03-1.24533E-13
 -1       287 1.50489E-02-1.10581E-03-1.24737E-13
 -1       288 1.50739E-02-1.19021E-03-1.24937E-13
 -1       289 1.50989E-02-1.27457E-03-1.25140E-13
 -1       290 1.50355E-02-1.33474E-03-1.24168E-13
 -1       291 7.80256E-03-1.24365E-04-2.63420E-14
 -1       292 7.64453E-03-3.18056E-05-2.61525E-14
 -1       293 7.35537E-03 1.05423E-04-2.53650E-14
 -1       294 6.99398E-03 2.87004E-04-2.42588E-14
 -1       295 6.61194E-03 4.87506E-04-2.29264E-14
 -1       296 6.18407E-03 6.53551E-04-2.16846E-14
 -1       297 5.80706E-03 7.57880E-04-2.02795E-14
 -1       298 5.41746E-03 7.79676E-04-1.89359E-14
 -1       299 5.00907E-03 6.98517E-04-1.77144E-14
 -1       300 4.62078E-03 5.45171E-04-1.65103E-14
 -1       301 4.18768E-03 3.57619E-04-1.56501E-14
 -1       302 3.82492E-03 1.73652E-04-1.49072E-14
 -1       303 3.54787E-03 5.46912E-05-1.46449E-14
 -1       304 3.39421E-03-5.43935E-05-1.43947E-14
 -1       305 3.38990E-03-1.47953E-04-1.45647E-14
 -1       306 3.53953E-03-2.48782E-04-1.48027E-14
 -1       307 3.81533E-03-4.02116E-04-1.54492E-14
 -1       308 4.16538E-03-5.83963E-04-1.62462E-14
 -1       309 4.58309E-03-7.84079E-04-1.72535E-14
 -1       310 5.03660E-03-9.66024E-04-1.84455E-14
 -1       311 5.44150E-03-1.07048E-03-1.97752E-14
 -1       312 5.81106E-03-1.07646E-03-2.10297E-14
 -1       313 6.16784E-03-1.00763E-03-2.22981E-14
 -1       314 6.54542E-03-8.68657E-04-2.34606E-14
 -1       315 6.90896E-03-7.10713E-04-2.44356E-14
 -1       316 7.23907E-03-5.52900E-04-2.52745E-14
 -1       317 7.51646E-03-4.15180E-04-2.59081E-14
 -1       318 7.71590E-03-3.03426E-04-2.63098E-14
 -1       319 7.81633E-03-2.11944E-04-2.64621E-14
 -1       320 4.60258E-04-1.45046E-04-2.25748E-16
 -1       321 4.80961E-04-1.93998E-04-1.97359E-16
 -1       322 4.38524E-04-7.71948E-05-2.47788E-16
 -1       323 4.32272E-04-5.18893E-05-2.49915E-16
 -1       324 4.28220E-04-2.98766E-05-2.48709E-16
 -1       325 4.26288E-04-9.70021E-06-2.44931E-16
 -1       326 4.26455E-04 9.97492E-06-2.39199E-16
 -1       327 4.28683E-04 3.04318E-05-2.30952E-16
 -1       328 4.32843E-04 5.25532E-05-2.19863E-16
 -1       329 4.39147E-04 7.84659E-05-2.04189E-16
 -1       330 4.47980E-04 1.09498E-04-1.82295E-16
 -1       331 4.60807E-04 1.48101E-04-1.50975E-16
 -1       332 4.82413E-04 1.98709E-04-1.05449E-16
 -1       333 5.38856E-04 2.51295E-04-8.20267E-17
 -1       334 8.37205E-04 3.43614E-04-2.77976E-16
 -1       335 8.77655E-04-3.23043E-04-5.99215E-16
 -1       336 1.17185E-03-3.79982E-04-1.06947E-15
 -1       337 1.46496E-03-4.17863E-04-1.67503E-15
 -1       338 1.75909E-03-4.42519E-04-2.41364E-15
 -1       339 2.05609E-03-4.58948E-04-3.28276E-15
 -1       340 2.35752E-03-4.71917E-04-4.27824E-15
 -1       341 2.66474E-03-4.86471E-04-5.39802E-15
 -1       342 2.97898E-03-5.08324E-04-6.63843E-15
 -1       343 3.30132E-03-5.44044E-04-7.99565E-15
 -1       344 3.63254E-03-6.00774E-04-9.46568E-15
 -1       345 3.97258E-03-6.85028E-04-1.10472E-14
 -1       346 4.31960E-03-7.99807E-04-1.27411E-14
 -1       347 4.66889E-03-9.39923E-04-1.45488E-14
 -1       348 5.01301E-03-1.08633E-03-1.64760E-14
 -1       349 5.34574E-03-1.20525E-03-1.85258E-14
 -1       350 5.66862E-03-1.26010E-03-2.07000E-14
 -1       351 5.99122E-03-1.23355E-03-2.30020E-14
 -1       352 6.32391E-03-1.14061E-03-2.54256E-14
 -1       353 6.66854E-03-1.01779E-03-2.79620E-14
 -1       354 7.01940E-03-8.99638E-04-3.06035E-14
 -1       355 7.36906E-03-8.06577E-04-3.33458E-14
 -1       356 7.71259E-03-7.44977E-04-3.61836E-14
 -1       357 8.04800E-03-7.12616E-04-3.91030E-14
 -1       358 8.37518E-03-7.03714E-04-4.21002E-14
 -1       359 8.69481E-03-7.11932E-04-4.51702E-14
 -1       360 9.00784E-03-7.31743E-04-4.83092E-14
 -1       361 9.31526E-03-7.58845E-04-5.15112E-14
 -1       362 9.61796E-03-7.90117E-04-5.47698E-14
 -1       363 9.91676E-03-8.23417E-04-5.80895E-14
 -1       364 1.02124E-02-8.57345E-04-6.14724E-14
 -1       365 1.05055E-02-8.91038E-04-6.49193E-14
 -1       366 1.07966E-02-9.24005E-04-6.84226E-14
 -1       367 1.10862E-02-9.56007E-04-7.19744E-14
 -1       368 1.13746E-02-9.86967E-04-7.55760E-14
 -1       369 1.16622E-02-1.01691E-03-7.92200E-14
 -1       370 1.19490E-02-1.04591E-03-8.29017E-14
 -1       371 1.22355E-02-1.07408E-03-8.66179E-14
 -1       372 1.25216E-02-1.10154E-03-9.03692E-14
 -1       373 1.28075E-02-1.12841E-03-9.41560E-14
 -1       374 1.30933E-02-1.15480E-03-9.79776E-14
 -1       375 1.33789E-02-1.18082E-03-1.01823E-13
 -1       376 1.36646E-02-1.20654E-03-1.05678E-13
 -1       377 1.39502E-02-1.23206E-03-1.09533E-13
 -1       378 1.42359E-02-1.25744E-03-1.13383E-13
 -1       379 1.45215E-02-1.28273E-03-1.17232E-13
 -1       380 1.47785E-02-1.30873E-03-1.20692E-13
 -1       381 1.13072E-03 4.07081E-04-5.91415E-16
 -1       382 1.42216E-03 4.50152E-04-1.02615E-15
 -1       383 1.71435E-03 4.79334E-04-1.58255E-15
 -1       384 2.00940E-03 4.99879E-04-2.26208E-15
 -1       385 2.30881E-03 5.16496E-04-3.06302E-15
 -1       386 2.61358E-03 5.33799E-04-3.98413E-15
 -1       387 2.92422E-03 5.56501E-04-5.02292E-15
 -1       388 3.24063E-03 5.89335E-04-6.18179E-15
 -1       389 3.56193E-03 6.36532E-04-7.45803E-15
 -1       390 3.88621E-03 7.00689E-04-8.84976E-15
 -1       391 4.21040E-03 7.80964E-04-1.03587E-14
 -1       392 4.53056E-03 8.70949E-04-1.19864E-14
 -1       393 4.84291E-03 9.57388E-04-1.37400E-14
 -1       394 5.14578E-03 1.02172E-03-1.56185E-14
 -1       395 5.44136E-03 1.04577E-03-1.76220E-14
 -1       396 5.73548E-03 1.01962E-03-1.97505E-14
 -1       397 6.03491E-03 9.46888E-04-2.20089E-14
 -1       398 6.34384E-03 8.42737E-04-2.43987E-14
 -1       399 6.66236E-03 7.26617E-04-2.69136E-14
 -1       400 6.98756E-03 6.15028E-04-2.95413E-14
 -1       401 7.31546E-03 5.18007E-04-3.22646E-14
 -1       402 7.64257E-03 4.39258E-04-3.50770E-14
 -1       403 7.96648E-03 3.78157E-04-3.79754E-14
 -1       404 8.28587E-03 3.31863E-04-4.09620E-14
 -1       405 8.60022E-03 2.96838E-04-4.40330E-14
 -1       406 8.90956E-03 2.69721E-04-4.71806E-14
 -1       407 9.21428E-03 2.47714E-04-5.04066E-14
 -1       408 9.51493E-03 2.28674E-04-5.36996E-14
 -1       409 9.81212E-03 2.11061E-04-5.70565E-14
 -1       410 1.01065E-02 1.93835E-04-6.04675E-14
 -1       411 1.03985E-02 1.76338E-04-6.39340E-14
 -1       412 1.06887E-02 1.58192E-04-6.74588E-14
 -1       413 1.09776E-02 1.39211E-04-7.10397E-14
 -1       414 1.12654E-02 1.19340E-04-7.46688E-14
 -1       415 1.15525E-02 9.86060E-05-7.83486E-14
 -1       416 1.18390E-02 7.70811E-05-8.20704E-14
 -1       417 1.21251E-02 5.48625E-05-8.58327E-14
 -1       418 1.24110E-02 3.20550E-05-8.96332E-14
 -1       419 1.26968E-02 8.76230E-06-9.34651E-14
 -1       420 1.29824E-02-1.49186E-05-9.73332E-14
 -1       421 1.32680E-02-3.88996E-05-1.01225E-13
 -1       422 1.35536E-02-6.31024E-05-1.05132E-13
 -1       423 1.38392E-02-8.74572E-05-1.09059E-13
 -1       424 1.41249E-02-1.11902E-04-1.13014E-13
 -1       425 1.44105E-02-1.36381E-04-1.16997E-13
 -1       426 1.45963E-02-1.58136E-04-1.19592E-13
 -1       427 1.45946E-02-3.69523E-04-1.19397E-13
 -1       428 1.45706E-02-2.85176E-04-1.19132E-13
 -1       429 1.45835E-02-2.21650E-04-1.19362E-13
 -1       430 1.46182E-02-4.52461E-04-1.19649E-13
 -1       431 1.46423E-02-5.36844E-04-1.19898E-13
 -1       432 1.46665E-02-6.21238E-04-1.20146E-13
 -1       433 1.46908E-02-7.05637E-04-1.20387E-13
 -1       434 1.47153E-02-7.90039E-04-1.20626E-13
 -1       435 1.47399E-02-8.74439E-04-1.20855E-13
 -1       436 1.47642E-02-9.57403E-04-1.21068E-13
 -1       437 1.47890E-02-1.04179E-03-1.21275E-13
 -1       438 1.48139E-02-1.12616E-03-1.21476E-13
 -1       439 1.48389E-02-1.21050E-03-1.21679E-13
 -1       440 7.50127E-03-3.22702E-05-2.70459E-14
 -1       441 7.84399E-03-1.76164E-04-2.77603E-14
 -1       442 7.76482E-03-1.26933E-04-2.75587E-14
 -1       443 7.12308E-03 1.36023E-04-2.57745E-14
 -1       444 6.69604E-03 3.62440E-04-2.41635E-14
 -1       445 4.47364E-04-1.07317E-04-2.40693E-16
 -1       446 5.91571E-03 7.47114E-04-2.10057E-14
 -1       447 5.62331E-03 8.13029E-04-1.96324E-14
 -1       448 5.22843E-03 7.69055E-04-1.79717E-14
 -1       449 4.89919E-03 6.43785E-04-1.67605E-14
 -1       450 4.43703E-03 4.09638E-04-1.54107E-14
 -1       451 4.06560E-03 2.19070E-04-1.44915E-14
 -1       452 3.65749E-03 4.38429E-05-1.38746E-14
 -1       453 3.45424E-03-3.44011E-05-1.36313E-14
 -1       454 3.35552E-03-9.97353E-05-1.37651E-14
 -1       455 3.42441E-03-1.49220E-04-1.37794E-14
 -1       456 3.69809E-03-2.65528E-04-1.44607E-14
 -1       457 4.04566E-03-4.27195E-04-1.52511E-14
 -1       458 4.45485E-03-6.31721E-04-1.61524E-14
 -1       459 4.86515E-03-8.54197E-04-1.73226E-14
 -1       460 5.29823E-03-1.05603E-03-1.89723E-14
 -1       461 5.64718E-03-1.12680E-03-2.05394E-14
 -1       462 5.90941E-03-1.09585E-03-2.17923E-14
 -1       463 6.31099E-03-9.40077E-04-2.34862E-14
 -1       464 6.67290E-03-7.53697E-04-2.47895E-14
 -1       465 7.02159E-03-5.79325E-04-2.56913E-14
 -1       466 7.34907E-03-4.16664E-04-2.66952E-14
 -1       467 7.61778E-03-3.02914E-04-2.72561E-14
 -1       468 7.78991E-03-2.27873E-04-2.75902E-14
 -1       469 6.34620E-03 5.48716E-04-2.28780E-14
 -1       470 4.67640E-03 5.29584E-04-1.56388E-14
 -1       471 9.45584E-04 3.09327E-04-5.20546E-16
 -1       472 6.53590E-04-5.99140E-05-5.27620E-16
 -1       473 6.62506E-04-9.41132E-05-5.26899E-16
 -1       474 6.46903E-04 5.82319E-08-5.13648E-16
 -1       475 6.49039E-04 2.94841E-05-4.99878E-16
 -1       476 6.54591E-04 6.03174E-05-4.81460E-16
 -1       477 6.63710E-04 9.53526E-05-4.56347E-16
 -1       478 6.76567E-04 1.35962E-04-4.22663E-16
 -1       479 6.94194E-04 1.84317E-04-3.77157E-16
 -1       480 7.71100E-03-1.17008E-04-2.89078E-14
 -1       481 1.23814E-03 3.59024E-04-9.21389E-16
 -1       482 9.89666E-04-2.87786E-04-8.72823E-16
 -1       483 6.12086E-03 6.64280E-04-2.23589E-14
 -1       484 1.28094E-03-3.31070E-04-1.42034E-15
 -1       485 1.57270E-03-3.59803E-04-2.09849E-15
 -1       486 1.86536E-03-3.78258E-04-2.90597E-15
 -1       487 2.15980E-03-3.90718E-04-3.83822E-15
 -1       488 2.45709E-03-4.01620E-04-4.89206E-15
 -1       489 2.75862E-03-4.15864E-04-6.06564E-15
 -1       490 3.06623E-03-4.39121E-04-7.35559E-15
 -1       491 3.38245E-03-4.78038E-04-8.75892E-15
 -1       492 3.71039E-03-5.40164E-04-1.02730E-14
 -1       493 4.05280E-03-6.32876E-04-1.18971E-14
 -1       494 4.40971E-03-7.60227E-04-1.36326E-14
 -1       495 4.77514E-03-9.16128E-04-1.54812E-14
 -1       496 5.13728E-03-1.07325E-03-1.74534E-14
 -1       497 5.48559E-03-1.18108E-03-1.95499E-14
 -1       498 5.82712E-03-1.19643E-03-2.17778E-14
 -1       499 6.17575E-03-1.11600E-03-2.41349E-14
 -1       500 6.53736E-03-9.83526E-04-2.66115E-14
 -1       501 6.90365E-03-8.49353E-04-2.91971E-14
 -1       502 7.26248E-03-7.42926E-04-3.18848E-14
 -1       503 7.60732E-03-6.71995E-04-3.46686E-14
 -1       504 7.93786E-03-6.33204E-04-3.75378E-14
 -1       505 8.25671E-03-6.19740E-04-4.04882E-14
 -1       506 8.56695E-03-6.24716E-04-4.35149E-14
 -1       507 8.87107E-03-6.42337E-04-4.66147E-14
 -1       508 9.17081E-03-6.68110E-04-4.97796E-14
 -1       509 9.46732E-03-6.98735E-04-5.30024E-14
 -1       510 9.76138E-03-7.31888E-04-5.62812E-14
 -1       511 1.00535E-02-7.66011E-04-5.96264E-14
 -1       512 1.03442E-02-8.00108E-04-6.30371E-14
 -1       513 1.06336E-02-8.33587E-04-6.65089E-14
 -1       514 1.09221E-02-8.66136E-04-7.00340E-14
 -1       515 1.12098E-02-8.97630E-04-7.36081E-14
 -1       516 1.14969E-02-9.28063E-04-7.72266E-14
 -1       517 1.17836E-02-9.57501E-04-8.08881E-14
 -1       518 1.20700E-02-9.86047E-04-8.45857E-14
 -1       519 1.23562E-02-1.01382E-03-8.83146E-14
 -1       520 1.26421E-02-1.04095E-03-9.20767E-14
 -1       521 1.29280E-02-1.06754E-03-9.58739E-14
 -1       522 1.32138E-02-1.09371E-03-9.97036E-14
 -1       523 1.34995E-02-1.11954E-03-1.03556E-13
 -1       524 1.37852E-02-1.14514E-03-1.07411E-13
 -1       525 1.40709E-02-1.17056E-03-1.11268E-13
 -1       526 1.43566E-02-1.19587E-03-1.15122E-13
 -1       527 1.82441E-03 4.15614E-04-2.08234E-15
 -1       528 2.12023E-03 4.31945E-04-2.84258E-15
 -1       529 2.41940E-03 4.46257E-04-3.72132E-15
 -1       530 2.72302E-03 4.63096E-04-4.71743E-15
 -1       531 3.03207E-03 4.87212E-04-5.83071E-15
 -1       532 3.34739E-03 5.23410E-04-7.05988E-15
 -1       533 3.66927E-03 5.75931E-04-8.40426E-15
 -1       534 3.99692E-03 6.47130E-04-9.86364E-15
 -1       535 4.32774E-03 7.35212E-04-1.14392E-14
 -1       536 4.65709E-03 8.31357E-04-1.31360E-14
 -1       537 4.97979E-03 9.17954E-04-1.49567E-14
 -1       538 5.29363E-03 9.71659E-04-1.69019E-14
 -1       539 5.60205E-03 9.72814E-04-1.89750E-14
 -1       540 5.91267E-03 9.16816E-04-2.11780E-14
 -1       541 6.23157E-03 8.17114E-04-2.35130E-14
 -1       542 6.55917E-03 6.97003E-04-2.59741E-14
 -1       543 6.89124E-03 5.77622E-04-2.85504E-14
 -1       544 7.22262E-03 4.72450E-04-3.12286E-14
 -1       545 7.54965E-03 3.86658E-04-3.40006E-14
 -1       546 7.87079E-03 3.20059E-04-3.68580E-14
 -1       547 8.18586E-03 2.69785E-04-3.97985E-14
 -1       548 8.49540E-03 2.32099E-04-4.28282E-14
 -1       549 8.80018E-03 2.03393E-04-4.59364E-14
 -1       550 9.10098E-03 1.80615E-04-4.91210E-14
 -1       551 9.39851E-03 1.61393E-04-5.23779E-14
 -1       552 9.69334E-03 1.43993E-04-5.56985E-14
 -1       553 9.98601E-03 1.27222E-04-5.90790E-14
 -1       554 1.02769E-02 1.10303E-04-6.25158E-14
 -1       555 1.05665E-02 9.27766E-05-6.60102E-14
 -1       556 1.08550E-02 7.44028E-05-6.95634E-14
 -1       557 1.11427E-02 5.50930E-05-7.31645E-14
 -1       558 1.14297E-02 3.48555E-05-7.68138E-14
 -1       559 1.17163E-02 1.37566E-05-8.05067E-14
 -1       560 1.20026E-02-8.10705E-06-8.42447E-14
 -1       561 1.22886E-02-3.06262E-05-8.80236E-14
 -1       562 1.25745E-02-5.36908E-05-9.18354E-14
 -1       563 1.28603E-02-7.71967E-05-9.56789E-14
 -1       564 1.31460E-02-1.01049E-04-9.95567E-14
 -1       565 1.34317E-02-1.25163E-04-1.03451E-13
 -1       566 1.37174E-02-1.49464E-04-1.07361E-13
 -1       567 1.40030E-02-1.73886E-04-1.11294E-13
 -1       568 1.42887E-02-1.98371E-04-1.15258E-13
 -1       569 1.43828E-02-4.73317E-04-1.16371E-13
 -1       570 1.44069E-02-5.57643E-04-1.16628E-13
 -1       571 1.43352E-02-3.06102E-04-1.15843E-13
 -1       572 1.43589E-02-3.89707E-04-1.16114E-13
 -1       573 1.44312E-02-6.41967E-04-1.16879E-13
 -1       574 1.44556E-02-7.26291E-04-1.17123E-13
 -1       575 1.44801E-02-8.10615E-04-1.17362E-13
 -1       576 1.45043E-02-8.93511E-04-1.17585E-13
 -1       577 1.45291E-02-9.77837E-04-1.17804E-13
 -1       578 1.45540E-02-1.06216E-03-1.18015E-13
 -1       579 1.45790E-02-1.14648E-03-1.18225E-13
 -1       580 7.32804E-03 2.72200E-05-2.75426E-14
 -1       581 7.85895E-03-2.01812E-04-2.90400E-14
 -1       582 1.53077E-03 3.92829E-04-1.44173E-15
 -1       583 7.84846E-03-1.66039E-04-2.88725E-14
 -1       584 7.74045E-03-2.47817E-04-2.87573E-14
 -1       585 7.21155E-04-2.21556E-04-4.96907E-16
 -1       586 6.88226E-03 2.44577E-04-2.59827E-14
 -1       587 5.46516E-03-1.12016E-03-1.95823E-14
 -1       588 3.81562E-03 1.06693E-04-1.32910E-14
 -1       589 6.48404E-04-2.91462E-05-5.22884E-16
 -1       590 4.27182E-03 3.18986E-04-1.42861E-14
 -1       591 5.74374E-03 8.09107E-04-2.02666E-14
 -1       592 5.40583E-03 8.24163E-04-1.84690E-14
 -1       593 5.08350E-03 7.31639E-04-1.69607E-14
 -1       594 3.33082E-03-1.06466E-04-1.28227E-14
 -1       595 3.51658E-03-9.60185E-06-1.29616E-14
 -1       596 6.49799E-03-8.46381E-04-2.49026E-14
 -1       597 3.34709E-03-6.76004E-05-1.26944E-14
 -1       598 3.53124E-03-1.80102E-04-1.32637E-14
 -1       599 3.86960E-03-3.13519E-04-1.40701E-14
 -1       600 4.22721E-03-4.86124E-04-1.49258E-14
 -1       601 4.65250E-03-7.23878E-04-1.61194E-14
 -1       602 5.09957E-03-9.80524E-04-1.77266E-14
 -1       603 5.79165E-03-1.14494E-03-2.14107E-14
 -1       604 6.13246E-03-1.03747E-03-2.32632E-14
 -1       605 6.89497E-03-6.27160E-04-2.65116E-14
 -1       606 7.19210E-03-4.75460E-04-2.75365E-14
 -1       607 7.51828E-03-3.30621E-04-2.83093E-14
 -1       608 6.48900E-03 4.60879E-04-2.41364E-14
 -1       609 7.14096E-04 2.63317E-04-2.72535E-16
 -1       610 6.75333E-04-1.33629E-04-5.19170E-16
 -1       611 7.59309E-03-6.50055E-05-2.94116E-14
 -1       612 1.45503E-02-1.21462E-03-1.17728E-13
 -1       613 3.36644E-03-1.31473E-04-1.23180E-14
 -1       614 4.86143E-03 6.43140E-04-1.58220E-14
 -1       615 3.98677E-03 2.05139E-04-1.30835E-14
 -1       616 8.78566E-04 5.69636E-05-8.44797E-16
 -1       617 8.72705E-04 1.82353E-05-8.70435E-16
 -1       618 9.05437E-04 1.45930E-04-7.66202E-16
 -1       619 9.26749E-04 2.00363E-04-7.07920E-16
 -1       620 7.19393E-03 1.16614E-04-2.81395E-14
 -1       621 1.05973E-03 2.71810E-04-7.98244E-16
 -1       622 7.88031E-03-1.62374E-04-3.05770E-14
 -1       623 6.39014E-03-9.48641E-04-2.50384E-14
 -1       624 1.39102E-03-2.81179E-04-1.79016E-15
 -1       625 1.67844E-03-3.01925E-04-2.53631E-15
 -1       626 1.96621E-03-3.15118E-04-3.40682E-15
 -1       627 2.25458E-03-3.24328E-04-4.39774E-15
 -1       628 2.54437E-03-3.33444E-04-5.50677E-15
 -1       629 2.83720E-03-3.46867E-04-6.73137E-15
 -1       630 3.13583E-03-3.69832E-04-8.06921E-15
 -1       631 3.44468E-03-4.08930E-04-9.51654E-15
 -1       632 3.76931E-03-4.72953E-04-1.10723E-14
 -1       633 4.11854E-03-5.71775E-04-1.27371E-14
 -1       634 4.49068E-03-7.15885E-04-1.45099E-14
 -1       635 6.78638E-03-7.78964E-04-2.75595E-14
 -1       636 7.16481E-03-6.51513E-04-3.01877E-14
 -1       637 7.51495E-03-5.72844E-04-3.29118E-14
 -1       638 7.83991E-03-5.32444E-04-3.57226E-14
 -1       639 8.14703E-03-5.18678E-04-3.86148E-14
 -1       640 8.44323E-03-5.23005E-04-4.15864E-14
 -1       641 8.73344E-03-5.39496E-04-4.46384E-14
 -1       642 9.02065E-03-5.63974E-04-4.77595E-14
 -1       643 9.30656E-03-5.93430E-04-5.09400E-14
 -1       644 9.59200E-03-6.25697E-04-5.41764E-14
 -1       645 9.87737E-03-6.59251E-04-5.74779E-14
 -1       646 1.01628E-02-6.93063E-04-6.08473E-14
 -1       647 1.04484E-02-7.26480E-04-6.42787E-14
 -1       648 1.07340E-02-7.59121E-04-6.77684E-14
 -1       649 1.10198E-02-7.90803E-04-7.13099E-14
 -1       650 1.13055E-02-8.21473E-04-7.48974E-14
 -1       651 1.15913E-02-8.51163E-04-7.85317E-14
 -1       652 1.18771E-02-8.79955E-04-8.22098E-14
 -1       653 1.21629E-02-9.07955E-04-8.59221E-14
 -1       654 1.24487E-02-9.35278E-04-8.96571E-14
 -1       655 1.27344E-02-9.62038E-04-9.34209E-14
 -1       656 1.30202E-02-9.88342E-04-9.72237E-14
 -1       657 1.33060E-02-1.01429E-03-1.01060E-13
 -1       658 1.35917E-02-1.03995E-03-1.04917E-13
 -1       659 1.38774E-02-1.06542E-03-1.08778E-13
 -1       660 1.41632E-02-1.09075E-03-1.12641E-13
 -1       661 2.22510E-03 3.63569E-04-3.44676E-15
 -1       662 3.99568E-03-3.86853E-04-1.36495E-14
 -1       663 1.93149E-03 3.51131E-04-2.60764E-15
 -1       664 2.82278E-03 3.91477E-04-5.47068E-15
 -1       665 3.13024E-03 4.15954E-04-6.65543E-15
 -1       666 3.44621E-03 4.54049E-04-7.95376E-15
 -1       667 3.77244E-03 5.10603E-04-9.36558E-15
 -1       668 4.10904E-03 5.88847E-04-1.08894E-14
 -1       669 4.45271E-03 6.87097E-04-1.25311E-14
 -1       670 4.79595E-03 7.93589E-04-1.42927E-14
 -1       671 5.13061E-03 8.82582E-04-1.61782E-14
 -1       672 5.45499E-03 9.21645E-04-1.81933E-14
 -1       673 5.77647E-03 8.89659E-04-2.03413E-14
 -1       674 6.10521E-03 7.95281E-04-2.26230E-14
 -1       675 6.44600E-03 6.67403E-04-2.50322E-14
 -1       676 6.79074E-03 5.36845E-04-2.75585E-14
 -1       677 7.13205E-03 4.22684E-04-3.01921E-14
 -1       678 7.46410E-03 3.30932E-04-3.29216E-14
 -1       679 7.78569E-03 2.60612E-04-3.57382E-14
 -1       680 8.09792E-03 2.07974E-04-3.86398E-14
 -1       681 8.40278E-03 1.68721E-04-4.16264E-14
 -1       682 8.70222E-03 1.38975E-04-4.46961E-14
 -1       683 8.99782E-03 1.15562E-04-4.78408E-14
 -1       684 9.29070E-03 9.60342E-05-5.10622E-14
 -1       685 9.58167E-03 7.85903E-05-5.43494E-14
 -1       686 9.87125E-03 6.19677E-05-5.76974E-14
 -1       687 1.01598E-02 4.53287E-05-6.11038E-14
 -1       688 1.04476E-02 2.81567E-05-6.45674E-14
 -1       689 1.07349E-02 1.01687E-05-6.80908E-14
 -1       690 1.10217E-02-8.75633E-06-7.16644E-14
 -1       691 1.13082E-02-2.86316E-05-7.52841E-14
 -1       692 1.15945E-02-4.94040E-05-7.89473E-14
 -1       693 1.18806E-02-7.09833E-05-8.26594E-14
 -1       694 1.21666E-02-9.32619E-05-8.64185E-14
 -1       695 1.24524E-02-1.16129E-04-9.02105E-14
 -1       696 1.27383E-02-1.39477E-04-9.40328E-14
 -1       697 1.30240E-02-1.63209E-04-9.78898E-14
 -1       698 1.33098E-02-1.87235E-04-1.01769E-13
 -1       699 1.35955E-02-2.11479E-04-1.05670E-13
 -1       700 1.38812E-02-2.35873E-04-1.09590E-13
 -1       701 1.41082E-02-2.70968E-04-1.12713E-13
 -1       702 1.41959E-02-6.62622E-04-1.13622E-13
 -1       703 1.43711E-02-1.11862E-03-1.15433E-13
 -1       704 1.41473E-02-4.94121E-04-1.13107E-13
 -1       705 1.42204E-02-7.46865E-04-1.13867E-13
 -1       706 1.41716E-02-5.78376E-04-1.13369E-13
 -1       707 1.63977E-03 3.34243E-04-1.88623E-15
 -1       708 1.42445E-02-8.29684E-04-1.14097E-13
 -1       709 1.42693E-02-9.13940E-04-1.14328E-13
 -1       710 1.42941E-02-9.98208E-04-1.14552E-13
 -1       711 3.24822E-03-8.05213E-05-1.16623E-14
 -1       712 8.77363E-04-2.10991E-04-7.74950E-16
 -1       713 7.85923E-03-2.26910E-04-3.03428E-14
 -1       714 4.81010E-03-8.43708E-04-1.62166E-14
 -1       715 2.52170E-03 3.75582E-04-4.40075E-15
 -1       716 1.13317E-03-2.51050E-04-1.23136E-15
 -1       717 7.70004E-03-2.83772E-04-3.00133E-14
 -1       718 5.91128E-03 7.76506E-04-2.13051E-14
 -1       719 8.89509E-04 9.88372E-05-8.10821E-16
 -1       720 5.54041E-03 8.54067E-04-1.90370E-14
 -1       721 3.64643E-03-2.35488E-04-1.27693E-14
 -1       722 8.87498E-04-9.79577E-05-9.03872E-16
 -1       723 5.23466E-03 8.07063E-04-1.73714E-14
 -1       724 3.57216E-03 4.17925E-05-1.21214E-14
 -1       725 7.93351E-03-1.93528E-04-3.07559E-14
 -1       726 4.38597E-03-5.92310E-04-1.47532E-14
 -1       727 3.37334E-03-2.98802E-05-1.18712E-14
 -1       728 1.34924E-03 3.09047E-04-1.28306E-15
 -1       729 4.49217E-03 4.55489E-04-1.44552E-14
 -1       730 7.45237E-03-3.91270E-04-2.95899E-14
 -1       731 7.09131E-03-5.56200E-04-2.81544E-14
 -1       732 6.72490E-03-7.53047E-04-2.65755E-14
 -1       733 9.03261E-04-1.43714E-04-8.98248E-16
 -1       734 8.72192E-04-1.91611E-05-8.88795E-16
 -1       735 7.48188E-03 1.46703E-05-3.00252E-14
 -1       736 6.88007E-03 2.92760E-04-2.69239E-14
 -1       737 1.41235E-02-4.10568E-04-1.12841E-13
 -1       738 1.41158E-02-3.40772E-04-1.12782E-13
 -1       739 7.81745E-03-1.26901E-04-3.10936E-14
 -1       740 6.35050E-03 5.69093E-04-2.39189E-14
 -1       741 3.43375E-03-1.74563E-04-1.18387E-14
 -1       742 3.70680E-03 1.23085E-04-1.19184E-14
 -1       743 8.77128E-04-5.71384E-05-9.00057E-16
 -1       744 6.14195E-03 7.06827E-04-2.28155E-14
 -1       745 4.19561E-03 3.32070E-04-1.32374E-14
 -1       746 5.02573E-03 7.48293E-04-1.62087E-14
 -1       747 6.61351E-03 4.27360E-04-2.53996E-14
 -1       748 1.15769E-03 2.00665E-04-1.14282E-15
 -1       749 4.10605E-03-4.89256E-04-1.33300E-14
 -1       750 7.19695E-03 1.80069E-04-2.91483E-14
 -1       751 5.71841E-03 8.65930E-04-2.00449E-14
 -1       752 1.78130E-03-2.45300E-04-2.98654E-15
 -1       753 2.06184E-03-2.54243E-04-3.91555E-15
 -1       754 2.34144E-03-2.60767E-04-4.96141E-15
 -1       755 2.62067E-03-2.67976E-04-6.12240E-15
 -1       756 2.90120E-03-2.79403E-04-7.39685E-15
 -1       757 3.18643E-03-2.99413E-04-8.78040E-15
 -1       758 3.48311E-03-3.34359E-04-1.02686E-14
 -1       759 7.47005E-03-4.82140E-04-3.14201E-14
 -1       760 7.78329E-03-4.45191E-04-3.41839E-14
 -1       761 8.07433E-03-4.35592E-04-3.70295E-14
 -1       762 8.35430E-03-4.42381E-04-3.99528E-14
 -1       763 8.62966E-03-4.59472E-04-4.29567E-14
 -1       764 8.90397E-03-4.83346E-04-4.60368E-14
 -1       765 9.17902E-03-5.11640E-04-4.91824E-14
 -1       766 9.45557E-03-5.42624E-04-5.23886E-14
 -1       767 9.73381E-03-5.75014E-04-5.56544E-14
 -1       768 1.00136E-02-6.07882E-04-5.89861E-14
 -1       769 1.02948E-02-6.40591E-04-6.23843E-14
 -1       770 1.05772E-02-6.72736E-04-6.58416E-14
 -1       771 1.08604E-02-7.04094E-04-6.93534E-14
 -1       772 1.11444E-02-7.34572E-04-7.29157E-14
 -1       773 1.14289E-02-7.64163E-04-7.65220E-14
 -1       774 1.17138E-02-7.92919E-04-8.01779E-14
 -1       775 1.19989E-02-8.20923E-04-8.38710E-14
 -1       776 1.22843E-02-8.48274E-04-8.75927E-14
 -1       777 1.25698E-02-8.75074E-04-9.13385E-14
 -1       778 1.28554E-02-9.01420E-04-9.51159E-14
 -1       779 1.31411E-02-9.27402E-04-9.89329E-14
 -1       780 1.34268E-02-9.53101E-04-1.02781E-13
 -1       781 1.37125E-02-9.78587E-04-1.06641E-13
 -1       782 1.39983E-02-1.00392E-03-1.10506E-13
 -1       783 1.39850E-02-7.66635E-04-1.10607E-13
 -1       784 3.21803E-03 3.40540E-04-7.49875E-15
 -1       785 2.91302E-03 3.17770E-04-6.24482E-15
 -1       786 3.86746E-03 4.37521E-04-1.03404E-14
 -1       787 4.21682E-03 5.24582E-04-1.19272E-14
 -1       788 4.57842E-03 6.39480E-04-1.36306E-14
 -1       789 6.69244E-03 4.93230E-04-2.65655E-14
 -1       790 7.04915E-03 3.66292E-04-2.91545E-14
 -1       791 7.38907E-03 2.68763E-04-3.18426E-14
 -1       792 7.71267E-03 1.96919E-04-3.46201E-14
 -1       793 8.02229E-03 1.44461E-04-3.74802E-14
 -1       794 8.32190E-03 1.05664E-04-4.04290E-14
 -1       795 8.61499E-03 7.61732E-05-4.34591E-14
 -1       796 8.90414E-03 5.27797E-05-4.65662E-14
 -1       797 9.19106E-03 3.31356E-05-4.97503E-14
 -1       798 9.47683E-03 1.55447E-05-5.30054E-14
 -1       799 9.76210E-03-1.18870E-06-5.63216E-14
 -1       800 1.00472E-02-1.78733E-05-5.96962E-14
 -1       801 1.03323E-02-3.50230E-05-6.31302E-14
 -1       802 1.06175E-02-5.29326E-05-6.66218E-14
 -1       803 1.09028E-02-7.17397E-05-7.01675E-14
 -1       804 1.11883E-02-9.14746E-05-7.37635E-14
 -1       805 1.14738E-02-1.12098E-04-7.74021E-14
 -1       806 1.17594E-02-1.33531E-04-8.10840E-14
 -1       807 1.20450E-02-1.55674E-04-8.48168E-14
 -1       808 1.23307E-02-1.78420E-04-8.85889E-14
 -1       809 1.26164E-02-2.01665E-04-9.23907E-14
 -1       810 1.29022E-02-2.25312E-04-9.62271E-14
 -1       811 1.31879E-02-2.49274E-04-1.00090E-13
 -1       812 1.34736E-02-2.73474E-04-1.03977E-13
 -1       813 1.37594E-02-2.97845E-04-1.07887E-13
 -1       814 1.39376E-02-3.19291E-04-1.10332E-13
 -1       815 1.10399E-03 4.36440E-05-1.30874E-15
 -1       816 1.40096E-02-8.50802E-04-1.10848E-13
 -1       817 1.39605E-02-6.82482E-04-1.10361E-13
 -1       818 8.02911E-03-1.88982E-04-3.28384E-14
 -1       819 3.20215E-03-1.05222E-04-1.09126E-14
 -1       820 3.53492E-03 3.78219E-04-8.86464E-15
 -1       821 1.25104E-03 2.52481E-04-1.21837E-15
 -1       822 2.03484E-03 2.86595E-04-3.16014E-15
 -1       823 1.50000E-03-2.31105E-04-2.17743E-15
 -1       824 7.72347E-03-3.35787E-04-3.17712E-14
 -1       825 1.74726E-03 2.75192E-04-2.36077E-15
 -1       826 4.66150E-03 5.93866E-04-1.45322E-14
 -1       827 3.73452E-03-3.10932E-04-1.22687E-14
 -1       828 3.38062E-03 1.44102E-05-1.11085E-14
 -1       829 7.88040E-03-2.69398E-04-3.21170E-14
 -1       830 7.99955E-03-2.25597E-04-3.25460E-14
 -1       831 3.19841E-03-4.45277E-05-1.07081E-14
 -1       832 1.09948E-03-1.06646E-06-1.33965E-15
 -1       833 2.32401E-03 2.95103E-04-4.07429E-15
 -1       834 1.38879E-02-4.31046E-04-1.09582E-13
 -1       835 5.35689E-03 8.69835E-04-1.77907E-14
 -1       836 3.08193E-03-7.15221E-05-9.99533E-15
 -1       837 1.13017E-03-1.41206E-04-1.37275E-15
 -1       838 1.24717E-03-2.09571E-04-1.55895E-15
 -1       839 1.39361E-02-5.98329E-04-1.10111E-13
 -1       840 2.61604E-03 3.04184E-04-5.10242E-15
 -1       841 1.39119E-02-5.14699E-04-1.09851E-13
 -1       842 1.11548E-03 9.07803E-05-1.26673E-15
 -1       843 8.01851E-03-1.61226E-04-3.33725E-14
 -1       844 1.40342E-02-9.34278E-04-1.11084E-13
 -1       845 7.73674E-03-6.56615E-05-3.17257E-14
 -1       846 4.37776E-03 4.77540E-04-1.33011E-14
 -1       847 3.50059E-03-2.38177E-04-1.13552E-14
 -1       848 3.48136E-03 7.95442E-05-1.09128E-14
 -1       849 1.13359E-03 1.42690E-04-1.21232E-15
 -1       850 3.89489E-03 2.27997E-04-1.20607E-14
 -1       851 1.49920E-03 2.67573E-04-1.74213E-15
 -1       852 1.11269E-03-9.11783E-05-1.37227E-15
 -1       853 2.15372E-03-1.96461E-04-4.43113E-15
 -1       854 2.42231E-03-2.00915E-04-5.52915E-15
 -1       855 2.68773E-03-2.06166E-04-6.74002E-15
 -1       856 2.95097E-03-2.14621E-04-8.06148E-15
 -1       857 3.21489E-03-2.29698E-04-9.48660E-15
 -1       858 8.02675E-03-3.54148E-04-3.54545E-14
 -1       859 8.28203E-03-3.65749E-04-3.83339E-14
 -1       860 8.53756E-03-3.84714E-04-4.12912E-14
 -1       861 8.79607E-03-4.08405E-04-4.43230E-14
 -1       862 9.05850E-03-4.35414E-04-4.74300E-14
 -1       863 9.32493E-03-4.64674E-04-5.06011E-14
 -1       864 9.59507E-03-4.95297E-04-5.38357E-14
 -1       865 9.86848E-03-5.26558E-04-5.71346E-14
 -1       866 1.01446E-02-5.57908E-04-6.04951E-14
 -1       867 1.04231E-02-5.88957E-04-6.39224E-14
 -1       868 1.07033E-02-6.19463E-04-6.74034E-14
 -1       869 1.09850E-02-6.49297E-04-7.09357E-14
 -1       870 1.12678E-02-6.78414E-04-7.45182E-14
 -1       871 1.15515E-02-7.06829E-04-7.81473E-14
 -1       872 1.18357E-02-7.34595E-04-8.18197E-14
 -1       873 1.21205E-02-7.61784E-04-8.55250E-14
 -1       874 1.24056E-02-7.88477E-04-8.92607E-14
 -1       875 1.26910E-02-8.14756E-04-9.30183E-14
 -1       876 1.29765E-02-8.40696E-04-9.68159E-14
 -1       877 1.32621E-02-8.66369E-04-1.00643E-13
 -1       878 1.35478E-02-8.91836E-04-1.04495E-13
 -1       879 1.37910E-02-9.13098E-04-1.07784E-13
 -1       880 1.39127E-02-3.75181E-04-1.09958E-13
 -1       881 3.94388E-03 3.54952E-04-1.13267E-14
 -1       882 7.33369E-03 1.97365E-04-3.07644E-14
 -1       883 7.96171E-03 7.78067E-05-3.63250E-14
 -1       884 8.25361E-03 4.21789E-05-3.92330E-14
 -1       885 8.53827E-03 1.47527E-05-4.22282E-14
 -1       886 8.81925E-03-7.58657E-06-4.52966E-14
 -1       887 9.09877E-03-2.68990E-05-4.84442E-14
 -1       888 9.37814E-03-4.45862E-05-5.16626E-14
 -1       889 9.65801E-03-6.16206E-05-5.49489E-14
 -1       890 9.93871E-03-7.86677E-05-5.82952E-14
 -1       891 1.02203E-02-9.61610E-05-6.16979E-14
 -1       892 1.05028E-02-1.14358E-04-6.51577E-14
 -1       893 1.07860E-02-1.33384E-04-6.86764E-14
 -1       894 1.10699E-02-1.53274E-04-7.22478E-14
 -1       895 1.13543E-02-1.73998E-04-7.58636E-14
 -1       896 1.16391E-02-1.95488E-04-7.95231E-14
 -1       897 1.19241E-02-2.17656E-04-8.32252E-14
 -1       898 1.22095E-02-2.40405E-04-8.69718E-14
 -1       899 1.24949E-02-2.63641E-04-9.07567E-14
 -1       900 1.27805E-02-2.87272E-04-9.45724E-14
 -1       901 1.30662E-02-3.11218E-04-9.84185E-14
 -1       902 1.33519E-02-3.35406E-04-1.02291E-13
 -1       903 1.37253E-02-7.02955E-04-1.07116E-13
 -1       904 7.65739E-03 1.26793E-04-3.35041E-14
 -1       905 8.13950E-03-2.22294E-04-3.45939E-14
 -1       906 3.20971E-03-1.52859E-04-1.02600E-14
 -1       907 1.37499E-02-7.87004E-04-1.07363E-13
 -1       908 1.85258E-03 2.16110E-04-2.86467E-15
 -1       909 2.99193E-03 2.41181E-04-7.03985E-15
 -1       910 1.88203E-03-1.90659E-04-3.44774E-15
 -1       911 8.06750E-03-2.66901E-04-3.43557E-14
 -1       912 1.10238E-03-4.52484E-05-1.36106E-15
 -1       913 3.17666E-03 3.77623E-06-9.90930E-15
 -1       914 6.50599E-03 5.40762E-04-2.51651E-14
 -1       915 7.47574E-03 6.60523E-05-3.08388E-14
 -1       916 1.60792E-03-1.81480E-04-2.58082E-15
 -1       917 2.13427E-03 2.22404E-04-3.73950E-15
 -1       918 1.33044E-03 2.28018E-05-1.87015E-15
 -1       919 3.02864E-03-1.09530E-04-9.37953E-15
 -1       920 3.01054E-03-3.35414E-05-9.23288E-15
 -1       921 1.36831E-03-1.63234E-04-1.93134E-15
 -1       922 2.70189E-03 2.31823E-04-5.82771E-15
 -1       923 1.40231E-03 2.15263E-04-1.65218E-15
 -1       924 3.60654E-03 2.93768E-04-9.79006E-15
 -1       925 1.57135E-03 2.05407E-04-2.10425E-15
 -1       926 1.37008E-02-6.18916E-04-1.06864E-13
 -1       927 1.36376E-02-3.59773E-04-1.06186E-13
 -1       928 7.98488E-03-1.14705E-04-3.40251E-14
 -1       929 1.34096E-03 7.37692E-05-1.82260E-15
 -1       930 1.34543E-03-1.07690E-04-1.93050E-15
 -1       931 3.29115E-03 2.59587E-04-8.36118E-15
 -1       932 3.24212E-03 5.55755E-05-9.72529E-15
 -1       933 3.64398E-03 1.63092E-04-1.10482E-14
 -1       934 8.17150E-03-1.98074E-04-3.51463E-14
 -1       935 1.36615E-02-4.43369E-04-1.06464E-13
 -1       936 2.50071E-03-1.45846E-04-6.09990E-15
 -1       937 2.74914E-03-1.49797E-04-7.35854E-15
 -1       938 8.27809E-03-2.84978E-04-3.72042E-14
 -1       939 8.50423E-03-3.05957E-04-4.01282E-14
 -1       940 8.74215E-03-3.29055E-04-4.31272E-14
 -1       941 8.98953E-03-3.54038E-04-4.62028E-14
 -1       942 9.24457E-03-3.80580E-04-4.93479E-14
 -1       943 9.50588E-03-4.08247E-04-5.25583E-14
 -1       944 9.77235E-03-4.36609E-04-5.58375E-14
 -1       945 1.00430E-02-4.65282E-04-5.91784E-14
 -1       946 1.03172E-02-4.93962E-04-6.25815E-14
 -1       947 1.05941E-02-5.22434E-04-6.60413E-14
 -1       948 1.08732E-02-5.50564E-04-6.95510E-14
 -1       949 1.11541E-02-5.78285E-04-7.31129E-14
 -1       950 1.14363E-02-6.05577E-04-7.67237E-14
 -1       951 1.17195E-02-6.32454E-04-8.03784E-14
 -1       952 1.20035E-02-6.58952E-04-8.40704E-14
 -1       953 1.22881E-02-6.85115E-04-8.77966E-14
 -1       954 1.25731E-02-7.10994E-04-9.15537E-14
 -1       955 1.28583E-02-7.36637E-04-9.53427E-14
 -1       956 1.31438E-02-7.62092E-04-9.91605E-14
 -1       957 1.34294E-02-7.87399E-04-1.03000E-13
 -1       958 1.68116E-03 1.52507E-04-2.56239E-15
 -1       959 2.41689E-03 2.26711E-04-4.72701E-15
 -1       960 8.74234E-03-6.51377E-05-4.40339E-14
 -1       961 8.19978E-03-2.13550E-05-3.80416E-14
 -1       962 9.01272E-03-8.36242E-05-4.71426E-14
 -1       963 9.28442E-03-1.01312E-04-5.03246E-14
 -1       964 9.55799E-03-1.18809E-04-5.35774E-14
 -1       965 9.83355E-03-1.36528E-04-5.68932E-14
 -1       966 1.01110E-02-1.54747E-04-6.02708E-14
 -1       967 1.03902E-02-1.73631E-04-6.37010E-14
 -1       968 1.06710E-02-1.93262E-04-6.71887E-14
 -1       969 1.09529E-02-2.13657E-04-7.07338E-14
 -1       970 1.12358E-02-2.34785E-04-7.43277E-14
 -1       971 1.15196E-02-2.56589E-04-7.79641E-14
 -1       972 1.18039E-02-2.78992E-04-8.16441E-14
 -1       973 1.20887E-02-3.01914E-04-8.53674E-14
 -1       974 1.23738E-02-3.25272E-04-8.91275E-14
 -1       975 1.26591E-02-3.48988E-04-9.29231E-14
 -1       976 1.29447E-02-3.72992E-04-9.67519E-14
 -1       977 1.32303E-02-3.97221E-04-1.00610E-13
 -1       978 7.79453E-03-1.67260E-05-3.33654E-14
 -1       979 1.36766E-02-5.35401E-04-1.06605E-13
 -1       980 1.71632E-03-1.32721E-04-2.99708E-15
 -1       981 1.34902E-02-7.23287E-04-1.03891E-13
 -1       982 1.32915E-03-2.64823E-05-1.90491E-15
 -1       983 1.33729E-03 1.44465E-04-1.66898E-15
 -1       984 1.33425E-03-6.62942E-05-1.92182E-15
 -1       985 1.53078E-03-1.20790E-04-2.43592E-15
 -1       986 1.98284E-03-1.38524E-04-3.91759E-15
 -1       987 7.72031E-03 5.33314E-05-3.34398E-14
 -1       988 1.34459E-02-4.20253E-04-1.03532E-13
 -1       989 8.47211E-03-4.49253E-05-4.09963E-14
 -1       990 2.24481E-03-1.42473E-04-4.95260E-15
 -1       991 3.02406E-03-1.60984E-04-8.89615E-15
 -1       992 2.90459E-03-7.17612E-05-8.65357E-15
 -1       993 2.77809E-03 1.58978E-04-6.57440E-15
 -1       994 1.95603E-03 1.57472E-04-3.39719E-15
 -1       995 8.34231E-03-2.47417E-04-3.76163E-14
 -1       996 1.34656E-02-6.39388E-04-1.03638E-13
 -1       997 3.05634E-03 1.62077E-04-7.85366E-15
 -1       998 7.96575E-03 1.11126E-05-3.57129E-14
 -1       999 1.56551E-03 5.02387E-05-2.47444E-15
 -1      1000 2.99102E-03 1.78630E-05-8.65649E-15
 -1      1001 3.37351E-03 1.19703E-04-9.85494E-15
 -1      1002 8.17929E-03-1.62338E-04-3.58202E-14
 -1      1003 1.55762E-03-3.28715E-06-2.52640E-15
 -1      1004 2.78485E-03-9.95523E-05-7.80814E-15
 -1      1005 3.06025E-03 9.39203E-05-8.38282E-15
 -1      1006 2.50374E-03 1.58930E-04-5.40364E-15
 -1      1007 8.62774E-03-2.69325E-04-4.14224E-14
 -1      1008 8.86384E-03-2.90943E-04-4.44554E-14
 -1      1009 9.11050E-03-3.14225E-04-4.75622E-14
 -1      1010 9.36524E-03-3.38747E-04-5.07380E-14
 -1      1011 9.62646E-03-3.64204E-04-5.39820E-14
 -1      1012 9.89292E-03-3.90271E-04-5.72918E-14
 -1      1013 1.01637E-02-4.16672E-04-6.06632E-14
 -1      1014 1.04378E-02-4.43197E-04-6.40905E-14
 -1      1015 1.07148E-02-4.69696E-04-6.75713E-14
 -1      1016 1.09940E-02-4.96076E-04-7.11038E-14
 -1      1017 1.12749E-02-5.22284E-04-7.46879E-14
 -1      1018 1.15572E-02-5.48299E-04-7.83182E-14
 -1      1019 1.18405E-02-5.74122E-04-8.19915E-14
 -1      1020 1.21245E-02-5.99766E-04-8.56993E-14
 -1      1021 1.24091E-02-6.25251E-04-8.94415E-14
 -1      1022 1.26942E-02-6.50600E-04-9.32196E-14
 -1      1023 1.29795E-02-6.75837E-04-9.70275E-14
 -1      1024 1.32348E-02-6.99588E-04-1.00451E-13
 -1      1025 2.23017E-03 1.59086E-04-4.34443E-15
 -1      1026 9.19396E-03-1.54137E-04-4.89946E-14
 -1      1027 8.93109E-03-1.36396E-04-4.58494E-14
 -1      1028 9.73044E-03-1.91050E-04-5.54980E-14
 -1      1029 1.00035E-02-2.10392E-04-5.88444E-14
 -1      1030 1.02791E-02-2.30383E-04-6.22499E-14
 -1      1031 1.05571E-02-2.51030E-04-6.57096E-14
 -1      1032 1.08369E-02-2.72311E-04-6.92266E-14
 -1      1033 1.11182E-02-2.94185E-04-7.27934E-14
 -1      1034 1.14007E-02-3.16598E-04-7.64098E-14
 -1      1035 1.16842E-02-3.39486E-04-8.00670E-14
 -1      1036 1.19683E-02-3.62784E-04-8.37664E-14
 -1      1037 1.22530E-02-3.86427E-04-8.75054E-14
 -1      1038 1.25380E-02-4.10357E-04-9.12799E-14
 -1      1039 1.28233E-02-4.34517E-04-9.50913E-14
 -1      1040 1.31088E-02-4.58859E-04-9.89296E-14
 -1      1041 8.67186E-03-1.18941E-04-4.27728E-14
 -1      1042 1.34414E-02-5.56022E-04-1.03377E-13
 -1      1043 1.82800E-03-8.49908E-05-3.42275E-15
 -1      1044 2.55318E-03-9.48851E-05-6.51918E-15
 -1      1045 1.34436E-02-4.88165E-04-1.03458E-13
 -1      1046 2.82484E-03-1.79997E-05-7.96739E-15
 -1      1047 8.09552E-03-7.91988E-05-3.60866E-14
 -1      1048 1.83054E-03 5.05343E-05-3.30585E-15
 -1      1049 8.41589E-03-1.01481E-04-3.97715E-14
 -1      1050 9.46049E-03-1.72320E-04-5.22117E-14
 -1      1051 1.51658E-03-7.68739E-05-2.42568E-15
 -1      1052 2.30903E-03-9.09816E-05-5.33868E-15
 -1      1053 2.58559E-03 9.31333E-05-6.10353E-15
 -1      1054 2.80493E-03 5.45869E-05-7.37849E-15
 -1      1055 8.43324E-03-2.13666E-04-3.88650E-14
 -1      1056 1.67281E-03-8.11951E-05-2.90418E-15
 -1      1057 1.53422E-03-4.01047E-05-2.47972E-15
 -1      1058 2.07153E-03-8.82144E-05-4.33123E-15
 -1      1059 2.66853E-03-4.53019E-05-7.17075E-15
 -1      1060 1.31538E-02-6.03676E-04-9.94387E-14
 -1      1061 8.96792E-03-2.51892E-04-4.57818E-14
 -1      1062 9.21860E-03-2.72956E-04-4.89198E-14
 -1      1063 9.47639E-03-2.95234E-04-5.21296E-14
 -1      1064 9.73995E-03-3.18392E-04-5.54037E-14
 -1      1065 1.00082E-02-3.42179E-04-5.87436E-14
 -1      1066 1.02804E-02-3.66402E-04-6.21414E-14
 -1      1067 1.05557E-02-3.90914E-04-6.55943E-14
 -1      1068 1.08335E-02-4.15612E-04-6.90987E-14
 -1      1069 1.11134E-02-4.40423E-04-7.26540E-14
 -1      1070 1.13948E-02-4.65298E-04-7.62593E-14
 -1      1071 1.16775E-02-4.90205E-04-7.99102E-14
 -1      1072 1.19610E-02-5.15126E-04-8.36025E-14
 -1      1073 1.22453E-02-5.40049E-04-8.73274E-14
 -1      1074 1.25301E-02-5.64969E-04-9.10923E-14
 -1      1075 1.28152E-02-5.89885E-04-9.48903E-14
 -1      1076 1.04436E-02-3.06467E-04-6.42351E-14
 -1      1077 8.65304E-03-2.18946E-04-4.18048E-14
 -1      1078 9.10409E-03-2.02581E-04-4.76693E-14
 -1      1079 1.01684E-02-2.84391E-04-6.08007E-14
 -1      1080 9.89615E-03-2.62868E-04-5.74233E-14
 -1      1081 1.07213E-02-3.29025E-04-6.77229E-14
 -1      1082 1.10010E-02-3.52001E-04-7.12661E-14
 -1      1083 1.12822E-02-3.75336E-04-7.48522E-14
 -1      1084 1.15648E-02-3.98978E-04-7.84915E-14
 -1      1085 1.18482E-02-4.22879E-04-8.21709E-14
 -1      1086 1.21324E-02-4.46994E-04-8.58878E-14
 -1      1087 1.24171E-02-4.71285E-04-8.96439E-14
 -1      1088 1.27022E-02-4.95717E-04-9.34342E-14
 -1      1089 8.85081E-03-1.84366E-04-4.45550E-14
 -1      1090 2.09207E-03 4.84230E-05-4.24945E-15
 -1      1091 8.60438E-03-1.67468E-04-4.15110E-14
 -1      1092 2.61399E-03 1.86622E-05-6.64182E-15
 -1      1093 8.39635E-03-1.54796E-04-3.89171E-14
 -1      1094 1.84727E-03-1.31088E-05-3.47485E-15
 -1      1095 1.93616E-03-3.75282E-05-3.81623E-15
 -1      1096 9.62758E-03-2.41983E-04-5.41064E-14
 -1      1097 9.36331E-03-2.21842E-04-5.08519E-14
 -1      1098 2.37912E-03 4.41019E-05-5.43531E-15
 -1      1099 1.29875E-02-5.20263E-04-9.72545E-14
 -1      1100 2.43473E-03-3.88361E-05-5.93929E-15
 -1      1101 2.32394E-03 9.73980E-05-4.97458E-15
 -1      1102 2.17536E-03-4.05880E-05-4.76475E-15
 -1      1103 2.13470E-03-1.65332E-05-4.57034E-15
 -1      1104 0.00000E+00 0.00000E+00 0.00000E+00
 -1      1105 0.00000E+00 0.00000E+00 0.00000E+00
 -1      1106 0.00000E+00 0.00000E+00 0.00000E+00
 -1      1107 0.00000E+00 0.00000E+00 0.00000E+00
 -1      1108 0.00000E+00 0.00000E+00 0.00000E+00
 -1      1109 0.00000E+00 0.00000E+00 0.00000E+00
 -1      1110 0.00000E+00 0.00000E+00 0.00000E+00
 -1      1111 0.00000E+00 0.00000E+00 0.00000E+00
 -1      1112 0.00000E+00 0.00000E+00 0.00000E+00
 -1      1113 0.00000E+00 0.00000E+00 0.00000E+00
 -1      1114 0.00000E+00 0.00000E+00 0.00000E+00
 -1      1115 0.00000E+00 0.00000E+00 0.00000E+00
 -1      1116 0.00000E+00 0.00000E+00 0.00000E+00
 -1      1117 0.00000E+00 0.00000E+00 0.00000E+00
 -1      1118 0.00000E+00 0.00000E+00 0.00000E+00
 -1      1119 0.00000E+00 0.00000E+00 0.00000E+00
 -1      1120 0.00000E+00 0.00000E+00 0.00000E+00
 -1      1121 2.09976E-04-1.44748E-04 8.14507E-18
 -1      1122 5.50752E-04-3.23761E-04-7.07984E-17
 -1      1123 8.37932E-04-4.33967E-04-2.86663E-16
 -1      1124 1.11678E-03-5.04655E-04-6.59371E-16
 -1      1125 1.39568E-03-5.51619E-04-1.17834E-15
 -1      1126 1.67908E-03-5.83280E-04-1.83917E-15
 -1      1127 1.97009E-03-6.05258E-04-2.63828E-15
 -1      1128 2.27106E-03-6.22295E-04-3.57246E-15
 -1      1129 2.58387E-03-6.39180E-04-4.63976E-15
 -1      1130 2.90987E-03-6.61227E-04-5.83577E-15
 -1      1131 3.24942E-03-6.94526E-04-7.15464E-15
 -1      1132 3.60122E-03-7.45768E-04-8.58984E-15
 -1      1133 3.96120E-03-8.21244E-04-1.01394E-14
 -1      1134 4.32164E-03-9.24490E-04-1.18037E-14
 -1      1135 4.67134E-03-1.05244E-03-1.35832E-14
 -1      1136 4.99809E-03-1.19131E-03-1.54801E-14
 -1      1137 5.29427E-03-1.31578E-03-1.74960E-14
 -1      1138 5.56318E-03-1.39572E-03-1.96339E-14
 -1      1139 5.82073E-03-1.40967E-03-2.18941E-14
 -1      1140 6.08890E-03-1.35680E-03-2.42779E-14
 -1      1141 6.38447E-03-1.25753E-03-2.67753E-14
 -1      1142 6.71173E-03-1.14206E-03-2.93804E-14
 -1      1143 7.06377E-03-1.03659E-03-3.20874E-14
 -1      1144 7.42867E-03-9.56008E-04-3.48922E-14
 -1      1145 7.79520E-03-9.04422E-04-3.77947E-14
 -1      1146 8.15563E-03-8.79108E-04-4.07744E-14
 -1      1147 8.50587E-03-8.74546E-04-4.38246E-14
 -1      1148 8.84466E-03-8.84937E-04-4.69439E-14
 -1      1149 9.17245E-03-9.05345E-04-5.01288E-14
 -1      1150 9.49053E-03-9.31998E-04-5.33710E-14
 -1      1151 9.80051E-03-9.62203E-04-5.66701E-14
 -1      1152 1.01040E-02-9.94128E-04-6.00354E-14
 -1      1153 1.04024E-02-1.02659E-03-6.34653E-14
 -1      1154 1.06969E-02-1.05886E-03-6.69506E-14
 -1      1155 1.09885E-02-1.09052E-03-7.04892E-14
 -1      1156 1.12779E-02-1.12137E-03-7.40801E-14
 -1      1157 1.15659E-02-1.15136E-03-7.77137E-14
 -1      1158 1.18528E-02-1.18049E-03-8.13842E-14
 -1      1159 1.21391E-02-1.20883E-03-8.50872E-14
 -1      1160 1.24249E-02-1.23648E-03-8.88208E-14
 -1      1161 1.27104E-02-1.26353E-03-9.25955E-14
 -1      1162 1.29957E-02-1.29009E-03-9.64185E-14
 -1      1163 1.32811E-02-1.31625E-03-1.00272E-13
 -1      1164 1.35664E-02-1.34210E-03-1.04132E-13
 -1      1165 1.38518E-02-1.36772E-03-1.07988E-13
 -1      1166 1.41372E-02-1.39317E-03-1.11831E-13
 -1      1167 1.44228E-02-1.41851E-03-1.15675E-13
 -1      1168 1.47084E-02-1.44381E-03-1.19524E-13
 -1      1169 1.49940E-02-1.46911E-03-1.23377E-13
 -1      1170 1.52726E-02-1.49381E-03-1.27159E-13
 -1      1171 2.26558E-04 1.57038E-04 3.91804E-17
 -1      1172 5.52996E-04 3.28771E-04 4.09828E-17
 -1      1173 8.38872E-04 4.37162E-04-6.66378E-17
 -1      1174 1.11735E-03 5.08144E-04-2.98698E-16
 -1      1175 1.39556E-03 5.56116E-04-6.56864E-16
 -1      1176 1.67770E-03 5.89208E-04-1.14156E-15
 -1      1177 1.96644E-03 6.12980E-04-1.75256E-15
 -1      1178 2.26347E-03 6.32070E-04-2.48701E-15
 -1      1179 2.56984E-03 6.50899E-04-3.34323E-15
 -1      1180 2.88575E-03 6.73962E-04-4.32277E-15
 -1      1181 3.21035E-03 7.05788E-04-5.42716E-15
 -1      1182 3.54126E-03 7.50510E-04-6.65294E-15
 -1      1183 3.87417E-03 8.10874E-04-7.99668E-15
 -1      1184 4.20285E-03 8.86646E-04-9.45572E-15
 -1      1185 4.51993E-03 9.72718E-04-1.10329E-14
 -1      1186 4.81897E-03 1.05791E-03-1.27395E-14
 -1      1187 5.09741E-03 1.12602E-03-1.45748E-14
 -1      1188 5.35907E-03 1.16012E-03-1.65317E-14
 -1      1189 5.61407E-03 1.14899E-03-1.86129E-14
 -1      1190 5.87539E-03 1.09218E-03-2.08240E-14
 -1      1191 6.15364E-03 1.00028E-03-2.31634E-14
 -1      1192 6.45331E-03 8.90154E-04-2.56315E-14
 -1      1193 6.77246E-03 7.78447E-04-2.82189E-14
 -1      1194 7.10503E-03 6.77076E-04-3.09133E-14
 -1      1195 7.44383E-03 5.91962E-04-3.36991E-14
 -1      1196 7.78272E-03 5.24150E-04-3.65698E-14
 -1      1197 8.11746E-03 4.71746E-04-3.95269E-14
 -1      1198 8.44575E-03 4.31611E-04-4.25739E-14
 -1      1199 8.76678E-03 4.00452E-04-4.57055E-14
 -1      1200 9.08071E-03 3.75375E-04-4.89189E-14
 -1      1201 9.38825E-03 3.54080E-04-5.22032E-14
 -1      1202 9.69035E-03 3.34866E-04-5.55557E-14
 -1      1203 9.98801E-03 3.16541E-04-5.89555E-14
 -1      1204 1.02822E-02 2.98323E-04-6.24016E-14
 -1      1205 1.05736E-02 2.79730E-04-6.59059E-14
 -1      1206 1.08631E-02 2.60498E-04-6.94660E-14
 -1      1207 1.11511E-02 2.40510E-04-7.30863E-14
 -1      1208 1.14380E-02 2.19747E-04-7.67762E-14
 -1      1209 1.17243E-02 1.98249E-04-8.05017E-14
 -1      1210 1.20101E-02 1.76090E-04-8.42627E-14
 -1      1211 1.22956E-02 1.53356E-04-8.80577E-14
 -1      1212 1.25810E-02 1.30142E-04-9.18882E-14
 -1      1213 1.28664E-02 1.06536E-04-9.57519E-14
 -1      1214 1.31517E-02 8.26221E-05-9.96405E-14
 -1      1215 1.34371E-02 5.84761E-05-1.03547E-13
 -1      1216 1.37226E-02 3.41658E-05-1.07480E-13
 -1      1217 1.40081E-02 9.75218E-06-1.11441E-13
 -1      1218 1.42937E-02-1.47094E-05-1.15434E-13
 -1      1219 1.45794E-02-3.91707E-05-1.19443E-13
 -1      1220 1.48579E-02-6.29889E-05-1.23351E-13
 -1      1221 1.50056E-02-1.16724E-04-1.25376E-13
 -1      1222 1.50296E-02-2.01016E-04-1.25641E-13
 -1      1223 1.50536E-02-2.85344E-04-1.25885E-13
 -1      1224 1.50775E-02-3.69730E-04-1.26122E-13
 -1      1225 1.51015E-02-4.54174E-04-1.26349E-13
 -1      1226 1.51253E-02-5.37956E-04-1.26574E-13
 -1      1227 1.51493E-02-6.21780E-04-1.26814E-13
 -1      1228 1.51736E-02-7.06349E-04-1.27051E-13
 -1      1229 1.51980E-02-7.90933E-04-1.27272E-13
 -1      1230 1.52225E-02-8.75516E-04-1.27474E-13
 -1      1231 1.52472E-02-9.60086E-04-1.27681E-13
 -1      1232 1.52717E-02-1.04391E-03-1.27874E-13
 -1      1233 1.52964E-02-1.12769E-03-1.28085E-13
 -1      1234 1.53213E-02-1.21214E-03-1.28312E-13
 -1      1235 1.53463E-02-1.29652E-03-1.28508E-13
 -1      1236 1.53713E-02-1.38085E-03-1.28709E-13
 -1      1237 1.53961E-02-1.46443E-03-1.28920E-13
 -1      1238 7.82076E-03-9.19678E-05-2.53272E-14
 -1      1239 7.69040E-03 6.43646E-05-2.49652E-14
 -1      1240 7.45090E-03 2.25583E-04-2.43448E-14
 -1      1241 7.12563E-03 3.86252E-04-2.35145E-14
 -1      1242 6.73503E-03 5.35925E-04-2.25209E-14
 -1      1243 6.30528E-03 6.54341E-04-2.14259E-14
 -1      1244 5.85592E-03 7.28183E-04-2.02900E-14
 -1      1245 5.39281E-03 7.41298E-04-1.91550E-14
 -1      1246 4.92703E-03 6.92907E-04-1.80725E-14
 -1      1247 4.48249E-03 5.87943E-04-1.71090E-14
 -1      1248 4.06676E-03 4.42519E-04-1.62859E-14
 -1      1249 3.73316E-03 2.83985E-04-1.56916E-14
 -1      1250 3.50376E-03 1.31187E-04-1.53317E-14
 -1      1251 3.37916E-03-2.14308E-05-1.51808E-14
 -1      1252 3.37346E-03-1.77934E-04-1.52574E-14
 -1      1253 3.49551E-03-3.39131E-04-1.55604E-14
 -1      1254 3.73017E-03-5.05799E-04-1.60702E-14
 -1      1255 4.05021E-03-6.70883E-04-1.67561E-14
 -1      1256 4.45798E-03-8.32847E-04-1.76557E-14
 -1      1257 4.92697E-03-9.64551E-04-1.87367E-14
 -1      1258 5.39918E-03-1.03759E-03-1.98674E-14
 -1      1259 5.83724E-03-1.04551E-03-2.09364E-14
 -1      1260 6.25870E-03-9.95734E-04-2.19683E-14
 -1      1261 6.66544E-03-8.99955E-04-2.29434E-14
 -1      1262 7.02552E-03-7.77125E-04-2.37754E-14
 -1      1263 7.33541E-03-6.40044E-04-2.44614E-14
 -1      1264 7.58119E-03-5.00185E-04-2.49778E-14
 -1      1265 7.75033E-03-3.63180E-04-2.53036E-14
 -1      1266 7.83296E-03-2.29750E-04-2.54241E-14
 -1      1267 1.67093E-04-1.06732E-04-1.32679E-17
 -1      1268 1.14015E-04-5.27946E-05-3.58329E-17
 -1      1269 1.18893E-04-6.38822E-05-2.94361E-17
 -1      1270 1.09724E-04-3.84674E-05-4.60379E-17
 -1      1271 1.11717E-04-4.48802E-05-4.31377E-17
 -1      1272 2.29517E-04-9.85206E-05-1.01576E-16
 -1      1273 1.07609E-04-2.83042E-05-5.10253E-17
 -1      1274 1.08744E-04-3.30500E-05-4.96565E-17
 -1      1275 2.21571E-04-7.22660E-05-1.19208E-16
 -1      1276 1.06160E-04-2.03677E-05-5.36002E-17
 -1      1277 1.06935E-04-2.41475E-05-5.30852E-17
 -1      1278 2.17009E-04-5.30090E-05-1.28370E-16
 -1      1279 1.05115E-04-1.39726E-05-5.43863E-17
 -1      1280 1.05661E-04-1.70516E-05-5.43185E-17
 -1      1281 2.13851E-04-3.79142E-05-1.32584E-16
 -1      1282 1.04374E-04-8.44566E-06-5.47251E-17
 -1      1283 1.04739E-04-1.11443E-05-5.48471E-17
 -1      1284 2.11556E-04-2.54440E-05-1.34251E-16
 -1      1285 1.03969E-04-3.51451E-06-5.39797E-17
 -1      1286 1.04146E-04-5.96700E-06-5.42914E-17
 -1      1287 2.10022E-04-1.46175E-05-1.33913E-16
 -1      1288 1.03909E-04 1.18558E-06-5.29091E-17
 -1      1289 1.03898E-04-1.19818E-06-5.32885E-17
 -1      1290 2.09275E-04-4.78221E-06-1.32069E-16
 -1      1291 1.04192E-04 6.00829E-06-5.10659E-17
 -1      1292 1.03996E-04 3.52094E-06-5.14996E-17
 -1      1293 2.09324E-04 4.77625E-06-1.28708E-16
 -1      1294 1.04806E-04 1.13029E-05-4.89788E-17
 -1      1295 1.04431E-04 8.54028E-06-4.96294E-17
 -1      1296 2.10155E-04 1.47496E-05-1.24168E-16
 -1      1297 1.05720E-04 1.73138E-05-4.55636E-17
 -1      1298 1.05175E-04 1.41580E-05-4.66478E-17
 -1      1299 2.11720E-04 2.57270E-05-1.18178E-16
 -1      1300 1.06994E-04 2.46471E-05-4.07253E-17
 -1      1301 1.06225E-04 2.07749E-05-4.23788E-17
 -1      1302 2.14012E-04 3.85042E-05-1.09328E-16
 -1      1303 1.08767E-04 3.37670E-05-3.37187E-17
 -1      1304 1.07643E-04 2.89198E-05-3.64021E-17
 -1      1305 2.17161E-04 5.40992E-05-9.70225E-17
 -1      1306 1.11653E-04 4.57711E-05-2.30800E-17
 -1      1307 1.09696E-04 3.92841E-05-2.76201E-17
 -1      1308 2.21632E-04 7.37921E-05-7.95262E-17
 -1      1309 1.18167E-04 6.40770E-05-6.62719E-18
 -1      1310 1.13619E-04 5.37348E-05-1.45148E-17
 -1      1311 2.29403E-04 1.00631E-04-5.41288E-17
 -1      1312 1.57620E-04 1.06755E-04 1.81197E-17
 -1      1313 1.36749E-04 8.26125E-05 3.06287E-18
 -1      1314 2.58880E-04 1.44173E-04-2.41506E-17
 -1      1315 3.35790E-04 2.12855E-04 1.75912E-17
 -1      1316 4.23384E-04-2.50314E-04-8.04342E-17
 -1      1317 5.78511E-04-3.19562E-04-1.54417E-16
 -1      1318 7.28510E-04-3.74306E-04-2.70237E-16
 -1      1319 8.75286E-04-4.17780E-04-4.23869E-16
 -1      1320 6.19685E-04-3.09947E-04-2.49014E-16
 -1      1321 1.01979E-03-4.53114E-04-6.13252E-16
 -1      1322 1.16305E-03-4.81519E-04-8.39294E-16
 -1      1323 9.19988E-04-3.98674E-04-5.64070E-16
 -1      1324 1.30597E-03-5.04852E-04-1.10047E-15
 -1      1325 1.44915E-03-5.23707E-04-1.39760E-15
 -1      1326 1.21257E-03-4.56470E-04-1.02121E-15
 -1      1327 1.59315E-03-5.39174E-04-1.72911E-15
 -1      1328 1.73837E-03-5.51758E-04-2.09500E-15
 -1      1329 1.50339E-03-4.94321E-04-1.61821E-15
 -1      1330 1.88518E-03-5.62187E-04-2.49494E-15
 -1      1331 2.03385E-03-5.70999E-04-2.92839E-15
 -1      1332 1.79653E-03-5.19068E-04-2.35185E-15
 -1      1333 2.18467E-03-5.78805E-04-3.39487E-15
 -1      1334 2.33783E-03-5.86196E-04-3.89479E-15
 -1      1335 2.09481E-03-5.35914E-04-3.21866E-15
 -1      1336 2.49354E-03-5.93807E-04-4.42719E-15
 -1      1337 2.65194E-03-6.02296E-04-4.99125E-15
 -1      1338 2.40023E-03-5.49685E-04-4.21644E-15
 -1      1339 2.81313E-03-6.12413E-04-5.58698E-15
 -1      1340 2.97716E-03-6.24886E-04-6.21387E-15
 -1      1341 2.71423E-03-5.65512E-04-5.34129E-15
 -1      1342 3.14399E-03-6.40629E-04-6.86993E-15
 -1      1343 3.31347E-03-6.60403E-04-7.55593E-15
 -1      1344 3.03760E-03-5.89268E-04-6.58883E-15
 -1      1345 3.48538E-03-6.85252E-04-8.27094E-15
 -1      1346 3.65929E-03-7.15854E-04-9.01410E-15
 -1      1347 3.37031E-03-6.27721E-04-7.95531E-15
 -1      1348 3.83469E-03-7.53176E-04-9.78574E-15
 -1      1349 4.01080E-03-7.97548E-04-1.05861E-14
 -1      1350 3.71107E-03-6.88099E-04-9.43592E-15
 -1      1351 4.18678E-03-8.49405E-04-1.14150E-14
 -1      1352 4.36155E-03-9.08296E-04-1.22728E-14
 -1      1353 4.05690E-03-7.76508E-04-1.10306E-14
 -1      1354 4.53404E-03-9.73437E-04-1.31593E-14
 -1      1355 4.70306E-03-1.04308E-03-1.40747E-14
 -1      1356 4.40281E-03-8.94675E-04-1.27389E-14
 -1      1357 4.86767E-03-1.11465E-03-1.50195E-14
 -1      1358 5.02711E-03-1.18487E-03-1.59942E-14
 -1      1359 4.74224E-03-1.03522E-03-1.45626E-14
 -1      1360 5.18106E-03-1.24962E-03-1.69985E-14
 -1      1361 5.32987E-03-1.30493E-03-1.80334E-14
 -1      1362 5.06882E-03-1.17764E-03-1.65047E-14
 -1      1363 5.47428E-03-1.34669E-03-1.90996E-14
 -1      1364 5.61589E-03-1.37199E-03-2.01966E-14
 -1      1365 5.37999E-03-1.29017E-03-1.85686E-14
 -1      1366 5.75631E-03-1.37900E-03-2.13243E-14
 -1      1367 5.89781E-03-1.36762E-03-2.24826E-14
 -1      1368 5.68031E-03-1.34161E-03-2.07566E-14
 -1      1369 6.04205E-03-1.33947E-03-2.36710E-14
 -1      1370 6.19071E-03-1.29726E-03-2.48885E-14
 -1      1371 5.98047E-03-1.31805E-03-2.30671E-14
 -1      1372 6.34465E-03-1.24505E-03-2.61342E-14
 -1      1373 6.50426E-03-1.18685E-03-2.74079E-14
 -1      1374 6.29163E-03-1.23166E-03-2.54970E-14
 -1      1375 6.66932E-03-1.12688E-03-2.87082E-14
 -1      1376 6.83915E-03-1.06850E-03-3.00344E-14
 -1      1377 6.61882E-03-1.11318E-03-2.80388E-14
 -1      1378 7.01284E-03-1.01444E-03-3.13870E-14
 -1      1379 7.18924E-03-9.66609E-04-3.27624E-14
 -1      1380 6.95996E-03-9.94987E-04-3.06875E-14
 -1      1381 7.36729E-03-9.25939E-04-3.41624E-14
 -1      1382 7.54590E-03-8.93013E-04-3.55872E-14
 -1      1383 7.30898E-03-8.98760E-04-3.34365E-14
 -1      1384 7.72423E-03-8.67501E-04-3.70340E-14
 -1      1385 7.90151E-03-8.49179E-04-3.85027E-14
 -1      1386 7.65930E-03-8.33067E-04-3.62792E-14
 -1      1387 8.07720E-03-8.37162E-04-3.99898E-14
 -1      1388 8.25089E-03-8.30876E-04-4.14940E-14
 -1      1389 8.00593E-03-7.97073E-04-3.92080E-14
 -1      1390 8.42235E-03-8.29368E-04-4.30172E-14
 -1      1391 8.59142E-03-8.31994E-04-4.45578E-14
 -1      1392 8.34582E-03-7.85426E-04-4.22125E-14
 -1      1393 8.75808E-03-8.37957E-04-4.61167E-14
 -1      1394 8.92235E-03-8.46678E-04-4.76907E-14
 -1      1395 8.67765E-03-7.91708E-04-4.52906E-14
 -1      1396 9.08432E-03-8.57575E-04-4.92796E-14
 -1      1397 9.24412E-03-8.70175E-04-5.08854E-14
 -1      1398 9.00128E-03-8.10166E-04-4.84353E-14
 -1      1399 9.40190E-03-8.84090E-04-5.25058E-14
 -1      1400 9.55782E-03-8.98959E-04-5.41388E-14
 -1      1401 9.31728E-03-8.36295E-04-5.16406E-14
 -1      1402 9.71203E-03-9.14541E-04-5.57884E-14
 -1      1403 9.86471E-03-9.30572E-04-5.74537E-14
 -1      1404 9.62660E-03-8.66839E-04-5.49077E-14
 -1      1405 1.00160E-02-9.46915E-04-5.91352E-14
 -1      1406 1.01661E-02-9.63382E-04-6.08328E-14
 -1      1407 9.93031E-03-8.99574E-04-5.82358E-14
 -1      1408 1.03151E-02-9.79906E-04-6.25448E-14
 -1      1409 1.04631E-02-9.96358E-04-6.42715E-14
 -1      1410 1.02295E-02-9.33054E-04-6.16253E-14
 -1      1411 1.06103E-02-1.01271E-03-6.60125E-14
 -1      1412 1.07568E-02-1.02889E-03-6.77662E-14
 -1      1413 1.05250E-02-9.66389E-04-6.50752E-14
 -1      1414 1.09027E-02-1.04488E-03-6.95349E-14
 -1      1415 1.10480E-02-1.06065E-03-7.13164E-14
 -1      1416 1.08177E-02-9.99072E-04-6.85829E-14
 -1      1417 1.11928E-02-1.07619E-03-7.31085E-14
 -1      1418 1.13373E-02-1.09149E-03-7.49126E-14
 -1      1419 1.11082E-02-1.03085E-03-7.21400E-14
 -1      1420 1.14814E-02-1.10657E-03-7.67282E-14
 -1      1421 1.16252E-02-1.12140E-03-7.85526E-14
 -1      1422 1.13972E-02-1.06164E-03-7.57443E-14
 -1      1423 1.17688E-02-1.13602E-03-8.03859E-14
 -1      1424 1.19122E-02-1.15043E-03-8.22309E-14
 -1      1425 1.16850E-02-1.09144E-03-7.93925E-14
 -1      1426 1.20555E-02-1.16464E-03-8.40810E-14
 -1      1427 1.21986E-02-1.17865E-03-8.59369E-14
 -1      1428 1.19720E-02-1.12034E-03-8.30737E-14
 -1      1429 1.23416E-02-1.19250E-03-8.78064E-14
 -1      1430 1.24845E-02-1.20618E-03-8.96849E-14
 -1      1431 1.22584E-02-1.14844E-03-8.67913E-14
 -1      1432 1.26274E-02-1.21972E-03-9.15715E-14
 -1      1433 1.27702E-02-1.23313E-03-9.34679E-14
 -1      1434 1.25444E-02-1.17585E-03-9.05465E-14
 -1      1435 1.29130E-02-1.24641E-03-9.53774E-14
 -1      1436 1.30557E-02-1.25959E-03-9.72967E-14
 -1      1437 1.28301E-02-1.20269E-03-9.43392E-14
 -1      1438 1.31984E-02-1.27267E-03-9.92173E-14
 -1      1439 1.33412E-02-1.28567E-03-1.01142E-13
 -1      1440 1.31158E-02-1.22906E-03-9.81670E-14
 -1      1441 1.34839E-02-1.29859E-03-1.03071E-13
 -1      1442 1.36266E-02-1.31145E-03-1.04999E-13
 -1      1443 1.34013E-02-1.25505E-03-1.02012E-13
 -1      1444 1.37693E-02-1.32425E-03-1.06926E-13
 -1      1445 1.39121E-02-1.33701E-03-1.08851E-13
 -1      1446 1.36868E-02-1.28077E-03-1.05866E-13
 -1      1447 1.40548E-02-1.34973E-03-1.10776E-13
 -1      1448 1.41976E-02-1.36242E-03-1.12697E-13
 -1      1449 1.39724E-02-1.30628E-03-1.09719E-13
 -1      1450 1.43404E-02-1.37509E-03-1.14621E-13
 -1      1451 1.44832E-02-1.38774E-03-1.16546E-13
 -1      1452 1.42580E-02-1.33166E-03-1.13569E-13
 -1      1453 1.46260E-02-1.40039E-03-1.18470E-13
 -1      1454 1.47688E-02-1.41303E-03-1.20397E-13
 -1      1455 1.45436E-02-1.35696E-03-1.17417E-13
 -1      1456 1.49116E-02-1.42567E-03-1.22326E-13
 -1      1457 1.50545E-02-1.43833E-03-1.24259E-13
 -1      1458 1.48292E-02-1.38224E-03-1.21271E-13
 -1      1459 1.52603E-02-1.45238E-03-1.27065E-13
 -1      1460 1.51779E-02-1.40893E-03-1.26007E-13
 -1      1461 6.47427E-04 3.53216E-04-3.89771E-17
 -1      1462 4.95094E-04 2.90414E-04 4.62141E-18
 -1      1463 4.48831E-04 2.52625E-04-2.65087E-17
 -1      1464 9.39848E-04 4.42291E-04-2.17816E-16
 -1      1465 7.95163E-04 4.02189E-04-1.13164E-16
 -1      1466 7.53985E-04 3.66181E-04-1.52873E-16
 -1      1467 1.22496E-03 5.01476E-04-5.18899E-16
 -1      1468 1.08274E-03 4.74796E-04-3.52691E-16
 -1      1469 1.04805E-03 4.40651E-04-3.99949E-16
 -1      1470 1.50955E-03 5.41563E-04-9.44557E-16
 -1      1471 1.36696E-03 5.23463E-04-7.15939E-16
 -1      1472 1.33716E-03 4.90296E-04-7.68943E-16
 -1      1473 1.79759E-03 5.69212E-04-1.49620E-15
 -1      1474 1.65292E-03 5.56617E-04-1.20460E-15
 -1      1475 1.62629E-03 5.23747E-04-1.26158E-15
 -1      1476 2.09150E-03 5.89502E-04-2.17160E-15
 -1      1477 1.94368E-03 5.79987E-04-1.81821E-15
 -1      1478 1.91869E-03 5.46905E-04-1.87830E-15
 -1      1479 2.39277E-03 6.06986E-04-2.96947E-15
 -1      1480 2.24114E-03 5.98313E-04-2.55556E-15
 -1      1481 2.21638E-03 5.64626E-04-2.61813E-15
 -1      1482 2.70209E-03 6.26182E-04-3.88887E-15
 -1      1483 2.54639E-03 6.16092E-04-3.41391E-15
 -1      1484 2.52055E-03 5.81491E-04-3.47926E-15
 -1      1485 3.01931E-03 6.51729E-04-4.93163E-15
 -1      1486 2.85974E-03 6.37903E-04-4.39487E-15
 -1      1487 2.83164E-03 6.02156E-04-4.46130E-15
 -1      1488 3.34317E-03 6.88209E-04-6.09578E-15
 -1      1489 3.18052E-03 6.68404E-04-5.49872E-15
 -1      1490 3.14927E-03 6.31386E-04-5.56453E-15
 -1      1491 3.67099E-03 7.39482E-04-7.37882E-15
 -1      1492 3.50680E-03 7.11928E-04-6.72224E-15
 -1      1493 3.47201E-03 6.73692E-04-6.78728E-15
 -1      1494 3.99856E-03 8.07400E-04-8.77964E-15
 -1      1495 3.83513E-03 7.71520E-04-8.06450E-15
 -1      1496 3.79725E-03 7.32386E-04-8.12787E-15
 -1      1497 4.32043E-03 8.89913E-04-1.02957E-14
 -1      1498 4.16060E-03 8.47317E-04-9.52321E-15
 -1      1499 4.12114E-03 8.07959E-04-9.58520E-15
 -1      1500 4.63102E-03 9.79186E-04-1.19348E-14
 -1      1501 4.47749E-03 9.34547E-04-1.10996E-14
 -1      1502 4.43912E-03 8.95999E-04-1.11606E-14
 -1      1503 4.92655E-03 1.06107E-03-1.37029E-14
 -1      1504 4.78082E-03 1.02213E-03-1.28026E-14
 -1      1505 4.74703E-03 9.85589E-04-1.28607E-14
 -1      1506 5.20723E-03 1.11759E-03-1.55954E-14
 -1      1507 5.06856E-03 1.09350E-03-1.46339E-14
 -1      1508 5.04286E-03 1.05991E-03-1.46875E-14
 -1      1509 5.47829E-03 1.13284E-03-1.76106E-14
 -1      1510 5.34343E-03 1.13089E-03-1.65883E-14
 -1      1511 5.32836E-03 1.10044E-03-1.66392E-14
 -1      1512 5.74882E-03 1.09970E-03-1.97548E-14
 -1      1513 5.61295E-03 1.12208E-03-1.86662E-14
 -1      1514 5.60929E-03 1.09400E-03-1.87150E-14
 -1      1515 6.02826E-03 1.02330E-03-2.20263E-14
 -1      1516 5.88688E-03 1.06601E-03-2.08743E-14
 -1      1517 5.89344E-03 1.03887E-03-2.09194E-14
 -1      1518 6.32277E-03 9.18593E-04-2.44269E-14
 -1      1519 6.17340E-03 9.73312E-04-2.32101E-14
 -1      1520 6.18743E-03 9.45697E-04-2.32523E-14
 -1      1521 6.63350E-03 8.03830E-04-2.69526E-14
 -1      1522 6.47620E-03 8.61433E-04-2.56746E-14
 -1      1523 6.49415E-03 8.32444E-04-2.57128E-14
 -1      1524 6.95737E-03 6.94311E-04-2.95876E-14
 -1      1525 6.79410E-03 7.47753E-04-2.82574E-14
 -1      1526 6.81258E-03 7.17135E-04-2.82914E-14
 -1      1527 7.28911E-03 5.99311E-04-3.23257E-14
 -1      1528 7.12263E-03 6.44730E-04-3.09458E-14
 -1      1529 7.13905E-03 6.12704E-04-3.09753E-14
 -1      1530 7.62331E-03 5.22178E-04-3.51510E-14
 -1      1531 7.45623E-03 5.58530E-04-3.37274E-14
 -1      1532 7.46909E-03 5.25539E-04-3.37521E-14
 -1      1533 7.95569E-03 4.62166E-04-3.80605E-14
 -1      1534 7.78996E-03 4.90202E-04-3.65947E-14
 -1      1535 7.79876E-03 4.56714E-04-3.66165E-14
 -1      1536 8.28344E-03 4.16439E-04-4.10607E-14
 -1      1537 8.12028E-03 4.37738E-04-3.95500E-14
 -1      1538 8.12520E-03 4.04141E-04-3.95679E-14
 -1      1539 8.60519E-03 3.81538E-04-4.41433E-14
 -1      1540 8.44513E-03 3.97848E-04-4.25919E-14
 -1      1541 8.44676E-03 3.64416E-04-4.26067E-14
 -1      1542 8.92058E-03 3.54210E-04-4.73128E-14
 -1      1543 8.76368E-03 3.67106E-04-4.57175E-14
 -1      1544 8.76274E-03 3.34006E-04-4.57270E-14
 -1      1545 9.22993E-03 3.31768E-04-5.05523E-14
 -1      1546 9.07598E-03 3.42517E-04-4.89244E-14
 -1      1547 9.07315E-03 3.09827E-04-4.89264E-14
 -1      1548 9.53391E-03 3.12168E-04-5.38657E-14
 -1      1549 9.38254E-03 3.21713E-04-5.22005E-14
 -1      1550 9.37843E-03 2.89452E-04-5.21962E-14
 -1      1551 9.83335E-03 2.93946E-04-5.72370E-14
 -1      1552 9.68414E-03 3.02954E-04-5.55440E-14
 -1      1553 9.67924E-03 2.71100E-04-5.55329E-14
 -1      1554 1.01291E-02 2.76119E-04-6.06562E-14
 -1      1555 9.98164E-03 2.85028E-04-5.89410E-14
 -1      1556 9.97629E-03 2.53540E-04-5.89244E-14
 -1      1557 1.04219E-02 2.58062E-04-6.41320E-14
 -1      1558 1.02758E-02 2.67146E-04-6.23865E-14
 -1      1559 1.02703E-02 2.35972E-04-6.23697E-14
 -1      1560 1.07125E-02 2.39418E-04-6.76623E-14
 -1      1561 1.05675E-02 2.48828E-04-6.58907E-14
 -1      1562 1.05619E-02 2.17915E-04-6.58707E-14
 -1      1563 1.10015E-02 2.20008E-04-7.12492E-14
 -1      1564 1.08572E-02 2.29814E-04-6.94495E-14
 -1      1565 1.08517E-02 1.99112E-04-6.94288E-14
 -1      1566 1.12892E-02 1.99779E-04-7.48982E-14
 -1      1567 1.11454E-02 2.09996E-04-7.30646E-14
 -1      1568 1.11401E-02 1.79460E-04-7.30404E-14
 -1      1569 1.15760E-02 1.78753E-04-7.85981E-14
 -1      1570 1.14327E-02 1.89362E-04-7.67421E-14
 -1      1571 1.14275E-02 1.58955E-04-7.67083E-14
 -1      1572 1.18622E-02 1.56995E-04-8.23350E-14
 -1      1573 1.17192E-02 1.67960E-04-8.04632E-14
 -1      1574 1.17141E-02 1.37649E-04-8.04210E-14
 -1      1575 1.21481E-02 1.34594E-04-8.61097E-14
 -1      1576 1.20052E-02 1.45869E-04-8.42179E-14
 -1      1577 1.20003E-02 1.15629E-04-8.41730E-14
 -1      1578 1.24337E-02 1.11648E-04-8.99188E-14
 -1      1579 1.22909E-02 1.23184E-04-8.80099E-14
 -1      1580 1.22862E-02 9.29947E-05-8.79605E-14
 -1      1581 1.27192E-02 8.82529E-05-9.37635E-14
 -1      1582 1.25764E-02 1.00001E-04-9.18374E-14
 -1      1583 1.25719E-02 6.98471E-05-9.17852E-14
 -1      1584 1.30046E-02 6.44984E-05-9.76362E-14
 -1      1585 1.28619E-02 7.64153E-05-9.56944E-14
 -1      1586 1.28574E-02 4.62839E-05-9.56398E-14
 -1      1587 1.32901E-02 4.04668E-05-1.01531E-13
 -1      1588 1.31473E-02 5.25125E-05-9.95821E-14
 -1      1589 1.31429E-02 2.23945E-05-9.95215E-14
 -1      1590 1.35755E-02 1.62322E-05-1.05449E-13
 -1      1591 1.34328E-02 2.83707E-05-1.03488E-13
 -1      1592 1.34285E-02-1.74081E-06-1.03427E-13
 -1      1593 1.38611E-02-8.13961E-06-1.09392E-13
 -1      1594 1.37183E-02 4.05964E-06-1.07417E-13
 -1      1595 1.37140E-02-2.60504E-05-1.07353E-13
 -1      1596 1.41466E-02-3.25891E-05-1.13363E-13
 -1      1597 1.40038E-02-2.03580E-05-1.11373E-13
 -1      1598 1.39996E-02-5.04703E-05-1.11304E-13
 -1      1599 1.44323E-02-5.70630E-05-1.17356E-13
 -1      1600 1.42895E-02-4.48259E-05-1.15357E-13
 -1      1601 1.42852E-02-7.49429E-05-1.15281E-13
 -1      1602 1.47180E-02-8.15164E-05-1.21361E-13
 -1      1603 1.45751E-02-6.92941E-05-1.19359E-13
 -1      1604 1.45709E-02-9.94173E-05-1.19277E-13
 -1      1605 1.48699E-02-1.05133E-04-1.23479E-13
 -1      1606 1.49119E-02-2.11535E-04-1.23973E-13
 -1      1607 1.48999E-02-1.69379E-04-1.23844E-13
 -1      1608 1.49358E-02-2.95877E-04-1.24222E-13
 -1      1609 1.49239E-02-2.53701E-04-1.24100E-13
 -1      1610 1.47941E-02-2.22043E-04-1.22310E-13
 -1      1611 1.49598E-02-3.80263E-04-1.24467E-13
 -1      1612 1.49478E-02-3.38064E-04-1.24343E-13
 -1      1613 1.48181E-02-3.06387E-04-1.22564E-13
 -1      1614 1.49838E-02-4.64695E-04-1.24700E-13
 -1      1615 1.49718E-02-4.22473E-04-1.24586E-13
 -1      1616 1.48420E-02-3.90769E-04-1.22813E-13
 -1      1617 1.50074E-02-5.47735E-04-1.24935E-13
 -1      1618 1.49956E-02-5.06210E-04-1.24817E-13
 -1      1619 1.48658E-02-4.74469E-04-1.23055E-13
 -1      1620 1.50316E-02-6.32237E-04-1.25175E-13
 -1      1621 1.50195E-02-5.89983E-04-1.25055E-13
 -1      1622 1.48897E-02-5.58197E-04-1.23296E-13
 -1      1623 1.50559E-02-7.16760E-04-1.25410E-13
 -1      1624 1.50437E-02-6.74497E-04-1.25291E-13
 -1      1625 1.49139E-02-6.42664E-04-1.23535E-13
 -1      1626 1.50803E-02-8.01292E-04-1.25632E-13
 -1      1627 1.50681E-02-7.59026E-04-1.25525E-13
 -1      1628 1.49383E-02-7.27143E-04-1.23770E-13
 -1      1629 1.51049E-02-8.85821E-04-1.25841E-13
 -1      1630 1.50926E-02-8.43558E-04-1.25738E-13
 -1      1631 1.49627E-02-8.11628E-04-1.23997E-13
 -1      1632 1.51296E-02-9.70336E-04-1.26054E-13
 -1      1633 1.51172E-02-9.28081E-04-1.25947E-13
 -1      1634 1.49873E-02-8.96108E-04-1.24213E-13
 -1      1635 1.51540E-02-1.05339E-03-1.26248E-13
 -1      1636 1.51418E-02-1.01187E-03-1.26155E-13
 -1      1637 1.50118E-02-9.79859E-04-1.24422E-13
 -1      1638 1.51789E-02-1.13785E-03-1.26465E-13
 -1      1639 1.51664E-02-1.09562E-03-1.26353E-13
 -1      1640 1.50365E-02-1.06359E-03-1.24629E-13
 -1      1641 1.52039E-02-1.22226E-03-1.26677E-13
 -1      1642 1.51914E-02-1.18006E-03-1.26574E-13
 -1      1643 1.50614E-02-1.14800E-03-1.24837E-13
 -1      1644 1.52289E-02-1.30662E-03-1.26875E-13
 -1      1645 1.52164E-02-1.26444E-03-1.26778E-13
 -1      1646 1.50864E-02-1.23239E-03-1.25044E-13
 -1      1647 1.52096E-02-1.37886E-03-1.26493E-13
 -1      1648 1.51972E-02-1.33670E-03-1.26387E-13
 -1      1649 1.50672E-02-1.30465E-03-1.24659E-13
 -1      1650 1.50038E-02-1.36481E-03-1.23690E-13
 -1      1651 7.81257E-03-9.60236E-05-2.57684E-14
 -1      1652 7.84841E-03-1.41267E-04-2.58774E-14
 -1      1653 7.61672E-03 1.37275E-05-2.54129E-14
 -1      1654 7.72750E-03-4.55872E-05-2.56814E-14
 -1      1655 7.31516E-03 1.60161E-04-2.46752E-14
 -1      1656 7.45877E-03 9.11847E-05-2.50286E-14
 -1      1657 6.93137E-03 3.51787E-04-2.36448E-14
 -1      1658 7.11960E-03 2.61271E-04-2.41352E-14
 -1      1659 6.54552E-03 5.42517E-04-2.24840E-14
 -1      1660 6.72680E-03 4.62564E-04-2.29895E-14
 -1      1661 6.11110E-03 6.98880E-04-2.12779E-14
 -1      1662 6.30275E-03 6.29069E-04-2.18711E-14
 -1      1663 5.72987E-03 7.82030E-04-2.00419E-14
 -1      1664 5.90281E-03 7.54001E-04-2.05814E-14
 -1      1665 5.31779E-03 7.78844E-04-1.87836E-14
 -1      1666 5.51202E-03 7.93653E-04-1.93686E-14
 -1      1667 4.90539E-03 6.83864E-04-1.76808E-14
 -1      1668 5.08962E-03 7.35260E-04-1.81668E-14
 -1      1669 4.49731E-03 5.15591E-04-1.66138E-14
 -1      1670 4.69592E-03 6.00907E-04-1.70660E-14
 -1      1671 4.06727E-03 3.28781E-04-1.58223E-14
 -1      1672 4.25448E-03 4.16180E-04-1.61695E-14
 -1      1673 3.72167E-03 1.52698E-04-1.52080E-14
 -1      1674 3.87227E-03 2.24479E-04-1.54366E-14
 -1      1675 3.47241E-03 3.55761E-05-1.49457E-14
 -1      1676 3.56846E-03 8.99225E-05-1.50661E-14
 -1      1677 3.34913E-03-7.53012E-05-1.47973E-14
 -1      1678 3.38953E-03-2.92038E-05-1.48176E-14
 -1      1679 3.37865E-03-1.76731E-04-1.49748E-14
 -1      1680 3.34602E-03-1.29547E-04-1.48846E-14
 -1      1681 3.56325E-03-2.92986E-04-1.53043E-14
 -1      1682 3.45977E-03-2.34010E-04-1.51033E-14
 -1      1683 3.85935E-03-4.55539E-04-1.59265E-14
 -1      1684 3.71111E-03-3.80851E-04-1.56371E-14
 -1      1685 4.22632E-03-6.42932E-04-1.67160E-14
 -1      1686 4.04789E-03-5.55725E-04-1.63365E-14
 -1      1687 4.66358E-03-8.45850E-04-1.77374E-14
 -1      1688 4.45297E-03-7.51227E-04-1.72320E-14
 -1      1689 5.11563E-03-1.01123E-03-1.88980E-14
 -1      1690 4.91650E-03-9.41859E-04-1.83428E-14
 -1      1691 5.52583E-03-1.09243E-03-2.01281E-14
 -1      1692 5.33998E-03-1.06659E-03-1.95672E-14
 -1      1693 5.89569E-03-1.07949E-03-2.12573E-14
 -1      1694 5.73109E-03-1.09468E-03-2.07552E-14
 -1      1695 6.26996E-03-9.89772E-04-2.24142E-14
 -1      1696 6.09236E-03-1.04265E-03-2.18862E-14
 -1      1697 6.65014E-03-8.44944E-04-2.34401E-14
 -1      1698 6.48036E-03-9.15670E-04-2.29863E-14
 -1      1699 7.01321E-03-6.84626E-04-2.43052E-14
 -1      1700 6.85098E-03-7.60455E-04-2.39181E-14
 -1      1701 7.33669E-03-5.28423E-04-2.50226E-14
 -1      1702 7.19258E-03-5.98947E-04-2.47148E-14
 -1      1703 7.59982E-03-3.93839E-04-2.55462E-14
 -1      1704 7.48705E-03-4.52777E-04-2.53310E-14
 -1      1705 7.77910E-03-2.83852E-04-2.58561E-14
 -1      1706 7.70776E-03-3.31752E-04-2.57409E-14
 -1      1707 7.85482E-03-1.91280E-04-2.59371E-14
 -1      1708 7.83339E-03-2.32302E-04-2.59292E-14
 -1      1709 6.77101E-03 3.66410E-04-2.36218E-14
 -1      1710 7.16388E-03 1.54127E-04-2.48331E-14
 -1      1711 1.48657E-02-1.35262E-04-1.23392E-13
 -1      1712 1.47480E-02-1.45761E-04-1.21729E-13
 -1      1713 7.76856E-03-1.01805E-04-2.62571E-14
 -1      1714 7.51937E-03-7.30961E-06-2.57732E-14
 -1      1715 7.86079E-03-1.69123E-04-2.64078E-14
 -1      1716 6.35185E-03 5.76616E-04-2.23435E-14
 -1      1717 5.97180E-03 7.40307E-04-2.10243E-14
 -1      1718 5.60711E-03 8.14966E-04-1.96532E-14
 -1      1719 5.24052E-03 7.77347E-04-1.83694E-14
 -1      1720 4.84931E-03 6.37463E-04-1.71484E-14
 -1      1721 4.44100E-03 4.33513E-04-1.61110E-14
 -1      1722 4.01802E-03 2.24160E-04-1.52991E-14
 -1      1723 3.66951E-03 7.10279E-05-1.47903E-14
 -1      1724 3.42838E-03-3.16095E-05-1.45278E-14
 -1      1725 3.33700E-03-1.00881E-04-1.44874E-14
 -1      1726 3.41777E-03-1.73464E-04-1.46962E-14
 -1      1727 3.65589E-03-2.79927E-04-1.51421E-14
 -1      1728 3.99909E-03-4.50157E-04-1.58698E-14
 -1      1729 4.40628E-03-6.61775E-04-1.67805E-14
 -1      1730 4.85262E-03-8.83788E-04-1.78880E-14
 -1      1731 5.26377E-03-1.05536E-03-1.91524E-14
 -1      1732 5.62560E-03-1.12029E-03-2.04466E-14
 -1      1733 5.96860E-03-1.08029E-03-2.17058E-14
 -1      1734 6.31582E-03-9.52724E-04-2.29166E-14
 -1      1735 6.68666E-03-7.76818E-04-2.39790E-14
 -1      1736 7.04932E-03-5.96894E-04-2.48792E-14
 -1      1737 7.37686E-03-4.38337E-04-2.56086E-14
 -1      1738 7.64077E-03-3.17780E-04-2.61202E-14
 -1      1739 7.80964E-03-2.33489E-04-2.63931E-14
 -1      1740 2.87500E-04-1.68189E-04-6.86978E-17
 -1      1741 3.35480E-04-1.01567E-04-1.87567E-16
 -1      1742 3.40557E-04-1.18073E-04-1.78595E-16
 -1      1743 3.47123E-04-1.37604E-04-1.66981E-16
 -1      1744 3.56890E-04-1.60408E-04-1.50026E-16
 -1      1745 4.64739E-04-1.68373E-04-2.59192E-16
 -1      1746 3.23037E-04-5.26478E-05-2.03410E-16
 -1      1747 3.25387E-04-6.28102E-05-2.01553E-16
 -1      1748 3.19377E-04-3.43628E-05-2.05063E-16
 -1      1749 3.21043E-04-4.31088E-05-2.04535E-16
 -1      1750 4.33045E-04-6.38017E-05-3.00568E-16
 -1      1751 3.17086E-04-1.83874E-05-2.03586E-16
 -1      1752 3.18067E-04-2.61381E-05-2.04657E-16
 -1      1753 4.28133E-04-4.03650E-05-3.01408E-16
 -1      1754 3.16161E-04-3.60103E-06-2.00198E-16
 -1      1755 3.16454E-04-1.08953E-05-2.02014E-16
 -1      1756 4.25256E-04-1.95310E-05-2.98454E-16
 -1      1757 3.16598E-04 1.10370E-05-1.94885E-16
 -1      1758 3.16210E-04 3.68876E-06-1.98016E-16
 -1      1759 4.24408E-04 1.18750E-07-2.93073E-16
 -1      1760 3.18367E-04 2.65374E-05-1.87662E-16
 -1      1761 3.17315E-04 1.86344E-05-1.91551E-16
 -1      1762 4.25570E-04 1.99153E-05-2.84928E-16
 -1      1763 3.21367E-04 4.36103E-05-1.77701E-16
 -1      1764 3.19704E-04 3.48071E-05-1.83284E-16
 -1      1765 4.28655E-04 4.09732E-05-2.73585E-16
 -1      1766 3.25745E-04 6.39666E-05-1.63593E-16
 -1      1767 3.23364E-04 5.33745E-05-1.71494E-16
 -1      1768 4.33629E-04 6.47758E-05-2.58420E-16
 -1      1769 3.31794E-04 8.88183E-05-1.43955E-16
 -1      1770 3.28499E-04 7.57880E-05-1.54851E-16
 -1      1771 4.40707E-04 9.30904E-05-2.37115E-16
 -1      1772 3.40746E-04 1.20601E-04-1.15711E-16
 -1      1773 3.35716E-04 1.03772E-04-1.31446E-16
 -1      1774 4.50525E-04 1.27805E-04-2.07665E-16
 -1      1775 3.57252E-04 1.64454E-04-7.50268E-17
 -1      1776 3.47583E-04 1.40811E-04-9.76866E-17
 -1      1777 4.65583E-04 1.72369E-04-1.66303E-16
 -1      1778 4.12369E-04 2.20566E-04-4.49537E-17
 -1      1779 3.83150E-04 1.89403E-04-6.39273E-17
 -1      1780 5.03165E-04 2.25407E-04-1.28098E-16
 -1      1781 5.65641E-04 2.83706E-04-9.58977E-17
 -1      1782 3.44386E-04-1.79366E-04-1.13380E-16
 -1      1783 8.66983E-04 3.76940E-04-2.88466E-16
 -1      1784 7.17130E-04 3.34872E-04-1.77484E-16
 -1      1785 6.83570E-04 3.04369E-04-1.98030E-16
 -1      1786 4.65693E-04-2.19678E-04-1.96092E-16
 -1      1787 8.20811E-04-3.43216E-04-5.11540E-16
 -1      1788 9.70009E-04-3.78350E-04-7.08648E-16
 -1      1789 1.11743E-03-4.07068E-04-9.40152E-16
 -1      1790 1.26444E-03-4.30111E-04-1.20645E-15
 -1      1791 1.02274E-03-3.57105E-04-8.57902E-16
 -1      1792 1.41097E-03-4.48909E-04-1.50668E-15
 -1      1793 1.55775E-03-4.63850E-04-1.84103E-15
 -1      1794 1.31757E-03-4.03147E-04-1.39498E-15
 -1      1795 1.70496E-03-4.75953E-04-2.20870E-15
 -1      1796 1.85302E-03-4.85607E-04-2.60976E-15
 -1      1797 1.61190E-03-4.32907E-04-2.06607E-15
 -1      1798 2.00211E-03-4.93618E-04-3.04310E-15
 -1      1799 2.15253E-03-5.00416E-04-3.50905E-15
 -1      1800 1.90788E-03-4.51875E-04-2.86900E-15
 -1      1801 2.30442E-03-5.06757E-04-4.00788E-15
 -1      1802 2.45801E-03-5.13140E-04-4.53760E-15
 -1      1803 2.20730E-03-4.64905E-04-3.80078E-15
 -1      1804 2.61341E-03-5.20377E-04-5.09795E-15
 -1      1805 2.77075E-03-5.29065E-04-5.68955E-15
 -1      1806 2.51167E-03-4.76861E-04-4.85794E-15
 -1      1807 2.93017E-03-5.40134E-04-6.31202E-15
 -1      1808 3.09162E-03-5.54298E-04-6.96304E-15
 -1      1809 2.82229E-03-4.93128E-04-6.03737E-15
 -1      1810 3.25533E-03-5.72598E-04-7.64387E-15
 -1      1811 3.42094E-03-5.95852E-04-8.35309E-15
 -1      1812 3.14033E-03-5.19970E-04-7.33627E-15
 -1      1813 3.58887E-03-6.25083E-04-9.09021E-15
 -1      1814 3.75822E-03-6.61091E-04-9.85609E-15
 -1      1815 3.46681E-03-5.64573E-04-8.74862E-15
 -1      1816 3.92967E-03-7.04549E-04-1.06502E-14
 -1      1817 4.10165E-03-7.55893E-04-1.14727E-14
 -1      1818 3.80233E-03-6.34428E-04-1.02742E-14
 -1      1819 4.27498E-03-8.14900E-04-1.23227E-14
 -1      1820 4.44752E-03-8.81014E-04-1.32023E-14
 -1      1821 4.14629E-03-7.35301E-04-1.19119E-14
 -1      1822 4.61992E-03-9.52460E-04-1.41111E-14
 -1      1823 4.79000E-03-1.02690E-03-1.50485E-14
 -1      1824 4.49568E-03-8.67245E-04-1.36633E-14
 -1      1825 4.95782E-03-1.10082E-03-1.60154E-14
 -1      1826 5.12244E-03-1.16967E-03-1.70127E-14
 -1      1827 4.84402E-03-1.01872E-03-1.55309E-14
 -1      1828 5.28311E-03-1.22896E-03-1.80424E-14
 -1      1829 5.44164E-03-1.27386E-03-1.91022E-14
 -1      1830 5.18300E-03-1.16151E-03-1.75197E-14
 -1      1831 5.59674E-03-1.30108E-03-2.01930E-14
 -1      1832 5.75246E-03-1.30822E-03-2.13143E-14
 -1      1833 5.50899E-03-1.25562E-03-1.96323E-14
 -1      1834 5.90723E-03-1.29508E-03-2.24676E-14
 -1      1835 6.06568E-03-1.26381E-03-2.36505E-14
 -1      1836 5.82844E-03-1.27017E-03-2.18698E-14
 -1      1837 6.22639E-03-1.21752E-03-2.48630E-14
 -1      1838 6.39116E-03-1.16112E-03-2.61045E-14
 -1      1839 6.15404E-03-1.20319E-03-2.42323E-14
 -1      1840 6.55924E-03-1.09918E-03-2.73728E-14
 -1      1841 6.72988E-03-1.03611E-03-2.86697E-14
 -1      1842 6.49318E-03-1.08532E-03-2.67104E-14
 -1      1843 6.90310E-03-9.75644E-04-2.99921E-14
 -1      1844 7.07680E-03-9.20372E-04-3.13399E-14
 -1      1845 6.84251E-03-9.56387E-04-2.92989E-14
 -1      1846 7.25159E-03-8.72193E-04-3.27131E-14
 -1      1847 7.42531E-03-8.31835E-04-3.41084E-14
 -1      1848 7.19406E-03-8.45838E-04-3.19912E-14
 -1      1849 7.59876E-03-7.99647E-04-3.55268E-14
 -1      1850 7.77037E-03-7.75279E-04-3.69678E-14
 -1      1851 7.54116E-03-7.66793E-04-3.47789E-14
 -1      1852 7.94081E-03-7.58166E-04-3.84294E-14
 -1      1853 8.10917E-03-7.47582E-04-3.99110E-14
 -1      1854 7.88053E-03-7.20150E-04-3.76550E-14
 -1      1855 8.27586E-03-7.42614E-04-4.14118E-14
 -1      1856 8.44053E-03-7.42523E-04-4.29298E-14
 -1      1857 8.21151E-03-7.00834E-04-4.06125E-14
 -1      1858 8.60337E-03-7.46402E-04-4.44670E-14
 -1      1859 8.76435E-03-7.53632E-04-4.60216E-14
 -1      1860 8.53461E-03-7.02092E-04-4.36465E-14
 -1      1861 8.92353E-03-7.63469E-04-4.75914E-14
 -1      1862 9.08108E-03-7.75436E-04-4.91775E-14
 -1      1863 8.85075E-03-7.17620E-04-4.67505E-14
 -1      1864 9.23699E-03-7.88991E-04-5.07788E-14
 -1      1865 9.39150E-03-8.03782E-04-5.23952E-14
 -1      1866 9.16089E-03-7.42349E-04-4.99196E-14
 -1      1867 9.54458E-03-8.19444E-04-5.40272E-14
 -1      1868 9.69649E-03-8.35727E-04-5.56728E-14
 -1      1869 9.46595E-03-7.72531E-04-5.31485E-14
 -1      1870 9.84720E-03-8.52401E-04-5.73366E-14
 -1      1871 9.99696E-03-8.69293E-04-5.90152E-14
 -1      1872 9.76676E-03-8.05557E-04-5.64385E-14
 -1      1873 1.01457E-02-8.86272E-04-6.07099E-14
 -1      1874 1.02938E-02-9.03219E-04-6.24176E-14
 -1      1875 1.00641E-02-8.39697E-04-5.97938E-14
 -1      1876 1.04410E-02-9.20069E-04-6.41401E-14
 -1      1877 1.05876E-02-9.36746E-04-6.58781E-14
 -1      1878 1.03585E-02-8.73868E-04-6.32076E-14
 -1      1879 1.07336E-02-9.53225E-04-6.76291E-14
 -1      1880 1.08792E-02-9.69459E-04-6.93949E-14
 -1      1881 1.06507E-02-9.07435E-04-6.66797E-14
 -1      1882 1.10243E-02-9.85450E-04-7.11734E-14
 -1      1883 1.11690E-02-1.00117E-03-7.29620E-14
 -1      1884 1.09411E-02-9.40066E-04-7.02067E-14
 -1      1885 1.13134E-02-1.01664E-03-7.47637E-14
 -1      1886 1.14576E-02-1.03184E-03-7.65760E-14
 -1      1887 1.12302E-02-9.71630E-04-7.37851E-14
 -1      1888 1.16014E-02-1.04679E-03-7.83978E-14
 -1      1889 1.17451E-02-1.06150E-03-8.02300E-14
 -1      1890 1.15182E-02-1.00212E-03-7.74067E-14
 -1      1891 1.18886E-02-1.07599E-03-8.20695E-14
 -1      1892 1.20320E-02-1.09026E-03-8.39185E-14
 -1      1893 1.18055E-02-1.03160E-03-8.10678E-14
 -1      1894 1.21752E-02-1.10433E-03-8.57782E-14
 -1      1895 1.23183E-02-1.11821E-03-8.76457E-14
 -1      1896 1.20922E-02-1.06018E-03-8.47656E-14
 -1      1897 1.24614E-02-1.13193E-03-8.95238E-14
 -1      1898 1.26044E-02-1.14550E-03-9.14087E-14
 -1      1899 1.23785E-02-1.08798E-03-8.84997E-14
 -1      1900 1.27473E-02-1.15892E-03-9.33023E-14
 -1      1901 1.28902E-02-1.17222E-03-9.52071E-14
 -1      1902 1.26645E-02-1.11513E-03-9.22689E-14
 -1      1903 1.30331E-02-1.18541E-03-9.71180E-14
 -1      1904 1.31759E-02-1.19849E-03-9.90355E-14
 -1      1905 1.29503E-02-1.14173E-03-9.60707E-14
 -1      1906 1.33187E-02-1.21149E-03-1.00957E-13
 -1      1907 1.34615E-02-1.22442E-03-1.02883E-13
 -1      1908 1.32361E-02-1.16791E-03-9.99027E-14
 -1      1909 1.36043E-02-1.23727E-03-1.04807E-13
 -1      1910 1.37471E-02-1.25007E-03-1.06734E-13
 -1      1911 1.35218E-02-1.19376E-03-1.03749E-13
 -1      1912 1.38899E-02-1.26283E-03-1.08662E-13
 -1      1913 1.40327E-02-1.27554E-03-1.10587E-13
 -1      1914 1.38074E-02-1.21936E-03-1.07603E-13
 -1      1915 1.41755E-02-1.28823E-03-1.12512E-13
 -1      1916 1.43183E-02-1.30089E-03-1.14437E-13
 -1      1917 1.40930E-02-1.24479E-03-1.11455E-13
 -1      1918 1.44612E-02-1.31353E-03-1.16363E-13
 -1      1919 1.46040E-02-1.32617E-03-1.18289E-13
 -1      1920 1.43787E-02-1.27011E-03-1.15308E-13
 -1      1921 1.47325E-02-1.33917E-03-1.20020E-13
 -1      1922 1.48753E-02-1.35181E-03-1.21952E-13
 -1      1923 1.49070E-02-1.32173E-03-1.22433E-13
 -1      1924 1.46500E-02-1.29574E-03-1.18965E-13
 -1      1925 1.16090E-03 4.39004E-04-5.99306E-16
 -1      1926 1.01435E-03 4.11118E-04-4.28450E-16
 -1      1927 9.81660E-04 3.81579E-04-4.53115E-16
 -1      1928 1.45194E-03 4.80519E-04-1.03171E-15
 -1      1929 1.30640E-03 4.61897E-04-8.00101E-16
 -1      1930 1.27554E-03 4.33418E-04-8.27138E-16
 -1      1931 1.74384E-03 5.08467E-04-1.58800E-15
 -1      1932 1.59755E-03 4.95879E-04-1.29446E-15
 -1      1933 1.56813E-03 4.67994E-04-1.32316E-15
 -1      1934 2.03912E-03 5.28175E-04-2.26616E-15
 -1      1935 1.89092E-03 5.19086E-04-1.91158E-15
 -1      1936 1.86216E-03 4.91324E-04-1.94130E-15
 -1      1937 2.33940E-03 5.44352E-04-3.06683E-15
 -1      1938 2.18855E-03 5.36450E-04-2.65150E-15
 -1      1939 2.15958E-03 5.08395E-04-2.68092E-15
 -1      1940 2.64560E-03 5.61630E-04-3.98744E-15
 -1      1941 2.49171E-03 5.52597E-04-3.51229E-15
 -1      1942 2.46171E-03 5.23862E-04-3.54144E-15
 -1      1943 2.95799E-03 5.84784E-04-5.02867E-15
 -1      1944 2.80103E-03 5.72219E-04-4.49270E-15
 -1      1945 2.76933E-03 5.42437E-04-4.52107E-15
 -1      1946 3.27608E-03 6.18624E-04-6.18959E-15
 -1      1947 3.11641E-03 6.00144E-04-5.59412E-15
 -1      1948 3.08266E-03 5.68995E-04-5.61980E-15
 -1      1949 3.59845E-03 6.67419E-04-7.46793E-15
 -1      1950 3.43692E-03 6.41016E-04-6.81439E-15
 -1      1951 3.40127E-03 6.08299E-04-6.83768E-15
 -1      1952 3.92259E-03 7.33666E-04-8.86403E-15
 -1      1953 3.76061E-03 6.98411E-04-8.15153E-15
 -1      1954 3.72388E-03 6.64191E-04-8.17215E-15
 -1      1955 4.24497E-03 8.16160E-04-1.03761E-14
 -1      1956 4.08440E-03 7.73236E-04-9.60512E-15
 -1      1957 4.04812E-03 7.38040E-04-9.62206E-15
 -1      1958 4.56150E-03 9.07847E-04-1.20097E-14
 -1      1959 4.40435E-03 8.61598E-04-1.11778E-14
 -1      1960 4.37058E-03 8.26549E-04-1.11907E-14
 -1      1961 4.86874E-03 9.94731E-04-1.37681E-14
 -1      1962 4.71648E-03 9.52950E-04-1.28728E-14
 -1      1963 4.68724E-03 9.19652E-04-1.28818E-14
 -1      1964 5.16576E-03 1.05789E-03-1.56520E-14
 -1      1965 5.01839E-03 1.03036E-03-1.46942E-14
 -1      1966 4.99509E-03 1.00033E-03-1.46977E-14
 -1      1967 5.45543E-03 1.07947E-03-1.76601E-14
 -1      1968 5.31099E-03 1.07452E-03-1.66409E-14
 -1      1969 5.29408E-03 1.04840E-03-1.66388E-14
 -1      1970 5.74404E-03 1.05035E-03-1.97959E-14
 -1      1971 5.59916E-03 1.07110E-03-1.87117E-14
 -1      1972 5.58832E-03 1.04817E-03-1.87054E-14
 -1      1973 6.03851E-03 9.74868E-04-2.20608E-14
 -1      1974 5.88997E-03 1.01753E-03-2.09123E-14
 -1      1975 5.88462E-03 9.96117E-04-2.09013E-14
 -1      1976 6.34323E-03 8.68538E-04-2.44528E-14
 -1      1977 6.18936E-03 9.24381E-04-2.32402E-14
 -1      1978 6.18880E-03 9.02791E-04-2.32253E-14
 -1      1979 6.65864E-03 7.50911E-04-2.69690E-14
 -1      1980 6.49971E-03 8.10113E-04-2.56960E-14
 -1      1981 6.50290E-03 7.87358E-04-2.56760E-14
 -1      1982 6.98212E-03 6.38451E-04-2.95946E-14
 -1      1983 6.81968E-03 6.93402E-04-2.82692E-14
 -1      1984 6.82514E-03 6.69253E-04-2.82439E-14
 -1      1985 7.30978E-03 5.41123E-04-3.23221E-14
 -1      1986 7.14579E-03 5.87665E-04-3.09471E-14
 -1      1987 7.15184E-03 5.62347E-04-3.09172E-14
 -1      1988 7.63786E-03 4.62496E-04-3.51387E-14
 -1      1989 7.47407E-03 4.99518E-04-3.37185E-14
 -1      1990 7.47925E-03 4.73400E-04-3.36836E-14
 -1      1991 7.96356E-03 4.01770E-04-3.80408E-14
 -1      1992 7.80122E-03 4.30078E-04-3.65792E-14
 -1      1993 7.80453E-03 4.03504E-04-3.65396E-14
 -1      1994 8.28509E-03 3.55941E-04-4.10336E-14
 -1      1995 8.12497E-03 3.77215E-04-3.95265E-14
 -1      1996 8.12593E-03 3.50450E-04-3.94820E-14
 -1      1997 8.60159E-03 3.21356E-04-4.41055E-14
 -1      1998 8.44402E-03 3.37449E-04-4.25591E-14
 -1      1999 8.44262E-03 3.10685E-04-4.25102E-14
 -1      2000 8.91289E-03 2.94591E-04-4.72613E-14
 -1      2001 8.75789E-03 3.07164E-04-4.56735E-14
 -1      2002 8.75436E-03 2.80526E-04-4.56184E-14
 -1      2003 9.21925E-03 2.72827E-04-5.04900E-14
 -1      2004 9.06666E-03 2.83210E-04-4.88675E-14
 -1      2005 9.06136E-03 2.56775E-04-4.88052E-14
 -1      2006 9.52120E-03 2.53926E-04-5.37886E-14
 -1      2007 9.37073E-03 2.63107E-04-5.21305E-14
 -1      2008 9.36407E-03 2.36912E-04-5.20643E-14
 -1      2009 9.81938E-03 2.36368E-04-5.71477E-14
 -1      2010 9.67071E-03 2.45037E-04-5.54606E-14
 -1      2011 9.66304E-03 2.19092E-04-5.53888E-14
 -1      2012 1.01144E-02 2.19135E-04-6.05625E-14
 -1      2013 9.96724E-03 2.27747E-04-5.88486E-14
 -1      2014 9.95887E-03 2.02041E-04-5.87714E-14
 -1      2015 1.04069E-02 2.01591E-04-6.40336E-14
 -1      2016 1.02609E-02 2.10422E-04-6.22913E-14
 -1      2017 1.02521E-02 1.84934E-04-6.22105E-14
 -1      2018 1.06975E-02 1.83374E-04-6.75598E-14
 -1      2019 1.05524E-02 1.92576E-04-6.57894E-14
 -1      2020 1.05433E-02 1.67279E-04-6.57066E-14
 -1      2021 1.09865E-02 1.64312E-04-7.11411E-14
 -1      2022 1.08422E-02 1.73951E-04-6.93438E-14
 -1      2023 1.08330E-02 1.48816E-04-6.92575E-14
 -1      2024 1.12745E-02 1.44359E-04-7.47753E-14
 -1      2025 1.11306E-02 1.54444E-04-7.29499E-14
 -1      2026 1.11213E-02 1.29444E-04-7.28599E-14
 -1      2027 1.15615E-02 1.23546E-04-7.84591E-14
 -1      2028 1.14181E-02 1.34055E-04-7.66118E-14
 -1      2029 1.14088E-02 1.09163E-04-7.65146E-14
 -1      2030 1.18480E-02 1.01951E-04-8.21871E-14
 -1      2031 1.17049E-02 1.12840E-04-8.03179E-14
 -1      2032 1.16957E-02 8.80335E-05-8.02148E-14
 -1      2033 1.21342E-02 7.96704E-05-8.59524E-14
 -1      2034 1.19911E-02 9.08897E-05-8.40657E-14
 -1      2035 1.19820E-02 6.61492E-05-8.39584E-14
 -1      2036 1.24200E-02 5.68108E-05-8.97556E-14
 -1      2037 1.22771E-02 6.83068E-05-8.78498E-14
 -1      2038 1.22680E-02 4.36163E-05-8.77389E-14
 -1      2039 1.27057E-02 3.34751E-05-9.35936E-14
 -1      2040 1.25629E-02 4.51968E-05-9.16704E-14
 -1      2041 1.25539E-02 2.05430E-05-9.15561E-14
 -1      2042 1.29913E-02 9.75966E-06-9.74595E-14
 -1      2043 1.28485E-02 2.16598E-05-9.55224E-14
 -1      2044 1.28396E-02-2.96798E-06-9.54044E-14
 -1      2045 1.32769E-02-1.42486E-05-1.01348E-13
 -1      2046 1.31341E-02-2.21237E-06-9.94014E-14
 -1      2047 1.31252E-02-2.68226E-05-9.92815E-14
 -1      2048 1.35624E-02-3.84721E-05-1.05261E-13
 -1      2049 1.34196E-02-2.63374E-05-1.03303E-13
 -1      2050 1.34108E-02-5.09368E-05-1.03179E-13
 -1      2051 1.38480E-02-6.28419E-05-1.09196E-13
 -1      2052 1.37052E-02-5.06422E-05-1.07225E-13
 -1      2053 1.36964E-02-7.52363E-05-1.07098E-13
 -1      2054 1.41336E-02-8.72964E-05-1.13158E-13
 -1      2055 1.39908E-02-7.50617E-05-1.11174E-13
 -1      2056 1.39820E-02-9.96548E-05-1.11042E-13
 -1      2057 1.44193E-02-1.11780E-04-1.17138E-13
 -1      2058 1.42765E-02-9.95374E-05-1.15145E-13
 -1      2059 1.42677E-02-1.24133E-04-1.15009E-13
 -1      2060 1.46550E-02-1.34891E-04-1.20432E-13
 -1      2061 1.45122E-02-1.22659E-04-1.18433E-13
 -1      2062 1.45034E-02-1.47260E-04-1.18294E-13
 -1      2063 1.46893E-02-1.69013E-04-1.20885E-13
 -1      2064 1.47243E-02-4.01248E-04-1.21169E-13
 -1      2065 1.47123E-02-3.59059E-04-1.21041E-13
 -1      2066 1.47003E-02-3.16877E-04-1.20911E-13
 -1      2067 1.46884E-02-2.74701E-04-1.20782E-13
 -1      2068 1.45826E-02-3.27349E-04-1.19264E-13
 -1      2069 1.46948E-02-2.42934E-04-1.20899E-13
 -1      2070 1.46828E-02-2.00772E-04-1.20768E-13
 -1      2071 1.45899E-02-1.89894E-04-1.19473E-13
 -1      2072 1.45771E-02-2.53414E-04-1.19243E-13
 -1      2073 1.47479E-02-4.84214E-04-1.21414E-13
 -1      2074 1.47361E-02-4.42729E-04-1.21291E-13
 -1      2075 1.46064E-02-4.10993E-04-1.19525E-13
 -1      2076 1.47720E-02-5.68631E-04-1.21659E-13
 -1      2077 1.47600E-02-5.26421E-04-1.21535E-13
 -1      2078 1.46302E-02-4.94654E-04-1.19774E-13
 -1      2079 1.47963E-02-6.53062E-04-1.21900E-13
 -1      2080 1.47841E-02-6.10846E-04-1.21782E-13
 -1      2081 1.46543E-02-5.79042E-04-1.20023E-13
 -1      2082 1.48206E-02-7.37501E-04-1.22138E-13
 -1      2083 1.48084E-02-6.95282E-04-1.22019E-13
 -1      2084 1.46786E-02-6.63438E-04-1.20267E-13
 -1      2085 1.48451E-02-8.21942E-04-1.22367E-13
 -1      2086 1.48329E-02-7.79723E-04-1.22254E-13
 -1      2087 1.47030E-02-7.47838E-04-1.20505E-13
 -1      2088 1.48698E-02-9.06379E-04-1.22585E-13
 -1      2089 1.48574E-02-8.64162E-04-1.22476E-13
 -1      2090 1.47275E-02-8.32239E-04-1.20736E-13
 -1      2091 1.48941E-02-9.89373E-04-1.22795E-13
 -1      2092 1.48819E-02-9.47878E-04-1.22690E-13
 -1      2093 1.47520E-02-9.15920E-04-1.20955E-13
 -1      2094 1.49190E-02-1.07378E-03-1.23003E-13
 -1      2095 1.49065E-02-1.03158E-03-1.22900E-13
 -1      2096 1.47766E-02-9.99594E-04-1.21167E-13
 -1      2097 1.49439E-02-1.15817E-03-1.23210E-13
 -1      2098 1.49314E-02-1.11598E-03-1.23107E-13
 -1      2099 1.48015E-02-1.08397E-03-1.21376E-13
 -1      2100 1.49689E-02-1.24253E-03-1.23414E-13
 -1      2101 1.49564E-02-1.20035E-03-1.23312E-13
 -1      2102 1.48264E-02-1.16833E-03-1.21583E-13
 -1      2103 7.42654E-03-1.70118E-05-2.62204E-14
 -1      2104 7.58095E-03-7.24164E-05-2.66182E-14
 -1      2105 7.86083E-03-1.65512E-04-2.70595E-14
 -1      2106 7.86791E-03-1.80814E-04-2.71201E-14
 -1      2107 7.73105E-03-1.19317E-04-2.68665E-14
 -1      2108 7.81603E-03-1.41938E-04-2.69613E-14
 -1      2109 7.84792E-03-1.63474E-04-2.76732E-14
 -1      2110 7.02874E-03 1.65727E-04-2.50397E-14
 -1      2111 7.21671E-03 7.46809E-05-2.55941E-14
 -1      2112 6.60741E-03 4.05197E-04-2.35773E-14
 -1      2113 6.79649E-03 2.92953E-04-2.42447E-14
 -1      2114 3.28125E-04-7.42966E-05-1.98504E-16
 -1      2115 3.31423E-04-8.70229E-05-1.93842E-16
 -1      2116 4.49924E-04-1.25142E-04-2.82611E-16
 -1      2117 4.40083E-04-9.13636E-05-2.94903E-16
 -1      2118 5.84510E-03 7.87843E-04-2.06902E-14
 -1      2119 5.99934E-03 7.22643E-04-2.13899E-14
 -1      2120 5.53835E-03 8.37324E-04-1.93337E-14
 -1      2121 5.68909E-03 8.25224E-04-2.00056E-14
 -1      2122 5.75547E-03 8.16673E-04-2.03581E-14
 -1      2123 5.16709E-03 7.60891E-04-1.78919E-14
 -1      2124 5.33158E-03 8.11581E-04-1.84995E-14
 -1      2125 4.81575E-03 5.95519E-04-1.66770E-14
 -1      2126 4.99049E-03 6.88969E-04-1.72781E-14
 -1      2127 5.09479E-03 7.31097E-04-1.74030E-14
 -1      2128 4.36357E-03 3.51719E-04-1.55667E-14
 -1      2129 4.56938E-03 4.61767E-04-1.59919E-14
 -1      2130 3.97021E-03 1.50372E-04-1.47262E-14
 -1      2131 4.15960E-03 2.43163E-04-1.50941E-14
 -1      2132 3.59599E-03 5.87714E-06-1.42760E-14
 -1      2133 3.74184E-03 5.52410E-05-1.44057E-14
 -1      2134 3.39341E-03-6.44432E-05-1.40256E-14
 -1      2135 3.48033E-03-3.55401E-05-1.41492E-14
 -1      2136 3.53115E-03-2.97852E-05-1.37692E-14
 -1      2137 3.33424E-03-1.10791E-04-1.41753E-14
 -1      2138 3.33630E-03-9.32130E-05-1.40914E-14
 -1      2139 3.45487E-03-1.57789E-04-1.43058E-14
 -1      2140 3.37364E-03-1.33144E-04-1.41889E-14
 -1      2141 3.75870E-03-2.79053E-04-1.49744E-14
 -1      2142 3.60633E-03-2.17364E-04-1.46553E-14
 -1      2143 4.13432E-03-4.58567E-04-1.57737E-14
 -1      2144 3.94950E-03-3.66927E-04-1.53782E-14
 -1      2145 4.56408E-03-6.86191E-04-1.67362E-14
 -1      2146 4.36171E-03-5.71183E-04-1.62356E-14
 -1      2147 4.98756E-03-9.22042E-04-1.79234E-14
 -1      2148 4.79120E-03-8.10912E-04-1.73326E-14
 -1      2149 5.38180E-03-1.10106E-03-1.94185E-14
 -1      2150 5.21966E-03-1.03589E-03-1.87555E-14
 -1      2151 5.70642E-03-1.14485E-03-2.08303E-14
 -1      2152 5.56841E-03-1.14068E-03-2.02023E-14
 -1      2153 5.98891E-03-1.08118E-03-2.20902E-14
 -1      2154 5.84913E-03-1.12542E-03-2.14566E-14
 -1      2155 5.76815E-03-1.14909E-03-2.12034E-14
 -1      2156 6.36664E-03-9.06129E-04-2.35126E-14
 -1      2157 6.20507E-03-9.91459E-04-2.29291E-14
 -1      2158 6.73296E-03-7.05866E-04-2.46479E-14
 -1      2159 6.56387E-03-8.00328E-04-2.41572E-14
 -1      2160 7.09507E-03-5.22754E-04-2.55105E-14
 -1      2161 6.92736E-03-6.09412E-04-2.50891E-14
 -1      2162 7.42291E-03-3.66743E-04-2.63212E-14
 -1      2163 7.27466E-03-4.31746E-04-2.60029E-14
 -1      2164 7.68406E-03-2.65496E-04-2.67970E-14
 -1      2165 7.57334E-03-3.06220E-04-2.65961E-14
 -1      2166 7.83760E-03-2.05475E-04-2.70380E-14
 -1      2167 7.78048E-03-2.27535E-04-2.69619E-14
 -1      2168 6.22801E-03 6.10258E-04-2.23195E-14
 -1      2169 6.41328E-03 5.10129E-04-2.29437E-14
 -1      2170 6.48236E-03 4.48672E-04-2.35519E-14
 -1      2171 6.17299E-04-2.75001E-04-3.13714E-16
 -1      2172 6.09588E-03 6.71313E-04-2.19726E-14
 -1      2173 6.74316E-04-2.65543E-04-4.13217E-16
 -1      2174 7.66566E-03-1.12431E-04-2.73197E-14
 -1      2175 7.31714E-03 9.85208E-06-2.64291E-14
 -1      2176 1.49372E-02-1.27262E-03-1.22929E-13
 -1      2177 7.86216E-03-1.89279E-04-2.76896E-14
 -1      2178 6.88823E-03 2.17824E-04-2.49909E-14
 -1      2179 7.73607E-03-2.32963E-04-2.74397E-14
 -1      2180 7.49371E-03-3.17307E-04-2.69936E-14
 -1      2181 7.17262E-03-4.57484E-04-2.62150E-14
 -1      2182 6.81244E-03-6.42942E-04-2.52704E-14
 -1      2183 6.07692E-03-1.04852E-03-2.26713E-14
 -1      2184 5.48806E-03-1.13372E-03-1.97898E-14
 -1      2185 5.11596E-03-9.80497E-04-1.81785E-14
 -1      2186 4.69903E-03-7.35582E-04-1.67697E-14
 -1      2187 4.27475E-03-4.97023E-04-1.57298E-14
 -1      2188 3.86789E-03-3.01899E-04-1.48791E-14
 -1      2189 3.52366E-03-1.69323E-04-1.41393E-14
 -1      2190 3.35419E-03-8.13849E-05-1.37126E-14
 -1      2191 3.85661E-03 8.88868E-05-1.42033E-14
 -1      2192 4.70773E-03 5.25189E-04-1.61145E-14
 -1      2193 4.82037E-03 5.86690E-04-1.62337E-14
 -1      2194 4.60005E-03 4.57857E-04-1.55630E-14
 -1      2195 5.44006E-03 8.36908E-04-1.88379E-14
 -1      2196 4.27487E-03 2.84680E-04-1.49768E-14
 -1      2197 3.34476E-03-1.14742E-04-1.37894E-14
 -1      2198 6.45237E-03-8.47711E-04-2.41700E-14
 -1      2199 1.03495E-03 3.60386E-04-5.93113E-16
 -1      2200 8.86907E-04 3.29640E-04-4.28910E-16
 -1      2201 5.37967E-04-4.36298E-05-4.26254E-16
 -1      2202 5.40628E-04-5.72071E-05-4.27027E-16
 -1      2203 5.44024E-04-7.17185E-05-4.26634E-16
 -1      2204 5.48100E-04-8.72986E-05-4.24628E-16
 -1      2205 6.55453E-04-7.64056E-05-5.76999E-16
 -1      2206 5.34259E-04 6.19339E-06-4.13000E-16
 -1      2207 5.34141E-04-5.96699E-06-4.17621E-16
 -1      2208 5.36544E-04 3.11758E-05-4.00870E-16
 -1      2209 5.35067E-04 1.85331E-05-4.07592E-16
 -1      2210 6.45573E-04 1.46086E-05-5.55355E-16
 -1      2211 5.41394E-04 5.78124E-05-3.84377E-16
 -1      2212 5.38660E-04 4.41627E-05-3.93199E-16
 -1      2213 6.49383E-04 4.45004E-05-5.38293E-16
 -1      2214 5.48966E-04 8.86326E-05-3.61812E-16
 -1      2215 5.44858E-04 7.26753E-05-3.73968E-16
 -1      2216 6.56568E-04 7.72312E-05-5.14888E-16
 -1      2217 5.59513E-04 1.25077E-04-3.31183E-16
 -1      2218 5.53859E-04 1.06060E-04-3.47758E-16
 -1      2219 6.67259E-04 1.14955E-04-4.83663E-16
 -1      2220 5.74198E-04 1.69621E-04-2.89387E-16
 -1      2221 5.66287E-04 1.46198E-04-3.12060E-16
 -1      2222 6.81907E-04 1.59487E-04-4.41880E-16
 -1      2223 7.62352E-03-1.10743E-04-2.79913E-14
 -1      2224 7.75326E-03-1.45019E-04-2.82506E-14
 -1      2225 1.32911E-03 4.06566E-04-1.01061E-15
 -1      2226 1.18214E-03 3.85903E-04-7.86833E-16
 -1      2227 1.08983E-03 3.38552E-04-7.41093E-16
 -1      2228 9.30380E-04-3.08093E-04-7.74771E-16
 -1      2229 1.07776E-03-3.35349E-04-1.01236E-15
 -1      2230 5.99788E-03 7.23578E-04-2.17191E-14
 -1      2231 6.18590E-03 6.16465E-04-2.26588E-14
 -1      2232 1.22469E-03-3.57747E-04-1.28295E-15
 -1      2233 1.37169E-03-3.75734E-04-1.58718E-15
 -1      2234 1.13346E-03-3.13116E-04-1.17178E-15
 -1      2235 1.51855E-03-3.90255E-04-1.92436E-15
 -1      2236 1.66569E-03-4.01683E-04-2.29439E-15
 -1      2237 1.42585E-03-3.48166E-04-1.78349E-15
 -1      2238 1.81310E-03-4.10840E-04-2.69617E-15
 -1      2239 1.96109E-03-4.18100E-04-3.13023E-15
 -1      2240 1.71859E-03-3.70523E-04-2.52486E-15
 -1      2241 2.10973E-03-4.24211E-04-3.59544E-15
 -1      2242 2.25926E-03-4.29598E-04-4.09292E-15
 -1      2243 2.01242E-03-3.84587E-04-3.39311E-15
 -1      2244 2.40978E-03-4.35011E-04-4.62056E-15
 -1      2245 2.56151E-03-4.40970E-04-5.17815E-15
 -1      2246 2.30836E-03-3.94721E-04-4.38512E-15
 -1      2247 2.71461E-03-4.48280E-04-5.76556E-15
 -1      2248 2.86926E-03-4.57611E-04-6.38386E-15
 -1      2249 2.60766E-03-4.05579E-04-5.49823E-15
 -1      2250 3.02575E-03-4.69835E-04-7.03117E-15
 -1      2251 3.18415E-03-4.85834E-04-7.70669E-15
 -1      2252 2.91197E-03-4.22467E-04-6.72948E-15
 -1      2253 3.34500E-03-5.06492E-04-8.41047E-15
 -1      2254 3.50813E-03-5.32927E-04-9.14216E-15
 -1      2255 3.22357E-03-4.51657E-04-8.07602E-15
 -1      2256 3.67439E-03-5.65880E-04-9.90237E-15
 -1      2257 3.84313E-03-6.06591E-04-1.06899E-14
 -1      2258 3.54556E-03-5.00533E-04-9.53465E-15
 -1      2259 4.01545E-03-6.55319E-04-1.15049E-14
 -1      2260 4.18987E-03-7.12869E-04-1.23488E-14
 -1      2261 3.88136E-03-5.77314E-04-1.11033E-14
 -1      2262 4.36754E-03-7.78550E-04-1.32199E-14
 -1      2263 4.54586E-03-8.51751E-04-1.41206E-14
 -1      2264 4.23303E-03-6.88863E-04-1.27824E-14
 -1      2265 4.72519E-03-9.30339E-04-1.50509E-14
 -1      2266 4.90281E-03-1.01022E-03-1.60100E-14
 -1      2267 4.59757E-03-8.36261E-04-1.45746E-14
 -1      2268 5.07816E-03-1.08767E-03-1.70006E-14
 -1      2269 5.24984E-03-1.15480E-03-1.80227E-14
 -1      2270 4.96430E-03-1.00409E-03-1.64865E-14
 -1      2271 5.41647E-03-1.20688E-03-1.90760E-14
 -1      2272 5.58200E-03-1.23805E-03-2.01596E-14
 -1      2273 5.31883E-03-1.15071E-03-1.85219E-14
 -1      2274 5.74392E-03-1.24619E-03-2.12756E-14
 -1      2275 5.90918E-03-1.22961E-03-2.24241E-14
 -1      2276 5.65664E-03-1.21947E-03-2.06844E-14
 -1      2277 6.07520E-03-1.19018E-03-2.36035E-14
 -1      2278 6.24682E-03-1.13609E-03-2.48123E-14
 -1      2279 5.99507E-03-1.18060E-03-2.29768E-14
 -1      2280 6.42188E-03-1.07141E-03-2.60492E-14
 -1      2281 6.59965E-03-1.00317E-03-2.73148E-14
 -1      2282 6.34786E-03-1.05985E-03-2.53908E-14
 -1      2283 6.77966E-03-9.35679E-04-2.86083E-14
 -1      2284 6.95872E-03-8.73104E-04-2.99280E-14
 -1      2285 6.71491E-03-9.15082E-04-2.79203E-14
 -1      2286 7.13743E-03-8.17775E-04-3.12733E-14
 -1      2287 7.31312E-03-7.70827E-04-3.26421E-14
 -1      2288 7.08118E-03-7.88490E-04-3.05568E-14
 -1      2289 7.48687E-03-7.32935E-04-3.40345E-14
 -1      2290 7.65711E-03-7.03406E-04-3.54478E-14
 -1      2291 7.43517E-03-6.97789E-04-3.32919E-14
 -1      2292 7.82498E-03-6.82023E-04-3.68846E-14
 -1      2293 7.98980E-03-6.67640E-04-3.83408E-14
 -1      2294 7.77354E-03-6.43353E-04-3.61169E-14
 -1      2295 8.15240E-03-6.59608E-04-3.98174E-14
 -1      2296 8.31264E-03-6.56875E-04-4.13142E-14
 -1      2297 8.09810E-03-6.18613E-04-3.90253E-14
 -1      2298 8.47100E-03-6.58674E-04-4.28292E-14
 -1      2299 8.62759E-03-6.64197E-04-4.43626E-14
 -1      2300 8.41226E-03-6.15992E-04-4.20135E-14
 -1      2301 8.78265E-03-6.72745E-04-4.59117E-14
 -1      2302 8.93637E-03-6.83734E-04-4.74785E-14
 -1      2303 8.71907E-03-6.28816E-04-4.50746E-14
 -1      2304 9.08883E-03-6.96605E-04-4.90602E-14
 -1      2305 9.24026E-03-7.10952E-04-5.06589E-14
 -1      2306 9.02073E-03-6.51814E-04-4.82043E-14
 -1      2307 9.39066E-03-7.26370E-04-5.22729E-14
 -1      2308 9.54024E-03-7.42576E-04-5.38992E-14
 -1      2309 9.31871E-03-6.81055E-04-5.13974E-14
 -1      2310 9.68898E-03-7.59300E-04-5.55441E-14
 -1      2311 9.83707E-03-7.76351E-04-5.72034E-14
 -1      2312 9.61393E-03-7.13744E-04-5.46509E-14
 -1      2313 9.98446E-03-7.93561E-04-5.88777E-14
 -1      2314 1.01313E-02-8.10801E-04-6.05695E-14
 -1      2315 9.90703E-03-7.47972E-04-5.79658E-14
 -1      2316 1.02776E-02-8.27980E-04-6.22766E-14
 -1      2317 1.04235E-02-8.45013E-04-6.39969E-14
 -1      2318 1.01985E-02-7.82503E-04-6.13449E-14
 -1      2319 1.05690E-02-8.61858E-04-6.57301E-14
 -1      2320 1.07141E-02-8.78464E-04-6.74792E-14
 -1      2321 1.04885E-02-8.16580E-04-6.47843E-14
 -1      2322 1.08589E-02-8.94820E-04-6.92430E-14
 -1      2323 1.10034E-02-9.10898E-04-7.10196E-14
 -1      2324 1.07775E-02-8.49785E-04-6.82797E-14
 -1      2325 1.11476E-02-9.26707E-04-7.28059E-14
 -1      2326 1.12916E-02-9.42232E-04-7.46041E-14
 -1      2327 1.10657E-02-8.81926E-04-7.18291E-14
 -1      2328 1.14354E-02-9.57493E-04-7.64164E-14
 -1      2329 1.15791E-02-9.72486E-04-7.82364E-14
 -1      2330 1.13532E-02-9.12958E-04-7.54244E-14
 -1      2331 1.17226E-02-9.87237E-04-8.00635E-14
 -1      2332 1.18660E-02-1.00175E-03-8.19042E-14
 -1      2333 1.16401E-02-9.42928E-04-7.90635E-14
 -1      2334 1.20093E-02-1.01604E-03-8.37530E-14
 -1      2335 1.21525E-02-1.03013E-03-8.56100E-14
 -1      2336 1.19267E-02-9.71930E-04-8.27399E-14
 -1      2337 1.22957E-02-1.04403E-03-8.74775E-14
 -1      2338 1.24387E-02-1.05775E-03-8.93531E-14
 -1      2339 1.22130E-02-1.00009E-03-8.64553E-14
 -1      2340 1.25817E-02-1.07132E-03-9.12362E-14
 -1      2341 1.27247E-02-1.08475E-03-9.31259E-14
 -1      2342 1.24991E-02-1.02752E-03-9.02044E-14
 -1      2343 1.28677E-02-1.09805E-03-9.50257E-14
 -1      2344 1.30106E-02-1.11123E-03-9.69333E-14
 -1      2345 1.27850E-02-1.05436E-03-9.39810E-14
 -1      2346 1.31535E-02-1.12432E-03-9.88489E-14
 -1      2347 1.32963E-02-1.13732E-03-1.00769E-13
 -1      2348 1.30709E-02-1.08072E-03-9.77945E-14
 -1      2349 1.34392E-02-1.15024E-03-1.02690E-13
 -1      2350 1.35820E-02-1.16309E-03-1.04615E-13
 -1      2351 1.33566E-02-1.10671E-03-1.01631E-13
 -1      2352 1.37249E-02-1.17588E-03-1.06543E-13
 -1      2353 1.38677E-02-1.18863E-03-1.08470E-13
 -1      2354 1.36424E-02-1.13240E-03-1.05481E-13
 -1      2355 1.40106E-02-1.20134E-03-1.10399E-13
 -1      2356 1.41534E-02-1.21402E-03-1.12325E-13
 -1      2357 1.39281E-02-1.15789E-03-1.09337E-13
 -1      2358 1.42962E-02-1.22667E-03-1.14249E-13
 -1      2359 1.44391E-02-1.23931E-03-1.16176E-13
 -1      2360 1.42138E-02-1.18324E-03-1.13193E-13
 -1      2361 1.91773E-03 4.58013E-04-2.20806E-15
 -1      2362 1.76995E-03 4.48654E-04-1.86351E-15
 -1      2363 2.21564E-03 4.73471E-04-2.98836E-15
 -1      2364 2.06624E-03 4.66151E-04-2.58331E-15
 -1      2365 1.97219E-03 4.24518E-04-2.48158E-15
 -1      2366 2.51765E-03 4.88281E-04-3.88691E-15
 -1      2367 2.36608E-03 4.80699E-04-3.42274E-15
 -1      2368 2.26980E-03 4.38476E-04-3.30102E-15
 -1      2369 2.82465E-03 5.07184E-04-4.90448E-15
 -1      2370 2.67052E-03 4.96943E-04-4.38100E-15
 -1      2371 2.57118E-03 4.52688E-04-4.23779E-15
 -1      2372 3.13719E-03 5.35104E-04-6.04013E-15
 -1      2373 2.98028E-03 5.19728E-04-5.45705E-15
 -1      2374 2.87740E-03 4.71881E-04-5.29211E-15
 -1      2375 3.45535E-03 5.76825E-04-7.29233E-15
 -1      2376 3.29571E-03 5.53974E-04-6.65193E-15
 -1      2377 3.18948E-03 5.01009E-04-6.46381E-15
 -1      2378 3.77848E-03 6.36090E-04-8.66020E-15
 -1      2379 3.61654E-03 6.04104E-04-7.96143E-15
 -1      2380 3.50810E-03 5.44906E-04-7.75037E-15
 -1      2381 4.10474E-03 7.13914E-04-1.01442E-14
 -1      2382 3.94159E-03 6.72773E-04-9.38773E-15
 -1      2383 3.83324E-03 6.07348E-04-9.15198E-15
 -1      2384 4.43080E-03 8.06135E-04-1.17477E-14
 -1      2385 4.26824E-03 7.58742E-04-1.09306E-14
 -1      2386 4.16333E-03 6.89183E-04-1.06700E-14
 -1      2387 4.75220E-03 9.01096E-04-1.34724E-14
 -1      2388 4.59244E-03 8.54348E-04-1.25945E-14
 -1      2389 4.49459E-03 7.85512E-04-1.23060E-14
 -1      2390 5.06522E-03 9.79499E-04-1.53217E-14
 -1      2391 4.90975E-03 9.43793E-04-1.43814E-14
 -1      2392 4.82143E-03 8.82719E-04-1.40647E-14
 -1      2393 5.36976E-03 1.01959E-03-1.72964E-14
 -1      2394 5.21803E-03 1.00562E-03-1.62935E-14
 -1      2395 5.13926E-03 9.58646E-04-1.59474E-14
 -1      2396 5.67074E-03 1.00615E-03-1.93998E-14
 -1      2397 5.51983E-03 1.01996E-03-1.83322E-14
 -1      2398 5.44847E-03 9.89327E-04-1.79575E-14
 -1      2399 5.97560E-03 9.39346E-04-2.16329E-14
 -1      2400 5.82194E-03 9.78707E-04-2.04996E-14
 -1      2401 5.75568E-03 9.60704E-04-2.00971E-14
 -1      2402 6.28942E-03 8.34354E-04-2.39924E-14
 -1      2403 6.13115E-03 8.90201E-04-2.27963E-14
 -1      2404 6.06920E-03 8.77953E-04-2.23663E-14
 -1      2405 6.61209E-03 7.13395E-04-2.64763E-14
 -1      2406 6.44989E-03 7.74544E-04-2.52193E-14
 -1      2407 6.39278E-03 7.61837E-04-2.47627E-14
 -1      2408 6.93998E-03 5.95643E-04-2.90723E-14
 -1      2409 6.77583E-03 6.53196E-04-2.77615E-14
 -1      2410 6.72371E-03 6.36886E-04-2.72785E-14
 -1      2411 7.26867E-03 4.93031E-04-3.17731E-14
 -1      2412 7.10465E-03 5.42040E-04-3.04108E-14
 -1      2413 7.05650E-03 5.21310E-04-2.99049E-14
 -1      2414 7.59483E-03 4.09987E-04-3.45630E-14
 -1      2415 7.43235E-03 4.49023E-04-3.31560E-14
 -1      2416 7.38630E-03 4.24375E-04-3.26291E-14
 -1      2417 7.91666E-03 3.45945E-04-3.74387E-14
 -1      2418 7.75644E-03 3.75739E-04-3.59900E-14
 -1      2419 7.71053E-03 3.47994E-04-3.54418E-14
 -1      2420 8.23349E-03 2.97864E-04-4.04063E-14
 -1      2421 8.07576E-03 3.20127E-04-3.89124E-14
 -1      2422 8.02853E-03 2.90086E-04-3.83420E-14
 -1      2423 8.54530E-03 2.61927E-04-4.34515E-14
 -1      2424 8.39003E-03 2.78596E-04-4.19188E-14
 -1      2425 8.34065E-03 2.46946E-04-4.13277E-14
 -1      2426 8.85245E-03 2.34514E-04-4.65796E-14
 -1      2427 8.69943E-03 2.47344E-04-4.50058E-14
 -1      2428 8.64763E-03 2.14653E-04-4.43947E-14
 -1      2429 9.15543E-03 2.12611E-04-4.97834E-14
 -1      2430 9.00442E-03 2.23023E-04-4.81721E-14
 -1      2431 8.95031E-03 1.89741E-04-4.75402E-14
 -1      2432 9.45480E-03 1.93913E-04-5.30568E-14
 -1      2433 9.30552E-03 2.02973E-04-5.14119E-14
 -1      2434 9.24940E-03 1.69438E-04-5.07613E-14
 -1      2435 9.75113E-03 1.76762E-04-5.63933E-14
 -1      2436 9.60330E-03 1.85223E-04-5.47172E-14
 -1      2437 9.54556E-03 1.51679E-04-5.40493E-14
 -1      2438 1.00449E-02 1.60041E-04-5.97880E-14
 -1      2439 9.89830E-03 1.68401E-04-5.80829E-14
 -1      2440 9.83933E-03 1.35007E-04-5.73979E-14
 -1      2441 1.03367E-02 1.43039E-04-6.32417E-14
 -1      2442 1.01910E-02 1.51609E-04-6.15073E-14
 -1      2443 1.01312E-02 1.18459E-04-6.08060E-14
 -1      2444 1.06268E-02 1.25349E-04-6.67513E-14
 -1      2445 1.04819E-02 1.34300E-04-6.49905E-14
 -1      2446 1.04215E-02 1.01439E-04-6.42737E-14
 -1      2447 1.09157E-02 1.06771E-04-7.03151E-14
 -1      2448 1.07714E-02 1.16181E-04-6.85261E-14
 -1      2449 1.07105E-02 8.36201E-05-6.77961E-14
 -1      2450 1.12036E-02 8.72441E-05-7.39280E-14
 -1      2451 1.10598E-02 9.71296E-05-7.21154E-14
 -1      2452 1.09986E-02 6.48563E-05-7.13713E-14
 -1      2453 1.14908E-02 6.67948E-05-7.75911E-14
 -1      2454 1.13473E-02 7.71339E-05-7.57534E-14
 -1      2455 1.12860E-02 4.51231E-05-7.49941E-14
 -1      2456 1.17774E-02 4.55007E-05-8.12997E-14
 -1      2457 1.16342E-02 5.62501E-05-7.94412E-14
 -1      2458 1.15729E-02 2.44695E-05-7.86670E-14
 -1      2459 1.20637E-02 2.34646E-05-8.50501E-14
 -1      2460 1.19206E-02 3.45708E-05-8.31696E-14
 -1      2461 1.18594E-02 2.98618E-06-8.23830E-14
 -1      2462 1.23497E-02 7.97976E-07-8.88372E-14
 -1      2463 1.22067E-02 1.22050E-05-8.69384E-14
 -1      2464 1.21455E-02-1.92175E-05-8.61411E-14
 -1      2465 1.26356E-02-2.23890E-05-9.26604E-14
 -1      2466 1.24927E-02-1.07356E-05-9.07441E-14
 -1      2467 1.24315E-02-4.20273E-05-8.99347E-14
 -1      2468 1.29213E-02-4.59936E-05-9.65152E-14
 -1      2469 1.27785E-02-3.41440E-05-9.45847E-14
 -1      2470 1.27174E-02-6.53330E-05-9.37636E-14
 -1      2471 1.32070E-02-6.99228E-05-1.00391E-13
 -1      2472 1.30642E-02-5.79221E-05-9.84501E-14
 -1      2473 1.30031E-02-8.90331E-05-9.76210E-14
 -1      2474 1.34926E-02-9.40941E-05-1.04293E-13
 -1      2475 1.33498E-02-8.19822E-05-1.02341E-13
 -1      2476 1.32888E-02-1.13037E-04-1.01503E-13
 -1      2477 1.37783E-02-1.18435E-04-1.08218E-13
 -1      2478 1.36355E-02-1.06247E-04-1.06253E-13
 -1      2479 1.35745E-02-1.37264E-04-1.05409E-13
 -1      2480 1.40640E-02-1.42880E-04-1.12164E-13
 -1      2481 1.39211E-02-1.30647E-04-1.10186E-13
 -1      2482 1.38602E-02-1.61643E-04-1.09335E-13
 -1      2483 1.43496E-02-1.67372E-04-1.16127E-13
 -1      2484 1.42068E-02-1.55123E-04-1.14142E-13
 -1      2485 1.41459E-02-1.86113E-04-1.13279E-13
 -1      2486 1.44970E-02-1.79012E-04-1.18181E-13
 -1      2487 1.45125E-02-5.05074E-04-1.18135E-13
 -1      2488 1.45004E-02-4.62897E-04-1.18010E-13
 -1      2489 1.45367E-02-5.89432E-04-1.18385E-13
 -1      2490 1.45246E-02-5.47253E-04-1.18260E-13
 -1      2491 1.43948E-02-5.15479E-04-1.16499E-13
 -1      2492 1.44649E-02-3.37808E-04-1.17621E-13
 -1      2493 1.44529E-02-2.95642E-04-1.17483E-13
 -1      2494 1.44885E-02-4.21079E-04-1.17882E-13
 -1      2495 1.44767E-02-3.79621E-04-1.17753E-13
 -1      2496 1.43470E-02-3.47900E-04-1.15976E-13
 -1      2497 1.43708E-02-4.31510E-04-1.16242E-13
 -1      2498 1.45610E-02-6.73793E-04-1.18632E-13
 -1      2499 1.45488E-02-6.31613E-04-1.18511E-13
 -1      2500 1.44190E-02-5.99805E-04-1.16753E-13
 -1      2501 1.45854E-02-7.58155E-04-1.18875E-13
 -1      2502 1.45732E-02-7.15974E-04-1.18755E-13
 -1      2503 1.44433E-02-6.84129E-04-1.17004E-13
 -1      2504 1.46100E-02-8.42517E-04-1.19105E-13
 -1      2505 1.45977E-02-8.00336E-04-1.18992E-13
 -1      2506 1.44678E-02-7.68453E-04-1.17244E-13
 -1      2507 1.46342E-02-9.25448E-04-1.19323E-13
 -1      2508 1.46221E-02-8.83983E-04-1.19214E-13
 -1      2509 1.44922E-02-8.52063E-04-1.17473E-13
 -1      2510 1.46590E-02-1.00980E-03-1.19539E-13
 -1      2511 1.46466E-02-9.67627E-04-1.19432E-13
 -1      2512 1.45167E-02-9.35675E-04-1.17694E-13
 -1      2513 1.46840E-02-1.09415E-03-1.19752E-13
 -1      2514 1.46715E-02-1.05198E-03-1.19645E-13
 -1      2515 1.45415E-02-1.02000E-03-1.17913E-13
 -1      2516 1.47090E-02-1.17849E-03-1.19955E-13
 -1      2517 1.46965E-02-1.13632E-03-1.19851E-13
 -1      2518 1.45665E-02-1.10433E-03-1.18124E-13
 -1      2519 7.21621E-03 4.27256E-05-2.66783E-14
 -1      2520 7.40858E-03-3.54469E-05-2.73185E-14
 -1      2521 1.48087E-02-1.25962E-03-1.21191E-13
 -1      2522 7.88241E-03-1.86507E-04-2.84151E-14
 -1      2523 7.85191E-03-1.95087E-04-2.83312E-14
 -1      2524 1.62274E-03 4.37298E-04-1.54939E-15
 -1      2525 1.47584E-03 4.23577E-04-1.26463E-15
 -1      2526 1.67716E-03 4.06293E-04-1.78130E-15
 -1      2527 7.83513E-03-1.65130E-04-2.82283E-14
 -1      2528 7.87560E-03-1.74145E-04-2.83299E-14
 -1      2529 7.78585E-03-2.14608E-04-2.81926E-14
 -1      2530 7.69547E-03-2.38542E-04-2.80234E-14
 -1      2531 5.97045E-04-2.12983E-04-3.76408E-16
 -1      2532 7.93520E-04-2.71956E-04-5.93316E-16
 -1      2533 8.51966E-04-2.57625E-04-7.15384E-16
 -1      2534 5.85898E-04-1.84949E-04-3.94040E-16
 -1      2535 6.75875E-03 2.75464E-04-2.50977E-14
 -1      2536 6.96791E-03 1.61700E-04-2.59084E-14
 -1      2537 5.55464E-03-1.15595E-03-2.01004E-14
 -1      2538 5.40808E-03-1.11667E-03-1.93197E-14
 -1      2539 3.74343E-03 4.02294E-05-1.36059E-14
 -1      2540 3.94781E-03 1.23090E-04-1.39105E-14
 -1      2541 5.34718E-04-1.82136E-05-4.21456E-16
 -1      2542 5.35987E-04-3.06754E-05-4.24506E-16
 -1      2543 6.48535E-04-4.41465E-05-5.75047E-16
 -1      2544 6.45249E-04-1.44293E-05-5.67648E-16
 -1      2545 4.19916E-03 2.41566E-04-1.44209E-14
 -1      2546 4.38459E-03 3.38594E-04-1.48775E-14
 -1      2547 5.68054E-03 8.40901E-04-1.99952E-14
 -1      2548 5.80375E-03 8.05317E-04-2.06793E-14
 -1      2549 5.34431E-03 8.26875E-04-1.82670E-14
 -1      2550 5.50874E-03 8.52719E-04-1.90929E-14
 -1      2551 5.03388E-03 7.02503E-04-1.69037E-14
 -1      2552 5.17718E-03 7.71842E-04-1.75072E-14
 -1      2553 3.34692E-03-1.09850E-04-1.33181E-14
 -1      2554 3.31582E-03-1.02248E-04-1.33098E-14
 -1      2555 3.47020E-03-4.82620E-05-1.33147E-14
 -1      2556 3.57551E-03-1.90519E-05-1.34347E-14
 -1      2557 6.53892E-03-7.92491E-04-2.48829E-14
 -1      2558 6.37270E-03-8.94683E-04-2.42254E-14
 -1      2559 3.32136E-03-8.79397E-05-1.32439E-14
 -1      2560 3.37452E-03-7.45462E-05-1.31781E-14
 -1      2561 3.29643E-03-9.01271E-05-1.27796E-14
 -1      2562 3.60276E-03-1.82296E-04-1.38816E-14
 -1      2563 3.45779E-03-1.40770E-04-1.35462E-14
 -1      2564 3.96885E-03-3.26734E-04-1.46832E-14
 -1      2565 3.79039E-03-2.51875E-04-1.42942E-14
 -1      2566 4.36705E-03-5.28750E-04-1.55664E-14
 -1      2567 4.16810E-03-4.22335E-04-1.51217E-14
 -1      2568 4.79055E-03-7.82945E-04-1.67545E-14
 -1      2569 4.59946E-03-6.62647E-04-1.61746E-14
 -1      2570 5.21874E-03-1.03750E-03-1.83881E-14
 -1      2571 5.03038E-03-9.28490E-04-1.75690E-14
 -1      2572 5.82986E-03-1.14797E-03-2.16440E-14
 -1      2573 5.72065E-03-1.16538E-03-2.10145E-14
 -1      2574 6.17862E-03-1.00414E-03-2.34142E-14
 -1      2575 6.00585E-03-1.09044E-03-2.25627E-14
 -1      2576 6.91692E-03-5.74147E-04-2.61325E-14
 -1      2577 6.75338E-03-6.67455E-04-2.56773E-14
 -1      2578 7.24787E-03-4.08708E-04-2.71406E-14
 -1      2579 7.08329E-03-4.87606E-04-2.66356E-14
 -1      2580 7.02595E-03-5.25393E-04-2.70505E-14
 -1      2581 7.56933E-03-2.80432E-04-2.78030E-14
 -1      2582 7.43209E-03-3.30137E-04-2.75198E-14
 -1      2583 6.38402E-03 4.99277E-04-2.35413E-14
 -1      2584 6.54449E-03 3.99820E-04-2.41862E-14
 -1      2585 6.66197E-03 3.38981E-04-2.50832E-14
 -1      2586 6.27424E-03 5.71538E-04-2.32757E-14
 -1      2587 7.70183E-04 3.05140E-04-3.11871E-16
 -1      2588 6.20868E-04 2.61553E-04-2.00943E-16
 -1      2589 5.93554E-04 2.34960E-04-2.13385E-16
 -1      2590 8.26521E-04 2.90357E-04-4.21158E-16
 -1      2591 4.49924E-03 4.08165E-04-1.49883E-14
 -1      2592 6.66026E-04-1.13119E-04-5.72350E-16
 -1      2593 5.52955E-04-1.04247E-04-4.21091E-16
 -1      2594 5.58585E-04-1.22787E-04-4.15548E-16
 -1      2595 7.81196E-03-1.59111E-04-2.89098E-14
 -1      2596 7.54270E-03-8.38943E-05-2.82454E-14
 -1      2597 7.66024E-03-1.13699E-04-2.91838E-14
 -1      2598 7.46806E-03-4.91769E-05-2.84970E-14
 -1      2599 5.80042E-04 2.04178E-04-2.46127E-16
 -1      2600 6.28332E-03-9.57159E-04-2.41119E-14
 -1      2601 5.94337E-03-1.12342E-03-2.23643E-14
 -1      2602 5.29865E-03-1.08079E-03-1.86819E-14
 -1      2603 7.83383E-03-2.05282E-04-2.89201E-14
 -1      2604 4.91178E-03-8.63630E-04-1.69514E-14
 -1      2605 1.44361E-02-2.10010E-04-1.17306E-13
 -1      2606 1.44297E-02-2.41766E-04-1.17197E-13
 -1      2607 4.46666E-03-5.87491E-04-1.55503E-14
 -1      2608 6.98237E-04 2.22538E-04-3.65810E-16
 -1      2609 7.09446E-03 1.06359E-04-2.67863E-14
 -1      2610 1.46644E-02-1.26168E-03-1.19215E-13
 -1      2611 1.46946E-02-1.21257E-03-1.19706E-13
 -1      2612 1.45646E-02-1.18056E-03-1.17979E-13
 -1      2613 1.45359E-02-1.24869E-03-1.17484E-13
 -1      2614 4.05693E-03-3.66968E-04-1.45244E-14
 -1      2615 7.89528E-03-1.83577E-04-2.89751E-14
 -1      2616 1.38345E-03 3.79270E-04-1.20159E-15
 -1      2617 7.64889E-03-2.57197E-04-2.85562E-14
 -1      2618 6.66801E-03-7.26365E-04-2.57330E-14
 -1      2619 7.35482E-03-3.68201E-04-2.79468E-14
 -1      2620 5.63240E-03-1.17025E-03-2.05248E-14
 -1      2621 3.39898E-03-6.17875E-05-1.28488E-14
 -1      2622 3.38266E-03-1.19006E-04-1.30659E-14
 -1      2623 3.32365E-03-1.07906E-04-1.25940E-14
 -1      2624 3.42717E-03-1.32700E-04-1.28120E-14
 -1      2625 4.92001E-03 6.46604E-04-1.63316E-14
 -1      2626 4.99469E-03 6.98308E-04-1.64262E-14
 -1      2627 4.80684E-03 5.89131E-04-1.57713E-14
 -1      2628 5.26305E-03 8.09209E-04-1.77482E-14
 -1      2629 3.91364E-03 1.30749E-04-1.32155E-14
 -1      2630 4.05239E-03 1.76822E-04-1.38108E-14
 -1      2631 4.14137E-03 2.35300E-04-1.37085E-14
 -1      2632 3.65244E-03 1.51067E-05-1.31494E-14
 -1      2633 5.76626E-04-1.60243E-04-4.07335E-16
 -1      2634 5.91382E-03 7.66940E-04-2.13384E-14
 -1      2635 5.57577E-03 8.56093E-04-1.93990E-14
 -1      2636 3.68247E-03-2.10171E-04-1.36903E-14
 -1      2637 1.43119E-02-2.52228E-04-1.15551E-13
 -1      2638 1.44534E-02-1.20526E-03-1.16425E-13
 -1      2639 7.64304E-04 5.99209E-05-6.95678E-16
 -1      2640 7.60902E-04 4.22897E-05-7.08269E-16
 -1      2641 7.58480E-04 2.49997E-05-7.19260E-16
 -1      2642 7.57166E-04 8.16606E-06-7.28448E-16
 -1      2643 8.72953E-04 3.72937E-05-9.03520E-16
 -1      2644 7.88686E-04 1.43074E-04-6.22928E-16
 -1      2645 7.80999E-04 1.20026E-04-6.45141E-16
 -1      2646 8.07945E-04 1.95256E-04-5.68407E-16
 -1      2647 7.97689E-04 1.68074E-04-5.97761E-16
 -1      2648 9.13104E-04 1.72601E-04-7.79135E-16
 -1      2649 7.02904E-03 1.55120E-04-2.70795E-14
 -1      2650 7.24376E-03 4.91431E-05-2.78688E-14
 -1      2651 1.14611E-03 3.16247E-04-8.97706E-16
 -1      2652 9.99916E-04 2.92694E-04-6.90948E-16
 -1      2653 7.81943E-03-1.58866E-04-2.97593E-14
 -1      2654 7.88146E-03-1.73934E-04-2.97402E-14
 -1      2655 8.13030E-04 2.44984E-04-4.88555E-16
 -1      2656 6.41003E-03-9.01376E-04-2.50071E-14
 -1      2657 6.24412E-03-1.00248E-03-2.41788E-14
 -1      2658 1.33477E-03-3.07245E-04-1.64398E-15
 -1      2659 1.48001E-03-3.20586E-04-1.98383E-15
 -1      2660 1.62523E-03-3.31260E-04-2.35524E-15
 -1      2661 1.77066E-03-3.39585E-04-2.75820E-15
 -1      2662 1.53361E-03-2.93102E-04-2.18765E-15
 -1      2663 1.91618E-03-3.46218E-04-3.19223E-15
 -1      2664 2.06203E-03-3.51504E-04-3.65712E-15
 -1      2665 1.82157E-03-3.09033E-04-2.99408E-15
 -1      2666 2.20817E-03-3.56096E-04-4.15312E-15
 -1      2667 2.35487E-03-3.60406E-04-4.67900E-15
 -1      2668 2.10977E-03-3.19000E-04-3.92359E-15
 -1      2669 2.50218E-03-3.65102E-04-5.23401E-15
 -1      2670 2.65040E-03-3.70723E-04-5.81825E-15
 -1      2671 2.39876E-03-3.26741E-04-4.97268E-15
 -1      2672 2.79974E-03-3.77953E-04-6.43218E-15
 -1      2673 2.95055E-03-3.87553E-04-7.07510E-15
 -1      2674 2.68979E-03-3.36375E-04-6.13890E-15
 -1      2675 3.10328E-03-4.00199E-04-7.74566E-15
 -1      2676 3.25832E-03-4.17016E-04-8.44417E-15
 -1      2677 2.98510E-03-3.52677E-04-7.41945E-15
 -1      2678 3.41650E-03-4.38615E-04-9.17059E-15
 -1      2679 3.57805E-03-4.66603E-04-9.92477E-15
 -1      2680 3.28851E-03-3.81539E-04-8.81203E-15
 -1      2681 3.74429E-03-5.01491E-04-1.07065E-14
 -1      2682 3.91491E-03-5.45382E-04-1.15147E-14
 -1      2683 3.60562E-03-4.30749E-04-1.03136E-14
 -1      2684 4.09220E-03-5.97961E-04-1.23502E-14
 -1      2685 4.27334E-03-6.61480E-04-1.32132E-14
 -1      2686 3.94440E-03-5.10034E-04-1.19236E-14
 -1      2687 4.46024E-03-7.35573E-04-1.41053E-14
 -1      2688 4.64888E-03-8.19031E-04-1.50261E-14
 -1      2689 4.30991E-03-6.32595E-04-1.36420E-14
 -1      2690 5.14134E-03-1.03681E-03-1.76376E-14
 -1      2691 5.32780E-03-1.11417E-03-1.86715E-14
 -1      2692 5.62759E-03-1.19165E-03-2.05131E-14
 -1      2693 5.80378E-03-1.18693E-03-2.16377E-14
 -1      2694 5.98272E-03-1.14874E-03-2.27935E-14
 -1      2695 6.25906E-03-1.04705E-03-2.46229E-14
 -1      2696 6.44871E-03-9.67722E-04-2.58555E-14
 -1      2697 6.64156E-03-8.86045E-04-2.71187E-14
 -1      2698 6.83231E-03-8.11699E-04-2.84087E-14
 -1      2699 6.57389E-03-8.60940E-04-2.63173E-14
 -1      2700 7.02210E-03-7.47190E-04-2.97220E-14
 -1      2701 7.20480E-03-6.92932E-04-3.10635E-14
 -1      2702 6.96925E-03-7.02753E-04-2.88912E-14
 -1      2703 7.38322E-03-6.50374E-04-3.24271E-14
 -1      2704 7.55498E-03-6.17242E-04-3.38138E-14
 -1      2705 7.33932E-03-5.98775E-04-3.15654E-14
 -1      2706 7.72219E-03-5.93789E-04-3.52230E-14
 -1      2707 7.88435E-03-5.77452E-04-3.66523E-14
 -1      2708 7.67903E-03-5.41310E-04-3.43321E-14
 -1      2709 8.04293E-03-5.68176E-04-3.81025E-14
 -1      2710 8.19820E-03-5.64085E-04-3.95719E-14
 -1      2711 7.99538E-03-5.16708E-04-3.71835E-14
 -1      2712 8.35105E-03-5.64837E-04-4.10630E-14
 -1      2713 8.50191E-03-5.69255E-04-4.25733E-14
 -1      2714 8.29663E-03-5.14124E-04-4.01149E-14
 -1      2715 8.65122E-03-5.76877E-04-4.41001E-14
 -1      2716 8.79939E-03-5.86983E-04-4.56445E-14
 -1      2717 8.58929E-03-5.26220E-04-4.31267E-14
 -1      2718 8.94659E-03-5.99112E-04-4.72057E-14
 -1      2719 9.09314E-03-6.12823E-04-4.87828E-14
 -1      2720 8.87753E-03-5.48040E-04-4.62092E-14
 -1      2721 9.23907E-03-6.27725E-04-5.03772E-14
 -1      2722 9.38464E-03-6.43542E-04-5.19852E-14
 -1      2723 9.16374E-03-5.76056E-04-4.93585E-14
 -1      2724 9.52977E-03-6.59975E-04-5.36076E-14
 -1      2725 9.67469E-03-6.76851E-04-5.52472E-14
 -1      2726 9.44919E-03-6.07728E-04-5.25678E-14
 -1      2727 9.81929E-03-6.93959E-04-5.69021E-14
 -1      2728 9.96374E-03-7.11191E-04-5.85720E-14
 -1      2729 9.73447E-03-6.41253E-04-5.58402E-14
 -1      2730 1.01080E-02-7.28409E-04-6.02585E-14
 -1      2731 1.02521E-02-7.45548E-04-6.19620E-14
 -1      2732 1.00198E-02-6.75390E-04-5.91756E-14
 -1      2733 1.03960E-02-7.62527E-04-6.36807E-14
 -1      2734 1.05398E-02-7.79309E-04-6.54097E-14
 -1      2735 1.03053E-02-7.09329E-04-6.25760E-14
 -1      2736 1.06835E-02-7.95853E-04-6.71542E-14
 -1      2737 1.08271E-02-8.12141E-04-6.89154E-14
 -1      2738 1.05909E-02-7.42583E-04-6.60350E-14
 -1      2739 1.09706E-02-8.28160E-04-7.06879E-14
 -1      2740 1.11140E-02-8.43903E-04-7.24714E-14
 -1      2741 1.08767E-02-7.74895E-04-6.95477E-14
 -1      2742 1.12574E-02-8.59376E-04-7.42677E-14
 -1      2743 1.14007E-02-8.74579E-04-7.60761E-14
 -1      2744 1.11624E-02-8.06166E-04-7.31130E-14
 -1      2745 1.15439E-02-8.89529E-04-7.78952E-14
 -1      2746 1.16871E-02-9.04230E-04-7.97204E-14
 -1      2747 1.14482E-02-8.36401E-04-7.67234E-14
 -1      2748 1.18302E-02-9.18704E-04-8.15580E-14
 -1      2749 1.19732E-02-9.32957E-04-8.34060E-14
 -1      2750 1.17341E-02-8.65670E-04-8.03776E-14
 -1      2751 1.21163E-02-9.47014E-04-8.52598E-14
 -1      2752 1.22593E-02-9.60881E-04-8.71260E-14
 -1      2753 1.20199E-02-8.94075E-04-8.40688E-14
 -1      2754 1.24023E-02-9.74583E-04-8.89993E-14
 -1      2755 1.25452E-02-9.88127E-04-9.08765E-14
 -1      2756 1.23057E-02-9.21734E-04-8.77938E-14
 -1      2757 1.26882E-02-1.00154E-03-9.27633E-14
 -1      2758 1.28311E-02-1.01482E-03-9.46562E-14
 -1      2759 1.25915E-02-9.48766E-04-9.15461E-14
 -1      2760 1.29740E-02-1.02799E-03-9.65608E-14
 -1      2761 1.31169E-02-1.04105E-03-9.84739E-14
 -1      2762 1.28773E-02-9.75284E-04-9.53295E-14
 -1      2763 1.32598E-02-1.05404E-03-1.00390E-13
 -1      2764 1.34027E-02-1.06694E-03-1.02311E-13
 -1      2765 1.31630E-02-1.00139E-03-9.91479E-14
 -1      2766 1.35456E-02-1.07979E-03-1.04235E-13
 -1      2767 1.36884E-02-1.09257E-03-1.06162E-13
 -1      2768 1.34488E-02-1.02718E-03-1.02990E-13
 -1      2769 1.38313E-02-1.10531E-03-1.08092E-13
 -1      2770 1.39742E-02-1.11801E-03-1.10024E-13
 -1      2771 1.37345E-02-1.05273E-03-1.06845E-13
 -1      2772 1.41170E-02-1.13068E-03-1.11953E-13
 -1      2773 1.42599E-02-1.14332E-03-1.13880E-13
 -1      2774 1.40203E-02-1.07812E-03-1.10708E-13
 -1      2775 2.32222E-03 4.03384E-04-3.61894E-15
 -1      2776 2.17353E-03 3.97312E-04-3.17571E-15
 -1      2777 4.12308E-03-4.07723E-04-1.43121E-14
 -1      2778 3.94760E-03-3.23562E-04-1.38908E-14
 -1      2779 2.02559E-03 3.90887E-04-2.76161E-15
 -1      2780 1.87822E-03 3.83691E-04-2.37633E-15
 -1      2781 2.07774E-03 3.57265E-04-3.04718E-15
 -1      2782 2.92771E-03 4.36167E-04-5.68478E-15
 -1      2783 2.77440E-03 4.25524E-04-5.12477E-15
 -1      2784 3.23950E-03 4.66094E-04-6.89138E-15
 -1      2785 3.08276E-03 4.49451E-04-6.27357E-15
 -1      2786 2.97576E-03 3.99906E-04-6.08208E-15
 -1      2787 3.55924E-03 5.11669E-04-8.21229E-15
 -1      2788 3.39843E-03 4.86582E-04-7.53775E-15
 -1      2789 3.28751E-03 4.30153E-04-7.32324E-15
 -1      2790 3.88756E-03 5.76929E-04-9.64766E-15
 -1      2791 3.72254E-03 5.41599E-04-8.91562E-15
 -1      2792 3.60906E-03 4.76962E-04-8.67865E-15
 -1      2793 4.22308E-03 6.62954E-04-1.11983E-14
 -1      2794 4.05487E-03 6.17460E-04-1.04085E-14
 -1      2795 3.94170E-03 5.45020E-04-1.01462E-14
 -1      2796 4.56115E-03 7.64318E-04-1.28678E-14
 -1      2797 4.39242E-03 7.12481E-04-1.20179E-14
 -1      2798 4.28390E-03 6.36008E-04-1.17294E-14
 -1      2799 4.89450E-03 8.65157E-04-1.46588E-14
 -1      2800 4.72897E-03 8.16475E-04-1.37479E-14
 -1      2801 4.62971E-03 7.44055E-04-1.34309E-14
 -1      2802 5.21693E-03 9.39244E-04-1.65756E-14
 -1      2803 5.05684E-03 9.07676E-04-1.56017E-14
 -1      2804 4.96935E-03 8.49863E-04-1.52550E-14
 -1      2805 5.53033E-03 9.59058E-04-1.86217E-14
 -1      2806 5.37384E-03 9.57380E-04-1.75821E-14
 -1      2807 5.29609E-03 9.21028E-04-1.72061E-14
 -1      2808 5.84372E-03 9.12520E-04-2.07985E-14
 -1      2809 5.68578E-03 9.43780E-04-1.96930E-14
 -1      2810 5.61424E-03 9.26603E-04-1.92881E-14
 -1      2811 6.16645E-03 8.11687E-04-2.31052E-14
 -1      2812 6.00330E-03 8.67067E-04-2.19359E-14
 -1      2813 5.93565E-03 8.58580E-04-2.15033E-14
 -1      2814 6.50016E-03 6.84553E-04-2.55360E-14
 -1      2815 6.33224E-03 7.49344E-04-2.43055E-14
 -1      2816 6.26968E-03 7.38435E-04-2.38472E-14
 -1      2817 6.83898E-03 5.57242E-04-2.80844E-14
 -1      2818 6.66963E-03 6.19575E-04-2.67969E-14
 -1      2819 6.61402E-03 6.02494E-04-2.63133E-14
 -1      2820 7.17556E-03 4.45957E-04-3.07375E-14
 -1      2821 7.00819E-03 4.99073E-04-2.93975E-14
 -1      2822 6.95958E-03 4.75732E-04-2.88916E-14
 -1      2823 7.50514E-03 3.56286E-04-3.34864E-14
 -1      2824 7.34155E-03 3.98448E-04-3.21017E-14
 -1      2825 7.29787E-03 3.71150E-04-3.15724E-14
 -1      2826 7.82643E-03 2.87446E-04-3.63203E-14
 -1      2827 7.66694E-03 3.19500E-04-3.48924E-14
 -1      2828 7.62543E-03 2.89992E-04-3.43437E-14
 -1      2829 8.13999E-03 2.35994E-04-3.92449E-14
 -1      2830 7.98417E-03 2.59838E-04-3.77703E-14
 -1      2831 7.94249E-03 2.29129E-04-3.72013E-14
 -1      2832 8.44716E-03 1.97776E-04-4.22508E-14
 -1      2833 8.29432E-03 2.15498E-04-4.07380E-14
 -1      2834 8.25089E-03 1.84073E-04-4.01464E-14
 -1      2835 8.74932E-03 1.68933E-04-4.53376E-14
 -1      2836 8.59879E-03 1.82401E-04-4.37846E-14
 -1      2837 8.55281E-03 1.50494E-04-4.31753E-14
 -1      2838 9.04763E-03 1.46263E-04-4.85026E-14
 -1      2839 8.89889E-03 1.56993E-04-4.69106E-14
 -1      2840 8.85011E-03 1.24755E-04-4.62816E-14
 -1      2841 9.34301E-03 1.27299E-04-5.17387E-14
 -1      2842 9.19563E-03 1.36439E-04-5.01115E-14
 -1      2843 9.14418E-03 1.03997E-04-4.94648E-14
 -1      2844 9.63611E-03 1.10240E-04-5.50412E-14
 -1      2845 9.48979E-03 1.18616E-04-5.33826E-14
 -1      2846 9.43600E-03 8.60836E-05-5.27165E-14
 -1      2847 9.92745E-03 9.38458E-05-5.84030E-14
 -1      2848 9.78196E-03 1.02016E-04-5.67149E-14
 -1      2849 9.72622E-03 6.94918E-05-5.60335E-14
 -1      2850 1.02174E-02 7.73077E-05-6.18262E-14
 -1      2851 1.00726E-02 8.56300E-05-6.01069E-14
 -1      2852 1.00153E-02 5.31880E-05-5.94098E-14
 -1      2853 1.05063E-02 6.01421E-05-6.53060E-14
 -1      2854 1.03620E-02 6.88235E-05-6.35586E-14
 -1      2855 1.03035E-02 3.65152E-05-6.28455E-14
 -1      2856 1.07943E-02 4.20961E-05-6.88405E-14
 -1      2857 1.06504E-02 5.12389E-05-6.70675E-14
 -1      2858 1.05910E-02 1.90934E-05-6.63379E-14
 -1      2859 1.10817E-02 2.30742E-05-7.24264E-14
 -1      2860 1.09381E-02 3.27099E-05-7.06273E-14
 -1      2861 1.08781E-02 7.38404E-07-6.98857E-14
 -1      2862 1.13686E-02 3.08229E-06-7.60592E-14
 -1      2863 1.12252E-02 1.31979E-05-7.42381E-14
 -1      2864 1.11648E-02-1.86018E-05-7.34817E-14
 -1      2865 1.16551E-02-1.78123E-05-7.97400E-14
 -1      2866 1.15119E-02-7.25628E-06-7.78941E-14
 -1      2867 1.14512E-02-3.88951E-05-7.71245E-14
 -1      2868 1.19414E-02-3.95099E-05-8.34670E-14
 -1      2869 1.17983E-02-2.85661E-05-8.15994E-14
 -1      2870 1.17374E-02-6.00606E-05-8.08144E-14
 -1      2871 1.22275E-02-6.18971E-05-8.72290E-14
 -1      2872 1.20845E-02-5.06231E-05-8.53418E-14
 -1      2873 1.20235E-02-8.19922E-05-8.45472E-14
 -1      2874 1.25134E-02-8.48597E-05-9.10313E-14
 -1      2875 1.23704E-02-7.33122E-05-8.91267E-14
 -1      2876 1.23094E-02-1.04576E-04-8.83193E-14
 -1      2877 1.27992E-02-1.08289E-04-9.48653E-14
 -1      2878 1.26563E-02-9.65214E-05-9.29431E-14
 -1      2879 1.25953E-02-1.27698E-04-9.21260E-14
 -1      2880 1.30850E-02-1.32087E-04-9.87251E-14
 -1      2881 1.29421E-02-1.20147E-04-9.67930E-14
 -1      2882 1.28811E-02-1.51255E-04-9.59631E-14
 -1      2883 1.33707E-02-1.56165E-04-1.02613E-13
 -1      2884 1.32278E-02-1.44095E-04-1.00666E-13
 -1      2885 1.31669E-02-1.75152E-04-9.98306E-14
 -1      2886 1.36564E-02-1.80446E-04-1.06523E-13
 -1      2887 1.35136E-02-1.68284E-04-1.04565E-13
 -1      2888 1.34526E-02-1.99304E-04-1.03722E-13
 -1      2889 1.39421E-02-2.04864E-04-1.10450E-13
 -1      2890 1.37993E-02-1.92642E-04-1.08483E-13
 -1      2891 1.37383E-02-2.23640E-04-1.07633E-13
 -1      2892 1.41984E-02-2.34663E-04-1.13984E-13
 -1      2893 1.40556E-02-2.22411E-04-1.12013E-13
 -1      2894 1.39947E-02-2.53400E-04-1.11155E-13
 -1      2895 1.42217E-02-2.88524E-04-1.14278E-13
 -1      2896 1.43257E-02-6.94446E-04-1.15373E-13
 -1      2897 1.43135E-02-6.52303E-04-1.15249E-13
 -1      2898 1.43638E-02-1.15726E-03-1.15276E-13
 -1      2899 1.44607E-02-1.16663E-03-1.16585E-13
 -1      2900 1.44750E-02-1.13256E-03-1.16829E-13
 -1      2901 1.42671E-02-1.10470E-03-1.14037E-13
 -1      2902 1.42771E-02-5.25869E-04-1.14867E-13
 -1      2903 1.42650E-02-4.83722E-04-1.14737E-13
 -1      2904 1.43502E-02-7.78731E-04-1.15611E-13
 -1      2905 1.43379E-02-7.36589E-04-1.15494E-13
 -1      2906 1.42081E-02-7.04743E-04-1.13742E-13
 -1      2907 1.43013E-02-6.10160E-04-1.15123E-13
 -1      2908 1.42892E-02-5.68015E-04-1.14993E-13
 -1      2909 1.41594E-02-5.36246E-04-1.13235E-13
 -1      2910 1.41837E-02-6.20498E-04-1.13493E-13
 -1      2911 1.73135E-03 3.75054E-04-2.02118E-15
 -1      2912 1.58475E-03 3.64601E-04-1.69594E-15
 -1      2913 1.78489E-03 3.43755E-04-2.26821E-15
 -1      2914 1.43744E-02-8.61591E-04-1.15839E-13
 -1      2915 1.43623E-02-8.20161E-04-1.15728E-13
 -1      2916 1.42324E-02-7.88275E-04-1.13980E-13
 -1      2917 1.43992E-02-9.45886E-04-1.16065E-13
 -1      2918 1.43868E-02-9.03738E-04-1.15951E-13
 -1      2919 1.42568E-02-8.71814E-04-1.14212E-13
 -1      2920 1.44240E-02-1.03019E-03-1.16286E-13
 -1      2921 1.44116E-02-9.88036E-04-1.16175E-13
 -1      2922 1.42816E-02-9.56078E-04-1.14439E-13
 -1      2923 1.44625E-02-1.09041E-03-1.16725E-13
 -1      2924 3.26663E-03-8.97859E-05-1.22592E-14
 -1      2925 3.27354E-03-8.20305E-05-1.21962E-14
 -1      2926 7.96543E-04-2.18581E-04-6.74536E-16
 -1      2927 9.29661E-04-2.49009E-04-8.69286E-16
 -1      2928 7.88006E-03-2.02744E-04-2.97100E-14
 -1      2929 7.81917E-03-2.15915E-04-2.95680E-14
 -1      2930 4.97321E-03-9.18104E-04-1.70020E-14
 -1      2931 4.76601E-03-7.83266E-04-1.62073E-14
 -1      2932 2.62246E-03 4.16922E-04-4.59386E-15
 -1      2933 2.47182E-03 4.09754E-04-4.09185E-15
 -1      2934 2.37286E-03 3.68265E-04-3.94312E-15
 -1      2935 2.67160E-03 3.80954E-04-4.95480E-15
 -1      2936 1.05938E-03-2.71334E-04-1.08979E-15
 -1      2937 1.20431E-03-2.91163E-04-1.36833E-15
 -1      2938 1.26035E-03-2.68040E-04-1.54003E-15
 -1      2939 1.00272E-03-2.33112E-04-1.03415E-15
 -1      2940 7.72900E-03-2.42339E-04-2.94078E-14
 -1      2941 7.61853E-03-2.76628E-04-2.91806E-14
 -1      2942 5.81896E-03 8.12787E-04-2.08260E-14
 -1      2943 5.99075E-03 7.39504E-04-2.18698E-14
 -1      2944 7.74364E-04 9.86954E-05-6.64318E-16
 -1      2945 7.68824E-04 7.87055E-05-6.81177E-16
 -1      2946 8.81346E-04 7.73900E-05-8.72579E-16
 -1      2947 8.94703E-04 1.21774E-04-8.31949E-16
 -1      2948 5.48250E-03 8.64141E-04-1.87979E-14
 -1      2949 5.63148E-03 8.58615E-04-1.96911E-14
 -1      2950 3.75494E-03-2.42182E-04-1.34411E-14
 -1      2951 3.58513E-03-1.83294E-04-1.30460E-14
 -1      2952 7.67383E-04-7.80615E-05-7.51610E-16
 -1      2953 7.72791E-04-9.75293E-05-7.51149E-16
 -1      2954 6.56156E-04-1.60467E-04-5.18289E-16
 -1      2955 5.18379E-03 7.89389E-04-1.72081E-14
 -1      2956 5.32764E-03 8.37812E-04-1.79596E-14
 -1      2957 3.54178E-03-8.18876E-06-1.25641E-14
 -1      2958 3.68794E-03 4.37328E-05-1.27251E-14
 -1      2959 7.91500E-03-1.84940E-04-2.98272E-14
 -1      2960 7.91937E-03-1.91183E-04-2.99147E-14
 -1      2961 7.93659E-03-1.83450E-04-3.06874E-14
 -1      2962 4.53954E-03-6.42894E-04-1.54638E-14
 -1      2963 4.33602E-03-5.21581E-04-1.48753E-14
 -1      2964 3.34179E-03-6.30612E-05-1.23034E-14
 -1      2965 3.43018E-03-4.26556E-05-1.24344E-14
 -1      2966 3.45493E-03-1.59576E-05-1.20218E-14
 -1      2967 1.43845E-03 3.51622E-04-1.40015E-15
 -1      2968 1.29216E-03 3.35754E-04-1.13395E-15
 -1      2969 1.20270E-03 2.93362E-04-1.06272E-15
 -1      2970 1.49338E-03 3.23760E-04-1.60612E-15
 -1      2971 4.41162E-03 3.74851E-04-1.44063E-14
 -1      2972 4.61152E-03 4.81532E-04-1.50794E-14
 -1      2973 4.70142E-03 5.49451E-04-1.51665E-14
 -1      2974 7.47660E-03-3.33352E-04-2.89740E-14
 -1      2975 7.31886E-03-4.01651E-04-2.85826E-14
 -1      2976 7.12088E-03-4.93538E-04-2.78742E-14
 -1      2977 6.97564E-03-5.69402E-04-2.73582E-14
 -1      2978 6.77799E-03-6.78857E-04-2.65774E-14
 -1      2979 6.58842E-03-7.91443E-04-2.57672E-14
 -1      2980 6.53224E-03-8.53094E-04-2.58355E-14
 -1      2981 6.89039E-03-6.39738E-04-2.73912E-14
 -1      2982 5.00179E-03-9.75069E-04-1.68676E-14
 -1      2983 7.79369E-04-1.18284E-04-7.48384E-16
 -1      2984 7.87030E-04-1.40617E-04-7.43139E-16
 -1      2985 8.92571E-04-1.20196E-04-9.48460E-16
 -1      2986 8.69751E-04-4.98408E-07-9.26410E-16
 -1      2987 7.56957E-04-8.49872E-06-7.36187E-16
 -1      2988 7.57870E-04-2.51999E-05-7.42543E-16
 -1      2989 7.33827E-03 4.46149E-05-2.91024E-14
 -1      2990 7.39460E-03-4.76391E-06-2.88015E-14
 -1      2991 7.53401E-03-4.40169E-05-2.97456E-14
 -1      2992 6.85717E-03 2.54202E-04-2.64839E-14
 -1      2993 7.02320E-03 1.89423E-04-2.75588E-14
 -1      2994 4.20325E-03-4.68431E-04-1.42272E-14
 -1      2995 8.72803E-04 2.30792E-04-6.06313E-16
 -1      2996 4.66272E-03-7.73501E-04-1.53873E-14
 -1      2997 4.81058E-03-8.81927E-04-1.58906E-14
 -1      2998 5.71814E-03 8.48528E-04-2.01942E-14
 -1      2999 5.48604E-03-1.16885E-03-1.96133E-14
 -1      3000 1.41354E-02-4.52340E-04-1.12973E-13
 -1      3001 1.42531E-02-4.41930E-04-1.14605E-13
 -1      3002 1.42412E-02-4.00137E-04-1.14472E-13
 -1      3003 6.13235E-03-1.08697E-03-2.37416E-14
 -1      3004 3.81689E-03-2.82997E-04-1.32353E-14
 -1      3005 1.42373E-02-3.65228E-04-1.14446E-13
 -1      3006 1.42255E-02-3.23434E-04-1.14309E-13
 -1      3007 1.41120E-02-3.05861E-04-1.12750E-13
 -1      3008 1.41196E-02-3.75663E-04-1.12810E-13
 -1      3009 7.92948E-03-2.00880E-04-3.05704E-14
 -1      3010 1.43326E-02-1.05842E-03-1.14994E-13
 -1      3011 5.39672E-03 8.61026E-04-1.82341E-14
 -1      3012 3.26603E-03-9.63985E-05-1.20140E-14
 -1      3013 7.72102E-03-1.16404E-04-3.02736E-14
 -1      3014 7.77159E-03-1.40708E-04-3.00166E-14
 -1      3015 7.86541E-03-1.57346E-04-3.08583E-14
 -1      3016 7.58449E-03-3.11244E-04-2.98289E-14
 -1      3017 7.80238E-03-2.34437E-04-3.02016E-14
 -1      3018 6.21666E-03 6.21179E-04-2.31699E-14
 -1      3019 6.38683E-03 5.16606E-04-2.40648E-14
 -1      3020 9.89792E-04 2.35756E-04-7.92891E-16
 -1      3021 4.62211E-03-7.13930E-04-1.55096E-14
 -1      3022 3.47895E-03-1.54557E-04-1.25710E-14
 -1      3023 3.38658E-03-1.36466E-04-1.21056E-14
 -1      3024 3.52760E-03-1.83391E-04-1.23277E-14
 -1      3025 7.26880E-03-4.47639E-04-2.88977E-14
 -1      3026 3.77080E-03 8.90084E-05-1.26250E-14
 -1      3027 3.84713E-03 1.39923E-04-1.25228E-14
 -1      3028 3.63910E-03 6.24210E-05-1.20482E-14
 -1      3029 7.59916E-04-4.21580E-05-7.47042E-16
 -1      3030 7.63078E-04-5.97270E-05-7.50065E-16
 -1      3031 8.79574E-04-7.70579E-05-9.49300E-16
 -1      3032 8.71950E-04-3.79034E-05-9.41602E-16
 -1      3033 7.71663E-04-1.70535E-04-6.88780E-16
 -1      3034 6.01569E-03 7.53874E-04-2.20924E-14
 -1      3035 6.10796E-03 6.93123E-04-2.26287E-14
 -1      3036 6.22519E-03 6.47551E-04-2.34007E-14
 -1      3037 4.25696E-03 3.06692E-04-1.37911E-14
 -1      3038 4.35885E-03 3.79769E-04-1.38720E-14
 -1      3039 4.10692E-03 2.52193E-04-1.31910E-14
 -1      3040 4.96894E-03 7.07570E-04-1.60553E-14
 -1      3041 5.07656E-03 7.51067E-04-1.66257E-14
 -1      3042 5.14298E-03 7.93707E-04-1.68236E-14
 -1      3043 6.52695E-03 4.36358E-04-2.48009E-14
 -1      3044 6.71450E-03 3.28446E-04-2.57244E-14
 -1      3045 6.73276E-03 3.51684E-04-2.61884E-14
 -1      3046 6.46338E-03 4.98280E-04-2.46880E-14
 -1      3047 1.04032E-03 2.02741E-04-9.51360E-16
 -1      3048 1.02827E-03 1.73349E-04-9.86366E-16
 -1      3049 4.25541E-03-5.23497E-04-1.40651E-14
 -1      3050 4.06716E-03-4.22505E-04-1.35225E-14
 -1      3051 7.03237E-03 2.22216E-04-2.80567E-14
 -1      3052 7.18177E-03 1.35267E-04-2.86709E-14
 -1      3053 4.46248E-03-6.48778E-04-1.46692E-14
 -1      3054 5.63034E-03 8.78968E-04-1.95808E-14
 -1      3055 5.80204E-03 8.40285E-04-2.07126E-14
 -1      3056 1.72918E-03-2.73281E-04-2.79861E-15
 -1      3057 1.87155E-03-2.79003E-04-3.23245E-15
 -1      3058 2.01374E-03-2.83551E-04-3.69668E-15
 -1      3059 2.15594E-03-2.87214E-04-4.19124E-15
 -1      3060 1.92049E-03-2.49571E-04-3.47366E-15
 -1      3061 2.29805E-03-2.90530E-04-4.71478E-15
 -1      3062 2.44035E-03-2.93859E-04-5.26711E-15
 -1      3063 2.20053E-03-2.56218E-04-4.45991E-15
 -1      3064 2.58286E-03-2.97735E-04-5.84922E-15
 -1      3065 2.72601E-03-3.02659E-04-6.45976E-15
 -1      3066 2.47968E-03-2.61785E-04-5.56297E-15
 -1      3067 2.86995E-03-3.09131E-04-7.09753E-15
 -1      3068 3.01539E-03-3.17951E-04-7.76393E-15
 -1      3069 2.75907E-03-2.69498E-04-6.77995E-15
 -1      3070 3.16272E-03-3.29523E-04-8.45733E-15
 -1      3071 3.31302E-03-3.45274E-04-9.17815E-15
 -1      3072 3.04131E-03-2.83129E-04-8.10760E-15
 -1      3073 3.46702E-03-3.65643E-04-9.92561E-15
 -1      3074 3.62615E-03-3.92827E-04-1.07003E-14
 -1      3075 3.33149E-03-3.07775E-04-9.54311E-15
 -1      3076 4.12451E-03-5.22723E-04-1.30665E-14
 -1      3077 4.31322E-03-5.93132E-04-1.39455E-14
 -1      3078 7.31110E-03-5.53249E-04-3.08296E-14
 -1      3079 7.48426E-03-5.18674E-04-3.21898E-14
 -1      3080 7.64957E-03-4.96362E-04-3.35728E-14
 -1      3081 7.80760E-03-4.81402E-04-3.49766E-14
 -1      3082 7.62918E-03-4.48469E-04-3.28158E-14
 -1      3083 7.96021E-03-4.73954E-04-3.64002E-14
 -1      3084 8.10877E-03-4.71150E-04-3.78443E-14
 -1      3085 7.93195E-03-4.29985E-04-3.56195E-14
 -1      3086 8.25422E-03-4.72915E-04-3.93089E-14
 -1      3087 8.39770E-03-4.77792E-04-4.07928E-14
 -1      3088 8.21688E-03-4.31836E-04-3.85057E-14
 -1      3089 8.53961E-03-4.85564E-04-4.22957E-14
 -1      3090 8.68073E-03-4.95481E-04-4.38185E-14
 -1      3091 8.49377E-03-4.45797E-04-4.14686E-14
 -1      3092 8.82121E-03-5.07237E-04-4.53577E-14
 -1      3093 8.96153E-03-5.20432E-04-4.69134E-14
 -1      3094 8.76791E-03-4.67677E-04-4.45078E-14
 -1      3095 9.10169E-03-5.34752E-04-4.84884E-14
 -1      3096 9.24198E-03-5.49976E-04-5.00777E-14
 -1      3097 9.04207E-03-4.94786E-04-4.76191E-14
 -1      3098 9.38235E-03-5.65824E-04-5.16806E-14
 -1      3099 9.52297E-03-5.82172E-04-5.33001E-14
 -1      3100 9.31752E-03-5.25201E-04-5.07952E-14
 -1      3101 9.66374E-03-5.98793E-04-5.49351E-14
 -1      3102 9.80479E-03-6.15620E-04-5.65863E-14
 -1      3103 9.59468E-03-5.57481E-04-5.40319E-14
 -1      3104 9.94602E-03-6.32482E-04-5.82533E-14
 -1      3105 1.00875E-02-6.49347E-04-5.99371E-14
 -1      3106 9.87357E-03-5.90557E-04-5.73328E-14
 -1      3107 1.02291E-02-6.66095E-04-6.16346E-14
 -1      3108 1.03709E-02-6.82716E-04-6.33496E-14
 -1      3109 1.01540E-02-6.23676E-04-6.06959E-14
 -1      3110 1.05129E-02-6.99133E-04-6.50777E-14
 -1      3111 1.06550E-02-7.15347E-04-6.68194E-14
 -1      3112 1.04358E-02-6.56340E-04-6.41214E-14
 -1      3113 1.07973E-02-7.31316E-04-6.85764E-14
 -1      3114 1.09396E-02-7.47049E-04-7.03450E-14
 -1      3115 1.07186E-02-6.88258E-04-6.76052E-14
 -1      3116 1.10820E-02-7.62524E-04-7.21262E-14
 -1      3117 1.12246E-02-7.77757E-04-7.39198E-14
 -1      3118 1.10022E-02-7.19286E-04-7.11413E-14
 -1      3119 1.13671E-02-7.92742E-04-7.57240E-14
 -1      3120 1.15098E-02-8.07496E-04-7.75399E-14
 -1      3121 1.12864E-02-7.49390E-04-7.47261E-14
 -1      3122 1.16524E-02-8.22022E-04-7.93665E-14
 -1      3123 1.17952E-02-8.36339E-04-8.12031E-14
 -1      3124 1.15711E-02-7.78604E-04-7.83556E-14
 -1      3125 1.19379E-02-8.50456E-04-8.30488E-14
 -1      3126 1.20807E-02-8.64388E-04-8.49016E-14
 -1      3127 1.18562E-02-8.07005E-04-8.20286E-14
 -1      3128 1.22235E-02-8.78151E-04-8.67608E-14
 -1      3129 1.23663E-02-8.91757E-04-8.86313E-14
 -1      3130 1.21415E-02-8.34689E-04-8.57318E-14
 -1      3131 1.25092E-02-9.05221E-04-9.05073E-14
 -1      3132 1.26520E-02-9.18556E-04-9.23893E-14
 -1      3133 1.24270E-02-8.61762E-04-8.94675E-14
 -1      3134 1.27949E-02-9.31776E-04-9.42826E-14
 -1      3135 1.29377E-02-9.44892E-04-9.61823E-14
 -1      3136 1.27125E-02-8.88327E-04-9.32344E-14
 -1      3137 1.30806E-02-9.57916E-04-9.80903E-14
 -1      3138 1.32235E-02-9.70859E-04-1.00006E-13
 -1      3139 1.29982E-02-9.14480E-04-9.70342E-14
 -1      3140 1.33663E-02-9.83732E-04-1.01925E-13
 -1      3141 1.35092E-02-9.96543E-04-1.03849E-13
 -1      3142 1.32839E-02-9.40309E-04-1.00861E-13
 -1      3143 1.36521E-02-1.00930E-03-1.05777E-13
 -1      3144 1.37950E-02-1.02202E-03-1.07709E-13
 -1      3145 1.35696E-02-9.65888E-04-1.04710E-13
 -1      3146 1.39378E-02-1.03470E-03-1.09641E-13
 -1      3147 1.40807E-02-1.04734E-03-1.11574E-13
 -1      3148 1.38554E-02-9.91286E-04-1.08571E-13
 -1      3149 1.41147E-02-7.98154E-04-1.12355E-13
 -1      3150 1.41026E-02-7.56764E-04-1.12236E-13
 -1      3151 3.33282E-03 3.92704E-04-7.76014E-15
 -1      3152 3.17580E-03 3.75852E-04-7.10784E-15
 -1      3153 3.02127E-03 3.62806E-04-6.48392E-15
 -1      3154 2.86903E-03 3.52551E-04-5.88855E-15
 -1      3155 3.06416E-03 3.24648E-04-6.89141E-15
 -1      3156 3.99404E-03 5.10652E-04-1.06478E-14
 -1      3157 3.82366E-03 4.72001E-04-9.88365E-15
 -1      3158 4.34444E-03 6.07473E-04-1.22627E-14
 -1      3159 4.16838E-03 5.55844E-04-1.14406E-14
 -1      3160 4.04458E-03 4.74451E-04-1.11527E-14
 -1      3161 4.70028E-03 7.24000E-04-1.39953E-14
 -1      3162 4.52293E-03 6.64206E-04-1.31143E-14
 -1      3163 4.40444E-03 5.78741E-04-1.27979E-14
 -1      3164 5.09648E-03 8.28588E-04-1.62413E-14
 -1      3165 4.92133E-03 7.72696E-04-1.52865E-14
 -1      3166 5.74435E-03 8.89831E-04-2.02332E-14
 -1      3167 5.58276E-03 9.12751E-04-1.91472E-14
 -1      3168 6.11294E-03 7.59000E-04-2.27608E-14
 -1      3169 5.94154E-03 8.21698E-04-2.16016E-14
 -1      3170 6.28780E-03 6.87657E-04-2.39505E-14
 -1      3171 6.73516E-03 5.14737E-04-2.70940E-14
 -1      3172 6.55757E-03 5.84795E-04-2.58298E-14
 -1      3173 7.08588E-03 3.92408E-04-2.97017E-14
 -1      3174 6.91241E-03 4.50223E-04-2.83858E-14
 -1      3175 6.86667E-03 4.23397E-04-2.78786E-14
 -1      3176 7.42340E-03 2.97120E-04-3.24083E-14
 -1      3177 7.25668E-03 3.41669E-04-3.10418E-14
 -1      3178 7.21805E-03 3.10051E-04-3.05149E-14
 -1      3179 7.74688E-03 2.25765E-04-3.52015E-14
 -1      3180 7.58696E-03 2.58878E-04-3.37956E-14
 -1      3181 7.55158E-03 2.25857E-04-3.32454E-14
 -1      3182 8.05832E-03 1.73246E-04-3.80851E-14
 -1      3183 7.90398E-03 1.97580E-04-3.66328E-14
 -1      3184 7.86868E-03 1.64873E-04-3.60647E-14
 -1      3185 8.36082E-03 1.34445E-04-4.10512E-14
 -1      3186 8.21052E-03 1.52467E-04-3.95569E-14
 -1      3187 8.17321E-03 1.20445E-04-3.89689E-14
 -1      3188 8.65723E-03 1.05166E-04-4.40996E-14
 -1      3189 8.50964E-03 1.18863E-04-4.25660E-14
 -1      3190 8.46927E-03 8.73623E-05-4.19577E-14
 -1      3191 8.94971E-03 8.21481E-05-4.72264E-14
 -1      3192 8.80385E-03 9.30505E-05-4.56525E-14
 -1      3193 8.76007E-03 6.18122E-05-4.50256E-14
 -1      3194 9.23971E-03 6.29480E-05-5.04264E-14
 -1      3195 9.09493E-03 7.21942E-05-4.88179E-14
 -1      3196 9.04783E-03 4.10190E-05-4.81713E-14
 -1      3197 9.52819E-03 4.57873E-05-5.36946E-14
 -1      3198 9.38408E-03 5.41972E-05-5.20517E-14
 -1      3199 9.33398E-03 2.29791E-05-5.13890E-14
 -1      3200 9.81573E-03 2.94205E-05-5.70241E-14
 -1      3201 9.67203E-03 3.75603E-05-5.53512E-14
 -1      3202 9.61938E-03 6.26484E-06-5.46716E-14
 -1      3203 1.01027E-02 1.30180E-05-6.04171E-14
 -1      3204 9.95925E-03 2.12584E-05-5.87136E-14
 -1      3205 9.90448E-03-1.01065E-05-5.80176E-14
 -1      3206 1.03893E-02-3.93480E-06-6.38658E-14
 -1      3207 1.02460E-02 4.63005E-06-6.21339E-14
 -1      3208 1.01896E-02-2.67770E-05-6.14240E-14
 -1      3209 1.06756E-02-2.17221E-05-6.73705E-14
 -1      3210 1.05325E-02-1.27148E-05-6.56104E-14
 -1      3211 1.04747E-02-4.41330E-05-6.48850E-14
 -1      3212 1.09618E-02-4.04665E-05-7.09288E-14
 -1      3213 1.08187E-02-3.09723E-05-6.91433E-14
 -1      3214 1.07600E-02-6.23743E-05-6.84026E-14
 -1      3215 1.12479E-02-6.01829E-05-7.45364E-14
 -1      3216 1.11049E-02-5.02052E-05-7.27263E-14
 -1      3217 1.10454E-02-8.15710E-05-7.19735E-14
 -1      3218 1.15339E-02-8.08186E-05-7.81878E-14
 -1      3219 1.13909E-02-7.03904E-05-7.63562E-14
 -1      3220 1.13309E-02-1.01707E-04-7.55901E-14
 -1      3221 1.18198E-02-1.02283E-04-8.18878E-14
 -1      3222 1.16768E-02-9.14529E-05-8.00312E-14
 -1      3223 1.16165E-02-1.22714E-04-7.92528E-14
 -1      3224 1.21056E-02-1.24467E-04-8.56260E-14
 -1      3225 1.19627E-02-1.13291E-04-8.37523E-14
 -1      3226 1.19021E-02-1.44496E-04-8.29579E-14
 -1      3227 1.23915E-02-1.47257E-04-8.94072E-14
 -1      3228 1.22486E-02-1.35792E-04-8.75118E-14
 -1      3229 1.21878E-02-1.66944E-04-8.67089E-14
 -1      3230 1.26773E-02-1.70547E-04-9.32199E-14
 -1      3231 1.25344E-02-1.58845E-04-9.13099E-14
 -1      3232 1.24735E-02-1.89949E-04-9.04942E-14
 -1      3233 1.29630E-02-1.94234E-04-9.70632E-14
 -1      3234 1.28201E-02-1.82346E-04-9.51385E-14
 -1      3235 1.27592E-02-2.13408E-04-9.43140E-14
 -1      3236 1.32488E-02-2.18230E-04-1.00934E-13
 -1      3237 1.31059E-02-2.06198E-04-9.89965E-14
 -1      3238 1.30450E-02-2.37227E-04-9.81633E-14
 -1      3239 1.35345E-02-2.42457E-04-1.04830E-13
 -1      3240 1.33917E-02-2.30319E-04-1.02878E-13
 -1      3241 1.33307E-02-2.61322E-04-1.02038E-13
 -1      3242 1.38203E-02-2.66845E-04-1.08743E-13
 -1      3243 1.36774E-02-2.54634E-04-1.06783E-13
 -1      3244 1.36165E-02-2.85621E-04-1.05933E-13
 -1      3245 1.40229E-02-2.95120E-04-1.11524E-13
 -1      3246 1.39094E-02-2.77567E-04-1.09966E-13
 -1      3247 1.38485E-02-3.08548E-04-1.09110E-13
 -1      3248 1.40267E-02-3.30017E-04-1.11557E-13
 -1      3249 1.42286E-02-1.04450E-03-1.13593E-13
 -1      3250 9.89085E-04 5.13670E-05-1.10785E-15
 -1      3251 9.85618E-04 3.01770E-05-1.12388E-15
 -1      3252 3.27262E-03-6.74134E-05-1.17925E-14
 -1      3253 1.41394E-02-8.82370E-04-1.12589E-13
 -1      3254 1.41270E-02-8.40260E-04-1.12472E-13
 -1      3255 1.39973E-02-8.08721E-04-1.10731E-13
 -1      3256 1.40904E-02-7.14663E-04-1.12114E-13
 -1      3257 1.40781E-02-6.72562E-04-1.11992E-13
 -1      3258 1.39727E-02-7.24559E-04-1.10489E-13
 -1      3259 7.97136E-03-1.82403E-04-3.17243E-14
 -1      3260 7.99598E-03-1.92157E-04-3.18149E-14
 -1      3261 3.26821E-03-1.07115E-04-1.16316E-14
 -1      3262 3.20266E-03-8.99704E-05-1.13109E-14
 -1      3263 3.65636E-03 4.40070E-04-9.14744E-15
 -1      3264 3.49304E-03 4.13698E-04-8.43971E-15
 -1      3265 3.37534E-03 3.53482E-04-8.20049E-15
 -1      3266 3.70108E-03 4.00863E-04-9.62070E-15
 -1      3267 1.15381E-03 2.64388E-04-1.03552E-15
 -1      3268 1.08610E-03 2.28566E-04-9.84456E-16
 -1      3269 1.20194E-03 2.26494E-04-1.21994E-15
 -1      3270 1.29813E-03 2.81117E-04-1.28928E-15
 -1      3271 2.12873E-03 3.23665E-04-3.33906E-15
 -1      3272 1.98307E-03 3.18539E-04-2.91566E-15
 -1      3273 6.73658E-03-7.59836E-04-2.70996E-14
 -1      3274 1.44433E-03-2.56484E-04-2.02257E-15
 -1      3275 1.58682E-03-2.65861E-04-2.39502E-15
 -1      3276 1.63938E-03-2.38890E-04-2.60608E-15
 -1      3277 7.71124E-03-2.91065E-04-3.09118E-14
 -1      3278 7.59500E-03-3.39939E-04-3.06975E-14
 -1      3279 1.83786E-03 3.12442E-04-2.52134E-15
 -1      3280 1.69290E-03 3.05027E-04-2.15613E-15
 -1      3281 1.89000E-03 2.81180E-04-2.78155E-15
 -1      3282 1.41462E-02-1.00109E-03-1.12528E-13
 -1      3283 7.44801E-03-4.20339E-04-3.05289E-14
 -1      3284 7.27787E-03-4.94541E-04-2.97970E-14
 -1      3285 8.86962E-04-1.76495E-04-8.84438E-16
 -1      3286 4.60468E-03 5.24983E-04-1.45318E-14
 -1      3287 4.78070E-03 6.18376E-04-1.52095E-14
 -1      3288 3.86620E-03-3.26327E-04-1.29810E-14
 -1      3289 3.69570E-03-2.54797E-04-1.25510E-14
 -1      3290 3.36846E-03-2.24662E-05-1.15135E-14
 -1      3291 3.46651E-03 8.79426E-06-1.16365E-14
 -1      3292 7.87952E-03-2.33994E-04-3.12473E-14
 -1      3293 7.80142E-03-2.57300E-04-3.10819E-14
 -1      3294 7.81375E-03-2.85694E-04-3.19662E-14
 -1      3295 7.98485E-03-2.05293E-04-3.16676E-14
 -1      3296 7.94455E-03-2.15427E-04-3.14595E-14
 -1      3297 7.96140E-03-2.35302E-04-3.23543E-14
 -1      3298 3.20512E-03-6.71300E-05-1.12062E-14
 -1      3299 3.26876E-03-4.92111E-05-1.13083E-14
 -1      3300 9.83688E-04 9.49124E-06-1.13745E-15
 -1      3301 9.83355E-04-1.09604E-05-1.14878E-15
 -1      3302 1.09878E-03 2.10822E-05-1.36860E-15
 -1      3303 7.33185E-03 8.19416E-05-2.96153E-14
 -1      3304 2.27490E-03 3.28366E-04-3.79164E-15
 -1      3305 2.17843E-03 2.90125E-04-3.63782E-15
 -1      3306 2.42179E-03 3.33072E-04-4.27295E-15
 -1      3307 3.92315E-03-3.80524E-04-1.28244E-14
 -1      3308 1.40176E-02-4.62564E-04-1.11345E-13
 -1      3309 1.40057E-02-4.20802E-04-1.11209E-13
 -1      3310 5.44916E-03 8.81670E-04-1.84515E-14
 -1      3311 5.53953E-03 8.96169E-04-1.89377E-14
 -1      3312 5.41036E-03 9.09534E-04-1.80331E-14
 -1      3313 5.30854E-03 8.56834E-04-1.76235E-14
 -1      3314 3.61496E-03-3.10926E-04-1.12854E-14
 -1      3315 3.77410E-03-3.84522E-04-1.17093E-14
 -1      3316 3.15601E-03-7.63209E-05-1.08403E-14
 -1      3317 3.12036E-03-6.15118E-05-1.03766E-14
 -1      3318 3.12372E-03-8.54074E-05-1.04761E-14
 -1      3319 3.94397E-03-4.28268E-04-1.25402E-14
 -1      3320 8.04189E-03-2.05060E-04-3.27183E-14
 -1      3321 1.00571E-03-1.19157E-04-1.17185E-15
 -1      3322 1.01482E-03-1.44013E-04-1.16863E-15
 -1      3323 1.18848E-03-2.31125E-04-1.43504E-15
 -1      3324 1.31633E-03-2.44817E-04-1.71629E-15
 -1      3325 1.37190E-03-2.21391E-04-1.89711E-15
 -1      3326 6.91144E-03-6.59712E-04-2.78902E-14
 -1      3327 7.10536E-03-5.92312E-04-2.91976E-14
 -1      3328 1.39482E-02-6.40405E-04-1.10238E-13
 -1      3329 1.40659E-02-6.30461E-04-1.11866E-13
 -1      3330 1.40538E-02-5.88358E-04-1.11737E-13
 -1      3331 1.01259E-03-1.94400E-04-1.10679E-15
 -1      3332 2.76328E-03 3.07858E-04-5.69335E-15
 -1      3333 2.71856E-03 3.44637E-04-5.32135E-15
 -1      3334 2.56959E-03 3.38311E-04-4.78267E-15
 -1      3335 4.81093E-03 6.94804E-04-1.49304E-14
 -1      3336 5.24670E-03 8.88478E-04-1.70171E-14
 -1      3337 6.40882E-03 6.00249E-04-2.46907E-14
 -1      3338 3.28898E-03-1.23800E-04-1.13987E-14
 -1      3339 1.40417E-02-5.46520E-04-1.11608E-13
 -1      3340 1.40296E-02-5.04411E-04-1.11478E-13
 -1      3341 1.38999E-02-4.72868E-04-1.09719E-13
 -1      3342 1.39239E-02-5.56512E-04-1.09983E-13
 -1      3343 9.94062E-04 7.32349E-05-1.08950E-15
 -1      3344 1.10687E-03 6.67470E-05-1.33133E-15
 -1      3345 1.00046E-03 9.61118E-05-1.06855E-15
 -1      3346 7.95571E-03-1.70299E-04-3.19874E-14
 -1      3347 8.03910E-03-1.80369E-04-3.31319E-14
 -1      3348 7.93234E-03-1.54870E-04-3.22512E-14
 -1      3349 1.41641E-02-9.66249E-04-1.12820E-13
 -1      3350 1.41517E-02-9.24129E-04-1.12704E-13
 -1      3351 7.66537E-03-8.25433E-05-3.05864E-14
 -1      3352 7.78357E-03-1.10258E-04-3.14349E-14
 -1      3353 7.61645E-03-4.23436E-05-3.08966E-14
 -1      3354 1.40162E-02-9.69112E-04-1.10795E-13
 -1      3355 4.86083E-03 6.80166E-04-1.53942E-14
 -1      3356 3.26670E-03-2.93721E-05-1.09355E-14
 -1      3357 4.30647E-03 3.98329E-04-1.33036E-14
 -1      3358 4.45563E-03 4.58155E-04-1.39107E-14
 -1      3359 4.53311E-03 5.32330E-04-1.39435E-14
 -1      3360 3.57481E-03-2.18296E-04-1.20847E-14
 -1      3361 3.46341E-03-1.90879E-04-1.16268E-14
 -1      3362 3.61249E-03-2.58061E-04-1.18376E-14
 -1      3363 3.52801E-03 4.36610E-05-1.15385E-14
 -1      3364 3.58919E-03 8.36040E-05-1.14387E-14
 -1      3365 3.42475E-03 3.24998E-05-1.10391E-14
 -1      3366 1.14296E-03 1.71101E-04-1.21924E-15
 -1      3367 1.01759E-03 1.46000E-04-1.01723E-15
 -1      3368 1.00838E-03 1.20356E-04-1.04466E-15
 -1      3369 7.59721E-03-3.90196E-04-3.16213E-14
 -1      3370 5.91634E-03 8.12552E-04-2.14439E-14
 -1      3371 3.95208E-03 1.98640E-04-1.25983E-14
 -1      3372 4.05109E-03 2.62508E-04-1.26723E-14
 -1      3373 3.80542E-03 1.58785E-04-1.20195E-14
 -1      3374 1.40219E-02-8.92545E-04-1.10968E-13
 -1      3375 1.56783E-03 3.00833E-04-1.85241E-15
 -1      3376 1.42316E-03 2.89547E-04-1.54243E-15
 -1      3377 1.37366E-03 2.61669E-04-1.50565E-15
 -1      3378 1.62212E-03 2.72380E-04-2.07630E-15
 -1      3379 9.92010E-04-7.35085E-05-1.16976E-15
 -1      3380 9.98048E-04-9.57556E-05-1.17220E-15
 -1      3381 1.11852E-03-1.15592E-04-1.41780E-15
 -1      3382 5.20900E-03 8.35109E-04-1.70283E-14
 -1      3383 2.10660E-03-2.23794E-04-4.20874E-15
 -1      3384 2.24398E-03-2.26167E-04-4.72998E-15
 -1      3385 2.38074E-03-2.28411E-04-5.28001E-15
 -1      3386 2.51718E-03-2.30753E-04-5.85914E-15
 -1      3387 2.28643E-03-1.97115E-04-5.00147E-15
 -1      3388 2.65316E-03-2.33604E-04-6.46533E-15
 -1      3389 2.78924E-03-2.37304E-04-7.09961E-15
 -1      3390 2.55298E-03-2.00797E-04-6.15476E-15
 -1      3391 2.92538E-03-2.42186E-04-7.76167E-15
 -1      3392 3.06261E-03-2.48921E-04-8.45015E-15
 -1      3393 2.81655E-03-2.06017E-04-7.41953E-15
 -1      3394 3.20102E-03-2.57878E-04-9.16473E-15
 -1      3395 3.34215E-03-2.69977E-04-9.90587E-15
 -1      3396 3.07905E-03-2.15190E-04-8.79159E-15
 -1      3397 7.91226E-03-3.86438E-04-3.48416E-14
 -1      3398 8.05016E-03-3.87310E-04-3.62623E-14
 -1      3399 8.18487E-03-3.91829E-04-3.77041E-14
 -1      3400 8.31872E-03-3.98514E-04-3.91661E-14
 -1      3401 8.15831E-03-3.52630E-04-3.69061E-14
 -1      3402 8.45144E-03-4.07423E-04-4.06450E-14
 -1      3403 8.58430E-03-4.17830E-04-4.21430E-14
 -1      3404 8.41248E-03-3.70392E-04-3.98237E-14
 -1      3405 8.71711E-03-4.29641E-04-4.36642E-14
 -1      3406 8.85053E-03-4.42534E-04-4.51989E-14
 -1      3407 8.66855E-03-3.93141E-04-4.28200E-14
 -1      3408 8.98438E-03-4.56333E-04-4.67511E-14
 -1      3409 9.11901E-03-4.70886E-04-4.83234E-14
 -1      3410 8.92832E-03-4.19426E-04-4.58890E-14
 -1      3411 9.25424E-03-4.85993E-04-4.99102E-14
 -1      3412 9.39026E-03-5.01570E-04-5.15119E-14
 -1      3413 9.19226E-03-4.48240E-04-4.90258E-14
 -1      3414 9.52691E-03-5.17434E-04-5.31295E-14
 -1      3415 9.66428E-03-5.33536E-04-5.47631E-14
 -1      3416 9.46022E-03-4.78698E-04-5.22284E-14
 -1      3417 9.80222E-03-5.49725E-04-5.64133E-14
 -1      3418 9.94078E-03-5.65976E-04-5.80796E-14
 -1      3419 9.73178E-03-5.10036E-04-5.54953E-14
 -1      3420 1.00798E-02-5.82174E-04-5.97620E-14
 -1      3421 1.02194E-02-5.98309E-04-6.14579E-14
 -1      3422 1.00064E-02-5.41642E-04-5.88267E-14
 -1      3423 1.03594E-02-6.14300E-04-6.31695E-14
 -1      3424 1.04998E-02-6.30149E-04-6.48960E-14
 -1      3425 1.02837E-02-5.73064E-04-6.22197E-14
 -1      3426 1.06405E-02-6.45804E-04-6.66357E-14
 -1      3427 1.07815E-02-6.61272E-04-6.83903E-14
 -1      3428 1.05630E-02-6.04003E-04-6.56699E-14
 -1      3429 1.09228E-02-6.76525E-04-7.01591E-14
 -1      3430 1.10644E-02-6.91574E-04-7.19384E-14
 -1      3431 1.08439E-02-6.34285E-04-6.91764E-14
 -1      3432 1.12061E-02-7.06408E-04-7.37289E-14
 -1      3433 1.13481E-02-7.21039E-04-7.55330E-14
 -1      3434 1.11262E-02-6.63834E-04-7.27336E-14
 -1      3435 1.14902E-02-7.35468E-04-7.73475E-14
 -1      3436 1.16324E-02-7.49708E-04-7.91721E-14
 -1      3437 1.14094E-02-6.92647E-04-7.63380E-14
 -1      3438 1.17747E-02-7.63765E-04-8.10082E-14
 -1      3439 1.19171E-02-7.77653E-04-8.28521E-14
 -1      3440 1.16934E-02-7.20764E-04-7.99880E-14
 -1      3441 1.20597E-02-7.91382E-04-8.47034E-14
 -1      3442 1.22022E-02-8.04966E-04-8.65621E-14
 -1      3443 1.19780E-02-7.48254E-04-8.36739E-14
 -1      3444 1.23449E-02-8.18415E-04-8.84290E-14
 -1      3445 1.24876E-02-8.31741E-04-9.03049E-14
 -1      3446 1.22630E-02-7.75198E-04-8.73925E-14
 -1      3447 1.26303E-02-8.44957E-04-9.21872E-14
 -1      3448 1.27731E-02-8.58072E-04-9.40799E-14
 -1      3449 1.25482E-02-8.01681E-04-9.11418E-14
 -1      3450 1.29159E-02-8.71099E-04-9.59802E-14
 -1      3451 1.30587E-02-8.84045E-04-9.78855E-14
 -1      3452 1.28336E-02-8.27784E-04-9.49239E-14
 -1      3453 1.32015E-02-8.96922E-04-9.98001E-14
 -1      3454 1.33444E-02-9.09737E-04-1.01717E-13
 -1      3455 1.31192E-02-8.53582E-04-9.87376E-14
 -1      3456 1.34872E-02-9.22499E-04-1.03641E-13
 -1      3457 1.36301E-02-9.35215E-04-1.05569E-13
 -1      3458 1.34049E-02-8.79142E-04-1.02574E-13
 -1      3459 1.37517E-02-9.45862E-04-1.07213E-13
 -1      3460 1.38946E-02-9.58513E-04-1.09148E-13
 -1      3461 1.39126E-02-9.23707E-04-1.09436E-13
 -1      3462 1.36693E-02-9.02492E-04-1.06142E-13
 -1      3463 1.40181E-02-3.92859E-04-1.11397E-13
 -1      3464 1.40142E-02-3.57969E-04-1.11368E-13
 -1      3465 1.39251E-02-3.47226E-04-1.10145E-13
 -1      3466 1.39003E-02-4.03107E-04-1.09770E-13
 -1      3467 4.49621E-03 5.60130E-04-1.35014E-14
 -1      3468 4.30865E-03 4.97013E-04-1.26442E-14
 -1      3469 4.09019E-03 4.35232E-04-1.16591E-14
 -1      3470 3.91298E-03 3.92348E-04-1.08642E-14
 -1      3471 3.46341E-03-2.48636E-04-1.08673E-14
 -1      3472 7.35548E-03 2.28955E-04-3.13295E-14
 -1      3473 7.18427E-03 2.75582E-04-2.99865E-14
 -1      3474 7.10416E-03 2.70276E-04-2.91867E-14
 -1      3475 6.92372E-03 3.31032E-04-2.78807E-14
 -1      3476 7.99005E-03 1.07653E-04-3.69284E-14
 -1      3477 7.83770E-03 1.30929E-04-3.54966E-14
 -1      3478 8.28655E-03 7.08584E-05-3.98566E-14
 -1      3479 8.13946E-03 8.80051E-05-3.83820E-14
 -1      3480 8.10945E-03 5.48950E-05-3.77945E-14
 -1      3481 8.57577E-03 4.28528E-05-4.28651E-14
 -1      3482 8.43181E-03 5.60375E-05-4.13502E-14
 -1      3483 8.39734E-03 2.47251E-05-4.07448E-14
 -1      3484 8.86098E-03 2.04082E-05-4.59552E-14
 -1      3485 8.71870E-03 3.11077E-05-4.44013E-14
 -1      3486 8.67973E-03 8.63797E-07-4.37768E-14
 -1      3487 9.14425E-03 1.32416E-06-4.91176E-14
 -1      3488 9.00274E-03 1.05590E-05-4.75258E-14
 -1      3489 8.95960E-03-1.92083E-05-4.68842E-14
 -1      3490 9.42685E-03-1.59585E-05-5.23517E-14
 -1      3491 9.28556E-03-7.46881E-06-5.07269E-14
 -1      3492 9.23875E-03-3.71361E-05-5.00650E-14
 -1      3493 9.70945E-03-3.25303E-05-5.56506E-14
 -1      3494 9.56810E-03-2.42861E-05-5.39940E-14
 -1      3495 9.51816E-03-5.40618E-05-5.33157E-14
 -1      3496 9.99239E-03-4.91308E-05-5.90123E-14
 -1      3497 9.85085E-03-4.07981E-05-5.73221E-14
 -1      3498 9.79831E-03-7.07747E-05-5.66310E-14
 -1      3499 1.02758E-02-6.62332E-05-6.24304E-14
 -1      3500 1.01340E-02-5.76034E-05-6.07151E-14
 -1      3501 1.00794E-02-8.78023E-05-6.00059E-14
 -1      3502 1.05597E-02-8.41103E-05-6.59059E-14
 -1      3503 1.04177E-02-7.50680E-05-6.41623E-14
 -1      3504 1.03614E-02-1.05473E-04-6.34379E-14
 -1      3505 1.08440E-02-1.02889E-04-6.94349E-14
 -1      3506 1.07018E-02-9.33861E-05-6.76626E-14
 -1      3507 1.06442E-02-1.23963E-04-6.69261E-14
 -1      3508 1.11288E-02-1.22596E-04-7.30177E-14
 -1      3509 1.09863E-02-1.12629E-04-7.12203E-14
 -1      3510 1.09278E-02-1.43340E-04-7.04681E-14
 -1      3511 1.14138E-02-1.43191E-04-7.66463E-14
 -1      3512 1.12712E-02-1.32788E-04-7.48263E-14
 -1      3513 1.12119E-02-1.63597E-04-7.40637E-14
 -1      3514 1.16990E-02-1.64596E-04-8.03177E-14
 -1      3515 1.15564E-02-1.53799E-04-7.84755E-14
 -1      3516 1.14965E-02-1.84675E-04-7.77017E-14
 -1      3517 1.19844E-02-1.86711E-04-8.40317E-14
 -1      3518 1.18417E-02-1.75571E-04-8.21692E-14
 -1      3519 1.17815E-02-2.06491E-04-8.13815E-14
 -1      3520 1.22700E-02-2.09432E-04-8.77894E-14
 -1      3521 1.21272E-02-1.98003E-04-8.59067E-14
 -1      3522 1.20667E-02-2.28948E-04-8.51065E-14
 -1      3523 1.25556E-02-2.32656E-04-9.15828E-14
 -1      3524 1.24128E-02-2.20987E-04-8.96819E-14
 -1      3525 1.23521E-02-2.51944E-04-8.88718E-14
 -1      3526 1.28413E-02-2.56286E-04-9.54076E-14
 -1      3527 1.26984E-02-2.44425E-04-9.34910E-14
 -1      3528 1.26377E-02-2.75386E-04-9.26703E-14
 -1      3529 1.31270E-02-2.80236E-04-9.92601E-14
 -1      3530 1.29841E-02-2.68225E-04-9.73301E-14
 -1      3531 1.29233E-02-2.99185E-04-9.64999E-14
 -1      3532 1.34127E-02-3.04429E-04-1.03139E-13
 -1      3533 1.32698E-02-2.92306E-04-1.01197E-13
 -1      3534 1.32090E-02-3.23264E-04-1.00358E-13
 -1      3535 1.38551E-02-7.34785E-04-1.08865E-13
 -1      3536 1.38428E-02-6.92734E-04-1.08740E-13
 -1      3537 1.07139E-03-1.76998E-04-1.25133E-15
 -1      3538 7.68163E-03 1.57981E-04-3.40856E-14
 -1      3539 7.52127E-03 1.90654E-04-3.26961E-14
 -1      3540 7.49645E-03 1.52812E-04-3.21481E-14
 -1      3541 7.81135E-03 9.53776E-05-3.49289E-14
 -1      3542 8.09939E-03-2.05577E-04-3.37376E-14
 -1      3543 8.08204E-03-2.20064E-04-3.35872E-14
 -1      3544 3.31326E-03-1.50460E-04-1.10650E-14
 -1      3545 3.19287E-03-1.20074E-04-1.06140E-14
 -1      3546 1.38797E-02-8.18901E-04-1.09110E-13
 -1      3547 1.38674E-02-7.76841E-04-1.08988E-13
 -1      3548 1.37375E-02-7.44981E-04-1.07246E-13
 -1      3549 6.76115E-03 3.92883E-04-2.67830E-14
 -1      3550 1.94144E-03 2.50023E-04-3.04902E-15
 -1      3551 1.79902E-03 2.45415E-04-2.64545E-15
 -1      3552 3.10369E-03 2.85406E-04-7.30321E-15
 -1      3553 2.95346E-03 2.76806E-04-6.67279E-15
 -1      3554 7.74379E-03-3.78360E-04-3.29960E-14
 -1      3555 1.83037E-03-2.17175E-04-3.25398E-15
 -1      3556 1.96878E-03-2.20858E-04-3.71675E-15
 -1      3557 2.01648E-03-1.92914E-04-3.96169E-15
 -1      3558 8.04326E-03-2.38788E-04-3.34681E-14
 -1      3559 7.98472E-03-2.57397E-04-3.32507E-14
 -1      3560 9.84638E-04-3.14176E-05-1.15813E-15
 -1      3561 9.87506E-04-5.21606E-05-1.16508E-15
 -1      3562 1.10456E-03-6.78294E-05-1.41201E-15
 -1      3563 3.17737E-03-2.83756E-05-1.03337E-14
 -1      3564 3.26865E-03-2.42106E-06-1.05290E-14
 -1      3565 6.41336E-03 5.54509E-04-2.45735E-14
 -1      3566 6.53987E-03 4.85353E-04-2.53181E-14
 -1      3567 6.63414E-03 4.58207E-04-2.60179E-14
 -1      3568 7.33519E-03 1.09203E-04-3.00177E-14
 -1      3569 7.47446E-03 2.79809E-05-3.04593E-14
 -1      3570 7.60952E-03-1.58269E-05-3.13106E-14
 -1      3571 1.39003E-02-8.81984E-04-1.09317E-13
 -1      3572 1.18525E-03-1.74161E-04-1.50939E-15
 -1      3573 1.55249E-03-2.06121E-04-2.41736E-15
 -1      3574 1.69162E-03-2.12327E-04-2.82077E-15
 -1      3575 1.74354E-03-1.86164E-04-3.03842E-15
 -1      3576 7.25918E-03 1.80513E-04-2.99800E-14
 -1      3577 7.87739E-03-3.31026E-04-3.36168E-14
 -1      3578 2.46894E-03 2.97784E-04-4.60851E-15
 -1      3579 1.12175E-03 1.16114E-04-1.28234E-15
 -1      3580 2.22694E-03 2.56694E-04-3.94229E-15
 -1      3581 2.08401E-03 2.53679E-04-3.48114E-15
 -1      3582 1.99207E-03 2.18989E-04-3.32315E-15
 -1      3583 1.21505E-03 3.39911E-05-1.61928E-15
 -1      3584 1.21242E-03 1.02614E-05-1.63766E-15
 -1      3585 3.10933E-03-1.02254E-04-1.01613E-14
 -1      3586 3.03930E-03-8.71984E-05-9.71571E-15
 -1      3587 3.10480E-03-1.23677E-04-9.84441E-15
 -1      3588 3.03282E-03-5.47369E-05-9.63924E-15
 -1      3589 3.09696E-03-4.32352E-05-9.98573E-15
 -1      3590 3.07821E-03-2.15672E-05-9.59899E-15
 -1      3591 1.09794E-03-2.30589E-05-1.39533E-15
 -1      3592 6.31097E-03 6.29456E-04-2.40110E-14
 -1      3593 1.30601E-03-1.86708E-04-1.78483E-15
 -1      3594 1.43105E-03-1.96134E-04-2.09598E-15
 -1      3595 1.48628E-03-1.72675E-04-2.28582E-15
 -1      3596 1.24710E-03-1.52707E-04-1.68348E-15
 -1      3597 1.37704E-02-8.50048E-04-1.07580E-13
 -1      3598 2.80549E-03 2.70634E-04-6.07053E-15
 -1      3599 2.65923E-03 2.65956E-04-5.49624E-15
 -1      3600 2.84501E-03 2.32815E-04-6.45318E-15
 -1      3601 4.16488E-03 4.02660E-04-1.23269E-14
 -1      3602 1.32530E-03 2.34943E-04-1.46584E-15
 -1      3603 1.27818E-03 2.09295E-04-1.42381E-15
 -1      3604 1.44874E-03 2.41218E-04-1.73565E-15
 -1      3605 3.77523E-03 3.13949E-04-1.05761E-14
 -1      3606 3.74085E-03 3.58846E-04-1.00973E-14
 -1      3607 3.57483E-03 3.32291E-04-9.35740E-15
 -1      3608 1.71049E-03 2.11242E-04-2.50688E-15
 -1      3609 1.65683E-03 2.39439E-04-2.27028E-15
 -1      3610 8.12222E-03-2.38267E-04-3.44989E-14
 -1      3611 1.37130E-02-6.60935E-04-1.06996E-13
 -1      3612 1.38306E-02-6.50683E-04-1.08615E-13
 -1      3613 1.38184E-02-6.08632E-04-1.08487E-13
 -1      3614 1.36985E-02-3.28800E-04-1.07040E-13
 -1      3615 1.35556E-02-3.16596E-04-1.05088E-13
 -1      3616 1.38360E-02-3.36492E-04-1.08924E-13
 -1      3617 1.53382E-03 2.36442E-04-1.95871E-15
 -1      3618 7.90237E-03-1.30952E-04-3.25728E-14
 -1      3619 8.01119E-03-1.46278E-04-3.37245E-14
 -1      3620 7.87093E-03-1.01803E-04-3.28931E-14
 -1      3621 1.21973E-03 5.81693E-05-1.59790E-15
 -1      3622 1.33257E-03 4.78579E-05-1.88860E-15
 -1      3623 1.22634E-03 8.31829E-05-1.57331E-15
 -1      3624 1.37751E-02-3.67453E-04-1.08072E-13
 -1      3625 4.63479E-03 6.17168E-04-1.41166E-14
 -1      3626 3.33876E-03-1.79061E-04-1.08306E-14
 -1      3627 1.23597E-03-1.25528E-04-1.68516E-15
 -1      3628 1.35393E-03-1.34747E-04-1.97519E-15
 -1      3629 1.22686E-03-9.96341E-05-1.68341E-15
 -1      3630 3.41353E-03 3.12354E-04-8.64524E-15
 -1      3631 3.25685E-03 2.96770E-04-7.96084E-15
 -1      3632 3.13951E-03 2.44824E-04-7.71936E-15
 -1      3633 3.44714E-03 2.68742E-04-9.09423E-15
 -1      3634 4.08211E-03 3.30492E-04-1.23007E-14
 -1      3635 1.37627E-02-3.95380E-04-1.07888E-13
 -1      3636 3.30982E-03 2.42382E-05-1.04354E-14
 -1      3637 3.35416E-03 5.50891E-05-1.03399E-14
 -1      3638 3.20155E-03 2.06699E-05-9.84737E-15
 -1      3639 1.26411E-03 1.78002E-04-1.46594E-15
 -1      3640 7.39728E-03 1.23021E-04-3.08323E-14
 -1      3641 3.67939E-03 1.28968E-04-1.15098E-14
 -1      3642 3.76979E-03 1.79904E-04-1.15790E-14
 -1      3643 3.56075E-03 1.07316E-04-1.10105E-14
 -1      3644 8.10953E-03-1.83821E-04-3.42803E-14
 -1      3645 8.10882E-03-1.95324E-04-3.40097E-14
 -1      3646 8.16923E-03-2.10207E-04-3.48938E-14
 -1      3647 1.34947E-02-3.47553E-04-1.04241E-13
 -1      3648 3.93297E-03 2.82883E-04-1.17264E-14
 -1      3649 1.37867E-02-4.79008E-04-1.08160E-13
 -1      3650 1.37747E-02-4.37199E-04-1.08025E-13
 -1      3651 1.36495E-02-4.01564E-04-1.06333E-13
 -1      3652 7.94900E-03-3.00602E-04-3.37960E-14
 -1      3653 8.05485E-03-2.99578E-04-3.49283E-14
 -1      3654 2.45880E-03-1.70760E-04-5.84886E-15
 -1      3655 2.58786E-03-1.72288E-04-6.45150E-15
 -1      3656 2.71533E-03-1.74184E-04-7.08182E-15
 -1      3657 2.84180E-03-1.76461E-04-7.73941E-15
 -1      3658 2.62219E-03-1.45331E-04-6.74840E-15
 -1      3659 8.16962E-03-3.08299E-04-3.63498E-14
 -1      3660 8.28693E-03-3.18379E-04-3.77921E-14
 -1      3661 8.17834E-03-2.69886E-04-3.57890E-14
 -1      3662 8.40542E-03-3.28936E-04-3.92534E-14
 -1      3663 8.52629E-03-3.40491E-04-4.07316E-14
 -1      3664 8.39491E-03-2.91680E-04-3.86761E-14
 -1      3665 8.64868E-03-3.52476E-04-4.22318E-14
 -1      3666 8.77315E-03-3.65210E-04-4.37501E-14
 -1      3667 8.62559E-03-3.14990E-04-4.16394E-14
 -1      3668 8.89917E-03-3.78313E-04-4.52846E-14
 -1      3669 9.02694E-03-3.92044E-04-4.68365E-14
 -1      3670 8.86735E-03-3.39729E-04-4.46764E-14
 -1      3671 9.15612E-03-4.06061E-04-4.84078E-14
 -1      3672 9.28679E-03-4.20533E-04-4.99946E-14
 -1      3673 9.11794E-03-3.65972E-04-4.77864E-14
 -1      3674 9.41870E-03-4.35181E-04-5.15972E-14
 -1      3675 9.55186E-03-4.50120E-04-5.32178E-14
 -1      3676 9.37569E-03-3.93431E-04-5.09636E-14
 -1      3677 9.68606E-03-4.65126E-04-5.48529E-14
 -1      3678 9.82130E-03-4.80280E-04-5.65058E-14
 -1      3679 9.63930E-03-4.21723E-04-5.42083E-14
 -1      3680 9.95741E-03-4.95408E-04-5.81741E-14
 -1      3681 1.00944E-02-5.10572E-04-5.98580E-14
 -1      3682 9.90769E-03-4.50457E-04-5.75178E-14
 -1      3683 1.02320E-02-5.25641E-04-6.15566E-14
 -1      3684 1.03704E-02-5.40665E-04-6.32690E-14
 -1      3685 1.01800E-02-4.79299E-04-6.08891E-14
 -1      3686 1.05093E-02-5.55551E-04-6.49960E-14
 -1      3687 1.06488E-02-5.70340E-04-6.67358E-14
 -1      3688 1.04555E-02-5.07998E-04-6.43190E-14
 -1      3689 1.07888E-02-5.84968E-04-6.84902E-14
 -1      3690 1.09291E-02-5.99471E-04-7.02585E-14
 -1      3691 1.07334E-02-5.36387E-04-6.78015E-14
 -1      3692 1.10698E-02-6.13808E-04-7.20380E-14
 -1      3693 1.12109E-02-6.28008E-04-7.38284E-14
 -1      3694 1.10134E-02-5.64375E-04-7.13369E-14
 -1      3695 1.13522E-02-6.42049E-04-7.56345E-14
 -1      3696 1.14938E-02-6.55955E-04-7.74501E-14
 -1      3697 1.12950E-02-5.91922E-04-7.49251E-14
 -1      3698 1.16356E-02-6.69714E-04-7.92741E-14
 -1      3699 1.17775E-02-6.83348E-04-8.11095E-14
 -1      3700 1.15777E-02-6.19032E-04-7.85573E-14
 -1      3701 1.19196E-02-6.96853E-04-8.29552E-14
 -1      3702 1.20619E-02-7.10245E-04-8.48062E-14
 -1      3703 1.18614E-02-6.45733E-04-8.22294E-14
 -1      3704 1.22043E-02-7.23528E-04-8.66680E-14
 -1      3705 1.23467E-02-7.36714E-04-8.85363E-14
 -1      3706 1.21457E-02-6.72070E-04-8.59389E-14
 -1      3707 1.24893E-02-7.49808E-04-9.04101E-14
 -1      3708 1.26319E-02-7.62821E-04-9.22975E-14
 -1      3709 1.24305E-02-6.98092E-04-8.96794E-14
 -1      3710 1.27746E-02-7.75760E-04-9.41887E-14
 -1      3711 1.29173E-02-7.88633E-04-9.60905E-14
 -1      3712 1.27156E-02-7.23851E-04-9.34510E-14
 -1      3713 1.30601E-02-8.01448E-04-9.79968E-14
 -1      3714 1.32029E-02-8.14211E-04-9.99097E-14
 -1      3715 1.30010E-02-7.49396E-04-9.72540E-14
 -1      3716 1.33457E-02-8.26928E-04-1.01829E-13
 -1      3717 1.34885E-02-8.39607E-04-1.03751E-13
 -1      3718 1.32866E-02-7.74772E-04-1.01082E-13
 -1      3719 1.48547E-03 2.10976E-04-1.90894E-15
 -1      3720 1.76388E-03 1.83092E-04-2.75107E-15
 -1      3721 1.62468E-03 1.78865E-04-2.36688E-15
 -1      3722 2.51430E-03 2.62439E-04-4.95017E-15
 -1      3723 2.37027E-03 2.59480E-04-4.43226E-15
 -1      3724 2.27416E-03 2.23379E-04-4.25364E-15
 -1      3725 8.78077E-03-3.87239E-05-4.46886E-14
 -1      3726 8.64306E-03-2.87233E-05-4.31508E-14
 -1      3727 8.21767E-03-2.48719E-04-3.59146E-14
 -1      3728 8.22600E-03 6.66025E-06-3.86641E-14
 -1      3729 8.08397E-03 2.15200E-05-3.72088E-14
 -1      3730 9.05572E-03-5.71639E-05-4.78134E-14
 -1      3731 8.91821E-03-4.81424E-05-4.62433E-14
 -1      3732 8.87849E-03-7.62498E-05-4.56007E-14
 -1      3733 9.33118E-03-7.44735E-05-5.10138E-14
 -1      3734 9.19331E-03-6.59110E-05-4.94047E-14
 -1      3735 9.14913E-03-9.37795E-05-4.87463E-14
 -1      3736 9.60783E-03-9.14240E-05-5.42811E-14
 -1      3737 9.46932E-03-8.29647E-05-5.26392E-14
 -1      3738 9.42148E-03-1.10968E-04-5.19637E-14
 -1      3739 9.88591E-03-1.08544E-04-5.76099E-14
 -1      3740 9.74667E-03-9.99463E-05-5.59373E-14
 -1      3741 9.69584E-03-1.28279E-04-5.52461E-14
 -1      3742 1.01654E-02-1.26182E-04-6.10007E-14
 -1      3743 1.00255E-02-1.17290E-04-5.92981E-14
 -1      3744 9.97224E-03-1.46029E-04-5.85908E-14
 -1      3745 1.04462E-02-1.44544E-04-6.44470E-14
 -1      3746 1.03057E-02-1.35270E-04-6.27162E-14
 -1      3747 1.02505E-02-1.64421E-04-6.19965E-14
 -1      3748 1.07282E-02-1.63729E-04-6.79487E-14
 -1      3749 1.05871E-02-1.54036E-04-6.61919E-14
 -1      3750 1.05304E-02-1.83566E-04-6.54569E-14
 -1      3751 1.10111E-02-1.83758E-04-7.15051E-14
 -1      3752 1.08696E-02-1.73643E-04-6.97193E-14
 -1      3753 1.08117E-02-2.03501E-04-6.89732E-14
 -1      3754 1.12948E-02-2.04597E-04-7.51097E-14
 -1      3755 1.11529E-02-1.94083E-04-7.33006E-14
 -1      3756 1.10942E-02-2.24212E-04-7.25406E-14
 -1      3757 1.15791E-02-2.26178E-04-7.87555E-14
 -1      3758 1.14369E-02-2.15301E-04-7.69266E-14
 -1      3759 1.13775E-02-2.45648E-04-7.61538E-14
 -1      3760 1.18639E-02-2.48415E-04-8.24470E-14
 -1      3761 1.17214E-02-2.37221E-04-8.05966E-14
 -1      3762 1.16616E-02-2.67735E-04-7.98123E-14
 -1      3763 1.21489E-02-2.71215E-04-8.61789E-14
 -1      3764 1.20064E-02-2.59751E-04-8.43075E-14
 -1      3765 1.19462E-02-2.90392E-04-8.35109E-14
 -1      3766 1.24343E-02-2.94487E-04-8.99519E-14
 -1      3767 1.22916E-02-2.82798E-04-8.80615E-14
 -1      3768 1.22311E-02-3.13532E-04-8.72522E-14
 -1      3769 1.27197E-02-3.18145E-04-9.37566E-14
 -1      3770 1.25770E-02-3.06273E-04-9.18505E-14
 -1      3771 1.25164E-02-3.37073E-04-9.10319E-14
 -1      3772 1.30053E-02-3.42110E-04-9.75927E-14
 -1      3773 1.28625E-02-3.30094E-04-9.56702E-14
 -1      3774 1.28018E-02-3.60941E-04-9.48422E-14
 -1      3775 1.32910E-02-3.66314E-04-1.01454E-13
 -1      3776 1.31482E-02-3.54186E-04-9.95188E-14
 -1      3777 1.30874E-02-3.85065E-04-9.86830E-14
 -1      3778 3.80200E-03 2.46862E-04-1.12216E-14
 -1      3779 7.64106E-03 1.06741E-05-3.21198E-14
 -1      3780 7.76408E-03-5.09522E-05-3.25673E-14
 -1      3781 1.38063E-02-5.66844E-04-1.08358E-13
 -1      3782 1.37942E-02-5.25052E-04-1.08228E-13
 -1      3783 1.36887E-02-5.77157E-04-1.06739E-13
 -1      3784 1.66009E-03-1.56639E-04-2.82657E-15
 -1      3785 1.79559E-03-1.60512E-04-3.25815E-15
 -1      3786 1.36200E-02-7.55139E-04-1.05631E-13
 -1      3787 1.36077E-02-7.13145E-04-1.05505E-13
 -1      3788 1.32651E-03-1.92418E-06-1.93057E-15
 -1      3789 1.21189E-03-1.31205E-05-1.65325E-15
 -1      3790 1.21348E-03-3.65424E-05-1.66597E-15
 -1      3791 1.36689E-03 1.78835E-04-1.70220E-15
 -1      3792 1.23359E-03 1.44391E-04-1.47129E-15
 -1      3793 1.22294E-03 1.16602E-04-1.50379E-15
 -1      3794 1.45108E-03 1.74135E-04-1.92094E-15
 -1      3795 1.21593E-03-5.55068E-05-1.67320E-15
 -1      3796 1.22135E-03-7.96662E-05-1.68046E-15
 -1      3797 1.33707E-03-8.66318E-05-1.96983E-15
 -1      3798 1.32884E-03-4.62108E-05-1.95669E-15
 -1      3799 1.44769E-03-1.42253E-04-2.22031E-15
 -1      3800 1.56608E-03-1.50106E-04-2.55034E-15
 -1      3801 1.62159E-03-1.26588E-04-2.74940E-15
 -1      3802 1.43608E-03-1.14232E-04-2.21812E-15
 -1      3803 1.93030E-03-1.63554E-04-3.71885E-15
 -1      3804 2.06417E-03-1.65841E-04-4.20843E-15
 -1      3805 1.84797E-03-1.35366E-04-3.48030E-15
 -1      3806 7.53001E-03 1.12671E-04-3.21181E-14
 -1      3807 7.59753E-03 4.98099E-05-3.21557E-14
 -1      3808 7.75763E-03 1.03348E-05-3.34271E-14
 -1      3809 7.68725E-03 8.38430E-05-3.34961E-14
 -1      3810 1.35417E-02-3.90014E-04-1.04862E-13
 -1      3811 1.33988E-02-3.77812E-04-1.02918E-13
 -1      3812 1.33380E-02-4.08710E-04-1.02073E-13
 -1      3813 1.35537E-02-4.31789E-04-1.05001E-13
 -1      3814 8.50501E-03-1.80198E-05-4.16354E-14
 -1      3815 8.36604E-03-6.25985E-06-4.01395E-14
 -1      3816 8.60870E-03-5.76941E-05-4.25294E-14
 -1      3817 2.19691E-03-1.67725E-04-4.72709E-15
 -1      3818 2.32856E-03-1.69241E-04-5.27409E-15
 -1      3819 2.37070E-03-1.42617E-04-5.54701E-15
 -1      3820 2.11211E-03-1.39678E-04-4.45714E-15
 -1      3821 3.11297E-03-1.50354E-04-9.59665E-15
 -1      3822 3.01705E-03-1.29136E-04-9.16844E-15
 -1      3823 2.95355E-03-8.79156E-05-9.04360E-15
 -1      3824 2.98630E-03-7.06789E-05-9.34214E-15
 -1      3825 2.94237E-03-5.36305E-05-8.97311E-15
 -1      3826 2.88247E-03-1.51103E-04-8.14133E-15
 -1      3827 2.98496E-03-1.82287E-04-8.50754E-15
 -1      3828 3.10991E-03-1.86685E-04-9.22003E-15
 -1      3829 1.36101E-02-8.50223E-04-1.05393E-13
 -1      3830 1.35896E-02-7.87239E-04-1.05183E-13
 -1      3831 2.55775E-03 2.26978E-04-5.29744E-15
 -1      3832 2.88144E-03 1.94768E-04-6.84100E-15
 -1      3833 2.73967E-03 1.92701E-04-6.23186E-15
 -1      3834 1.90297E-03 1.86143E-04-3.16357E-15
 -1      3835 1.81698E-03 1.55025E-04-3.00228E-15
 -1      3836 2.04208E-03 1.88198E-04-3.60417E-15
 -1      3837 3.63630E-03 2.21581E-04-1.04474E-14
 -1      3838 8.24573E-03-2.32857E-04-3.61150E-14
 -1      3839 8.32140E-03-2.62554E-04-3.74302E-14
 -1      3840 8.42864E-03-2.73395E-04-3.88863E-14
 -1      3841 8.26789E-03-2.21789E-04-3.63964E-14
 -1      3842 8.33806E-03-3.70754E-05-3.95352E-14
 -1      3843 1.35954E-02-6.71155E-04-1.05381E-13
 -1      3844 1.35832E-02-6.29168E-04-1.05253E-13
 -1      3845 1.34778E-02-6.81338E-04-1.03769E-13
 -1      3846 1.36690E-02-4.89384E-04-1.06540E-13
 -1      3847 3.02465E-03 1.97997E-04-7.47670E-15
 -1      3848 2.91444E-03 1.56379E-04-7.23327E-15
 -1      3849 3.17063E-03 2.03408E-04-8.13999E-15
 -1      3850 7.89760E-03-7.74493E-05-3.37209E-14
 -1      3851 1.33574E-03 1.08217E-04-1.78786E-15
 -1      3852 7.96301E-03 3.97272E-05-3.60458E-14
 -1      3853 7.81508E-03 5.97354E-05-3.46289E-14
 -1      3854 7.84579E-03 2.48661E-05-3.45945E-14
 -1      3855 8.08560E-03-1.06305E-05-3.68973E-14
 -1      3856 1.45135E-03 6.25766E-05-2.17621E-15
 -1      3857 1.44530E-03 3.60794E-05-2.20344E-15
 -1      3858 2.99109E-03-1.27779E-05-8.97379E-15
 -1      3859 3.07853E-03 5.13327E-06-9.30315E-15
 -1      3860 1.50750E-03 1.49591E-04-2.13061E-15
 -1      3861 1.34597E-02-7.55358E-04-1.03448E-13
 -1      3862 3.20937E-03-1.81886E-04-9.90385E-15
 -1      3863 3.10529E-03 2.82222E-05-9.21490E-15
 -1      3864 3.30246E-03 7.75780E-05-9.82079E-15
 -1      3865 3.42763E-03 8.92366E-05-1.04075E-14
 -1      3866 3.50456E-03 1.28441E-04-1.04735E-14
 -1      3867 8.10445E-03-1.66451E-04-3.46135E-14
 -1      3868 8.18676E-03-1.83836E-04-3.55080E-14
 -1      3869 8.09343E-03-1.45278E-04-3.49433E-14
 -1      3870 6.59013E-03 5.15991E-04-2.58945E-14
 -1      3871 1.55788E-03 2.30933E-05-2.54220E-15
 -1      3872 1.44182E-03 1.02345E-05-2.22709E-15
 -1      3873 1.44099E-03-1.53259E-05-2.24740E-15
 -1      3874 2.75998E-03-1.21108E-04-7.61663E-15
 -1      3875 2.89057E-03-1.24739E-04-8.37635E-15
 -1      3876 2.90197E-03-1.01313E-04-8.60781E-15
 -1      3877 3.35548E-03-2.21574E-04-1.04332E-14
 -1      3878 3.01839E-03 4.87888E-05-8.55289E-15
 -1      3879 3.14978E-03 6.83989E-05-9.07331E-15
 -1      3880 2.63870E-03 1.56377E-04-6.00899E-15
 -1      3881 2.59925E-03 1.91632E-04-5.65029E-15
 -1      3882 2.45947E-03 1.90918E-04-5.09685E-15
 -1      3883 8.57401E-03-2.85553E-04-4.07963E-14
 -1      3884 8.68984E-03-2.97042E-04-4.22961E-14
 -1      3885 8.80860E-03-3.08630E-04-4.38133E-14
 -1      3886 8.93012E-03-3.20832E-04-4.53479E-14
 -1      3887 8.74773E-03-2.79196E-04-4.29501E-14
 -1      3888 9.05395E-03-3.33218E-04-4.69021E-14
 -1      3889 9.17990E-03-3.46053E-04-4.84739E-14
 -1      3890 8.98838E-03-3.01824E-04-4.60198E-14
 -1      3891 9.30768E-03-3.59058E-04-5.00630E-14
 -1      3892 9.43716E-03-3.72392E-04-5.16676E-14
 -1      3893 9.23858E-03-3.25879E-04-4.91623E-14
 -1      3894 9.56812E-03-3.85839E-04-5.32879E-14
 -1      3895 9.70045E-03-3.99499E-04-5.49266E-14
 -1      3896 9.49620E-03-3.51016E-04-5.23703E-14
 -1      3897 9.83400E-03-4.13209E-04-5.65807E-14
 -1      3898 9.96864E-03-4.27036E-04-5.82514E-14
 -1      3899 9.75981E-03-3.76902E-04-5.56446E-14
 -1      3900 1.01043E-02-4.40857E-04-5.99363E-14
 -1      3901 1.02408E-02-4.54720E-04-6.16364E-14
 -1      3902 1.00283E-02-4.03237E-04-5.89833E-14
 -1      3903 1.03781E-02-4.68535E-04-6.33519E-14
 -1      3904 1.05162E-02-4.82340E-04-6.50775E-14
 -1      3905 1.03006E-02-4.29779E-04-6.23831E-14
 -1      3906 1.06548E-02-4.96071E-04-6.68192E-14
 -1      3907 1.07941E-02-5.09758E-04-6.85726E-14
 -1      3908 1.05762E-02-4.56351E-04-6.58379E-14
 -1      3909 1.09338E-02-5.23357E-04-7.03409E-14
 -1      3910 1.10740E-02-5.36893E-04-7.21203E-14
 -1      3911 1.08542E-02-4.82833E-04-6.93439E-14
 -1      3912 1.12146E-02-5.50338E-04-7.39123E-14
 -1      3913 1.13555E-02-5.63713E-04-7.57187E-14
 -1      3914 1.11343E-02-5.09157E-04-7.29034E-14
 -1      3915 1.14968E-02-5.76999E-04-7.75344E-14
 -1      3916 1.16383E-02-5.90215E-04-7.93581E-14
 -1      3917 1.14159E-02-5.35288E-04-7.65086E-14
 -1      3918 1.17800E-02-6.03350E-04-8.11953E-14
 -1      3919 1.19219E-02-6.16419E-04-8.30420E-14
 -1      3920 1.16987E-02-5.61220E-04-8.01612E-14
 -1      3921 1.20640E-02-6.29417E-04-8.48947E-14
 -1      3922 1.22062E-02-6.42356E-04-8.67574E-14
 -1      3923 1.19823E-02-5.86959E-04-8.38515E-14
 -1      3924 1.23486E-02-6.55235E-04-8.86287E-14
 -1      3925 1.24910E-02-6.68063E-04-9.05066E-14
 -1      3926 1.22667E-02-6.12526E-04-8.75761E-14
 -1      3927 1.26336E-02-6.80842E-04-9.23931E-14
 -1      3928 1.27762E-02-6.93578E-04-9.42888E-14
 -1      3929 1.25515E-02-6.37944E-04-9.13343E-14
 -1      3930 1.29188E-02-7.06275E-04-9.61893E-14
 -1      3931 1.30616E-02-7.18937E-04-9.80981E-14
 -1      3932 1.28367E-02-6.63236E-04-9.51253E-14
 -1      3933 1.31892E-02-7.30864E-04-9.98117E-14
 -1      3934 1.33320E-02-7.43472E-04-1.01730E-13
 -1      3935 1.33624E-02-7.11448E-04-1.02173E-13
 -1      3936 1.31070E-02-6.87725E-04-9.87402E-14
 -1      3937 2.32020E-03 1.90334E-04-4.57109E-15
 -1      3938 2.18107E-03 1.89511E-04-4.07312E-15
 -1      3939 2.09146E-03 1.57652E-04-3.89215E-15
 -1      3940 2.36508E-03 1.57545E-04-4.89422E-15
 -1      3941 9.23979E-03-1.29250E-04-4.96801E-14
 -1      3942 9.10588E-03-1.20606E-04-4.80894E-14
 -1      3943 8.97272E-03-1.11958E-04-4.65159E-14
 -1      3944 8.84009E-03-1.03308E-04-4.49608E-14
 -1      3945 9.06337E-03-1.46364E-04-4.74334E-14
 -1      3946 9.78220E-03-1.64741E-04-5.62122E-14
 -1      3947 9.64556E-03-1.55702E-04-5.45555E-14
 -1      3948 1.00573E-02-1.83316E-04-5.95739E-14
 -1      3949 9.91945E-03-1.73958E-04-5.78855E-14
 -1      3950 9.86698E-03-2.01048E-04-5.71822E-14
 -1      3951 1.03347E-02-2.02587E-04-6.29923E-14
 -1      3952 1.01957E-02-1.92870E-04-6.12754E-14
 -1      3953 1.01412E-02-2.20589E-04-6.05575E-14
 -1      3954 1.06139E-02-2.22589E-04-6.64662E-14
 -1      3955 1.04741E-02-2.12503E-04-6.47219E-14
 -1      3956 1.04180E-02-2.40818E-04-6.39886E-14
 -1      3957 1.08948E-02-2.43317E-04-6.99951E-14
 -1      3958 1.07542E-02-2.32870E-04-6.82250E-14
 -1      3959 1.06968E-02-2.61720E-04-6.74764E-14
 -1      3960 1.11769E-02-2.64731E-04-7.35737E-14
 -1      3961 1.10357E-02-2.53946E-04-7.17790E-14
 -1      3962 1.09774E-02-2.83256E-04-7.10186E-14
 -1      3963 1.14600E-02-2.86771E-04-7.71994E-14
 -1      3964 1.13183E-02-2.75680E-04-7.53816E-14
 -1      3965 1.12593E-02-3.05373E-04-7.46085E-14
 -1      3966 1.17439E-02-3.09364E-04-8.08673E-14
 -1      3967 1.16019E-02-2.98005E-04-7.90268E-14
 -1      3968 1.15423E-02-3.28008E-04-7.82443E-14
 -1      3969 1.20284E-02-3.32434E-04-8.45761E-14
 -1      3970 1.18861E-02-3.20846E-04-8.27176E-14
 -1      3971 1.18261E-02-3.51094E-04-8.19222E-14
 -1      3972 1.23133E-02-3.55906E-04-8.83262E-14
 -1      3973 1.21708E-02-3.44125E-04-8.64460E-14
 -1      3974 1.21105E-02-3.74563E-04-8.56428E-14
 -1      3975 1.25985E-02-3.79708E-04-9.21108E-14
 -1      3976 1.24558E-02-3.67770E-04-9.02139E-14
 -1      3977 1.23954E-02-3.98352E-04-8.93979E-14
 -1      3978 1.28839E-02-4.03776E-04-9.59287E-14
 -1      3979 1.27412E-02-3.91713E-04-9.40159E-14
 -1      3980 1.26806E-02-4.22400E-04-9.31906E-14
 -1      3981 1.31695E-02-4.28052E-04-9.97720E-14
 -1      3982 1.30267E-02-4.15891E-04-9.78472E-14
 -1      3983 1.29660E-02-4.46657E-04-9.70118E-14
 -1      3984 8.70810E-03-9.45652E-05-4.34236E-14
 -1      3985 8.57635E-03-8.56673E-05-4.19060E-14
 -1      3986 8.80283E-03-1.29290E-04-4.43218E-14
 -1      3987 1.35711E-02-5.87445E-04-1.05125E-13
 -1      3988 1.35590E-02-5.45719E-04-1.04993E-13
 -1      3989 1.34535E-02-5.97705E-04-1.03515E-13
 -1      3990 1.76939E-03-1.08343E-04-3.24691E-15
 -1      3991 1.90129E-03-1.10770E-04-3.70487E-15
 -1      3992 2.52158E-03-1.18019E-04-6.34439E-15
 -1      3993 2.64238E-03-1.19377E-04-6.96669E-15
 -1      3994 2.66568E-03-9.54460E-05-7.18251E-15
 -1      3995 1.35601E-02-5.11761E-04-1.05032E-13
 -1      3996 1.35525E-02-4.65774E-04-1.04964E-13
 -1      3997 1.34447E-02-4.54205E-04-1.03500E-13
 -1      3998 1.34424E-02-5.22093E-04-1.03423E-13
 -1      3999 2.91246E-03-2.77151E-05-8.61932E-15
 -1      4000 2.89719E-03-4.07722E-06-8.34140E-15
 -1      4001 1.50568E-03 1.11156E-04-2.22125E-15
 -1      4002 3.49338E-03 1.95708E-04-9.85959E-15
 -1      4003 3.34159E-03 1.84254E-04-9.13284E-15
 -1      4004 1.61709E-03 9.90382E-05-2.56440E-15
 -1      4005 7.95262E-03-5.75621E-05-3.47413E-14
 -1      4006 8.04139E-03-1.03096E-04-3.50761E-14
 -1      4007 1.75189E-03 1.00612E-04-2.96596E-15
 -1      4008 1.69608E-03 5.04729E-05-2.91402E-15
 -1      4009 1.88633E-03 1.01218E-04-3.39633E-15
 -1      4010 8.44499E-03-7.65271E-05-4.04087E-14
 -1      4011 8.31328E-03-6.69746E-05-3.89320E-14
 -1      4012 8.54591E-03-1.12593E-04-4.12841E-14
 -1      4013 9.50962E-03-1.46771E-04-5.29139E-14
 -1      4014 9.37433E-03-1.37981E-04-5.12885E-14
 -1      4015 9.32770E-03-1.63975E-04-5.06155E-14
 -1      4016 9.59567E-03-1.82188E-04-5.38657E-14
 -1      4017 2.85177E-03-4.62217E-05-8.34018E-15
 -1      4018 1.42332E-03-7.15058E-05-2.20819E-15
 -1      4019 1.42888E-03-9.26033E-05-2.21414E-15
 -1      4020 1.52077E-03-9.83566E-05-2.47275E-15
 -1      4021 2.27268E-03-1.15158E-04-5.18184E-15
 -1      4022 2.39833E-03-1.16493E-04-5.74919E-15
 -1      4023 2.42865E-03-9.18210E-05-5.94896E-15
 -1      4024 2.67619E-03 1.21760E-04-6.37290E-15
 -1      4025 2.54268E-03 1.23644E-04-5.78434E-15
 -1      4026 2.89546E-03 3.27480E-05-8.03703E-15
 -1      4027 2.92486E-03 6.83637E-05-7.90532E-15
 -1      4028 8.48707E-03-2.56923E-04-3.95232E-14
 -1      4029 1.33369E-02-4.42655E-04-1.02038E-13
 -1      4030 1.33501E-02-6.69538E-04-1.02048E-13
 -1      4031 8.25855E-03-9.45997E-05-3.79379E-14
 -1      4032 8.14669E-03-5.50147E-05-3.70878E-14
 -1      4033 8.30496E-03-2.06404E-04-3.70119E-14
 -1      4034 8.39793E-03-2.30497E-04-3.82605E-14
 -1      4035 8.53699E-03-2.40620E-04-4.01598E-14
 -1      4036 2.80599E-03 1.38860E-05-7.70542E-15
 -1      4037 8.03402E-03-4.14567E-05-3.59275E-14
 -1      4038 1.32762E-02-4.73482E-04-1.01194E-13
 -1      4039 3.21568E-03 1.34623E-04-8.86011E-15
 -1      4040 8.14646E-03-1.28763E-04-3.59819E-14
 -1      4041 1.59943E-03-1.00923E-04-2.70706E-15
 -1      4042 1.69114E-03-1.06207E-04-2.99073E-15
 -1      4043 1.74832E-03-8.28369E-05-3.19696E-15
 -1      4044 1.59265E-03-7.89207E-05-2.69970E-15
 -1      4045 3.21036E-03 9.74987E-05-9.13547E-15
 -1      4046 8.31602E-03-1.90046E-04-3.73560E-14
 -1      4047 7.87894E-03-9.03234E-06-3.45581E-14
 -1      4048 1.68983E-03 2.26791E-05-2.94572E-15
 -1      4049 1.42955E-03-3.31001E-05-2.22442E-15
 -1      4050 1.43198E-03-5.35959E-05-2.23499E-15
 -1      4051 1.52258E-03-5.83026E-05-2.49406E-15
 -1      4052 1.54301E-03-2.17283E-05-2.54431E-15
 -1      4053 2.02384E-03-1.12367E-04-4.16087E-15
 -1      4054 2.15312E-03-1.14008E-04-4.67444E-15
 -1      4055 2.18820E-03-8.89062E-05-4.85811E-15
 -1      4056 1.94791E-03-8.62604E-05-3.90164E-15
 -1      4057 2.83719E-03-8.34725E-05-8.25829E-15
 -1      4058 2.78871E-03 1.02006E-04-7.00912E-15
 -1      4059 2.69377E-03 7.15700E-05-6.75950E-15
 -1      4060 2.78198E-03-5.83137E-05-7.92750E-15
 -1      4061 2.73872E-03-3.25079E-05-7.59821E-15
 -1      4062 2.71569E-03-7.14540E-05-7.52114E-15
 -1      4063 1.31942E-02-6.51618E-04-9.99527E-14
 -1      4064 1.33097E-02-6.21523E-04-1.01542E-13
 -1      4065 8.92021E-03-2.71493E-04-4.51382E-14
 -1      4066 9.04277E-03-2.82480E-04-4.66910E-14
 -1      4067 9.16760E-03-2.93677E-04-4.82613E-14
 -1      4068 9.29440E-03-3.05303E-04-4.98492E-14
 -1      4069 9.09423E-03-2.62315E-04-4.73621E-14
 -1      4070 9.42297E-03-3.17100E-04-5.14536E-14
 -1      4071 9.55313E-03-3.29203E-04-5.30728E-14
 -1      4072 9.34805E-03-2.83989E-04-5.05348E-14
 -1      4073 9.68472E-03-3.41427E-04-5.47097E-14
 -1      4074 9.81759E-03-3.53862E-04-5.63629E-14
 -1      4075 9.60843E-03-3.06714E-04-5.37758E-14
 -1      4076 9.95162E-03-3.66369E-04-5.80326E-14
 -1      4077 1.00867E-02-3.79011E-04-5.97174E-14
 -1      4078 9.87415E-03-3.30203E-04-5.70816E-14
 -1      4079 1.02227E-02-3.91686E-04-6.14160E-14
 -1      4080 1.03596E-02-4.04442E-04-6.31293E-14
 -1      4081 1.01442E-02-3.54226E-04-6.04494E-14
 -1      4082 1.04972E-02-4.17203E-04-6.48557E-14
 -1      4083 1.06355E-02-4.30005E-04-6.65942E-14
 -1      4084 1.04179E-02-3.78611E-04-6.38732E-14
 -1      4085 1.07744E-02-4.42794E-04-6.83484E-14
 -1      4086 1.09139E-02-4.55597E-04-7.01151E-14
 -1      4087 1.06944E-02-4.03230E-04-6.73524E-14
 -1      4088 1.10538E-02-4.68377E-04-7.18934E-14
 -1      4089 1.11942E-02-4.81154E-04-7.36826E-14
 -1      4090 1.09732E-02-4.27995E-04-7.08843E-14
 -1      4091 1.13349E-02-4.93903E-04-7.54873E-14
 -1      4092 1.14760E-02-5.06641E-04-7.73019E-14
 -1      4093 1.12539E-02-4.52846E-04-7.44636E-14
 -1      4094 1.16173E-02-5.19349E-04-7.91260E-14
 -1      4095 1.17589E-02-5.32041E-04-8.09628E-14
 -1      4096 1.15360E-02-4.77742E-04-7.80928E-14
 -1      4097 1.19007E-02-5.44705E-04-8.28075E-14
 -1      4098 1.20427E-02-5.57352E-04-8.46599E-14
 -1      4099 1.18191E-02-5.02660E-04-8.17622E-14
 -1      4100 1.21849E-02-5.69974E-04-8.65236E-14
 -1      4101 1.23272E-02-5.82580E-04-8.83954E-14
 -1      4102 1.21030E-02-5.27585E-04-8.54700E-14
 -1      4103 1.24696E-02-5.95164E-04-9.02768E-14
 -1      4104 1.26121E-02-6.07733E-04-9.21650E-14
 -1      4105 1.23876E-02-5.52508E-04-8.92174E-14
 -1      4106 1.27546E-02-6.20285E-04-9.40598E-14
 -1      4107 1.28973E-02-6.32823E-04-9.59621E-14
 -1      4108 1.26726E-02-5.77427E-04-9.29941E-14
 -1      4109 1.30666E-02-6.39812E-04-9.82363E-14
 -1      4110 1.05005E-02-2.79176E-04-6.49867E-14
 -1      4111 1.03619E-02-2.68487E-04-6.32568E-14
 -1      4112 8.54570E-03-2.16871E-04-4.03469E-14
 -1      4113 8.64809E-03-2.44366E-04-4.16383E-14
 -1      4114 9.15051E-03-1.79753E-04-4.83517E-14
 -1      4115 9.02104E-03-1.70908E-04-4.67786E-14
 -1      4116 1.02240E-02-2.57930E-04-6.15420E-14
 -1      4117 1.00868E-02-2.47552E-04-5.98399E-14
 -1      4118 1.03058E-02-2.95493E-04-6.25270E-14
 -1      4119 9.95027E-03-2.37313E-04-5.81515E-14
 -1      4120 9.81455E-03-2.27272E-04-5.64783E-14
 -1      4121 1.00322E-02-2.73745E-04-5.91221E-14
 -1      4122 1.07791E-02-3.01002E-04-6.84895E-14
 -1      4123 1.06395E-02-2.90027E-04-6.67310E-14
 -1      4124 1.05822E-02-3.17775E-04-6.59861E-14
 -1      4125 1.10596E-02-3.23350E-04-7.20409E-14
 -1      4126 1.09191E-02-3.12119E-04-7.02591E-14
 -1      4127 1.08609E-02-3.40519E-04-6.95004E-14
 -1      4128 1.13414E-02-3.46161E-04-7.56446E-14
 -1      4129 1.12003E-02-3.34705E-04-7.38381E-14
 -1      4130 1.11414E-02-3.63660E-04-7.30664E-14
 -1      4131 1.16244E-02-3.69377E-04-7.92894E-14
 -1      4132 1.14828E-02-3.57725E-04-7.74616E-14
 -1      4133 1.14233E-02-3.87140E-04-7.66798E-14
 -1      4134 1.19082E-02-3.92937E-04-8.29789E-14
 -1      4135 1.17662E-02-3.81119E-04-8.11292E-14
 -1      4136 1.17063E-02-4.10907E-04-8.03369E-14
 -1      4137 1.21926E-02-4.16786E-04-8.67079E-14
 -1      4138 1.20503E-02-4.04830E-04-8.48394E-14
 -1      4139 1.19902E-02-4.34914E-04-8.40366E-14
 -1      4140 1.24775E-02-4.40874E-04-9.04710E-14
 -1      4141 1.23350E-02-4.28804E-04-8.85845E-14
 -1      4142 1.22746E-02-4.59118E-04-8.77721E-14
 -1      4143 1.27627E-02-4.65154E-04-9.42691E-14
 -1      4144 1.26200E-02-4.52992E-04-9.23654E-14
 -1      4145 1.25595E-02-4.83481E-04-9.15420E-14
 -1      4146 8.89294E-03-1.62248E-04-4.52213E-14
 -1      4147 8.76607E-03-1.53920E-04-4.36817E-14
 -1      4148 8.97858E-03-1.94220E-04-4.61230E-14
 -1      4149 1.32975E-02-5.79896E-04-1.01412E-13
 -1      4150 2.60266E-03-6.88801E-05-6.87811E-15
 -1      4151 1.32750E-02-5.07377E-04-1.01158E-13
 -1      4152 2.02005E-03 1.01086E-04-3.85464E-15
 -1      4153 1.95937E-03 4.93254E-05-3.79978E-15
 -1      4154 2.15319E-03 1.00109E-04-4.34079E-15
 -1      4155 8.64074E-03-1.45746E-04-4.21631E-14
 -1      4156 8.51662E-03-1.37941E-04-4.06646E-14
 -1      4157 8.72944E-03-1.77149E-04-4.30442E-14
 -1      4158 2.71642E-03-1.42051E-06-7.32315E-15
 -1      4159 2.70230E-03 3.34910E-05-7.03922E-15
 -1      4160 2.59412E-03 5.26315E-05-6.40669E-15
 -1      4161 2.63217E-03-1.53446E-05-6.94029E-15
 -1      4162 8.28977E-03-1.61622E-04-3.73809E-14
 -1      4163 8.42465E-03-1.87377E-04-3.89165E-14
 -1      4164 8.53291E-03-1.88911E-04-4.03762E-14
 -1      4165 8.25707E-03-1.23659E-04-3.75181E-14
 -1      4166 8.76441E-03-2.54315E-04-4.31480E-14
 -1      4167 1.83421E-03 1.81887E-05-3.43010E-15
 -1      4168 1.70069E-03-8.05516E-06-3.02183E-15
 -1      4169 2.91996E-03 9.94137E-05-7.65195E-15
 -1      4170 1.31312E-02-5.31277E-04-9.91933E-14
 -1      4171 1.87840E-03-6.10183E-05-3.65678E-15
 -1      4172 1.99944E-03-6.23729E-05-4.10797E-15
 -1      4173 1.67803E-03-6.19106E-05-2.97298E-15
 -1      4174 1.73405E-03-3.88515E-05-3.15335E-15
 -1      4175 9.76199E-03-2.52615E-04-5.57749E-14
 -1      4176 9.67973E-03-2.17375E-04-5.48188E-14
 -1      4177 9.54582E-03-2.07696E-04-5.31770E-14
 -1      4178 1.29844E-02-5.96794E-04-9.71653E-14
 -1      4179 9.28113E-03-1.88880E-04-4.99427E-14
 -1      4180 9.23437E-03-2.12677E-04-4.92705E-14
 -1      4181 9.41296E-03-1.98167E-04-5.15514E-14
 -1      4182 8.41002E-03-1.31885E-04-3.93694E-14
 -1      4183 2.49443E-03 3.02791E-05-6.05794E-15
 -1      4184 2.47608E-03 6.59952E-05-5.80105E-15
 -1      4185 1.30481E-02-4.89585E-04-9.80950E-14
 -1      4186 1.29054E-02-4.77354E-04-9.61797E-14
 -1      4187 1.96408E-03 1.67585E-05-3.89428E-15
 -1      4188 3.05626E-03 1.22669E-04-8.14932E-15
 -1      4189 2.48585E-03-6.61896E-05-6.26189E-15
 -1      4190 2.54871E-03-4.19630E-05-6.57518E-15
 -1      4191 2.36569E-03-6.40856E-05-5.67335E-15
 -1      4192 8.50324E-03-1.63074E-04-4.02295E-14
 -1      4193 2.45241E-03 9.37718E-05-5.55927E-15
 -1      4194 2.40912E-03 1.25317E-04-5.22420E-15
 -1      4195 1.28448E-02-5.07976E-04-9.53470E-14
 -1      4196 2.34801E-03 6.90915E-05-5.23903E-15
 -1      4197 8.81158E-03-2.35241E-04-4.37989E-14
 -1      4198 8.63486E-03-1.95138E-04-4.16826E-14
 -1      4199 2.27493E-03 1.26690E-04-4.69117E-15
 -1      4200 2.51499E-03-1.13430E-05-6.32383E-15
 -1      4201 2.39770E-03 8.33327E-07-5.72459E-15
 -1      4202 9.29302E-03-2.48382E-04-4.99045E-14
 -1      4203 9.42250E-03-2.58820E-04-5.15120E-14
 -1      4204 9.55345E-03-2.69428E-04-5.31351E-14
 -1      4205 9.68565E-03-2.80311E-04-5.47736E-14
 -1      4206 9.81906E-03-2.91325E-04-5.64305E-14
 -1      4207 9.95351E-03-3.02550E-04-5.81015E-14
 -1      4208 1.00890E-02-3.13878E-04-5.97879E-14
 -1      4209 1.02253E-02-3.25367E-04-6.14879E-14
 -1      4210 1.03624E-02-3.36937E-04-6.32012E-14
 -1      4211 1.05002E-02-3.48632E-04-6.49300E-14
 -1      4212 1.06387E-02-3.60391E-04-6.66703E-14
 -1      4213 1.07778E-02-3.72247E-04-6.84270E-14
 -1      4214 1.09174E-02-3.84155E-04-7.01941E-14
 -1      4215 1.10574E-02-3.96138E-04-7.19732E-14
 -1      4216 1.11978E-02-4.08163E-04-7.37661E-14
 -1      4217 1.13386E-02-4.20247E-04-7.55721E-14
 -1      4218 1.14798E-02-4.32365E-04-7.73864E-14
 -1      4219 1.16211E-02-4.44529E-04-7.92129E-14
 -1      4220 1.17628E-02-4.56721E-04-8.10511E-14
 -1      4221 1.19046E-02-4.68948E-04-8.28976E-14
 -1      4222 1.20467E-02-4.81199E-04-8.47552E-14
 -1      4223 1.21888E-02-4.93477E-04-8.66210E-14
 -1      4224 1.23311E-02-5.05773E-04-8.84949E-14
 -1      4225 1.24736E-02-5.18090E-04-9.03797E-14
 -1      4226 1.26161E-02-5.30423E-04-9.22698E-14
 -1      4227 1.27587E-02-5.42772E-04-9.41679E-14
 -1      4228 1.68857E-03-2.68970E-05-2.99824E-15
 -1      4229 2.05367E-03-3.88348E-05-4.31434E-15
 -1      4230 2.11895E-03-6.38534E-05-4.58374E-15
 -1      4231 2.23668E-03-6.52062E-05-5.08424E-15
 -1      4232 9.03885E-03-2.28446E-04-4.67446E-14
 -1      4233 8.91447E-03-2.19078E-04-4.51888E-14
 -1      4234 8.75425E-03-2.03313E-04-4.31930E-14
 -1      4235 9.16504E-03-2.38308E-04-4.83165E-14
 -1      4236 1.29279E-02-5.49578E-04-9.64395E-14
 -1      4237 9.49579E-03-2.32212E-04-5.24890E-14
 -1      4238 1.30706E-02-5.61935E-04-9.83535E-14
 -1      4239 2.23365E-03 4.58008E-05-4.86026E-15
 -1      4240 2.20310E-03 7.13315E-05-4.64334E-15
 -1      4241 2.10809E-03 1.50400E-05-4.44657E-15
 -1      4242 1.98930E-03-1.47324E-05-4.04139E-15
 -1      4243 2.30276E-03-3.94817E-05-5.37186E-15
 -1      4244 1.60043E-03-6.01688E-05-2.72850E-15
 -1      4245 2.26625E-03 4.06379E-07-5.13798E-15
 -1      4246 2.24976E-03 1.26509E-05-5.03348E-15
 -1      4247 2.03274E-03-2.69856E-05-4.22205E-15
 -1      4248 1.88894E-03-2.52404E-05-3.68154E-15
 -1      4249 2.15155E-03-2.85597E-05-4.70218E-15
 -3
    1PSTEP                         2           1           1          
  100CL  101 1.000000000        4249                     0    1           1
 -4  STRESS      6    1
 -5  SXX         1    4    1    1
 -5  SYY         1    4    2    2
 -5  SZZ         1    4    3    3
 -5  SXY         1    4    1    2
 -5  SYZ         1    4    2    3
 -5  SZX         1    4    3    1
 -1         1 6.70647E+01 8.47407E-01 3.69609E+00 2.82110E-01-7.59809E-16-4.88507E-13
 -1         2-6.35789E-01-2.45502E+01-3.35151E+00-1.78831E-02 2.37151E-13 5.87447E-14
 -1         3 2.00000E+01 2.30972E-04-1.20196E-04 2.24061E-04-4.76830E-13-4.35343E-13
 -1         4 2.00000E+01 1.98481E-04-1.48287E-04-1.96286E-04 5.39120E-14 1.36095E-13
 -1         5 3.24346E+01 6.08775E+00 2.64779E+00 6.12225E+00-4.57273E-14 3.24296E-12
 -1         6 3.52879E+01 1.20749E+01 4.96174E+00-8.47890E+00-2.01103E-13 2.55257E-12
 -1         7 2.10106E+01 6.14636E+00-9.27607E-02-4.53016E+00-2.68119E-14 2.18853E-13
 -1         8 1.99076E+01 6.00020E+00 6.85655E-02-3.00102E+00-2.80574E-14-4.36130E-13
 -1         9 1.93348E+01 5.82773E+00 5.75270E-02-2.20527E+00-2.46816E-14-7.63198E-13
 -1        10 1.90008E+01 5.72140E+00 5.14234E-02-1.62164E+00-1.21899E-14-9.08080E-13
 -1        11 1.87681E+01 5.64787E+00 4.40095E-02-1.15629E+00-9.89313E-15-9.54489E-13
 -1        12 1.86015E+01 5.59567E+00 3.73667E-02-7.77349E-01-5.49040E-16-9.56649E-13
 -1        13 1.84887E+01 5.56070E+00 3.25158E-02-4.46122E-01-1.16660E-16-9.43029E-13
 -1        14 1.84334E+01 5.54362E+00 3.01578E-02-1.45948E-01 5.50731E-15-9.08805E-13
 -1        15 1.84364E+01 5.54455E+00 3.05144E-02 1.45546E-01 1.06122E-14-8.72227E-13
 -1        16 1.84967E+01 5.56321E+00 3.35109E-02 4.50183E-01 1.71209E-14-8.36809E-13
 -1        17 1.86120E+01 5.59884E+00 3.88254E-02 7.89694E-01 1.87914E-14-7.79944E-13
 -1        18 1.87776E+01 5.65082E+00 4.56247E-02 1.17863E+00 2.48534E-14-6.68968E-13
 -1        19 1.90073E+01 5.72356E+00 5.25955E-02 1.65589E+00 3.46806E-14-5.02434E-13
 -1        20 1.93358E+01 5.82924E+00 5.72881E-02 2.25138E+00 4.11442E-14-2.18099E-13
 -1        21 1.98961E+01 6.01220E+00 6.30147E-02 3.04464E+00 4.40689E-14 2.91159E-13
 -1        22 2.13482E+01 6.41266E+00 1.57425E-01 4.33821E+00 1.13798E-15 1.25562E-12
 -1        23 2.30758E+01-1.38865E+00-9.46215E-01-6.57548E-01-1.36266E-13 1.86615E-12
 -1        24 1.97380E+01-1.00085E-01-3.04631E-01 6.95943E-02-3.69904E-14 1.25419E-12
 -1        25 1.93182E+01-5.84758E-02-6.87354E-02 6.32103E-02-7.90687E-15 6.71498E-13
 -1        26 1.94066E+01-2.61377E-02-1.10131E-02 3.63104E-02-4.03648E-15 2.94225E-13
 -1        27 1.97711E+01-1.72497E-02-5.88063E-03 2.81000E-02-1.49222E-14 4.54220E-14
 -1        28 2.03277E+01-1.25615E-02-7.71460E-03 2.50904E-02-2.55763E-16-1.37590E-13
 -1        29 2.10385E+01-9.46654E-03-8.88745E-03 2.53383E-02-4.89452E-15-2.90250E-13
 -1        30 2.18794E+01-6.29522E-03-8.06424E-03 2.77270E-02 7.96520E-15-4.83341E-13
 -1        31 2.28180E+01-1.69696E-03-3.83541E-03 3.11022E-02-1.04730E-14-5.89525E-13
 -1        32 2.37914E+01 5.52249E-03 6.19749E-03 3.33522E-02-1.75695E-14-6.94422E-13
 -1        33 2.46804E+01 1.59702E-02 2.45648E-02 3.04359E-02 4.95706E-14-7.28194E-13
 -1        34 2.52881E+01 2.85867E-02 5.12516E-02 1.59579E-02-9.52342E-15-7.08474E-13
 -1        35 2.53460E+01 3.91820E-02 7.91031E-02-1.69267E-02 2.49768E-14-7.97045E-13
 -1        36 2.45886E+01 3.99280E-02 9.00051E-02-6.95490E-02-1.20173E-14-7.93993E-13
 -1        37 2.29293E+01 2.29403E-02 5.96426E-02-1.26813E-01-3.74900E-14-6.69298E-13
 -1        38 2.06924E+01-1.16356E-02-2.09128E-02-1.51897E-01-2.26251E-14-6.93029E-13
 -1        39 1.86841E+01-4.88722E-02-1.16337E-01-1.08639E-01-1.13841E-14-8.00977E-13
 -1        40 1.78426E+01-6.61820E-02-1.64130E-01-4.60566E-03 3.76691E-14-7.91096E-13
 -1        41 1.86246E+01-5.13903E-02-1.24551E-01 1.04031E-01-8.92255E-15-1.03845E-12
 -1        42 2.06411E+01-1.48751E-02-2.86317E-02 1.52328E-01-2.06439E-14-1.15997E-12
 -1        43 2.29576E+01 2.04912E-02 5.46478E-02 1.31137E-01-1.58044E-14-1.15691E-12
 -1        44 2.47484E+01 3.87984E-02 8.89899E-02 7.53574E-02 1.04951E-14-8.82197E-13
 -1        45 2.56564E+01 3.89603E-02 7.99099E-02 2.21015E-02 1.83334E-14-7.76434E-13
 -1        46 2.57476E+01 2.87366E-02 5.19278E-02-1.16597E-02-2.10940E-14-1.15882E-12
 -1        47 2.52844E+01 1.61557E-02 2.44576E-02-2.62465E-02 1.04816E-13-8.78435E-13
 -1        48 2.45400E+01 5.75425E-03 5.31251E-03-2.85031E-02 1.93812E-15-6.31259E-13
 -1        49 2.37159E+01-1.14066E-03-5.25155E-03-2.48759E-02 3.43503E-14-7.34736E-13
 -1        50 2.29322E+01-4.91723E-03-9.71878E-03-1.94269E-02-3.07100E-15-5.62929E-13
 -1        51 2.22467E+01-6.48918E-03-1.06540E-02-1.41501E-02-1.83681E-14-4.28521E-13
 -1        52 2.16779E+01-6.71584E-03-9.86587E-03-9.78572E-03-1.16671E-15-2.16699E-13
 -1        53 2.12230E+01-6.22465E-03-8.41286E-03-6.45779E-03-3.46810E-14-6.28074E-13
 -1        54 2.08691E+01-5.41611E-03-6.83814E-03-4.04386E-03 4.25553E-14-8.93976E-13
 -1        55 2.06002E+01-4.52244E-03-5.38600E-03-2.35498E-03-9.16584E-14-8.93974E-13
 -1        56 2.04002E+01-3.66624E-03-4.14488E-03-1.20998E-03 2.06471E-14-9.82023E-13
 -1        57 2.02546E+01-2.90424E-03-3.12883E-03-4.59323E-04-2.32794E-14-1.07140E-12
 -1        58 2.01510E+01-2.25604E-03-2.31998E-03 1.22986E-05 1.15392E-14-9.89209E-13
 -1        59 2.00794E+01-1.72156E-03-1.68932E-03 2.90667E-04 8.15881E-14-9.61228E-13
 -1        60 2.00316E+01-1.29119E-03-1.20615E-03 4.38325E-04 1.13930E-13-4.22339E-13
 -1        61 2.00013E+01-9.51376E-04-8.42101E-04 5.00258E-04 1.48425E-14 4.85445E-14
 -1        62 1.99835E+01-6.87666E-04-5.72473E-04 5.08463E-04-7.38696E-14 1.68449E-14
 -1        63 1.99745E+01-4.86176E-04-3.76411E-04 4.85422E-04-1.08810E-13-9.08224E-13
 -1        64 1.99715E+01-3.34248E-04-2.36550E-04 4.46672E-04-6.29912E-14-1.37899E-12
 -1        65 1.99725E+01-2.20627E-04-1.38401E-04 4.02654E-04-1.00752E-13-8.58277E-13
 -1        66 1.99761E+01-1.35347E-04-6.94138E-05 3.59955E-04 8.27564E-14-4.81414E-13
 -1        67 1.99811E+01-6.94636E-05-1.74673E-05 3.21908E-04 9.53631E-14 2.70678E-13
 -1        68 1.99867E+01-1.47242E-05 3.15812E-05 2.88107E-04-1.00228E-14 2.68365E-13
 -1        69 1.99922E+01 3.51605E-05 9.46022E-05 2.50301E-04 5.58235E-15-3.47413E-14
 -1        70 1.99968E+01 6.81059E-05 1.66879E-04 1.70452E-04 1.23333E-13 4.38069E-13
 -1        71 1.99996E+01-1.43372E-05 1.39361E-04 2.87438E-05-1.83780E-14 7.98116E-13
 -1        72 2.11229E+01-4.03263E-01-9.82789E-01-3.24239E-01 3.42018E-14 3.05220E-12
 -1        73 1.97007E+01-6.61688E-02-2.86207E-01-5.70432E-02 2.06367E-14 2.42484E-12
 -1        74 1.93078E+01-2.20736E-02-6.39817E-02-2.12519E-02 5.73369E-15 1.98282E-12
 -1        75 1.93723E+01-1.21461E-02-1.26710E-02-1.60549E-02 8.56227E-15 1.67947E-12
 -1        76 1.96963E+01-7.67449E-03-4.69521E-03-1.39912E-02 6.10970E-15 1.38641E-12
 -1        77 2.01842E+01-4.79924E-03-4.35532E-03-1.38319E-02 7.41459E-15 1.20412E-12
 -1        78 2.07840E+01-2.20873E-03-3.51337E-03-1.52762E-02-6.72899E-15 1.13963E-12
 -1        79 2.14533E+01 8.45078E-04-5.42988E-04-1.80109E-02-4.16720E-15 1.06850E-12
 -1        80 2.21405E+01 4.80541E-03 5.41345E-03-2.14656E-02 1.09214E-14 8.90552E-13
 -1        81 2.27700E+01 9.69159E-03 1.51552E-02-2.43439E-02 3.45748E-14 6.95923E-13
 -1        82 2.32322E+01 1.47761E-02 2.85893E-02-2.41498E-02-1.88770E-15 5.63085E-13
 -1        83 2.33858E+01 1.82400E-02 4.31807E-02-1.71261E-02 9.24250E-15 5.24880E-13
 -1        84 2.30838E+01 1.73128E-02 5.24768E-02 5.64113E-04-2.60404E-14 5.26326E-13
 -1        85 2.22379E+01 9.59022E-03 4.67165E-02 2.95261E-02 1.28778E-14 6.52835E-13
 -1        86 2.09119E+01-4.43752E-03 1.83226E-02 6.25363E-02 2.21233E-14 3.08205E-13
 -1        87 1.93950E+01-1.97814E-02-2.89011E-02 8.34814E-02-1.90412E-14 1.17194E-13
 -1        88 1.81655E+01-2.88552E-02-7.51644E-02 7.55617E-02-4.19543E-14 2.84326E-13
 -1        89 1.76963E+01-2.67834E-02-9.41605E-02 3.54610E-02 8.54976E-14 1.28313E-13
 -1        90 1.81923E+01-1.53449E-02-7.42042E-02-1.89804E-02-6.85456E-14-1.87680E-13
 -1        91 1.94617E+01-7.41229E-04-2.79831E-02-6.12850E-02 1.22729E-14 5.60732E-14
 -1        92 2.10391E+01 1.07923E-02 1.84756E-02-7.59199E-02-1.98994E-15-2.95076E-14
 -1        93 2.24471E+01 1.62832E-02 4.62693E-02-6.55376E-02-1.75317E-14 1.63303E-13
 -1        94 2.33929E+01 1.61584E-02 5.14895E-02-4.27844E-02 3.13083E-14 3.83756E-14
 -1        95 2.38092E+01 1.26700E-02 4.17049E-02-1.98003E-02-1.33266E-14 4.96287E-14
 -1        96 2.37839E+01 8.08657E-03 2.67383E-02-2.81147E-03-1.81212E-14 2.33114E-13
 -1        97 2.34637E+01 3.91168E-03 1.30584E-02 7.18487E-03 3.48728E-15 1.38892E-13
 -1        98 2.29885E+01 7.90342E-04 3.22701E-03 1.16431E-02-8.86588E-14 5.69805E-14
 -1        99 2.24643E+01-1.20935E-03-2.67458E-03 1.25470E-02 1.78581E-15-8.20706E-14
 -1       100 2.19585E+01-2.28745E-03-5.56930E-03 1.15393E-02-4.85277E-14 3.91067E-14
 -1       101 2.15077E+01-2.71258E-03-6.51422E-03 9.71866E-03 2.71942E-14-1.18164E-13
 -1       102 2.11268E+01-2.72478E-03-6.35012E-03 7.72158E-03 1.03495E-14-3.65287E-13
 -1       103 2.08176E+01-2.50517E-03-5.64355E-03 5.86980E-03-1.88173E-14 1.24522E-13
 -1       104 2.05746E+01-2.17680E-03-4.73719E-03 4.29605E-03-7.66176E-15 4.24158E-13
 -1       105 2.03889E+01-1.81678E-03-3.82013E-03 3.03028E-03-2.10022E-14 3.56804E-13
 -1       106 2.02507E+01-1.46958E-03-2.98591E-03 2.05220E-03-7.39246E-14 2.02926E-13
 -1       107 2.01508E+01-1.15809E-03-2.27244E-03 1.32093E-03 1.51679E-13-2.77968E-13
 -1       108 2.00807E+01-8.91668E-04-1.68719E-03 7.90531E-04-2.17908E-15-1.05635E-12
 -1       109 2.00333E+01-6.71657E-04-1.22214E-03 4.17533E-04-4.11133E-14-2.94172E-13
 -1       110 2.00029E+01-4.94984E-04-8.62339E-04 1.64059E-04 7.83546E-14-3.53894E-13
 -1       111 1.99848E+01-3.56394E-04-5.90699E-04-1.32404E-06-2.46611E-15-4.31135E-13
 -1       112 1.99756E+01-2.49791E-04-3.90414E-04-1.03880E-04-6.85997E-14-1.97838E-13
 -1       113 1.99724E+01-1.68982E-04-2.46107E-04-1.63459E-04 1.12356E-13-3.74524E-13
 -1       114 1.99732E+01-1.08027E-04-1.44118E-04-1.95414E-04-1.41053E-13-1.90564E-13
 -1       115 1.99766E+01-6.13214E-05-7.20759E-05-2.11482E-04 1.02682E-13-3.34922E-13
 -1       116 1.99815E+01-2.35770E-05-1.75161E-05-2.20372E-04 6.26124E-14-4.24060E-13
 -1       117 1.99870E+01 1.01979E-05 3.44607E-05-2.27595E-04 4.00323E-14-1.05650E-12
 -1       118 1.99924E+01 4.29838E-05 1.00852E-04-2.33196E-04-2.36573E-15-1.06516E-12
 -1       119 1.99970E+01 7.23268E-05 1.81550E-04-2.16048E-04-1.01278E-13-1.22304E-12
 -1       120 1.99996E+01-4.94656E-05 1.08371E-04-8.16778E-05 1.58947E-13-1.03250E-12
 -1       121 1.99998E+01-3.60215E-04 9.38986E-05-5.00747E-05-6.94728E-13 3.86891E-13
 -1       122 1.99999E+01-2.92956E-03 1.31028E-04-1.74793E-04 4.76942E-13 4.82811E-14
 -1       123 1.99998E+01-7.02091E-03 2.64746E-05-2.03774E-04 8.48235E-13 1.43237E-13
 -1       124 1.99998E+01-1.13646E-02-4.60864E-05-1.79190E-04 9.56630E-13-4.69850E-14
 -1       125 1.99998E+01-1.52448E-02-8.00758E-05-1.36796E-04 9.41073E-13-8.54402E-14
 -1       126 1.99997E+01-1.82605E-02-9.26793E-05-9.51095E-05 3.35489E-13-1.02443E-13
 -1       127 1.99997E+01-2.03485E-02-9.39436E-05-5.49110E-05 3.69876E-13 6.86948E-14
 -1       128 1.99997E+01-2.14047E-02-9.32104E-05-1.83203E-05 5.07233E-13 2.02628E-13
 -1       129 1.99997E+01-2.14200E-02-9.37650E-05 1.69880E-05 1.36976E-12-2.27276E-13
 -1       130 1.99997E+01-2.03886E-02-9.54555E-05 5.40457E-05 7.37073E-13-7.13573E-14
 -1       131 1.99997E+01-1.83112E-02-9.39004E-05 9.65459E-05 1.03960E-12 1.79830E-13
 -1       132 1.99998E+01-1.52888E-02-8.24542E-05 1.38218E-04 1.53056E-13-2.37943E-13
 -1       133 1.99998E+01-1.13811E-02-4.72184E-05 1.81095E-04-5.82557E-13 1.98091E-13
 -1       134 1.99998E+01-6.99588E-03 3.26600E-05 2.17276E-04 4.40018E-14 9.71741E-14
 -1       135 1.99999E+01-2.96726E-03 1.11829E-04 2.45165E-04-9.70156E-14-1.03910E-13
 -1       136 1.99999E+01-4.37759E-04 8.51447E-05 8.35887E-06-7.08078E-13-9.60641E-14
 -1       137-1.50380E+00-1.96618E+01-3.05773E+00-3.83007E+00 1.55384E-12 3.55629E-13
 -1       138-1.11848E+00-7.24380E+00-2.13224E+00-2.21038E+00 2.09260E-12 9.65172E-13
 -1       139 4.16519E+00 4.23307E+00-9.15648E-01 4.61967E+00 2.03965E-12 1.54859E-12
 -1       140 1.83747E+01 1.08418E+01 6.13234E-01 1.39643E+01 1.60216E-12 1.89398E-12
 -1       141 3.80752E+01 9.25334E+00 2.02967E+00 1.80539E+01 8.82711E-13 1.73167E-12
 -1       142 5.71084E+01 4.13816E+00 3.09414E+00 1.35413E+01 2.57176E-13 7.65554E-13
 -1       143 6.58086E+01 9.50994E-01 3.54703E+00 1.79461E+00 1.60844E-14-3.53127E-13
 -1       144 5.98626E+01 3.13886E+00 3.25778E+00-1.18386E+01 4.16497E-13-1.59775E-12
 -1       145 4.21188E+01 8.60286E+00 2.26537E+00-1.83022E+01 1.36499E-12-2.79521E-12
 -1       146 2.05124E+01 1.09051E+01 8.04728E-01-1.46594E+01 2.26313E-12-2.90490E-12
 -1       147 4.87744E+00 5.06268E+00-8.10697E-01-5.30780E+00 2.66076E-12-2.12169E-12
 -1       148-1.23312E+00-6.83899E+00-2.11494E+00 2.31195E+00 2.24476E-12-1.16751E-12
 -1       149-1.50505E+00-1.87409E+01-3.01458E+00 3.82925E+00 1.03284E-12-3.02341E-13
 -1       150-8.22490E-01-2.46609E+01-3.39272E+00 3.73013E-01-1.04958E-12-4.70179E-14
 -1       151-1.49967E+00-2.03848E+01-3.14724E+00-3.88163E+00-2.61541E-12-5.96856E-13
 -1       152-1.49869E+00-8.38560E+00-2.30144E+00-2.84220E+00-3.08387E-12-1.31051E-12
 -1       153 3.53267E+00 4.06523E+00-1.02873E+00 4.08390E+00-2.98694E-12-2.36028E-12
 -1       154 1.70858E+01 1.07940E+01 4.95274E-01 1.35360E+01-2.49861E-12-2.91039E-12
 -1       155 3.97250E+01 9.23433E+00 2.17308E+00 1.84243E+01-1.41523E-12-2.88025E-12
 -1       156 5.94303E+01 3.72556E+00 3.31627E+00 1.29349E+01-4.66446E-13-1.88710E-12
 -1       157 6.09567E+01 3.06822E+00 3.36725E+00-1.16016E+01-1.92426E-13 5.68823E-13
 -1       158 4.42931E+01 7.96005E+00 2.40534E+00-1.78668E+01-8.48654E-13 1.75793E-12
 -1       159 2.50573E+01 1.08691E+01 1.09981E+00-1.61964E+01-1.68171E-12 2.41102E-12
 -1       160 9.46305E+00 8.34230E+00-2.88159E-01-8.93730E+00-2.13279E-12 2.01900E-12
 -1       161 7.35439E-01-1.18860E-01-1.54705E+00-8.31990E-01-1.82432E-12 1.22080E-12
 -1       162-1.82227E+00-1.14240E+01-2.52692E+00 3.88110E+00-1.28253E-12 5.62106E-13
 -1       163-1.25914E+00-2.09573E+01-3.14742E+00 3.66972E+00-7.26225E-13 2.78978E-14
 -1       164 2.12950E+01 3.65737E+00-5.35267E-02-3.32844E+00-4.11955E-13-9.36230E-14
 -1       165 2.02512E+01 4.21628E+00-4.31732E-02-2.48770E+00-3.42849E-13-5.00270E-13
 -1       166 1.96653E+01 4.52632E+00-3.02119E-02-1.85807E+00-2.57073E-13-6.97697E-13
 -1       167 1.92900E+01 4.69564E+00-2.24217E-02-1.35582E+00-1.71055E-13-7.81187E-13
 -1       168 1.90226E+01 4.80318E+00-1.78379E-02-9.49686E-01-8.36471E-14-8.06182E-13
 -1       169 1.88335E+01 4.87107E+00-1.53708E-02-6.00278E-01-1.96385E-14-8.06566E-13
 -1       170 1.87221E+01 4.90784E+00-1.41157E-02-2.91537E-01 5.16648E-14-7.74362E-13
 -1       171 1.86883E+01 4.91733E+00-1.37603E-02-1.62441E-03 1.14458E-13-7.49257E-13
 -1       172 1.87318E+01 4.90104E+00-1.42119E-02 2.90681E-01 1.85152E-13-7.25768E-13
 -1       173 1.88503E+01 4.85832E+00-1.55416E-02 6.06084E-01 2.43720E-13-6.75336E-13
 -1       174 1.90385E+01 4.78710E+00-1.80827E-02 9.58691E-01 2.94231E-13-6.02837E-13
 -1       175 1.93079E+01 4.67547E+00-2.27080E-02 1.38228E+00 3.67660E-13-4.69698E-13
 -1       176 1.96838E+01 4.49971E+00-3.14745E-02 1.89807E+00 4.31764E-13-2.74281E-13
 -1       177 2.02669E+01 4.18884E+00-4.48493E-02 2.53657E+00 4.57584E-13 6.74391E-14
 -1       178 2.14004E+01 3.43322E+00-5.64380E-02 3.27276E+00 4.03289E-13 6.73218E-13
 -1       179 2.26211E+01 1.11284E+00-3.30915E-01 2.82061E+00 2.82015E-13 1.44065E-12
 -1       180 2.22686E+01 8.38876E-01 1.38335E-03-1.74816E+00-3.74204E-13 4.34573E-13
 -1       181 2.09312E+01 1.91500E-01-8.56865E-03-5.52099E-01-3.31107E-13 2.57579E-13
 -1       182 2.03772E+01 1.15758E-01 1.46626E-02-5.04888E-02-2.52512E-13 8.23014E-14
 -1       183 2.03000E+01 7.03374E-02 1.10656E-02 2.16210E-01-1.54632E-13-8.79869E-14
 -1       184 2.04893E+01 5.25399E-02 6.31185E-03 3.91696E-01-1.22440E-13-1.57839E-13
 -1       185 2.08628E+01 4.36779E-02 3.48647E-03 5.25689E-01-1.12461E-13-1.90532E-13
 -1       186 2.13717E+01 3.58513E-02 1.74868E-03 6.33399E-01-8.43804E-14-2.03644E-13
 -1       187 2.19789E+01 2.27772E-02 2.20777E-04 7.11261E-01-5.91769E-14-2.48300E-13
 -1       188 2.26424E+01-2.59033E-03-1.48460E-03 7.38877E-01-7.93083E-14-2.40793E-13
 -1       189 2.33011E+01-4.78530E-02-3.29008E-03 6.78220E-01-2.36933E-14-2.61462E-13
 -1       190 2.38644E+01-1.17296E-01-4.68381E-03 4.77408E-01-4.25601E-14-3.92341E-13
 -1       191 2.42087E+01-2.01953E-01-4.85803E-03 9.02714E-02-1.44342E-14-4.24256E-13
 -1       192 2.41961E+01-2.67465E-01-3.37335E-03-4.78074E-01 5.32994E-15-4.29670E-13
 -1       193 2.37277E+01-2.48223E-01-8.66755E-04-1.10538E+00 3.99420E-14-3.50503E-13
 -1       194 2.28390E+01-7.96922E-02 1.15422E-03-1.51270E+00-5.61857E-14-2.59280E-13
 -1       195 2.17984E+01 2.10945E-01 2.28544E-04-1.36773E+00-7.09688E-14-3.28183E-13
 -1       196 2.10776E+01 4.50980E-01-2.44086E-03-5.72865E-01-6.25082E-14-3.76311E-13
 -1       197 2.10679E+01 4.67610E-01-3.36970E-03 5.39612E-01-1.58705E-13-5.60822E-13
 -1       198 2.18000E+01 2.31455E-01-9.89861E-04 1.38091E+00-1.59636E-13-6.27930E-13
 -1       199 2.28829E+01-6.00830E-02 1.05500E-03 1.57490E+00-4.29925E-14-7.28239E-13
 -1       200 2.38484E+01-2.37736E-01 2.19433E-04 1.20406E+00 1.82035E-13-6.88727E-13
 -1       201 2.44115E+01-2.66122E-01-2.61139E-03 5.90352E-01 1.47408E-14-5.78257E-13
 -1       202 2.45223E+01-2.03671E-01-4.62475E-03 2.12861E-02-5.35639E-14-4.85012E-13
 -1       203 2.42745E+01-1.18134E-01-4.68875E-03-3.68969E-01 1.01984E-13-3.60251E-13
 -1       204 2.38052E+01-4.72476E-02-3.42457E-03-5.70742E-01 5.32107E-14-4.79942E-13
 -1       205 2.32369E+01-1.17658E-03-1.76923E-03-6.30514E-01-1.74348E-15-4.99569E-13
 -1       206 2.26573E+01 2.34259E-02-3.46057E-04-6.03267E-01 5.14041E-14-4.47910E-13
 -1       207 2.21193E+01 3.34721E-02 6.18611E-04-5.32389E-01 1.17130E-13-3.77782E-13
 -1       208 2.16490E+01 3.50466E-02 1.14161E-03-4.46121E-01 1.03099E-13-2.53704E-13
 -1       209 2.12548E+01 3.23362E-02 1.33619E-03-3.60473E-01-2.59437E-13-2.83313E-13
 -1       210 2.09346E+01 2.78626E-02 1.32462E-03-2.83286E-01-2.30640E-13-3.75186E-13
 -1       211 2.06811E+01 2.30011E-02 1.20266E-03-2.17543E-01-1.82423E-13-5.28813E-13
 -1       212 2.04846E+01 1.84290E-02 1.03402E-03-1.63593E-01-9.33241E-14-6.73011E-13
 -1       213 2.03354E+01 1.44304E-02 8.56473E-04-1.20505E-01 1.70651E-13-6.24359E-13
 -1       214 2.02243E+01 1.10826E-02 6.90002E-04-8.68255E-02-1.37601E-14-4.61745E-13
 -1       215 2.01433E+01 8.36128E-03 5.43646E-04-6.09896E-02-4.81135E-14-5.96807E-13
 -1       216 2.00857E+01 6.19842E-03 4.20161E-04-4.15151E-02 1.70866E-13-7.02493E-13
 -1       217 2.00458E+01 4.51153E-03 3.18964E-04-2.70905E-02 3.22636E-13-5.14220E-13
 -1       218 2.00193E+01 3.21831E-03 2.37860E-04-1.66018E-02-5.19085E-14-4.53002E-13
 -1       219 2.00025E+01 2.24315E-03 1.74009E-04-9.12906E-03-3.24413E-13-3.44420E-13
 -1       220 1.99929E+01 1.51943E-03 1.24432E-04-3.93113E-03-3.35173E-13-2.98882E-13
 -1       221 1.99882E+01 9.89574E-04 8.62712E-05-4.24587E-04 1.39573E-13-4.93914E-13
 -1       222 1.99868E+01 6.03902E-04 5.68877E-05 1.83635E-03 2.06512E-13-2.32352E-13
 -1       223 1.99877E+01 3.18564E-04 3.40230E-05 3.17706E-03 4.11013E-13-8.51066E-14
 -1       224 1.99899E+01 9.25044E-05 1.61347E-05 3.81445E-03 1.58286E-13 8.03674E-14
 -1       225 1.99927E+01-1.18396E-04 3.50305E-06 3.86186E-03-1.88697E-14 1.68408E-13
 -1       226 1.99955E+01-3.68670E-04-3.19486E-06 3.32819E-03 1.95344E-13 1.42492E-13
 -1       227 1.99979E+01-6.95217E-04 4.26517E-07 2.17071E-03 2.21965E-13 2.24698E-14
 -1       228 2.13214E+01 2.71123E-01-4.88131E-02 9.92918E-01 3.04128E-13 1.24700E-12
 -1       229 2.04248E+01 1.29905E-01 9.23865E-03 2.71830E-01 2.27964E-13 1.01886E-12
 -1       230 2.01420E+01 6.72389E-02 1.29942E-02-4.18219E-02 1.87080E-13 8.00721E-13
 -1       231 2.01922E+01 4.07771E-02 7.67753E-03-2.15573E-01 1.38601E-13 6.67715E-13
 -1       232 2.04466E+01 2.76833E-02 3.72003E-03-3.26462E-01 1.01364E-13 5.87765E-13
 -1       233 2.08321E+01 1.82600E-02 1.56779E-03-3.99870E-01 2.57191E-14 5.42281E-13
 -1       234 2.12970E+01 7.77772E-03 3.51159E-04-4.40490E-01 7.26744E-14 4.69966E-13
 -1       235 2.17923E+01-7.14644E-03-3.92759E-04-4.40826E-01 1.11643E-13 3.84557E-13
 -1       236 2.22596E+01-2.90506E-02-6.98503E-04-3.84713E-01 8.62784E-14 2.88581E-13
 -1       237 2.26244E+01-5.84700E-02-3.88631E-04-2.51829E-01 1.50687E-14 3.54913E-13
 -1       238 2.27983E+01-9.13622E-02 6.65652E-04-2.74588E-02 4.99167E-14 3.45520E-13
 -1       239 2.26938E+01-1.15982E-01 2.15110E-03 2.79809E-01 1.13182E-14 3.05530E-13
 -1       240 2.22591E+01-1.12471E-01 3.04387E-03 6.15518E-01 6.37003E-14 1.53815E-13
 -1       241 2.15274E+01-6.12701E-02 1.93916E-03 8.67986E-01 1.01071E-13 1.11336E-13
 -1       242 2.06591E+01 3.73167E-02-1.53104E-03 8.97213E-01 5.48775E-14 1.61544E-13
 -1       243 1.99275E+01 1.47077E-01-5.43147E-03 6.17956E-01-4.63973E-14 5.37174E-14
 -1       244 1.96159E+01 2.08413E-01-6.57117E-03 8.77223E-02 2.06573E-13-8.03192E-14
 -1       245 1.98649E+01 1.81749E-01-3.88109E-03-4.86790E-01 2.31130E-14-1.12239E-13
 -1       246 2.05816E+01 8.62338E-02 7.65722E-04-8.72022E-01-7.73010E-14-1.37239E-13
 -1       247 2.15008E+01-2.12153E-02 4.01264E-03-9.52546E-01-6.43929E-14 8.46719E-15
 -1       248 2.23371E+01-9.23894E-02 4.39366E-03-7.71579E-01-2.17716E-14 5.34898E-14
 -1       249 2.29049E+01-1.13728E-01 2.52766E-03-4.59636E-01 9.76962E-14-2.84861E-14
 -1       250 2.31491E+01-9.86199E-02 2.17568E-04-1.43795E-01-1.39212E-14-2.36425E-13
 -1       251 2.31100E+01-6.82164E-02-1.28984E-03 1.01956E-01-1.27815E-13-1.37769E-13
 -1       252 2.28700E+01-3.76328E-02-1.78337E-03 2.56666E-01 2.27040E-14 2.68485E-14
 -1       253 2.25151E+01-1.38171E-02-1.57018E-03 3.30840E-01 3.34860E-14 6.67344E-14
 -1       254 2.21155E+01 1.85669E-03-1.04867E-03 3.46661E-01-1.38386E-14-3.31781E-14
 -1       255 2.17201E+01 1.06552E-02-5.01241E-04 3.26285E-01-6.23665E-14 6.10789E-14
 -1       256 2.13580E+01 1.45622E-02-6.54045E-05 2.87079E-01 1.04553E-13 5.31143E-14
 -1       257 2.10439E+01 1.53805E-02 2.24413E-04 2.40873E-01 4.38122E-14 3.72643E-14
 -1       258 2.07819E+01 1.44570E-02 3.84936E-04 1.94874E-01-3.96338E-13 2.87680E-13
 -1       259 2.05704E+01 1.26924E-02 4.49757E-04 1.52970E-01 2.50282E-14 3.09269E-13
 -1       260 2.04042E+01 1.06414E-02 4.52014E-04 1.16880E-01 2.04602E-14 2.36506E-13
 -1       261 2.02770E+01 8.62002E-03 4.17968E-04 8.70126E-02 1.35255E-13 3.94960E-14
 -1       262 2.01819E+01 6.79002E-03 3.66109E-04 6.30510E-02 4.42976E-13-9.34652E-14
 -1       263 2.01127E+01 5.21935E-03 3.08391E-04 4.43216E-02 6.55186E-14-1.83832E-13
 -1       264 2.00637E+01 3.92154E-03 2.51941E-04 3.00205E-02-2.25314E-13-1.23251E-13
 -1       265 2.00303E+01 2.88070E-03 2.00575E-04 1.93419E-02 1.42042E-13-1.81471E-13
 -1       266 2.00086E+01 2.06678E-03 1.55968E-04 1.15462E-02-7.58456E-14-1.04120E-13
 -1       267 1.99954E+01 1.44444E-03 1.18461E-04 5.99105E-03-8.36809E-14-2.17708E-14
 -1       268 1.99884E+01 9.78024E-04 8.76151E-05 2.14132E-03 1.28324E-13-5.62657E-14
 -1       269 1.99856E+01 6.33867E-04 6.25608E-05-4.32499E-04-2.04312E-13-1.40832E-14
 -1       270 1.99857E+01 3.80928E-04 4.23075E-05-2.06098E-03 2.49295E-13 1.11308E-13
 -1       271 1.99876E+01 1.89950E-04 2.62199E-05-2.98266E-03 1.11624E-13 1.07284E-14
 -1       272 1.99905E+01 3.13619E-05 1.51006E-05-3.34769E-03 1.83641E-13 6.74844E-14
 -1       273 1.99937E+01-1.25587E-04 1.22921E-05-3.21698E-03-2.74607E-14-3.71710E-14
 -1       274 1.99966E+01-3.31959E-04 1.43583E-05-2.55937E-03 1.32605E-13-4.14403E-14
 -1       275 1.99987E+01-5.68194E-04 1.35213E-05-1.33004E-03-7.38312E-14-2.82495E-14
 -1       276 1.99992E+01-1.96289E-03-3.21835E-06-2.12745E-03 1.48873E-13 7.41466E-13
 -1       277 1.99996E+01-4.21508E-03-3.33970E-06-3.01626E-03 2.70361E-13 1.12530E-13
 -1       278 1.99999E+01-6.75725E-03-2.04188E-06-3.19212E-03 6.42242E-14 1.17115E-13
 -1       279 2.00000E+01-9.22169E-03 2.54238E-06-2.87131E-03 1.09434E-13 1.42641E-15
 -1       280 2.00001E+01-1.12926E-02 7.30369E-06-2.28351E-03 1.43280E-13-4.81363E-13
 -1       281 2.00001E+01-1.28771E-02 1.07228E-05-1.55996E-03 1.46003E-13-6.96752E-14
 -1       282 2.00001E+01-1.38510E-02 1.26804E-05-7.91507E-04 1.68627E-13 1.64316E-13
 -1       283 2.00001E+01-1.41857E-02 1.33053E-05-1.18488E-05 3.86096E-13 4.01549E-13
 -1       284 2.00001E+01-1.38716E-02 1.27576E-05 7.71965E-04 4.48385E-13-2.65210E-13
 -1       285 2.00001E+01-1.29117E-02 1.08257E-05 1.55190E-03 4.22162E-13-4.98246E-14
 -1       286 2.00001E+01-1.13638E-02 7.14240E-06 2.27881E-03 2.05393E-13-3.11632E-13
 -1       287 2.00000E+01-9.25221E-03 2.46406E-06 2.88858E-03 6.05422E-13-3.08418E-13
 -1       288 1.99999E+01-6.77654E-03-3.34035E-06 3.21896E-03 2.86007E-13 1.54065E-13
 -1       289 1.99995E+01-4.19564E-03-6.44400E-06 2.98232E-03-7.33737E-14-1.05109E-13
 -1       290 1.99990E+01-2.26684E-03-1.21467E-05 3.01153E-03-9.90385E-14-4.44982E-13
 -1       291-8.87512E-01-1.07237E+01-9.63951E-01 1.18759E+00 3.87926E-13 5.54334E-13
 -1       292 3.76889E+00-7.36614E+00-5.13608E-01 4.52520E+00 4.07924E-13 6.17062E-13
 -1       293 1.16824E+01-5.02952E+00-2.90736E-01 6.43448E+00 5.37875E-13 4.30871E-13
 -1       294 2.07283E+01-1.47281E+00-5.40494E-02 6.92877E+00 6.11594E-13 5.53751E-13
 -1       295 3.04522E+01 3.01848E+00 3.80912E-01 7.49843E+00 6.64302E-13 6.29274E-13
 -1       296 3.83903E+01 5.00303E+00 5.22024E-01 4.04862E+00 6.14203E-13 1.08830E-13
 -1       297 4.48300E+01 6.59529E+00 8.75849E-01 2.20779E+00 5.36293E-13-6.21864E-14
 -1       298 4.49873E+01 6.94474E+00 8.88151E-01-1.38842E+00 6.70769E-13-4.77292E-13
 -1       299 4.14343E+01 5.64614E+00 8.32244E-01-5.45097E+00 9.18397E-13-7.97501E-13
 -1       300 3.21390E+01 2.24318E+00 2.97615E-01-5.67604E+00 7.34468E-13-6.65273E-13
 -1       301 2.14040E+01-8.47158E-01-1.22015E-02-7.17788E+00 8.07021E-13-9.51544E-13
 -1       302 1.21238E+01-4.93839E+00-2.96579E-01-6.51695E+00 4.82836E-13-8.13453E-13
 -1       303 3.59795E+00-7.95115E+00-6.78463E-01-4.02702E+00 3.88495E-13-8.64232E-13
 -1       304-3.97068E-01-9.31760E+00-7.36255E-01-1.79718E+00-1.27537E-13-1.03040E-12
 -1       305-9.03387E-01-1.04701E+01-8.96223E-01 9.80865E-01-7.12728E-13-8.46989E-13
 -1       306 3.25935E+00-8.05313E+00-6.29543E-01 4.02358E+00-9.87238E-13-6.92474E-13
 -1       307 1.00354E+01-5.09436E+00-4.80413E-01 5.65304E+00-1.29427E-12-1.01034E-12
 -1       308 1.93576E+01-8.12376E-01-9.76695E-02 7.21145E+00-1.35222E-12-1.29072E-12
 -1       309 3.09099E+01 2.89980E+00 4.14207E-01 7.57453E+00-1.16235E-12-1.44590E-12
 -1       310 4.03371E+01 5.24020E+00 7.06121E-01 4.70007E+00-9.84379E-13-1.01585E-12
 -1       311 4.58941E+01 6.76592E+00 9.79536E-01 1.81842E+00-7.46403E-13-7.75768E-13
 -1       312 4.66374E+01 6.60245E+00 1.03093E+00-1.59075E+00-5.67935E-13-3.64306E-13
 -1       313 4.12850E+01 5.56443E+00 7.27696E-01-3.94302E+00-6.89865E-13-9.77274E-14
 -1       314 3.40564E+01 3.30391E+00 4.67719E-01-6.47779E+00-6.96332E-13 1.57652E-13
 -1       315 2.44348E+01 8.42601E-01 1.14844E-01-7.45229E+00-6.83009E-13 6.52145E-13
 -1       316 1.49133E+01-2.57191E+00-2.96846E-01-6.50273E+00-5.63161E-13 8.77159E-13
 -1       317 7.12188E+00-6.14800E+00-6.26479E-01-4.77988E+00-3.44391E-13 6.21739E-13
 -1       318 1.72054E+00-9.19527E+00-8.67835E-01-2.76760E+00-1.10884E-13 3.09461E-13
 -1       319-9.85053E-01-1.09104E+01-9.90097E-01-8.31671E-01 1.32019E-13 4.39732E-13
 -1       320 2.03744E+01 3.07216E+00-1.76824E-02-1.72991E+00-3.53172E-13-4.45552E-13
 -1       321 2.10881E+01 2.20915E+00-1.66456E-02-2.02288E+00-4.28030E-13-2.02137E-13
 -1       322 1.94860E+01 3.88307E+00-1.44186E-02-9.82371E-01-1.55577E-13-6.18017E-13
 -1       323 1.92089E+01 4.09411E+00-1.18936E-02-6.62910E-01-6.69492E-14-6.37932E-13
 -1       324 1.90263E+01 4.22195E+00-1.04889E-02-3.83740E-01 1.71224E-14-6.20298E-13
 -1       325 1.89391E+01 4.27897E+00-9.87455E-03-1.28555E-01 1.10308E-13-5.91519E-13
 -1       326 1.89473E+01 4.27105E+00-9.92995E-03 1.20809E-01 1.89595E-13-5.69727E-13
 -1       327 1.90491E+01 4.19936E+00-1.06397E-02 3.82331E-01 2.58262E-13-5.58819E-13
 -1       328 1.92370E+01 4.06302E+00-1.21023E-02 6.67212E-01 3.38960E-13-4.83525E-13
 -1       329 1.95165E+01 3.84471E+00-1.45481E-02 9.97346E-01 4.01553E-13-3.85076E-13
 -1       330 1.98951E+01 3.51350E+00-1.82540E-02 1.37103E+00 4.75456E-13-2.39637E-13
 -1       331 2.04116E+01 2.99725E+00-2.22090E-02 1.76277E+00 5.09397E-13-4.89027E-14
 -1       332 2.10710E+01 2.12564E+00-2.93604E-02 2.00201E+00 4.76189E-13 3.42268E-13
 -1       333 2.14456E+01 1.17489E+00-2.31287E-02 1.65833E+00 4.17685E-13 7.03031E-13
 -1       334 2.08797E+01 5.02057E-01 9.11503E-03 6.45862E-01 3.42804E-13 5.56901E-13
 -1       335 2.09508E+01 7.19908E-01 1.33634E-02-6.47876E-01-3.74106E-13-1.28884E-13
 -1       336 2.06929E+01 4.15350E-01 8.04344E-03-7.50687E-03-2.90238E-13-1.53320E-13
 -1       337 2.06411E+01 2.82599E-01 5.23624E-03 4.03199E-01-1.88859E-13-2.05666E-13
 -1       338 2.07519E+01 2.16304E-01 3.11592E-03 6.99180E-01-1.28500E-13-2.37730E-13
 -1       339 2.09909E+01 1.73637E-01 1.92003E-03 9.28292E-01-6.85921E-14-2.35997E-13
 -1       340 2.13317E+01 1.27387E-01 9.56868E-04 1.10468E+00-7.52417E-14-2.20309E-13
 -1       341 2.17542E+01 5.27058E-02-2.68260E-04 1.21662E+00-2.81819E-14-1.78319E-13
 -1       342 2.22415E+01-7.68122E-02-1.99638E-03 1.22738E+00-4.45948E-14-1.69901E-13
 -1       343 2.27747E+01-2.83583E-01-4.13584E-03 1.07582E+00-9.56485E-14-1.23827E-13
 -1       344 2.33233E+01-5.65115E-01-6.21480E-03 6.86008E-01-4.83101E-14-1.61302E-13
 -1       345 2.38233E+01-8.51662E-01-7.34255E-03 6.02964E-03-5.22369E-14-1.88567E-13
 -1       346 2.41623E+01-9.76734E-01-7.79506E-03-9.16445E-01 1.15307E-13-1.73367E-13
 -1       347 2.41780E+01-6.82879E-01-7.86881E-03-1.82422E+00 2.51951E-14-1.85342E-13
 -1       348 2.37895E+01 1.59916E-01-6.25852E-03-2.20443E+00-8.70590E-14-1.87116E-13
 -1       349 2.32010E+01 1.22130E+00-9.28581E-03-1.55567E+00-1.21889E-13-2.97040E-13
 -1       350 2.29059E+01 1.75831E+00-8.01494E-03-3.21842E-02-2.29322E-13-3.17914E-13
 -1       351 2.31986E+01 1.29865E+00-9.01541E-03 1.56494E+00-1.53868E-13-2.68111E-13
 -1       352 2.38175E+01 2.37923E-01-9.22794E-03 2.27640E+00-1.25445E-13-3.61276E-13
 -1       353 2.42673E+01-6.28556E-01-5.25377E-03 1.96953E+00 5.15126E-15-3.79044E-13
 -1       354 2.43192E+01-9.59149E-01-6.09494E-03 1.09438E+00 1.86805E-13-5.58770E-13
 -1       355 2.40409E+01-8.55677E-01-7.40848E-03 1.73337E-01 1.28516E-13-3.40969E-13
 -1       356 2.35912E+01-5.70174E-01-6.46150E-03-5.13332E-01 5.18132E-14-1.71730E-13
 -1       357 2.30897E+01-2.85809E-01-4.27112E-03-9.08245E-01 4.36777E-14-3.33399E-13
 -1       358 2.25983E+01-7.69039E-02-2.04336E-03-1.06398E+00 2.49322E-14-4.60752E-13
 -1       359 2.21446E+01 4.93714E-02-3.81719E-04-1.06052E+00 1.01205E-13-4.09303E-13
 -1       360 2.17397E+01 1.12077E-01 6.37597E-04-9.67642E-01 1.00691E-13-3.88898E-13
 -1       361 2.13874E+01 1.33752E-01 1.14300E-03-8.34722E-01 1.09298E-13-4.85386E-13
 -1       362 2.10879E+01 1.32166E-01 1.30412E-03-6.92412E-01-8.32809E-14-6.41571E-13
 -1       363 2.08384E+01 1.19125E-01 1.26547E-03-5.57654E-01-3.13406E-13-6.22990E-13
 -1       364 2.06348E+01 1.01682E-01 1.12814E-03-4.38485E-01-2.18355E-13-4.22315E-13
 -1       365 2.04717E+01 8.36971E-02 9.54519E-04-3.37631E-01-1.28681E-13-2.96116E-13
 -1       366 2.03435E+01 6.70800E-02 7.79286E-04-2.54897E-01-4.64142E-14-2.40234E-13
 -1       367 2.02444E+01 5.26241E-02 6.19500E-04-1.88642E-01 2.40766E-13-2.01837E-13
 -1       368 2.01692E+01 4.05219E-02 4.81957E-04-1.36638E-01-3.23320E-14-5.97745E-14
 -1       369 2.01132E+01 3.06641E-02 3.67912E-04-9.65496E-02-6.63760E-14-1.42739E-13
 -1       370 2.00725E+01 2.28058E-02 2.75868E-04-6.61707E-02 3.96399E-13-3.76086E-14
 -1       371 2.00436E+01 1.66563E-02 2.03149E-04-4.35430E-02 2.38872E-13-1.49802E-13
 -1       372 2.00236E+01 1.19246E-02 1.46725E-04-2.69924E-02-1.41688E-13 6.23922E-14
 -1       373 2.00105E+01 8.34090E-03 1.03623E-04-1.51289E-02-2.85980E-13 1.69395E-13
 -1       374 2.00023E+01 5.66451E-03 7.11018E-05-6.82794E-03-2.48238E-13 3.06149E-13
 -1       375 1.99976E+01 3.68473E-03 4.67228E-05-1.20288E-03 2.02844E-13 1.77392E-13
 -1       376 1.99955E+01 2.21714E-03 2.82823E-05 2.42213E-03 4.24819E-13 2.13897E-13
 -1       377 1.99950E+01 1.09681E-03 1.38822E-05 4.53778E-03 2.89110E-13 1.03790E-14
 -1       378 1.99955E+01 1.70810E-04 2.82963E-06 5.46925E-03 3.79786E-14 1.25147E-13
 -1       379 1.99966E+01-7.13057E-04-7.67066E-06 5.41159E-03-8.57118E-14 5.25916E-14
 -1       380 1.99977E+01-1.49211E-03-1.81397E-05 4.54267E-03-7.86168E-15-1.17902E-13
 -1       381 2.05510E+01 2.59678E-01 1.12822E-02 7.84617E-02 2.70112E-13 4.54744E-13
 -1       382 2.04703E+01 1.58646E-01 6.76871E-03-2.56584E-01 2.18781E-13 3.67846E-13
 -1       383 2.05802E+01 1.05519E-01 3.38903E-03-4.72003E-01 1.28901E-13 2.86888E-13
 -1       384 2.08222E+01 6.82159E-02 1.52996E-03-6.14166E-01 6.59269E-14 2.44443E-13
 -1       385 2.11523E+01 2.98644E-02 2.84243E-04-6.96541E-01 8.99464E-14 1.65905E-13
 -1       386 2.15323E+01-2.10208E-02-8.97410E-04-7.12195E-01 1.57643E-13 1.73019E-13
 -1       387 2.19220E+01-9.25438E-02-2.17951E-03-6.40160E-01 1.19839E-13 1.96787E-13
 -1       388 2.22737E+01-1.86254E-01-3.43767E-03-4.52302E-01-2.84343E-15 2.16128E-13
 -1       389 2.25286E+01-2.89823E-01-4.30389E-03-1.26836E-01 9.51817E-14 1.70565E-13
 -1       390 2.26202E+01-3.67990E-01-4.25618E-03 3.27441E-01 8.44637E-14 1.12832E-13
 -1       391 2.24878E+01-3.60974E-01-3.12746E-03 8.38207E-01 1.32527E-13 8.94421E-14
 -1       392 2.21107E+01-2.07403E-01-1.13335E-03 1.24774E+00 6.41989E-14 1.92272E-13
 -1       393 2.15584E+01 9.77966E-02 8.18992E-04 1.34331E+00 5.83951E-14 1.78194E-13
 -1       394 2.10192E+01 4.48230E-01 2.68092E-03 9.75322E-01 1.14494E-13 6.38187E-14
 -1       395 2.07384E+01 6.58637E-01 4.83148E-03 2.02282E-01 2.24546E-13-1.65456E-13
 -1       396 2.08725E+01 5.90559E-01 5.66894E-03-6.73122E-01 8.12722E-14-4.25098E-14
 -1       397 2.13616E+01 2.94026E-01 4.78542E-03-1.28020E+00-6.56107E-14-1.55472E-13
 -1       398 2.19827E+01-5.37473E-02 1.97043E-03-1.42245E+00-1.08440E-13-1.34439E-13
 -1       399 2.25053E+01-2.91434E-01-1.18066E-03-1.15906E+00-7.19676E-14-6.85639E-14
 -1       400 2.28042E+01-3.69458E-01-3.84796E-03-6.87117E-01 1.66369E-13-7.40840E-14
 -1       401 2.28643E+01-3.26411E-01-4.91558E-03-2.03005E-01 8.07182E-14-6.14978E-14
 -1       402 2.27348E+01-2.29881E-01-4.44583E-03 1.78450E-01-1.47935E-13-1.00704E-13
 -1       403 2.24811E+01-1.29713E-01-3.20833E-03 4.22836E-01-8.91168E-14-1.12787E-13
 -1       404 2.21622E+01-4.99549E-02-1.82563E-03 5.43540E-01 3.62985E-14-6.36988E-14
 -1       405 2.18231E+01 3.67887E-03-6.63945E-04 5.72674E-01 1.32588E-13 1.15707E-13
 -1       406 2.14943E+01 3.45791E-02 1.50007E-04 5.43440E-01-2.55384E-14-1.89031E-14
 -1       407 2.11945E+01 4.89166E-02 6.31185E-04 4.82602E-01 3.26145E-14 9.19218E-14
 -1       408 2.09328E+01 5.25516E-02 8.56790E-04 4.08922E-01-5.64376E-15 4.89907E-13
 -1       409 2.07121E+01 4.99878E-02 9.10961E-04 3.34216E-01-2.33749E-13 2.14118E-13
 -1       410 2.05314E+01 4.43090E-02 8.63334E-04 2.65141E-01 3.27339E-14-1.63420E-13
 -1       411 2.03871E+01 3.74596E-02 7.63832E-04 2.04868E-01-2.12616E-14 1.22301E-14
 -1       412 2.02744E+01 3.05755E-02 6.44838E-04 1.54385E-01 2.14353E-13 5.80933E-14
 -1       413 2.01885E+01 2.42595E-02 5.25591E-04 1.13419E-01 3.22672E-13 3.21894E-13
 -1       414 2.01244E+01 1.87816E-02 4.16384E-04 8.10372E-02 1.98031E-13 5.12965E-13
 -1       415 2.00778E+01 1.42151E-02 3.21822E-04 5.60305E-02-2.46171E-13 1.68614E-13
 -1       416 2.00448E+01 1.05232E-02 2.43104E-04 3.71366E-02 1.08654E-13 2.90093E-14
 -1       417 2.00223E+01 7.61353E-03 1.79521E-04 2.31678E-02-1.45297E-13 9.30069E-14
 -1       418 2.00077E+01 5.37101E-03 1.29386E-04 1.30733E-02-6.48228E-14-1.09136E-13
 -1       419 1.99988E+01 3.67597E-03 9.05954E-05 5.96433E-03-8.59161E-14 4.08445E-14
 -1       420 1.99941E+01 2.41364E-03 6.09236E-05 1.11777E-03-6.91405E-14 2.62305E-13
 -1       421 1.99922E+01 1.47748E-03 3.81966E-05-2.03146E-03 3.26266E-14 4.22010E-14
 -1       422 1.99923E+01 7.68343E-04 2.04427E-05-3.90129E-03 1.08617E-13 1.69632E-13
 -1       423 1.99935E+01 1.88926E-04 6.82002E-06-4.77291E-03 1.06724E-13 2.54121E-13
 -1       424 1.99952E+01-3.51572E-04-2.79869E-06-4.79632E-03-2.87936E-14 3.83946E-13
 -1       425 1.99971E+01-9.49427E-04-7.15718E-06-4.01985E-03-1.40687E-13 7.51892E-13
 -1       426 1.99982E+01-1.46509E-03-1.09902E-05-3.21540E-03 4.78624E-14 9.41364E-13
 -1       427 2.00003E+01-5.03784E-03 2.30279E-06-4.71065E-03-5.11867E-14 3.30535E-15
 -1       428 1.99996E+01-3.68204E-03-8.46759E-06-4.92068E-03-5.89238E-15-1.18964E-13
 -1       429 1.99989E+01-2.65722E-03-1.52256E-05-4.37431E-03 2.69741E-14 3.51714E-13
 -1       430 2.00007E+01-6.14315E-03 7.74645E-06-3.96959E-03-1.59692E-13-4.92212E-13
 -1       431 2.00009E+01-6.99636E-03 1.08416E-05-2.93941E-03 6.17621E-14 1.25450E-15
 -1       432 2.00010E+01-7.56080E-03 1.26522E-05-1.79370E-03 1.59559E-13-1.23233E-14
 -1       433 2.00010E+01-7.84486E-03 1.34259E-05-6.14771E-04-1.64042E-13 4.61865E-13
 -1       434 2.00010E+01-7.85659E-03 1.34550E-05 5.73267E-04-2.72319E-13-2.08910E-14
 -1       435 2.00010E+01-7.59301E-03 1.28254E-05 1.76571E-03 4.51252E-15-5.53893E-14
 -1       436 2.00009E+01-7.05288E-03 1.10449E-05 2.91514E-03 2.20108E-13 2.64092E-14
 -1       437 2.00008E+01-6.20750E-03 7.01748E-06 3.97135E-03 4.51435E-13-1.56961E-13
 -1       438 2.00003E+01-5.07375E-03 2.05928E-06 4.74670E-03 5.14278E-13-1.81958E-13
 -1       439 1.99996E+01-3.73582E-03-9.39061E-06 5.02070E-03 2.63528E-14-4.17407E-13
 -1       440 1.21408E+01-5.12306E+00 6.99702E-02 7.19955E+00-8.78186E-14 1.26087E-13
 -1       441 1.33960E+00-4.09006E+00-2.69049E-02 2.84393E-01 2.18821E-13 5.64521E-13
 -1       442 3.78737E+00-4.26763E+00-9.33061E-03 4.33445E+00 7.88952E-14 5.29896E-13
 -1       443 2.07474E+01-5.45533E+00 6.30599E-03 6.27398E+00-2.49661E-14 1.18940E-13
 -1       444 2.81642E+01-2.63291E+00 1.51542E-02 3.48869E+00 2.54331E-13-6.44068E-14
 -1       445 1.98755E+01 3.55675E+00-1.69447E-02-1.36000E+00-2.68776E-13-5.60333E-13
 -1       446 3.39386E+01 6.16512E+00-1.90291E-02-6.58433E-01 6.09748E-13-7.29694E-14
 -1       447 3.48428E+01 8.06573E+00 1.73806E-03-1.38163E-01 6.83370E-13-9.44071E-14
 -1       448 3.55408E+01 6.55445E+00 6.91577E-02 1.63113E-02 7.02813E-13-5.05429E-14
 -1       449 3.31828E+01 2.78518E+00 9.22494E-03-6.96947E-01 5.32546E-13 6.90697E-14
 -1       450 2.78953E+01-2.71602E+00-2.37021E-02-3.60363E+00 1.23151E-13 1.51129E-14
 -1       451 2.17853E+01-5.48562E+00 3.02142E-02-6.09319E+00-1.92305E-13-2.22690E-13
 -1       452 1.15276E+01-5.40943E+00 7.53617E-03-7.16979E+00-2.08070E-13-5.22971E-13
 -1       453 5.34892E+00-4.32611E+00 5.03130E-02-5.26709E+00-2.11359E-13-9.26911E-13
 -1       454 1.08482E+00-4.49839E+00-7.90563E-02-2.21100E-01-1.11471E-13-1.10861E-12
 -1       455 4.03446E+00-4.10915E+00 3.70696E-02 4.15396E+00-8.12683E-14-8.08201E-13
 -1       456 1.11579E+01-5.71833E+00-3.40224E-02 6.92449E+00-4.06730E-13-5.10703E-13
 -1       457 1.97180E+01-5.41052E+00-2.99768E-02 6.50839E+00-5.05596E-13-6.34798E-13
 -1       458 2.79068E+01-3.26286E+00-5.98383E-03 3.73432E+00-5.15477E-13-5.06914E-13
 -1       459 3.25763E+01 9.04795E-01-4.16755E-02 4.78148E-01-6.71390E-13-3.56423E-13
 -1       460 3.46563E+01 6.14547E+00-2.41282E-02-6.59767E-01-7.70092E-13-5.47756E-13
 -1       461 3.40239E+01 7.95308E+00-7.50609E-02 1.82878E-02-7.95808E-13-6.79838E-13
 -1       462 3.41945E+01 6.76255E+00-4.13172E-02 9.82297E-01-7.05561E-13-7.37549E-13
 -1       463 3.34874E+01 2.34100E+00-2.75391E-02-6.26151E-02-4.07341E-13-5.72140E-13
 -1       464 2.98960E+01-1.85700E+00-6.50855E-03-2.54960E+00-1.87253E-13-5.64146E-13
 -1       465 2.36315E+01-4.33272E+00-2.48954E-02-5.45674E+00 1.10897E-13-6.26860E-14
 -1       466 1.62291E+01-5.73623E+00-3.78266E-02-6.84055E+00 1.06484E-13 3.38686E-13
 -1       467 8.47183E+00-5.56373E+00-6.64538E-02-6.31250E+00 1.55084E-13 6.41050E-13
 -1       468 2.99248E+00-4.92189E+00-7.72455E-02-3.70425E+00 1.82465E-13 3.05395E-13
 -1       469 3.19749E+01 1.02427E+00-4.02532E-02 7.48446E-01 4.50709E-13-1.63008E-13
 -1       470 3.00110E+01-1.23578E+00-6.45769E-02-2.93343E-01 1.01684E-13 2.48621E-13
 -1       471 2.08090E+01 8.99276E-01 4.20479E-03 5.48876E-01 3.56604E-13 1.01609E-13
 -1       472 1.93197E+01 3.50458E+00-4.46413E-03-3.80682E-01-1.63188E-14-5.61363E-13
 -1       473 1.95778E+01 3.26444E+00-5.05084E-03-5.88256E-01-1.04117E-13-5.64233E-13
 -1       474 1.91239E+01 3.67158E+00-3.98344E-03-1.33748E-02 1.34894E-13-5.15425E-13
 -1       475 1.91900E+01 3.61253E+00-4.12993E-03 1.70448E-01 2.14034E-13-5.11868E-13
 -1       476 1.93560E+01 3.46309E+00-4.60399E-03 3.68158E-01 2.84507E-13-4.65518E-13
 -1       477 1.96193E+01 3.21131E+00-5.38432E-03 5.92788E-01 3.64373E-13-3.88322E-13
 -1       478 1.99677E+01 2.84103E+00-6.22889E-03 8.34386E-01 4.13052E-13-2.77758E-13
 -1       479 2.04024E+01 2.31020E+00-5.61251E-03 1.06580E+00 4.51165E-13-1.49093E-13
 -1       480 1.01350E+01-2.51031E+00 1.72142E-01 5.70697E+00-3.32283E-13 1.11161E-13
 -1       481 2.06691E+01 5.52544E-01 5.44730E-03-3.38709E-02 2.91284E-13 6.07333E-14
 -1       482 2.07263E+01 1.11161E+00 3.05211E-03-4.23703E-01-3.07391E-13-2.57870E-13
 -1       483 2.92713E+01 2.42510E+00-1.48470E-01-2.11363E+00 3.76775E-13-1.10308E-13
 -1       484 2.06509E+01 7.40136E-01 2.78772E-03 1.65384E-01-2.25411E-13-2.33310E-13
 -1       485 2.06263E+01 5.44016E-01 1.64434E-03 6.11177E-01-1.82834E-13-2.00718E-13
 -1       486 2.06769E+01 4.29523E-01 1.03517E-03 9.59768E-01-1.14848E-13-2.09624E-13
 -1       487 2.08040E+01 3.38104E-01 6.45658E-04 1.24028E+00-7.16784E-14-2.40348E-13
 -1       488 2.10094E+01 2.23407E-01 2.23361E-04 1.45929E+00-1.87895E-14-2.25463E-13
 -1       489 2.13053E+01 3.79141E-02-4.23365E-04 1.60024E+00-9.11228E-15-2.34898E-13
 -1       490 2.17197E+01-2.67474E-01-1.31601E-03 1.62028E+00-3.79670E-14-2.33304E-13
 -1       491 2.22941E+01-7.26212E-01-2.26139E-03 1.44707E+00-3.08606E-14-1.09143E-13
 -1       492 2.30706E+01-1.31054E+00-2.53198E-03 9.77073E-01 6.05744E-16 2.78709E-14
 -1       493 2.39982E+01-1.81661E+00-3.23468E-03 1.30459E-01 2.79737E-14 7.60696E-14
 -1       494 2.49116E+01-1.86769E+00-1.21235E-02-1.07285E+00 6.01490E-14 5.60715E-14
 -1       495 2.54229E+01-8.68267E-01-2.09949E-02-2.23605E+00-3.05160E-14 7.36225E-14
 -1       496 2.52755E+01 1.21853E+00-4.29303E-02-2.53258E+00-2.72915E-13 7.07815E-14
 -1       497 2.44981E+01 3.24152E+00-1.22481E-01-1.19452E+00-3.55518E-13-1.20073E-13
 -1       498 2.48698E+01 3.10084E+00-4.46751E-02 1.09769E+00-2.07491E-13-3.66115E-13
 -1       499 2.50755E+01 1.36640E+00-6.45844E-02 2.60955E+00-2.13369E-13-3.82505E-13
 -1       500 2.54684E+01-7.29232E-01-2.30855E-02 2.41813E+00-1.65941E-13-4.03567E-13
 -1       501 2.50405E+01-1.80124E+00-6.81122E-03 1.30264E+00 1.29809E-14-5.50300E-13
 -1       502 2.41733E+01-1.82615E+00-5.80774E-03 9.90762E-02 2.88996E-13-4.63780E-13
 -1       503 2.32485E+01-1.32381E+00-5.34646E-03-7.70823E-01 1.80028E-13-4.54129E-13
 -1       504 2.24797E+01-7.40273E-01-3.63698E-03-1.25250E+00 1.62563E-17-3.44960E-13
 -1       505 2.19035E+01-2.75872E-01-1.82390E-03-1.43698E+00-6.24743E-14-2.21850E-13
 -1       506 2.14847E+01 2.57003E-02-5.73532E-04-1.42997E+00-4.01947E-14-3.12976E-13
 -1       507 2.11750E+01 1.90797E-01 1.60057E-04-1.31515E+00 1.63503E-14-5.44768E-13
 -1       508 2.09370E+01 2.61796E-01 5.26471E-04-1.14948E+00-1.51157E-14-7.06004E-13
 -1       509 2.07472E+01 2.75605E-01 6.59853E-04-9.68765E-01-1.29812E-13-1.03127E-12
 -1       510 2.05922E+01 2.58487E-01 6.61777E-04-7.93839E-01-1.42144E-13-1.02343E-12
 -1       511 2.04644E+01 2.27151E-01 5.98414E-04-6.35605E-01-9.82062E-14-7.87994E-13
 -1       512 2.03593E+01 1.91384E-01 5.09439E-04-4.98679E-01-6.04679E-14-3.68950E-13
 -1       513 2.02737E+01 1.56471E-01 4.16769E-04-3.83928E-01-3.16051E-14-1.99484E-13
 -1       514 2.02049E+01 1.24968E-01 3.31243E-04-2.90135E-01 3.09466E-14-1.44681E-13
 -1       515 2.01504E+01 9.78615E-02 2.57300E-04-2.15052E-01 1.02868E-13-2.60494E-13
 -1       516 2.01080E+01 7.52845E-02 1.95942E-04-1.56044E-01 1.37911E-14-5.07769E-14
 -1       517 2.00756E+01 5.69367E-02 1.46475E-04-1.10459E-01-5.54624E-15 4.23171E-14
 -1       518 2.00514E+01 4.23244E-02 1.07477E-04-7.58285E-02 1.93893E-13-2.22292E-13
 -1       519 2.00336E+01 3.08920E-02 7.73064E-05-4.99666E-02 2.57000E-13-4.88514E-15
 -1       520 2.00209E+01 2.20922E-02 5.43553E-05-3.10025E-02-2.31849E-14 3.71592E-13
 -1       521 2.00121E+01 1.54183E-02 3.71494E-05-1.73803E-02-4.50348E-13 3.42163E-13
 -1       522 2.00062E+01 1.04169E-02 2.43823E-05-7.83974E-03-1.28527E-13 2.83462E-13
 -1       523 2.00025E+01 6.68852E-03 1.50109E-05-1.38855E-03 6.67039E-14 6.79427E-14
 -1       524 2.00003E+01 3.88261E-03 7.83438E-06 2.72939E-03 6.59567E-14-2.75623E-13
 -1       525 1.99992E+01 1.68576E-03 3.11442E-06 5.06177E-03 1.75597E-13-2.07987E-13
 -1       526 1.99989E+01-1.99299E-04-1.09594E-06 5.97756E-03-1.61690E-13-2.26537E-13
 -1       527 2.07025E+01 2.44646E-01 1.34815E-03-7.07097E-01 1.50689E-13 2.29922E-14
 -1       528 2.08622E+01 1.45805E-01 4.87989E-04-8.93265E-01 9.96445E-14-1.51945E-14
 -1       529 2.10980E+01 3.43521E-02-2.14282E-04-9.95087E-01 1.25505E-13-2.16222E-14
 -1       530 2.13977E+01-1.13618E-01-1.01170E-03-9.98113E-01 8.63058E-14-3.63406E-15
 -1       531 2.17497E+01-3.11852E-01-1.94269E-03-8.72281E-01 6.46759E-14 2.13321E-14
 -1       532 2.21357E+01-5.52318E-01-2.85563E-03-5.80643E-01 8.02645E-14-5.18850E-14
 -1       533 2.25189E+01-7.86016E-01-3.34634E-03-9.86266E-02 9.12910E-14 1.61615E-14
 -1       534 2.28289E+01-9.03573E-01-2.85593E-03 5.49995E-01 2.86637E-14 5.71556E-14
 -1       535 2.29609E+01-7.47828E-01-2.15702E-03 1.23935E+00 3.05759E-14 1.31574E-13
 -1       536 2.28256E+01-2.02031E-01-1.80012E-03 1.70727E+00 6.14751E-14 2.10322E-13
 -1       537 2.24559E+01 6.38634E-01-2.82104E-03 1.62488E+00 1.75494E-13 2.17118E-13
 -1       538 2.20820E+01 1.38968E+00-1.44721E-03 8.49308E-01 2.44796E-13 1.89307E-13
 -1       539 2.19968E+01 1.57469E+00-3.72831E-04-3.65151E-01 1.48695E-13 1.79456E-13
 -1       540 2.22851E+01 1.06120E+00 2.92045E-04-1.41419E+00 1.02546E-13 5.53023E-14
 -1       541 2.27223E+01 2.00157E-01-1.49531E-03-1.84914E+00-1.01462E-13 4.80250E-14
 -1       542 2.30140E+01-5.09602E-01-7.21107E-04-1.62584E+00-1.71251E-14-8.56989E-14
 -1       543 2.30359E+01-8.51411E-01-2.53516E-03-1.01960E+00 7.45190E-14-3.05676E-13
 -1       544 2.28274E+01-8.43574E-01-3.55692E-03-3.43289E-01 4.02402E-14-1.28583E-13
 -1       545 2.24999E+01-6.48630E-01-3.31747E-03 2.10622E-01-2.11780E-14 7.42599E-14
 -1       546 2.21387E+01-4.05593E-01-2.47850E-03 5.80516E-01-6.44780E-15-1.57998E-13
 -1       547 2.17914E+01-1.92898E-01-1.49136E-03 7.77061E-01 4.42348E-14-2.20671E-13
 -1       548 2.14778E+01-3.86093E-02-6.33080E-04 8.40773E-01 3.68745E-14-1.53832E-13
 -1       549 2.12032E+01 5.80826E-02-1.23155E-05 8.16030E-01 2.00887E-14-9.42851E-14
 -1       550 2.09668E+01 1.09393E-01 3.62837E-04 7.39964E-01-1.54846E-13-3.69973E-14
 -1       551 2.07661E+01 1.29343E-01 5.48710E-04 6.39711E-01-1.78782E-13 9.84985E-14
 -1       552 2.05980E+01 1.29757E-01 6.05945E-04 5.33275E-01-3.43874E-14 3.24764E-13
 -1       553 2.04593E+01 1.19292E-01 5.85296E-04 4.31533E-01-4.77319E-14 2.80200E-13
 -1       554 2.03467E+01 1.03740E-01 5.23667E-04 3.40303E-01-8.28907E-14 3.00385E-13
 -1       555 2.02567E+01 8.67057E-02 4.45262E-04 2.62041E-01 5.19730E-14 2.72554E-13
 -1       556 2.01860E+01 7.02654E-02 3.64674E-04 1.97120E-01 1.27959E-13 3.49901E-13
 -1       557 2.01315E+01 5.54916E-02 2.89871E-04 1.44718E-01 1.58510E-13 4.32831E-13
 -1       558 2.00902E+01 4.28283E-02 2.24575E-04 1.03409E-01 1.71806E-13 5.68986E-13
 -1       559 2.00597E+01 3.23461E-02 1.69939E-04 7.15385E-02 1.78824E-13 2.98708E-13
 -1       560 2.00375E+01 2.39079E-02 1.25665E-04 4.74552E-02 1.53176E-13 1.73106E-13
 -1       561 2.00220E+01 1.72736E-02 9.07055E-05 2.96338E-02-2.03786E-13-3.88035E-14
 -1       562 2.00115E+01 1.21630E-02 6.36851E-05 1.67405E-02-6.19345E-14 5.22400E-14
 -1       563 2.00047E+01 8.29186E-03 4.31435E-05 7.65506E-03 6.43071E-14-1.39942E-13
 -1       564 2.00006E+01 5.38910E-03 2.76202E-05 1.47234E-03-4.49974E-14 3.61159E-14
 -1       565 1.99984E+01 3.20346E-03 1.56556E-05-2.50974E-03-3.18416E-14 4.34241E-14
 -1       566 1.99976E+01 1.50302E-03 6.64217E-06-4.80657E-03-1.13119E-13 7.53415E-14
 -1       567 1.99976E+01 6.42454E-05-2.65730E-06-5.78482E-03-1.02044E-13 4.21749E-13
 -1       568 1.99981E+01-1.30055E-03-8.10486E-06-5.64929E-03-4.35478E-13 5.17653E-13
 -1       569 2.00018E+01-2.24355E-03 4.21390E-06-3.82145E-03 2.86630E-13-3.27195E-14
 -1       570 2.00020E+01-2.14460E-03 5.14200E-06-2.57148E-03 1.54926E-13 5.24600E-14
 -1       571 2.00003E+01-2.05063E-03-3.79381E-06-5.67267E-03-1.97182E-13-3.17454E-14
 -1       572 2.00013E+01-2.24460E-03 2.94608E-06-4.91969E-03-1.52482E-13-2.07011E-13
 -1       573 2.00021E+01-2.04351E-03 5.82559E-06-1.29811E-03 8.39247E-15-1.25456E-13
 -1       574 2.00021E+01-2.01228E-03 6.02595E-06-3.37216E-05-2.41948E-13 8.63517E-16
 -1       575 2.00021E+01-2.07459E-03 5.78737E-06 1.24060E-03-3.15240E-13 1.83665E-13
 -1       576 2.00021E+01-2.19638E-03 5.50422E-06 2.51847E-03 8.99200E-14 2.11384E-13
 -1       577 2.00019E+01-2.31377E-03 4.04134E-06 3.80671E-03 1.40816E-13-2.27292E-13
 -1       578 2.00014E+01-2.29047E-03 3.46612E-06 4.92743E-03-5.90461E-14-1.76032E-13
 -1       579 2.00003E+01-2.04887E-03-1.62729E-06 5.68526E-03-8.09176E-14-3.36640E-13
 -1       580 1.87866E+01-5.15081E+00 6.40638E-02 6.26351E+00-2.50078E-13-9.71636E-14
 -1       581 4.93486E+00-1.69968E+00 1.61566E-01-2.21770E+00 2.79974E-13 5.47423E-13
 -1       582 2.06337E+01 3.63279E-01 2.85864E-03-4.31036E-01 2.11336E-13 5.39637E-14
 -1       583 4.83038E+00-1.68782E+00 1.58955E-01 2.34848E+00 5.49075E-14 4.02733E-13
 -1       584 8.59242E+00-3.14252E+00 1.39223E-01-5.53339E+00 1.08843E-13 4.75661E-13
 -1       585 2.06838E+01 1.85243E+00-6.06685E-03-1.09322E+00-3.56441E-13-3.60743E-13
 -1       586 2.58739E+01-4.90683E+00 2.47216E-03 2.88040E+00-2.27627E-13-1.43146E-13
 -1       587 2.97152E+01 6.09382E+00-1.70573E-01-1.23873E+00-6.26679E-13-1.25441E-13
 -1       588 1.85528E+01-5.15467E+00 1.01010E-01-6.46264E+00-4.16348E-13-1.53480E-13
 -1       589 1.91670E+01 3.63697E+00-4.09611E-03-1.92406E-01 6.39718E-14-5.46809E-13
 -1       590 2.59373E+01-4.86037E+00-2.63382E-02-3.15719E+00-2.47774E-13 1.61971E-13
 -1       591 2.93762E+01 6.50608E+00-1.75405E-01-1.20460E+00 5.94774E-13 4.22093E-14
 -1       592 3.00597E+01 6.97743E+00-1.68553E-01 8.35614E-01 5.40804E-13 1.75710E-13
 -1       593 3.01797E+01 3.82646E+00-1.67527E-01 1.71083E+00 4.54435E-13 3.52281E-13
 -1       594 5.25932E+00-1.27178E+00 1.75085E-01 1.53146E+00 5.55077E-14-9.37972E-13
 -1       595 1.08765E+01-3.48220E+00 1.36735E-01-6.37458E+00-3.99951E-13-5.04444E-13
 -1       596 3.01053E+01-1.17111E+00-1.01292E-01 8.44641E-01-1.88237E-13-6.98497E-13
 -1       597 6.21012E+00-1.48713E+00 1.77566E-01-3.24951E+00-1.77591E-13-8.68819E-13
 -1       598 1.08670E+01-3.36727E+00 1.46492E-01 6.13367E+00 1.07102E-13-5.58616E-13
 -1       599 1.84912E+01-5.49265E+00 8.27492E-02 6.49601E+00-7.42809E-14-3.45677E-13
 -1       600 2.49540E+01-5.50920E+00 1.16854E-03 4.02393E+00-1.17906E-13-2.16251E-13
 -1       601 2.93550E+01-2.67284E+00-7.61883E-02 1.62742E-01-3.05020E-13-1.15449E-13
 -1       602 2.94693E+01 2.41081E+00-1.46929E-01-2.45006E+00-4.98400E-13 7.82707E-15
 -1       603 2.84517E+01 6.02631E+00-1.97509E-01 1.10876E+00-5.83797E-13-3.22872E-13
 -1       604 2.99150E+01 3.23502E+00-1.57711E-01 2.37815E+00-4.07084E-13-6.10900E-13
 -1       605 2.68770E+01-4.80153E+00-3.89874E-02-2.42701E+00 2.93522E-13-4.37761E-13
 -1       606 2.24802E+01-5.65813E+00 5.60884E-02-5.09444E+00 3.92061E-13-4.80230E-13
 -1       607 1.50414E+01-4.84579E+00 9.84048E-02-6.72846E+00 3.84706E-13 1.54106E-13
 -1       608 2.89232E+01-1.91811E+00-9.56522E-02-2.35501E-01 2.28232E-13-1.46695E-13
 -1       609 2.09615E+01 1.33384E+00-8.27247E-04 1.18369E+00 4.30061E-13 2.05283E-13
 -1       610 1.99225E+01 2.89734E+00-8.72312E-03-8.07978E-01-1.99487E-13-5.12788E-13
 -1       611 1.54916E+01-3.21830E+00 1.01984E-01 5.87218E+00-3.06404E-13 7.94503E-15
 -1       612 1.99989E+01-1.39805E-03-3.86781E-06 5.91998E-03-2.35982E-13-4.06392E-13
 -1       613 9.56276E+00-1.15536E+00 1.43715E-01 4.03401E+00 1.72641E-13-6.19949E-13
 -1       614 2.88683E+01 6.25715E-01-1.00627E-01 1.75430E+00 2.44797E-13 2.94577E-13
 -1       615 2.27909E+01-5.19503E+00 3.11874E-02-4.42878E+00-3.86760E-13 5.46368E-14
 -1       616 1.93992E+01 2.96606E+00-1.29383E-03 1.17851E-01 2.18118E-13-4.27713E-13
 -1       617 1.92664E+01 3.09467E+00-1.20473E-03 1.73211E-02 1.48498E-13-4.62818E-13
 -1       618 1.99486E+01 2.37813E+00-1.49789E-03 3.65388E-01 3.44116E-13-2.91659E-13
 -1       619 2.03067E+01 1.90250E+00-2.03133E-03 4.76470E-01 3.73618E-13-1.97828E-13
 -1       620 2.25222E+01-4.69105E+00 1.32542E-02 3.86596E+00-3.24488E-13-1.46792E-13
 -1       621 2.06051E+01 1.19878E+00 2.79385E-03 2.97612E-01 3.44287E-13-9.97194E-14
 -1       622 9.32906E+00-4.84307E-01 1.47943E-01 3.15737E+00-2.52354E-13-2.62915E-14
 -1       623 2.79132E+01-4.67788E-02-8.60855E-02 2.49712E+00-2.07792E-13-6.43950E-13
 -1       624 2.04256E+01 1.02691E+00 8.14351E-04 3.71665E-01-1.77315E-13-2.66971E-13
 -1       625 2.03823E+01 8.03085E-01 4.12326E-04 7.99178E-01-1.41404E-13-2.04118E-13
 -1       626 2.03590E+01 6.50631E-01 2.88988E-04 1.15804E+00-9.19012E-14-1.82340E-13
 -1       627 2.03753E+01 5.05903E-01 2.00006E-04 1.46528E+00-4.79261E-14-2.03122E-13
 -1       628 2.04579E+01 3.06648E-01 6.38863E-05 1.72701E+00-1.95077E-14-1.80089E-13
 -1       629 2.06539E+01-1.65845E-02-2.08211E-04 1.93318E+00 1.24021E-14-1.71443E-13
 -1       630 2.10446E+01-5.37099E-01-2.14025E-04 2.04838E+00 7.93555E-14-8.46452E-14
 -1       631 2.17401E+01-1.29562E+00 6.45238E-04 1.98989E+00 9.73389E-14-3.22030E-14
 -1       632 2.29113E+01-2.24414E+00-8.74493E-03 1.58768E+00 2.54889E-14 1.11811E-13
 -1       633 2.45230E+01-3.03749E+00-1.05657E-02 6.89223E-01 4.85228E-14 1.46909E-13
 -1       634 2.61885E+01-2.74535E+00-1.76144E-02-8.06232E-01 1.20938E-13 1.79908E-13
 -1       635 2.66182E+01-2.84362E+00-3.43603E-02 9.26944E-01-7.68023E-14-5.14973E-13
 -1       636 2.46991E+01-3.29817E+00-1.57759E-03-6.82216E-01 2.10037E-13-3.64336E-13
 -1       637 2.28953E+01-2.46697E+00 2.18772E-03-1.63499E+00 2.02257E-13-6.00551E-13
 -1       638 2.16394E+01-1.43591E+00 1.68591E-04-1.97421E+00 2.21984E-13-4.53592E-13
 -1       639 2.08789E+01-5.96618E-01-8.46026E-05-1.98592E+00 1.21822E-13-4.70174E-13
 -1       640 2.04685E+01-3.88053E-02-4.53882E-05-1.84198E+00-1.20988E-13-3.31121E-13
 -1       641 2.02651E+01 2.82104E-01 2.07784E-05-1.63590E+00-1.50427E-13-2.09509E-13
 -1       642 2.01724E+01 4.35656E-01 7.27479E-05-1.41120E+00-1.97783E-13-3.48776E-13
 -1       643 2.01328E+01 4.83066E-01 9.32299E-05-1.18986E+00-3.19191E-13-4.93022E-13
 -1       644 2.01153E+01 4.69220E-01 9.58383E-05-9.83514E-01-3.91037E-14-2.83840E-13
 -1       645 2.01050E+01 4.23961E-01 8.92965E-05-7.98270E-01-7.60475E-15-1.40333E-13
 -1       646 2.00957E+01 3.65789E-01 7.83103E-05-6.36799E-01 1.20887E-13-1.67419E-13
 -1       647 2.00855E+01 3.05459E-01 6.59610E-05-4.99481E-01 1.07489E-14-3.36711E-13
 -1       648 2.00744E+01 2.48753E-01 5.39685E-05-3.85192E-01 6.79114E-14-2.54486E-13
 -1       649 2.00631E+01 1.98414E-01 4.31697E-05-2.91895E-01-1.58459E-14-3.26085E-13
 -1       650 2.00522E+01 1.55391E-01 3.38802E-05-2.17084E-01 8.08462E-14-3.36809E-13
 -1       651 2.00422E+01 1.19636E-01 2.61345E-05-1.58103E-01 5.60271E-14-1.95026E-13
 -1       652 2.00334E+01 9.05783E-02 1.98274E-05-1.12362E-01 1.13913E-13 3.08494E-14
 -1       653 2.00259E+01 6.74118E-02 1.47919E-05-7.74695E-02 1.88808E-13-2.36652E-13
 -1       654 2.00196E+01 4.92563E-02 1.08390E-05-5.13033E-02 1.95464E-13-3.98668E-13
 -1       655 2.00146E+01 3.52496E-02 7.78003E-06-3.20393E-02-1.72676E-13-1.81756E-13
 -1       656 2.00106E+01 2.45922E-02 5.40999E-06-1.81522E-02-4.54599E-13 1.16475E-13
 -1       657 2.00075E+01 1.65642E-02 3.58802E-06-8.39950E-03-3.08900E-13 1.76996E-13
 -1       658 2.00051E+01 1.05251E-02 2.32418E-06-1.80323E-03-6.70694E-14 6.52202E-14
 -1       659 2.00032E+01 5.92704E-03 1.42607E-06 2.38875E-03-1.44948E-14-1.76158E-13
 -1       660 2.00019E+01 2.26479E-03-8.46090E-06 4.71918E-03-3.56868E-13-6.18805E-13
 -1       661 2.07096E+01 2.09989E-01 6.13787E-05-1.12035E+00 1.13256E-13-3.69374E-14
 -1       662 2.25224E+01-5.12855E+00 3.11834E-02 4.41227E+00-7.88952E-15-1.83137E-13
 -1       663 2.05989E+01 3.85305E-01 2.33253E-04-9.10165E-01 1.37437E-13-6.24196E-14
 -1       664 2.11917E+01-2.85992E-01-4.85378E-04-1.25789E+00 4.51913E-14-5.62550E-14
 -1       665 2.16047E+01-6.57087E-01-9.22186E-04-1.12595E+00 7.48122E-14-5.80702E-14
 -1       666 2.21506E+01-1.08631E+00-1.26744E-03-7.94516E-01 2.74215E-14 2.54999E-15
 -1       667 2.28019E+01-1.46573E+00-1.34424E-03-2.14954E-01 1.38835E-14 7.38823E-14
 -1       668 2.34457E+01-1.56374E+00-6.97732E-04 6.02969E-01-8.26021E-15 1.60367E-13
 -1       669 2.38724E+01-1.07442E+00-4.10772E-03 1.49196E+00-4.15812E-14 2.59765E-13
 -1       670 2.38629E+01 1.36091E-01-2.05928E-03 2.02149E+00 2.46989E-14 3.42493E-13
 -1       671 2.34426E+01 1.79047E+00-2.31630E-02 1.69573E+00 2.58226E-13 4.04562E-13
 -1       672 2.31930E+01 2.79761E+00-2.50090E-02 3.60562E-01 3.04421E-13 1.94629E-13
 -1       673 2.32969E+01 2.46074E+00-3.55511E-02-1.23539E+00 2.36910E-13 1.08153E-13
 -1       674 2.37541E+01 9.72117E-01-9.03358E-03-2.12047E+00 7.91173E-14-3.49876E-14
 -1       675 2.39426E+01-5.47844E-01-1.36674E-03-1.92111E+00 3.08638E-14-2.51737E-13
 -1       676 2.37462E+01-1.39063E+00-1.94950E-03-1.18755E+00 4.48420E-14-1.80494E-13
 -1       677 2.31769E+01-1.52878E+00-2.22723E-03-3.07588E-01 6.97169E-15-1.02910E-13
 -1       678 2.25191E+01-1.24853E+00-1.48052E-03 3.75874E-01-1.81014E-14-4.51295E-14
 -1       679 2.19220E+01-8.30257E-01-1.03644E-03 8.11796E-01 1.85381E-13 3.33729E-14
 -1       680 2.14441E+01-4.37819E-01-7.08521E-04 1.02998E+00 6.32791E-14-1.44911E-14
 -1       681 2.10868E+01-1.39247E-01-3.77589E-04 1.09134E+00-5.71082E-14 7.50336E-15
 -1       682 2.08262E+01 5.77638E-02-9.11888E-05 1.05232E+00 5.60672E-14 1.00662E-13
 -1       683 2.06355E+01 1.70473E-01 7.73636E-05 9.55828E-01-3.47109E-14 5.32097E-14
 -1       684 2.04931E+01 2.22261E-01 1.65580E-04 8.31981E-01-2.07580E-13 9.29026E-14
 -1       685 2.03841E+01 2.34192E-01 2.00353E-04 7.00648E-01-1.73514E-13 1.53183E-13
 -1       686 2.02990E+01 2.22453E-01 2.02151E-04 5.74113E-01-6.78264E-14 1.71977E-13
 -1       687 2.02315E+01 1.98365E-01 1.85899E-04 4.59275E-01-1.11171E-15 7.22868E-14
 -1       688 2.01776E+01 1.69311E-01 1.61265E-04 3.59366E-01-9.06285E-15-1.85894E-13
 -1       689 2.01347E+01 1.39795E-01 1.34225E-04 2.75226E-01 1.78250E-13-6.57403E-14
 -1       690 2.01006E+01 1.12342E-01 1.08197E-04 2.06235E-01 1.94390E-13-8.23879E-14
 -1       691 2.00739E+01 8.81829E-02 8.49163E-05 1.50958E-01 9.15238E-14-2.07940E-13
 -1       692 2.00533E+01 6.77424E-02 6.50766E-05 1.07590E-01 1.33482E-13-1.28429E-14
 -1       693 2.00375E+01 5.09669E-02 4.87585E-05 7.42339E-02 2.12531E-13 1.90151E-13
 -1       694 2.00257E+01 3.75412E-02 3.57082E-05 4.90788E-02 7.71568E-14 5.30475E-13
 -1       695 2.00170E+01 2.70254E-02 2.55135E-05 3.04919E-02 5.11655E-14 4.09850E-13
 -1       696 2.00108E+01 1.89384E-02 1.76915E-05 1.70661E-02 7.96417E-14 1.67384E-13
 -1       697 2.00065E+01 1.28048E-02 1.17971E-05 7.63199E-03 9.60313E-16 1.64991E-13
 -1       698 2.00035E+01 8.17662E-03 7.36133E-06 1.25144E-03-3.62083E-15-3.79069E-14
 -1       699 2.00016E+01 4.64244E-03 4.39917E-06-2.79425E-03 4.96171E-14-1.23894E-14
 -1       700 2.00005E+01 1.82239E-03 6.50676E-06-5.03494E-03-3.56283E-13-1.40319E-14
 -1       701 2.00004E+01-3.29083E-05 1.10051E-06-5.69265E-03-3.69961E-13 1.63504E-13
 -1       702 2.00031E+01 3.95383E-03 1.85834E-06-5.56364E-04-4.20234E-14 3.73665E-14
 -1       703 2.00010E+01-7.61137E-05-1.81245E-06 5.57277E-03-2.92547E-13-3.92944E-13
 -1       704 2.00031E+01 2.70096E-03 8.34283E-07-2.74858E-03 7.27884E-14-1.35644E-13
 -1       705 2.00031E+01 3.93230E-03 2.07732E-06 4.58454E-04 7.73879E-15-3.00174E-13
 -1       706 2.00031E+01 3.51016E-03 1.45690E-06-1.60502E-03-1.57464E-13-1.87513E-13
 -1       707 2.05548E+01 5.69208E-01 6.90421E-04-6.14553E-01 1.79514E-13-1.10682E-13
 -1       708 2.00032E+01 3.45934E-03 1.00274E-06 1.51489E-03-8.26287E-14 4.53389E-13
 -1       709 2.00031E+01 2.63187E-03 1.03519E-07 2.70512E-03-1.64548E-13 7.35975E-14
 -1       710 2.00028E+01 1.62438E-03 9.29866E-07 3.98426E-03-1.65258E-13-1.77260E-13
 -1       711 8.52956E+00 1.95182E-01 1.56537E-01-6.46190E-01-8.31253E-14-7.62827E-13
 -1       712 2.04154E+01 1.89857E+00 1.32641E-04-6.15768E-01-2.48078E-13-3.90731E-13
 -1       713 9.21187E+00-1.07911E+00 1.46575E-01-3.79928E+00 1.42521E-13 3.96162E-13
 -1       714 2.80273E+01-1.09024E+00-5.93060E-02-1.97844E+00-1.93994E-13 1.68279E-13
 -1       715 2.09008E+01-2.26666E-03-1.62003E-04-1.24299E+00 1.15386E-13-3.11554E-14
 -1       716 2.04451E+01 1.36654E+00-4.41312E-05-8.72618E-02-2.00583E-13-3.21201E-13
 -1       717 1.36757E+01-2.84681E+00 1.14147E-01-5.70274E+00 3.49953E-13 1.79093E-13
 -1       718 2.66347E+01 3.97949E+00-1.22879E-01-2.06963E+00 3.99770E-13 3.90573E-14
 -1       719 1.96335E+01 2.72832E+00-1.47086E-03 2.35466E-01 2.92447E-13-3.69542E-13
 -1       720 2.63027E+01 5.69930E+00-1.43296E-01-6.54210E-03 4.88491E-13 1.67023E-13
 -1       721 1.66853E+01-3.66829E+00 8.32355E-02 5.80053E+00 1.60091E-13-4.20323E-13
 -1       722 1.95732E+01 2.79867E+00-1.36913E-03-2.52126E-01-5.56522E-14-4.78625E-13
 -1       723 2.72970E+01 4.63085E+00-1.41281E-01 1.81823E+00 4.50515E-13 1.74524E-13
 -1       724 1.60377E+01-3.34198E+00 1.01968E-01-5.85695E+00-4.46393E-13-1.51198E-13
 -1       725 7.83441E+00 7.21894E-02 1.56527E-01-1.06551E-01-4.93042E-14 3.53689E-13
 -1       726 2.67748E+01-4.39752E+00-1.92109E-02 1.17437E+00 1.43115E-15-2.57780E-14
 -1       727 1.12784E+01-1.45828E+00 1.32331E-01-4.79025E+00-3.43614E-13-5.20674E-13
 -1       728 2.05626E+01 8.15721E-01 1.33958E-03-2.21090E-01 2.64891E-13-1.12344E-13
 -1       729 2.76133E+01-3.21568E+00-6.07610E-02-3.67116E-01-9.49351E-14 1.49790E-13
 -1       730 1.97180E+01-4.49476E+00 6.16066E-02-5.18331E+00 2.46032E-13-2.83584E-13
 -1       731 2.49445E+01-5.03086E+00 1.17707E-02-2.76968E+00 3.11553E-13-3.29981E-13
 -1       732 2.78971E+01-3.24233E+00-3.24293E-02 3.19405E-01 3.58155E-14-6.53179E-13
 -1       733 1.98916E+01 2.46128E+00-1.10283E-03-3.63767E-01-1.26017E-13-4.63604E-13
 -1       734 1.92503E+01 3.11162E+00-1.22230E-03-7.04461E-02 8.37676E-14-4.75522E-13
 -1       735 1.96841E+01-3.55371E+00 4.79900E-02 4.58256E+00-2.28699E-13-3.21251E-13
 -1       736 2.54719E+01-3.94047E+00-2.05018E-02 1.13139E+00-2.63371E-13-1.98036E-13
 -1       737 2.00027E+01 1.69867E-03-3.20833E-07-3.94313E-03 8.07079E-14 2.19262E-13
 -1       738 2.00018E+01 7.05419E-04-8.29518E-07-4.93463E-03-1.72797E-13-6.97792E-15
 -1       739 1.30309E+01-1.21110E+00 8.82552E-02 4.47868E+00-3.27882E-13 1.21313E-13
 -1       740 2.72439E+01-4.45263E-01-7.45967E-02-1.84099E+00 1.07029E-13-1.76619E-13
 -1       741 1.42746E+01-1.79985E+00 8.20938E-02 4.87296E+00 2.23394E-13-4.95895E-13
 -1       742 1.98305E+01-4.00922E+00 4.35138E-02-4.91698E+00-4.10937E-13-6.38092E-14
 -1       743 1.93547E+01 3.01415E+00-1.31252E-03-1.56835E-01 1.83532E-14-4.97345E-13
 -1       744 2.57853E+01 1.29429E+00-4.46096E-02-2.48207E+00 1.78907E-13-2.60209E-16
 -1       745 2.53287E+01-4.51794E+00-8.68320E-03-2.05154E+00-2.63551E-13-6.14092E-15
 -1       746 2.68554E+01 2.17100E+00-8.89804E-02 2.31980E+00 3.23814E-13 1.82078E-13
 -1       747 2.69077E+01-2.68755E+00-2.96573E-02-5.48094E-01-5.32322E-14-1.97146E-13
 -1       748 2.01866E+01 1.64894E+00 2.53511E-04 2.27153E-02 2.92489E-13-2.09940E-13
 -1       749 2.45925E+01-4.21129E+00 4.83781E-02 2.06615E+00 1.02433E-13 1.37289E-13
 -1       750 2.34204E+01-3.85584E+00 7.29255E-03 2.24085E+00-2.71675E-13-1.82863E-13
 -1       751 2.43351E+01 3.71944E+00-7.64888E-02-1.08686E+00 3.14093E-13 7.84483E-14
 -1       752 1.99844E+01 1.03710E+00 4.95654E-05 9.23478E-01-7.79372E-14-3.08294E-13
 -1       753 1.98607E+01 8.60718E-01 8.39102E-05 1.26962E+00-6.51437E-14-2.69913E-13
 -1       754 1.97447E+01 6.72160E-01 8.52509E-05 1.59519E+00-2.65019E-14-2.70555E-13
 -1       755 1.96775E+01 3.97941E-01 4.77541E-06 1.91771E+00 3.76755E-14-2.04375E-13
 -1       756 1.97308E+01-4.96395E-02-1.84591E-04 2.24975E+00 1.08768E-13-1.64958E-13
 -1       757 2.00294E+01-7.76347E-01-5.26892E-04 2.59056E+00 1.15681E-13-1.24772E-13
 -1       758 2.08755E+01-1.86785E+00 1.72686E-02 2.85085E+00 1.46663E-13-9.69090E-14
 -1       759 2.21064E+01-3.45905E+00 2.97136E-02-3.05979E+00 1.03666E-13-2.96395E-13
 -1       760 2.04709E+01-1.97744E+00-3.33237E-04-2.94013E+00 2.35018E-13-3.18134E-13
 -1       761 1.96525E+01-7.97139E-01 1.97722E-03-2.57904E+00 9.05252E-14-4.34787E-13
 -1       762 1.93587E+01-4.90196E-02 1.06621E-03-2.17622E+00 1.44404E-13-3.30283E-13
 -1       763 1.93126E+01 3.83794E-01 4.63139E-04-1.82204E+00-8.27777E-14-2.49287E-13
 -1       764 1.93828E+01 5.97580E-01 2.72749E-04-1.52047E+00-2.20854E-13-2.90287E-13
 -1       765 1.94943E+01 6.71669E-01 1.60160E-04-1.26317E+00-2.66383E-13-9.93479E-14
 -1       766 1.96097E+01 6.62577E-01 9.03532E-05-1.04138E+00-1.53190E-13-2.23795E-14
 -1       767 1.97122E+01 6.08273E-01 5.09675E-05-8.49514E-01-5.48151E-14-2.72567E-13
 -1       768 1.97961E+01 5.33112E-01 2.84663E-05-6.84299E-01 6.35925E-15-2.78755E-13
 -1       769 1.98611E+01 4.51985E-01 1.56680E-05-5.43520E-01-9.41199E-14-2.60819E-13
 -1       770 1.99097E+01 3.73476E-01 8.41235E-06-4.25227E-01 1.00843E-13-1.45530E-13
 -1       771 1.99446E+01 3.02103E-01 4.30544E-06-3.27365E-01-2.82145E-14 2.68052E-14
 -1       772 1.99691E+01 2.39849E-01 1.97761E-06-2.47704E-01-5.73172E-14 1.04119E-13
 -1       773 1.99855E+01 1.87170E-01 6.56284E-07-1.83904E-01 1.67777E-13-5.95502E-14
 -1       774 1.99962E+01 1.43656E-01-8.79799E-08-1.33630E-01 1.29233E-13-8.19661E-14
 -1       775 2.00026E+01 1.08435E-01-4.93076E-07-9.46539E-02-2.22629E-13-1.86692E-13
 -1       776 2.00062E+01 8.04377E-02-6.95011E-07-6.49362E-02-4.44766E-14-2.95693E-13
 -1       777 2.00078E+01 5.85460E-02-7.86780E-07-4.26705E-02 1.22155E-13-6.23321E-13
 -1       778 2.00080E+01 4.16816E-02-8.11597E-07-2.63060E-02 6.75249E-14-3.56845E-13
 -1       779 2.00075E+01 2.88542E-02-1.11695E-06-1.45464E-02-1.14811E-13 1.30270E-13
 -1       780 2.00064E+01 1.91639E-02-1.23220E-06-6.32408E-03-2.86571E-13 4.43427E-13
 -1       781 2.00052E+01 1.18096E-02 3.20321E-07-8.53976E-04-4.77680E-13-5.11739E-14
 -1       782 2.00039E+01 6.13408E-03 3.56715E-06 2.58261E-03-3.26885E-13-2.87887E-13
 -1       783 2.00039E+01 1.02495E-02 7.09813E-07 3.66933E-04 9.15954E-14 8.81726E-14
 -1       784 2.14119E+01-1.08900E+00-2.48025E-04-1.51443E+00-4.37280E-14 5.58004E-14
 -1       785 2.08818E+01-5.11961E-01-1.50686E-04-1.57515E+00 2.65518E-14-3.34102E-14
 -1       786 2.32558E+01-2.30025E+00 9.43933E-04-5.95011E-01-1.05467E-13 1.91505E-13
 -1       787 2.43778E+01-2.33388E+00-6.65917E-04 4.30214E-01-1.55374E-13 2.62542E-13
 -1       788 2.51401E+01-1.25239E+00-1.77757E-02 1.63370E+00-5.70603E-14 3.66316E-13
 -1       789 2.49309E+01-1.98792E+00-1.52091E-02-1.25242E+00-1.15340E-13 1.43155E-14
 -1       790 2.38040E+01-2.32517E+00-4.22929E-03-3.36438E-02-5.36723E-14 2.52030E-13
 -1       791 2.26734E+01-1.99122E+00 1.39329E-03 7.99707E-01-7.86783E-14 2.15543E-13
 -1       792 2.17327E+01-1.35958E+00 5.05259E-04 1.23870E+00-3.23119E-14 2.67890E-13
 -1       793 2.10618E+01-7.48096E-01-1.54876E-05 1.39308E+00 1.34535E-13 2.41012E-13
 -1       794 2.06274E+01-2.76518E-01-1.76609E-04 1.38202E+00-3.61034E-14 2.75462E-13
 -1       795 2.03641E+01 4.18314E-02-1.61294E-05 1.28291E+00-1.80402E-14 3.01332E-13
 -1       796 2.02128E+01 2.31178E-01 4.11854E-05 1.14120E+00 6.61636E-15 2.71798E-13
 -1       797 2.01297E+01 3.25502E-01 6.34258E-05 9.83958E-01-1.83867E-13 2.78612E-13
 -1       798 2.00856E+01 3.55863E-01 6.88339E-05 8.27175E-01-1.04808E-13 2.03999E-13
 -1       799 2.00626E+01 3.46641E-01 6.49050E-05 6.80188E-01-1.42879E-13-1.44408E-13
 -1       800 2.00502E+01 3.15376E-01 5.74469E-05 5.48105E-01-9.28446E-14-6.57032E-14
 -1       801 2.00428E+01 2.73905E-01 4.87745E-05 4.33222E-01 1.30297E-13 6.50840E-14
 -1       802 2.00375E+01 2.29762E-01 4.01105E-05 3.35956E-01 7.54290E-14-2.03571E-13
 -1       803 2.00330E+01 1.87416E-01 3.21220E-05 2.55509E-01 2.44615E-13-1.69386E-13
 -1       804 2.00287E+01 1.49263E-01 2.51310E-05 1.90356E-01 1.76973E-14-1.50031E-13
 -1       805 2.00247E+01 1.16342E-01 1.92401E-05 1.38609E-01-5.13444E-14 1.04775E-13
 -1       806 2.00208E+01 8.88509E-02 1.44208E-05 9.82677E-02-4.91740E-14 2.31787E-13
 -1       807 2.00172E+01 6.64974E-02 1.05746E-05 6.73918E-02 3.50477E-15 1.61713E-13
 -1       808 2.00139E+01 4.87273E-02 7.56629E-06 4.42003E-02 1.17456E-13-2.12481E-13
 -1       809 2.00110E+01 3.48728E-02 5.25356E-06 2.71288E-02 5.68497E-14-1.68571E-13
 -1       810 2.00085E+01 2.42431E-02 3.44593E-06 1.48517E-02-4.78513E-14-1.01079E-14
 -1       811 2.00064E+01 1.61739E-02 1.90202E-06 6.27948E-03 1.46714E-13 1.20707E-13
 -1       812 2.00046E+01 1.00381E-02 5.47991E-07 5.44527E-04-5.31694E-14 5.52627E-14
 -1       813 2.00031E+01 5.30086E-03 1.27823E-06-2.98172E-03-2.65671E-13 2.64961E-13
 -1       814 2.00024E+01 2.95646E-03-9.03714E-06-4.23275E-03-3.72838E-13 2.06022E-13
 -1       815 1.93634E+01 2.55780E+00-1.59618E-04-5.55238E-02 1.65651E-13-3.97812E-13
 -1       816 2.00041E+01 8.96787E-03 1.60753E-06 1.01770E-03-3.59334E-13 1.66323E-13
 -1       817 2.00038E+01 1.07178E-02 3.70208E-07-7.37910E-05 2.42515E-14-1.32245E-13
 -1       818 1.11482E+01 6.54588E-01 7.38853E-02 1.15298E+00-2.21712E-13 8.58341E-14
 -1       819 1.14200E+01 3.28373E-01 8.15815E-02 2.05105E+00 9.84967E-14-5.32970E-13
 -1       820 2.22029E+01-1.74405E+00 1.52385E-04-1.23048E+00-6.84522E-14 1.48245E-13
 -1       821 2.04055E+01 1.21565E+00 1.78663E-04-8.97202E-02 2.91843E-13-1.54068E-13
 -1       822 2.03324E+01 5.07647E-01-3.20852E-05-1.08788E+00 1.05185E-13-1.44361E-13
 -1       823 2.00882E+01 1.26701E+00-9.63785E-06 5.39005E-01-1.19715E-13-3.39994E-13
 -1       824 1.74025E+01-2.49326E+00 5.76762E-02-4.64677E+00 1.72469E-13 2.06207E-14
 -1       825 2.03228E+01 7.46327E-01-9.33634E-05-7.87646E-01 1.40594E-13-1.30542E-13
 -1       826 2.68364E+01-1.37293E+00-7.69536E-02 1.52529E+00 7.71345E-15 2.55277E-13
 -1       827 2.04523E+01-3.68804E+00 6.80509E-03 4.30303E+00 1.38983E-13-1.75197E-13
 -1       828 1.49149E+01-1.71111E+00 6.65760E-02-4.72380E+00-3.33980E-13-1.63944E-13
 -1       829 1.37594E+01-1.05093E+00 7.58256E-02-4.14679E+00 6.14743E-14 1.09432E-13
 -1       830 1.11315E+01 3.29111E-01 7.99791E-02-2.06137E+00-1.10685E-13 3.53825E-13
 -1       831 1.18500E+01 1.12551E-01 6.91837E-02-2.58679E+00-2.20426E-13-4.98733E-13
 -1       832 1.92748E+01 2.64242E+00-3.15091E-04-4.54705E-02 1.19031E-13-4.21696E-13
 -1       833 2.04011E+01 2.52837E-01 1.27737E-05-1.32486E+00 9.88864E-14-9.96256E-14
 -1       834 2.00039E+01 7.16047E-03 9.00435E-07-2.00722E-03-3.25686E-13 7.99055E-14
 -1       835 2.47128E+01 3.97682E+00-9.02797E-02 1.03444E+00 4.59126E-13 2.35007E-13
 -1       836 1.24582E+01 8.47574E-01 3.94821E-02-1.34934E-01-2.36240E-14-4.86119E-13
 -1       837 1.97655E+01 2.15360E+00-6.92129E-04 5.34277E-03-9.20728E-14-4.37648E-13
 -1       838 2.01309E+01 1.58427E+00-1.00077E-04 1.49175E-01-1.46604E-13-3.55866E-13
 -1       839 2.00038E+01 1.02860E-02-7.35207E-09-4.99913E-04-7.06797E-14 1.01957E-13
 -1       840 2.05672E+01-7.20026E-02 4.25946E-05-1.49453E+00 6.10529E-14-6.91171E-14
 -1       841 2.00040E+01 9.03107E-03 1.88016E-06-1.10414E-03-1.64865E-13-2.53878E-13
 -1       842 1.95647E+01 2.35839E+00-2.01261E-04-4.40780E-02 2.11038E-13-3.47465E-13
 -1       843 1.31243E+01 2.04039E-01 3.80108E-02 2.61681E+00-9.88834E-14-4.78315E-14
 -1       844 2.00040E+01 7.13577E-03 6.68462E-06 1.96244E-03-4.67885E-13-9.07597E-14
 -1       845 1.69278E+01-2.03179E+00 2.71529E-02 4.44598E+00-2.59039E-13-5.72120E-14
 -1       846 2.58951E+01-2.99701E+00-1.69911E-02 1.67441E-01-1.72392E-13 1.95054E-13
 -1       847 1.80987E+01-2.32978E+00 4.18178E-02 4.35689E+00 2.57560E-13-4.29727E-13
 -1       848 1.79967E+01-2.57690E+00 2.98980E-02-4.56844E+00-2.90754E-13-1.70764E-13
 -1       849 1.98582E+01 2.04833E+00 2.41796E-04-1.22064E-02 2.58121E-13-2.95906E-13
 -1       850 2.26950E+01-4.26706E+00 1.48228E-02-3.35349E+00-3.11737E-13-2.80331E-15
 -1       851 2.03653E+01 9.52257E-01 8.81271E-05-4.68882E-01 1.95327E-13-1.57849E-13
 -1       852 1.94871E+01 2.44060E+00-4.36930E-04-3.20442E-03-1.94825E-14-4.36392E-13
 -1       853 1.92246E+01 1.05532E+00 8.48996E-06 1.26117E+00-1.70144E-14-2.57544E-13
 -1       854 1.89292E+01 8.49530E-01-2.36204E-05 1.59605E+00 1.25286E-14-2.42548E-13
 -1       855 1.86316E+01 5.42416E-01-3.45749E-05 1.98923E+00 5.09335E-14-3.02118E-13
 -1       856 1.83967E+01 4.00029E-02 8.84220E-04 2.49494E+00 1.15568E-13-3.45004E-13
 -1       857 1.83091E+01-7.56283E-01 1.72709E-02 3.15580E+00 1.52859E-13-3.37429E-13
 -1       858 1.77673E+01-7.51458E-01 1.07830E-02-3.19549E+00 2.00798E-13-4.18052E-13
 -1       859 1.78133E+01 8.15767E-02 1.26635E-03-2.43196E+00 2.03650E-13-3.39556E-13
 -1       860 1.81047E+01 5.58596E-01 3.07548E-04-1.88626E+00 1.16502E-13-4.35988E-13
 -1       861 1.84370E+01 7.90778E-01 1.33945E-04-1.49899E+00-1.76767E-13-3.08062E-13
 -1       862 1.87513E+01 8.71634E-01 4.86669E-05-1.21315E+00-2.23548E-13-2.93467E-13
 -1       863 1.90266E+01 8.60429E-01 8.32080E-06-9.89947E-01-2.57788E-13-3.54131E-13
 -1       864 1.92570E+01 7.96590E-01-1.81699E-06-8.07950E-01-2.04545E-13-3.55135E-13
 -1       865 1.94438E+01 7.06345E-01-2.21725E-06-6.55478E-01 1.76086E-14-2.89523E-13
 -1       866 1.95916E+01 6.06616E-01 6.20565E-07-5.26417E-01 2.05222E-14-1.13493E-13
 -1       867 1.97063E+01 5.07889E-01 3.87708E-06-4.17375E-01 8.45744E-14-2.05683E-13
 -1       868 1.97936E+01 4.16225E-01 6.46654E-06-3.26093E-01 2.24127E-13-1.93616E-13
 -1       869 1.98589E+01 3.34719E-01 8.09106E-06-2.50683E-01 1.32640E-13-1.48838E-13
 -1       870 1.99068E+01 2.64529E-01 8.80861E-06-1.89322E-01-3.16420E-14 4.42363E-14
 -1       871 1.99413E+01 2.05610E-01 8.81630E-06-1.40186E-01 8.88331E-14-2.41583E-14
 -1       872 1.99655E+01 1.57208E-01 8.33691E-06-1.01478E-01-6.88196E-14-1.10353E-13
 -1       873 1.99821E+01 1.18194E-01 7.56561E-06-7.14916E-02-2.33291E-13-1.96961E-13
 -1       874 1.99929E+01 8.72892E-02 6.65157E-06-4.86576E-02-2.24325E-13-4.74250E-13
 -1       875 1.99996E+01 6.31911E-02 5.63430E-06-3.15852E-02 2.67900E-13-8.15505E-13
 -1       876 2.00034E+01 4.46577E-02 4.01378E-06-1.90806E-02 2.99464E-13-7.80365E-13
 -1       877 2.00051E+01 3.05685E-02 8.36616E-06-1.01658E-02-3.63527E-15-3.37654E-13
 -1       878 2.00053E+01 1.98511E-02-1.04609E-05-3.91438E-03-5.22613E-13 2.33917E-14
 -1       879 2.00050E+01 1.27198E-02-7.58842E-06-4.60961E-04-6.71852E-13 7.86078E-15
 -1       880 2.00034E+01 4.91528E-03 3.15401E-06-3.10588E-03-2.50898E-13 4.36310E-13
 -1       881 2.37260E+01-3.30892E+00 1.36221E-02-1.43713E+00-2.26666E-13 3.98760E-14
 -1       882 2.27323E+01-2.87031E+00-1.24477E-03 1.70119E+00-9.37818E-14 1.17049E-13
 -1       883 2.04960E+01-1.05238E+00 1.87818E-03 1.93270E+00 6.75514E-14-3.69634E-14
 -1       884 2.00121E+01-3.97318E-01-2.53466E-04 1.74671E+00-6.01746E-15 1.45202E-13
 -1       885 1.97743E+01 4.26006E-02 2.36089E-05 1.52404E+00-1.44139E-13 1.58117E-13
 -1       886 1.96850E+01 3.06814E-01 3.82634E-05 1.30047E+00-1.04251E-13 4.23776E-13
 -1       887 1.96779E+01 4.43031E-01 3.58994E-05 1.09240E+00-2.33957E-14 5.08240E-13
 -1       888 1.97114E+01 4.92298E-01 3.17867E-05 9.04918E-01-1.01441E-13 2.67879E-13
 -1       889 1.97609E+01 4.86441E-01 2.24444E-05 7.39303E-01 7.29284E-14 3.22828E-13
 -1       890 1.98129E+01 4.48582E-01 1.54984E-05 5.95391E-01-1.14935E-13 1.62206E-13
 -1       891 1.98603E+01 3.94696E-01 1.08647E-05 4.72352E-01-4.21825E-14-6.84516E-15
 -1       892 1.99004E+01 3.35299E-01 7.74142E-06 3.68881E-01 1.83284E-13 2.48412E-13
 -1       893 1.99325E+01 2.76919E-01 5.56415E-06 2.83310E-01 1.50963E-13 2.13556E-13
 -1       894 1.99570E+01 2.23282E-01 4.00572E-06 2.13716E-01 7.76659E-14 2.37000E-13
 -1       895 1.99751E+01 1.76215E-01 2.87280E-06 1.58049E-01-2.22996E-13 4.26700E-13
 -1       896 1.99878E+01 1.36311E-01 2.04156E-06 1.14254E-01-8.69287E-14 4.32107E-13
 -1       897 1.99963E+01 1.03405E-01 1.42626E-06 8.03698E-02 1.07339E-13 2.79548E-13
 -1       898 2.00016E+01 7.68969E-02 9.75492E-07 5.45996E-02 1.42612E-13 2.19234E-13
 -1       899 2.00046E+01 5.59727E-02 6.46802E-07 3.53537E-02 1.20317E-13 3.58886E-13
 -1       900 2.00059E+01 3.97384E-02 1.97034E-07 2.12688E-02-2.91436E-14-8.78308E-15
 -1       901 2.00062E+01 2.73134E-02 1.31880E-07 1.12099E-02-2.98530E-13 8.24825E-14
 -1       902 2.00056E+01 1.78862E-02 3.96638E-06 4.27560E-03-1.43596E-13 5.54010E-13
 -1       903 2.00038E+01 1.85129E-02-3.91412E-06-3.88023E-04 2.07474E-14 6.40287E-15
 -1       904 2.13491E+01-1.92169E+00 3.93240E-03 1.98122E+00-1.44687E-14 1.06409E-13
 -1       905 1.27242E+01 9.15908E-01 3.24406E-02-6.59374E-01-7.31693E-14 2.65898E-13
 -1       906 1.50873E+01-3.04431E-01 4.05560E-02 3.32742E+00 1.72317E-13-4.34403E-13
 -1       907 2.00042E+01 1.71071E-02-1.32921E-05-7.83803E-04-1.80221E-13-5.02712E-13
 -1       908 1.99750E+01 8.95795E-01-1.75742E-04-9.24906E-01 1.26919E-13-2.17953E-13
 -1       909 2.03586E+01-7.24435E-01-9.30698E-05-1.99989E+00-6.50754E-14-1.06692E-13
 -1       910 1.94830E+01 1.23614E+00-8.49188E-05 9.44623E-01-3.61170E-14-2.77876E-13
 -1       911 1.41415E+01 1.12299E-01 2.22041E-02-2.73835E+00-4.44089E-14 3.12667E-14
 -1       912 1.93165E+01 2.60386E+00-5.51174E-04-2.39281E-02 5.25621E-14-4.30301E-13
 -1       913 1.48804E+01-3.90342E-01 2.73437E-02-3.32503E+00-2.53013E-13-2.39893E-13
 -1       914 2.56250E+01-1.49672E+00-8.75540E-02-1.52013E+00 5.42066E-14 2.35410E-14
 -1       915 2.09676E+01-3.16661E+00 2.96272E-02 3.42507E+00-1.77293E-13-1.80387E-13
 -1       916 1.96828E+01 1.45667E+00-9.94715E-05 6.20126E-01-5.49352E-14-3.28383E-13
 -1       917 1.99258E+01 6.17380E-01-2.45438E-04-1.23220E+00 7.23016E-14-2.04910E-13
 -1       918 1.92461E+01 2.22334E+00-3.48190E-04-1.33403E-01 1.27003E-13-3.69356E-13
 -1       919 1.43703E+01 6.79512E-01 1.72619E-02 1.76182E+00 8.81952E-14-3.90965E-13
 -1       920 1.41022E+01 6.99477E-01 2.04889E-02-1.58617E+00-1.25087E-13-3.11980E-13
 -1       921 1.97579E+01 1.75690E+00 1.64427E-04 3.12635E-01-9.97723E-14-3.78942E-13
 -1       922 2.00504E+01-1.34053E-01 3.51377E-04-1.77671E+00-1.24484E-14-1.63816E-13
 -1       923 2.01585E+01 1.30616E+00 1.24689E-06-3.50763E-01 1.95079E-13-2.09799E-13
 -1       924 2.21309E+01-2.49103E+00 1.60854E-03-2.00909E+00-8.06003E-14-3.37487E-14
 -1       925 2.00320E+01 1.19568E+00-3.10277E-04-5.83746E-01 1.60406E-13-2.54709E-13
 -1       926 2.00037E+01 1.85365E-02-3.36500E-07 2.09276E-04 5.20350E-14 9.69935E-14
 -1       927 2.00047E+01 1.06108E-02 1.50123E-06-3.14983E-04-1.58198E-13 6.93514E-13
 -1       928 1.57856E+01-5.17223E-01 1.28452E-02 3.30482E+00-1.76376E-13 7.96190E-14
 -1       929 1.94126E+01 2.07072E+00-2.06392E-05-2.31560E-01 1.73506E-13-3.51975E-13
 -1       930 1.94545E+01 2.04546E+00 2.34024E-04 2.09397E-01-2.56382E-14-3.54211E-13
 -1       931 2.10066E+01-1.53611E+00-6.51470E-03-2.11340E+00-9.88274E-14-4.43248E-14
 -1       932 1.70056E+01-1.14282E+00 1.47092E-02-3.64989E+00-2.11116E-13-2.17761E-13
 -1       933 2.07402E+01-3.37722E+00 1.69408E-02-3.84158E+00-2.83428E-13-1.31964E-13
 -1       934 1.33648E+01 9.23549E-01 2.16529E-02 8.51888E-01-1.45963E-13 1.58366E-13
 -1       935 2.00046E+01 1.39458E-02-9.83078E-06 4.92110E-04 4.98354E-15-1.85995E-13
 -1       936 1.79551E+01 1.04418E+00-4.22778E-04 1.39091E+00 4.06682E-14-2.62341E-13
 -1       937 1.72967E+01 7.69269E-01-1.55193E-03 1.81023E+00 3.13653E-14-3.17577E-13
 -1       938 1.54802E+01 7.13172E-01 8.63331E-03-1.89973E+00-3.07913E-16-2.09355E-13
 -1       939 1.65108E+01 9.91821E-01 1.77779E-03-1.35271E+00-2.98139E-15-3.95746E-13
 -1       940 1.72967E+01 1.10282E+00-1.09169E-04-1.02330E+00 1.10330E-14-4.14849E-13
 -1       941 1.79062E+01 1.12008E+00-1.49496E-04-8.11759E-01-1.70665E-13-4.64975E-13
 -1       942 1.83848E+01 1.07126E+00-8.45292E-05-6.60095E-01-2.05689E-13-4.42855E-13
 -1       943 1.87620E+01 9.82482E-01-3.26701E-05-5.43344E-01-1.42242E-13-2.03144E-13
 -1       944 1.90600E+01 8.72077E-01-6.25921E-06-4.47257E-01-3.19019E-14-1.40618E-13
 -1       945 1.92947E+01 7.53520E-01 2.15434E-06-3.65421E-01 9.88606E-14-2.25513E-13
 -1       946 1.94783E+01 6.36239E-01 2.52063E-06-2.94969E-01 1.19321E-13-1.35978E-13
 -1       947 1.96205E+01 5.26357E-01 3.76217E-07-2.34582E-01 1.47657E-13-1.32888E-13
 -1       948 1.97293E+01 4.27432E-01-1.91508E-06-1.83470E-01 1.61565E-13-2.86884E-13
 -1       949 1.98115E+01 3.41114E-01-3.57231E-06-1.40914E-01 9.38603E-14-4.62094E-13
 -1       950 1.98725E+01 2.67718E-01-4.48915E-06-1.06112E-01-4.71706E-14-4.36551E-13
 -1       951 1.99171E+01 2.06685E-01-4.80100E-06-7.81696E-02-1.25852E-13-5.69193E-13
 -1       952 1.99489E+01 1.56928E-01-4.70091E-06-5.61448E-02-1.97223E-13-2.88233E-13
 -1       953 1.99710E+01 1.17092E-01-4.37406E-06-3.91028E-02-3.67571E-13-2.18032E-14
 -1       954 1.99858E+01 8.57246E-02-3.79021E-06-2.61622E-02-1.96969E-13-7.10542E-14
 -1       955 1.99952E+01 6.13919E-02-2.62706E-06-1.65233E-02 1.46847E-13-2.26210E-13
 -1       956 2.00007E+01 4.27430E-02-3.66566E-06-9.55565E-03 2.40019E-13-1.86499E-13
 -1       957 2.00036E+01 2.84365E-02 1.24514E-05-4.64899E-03-6.33506E-14-6.20860E-13
 -1       958 1.96541E+01 1.33078E+00-2.72129E-04-6.88910E-01 1.28939E-13-2.97729E-13
 -1       959 1.99317E+01 2.94872E-01 1.51396E-04-1.51585E+00 7.11866E-14-2.12756E-13
 -1       960 1.90208E+01 4.24766E-01-6.88526E-05 1.41592E+00-1.88660E-13 5.14682E-14
 -1       961 1.90933E+01-4.21068E-01-2.35254E-03 2.16580E+00-8.54712E-14 1.26311E-13
 -1       962 1.91313E+01 5.86470E-01-3.48233E-05 1.14253E+00-1.03657E-13-8.63060E-15
 -1       963 1.92676E+01 6.45505E-01 3.78053E-06 9.21096E-01-1.10086E-14 3.63840E-14
 -1       964 1.94053E+01 6.38615E-01 3.43892E-06 7.39863E-01-5.45127E-14 1.13320E-13
 -1       965 1.95319E+01 5.92370E-01-2.81696E-07 5.90366E-01 4.03779E-15 1.96715E-13
 -1       966 1.96417E+01 5.25436E-01-2.33195E-06 4.66759E-01 1.04277E-13 2.52966E-13
 -1       967 1.97331E+01 4.50486E-01-2.99316E-06 3.64869E-01-1.22099E-13 9.39807E-14
 -1       968 1.98067E+01 3.75712E-01-2.94251E-06 2.81484E-01 3.48398E-14 4.14294E-13
 -1       969 1.98644E+01 3.06037E-01-2.58535E-06 2.13930E-01 6.98354E-14 6.98742E-13
 -1       970 1.99084E+01 2.44077E-01-2.12460E-06 1.59858E-01-8.06842E-14 7.64087E-13
 -1       971 1.99410E+01 1.90877E-01-1.66099E-06 1.17149E-01-9.79783E-14 5.58046E-13
 -1       972 1.99645E+01 1.46473E-01-1.24471E-06 8.38943E-02 1.05668E-13 3.10654E-13
 -1       973 1.99809E+01 1.10285E-01-8.93270E-07 5.83895E-02 1.17610E-13 3.19533E-13
 -1       974 1.99918E+01 8.14007E-02-5.54350E-07 3.91436E-02 1.13765E-13 2.83157E-13
 -1       975 1.99987E+01 5.87646E-02 3.05919E-07 2.48738E-02 2.11978E-13 3.50718E-13
 -1       976 2.00026E+01 4.12833E-02 1.94631E-07 1.45284E-02-7.02291E-14 3.70517E-13
 -1       977 2.00044E+01 2.79410E-02-4.44253E-06 7.22060E-03-3.96747E-13-3.27457E-14
 -1       978 1.88716E+01-1.71870E+00 1.66941E-02 3.36844E+00-1.06116E-13-1.51158E-13
 -1       979 2.00041E+01 1.71564E-02-6.91620E-06 6.98492E-04 3.42311E-14 3.89406E-14
 -1       980 1.92472E+01 1.58884E+00-3.85042E-04 5.80914E-01-5.26524E-14-2.98272E-13
 -1       981 2.00030E+01 2.76163E-02 1.89353E-05-2.19869E-03-3.20844E-14-2.24495E-13
 -1       982 1.92112E+01 2.25691E+00 1.83993E-05-3.71598E-03 6.42273E-14-3.66053E-13
 -1       983 1.97909E+01 1.75954E+00 6.73186E-05-2.79713E-01 1.96134E-13-2.73755E-13
 -1       984 1.92901E+01 2.19021E+00 3.89431E-05 1.07344E-01 3.97210E-14-3.86326E-13
 -1       985 1.93723E+01 1.79460E+00-1.51413E-05 3.89877E-01-3.61128E-14-3.00012E-13
 -1       986 1.89248E+01 1.39225E+00-2.36668E-04 8.25222E-01-2.13122E-14-3.17999E-13
 -1       987 2.03414E+01-1.96565E+00-8.11929E-04 2.71917E+00-6.88501E-14-1.10638E-13
 -1       988 2.00048E+01 2.03722E-02 9.33459E-06 3.28906E-03-1.93533E-13-2.92722E-13
 -1       989 1.89806E+01 1.10994E-01-5.67258E-05 1.75610E+00-5.26132E-14 3.20452E-14
 -1       990 1.84952E+01 1.22804E+00-3.84194E-04 1.08397E+00 1.70821E-14-2.96795E-13
 -1       991 1.65835E+01 1.89946E-01 8.38029E-03 2.57333E+00 1.08567E-13-4.17744E-13
 -1       992 1.45658E+01 1.08158E+00 9.69117E-03 2.69288E-01-1.34484E-14-3.03646E-13
 -1       993 1.92480E+01-1.27703E-01-2.15592E-03-2.08284E+00-4.02583E-14-1.87212E-13
 -1       994 1.95233E+01 1.03377E+00 3.18788E-04-1.01000E+00 7.74979E-14-2.75505E-13
 -1       995 1.48902E+01 1.12006E+00 9.45477E-03-6.61085E-01-1.62699E-13 5.44686E-14
 -1       996 2.00025E+01 2.86249E-02 9.04718E-06-1.64359E-05 6.42315E-14 2.68299E-13
 -1       997 1.94831E+01-8.31373E-01 1.03541E-02-2.55358E+00-6.94054E-14-2.01531E-13
 -1       998 1.95578E+01-1.10786E+00-2.19554E-03 2.48666E+00 4.91005E-14-1.30907E-14
 -1       999 1.91828E+01 1.84892E+00 1.33302E-03-3.35710E-01 1.31355E-13-3.11837E-13
 -1      1000 1.60070E+01 1.85056E-01 1.44886E-02-2.46623E+00-1.10402E-13-2.69111E-13
 -1      1001 1.91011E+01-2.01116E+00 1.24006E-02-3.60930E+00-2.09601E-13-1.80132E-13
 -1      1002 1.49229E+01 5.25839E-01 8.92225E-03 2.06728E+00-2.73606E-13 3.29684E-14
 -1      1003 1.90470E+01 1.95652E+00 5.17642E-04-9.90913E-02 6.08537E-14-3.07736E-13
 -1      1004 1.59473E+01 1.06871E+00 6.94140E-04 1.09015E+00-9.92847E-15-3.44761E-13
 -1      1005 1.80700E+01-6.02123E-01-8.18962E-04-2.84022E+00-1.04389E-13-2.00348E-13
 -1      1006 1.92631E+01 3.76291E-01 2.75006E-04-1.67151E+00 1.49605E-14-2.03846E-13
 -1      1007 1.64328E+01 1.23461E+00-1.03742E-03-3.83247E-01-6.41351E-14-1.75649E-13
 -1      1008 1.72701E+01 1.23851E+00 1.07916E-03-3.23201E-01-1.05358E-13-2.93690E-13
 -1      1009 1.79040E+01 1.18106E+00-9.99673E-05-2.79088E-01-1.22878E-13-2.00967E-13
 -1      1010 1.83881E+01 1.09330E+00-9.08106E-05-2.47053E-01-1.74899E-14-3.12042E-14
 -1      1011 1.87659E+01 9.82509E-01-6.00594E-05-2.17071E-01-7.82622E-14 8.64020E-14
 -1      1012 1.90630E+01 8.60398E-01-3.95921E-05-1.87607E-01-9.17448E-14-7.23165E-14
 -1      1013 1.92965E+01 7.36281E-01-2.79098E-05-1.58805E-01 5.27994E-14-3.21883E-13
 -1      1014 1.94792E+01 6.17048E-01-2.12263E-05-1.31459E-01 1.41927E-13-4.93913E-13
 -1      1015 1.96210E+01 5.07287E-01-1.69991E-05-1.06389E-01 1.26767E-13-5.30562E-13
 -1      1016 1.97297E+01 4.09620E-01-1.39618E-05-8.41748E-02 1.43310E-13-6.89230E-13
 -1      1017 1.98119E+01 3.25130E-01-1.15469E-05-6.50966E-02-3.25459E-14-7.17987E-13
 -1      1018 1.98730E+01 2.53786E-01-9.51241E-06-4.91662E-02-4.15493E-14-5.96629E-13
 -1      1019 1.99176E+01 1.94818E-01-7.75985E-06-3.61999E-02-7.65583E-14-3.76597E-13
 -1      1020 1.99495E+01 1.47012E-01-6.25204E-06-2.58930E-02-2.38750E-13-5.58558E-13
 -1      1021 1.99715E+01 1.08941E-01-4.92370E-06-1.78851E-02-1.53164E-13-2.81639E-13
 -1      1022 1.99862E+01 7.91182E-02-4.25311E-06-1.17976E-02-2.36416E-14-1.28513E-13
 -1      1023 1.99954E+01 5.60218E-02-1.16648E-05-7.21801E-03 8.70035E-14-4.07897E-13
 -1      1024 2.00004E+01 4.01052E-02 1.16148E-05-4.27407E-03 1.85109E-14-3.11100E-13
 -1      1025 1.93795E+01 7.37638E-01 1.95360E-03-1.32890E+00 4.25156E-14-2.50064E-13
 -1      1026 1.87650E+01 8.16437E-01-7.41974E-05 8.52630E-01-1.38183E-13 2.24970E-13
 -1      1027 1.84876E+01 7.65816E-01-3.25627E-04 1.09855E+00-1.97261E-13 9.11864E-14
 -1      1028 1.92241E+01 7.40286E-01-2.04467E-05 5.21456E-01-1.36472E-13 2.27662E-13
 -1      1029 1.94025E+01 6.58873E-01-1.72343E-05 4.07224E-01-1.30143E-14 1.34964E-13
 -1      1030 1.95489E+01 5.68228E-01-1.49281E-05 3.16163E-01 3.21731E-14 2.81508E-13
 -1      1031 1.96667E+01 4.77376E-01-1.28287E-05 2.43325E-01-1.08898E-13 1.91115E-13
 -1      1032 1.97595E+01 3.92019E-01-1.08854E-05 1.85171E-01-1.03968E-13 2.39034E-13
 -1      1033 1.98311E+01 3.15382E-01-9.10123E-06 1.39006E-01 5.43613E-14 4.41249E-13
 -1      1034 1.98853E+01 2.48920E-01-7.48465E-06 1.02672E-01 1.35861E-14 3.56362E-13
 -1      1035 1.99253E+01 1.92886E-01-6.04462E-06 7.43771E-02 1.31066E-13 3.46598E-13
 -1      1036 1.99541E+01 1.46762E-01-4.78693E-06 5.26111E-02 2.52838E-14 4.59574E-13
 -1      1037 1.99742E+01 1.09586E-01-3.61748E-06 3.60962E-02 9.13337E-14 5.67598E-13
 -1      1038 1.99877E+01 8.01800E-02-2.13886E-06 2.37660E-02 7.74482E-14 6.12376E-13
 -1      1039 1.99963E+01 5.72113E-02-6.24890E-06 1.47031E-02 2.75339E-14 6.14013E-13
 -1      1040 2.00011E+01 3.99174E-02 1.84392E-05 8.17408E-03-2.31747E-14 4.15421E-13
 -1      1041 1.81914E+01 6.09925E-01-4.23352E-04 1.43014E+00-1.53817E-13 2.98698E-13
 -1      1042 2.00029E+01 2.75234E-02-4.33970E-06 1.97283E-03 1.93760E-14 6.42505E-14
 -1      1043 1.88323E+01 1.65070E+00-1.38211E-04 3.89068E-01-1.79403E-14-3.00171E-13
 -1      1044 1.70301E+01 1.24133E+00 3.96296E-04 8.27907E-01 3.19159E-15-3.28156E-13
 -1      1045 2.00038E+01 2.44218E-02 2.19619E-05 2.96745E-03 8.50000E-14-5.15749E-15
 -1      1046 1.56484E+01 9.23741E-01 6.56412E-03-1.23077E+00-3.05084E-14-2.81409E-13
 -1      1047 1.76135E+01-4.18548E-01 9.50104E-03 2.74602E+00-1.81869E-13 7.85789E-14
 -1      1048 1.89097E+01 1.56668E+00-4.71181E-04-5.25862E-01 8.29790E-14-2.72422E-13
 -1      1049 1.78950E+01 2.99315E-01-1.37437E-03 1.89646E+00-2.81947E-15 1.75822E-13
 -1      1050 1.90117E+01 7.99109E-01-2.93575E-05 6.66173E-01-1.34385E-13 1.13741E-13
 -1      1051 1.91868E+01 1.94546E+00 9.87104E-04 2.19875E-01-2.98881E-14-3.36444E-13
 -1      1052 1.78319E+01 1.37344E+00 2.51388E-04 6.47104E-01 4.59455E-14-2.68159E-13
 -1      1053 1.83602E+01 5.37454E-01 1.89931E-03-1.71929E+00-4.82368E-14-2.23721E-13
 -1      1054 1.73718E+01 3.52633E-01 1.82688E-03-2.09995E+00-5.65369E-14-2.08368E-13
 -1      1055 1.55340E+01 1.15116E+00 2.62388E-03 5.71558E-01-2.31714E-13-5.85136E-14
 -1      1056 1.90347E+01 1.78251E+00 9.66955E-04 3.07872E-01-4.96043E-14-3.31456E-13
 -1      1057 1.90826E+01 1.97892E+00 3.04644E-04 6.73821E-02 8.52589E-17-3.14524E-13
 -1      1058 1.84035E+01 1.49664E+00-1.38860E-04 5.16936E-01 2.88975E-14-3.00298E-13
 -1      1059 1.61639E+01 1.22964E+00-1.01147E-03-2.13420E-01-2.66811E-15-2.83375E-13
 -1      1060 1.99987E+01 4.45726E-02 4.59805E-06 3.18616E-04 1.61735E-13 1.44914E-13
 -1      1061 1.75900E+01 1.17996E+00-1.46703E-03 2.54805E-01-4.26222E-14-7.60338E-14
 -1      1062 1.81331E+01 1.12218E+00-1.60956E-04 1.60428E-01-2.30662E-14-5.05229E-14
 -1      1063 1.85571E+01 1.03145E+00-1.15264E-04 9.88378E-02 3.09584E-14-1.99010E-14
 -1      1064 1.88921E+01 9.21158E-01-7.95493E-05 5.84946E-02-5.57097E-14-6.38310E-14
 -1      1065 1.91578E+01 8.01972E-01-5.32478E-05 3.26910E-02-7.90449E-14-1.82831E-13
 -1      1066 1.93681E+01 6.82448E-01-3.50255E-05 1.67032E-02-1.63132E-13-2.14861E-13
 -1      1067 1.95332E+01 5.68797E-01-2.23454E-05 7.21482E-03 3.41707E-16-4.13601E-13
 -1      1068 1.96615E+01 4.65052E-01-1.34664E-05 1.91450E-03 1.05826E-13-5.61389E-13
 -1      1069 1.97599E+01 3.73414E-01-7.28409E-06-7.79083E-04 5.33129E-14-6.33770E-13
 -1      1070 1.98342E+01 2.94672E-01-3.06166E-06-1.92101E-03-4.07245E-14-4.52443E-13
 -1      1071 1.98893E+01 2.28606E-01-2.67381E-07-2.19409E-03 2.57269E-14-3.77242E-13
 -1      1072 1.99293E+01 1.74338E-01 1.48521E-06-2.02440E-03-9.91708E-14-2.52694E-13
 -1      1073 1.99576E+01 1.30608E-01 2.14528E-06-1.66543E-03-1.41163E-13-1.02215E-13
 -1      1074 1.99770E+01 9.59802E-02 5.58140E-06-1.27350E-03-1.20129E-14-1.91134E-13
 -1      1075 1.99898E+01 6.91147E-02 5.59598E-05-9.81245E-04 6.42906E-14 7.42390E-14
 -1      1076 1.95263E+01 5.74722E-01 4.81914E-05 1.64840E-01-9.23906E-14 2.03339E-13
 -1      1077 1.66650E+01 1.16808E+00-1.50698E-03 5.57071E-01-1.58170E-13-7.62039E-14
 -1      1078 1.82308E+01 9.97174E-01 1.88804E-04 6.68037E-01-1.45684E-13 6.62146E-14
 -1      1079 1.93649E+01 6.80475E-01 6.46599E-05 2.17729E-01-3.63490E-14 1.02490E-13
 -1      1080 1.91629E+01 7.86308E-01 8.69103E-05 2.86752E-01-8.87201E-14-1.38852E-13
 -1      1081 1.96534E+01 4.75002E-01 3.57898E-05 1.24051E-01-1.25065E-13 2.57812E-13
 -1      1082 1.97520E+01 3.84889E-01 2.63344E-05 9.25285E-02-8.02240E-14 6.90737E-14
 -1      1083 1.98273E+01 3.06137E-01 1.91074E-05 6.82064E-02 1.04030E-13-4.14746E-14
 -1      1084 1.98836E+01 2.39191E-01 1.36116E-05 4.95275E-02 1.01258E-13-3.83451E-14
 -1      1085 1.99248E+01 1.83619E-01 9.47478E-06 3.52848E-02-3.10348E-14-7.21786E-14
 -1      1086 1.99542E+01 1.38450E-01 6.39134E-06 2.45264E-02-3.90471E-14 1.30038E-13
 -1      1087 1.99746E+01 1.02427E-01 3.12850E-06 1.64887E-02-5.08302E-14 3.35538E-13
 -1      1088 1.99881E+01 7.39349E-02-4.30372E-05 1.02867E-02 1.41672E-13 2.15635E-13
 -1      1089 1.77742E+01 9.76645E-01-6.87409E-04 9.03733E-01-7.19552E-15 1.80764E-13
 -1      1090 1.85294E+01 1.33896E+00 1.50259E-04-7.47095E-01-6.48022E-15-2.09826E-13
 -1      1091 1.72293E+01 8.53320E-01 2.78246E-03 1.24355E+00-1.58551E-13 2.61782E-13
 -1      1092 1.70950E+01 9.55672E-01-1.92458E-04-1.25187E+00-2.31198E-14-2.32235E-13
 -1      1093 1.65741E+01 6.85075E-01 2.71497E-03 1.65449E+00-1.98103E-13 1.29247E-13
 -1      1094 1.86765E+01 1.68113E+00-6.05200E-04-1.12909E-01 1.53586E-14-1.94079E-13
 -1      1095 1.85290E+01 1.62258E+00-5.72339E-04 5.53442E-02-1.07952E-15-2.04857E-13
 -1      1096 1.89128E+01 8.83316E-01 1.16138E-04 3.77884E-01-1.48021E-13-1.80094E-13
 -1      1097 1.86058E+01 9.59069E-01 1.42199E-04 5.00275E-01-9.41773E-14-1.04764E-13
 -1      1098 1.79593E+01 1.10491E+00 9.18145E-04-1.06465E+00-4.73648E-14-1.79598E-13
 -1      1099 1.99963E+01 5.23998E-02-3.56417E-05 6.31983E-03 3.92790E-14 1.08168E-13
 -1      1100 1.71948E+01 1.36026E+00 9.81685E-04-1.11699E-01 9.94523E-15-2.86601E-13
 -1      1101 1.86664E+01 8.81635E-01-4.10142E-03-1.29603E+00-1.87215E-14-2.68153E-13
 -1      1102 1.80012E+01 1.49568E+00 3.57444E-03 4.33308E-02 3.86063E-14-2.66643E-13
 -1      1103 1.80968E+01 1.47665E+00-7.42286E-03-2.06406E-01 9.98789E-15-2.23741E-13
 -1      1104 2.78551E+01 9.04051E+00 2.27973E+00-6.52938E+00-5.92304E-14 1.35630E-12
 -1      1105 2.07484E+01 6.29392E+00 2.31296E-01-3.66652E+00-2.65066E-14-3.57214E-14
 -1      1106 1.96538E+01 5.92343E+00 9.09322E-02-2.58799E+00-1.74583E-14-5.82432E-13
 -1      1107 1.91795E+01 5.77373E+00 6.62851E-02-1.90732E+00-1.04222E-14-8.17424E-13
 -1      1108 1.88903E+01 5.68357E+00 5.48809E-02-1.38471E+00-5.92928E-15-9.18668E-13
 -1      1109 1.86888E+01 5.62045E+00 4.59557E-02-9.63700E-01-2.68188E-15-9.37074E-13
 -1      1110 1.85482E+01 5.57623E+00 3.91921E-02-6.09691E-01-1.10675E-15-9.36438E-13
 -1      1111 1.84636E+01 5.54956E+00 3.49369E-02-2.95073E-01 7.91034E-16-9.10493E-13
 -1      1112 1.84372E+01 5.54129E+00 3.37371E-02-3.22035E-04 3.31267E-15-8.74511E-13
 -1      1113 1.84690E+01 5.55141E+00 3.56531E-02 2.96683E-01 5.66908E-15-8.37119E-13
 -1      1114 1.85573E+01 5.57933E+00 4.04758E-02 6.17682E-01 7.80626E-15-7.95955E-13
 -1      1115 1.86993E+01 5.62416E+00 4.78739E-02 9.81061E-01 1.05436E-14-7.08041E-13
 -1      1116 1.88988E+01 5.68663E+00 5.66418E-02 1.41300E+00 1.40131E-14-5.70806E-13
 -1      1117 1.91830E+01 5.77488E+00 6.66125E-02 1.94784E+00 1.82562E-14-3.42838E-13
 -1      1118 1.96449E+01 5.91891E+00 8.47622E-02 2.63774E+00 2.25792E-14 5.40002E-14
 -1      1119 2.06489E+01 6.24737E+00 1.75574E-01 3.65210E+00 2.25930E-14 7.76747E-13
 -1      1120 2.51809E+01 7.97663E+00 1.40778E+00 5.68890E+00 3.96350E-14 2.18234E-12
 -1      1121 2.85917E+01 3.52138E+00 1.18747E+00-4.10542E+00-2.26291E-13 2.22339E-12
 -1      1122 2.04357E+01-1.81927E-01-6.19293E-01-8.76840E-02-7.79099E-14 1.68127E-12
 -1      1123 1.93376E+01-9.92900E-02-2.34902E-01 6.70375E-02-2.81164E-14 9.45341E-13
 -1      1124 1.92754E+01-5.38296E-02-6.50312E-02 4.38094E-02-1.23885E-14 4.72927E-13
 -1      1125 1.95367E+01-3.31345E-02-2.59346E-02 3.15779E-02-1.27311E-14 1.67706E-13
 -1      1126 2.00122E+01-2.36950E-02-1.94167E-02 2.65806E-02-1.56299E-14-4.71394E-14
 -1      1127 2.06535E+01-1.84003E-02-1.81803E-02 2.54744E-02-2.08882E-15-2.13846E-13
 -1      1128 2.14358E+01-1.40806E-02-1.61255E-02 2.68590E-02-1.27697E-14-3.99160E-13
 -1      1129 2.23351E+01-8.38470E-03-1.05497E-02 2.96441E-02-2.62063E-15-5.36134E-13
 -1      1130 2.33083E+01 9.93211E-04 1.79688E-03 3.22000E-02-1.81105E-15-6.45806E-13
 -1      1131 2.42687E+01 1.62097E-02 2.46861E-02 3.14799E-02 9.53426E-15-7.58699E-13
 -1      1132 2.50596E+01 3.81010E-02 5.99507E-02 2.23618E-02 2.00027E-14-6.91506E-13
 -1      1133 2.54413E+01 6.34204E-02 1.02204E-01-1.58758E-03 8.86010E-15-7.64095E-13
 -1      1134 2.51250E+01 8.16788E-02 1.32606E-01-4.42898E-02 2.26381E-16-8.37948E-13
 -1      1135 2.38975E+01 7.41723E-02 1.18659E-01-9.90764E-02-2.41291E-14-7.52426E-13
 -1      1136 2.18477E+01 2.38249E-02 3.32009E-02-1.40320E-01-8.47412E-15-6.97276E-13
 -1      1137 1.95636E+01-6.13108E-02-1.05437E-01-1.31274E-01-1.90759E-14-7.59531E-13
 -1      1138 1.80082E+01-1.31068E-01-2.18799E-01-5.71850E-02 3.50085E-14-7.94906E-13
 -1      1139 1.79715E+01-1.36153E-01-2.25823E-01 5.01750E-02 8.07687E-15-9.44862E-13
 -1      1140 1.94955E+01-6.74768E-02-1.17228E-01 1.29348E-01-2.62984E-15-1.13506E-12
 -1      1141 2.18248E+01 1.77268E-02 2.33328E-02 1.42727E-01-3.75251E-14-1.14850E-12
 -1      1142 2.39851E+01 7.11029E-02 1.13831E-01 1.04202E-01 3.33414E-15-1.02554E-12
 -1      1143 2.53586E+01 8.11091E-02 1.32219E-01 4.98509E-02 3.67961E-14-7.71043E-13
 -1      1144 2.58269E+01 6.38044E-02 1.03197E-01 6.39876E-03-6.47260E-14-1.01990E-12
 -1      1145 2.55919E+01 3.84559E-02 6.04205E-02-1.80054E-02 5.22195E-14-1.11108E-12
 -1      1146 2.49449E+01 1.63944E-02 2.42202E-02-2.68347E-02 4.21792E-14-6.97064E-13
 -1      1147 2.41312E+01 1.29502E-03 6.78024E-04-2.65488E-02 7.98106E-15-7.23997E-13
 -1      1148 2.33109E+01-7.29917E-03-1.16969E-02-2.22949E-02 3.34668E-14-6.93418E-13
 -1      1149 2.25691E+01-1.11927E-02-1.65439E-02-1.70859E-02-9.34658E-15-4.76088E-13
 -1      1150 2.19403E+01-1.21672E-02-1.71082E-02-1.23187E-02-1.00986E-14-3.47750E-13
 -1      1151 2.14298E+01-1.15460E-02-1.55915E-02-8.46386E-03-4.40340E-14-3.74312E-13
 -1      1152 2.10280E+01-1.01827E-02-1.32809E-02-5.55288E-03 1.16945E-14-8.22082E-13
 -1      1153 2.07197E+01-8.57709E-03-1.08498E-02-3.45019E-03 1.24035E-14-9.30224E-13
 -1      1154 2.04881E+01-6.99706E-03-8.61117E-03-1.98198E-03-2.03098E-14-8.28091E-13
 -1      1155 2.03178E+01-5.57051E-03-6.68432E-03-9.88306E-04-1.07115E-14-1.08571E-12
 -1      1156 2.01954E+01-4.34605E-03-5.09145E-03-3.38682E-04 2.56118E-14-1.07797E-12
 -1      1157 2.01096E+01-3.33000E-03-3.81039E-03 6.73087E-05 9.85681E-15-1.02104E-12
 -1      1158 2.00513E+01-2.50777E-03-2.80157E-03 3.04558E-04 8.41461E-14-7.33829E-13
 -1      1159 2.00134E+01-1.85581E-03-2.02134E-03 4.27866E-04 8.84263E-14-1.48382E-13
 -1      1160 1.99902E+01-1.34801E-03-1.42800E-03 4.76787E-04-2.13137E-14 3.13992E-14
 -1      1161 1.99774E+01-9.58894E-04-9.84255E-04 4.79525E-04-9.44921E-14-3.07491E-13
 -1      1162 1.99719E+01-6.65134E-04-6.57840E-04 4.55907E-04-5.75281E-14-1.33833E-12
 -1      1163 1.99713E+01-4.45981E-04-4.21238E-04 4.19580E-04-2.62912E-14-1.11499E-12
 -1      1164 1.99739E+01-2.83225E-04-2.50812E-04 3.79556E-04-2.67923E-14-6.30308E-13
 -1      1165 1.99784E+01-1.60762E-04-1.25309E-04 3.41144E-04 3.04312E-14-2.98417E-14
 -1      1166 1.99838E+01-6.40006E-05-2.35058E-05 3.06015E-04 2.54938E-14 3.44196E-13
 -1      1167 1.99895E+01 2.04567E-05 7.80187E-05 2.70350E-04-2.87238E-14 1.78505E-14
 -1      1168 1.99947E+01 1.02604E-04 1.95108E-04 2.15421E-04 7.89847E-14 2.62051E-13
 -1      1169 1.99986E+01 1.89154E-04 2.88389E-04 1.01262E-04 2.47759E-15 6.72161E-13
 -1      1170 1.99999E+01-2.67928E-05-1.18477E-05-4.59323E-05 1.83561E-14 4.52791E-13
 -1      1171 2.76015E+01 5.16468E-01 3.16864E-01 1.93204E+00-4.15293E-14 3.30241E-12
 -1      1172 2.03092E+01-6.92559E-02-5.73697E-01 1.21383E-01 1.56541E-14 2.77317E-12
 -1      1173 1.93978E+01-4.44008E-02-1.92860E-01 1.75371E-02 1.47365E-14 2.21091E-12
 -1      1174 1.92732E+01-2.66212E-02-5.52225E-02 1.71493E-03 4.01719E-15 1.85629E-12
 -1      1175 1.94886E+01-1.86718E-02-2.17421E-02-3.43325E-03 9.71055E-15 1.55581E-12
 -1      1176 1.99052E+01-1.39927E-02-1.49314E-02-5.79176E-03 3.68976E-15 1.30633E-12
 -1      1177 2.04559E+01-1.00219E-02-1.22190E-02-8.13511E-03 5.84157E-15 1.17576E-12
 -1      1178 2.10972E+01-5.25351E-03-7.93131E-03-1.13663E-02-7.16202E-15 1.14172E-12
 -1      1179 2.17853E+01 1.50182E-03-4.99579E-05-1.57381E-02 2.81933E-15 9.89341E-13
 -1      1180 2.24590E+01 1.10376E-02 1.29532E-02-2.09016E-02 1.89790E-14 8.11837E-13
 -1      1181 2.30276E+01 2.31550E-02 3.17619E-02-2.54955E-02 2.15906E-14 6.19721E-13
 -1      1182 2.33645E+01 3.56776E-02 5.44616E-02-2.66929E-02 7.18609E-16 5.40138E-13
 -1      1183 2.33196E+01 4.36069E-02 7.43261E-02-2.03213E-02 1.18941E-14 5.06943E-13
 -1      1184 2.27624E+01 3.98878E-02 7.91735E-02-2.56119E-03-3.52383E-14 6.33868E-13
 -1      1185 2.16642E+01 1.94437E-02 5.58287E-02 2.62187E-02 2.60798E-14 5.08059E-13
 -1      1186 2.01926E+01-1.43669E-02 1.02307E-03 5.74533E-02 3.41009E-15 1.93040E-13
 -1      1187 1.87430E+01-4.73401E-02-6.82928E-02 7.53964E-02-2.07469E-14 1.58110E-13
 -1      1188 1.78242E+01-6.18243E-02-1.18485E-01 6.63543E-02-1.24588E-14 2.79915E-13
 -1      1189 1.78103E+01-5.08531E-02-1.21664E-01 3.05576E-02 3.80260E-14-1.40523E-13
 -1      1190 1.87176E+01-2.36805E-02-7.82712E-02-1.52356E-02-2.61648E-14-9.39526E-15
 -1      1191 2.01965E+01 3.76880E-03-1.54287E-02-5.01082E-02 1.36000E-14 6.41154E-15
 -1      1192 2.17443E+01 2.09771E-02 3.59035E-02-6.28198E-02 3.91722E-15 7.15400E-14
 -1      1193 2.29560E+01 2.61685E-02 6.01961E-02-5.57380E-02 6.85736E-15 1.23249E-13
 -1      1194 2.36485E+01 2.32020E-02 5.96417E-02-3.83807E-02 1.84744E-14 1.38743E-14
 -1      1195 2.38399E+01 1.67839E-02 4.54031E-02-1.99302E-02-3.31046E-14 6.04191E-14
 -1      1196 2.36560E+01 1.00668E-02 2.78990E-02-5.44157E-03-8.58688E-17 2.63524E-13
 -1      1197 2.32464E+01 4.57518E-03 1.30048E-02 3.81773E-03-3.66738E-14 6.62075E-14
 -1      1198 2.27369E+01 7.11684E-04 2.62900E-03 8.59088E-03-5.00061E-14 1.23235E-14
 -1      1199 2.22148E+01-1.68073E-03-3.53044E-03 1.02433E-02-1.69158E-14-4.77153E-14
 -1      1200 2.17321E+01-2.94998E-03-6.55784E-03 1.00367E-02-2.79141E-14-1.95399E-14
 -1      1201 2.13137E+01-3.44859E-03-7.56049E-03 8.89296E-03 3.53324E-14-2.95196E-13
 -1      1202 2.09675E+01-3.46369E-03-7.39493E-03 7.39732E-03 4.14874E-14-2.31306E-13
 -1      1203 2.06911E+01-3.20424E-03-6.63893E-03 5.88161E-03-4.28871E-14 3.17506E-13
 -1      1204 2.04770E+01-2.81143E-03-5.64849E-03 4.51128E-03-4.46355E-15 3.37375E-13
 -1      1205 2.03155E+01-2.37490E-03-4.62676E-03 3.35210E-03-5.22482E-14 3.27201E-13
 -1      1206 2.01971E+01-1.94789E-03-3.67971E-03 2.41479E-03 4.39536E-14 1.32294E-15
 -1      1207 2.01127E+01-1.55922E-03-2.85483E-03 1.68250E-03 8.82468E-14-7.62964E-13
 -1      1208 2.00545E+01-1.22198E-03-2.16601E-03 1.12670E-03-1.25204E-14-7.77916E-13
 -1      1209 2.00161E+01-9.39527E-04-1.60890E-03 7.15907E-04 9.14575E-15-2.19572E-13
 -1      1210 1.99923E+01-7.09507E-04-1.17015E-03 4.20112E-04 1.31287E-15-4.60728E-13
 -1      1211 1.99790E+01-5.26469E-04-8.32645E-04 2.12729E-04-3.12598E-15-3.44003E-13
 -1      1212 1.99731E+01-3.83439E-04-5.78510E-04 7.12173E-05 1.29289E-14-2.37626E-13
 -1      1213 1.99721E+01-2.72788E-04-3.90456E-04-2.30370E-05 4.68065E-15-3.30888E-13
 -1      1214 1.99744E+01-1.86569E-04-2.52065E-04-8.52022E-05 1.99948E-14-1.64094E-13
 -1      1215 1.99787E+01-1.16361E-04-1.46900E-04-1.27574E-04 1.93319E-14-4.26749E-13
 -1      1216 1.99840E+01-5.28567E-05-5.64234E-05-1.59847E-04 7.85549E-14-6.93093E-13
 -1      1217 1.99896E+01 1.46023E-05 4.17753E-05-1.88473E-04-6.45371E-15-1.09215E-12
 -1      1218 1.99947E+01 9.39634E-05 1.64983E-04-2.10167E-04-1.32862E-14-1.09171E-12
 -1      1219 1.99986E+01 1.59529E-04 2.62330E-04-1.82963E-04 6.02640E-14-1.13925E-12
 -1      1220 1.99999E+01-3.06754E-05-1.63727E-05 3.50169E-05-7.19162E-14-7.81255E-13
 -1      1221 1.99998E+01 8.52580E-05-2.20604E-05 1.95534E-05-6.44626E-13-4.51333E-15
 -1      1222 1.99999E+01-1.26937E-03 2.31986E-04-8.52541E-05-1.60580E-13 1.37760E-13
 -1      1223 1.99999E+01-4.83640E-03 1.16891E-04-1.90125E-04 7.36034E-13 3.25605E-14
 -1      1224 1.99998E+01-9.21609E-03-1.89791E-05-1.92437E-04 8.40842E-13-4.28325E-14
 -1      1225 1.99997E+01-1.34289E-02-1.01716E-04-1.59588E-04 1.22997E-12-3.54980E-14
 -1      1226 1.99997E+01-1.69256E-02-1.40670E-04-1.16193E-04 4.99620E-13-9.43925E-14
 -1      1227 1.99997E+01-1.94978E-02-1.52648E-04-7.63826E-05 3.73223E-13 7.88776E-14
 -1      1228 1.99997E+01-2.10764E-02-1.55069E-04-3.73514E-05 3.96199E-13-3.64387E-14
 -1      1229 1.99997E+01-2.16139E-02-1.55491E-04-6.52056E-07 1.02042E-12 8.53116E-14
 -1      1230 1.99997E+01-2.11062E-02-1.56698E-04 3.63608E-05 1.14390E-12-6.56695E-14
 -1      1231 1.99997E+01-1.95463E-02-1.55107E-04 7.61899E-05 7.32114E-13-8.10410E-14
 -1      1232 1.99997E+01-1.69735E-02-1.42611E-04 1.19148E-04 1.05378E-12-2.13429E-14
 -1      1233 1.99997E+01-1.34612E-02-1.04252E-04 1.61283E-04-7.31825E-13 2.53654E-15
 -1      1234 1.99998E+01-9.21045E-03-1.71151E-05 1.97320E-04-2.07958E-13 8.42022E-14
 -1      1235 1.99999E+01-4.73723E-03 1.45812E-04 2.27441E-04 1.05146E-13 1.47083E-14
 -1      1236 2.00000E+01-1.28959E-03 2.43080E-04 8.80603E-05-4.34301E-13-1.31047E-13
 -1      1237 1.99997E+01 8.16997E-05-3.81016E-05-1.04826E-05-3.84949E-13-3.41049E-14
 -1      1238-1.02405E+00-2.39856E+01-3.69999E+00-2.21719E+00 9.24760E-13 2.00590E-13
 -1      1239-1.71413E+00-1.45614E+01-2.97934E+00-3.78255E+00 2.01594E-12 7.28140E-13
 -1      1240 8.05250E-01-1.72390E+00-1.78408E+00 5.95368E-01 2.11653E-12 1.34404E-12
 -1      1241 1.06821E+01 8.12694E+00-1.53029E-01 9.26921E+00 1.85518E-12 1.77169E-12
 -1      1242 2.87155E+01 1.09068E+01 1.70703E+00 1.68560E+01 1.26898E-12 1.94111E-12
 -1      1243 4.90610E+01 7.39610E+00 3.15531E+00 1.66029E+01 5.84199E-13 1.33338E-12
 -1      1244 6.41077E+01 2.73171E+00 4.12063E+00 8.21344E+00 1.12674E-13 1.90570E-13
 -1      1245 6.53588E+01 2.14093E+00 4.10574E+00-5.31137E+00 1.89002E-13-9.30978E-13
 -1      1246 5.28425E+01 6.21853E+00 3.37147E+00-1.60758E+01 8.83627E-13-2.31681E-12
 -1      1247 3.18272E+01 1.06426E+01 1.91049E+00-1.72288E+01 1.88982E-12-3.00893E-12
 -1      1248 1.22166E+01 8.78224E+00 9.76495E-02-1.01272E+01 2.59015E-12-2.65654E-12
 -1      1249 1.16855E+00-9.65557E-01-1.64607E+00-9.37334E-01 2.55174E-12-1.69942E-12
 -1      1250-1.74696E+00-1.39972E+01-2.99914E+00 3.87862E+00 1.74971E-12-7.95031E-13
 -1      1251-1.29824E+00-2.34758E+01-3.70892E+00 2.47100E+00 3.61933E-14-1.73771E-13
 -1      1252-1.10875E+00-2.46521E+01-3.83207E+00-2.07909E+00-1.95521E-12-3.20185E-13
 -1      1253-1.89577E+00-1.55771E+01-3.14350E+00-4.06669E+00-2.99072E-12-1.03273E-12
 -1      1254 3.64867E-01-2.43995E+00-1.92116E+00-1.88195E-02-3.07199E-12-1.88272E-12
 -1      1255 9.80570E+00 7.97585E+00-2.45144E-01 8.73745E+00-2.85150E-12-2.74758E-12
 -1      1256 2.87257E+01 1.08474E+01 1.65521E+00 1.68161E+01-1.98153E-12-3.02558E-12
 -1      1257 5.12595E+01 7.01347E+00 3.34942E+00 1.65765E+01-9.51628E-13-2.48823E-12
 -1      1258 6.58319E+01 2.39515E+00 4.24189E+00 6.97258E+00-2.04177E-13-1.23612E-12
 -1      1259 6.65167E+01 2.13216E+00 4.29121E+00-6.02027E+00-5.85781E-14 1.23956E-13
 -1      1260 5.43404E+01 6.06475E+00 3.51194E+00-1.55042E+01-4.48197E-13 1.16884E-12
 -1      1261 3.54239E+01 1.02339E+01 2.20377E+00-1.77864E+01-1.34837E-12 2.24154E-12
 -1      1262 1.71509E+01 1.03251E+01 5.85759E-01-1.28616E+01-1.99041E-12 2.36522E-12
 -1      1263 4.57610E+00 4.34850E+00-9.90027E-01-4.63427E+00-1.98708E-12 1.63580E-12
 -1      1264-1.03664E+00-6.23355E+00-2.29625E+00 2.09905E+00-1.65046E-12 9.43357E-13
 -1      1265-1.81985E+00-1.73601E+01-3.23348E+00 4.32812E+00-9.50240E-13 3.14165E-13
 -1      1266-1.05884E+00-2.43351E+01-3.71760E+00 2.05636E+00-3.52385E-13 6.47642E-14
 -1      1267 2.23708E+01 1.84767E+00-7.13820E-01-2.66456E+00-8.44880E-14 1.02207E-12
 -1      1268 2.06091E+01 4.69744E+00-4.21999E-02-3.03970E+00-2.03032E-13-2.93404E-13
 -1      1269 2.10986E+01 4.80221E+00-1.00213E-01-3.91589E+00-2.74947E-13-4.04538E-15
 -1      1270 1.97547E+01 5.01911E+00-1.75066E-02-2.33641E+00-1.88176E-13-6.94257E-13
 -1      1271 2.00803E+01 5.12221E+00 9.79635E-03-2.74633E+00-2.16611E-13-5.29257E-13
 -1      1272 2.07980E+01 3.94768E+00-2.13328E-02-2.77789E+00-3.46698E-13-2.61319E-13
 -1      1273 1.93108E+01 5.11952E+00-5.01055E-03-1.73925E+00-1.34760E-13-8.65537E-13
 -1      1274 1.95144E+01 5.19014E+00 1.64484E-02-2.03383E+00-1.62564E-13-7.90049E-13
 -1      1275 1.99644E+01 4.39920E+00-2.13029E-02-2.15894E+00-2.90049E-13-5.93747E-13
 -1      1276 1.90132E+01 5.16811E+00-5.18297E-04-1.25615E+00-9.03375E-14-9.31751E-13
 -1      1277 1.91548E+01 5.21634E+00 1.53594E-02-1.49046E+00-1.05433E-13-9.06809E-13
 -1      1278 1.94824E+01 4.62207E+00-1.80557E-02-1.60269E+00-2.03764E-13-7.33406E-13
 -1      1279 1.88013E+01 5.19694E+00 1.36480E-03-8.63634E-01-3.82975E-14-9.44966E-13
 -1      1280 1.89022E+01 5.23065E+00 1.29177E-02-1.05449E+00-5.74159E-14-9.37429E-13
 -1      1281 1.91596E+01 4.75572E+00-1.45102E-02-1.14912E+00-1.23479E-13-7.84064E-13
 -1      1282 1.86542E+01 5.21485E+00 2.42368E-03-5.22902E-01-6.33001E-15-9.39372E-13
 -1      1283 1.87216E+01 5.23695E+00 9.96159E-03-6.90067E-01-1.30885E-14-9.48935E-13
 -1      1284 1.89302E+01 4.84071E+00-1.24700E-02-7.72718E-01-4.50408E-14-8.04697E-13
 -1      1285 1.85741E+01 5.22616E+00 3.71080E-03-2.18069E-01 3.63065E-14-9.06613E-13
 -1      1286 1.86069E+01 5.23678E+00 7.22886E-03-3.69934E-01 2.07646E-14-9.20918E-13
 -1      1287 1.87794E+01 4.89163E+00-1.13933E-02-4.44631E-01 8.49256E-15-7.81455E-13
 -1      1288 1.85617E+01 5.23258E+00 5.50087E-03 7.29359E-02 7.15834E-14-8.73447E-13
 -1      1289 1.85596E+01 5.23184E+00 5.04413E-03-7.46759E-02 5.99191E-14-8.94701E-13
 -1      1290 1.87064E+01 4.91405E+00-1.09686E-02-1.46251E-01 8.24723E-14-7.59209E-13
 -1      1291 1.86162E+01 5.23473E+00 7.84740E-03 3.71607E-01 1.14133E-13-8.37073E-13
 -1      1292 1.85799E+01 5.22283E+00 3.50650E-03 2.17516E-01 9.97761E-14-8.58856E-13
 -1      1293 1.87112E+01 4.91060E+00-1.10422E-02 1.43945E-01 1.38680E-13-7.31384E-13
 -1      1294 1.87354E+01 5.23198E+00 1.05657E-02 6.99126E-01 1.47046E-13-7.83543E-13
 -1      1295 1.86661E+01 5.20932E+00 2.51052E-03 5.27870E-01 1.36271E-13-8.16234E-13
 -1      1296 1.87924E+01 4.88179E+00-1.16027E-02 4.46892E-01 2.05326E-13-6.96530E-13
 -1      1297 1.89148E+01 5.22367E+00 1.34419E-02 1.07002E+00 1.78711E-13-6.89900E-13
 -1      1298 1.88142E+01 5.18979E+00 1.61684E-03 8.74337E-01 1.62629E-13-7.50455E-13
 -1      1299 1.89468E+01 4.82630E+00-1.26379E-02 7.80079E-01 2.54746E-13-6.33171E-13
 -1      1300 1.91675E+01 5.20724E+00 1.57560E-02 1.52071E+00 2.24987E-13-5.37445E-13
 -1      1301 1.90268E+01 5.15893E+00-2.25604E-04 1.28057E+00 2.05835E-13-6.27677E-13
 -1      1302 1.91764E+01 4.73763E+00-1.47481E-02 1.16695E+00 3.15732E-13-5.30180E-13
 -1      1303 1.95234E+01 5.17923E+00 1.58552E-02 2.07679E+00 2.67592E-13-2.91524E-13
 -1      1304 1.93218E+01 5.10774E+00-5.43608E-03 1.77588E+00 2.44152E-13-4.38601E-13
 -1      1305 1.95012E+01 4.59973E+00-1.82083E-02 1.63478E+00 3.76852E-13-3.64007E-13
 -1      1306 2.00980E+01 5.12784E+00 1.48564E-02 2.79493E+00 2.85591E-13 1.35329E-13
 -1      1307 1.97615E+01 5.00817E+00-1.82023E-02 2.38820E+00 2.61097E-13-1.22048E-13
 -1      1308 1.99825E+01 4.37323E+00-2.18090E-02 2.20771E+00 4.25399E-13-9.22804E-14
 -1      1309 2.13125E+01 4.89661E+00 1.63824E-02 3.82664E+00 2.26930E-13 9.12340E-13
 -1      1310 2.05774E+01 4.73889E+00-4.15570E-02 3.15661E+00 2.25431E-13 4.45477E-13
 -1      1311 2.08278E+01 3.90987E+00-1.78260E-02 2.89068E+00 4.07799E-13 3.80057E-13
 -1      1312 2.71558E+01 3.16444E+00 8.92357E-01 4.43505E+00 9.73110E-14 2.26641E-12
 -1      1313 2.21813E+01 3.51073E+00-1.74943E-01 3.70009E+00 1.03612E-13 1.33740E-12
 -1      1314 2.23437E+01 2.53839E+00-2.73703E-02 3.22074E+00 3.66703E-13 1.07916E-12
 -1      1315 2.15792E+01 3.48413E-01-7.56734E-01 1.07541E+00 1.81376E-13 2.21867E-12
 -1      1316 2.22023E+01 1.23855E-01-3.96994E-01-1.15912E+00-2.38268E-13 1.12116E-12
 -1      1317 2.10178E+01 2.98660E-01-1.58741E-01-6.97918E-01-2.14453E-13 8.40876E-13
 -1      1318 2.05096E+01 1.54025E-01-7.08968E-02-2.93826E-01-1.79655E-13 7.26997E-13
 -1      1319 2.01742E+01 9.38031E-02-1.23456E-02-2.22535E-01-1.60968E-13 4.67078E-13
 -1      1320 2.13589E+01 3.61174E-01-1.03456E-01-1.06276E+00-3.77032E-13 3.56187E-13
 -1      1321 1.99290E+01 7.05199E-02 3.96722E-03-1.79296E-02-1.33378E-13 3.67841E-13
 -1      1322 1.99215E+01 4.90574E-02 1.43529E-02 3.56514E-03-1.27436E-13 1.91243E-13
 -1      1323 2.05086E+01 1.38546E-01-3.68491E-02-2.81866E-01-2.94195E-13 1.80956E-13
 -1      1324 1.98944E+01 4.20284E-02 1.31062E-02 1.13398E-01-8.24570E-14 1.00892E-13
 -1      1325 2.00517E+01 3.09258E-02 1.15801E-02 1.28725E-01-8.19466E-14-2.02893E-14
 -1      1326 2.02705E+01 6.98806E-02-1.12309E-02 8.87089E-02-2.10106E-13 2.73566E-15
 -1      1327 2.01577E+01 3.00871E-02 8.05032E-03 2.00766E-01-6.48123E-14-5.64861E-14
 -1      1328 2.04197E+01 2.33119E-02 6.59880E-03 2.13105E-01-5.45562E-14-1.39559E-13
 -1      1329 2.03495E+01 4.55269E-02-7.26072E-03 3.06451E-01-1.41154E-13-1.27420E-13
 -1      1330 2.06170E+01 2.44111E-02 3.38384E-03 2.68212E-01-6.24596E-14-1.63931E-13
 -1      1331 2.09585E+01 1.89225E-02 3.35070E-03 2.78996E-01-5.94420E-14-2.41234E-13
 -1      1332 2.06437E+01 3.59015E-02-6.73131E-03 4.60257E-01-1.21157E-13-1.66991E-13
 -1      1333 2.12235E+01 2.03546E-02 4.86650E-04 3.23386E-01-4.80505E-14-2.46329E-13
 -1      1334 2.16291E+01 1.43149E-02 1.29740E-03 3.32675E-01-4.43721E-14-3.46941E-13
 -1      1335 2.10932E+01 3.00483E-02-6.23182E-03 5.81014E-01-9.10049E-14-1.99068E-13
 -1      1336 2.19439E+01 1.47560E-02-1.26560E-03 3.64700E-01-2.02417E-14-3.52328E-13
 -1      1337 2.23951E+01 6.53768E-03-1.12737E-04 3.71154E-01-3.63347E-14-4.13822E-13
 -1      1338 2.16592E+01 2.20891E-02-5.19834E-03 6.74414E-01-7.57320E-14-2.22508E-13
 -1      1339 2.27386E+01 4.30050E-03-2.00575E-03 3.82089E-01-5.09885E-14-4.14446E-13
 -1      1340 2.32020E+01-7.63164E-03-7.49156E-04 3.82589E-01-5.51743E-14-4.66762E-13
 -1      1341 2.23050E+01 6.46830E-03-3.14225E-03 7.28547E-01-7.60060E-14-2.58975E-13
 -1      1342 2.35430E+01-1.47048E-02-1.11259E-03 3.56274E-01-3.39008E-14-4.66197E-13
 -1      1343 2.39590E+01-3.11942E-02 1.11221E-04 3.45560E-01 4.60439E-15-5.07813E-13
 -1      1344 2.29817E+01-2.29871E-02 7.82714E-04 7.14245E-01-5.53529E-14-2.49569E-13
 -1      1345 2.42499E+01-4.50501E-02 2.46416E-03 2.60045E-01 1.41068E-14-5.47767E-13
 -1      1346 2.45247E+01-6.45370E-02 3.35423E-03 2.31268E-01-2.48612E-14-5.57216E-13
 -1      1347 2.36149E+01-7.12254E-02 7.55379E-03 5.86178E-01-2.70808E-14-3.48797E-13
 -1      1348 2.46995E+01-8.46449E-02 9.24161E-03 6.73046E-02-2.44570E-14-5.63526E-13
 -1      1349 2.47108E+01-1.00655E-01 8.90441E-03 1.52918E-02-1.15602E-14-6.13919E-13
 -1      1350 2.40957E+01-1.35733E-01 1.74963E-02 2.93760E-01-3.58637E-14-4.10857E-13
 -1      1351 2.46950E+01-1.20844E-01 1.74257E-02-2.24330E-01 2.09954E-14-5.99791E-13
 -1      1352 2.43303E+01-1.20338E-01 1.41616E-02-2.96148E-01-1.44676E-14-5.89438E-13
 -1      1353 2.42858E+01-1.97455E-01 2.84993E-02-1.86489E-01 4.07660E-16-4.43877E-13
 -1      1354 2.40694E+01-1.26018E-01 2.13653E-02-5.58668E-01 1.29584E-14-5.46778E-13
 -1      1355 2.33052E+01-9.32397E-02 1.33906E-02-6.28438E-01-1.97915E-14-5.07663E-13
 -1      1356 2.40514E+01-2.12912E-01 3.45156E-02-7.94797E-01 1.07917E-14-3.91302E-13
 -1      1357 2.28171E+01-6.71767E-02 1.35445E-02-7.96076E-01-2.07586E-14-4.43090E-13
 -1      1358 2.18125E+01 7.43184E-04 6.90677E-04-8.21679E-01-4.03067E-14-4.49002E-13
 -1      1359 2.33415E+01-1.29509E-01 2.55150E-02-1.33094E+00 1.78590E-15-3.35228E-13
 -1      1360 2.12422E+01 5.69095E-02-8.17925E-03-7.57146E-01-6.17275E-14-5.22096E-13
 -1      1361 2.03556E+01 1.32133E-01-2.12060E-02-7.01505E-01-6.00874E-14-5.64590E-13
 -1      1362 2.23021E+01 6.41934E-02-4.18958E-03-1.47820E+00-9.27357E-14-3.02952E-13
 -1      1363 1.99603E+01 1.81564E-01-3.12452E-02-3.67504E-01-2.66349E-14-5.64916E-13
 -1      1364 1.95932E+01 2.17349E-01-3.77830E-02-2.43044E-01-1.48874E-14-5.99800E-13
 -1      1365 2.13329E+01 2.77455E-01-4.48469E-02-1.00165E+00-4.91655E-14-3.06918E-13
 -1      1366 1.95873E+01 2.21026E-01-3.89200E-02 2.21815E-01-6.17041E-14-6.70256E-13
 -1      1367 1.99319E+01 1.90342E-01-3.37744E-02 3.51044E-01-8.54872E-14-7.71432E-13
 -1      1368 2.09252E+01 3.80090E-01-6.54633E-02-1.91624E-02-1.14256E-13-5.08810E-13
 -1      1369 2.03310E+01 1.41418E-01-2.39797E-02 7.04327E-01-8.76417E-14-8.18456E-13
 -1      1370 2.12235E+01 6.66718E-02-1.04588E-02 7.65786E-01-8.29293E-14-9.09314E-13
 -1      1371 2.13234E+01 2.93144E-01-4.82705E-02 9.91575E-01-1.68022E-13-6.22027E-13
 -1      1372 2.18149E+01 1.02629E-02-1.06565E-03 8.50871E-01-4.96842E-14-9.52655E-13
 -1      1373 2.28569E+01-5.91258E-02 1.23915E-02 8.30607E-01-4.04605E-14-9.69030E-13
 -1      1374 2.23176E+01 7.95309E-02-8.20723E-03 1.51593E+00-9.88619E-14-6.84376E-13
 -1      1375 2.33848E+01-8.71094E-02 1.30541E-02 6.78295E-01 9.87283E-14-9.05560E-13
 -1      1376 2.42106E+01-1.22573E-01 2.18596E-02 6.11112E-01 1.05962E-13-7.71827E-13
 -1      1377 2.34185E+01-1.16182E-01 2.42011E-02 1.41269E+00 7.19234E-14-7.36054E-13
 -1      1378 2.45208E+01-1.18511E-01 1.46849E-02 3.54479E-01 1.91010E-14-7.38548E-13
 -1      1379 2.49571E+01-1.21029E-01 1.83365E-02 2.82714E-01 2.94990E-14-7.04724E-13
 -1      1380 2.42173E+01-2.07604E-01 3.47036E-02 9.01461E-01 1.13725E-13-6.09875E-13
 -1      1381 2.50240E+01-1.00895E-01 9.27813E-03 4.29294E-02-4.81091E-14-6.76206E-13
 -1      1382 2.50848E+01-8.57299E-02 9.83952E-03-9.72369E-03-6.47763E-14-8.16944E-13
 -1      1383 2.45501E+01-1.97407E-01 2.90174E-02 2.98810E-01-1.93838E-14-5.45207E-13
 -1      1384 2.49601E+01-6.47705E-02 3.28063E-03-1.74978E-01 3.83808E-14-7.07538E-13
 -1      1385 2.47559E+01-4.56374E-02 2.63606E-03-2.04011E-01 1.10693E-13-6.33023E-13
 -1      1386 2.44580E+01-1.36769E-01 1.77890E-02-1.83793E-01-3.61863E-15-4.12211E-13
 -1      1387 2.45139E+01-3.08407E-02-3.79103E-04-2.89866E-01 7.52371E-14-6.64855E-13
 -1      1388 2.41684E+01-1.47781E-02-1.35269E-03-3.00384E-01 1.36254E-14-5.75240E-13
 -1      1389 2.40726E+01-7.11230E-02 7.69276E-03-4.78270E-01 1.00247E-13-4.43904E-13
 -1      1390 2.38748E+01-6.85032E-03-1.66125E-03-3.26207E-01-1.20261E-14-5.81637E-13
 -1      1391 2.34835E+01 4.25866E-03-2.69951E-03-3.25242E-01 1.07845E-14-6.38703E-13
 -1      1392 2.35320E+01-2.17401E-02 8.64591E-04-6.06287E-01 1.87654E-15-4.94006E-13
 -1      1393 2.31846E+01 7.11333E-03-1.53100E-03-3.14235E-01 5.31998E-14-5.74769E-13
 -1      1394 2.28070E+01 1.38288E-02-2.58630E-03-3.07447E-01 2.49350E-14-5.19746E-13
 -1      1395 2.29436E+01 8.09010E-03-2.91330E-03-6.20121E-01 4.02940E-14-4.83806E-13
 -1      1396 2.25304E+01 1.36878E-02-8.79389E-04-2.77975E-01 6.89279E-14-4.49234E-13
 -1      1397 2.21966E+01 1.72483E-02-1.92448E-03-2.69015E-01 6.56426E-14-4.03136E-13
 -1      1398 2.23767E+01 2.26538E-02-4.56614E-03-5.69369E-01 7.72195E-14-4.35895E-13
 -1      1399 2.19556E+01 1.56631E-02-2.15643E-04-2.33029E-01 6.95451E-15-3.44651E-13
 -1      1400 2.16763E+01 1.72104E-02-1.20776E-03-2.23932E-01 3.39310E-14-2.75144E-13
 -1      1401 2.18691E+01 2.75008E-02-4.95959E-03-4.89772E-01 8.07733E-14-2.94399E-13
 -1      1402 2.14749E+01 1.51308E-02 2.65545E-04-1.88195E-01-9.44275E-14-2.86751E-13
 -1      1403 2.12500E+01 1.54995E-02-6.29984E-04-1.79943E-01-1.52987E-13-4.42142E-13
 -1      1404 2.14363E+01 2.70150E-02-4.69760E-03-4.03256E-01-3.25920E-14-2.97669E-13
 -1      1405 2.10870E+01 1.34285E-02 5.42046E-04-1.47756E-01-1.21913E-13-4.95540E-13
 -1      1406 2.09111E+01 1.31637E-02-2.28007E-04-1.40722E-01-8.42542E-14-6.36172E-13
 -1      1407 2.10801E+01 2.40403E-02-4.14481E-03-3.21572E-01-2.74725E-13-3.05731E-13
 -1      1408 2.07824E+01 1.13279E-02 6.58160E-04-1.13333E-01-4.62536E-14-6.83168E-13
 -1      1409 2.06480E+01 1.07617E-02 2.35414E-05-1.07569E-01-1.37762E-13-7.76933E-13
 -1      1410 2.07950E+01 2.02100E-02-3.50214E-03-2.50006E-01-1.69521E-13-4.66888E-13
 -1      1411 2.05486E+01 9.23507E-03 6.69255E-04-8.51177E-02-1.04455E-13-7.95497E-13
 -1      1412 2.04481E+01 8.55970E-03 1.64836E-04-8.05233E-02-1.79357E-14-8.81322E-13
 -1      1413 2.05720E+01 1.63708E-02-2.87225E-03-1.90147E-01-1.64078E-13-5.78421E-13
 -1      1414 2.03729E+01 7.34067E-03 6.20771E-04-6.26128E-02 7.46607E-14-7.69223E-13
 -1      1415 2.02993E+01 6.66180E-03 2.32185E-04-5.90298E-02 5.33360E-14-8.10647E-13
 -1      1416 2.04012E+01 1.29096E-02-2.30268E-03-1.41659E-01 3.80958E-14-6.70414E-13
 -1      1417 2.02435E+01 5.71614E-03 5.44099E-04-4.50469E-02-2.98328E-14-7.44650E-13
 -1      1418 2.01909E+01 5.08781E-03 2.53097E-04-4.23043E-02 2.67846E-14-7.12307E-13
 -1      1419 2.02728E+01 9.96441E-03-1.81128E-03-1.03324E-01 5.71864E-14-5.45409E-13
 -1      1420 2.01503E+01 4.37105E-03 4.58706E-04-3.15906E-02-1.59087E-14-8.05945E-13
 -1      1421 2.01138E+01 3.81734E-03 2.46678E-04-2.95276E-02 3.06198E-14-7.40483E-13
 -1      1422 2.01783E+01 7.54803E-03-1.40051E-03-7.36202E-02-4.46019E-15-5.96250E-13
 -1      1423 2.00850E+01 3.28535E-03 3.75591E-04-2.14618E-02 1.71086E-13-7.90158E-13
 -1      1424 2.00604E+01 2.81338E-03 2.25515E-04-1.99369E-02 1.64214E-13-5.55908E-13
 -1      1425 2.01102E+01 5.61622E-03-1.06519E-03-5.10163E-02 5.00343E-14-6.52468E-13
 -1      1426 2.00406E+01 2.42681E-03 3.00280E-04-1.39703E-02 2.21296E-13-4.18570E-13
 -1      1427 2.00248E+01 2.03433E-03 1.97565E-04-1.28638E-02 1.81638E-13-2.35792E-13
 -1      1428 2.00625E+01 4.10322E-03-7.96798E-04-3.41129E-02 2.30446E-13-6.39280E-13
 -1      1429 2.00117E+01 1.75997E-03 2.34977E-04-8.53128E-03-3.25667E-14-2.36440E-13
 -1      1430 2.00022E+01 1.43994E-03 1.67644E-04-7.74450E-03-1.25171E-13-2.83479E-13
 -1      1431 2.00302E+01 2.93936E-03-5.85688E-04-2.16961E-02 1.85539E-13-4.77958E-13
 -1      1432 1.99940E+01 1.25064E-03 1.79986E-04-4.66261E-03-1.94269E-13-1.58489E-13
 -1      1433 1.99890E+01 9.93738E-04 1.38497E-04-4.11628E-03-2.61775E-13-5.82716E-13
 -1      1434 2.00092E+01 2.05916E-03-4.22327E-04-1.27487E-02-1.66142E-13-3.85515E-13
 -1      1435 1.99844E+01 8.67745E-04 1.34588E-04-1.97637E-03-2.50035E-13-6.94377E-13
 -1      1436 1.99825E+01 6.63849E-04 1.11515E-04-1.60794E-03-1.63675E-13-8.50777E-13
 -1      1437 1.99965E+01 1.40444E-03-2.97866E-04-6.44051E-03-4.03365E-13-3.61322E-13
 -1      1438 1.99803E+01 5.83878E-04 9.75877E-05-1.67449E-04 8.95795E-14-8.76573E-13
 -1      1439 1.99805E+01 4.22849E-04 8.72447E-05 7.12616E-05 9.95887E-14-7.04831E-13
 -1      1440 1.99896E+01 9.24916E-04-2.04379E-04-2.10977E-03-4.79596E-14-4.01373E-13
 -1      1441 1.99800E+01 3.75113E-04 6.76644E-05 9.97430E-04 2.31021E-15-5.55540E-13
 -1      1442 1.99816E+01 2.47111E-04 6.58169E-05 1.14222E-03 1.24330E-13-3.70582E-13
 -1      1443 1.99869E+01 5.77535E-04-1.34890E-04 7.57548E-04 1.96101E-13-3.94600E-13
 -1      1444 1.99821E+01 2.20272E-04 4.37813E-05 1.68889E-03 2.57005E-13-3.61185E-13
 -1      1445 1.99844E+01 1.15763E-04 4.75567E-05 1.76469E-03 2.35209E-13 8.43843E-15
 -1      1446 1.99869E+01 3.24827E-04-8.32504E-05 2.54659E-03 3.35975E-13-1.77585E-13
 -1      1447 1.99856E+01 9.97080E-05 2.59093E-05 2.02133E-03 1.60115E-13 1.05862E-13
 -1      1448 1.99882E+01 9.22355E-06 3.39978E-05 2.04282E-03 7.51006E-14 1.47235E-13
 -1      1449 1.99886E+01 1.32630E-04-4.37329E-05 3.52826E-03 2.73725E-13 2.53843E-14
 -1      1450 1.99898E+01-6.51413E-06 1.64348E-05 2.05531E-03-4.68701E-14 1.89739E-13
 -1      1451 1.99923E+01-9.25243E-05 2.91258E-05 2.02578E-03-6.07121E-14 1.18444E-13
 -1      1452 1.99913E+01-3.34409E-05-1.04456E-05 3.86811E-03 5.92498E-14 1.58088E-14
 -1      1453 1.99938E+01-1.21446E-04 2.05294E-05 1.79618E-03 1.17133E-13 7.57176E-14
 -1      1454 1.99960E+01-2.10470E-04 3.26526E-05 1.70350E-03 1.91815E-13 2.16832E-13
 -1      1455 1.99942E+01-2.14151E-04 2.12642E-05 3.62495E-03 3.97680E-14 2.16626E-13
 -1      1456 1.99972E+01-2.71803E-04 3.57187E-05 1.19262E-03 2.02716E-13 1.88144E-13
 -1      1457 1.99986E+01-3.24479E-04 3.52576E-05 1.03854E-03 7.70338E-14 4.14433E-13
 -1      1458 1.99969E+01-4.64546E-04 5.05398E-05 2.77515E-03 2.93261E-13 9.39211E-14
 -1      1459 1.99996E+01-2.32710E-04 6.56171E-05 1.15574E-04-3.52768E-13 3.14781E-13
 -1      1460 1.99991E+01-7.39554E-04 5.14688E-05 1.08354E-03-2.36300E-13-3.28569E-14
 -1      1461 2.06246E+01 7.39740E-02-1.47142E-01 3.94878E-01 1.72053E-13 1.81808E-12
 -1      1462 2.17566E+01 2.16350E-01-2.27572E-01 6.26059E-01 1.53821E-13 2.08729E-12
 -1      1463 2.19893E+01 8.58025E-01-8.88820E-02 1.88380E+00 2.97436E-13 1.41315E-12
 -1      1464 1.99210E+01 3.41065E-02-1.95899E-02 9.76964E-02 1.21438E-13 1.48503E-12
 -1      1465 2.02173E+01 1.15820E-01-5.96132E-02 1.50711E-01 1.24713E-13 1.67883E-12
 -1      1466 2.07531E+01 1.83084E-01-5.61463E-02 6.16772E-01 2.63137E-13 1.15596E-12
 -1      1467 1.97858E+01 1.87932E-02 5.42954E-03-4.57242E-02 9.50949E-14 1.22645E-12
 -1      1468 1.97916E+01 5.72458E-02 2.49518E-03-1.54378E-02 8.73641E-14 1.36576E-12
 -1      1469 2.02182E+01 7.52657E-02-1.39950E-02 1.19070E-01 2.01511E-13 9.26290E-13
 -1      1470 1.99625E+01 1.19582E-02 5.81780E-03-1.26574E-01 7.97374E-14 1.01980E-12
 -1      1471 1.98226E+01 3.40788E-02 1.16369E-02-1.06188E-01 7.73669E-14 1.15227E-12
 -1      1472 2.01230E+01 3.90403E-02-5.19877E-03-1.23973E-01 1.66733E-13 7.52910E-13
 -1      1473 2.03282E+01 8.30546E-03 3.28492E-03-1.79004E-01 5.95505E-14 8.78166E-13
 -1      1474 2.01006E+01 2.35150E-02 8.65929E-03-1.63629E-01 5.66760E-14 9.55007E-13
 -1      1475 2.02870E+01 2.36376E-02-4.94549E-03-2.67069E-01 1.17639E-13 6.36056E-13
 -1      1476 2.08168E+01 5.22109E-03 1.90396E-03-2.14089E-01 1.15281E-14 8.24204E-13
 -1      1477 2.05315E+01 1.68914E-02 5.31549E-03-2.02102E-01 1.73184E-14 8.58157E-13
 -1      1478 2.06146E+01 1.49878E-02-5.20880E-03-3.60082E-01 6.34996E-14 5.85378E-13
 -1      1479 2.13798E+01 1.31369E-03 1.82624E-03-2.33060E-01 3.70112E-14 7.55554E-13
 -1      1480 2.10598E+01 1.05402E-02 3.28130E-03-2.24687E-01 2.54235E-14 7.93136E-13
 -1      1481 2.10462E+01 7.37562E-03-4.63014E-03-4.18154E-01 4.29053E-14 5.24239E-13
 -1      1482 2.19655E+01-4.45944E-03 3.00843E-03-2.31162E-01 6.42423E-14 6.17510E-13
 -1      1483 2.16376E+01 2.08606E-03 2.23545E-03-2.28095E-01 5.61628E-14 7.01279E-13
 -1      1484 2.15338E+01-2.43532E-03-2.95600E-03-4.40113E-01 1.00149E-13 4.39244E-13
 -1      1485 2.25062E+01-1.28039E-02 5.65804E-03-1.99188E-01 5.79265E-14 4.92259E-13
 -1      1486 2.22078E+01-1.02836E-02 1.96915E-03-2.04482E-01 4.06123E-14 5.76093E-13
 -1      1487 2.20255E+01-1.68343E-02 1.66576E-04-4.14328E-01 8.93005E-14 3.36838E-13
 -1      1488 2.29101E+01-2.35463E-02 9.86503E-03-1.25818E-01 1.00310E-14 4.60455E-13
 -1      1489 2.26938E+01-2.74117E-02 2.54034E-03-1.43398E-01 3.33960E-14 4.93151E-13
 -1      1490 2.24558E+01-3.71501E-02 5.08809E-03-3.22551E-01 5.92399E-14 3.02080E-13
 -1      1491 2.30637E+01-3.46564E-02 1.49155E-02-3.00564E-03 3.02527E-14 4.12400E-13
 -1      1492 2.29958E+01-4.78605E-02 3.98190E-03-3.61729E-02 2.07065E-14 4.46010E-13
 -1      1493 2.27429E+01-6.21557E-02 1.16469E-02-1.46808E-01 2.84356E-14 3.91091E-13
 -1      1494 2.28538E+01-4.12823E-02 1.84949E-02 1.64161E-01 1.08160E-15 4.10956E-13
 -1      1495 2.30007E+01-6.61187E-02 5.81157E-03 1.15765E-01 1.56316E-14 4.04130E-13
 -1      1496 2.27954E+01-8.56596E-02 1.84596E-02 1.17112E-01 3.35669E-14 3.12071E-13
 -1      1497 2.22157E+01-3.62042E-02 1.65563E-02 3.45022E-01 2.02598E-14 4.17506E-13
 -1      1498 2.26142E+01-7.18459E-02 6.56005E-03 2.89459E-01-2.74121E-14 3.67949E-13
 -1      1499 2.25368E+01-9.47927E-02 2.24073E-02 4.39372E-01 1.53488E-14 2.63995E-13
 -1      1500 2.12020E+01-1.37550E-02 5.30069E-03 4.77630E-01 7.88258E-14 2.14724E-13
 -1      1501 2.18178E+01-5.32020E-02 3.97455E-03 4.32785E-01 9.17313E-14 3.53745E-13
 -1      1502 2.19493E+01-7.24789E-02 1.95433E-02 7.38152E-01 1.08037E-13 1.31268E-13
 -1      1503 2.00356E+01 2.30110E-02-1.45494E-02 4.85817E-01 1.02828E-14 1.33490E-13
 -1      1504 2.07328E+01-6.13152E-03-3.29558E-03 4.74432E-01 4.19677E-14 1.85976E-13
 -1      1505 2.11247E+01-8.82027E-03 7.89680E-03 8.86488E-01 7.78681E-14 1.24133E-13
 -1      1506 1.90822E+01 5.86606E-02-3.46242E-02 3.25496E-01-4.79616E-14 1.52576E-13
 -1      1507 1.96428E+01 5.57300E-02-1.32037E-02 3.61464E-01-4.38764E-14 9.58261E-14
 -1      1508 2.02854E+01 8.28576E-02-8.94117E-03 7.67736E-01-1.50539E-14 1.25218E-13
 -1      1509 1.87065E+01 7.28191E-02-4.23975E-02 3.19710E-02 1.37815E-13 5.41822E-14
 -1      1510 1.89177E+01 1.02971E-01-2.00563E-02 1.06846E-01 6.90038E-14 1.35662E-13
 -1      1511 1.97257E+01 1.61157E-01-2.26296E-02 3.63818E-01 6.46531E-14-5.81826E-15
 -1      1512 1.90740E+01 5.62160E-02-3.16288E-02-2.79445E-01-3.72142E-14-1.58103E-13
 -1      1513 1.88443E+01 1.09049E-01-1.83860E-02-1.96367E-01 8.93504E-14-1.71980E-14
 -1      1514 1.96751E+01 1.78840E-01-2.61164E-02-1.93663E-01 1.72621E-13-1.18951E-13
 -1      1515 2.00467E+01 2.00611E-02-8.33734E-03-4.82214E-01-7.60373E-15-1.38431E-14
 -1      1516 1.94625E+01 7.27570E-02-8.33770E-03-4.24122E-01-8.19327E-14-1.11688E-13
 -1      1517 2.01626E+01 1.22152E-01-1.95651E-02-6.79669E-01-7.81823E-14-1.53684E-13
 -1      1518 2.12713E+01-1.52307E-02 1.40991E-02-5.17300E-01-3.28637E-14-1.48839E-14
 -1      1519 2.05425E+01 1.76341E-02 4.33049E-03-4.99914E-01-5.14427E-15 2.85397E-14
 -1      1520 2.10019E+01 2.55359E-02-8.57976E-03-9.15726E-01-3.19126E-14-3.53606E-14
 -1      1521 2.23760E+01-3.54800E-02 2.61772E-02-4.12394E-01-1.77688E-14 9.81090E-14
 -1      1522 2.17206E+01-2.84724E-02 1.30083E-02-4.29657E-01-6.00301E-15 2.08167E-14
 -1      1523 2.19049E+01-5.95435E-02 8.58205E-04-8.65260E-01-4.41964E-14 3.56208E-14
 -1      1524 2.31254E+01-3.89167E-02 2.64658E-02-2.40725E-01 4.44089E-14 2.59168E-14
 -1      1525 2.26803E+01-5.14766E-02 1.50604E-02-2.75619E-01 2.30753E-14 8.94666E-14
 -1      1526 2.26270E+01-1.02428E-01 5.99688E-03-6.17211E-01 2.53304E-14 3.64986E-14
 -1      1527 2.34566E+01-3.15397E-02 1.96232E-02-7.10172E-02-2.44544E-14-8.83365E-14
 -1      1528 2.32567E+01-5.28209E-02 1.18814E-02-1.07469E-01 1.65163E-14-9.08128E-14
 -1      1529 2.30441E+01-1.03058E-01 7.18469E-03-3.02043E-01 6.56038E-14-1.30302E-13
 -1      1530 2.34296E+01-2.05169E-02 1.11034E-02 5.83445E-02-8.54763E-14 6.45347E-14
 -1      1531 2.34377E+01-4.17153E-02 6.77327E-03 2.94255E-02-7.15261E-14-3.37438E-14
 -1      1532 2.31499E+01-7.90245E-02 6.17772E-03-2.08056E-02-6.29123E-14-2.25373E-13
 -1      1533 2.31558E+01-1.03763E-02 4.10291E-03 1.37913E-01 2.46877E-14 1.03926E-13
 -1      1534 2.33054E+01-2.69533E-02 2.26280E-03 1.19106E-01 9.54575E-15 1.37962E-13
 -1      1535 2.30083E+01-4.85392E-02 4.41855E-03 1.79404E-01-7.58369E-14-4.29465E-14
 -1      1536 2.27464E+01-2.90500E-03-4.18346E-04 1.74612E-01-2.64154E-14 7.32921E-14
 -1      1537 2.29721E+01-1.37177E-02-6.51139E-04 1.64808E-01 3.81748E-15 1.10783E-13
 -1      1538 2.27064E+01-2.21632E-02 2.73359E-03 2.93717E-01 2.31087E-14 1.01267E-13
 -1      1539 2.22885E+01 1.77746E-03-2.75467E-03 1.80931E-01 1.72678E-14-2.24473E-14
 -1      1540 2.25401E+01-3.96956E-03-2.02598E-03 1.77704E-01-2.35407E-14 1.26479E-14
 -1      1541 2.23242E+01-3.55474E-03 1.43436E-03 3.38642E-01 4.12479E-14-4.12604E-15
 -1      1542 2.18406E+01 4.24988E-03-3.59459E-03 1.68841E-01-9.94805E-14 9.20063E-14
 -1      1543 2.20850E+01 2.22969E-03-2.34397E-03 1.69776E-01-7.38062E-14-2.41630E-14
 -1      1544 2.19224E+01 7.58575E-03 5.45656E-04 3.36377E-01-5.68362E-14 2.22075E-14
 -1      1545 2.14356E+01 5.21633E-03-3.57649E-03 1.47482E-01 4.69460E-14 3.48332E-14
 -1      1546 2.16548E+01 5.60303E-03-2.09743E-03 1.50690E-01 9.57741E-15 1.07222E-13
 -1      1547 2.15405E+01 1.30585E-02-1.29766E-05 3.06651E-01 4.27848E-15 9.24861E-14
 -1      1548 2.10887E+01 5.26799E-03-3.14873E-03 1.22950E-01-1.49080E-14-1.52937E-13
 -1      1549 2.12749E+01 7.01543E-03-1.63489E-03 1.27137E-01 7.21067E-14-1.14859E-13
 -1      1550 2.12002E+01 1.48018E-02-3.36186E-04 2.64025E-01 1.35334E-13-3.63954E-14
 -1      1551 2.08032E+01 4.82703E-03-2.58042E-03 9.88756E-02-1.97960E-13 2.19174E-13
 -1      1552 2.09551E+01 7.20217E-03-1.15265E-03 1.03239E-01-1.69642E-13-3.86626E-14
 -1      1553 2.09108E+01 1.43655E-02-5.01291E-04 2.17993E-01-1.92457E-13 1.60545E-13
 -1      1554 2.05756E+01 4.16657E-03-2.01350E-03 7.71628E-02-3.42359E-14 4.04670E-13
 -1      1555 2.06956E+01 6.70078E-03-7.39237E-04 8.12530E-02-5.69668E-14 2.82256E-13
 -1      1556 2.06735E+01 1.28217E-02-5.64378E-04 1.74090E-01-2.11042E-13 3.31234E-13
 -1      1557 2.03993E+01 3.44990E-03-1.51221E-03 5.86094E-02 3.06145E-14 3.07507E-13
 -1      1558 2.04914E+01 5.86951E-03-4.20811E-04 6.22093E-02 4.11769E-14 3.05161E-13
 -1      1559 2.04845E+01 1.08443E-02-5.64190E-04 1.35118E-01 3.80366E-14 2.36450E-13
 -1      1560 2.02662E+01 2.76682E-03-1.09794E-03 4.33579E-02 1.32844E-14 1.78154E-13
 -1      1561 2.03350E+01 4.93056E-03-1.93336E-04 4.63930E-02 4.08878E-14 2.22037E-13
 -1      1562 2.03379E+01 8.82275E-03-5.27032E-04 1.02146E-01 7.65141E-14 1.24630E-13
 -1      1563 2.01683E+01 2.16091E-03-7.70638E-04 3.11958E-02 2.72425E-13-1.63416E-13
 -1      1564 2.02183E+01 4.01194E-03-4.12104E-05 3.36734E-02 1.67778E-13-1.56269E-14
 -1      1565 2.02269E+01 6.96101E-03-4.70581E-04 7.52249E-02 3.08163E-13-3.67140E-14
 -1      1566 2.00982E+01 1.64820E-03-5.20741E-04 2.17438E-02 6.68492E-14-5.60714E-13
 -1      1567 2.01335E+01 3.18034E-03 5.33763E-05 2.37142E-02 1.66349E-13-3.00719E-13
 -1      1568 2.01451E+01 5.34924E-03-4.06501E-04 5.38637E-02 2.71405E-13-1.57406E-13
 -1      1569 2.00497E+01 1.22915E-03-3.35508E-04 1.45677E-02-1.42107E-13-2.29607E-13
 -1      1570 2.00737E+01 2.46432E-03 1.06446E-04 1.60997E-02-1.59077E-13-5.30545E-13
 -1      1571 2.00864E+01 4.01167E-03-3.42237E-04 3.73282E-02-1.14408E-13-1.10994E-13
 -1      1572 2.00175E+01 8.96088E-04-2.02099E-04 9.24077E-03 1.28704E-13-2.18968E-13
 -1      1573 2.00331E+01 1.86988E-03 1.30955E-04 1.04079E-02 2.68847E-14-2.00205E-13
 -1      1574 2.00455E+01 2.93685E-03-2.82259E-04 2.48165E-02-3.15412E-14-1.81324E-13
 -1      1575 1.99974E+01 6.37676E-04-1.08953E-04 5.37653E-03-2.34564E-14-3.45808E-13
 -1      1576 2.00068E+01 1.39043E-03 1.36747E-04 6.24871E-03 4.65693E-14-2.50174E-13
 -1      1577 2.00182E+01 2.09598E-03-2.28968E-04 1.55579E-02 8.26833E-14-1.08952E-13
 -1      1578 1.99860E+01 4.41470E-04-4.62633E-05 2.64239E-03-8.27345E-14-1.33200E-13
 -1      1579 1.99910E+01 1.01305E-03 1.30973E-04 3.28209E-03-5.75613E-14-2.11929E-13
 -1      1580 2.00010E+01 1.45360E-03-1.83345E-04 8.86270E-03-1.22254E-13-7.44177E-14
 -1      1581 1.99807E+01 2.95274E-04-6.01559E-06 7.63357E-04 1.23938E-13-1.49033E-13
 -1      1582 1.99826E+01 7.22158E-04 1.18618E-04 1.22374E-03 2.44646E-14-7.26524E-14
 -1      1583 1.99911E+01 9.73471E-04-1.45416E-04 4.14272E-03 2.67177E-14-1.34069E-13
 -1      1584 1.99797E+01 1.87732E-04 1.82226E-05-4.79833E-04-1.65964E-13-8.50183E-14
 -1      1585 1.99795E+01 5.01593E-04 1.03012E-04-1.55335E-04-3.80013E-14-1.35017E-13
 -1      1586 1.99864E+01 6.21557E-04-1.14559E-04 9.15705E-04-2.81993E-14-3.96971E-15
 -1      1587 1.99813E+01 1.08402E-04 3.17407E-05-1.25466E-03 2.40978E-13-7.11774E-14
 -1      1588 1.99799E+01 3.35460E-04 8.63087E-05-1.03233E-03 1.01154E-13-2.57172E-14
 -1      1589 1.99852E+01 3.67055E-04-8.96265E-05-1.19876E-03 1.74492E-14 2.91551E-14
 -1      1590 1.99846E+01 4.73395E-05 3.95718E-05-1.68056E-03 9.02719E-14-2.12702E-13
 -1      1591 1.99824E+01 2.08056E-04 7.00831E-05-1.53648E-03 6.50749E-14-1.90827E-13
 -1      1592 1.99863E+01 1.82112E-04-6.87911E-05-2.48603E-03 1.30875E-13 8.79224E-14
 -1      1593 1.99888E+01-5.51248E-06 4.80024E-05-1.83048E-03 1.67284E-13-4.75980E-13
 -1      1594 1.99862E+01 1.02976E-04 5.63661E-05-1.75133E-03 1.58261E-13-2.18459E-13
 -1      1595 1.99888E+01 4.04609E-05-4.88319E-05-3.14175E-03 1.52371E-13-4.23737E-15
 -1      1596 1.99930E+01-6.11840E-05 6.42182E-05-1.72942E-03-6.53637E-14-5.34997E-13
 -1      1597 1.99905E+01 1.90098E-06 4.87438E-05-1.71449E-03-3.54160E-14-5.39005E-13
 -1      1598 1.99920E+01-8.54760E-05-2.45802E-05-3.27336E-03 7.78861E-14 4.68585E-14
 -1      1599 1.99967E+01-1.32796E-04 8.54408E-05-1.34857E-03-3.41002E-14-6.47454E-13
 -1      1600 1.99946E+01-1.17599E-04 4.99357E-05-1.41715E-03 5.65735E-14-6.10245E-13
 -1      1601 1.99951E+01-2.28083E-04 8.40970E-06-2.89832E-03 5.16371E-14-6.06445E-14
 -1      1602 1.99990E+01-2.36786E-04 4.79921E-05-6.64706E-04-3.05648E-15-5.66311E-13
 -1      1603 1.99978E+01-2.59871E-04 5.16114E-05-8.20709E-04-5.41898E-14-7.53204E-13
 -1      1604 1.99977E+01-4.33034E-04 4.25106E-05-1.96806E-03 6.88950E-14-4.95139E-14
 -1      1605 1.99996E+01-2.61779E-04 4.99859E-05-1.46480E-04-2.57596E-13-2.89006E-13
 -1      1606 1.99996E+01-2.52665E-03 3.48509E-05-1.17972E-03 2.78481E-13 4.31231E-13
 -1      1607 1.99995E+01-1.27600E-03 1.57151E-05-9.95581E-04-2.86816E-13 5.68784E-13
 -1      1608 1.99997E+01-5.61406E-03 1.99252E-06-1.60942E-03 5.22386E-13 1.22443E-13
 -1      1609 1.99997E+01-3.71216E-03 2.04765E-05-1.55938E-03 3.36302E-13 1.14772E-13
 -1      1610 1.99994E+01-2.98413E-03 3.43895E-05-2.60652E-03 2.05114E-13 4.51270E-13
 -1      1611 1.99999E+01-8.99140E-03-1.41721E-05-1.66442E-03 3.69405E-13-5.26434E-14
 -1      1612 1.99998E+01-6.95237E-03 2.89075E-06-1.68362E-03 4.32100E-13 1.44340E-13
 -1      1613 1.99997E+01-5.46168E-03 4.99507E-06-3.13679E-03 2.16579E-13 6.07839E-14
 -1      1614 1.99999E+01-1.21325E-02-1.71281E-05-1.47432E-03 5.40539E-13-1.30427E-14
 -1      1615 1.99999E+01-1.02892E-02-5.34554E-06-1.53099E-03 5.08368E-13 4.44885E-14
 -1      1616 1.99999E+01-8.03550E-03-1.94102E-05-3.05265E-03 1.53216E-14-1.38201E-14
 -1      1617 1.99999E+01-1.46641E-02-1.42871E-05-1.15639E-03 3.03937E-13-3.00529E-13
 -1      1618 1.99999E+01-1.32177E-02-5.27163E-06-1.22744E-03 5.10705E-13-2.49429E-13
 -1      1619 2.00000E+01-1.03525E-02-3.31837E-05-2.58727E-03 1.45983E-13-2.58204E-13
 -1      1620 2.00000E+01-1.65024E-02-9.82185E-06-7.74467E-04 2.21667E-13 8.97869E-15
 -1      1621 1.99999E+01-1.54949E-02-4.18405E-06-8.52083E-04 2.76127E-13-5.65701E-14
 -1      1622 2.00000E+01-1.22065E-02-3.74126E-05-1.92691E-03 2.08221E-13-3.08402E-13
 -1      1623 2.00000E+01-1.75230E-02-5.84575E-06-3.73214E-04 2.72756E-13 9.72638E-14
 -1      1624 1.99999E+01-1.70115E-02-2.95901E-06-4.51147E-04 2.15040E-13 7.86669E-14
 -1      1625 2.00001E+01-1.34965E-02-3.83785E-05-1.17755E-03 1.00084E-13 7.39333E-14
 -1      1626 2.00000E+01-1.77046E-02-3.51973E-06 3.28188E-05 8.20178E-13 5.28851E-14
 -1      1627 1.99999E+01-1.76977E-02-3.51166E-06-4.51007E-05 4.64117E-13 3.85430E-13
 -1      1628 2.00001E+01-1.41548E-02-3.81776E-05-4.02221E-04 3.25839E-13 3.23556E-13
 -1      1629 1.99999E+01-1.70403E-02-3.02693E-06 4.41479E-04 5.69464E-13-1.25697E-13
 -1      1630 2.00000E+01-1.75407E-02-5.99888E-06 3.62683E-04 8.98326E-13-2.55121E-13
 -1      1631 2.00001E+01-1.41658E-02-3.84298E-05 3.80222E-04 4.18507E-13-3.08202E-14
 -1      1632 1.99999E+01-1.55360E-02-4.18366E-06 8.48464E-04 6.28044E-13 4.84609E-14
 -1      1633 2.00000E+01-1.65387E-02-1.03154E-05 7.69512E-04 5.59583E-13-8.22167E-14
 -1      1634 2.00001E+01-1.35261E-02-3.89561E-05 1.16351E-03 4.18252E-13-1.81925E-13
 -1      1635 1.99999E+01-1.32768E-02-6.09921E-06 1.22673E-03 3.63634E-13-3.44699E-13
 -1      1636 1.99999E+01-1.47252E-02-1.49585E-05 1.15486E-03 6.47619E-13 1.61952E-14
 -1      1637 2.00000E+01-1.22592E-02-3.83552E-05 1.92014E-03 2.64673E-13-2.43453E-14
 -1      1638 1.99999E+01-1.03115E-02-5.51673E-06 1.54068E-03 2.44360E-14 3.84833E-14
 -1      1639 1.99999E+01-1.21681E-02-1.79167E-05 1.48283E-03 2.66913E-13-2.56234E-13
 -1      1640 2.00000E+01-1.04052E-02-3.34834E-05 2.59468E-03 3.67154E-13-4.92919E-13
 -1      1641 1.99998E+01-6.95927E-03 2.82312E-07 1.70330E-03 5.97673E-14 1.24263E-13
 -1      1642 1.99999E+01-9.00772E-03-1.46399E-05 1.67822E-03-6.58614E-14 1.68148E-13
 -1      1643 1.99999E+01-8.06049E-03-1.99852E-05 3.07356E-03 4.65701E-13-1.56574E-14
 -1      1644 1.99997E+01-3.75497E-03 1.88315E-06 1.55964E-03-1.00452E-13-4.01399E-14
 -1      1645 1.99997E+01-5.61721E-03-1.21972E-06 1.60812E-03 8.77824E-16 2.81190E-14
 -1      1646 1.99997E+01-5.45628E-03 2.91177E-06 3.15905E-03 6.58786E-14-3.65158E-14
 -1      1647 1.99994E+01-1.52701E-03-1.50734E-05 1.37777E-03-3.84453E-13-3.02678E-13
 -1      1648 1.99994E+01-2.76306E-03-2.12053E-06 1.65436E-03-7.83376E-14-2.75472E-13
 -1      1649 1.99994E+01-3.08038E-03 6.69086E-05 2.99561E-03-6.93349E-14-1.88229E-13
 -1      1650 1.99985E+01-1.37437E-03 2.70175E-05 2.59124E-03 1.45528E-14-3.38183E-13
 -1      1651-6.90131E-01-1.46831E+01-1.68648E+00-1.03705E+00 9.29701E-13 4.15862E-13
 -1      1652-6.34033E-01-1.69212E+01-1.90319E+00 2.97840E-01 3.57936E-13 2.96013E-13
 -1      1653 2.05056E+00-7.15981E+00-1.00424E+00 1.33607E+00 1.19882E-12 7.36605E-13
 -1      1654 1.00029E+00-1.25445E+01-1.55984E+00 4.77500E-01 9.30145E-13 5.04569E-13
 -1      1655 8.52448E+00-4.25571E-01-3.70343E-01 5.31297E+00 1.26943E-12 9.47242E-13
 -1      1656 5.23407E+00-5.50539E+00-1.09367E+00 2.55345E+00 1.23279E-12 6.96554E-13
 -1      1657 1.95684E+01 4.71764E+00 3.57869E-01 9.94018E+00 1.10256E-12 1.10079E-12
 -1      1658 1.24737E+01 1.38524E+00-5.39837E-01 6.25184E+00 1.26976E-12 9.91429E-13
 -1      1659 3.33084E+01 6.35195E+00 1.02508E+00 1.25291E+01 7.95808E-13 1.19416E-12
 -1      1660 2.41086E+01 6.47294E+00 2.25696E-01 1.09791E+01 1.11977E-12 1.25389E-12
 -1      1661 4.63844E+01 4.60191E+00 1.44801E+00 8.67459E+00 4.73177E-13 4.63851E-13
 -1      1662 3.80925E+01 6.11790E+00 8.73818E-01 1.07379E+01 7.48124E-13 8.56981E-13
 -1      1663 5.41179E+01 3.58284E+00 1.79966E+00 2.40652E+00 2.71672E-13-1.78357E-13
 -1      1664 5.01489E+01 4.61194E+00 1.49030E+00 7.43973E+00 3.62765E-13 3.04867E-13
 -1      1665 5.17051E+01 4.38665E+00 1.63727E+00-6.08249E+00 5.33296E-13-9.58011E-13
 -1      1666 5.42449E+01 3.59445E+00 1.76514E+00-2.94964E-01 3.43836E-13-4.53096E-13
 -1      1667 4.13454E+01 6.33761E+00 1.14968E+00-1.17181E+01 1.06129E-12-1.74583E-12
 -1      1668 4.94561E+01 4.50444E+00 1.74265E+00-8.82130E+00 6.88085E-13-1.24079E-12
 -1      1669 2.64578E+01 5.79999E+00 2.75957E-01-1.03733E+01 1.39022E-12-1.75460E-12
 -1      1670 3.61914E+01 5.57581E+00 1.09655E+00-1.15337E+01 1.09845E-12-1.69331E-12
 -1      1671 1.29301E+01 2.10405E+00-5.32565E-01-6.64621E+00 1.66711E-12-1.53799E-12
 -1      1672 2.06128E+01 5.15149E+00 3.88191E-01-1.04340E+01 1.54432E-12-1.85474E-12
 -1      1673 5.41997E+00-5.38084E+00-1.11683E+00-2.60864E+00 1.28664E-12-1.00681E-12
 -1      1674 9.08257E+00-9.19758E-02-3.53500E-01-5.65095E+00 1.53411E-12-1.38067E-12
 -1      1675 8.71788E-01-1.24283E+01-1.64734E+00-7.19475E-02 6.97109E-13-5.90420E-13
 -1      1676 1.76597E+00-7.14260E+00-1.10613E+00-8.90326E-01 1.29796E-12-9.55624E-13
 -1      1677-4.54826E-01-1.59851E+01-1.72318E+00-4.79885E-01-5.26246E-13-5.44065E-13
 -1      1678-3.75802E-01-1.34578E+01-1.50411E+00 6.14064E-01 3.98681E-13-6.26027E-13
 -1      1679-7.04438E-01-1.48109E+01-1.66823E+00-1.09071E+00-1.60771E-12-6.42542E-13
 -1      1680-6.65370E-01-1.67094E+01-1.82745E+00 3.78691E-01-9.05415E-13-4.32321E-13
 -1      1681 1.65601E+00-8.03928E+00-1.13309E+00 7.78228E-01-1.99019E-12-9.16323E-13
 -1      1682 8.04664E-01-1.31996E+01-1.63823E+00 1.33288E-01-1.74605E-12-6.96943E-13
 -1      1683 7.31123E+00-4.42623E-01-5.24867E-01 4.66024E+00-2.11942E-12-1.63936E-12
 -1      1684 4.11166E+00-6.06916E+00-1.28332E+00 1.72982E+00-2.14384E-12-1.16668E-12
 -1      1685 1.81444E+01 5.19704E+00 2.95262E-01 9.95563E+00-1.95144E-12-2.04325E-12
 -1      1686 1.12493E+01 1.66431E+00-6.57745E-01 6.06330E+00-2.12252E-12-1.83342E-12
 -1      1687 3.43847E+01 6.35268E+00 1.14574E+00 1.27960E+01-1.31417E-12-2.12852E-12
 -1      1688 2.37949E+01 6.29870E+00 1.77444E-01 1.08457E+01-1.77380E-12-2.15383E-12
 -1      1689 4.85712E+01 4.51539E+00 1.66015E+00 8.89079E+00-7.60898E-13-1.44185E-12
 -1      1690 3.98600E+01 6.19840E+00 1.02409E+00 1.12874E+01-1.14142E-12-1.86062E-12
 -1      1691 5.54008E+01 3.50421E+00 1.92146E+00 1.51720E+00-3.97710E-13-6.49536E-13
 -1      1692 5.19710E+01 4.46008E+00 1.67692E+00 6.88499E+00-5.66880E-13-1.26099E-12
 -1      1693 5.30041E+01 4.14995E+00 1.73516E+00-6.20331E+00-3.44891E-13 1.14964E-13
 -1      1694 5.57956E+01 3.43771E+00 1.95976E+00-1.11361E+00-2.68618E-13-3.69565E-13
 -1      1695 4.24454E+01 5.81125E+00 1.13519E+00-1.06087E+01-7.24795E-13 7.52398E-13
 -1      1696 4.98681E+01 4.32984E+00 1.70287E+00-7.86525E+00-4.80740E-13 2.39031E-13
 -1      1697 2.94117E+01 6.32227E+00 4.63471E-01-1.13910E+01-1.10167E-12 1.25455E-12
 -1      1698 3.81778E+01 5.71791E+00 1.20652E+00-1.19130E+01-8.27893E-13 9.82103E-13
 -1      1699 1.68209E+01 4.29632E+00-2.58662E-01-8.52363E+00-1.37790E-12 1.36557E-12
 -1      1700 2.43389E+01 5.96338E+00 5.65722E-01-1.14315E+01-1.22258E-12 1.44906E-12
 -1      1701 7.68785E+00-1.16012E+00-9.50945E-01-4.03459E+00-1.15463E-12 1.04050E-12
 -1      1702 1.24023E+01 2.92024E+00-1.70730E-01-7.39178E+00-1.32783E-12 1.35081E-12
 -1      1703 2.49158E+00-8.18912E+00-1.47687E+00-6.69962E-01-7.92921E-13 6.00686E-13
 -1      1704 4.47790E+00-3.04105E+00-8.52209E-01-2.72898E+00-1.09801E-12 8.65252E-13
 -1      1705 1.75086E-01-1.42689E+01-1.79987E+00 4.82418E-01-4.13891E-13 1.57513E-13
 -1      1706 5.53111E-01-1.00298E+01-1.40231E+00 3.79939E-01-6.64580E-13 4.43603E-13
 -1      1707-6.30501E-01-1.69635E+01-1.88973E+00-1.49453E-01 1.77081E-13 2.65982E-13
 -1      1708-6.71548E-01-1.53887E+01-1.75664E+00 1.12909E+00-2.88547E-13 1.93179E-13
 -1      1709 2.56977E+01 9.76606E-01 2.80182E-01 7.17052E+00 6.59306E-13 6.17395E-13
 -1      1710 1.60636E+01-3.49530E+00-2.71773E-01 6.62617E+00 6.10845E-13 5.69877E-13
 -1      1711 1.99994E+01-5.80362E-04 6.85359E-05-6.81700E-04-3.52820E-13 2.88405E-13
 -1      1712 1.99990E+01-1.19974E-03 3.69370E-05-1.71840E-03-4.84858E-14 5.36967E-13
 -1      1713 9.06157E-01-9.68214E+00-1.05369E+00 2.81467E+00 4.41702E-13 6.30496E-13
 -1      1714 7.43425E+00-6.73988E+00-6.20324E-01 5.43176E+00 5.30354E-13 5.38982E-13
 -1      1715-1.43817E+00-1.17760E+01-1.37226E+00 1.57744E-01 2.50140E-13 5.46563E-13
 -1      1716 3.56680E+01 4.51544E+00 9.08467E-01 6.06974E+00 6.67633E-13 4.10783E-13
 -1      1717 4.26502E+01 6.56588E+00 1.21584E+00 3.24485E+00 5.70072E-13 5.71765E-14
 -1      1718 4.63773E+01 7.52615E+00 1.49306E+00 4.24369E-01 5.91527E-13-2.92828E-13
 -1      1719 4.46536E+01 6.89074E+00 1.40377E+00-3.53986E+00 8.26283E-13-6.26388E-13
 -1      1720 3.71786E+01 4.46762E+00 8.30592E-01-5.62442E+00 8.79505E-13-8.09020E-13
 -1      1721 2.74252E+01 1.09768E+00 4.07105E-01-6.79178E+00 7.85372E-13-9.00724E-13
 -1      1722 1.66459E+01-3.14113E+00-2.25592E-01-6.70801E+00 6.82565E-13-9.45966E-13
 -1      1723 7.54383E+00-6.73259E+00-6.64340E-01-5.34016E+00 5.05374E-13-8.91127E-13
 -1      1724 1.10562E+00-9.56612E+00-1.08025E+00-2.80443E+00 1.06026E-13-9.49685E-13
 -1      1725-1.18700E+00-1.08755E+01-1.21724E+00-4.07649E-01-4.13239E-13-9.88820E-13
 -1      1726 6.41835E-01-9.99141E+00-1.10668E+00 2.47452E+00-9.08496E-13-8.34610E-13
 -1      1727 6.27717E+00-7.26259E+00-8.25414E-01 4.69281E+00-1.19715E-12-8.31397E-13
 -1      1728 1.45217E+01-3.15451E+00-3.76496E-01 6.35510E+00-1.33527E-12-1.23773E-12
 -1      1729 2.54630E+01 1.30029E+00 3.30131E-01 7.52153E+00-1.31850E-12-1.41642E-12
 -1      1730 3.67967E+01 4.64906E+00 1.02669E+00 6.38849E+00-1.06951E-12-1.25810E-12
 -1      1731 4.44786E+01 6.74826E+00 1.42404E+00 3.38549E+00-8.59757E-13-9.50184E-13
 -1      1732 4.78713E+01 7.50209E+00 1.67959E+00 1.37013E-01-6.83842E-13-5.75290E-13
 -1      1733 4.52547E+01 6.86381E+00 1.46646E+00-2.87790E+00-6.18783E-13-1.96176E-13
 -1      1734 3.87882E+01 5.00285E+00 1.06727E+00-5.42407E+00-7.35127E-13 8.89289E-14
 -1      1735 2.98580E+01 2.49423E+00 5.83030E-01-7.15705E+00-7.03437E-13 4.01679E-13
 -1      1736 1.97363E+01-7.56444E-01-3.51527E-02-7.03634E+00-6.51146E-13 8.71747E-13
 -1      1737 1.07978E+01-4.60924E+00-5.86019E-01-5.58129E+00-5.18252E-13 7.67442E-13
 -1      1738 4.03761E+00-8.25236E+00-1.00748E+00-3.65805E+00-2.15050E-13 5.87877E-13
 -1      1739-8.19396E-02-1.08945E+01-1.28216E+00-1.71257E+00-2.37033E-14 3.09308E-13
 -1      1740 2.30281E+01 1.95807E+00-2.62677E-02-2.54126E+00-2.83818E-13 8.07326E-13
 -1      1741 2.00121E+01 3.76392E+00-3.67695E-02-1.79569E+00-2.99922E-13-5.19876E-13
 -1      1742 2.03079E+01 3.59621E+00-3.68042E-02-2.09347E+00-3.54087E-13-4.26069E-13
 -1      1743 2.06546E+01 3.18229E+00-4.59832E-02-2.25826E+00-3.67017E-13-2.80179E-13
 -1      1744 2.09027E+01 2.79516E+00-1.36060E-01-2.54552E+00-4.14948E-13-9.54306E-14
 -1      1745 2.07109E+01 2.72360E+00-2.41410E-03-1.86553E+00-3.83842E-13-3.21635E-13
 -1      1746 1.92447E+01 4.33564E+00-2.09933E-02-9.69193E-01-1.21673E-13-6.51723E-13
 -1      1747 1.93941E+01 4.28639E+00-1.47004E-02-1.16822E+00-1.67311E-13-6.35034E-13
 -1      1748 1.90146E+01 4.47761E+00-1.66854E-02-6.34005E-01-3.99548E-14-6.57478E-13
 -1      1749 1.91211E+01 4.44796E+00-1.14479E-02-8.06106E-01-7.70634E-14-6.62866E-13
 -1      1750 1.93531E+01 4.00235E+00-7.08961E-03-8.20353E-01-1.10038E-13-6.33136E-13
 -1      1751 1.88706E+01 4.56186E+00-1.37290E-02-3.39145E-01 3.31543E-14-6.31986E-13
 -1      1752 1.89332E+01 4.54612E+00-1.06403E-02-4.91793E-01-7.19910E-16-6.48013E-13
 -1      1753 1.91216E+01 4.16800E+00-6.59012E-03-5.21862E-01-2.18766E-14-6.31529E-13
 -1      1754 1.88130E+01 4.59666E+00-1.17403E-02-6.58757E-02 1.16740E-13-6.04091E-13
 -1      1755 1.88315E+01 4.59254E+00-1.09910E-02-2.09536E-01 8.27640E-14-6.21387E-13
 -1      1756 1.89860E+01 4.25841E+00-6.29081E-03-2.55499E-01 5.69103E-14-6.12252E-13
 -1      1757 1.88414E+01 4.58567E+00-1.06063E-02 2.05487E-01 1.90516E-13-5.88972E-13
 -1      1758 1.88161E+01 4.59240E+00-1.21737E-02 6.05881E-02 1.53433E-13-5.96733E-13
 -1      1759 1.89462E+01 4.28224E+00-6.27448E-03-4.04199E-03 1.47376E-13-5.79575E-13
 -1      1760 1.89537E+01 4.52888E+00-1.04386E-02 4.94252E-01 2.54688E-13-5.56707E-13
 -1      1761 1.88861E+01 4.54717E+00-1.41031E-02 3.38162E-01 2.25776E-13-5.85594E-13
 -1      1762 1.90012E+01 4.24290E+00-6.56597E-03 2.50639E-01 2.18130E-13-5.69363E-13
 -1      1763 1.91434E+01 4.42470E+00-1.14641E-02 8.12915E-01 3.20132E-13-4.87960E-13
 -1      1764 1.90368E+01 4.45568E+00-1.69651E-02 6.39131E-01 2.88867E-13-5.25587E-13
 -1      1765 1.91470E+01 4.14057E+00-6.97548E-03 5.23205E-01 2.93883E-13-5.21919E-13
 -1      1766 1.94188E+01 4.25709E+00-1.45907E-02 1.18923E+00 3.91810E-13-3.75068E-13
 -1      1767 1.92675E+01 4.30850E+00-2.12501E-02 9.81538E-01 3.48146E-13-4.40831E-13
 -1      1768 1.93815E+01 3.96744E+00-7.61343E-03 8.30124E-01 3.62510E-13-4.32357E-13
 -1      1769 1.97941E+01 3.99396E+00-2.25526E-02 1.63179E+00 4.58489E-13-2.13680E-13
 -1      1770 1.95885E+01 4.08194E+00-2.81483E-02 1.38181E+00 4.18640E-13-3.06543E-13
 -1      1771 1.97130E+01 3.70150E+00-7.66017E-03 1.18191E+00 4.30285E-13-3.14538E-13
 -1      1772 2.03223E+01 3.54672E+00-4.22174E-02 2.13504E+00 4.90078E-13 4.42944E-14
 -1      1773 2.00276E+01 3.72132E+00-4.05806E-02 1.83811E+00 4.62052E-13-1.14068E-13
 -1      1774 2.01634E+01 3.29685E+00-4.76084E-03 1.56682E+00 4.81290E-13-1.34327E-13
 -1      1775 2.12175E+01 2.66660E+00-5.44579E-02 2.56689E+00 4.38374E-13 5.30111E-13
 -1      1776 2.06973E+01 3.09492E+00-5.00073E-02 2.30166E+00 4.55774E-13 2.40828E-13
 -1      1777 2.07930E+01 2.62978E+00 3.31845E-03 1.90122E+00 4.87215E-13 1.42938E-13
 -1      1778 2.20079E+01 1.19518E+00-1.19277E-01 2.10557E+00 3.62606E-13 1.10420E-12
 -1      1779 2.15708E+01 2.23921E+00-3.32696E-04 2.47853E+00 4.03060E-13 7.33358E-13
 -1      1780 2.12779E+01 1.67920E+00-1.97077E-02 1.84617E+00 4.49618E-13 5.28067E-13
 -1      1781 2.13126E+01 7.70415E-01-5.81834E-02 1.30234E+00 3.72244E-13 9.81564E-13
 -1      1782 2.20722E+01 2.42359E+00 8.78526E-02-2.79522E+00-3.75677E-13 2.37782E-13
 -1      1783 2.06294E+01 3.07670E-01-5.85858E-03 4.28097E-01 2.86327E-13 7.95239E-13
 -1      1784 2.10807E+01 4.43638E-01-1.06481E-02 8.10506E-01 3.08260E-13 9.00398E-13
 -1      1785 2.11556E+01 8.42693E-01 5.35781E-04 1.14424E+00 3.74121E-13 6.34820E-13
 -1      1786 2.18208E+01 1.73078E+00 7.80815E-02-2.05571E+00-3.97429E-13 1.11057E-13
 -1      1787 2.10139E+01 5.21235E-01 3.33450E-02-6.29030E-01-3.41106E-13 5.85330E-14
 -1      1788 2.06958E+01 3.86392E-01 1.21834E-02-3.21736E-01-3.02142E-13-3.98067E-14
 -1      1789 2.05800E+01 3.01703E-01 2.79504E-02-5.01985E-02-2.73450E-13-5.15161E-14
 -1      1790 2.05228E+01 2.33830E-01 1.50067E-02 1.16871E-01-2.19211E-13-1.29961E-13
 -1      1791 2.07660E+01 5.41890E-01-8.11423E-03-3.10389E-01-3.37359E-13-1.42925E-13
 -1      1792 2.05000E+01 1.96267E-01 1.73920E-02 2.95924E-01-1.66058E-13-1.43872E-13
 -1      1793 2.05840E+01 1.65707E-01 1.20075E-02 4.06558E-01-1.52797E-13-1.88702E-13
 -1      1794 2.06227E+01 3.32671E-01-7.90584E-03 2.04328E-01-2.43636E-13-1.72182E-13
 -1      1795 2.06404E+01 1.46325E-01 9.69320E-03 5.36135E-01-1.31018E-13-1.97218E-13
 -1      1796 2.08211E+01 1.30331E-01 9.29692E-03 6.19405E-01-1.08665E-13-2.15119E-13
 -1      1797 2.06635E+01 2.37109E-01-6.99848E-03 5.54668E-01-1.60420E-13-2.23629E-13
 -1      1798 2.09408E+01 1.17227E-01 5.32127E-03 7.20210E-01-8.40716E-14-2.06537E-13
 -1      1799 2.11911E+01 1.04420E-01 7.00842E-03 7.86034E-01-6.37346E-14-2.15775E-13
 -1      1800 2.08468E+01 1.85522E-01-6.08423E-03 8.16040E-01-1.04739E-13-2.36810E-13
 -1      1801 2.13616E+01 8.98475E-02 2.81557E-03 8.63948E-01-8.54102E-14-2.07479E-13
 -1      1802 2.16606E+01 7.14530E-02 4.09964E-03 9.11101E-01-6.17800E-14-2.21167E-13
 -1      1803 2.11430E+01 1.43216E-01-5.22906E-03 1.01883E+00-7.61082E-14-2.28791E-13
 -1      1804 2.18731E+01 4.81702E-02 1.25134E-03 9.60322E-01-5.36857E-14-2.22903E-13
 -1      1805 2.21975E+01 1.50698E-02-3.69556E-04 9.78005E-01-4.08553E-14-2.01727E-13
 -1      1806 2.15301E+01 8.47073E-02-4.62523E-03 1.16413E+00-6.22169E-14-2.04055E-13
 -1      1807 2.24450E+01-2.47648E-02 2.94833E-04 9.81183E-01-5.68525E-14-1.75073E-13
 -1      1808 2.27621E+01-8.18638E-02-6.96707E-03 9.48950E-01-1.99844E-14-1.87107E-13
 -1      1809 2.19906E+01-1.52537E-02-4.28950E-03 1.22780E+00-3.72631E-14-1.77120E-13
 -1      1810 2.30366E+01-1.44980E-01-8.20777E-05 8.77321E-01-5.09987E-14-1.89713E-13
 -1      1811 2.32999E+01-2.31159E-01-1.54270E-02 7.67392E-01-6.97654E-14-2.18674E-13
 -1      1812 2.25071E+01-1.80821E-01-3.95201E-03 1.16086E+00-7.37984E-14-1.57623E-13
 -1      1813 2.35866E+01-3.16743E-01-1.41025E-04 5.85426E-01-4.69234E-14-2.42573E-13
 -1      1814 2.37358E+01-4.21239E-01-2.35983E-02 3.72806E-01-8.60770E-15-2.74100E-13
 -1      1815 2.30558E+01-4.21837E-01-2.84173E-03 8.94142E-01-6.34822E-14-1.27582E-13
 -1      1816 2.40009E+01-5.08072E-01-9.81028E-04 5.69970E-02-1.88183E-14-3.06928E-13
 -1      1817 2.39740E+01-5.90313E-01-2.72168E-02-2.55846E-01-2.35003E-14-3.22786E-13
 -1      1818 2.35912E+01-7.01161E-01 6.53191E-04 3.60517E-01-5.19636E-14-1.85049E-13
 -1      1819 2.41541E+01-6.26676E-01-5.13559E-03-6.80986E-01 6.68701E-14-3.21794E-13
 -1      1820 2.39169E+01-6.08637E-01-2.03719E-02-1.03025E+00 9.00963E-14-2.52323E-13
 -1      1821 2.40252E+01-9.00198E-01 7.03310E-03-4.45695E-01 2.12079E-14-1.87607E-13
 -1      1822 2.39201E+01-5.14780E-01-1.40591E-02-1.44108E+00 6.94167E-14-2.73923E-13
 -1      1823 2.35069E+01-3.17992E-01-7.29655E-04-1.67621E+00-1.04903E-14-2.21144E-13
 -1      1824 2.42157E+01-8.08008E-01 1.33246E-02-1.38025E+00 7.91368E-14-1.88196E-13
 -1      1825 2.32861E+01-5.28864E-02-2.14864E-02-1.83747E+00-9.04153E-14-2.51148E-13
 -1      1826 2.28294E+01 2.95122E-01 2.15078E-02-1.77106E+00-6.30294E-14-2.46926E-13
 -1      1827 2.40235E+01-2.40851E-01 1.09306E-02-2.05560E+00-6.90299E-14-2.12951E-13
 -1      1828 2.24958E+01 6.26939E-01-1.89043E-02-1.46552E+00-4.90337E-14-2.84977E-13
 -1      1829 2.21954E+01 9.15985E-01 2.26417E-02-1.02804E+00-8.88248E-14-2.94834E-13
 -1      1830 2.34950E+01 6.99360E-01-7.84704E-03-1.94347E+00-6.62682E-14-2.42544E-13
 -1      1831 2.20298E+01 1.08204E+00 1.64443E-03-3.33472E-01-1.56195E-13-3.68324E-13
 -1      1832 2.20253E+01 1.10254E+00 3.73027E-03 2.87158E-01-1.77060E-13-4.20549E-13
 -1      1833 2.30175E+01 1.45510E+00-3.33453E-02-8.28978E-01-2.11185E-13-3.10323E-13
 -1      1834 2.21877E+01 9.59111E-01 2.14756E-02 1.01519E+00-1.52506E-13-4.47774E-13
 -1      1835 2.25020E+01 6.74418E-01-1.79885E-02 1.47766E+00-1.36481E-13-4.18511E-13
 -1      1836 2.30148E+01 1.51613E+00-2.77958E-02 7.95883E-01-1.77098E-13-3.24512E-13
 -1      1837 2.28472E+01 3.42996E-01 1.99994E-02 1.81131E+00-1.44225E-13-4.52449E-13
 -1      1838 2.33231E+01-4.70416E-03-2.26329E-02 1.90649E+00-7.55867E-14-4.91230E-13
 -1      1839 2.35100E+01 7.60616E-01-1.31968E-02 1.98316E+00-1.43531E-13-2.79551E-13
 -1      1840 2.35763E+01-2.76477E-01 1.77406E-03 1.77837E+00-4.21061E-15-4.77007E-13
 -1      1841 2.40249E+01-4.85092E-01-1.27928E-02 1.56316E+00 9.14225E-14-5.27973E-13
 -1      1842 2.40785E+01-1.72396E-01 1.01760E-02 2.16778E+00-8.33604E-14-3.92086E-13
 -1      1843 2.40570E+01-5.90816E-01-1.82604E-02 1.16792E+00 1.60616E-13-5.91494E-13
 -1      1844 2.43403E+01-6.19425E-01-4.08360E-03 8.25669E-01 1.05062E-13-5.44838E-13
 -1      1845 2.43376E+01-7.70854E-01 1.55791E-02 1.54370E+00 9.93875E-14-4.40922E-13
 -1      1846 2.41907E+01-5.90062E-01-2.70563E-02 4.01786E-01 4.65409E-14-4.39312E-13
 -1      1847 2.42666E+01-5.11154E-01-3.71499E-04 8.82938E-02 6.77037E-14-4.05178E-13
 -1      1848 2.42128E+01-8.93362E-01 7.91692E-03 6.24951E-01 1.61365E-13-4.75703E-13
 -1      1849 2.40261E+01-4.25105E-01-2.44672E-02-2.30575E-01 1.30156E-14-3.09731E-13
 -1      1850 2.39258E+01-3.19512E-01 4.16063E-04-4.44840E-01 9.34383E-14-2.88348E-13
 -1      1851 2.38344E+01-7.05912E-01 5.98203E-04-1.85102E-01 8.82662E-14-2.52934E-13
 -1      1852 2.36618E+01-2.33315E-01-1.64291E-02-6.29077E-01 7.50467E-14-3.49415E-13
 -1      1853 2.34458E+01-1.45645E-01 3.57391E-04-7.39892E-01 5.88566E-14-3.68159E-13
 -1      1854 2.33482E+01-4.25373E-01-2.76750E-03-7.24151E-01 5.87017E-14-2.04817E-13
 -1      1855 2.31917E+01-8.20917E-02-8.02728E-03-8.13151E-01 2.78005E-14-4.14971E-13
 -1      1856 2.29196E+01-2.45816E-02 4.04023E-04-8.45676E-01 1.89117E-14-4.41913E-13
 -1      1857 2.28446E+01-1.81740E-01-3.62747E-03-9.95446E-01 2.24317E-14-4.30443E-13
 -1      1858 2.26886E+01 1.41283E-02-1.57699E-03-8.45193E-01 5.06609E-14-4.56884E-13
 -1      1859 2.24051E+01 4.51844E-02 6.68415E-04-8.29219E-01 7.62598E-14-4.48368E-13
 -1      1860 2.23671E+01-1.61853E-02-3.53047E-03-1.06776E+00 6.88207E-14-4.02488E-13
 -1      1861 2.22015E+01 6.48004E-02 2.48305E-03-7.87552E-01 4.56680E-14-3.49042E-13
 -1      1862 2.19348E+01 7.75611E-02 1.00294E-03-7.46844E-01 7.18614E-14-3.57201E-13
 -1      1863 2.19345E+01 7.70248E-02-3.24706E-03-1.01680E+00 1.23220E-13-4.04335E-13
 -1      1864 2.17592E+01 8.48428E-02 4.56744E-03-6.86897E-01 1.03884E-13-4.02254E-13
 -1      1865 2.15239E+01 8.66992E-02 1.26735E-03-6.37165E-01 1.37651E-13-3.85461E-13
 -1      1866 2.15540E+01 1.18576E-01-2.98204E-03-9.02116E-01 7.82049E-14-4.78980E-13
 -1      1867 2.13755E+01 8.69498E-02 5.29352E-03-5.73037E-01 4.79079E-14-4.24817E-13
 -1      1868 2.11768E+01 8.31369E-02 1.40384E-03-5.23361E-01-1.96610E-13-3.96895E-13
 -1      1869 2.12274E+01 1.28478E-01-2.74172E-03-7.63485E-01 2.39862E-14-5.73182E-13
 -1      1870 2.10537E+01 7.98697E-02 5.20538E-03-4.62764E-01-3.09331E-13-4.46067E-13
 -1      1871 2.08915E+01 7.36378E-02 1.41741E-03-4.17708E-01-2.89573E-13-4.67171E-13
 -1      1872 2.09531E+01 1.21362E-01-2.49769E-03-6.24441E-01-1.86952E-13-6.62071E-13
 -1      1873 2.07913E+01 6.89522E-02 4.69586E-03-3.64249E-01-2.31313E-13-4.21137E-13
 -1      1874 2.06623E+01 6.21334E-02 1.33996E-03-3.25633E-01-1.64045E-13-4.63480E-13
 -1      1875 2.07273E+01 1.06520E-01-2.23563E-03-4.97274E-01-3.09536E-13-5.17348E-13
 -1      1876 2.05822E+01 5.71839E-02 4.01583E-03-2.80498E-01-1.88134E-13-3.62296E-13
 -1      1877 2.04818E+01 5.07151E-02 1.20722E-03-2.48620E-01-1.13478E-13-3.33938E-13
 -1      1878 2.05450E+01 8.93038E-02-1.95846E-03-3.87231E-01-1.50733E-13-4.16421E-13
 -1      1879 2.04189E+01 4.60808E-02 3.31034E-03-2.11678E-01-8.99119E-14-3.52940E-13
 -1      1880 2.03424E+01 4.03761E-02 1.04869E-03-1.86073E-01 1.06394E-13-4.00216E-13
 -1      1881 2.04005E+01 7.25244E-02-1.67789E-03-2.95492E-01-1.18256E-13-2.63833E-13
 -1      1882 2.02939E+01 3.63071E-02 2.65467E-03-1.56554E-01 2.05425E-13-4.65401E-13
 -1      1883 2.02368E+01 3.14950E-02 8.85229E-04-1.36431E-01 1.07410E-13-3.46590E-13
 -1      1884 2.02880E+01 5.74877E-02-1.40706E-03-2.21091E-01 1.38096E-13-2.35987E-13
 -1      1885 2.01999E+01 2.80630E-02 2.08181E-03-1.13310E-01-1.43137E-14-3.00811E-13
 -1      1886 2.01582E+01 2.41257E-02 7.29942E-04-9.77910E-02-1.32595E-14-3.03481E-13
 -1      1887 2.02020E+01 4.46618E-02-1.15648E-03-1.62066E-01 8.88500E-14-9.61199E-14
 -1      1888 2.01308E+01 2.13116E-02 1.60086E-03-8.00037E-02-9.26706E-14-3.46353E-13
 -1      1889 2.01009E+01 1.81641E-02 5.90073E-04-6.82423E-02 6.90897E-15-4.08667E-13
 -1      1890 2.01374E+01 3.40768E-02-9.32842E-04-1.16123E-01-3.77862E-14-1.40358E-13
 -1      1891 2.00810E+01 1.59067E-02 1.20841E-03-5.47910E-02 2.68422E-13-3.56399E-13
 -1      1892 2.00603E+01 1.34391E-02 4.68786E-04-4.60307E-02 3.60264E-13-2.94361E-13
 -1      1893 2.00898E+01 2.55529E-02-7.39185E-04-8.09811E-02 1.70244E-13-1.01407E-13
 -1      1894 2.00462E+01 1.16617E-02 8.95201E-04-3.60328E-02 3.14089E-13-3.28369E-13
 -1      1895 2.00323E+01 9.76069E-03 3.66588E-04-2.96246E-02 1.82172E-13-2.44205E-13
 -1      1896 2.00557E+01 1.88250E-02-5.75713E-04-5.45577E-02 3.16187E-13-1.33575E-13
 -1      1897 2.00226E+01 8.38442E-03 6.49864E-04-2.23282E-02-4.41220E-14-1.63862E-13
 -1      1898 2.00137E+01 6.94413E-03 2.82352E-04-1.77327E-02-1.94732E-13-7.96339E-14
 -1      1899 2.00318E+01 1.36078E-02-4.40702E-04-3.50355E-02 9.10292E-14-5.84304E-14
 -1      1900 2.00073E+01 5.89471E-03 4.60857E-04-1.25155E-02-3.02934E-13-8.48246E-14
 -1      1901 2.00021E+01 4.82056E-03 2.13990E-04-9.29487E-03-3.05047E-13-5.28986E-14
 -1      1902 2.00157E+01 9.62778E-03-3.31276E-04-2.08833E-02-2.61374E-13 1.60449E-13
 -1      1903 1.99981E+01 4.03098E-03 3.17454E-04-5.65447E-03-3.29909E-13 8.76862E-14
 -1      1904 1.99955E+01 3.24058E-03 1.58876E-04-3.46244E-03-1.37902E-13-6.38844E-14
 -1      1905 2.00054E+01 6.63701E-03-2.44011E-04-1.08448E-02-2.34676E-13 2.22007E-13
 -1      1906 1.99933E+01 2.65152E-03 2.10174E-04-1.00368E-03 1.06080E-13-1.40898E-13
 -1      1907 1.99924E+01 2.07362E-03 1.14100E-04 4.25819E-04 2.90719E-13 4.43679E-15
 -1      1908 1.99993E+01 4.41684E-03-1.75342E-04-3.91558E-03-8.02802E-14 1.97561E-13
 -1      1909 1.99914E+01 1.63266E-03 1.30908E-04 2.00351E-03 3.16591E-13 8.12032E-14
 -1      1910 1.99917E+01 1.20489E-03 7.66299E-05 2.86617E-03 4.13934E-13 2.24671E-13
 -1      1911 1.99961E+01 2.77634E-03-1.21837E-04 6.84268E-04 3.69348E-13 2.16103E-13
 -1      1912 1.99915E+01 8.64578E-04 7.31277E-05 3.78010E-03 3.61804E-13 6.66414E-14
 -1      1913 1.99925E+01 5.30296E-04 4.35686E-05 4.20845E-03 2.61396E-13 2.11223E-13
 -1      1914 1.99949E+01 1.54651E-03-8.05545E-05 3.53706E-03 3.22214E-13 7.68428E-14
 -1      1915 1.99928E+01 2.45813E-04 3.21535E-05 4.60173E-03 6.61145E-14 1.42048E-13
 -1      1916 1.99941E+01-4.60402E-05 1.53178E-05 4.66854E-03 6.50228E-14 1.38164E-13
 -1      1917 1.99951E+01 5.73498E-04-4.87232E-05 5.05100E-03 1.95600E-13 2.64723E-14
 -1      1918 1.99947E+01-3.29089E-04 3.18210E-06 4.62920E-03 2.39520E-15 9.98150E-14
 -1      1919 1.99961E+01-6.24154E-04-8.57359E-06 4.34716E-03 3.18529E-14 1.94843E-13
 -1      1920 1.99960E+01-2.75820E-04-2.38232E-05 5.48089E-03-4.56516E-14 2.68888E-14
 -1      1921 1.99966E+01-8.72798E-04-6.45682E-06 3.93015E-03 8.98442E-14 1.69940E-14
 -1      1922 1.99978E+01-1.19893E-03-2.97102E-05 3.30897E-03 1.46173E-13-6.04536E-14
 -1      1923 1.99983E+01-1.83640E-03-5.23091E-06 3.80979E-03-3.35482E-14-3.27397E-13
 -1      1924 1.99972E+01-1.12112E-03-1.02554E-05 5.00153E-03-3.69279E-14 9.46981E-15
 -1      1925 2.03447E+01 1.63939E-01 1.01466E-02 8.31274E-04 2.41255E-13 6.25139E-13
 -1      1926 2.05033E+01 2.21865E-01 1.77044E-02 1.89463E-01 2.46844E-13 7.28142E-13
 -1      1927 2.06709E+01 3.69969E-01-3.21149E-03 3.55360E-01 3.07974E-13 5.19387E-13
 -1      1928 2.03360E+01 1.01462E-01 8.96736E-03-2.47997E-01 1.71882E-13 5.13249E-13
 -1      1929 2.03200E+01 1.29367E-01 1.54007E-02-1.36296E-01 2.01134E-13 5.86975E-13
 -1      1930 2.04687E+01 1.99588E-01-3.80556E-03-9.10896E-02 2.45743E-13 4.29269E-13
 -1      1931 2.05198E+01 6.82004E-02 6.18459E-03-4.07927E-01 1.11860E-13 4.41179E-13
 -1      1932 2.03976E+01 8.45635E-02 9.56788E-03-3.33319E-01 1.26656E-13 4.75424E-13
 -1      1933 2.04944E+01 1.23198E-01-4.77187E-03-3.64864E-01 1.74447E-13 3.27267E-13
 -1      1934 2.08331E+01 4.38792E-02 4.00915E-03-5.13471E-01 4.63327E-14 3.94889E-13
 -1      1935 2.06440E+01 5.65922E-02 5.40349E-03-4.61799E-01 6.99438E-14 4.44674E-13
 -1      1936 2.06788E+01 7.95265E-02-4.91178E-03-5.43232E-01 9.27648E-14 2.77230E-13
 -1      1937 2.12285E+01 1.78590E-02 1.95812E-03-5.72836E-01 9.00449E-14 3.32098E-13
 -1      1938 2.10000E+01 3.12895E-02 2.65223E-03-5.41510E-01 6.20388E-14 3.65452E-13
 -1      1939 2.09716E+01 4.33678E-02-4.42314E-03-6.55927E-01 8.17685E-14 2.07357E-13
 -1      1940 2.16624E+01-1.72278E-02-4.48363E-04-5.78179E-01 1.25370E-13 2.89981E-13
 -1      1941 2.14201E+01-1.49449E-04 4.53131E-04-5.71842E-01 1.12719E-13 3.14302E-13
 -1      1942 2.13332E+01 7.05144E-04-3.61131E-03-7.06096E-01 1.30291E-13 1.66719E-13
 -1      1943 2.20854E+01-6.64172E-02-3.27336E-03-5.10457E-01 1.15611E-13 2.29583E-13
 -1      1944 2.18592E+01-4.41210E-02-1.68067E-03-5.39099E-01 1.13267E-13 2.88486E-13
 -1      1945 2.17255E+01-5.79176E-02-2.44874E-03-6.79763E-01 1.33738E-13 2.04150E-13
 -1      1946 2.24370E+01-1.29953E-01-6.05402E-03-3.45261E-01-7.11974E-15 2.66259E-13
 -1      1947 2.22634E+01-1.03561E-01-3.85525E-03-4.21569E-01 4.48534E-14 2.47568E-13
 -1      1948 2.21051E+01-1.36988E-01-6.72246E-04-5.52135E-01 6.37971E-14 2.04379E-13
 -1      1949 2.26455E+01-1.98173E-01-7.74254E-03-6.47711E-02 6.45543E-14 2.94092E-13
 -1      1950 2.25663E+01-1.73801E-01-5.85784E-03-1.98274E-01 3.39182E-14 2.92035E-13
 -1      1951 2.24188E+01-2.30998E-01 2.02516E-03-2.97502E-01 3.97998E-14 2.02420E-13
 -1      1952 2.26372E+01-2.45759E-01-6.99758E-03 3.20814E-01 4.83173E-14 2.09165E-13
 -1      1953 2.26912E+01-2.36449E-01-7.21246E-03 1.34519E-01 5.58399E-14 2.48571E-13
 -1      1954 2.26024E+01-3.16537E-01 5.71554E-03 9.21601E-02 8.54377E-14 1.44862E-13
 -1      1955 2.23590E+01-2.32240E-01-3.27097E-03 7.45383E-01 1.28636E-13 1.00767E-13
 -1      1956 2.25667E+01-2.55823E-01-7.39994E-03 5.38592E-01 7.16614E-14 1.86315E-13
 -1      1957 2.25891E+01-3.47453E-01 9.58422E-03 5.78428E-01 1.18712E-13 9.31607E-14
 -1      1958 2.18168E+01-1.19897E-01 1.84886E-03 1.07128E+00 6.90038E-14 1.49077E-13
 -1      1959 2.21600E+01-1.88045E-01-5.85526E-03 9.11523E-01 9.80266E-14 1.31884E-13
 -1      1960 2.23330E+01-2.66344E-01 1.13085E-02 1.04746E+00 9.49102E-14 1.40737E-13
 -1      1961 2.11192E+01 8.68309E-02 4.51311E-03 1.12186E+00 6.93000E-14 1.86828E-13
 -1      1962 2.15255E+01-1.32786E-02-2.24937E-03 1.09415E+00 4.58512E-14 1.52454E-13
 -1      1963 2.18541E+01-4.38484E-02 7.93463E-03 1.31127E+00 4.31215E-14 1.76088E-13
 -1      1964 2.04879E+01 3.10838E-01 2.16188E-03 7.84533E-01 2.45221E-14 7.30440E-14
 -1      1965 2.08371E+01 2.22770E-01 3.51874E-03 9.39674E-01 4.39059E-14 1.77150E-13
 -1      1966 2.12835E+01 2.68202E-01-1.04714E-03 1.18049E+00 7.92717E-14 1.32135E-13
 -1      1967 2.01843E+01 4.31239E-01-3.21769E-03 1.24612E-01 1.86580E-13-1.40582E-13
 -1      1968 2.03483E+01 4.07991E-01 1.00111E-02 4.27322E-01 9.76753E-14-6.46037E-14
 -1      1969 2.08494E+01 5.32819E-01-9.70340E-03 6.03103E-01 1.90944E-13-8.07427E-14
 -1      1970 2.03656E+01 3.70167E-01-6.38021E-03-5.99267E-01 5.86796E-14-7.09433E-14
 -1      1971 2.02710E+01 4.30359E-01 1.36084E-02-2.72020E-01 1.73360E-13-1.09426E-13
 -1      1972 2.07675E+01 6.00248E-01-1.12716E-02-2.38542E-01 1.47979E-13-1.08985E-13
 -1      1973 2.09656E+01 1.70586E-01-3.73299E-03-1.08811E+00-1.22399E-13-1.74263E-13
 -1      1974 2.06406E+01 2.77544E-01 1.13681E-02-8.68521E-01-5.37487E-14-1.47455E-13
 -1      1975 2.10894E+01 4.28985E-01-5.09042E-03-9.92934E-01 1.84072E-14-1.11604E-13
 -1      1976 2.17416E+01-5.05044E-02 2.19572E-03-1.19148E+00-7.67368E-14-6.47919E-14
 -1      1977 2.13016E+01 4.56412E-02 4.50153E-03-1.14115E+00-8.77319E-14-1.06117E-13
 -1      1978 2.16636E+01 1.22277E-01 2.49244E-03-1.36919E+00-9.84412E-14-1.22923E-13
 -1      1979 2.24294E+01-1.95271E-01 6.94616E-03-9.62943E-01-4.03627E-14-1.06087E-14
 -1      1980 2.20114E+01-1.45829E-01-3.13956E-03-1.05504E+00-8.85923E-14-3.95153E-14
 -1      1981 2.22492E+01-1.62844E-01 5.13693E-03-1.30083E+00-7.85995E-14-1.31587E-13
 -1      1982 2.28675E+01-2.37970E-01 7.86612E-03-5.67646E-01 1.30054E-13-9.28905E-14
 -1      1983 2.25703E+01-2.36526E-01-8.37449E-03-7.31032E-01 4.62078E-14 1.22038E-15
 -1      1984 2.26668E+01-3.19983E-01 3.77921E-03-9.24154E-01 4.50482E-14-8.35616E-15
 -1      1985 2.30192E+01-2.06270E-01 5.85949E-03-1.66617E-01 1.23894E-14-1.33076E-13
 -1      1986 2.28793E+01-2.33688E-01-1.01487E-02-3.33582E-01 1.03405E-13-8.62132E-14
 -1      1987 2.28474E+01-3.40918E-01 8.23478E-04-4.40626E-01 1.42580E-13-1.13385E-13
 -1      1988 2.29313E+01-1.43180E-01 3.00633E-03 1.46361E-01-1.35146E-13-1.43619E-13
 -1      1989 2.29351E+01-1.78820E-01-9.10488E-03 1.47952E-02-9.07356E-14-1.75401E-13
 -1      1990 2.28113E+01-2.74218E-01-9.10001E-04-6.46019E-03-4.71706E-14-8.69469E-14
 -1      1991 2.26801E+01-7.93670E-02 6.58121E-04 3.44413E-01-4.41452E-14-7.39140E-14
 -1      1992 2.27890E+01-1.10777E-01-6.64587E-03 2.59862E-01-1.24757E-13-1.58925E-13
 -1      1993 2.26172E+01-1.78113E-01-1.38008E-03 3.05646E-01-1.20140E-13-7.23588E-14
 -1      1994 2.23397E+01-2.92132E-02-7.47811E-04 4.40144E-01-5.11115E-15-7.44717E-15
 -1      1995 2.25109E+01-5.17273E-02-3.90070E-03 3.97865E-01 9.42996E-15-3.99732E-14
 -1      1996 2.23278E+01-8.95336E-02-1.18177E-03 4.86647E-01-1.55297E-14-1.27330E-13
 -1      1997 2.19680E+01 4.19291E-03-1.33083E-03 4.61103E-01 2.86507E-14 3.80017E-14
 -1      1998 2.21654E+01-9.43755E-03-1.53033E-03 4.50035E-01 1.04306E-13 5.11453E-14
 -1      1999 2.19957E+01-2.36600E-02-8.19601E-04 5.60103E-01 9.41449E-14 5.94609E-14
 -1      2000 2.16048E+01 2.32433E-02-1.38564E-03 4.35142E-01 8.70831E-15-2.47922E-14
 -1      2001 2.18026E+01 1.65572E-02 2.02905E-04 4.43937E-01-5.64623E-14-6.43027E-14
 -1      2002 2.16592E+01 1.81130E-02-5.44610E-04 5.58967E-01 3.69049E-14 6.13602E-14
 -1      2003 2.12735E+01 3.19202E-02-1.17917E-03 3.84345E-01 5.59586E-14 2.94484E-14
 -1      2004 2.14561E+01 2.99306E-02 1.29377E-03 4.03905E-01 1.90550E-14 2.24577E-14
 -1      2005 2.13429E+01 4.04454E-02-4.09286E-04 5.13234E-01 1.16226E-16-1.63587E-14
 -1      2006 2.09857E+01 3.39339E-02-8.86251E-04 3.23952E-01 3.36083E-14 2.75177E-13
 -1      2007 2.11450E+01 3.47625E-02 1.85903E-03 3.47933E-01 8.82562E-14 2.27440E-13
 -1      2008 2.10608E+01 4.92947E-02-3.76174E-04 4.45584E-01 3.30103E-14 3.51450E-13
 -1      2009 2.07448E+01 3.21117E-02-6.00940E-04 2.63393E-01-3.53353E-13 2.11217E-13
 -1      2010 2.08781E+01 3.44108E-02 2.04846E-03 2.87815E-01-1.62050E-13 2.36724E-13
 -1      2011 2.08189E+01 4.98061E-02-3.91591E-04 3.71206E-01-1.25457E-13 3.47989E-13
 -1      2012 2.05491E+01 2.83803E-02-3.63298E-04 2.07862E-01 5.74829E-14 3.08946E-14
 -1      2013 2.06571E+01 3.12732E-02 1.99775E-03 2.30491E-01-2.25244E-13 7.31847E-14
 -1      2014 2.06180E+01 4.57434E-02-4.16101E-04 2.99258E-01-1.15593E-13-3.05895E-14
 -1      2015 2.03943E+01 2.39504E-02-1.83265E-04 1.59740E-01-4.13441E-14 1.62942E-13
 -1      2016 2.04794E+01 2.69127E-02 1.81194E-03 1.79511E-01 7.42031E-14 1.33372E-13
 -1      2017 2.04556E+01 3.95934E-02-4.28867E-04 2.34596E-01 5.70877E-14-8.49595E-14
 -1      2018 2.02747E+01 1.95270E-02-5.65088E-05 1.19681E-01 2.13253E-13 1.46214E-14
 -1      2019 2.03400E+01 2.22735E-02 1.56429E-03 1.36257E-01 1.06856E-13 1.71136E-13
 -1      2020 2.03274E+01 3.28727E-02-4.23094E-04 1.79263E-01 5.83422E-14 1.10520E-13
 -1      2021 2.01845E+01 1.54821E-02 2.66142E-05 8.73575E-02 4.17478E-13 1.19980E-13
 -1      2022 2.02334E+01 1.78802E-02 1.30175E-03 1.00822E-01 2.37752E-13 8.18609E-14
 -1      2023 2.02285E+01 2.64315E-02-4.00034E-04 1.33598E-01 2.47385E-13 1.13464E-13
 -1      2024 2.01181E+01 1.19810E-02 7.65689E-05 6.19457E-02 7.09273E-14 7.05431E-14
 -1      2025 2.01538E+01 1.39896E-02 1.05183E-03 7.26014E-02 3.10279E-13 2.08076E-13
 -1      2026 2.01539E+01 2.06926E-02-3.64384E-04 9.69833E-02 2.84351E-13 5.02641E-13
 -1      2027 2.00705E+01 9.06599E-03 1.02691E-04 4.24271E-02-2.44519E-13-4.37679E-14
 -1      2028 2.00958E+01 1.06957E-02 8.28776E-04 5.06681E-02-1.76572E-13-1.25294E-14
 -1      2029 2.00990E+01 1.58183E-02-3.21514E-04 6.83436E-02-4.95839E-14 3.14807E-13
 -1      2030 2.00374E+01 6.71117E-03 1.12540E-04 2.77615E-02 1.38655E-13-6.02654E-14
 -1      2031 2.00548E+01 7.99912E-03 6.38284E-04 3.40001E-02-1.06213E-14-9.68939E-15
 -1      2032 2.00596E+01 1.18215E-02-2.76095E-04 4.64401E-02-5.64216E-14 7.72512E-14
 -1      2033 2.00154E+01 4.85636E-03 1.11857E-04 1.69825E-02-9.93811E-14 6.41538E-14
 -1      2034 2.00267E+01 5.85094E-03 4.80885E-04 2.16074E-02 4.98825E-14 6.45981E-15
 -1      2035 2.00322E+01 8.63522E-03-2.31616E-04 3.00472E-02-3.74904E-15 5.19291E-14
 -1      2036 2.00015E+01 3.42726E-03 1.04758E-04 9.24360E-03-6.97078E-14-1.41229E-14
 -1      2037 2.00085E+01 4.17919E-03 3.54200E-04 1.25988E-02-1.62610E-13-1.71771E-14
 -1      2038 2.00140E+01 6.15556E-03-1.90356E-04 1.80461E-02-1.56601E-13-6.69115E-16
 -1      2039 1.99936E+01 2.34693E-03 9.39943E-05 3.83415E-03 8.07744E-15-3.75830E-14
 -1      2040 1.99974E+01 2.90457E-03 2.54387E-04 6.21089E-03-5.47668E-15-6.43126E-15
 -1      2041 2.00024E+01 4.26616E-03-1.53570E-04 9.46798E-03-7.62315E-15-1.09340E-13
 -1      2042 1.99899E+01 1.54157E-03 8.11751E-05 1.79905E-04-1.41399E-13 1.08880E-13
 -1      2043 1.99914E+01 1.94882E-03 1.77028E-04 1.81490E-03-1.58532E-15 1.61914E-13
 -1      2044 1.99959E+01 2.85174E-03-1.21742E-04 3.50764E-03-1.58457E-13 1.71384E-13
 -1      2045 1.99890E+01 9.42426E-04 6.69930E-05-2.16429E-03 1.06283E-13 3.65464E-14
 -1      2046 1.99891E+01 1.23834E-03 1.17648E-04-1.08696E-03-9.22002E-14-2.59087E-14
 -1      2047 1.99927E+01 1.80408E-03-9.48124E-05-4.78265E-04 2.78508E-14 1.54811E-13
 -1      2048 1.99900E+01 4.84798E-04 5.15147E-05-3.52371E-03 1.46172E-13 1.03546E-13
 -1      2049 1.99891E+01 7.04603E-04 7.20912E-05-2.87016E-03 1.75665E-13 1.87028E-13
 -1      2050 1.99919E+01 1.02311E-03-7.23097E-05-2.98067E-03 7.53806E-14 1.02754E-13
 -1      2051 1.99920E+01 1.05105E-04 3.54167E-05-4.11066E-03 7.97996E-14 1.47759E-13
 -1      2052 1.99906E+01 2.81666E-04 3.71034E-05-3.79630E-03 1.00172E-13 1.41237E-13
 -1      2053 1.99927E+01 4.14134E-04-5.32003E-05-4.34932E-03 1.23526E-13 2.51448E-13
 -1      2054 1.99945E+01-2.60105E-04 2.01437E-05-4.02796E-03-1.66342E-14 1.21070E-13
 -1      2055 1.99929E+01-9.54340E-05 1.15049E-05-4.01842E-03 5.58595E-14 2.08193E-13
 -1      2056 1.99942E+01-1.14989E-04-3.51041E-05-4.79824E-03 5.34526E-14 2.66714E-13
 -1      2057 1.99968E+01-6.76273E-04 4.59446E-06-3.27155E-03 3.92467E-14 3.93413E-13
 -1      2058 1.99954E+01-4.88081E-04-2.15623E-06-3.59795E-03-4.41756E-14 3.10902E-13
 -1      2059 1.99961E+01-6.56200E-04-1.78221E-05-4.43834E-03-1.23083E-13 5.13641E-13
 -1      2060 1.99984E+01-1.08634E-03-1.34596E-05-2.22908E-03-5.15166E-14 5.34874E-13
 -1      2061 1.99974E+01-8.68927E-04-7.58580E-06-2.87899E-03 8.11680E-14 5.29794E-13
 -1      2062 1.99977E+01-1.15831E-03 3.06799E-06-3.62059E-03-8.15698E-15 8.87034E-13
 -1      2063 1.99987E+01-1.70014E-03 1.11156E-05-2.67177E-03 9.84772E-14 8.29414E-13
 -1      2064 2.00002E+01-7.09899E-03 5.52683E-06-3.77294E-03 7.37774E-14-7.67175E-14
 -1      2065 2.00000E+01-5.89908E-03 4.91701E-06-3.95342E-03 3.89464E-14 1.05864E-13
 -1      2066 1.99998E+01-5.19370E-03 3.10810E-06-4.05541E-03 9.14576E-14-1.77374E-14
 -1      2067 1.99995E+01-3.97797E-03-1.09202E-05-3.95265E-03 1.69279E-13-7.99095E-14
 -1      2068 2.00000E+01-4.37383E-03-1.10244E-05-4.85930E-03-4.82127E-14-2.50172E-15
 -1      2069 1.99993E+01-3.44891E-03 1.02109E-06-3.68580E-03 1.84948E-13 2.54681E-13
 -1      2070 1.99989E+01-2.35279E-03-1.92323E-05-3.20949E-03 1.68867E-13 4.56733E-13
 -1      2071 1.99985E+01-2.08302E-03-1.81003E-05-3.78265E-03 8.83101E-14 5.57565E-13
 -1      2072 1.99993E+01-3.20003E-03-1.24659E-05-4.67307E-03-2.39208E-15 1.48211E-13
 -1      2073 2.00004E+01-8.67905E-03 1.01222E-05-3.10458E-03-9.35732E-14-4.62054E-13
 -1      2074 2.00004E+01-7.65515E-03 2.33175E-05-3.43487E-03 6.26788E-15-1.44042E-13
 -1      2075 2.00005E+01-5.62851E-03-1.18556E-05-4.35640E-03-8.53894E-14-2.38995E-13
 -1      2076 2.00005E+01-9.89247E-03 1.57175E-05-2.22549E-03 1.04136E-13-1.10604E-13
 -1      2077 2.00005E+01-9.10425E-03 3.22184E-05-2.63464E-03 3.89874E-14-1.74565E-13
 -1      2078 2.00008E+01-6.62225E-03-1.21255E-05-3.46302E-03-2.11153E-14-2.52003E-13
 -1      2079 2.00006E+01-1.06580E-02 2.17372E-05-1.26735E-03 1.98454E-13 1.12522E-13
 -1      2080 2.00006E+01-1.01697E-02 3.47811E-05-1.70289E-03 1.71676E-13 7.41945E-14
 -1      2081 2.00009E+01-7.33706E-03-1.10279E-05-2.36921E-03 1.01717E-13-1.02964E-13
 -1      2082 2.00006E+01-1.09646E-02 2.78190E-05-2.87145E-04 1.32247E-13 4.25045E-13
 -1      2083 2.00006E+01-1.07967E-02 3.24157E-05-7.29665E-04 8.27397E-14 3.52431E-13
 -1      2084 2.00010E+01-7.76314E-03-9.60831E-06-1.20476E-03 3.99272E-14 2.24133E-13
 -1      2085 2.00006E+01-1.08120E-02 3.30244E-05 6.99629E-04 1.44382E-13-1.79236E-13
 -1      2086 2.00006E+01-1.09708E-02 2.74582E-05 2.54689E-04 3.78411E-14 1.69170E-13
 -1      2087 2.00010E+01-7.91158E-03-9.13313E-06-2.10836E-05-2.89736E-13 2.53237E-13
 -1      2088 2.00006E+01-1.02025E-02 3.55695E-05 1.68529E-03 2.42213E-13-1.14693E-13
 -1      2089 2.00006E+01-1.06841E-02 2.15898E-05 1.24337E-03 2.25426E-13-8.10722E-14
 -1      2090 2.00010E+01-7.78613E-03-9.91794E-06 1.16953E-03-9.02916E-14-5.06501E-14
 -1      2091 2.00005E+01-9.16617E-03 3.25988E-05 2.61997E-03 1.62970E-13-1.08365E-13
 -1      2092 2.00005E+01-9.93835E-03 1.58869E-05 2.20977E-03 2.85607E-13 8.35227E-14
 -1      2093 2.00009E+01-7.38177E-03-1.12358E-05 2.34256E-03 1.34608E-13 6.76470E-14
 -1      2094 2.00004E+01-7.70457E-03 2.25407E-05 3.44536E-03 4.89324E-13-3.10700E-13
 -1      2095 2.00005E+01-8.74521E-03 1.02899E-05 3.10212E-03 3.22396E-13-3.04373E-13
 -1      2096 2.00008E+01-6.68393E-03-1.32779E-05 3.45146E-03 2.97375E-13-1.58530E-13
 -1      2097 2.00000E+01-5.92479E-03 4.15010E-06 3.98090E-03 4.76008E-13-3.23777E-14
 -1      2098 2.00002E+01-7.13088E-03 6.00562E-06 3.79744E-03 6.13561E-13-1.64640E-13
 -1      2099 2.00005E+01-5.68043E-03-1.34497E-05 4.37763E-03 4.88712E-13-7.67050E-14
 -1      2100 1.99994E+01-3.99250E-03-2.12811E-05 4.02932E-03-2.07633E-14-2.47114E-13
 -1      2101 1.99998E+01-5.21858E-03 1.06319E-05 4.08928E-03 1.80779E-13-1.49069E-13
 -1      2102 2.00000E+01-4.40000E-03-3.98018E-06 4.89289E-03 2.48219E-13-3.71745E-13
 -1      2103 1.19617E+01-5.04196E+00-4.09654E-02 6.92428E+00 2.38920E-13 2.47916E-13
 -1      2104 8.01815E+00-6.05089E+00-2.08423E-01 5.77170E+00 1.66644E-13 3.75339E-13
 -1      2105 3.75051E-01-7.04537E+00-3.64720E-01 9.64395E-01 2.33147E-13 5.51781E-13
 -1      2106 2.80395E-01-7.12665E+00-3.84553E-01-4.88503E-01 1.47229E-13 5.01377E-13
 -1      2107 3.81117E+00-5.63246E+00-1.79330E-01 4.51358E+00 2.75335E-13 5.51337E-13
 -1      2108 1.49031E+00-7.20176E+00-4.28985E-01 2.62180E+00 2.17437E-13 5.11091E-13
 -1      2109 2.34962E+00-4.48654E+00-1.41498E-01 2.30467E+00 1.16254E-13 5.82590E-13
 -1      2110 2.08175E+01-3.44422E+00 5.80691E-02 6.67949E+00 3.01703E-13 3.86913E-13
 -1      2111 1.61821E+01-5.15941E+00-1.93874E-01 6.32486E+00 2.59626E-13 2.78694E-13
 -1      2112 2.91609E+01 1.04811E-01 1.92368E-01 5.40868E+00 4.64490E-13 2.46470E-13
 -1      2113 2.43132E+01-2.13956E+00-1.50381E-01 5.18382E+00 4.36817E-13 2.97817E-13
 -1      2114 1.95674E+01 4.11775E+00-2.62932E-02-1.35305E+00-2.17110E-13-6.10734E-13
 -1      2115 1.97687E+01 4.03073E+00-2.20174E-02-1.59904E+00-2.71140E-13-5.64604E-13
 -1      2116 2.01159E+01 3.32972E+00-1.78857E-02-1.54540E+00-3.02257E-13-5.04076E-13
 -1      2117 1.96843E+01 3.74943E+00-5.17551E-03-1.16198E+00-2.06696E-13-5.90009E-13
 -1      2118 3.88685E+01 6.34178E+00 3.23646E-01 9.52512E-01 5.92359E-13-6.26721E-14
 -1      2119 3.58137E+01 5.34033E+00 5.06817E-02 1.39640E+00 5.55556E-13 8.93730E-15
 -1      2120 3.94008E+01 7.38653E+00 2.71877E-01-3.83956E-01 6.57419E-13-3.26211E-13
 -1      2121 3.93285E+01 7.07203E+00 2.39175E-01 6.54472E-01 6.43985E-13-1.33421E-13
 -1      2122 3.48908E+01 7.50767E+00 2.54341E-01-4.11587E-01 6.82343E-13-8.04634E-14
 -1      2123 3.83340E+01 5.74707E+00 2.94837E-01-2.32748E+00 7.87231E-13-3.98237E-13
 -1      2124 3.96772E+01 6.65681E+00 3.05211E-01-9.36339E-01 6.82898E-13-2.73420E-13
 -1      2125 3.26998E+01 2.44332E+00 9.27464E-02-3.19759E+00 6.41195E-13-2.74558E-13
 -1      2126 3.71189E+01 4.34570E+00 4.53525E-01-3.24409E+00 7.76865E-13-3.67151E-13
 -1      2127 3.48826E+01 4.95496E+00 2.50429E-01-3.43074E-01 6.57974E-13-3.98570E-14
 -1      2128 2.47631E+01-2.00652E+00-1.18539E-01-5.25575E+00 4.38094E-13-4.45199E-13
 -1      2129 2.95871E+01-1.98675E-01 8.54702E-02-4.58537E+00 4.17943E-13-3.13694E-13
 -1      2130 1.69739E+01-5.09631E+00-1.66870E-01-6.26819E+00 1.23956E-13-4.94715E-13
 -1      2131 2.16712E+01-3.29805E+00 5.83360E-02-6.64649E+00 3.22908E-13-5.43787E-13
 -1      2132 7.64644E+00-6.50554E+00-3.24832E-01-5.60146E+00 6.95555E-14-7.19563E-13
 -1      2133 1.17714E+01-5.07371E+00-8.52493E-02-6.91949E+00 1.59206E-13-6.28816E-13
 -1      2134 2.50925E+00-6.51302E+00-2.85826E-01-3.41322E+00-1.82854E-13-9.64229E-13
 -1      2135 4.73201E+00-6.07164E+00-2.12964E-01-4.89648E+00 8.32667E-14-8.70415E-13
 -1      2136 8.36246E+00-5.06006E+00-3.98845E-02-6.22292E+00-1.94456E-13-7.42018E-13
 -1      2137 2.31692E-01-7.31414E+00-4.16392E-01 6.13213E-01-4.05051E-13-9.55291E-13
 -1      2138 3.91253E-01-6.69009E+00-3.31782E-01-1.16477E+00-1.06484E-13-1.03051E-12
 -1      2139 3.74958E+00-5.91104E+00-1.85087E-01 4.28636E+00-5.42899E-13-7.13707E-13
 -1      2140 1.61021E+00-6.97349E+00-3.66441E-01 2.39995E+00-3.85997E-13-8.42104E-13
 -1      2141 1.08535E+01-5.38225E+00-1.52581E-01 6.43239E+00-8.58535E-13-6.74093E-13
 -1      2142 7.15068E+00-6.63257E+00-3.23362E-01 5.37847E+00-6.83509E-13-5.73930E-13
 -1      2143 1.96114E+01-3.14123E+00-2.63749E-03 6.84757E+00-9.34142E-13-9.34752E-13
 -1      2144 1.47896E+01-5.17805E+00-3.18689E-01 6.08144E+00-8.48988E-13-8.40272E-13
 -1      2145 2.90854E+01-3.61726E-01 1.37506E-01 5.49065E+00-8.72524E-13-9.61675E-13
 -1      2146 2.37141E+01-2.34049E+00-1.88562E-01 5.41666E+00-9.08329E-13-8.94840E-13
 -1      2147 3.57105E+01 3.01082E+00 1.68195E-01 2.64797E+00-8.53664E-13-7.07046E-13
 -1      2148 3.17914E+01 1.39421E+00 9.39565E-03 3.67429E+00-8.57189E-13-8.67528E-13
 -1      2149 3.95174E+01 6.38470E+00 2.77071E-01 7.70308E-01-7.83651E-13-6.93667E-13
 -1      2150 3.70555E+01 5.40411E+00 1.06005E-01 1.58493E+00-8.63587E-13-7.98028E-13
 -1      2151 3.95301E+01 7.06253E+00 2.05184E-01-3.91816E-01-6.96665E-13-5.93581E-13
 -1      2152 3.91497E+01 7.16415E+00 1.70238E-01 5.29452E-01-7.54674E-13-7.59337E-13
 -1      2153 3.72875E+01 5.88841E+00 9.27866E-02-1.08394E+00-6.65246E-13-4.29323E-13
 -1      2154 3.96005E+01 6.57875E+00 2.81507E-01-4.52488E-01-6.58584E-13-5.69822E-13
 -1      2155 3.47745E+01 7.81023E+00 2.79536E-01 5.02924E-01-7.51621E-13-7.39325E-13
 -1      2156 3.35988E+01 2.46100E+00 4.07404E-02-2.98071E+00-5.35093E-13-2.78222E-13
 -1      2157 3.67597E+01 3.90405E+00 2.04618E-01-2.08846E+00-5.43315E-13-3.50775E-13
 -1      2158 2.72109E+01-9.03669E-01-9.96013E-02-4.85105E+00-3.75810E-13-1.79856E-14
 -1      2159 3.15792E+01 6.28175E-01 1.51266E-01-4.44469E+00-4.58134E-13-2.47136E-13
 -1      2160 1.91372E+01-3.53353E+00-2.73259E-01-5.96413E+00-2.30427E-13 4.60298E-13
 -1      2161 2.39300E+01-1.71524E+00 6.70952E-02-6.40288E+00-2.82163E-13 2.97762E-13
 -1      2162 1.16773E+01-5.86036E+00-3.64431E-01-5.86592E+00-9.34808E-14 4.93411E-13
 -1      2163 1.57739E+01-4.14687E+00-6.03259E-02-6.72087E+00-2.21378E-13 6.10456E-13
 -1      2164 5.05880E+00-7.12821E+00-4.47271E-01-4.50535E+00 6.25056E-14 4.65239E-13
 -1      2165 8.03280E+00-5.74776E+00-2.21542E-01-5.68172E+00-5.88418E-14 6.16805E-13
 -1      2166 1.02287E+00-7.55066E+00-4.51585E-01-2.14749E+00 1.53155E-13 3.87801E-13
 -1      2167 2.57378E+00-6.83359E+00-3.37834E-01-3.44181E+00 6.25056E-14 2.42306E-13
 -1      2168 3.45935E+01 2.94233E+00 1.03691E-01 2.51739E+00 5.34073E-13-1.33782E-14
 -1      2169 3.13975E+01 1.55496E+00 4.64777E-02 3.85449E+00 5.33476E-13 1.61648E-13
 -1      2170 3.05463E+01-5.73075E-01 1.81342E-01 2.13349E+00 3.40200E-13-1.14464E-13
 -1      2171 2.11418E+01 1.11080E+00-1.80402E-02-1.33039E+00-3.80803E-13 2.04507E-14
 -1      2172 3.36376E+01 3.81712E+00 1.72009E-01 5.96542E-02 5.32463E-13-8.69860E-14
 -1      2173 2.10241E+01 1.35275E+00-2.00577E-02-1.31825E+00-4.09346E-13-1.40554E-13
 -1      2174 7.80563E+00-4.82505E+00-1.24041E-02 5.93278E+00-2.66454E-15 3.93241E-13
 -1      2175 1.63866E+01-5.56119E+00-1.59281E-02 6.80671E+00 1.02141E-14 1.58795E-13
 -1      2176 1.99992E+01-3.08312E-03-1.78847E-05 4.03964E-03-4.63921E-14-2.10620E-13
 -1      2177 1.89822E+00-4.88209E+00-2.02316E-01-1.69762E+00 2.23419E-13 4.52471E-13
 -1      2178 2.46176E+01-4.17732E+00 3.75119E-02 4.85953E+00 1.04833E-13 8.02414E-14
 -1      2179 5.52899E+00-5.55288E+00-1.90423E-01-5.02194E+00 1.65645E-13 4.47309E-13
 -1      2180 1.22942E+01-5.83129E+00-1.05632E-01-6.63304E+00 1.30507E-13 5.28730E-13
 -1      2181 1.99753E+01-5.15708E+00-2.78638E-02-6.13005E+00 6.12843E-14 2.16827E-13
 -1      2182 2.71702E+01-2.94661E+00 1.20521E-01-4.13981E+00-2.53408E-14-3.22131E-13
 -1      2183 3.46444E+01 4.88658E+00 2.18833E-01 4.47486E-01-5.84505E-13-6.35714E-13
 -1      2184 3.51720E+01 7.51850E+00 2.73093E-01-2.91561E-01-7.87315E-13-5.97120E-13
 -1      2185 3.43303E+01 3.88053E+00 2.31418E-01-1.28096E-01-7.45293E-13-5.11480E-13
 -1      2186 3.08235E+01-9.90107E-01 1.85574E-01 2.15751E+00-6.06251E-13-4.20886E-13
 -1      2187 2.41059E+01-4.32154E+00 5.67390E-02 5.25606E+00-5.27800E-13-6.00631E-13
 -1      2188 1.53999E+01-5.77277E+00-7.98263E-02 6.73618E+00-4.69014E-13-6.19442E-13
 -1      2189 7.28699E+00-5.30586E+00-1.11478E-01 5.60381E+00-2.55851E-13-6.56447E-13
 -1      2190 2.88957E+00-4.69011E+00-1.24275E-01-2.81776E+00-1.72695E-13-1.05649E-12
 -1      2191 1.67170E+01-5.57235E+00 2.83808E-02-6.82472E+00-1.79579E-13-3.90382E-13
 -1      2192 3.10371E+01 2.57257E-01 7.09466E-02-2.66219E+00 3.69843E-13-1.21458E-13
 -1      2193 3.12819E+01 5.75678E-01-1.44291E-01-3.94955E-01 2.82524E-13 1.71085E-13
 -1      2194 2.93369E+01-1.73436E+00 1.08412E-01-1.93478E+00 1.03594E-13 1.21597E-13
 -1      2195 3.59627E+01 7.70860E+00 2.87735E-01-6.30416E-02 6.50147E-13-8.21843E-14
 -1      2196 2.49591E+01-4.21310E+00 1.47812E-02-4.76664E+00 7.21645E-16-1.38750E-13
 -1      2197 2.31837E+00-4.56617E+00-1.39585E-01 2.01249E+00-1.40998E-13-9.82991E-13
 -1      2198 3.22263E+01 4.68970E-01 1.93678E-01-1.35551E+00-2.97901E-13-5.04874E-13
 -1      2199 2.06995E+01 5.59231E-01 6.55942E-03 3.03406E-01 3.07102E-13 2.77822E-13
 -1      2200 2.08797E+01 7.39189E-01 2.08045E-02 6.17980E-01 3.48461E-13 3.28947E-13
 -1      2201 1.91680E+01 3.85577E+00-1.12188E-02-3.85603E-01 6.42498E-15-5.92212E-13
 -1      2202 1.92659E+01 3.79379E+00-8.43718E-03-5.19157E-01-4.54434E-14-6.01933E-13
 -1      2203 1.93865E+01 3.66885E+00-1.37250E-02-6.30070E-01-8.13990E-14-6.00417E-13
 -1      2204 1.95333E+01 3.56450E+00-1.04632E-02-7.81684E-01-1.32740E-13-5.92481E-13
 -1      2205 1.94552E+01 3.40233E+00 2.15901E-03-4.83326E-01-5.98730E-14-5.66168E-13
 -1      2206 1.90351E+01 3.96684E+00-8.14258E-03 5.15477E-02 1.66622E-13-5.45754E-13
 -1      2207 1.90300E+01 3.97033E+00-8.59702E-03-6.85679E-02 1.18558E-13-5.58773E-13
 -1      2208 1.91208E+01 3.90176E+00-7.71030E-03 2.74387E-01 2.41386E-13-5.39334E-13
 -1      2209 1.90651E+01 3.93590E+00-9.76413E-03 1.48392E-01 2.00804E-13-5.46861E-13
 -1      2210 1.91620E+01 3.65467E+00 1.26927E-03 7.79988E-02 1.71323E-13-5.18671E-13
 -1      2211 1.92985E+01 3.75803E+00-8.27785E-03 5.15273E-01 3.18800E-13-4.79138E-13
 -1      2212 1.91973E+01 3.82356E+00-1.14839E-02 3.78447E-01 2.70891E-13-5.21505E-13
 -1      2213 1.92787E+01 3.55135E+00 1.29279E-03 2.68295E-01 2.48650E-13-4.89684E-13
 -1      2214 1.95689E+01 3.51977E+00-1.05020E-02 7.91423E-01 3.85763E-13-3.90359E-13
 -1      2215 1.94215E+01 3.62733E+00-1.37748E-02 6.34193E-01 3.49763E-13-4.38318E-13
 -1      2216 1.94937E+01 3.35406E+00 1.50902E-03 4.79236E-01 3.21488E-13-4.27739E-13
 -1      2217 1.99268E+01 3.16075E+00-1.57601E-02 1.09591E+00 4.50088E-13-2.61666E-13
 -1      2218 1.97360E+01 3.32892E+00-1.65515E-02 9.21542E-01 4.04767E-13-3.35894E-13
 -1      2219 1.98018E+01 3.04895E+00 2.57385E-03 7.12970E-01 3.82140E-13-3.33622E-13
 -1      2220 2.03755E+01 2.62770E+00-2.61202E-02 1.39552E+00 4.86908E-13-1.01358E-13
 -1      2221 2.01405E+01 2.89403E+00-1.86828E-02 1.22089E+00 4.58122E-13-1.92256E-13
 -1      2222 2.01895E+01 2.61307E+00 5.87957E-03 9.46686E-01 4.25722E-13-2.04932E-13
 -1      2223 1.08581E+01-3.86706E+00 6.20486E-02 6.41996E+00-2.53880E-13 9.26204E-14
 -1      2224 7.21681E+00-3.31536E+00 1.32278E-01 5.00970E+00-1.34254E-13 3.31069E-13
 -1      2225 2.05875E+01 3.42182E-01 7.74995E-03-1.54943E-01 2.60348E-13 2.08499E-13
 -1      2226 2.06433E+01 4.32175E-01 2.03443E-02 3.38922E-02 2.77438E-13 2.59930E-13
 -1      2227 2.07013E+01 7.15256E-01-4.23599E-03 2.45127E-01 3.30657E-13 9.33247E-14
 -1      2228 2.08439E+01 9.46241E-01 1.41777E-02-5.53583E-01-3.36105E-13-1.94800E-13
 -1      2229 2.07142E+01 7.40514E-01-4.63525E-04-2.06554E-01-2.93450E-13-2.01957E-13
 -1      2230 3.12824E+01 4.11519E+00-1.86309E-01-1.29230E+00 4.72761E-13-1.06221E-13
 -1      2231 3.06346E+01 1.81820E+00-1.02953E-01-8.38575E-01 4.19664E-13-1.39555E-13
 -1      2232 2.06936E+01 6.03784E-01 1.56921E-02 6.55194E-02-2.57476E-13-1.80458E-13
 -1      2233 2.06571E+01 4.99910E-01 4.47649E-03 2.91160E-01-2.09098E-13-2.19295E-13
 -1      2234 2.06693E+01 9.13226E-01-2.82012E-03-1.20749E-01-2.76230E-13-2.43163E-13
 -1      2235 2.06521E+01 4.30853E-01 1.04848E-02 4.97359E-01-1.96408E-13-1.98901E-13
 -1      2236 2.06994E+01 3.75232E-01 5.26420E-03 6.60351E-01-1.57841E-13-2.23379E-13
 -1      2237 2.06160E+01 6.31605E-01-5.03806E-03 3.93695E-01-2.03604E-13-2.21007E-13
 -1      2238 2.07282E+01 3.34889E-01 6.31528E-03 8.22238E-01-1.20007E-13-2.20033E-13
 -1      2239 2.08425E+01 2.98715E-01 5.07925E-03 9.47940E-01-8.19015E-14-2.32794E-13
 -1      2240 2.06322E+01 4.79155E-01-5.07465E-03 7.88847E-01-1.50989E-13-2.03083E-13
 -1      2241 2.09082E+01 2.65732E-01 4.03790E-03 1.07865E+00-6.07888E-14-2.47681E-13
 -1      2242 2.10744E+01 2.28968E-01 4.10109E-03 1.17519E+00-5.73450E-14-2.45395E-13
 -1      2243 2.07244E+01 3.77716E-01-4.75195E-03 1.10261E+00-9.77026E-14-2.28983E-13
 -1      2244 2.11800E+01 1.86429E-01 3.32559E-03 1.27706E+00-5.37704E-14-2.34352E-13
 -1      2245 2.13861E+01 1.30424E-01 1.97564E-03 1.33950E+00-1.51955E-14-2.08900E-13
 -1      2246 2.08926E+01 2.75531E-01-4.83197E-03 1.35260E+00-5.66806E-14-2.30827E-13
 -1      2247 2.15399E+01 6.09699E-02 4.07171E-03 1.40327E+00-7.15557E-15-2.05322E-13
 -1      2248 2.17752E+01-3.41569E-02-1.76745E-03 1.41427E+00-2.07523E-14-2.29893E-13
 -1      2249 2.11426E+01 1.25407E-01-5.90413E-03 1.53386E+00-8.01144E-16-2.35494E-13
 -1      2250 2.19937E+01-1.48301E-01 6.37235E-03 1.41735E+00-4.72487E-14-2.17344E-13
 -1      2251 2.22459E+01-3.00411E-01-7.44011E-03 1.34768E+00-6.92129E-14-1.92293E-13
 -1      2252 2.14936E+01-1.21464E-01-8.38378E-03 1.61693E+00-3.09940E-14-2.48578E-13
 -1      2253 2.25522E+01-4.70432E-01 1.00824E-02 1.25255E+00-6.23822E-14-1.51511E-13
 -1      2254 2.28034E+01-6.82406E-01-1.50424E-02 1.06583E+00-3.88244E-14-1.47978E-13
 -1      2255 2.19802E+01-5.06809E-01-1.21067E-02 1.54428E+00-3.27399E-14-1.86232E-13
 -1      2256 2.32153E+01-8.93299E-01 1.35732E-02 8.21627E-01-2.31412E-14-9.74544E-14
 -1      2257 2.34340E+01-1.12014E+00-2.20208E-02 4.90104E-01-7.53304E-15-6.39439E-14
 -1      2258 2.26442E+01-1.03272E+00-1.58156E-02 1.23000E+00-1.45344E-14-4.52006E-14
 -1      2259 2.39264E+01-1.29886E+00 1.22716E-02 5.98751E-02-1.37182E-14-4.55009E-14
 -1      2260 2.40643E+01-1.42495E+00-2.57060E-02-3.97744E-01 6.10189E-14-2.47712E-14
 -1      2261 2.34973E+01-1.58590E+00-1.59380E-02 5.70879E-01-2.35749E-15 6.42999E-14
 -1      2262 2.45268E+01-1.41954E+00-4.36409E-03-9.87010E-01 9.35218E-14-8.25273E-14
 -1      2263 2.45272E+01-1.24067E+00-1.95389E-02-1.45429E+00 4.11592E-14-6.77629E-14
 -1      2264 2.44401E+01-1.85430E+00-8.67554E-03-4.51130E-01 4.84641E-14 5.68664E-14
 -1      2265 2.47512E+01-8.49240E-01-3.49590E-02-1.99543E+00-4.36864E-14-7.90444E-14
 -1      2266 2.45981E+01-2.33465E-01 4.81041E-04-2.21176E+00-9.36681E-14-5.51594E-14
 -1      2267 2.51814E+01-1.37033E+00-6.45802E-03-1.67229E+00 7.43589E-15 5.96606E-14
 -1      2268 2.44680E+01 5.32956E-01-6.27315E-02-2.31298E+00-1.44926E-13-5.51659E-14
 -1      2269 2.42531E+01 1.39303E+00 1.62710E-02-2.02240E+00-2.03740E-13-1.57482E-13
 -1      2270 2.54092E+01 1.95700E-01-1.12813E-02-2.45148E+00-1.20855E-13 6.99267E-14
 -1      2271 2.39150E+01 2.02304E+00-8.82983E-02-1.30555E+00-2.46206E-13-2.58358E-13
 -1      2272 2.38238E+01 2.46375E+00-3.84903E-02-5.82627E-01-2.91260E-13-2.48195E-13
 -1      2273 2.50604E+01 2.36503E+00-1.71303E-02-1.96381E+00-3.42795E-13-5.28935E-14
 -1      2274 2.38726E+01 2.52284E+00-1.19616E-02 5.40119E-01-2.30132E-13-3.62734E-13
 -1      2275 2.39871E+01 2.14516E+00-4.86819E-02 1.30101E+00-1.76553E-13-3.30546E-13
 -1      2276 2.48419E+01 3.28889E+00-2.46584E-02 8.40779E-03-3.07560E-13-2.70462E-13
 -1      2277 2.42106E+01 1.47834E+00-8.40910E-03 2.04777E+00-2.12282E-13-3.40361E-13
 -1      2278 2.44599E+01 6.39158E-01-7.81502E-02 2.36615E+00-1.75526E-13-3.59041E-13
 -1      2279 2.50482E+01 2.28622E+00-2.81039E-02 1.84121E+00-1.98053E-13-3.87050E-13
 -1      2280 2.46534E+01-1.11560E-01 5.79094E-03 2.33869E+00-1.21457E-13-3.97627E-13
 -1      2281 2.48215E+01-7.61674E-01-3.67520E-02 2.15424E+00-5.45930E-14-4.19072E-13
 -1      2282 2.54104E+01 3.37236E-01-1.58508E-02 2.57345E+00-2.04524E-13-3.47972E-13
 -1      2283 2.46362E+01-1.17601E+00-1.39598E-02 1.63644E+00 1.24397E-14-5.08392E-13
 -1      2284 2.46677E+01-1.38305E+00-1.57301E-03 1.18581E+00 1.07272E-13-5.79211E-13
 -1      2285 2.52835E+01-1.24935E+00 2.14445E-03 1.88648E+00-7.23874E-14-4.85403E-13
 -1      2286 2.42197E+01-1.41551E+00-2.67920E-02 5.95979E-01 2.12350E-13-5.73499E-13
 -1      2287 2.41188E+01-1.30122E+00 1.31014E-02 1.38723E-01 2.20487E-13-4.54038E-13
 -1      2288 2.45839E+01-1.82306E+00-9.47226E-03 6.89550E-01 1.45446E-13-5.30805E-13
 -1      2289 2.36246E+01-1.13157E+00-2.56656E-02-3.00313E-01 1.79224E-13-3.67456E-13
 -1      2290 2.34388E+01-9.00794E-01 1.45103E-02-6.34606E-01 1.27332E-13-2.87634E-13
 -1      2291 2.36640E+01-1.59501E+00-2.05156E-02-3.57829E-01 2.54178E-13-4.78781E-13
 -1      2292 2.30238E+01-6.91613E-01-1.74408E-02-8.83512E-01-7.95414E-15-2.86913E-13
 -1      2293 2.28007E+01-4.76013E-01 1.08161E-02-1.07329E+00 1.16786E-14-3.47840E-13
 -1      2294 2.28196E+01-1.05012E+00-2.05335E-02-1.02948E+00 7.76535E-14-4.37724E-13
 -1      2295 2.24914E+01-3.05591E-01-8.97274E-03-1.17240E+00 3.40114E-15-3.48772E-13
 -1      2296 2.22616E+01-1.51888E-01 6.57858E-03-1.24483E+00 4.14642E-15-3.83450E-13
 -1      2297 2.21590E+01-5.20725E-01-1.52892E-02-1.35686E+00-2.35586E-14-2.58046E-13
 -1      2298 2.20407E+01-3.93936E-02-2.58171E-03-1.24658E+00 1.65819E-14-4.18469E-13
 -1      2299 2.18210E+01 5.16335E-02 3.37093E-03-1.24075E+00 3.51644E-14-3.60338E-13
 -1      2300 2.16731E+01-1.33100E-01-9.73151E-03-1.44064E+00-3.27561E-14-2.76780E-13
 -1      2301 2.16618E+01 1.14383E-01 1.47730E-03-1.18782E+00 4.48865E-14-5.16497E-13
 -1      2302 2.14609E+01 1.58406E-01 1.41021E-03-1.13764E+00 9.70991E-14-5.16455E-13
 -1      2303 2.13165E+01 1.03005E-01-5.84126E-03-1.37625E+00-3.16388E-14-4.71562E-13
 -1      2304 2.13421E+01 1.86490E-01 3.70911E-03-1.05913E+00 4.67983E-14-6.17662E-13
 -1      2305 2.11643E+01 2.00391E-01 3.89085E-04-9.88832E-01 2.92556E-14-6.54540E-13
 -1      2306 2.10467E+01 2.22447E-01-3.59922E-03-1.23373E+00-1.22818E-15-6.02116E-13
 -1      2307 2.10720E+01 2.07273E-01 4.67441E-03-9.02828E-01 3.77901E-14-7.07324E-13
 -1      2308 2.09189E+01 2.04098E-01-5.60814E-05-8.27699E-01-6.02010E-14-7.98039E-13
 -1      2309 2.08346E+01 2.65475E-01-2.47077E-03-1.05915E+00-5.13524E-14-9.14336E-13
 -1      2310 2.08451E+01 1.99422E-01 4.83835E-03-7.44559E-01-1.51270E-13-8.74255E-13
 -1      2311 2.07164E+01 1.87839E-01-1.94374E-04-6.73214E-01-2.19252E-13-7.93433E-13
 -1      2312 2.06631E+01 2.64114E-01-1.95273E-03-8.80552E-01-1.87269E-13-1.02100E-12
 -1      2313 2.06563E+01 1.77746E-01 4.54347E-03-5.98229E-01-2.23903E-13-6.76889E-13
 -1      2314 2.05506E+01 1.62983E-01-1.91646E-04-5.34864E-01-1.98679E-13-5.12578E-13
 -1      2315 2.05221E+01 2.40090E-01-1.71141E-03-7.13602E-01-8.84750E-14-9.02577E-13
 -1      2316 2.05016E+01 1.51068E-01 4.02173E-03-4.70198E-01-1.59552E-13-4.11484E-13
 -1      2317 2.04164E+01 1.36025E-01-1.37938E-04-4.16315E-01-9.57126E-14-2.91795E-13
 -1      2318 2.04061E+01 2.06751E-01-1.56578E-03-5.65905E-01-7.31046E-14-6.20326E-13
 -1      2319 2.03767E+01 1.24233E-01 3.41926E-03-3.62308E-01-8.42470E-14-2.85713E-13
 -1      2320 2.03093E+01 1.10365E-01-7.65045E-05-3.17893E-01-6.98519E-14-2.55532E-13
 -1      2321 2.03113E+01 1.71658E-01-1.43461E-03-4.40096E-01-5.42676E-14-2.40938E-13
 -1      2322 2.02776E+01 9.96450E-02 2.82135E-03-2.73894E-01 1.63266E-14-2.45680E-13
 -1      2323 2.02253E+01 8.75680E-02-2.48585E-05-2.38158E-01 1.94619E-13-1.83703E-13
 -1      2324 2.02346E+01 1.38725E-01-1.29141E-03-3.35931E-01-2.64840E-14-1.24564E-13
 -1      2325 2.02002E+01 7.82998E-02 2.27303E-03-2.03046E-01 1.80082E-13-2.57999E-13
 -1      2326 2.01604E+01 6.81662E-02 1.23086E-05-1.74868E-01 2.46065E-14-1.57997E-13
 -1      2327 2.01736E+01 1.09705E-01-1.13506E-03-2.51634E-01 8.19123E-14-2.15926E-13
 -1      2328 2.01409E+01 6.04185E-02 1.79429E-03-1.47356E-01-5.97943E-14-1.11402E-13
 -1      2329 2.01111E+01 5.21423E-02 3.59173E-05-1.25535E-01-1.05814E-14 8.78915E-16
 -1      2330 2.01258E+01 8.51403E-02-9.73486E-04-1.84737E-01 3.04791E-14-2.32813E-13
 -1      2331 2.00963E+01 4.58263E-02 1.39030E-03-1.04343E-01-1.98412E-14 4.32802E-14
 -1      2332 2.00745E+01 3.92111E-02 4.88029E-05-8.77314E-02 1.54605E-13 6.28834E-14
 -1      2333 2.00890E+01 6.49355E-02-8.15755E-04-1.32584E-01 5.04808E-14 9.54901E-14
 -1      2334 2.00634E+01 3.41662E-02 1.05808E-03-7.16782E-02 2.29702E-13-1.27129E-13
 -1      2335 2.00478E+01 2.89761E-02 5.39900E-05-5.92472E-02 1.77627E-13-2.31442E-13
 -1      2336 2.00612E+01 4.86854E-02-6.68984E-04-9.26050E-02 2.81596E-14-1.37847E-13
 -1      2337 2.00397E+01 2.50177E-02 7.90588E-04-4.72940E-02 1.78385E-13-1.31453E-13
 -1      2338 2.00289E+01 2.10143E-02 5.39975E-05-3.81566E-02 3.99530E-14-5.23146E-14
 -1      2339 2.00407E+01 3.58621E-02-5.37595E-04-6.24709E-02 2.73429E-13-1.43082E-13
 -1      2340 2.00231E+01 1.79581E-02 5.79150E-04-2.94185E-02-1.15847E-13 1.65098E-13
 -1      2341 2.00159E+01 1.49186E-02 5.06394E-05-2.28336E-02-1.65870E-13 3.16589E-13
 -1      2342 2.00258E+01 2.59140E-02-4.23578E-04-4.01523E-02 6.37729E-14 1.52328E-13
 -1      2343 2.00119E+01 1.25930E-02 4.14869E-04-1.65778E-02-3.48422E-13 2.22562E-13
 -1      2344 2.00073E+01 1.03181E-02 4.50182E-05-1.19426E-02-2.78996E-13 2.80542E-13
 -1      2345 2.00154E+01 1.83160E-02-3.27115E-04-2.39366E-02-2.31758E-13 4.02128E-13
 -1      2346 2.00047E+01 8.56856E-03 2.89402E-04-7.57737E-03-1.87359E-13 2.77627E-13
 -1      2347 2.00020E+01 6.88294E-03 3.76058E-05-4.41408E-03-1.30701E-14 2.36334E-13
 -1      2348 2.00083E+01 1.25911E-02-2.47242E-04-1.24172E-02-2.93434E-13 2.54072E-13
 -1      2349 2.00004E+01 5.57242E-03 1.95394E-04-1.47547E-03 1.63554E-13 1.39513E-13
 -1      2350 1.99991E+01 4.32338E-03 2.85167E-05 5.82180E-04 3.37754E-13 9.66598E-14
 -1      2351 2.00037E+01 8.31609E-03-1.82351E-04-4.46951E-03-3.41814E-14 2.15890E-13
 -1      2352 1.99981E+01 3.33048E-03 1.26406E-04 2.44633E-03 2.08777E-13-8.28280E-14
 -1      2353 1.99977E+01 2.38307E-03 1.72924E-05 3.66686E-03 1.27040E-13-1.08452E-13
 -1      2354 2.00010E+01 5.12068E-03-1.30380E-04 7.78689E-04 3.04462E-14-1.24265E-13
 -1      2355 1.99973E+01 1.59810E-03 7.75437E-05 4.70982E-03 2.01750E-13-1.75835E-13
 -1      2356 1.99974E+01 8.34115E-04 5.74283E-06 5.27473E-03 1.17381E-13-8.07161E-14
 -1      2357 1.99995E+01 2.67385E-03-9.01616E-05 3.97915E-03 1.60638E-13-2.89206E-13
 -1      2358 1.99973E+01 1.34234E-04 3.92835E-05 5.66975E-03-3.23662E-14-2.21994E-14
 -1      2359 1.99977E+01-5.19144E-04-1.52330E-06 5.67401E-03-1.23364E-13-9.43786E-14
 -1      2360 1.99989E+01 6.92230E-04-5.84812E-05 5.59367E-03 2.46563E-14-2.46693E-13
 -1      2361 2.07696E+01 1.50924E-01 4.12664E-03-6.66648E-01 1.03060E-13 1.21233E-13
 -1      2362 2.06570E+01 1.87533E-01 7.68326E-03-5.84636E-01 1.38659E-13 1.56937E-13
 -1      2363 2.10101E+01 8.12514E-02 1.92788E-03-7.98841E-01 8.10033E-14 5.67645E-14
 -1      2364 2.08526E+01 1.17663E-01 4.74018E-03-7.50281E-01 8.77054E-14 9.52767E-14
 -1      2365 2.07648E+01 1.88444E-01-5.22546E-03-8.03722E-01 1.22992E-13 3.88903E-16
 -1      2366 2.13134E+01-3.12684E-03-9.97737E-04-8.55059E-01 1.52077E-13 6.22208E-14
 -1      2367 2.11315E+01 4.32275E-02 3.17368E-03-8.43188E-01 1.02853E-13 5.72320E-14
 -1      2368 2.09671E+01 8.49974E-02-4.63869E-03-9.47987E-01 1.13778E-13-7.38006E-15
 -1      2369 2.16532E+01-1.17557E-01-4.89339E-03-8.17349E-01 1.00874E-13 1.12909E-13
 -1      2370 2.14680E+01-5.40163E-02 2.39217E-03-8.52822E-01 1.29561E-13 9.84458E-14
 -1      2371 2.12386E+01-4.33462E-02-4.23770E-03-1.00149E+00 1.13954E-13-7.75833E-15
 -1      2372 2.19998E+01-2.68295E-01-9.53625E-03-6.56549E-01 3.51511E-14 1.18702E-13
 -1      2373 2.18356E+01-1.85930E-01 1.98806E-03-7.53814E-01 8.52380E-14 1.21343E-13
 -1      2374 2.15678E+01-2.15233E-01-3.94812E-03-9.41763E-01 7.67047E-14 8.52324E-15
 -1      2375 2.23156E+01-4.42329E-01-1.39448E-02-3.43669E-01 9.68206E-14 4.73896E-14
 -1      2376 2.22008E+01-3.51181E-01 1.48764E-03-5.13968E-01 4.85081E-14 9.34175E-14
 -1      2377 2.19407E+01-4.33149E-01-3.27394E-03-7.34753E-01 7.37815E-14-7.31354E-15
 -1      2378 2.25508E+01-5.92805E-01-1.59737E-02 1.28244E-01 9.37679E-14 4.74235E-14
 -1      2379 2.25152E+01-5.22436E-01 1.71226E-04-1.10832E-01 1.22019E-13 7.18395E-14
 -1      2380 2.23310E+01-6.68083E-01-1.33148E-03-3.48616E-01 1.04119E-13-2.48218E-14
 -1      2381 2.26429E+01-6.29990E-01-1.27453E-02 7.08995E-01 8.51610E-14 8.73845E-14
 -1      2382 2.27102E+01-6.31854E-01-2.87624E-03 4.38065E-01 7.43836E-14 6.84334E-14
 -1      2383 2.26867E+01-8.39706E-01 3.07322E-03 2.19261E-01 5.07801E-14 1.69100E-14
 -1      2384 2.25329E+01-4.44466E-01-2.64787E-03 1.25401E+00 5.24971E-14 1.97340E-13
 -1      2385 2.27046E+01-5.73582E-01-8.46005E-03 1.03299E+00 6.97242E-14 1.51768E-13
 -1      2386 2.29192E+01-8.14374E-01 9.28865E-03 8.96987E-01 2.97746E-14 1.04360E-13
 -1      2387 2.22091E+01 1.14194E-02 1.11123E-02 1.52351E+00 6.95667E-14 1.76627E-13
 -1      2388 2.24477E+01-2.52500E-01-1.45701E-02 1.46609E+00 6.89386E-14 2.26250E-13
 -1      2389 2.29235E+01-4.58054E-01 1.27758E-02 1.49154E+00 4.74281E-14 1.66443E-13
 -1      2390 2.17729E+01 6.09108E-01 1.94251E-02 1.28339E+00 1.47916E-13 1.04942E-13
 -1      2391 2.19975E+01 3.04224E-01-1.59966E-02 1.47287E+00 1.16579E-13 1.61005E-13
 -1      2392 2.26600E+01 2.31385E-01 6.55782E-03 1.70060E+00 1.25132E-13 1.97250E-13
 -1      2393 2.14464E+01 1.05059E+00 1.58490E-02 5.02756E-01 2.58134E-13 4.61647E-14
 -1      2394 2.15633E+01 8.70405E-01-6.05323E-03 9.10137E-01 2.12552E-13 1.10050E-13
 -1      2395 2.22628E+01 1.00726E+00-8.36805E-03 1.27125E+00 1.97523E-13 1.99892E-13
 -1      2396 2.14513E+01 1.04778E+00 1.01000E-03-5.31769E-01 8.90945E-14 6.78312E-14
 -1      2397 2.14015E+01 1.11632E+00 1.09477E-02-7.19092E-02 1.81709E-13 5.49096E-14
 -1      2398 2.20132E+01 1.46314E+00-1.81663E-02 2.50580E-01 1.97235E-13 2.08489E-13
 -1      2399 2.18119E+01 6.08674E-01-1.16793E-02-1.34425E+00 4.50443E-14-4.10999E-14
 -1      2400 2.16147E+01 8.72320E-01 2.12527E-02-1.03272E+00 9.84421E-14 2.07924E-14
 -1      2401 2.21236E+01 1.30701E+00-1.13972E-02-9.14761E-01 1.21467E-13 6.26756E-14
 -1      2402 2.23263E+01 1.05316E-02-1.44973E-02-1.62109E+00-1.27540E-13-7.22877E-14
 -1      2403 2.20615E+01 3.08271E-01 1.71737E-02-1.56034E+00-5.82069E-14-4.56024E-14
 -1      2404 2.25115E+01 6.36126E-01 1.63876E-03-1.66938E+00-5.25621E-16 5.52818E-14
 -1      2405 2.27295E+01-4.32962E-01-9.12683E-03-1.37977E+00-6.99722E-14-1.20775E-13
 -1      2406 2.24915E+01-2.39392E-01 3.84231E-03-1.52466E+00-7.76667E-14-9.66553E-14
 -1      2407 2.28952E+01-1.41035E-01 1.11970E-02-1.76344E+00-5.90927E-14 2.70291E-14
 -1      2408 2.28973E+01-6.12299E-01-3.06644E-03-8.47433E-01 1.19029E-13-1.73117E-13
 -1      2409 2.27482E+01-5.57027E-01-8.72686E-03-1.09468E+00 1.72995E-15-1.92152E-13
 -1      2410 2.30522E+01-6.64758E-01 1.22149E-02-1.33224E+00 2.53135E-14-2.43148E-13
 -1      2411 2.28319E+01-5.69293E-01 5.94695E-04-2.72375E-01 9.81958E-14-7.77330E-14
 -1      2412 2.27888E+01-6.13336E-01-1.52686E-02-5.20612E-01 1.46002E-13-1.20930E-13
 -1      2413 2.29484E+01-8.41022E-01 4.92296E-03-6.77852E-01 6.82046E-14-2.34440E-13
 -1      2414 2.26109E+01-4.18616E-01 2.00845E-03 1.93091E-01-1.15688E-13-2.24916E-14
 -1      2415 2.26592E+01-5.03221E-01-1.50875E-02-9.62378E-04 9.89053E-15 1.43500E-14
 -1      2416 2.26703E+01-7.43577E-01-1.89179E-04-5.82000E-02 1.32101E-14-9.55559E-15
 -1      2417 2.23086E+01-2.49176E-01 2.09086E-03 4.99760E-01-6.21742E-14-7.85468E-14
 -1      2418 2.24210E+01-3.34336E-01-1.15800E-02 3.75971E-01-1.01100E-13-7.01946E-14
 -1      2419 2.23200E+01-5.27214E-01-2.68791E-03 4.04045E-01-3.78070E-14-2.07044E-14
 -1      2420 2.19787E+01-1.07770E-01 1.71407E-03 6.58597E-01 7.33695E-14-1.23365E-13
 -1      2421 2.21276E+01-1.74829E-01-7.19686E-03 5.97834E-01 1.72323E-15-1.28147E-13
 -1      2422 2.19627E+01-3.00552E-01-3.28302E-03 6.85643E-01 3.54293E-14-2.02768E-13
 -1      2423 2.16542E+01-8.67013E-03 1.32370E-03 7.05316E-01 9.23221E-14-5.27039E-14
 -1      2424 2.18171E+01-5.36041E-02-3.31085E-03 6.91295E-01 7.55359E-14-9.17494E-14
 -1      2425 2.16308E+01-1.17604E-01-2.98355E-03 8.13692E-01 4.47122E-14-1.83211E-13
 -1      2426 2.13535E+01 5.12701E-02 1.05142E-03 6.78518E-01-2.61017E-14-1.67116E-14
 -1      2427 2.15142E+01 2.54090E-02-4.37673E-04 6.94478E-01 8.95382E-14-2.22083E-14
 -1      2428 2.13359E+01 7.58026E-03-2.47837E-03 8.31347E-01 4.49685E-14-1.43592E-13
 -1      2429 2.10856E+01 8.14167E-02 8.82832E-04 6.10157E-01-6.96997E-14 4.55352E-14
 -1      2430 2.12342E+01 6.94849E-02 1.40524E-03 6.42510E-01-7.58366E-14 3.16023E-14
 -1      2431 2.10798E+01 8.14012E-02-2.05106E-03 7.79558E-01-7.99298E-14-7.58727E-14
 -1      2432 2.08543E+01 9.15270E-02 7.77909E-04 5.23236E-01-1.32905E-13 3.39144E-13
 -1      2433 2.09852E+01 8.86703E-02 2.40867E-03 5.62364E-01-7.44384E-14 1.61782E-13
 -1      2434 2.08610E+01 1.16967E-01-1.74868E-03 6.90450E-01-1.57990E-13 2.50558E-14
 -1      2435 2.06595E+01 8.94954E-02 7.01325E-04 4.32707E-01-5.23778E-14 2.67963E-13
 -1      2436 2.07707E+01 9.19567E-02 2.81113E-03 4.72481E-01-1.94108E-14 3.89060E-13
 -1      2437 2.06766E+01 1.27193E-01-1.53489E-03 5.86509E-01-1.30115E-13 2.07509E-13
 -1      2438 2.04993E+01 8.09496E-02 6.32748E-04 3.47358E-01 4.38365E-15 9.41455E-15
 -1      2439 2.05909E+01 8.61231E-02 2.82440E-03 3.84274E-01-8.62158E-14 1.94770E-13
 -1      2440 2.05235E+01 1.22303E-01-1.36663E-03 4.82080E-01-2.58010E-14 3.09995E-13
 -1      2441 2.03702E+01 6.95747E-02 5.63961E-04 2.71687E-01-3.10409E-14 1.60824E-13
 -1      2442 2.04438E+01 7.57909E-02 2.61160E-03 3.04035E-01 1.78081E-14 1.05582E-13
 -1      2443 2.03982E+01 1.09497E-01-1.21550E-03 3.85427E-01-7.74425E-14 2.31381E-13
 -1      2444 2.02683E+01 5.76139E-02 4.93727E-04 2.07412E-01 1.03735E-13 1.08081E-13
 -1      2445 2.03261E+01 6.38793E-02 2.28715E-03 2.34624E-01 1.88562E-14 7.09459E-14
 -1      2446 2.02973E+01 9.34444E-02-1.06882E-03 3.00626E-01 5.98707E-15 3.31262E-13
 -1      2447 2.01895E+01 4.63248E-02 4.23897E-04 1.54574E-01 1.90324E-13 3.71206E-13
 -1      2448 2.02337E+01 5.21001E-02 1.92543E-03 1.76756E-01 1.53100E-13 1.72238E-13
 -1      2449 2.02176E+01 7.69620E-02-9.24210E-04 2.29046E-01 9.10237E-14 2.85751E-13
 -1      2450 2.01297E+01 3.63277E-02 3.57070E-04 1.12288E-01 2.14197E-13 5.50367E-13
 -1      2451 2.01629E+01 4.13629E-02 1.57126E-03 1.29904E-01 2.38523E-13 4.84219E-13
 -1      2452 2.01556E+01 6.16048E-02-7.84209E-04 1.70433E-01 1.53518E-13 3.49930E-13
 -1      2453 2.00854E+01 2.78514E-02 2.95460E-04 7.92306E-02-5.04348E-14 4.34624E-13
 -1      2454 2.01096E+01 3.20718E-02 1.24902E-03 9.29001E-02 1.82329E-13 6.23926E-13
 -1      2455 2.01082E+01 4.81184E-02-6.52705E-04 1.23641E-01 1.68992E-13 5.20061E-13
 -1      2456 2.00533E+01 2.08963E-02 2.40491E-04 5.39397E-02 6.77069E-14 1.51963E-13
 -1      2457 2.00705E+01 2.43273E-02 9.69738E-04 6.43211E-02-3.43740E-14 3.14464E-13
 -1      2458 2.00728E+01 3.67525E-02-5.33041E-04 8.71190E-02 1.98130E-13 4.25455E-13
 -1      2459 2.00307E+01 1.53394E-02 1.92754E-04 3.49935E-02-3.40352E-14 5.55261E-14
 -1      2460 2.00426E+01 1.80587E-02 7.36171E-04 4.27121E-02 1.29714E-13 4.94517E-14
 -1      2461 2.00469E+01 2.74708E-02-4.27306E-04 5.92076E-02 1.51802E-13 2.50749E-13
 -1      2462 2.00154E+01 1.09997E-02 1.52125E-04 2.11038E-02-1.25521E-13-8.58948E-14
 -1      2463 2.00232E+01 1.31081E-02 5.46293E-04 2.67169E-02-2.39244E-13-2.08379E-14
 -1      2464 2.00285E+01 2.00847E-02-3.36271E-04 3.83141E-02-3.98209E-14 6.43043E-14
 -1      2465 2.00055E+01 7.67678E-03 1.17920E-04 1.11599E-02-1.13995E-13 8.80999E-14
 -1      2466 2.00103E+01 9.28066E-03 3.95574E-04 1.51416E-02-5.69870E-14-1.64044E-14
 -1      2467 2.00157E+01 1.43357E-02-2.59624E-04 2.30072E-02-1.42336E-13 3.08886E-14
 -1      2468 1.99996E+01 5.17155E-03 8.90087E-05 4.24126E-03-2.77142E-14-1.07297E-15
 -1      2469 2.00023E+01 6.37426E-03 2.78435E-04 6.97973E-03-6.31260E-14-3.03509E-14
 -1      2470 2.00073E+01 9.94448E-03-1.96301E-04 1.20594E-02 6.44772E-15-3.48729E-14
 -1      2471 1.99966E+01 3.29645E-03 6.39231E-05-3.85355E-04 5.81423E-15 4.85381E-14
 -1      2472 1.99977E+01 4.19437E-03 1.89124E-04 1.41452E-03 1.03081E-14 7.56671E-14
 -1      2473 2.00021E+01 6.63693E-03-1.44847E-04 4.45838E-03 1.31070E-14-8.59572E-14
 -1      2474 1.99954E+01 1.87743E-03 4.09886E-05-3.27787E-03 6.78785E-15 5.08260E-14
 -1      2475 1.99956E+01 2.55969E-03 1.22226E-04-2.18998E-03 4.31295E-15 5.33418E-14
 -1      2476 1.99991E+01 4.15555E-03-1.03668E-04-5.99058E-04-3.85016E-14 8.21046E-14
 -1      2477 1.99956E+01 7.54044E-04 2.08699E-05-4.83213E-03 4.39069E-14 1.59107E-13
 -1      2478 1.99951E+01 1.30177E-03 7.29755E-05-4.30273E-03-6.91759E-14 1.01866E-13
 -1      2479 1.99978E+01 2.26247E-03-7.10306E-05-3.72158E-03-1.11083E-13 4.92355E-14
 -1      2480 1.99964E+01-2.38601E-04 1.10811E-06-5.30330E-03-7.75155E-15 4.19841E-13
 -1      2481 1.99956E+01 2.52740E-04 3.51042E-05-5.24810E-03 8.10263E-14 3.09850E-13
 -1      2482 1.99974E+01 7.47944E-04-4.39068E-05-5.34253E-03-5.69753E-14 3.02289E-13
 -1      2483 1.99975E+01-1.21198E-03-1.90301E-05-4.82069E-03-3.00779E-13 4.93680E-13
 -1      2484 1.99967E+01-7.08104E-04 1.64930E-05-5.18524E-03-2.08153E-13 4.82538E-13
 -1      2485 1.99978E+01-6.59669E-04-2.59461E-05-5.76426E-03-2.50563E-13 5.70618E-13
 -1      2486 1.99980E+01-1.71445E-03 1.46920E-06-4.19496E-03-8.83302E-14 5.61462E-13
 -1      2487 2.00014E+01-4.60968E-03 3.00520E-06-3.37227E-03 1.93033E-13-2.00798E-14
 -1      2488 2.00013E+01-4.18492E-03 1.86512E-05-3.89791E-03 8.69100E-14-3.49153E-13
 -1      2489 2.00015E+01-4.84526E-03 4.13683E-06-2.17688E-03 1.50247E-13-4.87459E-15
 -1      2490 2.00015E+01-4.55712E-03 2.14615E-05-2.76013E-03 1.20890E-13 5.87419E-14
 -1      2491 2.00019E+01-2.18893E-03 4.28043E-06-3.19955E-03 1.58961E-13 2.05058E-14
 -1      2492 2.00004E+01-3.51656E-03 9.66540E-06-5.16999E-03-1.38757E-13-3.11909E-14
 -1      2493 1.99999E+01-2.85810E-03-1.34001E-05-5.29449E-03-9.20683E-14-4.35981E-14
 -1      2494 2.00011E+01-4.17768E-03 4.55422E-06-4.43326E-03-1.23303E-13-3.82924E-13
 -1      2495 2.00008E+01-3.63537E-03 9.81355E-06-4.80993E-03-1.36971E-13-8.66986E-14
 -1      2496 2.00008E+01-2.15234E-03-3.42859E-06-5.30197E-03-2.22527E-13-1.87784E-13
 -1      2497 2.00016E+01-2.24788E-03-1.57940E-06-4.38040E-03 1.46945E-13-1.79446E-13
 -1      2498 2.00015E+01-4.93637E-03 8.47357E-06-9.51929E-04-5.14591E-14 2.01862E-13
 -1      2499 2.00015E+01-4.78943E-03 1.91914E-05-1.55076E-03 4.67025E-14-1.38909E-13
 -1      2500 2.00021E+01-2.08003E-03 9.80701E-06-1.93422E-03 3.45420E-14-8.22457E-14
 -1      2501 2.00016E+01-4.92374E-03 1.45453E-05 2.74522E-04-3.30597E-13 1.09026E-14
 -1      2502 2.00015E+01-4.91874E-03 1.37507E-05-3.28561E-04-2.75057E-13 2.30159E-13
 -1      2503 2.00021E+01-2.00880E-03 1.29153E-05-6.65681E-04-6.80208E-14 6.15476E-15
 -1      2504 2.00016E+01-4.82037E-03 2.00515E-05 1.50871E-03-1.45101E-13 5.80692E-15
 -1      2505 2.00016E+01-4.95797E-03 7.89127E-06 9.02600E-04-2.84748E-13 5.88815E-14
 -1      2506 2.00021E+01-2.02462E-03 1.27086E-05 6.02340E-04-2.95485E-13 7.01162E-14
 -1      2507 2.00015E+01-4.60998E-03 2.24233E-05 2.72139E-03 1.66024E-13 8.51301E-14
 -1      2508 2.00015E+01-4.88822E-03 4.01831E-06 2.13673E-03 7.79962E-14 5.28669E-14
 -1      2509 2.00021E+01-2.12203E-03 9.65430E-06 1.87831E-03-3.82583E-14 2.01177E-13
 -1      2510 2.00013E+01-4.25249E-03 1.63828E-05 3.89349E-03 2.81886E-13-1.53451E-13
 -1      2511 2.00014E+01-4.67017E-03 3.70930E-06 3.35177E-03 1.74832E-13-2.21295E-13
 -1      2512 2.00020E+01-2.24984E-03 4.33771E-06 3.16313E-03 2.84252E-14-4.72427E-14
 -1      2513 2.00008E+01-3.70665E-03 2.35884E-06 4.83934E-03 2.12592E-13-2.25798E-13
 -1      2514 2.00011E+01-4.23324E-03 8.32528E-06 4.44070E-03 2.66025E-13-5.78226E-14
 -1      2515 2.00016E+01-2.31103E-03-6.95433E-06 4.38953E-03 7.45276E-14-1.63610E-13
 -1      2516 1.99999E+01-2.90753E-03-8.33280E-06 5.31011E-03-1.88883E-14-5.02041E-13
 -1      2517 2.00004E+01-3.55088E-03 8.76457E-06 5.20921E-03 2.26152E-13-2.93224E-13
 -1      2518 2.00009E+01-2.20597E-03-6.41756E-06 5.34035E-03-5.07194E-14-2.55125E-13
 -1      2519 1.95362E+01-5.38815E+00-1.57662E-02 6.38543E+00-1.16268E-13 1.22992E-14
 -1      2520 1.55579E+01-4.96938E+00 9.62711E-02 6.68363E+00-1.15685E-13 1.14353E-14
 -1      2521 1.99987E+01-2.51301E-03 7.51221E-06 4.81448E-03 2.43962E-15-1.38329E-13
 -1      2522 3.12502E+00-2.84086E+00 6.35609E-02-9.25919E-01 3.11123E-13 4.98102E-13
 -1      2523 4.01606E+00-3.25888E+00 5.94334E-02-3.03976E+00 2.24765E-13 4.27325E-13
 -1      2524 2.06190E+01 2.27151E-01 6.04068E-03-4.59415E-01 1.67880E-13 1.67042E-13
 -1      2525 2.05750E+01 2.78272E-01 1.28634E-02-3.36446E-01 2.16259E-13 2.05566E-13
 -1      2526 2.06449E+01 2.94978E-01-5.68320E-03-5.73277E-01 1.81836E-13 4.04967E-14
 -1      2527 4.20611E+00-2.99186E+00 3.61810E-02 3.39063E+00 4.51306E-14 4.41980E-13
 -1      2528 3.18474E+00-2.87235E+00 8.40836E-02 1.21905E+00 1.57173E-13 5.15532E-13
 -1      2529 5.85262E+00-3.91648E+00 4.69249E-02-4.57056E+00 1.40055E-13 3.76255E-13
 -1      2530 8.47362E+00-4.34845E+00 3.03255E-02-5.98742E+00 8.29892E-14 5.69433E-13
 -1      2531 2.08648E+01 2.00478E+00-1.15606E-02-1.50860E+00-3.82893E-13-2.89819E-13
 -1      2532 2.08040E+01 1.28246E+00-5.97862E-03-8.73472E-01-3.72587E-13-2.42150E-13
 -1      2533 2.07070E+01 1.49757E+00 5.38688E-03-7.58973E-01-3.33771E-13-2.97556E-13
 -1      2534 2.05470E+01 2.47379E+00-8.66399E-04-1.42481E+00-3.54241E-13-3.93879E-13
 -1      2535 2.67816E+01-4.01553E+00-6.06493E-02 3.24868E+00 1.47105E-14-1.06054E-13
 -1      2536 2.35315E+01-5.04792E+00 3.81255E-02 4.46870E+00-1.56361E-13-8.63060E-14
 -1      2537 3.17239E+01 6.99658E+00-1.67784E-01-4.87161E-01-7.22644E-13-3.87416E-13
 -1      2538 3.20145E+01 6.14513E+00-1.29957E-01-1.12329E+00-6.69076E-13-3.23602E-13
 -1      2539 1.52737E+01-5.20920E+00 9.19415E-02-6.75175E+00-3.08087E-13-3.10280E-13
 -1      2540 1.98411E+01-5.45514E+00-1.40812E-02-6.29123E+00-3.01315E-13-1.74336E-13
 -1      2541 1.90503E+01 3.95233E+00-9.36569E-03-1.63121E-01 8.80373E-14-5.73789E-13
 -1      2542 1.90970E+01 3.92481E+00-8.04554E-03-2.85778E-01 3.31210E-14-5.87366E-13
 -1      2543 1.92490E+01 3.58514E+00 1.64045E-03-2.85804E-01 2.15183E-14-5.54302E-13
 -1      2544 1.91506E+01 3.66709E+00 1.39611E-03-1.02764E-01 9.73965E-14-5.35537E-13
 -1      2545 2.39726E+01-4.98172E+00 3.15850E-02-4.58156E+00-1.94678E-13-1.47382E-14
 -1      2546 2.69147E+01-3.89683E+00-1.77204E-02-3.55038E+00-2.34257E-14 7.94920E-14
 -1      2547 3.19020E+01 7.15087E+00-1.39217E-01-5.24603E-01 6.57141E-13 1.41068E-14
 -1      2548 3.14536E+01 6.33567E+00-1.39055E-01-1.06089E+00 6.35436E-13-2.40363E-14
 -1      2549 3.27092E+01 6.73109E+00-8.59898E-02 5.98758E-01 6.12232E-13 6.90836E-14
 -1      2550 3.22551E+01 7.48229E+00-1.51600E-01 2.30193E-01 5.96190E-13 5.39083E-14
 -1      2551 3.16852E+01 3.28241E+00-1.11245E-01 6.42954E-01 4.81226E-13 2.08195E-13
 -1      2552 3.26060E+01 5.10217E+00-1.01232E-01 7.43495E-01 6.04850E-13 1.42303E-13
 -1      2553 4.55889E+00-2.58741E+00 9.70692E-02 2.79446E+00 9.81160E-15-8.80129E-13
 -1      2554 3.28062E+00-2.81665E+00 6.12084E-02 5.84794E-01 1.33921E-15-1.04472E-12
 -1      2555 8.21564E+00-3.83812E+00 1.04503E-01-5.67527E+00-3.14332E-13-7.00939E-13
 -1      2556 1.10167E+01-4.48767E+00 1.17660E-02-6.82850E+00-2.84855E-13-4.86722E-13
 -1      2557 3.00427E+01-1.44877E+00-4.58495E-02-7.02722E-01-1.86153E-13-6.05960E-13
 -1      2558 3.14364E+01 4.17145E-01-1.66967E-01 2.83301E-01-2.90323E-13-6.13065E-13
 -1      2559 3.67829E+00-2.84122E+00 6.91066E-02-1.73933E+00-1.31922E-13-9.83824E-13
 -1      2560 5.69307E+00-2.87911E+00 9.73178E-02-4.27871E+00-2.00034E-13-8.98781E-13
 -1      2561 5.72909E+00-1.45256E+00 1.93175E-01-8.59644E-01-5.03590E-14-9.23900E-13
 -1      2562 1.08880E+01-4.56520E+00 5.02470E-02 6.64188E+00-1.59039E-13-5.27106E-13
 -1      2563 7.48951E+00-3.60111E+00 1.13528E-01 5.17825E+00 1.42664E-14-6.60527E-13
 -1      2564 1.89503E+01-5.57583E+00-1.95798E-02 6.57022E+00-3.02813E-13-4.65662E-13
 -1      2565 1.49556E+01-5.46503E+00 4.24308E-02 6.65756E+00-2.40807E-13-4.67223E-13
 -1      2566 2.60623E+01-4.56059E+00-1.04613E-01 3.96822E+00-3.14915E-13-3.41949E-13
 -1      2567 2.25288E+01-5.39456E+00 7.99785E-03 5.15019E+00-2.96763E-13-3.97404E-13
 -1      2568 3.05521E+01-1.08403E+00-1.83101E-01 4.32894E-01-4.97061E-13-1.89931E-13
 -1      2569 2.87658E+01-2.87894E+00-3.27528E-03 1.75529E+00-3.90223E-13-2.78610E-13
 -1      2570 3.16632E+01 3.99446E+00-2.07828E-01-1.38124E+00-5.96412E-13-2.79193E-13
 -1      2571 3.11145E+01 1.67908E+00-9.87004E-02-1.17488E+00-5.24109E-13-2.12053E-13
 -1      2572 3.12278E+01 6.25733E+00-1.75432E-01 1.20448E+00-6.70020E-13-5.63230E-13
 -1      2573 3.11117E+01 6.74775E+00-2.24028E-01 3.91970E-01-7.18980E-13-4.85282E-13
 -1      2574 3.17488E+01 2.85700E+00-9.36668E-02 1.32984E+00-3.95239E-13-6.12593E-13
 -1      2575 3.17525E+01 4.94505E+00-1.78845E-01 1.52256E+00-5.56555E-13-6.68576E-13
 -1      2576 2.54128E+01-4.60507E+00-3.45519E-02-3.82818E+00 2.70839E-13-3.33289E-13
 -1      2577 2.80426E+01-3.50368E+00-1.14870E-01-2.54626E+00 5.77871E-14-5.14866E-13
 -1      2578 1.95195E+01-5.61858E+00 2.31779E-02-5.89689E+00 2.39531E-13-1.44260E-13
 -1      2579 2.29276E+01-5.17147E+00-2.27938E-02-5.29426E+00 2.54324E-13-3.14790E-13
 -1      2580 2.48444E+01-5.22062E+00 6.45630E-02-3.75645E+00 3.82139E-13-4.35485E-13
 -1      2581 1.18788E+01-5.09137E+00 4.10343E-02-6.45643E+00 2.25098E-13 4.06647E-13
 -1      2582 1.54621E+01-5.33642E+00-7.71380E-03-6.83852E+00 2.13385E-13 1.74312E-13
 -1      2583 3.01045E+01-5.92547E-01-1.58155E-01 3.59280E-01 3.14464E-13-1.34059E-13
 -1      2584 2.85570E+01-2.24093E+00-6.79790E-02 1.46194E+00 1.97155E-13-1.29230E-13
 -1      2585 2.75635E+01-3.45115E+00 4.81796E-03 1.27532E+00-5.05845E-15-1.00961E-13
 -1      2586 2.94652E+01 3.49194E-01-2.42478E-02-1.18844E+00 3.39034E-13-1.12216E-13
 -1      2587 2.09279E+01 8.98701E-01-4.17986E-03 9.02894E-01 3.91749E-13 3.75609E-13
 -1      2588 2.12072E+01 1.26546E+00-4.97970E-03 1.41639E+00 4.12562E-13 4.45120E-13
 -1      2589 2.09932E+01 1.72838E+00-1.57839E-02 1.58064E+00 4.50864E-13 2.79178E-13
 -1      2590 2.08529E+01 1.10543E+00-1.00258E-02 8.49006E-01 4.03143E-13 1.60300E-13
 -1      2591 2.80215E+01-3.22852E+00-6.65505E-02-1.72173E+00-6.41501E-14 1.57430E-13
 -1      2592 1.97624E+01 3.10322E+00 2.61801E-03-6.98440E-01-1.51120E-13-5.31945E-13
 -1      2593 1.97013E+01 3.37220E+00-1.77179E-02-9.03897E-01-1.72816E-13-5.70133E-13
 -1      2594 1.98954E+01 3.19879E+00-1.75341E-02-1.07553E+00-2.36828E-13-5.42325E-13
 -1      2595 7.45062E+00-2.15669E+00 1.62236E-01 4.18096E+00-1.56070E-13 2.88075E-13
 -1      2596 1.40667E+01-4.14730E+00 1.14801E-01 6.49220E+00-2.21045E-13 6.06321E-14
 -1      2597 1.28707E+01-2.85937E+00 1.35102E-01 5.88925E+00-3.07809E-13 6.49064E-14
 -1      2598 1.69334E+01-4.22750E+00 4.25519E-02 5.99553E+00-2.91017E-13-3.11348E-14
 -1      2599 2.07229E+01 2.15099E+00-1.27167E-02 1.50782E+00 4.66386E-13 7.51760E-14
 -1      2600 3.03960E+01 1.16979E+00-3.63118E-02 1.63809E+00-2.87603E-13-6.56475E-13
 -1      2601 2.95026E+01 4.82524E+00-6.54975E-02 1.75661E+00-5.52308E-13-4.89123E-13
 -1      2602 2.98158E+01 4.51853E+00-3.22513E-02-1.98997E+00-5.82645E-13-3.63043E-14
 -1      2603 6.70479E+00-2.50100E+00 1.39249E-01-3.89609E+00 2.05599E-13 5.52003E-13
 -1      2604 2.98729E+01-9.39596E-02-3.96879E-02-1.19313E+00-3.97939E-13-1.04472E-13
 -1      2605 1.99984E+01-1.93818E-03-1.74997E-05-5.03278E-03-2.27750E-13 3.78129E-13
 -1      2606 1.99990E+01-2.39903E-03 1.14853E-05-5.26337E-03-2.63838E-13 1.93878E-13
 -1      2607 2.74407E+01-4.12814E+00 3.04091E-02 2.14339E+00-2.17049E-13-1.83631E-13
 -1      2608 2.07113E+01 1.88122E+00 1.19428E-02 1.15768E+00 4.37914E-13 2.18991E-14
 -1      2609 2.25328E+01-5.19256E+00 4.78424E-02 4.74285E+00-2.57211E-13-1.31117E-13
 -1      2610 1.99982E+01-1.50201E-03-1.64273E-05 5.21547E-03-1.25269E-13-1.57860E-13
 -1      2611 1.99993E+01-2.53463E-03-9.62770E-06 5.51194E-03-5.54626E-14-4.66582E-13
 -1      2612 1.99996E+01-1.66854E-03 2.05920E-05 5.80233E-03-1.86314E-13-4.12108E-13
 -1      2613 1.99977E+01-9.74285E-04 1.19228E-05 5.62328E-03-1.68210E-13-1.48524E-13
 -1      2614 2.18937E+01-5.54256E+00 8.56818E-02 5.30646E+00-9.61731E-14-2.81289E-13
 -1      2615 4.75523E+00-1.76826E+00 1.44858E-01 5.35048E-02 2.04293E-13 4.62297E-13
 -1      2616 2.06226E+01 4.45895E-01-5.33291E-03-2.38801E-01 2.55651E-13 5.87330E-14
 -1      2617 1.18097E+01-4.05344E+00 1.22597E-01-6.20680E+00 1.95260E-13 3.65513E-13
 -1      2618 2.87798E+01-2.97894E+00 1.24516E-02-8.07664E-01 1.06304E-14-5.47867E-13
 -1      2619 1.88997E+01-5.35137E+00 9.05913E-02-6.02960E+00 4.01623E-13-1.78062E-13
 -1      2620 2.93815E+01 6.29096E+00-7.94781E-02 1.75549E-02-5.99576E-13-2.33060E-13
 -1      2621 8.51739E+00-2.54047E+00 1.72365E-01-4.82722E+00-3.07990E-13-7.42684E-13
 -1      2622 7.21204E+00-2.49734E+00 1.46617E-01 4.11347E+00 8.06855E-14-7.13984E-13
 -1      2623 7.32861E+00-1.25475E+00 1.12563E-01 2.89011E+00 1.01814E-13-7.48068E-13
 -1      2624 1.01220E+01-2.24770E+00 1.14203E-01 4.96245E+00 1.73819E-13-5.82728E-13
 -1      2625 3.08964E+01 1.48313E+00-8.84150E-02 7.02631E-01 3.42795E-13 2.32786E-13
 -1      2626 2.94727E+01 2.21253E+00-1.30219E-01 1.77535E+00 3.46861E-13 3.61405E-13
 -1      2627 2.95247E+01-6.11910E-02-1.63969E-02 6.90411E-01 1.93068E-13 2.81414E-13
 -1      2628 3.04355E+01 5.54337E+00-7.51397E-02 1.33199E+00 5.01155E-13 2.17687E-13
 -1      2629 2.08022E+01-5.12636E+00 9.01030E-02-5.49522E+00-4.05634E-13-3.18114E-14
 -1      2630 2.24405E+01-5.37381E+00 5.44235E-02-5.16861E+00-3.17302E-13-6.44762E-14
 -1      2631 2.42077E+01-5.13128E+00-4.31535E-02-3.77536E+00-3.23887E-13 1.15546E-13
 -1      2632 1.48232E+01-4.39251E+00 1.44444E-01-6.55571E+00-3.93102E-13-3.32984E-13
 -1      2633 2.02959E+01 2.72794E+00-8.65147E-03-1.26181E+00-3.06142E-13-4.68034E-13
 -1      2634 2.95584E+01 4.56152E+00-1.02776E-01-1.71666E+00 4.77840E-13-7.03326E-14
 -1      2635 2.99531E+01 6.94596E+00-8.95067E-02-2.23266E-01 5.77316E-13 1.09961E-13
 -1      2636 1.46054E+01-4.57184E+00 1.07086E-01 6.45180E+00-1.38223E-14-4.92412E-13
 -1      2637 1.99992E+01-1.66245E-03-2.39118E-06-5.71055E-03-3.42253E-13 2.89778E-13
 -1      2638 1.99988E+01-8.59733E-04-4.48218E-05 5.96364E-03-2.28949E-13-3.13786E-13
 -1      2639 1.93773E+01 3.20748E+00-4.75498E-03 2.39739E-01 2.52903E-13-4.40599E-13
 -1      2640 1.92895E+01 3.28040E+00-6.88571E-03 1.48131E-01 2.12979E-13-4.67252E-13
 -1      2641 1.92272E+01 3.34691E+00-4.80519E-03 9.05756E-02 1.83496E-13-4.88102E-13
 -1      2642 1.91915E+01 3.37520E+00-6.02143E-03 5.61863E-03 1.43797E-13-4.84166E-13
 -1      2643 1.93392E+01 3.04648E+00 5.36176E-03 6.67726E-02 1.83356E-13-4.48085E-13
 -1      2644 1.99519E+01 2.59613E+00-8.33035E-03 5.93518E-01 3.83728E-13-2.89683E-13
 -1      2645 1.97798E+01 2.78272E+00-8.22223E-03 4.84587E-01 3.52819E-13-3.39355E-13
 -1      2646 2.03405E+01 2.08571E+00-9.65996E-03 7.55296E-01 4.10202E-13-1.73522E-13
 -1      2647 2.01407E+01 2.36077E+00-6.74194E-03 6.65282E-01 3.89263E-13-2.35686E-13
 -1      2648 2.01370E+01 2.16529E+00 6.32690E-03 4.23715E-01 3.58113E-13-2.37441E-13
 -1      2649 2.39124E+01-4.91807E+00-5.70020E-02 3.48384E+00-2.81532E-13-1.55305E-13
 -1      2650 2.08688E+01-4.85337E+00 7.80442E-02 5.02954E+00-3.01717E-13-1.56977E-13
 -1      2651 2.06388E+01 8.60477E-01-6.77449E-04 1.25695E-01 3.11278E-13-1.62130E-14
 -1      2652 2.07184E+01 1.06567E+00 9.36082E-03 4.29427E-01 3.45346E-13 6.54289E-16
 -1      2653 9.48268E+00-1.55986E+00 1.00260E-01 4.39057E+00-3.22575E-13 3.95795E-14
 -1      2654 7.25475E+00-1.00064E+00 1.99975E-01 2.76032E+00-9.93372E-14 1.58429E-13
 -1      2655 2.06390E+01 1.59651E+00-8.61609E-04 8.31976E-01 4.07516E-13-3.25543E-14
 -1      2656 2.90803E+01-4.85384E-01-6.17181E-02 1.80602E+00-2.00770E-13-6.70936E-13
 -1      2657 2.87276E+01 1.49512E+00-1.70915E-01 2.45713E+00-3.06546E-13-6.31051E-13
 -1      2658 2.05481E+01 8.97742E-01 6.50882E-03 2.61792E-01-1.93246E-13-2.47419E-13
 -1      2659 2.05294E+01 7.76476E-01 3.84925E-04 4.94352E-01-1.70248E-13-2.36277E-13
 -1      2660 2.05144E+01 6.85707E-01 5.03747E-03 6.99448E-01-1.54249E-13-2.02434E-13
 -1      2661 2.05342E+01 6.10814E-01 1.85805E-03 8.81794E-01-1.23777E-13-2.10340E-13
 -1      2662 2.03953E+01 9.10089E-01-1.83664E-03 5.89254E-01-1.67748E-13-2.31719E-13
 -1      2663 2.05266E+01 5.49412E-01 3.29894E-03 1.05432E+00-1.08746E-13-1.94057E-13
 -1      2664 2.05864E+01 4.90512E-01 2.79265E-03 1.20106E+00-8.48819E-14-2.03494E-13
 -1      2665 2.03618E+01 7.23429E-01-2.42774E-03 9.81230E-01-1.19143E-13-1.88555E-13
 -1      2666 2.05978E+01 4.30536E-01 2.58152E-03 1.34871E+00-6.07385E-14-2.05767E-13
 -1      2667 2.06978E+01 3.60487E-01 3.14051E-03 1.46405E+00-3.24446E-14-1.90859E-13
 -1      2668 2.03580E+01 5.75135E-01-3.00834E-03 1.31366E+00-7.06766E-14-2.00630E-13
 -1      2669 2.07437E+01 2.75688E-01 3.35477E-03 1.58844E+00-1.24788E-14-1.89499E-13
 -1      2670 2.08886E+01 1.65617E-01 2.85463E-03 1.66588E+00-7.64501E-15-1.93152E-13
 -1      2671 2.04048E+01 4.02516E-01-4.47483E-03 1.59816E+00-3.79314E-14-1.88030E-13
 -1      2672 2.09952E+01 2.74144E-02 6.14121E-03 1.75955E+00-9.96469E-15-1.97350E-13
 -1      2673 2.11969E+01-1.54141E-01 1.62252E-03 1.78066E+00-8.10371E-15-2.01319E-13
 -1      2674 2.05364E+01 1.38887E-01-7.76948E-03 1.83289E+00-6.90501E-15-1.92803E-13
 -1      2675 2.14075E+01-3.73889E-01 1.17828E-02 1.82197E+00 1.78020E-14-1.47968E-13
 -1      2676 2.16829E+01-6.53591E-01-1.28495E-03 1.75478E+00 3.52272E-14-1.10589E-13
 -1      2677 2.08138E+01-2.88503E-01-1.37555E-02 1.99575E+00 4.85971E-14-1.14201E-13
 -1      2678 2.20580E+01-9.66102E-01 2.08845E-02 1.69823E+00 2.63855E-14-3.67805E-14
 -1      2679 2.24257E+01-1.33994E+00-5.10602E-03 1.49734E+00 3.63780E-14-1.93873E-14
 -1      2680 2.13343E+01-9.42295E-01-2.27412E-02 2.02841E+00 9.32578E-14-6.40737E-14
 -1      2681 2.30157E+01-1.70066E+00 3.08938E-02 1.27610E+00-1.56559E-16 6.69717E-14
 -1      2682 2.34597E+01-2.07252E+00-1.01666E-02 9.10987E-01 2.28376E-14 7.44389E-14
 -1      2683 2.21790E+01-1.80947E+00-4.39884E-02 1.81087E+00 5.99941E-14 6.98747E-15
 -1      2684 2.43169E+01-2.34809E+00 4.10793E-02 3.69056E-01 7.53304E-14 7.69788E-14
 -1      2685 2.46757E+01-2.48576E+00-3.59042E-02-1.92299E-01 6.75042E-14 1.00666E-13
 -1      2686 2.36453E+01-2.71719E+00-4.74888E-02 1.17633E+00 3.12779E-14 1.46270E-13
 -1      2687 2.55598E+01-2.28517E+00 2.93315E-03-9.44170E-01 9.34339E-14 1.31051E-13
 -1      2688 2.57961E+01-1.79492E+00-3.43697E-02-1.49500E+00 5.90318E-14 1.57651E-13
 -1      2689 2.51799E+01-2.96088E+00-5.69132E-02-1.84752E-02 8.16647E-14 1.35759E-13
 -1      2690 2.71565E+01 1.70183E+00-1.31180E-01-2.48636E+00-4.18984E-13 9.93997E-14
 -1      2691 2.68851E+01 3.19421E+00-1.13968E-01-1.88011E+00-4.80088E-13 2.96655E-14
 -1      2692 2.63320E+01 4.79641E+00-1.29011E-01-1.57277E-01-4.31821E-13-1.75904E-13
 -1      2693 2.64246E+01 4.46993E+00-1.38875E-01 1.09318E+00-3.48235E-13-2.98555E-13
 -1      2694 2.65315E+01 3.56900E+00-1.37883E-01 1.97402E+00-3.80806E-13-3.70523E-13
 -1      2695 2.65351E+01 8.63414E-01-3.43170E-02 2.49812E+00-1.98425E-13-4.96927E-13
 -1      2696 2.66189E+01-5.35841E-01-7.80100E-02 2.39292E+00-2.05211E-13-5.23815E-13
 -1      2697 2.60528E+01-1.71077E+00-2.99631E-02 1.70053E+00-1.61308E-13-4.97260E-13
 -1      2698 2.58367E+01-2.33647E+00-5.89804E-03 1.12578E+00-3.90235E-14-4.99834E-13
 -1      2699 2.72903E+01-1.54206E+00-5.03111E-02 1.74971E+00-1.22784E-13-5.78544E-13
 -1      2700 2.48860E+01-2.55714E+00-1.86527E-02 3.04835E-01 1.12800E-13-4.11639E-13
 -1      2701 2.44751E+01-2.47723E+00 3.06580E-02-2.53734E-01 2.78548E-13-3.72670E-13
 -1      2702 2.55988E+01-3.11034E+00-2.63260E-02 1.06807E-01 6.73177E-14-4.03923E-13
 -1      2703 2.35714E+01-2.19930E+00-1.49825E-02-7.73307E-01 2.59378E-13-4.57305E-13
 -1      2704 2.31369E+01-1.82316E+00 3.23007E-02-1.15777E+00 1.97833E-13-5.51490E-13
 -1      2705 2.36400E+01-2.94532E+00-4.74352E-02-1.20333E+00 1.93656E-13-4.91010E-13
 -1      2706 2.24827E+01-1.42065E+00-5.45194E-03-1.38018E+00 1.58347E-13-4.64235E-13
 -1      2707 2.21130E+01-1.03798E+00 2.29489E-02-1.58397E+00 1.28045E-13-3.71911E-13
 -1      2708 2.21499E+01-1.99563E+00-3.87756E-02-1.82746E+00 2.23462E-13-5.48018E-13
 -1      2709 2.17098E+01-6.94330E-01 6.00498E-04-1.62599E+00 8.80444E-14-3.10196E-13
 -1      2710 2.14276E+01-4.07048E-01 1.36452E-02-1.69565E+00 1.31771E-14-2.60013E-13
 -1      2711 2.11820E+01-1.04110E+00-2.70188E-02-1.99179E+00 1.74501E-13-4.87811E-13
 -1      2712 2.12059E+01-1.70906E-01 3.39013E-03-1.64455E+00-1.20236E-13-2.61462E-13
 -1      2713 2.09984E+01 8.73716E-03 6.84953E-03-1.62931E+00-8.74311E-14-2.46097E-13
 -1      2714 2.06307E+01-3.29844E-01-1.58335E-02-1.91849E+00-1.48964E-14-4.07106E-13
 -1      2715 2.08869E+01 1.48020E-01 4.20767E-03-1.53699E+00-7.23161E-14-2.15979E-13
 -1      2716 2.07326E+01 2.43162E-01 2.64860E-03-1.47386E+00-3.61922E-14-3.13869E-13
 -1      2717 2.03453E+01 1.16083E-01-8.42706E-03-1.74060E+00-1.19546E-13-2.89584E-13
 -1      2718 2.06812E+01 3.12105E-01 4.36579E-03-1.36673E+00-6.44186E-14-4.03534E-13
 -1      2719 2.05620E+01 3.50429E-01 3.77584E-04-1.28107E+00-6.82000E-14-4.69953E-13
 -1      2720 2.02090E+01 3.56601E-01-4.11364E-03-1.52372E+00-1.89570E-13-2.86915E-13
 -1      2721 2.05403E+01 3.74158E-01 4.27411E-03-1.17299E+00-1.30618E-13-6.14967E-13
 -1      2722 2.04447E+01 3.78297E-01-6.81065E-04-1.08097E+00-2.43424E-13-8.07909E-13
 -1      2723 2.01486E+01 4.58400E-01-1.91360E-03-1.29989E+00-2.54783E-13-4.90644E-13
 -1      2724 2.04358E+01 3.75716E-01 4.05272E-03-9.79290E-01-1.80586E-13-7.05704E-13
 -1      2725 2.03572E+01 3.61470E-01-1.05122E-03-8.90499E-01-1.06349E-13-6.75081E-13
 -1      2726 2.01224E+01 4.75548E-01-9.37551E-04-1.08561E+00-1.64616E-13-3.55708E-13
 -1      2727 2.03528E+01 3.45250E-01 3.73791E-03-7.98999E-01-5.56286E-14-6.27934E-13
 -1      2728 2.02876E+01 3.22660E-01-1.07050E-03-7.18587E-01-8.10505E-14-5.67653E-13
 -1      2729 2.01091E+01 4.45971E-01-5.84997E-04-8.89603E-01-2.22498E-14-1.86093E-13
 -1      2730 2.02841E+01 3.00660E-01 3.35566E-03-6.38883E-01 6.78313E-14-5.73362E-13
 -1      2731 2.02300E+01 2.75650E-01-9.36412E-04-5.69095E-01 8.87249E-14-3.85936E-13
 -1      2732 2.00993E+01 3.94128E-01-5.06227E-04-7.16188E-01 4.55387E-14-1.65046E-13
 -1      2733 2.02262E+01 2.52431E-01 2.93582E-03-5.01452E-01-2.60912E-14-4.04890E-13
 -1      2734 2.01818E+01 2.28239E-01-7.54651E-04-4.42755E-01 1.42044E-14-2.77692E-13
 -1      2735 2.00893E+01 3.34771E-01-5.19349E-04-5.66837E-01 4.64485E-14-2.98962E-13
 -1      2736 2.01775E+01 2.06249E-01 2.50787E-03-3.86604E-01 5.09023E-14-2.73525E-13
 -1      2737 2.01416E+01 1.84460E-01-5.76385E-04-3.38443E-01 2.39389E-14-2.10688E-13
 -1      2738 2.00785E+01 2.76208E-01-5.41605E-04-4.41139E-01 6.35477E-14-2.64865E-13
 -1      2739 2.01371E+01 1.64865E-01 2.09593E-03-2.92733E-01-2.63494E-14-2.40456E-13
 -1      2740 2.01085E+01 1.46098E-01-4.22647E-04-2.54032E-01 4.78269E-14-2.22755E-13
 -1      2741 2.00672E+01 2.22700E-01-5.43164E-04-3.37484E-01-2.53083E-14-2.60273E-13
 -1      2742 2.01040E+01 1.29317E-01 1.71677E-03-2.17481E-01 6.42697E-14-2.28671E-13
 -1      2743 2.00816E+01 1.13651E-01-2.99048E-04-1.86951E-01 4.81810E-14-2.51627E-13
 -1      2744 2.00561E+01 1.76077E-01-5.19374E-04-2.53580E-01 4.91980E-14-2.98476E-13
 -1      2745 2.00774E+01 9.96872E-02 1.38000E-03-1.58212E-01 4.59604E-14-1.57266E-13
 -1      2746 2.00601E+01 8.69209E-02-2.04088E-04-1.34538E-01 6.98377E-14-1.47698E-13
 -1      2747 2.00458E+01 1.36775E-01-4.75609E-04-1.86831E-01 4.66814E-14-2.82563E-13
 -1      2748 2.00564E+01 7.55628E-02 1.08951E-03-1.12311E-01 2.16718E-14-8.94860E-14
 -1      2749 2.00434E+01 6.53668E-02-1.33554E-04-9.42588E-02 1.51305E-13-8.32189E-14
 -1      2750 2.00365E+01 1.04469E-01-4.19767E-04-1.34606E-01 9.88942E-14-1.39558E-13
 -1      2751 2.00401E+01 5.63043E-02 8.45029E-04-7.73479E-02 3.31246E-13-1.64114E-13
 -1      2752 2.00305E+01 4.83048E-02-8.26913E-05-6.38150E-02 3.68939E-13-7.17688E-14
 -1      2753 2.00285E+01 7.84582E-02-3.59016E-04-9.44117E-02 1.49839E-13-1.87718E-15
 -1      2754 2.00278E+01 4.11971E-02 6.43660E-04-5.11673E-02 2.52387E-13-1.03069E-13
 -1      2755 2.00209E+01 3.50229E-02-4.71606E-05-4.12041E-02 9.19900E-14 7.71397E-14
 -1      2756 2.00218E+01 5.78937E-02-2.98721E-04-6.39878E-02 1.89201E-13-4.08904E-13
 -1      2757 2.00187E+01 2.95342E-02 4.81018E-04-3.19181E-02-7.76416E-14 6.78253E-14
 -1      2758 2.00138E+01 2.48399E-02-2.33415E-05-2.47309E-02-2.98991E-13 1.36088E-13
 -1      2759 2.00164E+01 4.19000E-02-2.42374E-04-4.13610E-02-8.33444E-15-2.58046E-13
 -1      2760 2.00120E+01 2.06585E-02 3.52107E-04-1.80560E-02-4.60469E-13 2.36096E-13
 -1      2761 2.00087E+01 1.71338E-02-8.42032E-06-1.29985E-02-2.75077E-13 2.28040E-13
 -1      2762 2.00120E+01 2.96445E-02-1.91918E-04-2.48578E-02-3.02104E-13-7.09125E-14
 -1      2763 2.00074E+01 1.39779E-02 2.51992E-04-8.32552E-03-2.36549E-13 1.83622E-13
 -1      2764 2.00052E+01 1.13485E-02-5.06733E-07-4.88641E-03-1.49052E-13 5.23648E-14
 -1      2765 2.00086E+01 2.03671E-02-1.48393E-04-1.30959E-02-3.84080E-13 2.48824E-13
 -1      2766 2.00042E+01 8.96724E-03 1.76231E-04-1.73736E-03-1.00787E-13 1.89137E-16
 -1      2767 2.00028E+01 6.99483E-03 2.44202E-06 4.73894E-04 5.70188E-15-6.98266E-14
 -1      2768 2.00059E+01 1.33859E-02-1.12294E-04-4.96519E-03-2.19642E-13 3.06959E-14
 -1      2769 2.00020E+01 5.17039E-03 1.20193E-04 2.46661E-03 7.82607E-14-2.07118E-13
 -1      2770 2.00013E+01 3.64567E-03 2.92940E-06 3.73744E-03 1.48785E-13-1.62424E-13
 -1      2771 2.00039E+01 8.11221E-03-8.21168E-05 3.95432E-04-2.45025E-14 6.12858E-15
 -1      2772 2.00007E+01 2.16067E-03 7.63813E-05 4.84342E-03-4.08935E-14-3.11936E-13
 -1      2773 2.00004E+01 9.17367E-04 2.03166E-06 5.36966E-03-2.17603E-13-4.28026E-13
 -1      2774 2.00024E+01 4.01706E-03-6.17000E-05 3.64474E-03-1.53141E-13-4.80019E-13
 -1      2775 2.09074E+01 1.13728E-01 3.34140E-04-1.05928E+00 1.07816E-13-1.50616E-14
 -1      2776 2.07966E+01 1.90950E-01 4.86531E-03-1.00143E+00 1.08770E-13-1.12326E-14
 -1      2777 2.34201E+01-5.45543E+00-8.56103E-02 4.30330E+00-6.01325E-14-1.79391E-13
 -1      2778 2.06882E+01-5.17811E+00 1.06638E-01 5.33067E+00-2.31204E-14-2.37197E-13
 -1      2779 2.07355E+01 2.58486E-01 1.31040E-03-9.04012E-01 1.14271E-13-4.36568E-14
 -1      2780 2.06627E+01 3.28555E-01 5.78199E-03-8.02428E-01 1.48431E-13-1.04767E-14
 -1      2781 2.06400E+01 2.92285E-01-4.91548E-03-1.01883E+00 1.22637E-13-6.50583E-14
 -1      2782 2.14710E+01-3.16129E-01-4.68320E-03-1.06567E+00 4.19157E-14-3.15978E-14
 -1      2783 2.13070E+01-1.80585E-01 6.62892E-03-1.12195E+00 6.70876E-14-4.01265E-14
 -1      2784 2.18678E+01-6.27559E-01-8.74109E-03-8.53437E-01 7.97157E-14-3.29685E-14
 -1      2785 2.16917E+01-4.59701E-01 8.73289E-03-9.91839E-01 7.34422E-14-1.62067E-15
 -1      2786 2.13767E+01-4.80091E-01-8.89401E-03-1.19953E+00 4.64264E-14-6.91161E-14
 -1      2787 2.23285E+01-9.62295E-01-1.30201E-02-4.46016E-01 5.43602E-14 1.09604E-14
 -1      2788 2.21586E+01-7.90534E-01 1.04470E-02-6.79453E-01 6.61869E-14-2.73154E-14
 -1      2789 2.18525E+01-8.82397E-01-1.02004E-02-9.70408E-01 6.07489E-14-3.83811E-14
 -1      2790 2.28050E+01-1.20412E+00-1.48139E-02 1.70068E-01 1.44602E-14 6.69891E-14
 -1      2791 2.26718E+01-1.09991E+00 9.59519E-03-1.50448E-01 3.54739E-14 6.08810E-14
 -1      2792 2.24529E+01-1.28764E+00-8.92155E-03-5.17418E-01 2.20120E-14 3.01125E-14
 -1      2793 2.31920E+01-1.14961E+00-1.05269E-02 9.26018E-01 2.77799E-14 1.21303E-13
 -1      2794 2.31354E+01-1.22669E+00 2.92372E-03 5.75655E-01 1.95900E-14 1.07036E-13
 -1      2795 2.31140E+01-1.52157E+00-1.95706E-03 1.83601E-01-1.25930E-15 1.15630E-13
 -1      2796 2.33479E+01-5.82233E-01 2.38260E-03 1.60348E+00-5.64089E-15 1.82120E-13
 -1      2797 2.33916E+01-9.45221E-01-1.36645E-02 1.35001E+00-2.26694E-14 1.54234E-13
 -1      2798 2.36766E+01-1.31163E+00 9.40252E-03 1.04966E+00-1.79308E-14 2.19511E-13
 -1      2799 2.31841E+01 5.07009E-01 1.77025E-02 1.81490E+00 1.21533E-13 2.57317E-13
 -1      2800 2.32996E+01-9.98400E-02-3.55647E-02 1.83483E+00 4.72437E-14 2.57129E-13
 -1      2801 2.39060E+01-4.30618E-01 9.01517E-03 1.79424E+00 3.34281E-15 2.76708E-13
 -1      2802 2.28081E+01 1.66674E+00 1.37166E-02 1.23834E+00 2.52924E-13 2.90299E-13
 -1      2803 2.29241E+01 1.10381E+00-4.54429E-02 1.62157E+00 2.22083E-13 3.70117E-13
 -1      2804 2.36994E+01 9.44870E-01-9.50206E-04 1.92294E+00 1.16545E-13 3.86167E-13
 -1      2805 2.25841E+01 2.18312E+00-1.08168E-02-1.04584E-02 2.28820E-13 1.88686E-13
 -1      2806 2.26298E+01 2.04446E+00-1.90725E-02 6.02659E-01 2.60465E-13 1.99529E-13
 -1      2807 2.33598E+01 2.27509E+00-2.63685E-02 1.04259E+00 2.88245E-13 2.65319E-13
 -1      2808 2.27573E+01 1.64621E+00-4.07722E-02-1.28816E+00 1.49566E-13 5.30630E-14
 -1      2809 2.26791E+01 2.03807E+00 6.26678E-03-7.79721E-01 2.19602E-13 1.54314E-13
 -1      2810 2.32730E+01 2.66571E+00-1.89619E-02-4.68868E-01 2.74732E-13 1.94441E-13
 -1      2811 2.31900E+01 4.83932E-01-3.73220E-02-1.95824E+00-4.32922E-15-6.64399E-16
 -1      2812 2.30268E+01 1.13117E+00 2.04962E-02-1.75762E+00 9.91429E-14 3.91718E-14
 -1      2813 2.35406E+01 1.81308E+00-4.57873E-03-1.72477E+00 1.67193E-13-4.87284E-15
 -1      2814 2.34428E+01-5.68629E-01-2.28081E-02-1.75503E+00 6.86083E-15-1.89989E-13
 -1      2815 2.33529E+01-8.36443E-02 1.20652E-02-1.88141E+00-2.38776E-14-7.66453E-14
 -1      2816 2.38889E+01 1.25483E-01-6.33288E-03-2.04159E+00 3.68898E-14-1.37151E-13
 -1      2817 2.33787E+01-1.12952E+00-3.31952E-03-1.09506E+00 4.31864E-14-2.08674E-13
 -1      2818 2.33740E+01-9.14993E-01-2.61266E-03-1.41505E+00 4.07946E-14-1.53811E-13
 -1      2819 2.38717E+01-9.13835E-01 1.63962E-02-1.58628E+00 3.64650E-14-2.50937E-13
 -1      2820 2.30077E+01-1.16500E+00 7.13645E-03-3.28863E-01-5.63622E-16-1.37427E-13
 -1      2821 2.30930E+01-1.20043E+00-1.51384E-02-6.66062E-01 7.06570E-14-1.68271E-13
 -1      2822 2.34612E+01-1.47029E+00-7.60409E-04-7.37869E-01 3.52655E-14-1.25562E-13
 -1      2823 2.25233E+01-9.20036E-01 1.05328E-02 2.85983E-01 1.85157E-14 1.10341E-14
 -1      2824 2.26646E+01-1.06974E+00-1.47272E-02 1.47038E-02-1.07895E-14-8.44795E-14
 -1      2825 2.28288E+01-1.39667E+00-6.67250E-03 4.63311E-02-2.56058E-14-1.25041E-13
 -1      2826 2.20443E+01-5.91648E-01 9.54325E-03 6.88937E-01 1.07917E-13-1.41863E-13
 -1      2827 2.22061E+01-7.63619E-01-1.12067E-02 5.10690E-01 1.07787E-13 8.76919E-15
 -1      2828 2.21971E+01-1.05041E+00-9.58414E-03 6.05122E-01 8.06986E-14 4.23821E-14
 -1      2829 2.16290E+01-2.95602E-01 6.96680E-03 8.97892E-01 1.62968E-14-2.25993E-13
 -1      2830 2.17896E+01-4.40670E-01-6.91618E-03 8.05187E-01 7.81536E-14-1.90451E-13
 -1      2831 2.16618E+01-6.42896E-01-8.98333E-03 9.29338E-01 1.38619E-13 1.42824E-14
 -1      2832 2.12903E+01-7.58149E-02 4.43373E-03 9.62099E-01-1.20798E-14-7.80985E-14
 -1      2833 2.14392E+01-1.78773E-01-3.29599E-03 9.34349E-01 1.09688E-14-1.56620E-13
 -1      2834 2.12496E+01-2.94717E-01-6.89840E-03 1.06620E+00-2.10273E-15-1.82748E-14
 -1      2835 2.10200E+01 6.57043E-02 2.50921E-03 9.31469E-01 3.23142E-14 4.23036E-14
 -1      2836 2.11533E+01 2.21482E-03-6.99547E-04 9.46948E-01 2.87010E-14 8.36045E-15
 -1      2837 2.09457E+01-4.48522E-02-4.76341E-03 1.07516E+00-1.87484E-14 7.08907E-14
 -1      2838 2.08046E+01 1.43913E-01 1.21098E-03 8.46020E-01-1.17752E-13 9.25861E-16
 -1      2839 2.09213E+01 1.10916E-01 9.74729E-04 8.86619E-01 1.78504E-14 3.02989E-14
 -1      2840 2.07236E+01 1.11340E-01-3.14843E-03 1.00583E+00 1.97802E-14 9.34794E-14
 -1      2841 2.06319E+01 1.77290E-01 4.22606E-04 7.34487E-01-1.91757E-13 4.62195E-14
 -1      2842 2.07324E+01 1.65205E-01 1.93350E-03 7.86926E-01-1.94012E-13 2.09457E-14
 -1      2843 2.05592E+01 1.94370E-01-2.09702E-03 8.94606E-01-1.35518E-13 6.09464E-14
 -1      2844 2.04927E+01 1.81951E-01-9.88081E-06 6.15924E-01-1.36845E-13 2.13594E-13
 -1      2845 2.05779E+01 1.82868E-01 2.38373E-03 6.71322E-01-1.45922E-13 6.93518E-14
 -1      2846 2.04347E+01 2.26664E-01-1.46414E-03 7.66342E-01-1.84421E-13 1.05505E-13
 -1      2847 2.03804E+01 1.70016E-01-2.16291E-04 5.01995E-01-6.46285E-14 2.23642E-13
 -1      2848 2.04514E+01 1.78168E-01 2.49139E-03 5.54930E-01-7.05654E-14 2.44188E-13
 -1      2849 2.03384E+01 2.27008E-01-1.09690E-03 6.37009E-01-1.48379E-13 1.92845E-13
 -1      2850 2.02900E+01 1.49809E-01-2.89687E-04 3.99110E-01-6.90901E-14 1.22362E-13
 -1      2851 2.03482E+01 1.61322E-01 2.38395E-03 4.46647E-01-1.62558E-14 2.16142E-13
 -1      2852 2.02625E+01 2.09255E-01-8.79992E-04 5.16114E-01-3.21165E-15 1.11656E-13
 -1      2853 2.02179E+01 1.26654E-01-2.91143E-04 3.10140E-01 4.80408E-14 1.30341E-13
 -1      2854 2.02648E+01 1.39100E-01 2.15474E-03 3.51016E-01-3.29584E-14 1.19817E-13
 -1      2855 2.02021E+01 1.82813E-01-7.40355E-04 4.08660E-01-3.07010E-14-4.83914E-14
 -1      2856 2.01610E+01 1.03724E-01-2.58104E-04 2.35707E-01 1.06042E-13 1.40455E-13
 -1      2857 2.01980E+01 1.15692E-01 1.86887E-03 2.69710E-01 9.79599E-14 1.36946E-13
 -1      2858 2.01539E+01 1.53647E-01-6.37290E-04 3.16636E-01 1.03607E-13-1.76915E-13
 -1      2859 2.01166E+01 8.27413E-02-2.12197E-04 1.75093E-01 1.60971E-13 9.39548E-14
 -1      2860 2.01454E+01 9.34950E-02 1.56940E-03 2.02623E-01 1.64313E-13 1.18582E-13
 -1      2861 2.01157E+01 1.25279E-01-5.50762E-04 2.40117E-01 1.95141E-13-4.04411E-14
 -1      2862 2.00825E+01 6.44963E-02-1.65097E-04 1.26872E-01 1.36126E-13 1.41169E-13
 -1      2863 2.01044E+01 7.37277E-02 1.28292E-03 1.48645E-01 1.20300E-13 1.50942E-13
 -1      2864 2.00856E+01 9.95861E-02-4.72435E-04 1.78054E-01 1.31585E-13-1.34820E-13
 -1      2865 2.00568E+01 4.92071E-02-1.22517E-04 8.93143E-02 2.55304E-13 1.24881E-13
 -1      2866 2.00732E+01 5.68664E-02 1.02418E-03 1.06170E-01 2.35214E-13 2.75636E-13
 -1      2867 2.00622E+01 7.73946E-02-3.99825E-04 1.28811E-01 1.13460E-13-8.97173E-14
 -1      2868 2.00378E+01 3.67619E-02-8.67833E-05 6.06477E-02 1.81502E-13 2.23098E-13
 -1      2869 2.00497E+01 4.29451E-02 7.99912E-04 7.34313E-02 2.31861E-13 2.49464E-13
 -1      2870 2.00442E+01 5.88866E-02-3.32902E-04 9.05280E-02 1.61888E-13 3.32978E-14
 -1      2871 2.00241E+01 2.68748E-02-5.84178E-05 3.92040E-02-6.24855E-14 2.08946E-13
 -1      2872 2.00325E+01 3.17515E-02 6.11627E-04 4.87011E-02 1.38495E-13 3.52916E-13
 -1      2873 2.00307E+01 4.38756E-02-2.72332E-04 6.13459E-02 1.64366E-13 3.87157E-13
 -1      2874 2.00144E+01 1.91820E-02-3.70833E-05 2.35010E-02-7.73321E-16 1.28309E-13
 -1      2875 2.00202E+01 2.29517E-02 4.57707E-04 3.04017E-02-1.02620E-13 1.58901E-13
 -1      2876 2.00206E+01 3.19832E-02-2.18683E-04 3.95393E-02 1.37264E-14 5.16872E-13
 -1      2877 2.00079E+01 1.33004E-02-2.20998E-05 1.22761E-02 8.97187E-14-3.57986E-14
 -1      2878 2.00117E+01 1.61662E-02 3.34826E-04 1.71625E-02 3.06600E-14-2.18997E-14
 -1      2879 2.00133E+01 2.27488E-02-1.72137E-04 2.35874E-02 5.96910E-14 2.93631E-13
 -1      2880 2.00036E+01 8.85745E-03-1.28279E-05 4.49302E-03-7.09541E-14 1.21538E-13
 -1      2881 2.00060E+01 1.10134E-02 2.38976E-04 7.83773E-03 3.79099E-14 2.45638E-14
 -1      2882 2.00082E+01 1.56948E-02-1.32535E-04 1.22019E-02 6.09523E-14 1.72084E-13
 -1      2883 2.00011E+01 5.50512E-03-8.84249E-06-6.67004E-04 1.13135E-14 6.49178E-15
 -1      2884 2.00023E+01 7.13091E-03 1.66041E-04 1.50425E-03-2.29562E-15 1.16838E-14
 -1      2885 2.00047E+01 1.03600E-02-9.96193E-05 4.32945E-03-1.71803E-14 4.70225E-14
 -1      2886 1.99997E+01 2.92817E-03-7.49351E-06-3.82035E-03-6.65730E-14 3.34171E-15
 -1      2887 2.00002E+01 4.18308E-03 1.11750E-04-2.55100E-03-1.10987E-14 7.37064E-14
 -1      2888 2.00023E+01 6.31758E-03-7.21428E-05-8.58862E-04 5.39869E-14 8.52348E-15
 -1      2889 1.99991E+01 8.60229E-04 3.84564E-06-5.38922E-03-2.41890E-13 3.03112E-13
 -1      2890 1.99992E+01 1.84261E-03 6.57872E-05-4.85695E-03-2.12242E-13 1.59418E-13
 -1      2891 2.00009E+01 3.19044E-03-4.60781E-05-3.99113E-03-2.07126E-13 2.79874E-16
 -1      2892 1.99992E+01-7.81030E-04-7.28619E-06-5.69808E-03-4.17447E-13 4.42989E-13
 -1      2893 1.99991E+01 1.24897E-04 2.41079E-05-5.71905E-03-2.80674E-13 3.26560E-13
 -1      2894 2.00004E+01 8.52565E-04-3.33118E-05-5.39148E-03-3.13438E-13 1.40921E-13
 -1      2895 2.00004E+01-1.07201E-03-8.22343E-06-5.69985E-03-3.21264E-13 1.09767E-13
 -1      2896 2.00026E+01 9.40463E-04-8.31648E-06-3.11319E-04-6.55717E-14-3.69923E-15
 -1      2897 2.00026E+01 9.30343E-04-7.02525E-07-9.11955E-04-8.31793E-15-4.26766E-14
 -1      2898 2.00000E+01-3.92031E-05 5.19021E-05 5.72368E-03-2.61165E-13-3.51561E-13
 -1      2899 1.99999E+01-8.05941E-04 6.11864E-06 5.73556E-03-2.94493E-13-4.32715E-13
 -1      2900 2.00005E+01-1.07911E-03-2.68261E-05 5.64636E-03-2.02311E-13-3.16849E-13
 -1      2901 2.00013E+01 1.03530E-03-4.87382E-05 5.18814E-03-3.25448E-13-5.41584E-13
 -1      2902 2.00025E+01 2.51634E-04-1.58228E-05-2.67247E-03 1.39703E-13-7.89484E-14
 -1      2903 2.00024E+01 2.17747E-04 1.16667E-05-3.27742E-03 2.08190E-13 6.67995E-15
 -1      2904 2.00026E+01 9.04726E-04 2.55504E-07 8.35223E-04-1.54262E-13-8.35734E-16
 -1      2905 2.00026E+01 9.29147E-04-9.19402E-06 2.29536E-04-1.00593E-13-9.15265E-14
 -1      2906 2.00032E+01 4.04351E-03 3.89496E-05-4.96096E-05-1.17232E-14-1.74886E-13
 -1      2907 2.00026E+01 7.01479E-04-1.45705E-05-1.46728E-03-9.99800E-14-1.62676E-13
 -1      2908 2.00026E+01 6.66054E-04 7.12102E-06-2.07660E-03 2.00899E-14-1.54262E-13
 -1      2909 2.00031E+01 3.18110E-03 2.66509E-05-2.17284E-03-3.37755E-14-1.59955E-13
 -1      2910 2.00032E+01 3.82608E-03 3.60103E-05-1.07713E-03-1.33704E-13-1.87893E-14
 -1      2911 2.06350E+01 3.98073E-01 1.49512E-03-6.64188E-01 1.68446E-13-3.72869E-14
 -1      2912 2.06081E+01 4.81835E-01 7.84856E-03-5.15548E-01 1.92739E-13-1.75752E-14
 -1      2913 2.05627E+01 4.70688E-01-4.40684E-03-7.66166E-01 1.62967E-13-8.71248E-14
 -1      2914 2.00026E+01 6.15922E-04 7.72617E-06 2.00611E-03 1.49651E-14 3.43579E-13
 -1      2915 2.00026E+01 6.59264E-04-1.54557E-05 1.39396E-03-2.11870E-13 3.52588E-13
 -1      2916 2.00032E+01 3.78961E-03 3.64526E-05 9.81507E-04 1.35419E-14 1.30281E-13
 -1      2917 2.00025E+01 1.50568E-04 1.16104E-05 3.24341E-03-9.82402E-15-9.56584E-14
 -1      2918 2.00026E+01 1.93306E-04-1.55408E-05 2.62208E-03-7.40292E-14 1.03342E-13
 -1      2919 2.00032E+01 3.11931E-03 2.44075E-05 2.10608E-03-1.53772E-13 2.20711E-13
 -1      2920 2.00020E+01-3.72366E-04-7.13355E-06 4.46572E-03-1.08392E-13-2.48821E-13
 -1      2921 2.00024E+01-3.56843E-04-1.64301E-06 3.88540E-03 6.00170E-14-2.03097E-13
 -1      2922 2.00030E+01 2.18614E-03 2.07180E-05 3.33226E-03-1.52714E-13-3.02612E-14
 -1      2923 2.00013E+01-1.10881E-03 2.08861E-05 5.21735E-03-1.75061E-13-2.44737E-13
 -1      2924 6.97239E+00-4.81035E-01 1.98209E-01 4.55899E-01-3.69912E-14-8.49570E-13
 -1      2925 7.28072E+00-6.43462E-01 1.32391E-01-1.94428E+00-1.21236E-13-7.94254E-13
 -1      2926 2.05350E+01 1.86721E+00-9.25845E-03-8.50521E-01-2.96311E-13-3.81030E-13
 -1      2927 2.05540E+01 1.51123E+00-3.44071E-03-5.12943E-01-2.81312E-13-3.33047E-13
 -1      2928 7.06896E+00-1.37802E+00 1.37610E-01-2.98234E+00 1.86490E-13 4.84307E-13
 -1      2929 8.80750E+00-2.14003E+00 1.07333E-01-4.68281E+00 1.60844E-13 3.90854E-13
 -1      2930 2.86675E+01 5.71774E-01-1.23095E-01-2.21146E+00-3.66457E-13 7.17204E-14
 -1      2931 2.89224E+01-1.72798E+00 1.26472E-02-1.02829E+00-2.40225E-13-3.61516E-14
 -1      2932 2.11514E+01-6.98766E-02-1.61453E-03-1.12153E+00 1.01675E-13-2.40328E-14
 -1      2933 2.10102E+01 3.10413E-02 5.19726E-03-1.11372E+00 1.18701E-13-1.85877E-14
 -1      2934 2.07904E+01 9.83189E-02-5.62663E-03-1.18573E+00 1.12648E-13-2.92013E-14
 -1      2935 2.10289E+01-1.50645E-01-6.98540E-03-1.25580E+00 9.68994E-14-3.33840E-14
 -1      2936 2.05897E+01 1.24804E+00 4.13636E-03-2.58244E-01-2.51196E-13-2.92636E-13
 -1      2937 2.05472E+01 1.04520E+00-1.77437E-03 4.23171E-02-2.13105E-13-2.69632E-13
 -1      2938 2.04293E+01 1.19728E+00 7.33707E-04 1.45579E-01-1.92376E-13-2.86100E-13
 -1      2939 2.04224E+01 1.64059E+00 1.34656E-03-3.40557E-01-2.32056E-13-3.49785E-13
 -1      2940 1.12685E+01-2.93465E+00 1.55146E-01-5.56072E+00 2.36713E-13 3.01703E-13
 -1      2941 1.41118E+01-3.92590E+00 2.80973E-02-6.24262E+00 3.59990E-13 1.69059E-13
 -1      2942 2.79555E+01 5.10414E+00-1.74002E-01-1.58285E+00 4.74287E-13 2.62637E-14
 -1      2943 2.79730E+01 3.30280E+00-1.11567E-01-2.06935E+00 4.17916E-13-9.88098E-15
 -1      2944 1.96249E+01 2.96078E+00-5.79623E-03 4.09843E-01 3.34739E-13-3.82034E-13
 -1      2945 1.94891E+01 3.08563E+00-7.76604E-03 3.06539E-01 2.86513E-13-4.18536E-13
 -1      2946 1.95231E+01 2.86460E+00 5.48125E-03 1.75758E-01 2.56485E-13-4.00835E-13
 -1      2947 1.97985E+01 2.57333E+00 5.94350E-03 2.99991E-01 3.12495E-13-3.30250E-13
 -1      2948 2.80954E+01 6.26381E+00-1.72572E-01 4.76536E-01 5.06484E-13 2.20372E-13
 -1      2949 2.77755E+01 6.21340E+00-1.41292E-01-6.39720E-01 5.05734E-13 1.20490E-13
 -1      2950 1.73541E+01-4.64685E+00 2.79319E-02 6.21831E+00 3.83582E-14-3.56409E-13
 -1      2951 1.38841E+01-3.46821E+00 1.31232E-01 5.96907E+00 1.28453E-13-5.01627E-13
 -1      2952 1.94413E+01 3.14125E+00-7.59082E-03-3.21312E-01-3.40709E-14-5.22364E-13
 -1      2953 1.95737E+01 3.02219E+00-5.85396E-03-4.15337E-01-8.43814E-14-5.31668E-13
 -1      2954 2.01813E+01 2.69946E+00-2.98034E-03-1.00861E+00-2.60636E-13-4.70719E-13
 -1      2955 2.87414E+01 4.26137E+00-1.52479E-01 1.79826E+00 4.35735E-13 2.63470E-13
 -1      2956 2.85704E+01 5.72036E+00-1.79402E-01 1.27456E+00 4.91607E-13 1.91118E-13
 -1      2957 1.36492E+01-3.35780E+00 1.53559E-01-6.09968E+00-4.34541E-13-3.06963E-13
 -1      2958 1.70438E+01-4.34102E+00 3.38798E-02-6.17197E+00-4.38732E-13-1.55487E-13
 -1      2959 6.24038E+00-7.88602E-01 1.19697E-01 1.08860E+00 3.44447E-14 3.01398E-13
 -1      2960 6.40266E+00-7.59343E-01 1.63505E-01-1.15935E+00 1.01009E-13 4.65211E-13
 -1      2961 8.60461E+00-2.29952E-01 1.76501E-01 1.59027E+00-1.03986E-13 9.85600E-14
 -1      2962 2.77147E+01-3.75398E+00-1.64227E-01 7.97743E-01-1.60063E-13-6.63219E-14
 -1      2963 2.60641E+01-4.75689E+00 7.27044E-02 2.47415E+00-7.01175E-14-1.20487E-13
 -1      2964 8.79222E+00-1.47665E+00 1.42799E-01-4.02467E+00-2.74128E-13-6.83259E-13
 -1      2965 1.09686E+01-2.51550E+00 7.96323E-02-5.59488E+00-3.69801E-13-5.13645E-13
 -1      2966 1.37775E+01-2.43179E+00 1.53290E-01-5.37450E+00-3.93505E-13-3.34996E-13
 -1      2967 2.06055E+01 5.76997E-01 1.00658E-03-3.29632E-01 2.45716E-13-3.17165E-14
 -1      2968 2.06301E+01 7.03134E-01 1.03793E-02-1.18504E-01 2.73366E-13-2.61807E-14
 -1      2969 2.05712E+01 1.00142E+00-9.95204E-04 3.08556E-02 3.07398E-13-1.01145E-13
 -1      2970 2.05451E+01 6.85334E-01-3.29244E-03-4.21940E-01 2.22740E-13-1.08982E-13
 -1      2971 2.68675E+01-3.91302E+00-1.22041E-02-1.75274E+00-1.68612E-13 1.59900E-13
 -1      2972 2.86495E+01-2.33749E+00-1.10107E-01-4.82276E-01 2.63535E-14 2.27207E-13
 -1      2973 2.84134E+01-1.40308E+00-7.89188E-02 7.43080E-01 6.03684E-14 2.02643E-13
 -1      2974 1.76317E+01-4.53419E+00 1.48435E-01-5.87229E+00 3.58630E-13-1.23915E-13
 -1      2975 2.07639E+01-5.21796E+00-4.57896E-02-5.20288E+00 3.03618E-13-4.14765E-13
 -1      2976 2.37770E+01-5.17637E+00 8.41453E-02-3.83306E+00 3.58102E-13-3.71495E-13
 -1      2977 2.56213E+01-5.01565E+00-1.00420E-01-2.72079E+00 3.19869E-13-3.73167E-13
 -1      2978 2.74819E+01-3.84700E+00 1.06070E-02-9.46990E-01 1.38589E-13-5.65228E-13
 -1      2979 2.87647E+01-2.35911E+00-1.35854E-01 4.79473E-01-8.32476E-14-6.67133E-13
 -1      2980 2.80392E+01-1.65798E+00-5.09653E-02 1.39914E+00-9.99340E-14-5.88335E-13
 -1      2981 2.65890E+01-4.14737E+00 2.45053E-02-1.16718E+00 2.22277E-13-5.42774E-13
 -1      2982 2.65686E+01 2.15501E-01-7.24144E-02-2.24799E+00-2.55018E-13 1.78709E-13
 -1      2983 1.97277E+01 2.85198E+00-7.81720E-03-4.78858E-01-1.08689E-13-5.16786E-13
 -1      2984 1.99022E+01 2.68453E+00-4.20311E-03-5.75821E-01-1.68681E-13-4.83778E-13
 -1      2985 1.97390E+01 2.65155E+00 7.06210E-03-3.05193E-01-8.64033E-14-4.75957E-13
 -1      2986 1.92648E+01 3.11920E+00 5.46887E-03-2.69014E-02 1.14251E-13-4.60393E-13
 -1      2987 1.91845E+01 3.38426E+00-5.52129E-03-4.55255E-02 1.12023E-13-4.93819E-13
 -1      2988 1.92065E+01 3.36677E+00-5.39181E-03-1.27953E-01 7.52805E-14-5.18394E-13
 -1      2989 2.10080E+01-4.17265E+00 1.27690E-03 4.21501E+00-2.82652E-13-1.96447E-13
 -1      2990 1.93128E+01-4.33727E+00 6.94128E-02 5.38848E+00-2.55615E-13-2.05343E-13
 -1      2991 1.75868E+01-3.32268E+00 7.40189E-02 5.25914E+00-2.35804E-13-1.86615E-13
 -1      2992 2.57039E+01-4.33357E+00 1.79432E-02 1.93965E+00-2.79322E-13-1.45085E-13
 -1      2993 2.40621E+01-4.47051E+00-2.84148E-02 2.63916E+00-3.15314E-13-1.92036E-13
 -1      2994 2.48197E+01-4.80907E+00 4.37109E-02 2.82722E+00 8.28504E-15-1.22090E-13
 -1      2995 2.05089E+01 1.72932E+00-3.05134E-03 6.81531E-01 4.01370E-13-1.18349E-13
 -1      2996 2.69501E+01-2.06034E+00-7.98679E-02-1.35004E+00-3.03507E-14 2.04066E-13
 -1      2997 2.66119E+01-1.00572E+00-5.35060E-02-2.11438E+00-8.65558E-14 1.69448E-13
 -1      2998 2.65905E+01 4.90071E+00-1.19019E-01-1.12448E+00 4.07507E-13 6.27484E-14
 -1      2999 2.67621E+01 4.39980E+00-2.67136E-01-1.21031E+00-4.81531E-13-5.32109E-14
 -1      3000 2.00029E+01 2.24902E-03 1.10914E-05-3.34789E-03 8.48658E-14 5.74989E-14
 -1      3001 2.00023E+01-2.79854E-04-1.16888E-05-3.89295E-03 2.23458E-13 2.68027E-14
 -1      3002 2.00020E+01-2.78537E-04 1.33178E-05-4.42783E-03-9.11549E-15-3.93763E-14
 -1      3003 2.72336E+01 2.14149E+00-1.49707E-01 2.59750E+00-2.99816E-13-4.89324E-13
 -1      3004 1.96805E+01-4.47246E+00 8.32045E-02 5.22362E+00 4.53387E-14-3.09967E-13
 -1      3005 2.00016E+01-7.79256E-04-7.89545E-06-4.93529E-03-1.84460E-13-7.67231E-14
 -1      3006 2.00010E+01-6.99004E-04 7.80920E-06-5.28656E-03-2.53757E-13-8.06627E-14
 -1      3007 2.00011E+01 3.86370E-04 1.06141E-05-5.29627E-03-3.49714E-13-2.80775E-14
 -1      3008 2.00022E+01 1.23629E-03 6.93533E-06-4.43998E-03 2.05251E-14 2.06416E-13
 -1      3009 8.45651E+00-4.65657E-01 1.80267E-01-1.93486E+00 2.69437E-14 4.57273E-13
 -1      3010 2.00020E+01 7.13919E-04-1.24944E-05 4.79175E-03-2.37404E-13-2.08827E-13
 -1      3011 2.69245E+01 5.18116E+00-1.27013E-01 9.25770E-01 5.07872E-13 1.82649E-13
 -1      3012 8.82248E+00-4.65715E-01 1.60000E-01 1.68273E+00 5.76154E-14-7.36772E-13
 -1      3013 1.40789E+01-2.26900E+00 5.60696E-02 5.11819E+00-3.38660E-13 1.12424E-13
 -1      3014 1.17991E+01-1.80724E+00 1.82809E-01 5.07133E+00-3.35704E-13 1.08816E-13
 -1      3015 1.11343E+01-8.59153E-01 1.05166E-01 3.92663E+00-3.25025E-13 4.71290E-14
 -1      3016 1.67780E+01-3.68110E+00 1.11652E-01-5.56984E+00 2.90962E-13-2.66454E-14
 -1      3017 1.14738E+01-1.95798E+00 1.62980E-01-4.80763E+00 2.55934E-13 3.00732E-13
 -1      3018 2.80963E+01 8.73513E-01-1.49050E-01-1.93796E+00 2.48149E-13-1.33629E-13
 -1      3019 2.81016E+01-1.07359E+00-7.09752E-02-1.11703E+00 2.17590E-13-1.88710E-13
 -1      3020 2.04571E+01 1.56093E+00 2.79661E-03 3.92386E-01 3.61978E-13-1.51751E-13
 -1      3021 2.76599E+01-2.83830E+00-1.71061E-02-4.24909E-01-8.61290E-14 5.25968E-14
 -1      3022 1.28341E+01-2.58221E+00 1.35027E-01 5.45443E+00 1.74236E-13-5.27703E-13
 -1      3023 1.18450E+01-1.53394E+00 6.27480E-02 4.53101E+00 1.64563E-13-5.37764E-13
 -1      3024 1.54348E+01-2.70644E+00 8.19062E-02 5.25502E+00 2.15737E-13-4.77861E-13
 -1      3025 2.24080E+01-4.88005E+00 5.65126E-02-4.08687E+00 2.55795E-13-3.01535E-13
 -1      3026 1.93618E+01-4.53932E+00 1.11693E-01-5.62882E+00-4.34722E-13-1.04222E-13
 -1      3027 2.11266E+01-4.65659E+00-1.12597E-02-4.64790E+00-4.08118E-13-1.36523E-15
 -1      3028 1.79895E+01-3.68506E+00 7.35745E-02-5.44695E+00-4.19491E-13-9.95801E-14
 -1      3029 1.92567E+01 3.31693E+00-6.55431E-03-1.78771E-01 4.57298E-14-5.18803E-13
 -1      3030 1.93361E+01 3.25149E+00-5.23079E-03-2.65006E-01-9.76365E-16-5.26485E-13
 -1      3031 1.94714E+01 2.92472E+00 6.00377E-03-2.04023E-01-1.99923E-14-4.93026E-13
 -1      3032 1.93093E+01 3.07961E+00 5.63717E-03-1.13475E-01 4.95843E-14-4.96520E-13
 -1      3033 2.01816E+01 2.40825E+00 5.91792E-04-7.27563E-01-2.18680E-13-4.54925E-13
 -1      3034 2.61077E+01 2.55739E+00-1.21597E-01-2.26341E+00 2.85383E-13 6.54130E-14
 -1      3035 2.74141E+01 1.70734E+00-1.14436E-01-2.26904E+00 2.35270E-13-3.76574E-14
 -1      3036 2.66100E+01 5.08774E-01-1.96181E-02-2.14235E+00 1.04146E-13-7.32678E-14
 -1      3037 2.56841E+01-4.72521E+00-1.44436E-02-2.58074E+00-2.58397E-13 8.21149E-14
 -1      3038 2.64233E+01-3.86903E+00-3.09353E-02-1.17994E+00-1.88521E-13 5.57610E-14
 -1      3039 2.40932E+01-4.81308E+00 1.58513E-02-3.30124E+00-2.74870E-13 4.02456E-16
 -1      3040 2.78950E+01 1.58767E+00-6.22636E-02 1.99895E+00 3.06768E-13 2.21531E-13
 -1      3041 2.85000E+01 2.85412E+00-1.44894E-01 1.97248E+00 3.88661E-13 2.85619E-13
 -1      3042 2.70823E+01 3.47227E+00-1.07760E-01 2.08252E+00 3.96794E-13 1.58332E-13
 -1      3043 2.77715E+01-2.39690E+00-9.87740E-02-3.05503E-01 7.73088E-14-1.48576E-13
 -1      3044 2.64621E+01-3.66447E+00-2.01322E-02 1.05650E+00-1.74563E-13-1.32200E-13
 -1      3045 2.62047E+01-3.26787E+00-1.35668E-02 2.14883E-01-1.73429E-13-1.57374E-13
 -1      3046 2.72161E+01-1.59432E+00-1.44813E-02-1.23088E+00 4.88845E-14-1.89189E-13
 -1      3047 2.02403E+01 1.76718E+00-4.38301E-03 2.43159E-01 3.33196E-13-2.06109E-13
 -1      3048 2.00690E+01 2.00420E+00-2.60827E-03 1.99887E-01 3.13010E-13-2.43183E-13
 -1      3049 2.54090E+01-4.45441E+00-7.69970E-02 1.71416E+00 6.08090E-14 5.74679E-14
 -1      3050 2.36491E+01-4.52402E+00 8.90062E-02 3.12428E+00 3.81917E-14-2.24924E-14
 -1      3051 2.42575E+01-4.06175E+00-8.74158E-02 1.74810E+00-2.59829E-13-2.50024E-13
 -1      3052 2.31601E+01-4.13770E+00 1.01720E-01 3.00944E+00-2.89341E-13-1.91928E-13
 -1      3053 2.66376E+01-3.40536E+00 5.06802E-02 6.26076E-02 7.28913E-14 9.39526E-14
 -1      3054 2.52444E+01 4.60767E+00-1.35062E-01-5.22231E-01 3.75949E-13 7.93736E-14
 -1      3055 2.55509E+01 3.93723E+00-5.71013E-02-1.65748E+00 3.52718E-13 2.67390E-14
 -1      3056 2.01870E+01 9.26775E-01 1.33699E-03 8.58989E-01-1.12310E-13-2.56475E-13
 -1      3057 2.01726E+01 8.39664E-01 7.41262E-04 1.04090E+00-8.70291E-14-2.58088E-13
 -1      3058 2.01135E+01 7.60575E-01 5.79861E-04 1.21191E+00-8.11863E-14-2.30374E-13
 -1      3059 2.01207E+01 6.81226E-01 2.47300E-03 1.36792E+00-5.63688E-14-2.49382E-13
 -1      3060 1.99226E+01 9.49121E-01 3.26321E-04 1.09797E+00-7.68028E-14-2.90838E-13
 -1      3061 2.00648E+01 5.93022E-01 3.85503E-04 1.52813E+00-3.39243E-14-2.23425E-13
 -1      3062 2.01073E+01 4.88976E-01 4.40648E-03 1.66253E+00-2.40075E-14-2.22277E-13
 -1      3063 1.98008E+01 7.66375E-01-7.59021E-04 1.43296E+00-4.24693E-14-2.57758E-13
 -1      3064 2.00767E+01 3.57523E-01 1.52156E-03 1.81867E+00-4.23455E-15-1.99852E-13
 -1      3065 2.01778E+01 1.91123E-01 6.71842E-03 1.92920E+00 1.94305E-14-1.85213E-13
 -1      3066 1.97037E+01 5.33503E-01-3.17005E-03 1.75623E+00 1.90405E-15-2.64490E-13
 -1      3067 2.02111E+01-2.25337E-02 5.13253E-03 2.08379E+00 6.86344E-14-1.53368E-13
 -1      3068 2.04107E+01-2.94224E-01 9.65746E-03 2.15776E+00 1.00884E-13-1.16459E-13
 -1      3069 1.96837E+01 1.68709E-01-8.20528E-03 2.08302E+00 6.83663E-14-1.72731E-13
 -1      3070 2.05777E+01-6.31486E-01 1.42692E-02 2.30272E+00 9.27802E-14-9.20175E-14
 -1      3071 2.09203E+01-1.05284E+00 8.52319E-03 2.30699E+00 1.19503E-13-7.97504E-14
 -1      3072 1.98327E+01-4.26255E-01-1.78922E-02 2.41888E+00 1.05354E-13-1.49214E-13
 -1      3073 2.13725E+01-1.53181E+00 3.75479E-02 2.37973E+00 1.15025E-13-5.90847E-14
 -1      3074 2.20068E+01-2.04923E+00 2.84678E-02 2.18586E+00 8.91526E-14 1.51268E-15
 -1      3075 2.03480E+01-1.38220E+00-3.29345E-02 2.74083E+00 1.26216E-13-1.18681E-13
 -1      3076 2.46886E+01-3.54376E+00 6.53626E-02 1.36167E+00 6.55240E-14 1.36981E-13
 -1      3077 2.55165E+01-3.57322E+00 6.40788E-03 6.60677E-01 1.25393E-13 1.31957E-13
 -1      3078 2.34758E+01-3.46958E+00 9.51662E-03-1.91710E+00 1.33324E-13-3.59093E-13
 -1      3079 2.26156E+01-2.86406E+00 6.71538E-02-2.27602E+00 1.55416E-13-4.69248E-13
 -1      3080 2.17393E+01-2.24780E+00 1.71471E-02-2.33994E+00 1.98699E-13-4.66798E-13
 -1      3081 2.11188E+01-1.63956E+00 3.55769E-02-2.42997E+00 2.13674E-13-4.34391E-13
 -1      3082 2.10864E+01-2.81335E+00-6.72846E-02-3.01334E+00 2.00341E-13-2.92179E-13
 -1      3083 2.06868E+01-1.12705E+00 1.42421E-02-2.29995E+00 1.70367E-13-4.18380E-13
 -1      3084 2.03046E+01-6.76020E-01 1.41763E-02-2.26531E+00 1.24727E-13-5.21234E-13
 -1      3085 1.99427E+01-1.42082E+00-3.59725E-02-2.76732E+00 1.58137E-13-3.99450E-13
 -1      3086 2.01420E+01-3.19315E-01 1.23120E-02-2.09034E+00 1.02314E-13-4.84621E-13
 -1      3087 1.99289E+01-3.78395E-02 4.07445E-03-2.00141E+00 8.87804E-15-4.19168E-13
 -1      3088 1.94623E+01-4.34636E-01-1.47297E-02-2.37315E+00 1.09398E-13-4.03249E-13
 -1      3089 1.99023E+01 1.77690E-01 8.67082E-03-1.83497E+00-9.18792E-14-2.90278E-13
 -1      3090 1.97927E+01 3.32596E-01-5.94459E-04-1.72588E+00-1.61874E-13-2.79051E-13
 -1      3091 1.93198E+01 1.64456E-01-5.86515E-03-1.99601E+00 6.17258E-14-2.75914E-13
 -1      3092 1.98294E+01 4.44626E-01 6.02096E-03-1.57805E+00-2.16589E-13-2.69530E-13
 -1      3093 1.97759E+01 5.13682E-01-2.56258E-03-1.46489E+00-2.30508E-13-3.16072E-13
 -1      3094 1.93458E+01 4.91782E-01-1.12632E-03-1.66875E+00-1.73796E-13-3.14987E-13
 -1      3095 1.98356E+01 5.57788E-01 4.29765E-03-1.33589E+00-2.81092E-13-2.38609E-13
 -1      3096 1.98096E+01 5.73489E-01-3.23954E-03-1.22645E+00-3.22253E-13-2.64616E-13
 -1      3097 1.94427E+01 6.37116E-01 1.06211E-03-1.38997E+00-2.47957E-13-2.64477E-13
 -1      3098 1.98721E+01 5.76588E-01 3.27638E-03-1.11413E+00-1.95130E-13-1.64242E-13
 -1      3099 1.98580E+01 5.61787E-01-3.28636E-03-1.01268E+00-5.83924E-15-1.10665E-13
 -1      3100 1.95580E+01 6.69873E-01 1.84760E-03-1.15080E+00-2.05304E-13-1.62411E-14
 -1      3101 1.99142E+01 5.42363E-01 2.67367E-03-9.15267E-01-9.18994E-15-1.96619E-13
 -1      3102 1.99043E+01 5.12115E-01-3.03349E-03-8.24164E-01 3.71739E-14-9.85329E-14
 -1      3103 1.96668E+01 6.37898E-01 1.93148E-03-9.44181E-01-1.20714E-13-1.77281E-13
 -1      3104 1.99510E+01 4.82053E-01 2.28420E-03-7.40409E-01 4.65868E-14-1.37082E-13
 -1      3105 1.99421E+01 4.45739E-01-2.65508E-03-6.60769E-01 2.76270E-14-1.18969E-13
 -1      3106 1.97591E+01 5.72698E-01 1.70524E-03-7.65763E-01-1.09613E-14-3.28446E-13
 -1      3107 1.99790E+01 4.12257E-01 1.98933E-03-5.89643E-01-4.71948E-14-2.09944E-13
 -1      3108 1.99702E+01 3.75396E-01-2.24310E-03-5.21648E-01-3.87948E-14-2.72407E-13
 -1      3109 1.98325E+01 4.94069E-01 1.37609E-03-6.12859E-01-4.46195E-14-3.39268E-13
 -1      3110 1.99983E+01 3.42614E-01 1.73233E-03-4.62126E-01 4.01021E-14-2.16954E-13
 -1      3111 1.99896E+01 3.08215E-01-1.84574E-03-4.05293E-01 6.40188E-14-1.99640E-13
 -1      3112 1.98882E+01 4.13824E-01 1.04621E-03-4.83415E-01 2.68729E-14-1.06650E-13
 -1      3113 2.00103E+01 2.78283E-01 1.49203E-03-3.56259E-01-1.26526E-14-1.47430E-13
 -1      3114 2.00020E+01 2.47789E-01-1.48663E-03-3.09665E-01-3.17848E-14-1.82199E-13
 -1      3115 1.99291E+01 3.38539E-01 7.59408E-04-3.75437E-01 1.82265E-14-1.32057E-13
 -1      3116 2.00169E+01 2.21650E-01 1.26457E-03-2.69914E-01-2.46735E-14-2.04604E-13
 -1      3117 2.00092E+01 1.95559E-01-1.17532E-03-2.32397E-01 6.17459E-14-1.88304E-13
 -1      3118 1.99581E+01 2.71464E-01 5.28851E-04-2.86781E-01-3.68281E-14 1.06121E-13
 -1      3119 2.00196E+01 1.73447E-01 1.05266E-03-2.00685E-01 1.04197E-13-1.94612E-13
 -1      3120 2.00128E+01 1.51716E-01-9.13393E-04-1.70987E-01 4.81822E-14-1.06695E-13
 -1      3121 1.99781E+01 2.13807E-01 3.52927E-04-2.15158E-01 9.31129E-14 3.84145E-14
 -1      3122 2.00199E+01 1.33466E-01 8.60229E-04-1.46092E-01 9.44461E-14-9.69414E-14
 -1      3123 2.00140E+01 1.15760E-01-6.98086E-04-1.22970E-01 1.78247E-13-6.04442E-14
 -1      3124 1.99913E+01 1.65577E-01 2.23954E-04-1.58224E-01 1.26850E-13-8.35321E-14
 -1      3125 2.00186E+01 1.01005E-01 6.90149E-04-1.03739E-01-2.39399E-14-7.90795E-14
 -1      3126 2.00137E+01 8.68493E-02-5.24571E-04-8.60332E-02-1.08655E-13-2.84929E-13
 -1      3127 1.99996E+01 1.26120E-01 1.32665E-04-1.13695E-01-4.57250E-14-1.70084E-13
 -1      3128 2.00166E+01 7.51349E-02 5.43652E-04-7.14229E-02-6.53419E-14-2.94048E-13
 -1      3129 2.00125E+01 6.40101E-02-3.87263E-04-5.80926E-02 5.41453E-14-4.62023E-13
 -1      3130 2.00044E+01 9.44538E-02 7.02896E-05-7.94336E-02-1.53462E-13-2.02620E-13
 -1      3131 2.00141E+01 5.48611E-02 4.20465E-04-4.71855E-02 1.49890E-13-5.05440E-13
 -1      3132 2.00109E+01 4.62550E-02-2.80602E-04-3.73316E-02-4.48363E-14-4.43923E-13
 -1      3133 2.00069E+01 6.94751E-02 2.93508E-05-5.35162E-02 1.01044E-13-4.57638E-13
 -1      3134 2.00117E+01 3.92147E-02 3.19185E-04-2.93451E-02-6.37448E-14-3.28494E-13
 -1      3135 2.00091E+01 3.26496E-02-1.99276E-04-2.22112E-02-1.73583E-13-1.75272E-13
 -1      3136 2.00078E+01 5.00787E-02 3.86356E-06-3.42635E-02 2.19309E-14-5.15720E-13
 -1      3137 2.00093E+01 2.72985E-02 2.37652E-04-1.64943E-02-2.90854E-13 5.75784E-14
 -1      3138 2.00074E+01 2.23439E-02-1.38402E-04-1.14611E-02-2.34904E-13 2.19781E-13
 -1      3139 2.00076E+01 3.52253E-02-1.06955E-05-2.02529E-02 3.94522E-14-1.08505E-13
 -1      3140 2.00072E+01 1.83040E-02 1.74092E-04-7.48219E-03-3.02032E-13 3.55540E-13
 -1      3141 2.00057E+01 1.45672E-02-9.61383E-05-4.05558E-03-1.39298E-13 2.83004E-13
 -1      3142 2.00068E+01 2.39702E-02-1.83344E-05-1.03039E-02-2.55306E-13 3.69047E-13
 -1      3143 2.00053E+01 1.15079E-02 1.28829E-04-1.41993E-03-1.44468E-13 2.17494E-14
 -1      3144 2.00042E+01 8.66783E-03-6.34673E-05 7.77891E-04-2.33931E-13-1.42138E-13
 -1      3145 2.00057E+01 1.54306E-02-2.79821E-05-3.48583E-03-3.57966E-13 2.01963E-13
 -1      3146 2.00037E+01 6.29689E-03 9.44620E-05 2.40074E-03-2.42426E-13-3.35408E-13
 -1      3147 2.00029E+01 4.09316E-03-2.90143E-05 3.63959E-03-3.77672E-13-4.86957E-13
 -1      3148 2.00044E+01 8.90040E-03-4.11964E-05 9.47724E-04-4.37742E-13-1.89575E-13
 -1      3149 2.00035E+01 6.80510E-03-6.51558E-06 9.08343E-04 1.38122E-14 2.95771E-13
 -1      3150 2.00035E+01 7.01608E-03-3.28267E-05 4.50948E-04 8.96101E-14-3.41275E-15
 -1      3151 2.17894E+01-1.11047E+00-5.15556E-03-1.16143E+00-1.35853E-14 2.48042E-14
 -1      3152 2.15348E+01-8.39875E-01 1.47524E-02-1.30658E+00 2.10173E-14-9.37260E-15
 -1      3153 2.12523E+01-6.00620E-01-1.45231E-03-1.35583E+00 3.53999E-14-5.04424E-14
 -1      3154 2.10569E+01-3.76666E-01 9.96758E-03-1.40675E+00 3.42308E-14-4.19455E-14
 -1      3155 2.11038E+01-8.16618E-01-1.59802E-02-1.55320E+00-1.85003E-15 4.50811E-15
 -1      3156 2.33454E+01-1.95718E+00-1.48486E-02 9.61849E-04-8.95299E-14 1.87871E-13
 -1      3157 2.30565E+01-1.83709E+00 2.05517E-02-3.88038E-01-5.28896E-14 1.38125E-13
 -1      3158 2.41247E+01-1.68607E+00-1.04848E-02 9.68537E-01-7.26363E-14 3.05426E-13
 -1      3159 2.39172E+01-1.92585E+00 7.88201E-03 5.21150E-01-9.87439E-14 2.36029E-13
 -1      3160 2.37737E+01-2.33013E+00-9.91255E-03-1.02126E-01-1.40496E-13 2.22565E-13
 -1      3161 2.44965E+01-5.04113E-01-1.82622E-03 1.81424E+00-2.84633E-14 4.02692E-13
 -1      3162 2.45017E+01-1.21863E+00-2.94017E-02 1.53693E+00-4.67803E-14 3.66186E-13
 -1      3163 2.48048E+01-1.78075E+00 8.14027E-03 1.04108E+00-9.27279E-14 3.10027E-13
 -1      3164 2.50377E+01 2.12575E+00-4.07683E-02 2.01005E+00 2.95236E-13 3.23483E-13
 -1      3165 2.51888E+01 9.50992E-01-6.08975E-02 2.14609E+00 1.22211E-13 3.25738E-13
 -1      3166 2.37555E+01 2.99019E+00-9.75188E-02-1.14796E+00 2.72098E-13 1.20984E-13
 -1      3167 2.37504E+01 3.34968E+00-3.01783E-02-3.27820E-01 3.15484E-13 1.66494E-13
 -1      3168 2.46698E+01 1.15688E+00-4.19316E-02-2.23532E+00 1.17521E-13-2.45498E-14
 -1      3169 2.45327E+01 2.16436E+00-2.56086E-02-1.86678E+00 2.40329E-13 2.08232E-15
 -1      3170 2.47719E+01 1.32876E-01-4.84296E-02-2.14748E+00 9.83731E-14-1.30195E-13
 -1      3171 2.43226E+01-1.68756E+00-5.53041E-04-1.18935E+00-5.76149E-14-1.15424E-13
 -1      3172 2.44092E+01-1.16664E+00 1.34631E-02-1.58723E+00-2.58283E-14-1.16160E-13
 -1      3173 2.34884E+01-1.89403E+00 1.36655E-02-1.59003E-01-6.09218E-14 6.89827E-14
 -1      3174 2.37440E+01-1.89643E+00-2.34733E-02-5.66209E-01-2.35510E-15 3.49850E-14
 -1      3175 2.43061E+01-2.24932E+00-4.66836E-02-5.79601E-01-8.89297E-14 1.08987E-13
 -1      3176 2.26244E+01-1.57471E+00 2.05228E-02 5.70507E-01-3.81275E-14 3.87418E-14
 -1      3177 2.29257E+01-1.78809E+00-1.25626E-02 2.52361E-01-2.03559E-14 6.58178E-14
 -1      3178 2.31446E+01-2.19375E+00-2.68094E-02 4.00857E-01-6.25940E-14 2.46444E-13
 -1      3179 2.18560E+01-1.05836E+00 1.71500E-02 1.00939E+00 6.10822E-14 2.00578E-13
 -1      3180 2.21317E+01-1.33305E+00-8.52175E-03 8.14187E-01-3.73529E-14 1.58457E-13
 -1      3181 2.21445E+01-1.70304E+00-1.97638E-02 1.03597E+00-6.63911E-14 2.47079E-13
 -1      3182 2.12744E+01-5.68285E-01 1.15471E-02 1.20068E+00 9.70627E-14 1.90141E-13
 -1      3183 2.15004E+01-8.08281E-01-3.18173E-03 1.10803E+00 1.68758E-13 1.41911E-13
 -1      3184 2.13504E+01-1.07192E+00-1.67717E-02 1.32511E+00 7.17534E-14 1.95121E-13
 -1      3185 2.08710E+01-1.92799E-01 6.75042E-03 1.23009E+00-8.13694E-14 1.39684E-13
 -1      3186 2.10431E+01-3.68148E-01-2.83647E-04 1.20974E+00 3.48837E-14 1.93964E-13
 -1      3187 2.08130E+01-5.24167E-01-1.22590E-02 1.39247E+00 4.21679E-14 2.73673E-13
 -1      3188 2.06032E+01 5.81023E-02 3.44918E-03 1.16387E+00 1.62339E-14 1.54040E-13
 -1      3189 2.07309E+01-5.44226E-02 1.19015E-03 1.18940E+00-7.72153E-14 1.58237E-13
 -1      3190 2.04766E+01-1.24206E-01-7.78695E-03 1.33503E+00-5.17640E-14 2.81887E-13
 -1      3191 2.04283E+01 2.04688E-01 1.30170E-03 1.04654E+00-4.63568E-14 6.71039E-14
 -1      3192 2.05234E+01 1.42181E-01 1.87719E-03 1.09811E+00 4.56139E-14 1.18034E-13
 -1      3193 2.02778E+01 1.32793E-01-4.50875E-03 1.21317E+00 1.12330E-14 3.14873E-13
 -1      3194 2.03133E+01 2.74972E-01 2.94366E-05 9.07005E-01-1.66157E-13 1.33029E-13
 -1      3195 2.03855E+01 2.47883E-01 2.13889E-03 9.70776E-01-6.06959E-14 9.23137E-14
 -1      3196 2.01658E+01 2.76484E-01-2.43568E-03 1.06285E+00-7.31534E-14 2.37721E-13
 -1      3197 2.02355E+01 2.94479E-01-6.49793E-04 7.63489E-01-1.79042E-13 1.57915E-13
 -1      3198 2.02917E+01 2.90320E-01 2.19198E-03 8.30271E-01-1.65167E-13 1.78662E-13
 -1      3199 2.01051E+01 3.39818E-01-1.22518E-03 9.05333E-01-1.73927E-13 2.55510E-13
 -1      3200 2.01808E+01 2.83109E-01-9.52444E-04 6.26995E-01-1.24364E-13 2.87671E-14
 -1      3201 2.02254E+01 2.92467E-01 2.12492E-03 6.91061E-01-1.70668E-13 8.91972E-14
 -1      3202 2.00730E+01 3.50865E-01-5.72808E-04 7.53153E-01-1.34321E-13 5.82725E-14
 -1      3203 2.01406E+01 2.55031E-01-1.02890E-03 5.03652E-01-5.44422E-15 2.14954E-14
 -1      3204 2.01765E+01 2.71353E-01 1.98170E-03 5.61750E-01-2.14189E-14 8.18477E-14
 -1      3205 2.00559E+01 3.30820E-01-2.52220E-04 6.13466E-01-1.03869E-13-1.73168E-13
 -1      3206 2.01098E+01 2.19674E-01-9.79312E-04 3.96297E-01 4.24230E-14-1.00616E-13
 -1      3207 2.01389E+01 2.38678E-01 1.79044E-03 4.46891E-01 5.07227E-14 6.86529E-14
 -1      3208 2.00462E+01 2.94512E-01-1.14291E-04 4.89927E-01-2.03297E-15 4.72634E-14
 -1      3209 2.00857E+01 1.82930E-01-8.67408E-04 3.05600E-01 1.03196E-13-1.87398E-13
 -1      3210 2.01091E+01 2.01993E-01 1.57310E-03 3.48287E-01 9.28597E-15-2.69371E-13
 -1      3211 2.00399E+01 2.51706E-01-6.86047E-05 3.83862E-01 1.29813E-13-9.07335E-14
 -1      3212 2.00665E+01 1.48214E-01-7.32051E-04 2.30873E-01 2.33584E-13-1.91743E-13
 -1      3213 2.00853E+01 1.65859E-01 1.34776E-03 2.65958E-01 2.46352E-13-1.34786E-13
 -1      3214 2.00349E+01 2.08444E-01-6.38008E-05 2.95056E-01 1.27173E-13-1.66479E-13
 -1      3215 2.00511E+01 1.17285E-01-5.95731E-04 1.70647E-01 6.30676E-14-1.51153E-13
 -1      3216 2.00660E+01 1.32790E-01 1.12836E-03 1.98833E-01 1.06443E-13-8.63901E-14
 -1      3217 2.00305E+01 1.68179E-01-7.28023E-05 2.22329E-01 1.33857E-13-2.02526E-13
 -1      3218 2.00388E+01 9.08387E-02-4.70459E-04 1.23080E-01-2.66202E-16 6.84765E-14
 -1      3219 2.00504E+01 1.03961E-01 9.24638E-04 1.45258E-01 6.11437E-14-5.06415E-14
 -1      3220 2.00263E+01 1.32634E-01-8.27324E-05 1.63961E-01-3.82886E-15-3.31342E-14
 -1      3221 2.00291E+01 6.89282E-02-3.61744E-04 8.62260E-02 1.14677E-13 1.20951E-13
 -1      3222 2.00380E+01 7.97121E-02 7.42482E-04 1.03337E-01 3.73388E-14 7.10908E-14
 -1      3223 2.00223E+01 1.02430E-01-8.85045E-05 1.18001E-01-4.11716E-14 1.84805E-13
 -1      3224 2.00214E+01 5.12377E-02-2.71230E-04 5.82080E-02 1.95140E-14 3.49492E-13
 -1      3225 2.00281E+01 5.98847E-02 5.84628E-04 7.11556E-02 9.40521E-14 2.25676E-13
 -1      3226 2.00186E+01 7.75175E-02-8.89841E-05 8.24709E-02-2.42833E-14 2.34936E-13
 -1      3227 2.00155E+01 3.72653E-02-1.98425E-04 3.73191E-02 8.66033E-14 1.13107E-13
 -1      3228 2.00204E+01 4.40538E-02 4.51495E-04 4.69208E-02 8.27538E-14 1.99099E-13
 -1      3229 2.00152E+01 5.74707E-02-8.48228E-05 5.55077E-02 8.07710E-14-1.88171E-14
 -1      3230 2.00109E+01 2.64355E-02-1.41737E-04 2.20730E-02 1.02526E-13 9.10735E-14
 -1      3231 2.00145E+01 3.16695E-02 3.41947E-04 2.90365E-02 1.36814E-13 2.03081E-13
 -1      3232 2.00122E+01 4.16764E-02-7.73148E-05 3.54370E-02 8.34659E-14-2.56171E-13
 -1      3233 2.00075E+01 1.81664E-02-9.89622E-05 1.12216E-02-6.45936E-15 7.15043E-14
 -1      3234 2.00101E+01 2.21463E-02 2.53867E-04 1.61369E-02 2.72906E-14 1.27606E-13
 -1      3235 2.00095E+01 2.94536E-02-6.77358E-05 2.08133E-02-1.29778E-14-1.15478E-13
 -1      3236 2.00050E+01 1.19041E-02-6.84373E-05 3.74951E-03 3.55886E-14 4.86968E-14
 -1      3237 2.00067E+01 1.49129E-02 1.84939E-04 7.09257E-03 1.09957E-13 1.27069E-13
 -1      3238 2.00072E+01 2.01237E-02-5.74333E-05 1.04296E-02 4.85004E-14 3.47193E-14
 -1      3239 2.00031E+01 7.13643E-03-4.63693E-05-1.13422E-03 3.62229E-14-4.13930E-14
 -1      3240 2.00043E+01 9.43035E-03 1.32601E-04 1.00126E-03-6.07404E-14-1.10866E-14
 -1      3241 2.00053E+01 1.30350E-02-4.97777E-05 3.30513E-03 6.62880E-14 8.65907E-14
 -1      3242 2.00018E+01 3.45309E-03-1.01272E-05-4.00804E-03-3.27547E-13-7.08190E-14
 -1      3243 2.00025E+01 5.19367E-03 8.65103E-05-2.82608E-03-8.30591E-14 9.34093E-14
 -1      3244 2.00037E+01 7.62402E-03-3.74942E-05-1.31787E-03-1.72403E-13 1.90894E-13
 -1      3245 2.00014E+01 1.42650E-03 9.10814E-06-4.94273E-03-3.71025E-13 1.14535E-13
 -1      3246 2.00015E+01 2.48523E-03 3.12762E-05-4.60289E-03-3.73589E-13 1.89538E-15
 -1      3247 2.00027E+01 4.12845E-03-2.71608E-05-3.61810E-03-3.11223E-13 3.37273E-13
 -1      3248 2.00021E+01 1.77767E-03-2.43084E-05-4.58629E-03-2.83781E-13 6.34246E-14
 -1      3249 2.00025E+01 2.15947E-03 5.19448E-05 4.28595E-03-3.45311E-13-2.86061E-13
 -1      3250 1.93807E+01 2.75438E+00-3.07873E-03 2.73618E-02 1.93336E-13-4.13253E-13
 -1      3251 1.93095E+01 2.81655E+00-5.11859E-03-1.45349E-02 1.53451E-13-4.36006E-13
 -1      3252 9.74005E+00-5.92914E-01 1.62060E-01-2.78304E+00-2.26479E-13-6.52423E-13
 -1      3253 2.00036E+01 5.74170E-03 8.72206E-07 1.85114E-03-2.28827E-13 1.86561E-13
 -1      3254 2.00036E+01 6.12876E-03-3.63472E-05 1.30028E-03-2.24152E-13 2.70160E-13
 -1      3255 2.00041E+01 9.76684E-03 6.51753E-05 6.74313E-04-1.82738E-13-1.08249E-14
 -1      3256 2.00034E+01 7.25879E-03-2.06681E-05 1.55223E-04-1.32586E-14-3.28697E-13
 -1      3257 2.00034E+01 7.26838E-03-2.15257E-05-2.78479E-04 3.37364E-14-5.47579E-14
 -1      3258 2.00039E+01 1.06692E-02 6.93382E-05 1.40948E-04 7.43433E-14 1.06118E-14
 -1      3259 1.01547E+01 5.64707E-02 6.66080E-02 2.11948E+00-2.21597E-13-7.59115E-15
 -1      3260 9.58964E+00 3.88616E-01 1.29686E-01 5.36054E-01-1.49849E-13 1.79884E-13
 -1      3261 1.05218E+01-3.12037E-01 1.58696E-01 2.99995E+00 1.14374E-13-5.97161E-13
 -1      3262 9.84887E+00 2.14237E-01 6.58926E-02 8.08182E-01 1.39472E-15-6.55115E-13
 -1      3263 2.25071E+01-1.63842E+00-1.12873E-02-7.29614E-01-1.34749E-14 8.33839E-14
 -1      3264 2.22098E+01-1.37264E+00 1.97816E-02-9.94030E-01-1.51749E-14 7.17102E-14
 -1      3265 2.17506E+01-1.44091E+00-2.06653E-02-1.38353E+00-5.81387E-14 7.59362E-14
 -1      3266 2.26689E+01-2.05261E+00-2.00488E-02-9.34518E-01-8.36190E-14 1.85943E-13
 -1      3267 2.05009E+01 1.20707E+00-3.02614E-05 1.03624E-01 3.18378E-13-1.38238E-13
 -1      3268 2.03596E+01 1.55515E+00 1.37492E-03 1.93037E-01 3.29003E-13-1.75672E-13
 -1      3269 2.02974E+01 1.43473E+00 1.04919E-03-3.22020E-02 2.94046E-13-1.80146E-13
 -1      3270 2.04785E+01 1.01386E+00-1.82510E-03-1.57515E-01 2.77903E-13-1.35253E-13
 -1      3271 2.05253E+01 3.52530E-01 9.39655E-04-1.10600E+00 1.06974E-13-1.04304E-13
 -1      3272 2.04750E+01 4.57690E-01 4.09539E-03-9.94303E-01 1.23219E-13-9.51988E-14
 -1      3273 2.72600E+01-3.07856E+00-4.28472E-02 5.93665E-01-2.89655E-14-5.62911E-13
 -1      3274 2.02592E+01 1.15345E+00 1.42784E-03 4.52604E-01-1.51513E-13-3.08490E-13
 -1      3275 2.02349E+01 1.02879E+00-7.40669E-04 6.69155E-01-1.29299E-13-2.87439E-13
 -1      3276 2.00375E+01 1.15097E+00 8.32592E-04 7.33528E-01-9.51821E-14-3.24063E-13
 -1      3277 1.56933E+01-2.59465E+00 1.31893E-01-5.11124E+00 2.62020E-13 9.34253E-14
 -1      3278 1.82493E+01-3.57654E+00-2.98649E-02-4.94762E+00 2.09839E-13-6.68077E-14
 -1      3279 2.04634E+01 5.58906E-01 4.08121E-05-8.50939E-01 1.39540E-13-9.53374E-14
 -1      3280 2.04469E+01 6.69177E-01 3.99315E-03-6.96284E-01 1.61941E-13-1.26160E-13
 -1      3281 2.03178E+01 6.23471E-01-3.16995E-03-9.40944E-01 1.26114E-13-1.29960E-13
 -1      3282 2.00032E+01 3.85995E-03-3.51435E-05 3.36104E-03-2.71931E-13-2.03526E-13
 -1      3283 2.11364E+01-3.84132E+00 1.22547E-01-4.01368E+00 1.77251E-13-2.62245E-13
 -1      3284 2.31823E+01-4.32596E+00-4.53749E-02-2.98597E+00 1.56299E-13-2.98334E-13
 -1      3285 2.01497E+01 2.19772E+00 4.62899E-05-4.92987E-01-1.84941E-13-4.27718E-13
 -1      3286 2.72766E+01-2.14672E+00-4.52766E-02 6.36850E-01-2.99205E-14 1.91666E-13
 -1      3287 2.77424E+01-4.93771E-01-1.35857E-01 1.54365E+00 1.41893E-13 2.23807E-13
 -1      3288 2.12393E+01-4.49215E+00-4.12344E-02 4.43305E+00 3.87121E-14-1.92811E-13
 -1      3289 1.86553E+01-3.54580E+00 9.57176E-02 5.03445E+00 1.51365E-13-3.19730E-13
 -1      3290 1.31924E+01-1.58846E+00 1.08128E-01-4.73400E+00-3.26378E-13-3.39132E-13
 -1      3291 1.53221E+01-2.59202E+00 3.10391E-02-5.28637E+00-3.96350E-13-1.50463E-13
 -1      3292 1.15265E+01-1.04130E+00 1.04988E-01-3.97921E+00 1.06661E-13 2.12733E-13
 -1      3293 1.35151E+01-1.99535E+00 2.64179E-02-4.90735E+00 2.00548E-13 8.35998E-14
 -1      3294 1.56753E+01-1.77118E+00 1.04659E-01-4.42246E+00 1.17850E-13 6.13988E-14
 -1      3295 9.39373E+00 1.58751E-01 7.01076E-02-1.12218E+00-8.57231E-14 4.04232E-13
 -1      3296 1.01856E+01-3.72294E-01 1.00059E-01-2.91620E+00 2.14238E-14 3.86954E-13
 -1      3297 1.24776E+01-3.09310E-01 1.25812E-01-3.14004E+00-6.90767E-15 2.43472E-13
 -1      3298 1.01743E+01 1.04180E-01 7.89080E-02-1.68441E+00-1.53631E-13-6.05863E-13
 -1      3299 1.14437E+01-6.60872E-01 7.85020E-02-3.67259E+00-2.76529E-13-5.22915E-13
 -1      3300 1.92688E+01 2.86059E+00-3.67519E-03-1.79978E-02 1.34867E-13-4.39515E-13
 -1      3301 1.92582E+01 2.86786E+00-4.75658E-03-5.36825E-02 9.36625E-14-4.36368E-13
 -1      3302 1.93262E+01 2.61738E+00 6.99944E-03-5.11938E-02 1.46340E-13-4.14653E-13
 -1      3303 2.16049E+01-3.72092E+00 3.77368E-02 3.47085E+00-2.39510E-13-2.65735E-13
 -1      3304 2.05661E+01 2.43535E-01 4.70433E-03-1.21738E+00 1.13372E-13-5.86652E-14
 -1      3305 2.03538E+01 3.75546E-01-4.79735E-03-1.20904E+00 9.70563E-14-1.20322E-13
 -1      3306 2.06566E+01 1.18075E-01 1.17006E-03-1.28632E+00 1.06405E-13-7.22161E-14
 -1      3307 2.25863E+01-4.08626E+00 1.77470E-02 3.26852E+00 7.94052E-14-6.65960E-15
 -1      3308 2.00035E+01 4.88228E-03-3.01063E-05-2.40679E-03-1.69720E-13-2.05674E-14
 -1      3309 2.00033E+01 4.38967E-03 8.47897E-06-2.97856E-03-1.82518E-13 2.75243E-13
 -1      3310 2.54771E+01 4.84528E+00-1.07212E-01 5.00662E-01 4.93175E-13 1.81430E-13
 -1      3311 2.45256E+01 3.90616E+00-8.22279E-02-3.04226E-02 3.32005E-13 1.62011E-13
 -1      3312 2.39418E+01 3.36937E+00-5.10127E-02 7.07289E-01 3.63105E-13 2.12056E-13
 -1      3313 2.60550E+01 4.27372E+00-1.10830E-01 1.46529E+00 4.62977E-13 2.02581E-13
 -1      3314 2.05705E+01-2.68448E+00-1.81072E-03 3.48361E+00 1.69750E-13-1.14780E-13
 -1      3315 2.20394E+01-2.96474E+00 2.91261E-02 2.81196E+00 8.26058E-14 2.66610E-14
 -1      3316 1.08079E+01 5.29390E-01 1.31588E-01-3.79089E-01-6.07552E-14-6.08208E-13
 -1      3317 1.21287E+01 5.00661E-01 5.54365E-02-1.26792E+00-1.23776E-13-4.94743E-13
 -1      3318 1.18302E+01 5.58167E-01 1.72255E-02 8.65102E-01 3.59764E-14-5.10508E-13
 -1      3319 2.29597E+01-3.52673E+00 2.66327E-02 2.50690E+00 5.21215E-14 4.32770E-14
 -1      3320 1.10566E+01 5.41706E-01 9.95267E-02-4.25820E-01-1.72619E-13 2.42896E-13
 -1      3321 1.96664E+01 2.46504E+00-4.75400E-03-1.29974E-01-6.60074E-14-4.49072E-13
 -1      3322 1.98245E+01 2.29049E+00-5.48240E-03-1.74899E-01-1.03548E-13-4.56006E-13
 -1      3323 2.02855E+01 1.47654E+00-1.34666E-03 2.78415E-02-1.66702E-13-3.49599E-13
 -1      3324 2.02751E+01 1.30232E+00-1.65546E-03 2.61582E-01-1.62022E-13-3.22358E-13
 -1      3325 2.01098E+01 1.42737E+00 1.34241E-03 3.47341E-01-1.37806E-13-3.38427E-13
 -1      3326 2.60267E+01-3.92784E+00-8.74412E-03-8.68143E-01 1.23385E-13-4.15310E-13
 -1      3327 2.49313E+01-4.07118E+00 4.11381E-02-1.60190E+00 2.31723E-13-3.47052E-13
 -1      3328 2.00039E+01 1.06845E-02 6.81233E-05-2.84283E-04-3.80294E-15-1.44034E-15
 -1      3329 2.00034E+01 7.04591E-03-3.21478E-05-5.67764E-04-9.23155E-14 1.35616E-13
 -1      3330 2.00035E+01 6.84599E-03-7.27448E-06-1.02105E-03-1.22543E-13-5.94023E-14
 -1      3331 2.01737E+01 1.91648E+00-9.98641E-04-2.38666E-01-1.66454E-13-3.93299E-13
 -1      3332 2.06963E+01-3.02142E-01-1.07305E-02-1.53924E+00 4.24561E-14-5.82368E-14
 -1      3333 2.08869E+01-1.89129E-01 6.11681E-04-1.37965E+00 5.45555E-14-4.55779E-14
 -1      3334 2.07483E+01-2.15428E-02 6.59065E-03-1.36198E+00 8.99581E-14-4.67024E-14
 -1      3335 2.59633E+01 2.46536E-01-5.22337E-02 2.03620E+00 7.68760E-14 2.71561E-13
 -1      3336 2.40068E+01 2.85504E+00-6.31744E-02 1.37686E+00 3.72868E-13 3.07332E-13
 -1      3337 2.53636E+01-5.88032E-01-3.84712E-02-1.88181E+00 3.99472E-14-6.22072E-15
 -1      3338 1.27123E+01-6.99659E-01 1.02419E-01 3.47701E+00 1.61669E-13-5.06768E-13
 -1      3339 2.00035E+01 6.19508E-03-3.74918E-05-1.39114E-03-1.90342E-13-1.30383E-13
 -1      3340 2.00035E+01 5.82808E-03 4.89499E-06-1.90738E-03-6.57831E-14-1.72802E-13
 -1      3341 2.00040E+01 8.20937E-03 3.33769E-05-1.54472E-03-2.05620E-13-4.49561E-14
 -1      3342 2.00040E+01 9.81704E-03 5.95184E-05-7.87292E-04-1.39630E-13-1.68091E-13
 -1      3343 1.94765E+01 2.65107E+00-5.56167E-03 4.15925E-02 2.11910E-13-3.82333E-13
 -1      3344 1.94731E+01 2.47412E+00 7.04240E-03-5.13880E-02 1.83602E-13-3.71858E-13
 -1      3345 1.95979E+01 2.53547E+00-3.25678E-03 9.15277E-02 2.56609E-13-3.49268E-13
 -1      3346 1.14430E+01-9.51538E-02 1.23758E-01 2.84203E+00-1.83062E-13-2.34951E-14
 -1      3347 1.21363E+01 3.88023E-01 4.42336E-02 1.94822E+00-1.65536E-13 2.09555E-14
 -1      3348 1.29460E+01-5.17230E-01 2.27813E-02 3.48930E+00-1.95002E-13-1.30521E-14
 -1      3349 2.00034E+01 4.28204E-03-3.10099E-06 2.95352E-03-3.09440E-13-1.51441E-13
 -1      3350 2.00036E+01 4.79211E-03-3.48455E-05 2.34532E-03-3.08196E-13 1.10215E-13
 -1      3351 1.63237E+01-2.54313E+00 1.07184E-01 5.12497E+00-2.44624E-13-3.56104E-14
 -1      3352 1.49725E+01-1.62526E+00 4.68345E-02 4.51736E+00-2.70076E-13 1.38840E-13
 -1      3353 1.81162E+01-2.85571E+00-1.98991E-02 4.49963E+00-2.31287E-13-2.85900E-13
 -1      3354 2.00040E+01 6.77817E-03 5.97013E-05 2.24064E-03-3.71739E-13-2.08704E-13
 -1      3355 2.69932E+01 2.99017E-01-7.97083E-02 1.94216E+00 1.45342E-13 2.09652E-13
 -1      3356 1.33441E+01-7.69506E-01 1.00241E-01-3.72930E+00-2.75970E-13-3.50005E-13
 -1      3357 2.56313E+01-3.71886E+00-1.48278E-02-9.54104E-01-2.29793E-13 1.14710E-13
 -1      3358 2.67411E+01-3.15024E+00-4.48029E-02-1.15759E-01-1.41838E-13 1.45169E-13
 -1      3359 2.63925E+01-2.11748E+00-2.23131E-02 8.90819E-01-7.86628E-14 2.23085E-13
 -1      3360 1.74704E+01-3.03876E+00 4.56140E-02 5.05324E+00 2.11955E-13-4.10692E-13
 -1      3361 1.61139E+01-2.11925E+00 9.60104E-03 4.63708E+00 2.55043E-13-4.62783E-13
 -1      3362 1.91020E+01-2.97053E+00 8.84451E-03 4.40003E+00 1.98074E-13-3.48305E-13
 -1      3363 1.71719E+01-2.90344E+00 1.02874E-01-5.15208E+00-3.79207E-13-1.64681E-13
 -1      3364 1.87665E+01-3.32880E+00-7.44262E-03-4.72663E+00-3.62377E-13-9.12187E-14
 -1      3365 1.65148E+01-2.17230E+00 4.90531E-02-4.69848E+00-3.13825E-13-1.83652E-13
 -1      3366 2.00284E+01 1.86350E+00 5.42334E-03 6.57384E-03 2.71180E-13-2.57832E-13
 -1      3367 1.98993E+01 2.20331E+00-4.32095E-03 1.70277E-01 3.00874E-13-3.06620E-13
 -1      3368 1.97408E+01 2.37755E+00-5.06491E-03 1.14836E-01 2.70065E-13-3.31128E-13
 -1      3369 1.98969E+01-3.02876E+00 6.29254E-02-3.94859E+00 1.53915E-13-1.36162E-13
 -1      3370 2.51654E+01 2.70687E+00-3.42759E-02-1.86769E+00 3.00107E-13 3.48402E-14
 -1      3371 2.27910E+01-4.65158E+00 5.67674E-02-3.87133E+00-3.38819E-13 2.47094E-14
 -1      3372 2.39875E+01-4.42002E+00 3.29291E-03-2.68021E+00-2.87683E-13-2.44596E-15
 -1      3373 2.12421E+01-4.18119E+00 1.06282E-02-4.21504E+00-3.50858E-13-6.58987E-14
 -1      3374 2.00041E+01 8.10589E-03 1.06585E-06 1.50798E-03-3.94124E-13 7.85305E-14
 -1      3375 2.04612E+01 7.53856E-01-8.11200E-04-5.42970E-01 1.90897E-13-1.45371E-13
 -1      3376 2.04692E+01 8.93048E-01 3.57997E-03-3.40874E-01 2.27240E-13-1.35423E-13
 -1      3377 2.03810E+01 1.08686E+00 2.90739E-04-2.81317E-01 2.46010E-13-1.44712E-13
 -1      3378 2.03387E+01 8.46969E-01-1.74081E-03-6.31029E-01 1.74336E-13-1.49406E-13
 -1      3379 1.94174E+01 2.71806E+00-4.52632E-03-8.56329E-02 4.69243E-15-4.67286E-13
 -1      3380 1.95280E+01 2.60901E+00-4.40194E-03-1.25233E-01-4.01642E-14-4.52233E-13
 -1      3381 1.96317E+01 2.31413E+00 5.64420E-03 1.57559E-03-6.21168E-14-4.31348E-13
 -1      3382 2.58527E+01 3.24888E+00-8.45790E-02 1.72252E+00 4.48946E-13 1.98159E-13
 -1      3383 1.95404E+01 9.56804E-01-2.60550E-03 1.26643E+00-4.51270E-14-2.55049E-13
 -1      3384 1.94849E+01 8.65229E-01 2.90900E-03 1.42706E+00-2.51303E-14-2.57901E-13
 -1      3385 1.93356E+01 7.56589E-01-3.57387E-03 1.59663E+00-1.00607E-14-2.59441E-13
 -1      3386 1.93086E+01 6.29984E-01 6.45803E-03 1.75726E+00 4.24812E-14-2.27143E-13
 -1      3387 1.90861E+01 9.56691E-01 2.94150E-03 1.42713E+00-1.07506E-14-2.37670E-13
 -1      3388 1.91572E+01 4.63375E-01-3.81007E-03 1.95299E+00 4.21440E-14-2.32392E-13
 -1      3389 1.91962E+01 2.58531E-01 1.17983E-02 2.12324E+00 6.82330E-14-2.43193E-13
 -1      3390 1.87860E+01 6.99637E-01 1.23339E-03 1.78889E+00 4.03661E-14-2.58860E-13
 -1      3391 1.90785E+01-1.10491E-02-5.49812E-04 2.36644E+00 1.08390E-13-2.63787E-13
 -1      3392 1.92424E+01-3.54779E-01 1.80554E-02 2.55533E+00 1.16376E-13-2.41078E-13
 -1      3393 1.85088E+01 2.90583E-01-2.57277E-03 2.23321E+00 7.82538E-14-3.52446E-13
 -1      3394 1.92318E+01-7.43580E-01 2.31974E-02 2.85703E+00 1.23416E-13-2.11007E-13
 -1      3395 1.95399E+01-1.34596E+00 7.27519E-03 3.09038E+00 1.65371E-13-2.20129E-13
 -1      3396 1.83515E+01-3.91627E-01-7.32716E-03 2.81634E+00 1.22633E-13-3.21185E-13
 -1      3397 1.91934E+01-1.35514E+00 3.96172E-02-3.08063E+00 2.19982E-13-3.19231E-13
 -1      3398 1.87192E+01-7.80624E-01 7.46601E-03-2.86662E+00 1.16784E-13-4.08807E-13
 -1      3399 1.87841E+01-3.37293E-01 2.54684E-02-2.50052E+00 9.83807E-14-3.29472E-13
 -1      3400 1.85995E+01-6.50087E-03-7.82602E-03-2.29857E+00 1.59308E-13-2.43198E-13
 -1      3401 1.77735E+01-3.16817E-01 1.39280E-02-2.79288E+00 1.79303E-13-3.81989E-13
 -1      3402 1.87580E+01 2.70486E-01 1.55117E-02-2.02654E+00 1.63458E-13-2.08046E-13
 -1      3403 1.87094E+01 4.51277E-01-9.03477E-03-1.85516E+00 6.67906E-14-2.55673E-13
 -1      3404 1.79877E+01 3.43394E-01 1.23228E-02-2.14465E+00 1.71442E-13-3.48601E-13
 -1      3405 1.88871E+01 5.96971E-01 8.75944E-03-1.65539E+00-1.53114E-13-1.83074E-13
 -1      3406 1.89060E+01 6.79037E-01-7.89336E-03-1.51278E+00-2.31432E-13-1.58429E-13
 -1      3407 1.83018E+01 6.93538E-01 1.16378E-02-1.68358E+00-3.21475E-14-4.36566E-13
 -1      3408 1.90723E+01 7.39913E-01 4.86078E-03-1.36212E+00-2.05082E-13-2.65939E-13
 -1      3409 1.91177E+01 7.60328E-01-6.53469E-03-1.24158E+00-2.20564E-13-2.64886E-13
 -1      3410 1.86221E+01 8.45610E-01 1.00606E-02-1.35052E+00-2.11304E-13-2.72290E-13
 -1      3411 1.92624E+01 7.69061E-01 2.78493E-03-1.12259E+00-2.38439E-13-2.05250E-13
 -1      3412 1.93131E+01 7.52794E-01-5.36186E-03-1.01885E+00-2.43294E-13-1.97450E-13
 -1      3413 1.89126E+01 8.77355E-01 8.42498E-03-1.09793E+00-2.20156E-13-3.51338E-13
 -1      3414 1.94339E+01 7.31533E-01 1.73073E-03-9.21479E-01-2.30957E-13-1.91603E-13
 -1      3415 1.94800E+01 6.95480E-01-4.40302E-03-8.31456E-01-1.46422E-13-3.28826E-13
 -1      3416 1.91611E+01 8.37336E-01 6.90141E-03-8.96465E-01-2.51449E-13-3.63591E-13
 -1      3417 1.95781E+01 6.58870E-01 1.22752E-03-7.50050E-01-3.15665E-14-3.15079E-13
 -1      3418 1.96161E+01 6.14000E-01-3.61917E-03-6.72107E-01 2.38908E-14-2.79510E-13
 -1      3419 1.93658E+01 7.58330E-01 5.57187E-03-7.29881E-01-1.10945E-13-3.71986E-13
 -1      3420 1.96939E+01 5.71332E-01 9.91028E-04-6.03549E-01 2.36169E-15-2.25034E-13
 -1      3421 1.97232E+01 5.24495E-01-2.96656E-03-5.36720E-01-2.12213E-14-1.97437E-13
 -1      3422 1.95298E+01 6.61785E-01 4.43881E-03-5.89504E-01 4.36337E-14-1.70746E-13
 -1      3423 1.97839E+01 4.81399E-01 8.68102E-04-4.79158E-01 1.11796E-14-2.10616E-13
 -1      3424 1.98054E+01 4.36631E-01-2.41537E-03-4.22652E-01 1.22807E-13-1.48394E-13
 -1      3425 1.96583E+01 5.61320E-01 3.48996E-03-4.70709E-01 4.07154E-14-1.80918E-13
 -1      3426 1.98519E+01 3.96297E-01 7.83721E-04-3.74777E-01 1.61219E-13-2.03477E-13
 -1      3427 1.98671E+01 3.55763E-01-1.94757E-03-3.27752E-01 1.10248E-13-1.44532E-13
 -1      3428 1.97570E+01 4.65144E-01 2.70772E-03-3.70737E-01 1.61567E-13-1.80189E-13
 -1      3429 1.99021E+01 3.19798E-01 7.06110E-04-2.88446E-01 4.96578E-14-4.99632E-14
 -1      3430 1.99124E+01 2.84456E-01-1.55198E-03-2.49954E-01-6.99489E-15-7.80494E-15
 -1      3431 1.98315E+01 3.77787E-01 2.07235E-03-2.87549E-01 1.84320E-13-1.82798E-13
 -1      3432 1.99384E+01 2.53473E-01 6.25442E-04-2.18157E-01-1.03860E-13 1.72735E-13
 -1      3433 1.99450E+01 2.23530E-01-1.22054E-03-1.87169E-01 7.42122E-14 7.08693E-15
 -1      3434 1.98867E+01 3.01336E-01 1.56367E-03-2.19300E-01 5.00466E-14-1.80517E-14
 -1      3435 1.99639E+01 1.97541E-01 5.41702E-04-1.61846E-01 1.52877E-13-4.45527E-14
 -1      3436 1.99678E+01 1.72758E-01-9.46293E-04-1.37308E-01 1.08255E-13-7.49742E-14
 -1      3437 1.99268E+01 2.36316E-01 1.16212E-03-1.64174E-01 4.62508E-14-2.32016E-14
 -1      3438 1.99813E+01 1.51432E-01 4.58275E-04-1.17462E-01 2.55267E-16-1.66985E-13
 -1      3439 1.99834E+01 1.31328E-01-7.22570E-04-9.83481E-02-1.34328E-13-9.54353E-14
 -1      3440 1.99554E+01 1.82300E-01 8.49590E-04-1.20360E-01-1.72551E-14-1.38209E-13
 -1      3441 1.99927E+01 1.14162E-01 3.78911E-04-8.30501E-02-2.11658E-13-1.43805E-13
 -1      3442 1.99936E+01 9.81449E-02-5.42825E-04-6.84087E-02-1.15391E-13-1.85934E-13
 -1      3443 1.99752E+01 1.38324E-01 6.09829E-04-8.61070E-02-1.28495E-13-1.37341E-13
 -1      3444 1.99999E+01 8.45652E-02 3.06529E-04-5.68170E-02-8.56900E-14-4.02598E-13
 -1      3445 2.00000E+01 7.20130E-02-4.00778E-04-4.57955E-02 2.40947E-15-5.82092E-13
 -1      3446 1.99884E+01 1.03166E-01 4.28644E-04-5.97769E-02-2.64314E-13-3.36828E-13
 -1      3447 2.00040E+01 6.14380E-02 2.42942E-04-3.71717E-02 1.80925E-13-7.31518E-13
 -1      3448 2.00036E+01 5.17473E-02-2.90654E-04-2.90318E-02 1.18095E-13-5.97207E-13
 -1      3449 1.99968E+01 7.55190E-02 2.93818E-04-3.98903E-02 5.03255E-14-6.13343E-13
 -1      3450 2.00059E+01 4.36251E-02 1.88756E-04-2.27479E-02 1.95345E-13-4.75858E-13
 -1      3451 2.00052E+01 3.62378E-02-2.07858E-04-1.68685E-02 1.55676E-13-2.61438E-13
 -1      3452 2.00018E+01 5.41009E-02 1.94961E-04-2.51557E-02 2.56608E-13-8.75156E-13
 -1      3453 2.00064E+01 3.00733E-02 1.44658E-04-1.24085E-02-1.11720E-13-1.88009E-14
 -1      3454 2.00056E+01 2.45006E-02-1.36961E-04-8.27896E-03-2.12725E-13 6.04976E-14
 -1      3455 2.00044E+01 3.77080E-02 1.21460E-04-1.44834E-02 1.41710E-13-5.67411E-13
 -1      3456 2.00060E+01 1.98189E-02 1.03463E-04-5.16557E-03-4.49123E-13 1.02529E-13
 -1      3457 2.00052E+01 1.55462E-02-1.05372E-04-2.38224E-03-6.09181E-13-2.85784E-14
 -1      3458 2.00052E+01 2.53316E-02 6.87643E-05-6.98578E-03-2.46397E-13-1.51380E-13
 -1      3459 2.00052E+01 1.25808E-02 1.21161E-04-7.44925E-04-6.09254E-13-1.78777E-14
 -1      3460 2.00044E+01 9.30948E-03-3.01853E-05 1.06117E-03-4.51160E-13-1.17871E-13
 -1      3461 2.00044E+01 9.92025E-03-1.79873E-05 8.52453E-04-5.92041E-13-1.02644E-13
 -1      3462 2.00051E+01 1.59700E-02-1.05650E-04-2.15588E-03-5.98513E-13 7.74522E-14
 -1      3463 2.00030E+01 3.24529E-03-2.17014E-05-3.52343E-03-8.91977E-14 3.60780E-13
 -1      3464 2.00026E+01 2.74338E-03 4.97546E-06-4.01890E-03-1.29451E-13 2.23168E-13
 -1      3465 2.00029E+01 3.92873E-03-2.07839E-06-3.64824E-03-2.83993E-13 2.84553E-13
 -1      3466 2.00036E+01 6.05422E-03-1.35238E-06-2.56800E-03-3.18963E-13 2.96790E-13
 -1      3467 2.55476E+01-2.05210E+00-2.26870E-02 9.12852E-01-7.84130E-14 2.55830E-13
 -1      3468 2.51353E+01-2.67023E+00 1.87045E-03 3.00873E-01-1.71244E-13 2.29836E-13
 -1      3469 2.40372E+01-2.85785E+00-1.44519E-02-5.05742E-01-1.83533E-13 1.52430E-13
 -1      3470 2.35353E+01-2.71356E+00 4.13885E-02-9.63135E-01-1.44826E-13 1.25232E-13
 -1      3471 1.90719E+01-2.08580E+00 1.18296E-02 3.69854E+00 1.87421E-13-2.98490E-13
 -1      3472 2.27860E+01-2.37072E+00 3.69782E-02 1.20679E+00-1.10430E-13 1.59789E-13
 -1      3473 2.34083E+01-2.59713E+00 2.30808E-02 7.80693E-01-4.80861E-14 1.93312E-13
 -1      3474 2.37865E+01-3.00495E+00 3.80157E-02 9.93014E-01-1.59436E-13 6.69083E-14
 -1      3475 2.44241E+01-2.96335E+00 3.40908E-03 4.46229E-01-2.17017E-13-9.52363E-15
 -1      3476 2.08127E+01-8.75285E-01 1.45989E-02 1.64523E+00 9.27805E-14 1.06436E-13
 -1      3477 2.11414E+01-1.22224E+00 4.67644E-03 1.59450E+00 3.91492E-14 1.13297E-13
 -1      3478 2.03388E+01-3.23307E-01 7.32479E-03 1.55569E+00-1.47187E-14 2.14481E-13
 -1      3479 2.05549E+01-5.77211E-01 5.39297E-03 1.57804E+00 3.84775E-14 2.20987E-13
 -1      3480 2.02076E+01-7.41325E-01-1.72594E-02 1.84239E+00-2.67049E-14 3.06283E-14
 -1      3481 2.00791E+01 4.79322E-02 3.07132E-03 1.39905E+00-1.12926E-13 2.60306E-13
 -1      3482 2.02125E+01-1.17439E-01 4.93919E-03 1.45777E+00-9.56904E-14 2.22034E-13
 -1      3483 1.98668E+01-1.86062E-01-1.04314E-02 1.63604E+00-2.44420E-14 1.24320E-13
 -1      3484 1.99532E+01 2.70444E-01 5.71653E-04 1.21902E+00-2.84378E-14 4.28000E-13
 -1      3485 2.00316E+01 1.75714E-01 4.12727E-03 1.29410E+00-2.77177E-14 3.90167E-13
 -1      3486 1.97170E+01 1.70675E-01-5.36977E-03 1.41171E+00-1.35508E-13 3.04865E-13
 -1      3487 1.99049E+01 3.83458E-01-7.67146E-04 1.03776E+00-1.66126E-13 4.30811E-13
 -1      3488 1.99494E+01 3.39169E-01 3.24708E-03 1.11790E+00-1.51294E-14 4.36625E-13
 -1      3489 1.96766E+01 3.73559E-01-2.38587E-03 1.19562E+00-5.01948E-14 5.13995E-13
 -1      3490 1.98979E+01 4.22113E-01-1.41299E-03 8.66317E-01-5.69699E-14 2.61723E-13
 -1      3491 1.99228E+01 4.11224E-01 2.57060E-03 9.44880E-01-1.60527E-13 3.68585E-13
 -1      3492 1.96939E+01 4.67685E-01-7.09010E-04 9.97769E-01-7.41872E-14 3.78734E-13
 -1      3493 1.99104E+01 4.14041E-01-1.65451E-03 7.10305E-01-4.31564E-14 1.05761E-13
 -1      3494 1.99246E+01 4.23583E-01 2.08930E-03 7.83399E-01 3.37423E-15 2.61210E-13
 -1      3495 1.97374E+01 4.90012E-01 1.51865E-04 8.21214E-01-3.88781E-14 2.26522E-13
 -1      3496 1.99300E+01 3.79321E-01-1.66133E-03 5.72381E-01-1.82601E-13-1.63445E-14
 -1      3497 1.99387E+01 4.00063E-01 1.74602E-03 6.37872E-01-1.40456E-13-3.18928E-14
 -1      3498 1.97888E+01 4.68358E-01 5.33197E-04 6.66471E-01 7.70148E-15 2.69940E-13
 -1      3499 1.99501E+01 3.31710E-01-1.53960E-03 4.53385E-01 5.62347E-14 7.34229E-14
 -1      3500 1.99560E+01 3.57431E-01 1.48637E-03 5.10322E-01-1.13378E-13 5.33275E-14
 -1      3501 1.98386E+01 4.22472E-01 6.48290E-04 5.33035E-01-1.11790E-13 4.32399E-14
 -1      3502 1.99676E+01 2.80141E-01-1.35533E-03 3.52935E-01 1.48453E-13 1.05709E-13
 -1      3503 1.99723E+01 3.06868E-01 1.27319E-03 4.01187E-01 1.97141E-13 1.67447E-13
 -1      3504 1.98822E+01 3.65718E-01 6.25471E-04 4.19838E-01 1.09550E-13 1.02213E-13
 -1      3505 1.99816E+01 2.30050E-01-1.14931E-03 2.69831E-01 1.60958E-13 4.57782E-14
 -1      3506 1.99857E+01 2.55420E-01 1.08657E-03 3.09810E-01 1.28060E-13-2.25673E-14
 -1      3507 1.99179E+01 3.06684E-01 5.40150E-04 3.25390E-01 1.51080E-13 2.40989E-13
 -1      3508 1.99920E+01 1.84453E-01-9.45986E-04 2.02365E-01 4.39874E-14 3.04281E-14
 -1      3509 1.99957E+01 2.07204E-01 9.17969E-04 2.34816E-01 1.61901E-13 5.64347E-14
 -1      3510 1.99459E+01 2.50532E-01 4.34815E-04 2.47889E-01 8.37618E-14 2.27574E-13
 -1      3511 1.99992E+01 1.44756E-01-7.59062E-04 1.48576E-01-1.79703E-13 2.66636E-13
 -1      3512 2.00025E+01 1.64350E-01 7.64892E-04 1.74417E-01-1.05210E-13 9.69689E-14
 -1      3513 1.99668E+01 2.00055E-01 3.31843E-04 1.85344E-01-5.03506E-14 3.28561E-13
 -1      3514 2.00038E+01 1.11337E-01-5.95252E-04 1.06441E-01-1.09536E-13 3.36938E-13
 -1      3515 2.00068E+01 1.27694E-01 6.27391E-04 1.26643E-01-9.59114E-14 2.73128E-13
 -1      3516 1.99819E+01 1.56468E-01 2.41680E-04 1.35697E-01-1.85100E-13 4.41179E-13
 -1      3517 2.00064E+01 8.39542E-02-4.56790E-04 7.40076E-02 5.67783E-14 1.68251E-13
 -1      3518 2.00090E+01 9.72632E-02 5.06084E-04 8.95173E-02 5.65439E-15 3.02725E-13
 -1      3519 1.99923E+01 1.19985E-01 1.67978E-04 9.69361E-02 3.62618E-14 4.06359E-13
 -1      3520 2.00075E+01 6.20282E-02-3.43188E-04 4.94864E-02 2.12299E-13 1.29459E-14
 -1      3521 2.00098E+01 7.26213E-02 4.01275E-04 6.11745E-02 1.72272E-13 1.48004E-13
 -1      3522 1.99991E+01 9.02211E-02 1.10749E-04 6.71798E-02 1.01935E-13 2.61600E-13
 -1      3523 2.00076E+01 4.48163E-02-2.52529E-04 3.12980E-02 1.22848E-14 2.81122E-14
 -1      3524 2.00096E+01 5.30886E-02 3.12701E-04 3.99328E-02 1.12670E-13 5.12472E-14
 -1      3525 2.00032E+01 6.64658E-02 6.82162E-05 4.47337E-02 1.61947E-13 2.85698E-13
 -1      3526 2.00071E+01 3.15280E-02-1.82174E-04 1.80965E-02-8.27029E-14-2.30974E-14
 -1      3527 2.00088E+01 3.78868E-02 2.39463E-04 2.43308E-02-3.62304E-14-8.63256E-14
 -1      3528 2.00053E+01 4.78611E-02 3.78403E-05 2.81204E-02 4.31501E-14 1.70967E-13
 -1      3529 2.00062E+01 2.13936E-02-1.28604E-04 8.76785E-03-5.78383E-14 1.52585E-13
 -1      3530 2.00076E+01 2.62295E-02 1.80160E-04 1.31409E-02-1.25005E-13 9.45520E-14
 -1      3531 2.00060E+01 3.35167E-02 1.71150E-05 1.60920E-02-1.78864E-13-2.66086E-15
 -1      3532 2.00050E+01 1.36973E-02-9.03961E-05 2.39679E-03-5.95299E-14 3.32656E-13
 -1      3533 2.00062E+01 1.73865E-02 1.37326E-04 5.35801E-03 2.66500E-14 3.15293E-13
 -1      3534 2.00058E+01 2.25796E-02 2.13228E-06 7.63367E-03-2.26362E-13 2.33766E-13
 -1      3535 2.00038E+01 1.42830E-02-2.75291E-05-6.71425E-05 8.17797E-14-8.48244E-15
 -1      3536 2.00037E+01 1.44988E-02-4.78336E-05-1.65571E-04 7.14005E-14-5.16839E-14
 -1      3537 2.00183E+01 2.01175E+00 7.91161E-05-1.13757E-01-1.38509E-13-4.01558E-13
 -1      3538 2.15953E+01-1.59706E+00 2.46398E-02 1.58046E+00-1.36050E-14 1.83667E-13
 -1      3539 2.20541E+01-1.99357E+00 1.11464E-03 1.39986E+00-6.43925E-14 1.57081E-13
 -1      3540 2.19443E+01-2.41843E+00-2.04876E-02 1.87040E+00-4.33733E-14 1.06051E-13
 -1      3541 2.08537E+01-1.50194E+00-1.91762E-02 1.96608E+00 4.15796E-14 2.94404E-14
 -1      3542 1.18375E+01 7.35136E-01 1.83197E-02 2.26512E-01-1.46108E-13 2.28643E-13
 -1      3543 1.19407E+01 6.46291E-01 6.54165E-02-1.32539E+00-1.23874E-13 3.04881E-13
 -1      3544 1.46870E+01-9.60521E-01 9.26230E-02 4.07041E+00 2.04513E-13-4.58675E-13
 -1      3545 1.31921E+01-6.71417E-02 1.58898E-02 2.76908E+00 1.37461E-13-4.50084E-13
 -1      3546 2.00042E+01 1.30405E-02 1.08062E-05 1.77007E-05-3.02074E-13-1.80043E-13
 -1      3547 2.00039E+01 1.35621E-02-6.44646E-05-1.67009E-04-4.46176E-14-3.26054E-13
 -1      3548 2.00041E+01 1.81036E-02 1.01406E-04-5.97517E-04-1.12216E-13-2.24550E-13
 -1      3549 2.54040E+01-2.74294E+00 6.27091E-02-2.10573E-01-1.30212E-13-5.41130E-14
 -1      3550 2.01560E+01 6.97958E-01 6.65568E-04-1.00726E+00 1.17416E-13-1.79634E-13
 -1      3551 2.01535E+01 8.28012E-01 1.80112E-03-8.54088E-01 1.36100E-13-1.76289E-13
 -1      3552 2.09094E+01-9.19154E-01 4.94180E-03-1.76974E+00-5.74320E-14 1.07265E-14
 -1      3553 2.06487E+01-5.97394E-01 1.14119E-02-1.77418E+00-1.61288E-14-5.32318E-14
 -1      3554 1.90888E+01-2.18865E+00 4.75779E-02-3.73354E+00 2.34460E-13-1.62072E-13
 -1      3555 1.97317E+01 1.13782E+00-1.70951E-03 9.34685E-01-5.67173E-14-2.86417E-13
 -1      3556 1.96696E+01 1.04644E+00 4.56261E-04 1.10545E+00-5.07542E-14-2.78714E-13
 -1      3557 1.93635E+01 1.14965E+00 3.47345E-03 1.10296E+00-2.88044E-14-2.67995E-13
 -1      3558 1.26373E+01 1.68671E-01 2.73902E-02-2.39020E+00-6.61840E-14 1.77920E-13
 -1      3559 1.38813E+01-4.88481E-01 2.20313E-02-3.43660E+00 2.42341E-15 1.27010E-13
 -1      3560 1.92808E+01 2.84925E+00-4.16385E-03-5.16507E-02 6.78285E-14-4.51681E-13
 -1      3561 1.93329E+01 2.79964E+00-4.44871E-03-8.69474E-02 2.71235E-14-4.63804E-13
 -1      3562 1.94067E+01 2.54034E+00 6.24879E-03-1.32186E-02 1.64220E-14-4.34786E-13
 -1      3563 1.33642E+01-1.85755E-01 2.70802E-02-3.00664E+00-2.49524E-13-3.60732E-13
 -1      3564 1.48431E+01-1.04911E+00 3.47805E-02-4.00418E+00-2.89376E-13-1.89362E-13
 -1      3565 2.64132E+01-1.04538E+00-9.65702E-02-1.61167E+00 7.38160E-14-6.24206E-14
 -1      3566 2.62929E+01-2.01885E+00-3.68945E-02-1.03256E+00 3.51416E-14-9.68878E-14
 -1      3567 2.58017E+01-2.33692E+00-4.25055E-02-8.89407E-01-3.91570E-14-1.01298E-13
 -1      3568 2.20544E+01-3.51355E+00-6.45509E-03 2.86672E+00-2.21277E-13-1.96914E-13
 -1      3569 2.04609E+01-3.27154E+00 9.75840E-02 3.98673E+00-2.26808E-13-2.61062E-13
 -1      3570 1.90161E+01-2.67723E+00 3.14567E-02 4.01199E+00-2.34493E-13-1.95653E-13
 -1      3571 2.00045E+01 1.08863E-02-4.71988E-05 3.78052E-04-5.30570E-13 9.36318E-15
 -1      3572 1.99539E+01 1.87938E+00 3.98015E-03 7.23388E-02-1.22318E-13-3.96227E-13
 -1      3573 1.98823E+01 1.36276E+00-1.87408E-03 5.78906E-01-8.16914E-14-3.30393E-13
 -1      3574 1.98306E+01 1.24330E+00-7.73799E-04 7.69673E-01-5.89797E-14-3.24703E-13
 -1      3575 1.95927E+01 1.34797E+00 3.32046E-03 7.83492E-01-5.03698E-14-3.02632E-13
 -1      3576 2.29598E+01-3.37999E+00-3.22001E-02 1.97033E+00-1.75297E-13-3.15230E-14
 -1      3577 1.74516E+01-1.63057E+00-2.36067E-02-3.86868E+00 1.77664E-13-2.20116E-13
 -1      3578 2.04654E+01 8.36921E-02-7.11341E-03-1.41284E+00 8.53971E-14-8.93518E-14
 -1      3579 1.97148E+01 2.21987E+00 5.52500E-03-2.89754E-02 2.35531E-13-3.15030E-13
 -1      3580 2.01691E+01 4.32446E-01 2.37208E-03-1.28058E+00 7.47096E-14-1.52947E-13
 -1      3581 2.01358E+01 5.69271E-01 2.07874E-03-1.15680E+00 8.42351E-14-1.78331E-13
 -1      3582 1.99448E+01 7.55040E-01-2.08654E-03-1.07930E+00 9.85229E-14-2.11058E-13
 -1      3583 1.93052E+01 2.38361E+00-2.34308E-03-9.83537E-02 1.51808E-13-3.88573E-13
 -1      3584 1.92547E+01 2.42294E+00-4.95010E-03-8.43655E-02 1.25387E-13-4.06497E-13
 -1      3585 1.31299E+01 5.39084E-01 9.60627E-02 1.89937E+00 1.04491E-13-4.46615E-13
 -1      3586 1.33509E+01 7.33840E-01 1.03412E-02 8.88369E-01 3.78239E-14-4.32279E-13
 -1      3587 1.46362E+01 1.94981E-01 1.17778E-02 2.50122E+00 1.28950E-13-4.06522E-13
 -1      3588 1.31579E+01 7.08408E-01-1.90828E-02-9.03266E-01-7.41967E-14-3.98029E-13
 -1      3589 1.31405E+01 4.46185E-01 8.03003E-02-2.05278E+00-1.77939E-13-4.02740E-13
 -1      3590 1.44702E+01 1.84520E-01 3.57754E-02-2.42022E+00-1.99823E-13-2.93446E-13
 -1      3591 1.93020E+01 2.64101E+00 6.77922E-03-3.49532E-02 7.93367E-14-4.25923E-13
 -1      3592 2.58273E+01-1.04810E-01-3.24475E-02-2.06322E+00 1.24390E-13 8.23647E-15
 -1      3593 1.99393E+01 1.66779E+00-3.42890E-03 2.32503E-01-1.27424E-13-3.67904E-13
 -1      3594 1.99207E+01 1.51133E+00-5.28521E-04 4.24144E-01-1.11017E-13-3.59958E-13
 -1      3595 1.97261E+01 1.60791E+00 2.58375E-03 4.66215E-01-7.42799E-14-3.43386E-13
 -1      3596 1.97657E+01 1.95697E+00 1.70150E-03 1.56274E-01-9.82128E-14-4.04055E-13
 -1      3597 2.00047E+01 1.52299E-02 8.51285E-05-7.13047E-04-4.57925E-13-2.49548E-13
 -1      3598 2.04813E+01-3.26840E-01 5.28519E-03-1.68227E+00-3.17303E-15-9.06526E-14
 -1      3599 2.03252E+01-9.04227E-02 6.37361E-03-1.62773E+00 2.02304E-14-1.15812E-13
 -1      3600 2.01681E+01-4.42411E-01-1.38255E-02-1.88878E+00-4.58389E-14-1.56577E-13
 -1      3601 2.47095E+01-3.23487E+00-1.56317E-02-6.48902E-01-2.19865E-13 1.21216E-13
 -1      3602 2.02836E+01 1.26510E+00 3.14277E-04-2.20577E-01 2.46597E-13-1.76279E-13
 -1      3603 2.01716E+01 1.47575E+00-1.85603E-04-1.66840E-01 2.48810E-13-2.09960E-13
 -1      3604 2.02597E+01 1.12831E+00-1.10778E-03-4.09621E-01 1.92581E-13-1.78355E-13
 -1      3605 2.27368E+01-2.94986E+00-5.49387E-02-1.74744E+00-1.50701E-13-2.03353E-14
 -1      3606 2.26808E+01-2.44181E+00-1.19105E-02-1.32114E+00-7.20621E-14 6.55247E-14
 -1      3607 2.22078E+01-2.04977E+00 3.44050E-02-1.58519E+00-8.16808E-14 8.96717E-14
 -1      3608 2.00016E+01 1.04706E+00 2.28783E-04-7.56864E-01 1.49709E-13-2.38007E-13
 -1      3609 2.01772E+01 9.66274E-01-8.64473E-04-6.85092E-01 1.50612E-13-1.98038E-13
 -1      3610 1.34342E+01 5.58488E-01 5.88527E-02-1.68222E+00-5.92139E-14 1.53898E-13
 -1      3611 2.00039E+01 1.88024E-02 1.03674E-04-8.96140E-05 7.46119E-14 1.15871E-13
 -1      3612 2.00037E+01 1.45083E-02-4.57552E-05 8.32232E-06 2.29777E-14 6.37906E-14
 -1      3613 2.00038E+01 1.43113E-02-2.78178E-05-8.86088E-05-5.45911E-15 7.53468E-14
 -1      3614 2.00038E+01 7.80551E-03-4.23361E-05-1.65430E-03-2.71761E-13 4.19160E-13
 -1      3615 2.00048E+01 1.06057E-02 1.01202E-04 1.95461E-04-1.54934E-13 3.61638E-13
 -1      3616 2.00033E+01 5.24686E-03 3.85443E-05-2.99178E-03-2.91745E-13 3.86095E-13
 -1      3617 2.02026E+01 1.08091E+00 1.43437E-03-5.25066E-01 1.71930E-13-1.99922E-13
 -1      3618 1.45915E+01-8.16973E-01 8.33841E-02 3.82588E+00-2.13666E-13 7.05096E-14
 -1      3619 1.44216E+01-1.71294E-01 1.24244E-02 3.02387E+00-1.10930E-13 1.72935E-14
 -1      3620 1.61909E+01-1.28788E+00-2.58428E-02 3.84666E+00-2.31043E-13 7.34100E-14
 -1      3621 1.93819E+01 2.30229E+00-5.60130E-03-1.39524E-01 1.70827E-13-3.78604E-13
 -1      3622 1.93406E+01 2.16096E+00 6.96565E-03-1.84408E-01 1.52805E-13-3.55427E-13
 -1      3623 1.94933E+01 2.21253E+00 1.37597E-04-1.43908E-01 1.94970E-13-3.64583E-13
 -1      3624 2.00039E+01 7.74147E-03-1.06006E-05-1.77533E-03-2.37074E-13 6.03019E-13
 -1      3625 2.59800E+01-1.32590E+00-4.03591E-02 1.59348E+00-3.59608E-14 3.07483E-13
 -1      3626 1.65471E+01-1.25010E+00 7.18209E-02 3.83633E+00 2.36018E-13-4.50669E-13
 -1      3627 1.96041E+01 2.09410E+00-4.15645E-03 1.16091E-01-5.72397E-14-4.00245E-13
 -1      3628 1.96062E+01 1.91143E+00 3.11727E-03 2.61673E-01-5.90616E-14-3.61469E-13
 -1      3629 1.94746E+01 2.23631E+00-7.74852E-04 1.01194E-01-2.14204E-14-3.99857E-13
 -1      3630 2.16307E+01-1.65543E+00 4.42400E-03-1.70396E+00-1.10987E-13 5.57965E-14
 -1      3631 2.12412E+01-1.26468E+00 2.05049E-02-1.80165E+00-8.39075E-14 3.44566E-14
 -1      3632 2.05944E+01-1.15519E+00-2.97087E-02-2.06502E+00-6.76286E-14-7.05061E-14
 -1      3633 2.14527E+01-2.07553E+00-4.84462E-02-2.07808E+00-9.67386E-14-3.15113E-14
 -1      3634 2.44687E+01-3.92760E+00-3.88475E-04-1.75592E+00-2.65111E-13 2.17508E-14
 -1      3635 2.00043E+01 8.90566E-03-1.87127E-05-1.19784E-03-2.08343E-13 2.96910E-13
 -1      3636 1.60942E+01-1.38507E+00 6.49267E-02-4.12113E+00-2.69011E-13-1.84682E-13
 -1      3637 1.73967E+01-1.87897E+00-8.01933E-03-4.09363E+00-2.36662E-13-1.96645E-13
 -1      3638 1.59352E+01-8.06972E-01 5.35622E-03-3.53193E+00-2.18029E-13-2.25899E-13
 -1      3639 2.00044E+01 1.67081E+00-1.96059E-03-1.74812E-01 2.23237E-13-2.50005E-13
 -1      3640 2.18267E+01-3.03025E+00-9.01728E-03 2.52445E+00-1.22813E-13-6.37311E-14
 -1      3641 2.03586E+01-3.56771E+00 8.82750E-02-4.33874E+00-3.40873E-13-1.31352E-13
 -1      3642 2.15731E+01-3.91100E+00-4.32679E-02-3.63515E+00-2.92221E-13-8.01165E-14
 -1      3643 1.93035E+01-2.98618E+00 1.33295E-02-4.26648E+00-2.81591E-13-1.65177E-13
 -1      3644 1.31234E+01 5.25296E-01-3.56070E-04 1.70044E+00-1.05979E-13 8.05050E-14
 -1      3645 1.24210E+01 8.22120E-01 9.41072E-02 9.76835E-01-1.64019E-13 1.44888E-13
 -1      3646 1.29829E+01 9.03628E-01 1.03817E-02 1.55754E-01-9.78826E-14 1.65940E-13
 -1      3647 2.00050E+01 1.41359E-02-4.31708E-05 1.87591E-03-1.38579E-13 7.67867E-13
 -1      3648 2.33765E+01-3.68786E+00 6.72421E-02-2.35391E+00-2.66165E-13 2.37423E-14
 -1      3649 2.00042E+01 1.14228E-02-5.68487E-05-3.72898E-04-1.16798E-13-1.69271E-13
 -1      3650 2.00043E+01 1.05669E-02 1.69885E-05-7.33050E-04-7.21262E-14-7.39736E-15
 -1      3651 2.00047E+01 1.24834E-02 7.17106E-05 1.48870E-04 3.67865E-14 3.09254E-13
 -1      3652 1.59563E+01-8.88993E-01 5.29288E-02-3.61499E+00 1.53336E-13-1.39055E-13
 -1      3653 1.59737E+01-3.52268E-01 7.10449E-03-3.05411E+00 9.53404E-14-1.91716E-13
 -1      3654 1.84304E+01 9.30807E-01-1.00022E-02 1.50097E+00 1.81523E-14-2.64527E-13
 -1      3655 1.82925E+01 8.05754E-01 6.68011E-03 1.68639E+00 4.45409E-14-2.73431E-13
 -1      3656 1.79525E+01 6.29326E-01-1.43149E-02 1.91040E+00 5.26059E-14-3.18314E-13
 -1      3657 1.78595E+01 4.27938E-01 1.51506E-02 2.14688E+00 8.21689E-14-3.23030E-13
 -1      3658 1.76638E+01 9.24093E-01 1.20302E-02 1.59347E+00 2.74778E-14-2.88152E-13
 -1      3659 1.65050E+01 1.10933E-03 1.31268E-02-2.58423E+00 1.11467E-13-3.65592E-13
 -1      3660 1.65688E+01 3.39499E-01-2.90579E-02-2.19742E+00 1.39578E-13-3.88570E-13
 -1      3661 1.48793E+01 4.76267E-01 4.64579E-02-2.30790E+00-2.12157E-14-1.14159E-13
 -1      3662 1.70923E+01 5.59723E-01 1.25746E-03-1.90706E+00 1.39958E-13-4.64903E-13
 -1      3663 1.72455E+01 7.34319E-01-2.46332E-02-1.64599E+00 3.97594E-14-5.16145E-13
 -1      3664 1.60897E+01 8.77913E-01 3.40749E-02-1.60986E+00 1.05139E-14-2.88402E-13
 -1      3665 1.76514E+01 8.45734E-01-2.03406E-03-1.45949E+00-8.75873E-15-5.75891E-13
 -1      3666 1.78217E+01 9.22186E-01-1.76610E-02-1.27912E+00-4.53181E-14-4.99662E-13
 -1      3667 1.69756E+01 1.07710E+00 2.63063E-02-1.17385E+00-3.97241E-14-4.08271E-13
 -1      3668 1.81343E+01 9.61599E-01-3.52808E-03-1.15623E+00-1.33383E-13-4.99873E-13
 -1      3669 1.82951E+01 9.79928E-01-1.24956E-02-1.02483E+00-2.12977E-13-3.79241E-13
 -1      3670 1.76556E+01 1.13291E+00 1.84827E-02-9.10655E-01-3.56282E-14-4.50721E-13
 -1      3671 1.85395E+01 9.74132E-01-3.53525E-03-9.35789E-01-2.21217E-13-3.39103E-13
 -1      3672 1.86800E+01 9.55493E-01-9.06319E-03-8.34069E-01-2.36561E-13-3.71231E-13
 -1      3673 1.81852E+01 1.11140E+00 1.36062E-02-7.31347E-01-1.97094E-13-4.50316E-13
 -1      3674 1.88724E+01 9.22240E-01-3.19920E-03-7.65202E-01-2.35681E-13-2.75318E-13
 -1      3675 1.89898E+01 8.82444E-01-6.77445E-03-6.82364E-01-1.87253E-13-2.55711E-13
 -1      3676 1.86030E+01 1.03872E+00 1.03049E-02-5.98960E-01-1.68845E-13-3.24689E-13
 -1      3677 1.91416E+01 8.34409E-01-2.68204E-03-6.26094E-01-1.22194E-13-2.32788E-13
 -1      3678 1.92367E+01 7.84109E-01-5.19998E-03-5.56467E-01-5.23300E-14-2.01553E-13
 -1      3679 1.89335E+01 9.36371E-01 7.96434E-03-4.93441E-01-8.66381E-14-2.00953E-13
 -1      3680 1.93563E+01 7.29856E-01-2.15422E-03-5.09121E-01 5.91337E-14-2.61014E-13
 -1      3681 1.94315E+01 6.76233E-01-4.06674E-03-4.49838E-01 9.11652E-14-1.84606E-13
 -1      3682 1.91946E+01 8.19834E-01 6.21545E-03-4.04999E-01 1.53818E-14-1.30686E-13
 -1      3683 1.95251E+01 6.21431E-01-1.67484E-03-4.09628E-01 5.24886E-14-1.17104E-13
 -1      3684 1.95832E+01 5.69083E-01-3.21088E-03-3.59195E-01 8.27913E-14-9.47823E-14
 -1      3685 1.93998E+01 7.00341E-01 4.86435E-03-3.29168E-01 1.18562E-13-2.46639E-13
 -1      3686 1.96559E+01 5.17269E-01-1.26734E-03-3.25177E-01 1.23319E-13-9.17312E-14
 -1      3687 1.97001E+01 4.68931E-01-2.53923E-03-2.82665E-01 1.90609E-13-7.10454E-14
 -1      3688 1.95596E+01 5.85527E-01 3.79826E-03-2.63953E-01 1.27080E-13-8.07992E-14
 -1      3689 1.97559E+01 4.22101E-01-9.36109E-04-2.54208E-01 1.93441E-13-2.06377E-13
 -1      3690 1.97888E+01 3.79193E-01-1.99936E-03-2.18856E-01 1.67645E-13-1.78773E-13
 -1      3691 1.96826E+01 4.80150E-01 2.94778E-03-2.08352E-01 1.72342E-13-2.55919E-13
 -1      3692 1.98311E+01 3.38273E-01-6.75768E-04-1.95406E-01 1.09870E-13-2.62923E-13
 -1      3693 1.98552E+01 3.01323E-01-1.56083E-03-1.66463E-01 6.27127E-14-2.31558E-13
 -1      3694 1.97762E+01 3.86755E-01 2.26733E-03-1.61637E-01 9.91108E-14-3.08115E-13
 -1      3695 1.98867E+01 2.66520E-01-4.76630E-04-1.47460E-01 6.59195E-15-2.01492E-13
 -1      3696 1.99040E+01 2.35482E-01-1.20450E-03-1.24152E-01 2.13552E-14-1.84166E-13
 -1      3697 1.98464E+01 3.06286E-01 1.72457E-03-1.23058E-01 5.20662E-14-4.86477E-13
 -1      3698 1.99271E+01 2.06547E-01-3.27832E-04-1.09019E-01-4.80961E-14-2.73711E-13
 -1      3699 1.99392E+01 1.81024E-01-9.16829E-04-9.05595E-02-9.09324E-14-3.17150E-13
 -1      3700 1.98980E+01 2.38591E-01 1.29470E-03-9.17721E-02-1.28281E-13-4.84324E-13
 -1      3701 1.99558E+01 1.57444E-01-2.19021E-04-7.87202E-02-1.67883E-13-1.80460E-13
 -1      3702 1.99640E+01 1.36853E-01-6.87062E-04-6.43470E-02-2.26054E-13-2.39208E-13
 -1      3703 1.99353E+01 1.82823E-01 9.57602E-04-6.68631E-02-1.52492E-13-4.89372E-13
 -1      3704 1.99756E+01 1.17981E-01-1.41111E-04-5.52504E-02-3.27984E-13-1.36768E-13
 -1      3705 1.99809E+01 1.01655E-01-5.05933E-04-4.42517E-02-3.26181E-13-1.94950E-13
 -1      3706 1.99616E+01 1.37740E-01 6.96429E-04-4.73930E-02-2.69811E-13-1.06478E-13
 -1      3707 1.99887E+01 8.68001E-02-8.64342E-05-3.73915E-02-1.67374E-13-2.20909E-13
 -1      3708 1.99920E+01 7.40587E-02-3.65442E-04-2.91273E-02 8.09827E-14-4.22027E-13
 -1      3709 1.99795E+01 1.01921E-01 4.96908E-04-3.24547E-02-2.98603E-13-6.30395E-15
 -1      3710 1.99970E+01 6.25374E-02-4.86073E-05-2.40559E-02 2.04412E-13-5.75237E-13
 -1      3711 1.99988E+01 5.27265E-02-2.59029E-04-1.79696E-02 2.31106E-13-6.35876E-13
 -1      3712 1.99913E+01 7.39079E-02 3.46303E-04-2.12101E-02-2.34140E-14-1.89902E-13
 -1      3713 2.00018E+01 4.39149E-02-1.95050E-05-1.43168E-02 2.50801E-13-5.16016E-13
 -1      3714 2.00026E+01 3.64499E-02-1.69336E-04-9.94018E-03 1.97510E-13-3.54750E-13
 -1      3715 1.99985E+01 5.22929E-02 2.32705E-04-1.29353E-02 2.11277E-13-1.93002E-13
 -1      3716 2.00042E+01 2.96912E-02-5.38151E-06-7.36718E-03 3.89153E-14-4.97795E-13
 -1      3717 2.00045E+01 2.42455E-02 2.83580E-05-4.41093E-03-2.55817E-13-2.22651E-13
 -1      3718 2.00023E+01 3.57227E-02 1.02271E-04-6.99533E-03 1.25879E-13-3.95004E-13
 -1      3719 2.00958E+01 1.25159E+00-2.35194E-04-4.70028E-01 1.79248E-13-2.28275E-13
 -1      3720 1.98195E+01 1.10716E+00-1.24994E-04-8.02418E-01 1.22909E-13-2.55577E-13
 -1      3721 1.98515E+01 1.26287E+00 8.42115E-04-6.34815E-01 1.40423E-13-2.72063E-13
 -1      3722 2.02590E+01 1.09154E-01 4.04329E-03-1.50894E+00 6.03119E-14-1.45835E-13
 -1      3723 2.01766E+01 2.82165E-01 3.51437E-03-1.41548E+00 7.33364E-14-1.64978E-13
 -1      3724 1.99172E+01 4.51748E-01-4.63552E-03-1.37485E+00 7.34205E-14-2.15726E-13
 -1      3725 1.93549E+01 3.61780E-01-1.79338E-03 1.35761E+00-1.73788E-13 1.78559E-13
 -1      3726 1.94072E+01 2.41256E-01 7.14807E-03 1.47295E+00-1.45290E-13 1.48807E-13
 -1      3727 1.40942E+01 7.88365E-01-1.32853E-03-1.35210E+00-3.65845E-14 7.44856E-14
 -1      3728 1.95724E+01-4.00337E-01 4.89781E-03 1.94771E+00-7.62905E-14 1.16729E-13
 -1      3729 1.98136E+01-7.30011E-01 1.12713E-02 2.06829E+00-2.34576E-14 6.79488E-14
 -1      3730 1.94034E+01 5.10187E-01-2.51904E-03 1.11824E+00-4.65786E-14 2.40822E-13
 -1      3731 1.94128E+01 4.52420E-01 4.76732E-03 1.22255E+00-1.22605E-13 2.16145E-13
 -1      3732 1.90755E+01 5.06057E-01-1.06965E-03 1.27671E+00-1.40444E-13 3.63571E-14
 -1      3733 1.94868E+01 5.64448E-01-2.66476E-03 9.14334E-01-3.54990E-14 1.23212E-13
 -1      3734 1.94746E+01 5.48569E-01 3.19259E-03 1.00678E+00 4.78710E-14 3.07899E-13
 -1      3735 1.92028E+01 6.17668E-01 5.92930E-04 1.02992E+00-5.28178E-14 3.62652E-14
 -1      3736 1.95800E+01 5.58407E-01-2.56418E-03 7.41053E-01 8.80418E-15 2.09257E-13
 -1      3737 1.95588E+01 5.68757E-01 2.18703E-03 8.21984E-01-9.10129E-14 2.12387E-13
 -1      3738 1.93413E+01 6.44146E-01 1.34130E-03 8.29025E-01-4.94854E-14 4.82625E-14
 -1      3739 1.96693E+01 5.16751E-01-2.34315E-03 5.94286E-01 2.67179E-14 2.15856E-13
 -1      3740 1.96463E+01 5.42080E-01 1.56429E-03 6.64299E-01 8.33023E-14 2.95870E-13
 -1      3741 1.94737E+01 6.17596E-01 1.58734E-03 6.63951E-01-3.60704E-14 1.65466E-13
 -1      3742 1.97482E+01 4.56754E-01-2.06852E-03 4.70805E-01-3.32053E-14 5.54582E-14
 -1      3743 1.97269E+01 4.89287E-01 1.18046E-03 5.30570E-01 8.01557E-15 2.14768E-13
 -1      3744 1.95915E+01 5.60822E-01 1.57079E-03 5.27596E-01 8.66015E-14 1.51380E-13
 -1      3745 1.98144E+01 3.89996E-01-1.77749E-03 3.67933E-01-3.53229E-15 9.43705E-14
 -1      3746 1.97964E+01 4.24591E-01 9.34513E-04 4.18201E-01-8.01649E-14-3.44021E-16
 -1      3747 1.96915E+01 4.89608E-01 1.42305E-03 4.14991E-01-9.10588E-15 1.60742E-13
 -1      3748 1.98676E+01 3.23825E-01-1.49238E-03 2.83262E-01 1.31426E-13 3.53825E-13
 -1      3749 1.98534E+01 3.57279E-01 7.64959E-04 3.24886E-01 1.05552E-13 2.98558E-13
 -1      3750 1.97733E+01 4.14453E-01 1.21965E-03 3.22469E-01-7.12295E-14 2.35412E-13
 -1      3751 1.99091E+01 2.62555E-01-1.22685E-03 2.14510E-01 4.39160E-14 4.72569E-13
 -1      3752 1.98983E+01 2.93044E-01 6.37180E-04 2.48429E-01 1.02314E-13 4.84993E-13
 -1      3753 1.98383E+01 3.41949E-01 1.00404E-03 2.47100E-01 6.25639E-14 5.69673E-13
 -1      3754 1.99404E+01 2.08399E-01-9.88775E-04 1.59485E-01-1.52218E-13 6.13632E-13
 -1      3755 1.99327E+01 2.35045E-01 5.33118E-04 1.86682E-01 9.18923E-15 5.50882E-13
 -1      3756 1.98884E+01 2.75885E-01 8.00207E-04 1.86378E-01 6.48736E-15 7.50825E-13
 -1      3757 1.99634E+01 1.62170E-01-7.81860E-04 1.16103E-01-9.64741E-14 4.61459E-13
 -1      3758 1.99581E+01 1.84718E-01 4.44088E-04 1.37559E-01-1.31915E-13 6.05080E-13
 -1      3759 1.99262E+01 2.18097E-01 6.20042E-04 1.38071E-01-1.05777E-13 7.34747E-13
 -1      3760 1.99797E+01 1.23798E-01-6.06801E-04 8.24287E-02 1.12581E-13 3.48548E-13
 -1      3761 1.99762E+01 1.42380E-01 3.66285E-04 9.90794E-02 2.59413E-14 4.44049E-13
 -1      3762 1.99539E+01 1.69127E-01 4.68036E-04 1.00164E-01-1.34507E-14 3.31113E-13
 -1      3763 1.99907E+01 9.26915E-02-4.62198E-04 5.67087E-02 4.34566E-14 2.84977E-13
 -1      3764 1.99887E+01 1.07663E-01 2.98195E-04 6.94134E-02 1.24156E-13 2.79875E-13
 -1      3765 1.99735E+01 1.28698E-01 3.44315E-04 7.08506E-02 1.38250E-13 2.98532E-13
 -1      3766 1.99978E+01 6.79892E-02-3.45378E-04 3.73994E-02 1.41205E-13 3.47560E-13
 -1      3767 1.99969E+01 7.98150E-02 2.39256E-04 4.69212E-02 8.50557E-14 1.97635E-13
 -1      3768 1.99869E+01 9.60606E-02 2.46630E-04 4.85330E-02 9.17355E-14 3.14972E-13
 -1      3769 2.00021E+01 4.87165E-02-2.53261E-04 2.31758E-02 1.18533E-13 1.98177E-13
 -1      3770 2.00018E+01 5.79018E-02 1.89250E-04 3.01711E-02 2.08688E-13 3.31150E-13
 -1      3771 1.99956E+01 7.02247E-02 1.71659E-04 3.18250E-02 1.98678E-13 3.01928E-13
 -1      3772 2.00042E+01 3.39021E-02-1.79419E-04 1.29384E-02-2.18448E-13 1.89381E-13
 -1      3773 2.00044E+01 4.09333E-02 1.46512E-04 1.79521E-02-3.86527E-14 2.06578E-13
 -1      3774 2.00009E+01 5.01197E-02 1.18192E-04 1.95543E-02 1.18072E-14 4.53734E-13
 -1      3775 2.00050E+01 2.26578E-02-1.00182E-04 5.83129E-03-3.08669E-13 1.70658E-13
 -1      3776 2.00054E+01 2.79344E-02 1.06029E-04 9.24541E-03-3.55544E-13 3.23500E-14
 -1      3777 2.00036E+01 3.46695E-02 7.26027E-05 1.07446E-02-2.16594E-13 2.37448E-13
 -1      3778 2.24163E+01-3.42134E+00 1.91592E-02-2.65977E+00-2.64637E-13-4.29743E-14
 -1      3779 1.98011E+01-2.47435E+00-5.08649E-03 3.42280E+00-1.17031E-13-1.39980E-13
 -1      3780 1.80533E+01-1.80035E+00 7.76245E-02 3.87841E+00-2.18239E-13-9.32310E-14
 -1      3781 2.00039E+01 1.36018E-02-6.17964E-05 2.39969E-05 8.86807E-17 1.05726E-13
 -1      3782 2.00041E+01 1.30418E-02 5.85317E-07-1.67498E-04-9.64210E-14-2.97028E-13
 -1      3783 2.00040E+01 1.81151E-02 9.77871E-05 4.67669E-04 8.02054E-14 1.20958E-13
 -1      3784 1.94583E+01 1.52031E+00-3.75131E-03 6.02000E-01-4.41960E-14-2.99223E-13
 -1      3785 1.93595E+01 1.41079E+00-1.15260E-03 7.58090E-01-3.45935E-14-2.79446E-13
 -1      3786 2.00036E+01 2.20472E-02-7.63345E-05-1.48459E-03-1.36491E-13-3.29523E-13
 -1      3787 2.00033E+01 2.28074E-02-8.59840E-05-1.23743E-03-3.68245E-14-1.14693E-13
 -1      3788 1.92341E+01 2.25695E+00 6.62796E-03-6.93120E-02 9.53948E-14-3.64605E-13
 -1      3789 1.92421E+01 2.44171E+00-2.78702E-03-2.95101E-02 9.56722E-14-3.91746E-13
 -1      3790 1.92596E+01 2.42015E+00-4.63776E-03-1.04082E-02 6.08331E-14-4.01762E-13
 -1      3791 1.99763E+01 1.54408E+00 3.18095E-03-3.13004E-01 1.98453E-13-2.53671E-13
 -1      3792 1.98275E+01 1.90006E+00 2.98988E-05-1.47585E-01 2.34982E-13-2.71233E-13
 -1      3793 1.96667E+01 2.04923E+00-5.93316E-03-1.57991E-01 1.96291E-13-3.05486E-13
 -1      3794 1.99065E+01 1.47126E+00-2.64685E-03-4.27283E-01 1.79438E-13-2.79973E-13
 -1      3795 1.93038E+01 2.38892E+00-2.42652E-03 3.82823E-02 5.36536E-14-4.05979E-13
 -1      3796 1.93823E+01 2.30691E+00-4.74600E-03 5.73643E-02 1.43761E-14-4.10939E-13
 -1      3797 1.93757E+01 2.12953E+00 4.81171E-03 1.57383E-01 2.84147E-15-3.76208E-13
 -1      3798 1.92578E+01 2.23684E+00 6.27368E-03 5.15699E-02 4.16183E-14-3.86670E-13
 -1      3799 1.95602E+01 1.77055E+00-3.63610E-03 3.55597E-01-5.68863E-14-3.36283E-13
 -1      3800 1.95248E+01 1.62904E+00 4.78743E-04 5.04046E-01-4.64918E-14-3.04848E-13
 -1      3801 1.93176E+01 1.69651E+00 3.61327E-03 4.83764E-01-4.47489E-14-2.84884E-13
 -1      3802 1.94184E+01 1.91935E+00 1.48649E-03 2.97150E-01-2.81638E-14-3.11686E-13
 -1      3803 1.91963E+01 1.31031E+00-4.54080E-03 8.88421E-01-2.63550E-14-2.99832E-13
 -1      3804 1.90682E+01 1.22357E+00-2.98903E-04 1.03942E+00-9.83317E-15-2.92632E-13
 -1      3805 1.91048E+01 1.49477E+00 5.86010E-03 7.03088E-01-4.37698E-14-3.02151E-13
 -1      3806 2.15423E+01-2.42158E+00 1.31725E-02 2.25399E+00-6.89370E-14 1.78601E-14
 -1      3807 2.06394E+01-2.55498E+00 1.49697E-02 3.04092E+00-1.13242E-13-1.33628E-13
 -1      3808 1.95771E+01-1.85242E+00-7.39959E-03 3.04110E+00-8.62669E-14-1.56561E-13
 -1      3809 2.08834E+01-1.93069E+00 1.59506E-02 2.33588E+00-3.58754E-14 1.24796E-14
 -1      3810 2.00047E+01 1.52451E-02-4.86256E-05 1.53515E-03-1.20599E-13 2.36632E-13
 -1      3811 2.00053E+01 1.93880E-02 9.92654E-05 3.85386E-03-1.93577E-13 1.97945E-13
 -1      3812 2.00046E+01 2.42440E-02 2.24447E-05 5.21316E-03-3.12033E-13-1.82688E-13
 -1      3813 2.00046E+01 1.69024E-02-8.01637E-05 1.85861E-03-4.61393E-14-2.83511E-13
 -1      3814 1.93863E+01 7.53258E-02 2.35231E-04 1.63627E+00-7.93112E-14 9.96285E-14
 -1      3815 1.95142E+01-1.35365E-01 9.81557E-03 1.75848E+00 8.42387E-15 1.59639E-13
 -1      3816 1.89919E+01 2.65875E-01-4.20112E-03 1.58236E+00-1.43872E-13 2.05515E-14
 -1      3817 1.88506E+01 1.13354E+00-6.56489E-03 1.17769E+00 7.10911E-15-2.87876E-13
 -1      3818 1.87074E+01 1.04357E+00 2.24716E-03 1.33597E+00 1.33901E-14-2.77319E-13
 -1      3819 1.82552E+01 1.14809E+00 9.72414E-03 1.23374E+00 3.07289E-14-2.75688E-13
 -1      3820 1.87331E+01 1.31875E+00 7.65920E-03 9.53654E-01-5.73117E-15-3.07343E-13
 -1      3821 1.59550E+01-5.95584E-02 4.57653E-02 2.93294E+00 1.23277E-13-4.41898E-13
 -1      3822 1.53923E+01 3.82181E-01-2.32056E-02 2.20251E+00 9.16715E-14-4.10755E-13
 -1      3823 1.44066E+01 8.65152E-01-2.43979E-03 9.80461E-01 4.60357E-14-3.58187E-13
 -1      3824 1.36532E+01 1.01823E+00 7.41175E-02 8.43570E-02-4.64385E-15-3.86243E-13
 -1      3825 1.42532E+01 8.87478E-01 7.66859E-04-6.07223E-01-7.10417E-14-3.20377E-13
 -1      3826 1.69728E+01 5.09654E-01 1.74928E-02 2.17278E+00 7.59941E-14-3.45719E-13
 -1      3827 1.74819E+01 8.72803E-02-1.24114E-02 2.53093E+00 1.14734E-13-3.67832E-13
 -1      3828 1.74969E+01-3.18902E-01 1.69622E-02 2.86859E+00 1.22747E-13-3.96414E-13
 -1      3829 2.00044E+01 2.02505E-02-2.31823E-05-2.66724E-03-4.35089E-13-2.30722E-13
 -1      3830 2.00039E+01 2.25000E-02-6.48918E-05-2.57255E-03-1.83481E-13-6.36550E-13
 -1      3831 1.99693E+01 7.31314E-02-8.11988E-03-1.64729E+00 3.47731E-14-1.88479E-13
 -1      3832 1.98345E+01-4.18794E-01 1.26651E-02-2.04148E+00-5.70680E-14-1.64414E-13
 -1      3833 1.96670E+01-1.28319E-01 2.35013E-03-1.91833E+00-1.88079E-14-1.73698E-13
 -1      3834 1.97483E+01 9.63502E-01-2.05661E-03-9.61181E-01 9.63348E-14-2.25668E-13
 -1      3835 1.95982E+01 1.18812E+00 4.16726E-03-8.49109E-01 9.90958E-14-2.73606E-13
 -1      3836 1.97320E+01 8.25426E-01 3.36390E-03-1.11587E+00 7.54866E-14-2.15187E-13
 -1      3837 2.16585E+01-2.85037E+00 7.03646E-02-2.86048E+00-1.99054E-13-5.56916E-14
 -1      3838 1.39473E+01 1.04551E+00 5.39980E-02-6.85343E-01-1.12427E-13 1.72652E-13
 -1      3839 1.51721E+01 9.05616E-01 6.76455E-03-1.24610E+00-1.26000E-13 1.74943E-14
 -1      3840 1.56613E+01 1.01317E+00-2.27695E-02-1.02431E+00-9.22020E-14-1.45055E-13
 -1      3841 1.40648E+01 1.00460E+00-7.02445E-03 3.60366E-02-1.37910E-13 1.29249E-13
 -1      3842 1.90091E+01-1.62786E-01-1.11681E-02 1.95683E+00-5.50168E-14 9.02263E-14
 -1      3843 2.00031E+01 2.34235E-02-4.29220E-05-2.91921E-04 1.01460E-14 1.60072E-13
 -1      3844 2.00031E+01 2.33889E-02-5.05559E-05 1.55312E-04 3.35797E-14 1.69613E-13
 -1      3845 2.00027E+01 2.84210E-02 6.87796E-05-1.10909E-03 5.50556E-14 7.37743E-14
 -1      3846 2.00044E+01 1.57832E-02 6.47323E-05 6.35174E-04-8.69067E-14-2.29261E-13
 -1      3847 1.99414E+01-7.68097E-01 9.86795E-03-2.24587E+00-6.55186E-14-1.46959E-13
 -1      3848 1.93249E+01-4.94658E-01-9.84773E-03-2.31576E+00-5.71227E-14-1.58186E-13
 -1      3849 2.03016E+01-1.17936E+00 1.73123E-02-2.31748E+00-7.57889E-14-1.59338E-13
 -1      3850 1.73529E+01-1.16666E+00 1.76219E-02 3.41706E+00-1.93328E-13-4.29014E-14
 -1      3851 1.95973E+01 1.92918E+00 2.61459E-03-2.59780E-01 1.71624E-13-3.10724E-13
 -1      3852 2.00586E+01-1.06504E+00 1.28285E-02 2.19762E+00 9.57232E-14-2.85559E-14
 -1      3853 2.04601E+01-1.50394E+00 1.27944E-02 2.25571E+00 2.74229E-14 4.56006E-14
 -1      3854 1.98884E+01-1.53906E+00-2.10927E-02 2.59723E+00-5.30413E-15-7.98671E-14
 -1      3855 1.92723E+01-8.03503E-01-2.89039E-02 2.33740E+00-1.48633E-14 9.36511E-14
 -1      3856 1.93046E+01 1.95094E+00-1.11715E-05-2.84410E-01 1.59895E-13-3.28980E-13
 -1      3857 1.92052E+01 2.02246E+00-6.29891E-03-2.32340E-01 1.26635E-13-3.41637E-13
 -1      3858 1.49887E+01 3.85590E-01-1.66218E-02-2.06890E+00-1.14099E-13-2.90733E-13
 -1      3859 1.55437E+01-3.13112E-02 6.63104E-02-2.86685E+00-1.84781E-13-2.59152E-13
 -1      3860 1.97389E+01 1.53935E+00 3.28347E-03-4.83443E-01 1.66661E-13-2.76800E-13
 -1      3861 2.00034E+01 2.82919E-02 9.80947E-05-3.45398E-03-9.56912E-14-4.46925E-13
 -1      3862 1.67320E+01-6.39261E-01-1.04158E-02 3.30257E+00 1.46091E-13-4.05958E-13
 -1      3863 1.64195E+01-4.73715E-01 2.68951E-03-3.04666E+00-1.70046E-13-2.43222E-13
 -1      3864 1.80070E+01-1.60339E+00 4.11870E-03-3.67765E+00-2.14162E-13-1.94846E-13
 -1      3865 1.86115E+01-2.21315E+00 6.59011E-02-4.05031E+00-2.45797E-13-1.68117E-13
 -1      3866 1.97237E+01-2.75130E+00-4.40749E-02-3.76147E+00-2.42749E-13-1.48579E-13
 -1      3867 1.41663E+01 4.25459E-01 7.91349E-02 2.32699E+00-1.73269E-13-2.02251E-14
 -1      3868 1.40928E+01 7.07337E-01-5.03720E-04 1.50440E+00-2.13148E-13 6.93820E-14
 -1      3869 1.52117E+01-3.87397E-02-3.10522E-02 2.68112E+00-1.99684E-13 7.08791E-14
 -1      3870 2.51508E+01-1.83754E+00-9.39499E-02-1.39425E+00-3.90330E-14 2.14464E-14
 -1      3871 1.91039E+01 1.91420E+00 1.70678E-03-2.19442E-01 9.32574E-14-3.05441E-13
 -1      3872 1.91485E+01 2.08563E+00-8.61635E-04-1.20871E-01 9.40929E-14-3.34142E-13
 -1      3873 1.91266E+01 2.09686E+00-3.70979E-03-4.91006E-02 6.27051E-14-3.36803E-13
 -1      3874 1.65549E+01 8.81673E-01-2.80547E-02 1.47591E+00 9.09234E-15-3.48781E-13
 -1      3875 1.61924E+01 6.59219E-01 4.81532E-03 1.83052E+00 5.63518E-14-3.62645E-13
 -1      3876 1.52666E+01 9.09577E-01 4.22779E-02 1.40474E+00 3.27932E-14-3.65119E-13
 -1      3877 1.82110E+01-1.40508E+00 7.78542E-02 3.68211E+00 2.04525E-13-3.95508E-13
 -1      3878 1.70330E+01-2.66261E-01-1.09404E-02-2.71362E+00-1.08651E-13-2.38845E-13
 -1      3879 1.76368E+01-8.02033E-01 5.10662E-02-3.22303E+00-1.70538E-13-2.12932E-13
 -1      3880 1.92394E+01 1.25450E-01-5.27892E-03-1.87345E+00-1.38098E-14-1.99760E-13
 -1      3881 1.96708E+01 1.27391E-01 8.58840E-03-1.72869E+00-9.28213E-16-1.72914E-13
 -1      3882 1.96049E+01 3.35622E-01 4.61575E-04-1.59036E+00 4.73127E-14-1.87332E-13
 -1      3883 1.64669E+01 1.11821E+00 1.74414E-03-8.40299E-01-5.30309E-14-2.18109E-13
 -1      3884 1.68256E+01 1.14025E+00-1.94599E-02-7.20571E-01-2.50952E-14-2.03228E-13
 -1      3885 1.72686E+01 1.16307E+00-4.74526E-03-6.54363E-01-3.22234E-14-2.96524E-13
 -1      3886 1.75681E+01 1.15823E+00-1.20530E-02-5.76726E-01-1.36805E-13-3.64144E-13
 -1      3887 1.69041E+01 1.26554E+00 2.23206E-02-3.55512E-01-6.69750E-14-2.38545E-13
 -1      3888 1.78943E+01 1.14659E+00-3.59173E-03-5.34881E-01-1.81486E-13-3.02340E-13
 -1      3889 1.81298E+01 1.11516E+00-7.93269E-03-4.77770E-01-1.68615E-13-2.96898E-13
 -1      3890 1.76312E+01 1.22270E+00 1.45709E-02-3.00569E-01-1.27186E-13-3.04674E-13
 -1      3891 1.83786E+01 1.07814E+00-2.97827E-03-4.46250E-01-1.06407E-13-2.17975E-13
 -1      3892 1.85648E+01 1.03032E+00-5.58354E-03-4.01189E-01-4.90862E-14-8.01706E-14
 -1      3893 1.81742E+01 1.14760E+00 9.42426E-03-2.63132E-01-6.84309E-14-1.22478E-13
 -1      3894 1.87580E+01 9.78971E-01-2.37074E-03-3.74792E-01-1.00680E-13-7.98579E-14
 -1      3895 1.89054E+01 9.21729E-01-4.13921E-03-3.36695E-01-4.51450E-14-7.02075E-14
 -1      3896 1.85978E+01 1.04563E+00 6.99350E-03-2.32077E-01-3.25602E-14 2.75425E-14
 -1      3897 1.90570E+01 8.63446E-01-1.84021E-03-3.13370E-01-5.19390E-14-1.12451E-13
 -1      3898 1.91731E+01 8.02644E-01-3.19250E-03-2.79996E-01-1.18324E-14-1.09136E-13
 -1      3899 1.89301E+01 9.27378E-01 5.36096E-03-2.02357E-01-8.63658E-14 2.71196E-14
 -1      3900 1.92922E+01 7.42810E-01-1.39619E-03-2.59048E-01 1.00122E-13-2.69283E-13
 -1      3901 1.93829E+01 6.82781E-01-2.52789E-03-2.29584E-01 1.23510E-13-3.20265E-13
 -1      3902 1.91917E+01 8.02936E-01 4.17941E-03-1.73186E-01-1.02491E-14-1.93005E-13
 -1      3903 1.94761E+01 6.25157E-01-1.03642E-03-2.10906E-01 9.03287E-14-3.19302E-13
 -1      3904 1.95464E+01 5.68841E-01-2.02747E-03-1.85112E-01 1.17372E-13-3.74076E-13
 -1      3905 1.93971E+01 6.80240E-01 3.28112E-03-1.45069E-01 7.77521E-14-3.76700E-13
 -1      3906 1.96188E+01 5.15819E-01-7.52818E-04-1.68761E-01 1.43010E-13-3.68495E-13
 -1      3907 1.96724E+01 4.64994E-01-1.62968E-03-1.46545E-01 1.59758E-13-4.47163E-13
 -1      3908 1.95572E+01 5.64941E-01 2.57549E-03-1.18826E-01 1.08413E-13-5.28418E-13
 -1      3909 1.97280E+01 4.17889E-01-5.34882E-04-1.32548E-01 1.27116E-13-5.38634E-13
 -1      3910 1.97684E+01 3.73419E-01-1.30317E-03-1.13783E-01 1.31433E-13-5.59507E-13
 -1      3911 1.96808E+01 4.60589E-01 2.01112E-03-9.51642E-02 1.53321E-13-6.55915E-13
 -1      3912 1.98106E+01 3.32750E-01-3.71323E-04-1.02077E-01 6.49779E-14-6.53407E-13
 -1      3913 1.98406E+01 2.94838E-01-1.03175E-03-8.65441E-02-1.34751E-14-6.35789E-13
 -1      3914 1.97749E+01 3.69002E-01 1.55675E-03-7.45112E-02 5.36101E-14-6.87366E-13
 -1      3915 1.98720E+01 2.60563E-01-2.51260E-04-7.69763E-02-8.77572E-14-5.64444E-13
 -1      3916 1.98938E+01 2.28961E-01-8.06323E-04-6.43721E-02-1.14168E-13-5.12099E-13
 -1      3917 1.98455E+01 2.90681E-01 1.19149E-03-5.70102E-02-2.22431E-14-7.00025E-13
 -1      3918 1.99168E+01 2.00683E-01-1.64972E-04-5.67222E-02-9.21347E-14-4.94533E-13
 -1      3919 1.99323E+01 1.74865E-01-6.20811E-04-4.66922E-02-8.16649E-14-3.54896E-13
 -1      3920 1.98976E+01 2.25208E-01 8.99900E-04-4.25719E-02-8.26525E-14-4.64671E-13
 -1      3921 1.99488E+01 1.51977E-01-1.04275E-04-4.07051E-02-1.61447E-13-3.52604E-13
 -1      3922 1.99595E+01 1.31268E-01-4.70287E-04-3.28754E-02-2.78464E-13-3.40599E-13
 -1      3923 1.99352E+01 1.71575E-01 6.69494E-04-3.09489E-02-1.13954E-13-3.97937E-13
 -1      3924 1.99710E+01 1.13065E-01-6.26255E-05-2.82883E-02-3.05647E-13-2.05913E-13
 -1      3925 1.99781E+01 9.67354E-02-3.49234E-04-2.22932E-02-2.84091E-13-1.58794E-13
 -1      3926 1.99617E+01 1.28448E-01 4.89719E-04-2.18059E-02-2.32299E-13-5.09145E-13
 -1      3927 1.99858E+01 8.24914E-02-3.42256E-05-1.88479E-02-1.54948E-13-6.51594E-14
 -1      3928 1.99903E+01 6.98097E-02-2.54724E-04-1.43480E-02 8.05096E-14-1.48663E-13
 -1      3929 1.99797E+01 9.43616E-02 3.51979E-04-1.47719E-02-1.28226E-13-1.17483E-13
 -1      3930 1.99952E+01 5.87780E-02-1.61896E-05-1.18058E-02 1.31169E-13-1.70935E-13
 -1      3931 1.99979E+01 4.90464E-02-1.81702E-04-8.57224E-03 1.63572E-13-2.94621E-13
 -1      3932 1.99914E+01 6.77947E-02 2.49244E-04-9.43386E-03 5.50963E-14-2.87585E-13
 -1      3933 2.00005E+01 4.15552E-02 1.39845E-05-6.95570E-03 7.91485E-14-2.25216E-13
 -1      3934 2.00019E+01 3.40544E-02-9.71024E-05-4.60956E-03-6.75423E-15-3.69672E-13
 -1      3935 2.00018E+01 3.37694E-02 4.30186E-05-3.21535E-03 1.20856E-14-2.10692E-13
 -1      3936 1.99982E+01 4.83332E-02 1.64890E-04-5.77658E-03 6.98854E-14-5.27305E-13
 -1      3937 1.96614E+01 5.19656E-01 5.12711E-03-1.42049E+00 6.50207E-14-2.08340E-13
 -1      3938 1.96513E+01 6.76416E-01-2.02869E-03-1.27400E+00 5.83262E-14-2.09832E-13
 -1      3939 1.94549E+01 8.83434E-01 1.02718E-03-1.16742E+00 5.98009E-14-2.68784E-13
 -1      3940 1.93136E+01 5.51802E-01-3.63920E-03-1.49770E+00 3.57453E-14-2.16705E-13
 -1      3941 1.90101E+01 7.23094E-01-4.58180E-03 8.89881E-01-1.33357E-13 1.38750E-13
 -1      3942 1.89482E+01 7.07905E-01 3.42274E-03 9.96575E-01-1.26898E-13 1.05170E-13
 -1      3943 1.88033E+01 6.66147E-01-5.57458E-03 1.12371E+00-1.55897E-13 6.36306E-14
 -1      3944 1.87568E+01 6.05242E-01 5.62832E-03 1.25720E+00-1.98865E-13 7.27474E-14
 -1      3945 1.86376E+01 7.95852E-01 3.17697E-03 9.72616E-01-1.54681E-13 1.87736E-13
 -1      3946 1.93730E+01 6.61336E-01-3.14647E-03 5.58258E-01-1.09576E-13 2.10872E-13
 -1      3947 1.93130E+01 6.92326E-01 1.22354E-03 6.29318E-01-9.08890E-14 1.50556E-13
 -1      3948 1.95178E+01 5.88081E-01-2.61448E-03 4.38971E-01 6.05398E-14 2.62166E-13
 -1      3949 1.94655E+01 6.27715E-01 7.57284E-04 4.97581E-01-5.63483E-14 1.48423E-13
 -1      3950 1.93213E+01 7.02770E-01 2.69622E-03 4.63248E-01-6.71076E-14 1.34937E-13
 -1      3951 1.96375E+01 5.06003E-01-2.16404E-03 3.42149E-01-3.01629E-14 2.40968E-13
 -1      3952 1.95938E+01 5.48462E-01 4.97628E-04 3.90437E-01 8.61819E-14 3.71132E-13
 -1      3953 1.94824E+01 6.16212E-01 2.31775E-03 3.60843E-01 1.91128E-14 1.81199E-13
 -1      3954 1.97338E+01 4.23777E-01-1.77736E-03 2.63725E-01-8.57762E-14 3.04765E-13
 -1      3955 1.96986E+01 4.65271E-01 3.53943E-04 3.03275E-01-1.04094E-13 2.25227E-13
 -1      3956 1.96133E+01 5.24975E-01 1.94255E-03 2.79061E-01-5.25853E-15 2.45948E-13
 -1      3957 1.98096E+01 3.46755E-01-1.44417E-03 2.00598E-01-1.63278E-14 4.53335E-13
 -1      3958 1.97821E+01 3.85004E-01 2.72552E-04 2.32696E-01-2.95528E-14 3.38153E-13
 -1      3959 1.97174E+01 4.36435E-01 1.59155E-03 2.13690E-01-1.18004E-13 1.74066E-13
 -1      3960 1.98679E+01 2.77877E-01-1.15850E-03 1.50248E-01 1.88011E-14 5.21339E-13
 -1      3961 1.98470E+01 3.11689E-01 2.23125E-04 1.76001E-01 1.18980E-13 5.38817E-13
 -1      3962 1.97987E+01 3.55062E-01 1.27656E-03 1.61629E-01-2.48476E-14 3.52603E-13
 -1      3963 1.99117E+01 2.18406E-01-9.16209E-04 1.10535E-01-7.95581E-14 4.40569E-13
 -1      3964 1.98963E+01 2.47342E-01 1.89328E-04 1.30933E-01-4.88450E-14 5.33130E-13
 -1      3965 1.98608E+01 2.83197E-01 1.00319E-03 1.20461E-01 1.09196E-14 4.20141E-13
 -1      3966 1.99438E+01 1.68492E-01-7.13637E-04 7.96042E-02 1.33477E-13 2.59898E-13
 -1      3967 1.99328E+01 1.92602E-01 1.62898E-04 9.55384E-02 9.11590E-14 4.29465E-13
 -1      3968 1.99072E+01 2.21690E-01 7.72671E-04 8.82158E-02 9.27767E-14 3.74391E-13
 -1      3969 1.99667E+01 1.27591E-01-5.46998E-04 5.58449E-02 4.95030E-14 3.79545E-13
 -1      3970 1.99591E+01 1.47225E-01 1.40027E-04 6.81087E-02 5.85350E-14 3.60647E-13
 -1      3971 1.99411E+01 1.70403E-01 5.83200E-04 6.32443E-02 5.50771E-14 3.68626E-13
 -1      3972 1.99824E+01 9.47719E-02-4.12161E-04 3.78679E-02 9.07577E-14 4.24378E-13
 -1      3973 1.99774E+01 1.10441E-01 1.19296E-04 4.71578E-02 1.09755E-13 4.14403E-13
 -1      3974 1.99652E+01 1.28591E-01 4.31057E-04 4.41537E-02 7.84210E-14 4.88169E-13
 -1      3975 1.99928E+01 6.89276E-02-3.04604E-04 2.44905E-02 1.62782E-13 4.03915E-13
 -1      3976 1.99897E+01 8.12075E-02 1.01113E-04 3.14067E-02 1.58070E-13 3.91828E-13
 -1      3977 1.99817E+01 9.51746E-02 3.11017E-04 2.97697E-02 9.22871E-14 6.00986E-13
 -1      3978 1.99992E+01 4.88638E-02-2.14511E-04 1.47400E-02-5.08895E-14 4.34127E-13
 -1      3979 1.99975E+01 5.83486E-02 8.24386E-05 1.97630E-02 3.61787E-14 4.46642E-13
 -1      3980 1.99924E+01 6.89066E-02 2.10071E-04 1.90968E-02 1.28884E-14 5.66249E-13
 -1      3981 2.00027E+01 3.35590E-02-1.24765E-04 7.75301E-03-2.26623E-13 2.04517E-13
 -1      3982 2.00019E+01 4.07620E-02 5.39099E-05 1.13656E-02-3.54140E-15 3.57743E-13
 -1      3983 1.99990E+01 4.85828E-02 1.18998E-04 1.14166E-02 7.71070E-15 6.11170E-13
 -1      3984 1.86013E+01 5.04829E-01-6.45131E-03 1.42604E+00-2.06456E-13 9.05477E-14
 -1      3985 1.85946E+01 3.76693E-01 9.95253E-03 1.59403E+00-1.20650E-13 7.80962E-14
 -1      3986 1.83500E+01 6.91788E-01 2.19145E-03 1.26052E+00-2.05069E-13 1.64503E-13
 -1      3987 2.00032E+01 2.28779E-02-9.11850E-05 9.65128E-04 5.50213E-14 2.60866E-14
 -1      3988 2.00034E+01 2.22484E-02-3.70457E-05 1.40459E-03 5.54221E-14 1.53922E-13
 -1      3989 2.00030E+01 2.84465E-02 1.75131E-04 9.77315E-04 6.04421E-14 8.92360E-14
 -1      3990 1.90307E+01 1.61583E+00-4.38052E-03 4.91454E-01-4.79397E-14-3.23873E-13
 -1      3991 1.88659E+01 1.51975E+00-3.13685E-03 6.02554E-01-1.57625E-14-3.25512E-13
 -1      3992 1.74569E+01 1.11907E+00-1.69062E-02 1.12175E+00 3.54892E-14-2.82120E-13
 -1      3993 1.71320E+01 1.01518E+00-2.21032E-03 1.30602E+00 3.99854E-15-3.26764E-13
 -1      3994 1.65700E+01 1.18716E+00 2.95689E-02 9.51422E-01-6.10341E-15-3.52023E-13
 -1      3995 2.00039E+01 2.05420E-02-8.37691E-05 1.81616E-03 7.40604E-14 2.55259E-14
 -1      3996 2.00043E+01 1.90057E-02-2.24324E-05 1.80666E-03-9.01348E-15-2.49342E-13
 -1      3997 2.00043E+01 2.25323E-02 3.29877E-05 3.17099E-03-7.74702E-14-1.77973E-13
 -1      3998 2.00034E+01 2.62151E-02 9.49828E-05 2.51541E-03 5.47511E-14 1.38570E-13
 -1      3999 1.49923E+01 8.70157E-01 5.88813E-02-1.39815E+00-7.43323E-14-2.97637E-13
 -1      4000 1.57437E+01 5.35719E-01-1.53515E-02-1.81935E+00-6.33603E-14-2.79503E-13
 -1      4001 1.95156E+01 1.69660E+00-3.90656E-03-4.48701E-01 1.52346E-13-3.18401E-13
 -1      4002 2.07863E+01-2.31557E+00 2.28745E-02-2.86203E+00-1.51009E-13-1.11193E-13
 -1      4003 2.02288E+01-1.75886E+00 2.57902E-02-2.82613E+00-1.33266E-13-1.23962E-13
 -1      4004 1.93985E+01 1.60500E+00 2.92010E-04-5.14457E-01 1.32102E-13-3.20242E-13
 -1      4005 1.81187E+01-1.11033E+00-2.71453E-02 3.05557E+00-1.72246E-13-2.52584E-14
 -1      4006 1.68396E+01-3.96923E-01 6.88921E-02 3.02136E+00-2.31557E-13 8.22079E-14
 -1      4007 1.92739E+01 1.44887E+00-4.73030E-03-6.29456E-01 9.82499E-14-3.05087E-13
 -1      4008 1.90650E+01 1.70965E+00 5.33804E-03-4.26950E-01 1.05340E-13-2.80032E-13
 -1      4009 1.92007E+01 1.30828E+00-2.87596E-04-7.78424E-01 7.47378E-14-3.01703E-13
 -1      4010 1.84414E+01 1.88848E-01-6.51018E-03 1.82610E+00-1.86953E-14 6.95015E-14
 -1      4011 1.85223E+01-4.46788E-02 1.40051E-02 2.03185E+00-2.51368E-14 1.20495E-13
 -1      4012 1.80521E+01 4.60925E-01 1.69627E-03 1.65513E+00-6.84168E-14 2.81866E-13
 -1      4013 1.92028E+01 7.12649E-01-3.78881E-03 7.05729E-01-7.76472E-14 8.97803E-14
 -1      4014 1.91384E+01 7.26519E-01 2.04262E-03 7.92310E-01-8.28888E-14 1.00693E-13
 -1      4015 1.88990E+01 8.12009E-01 3.27162E-03 7.57357E-01-1.39780E-13 1.99680E-13
 -1      4016 1.91273E+01 7.73432E-01 3.04036E-03 5.92355E-01-1.46810E-13 1.94944E-13
 -1      4017 1.50498E+01 9.88296E-01-4.58705E-03-5.15339E-01-4.40750E-14-2.95466E-13
 -1      4018 1.92400E+01 2.06251E+00-6.91479E-04 1.62927E-01 6.40314E-15-3.56556E-13
 -1      4019 1.93128E+01 1.98823E+00-4.15876E-03 2.16773E-01-2.62850E-14-3.55159E-13
 -1      4020 1.92768E+01 1.87560E+00 1.55966E-03 3.04144E-01-3.17735E-14-3.38777E-13
 -1      4021 1.81406E+01 1.28720E+00-1.04506E-02 8.72609E-01 2.99864E-14-2.64893E-13
 -1      4022 1.78696E+01 1.20918E+00-4.05800E-03 1.00763E+00 5.63882E-14-2.59216E-13
 -1      4023 1.74889E+01 1.33174E+00 2.12441E-02 7.34620E-01 3.04160E-14-2.90767E-13
 -1      4024 1.87932E+01 2.16521E-01 2.63719E-03-1.89974E+00-4.01247E-14-2.33510E-13
 -1      4025 1.88051E+01 4.45166E-01-5.89401E-03-1.68886E+00-1.18109E-14-2.30677E-13
 -1      4026 1.68124E+01 3.21542E-01 5.07909E-02-2.25961E+00-8.29100E-14-2.49813E-13
 -1      4027 1.76296E+01-1.48826E-01-2.59611E-02-2.47419E+00-9.35558E-14-2.10314E-13
 -1      4028 1.57538E+01 1.20177E+00 2.76984E-02-5.13836E-01-1.36843E-13-9.26954E-14
 -1      4029 2.00041E+01 2.63084E-02 1.12157E-05 5.05685E-03-1.34334E-13-4.98501E-14
 -1      4030 2.00013E+01 3.41513E-02-1.06634E-04-1.98384E-03 7.09950E-14 9.01548E-14
 -1      4031 1.77630E+01-3.55783E-02 9.61730E-03 2.29361E+00-5.35594E-14 1.22725E-13
 -1      4032 1.84043E+01-4.18226E-01 7.53682E-03 2.42621E+00-1.01500E-13 1.05093E-13
 -1      4033 1.45987E+01 1.08132E+00 4.95031E-02 6.93069E-01-2.32074E-13 2.52034E-14
 -1      4034 1.51669E+01 1.13126E+00-3.97463E-03-1.11368E-03-1.94456E-13-6.73569E-14
 -1      4035 1.59214E+01 1.16242E+00-2.46723E-02 7.49705E-02-1.61534E-13-1.64069E-13
 -1      4036 1.64999E+01 6.15721E-01-4.18280E-03-1.69001E+00-3.19376E-14-2.43920E-13
 -1      4037 1.86022E+01-7.96087E-01-1.32857E-03 2.63640E+00-8.11825E-14 5.83831E-14
 -1      4038 2.00027E+01 3.18963E-02 3.11159E-05 5.39592E-03 3.59398E-14 1.94705E-13
 -1      4039 1.92510E+01-1.40920E+00-9.52180E-03-3.03961E+00-1.38320E-13-2.02253E-13
 -1      4040 1.62553E+01-3.77817E-03-5.86411E-03 2.48974E+00-2.39005E-13 4.49133E-14
 -1      4041 1.91953E+01 1.78501E+00-3.41858E-03 3.53652E-01-4.59064E-14-3.36559E-13
 -1      4042 1.91323E+01 1.68742E+00-1.21560E-03 4.45566E-01-5.96520E-14-3.42227E-13
 -1      4043 1.89415E+01 1.71392E+00 1.83393E-03 3.44487E-01-3.77366E-14-3.05520E-13
 -1      4044 1.91164E+01 1.86641E+00 3.23609E-03 2.63099E-01-4.08694E-14-3.21859E-13
 -1      4045 1.84887E+01-1.26167E+00 2.31590E-03-3.18306E+00-1.61145E-13-1.90098E-13
 -1      4046 1.51351E+01 8.34896E-01-2.22534E-02 1.26109E+00-2.69530E-13 1.98591E-14
 -1      4047 1.92812E+01-1.37131E+00 2.98627E-02 2.87659E+00-4.85385E-14-9.43872E-14
 -1      4048 1.89621E+01 1.75447E+00-5.81223E-03-2.96812E-01 7.77049E-14-2.85060E-13
 -1      4049 1.91437E+01 2.11185E+00-2.29724E-03 3.02983E-02 4.40946E-14-3.34937E-13
 -1      4050 1.91774E+01 2.08134E+00-3.29797E-03 9.12275E-02 2.24122E-14-3.55187E-13
 -1      4051 1.91282E+01 1.97073E+00 2.02508E-03 1.42580E-01-2.20905E-14-3.33598E-13
 -1      4052 1.90750E+01 1.97503E+00 5.59185E-03-1.79140E-02 3.80102E-14-3.23710E-13
 -1      4053 1.86500E+01 1.43813E+00-6.37872E-03 6.77554E-01 2.83812E-15-3.02072E-13
 -1      4054 1.84326E+01 1.35914E+00-4.06000E-03 7.93473E-01 1.70614E-14-2.99261E-13
 -1      4055 1.81578E+01 1.44858E+00 1.40964E-02 5.81317E-01 3.02743E-14-2.78222E-13
 -1      4056 1.86456E+01 1.58773E+00 1.09986E-02 4.54869E-01 1.14095E-14-2.95499E-13
 -1      4057 1.52032E+01 1.02907E+00-2.88150E-02 6.96559E-01-1.32036E-14-3.31297E-13
 -1      4058 1.83396E+01 8.80140E-02-3.05232E-03-2.11836E+00-4.26604E-14-2.07987E-13
 -1      4059 1.79381E+01 4.52001E-01 1.69558E-02-1.89527E+00-3.87912E-14-2.18292E-13
 -1      4060 1.54659E+01 1.17824E+00 3.17573E-02 1.90617E-02-1.34580E-14-2.71905E-13
 -1      4061 1.58290E+01 1.04265E+00-2.93928E-02-7.15270E-01-8.62830E-15-2.78062E-13
 -1      4062 1.60389E+01 1.15015E+00 3.49370E-04 4.20987E-01-1.88289E-14-3.16422E-13
 -1      4063 1.99993E+01 4.26489E-02 1.52930E-05-1.89861E-03 1.22031E-13-9.31940E-14
 -1      4064 2.00006E+01 3.63958E-02-2.16855E-05 2.34159E-04 1.65088E-13 1.78266E-13
 -1      4065 1.74009E+01 1.19980E+00-1.02335E-02-2.72285E-02-8.27639E-14-2.02365E-13
 -1      4066 1.77274E+01 1.17680E+00-6.04442E-03-2.24480E-02-9.44891E-14-1.60322E-13
 -1      4067 1.80018E+01 1.14347E+00-6.46078E-03-5.32657E-02-8.75522E-14-1.09219E-13
 -1      4068 1.82485E+01 1.10431E+00-4.05869E-03-5.05860E-02-5.73187E-14-7.87478E-14
 -1      4069 1.78938E+01 1.16256E+00 1.02103E-02 2.07017E-01-4.58196E-14-1.47289E-14
 -1      4070 1.84608E+01 1.05637E+00-4.63358E-03-6.93504E-02 6.01580E-15-2.44152E-14
 -1      4071 1.86528E+01 1.00432E+00-3.03726E-03-6.45652E-02-7.58123E-15 3.32898E-14
 -1      4072 1.83696E+01 1.08527E+00 7.85674E-03 1.29146E-01 5.84163E-15-7.35439E-14
 -1      4073 1.88203E+01 9.47334E-01-3.43363E-03-7.56869E-02-9.50826E-14 3.65554E-14
 -1      4074 1.89710E+01 8.88612E-01-2.36935E-03-6.87215E-02-9.57688E-14-4.17069E-14
 -1      4075 1.87432E+01 9.82910E-01 6.07567E-03 7.82979E-02-1.33679E-14-3.26068E-14
 -1      4076 1.91038E+01 8.27823E-01-2.58450E-03-7.47137E-02-6.11149E-14-4.51311E-14
 -1      4077 1.92221E+01 7.67297E-01-1.89957E-03-6.62890E-02-7.11004E-15-1.69088E-13
 -1      4078 1.90393E+01 8.66762E-01 4.79043E-03 4.53432E-02-7.05150E-14-8.12168E-14
 -1      4079 1.93273E+01 7.06871E-01-1.96160E-03-6.89604E-02-9.13376E-14-1.76570E-13
 -1      4080 1.94197E+01 6.48179E-01-1.54262E-03-5.98998E-02 9.88368E-15-2.98234E-13
 -1      4081 1.92741E+01 7.46301E-01 3.81273E-03 2.45241E-02-1.23176E-13-2.18029E-13
 -1      4082 1.95024E+01 5.91095E-01-1.49226E-03-6.05396E-02 9.08529E-14-5.22171E-13
 -1      4083 1.95740E+01 5.36701E-01-1.25425E-03-5.15514E-02 5.64664E-14-5.24972E-13
 -1      4084 1.94593E+01 6.28825E-01 3.03727E-03 1.18355E-02-9.40313E-14-3.57449E-13
 -1      4085 1.96383E+01 4.84847E-01-1.13277E-03-5.10517E-02 1.34972E-13-5.42075E-13
 -1      4086 1.96932E+01 4.36204E-01-1.01288E-03-4.26496E-02 1.68110E-13-6.29463E-13
 -1      4087 1.96041E+01 5.19406E-01 2.40698E-03 4.47327E-03 4.67006E-14-4.63388E-13
 -1      4088 1.97426E+01 3.90575E-01-8.55238E-04-4.16011E-02 9.62634E-14-5.90092E-13
 -1      4089 1.97841E+01 3.48333E-01-8.08360E-04-3.41005E-02-6.03537E-14-6.31474E-13
 -1      4090 1.97159E+01 4.21131E-01 1.88974E-03 4.97233E-04 1.20384E-13-6.44827E-13
 -1      4091 1.98214E+01 3.09241E-01-6.40621E-04-3.28725E-02-3.77136E-14-6.11682E-13
 -1      4092 1.98523E+01 2.73466E-01-6.35630E-04-2.64212E-02 3.27170E-14-5.57794E-13
 -1      4093 1.98011E+01 3.35472E-01 1.46570E-03-1.40668E-03-4.43545E-14-6.00947E-13
 -1      4094 1.98799E+01 2.40743E-01-4.75094E-04-2.52269E-02-1.68995E-14-5.05960E-13
 -1      4095 1.99025E+01 2.11105E-01-4.91496E-04-1.98490E-02-5.60789E-14-4.51757E-13
 -1      4096 1.98648E+01 2.62696E-01 1.12080E-03-2.10464E-03-9.10083E-15-3.72835E-13
 -1      4097 1.99226E+01 1.84274E-01-3.48125E-04-1.87968E-02-8.83492E-14-3.55141E-13
 -1      4098 1.99386E+01 1.60202E-01-3.73216E-04-1.44342E-02-1.87448E-13-3.89872E-13
 -1      4099 1.99115E+01 2.02237E-01 8.43617E-04-2.14929E-03-3.03236E-15-3.71085E-13
 -1      4100 1.99529E+01 1.38612E-01-2.51440E-04-1.35664E-02-2.86496E-13-2.64754E-13
 -1      4101 1.99640E+01 1.19411E-01-2.79229E-04-1.01142E-02-1.10123E-13-1.69520E-13
 -1      4102 1.99451E+01 1.53014E-01 6.23774E-04-1.87968E-03-1.54366E-13-8.83339E-14
 -1      4103 1.99738E+01 1.02341E-01-1.77678E-04-9.44236E-03 1.51455E-14-1.71515E-13
 -1      4104 1.99812E+01 8.72738E-02-2.06256E-04-6.76777E-03-2.71357E-14-1.15233E-13
 -1      4105 1.99685E+01 1.13659E-01 4.50107E-04-1.49813E-03-3.70943E-14-2.20755E-13
 -1      4106 1.99876E+01 7.40875E-02-1.06021E-04-6.28328E-03 3.31056E-14-1.05310E-13
 -1      4107 1.99922E+01 6.22971E-02-1.93108E-04-4.07382E-03 5.96793E-14-1.06046E-13
 -1      4108 1.99841E+01 8.27475E-02 3.08240E-04-1.19224E-03 1.62273E-14-9.62115E-14
 -1      4109 1.99970E+01 5.03049E-02-3.92199E-05-3.25143E-03 1.19291E-13-1.17661E-13
 -1      4110 1.95928E+01 5.22878E-01-2.04550E-03 2.05412E-01-7.15459E-14 1.93753E-13
 -1      4111 1.95356E+01 5.72084E-01-8.43375E-05 2.38740E-01-3.99326E-14 2.30382E-13
 -1      4112 1.61722E+01 1.19408E+00 3.04809E-02 5.58244E-01-1.73903E-13-6.13965E-14
 -1      4113 1.65177E+01 1.19151E+00-7.10712E-03 1.07093E-01-5.08108E-14-1.91491E-13
 -1      4114 1.84867E+01 8.94845E-01-7.03207E-03 7.64059E-01-1.59872E-13 1.30982E-13
 -1      4115 1.83559E+01 8.88335E-01 2.58237E-03 8.78839E-01-1.75338E-13 9.62006E-14
 -1      4116 1.94524E+01 6.20352E-01-2.55438E-03 2.68627E-01-1.23601E-14 2.47667E-13
 -1      4117 1.93813E+01 6.70552E-01-3.79762E-06 3.10282E-01-9.60996E-16 1.49371E-13
 -1      4118 1.94542E+01 6.30833E-01 3.11527E-03 1.90848E-01-6.61947E-14 1.72265E-13
 -1      4119 1.92771E+01 7.17492E-01-3.20456E-03 3.49082E-01-3.23505E-14 9.45499E-14
 -1      4120 1.91907E+01 7.64683E-01 1.93998E-04 4.01414E-01-9.12846E-14 5.30494E-14
 -1      4121 1.92747E+01 7.37422E-01 3.83286E-03 2.51686E-01-6.28328E-14-5.03330E-14
 -1      4122 1.97035E+01 4.30987E-01-1.63544E-03 1.55644E-01-1.12100E-13 2.30393E-13
 -1      4123 1.96585E+01 4.76657E-01-1.02805E-04 1.82300E-01-9.29304E-14 1.40892E-13
 -1      4124 1.95966E+01 5.27431E-01 2.50979E-03 1.44084E-01-7.88334E-14 2.16130E-13
 -1      4125 1.97893E+01 3.48132E-01-1.29957E-03 1.16556E-01-6.07994E-14 2.14058E-13
 -1      4126 1.97545E+01 3.88845E-01-9.15068E-05 1.37776E-01-9.60217E-14 1.72988E-13
 -1      4127 1.97080E+01 4.31958E-01 1.99745E-03 1.07980E-01-1.17289E-13 2.21962E-13
 -1      4128 1.98545E+01 2.75948E-01-1.02303E-03 8.60302E-02 1.02667E-13 1.65604E-13
 -1      4129 1.98283E+01 3.11103E-01-6.87015E-05 1.02793E-01 9.02888E-14 2.89386E-13
 -1      4130 1.97937E+01 3.47066E-01 1.56686E-03 8.00995E-02 3.73612E-14-2.30723E-15
 -1      4131 1.99030E+01 2.14803E-01-7.95995E-04 6.23863E-02 6.19116E-14 1.38209E-13
 -1      4132 1.98837E+01 2.44365E-01-4.41531E-05 7.54977E-02 6.65461E-14 1.88386E-13
 -1      4133 1.98585E+01 2.73841E-01 1.20949E-03 5.86351E-02 8.71972E-14-9.50040E-14
 -1      4134 1.99384E+01 1.64235E-01-6.11121E-04 4.42596E-02-3.97911E-14 2.06745E-13
 -1      4135 1.99246E+01 1.88531E-01-2.25706E-05 5.43959E-02-1.95213E-15 1.84266E-13
 -1      4136 1.99065E+01 2.12281E-01 9.17582E-04 4.22071E-02 5.31099E-14-3.86992E-14
 -1      4137 1.99634E+01 1.23288E-01-4.62153E-04 3.05294E-02 6.57525E-14 4.38979E-13
 -1      4138 1.99538E+01 1.42853E-01-5.71459E-06 3.82628E-02 3.75013E-14 3.45803E-13
 -1      4139 1.99412E+01 1.61672E-01 6.83229E-04 2.97368E-02-5.48185E-14-3.18678E-14
 -1      4140 1.99806E+01 9.07474E-02-3.42753E-04 2.02695E-02-1.35974E-14 5.60055E-13
 -1      4141 1.99742E+01 1.06225E-01 7.14491E-06 2.60857E-02-4.11580E-15 5.14859E-13
 -1      4142 1.99656E+01 1.20891E-01 4.97519E-04 2.03699E-02-4.98173E-14 2.66304E-13
 -1      4143 1.99920E+01 6.53687E-02-1.69871E-04 1.26176E-02 5.75784E-14 4.12513E-13
 -1      4144 1.99878E+01 7.74537E-02 4.11383E-05 1.70271E-02 5.00854E-14 4.68301E-13
 -1      4145 1.99821E+01 8.85998E-02 3.32784E-04 1.34526E-02 8.78007E-14 3.21402E-13
 -1      4146 1.81148E+01 8.56019E-01-9.40760E-03 1.00639E+00-1.17895E-13 8.53174E-14
 -1      4147 1.79765E+01 8.04132E-01 4.05739E-03 1.16544E+00-6.69167E-14 2.57962E-13
 -1      4148 1.80261E+01 9.95988E-01 8.07764E-03 7.82101E-01-6.30289E-14 1.16352E-13
 -1      4149 2.00007E+01 3.58232E-02-8.18115E-05 1.56416E-03 8.21846E-14 8.90873E-14
 -1      4150 1.65462E+01 1.21242E+00-1.94147E-02 3.45833E-01-1.16361E-14-3.28069E-13
 -1      4151 2.00019E+01 3.35657E-02-5.52122E-05 4.75293E-03-1.13507E-16 1.91003E-13
 -1      4152 1.90207E+01 1.17926E+00-5.54554E-03-9.06709E-01 4.98937E-14-2.77588E-13
 -1      4153 1.87479E+01 1.46501E+00 1.00237E-02-6.32997E-01 4.58915E-14-2.25769E-13
 -1      4154 1.89306E+01 1.04507E+00 5.46540E-04-1.05741E+00 2.13322E-14-2.62614E-13
 -1      4155 1.76846E+01 7.13692E-01-1.25181E-02 1.34104E+00-1.28220E-13 2.81611E-13
 -1      4156 1.75431E+01 6.02411E-01 7.33121E-03 1.56608E+00-9.62608E-14 2.64459E-13
 -1      4157 1.75163E+01 9.09671E-01 5.46575E-04 1.07670E+00-7.93251E-14 2.18863E-13
 -1      4158 1.64825E+01 9.67476E-01 3.58416E-02-1.23615E+00-2.10958E-14-2.61453E-13
 -1      4159 1.71764E+01 6.34098E-01-2.06916E-02-1.65893E+00-4.57143E-14-2.00576E-13
 -1      4160 1.77131E+01 7.23933E-01-1.01292E-02-1.51724E+00-4.38198E-14-2.03700E-13
 -1      4161 1.65888E+01 1.08438E+00-1.08964E-02-7.64708E-01 3.21249E-16-2.71531E-13
 -1      4162 1.58627E+01 6.63761E-01 4.45307E-02 1.84693E+00-2.53159E-13 7.93270E-14
 -1      4163 1.60133E+01 8.90563E-01-9.68321E-03 1.15976E+00-1.82005E-13 6.00433E-14
 -1      4164 1.65629E+01 9.19224E-01-1.26729E-02 1.09165E+00-2.00485E-13 1.81064E-14
 -1      4165 1.70031E+01 1.38391E-01-8.36989E-03 2.20197E+00-1.86448E-13 7.98177E-14
 -1      4166 1.69424E+01 1.19320E+00-8.33814E-03 9.61961E-02-8.04840E-14-1.49269E-13
 -1      4167 1.87680E+01 1.62547E+00-5.37250E-03-3.20643E-01 5.42167E-14-2.38234E-13
 -1      4168 1.88790E+01 1.81803E+00 3.81193E-03-1.04766E-01 4.22741E-14-2.49517E-13
 -1      4169 1.83705E+01-2.40131E-01 4.79869E-03-2.38300E+00-6.84930E-14-2.13423E-13
 -1      4170 1.99996E+01 4.30487E-02 7.98187E-05 4.40571E-03 4.91994E-14 2.06771E-13
 -1      4171 1.86721E+01 1.63937E+00-1.57009E-03 2.30743E-01-1.15214E-14-2.49836E-13
 -1      4172 1.84420E+01 1.55065E+00-8.42935E-03 2.78403E-01 1.99900E-14-2.68569E-13
 -1      4173 1.89544E+01 1.80410E+00-3.77750E-03 2.15125E-01-2.03302E-14-2.82072E-13
 -1      4174 1.88326E+01 1.79460E+00 3.88329E-03 6.64375E-02-1.26742E-14-2.54707E-13
 -1      4175 1.90514E+01 8.39802E-01 4.69633E-03 3.31564E-01-1.15914E-13-1.96913E-13
 -1      4176 1.90615E+01 8.05184E-01-4.06985E-03 4.52241E-01-1.56987E-13 7.16010E-14
 -1      4177 1.89591E+01 8.43530E-01 5.99681E-04 5.18778E-01-1.64226E-13-1.81293E-14
 -1      4178 1.99946E+01 5.61854E-02-2.80324E-05-3.10984E-04 1.00257E-13 1.53418E-13
 -1      4179 1.86820E+01 8.91697E-01 1.33466E-03 6.72575E-01-6.87684E-14 6.19125E-14
 -1      4180 1.84394E+01 9.85581E-01 7.03930E-03 5.82440E-01-1.29503E-13 1.88067E-14
 -1      4181 1.88000E+01 8.70292E-01-5.27856E-03 5.86332E-01-1.39802E-13-4.90708E-14
 -1      4182 1.71862E+01 4.59376E-01-2.25187E-02 1.78610E+00-1.04632E-13 1.60887E-13
 -1      4183 1.76055E+01 1.05944E+00 2.71497E-02-1.15618E+00-2.50893E-14-1.87099E-13
 -1      4184 1.81390E+01 8.08383E-01-6.88667E-03-1.39199E+00-5.58783E-14-1.78734E-13
 -1      4185 1.99986E+01 4.62523E-02-4.89484E-05 7.53588E-03-8.68775E-15 2.90397E-13
 -1      4186 1.99962E+01 5.48623E-02-3.51605E-05 1.04961E-02 5.49700E-14 4.28221E-13
 -1      4187 1.85789E+01 1.50578E+00-6.30518E-03-4.13473E-01-1.59123E-15-1.99007E-13
 -1      4188 1.87818E+01-7.20879E-01 4.90725E-03-2.70301E+00-7.65351E-14-2.10489E-13
 -1      4189 1.70802E+01 1.28763E+00-1.03826E-02 3.47277E-01 4.46203E-15-3.16058E-13
 -1      4190 1.67653E+01 1.33354E+00 3.23548E-02-1.58361E-01-4.19055E-15-2.93471E-13
 -1      4191 1.74901E+01 1.35431E+00-1.00140E-02 2.91818E-01 2.81792E-14-2.89499E-13
 -1      4192 1.69507E+01 7.87079E-01 1.98230E-02 1.43031E+00-1.76531E-13 2.42062E-13
 -1      4193 1.85294E+01 7.17879E-01 4.97653E-03-1.49845E+00-3.21573E-14-2.30369E-13
 -1      4194 1.89785E+01 6.37135E-01 6.41258E-03-1.47999E+00 1.51940E-15-2.52273E-13
 -1      4195 1.99925E+01 6.26994E-02-5.94909E-05 8.07474E-03 3.49069E-14 1.43821E-13
 -1      4196 1.83021E+01 9.66262E-01-1.53105E-02-1.18883E+00-3.88131E-14-1.97388E-13
 -1      4197 1.71863E+01 1.18270E+00 1.13417E-02 3.99174E-01-9.01138E-14-4.47296E-14
 -1      4198 1.69115E+01 1.00117E+00-8.77981E-03 9.13026E-01-1.86679E-13 5.50815E-14
 -1      4199 1.90347E+01 8.07637E-01 1.30032E-03-1.31614E+00 9.56402E-15-2.84336E-13
 -1      4200 1.70701E+01 1.14798E+00-1.86412E-02-6.68492E-01-1.29150E-15-2.75700E-13
 -1      4201 1.75246E+01 1.21414E+00-1.51146E-02-6.25221E-01-6.06828E-15-2.31488E-13
 -1      4202 1.83537E+01 1.03137E+00-6.88559E-03 3.38883E-01-4.28326E-14-8.55359E-14
 -1      4203 1.85699E+01 9.96308E-01-1.48379E-03 2.96614E-01-4.71709E-14-8.43727E-14
 -1      4204 1.87227E+01 9.50564E-01-5.19222E-03 2.44699E-01-8.05185E-14-1.59553E-13
 -1      4205 1.88933E+01 9.02832E-01-1.33890E-03 2.15831E-01-5.16952E-14-1.90200E-13
 -1      4206 1.90179E+01 8.48552E-01-4.00307E-03 1.77542E-01-6.31488E-14-1.93754E-13
 -1      4207 1.91531E+01 7.94553E-01-1.16303E-03 1.57840E-01-1.05834E-13-2.24504E-13
 -1      4208 1.92538E+01 7.37186E-01-3.14013E-03 1.29098E-01-9.43840E-14-1.99660E-13
 -1      4209 1.93607E+01 6.81814E-01-9.82024E-04 1.15734E-01-7.99420E-14-7.22042E-14
 -1      4210 1.94413E+01 6.25388E-01-2.48486E-03 9.38706E-02-1.15511E-13-3.26820E-14
 -1      4211 1.95252E+01 5.72102E-01-8.07523E-04 8.48800E-02-4.94968E-14-1.17619E-14
 -1      4212 1.95887E+01 5.19349E-01-1.96919E-03 6.81030E-02-7.59611E-14-1.24516E-14
 -1      4213 1.96539E+01 4.70375E-01-6.46973E-04 6.21119E-02-5.17417E-14-1.26140E-13
 -1      4214 1.97032E+01 4.22933E-01-1.55427E-03 4.91801E-02-1.65623E-15-2.28843E-13
 -1      4215 1.97533E+01 3.79501E-01-5.04952E-04 4.52284E-02 6.08129E-14-2.95901E-13
 -1      4216 1.97909E+01 3.38154E-01-1.21713E-03 3.52531E-02 8.55932E-14-3.50942E-13
 -1      4217 1.98287E+01 3.00747E-01-3.83657E-04 3.26754E-02-1.70194E-14-2.43707E-13
 -1      4218 1.98569E+01 2.65649E-01-9.43050E-04 2.49997E-02 4.56396E-14-1.77341E-13
 -1      4219 1.98849E+01 2.34224E-01-2.83360E-04 2.33387E-02 7.93445E-14-1.40284E-13
 -1      4220 1.99055E+01 2.05108E-01-7.21508E-04 1.74631E-02 2.95060E-14-1.91529E-13
 -1      4221 1.99260E+01 1.79278E-01-2.02904E-04 1.64082E-02-4.75633E-14-1.76794E-13
 -1      4222 1.99407E+01 1.55616E-01-5.44097E-04 1.19450E-02-1.06796E-13-6.01186E-14
 -1      4223 1.99551E+01 1.34797E-01-1.40055E-04 1.12864E-02-7.38061E-14-2.24673E-14
 -1      4224 1.99653E+01 1.15924E-01-4.02621E-04 7.93446E-03-5.91280E-14 1.93727E-14
 -1      4225 1.99753E+01 9.94418E-02-8.45051E-05 7.51911E-03-4.40713E-14 7.63601E-16
 -1      4226 1.99821E+01 8.45631E-02-2.99762E-04 5.09242E-03 1.05237E-13 5.60110E-14
 -1      4227 1.99889E+01 7.19043E-02 7.82269E-05 4.52990E-03 1.48066E-13 1.10617E-13
 -1      4228 1.88875E+01 1.81867E+00-3.05394E-03-1.00963E-02 8.28990E-15-2.64788E-13
 -1      4229 1.83018E+01 1.56444E+00 1.17103E-02 5.12476E-02 1.71913E-14-2.22632E-13
 -1      4230 1.81862E+01 1.48652E+00-6.08569E-03 2.80375E-01 4.07222E-14-2.84646E-13
 -1      4231 1.78797E+01 1.41874E+00-1.30335E-02 3.28657E-01 4.55927E-14-2.76558E-13
 -1      4232 1.78909E+01 1.07480E+00-9.45822E-03 4.73849E-01-3.74293E-14-1.24716E-14
 -1      4233 1.76755E+01 1.08447E+00 1.28006E-03 5.72283E-01 1.47243E-14 3.22173E-14
 -1      4234 1.72251E+01 1.06568E+00-6.02494E-03 7.46298E-01-9.60852E-14 6.35425E-14
 -1      4235 1.81676E+01 1.06179E+00-1.34641E-03 4.10496E-01-4.14057E-14 4.35843E-14
 -1      4236 1.99936E+01 5.89179E-02-5.45637E-06 4.54799E-03 1.50917E-13 1.35031E-13
 -1      4237 1.87762E+01 9.27364E-01 5.75749E-03 4.37967E-01-1.49368E-13-1.20419E-13
 -1      4238 1.99976E+01 4.88885E-02 1.11323E-04 2.97941E-03 1.04633E-13 1.25492E-13
 -1      4239 1.83102E+01 1.22964E+00 1.71955E-02-8.88356E-01-3.10990E-14-1.90375E-13
 -1      4240 1.85756E+01 1.11476E+00-5.52049E-03-1.01809E+00-1.55063E-14-2.43126E-13
 -1      4241 1.82926E+01 1.40185E+00-1.01104E-02-4.84180E-01-9.02663E-15-2.03699E-13
 -1      4242 1.84252E+01 1.59766E+00 1.03159E-02-1.54573E-01 1.01841E-14-1.86454E-13
 -1      4243 1.76485E+01 1.45686E+00 2.25782E-02-2.71247E-02 2.69684E-14-2.66972E-13
 -1      4244 1.90531E+01 1.88574E+00 1.49898E-03 1.79258E-01-3.03972E-14-3.05956E-13
 -1      4245 1.79067E+01 1.31320E+00-7.08076E-03-5.02459E-01-1.09455E-14-2.55649E-13
 -1      4246 1.80058E+01 1.31324E+00 7.17176E-04-6.22447E-01-1.94152E-14-2.32735E-13
 -1      4247 1.83227E+01 1.54632E+00-4.38780E-03-6.21389E-02 5.75560E-15-2.01683E-13
 -1      4248 1.86081E+01 1.64767E+00-1.24160E-03-3.68891E-02 8.67226E-15-1.91121E-13
 -1      4249 1.80473E+01 1.47451E+00-4.66379E-03-7.65224E-02 2.22344E-14-2.54883E-13
 -3
    1PSTEP                         3           1           1          
  100CL  101 1.000000000        4249                     0    1           1
 -4  TOSTRAIN    6    1
 -5  EXX         1    4    1    1
 -5  EYY         1    4    2    2
 -5  EZZ         1    4    3    3
 -5  EXY         1    4    1    2
 -5  EYZ         1    4    2    3
 -5  EZX         1    4    3    1
 -1         1 3.12865E-04-9.70516E-05-7.94169E-05 1.74639E-06-4.39398E-21-3.02412E-18
 -1         2 3.68321E-05-1.11210E-04 2.00205E-05-1.10705E-07 1.46805E-18 3.63801E-19
 -1         3 9.52380E-05-2.85702E-05-2.85724E-05 1.38704E-09-2.95180E-18-2.69498E-18
 -1         4 9.52380E-05-2.85703E-05-2.85724E-05-1.21511E-09 3.33741E-19 8.42491E-19
 -1         5 1.41971E-04-2.11283E-05-4.24234E-05 3.78997E-05-2.83280E-19 2.00757E-17
 -1         6 1.43699E-04 2.57733E-10-4.40338E-05-5.24884E-05-1.24450E-18 1.58022E-17
 -1         7 9.14024E-05-6.14201E-07-3.92374E-05-2.80438E-05-1.66442E-19 1.35494E-18
 -1         8 8.61285E-05 3.49738E-08-3.66847E-05-1.85778E-05-1.73668E-19-2.69984E-18
 -1         9 8.36628E-05 4.78031E-08-3.56725E-05-1.36517E-05-1.52837E-19-4.72457E-18
 -1        10 8.22331E-05 2.72997E-08-3.50725E-05-1.00387E-05-7.54786E-20-5.62144E-18
 -1        11 8.12406E-05 2.01951E-08-3.46704E-05-7.15798E-06-6.12047E-20-5.90874E-18
 -1        12 8.05315E-05 1.90471E-08-3.43895E-05-4.81216E-06-3.39475E-21-5.92212E-18
 -1        13 8.00512E-05 2.06268E-08-3.42015E-05-2.76171E-06-7.11375E-22-5.83780E-18
 -1        14 7.98155E-05 2.16642E-08-3.41093E-05-9.03485E-07 3.40922E-20-5.62594E-18
 -1        15 7.98279E-05 2.13515E-08-3.41132E-05 9.00997E-07 6.56955E-20-5.39950E-18
 -1        16 8.00841E-05 1.97513E-08-3.42117E-05 2.78685E-06 1.05982E-19-5.18025E-18
 -1        17 8.05748E-05 1.70834E-08-3.44020E-05 4.88858E-06 1.16308E-19-4.82822E-18
 -1        18 8.12793E-05 1.83619E-08-3.46805E-05 7.29627E-06 1.53869E-19-4.14123E-18
 -1        19 8.22594E-05 2.66079E-08-3.50794E-05 1.02508E-05 2.14683E-19-3.11029E-18
 -1        20 8.36657E-05 5.39487E-08-3.56772E-05 1.39371E-05 2.54732E-19-1.35013E-18
 -1        21 8.60644E-05 1.16535E-07-3.67118E-05 1.88478E-05 2.72930E-19 1.80242E-18
 -1        22 9.22721E-05-1.85798E-07-3.89087E-05 2.68556E-05 6.88214E-21 7.77287E-18
 -1        23 1.13220E-04-3.82263E-05-3.54875E-05-4.07053E-06-8.43645E-19 1.15520E-17
 -1        24 9.45688E-05-2.82386E-05-2.95048E-05 4.30822E-07-2.28983E-19 7.76402E-18
 -1        25 9.21732E-05-2.77777E-05-2.78412E-05 3.91302E-07-4.89707E-20 4.15685E-18
 -1        26 9.24654E-05-2.78324E-05-2.77388E-05 2.24779E-07-2.49842E-20 1.82139E-18
 -1        27 9.41811E-05-2.83182E-05-2.82478E-05 1.73953E-07-9.23779E-20 2.81188E-19
 -1        28 9.68277E-05-2.90884E-05-2.90584E-05 1.55322E-07-1.58322E-21-8.51758E-19
 -1        29 1.00210E-04-3.00874E-05-3.00839E-05 1.56856E-07-3.03029E-20-1.79680E-18
 -1        30 1.04208E-04-3.12748E-05-3.12857E-05 1.71643E-07 4.93086E-20-2.99209E-18
 -1        31 1.08665E-04-3.25997E-05-3.26130E-05 1.92538E-07-6.48325E-20-3.64945E-18
 -1        32 1.13275E-04-3.39702E-05-3.39660E-05 2.06466E-07-1.08761E-19-4.29878E-18
 -1        33 1.17468E-04-3.52167E-05-3.51635E-05 1.88413E-07 3.06872E-19-4.50786E-18
 -1        34 1.20305E-04-3.60629E-05-3.59226E-05 9.87868E-08-5.89581E-20-4.38579E-18
 -1        35 1.20526E-04-3.61350E-05-3.58879E-05-1.04784E-07 1.54608E-19-4.93413E-18
 -1        36 1.16903E-04-3.50651E-05-3.47551E-05-4.30541E-07-7.43917E-20-4.91525E-18
 -1        37 1.09069E-04-3.27322E-05-3.25050E-05-7.85035E-07-2.32074E-19-4.14316E-18
 -1        38 9.85819E-05-2.95861E-05-2.96436E-05-9.40317E-07-1.40063E-19-4.29027E-18
 -1        39 8.92080E-05-2.67581E-05-2.71758E-05-6.72528E-07-7.04659E-20-4.95835E-18
 -1        40 8.52940E-05-2.55702E-05-2.61765E-05-2.85112E-08 2.33176E-19-4.89727E-18
 -1        41 8.89397E-05-2.66733E-05-2.71262E-05 6.44001E-07-5.52524E-20-6.42840E-18
 -1        42 9.83530E-05-2.95172E-05-2.96023E-05 9.42981E-07-1.27796E-19-7.18099E-18
 -1        43 1.09214E-04-3.27770E-05-3.25656E-05 8.11798E-07-9.78273E-20-7.16180E-18
 -1        44 1.17667E-04-3.52972E-05-3.49865E-05 4.66498E-07 6.49767E-20-5.46124E-18
 -1        45 1.22004E-04-3.65806E-05-3.63271E-05 1.36819E-07 1.13491E-19-4.80656E-18
 -1        46 1.22492E-04-3.67196E-05-3.65760E-05-7.21791E-08-1.30585E-19-7.17362E-18
 -1        47 1.20344E-04-3.60786E-05-3.60272E-05-1.62478E-07 6.48861E-19-5.43795E-18
 -1        48 1.16841E-04-3.50373E-05-3.50400E-05-1.76448E-07 1.19983E-20-3.90778E-18
 -1        49 1.12942E-04-3.38777E-05-3.39032E-05-1.53994E-07 2.12645E-19-4.54836E-18
 -1        50 1.09222E-04-3.27698E-05-3.27995E-05-1.20262E-07-1.90117E-20-3.48479E-18
 -1        51 1.05961E-04-3.17967E-05-3.18225E-05-8.75957E-08-1.13708E-19-2.65275E-18
 -1        52 1.03252E-04-3.09863E-05-3.10058E-05-6.05783E-08-7.22211E-21-1.34147E-18
 -1        53 1.01083E-04-3.03362E-05-3.03497E-05-3.99768E-08-2.14693E-19-3.88808E-18
 -1        54 9.93943E-05-2.98291E-05-2.98379E-05-2.50334E-08 2.63438E-19-5.53413E-18
 -1        55 9.81105E-05-2.94427E-05-2.94481E-05-1.45785E-08-5.67410E-19-5.53413E-18
 -1        56 9.71550E-05-2.91547E-05-2.91576E-05-7.49038E-09 1.27816E-19-6.07919E-18
 -1        57 9.64590E-05-2.89445E-05-2.89459E-05-2.84343E-09-1.44111E-19-6.63245E-18
 -1        58 9.59638E-05-2.87946E-05-2.87950E-05 7.61343E-11 7.14337E-20-6.12367E-18
 -1        59 9.56211E-05-2.86906E-05-2.86904E-05 1.79937E-09 5.05070E-19-5.95046E-18
 -1        60 9.53922E-05-2.86210E-05-2.86205E-05 2.71344E-09 7.05279E-19-2.61448E-18
 -1        61 9.52467E-05-2.85766E-05-2.85759E-05 3.09684E-09 9.18822E-20 3.00514E-19
 -1        62 9.51611E-05-2.85502E-05-2.85495E-05 3.14763E-09-4.57288E-19 1.04278E-19
 -1        63 9.51177E-05-2.85367E-05-2.85360E-05 3.00499E-09-6.73588E-19-5.62234E-18
 -1        64 9.51032E-05-2.85320E-05-2.85314E-05 2.76511E-09-3.89945E-19-8.53660E-18
 -1        65 9.51079E-05-2.85331E-05-2.85325E-05 2.49262E-09-6.23701E-19-5.31314E-18
 -1        66 9.51245E-05-2.85378E-05-2.85374E-05 2.22829E-09 5.12302E-19-2.98018E-18
 -1        67 9.51481E-05-2.85447E-05-2.85444E-05 1.99276E-09 5.90343E-19 1.67563E-18
 -1        68 9.51746E-05-2.85525E-05-2.85522E-05 1.78352E-09-6.20457E-20 1.66131E-18
 -1        69 9.52007E-05-2.85602E-05-2.85599E-05 1.54948E-09 3.45574E-20-2.15066E-19
 -1        70 9.52226E-05-2.85668E-05-2.85662E-05 1.05518E-09 7.63487E-19 2.71185E-18
 -1        71 9.52361E-05-2.85711E-05-2.85702E-05 1.77938E-10-1.13769E-19 4.94072E-18
 -1        72 1.02565E-04-3.06919E-05-3.42794E-05-2.00720E-06 2.11705E-19 1.88946E-17
 -1        73 9.43163E-05-2.80501E-05-2.94122E-05-3.53124E-07 1.27763E-19 1.50109E-17
 -1        74 9.20646E-05-2.75962E-05-2.78557E-05-1.31560E-07 3.54993E-20 1.22746E-17
 -1        75 9.22844E-05-2.77144E-05-2.77177E-05-9.93873E-08 5.30024E-20 1.03967E-17
 -1        76 9.38096E-05-2.81674E-05-2.81490E-05-8.66123E-08 3.78232E-20 8.58251E-18
 -1        77 9.61284E-05-2.88512E-05-2.88485E-05-8.56258E-08 4.58990E-20 7.45411E-18
 -1        78 9.89794E-05-2.96969E-05-2.97049E-05-9.45671E-08-4.16552E-20 7.05481E-18
 -1        79 1.02158E-04-3.06427E-05-3.06513E-05-1.11496E-07-2.57967E-20 6.61453E-18
 -1        80 1.05416E-04-3.16141E-05-3.16103E-05-1.32882E-07 6.76085E-20 5.51291E-18
 -1        81 1.08393E-04-3.25040E-05-3.24702E-05-1.50700E-07 2.14033E-19 4.30811E-18
 -1        82 1.10568E-04-3.31594E-05-3.30739E-05-1.49499E-07-1.16856E-20 3.48576E-18
 -1        83 1.11273E-04-3.33831E-05-3.32287E-05-1.06019E-07 5.72202E-20 3.24926E-18
 -1        84 1.09823E-04-3.29694E-05-3.27518E-05 3.49213E-09-1.61202E-19 3.25820E-18
 -1        85 1.05815E-04-3.17896E-05-3.15597E-05 1.82780E-07 7.97162E-20 4.04133E-18
 -1        86 9.95605E-05-2.99214E-05-2.97805E-05 3.87130E-07 1.36953E-19 1.90794E-18
 -1        87 9.24269E-05-2.77601E-05-2.78166E-05 5.16790E-07-1.17872E-19 7.25431E-19
 -1        88 8.66511E-05-2.59808E-05-2.62675E-05 4.67763E-07-2.59721E-19 1.76011E-18
 -1        89 8.44409E-05-2.52735E-05-2.56906E-05 2.19521E-07 5.29275E-19 7.94320E-19
 -1        90 8.67580E-05-2.59561E-05-2.63205E-05-1.17498E-07-4.24327E-19-1.16181E-18
 -1        91 9.27157E-05-2.77660E-05-2.79346E-05-3.79384E-07 7.59749E-20 3.47151E-19
 -1        92 1.00145E-04-3.00309E-05-2.99833E-05-4.69980E-07-1.23192E-20-1.82721E-19
 -1        93 1.06802E-04-3.20559E-05-3.18703E-05-4.05709E-07-1.08535E-19 1.01095E-18
 -1        94 1.11298E-04-3.34150E-05-3.31963E-05-2.64856E-07 1.93812E-19 2.37580E-19
 -1        95 1.13300E-04-3.40124E-05-3.38327E-05-1.22573E-07-8.24980E-20 3.07215E-19
 -1        96 1.13207E-04-3.39768E-05-3.38613E-05-1.74044E-08-1.12180E-19 1.44309E-18
 -1        97 1.11707E-04-3.35195E-05-3.34629E-05 4.44778E-08 2.15878E-20 8.59798E-19
 -1        98 1.09463E-04-3.28416E-05-3.28265E-05 7.20765E-08-5.48840E-19 3.52736E-19
 -1        99 1.06978E-04-3.20938E-05-3.21028E-05 7.76719E-08 1.10548E-20-5.08051E-19
 -1       100 1.04575E-04-3.13722E-05-3.13925E-05 7.14339E-08-3.00410E-19 2.42089E-19
 -1       101 1.02431E-04-3.07289E-05-3.07524E-05 6.01631E-08 1.68346E-19-7.31482E-19
 -1       102 1.00617E-04-3.01851E-05-3.02075E-05 4.78002E-08 6.40681E-20-2.26130E-18
 -1       103 9.91432E-05-2.97433E-05-2.97628E-05 3.63368E-08-1.16488E-19 7.70855E-19
 -1       104 9.79841E-05-2.93959E-05-2.94117E-05 2.65946E-08-4.74299E-20 2.62573E-18
 -1       105 9.70979E-05-2.91301E-05-2.91425E-05 1.87588E-08-1.30014E-19 2.20879E-18
 -1       106 9.64384E-05-2.89323E-05-2.89417E-05 1.27041E-08-4.57629E-19 1.25621E-18
 -1       107 9.59609E-05-2.87891E-05-2.87960E-05 8.17718E-09 9.38965E-19-1.72075E-18
 -1       108 9.56258E-05-2.86885E-05-2.86934E-05 4.89376E-09-1.34896E-20-6.53931E-18
 -1       109 9.53994E-05-2.86204E-05-2.86239E-05 2.58473E-09-2.54511E-19-1.82106E-18
 -1       110 9.52538E-05-2.85767E-05-2.85790E-05 1.01561E-09 4.85052E-19-2.19077E-18
 -1       111 9.51673E-05-2.85506E-05-2.85521E-05-8.19647E-12-1.52664E-20-2.66893E-18
 -1       112 9.51227E-05-2.85372E-05-2.85380E-05-6.43068E-10-4.24665E-19-1.22471E-18
 -1       113 9.51071E-05-2.85324E-05-2.85329E-05-1.01189E-09 6.95536E-19-2.31848E-18
 -1       114 9.51108E-05-2.85334E-05-2.85337E-05-1.20970E-09-8.73185E-19-1.17968E-18
 -1       115 9.51268E-05-2.85382E-05-2.85382E-05-1.30918E-09 6.35652E-19-2.07333E-18
 -1       116 9.51498E-05-2.85450E-05-2.85450E-05-1.36421E-09 3.87601E-19-2.62513E-18
 -1       117 9.51760E-05-2.85528E-05-2.85527E-05-1.40892E-09 2.47819E-19-6.54025E-18
 -1       118 9.52017E-05-2.85605E-05-2.85602E-05-1.44360E-09-1.46450E-20-6.59388E-18
 -1       119 9.52233E-05-2.85670E-05-2.85664E-05-1.33744E-09-6.26956E-19-7.57120E-18
 -1       120 9.52360E-05-2.85712E-05-2.85702E-05-5.05625E-10 9.83956E-19-6.39169E-18
 -1       121 9.52376E-05-2.85730E-05-2.85702E-05-3.09986E-10-4.30070E-18 2.39504E-18
 -1       122 9.52415E-05-2.85854E-05-2.85664E-05-1.08205E-09 2.95250E-18 2.98883E-19
 -1       123 9.52472E-05-2.86046E-05-2.85610E-05-1.26146E-09 5.25098E-18 8.86707E-19
 -1       124 9.52534E-05-2.86252E-05-2.85551E-05-1.10927E-09 5.92200E-18-2.90859E-19
 -1       125 9.52588E-05-2.86436E-05-2.85497E-05-8.46830E-10 5.82569E-18-5.28915E-19
 -1       126 9.52631E-05-2.86579E-05-2.85454E-05-5.88773E-10 2.07683E-18-6.34172E-19
 -1       127 9.52661E-05-2.86678E-05-2.85424E-05-3.39925E-10 2.28971E-18 4.25254E-19
 -1       128 9.52676E-05-2.86728E-05-2.85409E-05-1.13412E-10 3.14001E-18 1.25437E-18
 -1       129 9.52676E-05-2.86729E-05-2.85409E-05 1.05164E-10 8.47947E-18-1.40695E-18
 -1       130 9.52661E-05-2.86680E-05-2.85424E-05 3.34568E-10 4.56283E-18-4.41736E-19
 -1       131 9.52632E-05-2.86581E-05-2.85454E-05 5.97665E-10 6.43561E-18 1.11324E-18
 -1       132 9.52589E-05-2.86438E-05-2.85496E-05 8.55633E-10 9.47493E-19-1.47298E-18
 -1       133 9.52534E-05-2.86252E-05-2.85551E-05 1.12106E-09-3.60630E-18 1.22627E-18
 -1       134 9.52472E-05-2.86045E-05-2.85610E-05 1.34504E-09 2.72392E-19 6.01554E-19
 -1       135 9.52415E-05-2.85855E-05-2.85665E-05 1.51769E-09-6.00573E-19-6.43251E-19
 -1       136 9.52380E-05-2.85735E-05-2.85702E-05 5.17454E-11-4.38334E-18-5.94682E-19
 -1       137 2.52954E-05-8.71109E-05 1.56759E-05-2.37099E-05 9.61891E-18 2.20147E-18
 -1       138 8.06825E-06-2.98504E-05 1.79259E-06-1.36833E-05 1.29545E-17 5.97455E-18
 -1       139 1.50951E-05 1.55153E-05-1.63577E-05 2.85980E-05 1.26280E-17 9.58757E-18
 -1       140 7.11341E-05 2.45021E-05-3.88177E-05 8.64454E-05 9.91833E-18 1.17259E-17
 -1       141 1.65192E-04-1.32292E-05-5.79471E-05 1.11762E-04 5.46421E-18 1.07205E-17
 -1       142 2.61613E-04-6.62980E-05-7.27610E-05 8.38274E-05 1.59205E-18 4.73978E-18
 -1       143 3.06948E-04-9.45509E-05-7.84802E-05 1.11095E-05 9.96058E-20-2.18579E-18
 -1       144 2.75922E-04-7.52250E-05-7.44889E-05-7.32866E-05 2.57839E-18-9.89017E-18
 -1       145 1.85040E-04-2.24399E-05-6.16720E-05-1.13299E-04 8.44979E-18-1.73036E-17
 -1       146 8.09499E-05 2.14761E-05-4.10502E-05-9.07485E-05 1.40108E-17-1.79846E-17
 -1       147 1.71517E-05 1.82984E-05-1.80606E-05-3.28578E-05 1.64689E-17-1.31345E-17
 -1       148 6.91932E-06-2.77837E-05 1.46043E-06 1.43121E-05 1.38947E-17-7.22689E-18
 -1       149 2.39123E-05-8.27856E-05 1.45676E-05 2.37049E-05 6.39468E-18-1.87152E-18
 -1       150 3.61600E-05-1.11411E-04 2.02490E-05 2.30913E-06-6.49735E-18-2.91168E-19
 -1       151 2.64759E-05-9.04319E-05 1.62767E-05-2.40291E-05-1.61910E-17-3.69489E-18
 -1       152 8.13057E-06-3.45027E-05 3.16117E-06-1.75946E-05-1.90887E-17-8.11203E-18
 -1       153 1.24844E-05 1.57812E-05-1.57528E-05 2.52813E-05-1.84912E-17-1.46113E-17
 -1       154 6.52334E-05 2.62841E-05-3.74698E-05 8.37943E-05-1.54660E-17-1.80177E-17
 -1       155 1.72870E-04-1.58814E-05-5.95938E-05 1.14055E-04-8.76044E-18-1.78305E-17
 -1       156 2.72941E-04-7.18971E-05-7.44308E-05 8.00731E-05-2.88740E-18-1.16816E-17
 -1       157 2.81076E-04-7.72807E-05-7.54296E-05-7.18196E-05-1.19119E-18 3.52217E-18
 -1       158 1.96112E-04-2.88071E-05-6.31934E-05-1.10604E-04-5.25330E-18 1.08793E-17
 -1       159 1.02222E-04 1.43905E-05-4.60864E-05-1.00264E-04-1.04105E-17 1.49226E-17
 -1       160 3.35562E-05 2.66183E-05-2.68084E-05-5.53261E-05-1.32044E-17 1.24988E-17
 -1       161 5.88196E-06 5.93443E-07-8.24773E-06-5.15041E-06-1.12897E-17 7.55829E-18
 -1       162 1.12524E-05-4.81867E-05 6.89025E-06 2.40259E-05-7.93924E-18 3.47919E-18
 -1       163 2.84393E-05-9.35014E-05 1.67500E-05 2.27173E-05-4.49626E-18 1.72795E-19
 -1       164 9.62564E-05-1.29289E-05-3.59011E-05-2.06046E-05-2.55016E-18-5.79556E-19
 -1       165 9.04727E-05-8.79109E-06-3.51591E-05-1.54000E-05-2.12239E-18-3.09694E-18
 -1       166 8.72215E-05-6.49628E-06-3.47034E-05-1.15023E-05-1.59138E-18-4.31909E-18
 -1       167 8.51810E-05-5.16490E-06-3.43719E-05-8.39320E-06-1.05891E-18-4.83592E-18
 -1       168 8.37477E-05-4.27740E-06-3.41218E-05-5.87901E-06-5.17810E-19-4.99065E-18
 -1       169 8.27465E-05-3.68746E-06-3.39368E-05-3.71601E-06-1.21574E-19-4.99303E-18
 -1       170 8.21618E-05-3.35501E-06-3.38242E-05-1.80476E-06 3.19829E-19-4.79366E-18
 -1       171 8.19870E-05-3.26212E-06-3.37879E-05-1.00559E-08 7.08548E-19-4.63825E-18
 -1       172 8.22177E-05-3.40105E-06-3.38288E-05 1.79945E-06 1.14618E-18-4.49285E-18
 -1       173 8.28452E-05-3.77197E-06-3.39435E-05 3.75195E-06 1.50874E-18-4.18064E-18
 -1       174 8.38464E-05-4.37626E-06-3.41226E-05 5.93476E-06 1.82143E-18-3.73184E-18
 -1       175 8.52955E-05-5.28608E-06-3.43701E-05 8.55698E-06 2.27599E-18-2.90767E-18
 -1       176 8.73491E-05-6.64753E-06-3.46977E-05 1.17499E-05 2.67284E-18-1.69793E-18
 -1       177 9.05892E-05-8.94181E-06-3.51504E-05 1.57026E-05 2.83266E-18 4.17508E-19
 -1       178 9.70825E-05-1.41427E-05-3.57453E-05 2.02600E-05 2.49655E-18 4.16738E-18
 -1       179 1.06602E-04-2.65439E-05-3.54814E-05 1.74609E-05 1.74585E-18 8.91815E-18
 -1       180 1.04841E-04-2.78197E-05-3.30041E-05-1.08219E-05-2.31653E-18 2.69023E-18
 -1       181 9.94110E-05-2.89776E-05-3.02161E-05-3.41775E-06-2.04971E-18 1.59454E-18
 -1       182 9.68479E-05-2.85800E-05-2.92058E-05-3.12549E-07-1.56317E-18 5.09490E-19
 -1       183 9.65503E-05-2.86808E-05-2.90478E-05 1.33844E-06-9.57242E-19-5.44679E-19
 -1       184 9.74840E-05-2.90292E-05-2.93154E-05 2.42479E-06-7.57959E-19-9.77105E-19
 -1       185 9.92792E-05-2.96010E-05-2.98498E-05 3.25427E-06-6.96187E-19-1.17948E-18
 -1       186 1.01716E-04-3.03627E-05-3.05739E-05 3.92104E-06-5.22355E-19-1.26065E-18
 -1       187 1.04629E-04-3.12903E-05-3.14299E-05 4.40304E-06-3.66333E-19-1.53709E-18
 -1       188 1.07827E-04-3.23565E-05-3.23496E-05 4.57400E-06-4.90956E-19-1.49062E-18
 -1       189 1.11031E-04-3.35105E-05-3.32346E-05 4.19851E-06-1.46670E-19-1.61857E-18
 -1       190 1.13814E-04-3.46438E-05-3.39467E-05 2.95538E-06-2.63464E-19-2.42878E-18
 -1       191 1.15575E-04-3.55386E-05-3.43184E-05 5.58823E-07-8.93487E-20-2.62635E-18
 -1       192 1.15606E-04-3.58347E-05-3.41998E-05-2.95951E-06 3.30012E-20-2.65987E-18
 -1       193 1.13345E-04-3.50775E-05-3.35463E-05-6.84284E-06 2.47261E-19-2.16977E-18
 -1       194 1.08869E-04-3.30083E-05-3.25078E-05-9.36431E-06-3.47815E-19-1.60507E-18
 -1       195 1.03500E-04-3.01364E-05-3.14408E-05-8.46689E-06-4.39335E-19-2.03162E-18
 -1       196 9.97289E-05-2.79599E-05-3.07668E-05-3.54631E-06-3.86935E-19-2.32956E-18
 -1       197 9.96601E-05-2.78654E-05-3.07810E-05 3.34045E-06-9.82492E-19-3.47175E-18
 -1       198 1.03480E-04-3.00393E-05-3.14783E-05 8.54850E-06-9.88226E-19-3.88721E-18
 -1       199 1.09051E-04-3.29775E-05-3.25990E-05 9.74940E-06-2.66143E-19-4.50817E-18
 -1       200 1.13903E-04-3.52015E-05-3.37284E-05 7.45368E-06 1.12688E-18-4.26355E-18
 -1       201 1.16629E-04-3.61371E-05-3.45059E-05 3.65456E-06 9.12413E-20-3.57968E-18
 -1       202 1.17071E-04-3.59952E-05-3.47630E-05 1.31771E-07-3.31580E-19-3.00246E-18
 -1       203 1.15768E-04-3.52337E-05-3.45314E-05-2.28409E-06 6.31329E-19-2.23013E-18
 -1       204 1.13430E-04-3.42275E-05-3.39562E-05-3.53316E-06 3.29399E-19-2.97107E-18
 -1       205 1.10656E-04-3.31986E-05-3.32023E-05-3.90318E-06-1.07928E-20-3.09257E-18
 -1       206 1.07859E-04-3.22555E-05-3.24026E-05-3.73451E-06 3.18215E-19-2.77278E-18
 -1       207 1.05281E-04-3.14404E-05-3.16438E-05-3.29574E-06 7.25094E-19-2.33865E-18
 -1       208 1.03039E-04-3.07619E-05-3.09718E-05-2.76170E-06 6.38229E-19-1.57055E-18
 -1       209 1.01165E-04-3.02119E-05-3.04038E-05-2.23150E-06-1.60604E-18-1.75384E-18
 -1       210 9.96470E-05-2.97758E-05-2.99401E-05-1.75367E-06-1.42777E-18-2.32258E-18
 -1       211 9.84467E-05-2.94366E-05-2.95715E-05-1.34669E-06-1.12928E-18-3.27361E-18
 -1       212 9.75178E-05-2.91774E-05-2.92851E-05-1.01272E-06-5.77721E-19-4.16626E-18
 -1       213 9.68132E-05-2.89830E-05-2.90671E-05-7.45981E-07 1.05641E-18-3.86508E-18
 -1       214 9.62892E-05-2.88400E-05-2.89044E-05-5.37491E-07-8.51812E-20-2.85842E-18
 -1       215 9.59077E-05-2.87371E-05-2.87855E-05-3.77555E-07-2.97846E-19-3.69452E-18
 -1       216 9.56365E-05-2.86649E-05-2.87007E-05-2.56998E-07 1.05774E-18-4.34877E-18
 -1       217 9.54493E-05-2.86158E-05-2.86418E-05-1.67703E-07 1.99727E-18-3.18327E-18
 -1       218 9.53250E-05-2.85840E-05-2.86024E-05-1.02773E-07-3.21338E-19-2.80430E-18
 -1       219 9.52467E-05-2.85646E-05-2.85774E-05-5.65132E-08-2.00827E-18-2.13213E-18
 -1       220 9.52017E-05-2.85542E-05-2.85628E-05-2.43356E-08-2.07488E-18-1.85022E-18
 -1       221 9.51801E-05-2.85499E-05-2.85555E-05-2.62840E-09 8.64020E-19-3.05756E-18
 -1       222 9.51745E-05-2.85498E-05-2.85532E-05 1.13679E-08 1.27841E-18-1.43837E-18
 -1       223 9.51792E-05-2.85524E-05-2.85542E-05 1.96675E-08 2.54436E-18-5.26850E-19
 -1       224 9.51900E-05-2.85566E-05-2.85571E-05 2.36133E-08 9.79865E-19 4.97512E-19
 -1       225 9.52036E-05-2.85616E-05-2.85609E-05 2.39068E-08-1.16812E-19 1.04253E-18
 -1       226 9.52174E-05-2.85668E-05-2.85645E-05 2.06031E-08 1.20927E-18 8.82091E-19
 -1       227 9.52293E-05-2.85718E-05-2.85675E-05 1.34377E-08 1.37407E-18 1.39099E-19
 -1       228 1.01213E-04-2.90984E-05-3.10789E-05 6.14663E-06 1.88276E-18 7.71957E-18
 -1       229 9.70621E-05-2.85729E-05-2.93198E-05 1.68276E-06 1.41120E-18 6.30723E-18
 -1       230 9.57995E-05-2.84726E-05-2.88084E-05-2.58897E-07 1.15811E-18 4.95684E-18
 -1       231 9.60840E-05-2.86627E-05-2.88677E-05-1.33450E-06 8.58006E-19 4.13346E-18
 -1       232 9.73200E-05-2.90829E-05-2.92313E-05-2.02096E-06 6.27495E-19 3.63855E-18
 -1       233 9.91723E-05-2.96755E-05-2.97788E-05-2.47538E-06 1.59214E-19 3.35697E-18
 -1       234 1.01403E-04-3.03878E-05-3.04338E-05-2.72684E-06 4.49889E-19 2.90931E-18
 -1       235 1.03784E-04-3.11654E-05-3.11235E-05-2.72892E-06 6.91123E-19 2.38059E-18
 -1       236 1.06040E-04-3.19367E-05-3.17612E-05-2.38156E-06 5.34098E-19 1.78646E-18
 -1       237 1.07819E-04-3.25984E-05-3.22389E-05-1.55894E-06 9.32861E-20 2.19708E-18
 -1       238 1.08693E-04-3.30050E-05-3.24353E-05-1.69983E-07 3.09000E-19 2.13893E-18
 -1       239 1.08228E-04-3.29751E-05-3.22438E-05 1.73215E-06 7.00655E-20 1.89138E-18
 -1       240 1.06152E-04-3.23386E-05-3.16236E-05 3.81035E-06 3.94339E-19 9.52191E-19
 -1       241 1.02596E-04-3.10480E-05-3.06567E-05 5.37325E-06 6.25679E-19 6.89227E-19
 -1       242 9.83255E-05-2.93331E-05-2.95736E-05 5.55417E-06 3.39713E-19 1.00002E-18
 -1       243 9.46903E-05-2.77597E-05-2.87038E-05 3.82544E-06-2.87224E-19 3.32530E-19
 -1       244 9.31205E-05-2.70208E-05-2.83517E-05 5.43043E-07 1.27878E-18-4.97217E-19
 -1       245 9.43405E-05-2.75074E-05-2.86565E-05-3.01346E-06 1.43072E-19-6.94812E-19
 -1       246 9.78831E-05-2.89927E-05-2.95218E-05-5.39823E-06-4.78529E-19-8.49574E-19
 -1       247 1.02409E-04-3.08222E-05-3.06660E-05-5.89671E-06-3.98628E-19 5.24168E-20
 -1       248 1.06493E-04-3.23563E-05-3.17572E-05-4.77644E-06-1.34774E-19 3.31130E-19
 -1       249 1.09230E-04-3.32664E-05-3.25467E-05-2.84537E-06 6.04785E-19-1.76348E-19
 -1       250 1.10374E-04-3.35400E-05-3.29282E-05-8.90160E-07-8.61839E-20-1.46358E-18
 -1       251 1.10147E-04-3.33373E-05-3.29230E-05 6.31154E-07-7.91235E-19-8.52855E-19
 -1       252 1.08961E-04-3.28481E-05-3.26261E-05 1.58889E-06 1.40550E-19 1.66210E-19
 -1       253 1.07237E-04-3.22280E-05-3.21522E-05 2.04806E-06 2.07294E-19 4.13124E-19
 -1       254 1.05311E-04-3.15833E-05-3.16013E-05 2.14600E-06-8.56674E-20-2.05387E-19
 -1       255 1.03414E-04-3.09772E-05-3.10463E-05 2.01986E-06-3.86078E-19 3.78108E-19
 -1       256 1.01684E-04-3.04421E-05-3.05326E-05 1.77716E-06 6.47234E-19 3.28801E-19
 -1       257 1.00187E-04-2.99897E-05-3.00836E-05 1.49112E-06 2.71218E-19 2.30684E-19
 -1       258 9.89402E-05-2.96201E-05-2.97072E-05 1.20637E-06-2.45352E-18 1.78088E-18
 -1       259 9.79354E-05-2.93265E-05-2.94023E-05 9.46958E-07 1.54936E-19 1.91452E-18
 -1       260 9.71472E-05-2.90989E-05-2.91620E-05 7.23541E-07 1.26659E-19 1.46408E-18
 -1       261 9.65442E-05-2.89267E-05-2.89775E-05 5.38649E-07 8.37293E-19 2.44499E-19
 -1       262 9.60941E-05-2.87995E-05-2.88393E-05 3.90315E-07 2.74223E-18-5.78594E-19
 -1       263 9.57668E-05-2.87080E-05-2.87384E-05 2.74372E-07 4.05591E-19-1.13801E-18
 -1       264 9.55356E-05-2.86442E-05-2.86669E-05 1.85841E-07-1.39480E-18-7.62985E-19
 -1       265 9.53781E-05-2.86013E-05-2.86179E-05 1.19736E-07 8.79310E-19-1.12339E-18
 -1       266 9.52757E-05-2.85741E-05-2.85859E-05 7.14766E-08-4.69520E-19-6.44553E-19
 -1       267 9.52139E-05-2.85581E-05-2.85663E-05 3.70874E-08-5.18024E-19-1.34772E-19
 -1       268 9.51811E-05-2.85503E-05-2.85558E-05 1.32558E-08 7.94387E-19-3.48311E-19
 -1       269 9.51685E-05-2.85479E-05-2.85515E-05-2.67737E-09-1.26479E-18-8.71815E-20
 -1       270 9.51695E-05-2.85493E-05-2.85514E-05-1.27584E-08 1.54326E-18 6.89048E-19
 -1       271 9.51789E-05-2.85529E-05-2.85539E-05-1.84641E-08 6.91008E-19 6.64142E-20
 -1       272 9.51928E-05-2.85577E-05-2.85578E-05-2.07238E-08 1.13683E-18 4.17761E-19
 -1       273 9.52082E-05-2.85630E-05-2.85622E-05-1.99147E-08-1.69995E-19-2.30106E-19
 -1       274 9.52223E-05-2.85681E-05-2.85660E-05-1.58437E-08 8.20889E-19-2.56535E-19
 -1       275 9.52328E-05-2.85723E-05-2.85687E-05-8.23356E-09-4.57050E-19-1.74878E-19
 -1       276 9.52370E-05-2.85796E-05-2.85675E-05-1.31699E-08 9.21598E-19 4.59003E-18
 -1       277 9.52421E-05-2.85909E-05-2.85648E-05-1.86721E-08 1.67366E-18 6.96614E-19
 -1       278 9.52471E-05-2.86034E-05-2.85616E-05-1.97608E-08 3.97578E-19 7.24996E-19
 -1       279 9.52513E-05-2.86154E-05-2.85583E-05-1.77748E-08 6.77448E-19 8.83016E-21
 -1       280 9.52546E-05-2.86253E-05-2.85554E-05-1.41360E-08 8.86970E-19-2.97986E-18
 -1       281 9.52570E-05-2.86329E-05-2.85531E-05-9.65689E-09 9.03829E-19-4.31323E-19
 -1       282 9.52584E-05-2.86376E-05-2.85517E-05-4.89981E-09 1.04388E-18 1.01720E-18
 -1       283 9.52589E-05-2.86392E-05-2.85513E-05-7.33497E-11 2.39012E-18 2.48578E-18
 -1       284 9.52585E-05-2.86377E-05-2.85517E-05 4.77883E-09 2.77572E-18-1.64178E-18
 -1       285 9.52571E-05-2.86331E-05-2.85531E-05 9.60697E-09 2.61338E-18-3.08438E-19
 -1       286 9.52547E-05-2.86257E-05-2.85553E-05 1.41069E-08 1.27148E-18-1.92915E-18
 -1       287 9.52514E-05-2.86155E-05-2.85582E-05 1.78817E-08 3.74785E-18-1.90925E-18
 -1       288 9.52471E-05-2.86035E-05-2.85616E-05 1.99269E-08 1.77052E-18 9.53738E-19
 -1       289 9.52419E-05-2.85907E-05-2.85648E-05 1.84620E-08-4.54218E-19-6.50677E-19
 -1       290 9.52364E-05-2.85807E-05-2.85668E-05 1.86428E-08-6.13095E-19-2.75465E-18
 -1       291 1.24703E-05-4.84201E-05 1.19971E-05 7.35176E-06 2.40155E-18 3.43112E-18
 -1       292 2.92039E-05-3.97273E-05 2.69318E-06 2.80131E-05 2.52564E-18 3.82007E-18
 -1       293 6.32311E-05-4.02239E-05-1.08886E-05 3.98325E-05 3.32969E-18 2.66694E-18
 -1       294 1.00887E-04-3.65480E-05-2.77652E-05 4.28924E-05 3.78624E-18 3.42858E-18
 -1       295 1.40154E-04-2.96735E-05-4.60014E-05 4.64188E-05 4.11266E-18 3.89593E-18
 -1       296 1.74918E-04-3.17651E-05-5.95047E-05 2.50629E-05 3.80191E-18 6.74450E-19
 -1       297 2.02803E-04-3.38879E-05-6.92939E-05 1.36672E-05 3.32037E-18-3.84976E-19
 -1       298 2.03035E-04-3.24661E-05-6.99593E-05-8.59499E-06 4.15247E-18-2.95477E-18
 -1       299 1.88051E-04-3.34943E-05-6.32946E-05-3.37441E-05 5.68513E-18-4.93693E-18
 -1       300 1.49413E-04-3.56563E-05-4.77002E-05-3.51374E-05 4.54666E-18-4.11764E-18
 -1       301 1.03152E-04-3.45938E-05-2.94251E-05-4.44345E-05 4.99559E-18-5.88963E-18
 -1       302 6.52108E-05-4.04121E-05-1.16771E-05-4.03430E-05 2.98918E-18-5.03550E-18
 -1       303 2.94611E-05-4.20333E-05 2.98808E-06-2.49291E-05 2.40473E-18-5.34991E-18
 -1       304 1.24718E-05-4.27505E-05 1.03721E-05-1.11254E-05-7.89223E-19-6.37858E-18
 -1       305 1.19358E-05-4.72867E-05 1.19801E-05 6.07202E-06-4.41188E-18-5.24345E-18
 -1       306 2.79245E-05-4.21051E-05 3.85043E-06 2.49079E-05-6.11113E-18-4.28683E-18
 -1       307 5.57518E-05-3.79089E-05-9.34636E-06 3.49950E-05-8.01230E-18-6.25460E-18
 -1       308 9.34790E-05-3.13826E-05-2.69582E-05 4.46423E-05-8.37080E-18-7.98985E-18
 -1       309 1.42456E-04-3.09402E-05-4.63272E-05 4.68899E-05-7.19544E-18-8.95102E-18
 -1       310 1.83587E-04-3.36799E-05-6.17480E-05 2.90957E-05-6.09393E-18-6.28922E-18
 -1       311 2.07478E-04-3.47436E-05-7.05641E-05 1.12569E-05-4.62088E-18-4.80204E-18
 -1       312 2.11178E-04-3.66574E-05-7.11478E-05-9.84749E-06-3.51582E-18-2.25533E-18
 -1       313 1.87607E-04-3.35209E-05-6.34626E-05-2.44092E-05-4.27058E-18-6.04146E-19
 -1       314 1.56785E-04-3.35872E-05-5.11446E-05-4.01006E-05-4.31092E-18 9.76841E-19
 -1       315 1.14988E-04-3.10585E-05-3.55637E-05-4.61332E-05-4.22860E-18 4.03717E-18
 -1       316 7.51141E-05-3.31279E-05-1.90442E-05-4.02550E-05-3.48618E-18 5.43001E-18
 -1       317 4.35916E-05-3.85553E-05-4.37450E-06-2.95898E-05-2.13177E-18 3.84892E-18
 -1       318 2.25689E-05-4.50052E-05 6.54565E-06-1.71327E-05-6.86520E-19 1.91583E-18
 -1       319 1.23100E-05-4.91325E-05 1.22787E-05-5.14844E-06 8.17122E-19 2.72215E-18
 -1       320 9.26572E-05-1.44516E-05-3.35792E-05-1.07090E-05-2.18631E-18-2.75818E-18
 -1       321 9.72874E-05-1.95823E-05-3.33611E-05-1.25226E-05-2.64971E-18-1.25133E-18
 -1       322 8.72638E-05-9.32570E-06-3.34530E-05-6.08135E-06-9.63096E-19-3.82582E-18
 -1       323 8.56393E-05-7.92857E-06-3.33467E-05-4.10373E-06-4.14449E-19-3.94911E-18
 -1       324 8.45850E-05-7.06089E-06-3.32617E-05-2.37553E-06 1.05995E-19-3.83994E-18
 -1       325 8.40873E-05-6.66565E-06-3.32156E-05-7.95816E-07 6.82856E-19-3.66178E-18
 -1       326 8.41381E-05-6.71509E-06-3.32164E-05 7.47866E-07 1.17368E-18-3.52689E-18
 -1       327 8.47263E-05-7.20094E-06-3.32628E-05 2.36681E-06 1.59876E-18-3.45936E-18
 -1       328 8.58178E-05-8.11644E-06-3.33434E-05 4.13036E-06 2.09832E-18-2.99326E-18
 -1       329 8.74640E-05-9.55174E-06-3.34424E-05 6.17404E-06 2.48580E-18-2.38380E-18
 -1       330 8.97452E-05-1.16645E-05-3.35277E-05 8.48731E-06 2.94330E-18-1.48347E-18
 -1       331 9.29478E-05-1.48550E-05-3.35469E-05 1.09124E-05 3.15341E-18-3.02741E-19
 -1       332 9.73434E-05-1.99374E-05-3.32779E-05 1.23934E-05 2.94784E-18 2.11877E-18
 -1       333 1.00476E-04-2.50088E-05-3.24251E-05 1.02658E-05 2.58567E-18 4.35208E-18
 -1       334 9.86970E-05-2.74504E-05-3.05020E-05 3.99819E-06 2.12212E-18 3.44749E-18
 -1       335 9.87184E-05-2.65207E-05-3.08946E-05-4.01066E-06-2.31589E-18-7.97849E-19
 -1       336 9.79326E-05-2.75949E-05-3.01163E-05-4.64711E-08-1.79671E-18-9.49124E-19
 -1       337 9.78799E-05-2.81491E-05-2.98661E-05 2.49599E-06-1.16913E-18-1.27317E-18
 -1       338 9.85051E-05-2.86200E-05-2.99397E-05 4.32825E-06-7.95476E-19-1.47166E-18
 -1       339 9.97061E-05-2.91630E-05-3.02260E-05 5.74657E-06-4.24617E-19-1.46093E-18
 -1       340 1.01396E-04-2.98686E-05-3.06513E-05 6.83846E-06-4.65782E-19-1.36382E-18
 -1       341 1.03517E-04-3.08261E-05-3.11540E-05 7.53146E-06-1.74460E-19-1.10388E-18
 -1       342 1.06024E-04-3.21364E-05-3.16733E-05 7.59807E-06-2.76063E-19-1.05177E-18
 -1       343 1.08862E-04-3.38797E-05-3.21498E-05 6.65985E-06-5.92107E-19-7.66548E-19
 -1       344 1.11879E-04-3.60011E-05-3.25412E-05 4.24672E-06-2.99061E-19-9.98534E-19
 -1       345 1.14672E-04-3.80784E-05-3.28517E-05 3.73264E-08-3.23370E-19-1.16732E-18
 -1       346 1.16465E-04-3.91575E-05-3.31593E-05-5.67323E-06 7.13801E-19-1.07322E-18
 -1       347 1.16120E-04-3.77806E-05-3.36019E-05-1.12928E-05 1.55972E-19-1.14736E-18
 -1       348 1.13064E-04-3.32145E-05-3.42432E-05-1.36465E-05-5.38933E-19-1.15834E-18
 -1       349 1.08750E-04-2.73154E-05-3.49333E-05-9.63035E-06-7.54534E-19-1.83880E-18
 -1       350 1.06575E-04-2.43384E-05-3.52728E-05-1.99235E-07-1.41962E-18-1.96804E-18
 -1       351 1.08627E-04-2.69439E-05-3.50390E-05 9.68770E-06-9.52515E-19-1.65973E-18
 -1       352 1.13090E-04-3.28789E-05-3.44089E-05 1.40920E-05-7.76565E-19-2.23646E-18
 -1       353 1.16464E-04-3.76532E-05-3.37947E-05 1.21923E-05 3.18878E-20-2.34646E-18
 -1       354 1.17184E-04-3.93003E-05-3.34005E-05 6.77473E-06 1.15640E-18-3.45905E-18
 -1       355 1.15713E-04-3.84082E-05-3.31570E-05 1.07304E-06 7.95574E-19-2.11076E-18
 -1       356 1.13163E-04-3.64076E-05-3.29179E-05-3.17777E-06 3.20746E-19-1.06309E-18
 -1       357 1.10365E-04-3.43401E-05-3.25973E-05-5.62247E-06 2.70384E-19-2.06390E-18
 -1       358 1.07724E-04-3.26466E-05-3.21832E-05-6.58657E-06 1.54342E-19-2.85227E-18
 -1       359 1.05381E-04-3.13995E-05-3.17075E-05-6.56511E-06 6.26506E-19-2.53378E-18
 -1       360 1.03361E-04-3.05239E-05-3.12138E-05-5.99016E-06 6.23328E-19-2.40746E-18
 -1       361 1.01652E-04-2.99182E-05-3.07391E-05-5.16733E-06 6.76609E-19-3.00477E-18
 -1       362 1.00228E-04-2.94980E-05-3.03081E-05-4.28636E-06-5.15548E-19-3.97163E-18
 -1       363 9.90587E-05-2.92037E-05-2.99334E-05-3.45214E-06-1.94013E-18-3.85661E-18
 -1       364 9.81142E-05-2.89957E-05-2.96182E-05-2.71443E-06-1.35172E-18-2.61433E-18
 -1       365 9.73635E-05-2.88481E-05-2.93604E-05-2.09010E-06-7.96599E-19-1.83310E-18
 -1       366 9.67767E-05-2.87438E-05-2.91542E-05-1.57793E-06-2.87325E-19-1.48716E-18
 -1       367 9.63256E-05-2.86708E-05-2.89927E-05-1.16778E-06 1.49045E-18-1.24947E-18
 -1       368 9.59851E-05-2.86208E-05-2.88687E-05-8.45857E-07-2.00151E-19-3.70033E-19
 -1       369 9.57330E-05-2.85877E-05-2.87752E-05-5.97688E-07-4.10899E-19-8.83625E-19
 -1       370 9.55503E-05-2.85668E-05-2.87063E-05-4.09628E-07 2.45390E-18-2.32815E-19
 -1       371 9.54214E-05-2.85546E-05-2.86565E-05-2.69552E-07 1.47873E-18-9.27343E-19
 -1       372 9.53334E-05-2.85486E-05-2.86215E-05-1.67096E-07-8.77113E-19 3.86237E-19
 -1       373 9.52758E-05-2.85468E-05-2.85978E-05-9.36554E-08-1.77035E-18 1.04863E-18
 -1       374 9.52406E-05-2.85478E-05-2.85824E-05-4.22682E-08-1.53671E-18 1.89521E-18
 -1       375 9.52214E-05-2.85506E-05-2.85731E-05-7.44642E-09 1.25570E-18 1.09814E-18
 -1       376 9.52134E-05-2.85545E-05-2.85680E-05 1.49941E-08 2.62983E-18 1.32412E-18
 -1       377 9.52127E-05-2.85591E-05-2.85658E-05 2.80910E-08 1.78973E-18 6.42507E-20
 -1       378 9.52166E-05-2.85642E-05-2.85653E-05 3.38573E-08 2.35105E-19 7.74720E-19
 -1       379 9.52230E-05-2.85700E-05-2.85656E-05 3.35003E-08-5.30597E-19 3.25567E-19
 -1       380 9.52292E-05-2.85752E-05-2.85661E-05 2.81213E-08-4.86676E-20-7.29869E-19
 -1       381 9.74750E-05-2.81382E-05-2.96759E-05 4.85715E-07 1.67213E-18 2.81508E-18
 -1       382 9.72412E-05-2.84975E-05-2.94377E-05-1.58838E-06 1.35436E-18 2.27714E-18
 -1       383 9.78454E-05-2.89027E-05-2.95349E-05-2.92193E-06 7.97955E-19 1.77597E-18
 -1       384 9.90537E-05-2.94234E-05-2.98362E-05-3.80198E-06 4.08119E-19 1.51322E-18
 -1       385 1.00682E-04-3.00758E-05-3.02589E-05-4.31192E-06 5.56811E-19 1.02703E-18
 -1       386 1.02566E-04-3.08592E-05-3.07346E-05-4.40883E-06 9.75884E-19 1.07107E-18
 -1       387 1.04526E-04-3.17548E-05-3.11954E-05-3.96290E-06 7.41861E-19 1.21821E-18
 -1       388 1.06336E-04-3.27016E-05-3.15699E-05-2.79997E-06-1.76024E-20 1.33794E-18
 -1       389 1.07699E-04-3.35577E-05-3.17902E-05-7.85176E-07 5.89221E-19 1.05588E-18
 -1       390 1.08247E-04-3.40608E-05-3.18091E-05 2.02702E-06 5.22872E-19 6.98480E-19
 -1       391 1.07605E-04-3.38399E-05-3.16246E-05 5.18890E-06 8.20409E-19 5.53688E-19
 -1       392 1.05587E-04-3.25727E-05-3.12958E-05 7.72409E-06 3.97424E-19 1.19026E-18
 -1       393 1.02518E-04-3.03331E-05-3.09335E-05 8.31570E-06 3.61492E-19 1.10311E-18
 -1       394 9.94473E-05-2.78968E-05-3.06550E-05 6.03771E-06 7.08771E-19 3.95065E-19
 -1       395 9.78065E-05-2.64968E-05-3.05442E-05 1.25222E-06 1.39003E-18-1.02425E-18
 -1       396 9.85413E-05-2.70138E-05-3.06346E-05-4.16694E-06 5.03118E-19-2.63161E-19
 -1       397 1.01295E-04-2.91233E-05-3.09138E-05-7.92505E-06-4.06164E-19-9.62448E-19
 -1       398 1.04754E-04-3.16626E-05-3.13177E-05-8.80564E-06-6.71298E-19-8.32243E-19
 -1       399 1.07586E-04-3.35366E-05-3.17398E-05-7.17513E-06-4.45510E-19-4.24440E-19
 -1       400 1.09125E-04-3.43313E-05-3.20680E-05-4.25358E-06 1.02990E-18-4.58613E-19
 -1       401 1.09351E-04-3.42106E-05-3.22203E-05-1.25670E-06 4.99687E-19-3.80699E-19
 -1       402 1.08596E-04-3.35666E-05-3.21711E-05 1.10469E-06-9.15787E-19-6.23407E-19
 -1       403 1.07243E-04-3.27290E-05-3.19458E-05 2.61755E-06-5.51677E-19-6.98205E-19
 -1       404 1.05608E-04-3.18955E-05-3.15976E-05 3.36477E-06 2.24703E-19-3.94326E-19
 -1       405 1.03915E-04-3.11573E-05-3.11842E-05 3.54513E-06 8.20786E-19 7.16280E-19
 -1       406 1.02304E-04-3.05418E-05-3.07549E-05 3.36415E-06-1.58095E-19-1.17020E-19
 -1       407 1.00855E-04-3.00458E-05-3.03447E-05 2.98753E-06 2.01899E-19 5.69039E-19
 -1       408 9.96035E-05-2.96549E-05-2.99749E-05 2.53142E-06-3.49376E-20 3.03276E-18
 -1       409 9.85564E-05-2.93520E-05-2.96558E-05 2.06896E-06-1.44702E-18 1.32549E-18
 -1       410 9.77041E-05-2.91208E-05-2.93898E-05 1.64135E-06 2.02638E-19-1.01165E-18
 -1       411 9.70267E-05-2.89471E-05-2.91743E-05 1.26823E-06-1.31620E-19 7.57101E-20
 -1       412 9.65004E-05-2.88188E-05-2.90041E-05 9.55716E-07 1.32695E-18 3.59625E-19
 -1       413 9.61003E-05-2.87260E-05-2.88729E-05 7.02115E-07 1.99749E-18 1.99268E-18
 -1       414 9.58031E-05-2.86603E-05-2.87740E-05 5.01659E-07 1.22591E-18 3.17550E-18
 -1       415 9.55878E-05-2.86153E-05-2.87013E-05 3.46855E-07-1.52392E-18 1.04380E-18
 -1       416 9.54362E-05-2.85857E-05-2.86493E-05 2.29893E-07 6.72617E-19 1.79581E-19
 -1       417 9.53333E-05-2.85673E-05-2.86134E-05 1.43420E-07-8.99458E-19 5.75757E-19
 -1       418 9.52669E-05-2.85570E-05-2.85895E-05 8.09297E-08-4.01284E-19-6.75606E-19
 -1       419 9.52271E-05-2.85524E-05-2.85746E-05 3.69220E-08-5.31861E-19 2.52847E-19
 -1       420 9.52065E-05-2.85516E-05-2.85662E-05 6.91951E-09-4.28012E-19 1.62379E-18
 -1       421 9.51990E-05-2.85534E-05-2.85623E-05-1.25757E-08 2.01974E-19 2.61244E-19
 -1       422 9.52002E-05-2.85568E-05-2.85614E-05-2.41509E-08 6.72390E-19 1.05010E-18
 -1       423 9.52067E-05-2.85612E-05-2.85623E-05-2.95466E-08 6.60669E-19 1.57313E-18
 -1       424 9.52158E-05-2.85663E-05-2.85641E-05-2.96915E-08-1.78246E-19 2.37681E-18
 -1       425 9.52256E-05-2.85718E-05-2.85659E-05-2.48848E-08-8.70918E-19 4.65457E-18
 -1       426 9.52318E-05-2.85759E-05-2.85669E-05-1.99048E-08 2.96291E-19 5.82749E-18
 -1       427 9.52469E-05-2.85959E-05-2.85647E-05-2.91611E-08-3.16870E-19 2.04617E-20
 -1       428 9.52415E-05-2.85884E-05-2.85656E-05-3.04613E-08-3.64767E-20-7.36442E-19
 -1       429 9.52365E-05-2.85824E-05-2.85661E-05-2.70790E-08 1.66982E-19 2.17728E-18
 -1       430 9.52503E-05-2.86017E-05-2.85637E-05-2.45736E-08-9.88570E-19-3.04703E-18
 -1       431 9.52524E-05-2.86061E-05-2.85627E-05-1.81964E-08 3.82337E-19 7.76597E-21
 -1       432 9.52535E-05-2.86088E-05-2.85620E-05-1.11038E-08 9.87747E-19-7.62872E-20
 -1       433 9.52540E-05-2.86102E-05-2.85616E-05-3.80573E-09-1.01550E-18 2.85916E-18
 -1       434 9.52541E-05-2.86103E-05-2.85616E-05 3.54880E-09-1.68578E-18-1.29325E-19
 -1       435 9.52537E-05-2.86090E-05-2.85619E-05 1.09306E-08 2.79347E-20-3.42886E-19
 -1       436 9.52526E-05-2.86064E-05-2.85626E-05 1.80461E-08 1.36257E-18 1.63486E-19
 -1       437 9.52505E-05-2.86021E-05-2.85636E-05 2.45846E-08 2.79459E-18-9.71664E-19
 -1       438 9.52469E-05-2.85961E-05-2.85647E-05 2.93843E-08 3.18363E-18-1.12640E-18
 -1       439 9.52415E-05-2.85886E-05-2.85656E-05 3.10805E-08 1.63137E-19-2.58395E-18
 -1       440 6.50321E-05-4.18395E-05-9.69218E-06 4.45686E-05-5.43583E-19 7.80620E-19
 -1       441 1.22604E-05-2.13518E-05 3.80111E-06 1.76053E-06 1.35460E-18 3.49443E-18
 -1       442 2.41450E-05-2.57193E-05 6.41657E-07 2.68323E-05 4.88314E-19 3.28056E-18
 -1       443 1.06581E-04-5.56259E-05-2.18158E-05 3.88389E-05-1.54901E-19 7.36363E-19
 -1       444 1.37855E-04-5.27939E-05-3.64011E-05 2.15966E-05 1.57437E-18-3.99058E-19
 -1       445 8.95885E-05-1.14325E-05-3.35554E-05-8.41907E-06-1.66385E-18-3.46873E-18
 -1       446 1.52832E-04-1.90988E-05-5.73816E-05-4.07601E-06 3.77448E-18-4.51627E-19
 -1       447 1.54393E-04-1.13698E-05-6.12897E-05-8.55297E-07 4.23061E-18-5.84479E-19
 -1       448 1.59780E-04-1.96597E-05-5.98068E-05 1.00975E-07 4.35100E-18-3.13085E-19
 -1       449 1.54021E-04-3.41544E-05-5.13389E-05-4.31444E-06 3.29692E-18 4.28175E-19
 -1       450 1.36749E-04-5.27500E-05-3.60833E-05-2.23082E-05 7.62224E-19 9.40207E-20
 -1       451 1.11533E-04-5.72871E-05-2.31414E-05-3.77197E-05-1.19019E-18-1.37849E-18
 -1       452 6.26104E-05-4.22380E-05-8.70439E-06-4.43844E-05-1.28802E-18-3.23736E-18
 -1       453 3.15793E-05-2.83137E-05-1.22156E-06-3.26058E-05-1.30824E-18-5.73791E-18
 -1       454 1.17050E-05-2.28577E-05 4.50007E-06-1.36871E-06-6.90032E-19-6.86340E-18
 -1       455 2.50290E-05-2.53839E-05 2.83218E-07 2.57150E-05-5.03243E-19-5.00321E-18
 -1       456 6.13505E-05-4.31214E-05-7.93281E-06 4.28659E-05-2.51781E-18-3.16139E-18
 -1       457 1.01667E-04-5.38901E-05-2.05819E-05 4.02900E-05-3.12957E-18-3.92960E-18
 -1       458 1.37559E-04-5.53957E-05-3.52341E-05 2.31172E-05-3.19109E-18-3.13805E-18
 -1       459 1.53892E-04-4.21695E-05-4.80286E-05 2.95996E-06-4.15623E-18-2.20652E-18
 -1       460 1.56285E-04-2.02103E-05-5.84031E-05-4.08427E-06-4.76731E-18-3.39073E-18
 -1       461 1.50764E-04-1.06265E-05-6.03245E-05 1.13210E-07-4.92666E-18-4.20849E-18
 -1       462 1.53229E-04-1.65876E-05-5.87068E-05 6.08089E-06-4.36762E-18-4.56577E-18
 -1       463 1.56159E-04-3.66521E-05-5.13145E-05-3.87617E-07-2.52162E-18-3.54187E-18
 -1       464 1.45024E-04-5.15421E-05-4.00867E-05-1.57833E-05-1.15922E-18-3.49211E-18
 -1       465 1.18756E-04-5.43558E-05-2.76883E-05-3.37798E-05 6.86626E-19-3.87941E-19
 -1       466 8.55301E-05-5.04458E-05-1.51699E-05-4.23462E-05 6.59309E-19 2.09666E-18
 -1       467 4.83852E-05-3.85017E-05-4.47086E-06-3.90774E-05 9.60429E-19 3.96830E-18
 -1       468 2.13915E-05-2.76022E-05 2.38847E-06-2.29311E-05 1.12984E-18 1.89058E-18
 -1       469 1.50856E-04-4.07435E-05-4.73334E-05 4.63324E-06 2.79002E-18-1.00903E-18
 -1       470 1.44767E-04-4.86652E-05-4.14149E-05-1.81593E-06 6.29425E-19 1.53916E-18
 -1       471 9.78000E-05-2.54509E-05-3.09919E-05 3.39780E-06 2.20755E-18 6.29006E-19
 -1       472 8.69984E-05-1.09047E-05-3.26274E-05-2.35660E-06-1.01022E-19-3.47510E-18
 -1       473 8.85714E-05-1.24161E-05-3.26558E-05-3.64158E-06-6.44531E-19-3.49288E-18
 -1       474 8.58268E-05-9.83049E-06-3.25839E-05-8.27964E-08 8.35059E-19-3.19073E-18
 -1       475 8.62262E-05-1.02059E-05-3.25947E-05 1.05516E-06 1.32497E-18-3.16870E-18
 -1       476 8.72307E-05-1.11539E-05-3.26206E-05 2.27907E-06 1.76124E-18-2.88178E-18
 -1       477 8.88453E-05-1.27279E-05-3.26408E-05 3.66964E-06 2.25564E-18-2.40389E-18
 -1       478 9.10348E-05-1.49877E-05-3.26136E-05 5.16525E-06 2.55699E-18-1.71945E-18
 -1       479 9.38618E-05-1.81372E-05-3.24732E-05 6.59780E-06 2.79293E-18-9.22962E-19
 -1       480 5.16021E-05-2.66783E-05-1.00727E-05 3.53289E-05-2.05718E-18 6.88161E-19
 -1       481 9.76270E-05-2.69039E-05-3.02907E-05-2.09677E-07 1.80319E-18 3.75968E-19
 -1       482 9.71042E-05-2.43200E-05-3.11825E-05-2.62292E-06-1.90290E-18-1.59634E-18
 -1       483 1.36135E-04-3.00560E-05-4.59876E-05-1.30844E-05 2.33236E-18-6.82920E-19
 -1       484 9.72765E-05-2.59809E-05-3.05454E-05 1.02380E-06-1.39540E-18-1.44430E-18
 -1       485 9.74408E-05-2.68779E-05-3.02354E-05 3.78348E-06-1.13183E-18-1.24254E-18
 -1       486 9.78465E-05-2.74946E-05-3.01471E-05 5.94142E-06-7.10964E-19-1.29767E-18
 -1       487 9.85830E-05-2.81110E-05-3.02000E-05 7.67793E-06-4.43723E-19-1.48787E-18
 -1       488 9.97254E-05-2.89499E-05-3.03315E-05 9.03372E-06-1.16316E-19-1.39572E-18
 -1       489 1.01400E-04-3.02550E-05-3.04923E-05 9.90624E-06-5.64095E-20-1.45413E-18
 -1       490 1.03811E-04-3.22999E-05-3.06523E-05 1.00303E-05-2.35035E-19-1.44426E-18
 -1       491 1.07203E-04-3.53036E-05-3.08220E-05 8.95802E-06-1.91041E-19-6.75647E-19
 -1       492 1.11736E-04-3.91951E-05-3.10979E-05 6.04855E-06 3.74878E-21 1.72534E-19
 -1       493 1.16877E-04-4.29290E-05-3.17033E-05 8.07605E-07 1.73166E-19 4.70906E-19
 -1       494 1.21312E-04-4.44644E-05-3.29776E-05-6.64147E-06 3.72349E-19 3.47103E-19
 -1       495 1.22332E-04-4.04230E-05-3.51780E-05-1.38422E-05-1.88905E-19 4.55770E-19
 -1       496 1.18680E-04-3.02441E-05-3.80531E-05-1.56779E-05-1.68950E-18 4.38181E-19
 -1       497 1.12202E-04-1.93864E-05-4.02112E-05-7.39463E-06-2.20078E-18-7.43323E-19
 -1       498 1.14062E-04-2.06986E-05-4.01708E-05 6.79524E-06-1.28447E-18-2.26644E-18
 -1       499 1.17548E-04-2.92233E-05-3.80818E-05 1.61543E-05-1.32089E-18-2.36788E-18
 -1       500 1.22353E-04-3.98230E-05-3.54516E-05 1.49694E-05-1.02725E-18-2.49828E-18
 -1       501 1.21824E-04-4.43398E-05-3.32314E-05 8.06393E-06 8.03606E-20-3.40662E-18
 -1       502 1.17728E-04-4.32209E-05-3.19521E-05 6.13329E-07 1.78903E-18-2.87102E-18
 -1       503 1.12606E-04-3.95083E-05-3.13464E-05-4.77176E-06 1.11446E-18-2.81128E-18
 -1       504 1.08109E-04-3.56338E-05-3.10737E-05-7.75358E-06 1.01123E-22-2.13547E-18
 -1       505 1.04699E-04-3.26018E-05-3.09053E-05-8.89560E-06-3.86746E-19-1.37336E-18
 -1       506 1.02272E-04-3.05692E-05-3.07318E-05-8.85218E-06-2.48825E-19-1.93747E-18
 -1       507 1.00560E-04-2.93416E-05-3.05218E-05-8.14143E-06 1.01215E-19-3.37238E-18
 -1       508 9.93252E-05-2.86641E-05-3.02815E-05-7.11586E-06-9.35732E-20-4.37050E-18
 -1       509 9.84016E-05-2.83274E-05-3.00295E-05-5.99712E-06-8.03598E-19-6.38403E-18
 -1       510 9.76879E-05-2.81875E-05-2.97835E-05-4.91424E-06-8.79940E-19-6.33554E-18
 -1       511 9.71242E-05-2.81541E-05-2.95565E-05-3.93470E-06-6.07943E-19-4.87806E-18
 -1       512 9.66750E-05-2.81741E-05-2.93557E-05-3.08706E-06-3.74325E-19-2.28398E-18
 -1       513 9.63172E-05-2.82179E-05-2.91840E-05-2.37670E-06-1.95651E-19-1.23490E-18
 -1       514 9.60346E-05-2.82695E-05-2.90410E-05-1.79607E-06 1.91574E-19-8.95647E-19
 -1       515 9.58141E-05-2.83206E-05-2.89248E-05-1.33127E-06 6.36802E-19-1.61258E-18
 -1       516 9.56446E-05-2.83675E-05-2.88323E-05-9.65987E-07 8.53732E-20-3.14333E-19
 -1       517 9.55167E-05-2.84086E-05-2.87601E-05-6.83792E-07-3.43338E-20 2.61963E-19
 -1       518 9.54221E-05-2.84434E-05-2.87048E-05-4.69414E-07 1.20029E-18-1.37609E-18
 -1       519 9.53538E-05-2.84724E-05-2.86632E-05-3.09317E-07 1.59095E-18-3.02414E-20
 -1       520 9.53059E-05-2.84961E-05-2.86326E-05-1.91920E-07-1.43525E-19 2.30033E-18
 -1       521 9.52735E-05-2.85153E-05-2.86105E-05-1.07592E-07-2.78787E-18 2.11815E-18
 -1       522 9.52526E-05-2.85307E-05-2.85950E-05-4.85318E-08-7.95642E-19 1.75476E-18
 -1       523 9.52403E-05-2.85431E-05-2.85844E-05-8.59580E-09 4.12929E-19 4.20598E-19
 -1       524 9.52340E-05-2.85534E-05-2.85774E-05 1.68962E-08 4.08303E-19-1.70624E-18
 -1       525 9.52320E-05-2.85623E-05-2.85727E-05 3.13347E-08 1.08703E-18-1.28754E-18
 -1       526 9.52330E-05-2.85708E-05-2.85695E-05 3.70040E-08-1.00094E-18-1.40237E-18
 -1       527 9.82318E-05-2.84119E-05-2.99180E-05-4.37727E-06 9.32835E-19 1.42333E-19
 -1       528 9.91349E-05-2.91096E-05-3.00091E-05-5.52974E-06 6.16847E-19-9.40612E-20
 -1       529 1.00418E-04-2.99761E-05-3.01901E-05-6.16006E-06 7.76934E-19-1.33853E-19
 -1       530 1.02058E-04-3.11077E-05-3.04107E-05-6.17880E-06 5.34273E-19-2.24969E-20
 -1       531 1.04018E-04-3.25532E-05-3.06347E-05-5.39983E-06 4.00374E-19 1.32056E-19
 -1       532 1.06201E-04-3.42484E-05-3.08470E-05-3.59445E-06 4.96875E-19-3.21192E-19
 -1       533 1.08361E-04-3.59080E-05-3.10629E-05-6.10546E-07 5.65136E-19 1.00049E-19
 -1       534 1.10004E-04-3.69113E-05-3.13355E-05 3.40473E-06 1.77444E-19 3.53821E-19
 -1       535 1.10409E-04-3.63593E-05-3.17433E-05 7.67215E-06 1.89278E-19 8.14507E-19
 -1       536 1.08984E-04-3.35674E-05-3.23279E-05 1.05688E-05 3.80560E-19 1.30199E-18
 -1       537 1.06025E-04-2.90348E-05-3.30057E-05 1.00588E-05 1.08639E-18 1.34406E-18
 -1       538 1.03169E-04-2.49261E-05-3.35379E-05 5.25762E-06 1.51540E-18 1.17190E-18
 -1       539 1.02498E-04-2.39249E-05-3.36753E-05-2.26046E-06 9.20493E-19 1.11092E-18
 -1       540 1.04603E-04-2.67829E-05-3.33504E-05-8.75451E-06 6.34802E-19 3.42341E-19
 -1       541 1.07918E-04-3.15052E-05-3.27535E-05-1.14471E-05-6.28096E-19 2.97297E-19
 -1       542 1.10320E-04-3.53028E-05-3.21526E-05-1.00647E-05-1.06012E-19-5.30517E-19
 -1       543 1.10915E-04-3.69591E-05-3.17042E-05-6.31179E-06 4.61308E-19-1.89228E-18
 -1       544 1.09912E-04-3.66226E-05-3.14225E-05-2.12512E-06 2.49106E-19-7.95989E-19
 -1       545 1.08074E-04-3.52267E-05-3.12319E-05 1.30385E-06-1.31102E-19 4.59704E-19
 -1       546 1.06005E-04-3.35546E-05-3.10591E-05 3.59367E-06-3.99156E-20-9.78080E-19
 -1       547 1.04046E-04-3.20470E-05-3.08621E-05 4.81038E-06 2.73834E-19-1.36606E-18
 -1       548 1.02331E-04-3.08656E-05-3.06305E-05 5.20478E-06 2.28271E-19-9.52294E-19
 -1       549 1.00885E-04-3.00137E-05-3.03733E-05 5.05161E-06 1.24359E-19-5.83669E-19
 -1       550 9.96851E-05-2.94322E-05-3.01071E-05 4.58073E-06-9.58568E-19-2.29031E-19
 -1       551 9.87006E-05-2.90507E-05-2.98480E-05 3.96012E-06-1.10674E-18 6.09752E-19
 -1       552 9.78996E-05-2.88087E-05-2.96082E-05 3.30122E-06-2.12874E-19 2.01044E-18
 -1       553 9.72541E-05-2.86604E-05-2.93953E-05 2.67140E-06-2.95483E-19 1.73457E-18
 -1       554 9.67400E-05-2.85734E-05-2.92124E-05 2.10663E-06-5.13133E-19 1.85953E-18
 -1       555 9.63358E-05-2.85258E-05-2.90598E-05 1.62216E-06 3.21738E-19 1.68724E-18
 -1       556 9.60228E-05-2.85030E-05-2.89358E-05 1.22027E-06 7.92125E-19 2.16606E-18
 -1       557 9.57844E-05-2.84954E-05-2.88371E-05 8.95876E-07 9.81254E-19 2.67943E-18
 -1       558 9.56062E-05-2.84967E-05-2.87604E-05 6.40150E-07 1.06356E-18 3.52229E-18
 -1       559 9.54757E-05-2.85029E-05-2.87020E-05 4.42858E-07 1.10701E-18 1.84914E-18
 -1       560 9.53825E-05-2.85114E-05-2.86586E-05 2.93770E-07 9.48229E-19 1.07161E-18
 -1       561 9.53180E-05-2.85207E-05-2.86271E-05 1.83448E-07-1.26153E-18-2.40212E-19
 -1       562 9.52752E-05-2.85300E-05-2.86049E-05 1.03631E-07-3.83404E-19 3.23391E-19
 -1       563 9.52483E-05-2.85386E-05-2.85897E-05 4.73885E-08 3.98092E-19-8.66305E-19
 -1       564 9.52331E-05-2.85466E-05-2.85798E-05 9.11446E-09-2.78555E-19 2.23575E-19
 -1       565 9.52260E-05-2.85539E-05-2.85737E-05-1.55365E-08-1.97115E-19 2.68816E-19
 -1       566 9.52244E-05-2.85608E-05-2.85701E-05-2.97550E-08-7.00262E-19 4.66400E-19
 -1       567 9.52265E-05-2.85677E-05-2.85681E-05-3.58108E-08-6.31699E-19 2.61083E-18
 -1       568 9.52310E-05-2.85749E-05-2.85669E-05-3.49718E-08-2.69582E-18 3.20452E-18
 -1       569 9.52501E-05-2.85847E-05-2.85708E-05-2.36566E-08 1.77438E-18-2.02549E-19
 -1       570 9.52509E-05-2.85846E-05-2.85713E-05-1.59187E-08 9.59067E-19 3.24752E-19
 -1       571 9.52425E-05-2.85816E-05-2.85689E-05-3.51165E-08-1.22065E-18-1.96519E-19
 -1       572 9.52476E-05-2.85840E-05-2.85701E-05-3.04552E-08-9.43933E-19-1.28150E-18
 -1       573 9.52509E-05-2.85841E-05-2.85715E-05-8.03594E-09 5.19534E-20-7.76631E-19
 -1       574 9.52509E-05-2.85840E-05-2.85715E-05-2.08753E-10-1.49777E-18 5.34558E-21
 -1       575 9.52511E-05-2.85843E-05-2.85715E-05 7.67989E-09-1.95149E-18 1.13697E-18
 -1       576 9.52512E-05-2.85849E-05-2.85712E-05 1.55905E-08 5.56648E-19 1.30857E-18
 -1       577 9.52504E-05-2.85852E-05-2.85708E-05 2.35654E-08 8.71716E-19-1.40705E-18
 -1       578 9.52479E-05-2.85843E-05-2.85701E-05 3.05031E-08-3.65524E-19-1.08972E-18
 -1       579 9.52424E-05-2.85816E-05-2.85689E-05 3.51945E-08-5.00918E-19-2.08396E-18
 -1       580 9.67269E-05-5.14572E-05-1.91747E-05 3.87741E-05-1.54811E-18-6.01565E-19
 -1       581 2.56966E-05-1.53743E-05-3.85232E-06-1.37286E-05 1.73316E-18 3.38877E-18
 -1       582 9.77327E-05-2.77509E-05-2.99821E-05-2.66832E-06 1.30827E-18 3.34061E-19
 -1       583 2.51859E-05-1.51649E-05-3.73244E-06 1.45382E-05 3.39898E-19 2.49314E-18
 -1       584 4.52067E-05-2.74382E-05-7.12260E-06-3.42543E-05 6.73815E-19 2.94423E-18
 -1       585 9.58564E-05-2.07185E-05-3.22234E-05-6.76753E-06-2.20654E-18-2.23317E-18
 -1       586 1.30215E-04-6.03321E-05-2.99412E-05 1.78311E-05-1.40913E-18-8.86261E-19
 -1       587 1.33039E-04-1.31885E-05-5.19681E-05-7.66831E-06-3.87946E-18-7.76597E-19
 -1       588 9.55664E-05-5.11944E-05-1.86592E-05-4.00068E-05-2.57742E-18-9.50146E-19
 -1       589 8.60818E-05-1.00567E-05-3.25966E-05-1.19109E-06 3.96016E-19-3.38501E-18
 -1       590 1.30492E-04-6.01602E-05-3.02353E-05-1.95445E-05-1.53390E-18 1.00281E-18
 -1       591 1.30843E-04-1.07341E-05-5.20956E-05-7.45702E-06 3.68184E-18 2.61310E-19
 -1       592 1.33415E-04-9.47583E-06-5.37129E-05 5.17285E-06 3.34747E-18 1.08783E-18
 -1       593 1.38486E-04-2.46533E-05-4.93780E-05 1.05909E-05 2.81326E-18 2.18069E-18
 -1       594 2.66111E-05-1.38195E-05-4.86274E-06 9.48046E-06 3.43657E-19-5.80662E-18
 -1       595 5.65719E-05-3.23151E-05-9.91211E-06-3.94617E-05-2.47598E-18-3.12269E-18
 -1       596 1.45176E-04-4.84396E-05-4.18169E-05 5.22873E-06-1.16527E-18-4.32389E-18
 -1       597 3.14428E-05-1.62068E-05-5.90157E-06-2.01160E-05-1.09945E-18-5.37855E-18
 -1       598 5.63485E-05-3.17681E-05-1.00163E-05 3.79703E-05 6.63227E-19-3.45828E-18
 -1       599 9.57818E-05-5.26897E-05-1.81753E-05 4.02134E-05-4.60045E-19-2.13995E-18
 -1       600 1.26697E-04-6.18845E-05-2.77727E-05 2.49101E-05-7.29825E-19-1.33876E-18
 -1       601 1.43713E-04-5.45547E-05-3.84802E-05 1.00745E-06-1.88817E-18-7.14578E-19
 -1       602 1.37096E-04-3.04090E-05-4.62427E-05-1.51670E-05-3.08548E-18 4.85456E-20
 -1       603 1.27157E-04-1.16664E-05-5.01948E-05 6.86377E-06-3.61408E-18-1.99877E-18
 -1       604 1.38056E-04-2.71055E-05-4.81081E-05 1.47219E-05-2.52003E-18-3.78184E-18
 -1       605 1.34901E-04-6.12045E-05-3.17221E-05-1.50244E-05 1.81710E-18-2.71000E-18
 -1       606 1.15052E-04-5.91382E-05-2.37645E-05-3.15370E-05 2.42707E-18-2.97284E-18
 -1       607 7.84079E-05-4.47036E-05-1.40966E-05-4.16524E-05 2.38143E-18 9.53839E-19
 -1       608 1.40606E-04-5.03160E-05-3.90342E-05-1.45786E-06 1.41285E-18-9.08231E-19
 -1       609 9.79123E-05-2.35922E-05-3.18544E-05 7.32759E-06 2.66228E-18 1.27080E-18
 -1       610 9.07425E-05-1.46514E-05-3.26413E-05-5.00177E-06-1.23492E-18-3.17440E-18
 -1       611 7.82216E-05-3.76018E-05-1.70477E-05 3.63516E-05-1.89680E-18 4.91544E-20
 -1       612 9.52347E-05-2.85765E-05-2.85678E-05 3.66475E-08-1.46084E-18-2.51576E-18
 -1       613 4.69822E-05-1.93681E-05-1.13262E-05 2.49724E-05 1.06868E-18-3.83780E-18
 -1       614 1.36718E-04-3.81171E-05-4.26135E-05 1.08600E-05 1.51537E-18 1.82348E-18
 -1       615 1.15905E-04-5.73412E-05-2.49885E-05-2.74163E-05-2.39419E-18 3.38233E-19
 -1       616 8.81415E-05-1.35872E-05-3.19565E-05 7.29555E-07 1.35026E-18-2.64774E-18
 -1       617 8.73254E-05-1.27851E-05-3.19501E-05 1.07226E-07 9.19274E-19-2.86506E-18
 -1       618 9.15981E-05-1.71714E-05-3.19024E-05 2.26193E-06 2.13024E-18-1.80551E-18
 -1       619 9.39834E-05-1.99471E-05-3.17370E-05 2.94957E-06 2.31287E-18-1.22465E-18
 -1       620 1.13931E-04-5.45318E-05-2.54099E-05 2.39321E-05-2.00873E-18-9.08727E-19
 -1       621 9.64030E-05-2.37314E-05-3.11351E-05 1.84236E-06 2.13130E-18-6.17309E-19
 -1       622 4.49046E-05-1.58448E-05-1.19309E-05 1.95456E-05-1.56220E-18-1.62736E-19
 -1       623 1.33110E-04-3.99757E-05-4.02191E-05 1.54583E-05-1.28617E-18-3.98634E-18
 -1       624 9.57968E-05-2.42906E-05-3.06426E-05 2.30078E-06-1.09766E-18-1.65268E-18
 -1       625 9.59109E-05-2.52940E-05-3.02629E-05 4.94729E-06-8.75359E-19-1.26359E-18
 -1       626 9.60176E-05-2.59864E-05-3.00123E-05 7.16880E-06-5.68913E-19-1.12877E-18
 -1       627 9.63021E-05-2.66988E-05-2.98293E-05 9.07081E-06-2.96685E-19-1.25742E-18
 -1       628 9.69803E-05-2.77654E-05-2.96633E-05 1.06910E-05-1.20762E-19-1.11484E-18
 -1       629 9.83760E-05-2.95843E-05-2.94829E-05 1.19673E-05 7.67747E-20-1.06131E-18
 -1       630 1.00980E-04-3.26210E-05-2.92974E-05 1.26804E-05 4.91248E-19-5.23996E-19
 -1       631 1.05374E-04-3.72278E-05-2.92034E-05 1.23183E-05 6.02570E-19-1.99356E-19
 -1       632 1.12320E-04-4.34043E-05-2.95661E-05 9.82850E-06 1.57776E-19 6.92160E-19
 -1       633 1.21130E-04-4.94820E-05-3.07438E-05 4.26662E-06 3.00377E-19 9.09449E-19
 -1       634 1.28654E-04-5.04601E-05-3.35741E-05-4.99096E-06 7.48668E-19 1.11371E-18
 -1       635 1.30865E-04-5.15179E-05-3.41273E-05 5.73823E-06-4.75450E-19-3.18795E-18
 -1       636 1.22329E-04-5.09877E-05-3.05802E-05-4.22325E-06 1.30023E-18-2.25540E-18
 -1       637 1.12547E-04-4.44582E-05-2.91730E-05-1.01214E-05 1.25208E-18-3.71770E-18
 -1       638 1.05096E-04-3.77512E-05-2.88613E-05-1.22213E-05 1.37419E-18-2.80794E-18
 -1       639 1.00276E-04-3.26679E-05-2.89751E-05-1.22938E-05 7.54135E-19-2.91060E-18
 -1       640 9.75243E-05-2.94254E-05-2.91854E-05-1.14027E-05-7.48977E-19-2.04979E-18
 -1       641 9.60973E-05-2.76068E-05-2.93530E-05-1.01270E-05-9.31216E-19-1.29696E-18
 -1       642 9.54365E-05-2.67432E-05-2.94397E-05-8.73599E-06-1.22437E-18-2.15909E-18
 -1       643 9.51803E-05-2.64610E-05-2.94508E-05-7.36579E-06-1.97594E-18-3.05204E-18
 -1       644 9.51169E-05-2.65020E-05-2.94061E-05-6.08842E-06-2.42070E-19-1.75710E-18
 -1       645 9.51325E-05-2.67027E-05-2.93267E-05-4.94167E-06-4.70771E-20-8.68730E-19
 -1       646 9.51712E-05-2.69664E-05-2.92303E-05-3.94209E-06 7.48348E-19-1.03641E-18
 -1       647 9.52088E-05-2.72391E-05-2.91296E-05-3.09202E-06 6.65409E-20-2.08440E-18
 -1       648 9.52370E-05-2.74933E-05-2.90328E-05-2.38452E-06 4.20404E-19-1.57539E-18
 -1       649 9.52550E-05-2.77168E-05-2.89448E-05-1.80697E-06-9.80934E-20-2.01862E-18
 -1       650 9.52645E-05-2.79060E-05-2.88678E-05-1.34385E-06 5.00477E-19-2.08501E-18
 -1       651 9.52679E-05-2.80620E-05-2.88025E-05-9.78731E-07 3.46835E-19-1.20730E-18
 -1       652 9.52675E-05-2.81878E-05-2.87484E-05-6.95573E-07 7.05175E-19 1.90972E-19
 -1       653 9.52649E-05-2.82874E-05-2.87046E-05-4.79573E-07 1.16881E-18-1.46499E-18
 -1       654 9.52612E-05-2.83649E-05-2.86698E-05-3.17592E-07 1.21001E-18-2.46794E-18
 -1       655 9.52572E-05-2.84244E-05-2.86426E-05-1.98338E-07-1.06895E-18-1.12516E-18
 -1       656 9.52534E-05-2.84695E-05-2.86217E-05-1.12371E-07-2.81419E-18 7.21037E-19
 -1       657 9.52499E-05-2.85032E-05-2.86057E-05-5.19969E-08-1.91224E-18 1.09569E-18
 -1       658 9.52471E-05-2.85285E-05-2.85937E-05-1.11629E-08-4.15192E-19 4.03744E-19
 -1       659 9.52450E-05-2.85478E-05-2.85845E-05 1.47875E-08-8.97296E-20-1.09050E-18
 -1       660 9.52438E-05-2.85633E-05-2.85774E-05 2.92140E-08-2.20918E-18-3.83070E-18
 -1       661 9.83169E-05-2.85852E-05-2.98848E-05-6.93552E-06 7.01109E-19-2.28660E-19
 -1       662 1.14531E-04-5.66411E-05-2.46999E-05 2.73141E-05-4.88632E-20-1.13369E-18
 -1       663 9.75395E-05-2.75926E-05-2.99764E-05-5.63436E-06 8.50801E-19-3.86407E-19
 -1       664 1.01322E-04-3.16351E-05-2.98676E-05-7.78695E-06 2.79756E-19-3.48245E-19
 -1       665 1.03819E-04-3.39915E-05-2.99295E-05-6.97017E-06 4.63122E-19-3.59482E-19
 -1       666 1.07033E-04-3.68148E-05-3.00978E-05-4.91843E-06 1.69754E-19 1.57844E-20
 -1       667 1.10676E-04-3.95519E-05-3.04867E-05-1.33067E-06 8.59448E-20 4.57366E-19
 -1       668 1.13881E-04-4.09392E-05-3.12632E-05 3.73267E-06-5.11330E-20 9.92745E-19
 -1       669 1.15219E-04-3.92139E-05-3.25881E-05 9.23595E-06-2.57407E-19 1.60807E-18
 -1       670 1.13442E-04-3.34389E-05-3.42941E-05 1.25140E-05 1.52906E-19 2.12019E-18
 -1       671 1.09107E-04-2.49304E-05-3.61576E-05 1.04974E-05 1.59855E-18 2.50445E-18
 -1       672 1.06482E-04-1.97752E-05-3.72486E-05 2.23205E-06 1.88451E-18 1.20484E-18
 -1       673 1.07473E-04-2.15127E-05-3.69659E-05-7.64767E-06 1.46658E-18 6.69520E-19
 -1       674 1.11739E-04-2.92923E-05-3.53661E-05-1.31267E-05 4.89777E-19-2.16596E-19
 -1       675 1.14797E-04-3.68105E-05-3.34276E-05-1.18926E-05 1.91060E-19-1.55837E-18
 -1       676 1.15067E-04-4.05424E-05-3.19458E-05-7.35153E-06 2.77591E-19-1.11735E-18
 -1       677 1.12553E-04-4.03866E-05-3.09365E-05-1.90411E-06 4.31568E-20-6.37062E-19
 -1       678 1.09020E-04-3.81134E-05-3.03936E-05 2.32684E-06-1.12058E-19-2.79372E-19
 -1       679 1.05578E-04-3.52693E-05-3.01360E-05 5.02541E-06 1.14760E-18 2.06594E-19
 -1       680 1.02741E-04-3.27182E-05-3.00123E-05 6.37608E-06 3.91729E-19-8.97073E-20
 -1       681 1.00613E-04-3.07866E-05-2.99269E-05 6.75594E-06-3.53527E-19 4.64493E-20
 -1       682 9.90902E-05-2.94766E-05-2.98347E-05 6.51435E-06 3.47083E-19 6.23145E-19
 -1       683 9.80204E-05-2.86676E-05-2.97224E-05 5.91703E-06-2.14877E-19 3.29394E-19
 -1       684 9.72683E-05-2.82177E-05-2.95925E-05 5.15036E-06-1.28502E-18 5.75112E-19
 -1       685 9.67325E-05-2.80053E-05-2.94538E-05 4.33735E-06-1.07413E-18 9.48274E-19
 -1       686 9.63438E-05-2.79396E-05-2.93154E-05 3.55403E-06-4.19877E-19 1.06462E-18
 -1       687 9.60567E-05-2.79578E-05-2.91846E-05 2.84313E-06-6.88196E-21 4.47490E-19
 -1       688 9.58417E-05-2.80191E-05-2.90663E-05 2.22465E-06-5.61033E-20-1.15077E-18
 -1       689 9.56794E-05-2.80983E-05-2.89629E-05 1.70378E-06 1.10345E-18-4.06964E-19
 -1       690 9.55566E-05-2.81804E-05-2.88752E-05 1.27669E-06 1.20337E-18-5.10020E-19
 -1       691 9.54641E-05-2.82573E-05-2.88026E-05 9.34501E-07 5.66576E-19-1.28725E-18
 -1       692 9.53949E-05-2.83250E-05-2.87440E-05 6.66030E-07 8.26317E-19-7.95035E-20
 -1       693 9.53439E-05-2.83824E-05-2.86976E-05 4.59543E-07 1.31567E-18 1.17713E-18
 -1       694 9.53069E-05-2.84294E-05-2.86616E-05 3.03821E-07 4.77637E-19 3.28389E-18
 -1       695 9.52806E-05-2.84671E-05-2.86343E-05 1.88759E-07 3.16739E-19 2.53717E-18
 -1       696 9.52625E-05-2.84967E-05-2.86139E-05 1.05647E-07 4.93020E-19 1.03619E-18
 -1       697 9.52506E-05-2.85197E-05-2.85989E-05 4.72456E-08 5.94481E-21 1.02137E-18
 -1       698 9.52433E-05-2.85376E-05-2.85881E-05 7.74702E-09-2.24146E-20-2.34662E-19
 -1       699 9.52393E-05-2.85517E-05-2.85804E-05-1.72977E-08 3.07153E-19-7.66964E-20
 -1       700 9.52380E-05-2.85635E-05-2.85748E-05-3.11686E-08-2.20556E-18-8.68643E-20
 -1       701 9.52401E-05-2.85722E-05-2.85720E-05-3.52402E-08-2.29024E-18 1.01217E-18
 -1       702 9.52473E-05-2.85571E-05-2.85815E-05-3.44416E-09-2.60145E-19 2.31316E-19
 -1       703 9.52428E-05-2.85732E-05-2.85727E-05 3.44981E-08-1.81101E-18-2.43251E-18
 -1       704 9.52488E-05-2.85629E-05-2.85797E-05-1.70150E-08 4.50595E-19-8.39699E-19
 -1       705 9.52474E-05-2.85572E-05-2.85815E-05 2.83805E-09 4.79068E-20-1.85822E-18
 -1       706 9.52480E-05-2.85592E-05-2.85809E-05-9.93585E-09-9.74779E-19-1.16079E-18
 -1       707 9.70658E-05-2.66544E-05-3.01738E-05-3.80437E-06 1.11128E-18-6.85173E-19
 -1       708 9.52484E-05-2.85595E-05-2.85809E-05 9.37788E-09-5.11511E-19 2.80669E-18
 -1       709 9.52493E-05-2.85634E-05-2.85797E-05 1.67460E-08-1.01863E-18 4.55604E-19
 -1       710 9.52491E-05-2.85677E-05-2.85777E-05 2.46645E-08-1.02303E-18-1.09733E-18
 -1       711 4.01145E-05-1.14793E-05-1.17185E-05-4.00022E-06-5.14596E-19-4.72221E-18
 -1       712 9.45037E-05-2.01242E-05-3.18765E-05-3.81190E-06-1.53572E-18-2.41881E-18
 -1       713 4.51982E-05-1.85078E-05-1.09203E-05-2.35194E-05 8.82264E-19 2.45227E-18
 -1       714 1.35105E-04-4.51458E-05-3.87639E-05-1.22475E-05-1.20093E-18 1.04174E-18
 -1       715 9.95312E-05-2.98689E-05-2.98559E-05-7.69472E-06 7.14294E-19-1.92867E-19
 -1       716 9.54054E-05-2.26999E-05-3.11597E-05-5.40192E-07-1.24170E-18-1.98838E-18
 -1       717 6.90264E-05-3.32561E-05-1.49263E-05-3.53027E-05 2.16631E-18 1.10858E-18
 -1       718 1.21322E-04-1.89241E-05-4.43197E-05-1.28120E-05 2.47479E-18 2.41788E-19
 -1       719 8.95972E-05-1.50537E-05-3.19524E-05 1.45765E-06 1.81038E-18-2.28764E-18
 -1       720 1.17314E-04-1.02310E-05-4.63995E-05-4.04987E-08 3.02407E-18 1.03394E-18
 -1       721 8.45751E-05-4.14230E-05-1.81993E-05 3.59081E-05 9.91029E-19-2.60195E-18
 -1       722 8.92095E-05-1.46327E-05-3.19663E-05-1.56078E-06-3.44514E-19-2.96291E-18
 -1       723 1.23572E-04-1.67422E-05-4.62840E-05 1.12557E-05 2.78891E-18 1.08039E-18
 -1       724 8.09987E-05-3.89709E-05-1.76512E-05-3.62573E-05-2.76337E-18-9.36077E-19
 -1       725 3.69800E-05-1.10719E-05-1.05498E-05-6.59599E-07-3.05199E-19 2.18947E-18
 -1       726 1.33809E-04-5.91628E-05-3.20590E-05 7.26990E-06 8.84752E-21-1.59573E-19
 -1       727 5.56007E-05-2.32452E-05-1.33985E-05-2.96539E-05-2.12718E-18-3.22325E-18
 -1       728 9.67501E-05-2.54927E-05-3.05341E-05-1.36865E-06 1.63980E-18-6.95464E-19
 -1       729 1.36173E-04-5.46735E-05-3.51431E-05-2.27263E-06-5.87690E-19 9.27342E-19
 -1       730 1.00228E-04-4.96602E-05-2.14541E-05-3.20871E-05 1.52302E-18-1.75549E-18
 -1       731 1.25954E-04-5.96083E-05-2.83920E-05-1.71456E-05 1.92869E-18-2.04272E-18
 -1       732 1.37522E-04-5.52464E-05-3.53756E-05 1.97727E-06 2.21732E-19-4.04352E-18
 -1       733 9.12074E-05-1.66946E-05-3.19379E-05-2.25189E-06-7.80106E-19-2.86993E-18
 -1       734 8.72246E-05-1.26814E-05-3.19514E-05-4.36095E-07 5.18561E-19-2.94371E-18
 -1       735 9.87418E-05-4.51111E-05-2.28148E-05 2.83682E-05-1.41576E-18-1.98868E-18
 -1       736 1.26953E-04-5.51233E-05-3.08568E-05 7.00386E-06-1.63040E-18-1.22589E-18
 -1       737 9.52483E-05-2.85671E-05-2.85776E-05-2.44098E-08 4.99620E-19 1.35734E-18
 -1       738 9.52456E-05-2.85706E-05-2.85750E-05-3.05477E-08-1.06969E-18-4.31967E-20
 -1       739 6.36561E-05-2.45088E-05-1.64652E-05 2.77252E-05-2.02975E-18 7.50948E-19
 -1       740 1.30476E-04-4.09337E-05-3.86391E-05-1.13966E-05 6.62512E-19-1.09331E-18
 -1       741 7.04284E-05-2.90803E-05-1.74302E-05 3.01659E-05 1.38297E-18-3.06986E-18
 -1       742 1.00096E-04-4.74829E-05-2.23946E-05-3.04384E-05-2.54393E-18-3.95035E-19
 -1       743 8.78614E-05-1.32947E-05-3.19618E-05-9.70882E-07 1.13615E-19-3.07880E-18
 -1       744 1.21002E-04-3.06091E-05-3.88975E-05-1.53652E-05 1.10754E-18-1.60804E-21
 -1       745 1.27079E-04-5.76854E-05-2.97710E-05-1.27000E-05-1.63148E-18-3.80106E-20
 -1       746 1.24909E-04-2.78997E-05-4.18901E-05 1.43606E-05 2.00456E-18 1.12712E-18
 -1       747 1.32014E-04-5.11951E-05-3.47415E-05-3.39296E-06-3.29545E-19-1.22047E-18
 -1       748 9.37704E-05-2.09862E-05-3.11924E-05 1.40619E-07 1.81065E-18-1.29963E-18
 -1       749 1.23054E-04-5.52550E-05-2.88856E-05 1.27905E-05 6.34113E-19 8.49892E-19
 -1       750 1.17024E-04-5.18293E-05-2.79146E-05 1.38719E-05-1.68180E-18-1.13200E-18
 -1       751 1.10677E-04-1.69435E-05-4.04421E-05-6.72819E-06 1.94434E-18 4.85639E-19
 -1       752 9.36819E-05-2.36106E-05-3.00304E-05 5.71677E-06-4.82468E-19-1.90849E-18
 -1       753 9.33449E-05-2.42738E-05-2.96016E-05 7.85956E-06-4.03270E-19-1.67089E-18
 -1       754 9.30620E-05-2.50061E-05-2.91665E-05 9.87501E-06-1.64059E-19-1.67486E-18
 -1       755 9.31339E-05-2.62158E-05-2.86792E-05 1.18716E-05 2.33230E-19-1.26518E-18
 -1       756 9.40272E-05-2.84229E-05-2.81168E-05 1.39270E-05 6.73325E-19-1.02117E-18
 -1       757 9.64880E-05-3.23096E-05-2.75069E-05 1.60368E-05 7.16116E-19-7.72400E-19
 -1       758 1.02051E-04-3.87413E-05-2.70715E-05 1.76481E-05 9.07927E-19-5.99918E-19
 -1       759 1.10168E-04-4.80947E-05-2.64976E-05-1.89416E-05 6.41713E-19-1.83483E-18
 -1       760 1.00306E-04-3.86601E-05-2.64209E-05-1.82008E-05 1.45487E-18-1.96941E-18
 -1       761 9.47192E-05-3.18737E-05-2.69268E-05-1.59655E-05 5.60396E-19-2.69154E-18
 -1       762 9.22528E-05-2.78902E-05-2.75802E-05-1.34718E-05 8.93931E-19-2.04461E-18
 -1       763 9.14157E-05-2.57625E-05-2.81354E-05-1.12793E-05-5.12433E-19-1.54321E-18
 -1       764 9.14448E-05-2.48444E-05-2.85421E-05-9.41240E-06-1.36719E-18-1.79702E-18
 -1       765 9.18704E-05-2.46508E-05-2.88078E-05-7.81964E-06-1.64904E-18-6.15011E-19
 -1       766 9.24329E-05-2.48589E-05-2.89600E-05-6.44663E-06-9.48318E-19-1.38540E-19
 -1       767 9.29985E-05-2.52638E-05-2.90290E-05-5.25890E-06-3.39332E-19-1.68732E-18
 -1       768 9.35053E-05-2.57415E-05-2.90415E-05-4.23613E-06 3.93668E-20-1.72563E-18
 -1       769 9.39311E-05-2.62208E-05-2.90187E-05-3.36465E-06-5.82647E-19-1.61460E-18
 -1       770 9.42743E-05-2.66639E-05-2.89759E-05-2.63236E-06 6.24264E-19-9.00897E-19
 -1       771 9.45429E-05-2.70538E-05-2.89239E-05-2.02655E-06-1.74661E-19 1.65937E-19
 -1       772 9.47482E-05-2.73851E-05-2.88699E-05-1.53341E-06-3.54821E-19 6.44544E-19
 -1       773 9.49018E-05-2.76595E-05-2.88181E-05-1.13846E-06 1.03862E-18-3.68644E-19
 -1       774 9.50146E-05-2.78819E-05-2.87712E-05-8.27232E-07 8.00012E-19-5.07409E-19
 -1       775 9.50957E-05-2.80588E-05-2.87301E-05-5.85952E-07-1.37818E-18-1.15571E-18
 -1       776 9.51526E-05-2.81972E-05-2.86952E-05-4.01986E-07-2.75331E-19-1.83048E-18
 -1       777 9.51914E-05-2.83037E-05-2.86661E-05-2.64151E-07 7.56200E-19-3.85865E-18
 -1       778 9.52168E-05-2.83844E-05-2.86424E-05-1.62847E-07 4.18011E-19-2.20904E-18
 -1       779 9.52325E-05-2.84447E-05-2.86233E-05-9.00491E-08-7.10734E-19 8.06435E-19
 -1       780 9.52414E-05-2.84894E-05-2.86080E-05-3.91491E-08-1.77401E-18 2.74502E-18
 -1       781 9.52459E-05-2.85226E-05-2.85957E-05-5.28652E-09-2.95707E-18-3.16791E-19
 -1       782 9.52477E-05-2.85477E-05-2.85857E-05 1.59876E-08-2.02357E-18-1.78216E-18
 -1       783 9.52420E-05-2.85282E-05-2.85916E-05 2.27149E-09 5.67019E-19 5.45830E-19
 -1       784 1.03517E-04-3.57738E-05-2.90339E-05-9.37503E-06-2.70698E-19 3.45431E-19
 -1       785 1.00168E-04-3.22688E-05-2.91004E-05-9.75092E-06 1.64369E-19-2.06825E-19
 -1       786 1.14026E-04-4.41774E-05-2.99319E-05-3.68340E-06-6.52891E-19 1.18551E-18
 -1       787 1.19420E-04-4.59382E-05-3.14945E-05 2.66323E-06-9.61836E-19 1.62526E-18
 -1       788 1.21529E-04-4.18528E-05-3.42099E-05 1.01134E-05-3.53246E-19 2.26767E-18
 -1       789 1.21580E-04-4.50601E-05-3.28481E-05-7.75309E-06-7.14011E-19 8.86167E-20
 -1       790 1.16680E-04-4.50719E-05-3.07041E-05-2.08271E-07-3.32259E-19 1.56019E-18
 -1       791 1.10811E-04-4.18746E-05-2.95394E-05 4.95056E-06-4.87054E-19 1.33431E-18
 -1       792 1.05431E-04-3.75216E-05-2.91020E-05 7.66817E-06-2.00025E-19 1.65836E-18
 -1       793 1.01363E-04-3.36506E-05-2.90196E-05 8.62385E-06 8.32833E-19 1.49198E-18
 -1       794 9.86209E-05-3.07842E-05-2.90735E-05 8.55538E-06-2.23497E-19 1.70524E-18
 -1       795 9.69120E-05-2.88923E-05-2.91514E-05 7.94184E-06-1.11677E-19 1.86539E-18
 -1       796 9.59211E-05-2.77746E-05-2.92055E-05 7.06458E-06 4.09584E-20 1.68256E-18
 -1       797 9.53907E-05-2.72068E-05-2.92214E-05 6.09117E-06-1.13822E-18 1.72474E-18
 -1       798 9.51374E-05-2.69993E-05-2.92018E-05 5.12060E-06-6.48812E-19 1.26285E-18
 -1       799 9.50410E-05-2.70103E-05-2.91558E-05 4.21069E-06-8.84488E-19-8.93957E-19
 -1       800 9.50266E-05-2.71415E-05-2.90934E-05 3.39303E-06-5.74752E-19-4.06734E-19
 -1       801 9.50506E-05-2.73283E-05-2.90236E-05 2.68185E-06 8.06601E-19 4.02901E-19
 -1       802 9.50884E-05-2.75309E-05-2.89530E-05 2.07973E-06 4.66942E-19-1.26020E-18
 -1       803 9.51273E-05-2.77261E-05-2.88861E-05 1.58172E-06 1.51428E-18-1.04858E-18
 -1       804 9.51617E-05-2.79017E-05-2.88256E-05 1.17839E-06 1.09555E-19-9.28765E-19
 -1       805 9.51894E-05-2.80527E-05-2.87728E-05 8.58053E-07-3.17846E-19 6.48604E-19
 -1       806 9.52102E-05-2.81781E-05-2.87280E-05 6.08324E-07-3.04411E-19 1.43487E-18
 -1       807 9.52250E-05-2.82794E-05-2.86910E-05 4.17187E-07 2.16962E-20 1.00108E-18
 -1       808 9.52349E-05-2.83593E-05-2.86609E-05 2.73621E-07 7.27110E-19-1.31536E-18
 -1       809 9.52409E-05-2.84212E-05-2.86370E-05 1.67940E-07 3.51926E-19-1.04354E-18
 -1       810 9.52441E-05-2.84682E-05-2.86182E-05 9.19392E-08-2.96222E-19-6.25727E-20
 -1       811 9.52454E-05-2.85035E-05-2.86036E-05 3.88730E-08 9.08228E-19 7.47237E-19
 -1       812 9.52455E-05-2.85302E-05-2.85923E-05 3.37088E-09-3.29144E-19 3.42102E-19
 -1       813 9.52452E-05-2.85506E-05-2.85834E-05-1.84583E-08-1.64463E-18 1.64024E-18
 -1       814 9.52451E-05-2.85607E-05-2.85791E-05-2.62027E-08-2.30804E-18 1.27537E-18
 -1       815 8.85529E-05-1.54818E-05-3.13168E-05-3.43719E-07 1.02546E-18-2.46265E-18
 -1       816 9.52449E-05-2.85346E-05-2.85901E-05 6.30004E-09-2.22445E-18 1.02962E-18
 -1       817 9.52407E-05-2.85258E-05-2.85921E-05-4.56801E-10 1.50128E-19-8.18657E-19
 -1       818 5.20458E-05-1.29144E-05-1.65092E-05 7.13747E-06-1.37251E-18 5.31315E-19
 -1       819 5.37955E-05-1.48672E-05-1.63950E-05 1.26970E-05 6.09745E-19-3.29930E-18
 -1       820 1.08220E-04-4.00237E-05-2.92263E-05-7.61723E-06-4.23753E-19 9.17707E-19
 -1       821 9.54322E-05-2.33622E-05-3.08865E-05-5.55411E-07 1.80665E-18-9.53755E-19
 -1       822 9.60958E-05-2.66289E-05-2.97716E-05-6.73448E-06 6.51144E-19-8.93662E-19
 -1       823 9.38479E-05-2.26640E-05-3.05074E-05 3.33670E-06-7.41094E-19-2.10472E-18
 -1       824 8.63485E-05-3.68158E-05-2.10243E-05-2.87657E-05 1.06767E-18 1.27684E-19
 -1       825 9.57093E-05-2.54785E-05-3.00992E-05-4.87590E-06 8.70345E-19-8.08117E-19
 -1       826 1.29864E-04-4.47656E-05-3.67428E-05 9.44230E-06 4.77548E-20 1.58026E-18
 -1       827 1.02651E-04-4.67893E-05-2.39165E-05 2.66378E-05 8.60400E-19-1.08453E-18
 -1       828 7.33727E-05-2.95503E-05-1.85455E-05-2.92426E-05-2.06747E-18-1.01489E-18
 -1       829 6.69139E-05-2.47690E-05-1.77939E-05-2.56706E-05 3.80569E-19 6.77401E-19
 -1       830 5.24226E-05-1.44491E-05-1.59914E-05-1.27609E-05-6.85183E-19 2.19035E-18
 -1       831 5.61690E-05-1.64915E-05-1.67599E-05-1.60135E-05-1.36453E-18-3.08744E-18
 -1       832 8.80102E-05-1.49520E-05-3.13118E-05-2.81484E-07 7.36861E-19-2.61050E-18
 -1       833 9.67867E-05-2.79404E-05-2.95055E-05-8.20153E-06 6.12154E-19-6.16731E-19
 -1       834 9.52466E-05-2.85430E-05-2.85873E-05-1.24256E-08-2.01615E-18 4.94653E-19
 -1       835 1.12128E-04-1.62378E-05-4.14151E-05 6.40369E-06 2.84222E-18 1.45483E-18
 -1       836 5.80573E-05-1.38177E-05-1.88202E-05-8.35306E-07-1.46240E-19-3.00930E-18
 -1       837 9.10457E-05-1.79801E-05-3.13162E-05 3.30743E-08-5.69974E-19-2.70925E-18
 -1       838 9.35986E-05-2.12142E-05-3.10222E-05 9.23462E-07-9.07549E-19-2.20298E-18
 -1       839 9.52416E-05-2.85279E-05-2.85916E-05-3.09470E-09-4.37541E-19 6.31164E-19
 -1       840 9.80418E-05-2.97246E-05-2.92786E-05-9.25187E-06 3.77946E-19-4.27868E-19
 -1       841 9.52442E-05-2.85341E-05-2.85900E-05-6.83515E-09-1.02059E-18-1.57162E-18
 -1       842 8.97963E-05-1.67188E-05-3.13196E-05-2.72864E-07 1.30643E-18-2.15097E-18
 -1       843 6.21509E-05-1.78317E-05-1.88595E-05 1.61993E-05-6.12137E-19-2.96098E-19
 -1       844 9.52471E-05-2.85432E-05-2.85874E-05 1.21484E-08-2.89643E-18-5.61846E-19
 -1       845 8.34722E-05-3.38965E-05-2.11507E-05 2.75227E-05-1.60358E-18-3.54172E-19
 -1       846 1.27616E-04-5.12403E-05-3.27925E-05 1.03654E-06-1.06720E-18 1.20748E-18
 -1       847 8.94526E-05-3.70092E-05-2.23278E-05 2.69712E-05 1.59442E-18-2.66020E-18
 -1       848 8.93371E-05-3.80232E-05-2.18859E-05-2.82808E-05-1.79993E-18-1.05708E-18
 -1       849 9.16361E-05-1.86152E-05-3.12938E-05-7.55632E-08 1.59789E-18-1.83180E-18
 -1       850 1.14146E-04-5.27619E-05-2.62550E-05-2.07597E-05-1.92982E-18-1.73609E-20
 -1       851 9.56171E-05-2.45588E-05-3.04532E-05-2.90260E-06 1.20917E-18-9.77160E-19
 -1       852 8.93097E-05-1.62162E-05-3.13274E-05-1.98369E-08-1.20606E-19-2.70148E-18
 -1       853 9.00380E-05-2.24384E-05-2.89712E-05 7.80723E-06-1.05327E-19-1.59432E-18
 -1       854 8.89255E-05-2.29963E-05-2.82555E-05 9.88032E-06 7.75581E-20-1.50149E-18
 -1       855 8.79472E-05-2.40336E-05-2.73917E-05 1.23143E-05 3.15302E-19-1.87025E-18
 -1       856 8.75450E-05-2.60918E-05-2.63340E-05 1.54448E-05 7.15421E-19-2.13574E-18
 -1       857 8.82418E-05-2.97818E-05-2.49932E-05 1.95359E-05 9.46283E-19-2.08885E-18
 -1       858 8.56644E-05-2.89757E-05-2.42570E-05-1.97816E-05 1.24304E-18-2.58794E-18
 -1       859 8.47071E-05-2.50610E-05-2.55581E-05-1.50550E-05 1.26069E-18-2.10202E-18
 -1       860 8.54146E-05-2.32044E-05-2.66605E-05-1.16768E-05 7.21201E-19-2.69897E-18
 -1       861 8.66654E-05-2.25732E-05-2.74676E-05-9.27947E-06-1.09427E-18-1.90705E-18
 -1       862 8.80467E-05-2.26370E-05-2.80326E-05-7.50997E-06-1.38387E-18-1.81670E-18
 -1       863 8.93737E-05-2.30836E-05-2.84100E-05-6.12824E-06-1.59583E-18-2.19224E-18
 -1       864 9.05618E-05-2.37167E-05-2.86479E-05-5.00160E-06-1.26623E-18-2.19845E-18
 -1       865 9.15803E-05-2.44132E-05-2.87859E-05-4.05772E-06 1.09005E-19-1.79229E-18
 -1       866 9.24268E-05-2.50994E-05-2.88546E-05-3.25877E-06 1.27042E-19-7.02576E-19
 -1       867 9.31138E-05-2.57333E-05-2.88774E-05-2.58375E-06 5.23556E-19-1.27327E-18
 -1       868 9.36605E-05-2.62945E-05-2.88711E-05-2.01867E-06 1.38745E-18-1.19858E-18
 -1       869 9.40878E-05-2.67759E-05-2.88479E-05-1.55185E-06 8.21108E-19-9.21379E-19
 -1       870 9.44164E-05-2.71786E-05-2.88161E-05-1.17199E-06-1.95879E-19 2.73844E-19
 -1       871 9.46648E-05-2.75085E-05-2.87813E-05-8.67815E-07 5.49919E-19-1.49551E-19
 -1       872 9.48494E-05-2.77736E-05-2.87467E-05-6.28199E-07-4.26026E-19-6.83140E-19
 -1       873 9.49838E-05-2.79830E-05-2.87146E-05-4.42567E-07-1.44418E-18-1.21928E-18
 -1       874 9.50796E-05-2.81456E-05-2.86860E-05-3.01214E-07-1.38868E-18-2.93583E-18
 -1       875 9.51459E-05-2.82700E-05-2.86611E-05-1.95527E-07 1.65843E-18-5.04837E-18
 -1       876 9.51903E-05-2.83636E-05-2.86400E-05-1.18118E-07 1.85383E-18-4.83083E-18
 -1       877 9.52186E-05-2.84331E-05-2.86223E-05-6.29313E-08-2.25041E-20-2.09024E-18
 -1       878 9.52351E-05-2.84845E-05-2.86074E-05-2.42319E-08-3.23522E-18 1.44806E-19
 -1       879 9.52437E-05-2.85180E-05-2.85968E-05-2.85357E-09-4.15908E-18 4.86620E-20
 -1       880 9.52472E-05-2.85529E-05-2.85833E-05-1.92269E-08-1.55318E-18 2.70097E-18
 -1       881 1.17688E-04-4.96705E-05-2.91023E-05-8.89653E-06-1.40317E-18 2.46853E-19
 -1       882 1.12351E-04-4.61411E-05-2.83802E-05 1.05312E-05-5.80552E-19 7.24586E-19
 -1       883 9.91007E-05-3.42940E-05-2.77677E-05 1.19644E-05 4.18177E-19-2.28818E-19
 -1       884 9.58638E-05-3.04804E-05-2.80224E-05 1.08130E-05-3.72519E-20 8.98873E-19
 -1       885 9.41023E-05-2.80461E-05-2.83097E-05 9.43455E-06-8.92288E-19 9.78817E-19
 -1       886 9.32998E-05-2.66605E-05-2.85596E-05 8.05056E-06-6.45361E-19 2.62338E-18
 -1       887 9.30713E-05-2.60017E-05-2.87440E-05 6.76246E-06-1.44831E-19 3.14625E-18
 -1       888 9.31603E-05-2.58149E-05-2.88622E-05 5.60187E-06-6.27970E-19 1.65830E-18
 -1       889 9.34046E-05-2.59135E-05-2.89247E-05 4.57663E-06 4.51462E-19 1.99846E-18
 -1       890 9.37061E-05-2.61680E-05-2.89448E-05 3.68576E-06-7.11502E-19 1.00413E-18
 -1       891 9.40092E-05-2.64924E-05-2.89357E-05 2.92408E-06-2.61130E-19-4.23747E-20
 -1       892 9.42850E-05-2.68326E-05-2.89082E-05 2.28355E-06 1.13461E-18 1.53779E-18
 -1       893 9.45211E-05-2.71564E-05-2.88706E-05 1.75383E-06 9.34533E-19 1.32202E-18
 -1       894 9.47146E-05-2.74468E-05-2.88290E-05 1.32301E-06 4.80789E-19 1.46714E-18
 -1       895 9.48676E-05-2.76967E-05-2.87875E-05 9.78401E-07-1.38045E-18 2.64147E-18
 -1       896 9.49851E-05-2.79048E-05-2.87487E-05 7.07288E-07-5.38130E-19 2.67495E-18
 -1       897 9.50726E-05-2.80737E-05-2.87138E-05 4.97527E-07 6.64480E-19 1.73053E-18
 -1       898 9.51359E-05-2.82076E-05-2.86836E-05 3.37998E-07 8.82836E-19 1.35716E-18
 -1       899 9.51801E-05-2.83115E-05-2.86580E-05 2.18856E-07 7.44821E-19 2.22168E-18
 -1       900 9.52096E-05-2.83907E-05-2.86367E-05 1.31664E-07-1.80412E-19-5.43715E-20
 -1       901 9.52284E-05-2.84502E-05-2.86192E-05 6.93946E-08-1.84804E-18 5.10606E-19
 -1       902 9.52393E-05-2.84943E-05-2.86050E-05 2.64680E-08-8.88930E-19 3.42958E-18
 -1       903 9.52296E-05-2.84887E-05-2.86033E-05-2.40205E-09 1.28437E-19 3.96368E-20
 -1       904 1.04402E-04-3.96553E-05-2.77347E-05 1.22647E-05-8.95688E-20 6.58719E-19
 -1       905 5.92367E-05-1.38623E-05-1.93314E-05-4.08184E-06-4.52956E-19 1.64604E-18
 -1       906 7.22212E-05-2.30609E-05-2.09253E-05 2.05983E-05 1.06673E-18-2.68915E-18
 -1       907 9.52336E-05-2.84959E-05-2.86019E-05-4.85211E-09-1.11565E-18-3.11202E-18
 -1       908 9.38397E-05-2.42698E-05-2.98163E-05-5.72561E-06 7.85692E-19-1.34923E-18
 -1       909 9.79806E-05-3.25332E-05-2.80492E-05-1.23803E-05-4.02848E-19-6.60470E-19
 -1       910 9.10106E-05-2.19464E-05-2.95992E-05 5.84767E-06-2.23582E-19-1.72018E-18
 -1       911 6.71483E-05-1.96991E-05-2.02568E-05-1.69517E-05-2.74909E-19 1.93567E-19
 -1       912 8.82645E-05-1.51949E-05-3.13175E-05-1.48126E-07 3.25384E-19-2.66377E-18
 -1       913 7.13776E-05-2.31555E-05-2.05699E-05-2.05835E-05-1.56626E-18-1.48505E-18
 -1       914 1.24287E-04-4.36093E-05-3.48859E-05-9.41032E-06 3.35557E-19 1.45747E-19
 -1       915 1.04327E-04-4.50751E-05-2.52889E-05 2.12028E-05-1.09754E-18-1.11668E-18
 -1       916 9.16467E-05-2.11816E-05-3.01997E-05 3.83888E-06-3.40075E-19-2.03285E-18
 -1       917 9.40031E-05-2.55252E-05-2.93486E-05-7.62788E-06 4.47582E-19-1.26849E-18
 -1       918 8.84725E-05-1.69066E-05-3.06723E-05-8.25829E-07 7.86209E-19-2.28649E-18
 -1       919 6.74348E-05-1.73179E-05-2.14176E-05 1.09065E-05 5.45971E-19-2.42026E-18
 -1       920 6.61248E-05-1.68444E-05-2.10477E-05-9.81915E-06-7.74348E-19-1.93129E-18
 -1       921 9.15751E-05-1.98596E-05-3.07346E-05 1.93536E-06-6.17638E-19-2.34583E-18
 -1       922 9.56691E-05-2.92823E-05-2.84503E-05-1.09987E-05-7.70623E-20-1.01410E-18
 -1       923 9.41268E-05-2.25780E-05-3.06638E-05-2.17139E-06 1.20763E-18-1.29875E-18
 -1       924 1.08942E-04-4.34799E-05-2.80493E-05-1.24372E-05-4.98945E-19-2.08934E-19
 -1       925 9.36830E-05-2.29231E-05-3.03268E-05-3.61367E-06 9.92990E-19-1.57677E-18
 -1       926 9.52294E-05-2.84885E-05-2.86032E-05 1.29552E-09 3.22121E-19 6.00436E-19
 -1       927 9.52451E-05-2.85276E-05-2.85932E-05-1.94989E-09-9.79320E-19 4.29318E-18
 -1       928 7.58898E-05-2.50321E-05-2.17507E-05 2.04584E-05-1.09186E-18 4.92884E-19
 -1       929 8.94826E-05-1.78716E-05-3.06905E-05-1.43347E-06 1.07409E-18-2.17889E-18
 -1       930 8.97182E-05-1.80522E-05-3.07132E-05 1.29627E-06-1.58713E-19-2.19274E-18
 -1       931 1.02235E-04-3.73149E-05-2.78460E-05-1.30830E-05-6.11779E-19-2.74387E-19
 -1       932 8.25906E-05-2.97567E-05-2.25911E-05-2.25946E-05-1.30691E-18-1.34803E-18
 -1       933 1.03563E-04-4.57350E-05-2.47235E-05-2.37812E-05-1.75457E-18-8.16912E-19
 -1       934 6.22915E-05-1.47256E-05-2.03088E-05 5.27359E-06-9.03581E-19 9.80368E-19
 -1       935 9.52400E-05-2.85116E-05-2.85980E-05 3.04639E-09 3.08505E-20-1.15140E-18
 -1       936 8.40095E-05-2.06773E-05-2.71439E-05 8.61041E-06 2.51757E-19-1.62402E-18
 -1       937 8.12687E-05-2.10442E-05-2.58160E-05 1.12062E-05 1.94166E-19-1.96595E-18
 -1       938 7.26842E-05-1.87309E-05-2.30923E-05-1.17602E-05-1.90500E-21-1.29600E-18
 -1       939 7.72032E-05-1.88664E-05-2.49952E-05-8.37394E-06-1.84577E-20-2.44986E-18
 -1       940 8.07901E-05-1.94580E-05-2.62856E-05-6.33469E-06 6.82993E-20-2.56812E-18
 -1       941 8.36678E-05-2.02464E-05-2.71811E-05-5.02517E-06-1.05650E-18-2.87842E-18
 -1       942 8.60163E-05-2.11626E-05-2.77947E-05-4.08630E-06-1.27331E-18-2.74148E-18
 -1       943 8.79392E-05-2.21243E-05-2.82065E-05-3.36356E-06-8.80549E-19-1.25756E-18
 -1       944 8.95161E-05-2.30758E-05-2.84744E-05-2.76873E-06-1.97488E-19-8.70495E-19
 -1       945 9.08031E-05-2.39757E-05-2.86403E-05-2.26213E-06 6.11994E-19-1.39603E-18
 -1       946 9.18448E-05-2.47964E-05-2.87350E-05-1.82600E-06 7.38656E-19-8.41769E-19
 -1       947 9.26788E-05-2.55228E-05-2.87812E-05-1.45218E-06 9.14070E-19-8.22637E-19
 -1       948 9.33384E-05-2.61493E-05-2.87953E-05-1.13577E-06 1.00017E-18-1.77595E-18
 -1       949 9.38530E-05-2.66777E-05-2.87894E-05-8.72323E-07 5.81040E-19-2.86058E-18
 -1       950 9.42487E-05-2.71145E-05-2.87718E-05-6.56882E-07-2.92008E-19-2.70246E-18
 -1       951 9.45481E-05-2.74688E-05-2.87483E-05-4.83907E-07-7.79085E-19-3.52358E-18
 -1       952 9.47707E-05-2.77512E-05-2.87227E-05-3.47563E-07-1.22090E-18-1.78430E-18
 -1       953 9.49328E-05-2.79724E-05-2.86973E-05-2.42065E-07-2.27544E-18-1.34972E-19
 -1       954 9.50481E-05-2.81429E-05-2.86736E-05-1.61956E-07-1.21933E-18-4.39859E-19
 -1       955 9.51277E-05-2.82723E-05-2.86523E-05-1.02287E-07 9.09055E-19-1.40035E-18
 -1       956 9.51806E-05-2.83690E-05-2.86336E-05-5.91540E-08 1.48583E-18-1.15452E-18
 -1       957 9.52148E-05-2.84412E-05-2.86172E-05-2.87795E-08-3.92171E-19-3.84342E-18
 -1       958 9.16904E-05-2.17399E-05-2.99798E-05-4.26468E-06 7.98195E-19-1.84308E-18
 -1       959 9.44914E-05-2.70699E-05-2.88944E-05-9.38384E-06 4.40679E-19-1.31706E-18
 -1       960 8.99683E-05-2.51497E-05-2.77796E-05 8.76524E-06-1.16790E-18 3.18612E-19
 -1       961 9.15252E-05-2.92778E-05-2.66858E-05 1.34074E-05-5.29108E-19 7.81928E-19
 -1       962 9.02636E-05-2.45376E-05-2.81684E-05 7.07283E-06-6.41688E-19-5.34275E-20
 -1       963 9.08284E-05-2.44513E-05-2.84473E-05 5.70202E-06-6.81485E-20 2.25235E-19
 -1       964 9.14940E-05-2.46809E-05-2.86342E-05 4.58010E-06-3.37460E-19 7.01507E-19
 -1       965 9.21628E-05-2.50819E-05-2.87490E-05 3.65464E-06 2.49959E-20 1.21776E-18
 -1       966 9.27813E-05-2.55575E-05-2.88102E-05 2.88946E-06 6.45523E-19 1.56598E-18
 -1       967 9.33237E-05-2.60450E-05-2.88337E-05 2.25871E-06-7.55850E-19 5.81785E-19
 -1       968 9.37811E-05-2.65062E-05-2.88321E-05 1.74252E-06 2.15675E-19 2.56468E-18
 -1       969 9.41552E-05-2.69204E-05-2.88149E-05 1.32433E-06 4.32314E-19 4.32555E-18
 -1       970 9.44530E-05-2.72782E-05-2.87892E-05 9.89596E-07-4.99473E-19 4.73006E-18
 -1       971 9.46843E-05-2.75782E-05-2.87598E-05 7.25210E-07-6.06532E-19 3.45457E-18
 -1       972 9.48598E-05-2.78232E-05-2.87300E-05 5.19345E-07 6.54137E-19 1.92310E-18
 -1       973 9.49895E-05-2.80190E-05-2.87017E-05 3.61459E-07 7.28061E-19 1.97806E-18
 -1       974 9.50829E-05-2.81721E-05-2.86760E-05 2.42318E-07 7.04257E-19 1.75288E-18
 -1       975 9.51480E-05-2.82898E-05-2.86535E-05 1.53981E-07 1.31225E-18 2.17111E-18
 -1       976 9.51916E-05-2.83786E-05-2.86342E-05 8.99375E-08-4.34752E-19 2.29368E-18
 -1       977 9.52193E-05-2.84447E-05-2.86177E-05 4.46990E-08-2.45605E-18-2.02711E-19
 -1       978 9.22963E-05-3.51676E-05-2.44247E-05 2.08522E-05-6.56909E-19-9.35734E-19
 -1       979 9.52330E-05-2.84956E-05-2.86018E-05 4.32400E-09 2.11907E-19 2.41061E-19
 -1       980 8.93843E-05-1.99296E-05-2.97676E-05 3.59613E-06-3.25944E-19-1.84645E-18
 -1       981 9.52128E-05-2.84442E-05-2.86151E-05-1.36109E-08-1.98618E-19-1.38973E-18
 -1       982 8.82576E-05-1.66974E-05-3.06686E-05-2.30037E-08 3.97598E-19-2.26605E-18
 -1       983 9.17286E-05-1.98940E-05-3.07860E-05-1.73156E-06 1.21416E-18-1.69468E-18
 -1       984 8.87286E-05-1.71278E-05-3.06860E-05 6.64508E-07 2.45892E-19-2.39154E-18
 -1       985 8.96854E-05-1.91290E-05-3.02385E-05 2.41353E-06-2.23555E-19-1.85722E-18
 -1       986 8.81296E-05-2.04054E-05-2.90255E-05 5.10852E-06-1.31932E-19-1.96856E-18
 -1       987 9.96729E-05-3.84182E-05-2.62549E-05 1.68330E-05-4.26215E-19-6.84896E-19
 -1       988 9.52316E-05-2.84812E-05-2.86073E-05 2.03609E-08-1.19806E-18-1.81209E-18
 -1       989 9.02254E-05-2.65865E-05-2.72740E-05 1.08711E-05-3.25701E-19 1.98375E-19
 -1       990 8.63187E-05-2.05734E-05-2.81779E-05 6.71030E-06 1.05746E-19-1.83730E-18
 -1       991 7.86855E-05-2.27981E-05-2.39221E-05 1.59302E-05 6.72078E-19-2.58603E-18
 -1       992 6.78019E-05-1.56717E-05-2.23072E-05 1.66702E-06-8.32532E-20-1.87971E-18
 -1       993 9.18426E-05-2.81022E-05-2.73250E-05-1.28938E-05-2.49216E-19-1.15893E-18
 -1       994 9.14910E-05-2.29682E-05-2.93658E-05-6.25238E-06 4.79749E-19-1.70551E-18
 -1       995 6.92921E-05-1.59516E-05-2.28268E-05-4.09243E-06-1.00719E-18 3.37185E-19
 -1       996 9.52091E-05-2.84387E-05-2.86159E-05-1.01746E-10 3.97624E-19 1.66090E-18
 -1       997 9.39494E-05-3.18067E-05-2.65960E-05-1.58079E-05-4.29652E-19-1.24757E-18
 -1       998 9.47183E-05-3.32122E-05-2.63675E-05 1.53936E-05 3.03956E-19-8.10364E-20
 -1       999 8.87035E-05-1.86015E-05-3.00390E-05-2.07820E-06 8.13148E-19-1.93042E-18
 -1      1000 7.59386E-05-2.20066E-05-2.30625E-05-1.52671E-05-6.83444E-19-1.66592E-18
 -1      1001 9.38132E-05-3.68820E-05-2.43552E-05-2.23433E-05-1.29754E-18-1.11510E-18
 -1      1002 7.02976E-05-1.88272E-05-2.20272E-05 1.27975E-05-1.69375E-18 2.04087E-19
 -1      1003 8.79042E-05-1.78940E-05-3.00025E-05-6.13422E-07 3.76714E-19-1.90503E-18
 -1      1004 7.44120E-05-1.76938E-05-2.43053E-05 6.74856E-06-6.14616E-20-2.13424E-18
 -1      1005 8.69091E-05-2.86804E-05-2.49580E-05-1.75823E-05-6.46217E-19-1.24024E-18
 -1      1006 9.11913E-05-2.57273E-05-2.80550E-05-1.03474E-05 9.26123E-20-1.26191E-18
 -1      1007 7.64891E-05-1.75948E-05-2.52441E-05-2.37248E-06-3.97027E-19-1.08735E-18
 -1      1008 8.04676E-05-1.87754E-05-2.64357E-05-2.00077E-06-6.52213E-19-1.81808E-18
 -1      1009 8.35700E-05-1.99529E-05-2.72648E-05-1.72769E-06-7.60674E-19-1.24408E-18
 -1      1010 8.60004E-05-2.10623E-05-2.78309E-05-1.52937E-06-1.08271E-19-1.93168E-19
 -1      1011 8.79582E-05-2.21298E-05-2.82124E-05-1.34377E-06-4.84480E-19 5.34869E-19
 -1      1012 8.95470E-05-2.31356E-05-2.84621E-05-1.16138E-06-5.67944E-19-4.47674E-19
 -1      1013 9.08364E-05-2.40603E-05-2.86184E-05-9.83080E-07 3.26853E-19-1.99261E-18
 -1      1014 9.18768E-05-2.48891E-05-2.87091E-05-8.13795E-07 8.78593E-19-3.05756E-18
 -1      1015 9.27086E-05-2.56143E-05-2.87548E-05-6.58597E-07 7.84747E-19-3.28443E-18
 -1      1016 9.33657E-05-2.62347E-05-2.87705E-05-5.21082E-07 8.87159E-19-4.26666E-18
 -1      1017 9.38778E-05-2.67544E-05-2.87672E-05-4.02979E-07-2.01475E-19-4.44468E-18
 -1      1018 9.42709E-05-2.71815E-05-2.87526E-05-3.04362E-07-2.57210E-19-3.69342E-18
 -1      1019 9.45676E-05-2.75260E-05-2.87321E-05-2.24095E-07-4.73932E-19-2.33132E-18
 -1      1020 9.47874E-05-2.77992E-05-2.87093E-05-1.60290E-07-1.47798E-18-3.45774E-18
 -1      1021 9.49467E-05-2.80119E-05-2.86864E-05-1.10717E-07-9.48156E-19-1.74348E-18
 -1      1022 9.50592E-05-2.81749E-05-2.86647E-05-7.30330E-08-1.46353E-19-7.95558E-19
 -1      1023 9.51363E-05-2.82981E-05-2.86450E-05-4.46829E-08 5.38593E-19-2.52508E-18
 -1      1024 9.51827E-05-2.83810E-05-2.86292E-05-2.64585E-08 1.14591E-19-1.92586E-18
 -1      1025 9.12267E-05-2.41752E-05-2.87294E-05-8.22654E-06 2.63192E-19-1.54802E-18
 -1      1026 8.81911E-05-2.29193E-05-2.79739E-05 5.27819E-06-8.55417E-19 1.39267E-18
 -1      1027 8.69426E-05-2.27636E-05-2.75064E-05 6.80055E-06-1.22114E-18 5.64487E-19
 -1      1028 9.04859E-05-2.39378E-05-2.85207E-05 3.22806E-06-8.44826E-19 1.40934E-18
 -1      1029 9.14515E-05-2.45803E-05-2.86592E-05 2.52091E-06-8.05643E-20 8.35492E-19
 -1      1030 9.22784E-05-2.52212E-05-2.87389E-05 1.95720E-06 1.99167E-19 1.74267E-18
 -1      1031 9.29689E-05-2.58220E-05-2.87773E-05 1.50630E-06-6.74128E-19 1.18309E-18
 -1      1032 9.35327E-05-2.63610E-05-2.87879E-05 1.14629E-06-6.43610E-19 1.47974E-18
 -1      1033 9.39833E-05-2.68283E-05-2.87807E-05 8.60513E-07 3.36522E-19 2.73154E-18
 -1      1034 9.43361E-05-2.72222E-05-2.87631E-05 6.35587E-07 8.41047E-20 2.20605E-18
 -1      1035 9.46067E-05-2.75462E-05-2.87403E-05 4.60429E-07 8.11358E-19 2.14561E-18
 -1      1036 9.48098E-05-2.78070E-05-2.87155E-05 3.25688E-07 1.56519E-19 2.84498E-18
 -1      1037 9.49587E-05-2.80127E-05-2.86911E-05 2.23452E-07 5.65399E-19 3.51370E-18
 -1      1038 9.50650E-05-2.81720E-05-2.86684E-05 1.47123E-07 4.79441E-19 3.79090E-18
 -1      1039 9.51388E-05-2.82937E-05-2.86479E-05 9.10192E-08 1.70448E-19 3.80103E-18
 -1      1040 9.51864E-05-2.83830E-05-2.86300E-05 5.06014E-08-1.43462E-19 2.57165E-18
 -1      1041 8.57548E-05-2.30827E-05-2.68610E-05 8.85323E-06-9.52200E-19 1.84908E-18
 -1      1042 9.52126E-05-2.84445E-05-2.86149E-05 1.22127E-08 1.19947E-19 3.97741E-19
 -1      1043 8.73198E-05-1.90427E-05-2.92621E-05 2.40851E-06-1.11058E-19-1.85820E-18
 -1      1044 7.93217E-05-1.84181E-05-2.61001E-05 5.12514E-06 1.97570E-20-2.03145E-18
 -1      1045 9.52215E-05-2.84607E-05-2.86117E-05 1.83699E-08 5.26190E-19-3.19273E-20
 -1      1046 7.31870E-05-1.79654E-05-2.36432E-05-7.61907E-06-1.88864E-19-1.74206E-18
 -1      1047 8.44581E-05-2.71688E-05-2.45190E-05 1.69992E-05-1.12586E-18 4.86443E-19
 -1      1048 8.78090E-05-1.95529E-05-2.92543E-05-3.25534E-06 5.13679E-19-1.68642E-18
 -1      1049 8.47888E-05-2.41371E-05-2.59985E-05 1.17400E-05-1.74543E-20 1.08842E-18
 -1      1050 8.93904E-05-2.33543E-05-2.83013E-05 4.12393E-06-8.31910E-19 7.04110E-19
 -1      1051 8.85853E-05-1.81471E-05-3.01843E-05 1.36113E-06-1.85021E-19-2.08275E-18
 -1      1052 8.29514E-05-1.89343E-05-2.74350E-05 4.00588E-06 2.84424E-19-1.66003E-18
 -1      1053 8.66589E-05-2.36722E-05-2.69876E-05-1.06433E-05-2.98608E-19-1.38494E-18
 -1      1054 8.22165E-05-2.31403E-05-2.53119E-05-1.29997E-05-3.49992E-19-1.28990E-18
 -1      1055 7.23231E-05-1.67135E-05-2.38234E-05 3.53821E-06-1.43441E-18-3.62226E-19
 -1      1056 8.80937E-05-1.87057E-05-2.97343E-05 1.90587E-06-3.07074E-19-2.05187E-18
 -1      1057 8.80419E-05-1.78378E-05-3.00864E-05 4.17127E-07 5.27845E-22-1.94706E-18
 -1      1058 8.54976E-05-1.91636E-05-2.84294E-05 3.20008E-06 1.78888E-19-1.85899E-18
 -1      1059 7.52157E-05-1.72344E-05-2.48527E-05-1.32117E-06-1.65171E-20-1.75423E-18
 -1      1060 9.51683E-05-2.83573E-05-2.86332E-05 1.97238E-09 1.00122E-18 8.97086E-19
 -1      1061 8.20784E-05-1.95076E-05-2.68212E-05 1.57737E-06-2.63853E-19-4.70684E-19
 -1      1062 8.47451E-05-2.05605E-05-2.75083E-05 9.93125E-07-1.42791E-19-3.12760E-19
 -1      1063 8.68940E-05-2.15984E-05-2.79842E-05 6.11853E-07 1.91647E-19-1.23196E-19
 -1      1064 8.86466E-05-2.26022E-05-2.83051E-05 3.62109E-07-3.44870E-19-3.95144E-19
 -1      1065 9.00822E-05-2.35493E-05-2.85143E-05 2.02373E-07-4.89325E-19-1.13181E-18
 -1      1066 9.12540E-05-2.44189E-05-2.86438E-05 1.03401E-07-1.00986E-18-1.33009E-18
 -1      1067 9.22027E-05-2.51960E-05-2.87172E-05 4.46631E-08 2.11541E-21-2.56039E-18
 -1      1068 9.29620E-05-2.58733E-05-2.87523E-05 1.18517E-08 6.55115E-19-3.47526E-18
 -1      1069 9.35615E-05-2.64503E-05-2.87620E-05-4.82290E-09 3.30032E-19-3.92334E-18
 -1      1070 9.40278E-05-2.69314E-05-2.87556E-05-1.18920E-08-2.52104E-19-2.80084E-18
 -1      1071 9.43845E-05-2.73247E-05-2.87399E-05-1.35825E-08 1.59261E-19-2.33531E-18
 -1      1072 9.46525E-05-2.76403E-05-2.87195E-05-1.25320E-08-6.13914E-19-1.56430E-18
 -1      1073 9.48498E-05-2.78890E-05-2.86975E-05-1.03098E-08-8.73865E-19-6.32759E-19
 -1      1074 9.49917E-05-2.80816E-05-2.86757E-05-7.88354E-09-7.43654E-20-1.18321E-18
 -1      1075 9.50906E-05-2.82278E-05-2.86553E-05-6.07437E-09 3.97989E-19 4.59575E-19
 -1      1076 9.21611E-05-2.51580E-05-2.87155E-05 1.02044E-06-5.71942E-19 1.25877E-18
 -1      1077 7.76908E-05-1.82427E-05-2.54831E-05 3.44853E-06-9.79149E-19-4.71738E-19
 -1      1078 8.53884E-05-2.12958E-05-2.74676E-05 4.13547E-06-9.01852E-19 4.09900E-19
 -1      1079 9.12417E-05-2.44239E-05-2.86360E-05 1.34784E-06-2.25018E-19 6.34462E-19
 -1      1080 9.01285E-05-2.36314E-05-2.84985E-05 1.77513E-06-5.49220E-19-8.59559E-19
 -1      1081 9.29090E-05-2.58144E-05-2.87547E-05 7.67937E-07-7.74210E-19 1.59598E-18
 -1      1082 9.35074E-05-2.63844E-05-2.87669E-05 5.72795E-07-4.96625E-19 4.27599E-19
 -1      1083 9.39782E-05-2.68669E-05-2.87619E-05 4.22230E-07 6.43998E-19-2.56747E-19
 -1      1084 9.43419E-05-2.72661E-05-2.87467E-05 3.06599E-07 6.26835E-19-2.37374E-19
 -1      1085 9.46175E-05-2.75896E-05-2.87262E-05 2.18430E-07-1.92120E-19-4.46820E-19
 -1      1086 9.48222E-05-2.78467E-05-2.87038E-05 1.51830E-07-2.41720E-19 8.04999E-19
 -1      1087 9.49706E-05-2.80473E-05-2.86814E-05 1.02073E-07-3.14663E-19 2.07714E-18
 -1      1088 9.50759E-05-2.82023E-05-2.86603E-05 6.36797E-08 8.77019E-19 1.33488E-18
 -1      1089 8.32447E-05-2.07400E-05-2.67902E-05 5.59454E-06-4.45437E-20 1.11902E-18
 -1      1090 8.63224E-05-2.00948E-05-2.83827E-05-4.62488E-06-4.01156E-20-1.29892E-18
 -1      1091 8.08213E-05-2.05538E-05-2.58191E-05 7.69817E-06-9.81506E-19 1.62056E-18
 -1      1092 8.00397E-05-1.98703E-05-2.57876E-05-7.74969E-06-1.43123E-19-1.43764E-18
 -1      1093 7.79417E-05-2.04189E-05-2.46430E-05 1.02421E-05-1.22635E-18 8.00102E-19
 -1      1094 8.65348E-05-1.86744E-05-2.90852E-05-6.98963E-07 9.50770E-20-1.20144E-18
 -1      1095 8.59161E-05-1.87426E-05-2.87907E-05 3.42607E-07-6.68253E-21-1.26816E-18
 -1      1096 8.87991E-05-2.28122E-05-2.82797E-05 2.33928E-06-9.16322E-19-1.11486E-18
 -1      1097 8.72289E-05-2.20130E-05-2.79492E-05 3.09694E-06-5.83002E-19-6.48540E-19
 -1      1098 8.39409E-05-2.03960E-05-2.72303E-05-6.59069E-06-2.93211E-19-1.11180E-18
 -1      1099 9.51459E-05-2.83166E-05-2.86412E-05 3.91228E-08 2.43156E-19 6.69612E-19
 -1      1100 7.99352E-05-1.80879E-05-2.65025E-05-6.91470E-07 6.15649E-20-1.77420E-18
 -1      1101 8.76338E-05-2.24621E-05-2.79452E-05-8.02302E-06-1.15895E-19-1.65999E-18
 -1      1102 8.35784E-05-1.85989E-05-2.78357E-05 2.68238E-07 2.38990E-19-1.65065E-18
 -1      1103 8.40765E-05-1.88104E-05-2.79975E-05-1.27775E-06 6.18297E-20-1.38506E-18
 -1      1104 1.16472E-04 2.57733E-10-4.18522E-05-4.04200E-05-3.66765E-19 8.39664E-18
 -1      1105 8.94801E-05 7.51700E-11-3.75305E-05-2.26975E-05-1.64113E-19-2.21181E-19
 -1      1106 8.49976E-05 4.34762E-11-3.61059E-05-1.60209E-05-1.08103E-19-3.60550E-18
 -1      1107 8.29879E-05 3.21752E-11-3.53318E-05-1.18072E-05-6.45333E-20-5.06025E-18
 -1      1108 8.17562E-05 2.56261E-11-3.48443E-05-8.57203E-06-3.67136E-20-5.68699E-18
 -1      1109 8.08997E-05 2.12347E-11-3.45087E-05-5.96576E-06-1.65966E-20-5.80094E-18
 -1      1110 8.03028E-05 1.82961E-11-3.42769E-05-3.77427E-06-6.85567E-21-5.79699E-18
 -1      1111 7.99440E-05 1.66271E-11-3.41381E-05-1.82664E-06 4.90353E-21-5.63639E-18
 -1      1112 7.98320E-05 1.61611E-11-3.40944E-05-1.99355E-09 2.05174E-20-5.41365E-18
 -1      1113 7.99663E-05 1.68634E-11-3.41451E-05 1.83661E-06 3.50857E-20-5.18216E-18
 -1      1114 8.03398E-05 1.87293E-11-3.42882E-05 3.82375E-06 4.83206E-20-4.92734E-18
 -1      1115 8.09414E-05 2.17644E-11-3.45198E-05 6.07323E-06 6.52612E-20-4.38310E-18
 -1      1116 8.17895E-05 2.62521E-11-3.48523E-05 8.74716E-06 8.67415E-20-3.53356E-18
 -1      1117 8.30025E-05 3.28623E-11-3.53369E-05 1.20581E-05 1.13026E-19-2.12232E-18
 -1      1118 8.49705E-05 4.39797E-11-3.61161E-05 1.63289E-05 1.39866E-19 3.34287E-19
 -1      1119 8.91527E-05 7.01168E-11-3.75872E-05 2.26082E-05 1.39866E-19 4.80847E-18
 -1      1120 1.06503E-04 1.66502E-10-4.06641E-05 3.52170E-05 2.44793E-19 1.35096E-17
 -1      1121 1.29424E-04-2.57731E-05-4.02212E-05-2.54145E-05-1.40078E-18 1.37639E-17
 -1      1122 9.84575E-05-2.91755E-05-3.18830E-05-5.42806E-07-4.82253E-19 1.04078E-17
 -1      1123 9.25610E-05-2.77623E-05-2.86018E-05 4.14994E-07-1.74079E-19 5.85207E-18
 -1      1124 9.19576E-05-2.76998E-05-2.77691E-05 2.71201E-07-7.66962E-20 2.92766E-18
 -1      1125 9.31164E-05-2.80303E-05-2.79858E-05 1.95482E-07-7.88138E-20 1.03820E-18
 -1      1126 9.53576E-05-2.86739E-05-2.86474E-05 1.64547E-07-9.67537E-20-2.91829E-19
 -1      1127 9.84022E-05-2.95666E-05-2.95653E-05 1.57698E-07-1.29321E-20-1.32383E-18
 -1      1128 1.02118E-04-3.06665E-05-3.06792E-05 1.66270E-07-7.90520E-20-2.47093E-18
 -1      1129 1.06385E-04-3.19322E-05-3.19456E-05 1.83511E-07-1.62231E-20-3.31894E-18
 -1      1130 1.10988E-04-3.32955E-05-3.32905E-05 1.99334E-07-1.12110E-20-3.99789E-18
 -1      1131 1.15507E-04-3.46276E-05-3.45752E-05 1.94875E-07 5.90243E-20-4.69667E-18
 -1      1132 1.19191E-04-3.57036E-05-3.55684E-05 1.38430E-07 1.23826E-19-4.28076E-18
 -1      1133 1.20913E-04-3.61888E-05-3.59487E-05-9.82789E-09 5.48321E-20-4.73012E-18
 -1      1134 1.19337E-04-3.56934E-05-3.53781E-05-2.74175E-07 1.40290E-21-5.18739E-18
 -1      1135 1.13522E-04-3.39556E-05-3.36802E-05-6.13330E-07-1.49369E-19-4.65794E-18
 -1      1136 1.03955E-04-3.11450E-05-3.10869E-05-8.68649E-07-5.24581E-20-4.31648E-18
 -1      1137 9.33980E-05-2.80893E-05-2.83624E-05-8.12649E-07-1.18088E-19-4.70167E-18
 -1      1138 8.62533E-05-2.60376E-05-2.65807E-05-3.54002E-07 2.16721E-19-4.92084E-18
 -1      1139 8.60955E-05-2.59993E-05-2.65543E-05 3.10607E-07 4.99882E-20-5.84916E-18
 -1      1140 9.30994E-05-2.80045E-05-2.83125E-05 8.00726E-07-1.62822E-20-7.02656E-18
 -1      1141 1.03869E-04-3.11272E-05-3.10925E-05 8.83545E-07-2.32296E-19-7.10989E-18
 -1      1142 1.13950E-04-3.40884E-05-3.38239E-05 6.45062E-07 2.06464E-20-6.34872E-18
 -1      1143 1.20451E-04-3.60293E-05-3.57129E-05 3.08601E-07 2.27792E-19-4.77319E-18
 -1      1144 1.22747E-04-3.67392E-05-3.64953E-05 3.96114E-08-4.00680E-19-6.31369E-18
 -1      1145 1.21725E-04-3.64630E-05-3.63270E-05-1.11462E-07 3.23269E-19-6.87816E-18
 -1      1146 1.18727E-04-3.55921E-05-3.55436E-05-1.66119E-07 2.61111E-19-4.31516E-18
 -1      1147 1.14908E-04-3.44680E-05-3.44718E-05-1.64350E-07 4.94065E-20-4.48189E-18
 -1      1148 1.11031E-04-3.33193E-05-3.33465E-05-1.38016E-07 2.07176E-19-4.29258E-18
 -1      1149 1.07511E-04-3.22712E-05-3.23043E-05-1.05770E-07-5.78613E-20-2.94718E-18
 -1      1150 1.04520E-04-3.13768E-05-3.14074E-05-7.62588E-08-6.25150E-20-2.15273E-18
 -1      1151 1.02085E-04-3.06467E-05-3.06718E-05-5.23953E-08-2.72593E-19-2.31718E-18
 -1      1152 1.00167E-04-3.00696E-05-3.00888E-05-3.43750E-08 7.23957E-20-5.08907E-18
 -1      1153 9.86928E-05-2.96249E-05-2.96389E-05-2.13583E-08 7.67830E-20-5.75853E-18
 -1      1154 9.75846E-05-2.92897E-05-2.92997E-05-1.22694E-08-1.25728E-19-5.12628E-18
 -1      1155 9.67691E-05-2.90424E-05-2.90493E-05-6.11808E-09-6.63093E-20-6.72106E-18
 -1      1156 9.61821E-05-2.88640E-05-2.88686E-05-2.09660E-09 1.58549E-19-6.67314E-18
 -1      1157 9.57702E-05-2.87384E-05-2.87414E-05 4.16673E-10 6.10188E-20-6.32075E-18
 -1      1158 9.54901E-05-2.86527E-05-2.86545E-05 1.88536E-09 5.20905E-19-4.54275E-18
 -1      1159 9.53073E-05-2.85965E-05-2.85975E-05 2.64869E-09 5.47401E-19-9.18556E-19
 -1      1160 9.51952E-05-2.85617E-05-2.85622E-05 2.95154E-09-1.31942E-19 1.94377E-19
 -1      1161 9.51333E-05-2.85423E-05-2.85425E-05 2.96849E-09-5.84951E-19-1.90352E-18
 -1      1162 9.51063E-05-2.85335E-05-2.85335E-05 2.82228E-09-3.56126E-19-8.28490E-18
 -1      1163 9.51028E-05-2.85320E-05-2.85318E-05 2.59740E-09-1.62755E-19-6.90231E-18
 -1      1164 9.51145E-05-2.85351E-05-2.85349E-05 2.34963E-09-1.65857E-19-3.90191E-18
 -1      1165 9.51354E-05-2.85411E-05-2.85409E-05 2.11185E-09 1.88384E-19-1.84734E-19
 -1      1166 9.51611E-05-2.85486E-05-2.85483E-05 1.89438E-09 1.57819E-19 2.13074E-18
 -1      1167 9.51879E-05-2.85564E-05-2.85561E-05 1.67359E-09-1.77814E-19 1.10503E-19
 -1      1168 9.52125E-05-2.85637E-05-2.85631E-05 1.33356E-09 4.88953E-19 1.62222E-18
 -1      1169 9.52307E-05-2.85689E-05-2.85683E-05 6.26859E-10 1.53374E-20 4.16100E-18
 -1      1170 9.52377E-05-2.85714E-05-2.85713E-05-2.84343E-10 1.13633E-19 2.80299E-18
 -1      1171 1.30245E-04-3.74240E-05-3.86597E-05 1.19602E-05-2.57048E-19 2.04444E-17
 -1      1172 9.76290E-05-2.85234E-05-3.16461E-05 7.51421E-07 9.69588E-20 1.71673E-17
 -1      1173 9.27092E-05-2.76470E-05-2.85660E-05 1.08563E-07 9.12215E-20 1.36866E-17
 -1      1174 9.18942E-05-2.75811E-05-2.77581E-05 1.06162E-08 2.48684E-20 1.14912E-17
 -1      1175 9.28606E-05-2.78987E-05-2.79177E-05-2.12535E-08 6.01145E-20 9.63124E-18
 -1      1176 9.48281E-05-2.84813E-05-2.84871E-05-3.58538E-08 2.28418E-20 8.08681E-18
 -1      1177 9.74407E-05-2.92529E-05-2.92665E-05-5.03602E-08 3.61619E-20 7.27850E-18
 -1      1178 1.00482E-04-3.01526E-05-3.01692E-05-7.03626E-08-4.43340E-20 7.06780E-18
 -1      1179 1.03737E-04-3.11146E-05-3.11242E-05-9.74265E-08 1.74530E-20 6.12450E-18
 -1      1180 1.06913E-04-3.20503E-05-3.20384E-05-1.29391E-07 1.17487E-19 5.02561E-18
 -1      1181 1.09577E-04-3.28316E-05-3.27783E-05-1.57829E-07 1.33656E-19 3.83638E-18
 -1      1182 1.11131E-04-3.32858E-05-3.31695E-05-1.65242E-07 4.44692E-21 3.34371E-18
 -1      1183 1.10877E-04-3.32123E-05-3.30221E-05-1.25798E-07 7.36290E-20 3.13820E-18
 -1      1184 1.08222E-04-3.24409E-05-3.21977E-05-1.58550E-08-2.18137E-19 3.92399E-18
 -1      1185 1.03055E-04-3.09360E-05-3.07108E-05 1.62306E-07 1.61446E-19 3.14503E-18
 -1      1186 9.61742E-05-2.89164E-05-2.88211E-05 3.55663E-07 2.11099E-20 1.19506E-18
 -1      1187 8.94175E-05-2.69036E-05-2.70333E-05 4.66739E-07-1.28431E-19 9.78694E-19
 -1      1188 8.51345E-05-2.55882E-05-2.59390E-05 4.10765E-07-7.71197E-20 1.73279E-18
 -1      1189 8.50573E-05-2.55116E-05-2.59500E-05 1.89166E-07 2.35416E-19-8.69903E-19
 -1      1190 8.92771E-05-2.67404E-05-2.70783E-05-9.43154E-08-1.61972E-19-5.80747E-20
 -1      1191 9.61907E-05-2.88122E-05-2.89311E-05-3.10194E-07 8.41896E-20 3.97047E-20
 -1      1192 1.03463E-04-3.10147E-05-3.09223E-05-3.88885E-07 2.42513E-20 4.42945E-19
 -1      1193 1.09191E-04-3.27556E-05-3.25450E-05-3.45045E-07 4.24410E-20 7.63018E-19
 -1      1194 1.12494E-04-3.37583E-05-3.35328E-05-2.37595E-07 1.14366E-19 8.58415E-20
 -1      1195 1.13434E-04-3.40419E-05-3.38647E-05-1.23378E-07-2.04934E-19 3.74028E-19
 -1      1196 1.12593E-04-3.37862E-05-3.36758E-05-3.36859E-08-5.31050E-22 1.63134E-18
 -1      1197 1.10672E-04-3.32060E-05-3.31538E-05 2.36336E-08-2.27029E-19 4.09832E-19
 -1      1198 1.08266E-04-3.24816E-05-3.24697E-05 5.31816E-08-3.09562E-19 7.63124E-20
 -1      1199 1.05792E-04-3.17384E-05-3.17499E-05 6.34106E-08-1.04717E-19-2.95390E-19
 -1      1200 1.03500E-04-3.10505E-05-3.10728E-05 6.21318E-08-1.72802E-19-1.20954E-19
 -1      1201 1.01510E-04-3.04538E-05-3.04792E-05 5.50517E-08 2.18725E-19-1.82740E-18
 -1      1202 9.98609E-05-2.99596E-05-2.99839E-05 4.57929E-08 2.56826E-19-1.43190E-18
 -1      1203 9.85432E-05-2.95645E-05-2.95858E-05 3.64100E-08-2.65491E-19 1.96551E-18
 -1      1204 9.75215E-05-2.92581E-05-2.92757E-05 2.79270E-08-2.76316E-20 2.08851E-18
 -1      1205 9.67506E-05-2.90269E-05-2.90408E-05 2.07511E-08-3.23441E-19 2.02553E-18
 -1      1206 9.61846E-05-2.88570E-05-2.88677E-05 1.49487E-08 2.72094E-19 8.18909E-21
 -1      1207 9.57809E-05-2.87357E-05-2.87437E-05 1.04155E-08 5.46290E-19-4.72311E-18
 -1      1208 9.55025E-05-2.86520E-05-2.86579E-05 6.97479E-09-7.75073E-20-4.81567E-18
 -1      1209 9.53185E-05-2.85966E-05-2.86008E-05 4.43181E-09 5.66165E-20-1.35926E-18
 -1      1210 9.52043E-05-2.85622E-05-2.85650E-05 2.60069E-09 8.12741E-21-2.85212E-18
 -1      1211 9.51402E-05-2.85428E-05-2.85447E-05 1.31689E-09-1.93513E-20-2.12954E-18
 -1      1212 9.51112E-05-2.85340E-05-2.85352E-05 4.40869E-10 8.00363E-20-1.47102E-18
 -1      1213 9.51062E-05-2.85323E-05-2.85330E-05-1.42610E-10 2.89754E-20-2.04835E-18
 -1      1214 9.51168E-05-2.85354E-05-2.85358E-05-5.27442E-10 1.23777E-19-1.01582E-18
 -1      1215 9.51368E-05-2.85413E-05-2.85415E-05-7.89747E-10 1.19673E-19-2.64178E-18
 -1      1216 9.51619E-05-2.85487E-05-2.85487E-05-9.89532E-10 4.86292E-19-4.29057E-18
 -1      1217 9.51884E-05-2.85565E-05-2.85564E-05-1.16674E-09-3.99515E-20-6.76090E-18
 -1      1218 9.52127E-05-2.85637E-05-2.85633E-05-1.30103E-09-8.22482E-20-6.75819E-18
 -1      1219 9.52308E-05-2.85690E-05-2.85684E-05-1.13263E-09 3.73063E-19-7.05251E-18
 -1      1220 9.52377E-05-2.85714E-05-2.85713E-05 2.16771E-10-4.45195E-19-4.83634E-18
 -1      1221 9.52368E-05-2.85706E-05-2.85713E-05 1.21045E-10-3.99054E-18-2.79397E-20
 -1      1222 9.52393E-05-2.85777E-05-2.85684E-05-5.27764E-10-9.94068E-19 8.52802E-19
 -1      1223 9.52442E-05-2.85944E-05-2.85638E-05-1.17696E-09 4.55640E-18 2.01565E-19
 -1      1224 9.52503E-05-2.86150E-05-2.85580E-05-1.19128E-09 5.20521E-18-2.65154E-19
 -1      1225 9.52562E-05-2.86349E-05-2.85523E-05-9.87924E-10 7.61408E-18-2.19750E-19
 -1      1226 9.52611E-05-2.86514E-05-2.85475E-05-7.19292E-10 3.09289E-18-5.84335E-19
 -1      1227 9.52647E-05-2.86636E-05-2.85439E-05-4.72845E-10 2.31043E-18 4.88290E-19
 -1      1228 9.52670E-05-2.86711E-05-2.85416E-05-2.31223E-10 2.45266E-18-2.25573E-19
 -1      1229 9.52677E-05-2.86737E-05-2.85408E-05-4.03654E-12 6.31688E-18 5.28120E-19
 -1      1230 9.52670E-05-2.86713E-05-2.85416E-05 2.25090E-10 7.08129E-18-4.06526E-19
 -1      1231 9.52648E-05-2.86638E-05-2.85438E-05 4.71652E-10 4.53214E-18-5.01683E-19
 -1      1232 9.52611E-05-2.86516E-05-2.85474E-05 7.37585E-10 6.52337E-18-1.32123E-19
 -1      1233 9.52562E-05-2.86350E-05-2.85523E-05 9.98421E-10-4.53034E-18 1.57024E-20
 -1      1234 9.52503E-05-2.86150E-05-2.85580E-05 1.22151E-09-1.28736E-18 5.21252E-19
 -1      1235 9.52441E-05-2.85940E-05-2.85638E-05 1.40797E-09 6.50905E-19 9.10516E-20
 -1      1236 9.52395E-05-2.85779E-05-2.85684E-05 5.45135E-10-2.68853E-18-8.11246E-19
 -1      1237 9.52368E-05-2.85706E-05-2.85714E-05-6.48920E-11-2.38302E-18-2.11126E-19
 -1      1238 3.46744E-05-1.07468E-04 1.81091E-05-1.37254E-05 5.72467E-18 1.24167E-18
 -1      1239 1.68957E-05-6.26352E-05 9.06344E-06-2.34158E-05 1.24785E-17 4.50706E-18
 -1      1240 8.84592E-06-6.81071E-06-7.18327E-06 3.68561E-06 1.31002E-17 8.32040E-18
 -1      1241 3.94759E-05 2.36582E-05-2.75988E-05 5.73808E-05 1.14858E-17 1.09674E-17
 -1      1242 1.18721E-04 8.47614E-06-4.84746E-05 1.04346E-04 7.85623E-18 1.20160E-17
 -1      1243 2.18550E-04-3.93751E-05-6.56277E-05 1.02780E-04 3.61683E-18 8.25603E-18
 -1      1244 2.95486E-04-8.44609E-05-7.58629E-05 5.08451E-05 6.97558E-19 1.18034E-18
 -1      1245 3.02308E-04-8.90401E-05-7.68770E-05-3.28799E-05 1.17002E-18-5.76194E-18
 -1      1246 2.37931E-04-5.06936E-05-6.83182E-05-9.95166E-05 5.46993E-18-1.43437E-17
 -1      1247 1.33625E-04 2.48233E-06-5.15736E-05-1.06654E-04 1.16984E-17-1.86296E-17
 -1      1248 4.54888E-05 2.42284E-05-2.95334E-05-6.26921E-05 1.60343E-17-1.64460E-17
 -1      1249 9.29540E-06-3.91572E-06-8.12840E-06-5.80255E-06 1.57955E-17-1.05210E-17
 -1      1250 1.59616E-05-5.98732E-05 8.21006E-06 2.40105E-05 1.08310E-17-4.92084E-18
 -1      1251 3.26532E-05-1.04636E-04 1.77299E-05 1.52967E-05 2.24464E-19-1.07568E-18
 -1      1252 3.54119E-05-1.10333E-04 1.85533E-05-1.28706E-05-1.21041E-17-1.98206E-18
 -1      1253 1.77162E-05-6.69777E-05 9.99219E-06-2.51747E-05-1.85136E-17-6.39319E-18
 -1      1254 7.96762E-06-9.39554E-06-6.18398E-06-1.16502E-07-1.90159E-17-1.16552E-17
 -1      1255 3.56500E-05 2.43223E-05-2.65696E-05 5.40890E-05-1.76539E-17-1.70084E-17
 -1      1256 1.18928E-04 8.25283E-06-4.86510E-05 1.04100E-04-1.22667E-17-1.87330E-17
 -1      1257 2.29289E-04-4.46152E-05-6.72974E-05 1.02616E-04-5.89069E-18-1.54008E-17
 -1      1258 3.04004E-04-8.87000E-05-7.72678E-05 4.31636E-05-1.26380E-18-7.65210E-18
 -1      1259 3.07570E-04-9.10010E-05-7.76354E-05-3.72684E-05-3.62610E-19 7.66565E-19
 -1      1260 2.45083E-04-5.37665E-05-6.95696E-05-9.59782E-05-2.77467E-18 7.23536E-18
 -1      1261 1.50917E-04-5.02105E-06-5.47313E-05-1.10106E-04-8.34666E-18 1.38744E-17
 -1      1262 6.60842E-05 2.38289E-05-3.64621E-05-7.96193E-05-1.23226E-17 1.46401E-17
 -1      1263 1.69931E-05 1.55842E-05-1.74638E-05-2.86883E-05-1.23006E-17 1.01271E-17
 -1      1264 7.24903E-06-2.49223E-05-5.48529E-07 1.29941E-05-1.02169E-17 5.84029E-18
 -1      1265 2.07534E-05-7.54481E-05 1.20024E-05 2.67931E-05-5.88180E-18 1.94458E-18
 -1      1266 3.50332E-05-1.09058E-04 1.85742E-05 1.27298E-05-2.18111E-18 4.01202E-19
 -1      1267 1.04908E-04-2.21401E-05-3.79969E-05-1.64949E-05-5.23255E-19 6.32670E-18
 -1      1268 9.14880E-05-7.01245E-06-3.63531E-05-1.88172E-05-1.25684E-18-1.81636E-18
 -1      1269 9.37524E-05-7.13005E-06-3.74783E-05-2.42413E-05-1.70211E-18-2.49875E-20
 -1      1270 8.69248E-05-4.29548E-06-3.54745E-05-1.44635E-05-1.16494E-18-4.29782E-18
 -1      1271 8.82891E-05-4.30866E-06-3.59570E-05-1.70011E-05-1.34101E-18-3.27638E-18
 -1      1272 9.34288E-05-1.08824E-05-3.54525E-05-1.71965E-05-2.14620E-18-1.61778E-18
 -1      1273 8.46500E-05-3.20110E-06-3.49244E-05-1.07668E-05-8.34248E-19-5.35811E-18
 -1      1274 8.54875E-05-3.18619E-06-3.52138E-05-1.25904E-05-1.00633E-18-4.89077E-18
 -1      1275 8.88143E-05-7.54153E-06-3.49065E-05-1.33649E-05-1.79555E-18-3.67562E-18
 -1      1276 8.31569E-05-2.55097E-06-3.45472E-05-7.77620E-06-5.59201E-19-5.76799E-18
 -1      1277 8.37396E-05-2.54624E-06-3.47428E-05-9.22665E-06-6.52692E-19-5.61357E-18
 -1      1278 8.61963E-05-5.79639E-06-3.45210E-05-9.92141E-06-1.26138E-18-4.54015E-18
 -1      1279 8.21040E-05-2.11365E-06-3.42768E-05-5.34631E-06-2.37063E-19-5.84982E-18
 -1      1280 8.25196E-05-2.11371E-06-3.44140E-05-6.52780E-06-3.55396E-19-5.80314E-18
 -1      1281 8.44630E-05-4.70382E-06-3.42338E-05-7.11359E-06-7.64388E-19-4.85374E-18
 -1      1282 8.13761E-05-1.81964E-06-3.40870E-05-3.23701E-06-3.91753E-20-5.81516E-18
 -1      1283 8.16549E-05-1.82153E-06-3.41790E-05-4.27184E-06-8.10108E-20-5.87439E-18
 -1      1284 8.32465E-05-3.97437E-06-3.40179E-05-4.78350E-06-2.78819E-19-4.98145E-18
 -1      1285 8.09770E-05-1.65332E-06-3.39828E-05-1.34995E-06 2.24753E-19-5.61239E-18
 -1      1286 8.11128E-05-1.65456E-06-3.40280E-05-2.29007E-06 1.28550E-19-5.70094E-18
 -1      1287 8.24538E-05-3.51793E-06-3.38700E-05-2.75248E-06 5.25706E-20-4.83758E-18
 -1      1288 8.09062E-05-1.60753E-06-3.39657E-05 4.51508E-07 4.43141E-19-5.40705E-18
 -1      1289 8.08979E-05-1.60741E-06-3.39638E-05-4.62279E-07 3.70929E-19-5.53862E-18
 -1      1290 8.20739E-05-3.30760E-06-3.37958E-05-9.05361E-07 5.10543E-19-4.69983E-18
 -1      1291 8.11592E-05-1.67850E-06-3.40354E-05 2.30043E-06 7.06531E-19-5.18188E-18
 -1      1292 8.10094E-05-1.67706E-06-3.39872E-05 1.34653E-06 6.17652E-19-5.31673E-18
 -1      1293 8.21018E-05-3.33075E-06-3.37981E-05 8.91088E-07 8.58494E-19-4.52763E-18
 -1      1294 8.17270E-05-1.86580E-06-3.41888E-05 4.32792E-06 9.10269E-19-4.85051E-18
 -1      1295 8.14406E-05-1.86311E-06-3.40958E-05 3.26777E-06 8.43579E-19-5.05288E-18
 -1      1296 8.25304E-05-3.58316E-06-3.38756E-05 2.76647E-06 1.27106E-18-4.31182E-18
 -1      1297 8.25888E-05-2.16569E-06-3.44195E-05 6.62393E-06 1.10630E-18-4.27081E-18
 -1      1298 8.21753E-05-2.16651E-06-3.42838E-05 5.41256E-06 1.00675E-18-4.64563E-18
 -1      1299 8.33464E-05-4.06646E-06-3.40218E-05 4.82906E-06 1.57700E-18-3.91962E-18
 -1      1300 8.38122E-05-2.60822E-06-3.47460E-05 9.41390E-06 1.39276E-18-3.32703E-18
 -1      1301 8.32341E-05-2.61443E-06-3.45521E-05 7.92735E-06 1.27422E-18-3.88562E-18
 -1      1302 8.45691E-05-4.81362E-06-3.42331E-05 7.22397E-06 1.95453E-18-3.28209E-18
 -1      1303 8.55470E-05-3.25020E-06-3.52140E-05 1.28563E-05 1.65651E-18-1.80466E-18
 -1      1304 8.47197E-05-3.27226E-06-3.49253E-05 1.09936E-05 1.51140E-18-2.71515E-18
 -1      1305 8.63176E-05-5.92928E-06-3.45165E-05 1.01201E-05 2.33289E-18-2.25337E-18
 -1      1306 8.83581E-05-4.31436E-06-3.59662E-05 1.73020E-05 1.76797E-18 8.37716E-19
 -1      1307 8.69737E-05-4.35622E-06-3.54719E-05 1.47841E-05 1.61635E-18-7.55527E-19
 -1      1308 8.89386E-05-7.69040E-06-3.48978E-05 1.36668E-05 2.63343E-18-5.71218E-19
 -1      1309 9.44695E-05-7.15264E-06-3.73636E-05 2.36887E-05 1.40480E-18 5.64780E-18
 -1      1310 9.12773E-05-6.77080E-06-3.63641E-05 1.95409E-05 1.39570E-18 2.75773E-18
 -1      1311 9.36201E-05-1.11102E-05-3.54245E-05 1.78947E-05 2.52453E-18 2.35274E-18
 -1      1312 1.23518E-04-2.50001E-05-3.90653E-05 2.74550E-05 6.02346E-19 1.40300E-17
 -1      1313 1.00860E-04-1.47198E-05-3.75359E-05 2.29053E-05 6.41522E-19 8.27922E-18
 -1      1314 1.02811E-04-1.97929E-05-3.56762E-05 1.99379E-05 2.27004E-18 6.68034E-18
 -1      1315 1.03341E-04-2.80872E-05-3.49286E-05 6.65731E-06 1.12280E-18 1.37344E-17
 -1      1316 1.06115E-04-3.05607E-05-3.37850E-05-7.17553E-06-1.47500E-18 6.94038E-18
 -1      1317 9.98851E-05-2.83765E-05-3.12081E-05-4.32045E-06-1.32762E-18 5.20534E-18
 -1      1318 9.75460E-05-2.84647E-05-2.98571E-05-1.81892E-06-1.11213E-18 4.50045E-18
 -1      1319 9.59514E-05-2.83560E-05-2.90131E-05-1.37760E-06-9.96481E-19 2.89143E-18
 -1      1320 1.01341E-04-2.86451E-05-3.15213E-05-6.57898E-06-2.33411E-18 2.20493E-18
 -1      1321 9.47937E-05-2.81399E-05-2.85519E-05-1.10992E-07-8.25665E-19 2.27712E-18
 -1      1322 9.47738E-05-2.82462E-05-2.84610E-05 2.20699E-08-7.88879E-19 1.18383E-18
 -1      1323 9.75147E-05-2.85856E-05-2.96714E-05-1.74488E-06-1.82120E-18 1.12024E-18
 -1      1324 9.46565E-05-2.82392E-05-2.84182E-05 7.01986E-07-5.10447E-19 6.24581E-19
 -1      1325 9.54235E-05-2.85146E-05-2.86343E-05 7.96869E-07-5.07280E-19-1.25586E-19
 -1      1326 9.64424E-05-2.86090E-05-2.91112E-05 5.49150E-07-1.30066E-18 1.69407E-20
 -1      1327 9.59347E-05-2.86650E-05-2.88014E-05 1.24284E-06-4.01219E-19-3.49692E-19
 -1      1328 9.71938E-05-2.90694E-05-2.91728E-05 1.31922E-06-3.37728E-19-8.63934E-19
 -1      1329 9.68478E-05-2.88436E-05-2.91703E-05 1.89708E-06-8.73807E-19-7.88799E-19
 -1      1330 9.81363E-05-2.93414E-05-2.94716E-05 1.66036E-06-3.86657E-19-1.01480E-18
 -1      1331 9.97703E-05-2.98553E-05-2.99517E-05 1.72712E-06-3.67976E-19-1.49337E-18
 -1      1332 9.82616E-05-2.93104E-05-2.95743E-05 2.84921E-06-7.50021E-19-1.03375E-18
 -1      1333 1.01034E-04-3.02230E-05-3.03460E-05 2.00191E-06-2.97457E-19-1.52488E-18
 -1      1334 1.02974E-04-3.08324E-05-3.09130E-05 2.05942E-06-2.74685E-19-2.14772E-18
 -1      1335 1.00410E-04-2.99812E-05-3.02058E-05 3.59675E-06-5.63366E-19-1.23233E-18
 -1      1336 1.04476E-04-3.12764E-05-3.13756E-05 2.25767E-06-1.25306E-19-2.18107E-18
 -1      1337 1.06634E-04-3.19616E-05-3.20028E-05 2.29762E-06-2.24930E-19-2.56175E-18
 -1      1338 1.03115E-04-3.08291E-05-3.09980E-05 4.17494E-06-4.68820E-19-1.37743E-18
 -1      1339 1.08276E-04-3.24604E-05-3.24995E-05 2.36531E-06-3.15643E-19-2.56564E-18
 -1      1340 1.10497E-04-3.31809E-05-3.31383E-05 2.36841E-06-3.41554E-19-2.88948E-18
 -1      1341 1.06210E-04-3.18290E-05-3.18885E-05 4.51005E-06-4.70514E-19-1.60318E-18
 -1      1342 1.12132E-04-3.37013E-05-3.36171E-05 2.20550E-06-2.09857E-19-2.88596E-18
 -1      1343 1.14135E-04-3.43759E-05-3.41821E-05 2.13918E-06 2.85080E-20-3.14360E-18
 -1      1344 1.09469E-04-3.29416E-05-3.27945E-05 4.42152E-06-3.42661E-19-1.54496E-18
 -1      1345 1.15536E-04-3.48607E-05-3.45666E-05 1.60980E-06 8.73304E-20-3.39095E-18
 -1      1346 1.16872E-04-3.53473E-05-3.49271E-05 1.43166E-06-1.53902E-19-3.44944E-18
 -1      1347 1.12543E-04-3.40855E-05-3.35978E-05 3.62872E-06-1.67633E-19-2.15923E-18
 -1      1348 1.17724E-04-3.57012E-05-3.51200E-05 4.16648E-07-1.51407E-19-3.48849E-18
 -1      1349 1.17801E-04-3.57932E-05-3.51149E-05 9.46634E-08-7.15743E-20-3.80047E-18
 -1      1350 1.14910E-04-3.50938E-05-3.41452E-05 1.81851E-06-2.22029E-19-2.54340E-18
 -1      1351 1.17743E-04-3.58789E-05-3.50230E-05-1.38871E-06 1.29980E-19-3.71302E-18
 -1      1352 1.16010E-04-3.53509E-05-3.45182E-05-1.83330E-06-8.95737E-20-3.64896E-18
 -1      1353 1.15888E-04-3.56750E-05-3.42762E-05-1.15446E-06 2.55433E-21-2.74781E-18
 -1      1354 1.14766E-04-3.50155E-05-3.41031E-05-3.45842E-06 8.02100E-20-3.38480E-18
 -1      1355 1.11091E-04-3.37563E-05-3.30962E-05-3.89033E-06-1.22515E-19-3.14265E-18
 -1      1356 1.14785E-04-3.54224E-05-3.38907E-05-4.92017E-06 6.68097E-20-2.42236E-18
 -1      1357 1.08730E-04-3.29351E-05-3.24354E-05-4.92809E-06-1.28504E-19-2.74290E-18
 -1      1358 1.03867E-04-3.11581E-05-3.11584E-05-5.08658E-06-2.49517E-19-2.77959E-18
 -1      1359 1.11299E-04-3.39982E-05-3.30386E-05-8.23917E-06 1.10445E-20-2.07522E-18
 -1      1360 1.01084E-04-3.00634E-05-3.04663E-05-4.68710E-06-3.82131E-19-3.23201E-18
 -1      1361 9.67731E-05-2.84200E-05-2.93692E-05-4.34265E-06-3.71980E-19-3.49496E-18
 -1      1362 1.06115E-04-3.15485E-05-3.19718E-05-9.15074E-06-5.74070E-19-1.87544E-18
 -1      1363 9.48344E-05-2.76055E-05-2.89229E-05-2.27503E-06-1.64893E-19-3.49713E-18
 -1      1364 9.30446E-05-2.69014E-05-2.84808E-05-1.50456E-06-9.21678E-20-3.71305E-18
 -1      1365 1.01253E-04-2.90903E-05-3.10855E-05-6.20069E-06-3.04363E-19-1.89999E-18
 -1      1366 9.30129E-05-2.68738E-05-2.84830E-05 1.37314E-06-3.81972E-19-4.14921E-18
 -1      1367 9.46900E-05-2.75195E-05-2.89068E-05 2.17313E-06-5.29210E-19-4.77547E-18
 -1      1368 9.91943E-05-2.79896E-05-3.07478E-05-1.18625E-07-7.07273E-19-3.14977E-18
 -1      1369 9.66465E-05-2.83366E-05-2.93605E-05 4.36012E-06-5.42538E-19-5.06653E-18
 -1      1370 1.00984E-04-2.99868E-05-3.04643E-05 4.74058E-06-5.13368E-19-5.62928E-18
 -1      1371 1.01190E-04-2.89971E-05-3.11106E-05 6.13832E-06-1.04016E-18-3.85065E-18
 -1      1372 1.03867E-04-3.11138E-05-3.11839E-05 5.26730E-06-3.07568E-19-5.89747E-18
 -1      1373 1.08909E-04-3.29519E-05-3.25092E-05 5.14185E-06-2.50467E-19-5.99874E-18
 -1      1374 1.06172E-04-3.14918E-05-3.20350E-05 9.38431E-06-6.11991E-19-4.23663E-18
 -1      1375 1.11462E-04-3.38403E-05-3.32203E-05 4.19897E-06 6.11181E-19-5.60577E-18
 -1      1376 1.15432E-04-3.52014E-05-3.43073E-05 3.78307E-06 6.55961E-19-4.77801E-18
 -1      1377 1.11648E-04-3.40428E-05-3.31738E-05 8.74523E-06 4.45242E-19-4.55653E-18
 -1      1378 1.16914E-04-3.56151E-05-3.47905E-05 2.19440E-06 1.18241E-19-4.57197E-18
 -1      1379 1.18990E-04-3.62555E-05-3.53927E-05 1.75014E-06 1.82595E-19-4.36260E-18
 -1      1380 1.15567E-04-3.56343E-05-3.41343E-05 5.58047E-06 7.04017E-19-3.77542E-18
 -1      1381 1.19293E-04-3.62422E-05-3.55602E-05 2.65753E-07-2.97818E-19-4.18606E-18
 -1      1382 1.19560E-04-3.62577E-05-3.56661E-05-6.01943E-08-4.01004E-19-5.05727E-18
 -1      1383 1.17146E-04-3.60531E-05-3.46514E-05 1.84977E-06-1.20001E-19-3.37509E-18
 -1      1384 1.18945E-04-3.59704E-05-3.55491E-05-1.08320E-06 2.37593E-19-4.37999E-18
 -1      1385 1.17947E-04-3.55867E-05-3.52879E-05-1.26293E-06 6.85236E-19-3.91872E-18
 -1      1386 1.16637E-04-3.56168E-05-3.46600E-05-1.13777E-06-2.24067E-20-2.55178E-18
 -1      1387 1.16778E-04-3.51662E-05-3.49776E-05-1.79441E-06 4.65752E-19-4.11577E-18
 -1      1388 1.15111E-04-3.45947E-05-3.45116E-05-1.85952E-06 8.43509E-20-3.56098E-18
 -1      1389 1.14722E-04-3.47391E-05-3.42512E-05-2.96072E-06 6.20584E-19-2.74798E-18
 -1      1390 1.13701E-04-3.41370E-05-3.41049E-05-2.01938E-06-7.44479E-20-3.60058E-18
 -1      1391 1.11824E-04-3.35237E-05-3.35668E-05-2.01340E-06 6.67613E-20-3.95386E-18
 -1      1392 1.12087E-04-3.37219E-05-3.35820E-05-3.75321E-06 1.16186E-20-3.05813E-18
 -1      1393 1.10395E-04-3.30848E-05-3.31383E-05-1.94527E-06 3.29332E-19-3.55811E-18
 -1      1394 1.08589E-04-3.25119E-05-3.26135E-05-1.90324E-06 1.54359E-19-3.21748E-18
 -1      1395 1.09248E-04-3.27338E-05-3.28019E-05-3.83884E-06 2.49439E-19-2.99499E-18
 -1      1396 1.07269E-04-3.21198E-05-3.22100E-05-1.72080E-06 4.26696E-19-2.78099E-18
 -1      1397 1.05676E-04-3.16245E-05-3.17432E-05-1.66533E-06 4.06359E-19-2.49561E-18
 -1      1398 1.06530E-04-3.18523E-05-3.20208E-05-3.52467E-06 4.78026E-19-2.69840E-18
 -1      1399 1.04528E-04-3.12902E-05-3.13885E-05-1.44256E-06 4.30498E-20-2.13356E-18
 -1      1400 1.03197E-04-3.08824E-05-3.09964E-05-1.38625E-06 2.10049E-19-1.70326E-18
 -1      1401 1.04106E-04-3.11035E-05-3.13044E-05-3.03192E-06 5.00027E-19-1.82247E-18
 -1      1402 1.02240E-04-3.06068E-05-3.06988E-05-1.16502E-06-5.84550E-19-1.77512E-18
 -1      1403 1.01169E-04-3.02825E-05-3.03823E-05-1.11393E-06-9.47064E-19-2.73708E-18
 -1      1404 1.02046E-04-3.04879E-05-3.06842E-05-2.49635E-06-2.01763E-19-1.84271E-18
 -1      1405 1.00394E-04-3.00611E-05-3.01409E-05-9.14681E-07-7.54698E-19-3.06763E-18
 -1      1406 9.95581E-05-2.98100E-05-2.98929E-05-8.71135E-07-5.21574E-19-3.93821E-18
 -1      1407 1.00353E-04-2.99941E-05-3.01686E-05-1.99068E-06-1.70068E-18-1.89262E-18
 -1      1408 9.89467E-05-2.96361E-05-2.97022E-05-7.01586E-07-2.86332E-19-4.22913E-18
 -1      1409 9.83084E-05-2.94459E-05-2.95124E-05-6.65901E-07-8.52810E-19-4.80958E-18
 -1      1410 9.90002E-05-2.96060E-05-2.97528E-05-1.54766E-06-1.04941E-18-2.89026E-18
 -1      1411 9.78363E-05-2.93121E-05-2.93651E-05-5.26919E-07-6.46624E-19-4.92451E-18
 -1      1412 9.73596E-05-2.91711E-05-2.92230E-05-4.98477E-07-1.11031E-19-5.45580E-18
 -1      1413 9.79428E-05-2.93066E-05-2.94257E-05-1.17710E-06-1.01572E-18-3.58070E-18
 -1      1414 9.70022E-05-2.90700E-05-2.91116E-05-3.87603E-07 4.62185E-19-4.76186E-18
 -1      1415 9.66537E-05-2.89677E-05-2.90075E-05-3.65422E-07 3.30176E-19-5.01829E-18
 -1      1416 9.71332E-05-2.90798E-05-2.91739E-05-8.76938E-07 2.35833E-19-4.15018E-18
 -1      1417 9.63886E-05-2.88928E-05-2.89248E-05-2.78862E-07-1.84680E-19-4.60974E-18
 -1      1418 9.61396E-05-2.88203E-05-2.88502E-05-2.61884E-07 1.65809E-19-4.40952E-18
 -1      1419 9.65254E-05-2.89111E-05-2.89840E-05-6.39626E-07 3.54012E-19-3.37634E-18
 -1      1420 9.59471E-05-2.87660E-05-2.87903E-05-1.95561E-07-9.84821E-20-4.98918E-18
 -1      1421 9.57740E-05-2.87161E-05-2.87382E-05-1.82790E-07 1.89551E-19-4.58394E-18
 -1      1422 9.60782E-05-2.87882E-05-2.88436E-05-4.55744E-07-2.76105E-20-3.69107E-18
 -1      1423 9.56376E-05-2.86777E-05-2.86957E-05-1.32859E-07 1.05910E-18-4.89146E-18
 -1      1424 9.55212E-05-2.86446E-05-2.86606E-05-1.23419E-07 1.01656E-18-3.44133E-18
 -1      1425 9.57566E-05-2.87007E-05-2.87420E-05-3.15815E-07 3.09737E-19-4.03909E-18
 -1      1426 9.54274E-05-2.86183E-05-2.86314E-05-8.64831E-08 1.36992E-18-2.59115E-18
 -1      1427 9.53528E-05-2.85974E-05-2.86088E-05-7.96329E-08 1.12442E-18-1.45967E-18
 -1      1428 9.55312E-05-2.86401E-05-2.86704E-05-2.11175E-07 1.42657E-18-3.95745E-18
 -1      1429 9.52908E-05-2.85800E-05-2.85895E-05-5.28127E-08-2.01603E-19-1.46368E-18
 -1      1430 9.52463E-05-2.85680E-05-2.85758E-05-4.79421E-08-7.74868E-19-1.75487E-18
 -1      1431 9.53784E-05-2.85997E-05-2.86215E-05-1.34309E-07 1.14858E-18-2.95879E-18
 -1      1432 9.52075E-05-2.85572E-05-2.85638E-05-2.88637E-08-1.20262E-18-9.81121E-19
 -1      1433 9.51843E-05-2.85512E-05-2.85565E-05-2.54818E-08-1.62051E-18-3.60729E-18
 -1      1434 9.52794E-05-2.85741E-05-2.85895E-05-7.89204E-08-1.02850E-18-2.38652E-18
 -1      1435 9.51623E-05-2.85452E-05-2.85497E-05-1.22347E-08-1.54784E-18-4.29852E-18
 -1      1436 9.51538E-05-2.85435E-05-2.85469E-05-9.95391E-09-1.01323E-18-5.26672E-18
 -1      1437 9.52197E-05-2.85593E-05-2.85698E-05-3.98698E-08-2.49702E-18-2.23676E-18
 -1      1438 9.51435E-05-2.85407E-05-2.85437E-05-1.03659E-09 5.54540E-19-5.42640E-18
 -1      1439 9.51447E-05-2.85417E-05-2.85438E-05 4.41143E-10 6.16501E-19-4.36324E-18
 -1      1440 9.51878E-05-2.85519E-05-2.85589E-05-1.30605E-08-2.96892E-19-2.48469E-18
 -1      1441 9.51425E-05-2.85412E-05-2.85431E-05 6.17457E-09 1.43013E-20-3.43905E-18
 -1      1442 9.51498E-05-2.85440E-05-2.85451E-05 7.07087E-09 7.69659E-19-2.29408E-18
 -1      1443 9.51752E-05-2.85498E-05-2.85542E-05 4.68959E-09 1.21396E-18-2.44276E-18
 -1      1444 9.51527E-05-2.85449E-05-2.85460E-05 1.04550E-08 1.59098E-18-2.23591E-18
 -1      1445 9.51637E-05-2.85487E-05-2.85491E-05 1.09243E-08 1.45606E-18 5.22379E-20
 -1      1446 9.51755E-05-2.85511E-05-2.85536E-05 1.57646E-08 2.07985E-18-1.09934E-18
 -1      1447 9.51696E-05-2.85505E-05-2.85509E-05 1.25130E-08 9.91191E-19 6.55335E-19
 -1      1448 9.51821E-05-2.85546E-05-2.85545E-05 1.26461E-08 4.64909E-19 9.11456E-19
 -1      1449 9.51839E-05-2.85545E-05-2.85556E-05 2.18416E-08 1.69449E-18 1.57141E-19
 -1      1450 9.51893E-05-2.85569E-05-2.85567E-05 1.27234E-08-2.90148E-19 1.17458E-18
 -1      1451 9.52017E-05-2.85610E-05-2.85602E-05 1.25405E-08-3.75837E-19 7.33225E-19
 -1      1452 9.51966E-05-2.85591E-05-2.85590E-05 2.39454E-08 3.66785E-19 9.78638E-20
 -1      1453 9.52089E-05-2.85632E-05-2.85623E-05 1.11192E-08 7.25111E-19 4.68728E-19
 -1      1454 9.52193E-05-2.85668E-05-2.85653E-05 1.05455E-08 1.18743E-18 1.34229E-18
 -1      1455 9.52107E-05-2.85642E-05-2.85627E-05 2.24402E-08 2.46183E-19 1.34102E-18
 -1      1456 9.52253E-05-2.85688E-05-2.85669E-05 7.38286E-09 1.25491E-18 1.16470E-18
 -1      1457 9.52319E-05-2.85710E-05-2.85688E-05 6.42906E-09 4.76876E-19 2.56553E-18
 -1      1458 9.52237E-05-2.85692E-05-2.85660E-05 1.71795E-08 1.81543E-18 5.81416E-19
 -1      1459 9.52366E-05-2.85721E-05-2.85703E-05 7.15460E-10-2.18380E-18 1.94864E-18
 -1      1460 9.52349E-05-2.85738E-05-2.85689E-05 6.70765E-09-1.46281E-18-2.03400E-19
 -1      1461 9.83170E-05-2.89013E-05-3.02701E-05 2.44448E-06 1.06514E-18 1.12548E-17
 -1      1462 1.03619E-04-2.97255E-05-3.24736E-05 3.87560E-06 9.52277E-19 1.29212E-17
 -1      1463 1.03612E-04-2.72004E-05-3.30622E-05 1.16616E-05 1.84134E-18 8.74816E-18
 -1      1464 9.48410E-05-2.82681E-05-2.86005E-05 6.04787E-07 7.51742E-19 9.19301E-18
 -1      1465 9.61927E-05-2.82452E-05-2.93312E-05 9.32971E-07 7.72044E-19 1.03928E-17
 -1      1466 9.86427E-05-2.86952E-05-3.01761E-05 3.81811E-06 1.62898E-18 7.15593E-18
 -1      1467 9.41835E-05-2.81837E-05-2.82664E-05-2.83054E-07 5.88688E-19 7.59227E-18
 -1      1468 9.41604E-05-2.80047E-05-2.83436E-05-9.55676E-08 5.40824E-19 8.45469E-18
 -1      1469 9.61898E-05-2.85048E-05-2.90574E-05 7.37102E-07 1.24743E-18 5.73417E-18
 -1      1470 9.50342E-05-2.84692E-05-2.85073E-05-7.83555E-07 4.93612E-19 6.31302E-18
 -1      1471 9.43280E-05-2.81723E-05-2.83113E-05-6.57352E-07 4.78938E-19 7.13313E-18
 -1      1472 9.57754E-05-2.85538E-05-2.88277E-05-7.67452E-07 1.03216E-18 4.66088E-18
 -1      1473 9.67843E-05-2.90054E-05-2.90365E-05-1.10812E-06 3.68648E-19 5.43628E-18
 -1      1474 9.56711E-05-2.86155E-05-2.87075E-05-1.01294E-06 3.50854E-19 5.91193E-18
 -1      1475 9.65780E-05-2.88618E-05-2.90387E-05-1.65329E-06 7.28243E-19 3.93750E-18
 -1      1476 9.91176E-05-2.97162E-05-2.97367E-05-1.32531E-06 7.13609E-20 5.10218E-18
 -1      1477 9.77376E-05-2.92579E-05-2.93296E-05-1.25110E-06 1.07211E-19 5.31242E-18
 -1      1478 9.81506E-05-2.93706E-05-2.94956E-05-2.22908E-06 3.93089E-19 3.62377E-18
 -1      1479 1.01804E-04-3.05389E-05-3.05357E-05-1.44276E-06 2.29118E-19 4.67726E-18
 -1      1480 1.00265E-04-3.00400E-05-3.00849E-05-1.39092E-06 1.57384E-19 4.90989E-18
 -1      1481 1.00216E-04-3.00243E-05-3.00986E-05-2.58857E-06 2.65604E-19 3.24529E-18
 -1      1482 1.04600E-04-3.14048E-05-3.13586E-05-1.43100E-06 3.97691E-19 3.82266E-18
 -1      1483 1.03030E-04-3.09041E-05-3.09032E-05-1.41202E-06 3.47675E-19 4.34127E-18
 -1      1484 1.02550E-04-3.07700E-05-3.07732E-05-2.72451E-06 6.19974E-19 2.71913E-18
 -1      1485 1.07183E-04-3.22208E-05-3.21065E-05-1.23307E-06 3.58593E-19 3.04731E-18
 -1      1486 1.05763E-04-3.17772E-05-3.17014E-05-1.26584E-06 2.51408E-19 3.56626E-18
 -1      1487 1.04907E-04-3.15454E-05-3.14402E-05-2.56489E-06 5.52816E-19 2.08519E-18
 -1      1488 1.09115E-04-3.28549E-05-3.26480E-05-7.78872E-07 6.20981E-20 2.85044E-18
 -1      1489 1.08101E-04-3.25539E-05-3.23685E-05-8.87705E-07 2.06736E-19 3.05285E-18
 -1      1490 1.06978E-04-3.22639E-05-3.20025E-05-1.99675E-06 3.66716E-19 1.87002E-18
 -1      1491 1.09855E-04-3.31344E-05-3.28276E-05-1.86063E-08 1.87280E-19 2.55295E-18
 -1      1492 1.09567E-04-3.30848E-05-3.27639E-05-2.23927E-07 1.28173E-19 2.76102E-18
 -1      1493 1.08372E-04-3.28025E-05-3.23456E-05-9.08813E-07 1.76017E-19 2.42104E-18
 -1      1494 1.08860E-04-3.28713E-05-3.25013E-05 1.01623E-06 6.69685E-21 2.54398E-18
 -1      1495 1.09613E-04-3.31813E-05-3.27360E-05 7.16641E-07 9.67669E-20 2.50176E-18
 -1      1496 1.08645E-04-3.29991E-05-3.23546E-05 7.24980E-07 2.07801E-19 1.93187E-18
 -1      1497 1.05817E-04-3.19328E-05-3.16062E-05 2.13585E-06 1.25411E-19 2.58456E-18
 -1      1498 1.07780E-04-3.26574E-05-3.21721E-05 1.79189E-06-1.69685E-19 2.27783E-18
 -1      1499 1.07422E-04-3.26788E-05-3.19533E-05 2.71992E-06 9.50265E-20 1.63426E-18
 -1      1500 1.00974E-04-3.03617E-05-3.02437E-05 2.95675E-06 4.87967E-19 1.32926E-18
 -1      1501 1.03964E-04-3.14273E-05-3.10733E-05 2.67915E-06 5.67859E-19 2.18982E-18
 -1      1502 1.04596E-04-3.17292E-05-3.11595E-05 4.56951E-06 6.68805E-19 8.12622E-19
 -1      1503 9.53956E-05-2.84919E-05-2.87244E-05 3.00744E-06 6.36532E-20 8.26281E-19
 -1      1504 9.87412E-05-2.96428E-05-2.96253E-05 2.93696E-06 2.59796E-19 1.15122E-18
 -1      1505 1.00595E-04-3.02314E-05-3.01279E-05 5.48779E-06 4.82040E-19 7.68431E-19
 -1      1506 9.08332E-05-2.69315E-05-2.75089E-05 2.01498E-06-2.96905E-19 9.44468E-19
 -1      1507 9.34766E-05-2.77770E-05-2.82037E-05 2.23764E-06-2.71600E-19 5.93241E-19
 -1      1508 9.64914E-05-2.85718E-05-2.91400E-05 4.75265E-06-9.32133E-20 7.75167E-19
 -1      1509 8.90349E-05-2.63162E-05-2.70294E-05 1.97916E-07 8.53141E-19 3.35410E-19
 -1      1510 8.99659E-05-2.65063E-05-2.72679E-05 6.61428E-07 4.27169E-19 8.39820E-19
 -1      1511 9.37340E-05-2.73798E-05-2.85176E-05 2.25221E-06 4.00210E-19-3.60254E-20
 -1      1512 9.07933E-05-2.69356E-05-2.74794E-05-1.72989E-06-2.30366E-19-9.78773E-19
 -1      1513 8.96055E-05-2.63750E-05-2.71638E-05-1.21561E-06 5.53113E-19-1.06461E-19
 -1      1514 9.34726E-05-2.72183E-05-2.84871E-05-1.19887E-06 1.06861E-18-7.36366E-19
 -1      1515 9.54439E-05-2.85308E-05-2.87066E-05-2.98514E-06-4.70699E-20-8.56562E-20
 -1      1516 9.25867E-05-2.74452E-05-2.79472E-05-2.62551E-06-5.07201E-19-6.91391E-19
 -1      1517 9.58659E-05-2.81941E-05-2.90714E-05-4.20748E-06-4.83987E-19-9.51390E-19
 -1      1518 1.01293E-04-3.04802E-05-3.02986E-05-3.20233E-06-2.03443E-19-9.21148E-20
 -1      1519 9.77900E-05-2.92686E-05-2.93510E-05-3.09470E-06-3.18460E-20 1.76712E-19
 -1      1520 9.99850E-05-2.98689E-05-3.00801E-05-5.66878E-06-1.97552E-19-2.18918E-19
 -1      1521 1.06566E-04-3.21721E-05-3.17904E-05-2.55291E-06-1.09995E-19 6.07376E-19
 -1      1522 1.03454E-04-3.11836E-05-3.09268E-05-2.65978E-06-3.71570E-20 1.28908E-19
 -1      1523 1.04393E-04-3.15776E-05-3.12036E-05-5.35637E-06-2.73592E-19 2.20506E-19
 -1      1524 1.10139E-04-3.32594E-05-3.28547E-05-1.49020E-06 2.74909E-19 1.60447E-19
 -1      1525 1.08054E-04-3.26671E-05-3.22552E-05-1.70621E-06 1.42831E-19 5.53827E-19
 -1      1526 1.07885E-04-3.28206E-05-3.21494E-05-3.82083E-06 1.56794E-19 2.25946E-19
 -1      1527 1.11715E-04-3.36876E-05-3.33709E-05-4.39631E-07-1.51387E-19-5.46859E-19
 -1      1528 1.10805E-04-3.34923E-05-3.30918E-05-6.65285E-07 1.02240E-19-5.62178E-19
 -1      1529 1.09871E-04-3.34212E-05-3.27387E-05-1.86979E-06 4.06126E-19-8.06630E-19
 -1      1530 1.11583E-04-3.35845E-05-3.33887E-05 3.61180E-07-5.29144E-19 3.99502E-19
 -1      1531 1.11658E-04-3.36908E-05-3.33906E-05 1.82158E-07-4.42783E-19-2.08891E-19
 -1      1532 1.10342E-04-3.34564E-05-3.29289E-05-1.28796E-07-3.89463E-19-1.39516E-18
 -1      1533 1.10275E-04-3.31350E-05-3.30454E-05 8.53750E-07 1.52828E-19 6.43348E-19
 -1      1534 1.11013E-04-3.34250E-05-3.32441E-05 7.37321E-07 5.90938E-20 8.54061E-19
 -1      1535 1.09626E-04-3.31064E-05-3.27786E-05 1.11060E-06-4.69475E-19-2.65853E-19
 -1      1536 1.08321E-04-3.25080E-05-3.24926E-05 1.08093E-06-1.63523E-19 4.53725E-19
 -1      1537 1.09411E-04-3.28816E-05-3.28008E-05 1.02024E-06 2.36301E-20 6.85812E-19
 -1      1538 1.08153E-04-3.25471E-05-3.23930E-05 1.81825E-06 1.43054E-19 6.26894E-19
 -1      1539 1.06137E-04-3.18284E-05-3.18564E-05 1.12005E-06 1.06896E-19-1.38946E-19
 -1      1540 1.07342E-04-3.22161E-05-3.22041E-05 1.10007E-06-1.45728E-19 7.82976E-20
 -1      1541 1.06309E-04-3.19107E-05-3.18798E-05 2.09636E-06 2.55344E-19-2.55433E-20
 -1      1542 1.04002E-04-3.11754E-05-3.12240E-05 1.04520E-06-6.15832E-19 5.69550E-19
 -1      1543 1.05167E-04-3.15361E-05-3.15644E-05 1.05099E-06-4.56896E-19-1.49581E-19
 -1      1544 1.04381E-04-3.12824E-05-3.13260E-05 2.08233E-06-3.51843E-19 1.37477E-19
 -1      1545 1.02072E-04-3.05923E-05-3.06467E-05 9.12985E-07 2.90618E-19 2.15636E-19
 -1      1546 1.03113E-04-3.09058E-05-3.09534E-05 9.32844E-07 5.92890E-20 6.63750E-19
 -1      1547 1.02555E-04-3.07099E-05-3.07908E-05 1.89832E-06 2.64863E-20 5.72531E-19
 -1      1548 1.00419E-04-3.00971E-05-3.01492E-05 7.61119E-07-9.22877E-20-9.46751E-19
 -1      1549 1.01301E-04-3.03569E-05-3.04105E-05 7.87036E-07 4.46375E-19-7.11025E-19
 -1      1550 1.00933E-04-3.02150E-05-3.03087E-05 1.63444E-06 8.37783E-19-2.25304E-19
 -1      1551 9.90594E-05-2.96921E-05-2.97380E-05 6.12087E-07-1.22547E-18 1.35679E-18
 -1      1552 9.97774E-05-2.98999E-05-2.99516E-05 6.39096E-07-1.05017E-18-2.39343E-19
 -1      1553 9.95556E-05-2.98035E-05-2.98955E-05 1.34948E-06-1.19140E-18 9.93848E-19
 -1      1554 9.79762E-05-2.93711E-05-2.94093E-05 4.77675E-07-2.11937E-19 2.50510E-18
 -1      1555 9.85420E-05-2.95322E-05-2.95782E-05 5.02995E-07-3.52652E-19 1.74730E-18
 -1      1556 9.84276E-05-2.94717E-05-2.95545E-05 1.07770E-06-1.30645E-18 2.05049E-18
 -1      1557 9.71369E-05-2.91233E-05-2.91540E-05 3.62820E-07 1.89517E-19 1.90362E-18
 -1      1558 9.75704E-05-2.92449E-05-2.92838E-05 3.85105E-07 2.54904E-19 1.88909E-18
 -1      1559 9.75304E-05-2.92111E-05-2.92817E-05 8.36446E-07 2.35465E-19 1.46374E-18
 -1      1560 9.65034E-05-2.89370E-05-2.89609E-05 2.68406E-07 8.22371E-20 1.10286E-18
 -1      1561 9.68266E-05-2.90263E-05-2.90580E-05 2.87194E-07 2.53114E-19 1.37452E-18
 -1      1562 9.68351E-05-2.90113E-05-2.90692E-05 6.32334E-07 4.73658E-19 7.71517E-19
 -1      1563 9.60374E-05-2.88004E-05-2.88186E-05 1.93117E-07 1.68644E-18-1.01162E-18
 -1      1564 9.62720E-05-2.88641E-05-2.88892E-05 2.08454E-07 1.03862E-18-9.67375E-20
 -1      1565 9.63095E-05-2.88618E-05-2.89078E-05 4.65678E-07 1.90768E-18-2.27277E-19
 -1      1566 9.57041E-05-2.87031E-05-2.87166E-05 1.34605E-07 4.13829E-19-3.47109E-18
 -1      1567 9.58693E-05-2.87471E-05-2.87665E-05 1.46802E-07 1.02978E-18-1.86160E-18
 -1      1568 9.59220E-05-2.87527E-05-2.87883E-05 3.33442E-07 1.68013E-18-9.74417E-19
 -1      1569 9.54735E-05-2.86361E-05-2.86458E-05 9.01809E-08-8.79713E-19-1.42138E-18
 -1      1570 9.55856E-05-2.86652E-05-2.86798E-05 9.96647E-08-9.84763E-19-3.28433E-18
 -1      1571 9.56441E-05-2.86752E-05-2.87022E-05 2.31079E-07-7.08239E-19-6.87105E-19
 -1      1572 9.53206E-05-2.85919E-05-2.85987E-05 5.72047E-08 7.96740E-19-1.35552E-18
 -1      1573 9.53929E-05-2.86100E-05-2.86208E-05 6.44297E-08 1.66429E-19-1.23937E-18
 -1      1574 9.54510E-05-2.86220E-05-2.86420E-05 1.53626E-07-1.95256E-19-1.12248E-18
 -1      1575 9.52249E-05-2.85645E-05-2.85691E-05 3.32832E-08-1.45206E-19-2.14071E-18
 -1      1576 9.52683E-05-2.85747E-05-2.85825E-05 3.86825E-08 2.88286E-19-1.54870E-18
 -1      1577 9.53222E-05-2.85871E-05-2.86015E-05 9.63109E-08 5.11849E-19-6.74463E-19
 -1      1578 9.51708E-05-2.85492E-05-2.85523E-05 1.63576E-08-5.12166E-19-8.24574E-19
 -1      1579 9.51935E-05-2.85539E-05-2.85594E-05 2.03177E-08-3.56332E-19-1.31194E-18
 -1      1580 9.52411E-05-2.85657E-05-2.85758E-05 5.48644E-08-7.56813E-19-4.60681E-19
 -1      1581 9.51459E-05-2.85425E-05-2.85443E-05 4.72554E-09 7.67238E-19-9.22585E-19
 -1      1582 9.51543E-05-2.85434E-05-2.85471E-05 7.57556E-09 1.51448E-19-4.49753E-19
 -1      1583 9.51946E-05-2.85539E-05-2.85608E-05 2.56454E-08 1.65395E-19-8.29950E-19
 -1      1584 9.51409E-05-2.85415E-05-2.85425E-05-2.97040E-09-1.02740E-18-5.26304E-19
 -1      1585 9.51397E-05-2.85399E-05-2.85424E-05-9.61596E-10-2.35246E-19-8.35818E-19
 -1      1586 9.51726E-05-2.85489E-05-2.85534E-05 5.66865E-09-1.74567E-19-2.45744E-20
 -1      1587 9.51489E-05-2.85443E-05-2.85447E-05-7.76697E-09 1.49177E-18-4.40622E-19
 -1      1588 9.51416E-05-2.85412E-05-2.85427E-05-6.39064E-09 6.26194E-19-1.59202E-19
 -1      1589 9.51673E-05-2.85484E-05-2.85513E-05-7.42092E-09 1.08019E-19 1.80484E-19
 -1      1590 9.51648E-05-2.85493E-05-2.85494E-05-1.04035E-08 5.58826E-19-1.31673E-18
 -1      1591 9.51540E-05-2.85454E-05-2.85463E-05-9.51155E-09 4.02844E-19-1.18131E-18
 -1      1592 9.51729E-05-2.85509E-05-2.85525E-05-1.53897E-08 8.10181E-19 5.44282E-19
 -1      1593 9.51846E-05-2.85555E-05-2.85552E-05-1.13316E-08 1.03557E-18-2.94654E-18
 -1      1594 9.51723E-05-2.85513E-05-2.85516E-05-1.08416E-08 9.79711E-19-1.35236E-18
 -1      1595 9.51850E-05-2.85552E-05-2.85558E-05-1.94489E-08 9.43252E-19-2.62313E-20
 -1      1596 9.52049E-05-2.85619E-05-2.85611E-05-1.07059E-08-4.04633E-19-3.31188E-18
 -1      1597 9.51928E-05-2.85579E-05-2.85576E-05-1.06135E-08-2.19242E-19-3.33670E-18
 -1      1598 9.52000E-05-2.85603E-05-2.85600E-05-2.02637E-08 4.82152E-19 2.90077E-19
 -1      1599 9.52225E-05-2.85675E-05-2.85661E-05-8.34826E-09-2.11097E-19-4.00805E-18
 -1      1600 9.52124E-05-2.85643E-05-2.85633E-05-8.77285E-09 3.50217E-19-3.77771E-18
 -1      1601 9.52151E-05-2.85655E-05-2.85641E-05-1.79420E-08 3.19658E-19-3.75419E-19
 -1      1602 9.52338E-05-2.85713E-05-2.85695E-05-4.11485E-09-1.89211E-20-3.50574E-18
 -1      1603 9.52280E-05-2.85696E-05-2.85677E-05-5.08058E-09-3.35461E-19-4.66269E-18
 -1      1604 9.52279E-05-2.85703E-05-2.85674E-05-1.21832E-08 4.26493E-19-3.06515E-19
 -1      1605 9.52366E-05-2.85722E-05-2.85703E-05-9.06782E-10-1.59464E-18-1.78908E-18
 -1      1606 9.52397E-05-2.85829E-05-2.85671E-05-7.30304E-09 1.72393E-18 2.66953E-18
 -1      1607 9.52375E-05-2.85768E-05-2.85688E-05-6.16312E-09-1.77553E-18 3.52104E-18
 -1      1608 9.52449E-05-2.85978E-05-2.85630E-05-9.96310E-09 3.23382E-18 7.57983E-19
 -1      1609 9.52417E-05-2.85886E-05-2.85655E-05-9.65334E-09 2.08187E-18 7.10496E-19
 -1      1610 9.52396E-05-2.85849E-05-2.85662E-05-1.61356E-08 1.26976E-18 2.79358E-18
 -1      1611 9.52503E-05-2.86140E-05-2.85584E-05-1.03035E-08 2.28679E-18-3.25888E-19
 -1      1612 9.52470E-05-2.86042E-05-2.85612E-05-1.04224E-08 2.67491E-18 8.93534E-19
 -1      1613 9.52446E-05-2.85971E-05-2.85632E-05-1.94182E-08 1.34073E-18 3.76281E-19
 -1      1614 9.52551E-05-2.86291E-05-2.85541E-05-9.12674E-09 3.34619E-18-8.07407E-20
 -1      1615 9.52522E-05-2.86202E-05-2.85566E-05-9.47753E-09 3.14704E-18 2.75405E-19
 -1      1616 9.52492E-05-2.86095E-05-2.85599E-05-1.88974E-08 9.48477E-20-8.55530E-20
 -1      1617 9.52588E-05-2.86412E-05-2.85505E-05-7.15860E-09 1.88151E-18-1.86042E-18
 -1      1618 9.52566E-05-2.86342E-05-2.85525E-05-7.59847E-09 3.16151E-18-1.54409E-18
 -1      1619 9.52529E-05-2.86207E-05-2.85568E-05-1.60165E-08 9.03702E-19-1.59841E-18
 -1      1620 9.52615E-05-2.86499E-05-2.85478E-05-4.79432E-09 1.37222E-18 5.55824E-20
 -1      1621 9.52599E-05-2.86451E-05-2.85492E-05-5.27480E-09 1.70936E-18-3.50196E-19
 -1      1622 9.52558E-05-2.86296E-05-2.85542E-05-1.19285E-08 1.28899E-18-1.90915E-18
 -1      1623 9.52629E-05-2.86548E-05-2.85464E-05-2.31037E-09 1.68849E-18 6.02109E-19
 -1      1624 9.52621E-05-2.86524E-05-2.85471E-05-2.79282E-09 1.33120E-18 4.86985E-19
 -1      1625 9.52577E-05-2.86357E-05-2.85524E-05-7.28962E-09 6.19565E-19 4.57682E-19
 -1      1626 9.52632E-05-2.86557E-05-2.85461E-05 2.03164E-10 5.07729E-18 3.27384E-19
 -1      1627 9.52631E-05-2.86556E-05-2.85461E-05-2.79195E-10 2.87311E-18 2.38600E-18
 -1      1628 9.52587E-05-2.86389E-05-2.85515E-05-2.48994E-09 2.01710E-18 2.00297E-18
 -1      1629 9.52622E-05-2.86525E-05-2.85470E-05 2.73297E-09 3.52525E-18-7.78122E-19
 -1      1630 9.52629E-05-2.86549E-05-2.85463E-05 2.24518E-09 5.56107E-18-1.57932E-18
 -1      1631 9.52587E-05-2.86389E-05-2.85515E-05 2.35375E-09 2.59076E-18-1.90792E-19
 -1      1632 9.52600E-05-2.86453E-05-2.85492E-05 5.25240E-09 3.88789E-18 2.99996E-19
 -1      1633 9.52615E-05-2.86501E-05-2.85478E-05 4.76365E-09 3.46408E-18-5.08960E-19
 -1      1634 9.52578E-05-2.86359E-05-2.85524E-05 7.20267E-09 2.58918E-18-1.12620E-18
 -1      1635 9.52567E-05-2.86345E-05-2.85524E-05 7.59405E-09 2.25107E-18-2.13385E-18
 -1      1636 9.52589E-05-2.86414E-05-2.85504E-05 7.14913E-09 4.00907E-18 1.00256E-19
 -1      1637 9.52559E-05-2.86298E-05-2.85542E-05 1.18866E-08 1.63845E-18-1.50709E-19
 -1      1638 9.52522E-05-2.86203E-05-2.85565E-05 9.53755E-09 1.51271E-19 2.38230E-19
 -1      1639 9.52551E-05-2.86292E-05-2.85540E-05 9.17940E-09 1.65232E-18-1.58621E-18
 -1      1640 9.52530E-05-2.86209E-05-2.85567E-05 1.60623E-08 2.27286E-18-3.05140E-18
 -1      1641 9.52470E-05-2.86043E-05-2.85612E-05 1.05442E-08 3.69988E-19 7.69245E-19
 -1      1642 9.52503E-05-2.86141E-05-2.85584E-05 1.03890E-08-4.07713E-19 1.04091E-18
 -1      1643 9.52492E-05-2.86097E-05-2.85599E-05 1.90268E-08 2.88291E-18-9.69270E-20
 -1      1644 9.52418E-05-2.85888E-05-2.85656E-05 9.65493E-09-6.21848E-19-2.48485E-19
 -1      1645 9.52449E-05-2.85978E-05-2.85630E-05 9.95501E-09 5.43416E-21 1.74070E-19
 -1      1646 9.52445E-05-2.85970E-05-2.85632E-05 1.95560E-08 4.07820E-19-2.26050E-19
 -1      1647 9.52373E-05-2.85778E-05-2.85684E-05 8.52907E-09-2.37995E-18-1.87372E-18
 -1      1648 9.52394E-05-2.85838E-05-2.85667E-05 1.02413E-08-4.84948E-19-1.70530E-18
 -1      1649 9.52394E-05-2.85853E-05-2.85658E-05 1.85442E-08-4.29216E-19-1.16523E-18
 -1      1650 9.52327E-05-2.85758E-05-2.85671E-05 1.60410E-08 9.00889E-20-2.09351E-18
 -1      1651 2.00987E-05-6.65242E-05 1.39308E-05-6.41981E-06 5.75517E-18 2.57456E-18
 -1      1652 2.38727E-05-7.69524E-05 1.60160E-05 1.84377E-06 2.21616E-18 1.83213E-18
 -1      1653 2.14275E-05-3.55891E-05 2.51681E-06 8.27092E-06 7.42170E-18 4.55979E-18
 -1      1654 2.49124E-05-5.89364E-05 9.06393E-06 2.95595E-06 5.75813E-18 3.12354E-18
 -1      1655 4.17298E-05-1.36753E-05-1.33334E-05 3.28898E-05 7.86047E-18 5.86401E-18
 -1      1656 3.43514E-05-3.21310E-05-4.82036E-06 1.58070E-05 7.63177E-18 4.31182E-18
 -1      1657 8.59322E-05-6.00116E-06-3.29902E-05 6.15344E-05 6.82539E-18 6.81607E-18
 -1      1658 5.81906E-05-1.04519E-05-2.23691E-05 3.87019E-05 7.86047E-18 6.13760E-18
 -1      1659 1.48073E-04-1.88004E-05-5.17762E-05 7.75614E-05 4.92592E-18 7.39290E-18
 -1      1660 1.05233E-04-3.93970E-06-4.26131E-05 6.79656E-05 6.93212E-18 7.76221E-18
 -1      1661 2.12236E-04-4.64182E-05-6.59424E-05 5.36998E-05 2.92907E-18 2.87229E-18
 -1      1662 1.71405E-04-2.65333E-05-5.89966E-05 6.64725E-05 4.63136E-18 5.30666E-18
 -1      1663 2.50015E-04-6.28210E-05-7.38597E-05 1.48975E-05 1.68178E-18-1.10390E-18
 -1      1664 2.30087E-04-5.18086E-05-7.11330E-05 4.60555E-05 2.24601E-18 1.88804E-18
 -1      1665 2.37609E-04-5.53145E-05-7.23345E-05-3.76535E-05 3.30131E-18-5.93008E-18
 -1      1666 2.50653E-04-6.28980E-05-7.42223E-05-1.82597E-06 2.12859E-18-2.80490E-18
 -1      1667 1.86187E-04-3.05281E-05-6.26439E-05-7.25403E-05 6.56959E-18-1.08081E-17
 -1      1668 2.26581E-04-5.16914E-05-6.87882E-05-5.46080E-05 4.25965E-18-7.68089E-18
 -1      1669 1.17310E-04-1.05722E-05-4.47685E-05-6.42155E-05 8.60585E-18-1.08624E-17
 -1      1670 1.62808E-04-2.67170E-05-5.44458E-05-7.13993E-05 6.79998E-18-1.04820E-17
 -1      1671 5.93270E-05-7.69151E-06-2.40134E-05-4.11432E-05 1.03186E-17-9.52150E-18
 -1      1672 9.02423E-05-5.47049E-06-3.49576E-05-6.45914E-05 9.55961E-18-1.14815E-17
 -1      1673 3.50918E-05-3.17704E-05-5.37415E-06-1.61487E-05 7.96380E-18-6.23289E-18
 -1      1674 4.38867E-05-1.29081E-05-1.45270E-05-3.49821E-05 9.49524E-18-8.54699E-18
 -1      1675 2.42595E-05-5.80746E-05 8.66485E-06-4.45390E-07 4.31479E-18-3.65488E-18
 -1      1676 2.01933E-05-3.49550E-05 2.41363E-06-5.51154E-06 8.03411E-18-5.91547E-18
 -1      1677 2.31317E-05-7.30079E-05 1.52799E-05-2.97072E-06-3.25769E-18-3.36865E-18
 -1      1678 1.95846E-05-6.13990E-05 1.25998E-05 3.80135E-06 2.46825E-18-3.87496E-18
 -1      1679 2.01871E-05-6.71384E-05 1.42208E-05-6.75201E-06-9.95306E-18-3.97767E-18
 -1      1680 2.33128E-05-7.60073E-05 1.61189E-05 2.34428E-06-5.60476E-18-2.67662E-18
 -1      1681 2.09891E-05-3.90293E-05 3.72330E-06 4.81760E-06-1.23184E-17-5.67216E-18
 -1      1682 2.50286E-05-6.16642E-05 9.90589E-06 8.25117E-07-1.08090E-17-4.31447E-18
 -1      1683 3.61975E-05-1.18025E-05-1.23117E-05 2.88491E-05-1.31197E-17-1.01487E-17
 -1      1684 3.00829E-05-3.29412E-05-3.31463E-06 1.07084E-05-1.32713E-17-7.22265E-18
 -1      1685 7.85558E-05-1.59458E-06-3.19389E-05 6.16301E-05-1.20812E-17-1.26487E-17
 -1      1686 5.21300E-05-7.20544E-06-2.15801E-05 3.75347E-05-1.31409E-17-1.13511E-17
 -1      1687 1.53025E-04-2.05070E-05-5.27404E-05 7.92131E-05-8.13533E-18-1.31773E-17
 -1      1688 1.04057E-04-4.25235E-06-4.21458E-05 6.71400E-05-1.09801E-17-1.33331E-17
 -1      1689 2.22469E-04-5.02572E-05-6.79325E-05 5.50382E-05-4.71018E-18-8.92603E-18
 -1      1690 1.79492E-04-2.88896E-05-6.09211E-05 6.98742E-05-7.06531E-18-1.15171E-17
 -1      1691 2.56063E-04-6.52023E-05-7.50003E-05 9.39217E-06-2.46232E-18-4.02097E-18
 -1      1692 2.38714E-04-5.54014E-05-7.26305E-05 4.26214E-05-3.50968E-18-7.80626E-18
 -1      1693 2.43993E-04-5.84373E-05-7.33860E-05-3.84014E-05-2.13537E-18 7.11931E-19
 -1      1694 2.57983E-04-6.61376E-05-7.52868E-05-6.89377E-06-1.66294E-18-2.28794E-18
 -1      1695 1.92197E-04-3.45853E-05-6.35324E-05-6.56730E-05-4.48663E-18 4.65614E-18
 -1      1696 2.28849E-04-5.30545E-05-6.93167E-05-4.86896E-05-2.97600E-18 1.48061E-18
 -1      1697 1.30362E-04-1.25728E-05-4.88416E-05-7.05159E-05-6.82073E-18 7.76645E-18
 -1      1698 1.71907E-04-2.90352E-05-5.69629E-05-7.37471E-05-5.12455E-18 6.07746E-18
 -1      1699 7.43315E-05-3.20170E-06-3.13992E-05-5.27653E-05-8.52962E-18 8.45424E-18
 -1      1700 1.06572E-04-7.18096E-06-4.05950E-05-7.07664E-05-7.56909E-18 8.96923E-18
 -1      1701 3.96246E-05-1.51485E-05-1.38536E-05-2.49761E-05-7.14557E-18 6.44253E-18
 -1      1702 5.51307E-05-3.56779E-06-2.27024E-05-4.57586E-05-8.22130E-18 8.36191E-18
 -1      1703 2.56732E-05-4.04454E-05 1.10663E-06-4.14739E-06-4.90771E-18 3.71826E-18
 -1      1704 2.68851E-05-1.96608E-05-6.11078E-06-1.68937E-05-6.79659E-18 5.35706E-18
 -1      1705 2.37891E-05-6.56258E-05 1.15632E-05 2.98640E-06-2.56227E-18 9.75200E-19
 -1      1706 1.89655E-05-4.65480E-05 6.86053E-06 2.35200E-06-4.11404E-18 2.74587E-18
 -1      1707 2.39307E-05-7.71780E-05 1.61355E-05-9.25188E-07 1.09627E-18 1.64706E-18
 -1      1708 2.12954E-05-6.98105E-05 1.45782E-05 6.98957E-06-1.78597E-18 1.19601E-18
 -1      1709 1.20575E-04-3.24607E-05-3.67719E-05 4.43889E-05 4.08228E-18 3.82181E-18
 -1      1710 8.18750E-05-3.92041E-05-1.92489E-05 4.10191E-05 3.78200E-18 3.52789E-18
 -1      1711 9.52361E-05-2.85735E-05-2.85694E-05-4.22005E-09-2.18412E-18 1.78536E-18
 -1      1712 9.52349E-05-2.85757E-05-2.85681E-05-1.06377E-08-3.00150E-19 3.32408E-18
 -1      1713 1.96519E-05-4.58947E-05 7.51956E-06 1.74242E-05 2.73422E-18 3.90355E-18
 -1      1714 4.59158E-05-4.18289E-05-3.94588E-06 3.36252E-05 3.28268E-18 3.33644E-18
 -1      1715 1.19348E-05-5.20611E-05 1.23427E-05 9.76508E-07 1.54854E-18 3.38305E-18
 -1      1716 1.62099E-04-3.07501E-05-5.30789E-05 3.75746E-05 4.13289E-18 2.54449E-18
 -1      1717 1.91979E-04-3.13996E-05-6.45189E-05 2.00871E-05 3.52937E-18 3.54060E-19
 -1      1718 2.07960E-04-3.25475E-05-6.98951E-05 2.62705E-06 3.66172E-18-1.81281E-18
 -1      1719 2.00787E-04-3.29833E-05-6.69502E-05-2.19134E-05 5.11523E-18-3.87772E-18
 -1      1720 1.69472E-04-3.30245E-05-5.55395E-05-3.48179E-05 5.44462E-18-5.00766E-18
 -1      1721 1.28446E-04-3.45334E-05-3.88084E-05-4.20444E-05 4.86197E-18-5.57432E-18
 -1      1722 8.40756E-05-3.84153E-05-2.03667E-05-4.15258E-05 4.22669E-18-5.85596E-18
 -1      1723 4.64900E-05-4.18878E-05-4.32244E-06-3.30581E-05 3.12725E-18-5.51657E-18
 -1      1724 2.04740E-05-4.55892E-05 6.94237E-06-1.73608E-05 6.56451E-19-5.87862E-18
 -1      1725 1.16229E-05-4.83533E-05 1.14357E-05-2.52354E-06-2.55825E-18-6.12151E-18
 -1      1726 1.89108E-05-4.69141E-05 8.08665E-06 1.53185E-05-5.62388E-18-5.16669E-18
 -1      1727 4.14456E-05-4.23720E-05-2.52279E-06 2.90507E-05-7.41069E-18-5.14668E-18
 -1      1728 7.41955E-05-3.52290E-05-1.80317E-05 3.93411E-05-8.26619E-18-7.66268E-18
 -1      1729 1.18923E-04-3.06555E-05-3.66612E-05 4.65619E-05-8.16201E-18-8.76764E-18
 -1      1730 1.67114E-04-3.18950E-05-5.43192E-05 3.95478E-05-6.62083E-18-7.78931E-18
 -1      1731 2.00128E-04-3.34407E-05-6.64001E-05 2.09578E-05-5.32254E-18-5.88264E-18
 -1      1732 2.14842E-04-3.50627E-05-7.11068E-05 8.48179E-07-4.23347E-18-3.56109E-18
 -1      1733 2.03598E-04-3.40597E-05-6.74718E-05-1.78156E-05-3.83049E-18-1.21380E-18
 -1      1734 1.76034E-04-3.31133E-05-5.74764E-05-3.35776E-05-4.55063E-18 5.52265E-19
 -1      1735 1.37785E-04-3.16099E-05-4.34411E-05-4.43056E-05-4.35544E-18 2.48774E-18
 -1      1736 9.51131E-05-3.17466E-05-2.72814E-05-4.35583E-05-4.03188E-18 5.39560E-18
 -1      1737 5.88399E-05-3.65370E-05-1.16314E-05-3.45509E-05-3.20941E-18 4.75080E-18
 -1      1738 3.24551E-05-4.36257E-05 1.22354E-06-2.26451E-05-1.33154E-18 3.63936E-18
 -1      1739 1.70051E-05-4.99301E-05 9.57516E-06-1.06016E-05-1.46537E-19 1.91493E-18
 -1      1740 1.06898E-04-2.35357E-05-3.58197E-05-1.57316E-05-1.75696E-18 4.99771E-18
 -1      1741 8.99714E-05-1.06128E-05-3.41409E-05-1.11162E-05-1.85664E-18-3.21828E-18
 -1      1742 9.16193E-05-1.18339E-05-3.43240E-05-1.29596E-05-2.19196E-18-2.63761E-18
 -1      1743 9.38748E-05-1.42871E-05-3.42717E-05-1.39797E-05-2.27201E-18-1.73449E-18
 -1      1744 9.57379E-05-1.63563E-05-3.45020E-05-1.57580E-05-2.56871E-18-5.90858E-19
 -1      1745 9.47361E-05-1.66141E-05-3.34894E-05-1.15485E-05-2.37617E-18-1.99108E-18
 -1      1746 8.54778E-05-6.81660E-06-3.37862E-05-5.99977E-06-7.53208E-19-4.03448E-18
 -1      1747 8.62504E-05-7.27347E-06-3.38992E-05-7.23186E-06-1.03574E-18-3.93117E-18
 -1      1748 8.41730E-05-5.81794E-06-3.36398E-05-3.92479E-06-2.47340E-19-4.07009E-18
 -1      1749 8.47151E-05-6.11877E-06-3.37247E-05-4.99018E-06-4.77058E-19-4.10345E-18
 -1      1750 8.64500E-05-8.57832E-06-3.33986E-05-5.07838E-06-6.81188E-19-3.91943E-18
 -1      1751 8.33627E-05-5.21527E-06-3.35403E-05-2.09947E-06 2.05240E-19-3.91230E-18
 -1      1752 8.36789E-05-5.38406E-06-3.35926E-05-3.04443E-06-4.45685E-21-4.01151E-18
 -1      1753 8.51102E-05-7.45950E-06-3.33022E-05-3.23058E-06-1.35427E-19-3.90945E-18
 -1      1754 8.30356E-05-4.97000E-06-3.34982E-05-4.07802E-07 7.22676E-19-3.73959E-18
 -1      1755 8.31285E-05-5.01714E-06-3.35152E-05-1.29713E-06 5.12349E-19-3.84667E-18
 -1      1756 8.43348E-05-6.83568E-06-3.32362E-05-1.58166E-06 3.52302E-19-3.79013E-18
 -1      1757 8.31849E-05-5.06456E-06-3.35177E-05 1.27206E-06 1.17938E-18-3.64601E-18
 -1      1758 8.30574E-05-4.99422E-06-3.34987E-05 3.75069E-07 9.49824E-19-3.69407E-18
 -1      1759 8.41115E-05-6.66541E-06-3.32134E-05-2.50218E-08 9.12331E-19-3.58786E-18
 -1      1760 8.38008E-05-5.49571E-06-3.35962E-05 3.05966E-06 1.57664E-18-3.44629E-18
 -1      1761 8.34580E-05-5.30682E-06-3.35433E-05 2.09338E-06 1.39767E-18-3.62510E-18
 -1      1762 8.44302E-05-6.93098E-06-3.32372E-05 1.55158E-06 1.35033E-18-3.52463E-18
 -1      1763 8.48545E-05-6.26133E-06-3.37233E-05 5.03233E-06 1.98177E-18-3.02070E-18
 -1      1764 8.43103E-05-5.95363E-06-3.36414E-05 3.95653E-06 1.78823E-18-3.25363E-18
 -1      1765 8.52712E-05-7.62594E-06-3.33012E-05 3.23889E-06 1.81928E-18-3.23093E-18
 -1      1766 8.64099E-05-7.44849E-06-3.38922E-05 7.36189E-06 2.42549E-18-2.32185E-18
 -1      1767 8.56255E-05-6.97803E-06-3.37812E-05 6.07618E-06 2.15519E-18-2.72895E-18
 -1      1768 8.66359E-05-8.78436E-06-3.33919E-05 5.13886E-06 2.24411E-18-2.67651E-18
 -1      1769 8.85842E-05-9.22621E-06-3.40904E-05 1.01016E-05 2.83826E-18-1.32277E-18
 -1      1770 8.74875E-05-8.50558E-06-3.39490E-05 8.55407E-06 2.59158E-18-1.89767E-18
 -1      1771 8.85944E-05-1.05243E-05-3.34857E-05 7.31656E-06 2.66367E-18-1.94714E-18
 -1      1772 9.17666E-05-1.20824E-05-3.42997E-05 1.32169E-05 3.03381E-18 2.74148E-19
 -1      1773 9.01113E-05-1.08323E-05-3.41203E-05 1.13788E-05 2.86031E-18-7.06134E-19
 -1      1774 9.13134E-05-1.30988E-05-3.35374E-05 9.69934E-06 2.97941E-18-8.31548E-19
 -1      1775 9.73039E-05-1.75348E-05-3.43794E-05 1.58903E-05 2.71374E-18 3.28167E-18
 -1      1776 9.42086E-05-1.47584E-05-3.42270E-05 1.42484E-05 2.82147E-18 1.49088E-18
 -1      1777 9.52526E-05-1.71862E-05-3.34453E-05 1.17695E-05 3.01609E-18 8.84832E-19
 -1      1778 1.03263E-04-2.55782E-05-3.37153E-05 1.30345E-05 2.24474E-18 6.83566E-18
 -1      1779 9.95196E-05-2.01520E-05-3.40159E-05 1.53433E-05 2.49511E-18 4.53983E-18
 -1      1780 9.89527E-05-2.23727E-05-3.28897E-05 1.14287E-05 2.78334E-18 3.26899E-18
 -1      1781 1.00471E-04-2.66948E-05-3.18242E-05 8.06208E-06 2.30438E-18 6.07636E-18
 -1      1782 1.01518E-04-2.01163E-05-3.45756E-05-1.73037E-05-2.32562E-18 1.47214E-18
 -1      1783 9.78043E-05-2.79972E-05-2.99381E-05 2.65013E-06 1.77248E-18 4.92290E-18
 -1      1784 9.97658E-05-2.79875E-05-3.07998E-05 5.01742E-06 1.90826E-18 5.57390E-18
 -1      1785 9.95363E-05-2.62102E-05-3.14236E-05 7.08339E-06 2.31600E-18 3.92984E-18
 -1      1786 1.01325E-04-2.30423E-05-3.32733E-05-1.27258E-05-2.46026E-18 6.87526E-19
 -1      1787 9.92738E-05-2.75854E-05-3.06057E-05-3.89400E-06-2.11160E-18 3.62351E-19
 -1      1788 9.79819E-05-2.77428E-05-3.00594E-05-1.99170E-06-1.87041E-18-2.46407E-19
 -1      1789 9.75289E-05-2.80032E-05-2.96978E-05-3.10753E-07-1.69280E-18-3.18908E-19
 -1      1790 9.73721E-05-2.82262E-05-2.95809E-05 7.23488E-07-1.35701E-18-8.04526E-19
 -1      1791 9.81232E-05-2.70737E-05-3.04785E-05-1.92145E-06-2.08842E-18-8.84776E-19
 -1      1792 9.73138E-05-2.83760E-05-2.94833E-05 1.83191E-06-1.02798E-18-8.90635E-19
 -1      1793 9.77650E-05-2.86337E-05-2.95852E-05 2.51679E-06-9.45881E-19-1.16816E-18
 -1      1794 9.77395E-05-2.78656E-05-2.99739E-05 1.26489E-06-1.50822E-18-1.06589E-18
 -1      1795 9.80645E-05-2.88033E-05-2.96491E-05 3.31893E-06-8.11061E-19-1.22088E-18
 -1      1796 9.89489E-05-2.91372E-05-2.98864E-05 3.83441E-06-6.72680E-19-1.33169E-18
 -1      1797 9.80691E-05-2.83802E-05-2.98914E-05 3.43366E-06-9.93075E-19-1.38437E-18
 -1      1798 9.95429E-05-2.93648E-05-3.00575E-05 4.45845E-06-5.20442E-19-1.27857E-18
 -1      1799 1.00751E-04-2.97858E-05-3.03888E-05 4.86593E-06-3.94547E-19-1.33575E-18
 -1      1800 9.90140E-05-2.88890E-05-3.00751E-05 5.05168E-06-6.48384E-19-1.46597E-18
 -1      1801 1.01590E-04-3.00928E-05-3.06316E-05 5.34825E-06-5.28728E-19-1.28439E-18
 -1      1802 1.03038E-04-3.06093E-05-3.10263E-05 5.64015E-06-3.82447E-19-1.36913E-18
 -1      1803 1.00484E-04-2.95149E-05-3.04338E-05 6.30703E-06-4.71147E-19-1.41633E-18
 -1      1804 1.04087E-04-3.10197E-05-3.13102E-05 5.94485E-06-3.32339E-19-1.37987E-18
 -1      1805 1.05681E-04-3.16384E-05-3.17340E-05 6.05432E-06-2.52914E-19-1.24879E-18
 -1      1806 1.02410E-04-3.03474E-05-3.09004E-05 7.20654E-06-3.85152E-19-1.26320E-18
 -1      1807 1.06916E-04-3.21826E-05-3.20275E-05 6.07399E-06-3.51944E-19-1.08379E-18
 -1      1808 1.08518E-04-3.28972E-05-3.24336E-05 5.87446E-06-1.23713E-19-1.15828E-18
 -1      1809 1.04745E-04-3.14816E-05-3.14137E-05 7.60070E-06-2.30676E-19-1.09646E-18
 -1      1810 1.09905E-04-3.35997E-05-3.27027E-05 5.43103E-06-3.15702E-19-1.17441E-18
 -1      1811 1.11304E-04-3.43643E-05-3.30288E-05 4.75052E-06-4.31878E-19-1.35370E-18
 -1      1812 1.07440E-04-3.30083E-05-3.19134E-05 7.18625E-06-4.56844E-19-9.75765E-19
 -1      1813 1.12770E-04-3.52033E-05-3.32433E-05 3.62407E-06-2.90479E-19-1.50165E-18
 -1      1814 1.13663E-04-3.58805E-05-3.34189E-05 2.30784E-06-5.32704E-20-1.69680E-18
 -1      1815 1.10396E-04-3.49415E-05-3.23477E-05 5.53516E-06-3.92980E-19-7.89794E-19
 -1      1816 1.15017E-04-3.67050E-05-3.35659E-05 3.52839E-07-1.16474E-19-1.90003E-18
 -1      1817 1.15044E-04-3.70208E-05-3.35349E-05-1.58381E-06-1.45471E-19-1.99820E-18
 -1      1818 1.13340E-04-3.70416E-05-3.26970E-05 2.23177E-06-3.21681E-19-1.14554E-18
 -1      1819 1.15922E-04-3.74827E-05-3.36351E-05-4.21563E-06 4.13961E-19-1.99206E-18
 -1      1820 1.14789E-04-3.70362E-05-3.33945E-05-6.37772E-06 5.57738E-19-1.56199E-18
 -1      1821 1.15682E-04-3.86184E-05-3.30022E-05-2.75907E-06 1.31283E-19-1.16138E-18
 -1      1822 1.14661E-04-3.66028E-05-3.35031E-05-8.92099E-06 4.29714E-19-1.69571E-18
 -1      1823 1.12393E-04-3.50945E-05-3.31305E-05-1.03765E-05-6.49419E-20-1.36899E-18
 -1      1824 1.16448E-04-3.84605E-05-3.33761E-05-8.54442E-06 4.89893E-19-1.16502E-18
 -1      1825 1.10992E-04-3.34869E-05-3.32926E-05-1.13748E-05-5.59714E-19-1.55474E-18
 -1      1826 1.08259E-04-3.12388E-05-3.29326E-05-1.09637E-05-3.90171E-19-1.52860E-18
 -1      1827 1.14726E-04-3.54819E-05-3.39232E-05-1.27252E-05-4.27320E-19-1.31826E-18
 -1      1828 1.06254E-04-2.91244E-05-3.31225E-05-9.07224E-06-3.03542E-19-1.76413E-18
 -1      1829 1.04351E-04-2.73782E-05-3.29084E-05-6.36403E-06-5.49870E-19-1.82515E-18
 -1      1830 1.10893E-04-3.02228E-05-3.46008E-05-1.20310E-05-4.10229E-19-1.50147E-18
 -1      1831 1.03356E-04-2.63209E-05-3.30090E-05-2.06435E-06-9.66941E-19-2.28011E-18
 -1      1832 1.03302E-04-2.62198E-05-3.30220E-05 1.77764E-06-1.09609E-18-2.60340E-18
 -1      1833 1.07576E-04-2.59055E-05-3.51197E-05-5.13177E-06-1.30733E-18-1.92105E-18
 -1      1834 1.04255E-04-2.71602E-05-3.29646E-05 6.28452E-06-9.44098E-19-2.77194E-18
 -1      1835 1.06215E-04-2.89085E-05-3.31948E-05 9.14740E-06-8.44929E-19-2.59078E-18
 -1      1836 1.07468E-04-2.56189E-05-3.51765E-05 4.92690E-06-1.09630E-18-2.00889E-18
 -1      1837 1.08278E-04-3.10341E-05-3.30336E-05 1.12129E-05-8.92839E-19-2.80087E-18
 -1      1838 1.11101E-04-3.33088E-05-3.34198E-05 1.18021E-05-4.67929E-19-3.04095E-18
 -1      1839 1.10884E-04-2.99448E-05-3.47351E-05 1.22767E-05-8.88524E-19-1.73055E-18
 -1      1840 1.12660E-04-3.49995E-05-3.32770E-05 1.10090E-05-2.60661E-20-2.95290E-18
 -1      1841 1.15116E-04-3.66130E-05-3.36892E-05 9.67670E-06 5.65950E-19-3.26841E-18
 -1      1842 1.14891E-04-3.52333E-05-3.41031E-05 1.34196E-05-5.16048E-19-2.42719E-18
 -1      1843 1.15427E-04-3.71545E-05-3.36101E-05 7.23000E-06 9.94291E-19-3.66163E-18
 -1      1844 1.16797E-04-3.77157E-05-3.39064E-05 5.11128E-06 6.50382E-19-3.37281E-18
 -1      1845 1.16972E-04-3.84610E-05-3.35926E-05 9.55621E-06 6.15254E-19-2.72952E-18
 -1      1846 1.16075E-04-3.73293E-05-3.38440E-05 2.48724E-06 2.88104E-19-2.71955E-18
 -1      1847 1.16286E-04-3.71001E-05-3.39381E-05 5.46581E-07 4.19116E-19-2.50825E-18
 -1      1848 1.16564E-04-3.88551E-05-3.32758E-05 3.86875E-06 9.98917E-19-2.94483E-18
 -1      1849 1.15052E-04-3.63124E-05-3.38323E-05-1.42737E-06 8.05674E-20-1.91738E-18
 -1      1850 1.14388E-04-3.57018E-05-3.37213E-05-2.75377E-06 5.78424E-19-1.78501E-18
 -1      1851 1.14505E-04-3.74115E-05-3.30379E-05-1.14587E-06 5.46409E-19-1.56578E-18
 -1      1852 1.13032E-04-3.48901E-05-3.35475E-05-3.89429E-06 4.64581E-19-2.16305E-18
 -1      1853 1.11854E-04-3.41881E-05-3.32842E-05-4.58028E-06 3.64350E-19-2.27908E-18
 -1      1854 1.11794E-04-3.53762E-05-3.27601E-05-4.48284E-06 3.63387E-19-1.26792E-18
 -1      1855 1.10566E-04-3.35105E-05-3.30520E-05-5.03379E-06 1.72098E-19-2.56887E-18
 -1      1856 1.09175E-04-3.28599E-05-3.27052E-05-5.23514E-06 1.17071E-19-2.73566E-18
 -1      1857 1.09048E-04-3.34953E-05-3.23927E-05-6.16228E-06 1.38862E-19-2.66464E-18
 -1      1858 1.08023E-04-3.23428E-05-3.24400E-05-5.23214E-06 3.13615E-19-2.82833E-18
 -1      1859 1.06625E-04-3.17931E-05-3.20686E-05-5.13326E-06 4.72084E-19-2.77561E-18
 -1      1860 1.06538E-04-3.20250E-05-3.19466E-05-6.60996E-06 4.26033E-19-2.49160E-18
 -1      1861 1.05625E-04-3.14114E-05-3.17972E-05-4.87532E-06 2.82707E-19-2.16074E-18
 -1      1862 1.04339E-04-3.09675E-05-3.14414E-05-4.62332E-06 4.44857E-19-2.21125E-18
 -1      1863 1.04345E-04-3.09635E-05-3.14605E-05-6.29445E-06 7.62790E-19-2.50303E-18
 -1      1864 1.03488E-04-3.06871E-05-3.11841E-05-4.25222E-06 6.43093E-19-2.49014E-18
 -1      1865 1.02369E-04-3.03373E-05-3.08662E-05-3.94436E-06 8.52128E-19-2.38619E-18
 -1      1866 1.02473E-04-3.02226E-05-3.09751E-05-5.58453E-06 4.84124E-19-2.96511E-18
 -1      1867 1.01656E-04-3.01299E-05-3.06354E-05-3.54737E-06 2.96571E-19-2.62982E-18
 -1      1868 1.00721E-04-2.98587E-05-3.03647E-05-3.23985E-06-1.21711E-18-2.45697E-18
 -1      1869 1.00903E-04-2.97092E-05-3.05215E-05-4.72634E-06 1.48486E-19-3.54827E-18
 -1      1870 1.00134E-04-2.97038E-05-3.01661E-05-2.86473E-06-1.91490E-18-2.76137E-18
 -1      1871 9.93762E-05-2.94964E-05-2.99435E-05-2.58581E-06-1.79259E-18-2.89201E-18
 -1      1872 9.96069E-05-2.93515E-05-3.01183E-05-3.86559E-06-1.15732E-18-4.09853E-18
 -1      1873 9.89010E-05-2.93802E-05-2.97780E-05-2.25488E-06-1.43194E-18-2.60704E-18
 -1      1874 9.83012E-05-2.92236E-05-2.96000E-05-2.01582E-06-1.01551E-18-2.86916E-18
 -1      1875 9.85526E-05-2.91001E-05-2.97733E-05-3.07836E-06-1.91618E-18-3.20263E-18
 -1      1876 9.79229E-05-2.91365E-05-2.94657E-05-1.73641E-06-1.16464E-18-2.24278E-18
 -1      1877 9.74584E-05-2.90200E-05-2.93265E-05-1.53908E-06-7.02481E-19-2.06724E-18
 -1      1878 9.77088E-05-2.89220E-05-2.94870E-05-2.39714E-06-9.33108E-19-2.57784E-18
 -1      1879 9.71623E-05-2.89551E-05-2.92199E-05-1.31039E-06-5.56597E-19-2.18487E-18
 -1      1880 9.68096E-05-2.88699E-05-2.91133E-05-1.15188E-06 6.58633E-19-2.47753E-18
 -1      1881 9.70442E-05-2.87959E-05-2.92552E-05-1.82923E-06-7.32059E-19-1.63325E-18
 -1      1882 9.65818E-05-2.88221E-05-2.90304E-05-9.69145E-07 1.27168E-18-2.88106E-18
 -1      1883 9.63192E-05-2.87609E-05-2.89504E-05-8.44575E-07 6.64917E-19-2.14556E-18
 -1      1884 9.65295E-05-2.87071E-05-2.90717E-05-1.36866E-06 8.54881E-19-1.46087E-18
 -1      1885 9.61471E-05-2.87264E-05-2.88872E-05-7.01445E-07-8.86092E-20-1.86216E-18
 -1      1886 9.59557E-05-2.86835E-05-2.88284E-05-6.05373E-07-8.20832E-20-1.87869E-18
 -1      1887 9.61376E-05-2.86456E-05-2.89292E-05-1.00327E-06 5.50023E-19-5.95028E-19
 -1      1888 9.58282E-05-2.86591E-05-2.87811E-05-4.95261E-07-5.73675E-19-2.14409E-18
 -1      1889 9.56920E-05-2.86300E-05-2.87388E-05-4.22453E-07 4.27706E-20-2.52984E-18
 -1      1890 9.58449E-05-2.86041E-05-2.88208E-05-7.18854E-07-2.33915E-19-8.68886E-19
 -1      1891 9.55995E-05-2.86132E-05-2.87042E-05-3.39182E-07 1.66166E-18-2.20628E-18
 -1      1892 9.55054E-05-2.85942E-05-2.86745E-05-2.84952E-07 2.23021E-18-1.82224E-18
 -1      1893 9.56305E-05-2.85770E-05-2.87398E-05-5.01311E-07 1.05389E-18-6.27759E-19
 -1      1894 9.54400E-05-2.85831E-05-2.86498E-05-2.23060E-07 1.94436E-18-2.03276E-18
 -1      1895 9.53773E-05-2.85716E-05-2.86297E-05-1.83391E-07 1.12773E-18-1.51175E-18
 -1      1896 9.54773E-05-2.85605E-05-2.86806E-05-3.37738E-07 1.95735E-18-8.26894E-19
 -1      1897 9.53326E-05-2.85647E-05-2.86125E-05-1.38222E-07-2.73136E-19-1.01438E-18
 -1      1898 9.52931E-05-2.85584E-05-2.85996E-05-1.09774E-07-1.20549E-18-4.92972E-19
 -1      1899 9.53709E-05-2.85515E-05-2.86384E-05-2.16887E-07 5.63514E-19-3.61712E-19
 -1      1900 9.52638E-05-2.85545E-05-2.85881E-05-7.74770E-08-1.87531E-18-5.25104E-19
 -1      1901 9.52410E-05-2.85518E-05-2.85803E-05-5.75397E-08-1.88839E-18-3.27467E-19
 -1      1902 9.52997E-05-2.85476E-05-2.86092E-05-1.29278E-07-1.61803E-18 9.93255E-19
 -1      1903 9.52230E-05-2.85500E-05-2.85730E-05-3.50039E-08-2.04229E-18 5.42819E-19
 -1      1904 9.52119E-05-2.85498E-05-2.85689E-05-2.14342E-08-8.53679E-19-3.95475E-19
 -1      1905 9.52547E-05-2.85472E-05-2.85898E-05-6.71343E-08-1.45276E-18 1.37433E-18
 -1      1906 9.52020E-05-2.85495E-05-2.85646E-05-6.21328E-09 6.56687E-19-8.72228E-19
 -1      1907 9.51990E-05-2.85509E-05-2.85631E-05 2.63602E-09 1.79969E-18 2.74659E-20
 -1      1908 9.52285E-05-2.85491E-05-2.85775E-05-2.42393E-08-4.96972E-19 1.22300E-18
 -1      1909 9.51948E-05-2.85516E-05-2.85609E-05 1.24027E-08 1.95985E-18 5.02686E-19
 -1      1910 9.51969E-05-2.85540E-05-2.85610E-05 1.77429E-08 2.56245E-18 1.39082E-18
 -1      1911 9.52157E-05-2.85524E-05-2.85704E-05 4.23595E-09 2.28644E-18 1.33778E-18
 -1      1912 9.51964E-05-2.85553E-05-2.85602E-05 2.34006E-08 2.23974E-18 4.12542E-19
 -1      1913 9.52017E-05-2.85583E-05-2.85613E-05 2.60523E-08 1.61816E-18 1.30757E-18
 -1      1914 9.52119E-05-2.85567E-05-2.85668E-05 2.18961E-08 1.99466E-18 4.75694E-19
 -1      1915 9.52035E-05-2.85601E-05-2.85614E-05 2.84869E-08 4.09280E-19 8.79344E-19
 -1      1916 9.52103E-05-2.85633E-05-2.85629E-05 2.89005E-08 4.02522E-19 8.55299E-19
 -1      1917 9.52140E-05-2.85616E-05-2.85655E-05 3.12681E-08 1.21085E-18 1.63876E-19
 -1      1918 9.52134E-05-2.85654E-05-2.85634E-05 2.86569E-08 1.48274E-20 6.17902E-19
 -1      1919 9.52202E-05-2.85688E-05-2.85649E-05 2.69110E-08 1.97184E-19 1.20617E-18
 -1      1920 9.52195E-05-2.85670E-05-2.85654E-05 3.39293E-08-2.82605E-19 1.66455E-19
 -1      1921 9.52233E-05-2.85708E-05-2.85654E-05 2.43295E-08 5.56179E-19 1.05201E-19
 -1      1922 9.52292E-05-2.85739E-05-2.85667E-05 2.04841E-08 9.04881E-19-3.74237E-19
 -1      1923 9.52327E-05-2.85777E-05-2.85664E-05 2.35844E-08-2.07679E-19-2.02674E-18
 -1      1924 9.52262E-05-2.85727E-05-2.85658E-05 3.09618E-08-2.28601E-19 5.86226E-20
 -1      1925 9.66306E-05-2.82976E-05-2.92497E-05 5.14598E-09 1.49348E-18 3.86988E-18
 -1      1926 9.72923E-05-2.82591E-05-2.95230E-05 1.17287E-06 1.52809E-18 4.50755E-18
 -1      1927 9.79092E-05-2.77636E-05-3.00737E-05 2.19985E-06 1.90651E-18 3.21525E-18
 -1      1928 9.66805E-05-2.85811E-05-2.91537E-05-1.53522E-06 1.06403E-18 3.17725E-18
 -1      1929 9.65551E-05-2.84345E-05-2.91401E-05-8.43738E-07 1.24512E-18 3.63365E-18
 -1      1930 9.71903E-05-2.82851E-05-2.95442E-05-5.63888E-07 1.52127E-18 2.65737E-18
 -1      1931 9.76070E-05-2.89980E-05-2.93820E-05-2.52526E-06 6.92469E-19 2.73111E-18
 -1      1932 9.69969E-05-2.87504E-05-2.92146E-05-2.06340E-06 7.84065E-19 2.94310E-18
 -1      1933 9.74233E-05-2.86843E-05-2.94765E-05-2.25868E-06 1.07990E-18 2.02594E-18
 -1      1934 9.91367E-05-2.95583E-05-2.98051E-05-3.17863E-06 2.86823E-19 2.44454E-18
 -1      1935 9.82161E-05-2.92296E-05-2.95465E-05-2.85875E-06 4.32986E-19 2.75274E-18
 -1      1936 9.83637E-05-2.91554E-05-2.96781E-05-3.36286E-06 5.74260E-19 1.71619E-18
 -1      1937 1.01060E-04-3.02442E-05-3.03427E-05-3.54613E-06 5.57420E-19 2.05585E-18
 -1      1938 9.99516E-05-2.98548E-05-3.00321E-05-3.35221E-06 3.84050E-19 2.26232E-18
 -1      1939 9.98091E-05-2.97466E-05-3.00425E-05-4.06050E-06 5.06186E-19 1.28364E-18
 -1      1940 1.03180E-04-3.10277E-05-3.09238E-05-3.57920E-06 7.76102E-19 1.79512E-18
 -1      1941 1.02000E-04-3.06016E-05-3.05978E-05-3.53997E-06 6.97783E-19 1.94567E-18
 -1      1942 1.01591E-04-3.04675E-05-3.04942E-05-4.37107E-06 8.06563E-19 1.03207E-18
 -1      1943 1.05268E-04-3.18622E-05-3.14713E-05-3.15997E-06 7.15683E-19 1.42123E-18
 -1      1944 1.04157E-04-3.14351E-05-3.11723E-05-3.33728E-06 7.01184E-19 1.78587E-18
 -1      1945 1.03541E-04-3.13087E-05-3.09653E-05-4.20806E-06 8.27902E-19 1.26379E-18
 -1      1946 1.07037E-04-3.26630E-05-3.18960E-05-2.13733E-06-4.40722E-20 1.64827E-18
 -1      1947 1.06170E-04-3.22925E-05-3.16752E-05-2.60971E-06 2.77655E-19 1.53256E-18
 -1      1948 1.05459E-04-3.22301E-05-3.13863E-05-3.41798E-06 3.94939E-19 1.26521E-18
 -1      1949 1.08130E-04-3.32833E-05-3.21045E-05-4.00964E-07 3.99618E-19 1.82057E-18
 -1      1950 1.07715E-04-3.30568E-05-3.20171E-05-1.22741E-06 2.09985E-19 1.80784E-18
 -1      1951 1.07083E-04-3.31297E-05-3.16872E-05-1.84168E-06 2.46391E-19 1.25308E-18
 -1      1952 1.08157E-04-3.34991E-05-3.20211E-05 1.98599E-06 2.99109E-19 1.29483E-18
 -1      1953 1.08402E-04-3.35317E-05-3.21126E-05 8.32735E-07 3.45675E-19 1.53877E-18
 -1      1954 1.08075E-04-3.38046E-05-3.18097E-05 5.70515E-07 5.28899E-19 8.96762E-19
 -1      1955 1.06808E-04-3.30426E-05-3.16252E-05 4.61427E-06 7.96317E-19 6.23787E-19
 -1      1956 1.07837E-04-3.34458E-05-3.19079E-05 3.33414E-06 4.43614E-19 1.15337E-18
 -1      1957 1.08050E-04-3.39383E-05-3.17281E-05 3.58074E-06 7.34880E-19 5.76714E-19
 -1      1958 1.04058E-04-3.17405E-05-3.09868E-05 6.63172E-06 4.27169E-19 9.22869E-19
 -1      1959 1.05801E-04-3.25442E-05-3.14164E-05 5.64276E-06 6.06833E-19 8.16427E-19
 -1      1960 1.06712E-04-3.31888E-05-3.14700E-05 6.48430E-06 5.87546E-19 8.71233E-19
 -1      1961 1.00437E-04-2.97633E-05-3.02729E-05 6.94484E-06 4.29002E-19 1.15654E-18
 -1      1962 1.02524E-04-3.08107E-05-3.07424E-05 6.77333E-06 2.83839E-19 9.43767E-19
 -1      1963 1.04119E-04-3.14403E-05-3.11198E-05 8.11736E-06 2.66941E-19 1.09008E-18
 -1      1964 9.71142E-05-2.77913E-05-2.97022E-05 4.85664E-06 1.51811E-19 4.52183E-19
 -1      1965 9.89011E-05-2.87115E-05-3.00688E-05 5.81703E-06 2.71805E-19 1.09665E-18
 -1      1966 1.00968E-04-2.91263E-05-3.07931E-05 7.30781E-06 4.90723E-19 8.17969E-19
 -1      1967 9.55045E-05-2.67767E-05-2.94662E-05 7.71406E-07 1.15502E-18-8.70268E-19
 -1      1968 9.62996E-05-2.71405E-05-2.96042E-05 2.64532E-06 6.04649E-19-3.99922E-19
 -1      1969 9.85356E-05-2.72338E-05-3.05922E-05 3.73350E-06 1.18204E-18-4.99842E-19
 -1      1970 9.64591E-05-2.73218E-05-2.96528E-05-3.70975E-06 3.63245E-19-4.39167E-19
 -1      1971 9.58943E-05-2.69287E-05-2.95086E-05-1.68394E-06 1.07319E-18-6.77405E-19
 -1      1972 9.80516E-05-2.67935E-05-3.05791E-05-1.47669E-06 9.16066E-19-6.74672E-19
 -1      1973 9.95978E-05-2.91332E-05-3.02123E-05-6.73592E-06-7.57704E-19-1.07876E-18
 -1      1974 9.78758E-05-2.81812E-05-2.98289E-05-5.37656E-06-3.32732E-19-9.12837E-19
 -1      1975 9.98202E-05-2.80777E-05-3.07648E-05-6.14673E-06 1.13946E-19-6.90888E-19
 -1      1976 1.03601E-04-3.13031E-05-3.09769E-05-7.37582E-06-4.75038E-19-4.01083E-19
 -1      1977 1.01364E-04-3.02199E-05-3.04746E-05-7.06424E-06-5.43100E-19-6.56927E-19
 -1      1978 1.02982E-04-3.03692E-05-3.11108E-05-8.47595E-06-6.09399E-19-7.60960E-19
 -1      1979 1.07076E-04-3.29818E-05-3.17300E-05-5.96107E-06-2.49868E-19-6.56649E-20
 -1      1980 1.05029E-04-3.21348E-05-3.12515E-05-6.53122E-06-5.48434E-19-2.44620E-19
 -1      1981 1.06174E-04-3.25674E-05-3.15275E-05-8.05278E-06-4.86567E-19-8.14588E-19
 -1      1982 1.09222E-04-3.38123E-05-3.22905E-05-3.51400E-06 8.05098E-19-5.75036E-19
 -1      1983 1.07827E-04-3.33576E-05-3.19452E-05-4.52544E-06 2.86039E-19 7.55712E-21
 -1      1984 1.08389E-04-3.39103E-05-3.19061E-05-5.72095E-06 2.78879E-19-5.17319E-20
 -1      1985 1.09902E-04-3.38752E-05-3.25620E-05-1.03144E-06 7.67028E-20-8.23804E-19
 -1      1986 1.09297E-04-3.37830E-05-3.23992E-05-2.06503E-06 6.40132E-19-5.33700E-19
 -1      1987 1.09283E-04-3.42637E-05-3.21482E-05-2.72769E-06 8.82635E-19-7.01904E-19
 -1      1988 1.09397E-04-3.34451E-05-3.25402E-05 9.06047E-07-8.36617E-19-8.89074E-19
 -1      1989 1.09483E-04-3.36029E-05-3.25523E-05 9.15894E-08-5.61689E-19-1.08582E-18
 -1      1990 1.09018E-04-3.38921E-05-3.22002E-05-3.99917E-08-2.92008E-19-5.38243E-19
 -1      1991 1.08113E-04-3.27791E-05-3.22837E-05 2.13208E-06-2.73282E-19-4.57560E-19
 -1      1992 1.08687E-04-3.30738E-05-3.24292E-05 1.60867E-06-7.72305E-19-9.83825E-19
 -1      1993 1.07957E-04-3.31565E-05-3.20624E-05 1.89210E-06-7.43721E-19-4.47938E-19
 -1      1994 1.06422E-04-3.20518E-05-3.18756E-05 2.72470E-06-3.16397E-20-4.60971E-20
 -1      1995 1.07274E-04-3.23991E-05-3.21030E-05 2.46297E-06 5.83758E-20-2.47453E-19
 -1      1996 1.06452E-04-3.23215E-05-3.17746E-05 3.01258E-06-9.61382E-20-7.88235E-19
 -1      1997 1.04606E-04-3.13610E-05-3.13952E-05 2.85445E-06 1.77362E-19 2.35250E-19
 -1      1998 1.05565E-04-3.17076E-05-3.16586E-05 2.78593E-06 6.45706E-19 3.16620E-19
 -1      1999 1.04776E-04-3.15339E-05-3.13926E-05 3.46731E-06 5.82801E-19 3.68090E-19
 -1      2000 1.02849E-04-3.07513E-05-3.09038E-05 2.69374E-06 5.39082E-20-1.53477E-19
 -1      2001 1.03798E-04-3.10680E-05-3.11693E-05 2.74818E-06-3.49528E-19-3.98066E-19
 -1      2002 1.03114E-04-3.08546E-05-3.09701E-05 3.46027E-06 2.28459E-19 3.79849E-19
 -1      2003 1.01258E-04-3.02370E-05-3.04419E-05 2.37928E-06 3.46410E-19 1.82298E-19
 -1      2004 1.02127E-04-3.05108E-05-3.06881E-05 2.50037E-06 1.17959E-19 1.39023E-19
 -1      2005 1.01576E-04-3.02967E-05-3.05496E-05 3.17716E-06 7.22129E-22-1.01268E-19
 -1      2006 9.98846E-05-2.98167E-05-3.00322E-05 2.00542E-06 2.08052E-19 1.70348E-18
 -1      2007 1.00638E-04-3.00442E-05-3.02479E-05 2.15387E-06 5.46349E-19 1.40796E-18
 -1      2008 1.00220E-04-2.98516E-05-3.01590E-05 2.75837E-06 2.04349E-19 2.17564E-18
 -1      2009 9.87395E-05-2.94816E-05-2.96841E-05 1.63053E-06-2.18742E-18 1.30753E-18
 -1      2010 9.93675E-05-2.96650E-05-2.98653E-05 1.78171E-06-1.00317E-18 1.46543E-18
 -1      2011 9.90670E-05-2.95036E-05-2.98143E-05 2.29794E-06-7.76642E-19 2.15422E-18
 -1      2012 9.78127E-05-2.92202E-05-2.93981E-05 1.28676E-06 3.55846E-19 1.91252E-19
 -1      2013 9.83197E-05-2.93641E-05-2.95453E-05 1.42685E-06-1.39437E-18 4.53048E-19
 -1      2014 9.81161E-05-2.92358E-05-2.95216E-05 1.85255E-06-7.15577E-19-1.89363E-19
 -1      2015 9.70816E-05-2.90204E-05-2.91698E-05 9.88868E-07-2.55938E-19 1.00869E-18
 -1      2016 9.74797E-05-2.91306E-05-2.92860E-05 1.11126E-06 4.59353E-19 8.25638E-19
 -1      2017 9.73515E-05-2.90331E-05-2.92808E-05 1.45226E-06 3.53400E-19-5.25940E-19
 -1      2018 9.65184E-05-2.88708E-05-2.89920E-05 7.40884E-07 1.32014E-18 9.05134E-20
 -1      2019 9.68232E-05-2.89534E-05-2.90816E-05 8.43498E-07 6.61492E-19 1.05941E-18
 -1      2020 9.67506E-05-2.88820E-05-2.90881E-05 1.10973E-06 3.61167E-19 6.84172E-19
 -1      2021 9.60945E-05-2.87613E-05-2.88570E-05 5.40784E-07 2.58439E-18 7.42735E-19
 -1      2022 9.63222E-05-2.88216E-05-2.89242E-05 6.24138E-07 1.47180E-18 5.06758E-19
 -1      2023 9.62889E-05-2.87714E-05-2.89375E-05 8.27033E-07 1.53143E-18 7.02397E-19
 -1      2024 9.57831E-05-2.86832E-05-2.87569E-05 3.83473E-07 4.39074E-19 4.36695E-19
 -1      2025 9.59489E-05-2.87260E-05-2.88061E-05 4.49437E-07 1.92078E-18 1.28809E-18
 -1      2026 9.59420E-05-2.86922E-05-2.88226E-05 6.00373E-07 1.76027E-18 3.11158E-18
 -1      2027 9.55606E-05-2.86291E-05-2.86846E-05 2.62644E-07-1.51369E-18-2.70944E-19
 -1      2028 9.56778E-05-2.86585E-05-2.87196E-05 3.13660E-07-1.09307E-18-7.75631E-20
 -1      2029 9.56873E-05-2.86371E-05-2.87370E-05 4.23080E-07-3.06948E-19 1.94881E-18
 -1      2030 9.54065E-05-2.85931E-05-2.86339E-05 1.71857E-07 8.58344E-19-3.73071E-19
 -1      2031 9.54865E-05-2.86125E-05-2.86580E-05 2.10477E-07-6.57509E-20-5.99821E-20
 -1      2032 9.55054E-05-2.85999E-05-2.86748E-05 2.87486E-07-3.49277E-19 4.78221E-19
 -1      2033 9.53043E-05-2.85704E-05-2.85998E-05 1.05130E-07-6.15216E-19 3.97143E-19
 -1      2034 9.53563E-05-2.85824E-05-2.86157E-05 1.33760E-07 3.08796E-19 3.99892E-20
 -1      2035 9.53795E-05-2.85760E-05-2.86309E-05 1.86007E-07-2.32082E-20 3.21466E-19
 -1      2036 9.52404E-05-2.85575E-05-2.85780E-05 5.72223E-08-4.31525E-19-8.74272E-20
 -1      2037 9.52719E-05-2.85641E-05-2.85878E-05 7.79927E-08-1.00663E-18-1.06335E-19
 -1      2038 9.52960E-05-2.85618E-05-2.86011E-05 1.11714E-07-9.69437E-19-4.14211E-21
 -1      2039 9.52043E-05-2.85513E-05-2.85652E-05 2.37352E-08 5.00032E-20-2.32657E-19
 -1      2040 9.52211E-05-2.85542E-05-2.85706E-05 3.84484E-08-3.39033E-20-3.98126E-20
 -1      2041 9.52439E-05-2.85544E-05-2.85818E-05 5.86113E-08-4.71909E-20-6.76866E-19
 -1      2042 9.51877E-05-2.85498E-05-2.85588E-05 1.11370E-09-8.75330E-19 6.74021E-19
 -1      2043 9.51943E-05-2.85502E-05-2.85611E-05 1.12351E-08-9.81388E-21 1.00233E-18
 -1      2044 9.52145E-05-2.85518E-05-2.85702E-05 2.17139E-08-9.80926E-19 1.06095E-18
 -1      2045 9.51845E-05-2.85514E-05-2.85568E-05-1.33980E-08 6.57941E-19 2.26239E-19
 -1      2046 9.51842E-05-2.85501E-05-2.85570E-05-6.72877E-09-5.70763E-19-1.60387E-19
 -1      2047 9.52010E-05-2.85523E-05-2.85641E-05-2.96069E-09 1.72410E-19 9.58351E-19
 -1      2048 9.51898E-05-2.85549E-05-2.85576E-05-2.18134E-08 9.04873E-19 6.41002E-19
 -1      2049 9.51852E-05-2.85526E-05-2.85566E-05-1.77677E-08 1.08745E-18 1.15779E-18
 -1      2050 9.51984E-05-2.85550E-05-2.85617E-05-1.84518E-08 4.66641E-19 6.36094E-19
 -1      2051 9.52000E-05-2.85596E-05-2.85600E-05-2.54469E-08 4.93997E-19 9.14699E-19
 -1      2052 9.51931E-05-2.85568E-05-2.85583E-05-2.35009E-08 6.20110E-19 8.74327E-19
 -1      2053 9.52027E-05-2.85589E-05-2.85618E-05-2.69244E-08 7.64686E-19 1.55658E-18
 -1      2054 9.52122E-05-2.85648E-05-2.85631E-05-2.49350E-08-1.02974E-19 7.49484E-19
 -1      2055 9.52045E-05-2.85618E-05-2.85611E-05-2.48759E-08 3.45797E-19 1.28881E-18
 -1      2056 9.52108E-05-2.85637E-05-2.85632E-05-2.97034E-08 3.30897E-19 1.65109E-18
 -1      2057 9.52239E-05-2.85701E-05-2.85659E-05-2.02524E-08 2.42956E-19 2.43542E-18
 -1      2058 9.52170E-05-2.85672E-05-2.85642E-05-2.22730E-08-2.73468E-19 1.92463E-18
 -1      2059 9.52205E-05-2.85690E-05-2.85650E-05-2.74754E-08-7.61942E-19 3.17968E-18
 -1      2060 9.52323E-05-2.85744E-05-2.85677E-05-1.37991E-08-3.18912E-19 3.31113E-18
 -1      2061 9.52268E-05-2.85718E-05-2.85665E-05-1.78223E-08 5.02468E-19 3.27968E-18
 -1      2062 9.52286E-05-2.85736E-05-2.85664E-05-2.24132E-08-5.04956E-20 5.49116E-18
 -1      2063 9.52344E-05-2.85777E-05-2.85671E-05-1.65395E-08 6.09621E-19 5.13447E-18
 -1      2064 9.52493E-05-2.86056E-05-2.85616E-05-2.33563E-08 4.56717E-19-4.74918E-19
 -1      2065 9.52467E-05-2.85996E-05-2.85630E-05-2.44736E-08 2.41097E-19 6.55351E-19
 -1      2066 9.52446E-05-2.85959E-05-2.85637E-05-2.51049E-08 5.66166E-19-1.09803E-19
 -1      2067 9.52414E-05-2.85896E-05-2.85651E-05-2.44688E-08 1.04792E-18-4.94678E-19
 -1      2068 9.52441E-05-2.85922E-05-2.85652E-05-3.00814E-08-2.98460E-19-1.54869E-20
 -1      2069 9.52396E-05-2.85868E-05-2.85655E-05-2.28168E-08 1.14492E-18 1.57660E-18
 -1      2070 9.52364E-05-2.85811E-05-2.85666E-05-1.98683E-08 1.04537E-18 2.82739E-18
 -1      2071 9.52341E-05-2.85792E-05-2.85665E-05-2.34164E-08 5.46682E-19 3.45160E-18
 -1      2072 9.52392E-05-2.85856E-05-2.85659E-05-2.89286E-08-1.48081E-20 9.17494E-19
 -1      2073 9.52526E-05-2.86134E-05-2.85596E-05-1.92188E-08-5.79263E-19-2.86034E-18
 -1      2074 9.52507E-05-2.86084E-05-2.85609E-05-2.12635E-08 3.88012E-20-8.91687E-19
 -1      2075 9.52486E-05-2.85989E-05-2.85642E-05-2.69682E-08-5.28601E-19-1.47949E-18
 -1      2076 9.52547E-05-2.86193E-05-2.85580E-05-1.37769E-08 6.44649E-19-6.84692E-19
 -1      2077 9.52535E-05-2.86155E-05-2.85590E-05-1.63097E-08 2.41351E-19-1.08064E-18
 -1      2078 9.52514E-05-2.86041E-05-2.85632E-05-2.14378E-08-1.30714E-19-1.56002E-18
 -1      2079 9.52560E-05-2.86230E-05-2.85569E-05-7.84553E-09 1.22853E-18 6.96562E-19
 -1      2080 9.52552E-05-2.86207E-05-2.85575E-05-1.05417E-08 1.06276E-18 4.59299E-19
 -1      2081 9.52530E-05-2.86077E-05-2.85623E-05-1.46665E-08 6.29675E-19-6.37394E-19
 -1      2082 9.52564E-05-2.86245E-05-2.85564E-05-1.77756E-09 8.18671E-19 2.63123E-18
 -1      2083 9.52562E-05-2.86237E-05-2.85567E-05-4.51697E-09 5.12198E-19 2.18171E-18
 -1      2084 9.52538E-05-2.86098E-05-2.85618E-05-7.45806E-09 2.47168E-19 1.38749E-18
 -1      2085 9.52562E-05-2.86238E-05-2.85567E-05 4.33103E-09 8.93792E-19-1.10956E-18
 -1      2086 9.52565E-05-2.86245E-05-2.85564E-05 1.57664E-09 2.34254E-19 1.04724E-18
 -1      2087 9.52540E-05-2.86105E-05-2.85616E-05-1.30518E-10-1.79361E-18 1.56766E-18
 -1      2088 9.52553E-05-2.86209E-05-2.85575E-05 1.04327E-08 1.49941E-18-7.10005E-19
 -1      2089 9.52561E-05-2.86232E-05-2.85569E-05 7.69704E-09 1.39550E-18-5.01876E-19
 -1      2090 9.52539E-05-2.86099E-05-2.85617E-05 7.23993E-09-5.58948E-19-3.13548E-19
 -1      2091 9.52536E-05-2.86159E-05-2.85589E-05 1.62189E-08 1.00886E-18-6.70834E-19
 -1      2092 9.52549E-05-2.86196E-05-2.85579E-05 1.36795E-08 1.76804E-18 5.17045E-19
 -1      2093 9.52531E-05-2.86079E-05-2.85623E-05 1.45015E-08 8.33288E-19 4.18767E-19
 -1      2094 9.52508E-05-2.86087E-05-2.85608E-05 2.13284E-08 3.02915E-18-1.92338E-18
 -1      2095 9.52527E-05-2.86137E-05-2.85595E-05 1.92036E-08 1.99579E-18-1.88422E-18
 -1      2096 9.52516E-05-2.86044E-05-2.85631E-05 2.13662E-08 1.84090E-18-9.81379E-19
 -1      2097 9.52468E-05-2.85997E-05-2.85630E-05 2.46436E-08 2.94672E-18-2.00433E-19
 -1      2098 9.52494E-05-2.86057E-05-2.85615E-05 2.35080E-08 3.79823E-18-1.01920E-18
 -1      2099 9.52487E-05-2.85992E-05-2.85641E-05 2.70996E-08 3.02536E-18-4.74840E-19
 -1      2100 9.52412E-05-2.85896E-05-2.85650E-05 2.49434E-08-1.28534E-19-1.52975E-18
 -1      2101 9.52447E-05-2.85961E-05-2.85637E-05 2.53146E-08 1.11911E-18-9.22809E-19
 -1      2102 9.52443E-05-2.85923E-05-2.85651E-05 3.02893E-08 1.53659E-18-2.30128E-18
 -1      2103 6.42218E-05-4.10389E-05-1.00804E-05 4.28646E-05 1.47977E-18 1.53477E-18
 -1      2104 4.71235E-05-3.99705E-05-3.80286E-06 3.57296E-05 1.03126E-18 2.32362E-18
 -1      2105 1.23718E-05-3.35641E-05 7.79227E-06 5.97007E-06 1.44324E-18 3.41524E-18
 -1      2106 1.20655E-05-3.37876E-05 7.94916E-06-3.02406E-06 9.11407E-19 3.10311E-18
 -1      2107 2.64510E-05-3.20096E-05 1.74790E-06 2.79412E-05 1.70423E-18 3.41291E-18
 -1      2108 1.79978E-05-3.58102E-05 6.11642E-06 1.62302E-05 1.34615E-18 3.16409E-18
 -1      2109 1.78002E-05-2.45189E-05 2.37894E-06 1.42670E-05 7.19660E-19 3.60624E-18
 -1      2110 1.03968E-04-4.62233E-05-2.45425E-05 4.13492E-05 1.86728E-18 2.39541E-18
 -1      2111 8.47051E-05-4.74089E-05-1.66699E-05 3.91539E-05 1.60640E-18 1.72519E-18
 -1      2112 1.38437E-04-4.14341E-05-4.08921E-05 3.34823E-05 2.87568E-18 1.52678E-18
 -1      2113 1.19048E-04-4.47066E-05-3.23927E-05 3.20903E-05 2.70415E-18 1.84399E-18
 -1      2114 8.73332E-05-8.30753E-06-3.39612E-05-8.37601E-06-1.34402E-18-3.78073E-18
 -1      2115 8.84098E-05-9.01556E-06-3.41040E-05-9.89883E-06-1.67848E-18-3.49518E-18
 -1      2116 9.10589E-05-1.28557E-05-3.35789E-05-9.56677E-06-1.87112E-18-3.12048E-18
 -1      2117 8.83860E-05-1.02587E-05-3.35014E-05-7.19323E-06-1.27954E-18-3.65243E-18
 -1      2118 1.75566E-04-2.57898E-05-6.30450E-05 5.89650E-06 3.66765E-18-3.87941E-19
 -1      2119 1.62840E-04-2.58047E-05-5.85501E-05 8.64437E-06 3.43874E-18 5.50571E-20
 -1      2120 1.76682E-04-2.15013E-05-6.55444E-05-2.37687E-06 4.07042E-18-2.01938E-18
 -1      2121 1.76834E-04-2.28489E-05-6.51475E-05 4.05150E-06 3.98783E-18-8.25857E-19
 -1      2122 1.55058E-04-1.44565E-05-5.93580E-05-2.54792E-06 4.22415E-18-4.98055E-19
 -1      2123 1.73912E-04-2.78171E-05-6.15689E-05-1.44082E-05 4.87340E-18-2.46571E-18
 -1      2124 1.78993E-04-2.54186E-05-6.47380E-05-5.79639E-06 4.22754E-18-1.69237E-18
 -1      2125 1.52090E-04-3.52116E-05-4.97628E-05-1.97946E-05 3.96928E-18-1.69872E-18
 -1      2126 1.69901E-04-3.29811E-05-5.70755E-05-2.00825E-05 4.80924E-18-2.27259E-18
 -1      2127 1.58672E-04-2.65951E-05-5.57184E-05-2.12379E-06 4.07359E-18-2.46487E-19
 -1      2128 1.20955E-04-4.47613E-05-3.30738E-05-3.25356E-05 2.71199E-18-2.75540E-18
 -1      2129 1.41052E-04-4.33354E-05-4.15764E-05-2.83857E-05 2.58705E-18-1.94182E-18
 -1      2130 8.83471E-05-4.82782E-05-1.77627E-05-3.88031E-05 7.66988E-19-3.06224E-18
 -1      2131 1.07824E-04-4.67472E-05-2.59695E-05-4.11450E-05 1.99942E-18-3.36569E-18
 -1      2132 4.61693E-05-4.14382E-05-3.17668E-06-3.46757E-05 4.30293E-19-4.45444E-18
 -1      2133 6.34244E-05-4.08551E-05-9.97413E-06-4.28349E-05 9.85523E-19-3.89262E-18
 -1      2134 2.16615E-05-3.41907E-05 4.35859E-06-2.11295E-05-1.13164E-18-5.96904E-18
 -1      2135 3.15114E-05-3.53683E-05 8.99644E-07-3.03115E-05 5.15420E-19-5.38840E-18
 -1      2136 4.71069E-05-3.59849E-05-4.90763E-06-3.85228E-05-1.20363E-18-4.59325E-18
 -1      2137 1.21469E-05-3.45654E-05 8.13496E-06 3.79608E-06-2.50743E-18-5.91398E-18
 -1      2138 1.18943E-05-3.19425E-05 7.41842E-06-7.21051E-06-6.59098E-19-6.37943E-18
 -1      2139 2.65639E-05-3.32399E-05 2.20643E-06 2.65346E-05-3.36103E-18-4.41791E-18
 -1      2140 1.81533E-05-3.49839E-05 5.91686E-06 1.48569E-05-2.38927E-18-5.21306E-18
 -1      2141 5.95904E-05-4.09168E-05-8.54269E-06 3.98196E-05-5.31428E-18-4.17288E-18
 -1      2142 4.39879E-05-4.13370E-05-2.27998E-06 3.32953E-05-4.23093E-18-3.55299E-18
 -1      2143 9.78791E-05-4.29708E-05-2.35414E-05 4.23897E-05-5.78142E-18-5.78651E-18
 -1      2144 7.82792E-05-4.53301E-05-1.52484E-05 3.76470E-05-5.25584E-18-5.20184E-18
 -1      2145 1.38822E-04-4.34695E-05-4.03790E-05 3.39897E-05-5.40068E-18-5.95252E-18
 -1      2146 1.16537E-04-4.47530E-05-3.14316E-05 3.35317E-05-5.62303E-18-5.53875E-18
 -1      2147 1.65509E-04-3.69181E-05-5.45152E-05 1.63922E-05-5.28485E-18-4.37704E-18
 -1      2148 1.49383E-04-3.87906E-05-4.73633E-05 2.27456E-05-5.30645E-18-5.37019E-18
 -1      2149 1.78661E-04-2.64458E-05-6.42550E-05 4.76857E-06-4.85138E-18-4.29425E-18
 -1      2150 1.68583E-04-2.73540E-05-6.01517E-05 9.81145E-06-5.34626E-18-4.93990E-18
 -1      2151 1.77856E-04-2.31337E-05-6.55839E-05-2.42553E-06-4.31352E-18-3.67443E-18
 -1      2152 1.75949E-04-2.20564E-05-6.53520E-05 3.27756E-06-4.67266E-18-4.70040E-18
 -1      2153 1.69015E-04-2.53604E-05-6.12380E-05-6.71011E-06-4.11827E-18-2.65799E-18
 -1      2154 1.78773E-04-2.56469E-05-6.46298E-05-2.80111E-06-4.07635E-18-3.52747E-18
 -1      2155 1.54036E-04-1.28856E-05-5.95042E-05 3.11334E-06-4.65275E-18-4.57673E-18
 -1      2156 1.56420E-04-3.63375E-05-5.13200E-05-1.84520E-05-3.31245E-18-1.72329E-18
 -1      2157 1.69177E-04-3.42155E-05-5.71168E-05-1.29285E-05-3.36357E-18-2.17095E-18
 -1      2158 1.31009E-04-4.30336E-05-3.80560E-05-3.00303E-05-2.32680E-18-1.11385E-19
 -1      2159 1.49264E-04-4.23379E-05-4.52902E-05-2.75148E-05-2.83608E-18-1.52932E-18
 -1      2160 9.65678E-05-4.37748E-05-2.35922E-05-3.69208E-05-1.42598E-18 2.84984E-18
 -1      2161 1.16307E-04-4.24494E-05-3.14159E-05-3.96369E-05-1.74743E-18 1.84357E-18
 -1      2162 6.44988E-05-4.40677E-05-1.00453E-05-3.63128E-05-5.78524E-19 3.05440E-18
 -1      2163 8.11242E-05-4.21950E-05-1.68974E-05-4.16054E-05-1.37135E-18 3.77904E-18
 -1      2164 3.49117E-05-4.05318E-05 8.26440E-07-2.78902E-05 3.87518E-19 2.87949E-18
 -1      2165 4.67790E-05-3.85292E-05-4.31929E-06-3.51725E-05-3.64648E-19 3.81827E-18
 -1      2166 1.63026E-05-3.67716E-05 7.17501E-06-1.32940E-05 9.48253E-19 2.40134E-18
 -1      2167 2.25010E-05-3.57351E-05 4.47670E-06-2.13064E-05 3.87094E-19 1.49988E-18
 -1      2168 1.60380E-04-3.55564E-05-5.31289E-05 1.55838E-05 3.30608E-18-8.25857E-20
 -1      2169 1.47224E-04-3.75154E-05-4.68536E-05 2.38612E-05 3.30269E-18 1.00119E-18
 -1      2170 1.46018E-04-4.66256E-05-4.19554E-05 1.32073E-05 2.10615E-18-7.08543E-19
 -1      2171 9.91140E-05-2.48872E-05-3.18753E-05-8.23576E-06-2.35735E-18 1.26605E-19
 -1      2172 1.54480E-04-3.01227E-05-5.26877E-05 3.69288E-07 3.29623E-18-5.38289E-19
 -1      2173 9.82111E-05-2.35642E-05-3.20625E-05-8.16062E-06-2.53403E-18-8.70088E-19
 -1      2174 4.40803E-05-3.41096E-05-4.31704E-06 3.67267E-05-1.69407E-20 2.43416E-18
 -1      2175 8.59989E-05-4.98686E-05-1.55408E-05 4.21368E-05 6.26804E-20 9.83180E-19
 -1      2176 9.52387E-05-2.85849E-05-2.85660E-05 2.50073E-08-2.87189E-19-1.30384E-18
 -1      2177 1.63026E-05-2.56708E-05 3.29926E-06-1.05091E-05 1.38299E-18 2.80114E-18
 -1      2178 1.23141E-04-5.51136E-05-2.90218E-05 3.00828E-05 6.48615E-19 4.96361E-19
 -1      2179 3.45333E-05-3.40688E-05-8.72647E-07-3.10882E-05 1.02533E-18 2.76916E-18
 -1      2180 6.70251E-05-4.51803E-05-9.73573E-06-4.10617E-05 8.08069E-19 3.27315E-18
 -1      2181 1.02528E-04-5.30539E-05-2.13016E-05-3.79479E-05 3.79471E-19 1.34212E-18
 -1      2182 1.33419E-04-5.30183E-05-3.40312E-05-2.56274E-05-1.57125E-19-1.99434E-18
 -1      2183 1.57680E-04-2.65352E-05-5.54308E-05 2.77015E-06-3.61831E-18-3.93574E-18
 -1      2184 1.56355E-04-1.48335E-05-5.96860E-05-1.80490E-06-4.87425E-18-3.69645E-18
 -1      2185 1.57604E-04-3.08952E-05-5.34850E-05-7.92978E-07-4.61421E-18-3.16579E-18
 -1      2186 1.47928E-04-4.90135E-05-4.17355E-05 1.33560E-05-3.75294E-18-2.60632E-18
 -1      2187 1.20883E-04-5.50968E-05-2.79932E-05 3.25375E-05-3.26701E-18-3.71826E-18
 -1      2188 8.16938E-05-4.93752E-05-1.41332E-05 4.17002E-05-2.90321E-18-3.83457E-18
 -1      2189 4.24390E-05-3.55167E-05-3.36104E-06 3.46903E-05-1.58395E-18-4.06343E-18
 -1      2190 2.06376E-05-2.62843E-05 1.98040E-06-1.74433E-05-1.06874E-18-6.54036E-18
 -1      2191 8.75246E-05-5.04569E-05-1.57858E-05-4.22483E-05-1.11173E-18-2.41645E-18
 -1      2192 1.47327E-04-4.32151E-05-4.43684E-05-1.64802E-05 2.28942E-18-7.51318E-19
 -1      2193 1.48345E-04-4.17410E-05-4.61980E-05-2.44496E-06 1.74902E-18 1.05879E-18
 -1      2194 1.42023E-04-5.03237E-05-3.89160E-05-1.19772E-05 6.41257E-19 7.53012E-19
 -1      2195 1.59827E-04-1.50786E-05-6.10174E-05-3.90257E-07 4.02425E-18-5.08961E-19
 -1      2196 1.24850E-04-5.57393E-05-2.95667E-05-2.95078E-05 4.65868E-21-8.58680E-19
 -1      2197 1.77624E-05-2.48562E-05 2.54645E-06 1.24583E-05-8.72762E-19-6.08508E-18
 -1      2198 1.52512E-04-4.40811E-05-4.57853E-05-8.39127E-06-1.84427E-18-3.12555E-18
 -1      2199 9.77607E-05-2.69171E-05-3.03384E-05 1.87823E-06 1.90111E-18 1.71985E-18
 -1      2200 9.83416E-05-2.63379E-05-3.07851E-05 3.82559E-06 2.15713E-18 2.03633E-18
 -1      2201 8.57840E-05-9.00604E-06-3.29445E-05-2.38707E-06 3.97737E-20-3.66608E-18
 -1      2202 8.63349E-05-9.44506E-06-3.29826E-05-3.21383E-06-2.81316E-19-3.72625E-18
 -1      2203 8.70951E-05-1.02047E-05-3.30016E-05-3.90043E-06-5.03899E-19-3.71687E-18
 -1      2204 8.79384E-05-1.09160E-05-3.30466E-05-4.83899E-06-8.21725E-19-3.66775E-18
 -1      2205 8.77804E-05-1.15947E-05-3.26434E-05-2.99202E-06-3.70643E-19-3.50485E-18
 -1      2206 8.49883E-05-8.29173E-06-3.28987E-05 3.19105E-07 1.03147E-18-3.37849E-18
 -1      2207 8.49592E-05-8.26706E-06-3.28985E-05-4.24468E-07 7.33933E-19-3.45908E-18
 -1      2208 8.54883E-05-8.72457E-06-3.29260E-05 1.69859E-06 1.49429E-18-3.33874E-18
 -1      2209 8.51773E-05-8.47950E-06-3.29050E-05 9.18614E-07 1.24307E-18-3.38533E-18
 -1      2210 8.60247E-05-9.97284E-06-3.25891E-05 4.82850E-07 1.06057E-18-3.21082E-18
 -1      2211 8.65410E-05-9.66214E-06-3.29774E-05 3.18979E-06 1.97352E-18-2.96610E-18
 -1      2212 8.59698E-05-9.20085E-06-3.29416E-05 2.34277E-06 1.67694E-18-3.22837E-18
 -1      2213 8.67279E-05-1.06316E-05-3.26081E-05 1.66087E-06 1.53926E-18-3.03137E-18
 -1      2214 8.81720E-05-1.11797E-05-3.30338E-05 4.89929E-06 2.38806E-18-2.41650E-18
 -1      2215 8.73209E-05-1.04523E-05-3.29924E-05 3.92596E-06 2.16520E-18-2.71340E-18
 -1      2216 8.80337E-05-1.18786E-05-3.26325E-05 2.96670E-06 1.99016E-18-2.64791E-18
 -1      2217 9.03967E-05-1.33932E-05-3.30573E-05 6.78420E-06 2.78626E-18-1.61982E-18
 -1      2218 8.92492E-05-1.23187E-05-3.30288E-05 5.70478E-06 2.50570E-18-2.07934E-18
 -1      2219 8.99348E-05-1.37731E-05-3.26316E-05 4.41362E-06 2.36563E-18-2.06529E-18
 -1      2220 9.33099E-05-1.65577E-05-3.29862E-05 8.63892E-06 3.01419E-18-6.27473E-19
 -1      2221 9.17997E-05-1.49644E-05-3.29955E-05 7.55788E-06 2.83599E-18-1.19013E-18
 -1      2222 9.23992E-05-1.64074E-05-3.25471E-05 5.86044E-06 2.63542E-18-1.26862E-18
 -1      2223 5.71410E-05-3.40148E-05-9.69173E-06 3.97426E-05-1.57167E-18 5.73230E-19
 -1      2224 3.89130E-05-2.62861E-05-4.94360E-06 3.10124E-05-8.31363E-19 2.04940E-18
 -1      2225 9.75360E-05-2.77924E-05-2.98627E-05-9.59171E-07 1.61169E-18 1.29071E-18
 -1      2226 9.76548E-05-2.74615E-05-3.00109E-05 2.09809E-07 1.71747E-18 1.60909E-18
 -1      2227 9.75620E-05-2.61613E-05-3.06153E-05 1.51746E-06 2.04692E-18 5.77723E-19
 -1      2228 9.78847E-05-2.52913E-05-3.10613E-05-3.42695E-06-2.08065E-18-1.20591E-18
 -1      2229 9.75817E-05-2.60648E-05-3.06518E-05-1.27867E-06-1.81660E-18-1.25022E-18
 -1      2230 1.43351E-04-2.48269E-05-5.14552E-05-7.99996E-06 2.92650E-18-6.57403E-19
 -1      2231 1.43429E-04-3.49586E-05-4.68514E-05-5.19118E-06 2.59774E-18-8.63974E-19
 -1      2232 9.76561E-05-2.67096E-05-3.03501E-05 4.05596E-07-1.59390E-18-1.11712E-18
 -1      2233 9.76468E-05-2.71361E-05-3.02030E-05 1.80242E-06-1.29443E-18-1.35754E-18
 -1      2234 9.71249E-05-2.51749E-05-3.08457E-05-7.47494E-07-1.71000E-18-1.50530E-18
 -1      2235 9.77127E-05-2.74663E-05-3.00685E-05 3.07889E-06-1.21586E-18-1.23129E-18
 -1      2236 9.80252E-05-2.77913E-05-3.00816E-05 4.08788E-06-9.77110E-19-1.38282E-18
 -1      2237 9.72762E-05-2.64365E-05-3.03777E-05 2.43716E-06-1.26041E-18-1.36814E-18
 -1      2238 9.82182E-05-2.80260E-05-3.00600E-05 5.09004E-06-7.42901E-19-1.36211E-18
 -1      2239 9.88160E-05-2.83598E-05-3.01776E-05 5.86820E-06-5.07008E-19-1.44111E-18
 -1      2240 9.75711E-05-2.71856E-05-3.01832E-05 4.88334E-06-9.34697E-19-1.25718E-18
 -1      2241 9.91773E-05-2.86092E-05-3.02292E-05 6.67736E-06-3.76312E-19-1.53327E-18
 -1      2242 1.00021E-04-2.90218E-05-3.04139E-05 7.27498E-06-3.54994E-19-1.51911E-18
 -1      2243 9.81550E-05-2.78009E-05-3.01686E-05 6.82568E-06-6.04826E-19-1.41751E-18
 -1      2244 1.00586E-04-2.93741E-05-3.05076E-05 7.90561E-06-3.32865E-19-1.45075E-18
 -1      2245 1.01649E-04-2.99333E-05-3.07285E-05 8.29212E-06-9.40674E-20-1.29319E-18
 -1      2246 9.91018E-05-2.85276E-05-3.02632E-05 8.37322E-06-3.50880E-19-1.42893E-18
 -1      2247 1.02478E-04-3.04868E-05-3.08390E-05 8.68693E-06-4.42970E-20-1.27104E-18
 -1      2248 1.03743E-04-3.12675E-05-3.10670E-05 8.75500E-06-1.28467E-19-1.42315E-18
 -1      2249 1.00508E-04-2.95981E-05-3.04110E-05 9.49535E-06-4.95936E-21-1.45782E-18
 -1      2250 1.04935E-04-3.21349E-05-3.11774E-05 8.77405E-06-2.92493E-19-1.34546E-18
 -1      2251 1.06373E-04-3.31998E-05-3.13862E-05 8.34277E-06-4.28463E-19-1.19038E-18
 -1      2252 1.02536E-04-3.12716E-05-3.05715E-05 1.00096E-05-1.91868E-19-1.53881E-18
 -1      2253 1.08049E-04-3.44721E-05-3.14974E-05 7.75391E-06-3.86174E-19-9.37926E-19
 -1      2254 1.09584E-04-3.58043E-05-3.16730E-05 6.59798E-06-2.40339E-19-9.16051E-19
 -1      2255 1.05409E-04-3.37964E-05-3.07340E-05 9.55980E-06-2.02675E-19-1.15287E-18
 -1      2256 1.11806E-04-3.74379E-05-3.18239E-05 5.08626E-06-1.43251E-19-6.03286E-19
 -1      2257 1.13222E-04-3.87797E-05-3.19818E-05 3.03398E-06-4.66331E-20-3.95841E-19
 -1      2258 1.09328E-04-3.72440E-05-3.09489E-05 7.61430E-06-8.99708E-20-2.79812E-19
 -1      2259 1.15773E-04-4.03831E-05-3.22666E-05 3.70655E-07-8.49250E-20-2.81668E-19
 -1      2260 1.16664E-04-4.11264E-05-3.24644E-05-2.46222E-06 3.77737E-19-1.53344E-19
 -1      2261 1.14180E-04-4.10966E-05-3.13778E-05 3.53401E-06-1.45981E-20 3.98048E-19
 -1      2262 1.18828E-04-4.17918E-05-3.30312E-05-6.11006E-06 5.78944E-19-5.10877E-19
 -1      2263 1.18596E-04-4.09189E-05-3.33595E-05-9.00276E-06 2.54797E-19-4.19488E-19
 -1      2264 1.19043E-04-4.37321E-05-3.23068E-05-2.79271E-06 3.00008E-19 3.52032E-19
 -1      2265 1.19126E-04-3.93530E-05-3.43122E-05-1.23526E-05-2.70442E-19-4.89327E-19
 -1      2266 1.17467E-04-3.62526E-05-3.48043E-05-1.36919E-05-5.79847E-19-3.41467E-19
 -1      2267 1.21878E-04-4.24896E-05-3.40466E-05-1.03523E-05 4.60442E-20 3.69306E-19
 -1      2268 1.15843E-04-3.23269E-05-3.60144E-05-1.43185E-05-8.97160E-19-3.41521E-19
 -1      2269 1.13478E-04-2.80371E-05-3.65599E-05-1.25196E-05-1.26128E-18-9.74889E-19
 -1      2270 1.20733E-04-3.53509E-05-3.66322E-05-1.51758E-05-7.48168E-19 4.32887E-19
 -1      2271 1.11117E-04-2.44046E-05-3.74748E-05-8.08198E-06-1.52413E-18-1.59934E-18
 -1      2272 1.09982E-04-2.22469E-05-3.77370E-05-3.60674E-06-1.80302E-18-1.53644E-18
 -1      2273 1.15981E-04-2.45141E-05-3.92608E-05-1.21569E-05-2.12203E-18-3.27431E-19
 -1      2274 1.10092E-04-2.20731E-05-3.77647E-05 3.34359E-06-1.42460E-18-2.24550E-18
 -1      2275 1.11229E-04-2.39826E-05-3.75636E-05 8.05388E-06-1.09296E-18-2.04624E-18
 -1      2276 1.13631E-04-1.97918E-05-4.03042E-05 5.20482E-08-1.90392E-18-1.67431E-18
 -1      2277 1.13189E-04-2.75349E-05-3.67386E-05 1.26767E-05-1.31409E-18-2.10700E-18
 -1      2278 1.15674E-04-3.17874E-05-3.62279E-05 1.46476E-05-1.08658E-18-2.22262E-18
 -1      2279 1.16052E-04-2.48563E-05-3.91831E-05 1.13980E-05-1.22608E-18-2.39604E-18
 -1      2280 1.17548E-04-3.57587E-05-3.50322E-05 1.44776E-05-7.51874E-19-2.46149E-18
 -1      2281 1.19338E-04-3.90338E-05-3.45462E-05 1.33358E-05-3.37966E-19-2.59426E-18
 -1      2282 1.20543E-04-3.46720E-05-3.68578E-05 1.59309E-05-1.26613E-18-2.15410E-18
 -1      2283 1.19015E-04-4.07747E-05-3.35811E-05 1.01303E-05 7.70039E-20-3.14719E-18
 -1      2284 1.19443E-04-4.18233E-05-3.32713E-05 7.34075E-06 6.64061E-19-3.58559E-18
 -1      2285 1.22179E-04-4.20717E-05-3.43243E-05 1.16782E-05-4.48107E-19-3.00488E-18
 -1      2286 1.17392E-04-4.13018E-05-3.27050E-05 3.68939E-06 1.31454E-18-3.55023E-18
 -1      2287 1.16691E-04-4.06704E-05-3.25341E-05 8.58764E-07 1.36492E-18-2.81071E-18
 -1      2288 1.19684E-04-4.37876E-05-3.25606E-05 4.26864E-06 9.00383E-19-3.28594E-18
 -1      2289 1.14151E-04-3.91011E-05-3.22551E-05-1.85908E-06 1.10948E-18-2.27473E-18
 -1      2290 1.12879E-04-3.77942E-05-3.21280E-05-3.92851E-06 7.88245E-19-1.78059E-18
 -1      2291 1.14993E-04-4.13716E-05-3.16248E-05-2.21513E-06 1.57348E-18-2.96388E-18
 -1      2292 1.10650E-04-3.61597E-05-3.19862E-05-5.46936E-06-4.92404E-20-1.77613E-18
 -1      2293 1.09239E-04-3.48545E-05-3.18408E-05-6.64415E-06 7.22939E-20-2.15330E-18
 -1      2294 1.10194E-04-3.75706E-05-3.11970E-05-6.37296E-06 4.80711E-19-2.70972E-18
 -1      2295 1.07551E-04-3.35729E-05-3.17367E-05-7.25771E-06 2.10534E-20-2.15906E-18
 -1      2296 1.06215E-04-3.25350E-05-3.15540E-05-7.70607E-06 2.56674E-20-2.37374E-18
 -1      2297 1.06285E-04-3.41135E-05-3.09847E-05-8.39960E-06-1.45839E-19-1.59743E-18
 -1      2298 1.05016E-04-3.16706E-05-3.14427E-05-7.71693E-06 1.02650E-19-2.59052E-18
 -1      2299 1.03831E-04-3.09318E-05-3.12305E-05-7.68086E-06 2.17684E-19-2.23066E-18
 -1      2300 1.03409E-04-3.15814E-05-3.08177E-05-8.91825E-06-2.02776E-19-1.71340E-18
 -1      2301 1.02986E-04-3.04029E-05-3.11018E-05-7.35318E-06 2.77869E-19-3.19736E-18
 -1      2302 1.01966E-04-2.99061E-05-3.08780E-05-7.04256E-06 6.01090E-19-3.19710E-18
 -1      2303 1.01368E-04-2.99532E-05-3.06270E-05-8.51965E-06-1.95860E-19-2.91919E-18
 -1      2304 1.01357E-04-2.96060E-05-3.07375E-05-6.55650E-06 2.89704E-19-3.82362E-18
 -1      2305 1.00496E-04-2.92810E-05-3.05192E-05-6.12134E-06 1.81105E-19-4.05191E-18
 -1      2306 9.99096E-05-2.90023E-05-3.04016E-05-7.63740E-06-7.60324E-21-3.72738E-18
 -1      2307 1.00040E-04-2.91226E-05-3.03768E-05-5.58894E-06 2.33939E-19-4.37867E-18
 -1      2308 9.93225E-05-2.89122E-05-3.01760E-05-5.12385E-06-3.72672E-19-4.94024E-18
 -1      2309 9.88369E-05-2.84961E-05-3.01548E-05-6.55664E-06-3.17895E-19-5.66018E-18
 -1      2310 9.89704E-05-2.88359E-05-3.00405E-05-4.60918E-06-9.36433E-19-5.41206E-18
 -1      2311 9.83814E-05-2.87001E-05-2.98641E-05-4.16751E-06-1.35727E-18-4.91173E-18
 -1      2312 9.80210E-05-2.82582E-05-2.99053E-05-5.45104E-06-1.15928E-18-6.32047E-18
 -1      2313 9.81031E-05-2.86691E-05-2.97413E-05-3.70332E-06-1.38606E-18-4.19026E-18
 -1      2314 9.76272E-05-2.85816E-05-2.95917E-05-3.31106E-06-1.22992E-18-3.17310E-18
 -1      2315 9.73838E-05-2.81716E-05-2.96684E-05-4.41754E-06-5.47702E-19-5.58738E-18
 -1      2316 9.74051E-05-2.85744E-05-2.94847E-05-2.91075E-06-9.87706E-19-2.54728E-18
 -1      2317 9.70267E-05-2.85183E-05-2.93612E-05-2.57719E-06-5.92506E-19-1.80635E-18
 -1      2318 9.68788E-05-2.81648E-05-2.94544E-05-3.50322E-06-4.52553E-19-3.84011E-18
 -1      2319 9.68496E-05-2.85229E-05-2.92708E-05-2.24286E-06-5.21529E-19-1.76870E-18
 -1      2320 9.65536E-05-2.84877E-05-2.91714E-05-1.96791E-06-4.32417E-19-1.58186E-18
 -1      2321 9.64771E-05-2.81966E-05-2.92681E-05-2.72440E-06-3.35942E-19-1.49152E-18
 -1      2322 9.64135E-05-2.84975E-05-2.90969E-05-1.69554E-06 1.01070E-19-1.52088E-18
 -1      2323 9.61859E-05-2.84763E-05-2.90185E-05-1.47431E-06 1.20479E-18-1.13721E-18
 -1      2324 9.61590E-05-2.82442E-05-2.91109E-05-2.07957E-06-1.63948E-19-7.71108E-19
 -1      2325 9.60764E-05-2.84879E-05-2.89585E-05-1.25695E-06 1.11479E-18-1.59714E-18
 -1      2326 9.59044E-05-2.84760E-05-2.88979E-05-1.08252E-06 1.52326E-19-9.78079E-19
 -1      2327 9.59096E-05-2.82954E-05-2.89815E-05-1.55773E-06 5.07076E-19-1.33668E-18
 -1      2328 9.58203E-05-2.84876E-05-2.88505E-05-9.12203E-07-3.70156E-19-6.89630E-19
 -1      2329 9.56928E-05-2.84819E-05-2.88045E-05-7.77122E-07-6.55040E-20 5.44096E-21
 -1      2330 9.57169E-05-2.83443E-05-2.88774E-05-1.14361E-06 1.88680E-19-1.44122E-18
 -1      2331 9.56292E-05-2.84928E-05-2.87678E-05-6.45930E-07-1.22826E-19 2.67925E-19
 -1      2332 9.55367E-05-2.84912E-05-2.87336E-05-5.43099E-07 9.57077E-19 3.89278E-19
 -1      2333 9.55704E-05-2.83882E-05-2.87952E-05-8.20756E-07 3.12500E-19 5.91129E-19
 -1      2334 9.54896E-05-2.85008E-05-2.87058E-05-4.43722E-07 1.42196E-18-7.86989E-19
 -1      2335 9.54243E-05-2.85018E-05-2.86809E-05-3.66769E-07 1.09959E-18-1.43273E-18
 -1      2336 9.54611E-05-2.84261E-05-2.87316E-05-5.73269E-07 1.74321E-19-8.53338E-19
 -1      2337 9.53903E-05-2.85101E-05-2.86601E-05-2.92773E-07 1.10429E-18-8.13755E-19
 -1      2338 9.53456E-05-2.85127E-05-2.86425E-05-2.36207E-07 2.47328E-19-3.23852E-19
 -1      2339 9.53814E-05-2.84580E-05-2.86833E-05-3.86725E-07 1.69265E-18-8.85747E-19
 -1      2340 9.53216E-05-2.85198E-05-2.86273E-05-1.82114E-07-7.17149E-19 1.02203E-18
 -1      2341 9.52924E-05-2.85232E-05-2.86152E-05-1.41351E-07-1.02681E-18 1.95984E-18
 -1      2342 9.53247E-05-2.84843E-05-2.86474E-05-2.48562E-07 3.94785E-19 9.42983E-19
 -1      2343 9.52761E-05-2.85290E-05-2.86044E-05-1.02624E-07-2.15690E-18 1.37776E-18
 -1      2344 9.52582E-05-2.85328E-05-2.85964E-05-7.39302E-08-1.72712E-18 1.73669E-18
 -1      2345 9.52857E-05-2.85057E-05-2.86212E-05-1.48179E-07-1.43469E-18 2.48936E-18
 -1      2346 9.52477E-05-2.85377E-05-2.85890E-05-4.69075E-08-1.15984E-18 1.71864E-18
 -1      2347 9.52379E-05-2.85416E-05-2.85840E-05-2.73252E-08-8.09104E-20 1.46302E-18
 -1      2348 9.52601E-05-2.85230E-05-2.86025E-05-7.68687E-08-1.81650E-18 1.57283E-18
 -1      2349 9.52316E-05-2.85457E-05-2.85790E-05-9.13387E-09 1.01248E-18 8.63651E-19
 -1      2350 9.52274E-05-2.85495E-05-2.85761E-05 3.60397E-09 2.09086E-18 5.98370E-19
 -1      2351 9.52443E-05-2.85369E-05-2.85895E-05-2.76684E-08-2.11599E-19 1.33646E-18
 -1      2352 9.52242E-05-2.85531E-05-2.85729E-05 1.51440E-08 1.29243E-18-5.12744E-19
 -1      2353 9.52237E-05-2.85568E-05-2.85715E-05 2.26996E-08 7.86440E-19-6.71371E-19
 -1      2354 9.52356E-05-2.85483E-05-2.85808E-05 4.82046E-09 1.88477E-19-7.69259E-19
 -1      2355 9.52227E-05-2.85600E-05-2.85694E-05 2.91561E-08 1.24893E-18-1.08850E-18
 -1      2356 9.52246E-05-2.85638E-05-2.85689E-05 3.26531E-08 7.26644E-19-4.99671E-19
 -1      2357 9.52320E-05-2.85578E-05-2.85750E-05 2.46329E-08 9.94424E-19-1.79032E-18
 -1      2358 9.52250E-05-2.85670E-05-2.85676E-05 3.50984E-08-2.00362E-19-1.37425E-19
 -1      2359 9.52281E-05-2.85707E-05-2.85675E-05 3.51248E-08-7.63684E-19-5.84248E-19
 -1      2360 9.52318E-05-2.85664E-05-2.85711E-05 3.46275E-08 1.52634E-19-1.52715E-18
 -1      2361 9.86812E-05-2.89580E-05-2.98668E-05-4.12687E-06 6.37988E-19 7.50492E-19
 -1      2362 9.80880E-05-2.86280E-05-2.97414E-05-3.61917E-06 8.58366E-19 9.71515E-19
 -1      2363 9.99290E-05-2.96302E-05-3.01213E-05-4.94521E-06 5.01450E-19 3.51399E-19
 -1      2364 9.91231E-05-2.92359E-05-2.99349E-05-4.64460E-06 5.42937E-19 5.89806E-19
 -1      2365 9.86181E-05-2.87591E-05-2.99580E-05-4.97542E-06 7.61378E-19 2.40710E-21
 -1      2366 1.01498E-04-3.04612E-05-3.04480E-05-5.29322E-06 9.41431E-19 3.85174E-19
 -1      2367 1.00560E-04-2.99866E-05-3.02345E-05-5.21973E-06 6.36712E-19 3.54293E-19
 -1      2368 9.97287E-05-2.95417E-05-3.00966E-05-5.86849E-06 7.04338E-19-4.56868E-20
 -1      2369 1.03285E-04-3.14859E-05-3.07885E-05-5.05978E-06 6.24455E-19 6.98960E-19
 -1      2370 1.02302E-04-3.09292E-05-3.05800E-05-5.27937E-06 8.02043E-19 6.09426E-19
 -1      2371 1.01204E-04-3.05413E-05-3.02992E-05-6.19972E-06 7.05430E-19-4.80278E-20
 -1      2372 1.05158E-04-3.26923E-05-3.10904E-05-4.06435E-06 2.17605E-19 7.34825E-19
 -1      2373 1.04242E-04-3.20820E-05-3.09187E-05-4.66647E-06 5.27660E-19 7.51169E-19
 -1      2374 1.03017E-04-3.18305E-05-3.05225E-05-5.82996E-06 4.74837E-19 5.27625E-20
 -1      2375 1.06917E-04-3.39659E-05-3.13140E-05-2.12748E-06 5.99365E-19 2.93365E-19
 -1      2376 1.06218E-04-3.33898E-05-3.12066E-05-3.18170E-06 3.00293E-19 5.78299E-19
 -1      2377 1.05103E-04-3.34018E-05-3.07406E-05-4.54847E-06 4.56743E-19-4.52745E-20
 -1      2378 1.08255E-04-3.50156E-05-3.14447E-05 7.93894E-07 5.80472E-19 2.93574E-19
 -1      2379 1.07961E-04-3.46526E-05-3.14174E-05-6.86103E-07 7.55361E-19 4.44723E-19
 -1      2380 1.07294E-04-3.50809E-05-3.09534E-05-2.15810E-06 6.44546E-19-1.53659E-19
 -1      2381 1.08742E-04-3.53288E-05-3.15078E-05 4.38902E-06 5.27192E-19 5.40953E-19
 -1      2382 1.09050E-04-3.54478E-05-3.15541E-05 2.71183E-06 4.60472E-19 4.23635E-19
 -1      2383 1.09227E-04-3.64126E-05-3.11954E-05 1.35733E-06 3.14353E-19 1.04681E-19
 -1      2384 1.07938E-04-3.43026E-05-3.15675E-05 7.76295E-06 3.24986E-19 1.22163E-18
 -1      2385 1.08949E-04-3.51544E-05-3.16560E-05 6.39471E-06 4.31626E-19 9.39513E-19
 -1      2386 1.10289E-04-3.66329E-05-3.15340E-05 5.55278E-06 1.84322E-19 6.46040E-19
 -1      2387 1.05725E-04-3.16888E-05-3.16907E-05 9.43124E-06 4.30651E-19 1.09341E-18
 -1      2388 1.07275E-04-3.32497E-05-3.17768E-05 9.07581E-06 4.26764E-19 1.40060E-18
 -1      2389 1.09796E-04-3.49473E-05-3.20327E-05 9.23336E-06 2.93601E-19 1.03036E-18
 -1      2390 1.02783E-04-2.82314E-05-3.18818E-05 7.94481E-06 9.15676E-19 6.49641E-19
 -1      2391 1.04338E-04-2.99535E-05-3.19358E-05 9.11779E-06 7.21682E-19 9.96690E-19
 -1      2392 1.07565E-04-3.12789E-05-3.26707E-05 1.05275E-05 7.74630E-19 1.22107E-18
 -1      2393 1.00602E-04-2.56575E-05-3.20630E-05 3.11230E-06 1.59795E-18 2.85781E-19
 -1      2394 1.01448E-04-2.66513E-05-3.20770E-05 5.63418E-06 1.31579E-18 6.81259E-19
 -1      2395 1.04586E-04-2.69956E-05-3.32828E-05 7.86964E-06 1.22276E-18 1.23743E-18
 -1      2396 1.00651E-04-2.56567E-05-3.21367E-05-3.29190E-06 5.51538E-19 4.19910E-19
 -1      2397 1.00302E-04-2.52735E-05-3.21163E-05-4.45152E-07 1.12488E-18 3.39917E-19
 -1      2398 1.02761E-04-2.44541E-05-3.36242E-05 1.55121E-06 1.22098E-18 1.29064E-18
 -1      2399 1.03013E-04-2.82447E-05-3.20850E-05-8.32154E-06 2.78843E-19-2.54428E-19
 -1      2400 1.01650E-04-2.67546E-05-3.20231E-05-6.39302E-06 6.09401E-19 1.28719E-19
 -1      2401 1.03500E-04-2.53650E-05-3.35266E-05-5.66281E-06 7.51934E-19 3.87994E-19
 -1      2402 1.06321E-04-3.18238E-05-3.19787E-05-1.00353E-05-7.89534E-19-4.47501E-19
 -1      2403 1.04590E-04-3.00730E-05-3.18750E-05-9.65925E-06-3.60330E-19-2.82310E-19
 -1      2404 1.06287E-04-2.91325E-05-3.30603E-05-1.03343E-05-3.25247E-21 3.42220E-19
 -1      2405 1.08867E-04-3.45193E-05-3.18956E-05-8.54143E-06-4.33165E-19-7.47655E-19
 -1      2406 1.07439E-04-3.32762E-05-3.17705E-05-9.43839E-06-4.80794E-19-5.98336E-19
 -1      2407 1.09210E-04-3.33950E-05-3.24526E-05-1.09166E-05-3.65809E-19 1.67324E-19
 -1      2408 1.09914E-04-3.56217E-05-3.18503E-05-5.24601E-06 7.36846E-19-1.07168E-18
 -1      2409 1.09133E-04-3.51374E-05-3.17432E-05-6.77657E-06 1.07136E-20-1.18951E-18
 -1      2410 1.10705E-04-3.61147E-05-3.19239E-05-8.24723E-06 1.56703E-19-1.50520E-18
 -1      2411 1.09536E-04-3.53288E-05-3.18009E-05-1.68613E-06 6.07882E-19-4.81203E-19
 -1      2412 1.09416E-04-3.54542E-05-3.17519E-05-3.22283E-06 9.03824E-19-7.48611E-19
 -1      2413 1.10472E-04-3.67953E-05-3.15585E-05-4.19623E-06 4.22218E-19-1.45130E-18
 -1      2414 1.08266E-04-3.42975E-05-3.16937E-05 1.19533E-06-7.16160E-19-1.39232E-19
 -1      2415 1.08641E-04-3.47450E-05-3.17232E-05-5.95758E-09 6.12213E-20 8.88334E-20
 -1      2416 1.09016E-04-3.59267E-05-3.13248E-05-3.60286E-07 8.17784E-20-5.91535E-20
 -1      2417 1.06584E-04-3.30589E-05-3.15035E-05 3.09375E-06-3.84885E-19-4.86242E-19
 -1      2418 1.07261E-04-3.36055E-05-3.16075E-05 2.32744E-06-6.25858E-19-4.34538E-19
 -1      2419 1.07043E-04-3.43924E-05-3.11453E-05 2.50123E-06-2.34042E-19-1.28170E-19
 -1      2420 1.04812E-04-3.19138E-05-3.12360E-05 4.07703E-06 4.54191E-19-7.63687E-19
 -1      2421 1.05630E-04-3.24331E-05-3.13954E-05 3.70088E-06 1.06673E-20-7.93291E-19
 -1      2422 1.05018E-04-3.28018E-05-3.09615E-05 4.24446E-06 2.19323E-19-1.25523E-18
 -1      2423 1.03126E-04-3.09778E-05-3.09159E-05 4.36624E-06 5.71518E-19-3.26262E-19
 -1      2424 1.03972E-04-3.14178E-05-3.11064E-05 4.27944E-06 4.67602E-19-5.67972E-19
 -1      2425 1.03176E-04-3.14569E-05-3.07473E-05 5.03714E-06 2.76790E-19-1.13416E-18
 -1      2426 1.01609E-04-3.02623E-05-3.05732E-05 4.20035E-06-1.61582E-19-1.03453E-19
 -1      2427 1.02413E-04-3.06130E-05-3.07730E-05 4.29915E-06 5.54284E-19-1.37480E-19
 -1      2428 1.01592E-04-3.04402E-05-3.05024E-05 5.14643E-06 2.78377E-19-8.88905E-19
 -1      2429 1.00290E-04-2.97359E-05-3.02345E-05 3.77716E-06-4.31476E-19 2.81884E-19
 -1      2430 1.01014E-04-3.00056E-05-3.04271E-05 3.97744E-06-4.69464E-19 1.95633E-19
 -1      2431 1.00267E-04-2.97235E-05-3.02401E-05 4.82583E-06-4.94804E-19-4.69688E-19
 -1      2432 9.91743E-05-2.93571E-05-2.99189E-05 3.23908E-06-8.22744E-19 2.09947E-18
 -1      2433 9.97993E-05-2.95600E-05-3.00940E-05 3.48130E-06-4.60810E-19 1.00151E-18
 -1      2434 9.91736E-05-2.92420E-05-2.99769E-05 4.27422E-06-9.78031E-19 1.55107E-19
 -1      2435 9.82499E-05-2.90885E-05-2.96381E-05 2.67866E-06-3.24243E-19 1.65882E-18
 -1      2436 9.87728E-05-2.92386E-05-2.97904E-05 2.92488E-06-1.20162E-19 2.40847E-18
 -1      2437 9.82806E-05-2.89302E-05-2.97270E-05 3.63077E-06-8.05472E-19 1.28458E-18
 -1      2438 9.74992E-05-2.89002E-05-2.93974E-05 2.15031E-06 2.71373E-20 5.82805E-20
 -1      2439 9.79251E-05-2.90096E-05-2.95252E-05 2.37884E-06-5.33717E-19 1.20572E-18
 -1      2440 9.75580E-05-2.87349E-05-2.95004E-05 2.98430E-06-1.59720E-19 1.91902E-18
 -1      2441 9.69009E-05-2.87698E-05-2.91970E-05 1.68187E-06-1.92159E-19 9.95574E-19
 -1      2442 9.72395E-05-2.88483E-05-2.93013E-05 1.88212E-06 1.10241E-19 6.53604E-19
 -1      2443 9.69795E-05-2.86171E-05-2.93025E-05 2.38598E-06-4.79405E-19 1.43236E-18
 -1      2444 9.64329E-05-2.86811E-05-2.90347E-05 1.28398E-06 6.42170E-19 6.69076E-19
 -1      2445 9.66962E-05-2.87363E-05-2.91176E-05 1.45244E-06 1.16728E-19 4.39188E-19
 -1      2446 9.65221E-05-2.85497E-05-2.91348E-05 1.86102E-06 3.70629E-20 2.05067E-18
 -1      2447 9.60737E-05-2.86221E-05-2.89063E-05 9.56888E-07 1.17819E-18 2.29794E-18
 -1      2448 9.62740E-05-2.86600E-05-2.89706E-05 1.09421E-06 9.47760E-19 1.06624E-18
 -1      2449 9.61655E-05-2.85144E-05-2.89966E-05 1.41791E-06 5.63480E-19 1.76893E-18
 -1      2450 9.58034E-05-2.85843E-05-2.88069E-05 6.95118E-07 1.32598E-18 3.40703E-18
 -1      2451 9.59524E-05-2.86094E-05-2.88557E-05 8.04166E-07 1.47657E-18 2.99754E-18
 -1      2452 9.58919E-05-2.84992E-05-2.88854E-05 1.05506E-06 9.50352E-19 2.16623E-18
 -1      2453 9.56045E-05-2.85612E-05-2.87318E-05 4.90475E-07-3.12215E-19 2.69053E-18
 -1      2454 9.57126E-05-2.85771E-05-2.87679E-05 5.75096E-07 1.12871E-18 3.86240E-18
 -1      2455 9.56856E-05-2.84960E-05-2.87979E-05 7.65395E-07 1.04614E-18 3.21942E-18
 -1      2456 9.54617E-05-2.85484E-05-2.86763E-05 3.33912E-07 4.19138E-19 9.40725E-19
 -1      2457 9.55379E-05-2.85577E-05-2.87023E-05 3.98178E-07-2.12792E-19 1.94668E-18
 -1      2458 9.55331E-05-2.84997E-05-2.87305E-05 5.39308E-07 1.22652E-18 2.63377E-18
 -1      2459 9.53622E-05-2.85425E-05-2.86363E-05 2.16626E-07-2.10694E-19 3.43733E-19
 -1      2460 9.54140E-05-2.85473E-05-2.86546E-05 2.64408E-07 8.02991E-19 3.06130E-19
 -1      2461 9.54229E-05-2.85070E-05-2.86797E-05 3.66523E-07 9.39727E-19 1.55226E-18
 -1      2462 9.52956E-05-2.85413E-05-2.86084E-05 1.30643E-07-7.77033E-19-5.31730E-19
 -1      2463 9.53291E-05-2.85430E-05-2.86207E-05 1.65390E-07-1.48104E-18-1.28997E-19
 -1      2464 9.53454E-05-2.85160E-05-2.86424E-05 2.37183E-07-2.46510E-19 3.98074E-19
 -1      2465 9.52533E-05-2.85430E-05-2.85897E-05 6.90848E-08-7.05684E-19 5.45380E-19
 -1      2466 9.52735E-05-2.85426E-05-2.85976E-05 9.37337E-08-3.52777E-19-1.01551E-19
 -1      2467 9.52929E-05-2.85253E-05-2.86156E-05 1.42426E-07-8.81128E-19 1.91215E-19
 -1      2468 9.52289E-05-2.85464E-05-2.85779E-05 2.62554E-08-1.71564E-19-6.64218E-21
 -1      2469 9.52395E-05-2.85447E-05-2.85825E-05 4.32078E-08-3.90780E-19-1.87886E-19
 -1      2470 9.52590E-05-2.85342E-05-2.85970E-05 7.46536E-08 3.99145E-20-2.15880E-19
 -1      2471 9.52170E-05-2.85509E-05-2.85709E-05-2.38553E-09 3.59929E-20 3.00474E-19
 -1      2472 9.52210E-05-2.85485E-05-2.85733E-05 8.75653E-09 6.38122E-20 4.68415E-19
 -1      2473 9.52387E-05-2.85426E-05-2.85846E-05 2.75995E-08 8.11386E-20-5.32116E-19
 -1      2474 9.52136E-05-2.85560E-05-2.85674E-05-2.02916E-08 4.20200E-20 3.14637E-19
 -1      2475 9.52132E-05-2.85531E-05-2.85682E-05-1.35570E-08 2.66992E-20 3.30211E-19
 -1      2476 9.52281E-05-2.85502E-05-2.85766E-05-3.70845E-09-2.38343E-19 5.08267E-19
 -1      2477 9.52158E-05-2.85615E-05-2.85661E-05-2.99132E-08 2.71804E-19 9.84947E-19
 -1      2478 9.52127E-05-2.85583E-05-2.85659E-05-2.66360E-08-4.28232E-19 6.30597E-19
 -1      2479 9.52243E-05-2.85573E-05-2.85718E-05-2.30384E-08-6.87656E-19 3.04791E-19
 -1      2480 9.52213E-05-2.85674E-05-2.85659E-05-3.28299E-08-4.79858E-20 2.59902E-18
 -1      2481 9.52167E-05-2.85640E-05-2.85653E-05-3.24883E-08 5.01591E-19 1.91812E-18
 -1      2482 9.52249E-05-2.85641E-05-2.85690E-05-3.30728E-08-3.52704E-19 1.87132E-18
 -1      2483 9.52282E-05-2.85737E-05-2.85663E-05-2.98424E-08-1.86197E-18 3.05612E-18
 -1      2484 9.52233E-05-2.85701E-05-2.85656E-05-3.20991E-08-1.28857E-18 2.98714E-18
 -1      2485 9.52285E-05-2.85714E-05-2.85674E-05-3.56835E-08-1.55110E-18 3.53240E-18
 -1      2486 9.52310E-05-2.85767E-05-2.85661E-05-2.59688E-08-5.46806E-19 3.47571E-18
 -1      2487 9.52513E-05-2.85954E-05-2.85668E-05-2.08759E-08 1.19496E-18-1.24304E-19
 -1      2488 9.52501E-05-2.85932E-05-2.85672E-05-2.41299E-08 5.38014E-19-2.16142E-18
 -1      2489 9.52522E-05-2.85967E-05-2.85667E-05-1.34759E-08 9.30102E-19-3.01761E-20
 -1      2490 9.52516E-05-2.85953E-05-2.85669E-05-1.70865E-08 7.48368E-19 3.63640E-19
 -1      2491 9.52505E-05-2.85846E-05-2.85711E-05-1.98067E-08 9.84043E-19 1.26941E-19
 -1      2492 9.52450E-05-2.85887E-05-2.85669E-05-3.20047E-08-8.58972E-19-1.93086E-19
 -1      2493 9.52416E-05-2.85848E-05-2.85672E-05-3.27754E-08-5.69947E-19-2.69893E-19
 -1      2494 9.52491E-05-2.85928E-05-2.85670E-05-2.74440E-08-7.63302E-19-2.37048E-18
 -1      2495 9.52470E-05-2.85899E-05-2.85673E-05-2.97757E-08-8.47918E-19-5.36705E-19
 -1      2496 9.52451E-05-2.85828E-05-2.85695E-05-3.28217E-08-1.37755E-18-1.16247E-18
 -1      2497 9.52488E-05-2.85844E-05-2.85705E-05-2.71168E-08 9.09659E-19-1.11086E-18
 -1      2498 9.52525E-05-2.85971E-05-2.85665E-05-5.89289E-09-3.18556E-19 1.24962E-18
 -1      2499 9.52522E-05-2.85965E-05-2.85667E-05-9.59995E-09 2.89111E-19-8.59914E-19
 -1      2500 9.52509E-05-2.85843E-05-2.85714E-05-1.19738E-08 2.13832E-19-5.09140E-19
 -1      2501 9.52525E-05-2.85971E-05-2.85665E-05 1.69942E-09-2.04655E-18 6.74925E-20
 -1      2502 9.52525E-05-2.85971E-05-2.85665E-05-2.03395E-09-1.70273E-18 1.42479E-18
 -1      2503 9.52509E-05-2.85840E-05-2.85715E-05-4.12088E-09-4.21081E-19 3.81009E-20
 -1      2504 9.52524E-05-2.85966E-05-2.85667E-05 9.33962E-09-8.98242E-19 3.59476E-20
 -1      2505 9.52526E-05-2.85973E-05-2.85665E-05 5.58753E-09-1.76273E-18 3.64505E-19
 -1      2506 9.52510E-05-2.85841E-05-2.85715E-05 3.72877E-09-1.82919E-18 4.34053E-19
 -1      2507 9.52519E-05-2.85956E-05-2.85669E-05 1.68467E-08 1.02776E-18 5.26996E-19
 -1      2508 9.52524E-05-2.85969E-05-2.85666E-05 1.32274E-08 4.82834E-19 3.27271E-19
 -1      2509 9.52511E-05-2.85846E-05-2.85714E-05 1.16276E-08-2.36837E-19 1.24538E-18
 -1      2510 9.52504E-05-2.85936E-05-2.85671E-05 2.41025E-08 1.74501E-18-9.49935E-19
 -1      2511 9.52516E-05-2.85957E-05-2.85668E-05 2.07491E-08 1.08230E-18-1.36992E-18
 -1      2512 9.52508E-05-2.85850E-05-2.85710E-05 1.95813E-08 1.75966E-19-2.92455E-19
 -1      2513 9.52472E-05-2.85902E-05-2.85673E-05 2.99578E-08 1.31605E-18-1.39780E-18
 -1      2514 9.52494E-05-2.85932E-05-2.85669E-05 2.74900E-08 1.64682E-18-3.57949E-19
 -1      2515 9.52491E-05-2.85847E-05-2.85705E-05 2.71733E-08 4.61362E-19-1.01282E-18
 -1      2516 9.52417E-05-2.85851E-05-2.85671E-05 3.28721E-08-1.16927E-19-3.10787E-18
 -1      2517 9.52450E-05-2.85889E-05-2.85669E-05 3.22475E-08 1.39999E-18-1.81519E-18
 -1      2518 9.52454E-05-2.85832E-05-2.85696E-05 3.30593E-08-3.13977E-19-1.57934E-18
 -1      2519 1.00749E-04-5.35442E-05-2.02866E-05 3.95288E-05-7.20190E-19 7.60741E-20
 -1      2520 8.10468E-05-4.60268E-05-1.46680E-05 4.13749E-05-7.16378E-19 7.07273E-20
 -1      2521 9.52356E-05-2.85816E-05-2.85660E-05 2.98040E-08 1.51024E-20-8.56322E-19
 -1      2522 1.88486E-05-1.80830E-05-1.03273E-07-5.73188E-06 1.92594E-18 3.08320E-18
 -1      2523 2.36948E-05-2.13406E-05-7.98673E-07-1.88176E-05 1.39146E-18 2.64465E-18
 -1      2524 9.78525E-05-2.83826E-05-2.97514E-05-2.84400E-06 1.03926E-18 1.03407E-18
 -1      2525 9.75604E-05-2.80862E-05-2.97292E-05-2.08276E-06 1.33874E-18 1.27255E-18
 -1      2526 9.78958E-05-2.80800E-05-2.99412E-05-3.54886E-06 1.12565E-18 2.50695E-19
 -1      2527 2.42515E-05-2.03074E-05-1.56234E-06 2.09896E-05 2.79415E-19 2.73634E-18
 -1      2528 1.91487E-05-1.83476E-05-4.58726E-08 7.54651E-06 9.73003E-19 3.19162E-18
 -1      2529 3.33976E-05-2.70778E-05-2.54247E-06-2.82939E-05 8.66938E-19 2.32892E-18
 -1      2530 4.65193E-05-3.28554E-05-5.74869E-06-3.70650E-05 5.13302E-19 3.52514E-18
 -1      2531 9.65085E-05-2.02437E-05-3.27258E-05-9.33897E-06-2.37030E-18-1.79412E-18
 -1      2532 9.72431E-05-2.36045E-05-3.15805E-05-5.40721E-06-2.30649E-18-1.49902E-18
 -1      2533 9.64574E-05-2.24578E-05-3.16951E-05-4.69841E-06-2.06620E-18-1.84201E-18
 -1      2534 9.43099E-05-1.75716E-05-3.28909E-05-8.82028E-06-2.19293E-18-2.43832E-18
 -1      2535 1.33355E-04-5.72944E-05-3.28118E-05 2.01109E-05 9.11619E-20-6.56662E-19
 -1      2536 1.19212E-04-5.77087E-05-2.62236E-05 2.76634E-05-9.68053E-19-5.34372E-19
 -1      2537 1.41311E-04-1.17631E-05-5.61140E-05-3.01576E-06-4.47403E-18-2.39832E-18
 -1      2538 1.43857E-04-1.62869E-05-5.51327E-05-6.95373E-06-4.14178E-18-2.00302E-18
 -1      2539 8.00424E-05-4.67567E-05-1.39401E-05-4.17965E-05-1.90709E-18-1.92075E-18
 -1      2540 1.02295E-04-5.43012E-05-2.06184E-05-3.89457E-05-1.86495E-18-1.07928E-18
 -1      2541 8.50831E-05-8.38077E-06-3.29056E-05-1.00980E-06 5.44992E-19-3.55203E-18
 -1      2542 8.53429E-05-8.58044E-06-3.29267E-05-1.76910E-06 2.05035E-19-3.63608E-18
 -1      2543 8.65378E-05-1.04288E-05-3.26124E-05-1.76926E-06 1.33209E-19-3.43139E-18
 -1      2544 8.59526E-05-9.89764E-06-3.25900E-05-6.36161E-07 6.02931E-19-3.31523E-18
 -1      2545 1.21227E-04-5.80141E-05-2.69794E-05-2.83620E-05-1.20501E-18-9.10560E-20
 -1      2546 1.33757E-04-5.69806E-05-3.29670E-05-2.19785E-05-1.44949E-19 4.92338E-19
 -1      2547 1.41897E-04-1.13236E-05-5.64527E-05-3.24754E-06 4.06788E-18 8.73503E-20
 -1      2548 1.40927E-04-1.45653E-05-5.46469E-05-6.56742E-06 3.93341E-18-1.48443E-19
 -1      2549 1.46265E-04-1.45518E-05-5.67528E-05 3.70660E-06 3.78963E-18 4.27646E-19
 -1      2550 1.43123E-04-1.02322E-05-5.74896E-05 1.42500E-06 3.68968E-18 3.33718E-19
 -1      2551 1.46352E-04-2.94752E-05-5.04835E-05 3.98019E-06 2.97944E-18 1.28918E-18
 -1      2552 1.48122E-04-2.21393E-05-5.43508E-05 4.60259E-06 3.74494E-18 8.80914E-19
 -1      2553 2.52666E-05-1.89724E-05-2.35417E-06 1.72990E-05 6.07746E-20-5.44896E-18
 -1      2554 1.95584E-05-1.81867E-05-3.71342E-07 3.62015E-06 8.28504E-21-6.46710E-18
 -1      2555 4.44558E-05-3.01627E-05-5.75596E-06-3.51326E-05-1.94627E-18-4.33935E-18
 -1      2556 5.88546E-05-3.71248E-05-9.27113E-06-4.22717E-05-1.76331E-18-3.01311E-18
 -1      2557 1.45195E-04-4.97515E-05-4.10667E-05-4.35019E-06-1.15236E-18-3.75130E-18
 -1      2558 1.49340E-04-4.26842E-05-4.63001E-05 1.75377E-06-1.79730E-18-3.79513E-18
 -1      2559 2.14758E-05-1.88831E-05-8.66735E-07-1.07673E-05-8.16699E-19-6.09059E-18
 -1      2560 3.10839E-05-2.19820E-05-3.55654E-06-2.64872E-05-1.23826E-18-5.56352E-18
 -1      2561 2.90805E-05-1.53773E-05-5.18945E-06-5.32161E-06-3.11761E-19-5.71938E-18
 -1      2562 5.82976E-05-3.73651E-05-8.79332E-06 4.11164E-05-9.84888E-19-3.26277E-18
 -1      2563 4.06466E-05-2.80096E-05-5.01425E-06 3.20558E-05 8.80914E-20-4.08926E-18
 -1      2564 9.82332E-05-5.35955E-05-1.91997E-05 4.06728E-05-1.87470E-18-2.88266E-18
 -1      2565 7.89639E-05-4.74498E-05-1.33559E-05 4.12135E-05-1.49078E-18-2.89230E-18
 -1      2566 1.30771E-04-5.87996E-05-3.12149E-05 2.45652E-05-1.94987E-18-2.11674E-18
 -1      2567 1.14975E-04-5.78838E-05-2.44394E-05 3.18821E-05-1.83721E-18-2.46000E-18
 -1      2568 1.47296E-04-4.85464E-05-4.29692E-05 2.67982E-06-3.07706E-18-1.17568E-18
 -1      2569 1.41097E-04-5.47985E-05-3.69968E-05 1.08661E-05-2.41558E-18-1.72477E-18
 -1      2570 1.45368E-04-2.59150E-05-5.19291E-05-8.55051E-06-3.69222E-18-1.72837E-18
 -1      2571 1.45906E-04-3.63126E-05-4.73179E-05-7.27310E-06-3.24456E-18-1.31290E-18
 -1      2572 1.40016E-04-1.45638E-05-5.43856E-05 7.45628E-06-4.14771E-18-3.48660E-18
 -1      2573 1.38832E-04-1.19932E-05-5.51518E-05 2.42648E-06-4.45031E-18-3.00417E-18
 -1      2574 1.47237E-04-3.16169E-05-4.98829E-05 8.23237E-06-2.44644E-18-3.79238E-18
 -1      2575 1.44393E-04-2.15574E-05-5.32767E-05 9.42540E-06-3.44488E-18-4.13881E-18
 -1      2576 1.27641E-04-5.81836E-05-2.98899E-05-2.36983E-05 1.67670E-18-2.06316E-18
 -1      2577 1.38706E-04-5.65810E-05-3.56026E-05-1.57625E-05 3.57766E-19-3.18696E-18
 -1      2578 1.00943E-04-5.46732E-05-1.97481E-05-3.65045E-05 1.48315E-18-8.93090E-19
 -1      2579 1.16599E-04-5.73471E-05-2.54744E-05-3.27740E-05 1.57485E-18-1.94881E-18
 -1      2580 1.25672E-04-6.04443E-05-2.77265E-05-2.32542E-05 2.36555E-18-2.69589E-18
 -1      2581 6.37804E-05-4.12729E-05-9.50091E-06-3.99684E-05 1.39337E-18 2.51728E-18
 -1      2582 8.12636E-05-4.74893E-05-1.45020E-05-4.23337E-05 1.32010E-18 1.07907E-18
 -1      2583 1.44427E-04-4.56021E-05-4.29130E-05 2.22412E-06 1.94672E-18-8.29881E-19
 -1      2584 1.39284E-04-5.13696E-05-3.79180E-05 9.05008E-06 1.22048E-18-8.00023E-19
 -1      2585 1.36178E-04-5.58174E-05-3.44233E-05 7.89484E-06-3.13932E-20-6.25110E-19
 -1      2586 1.39846E-04-4.03957E-05-4.27075E-05-7.35700E-06 2.09879E-18-6.94779E-19
 -1      2587 9.83786E-05-2.56114E-05-3.12007E-05 5.58934E-06 2.42512E-18 2.32519E-18
 -1      2588 9.91859E-05-2.42629E-05-3.21275E-05 8.76814E-06 2.55394E-18 2.75550E-18
 -1      2589 9.75210E-05-2.17373E-05-3.25345E-05 9.78490E-06 2.79105E-18 1.72821E-18
 -1      2590 9.77344E-05-2.45115E-05-3.14167E-05 5.25575E-06 2.49564E-18 9.92331E-19
 -1      2591 1.38143E-04-5.53096E-05-3.57355E-05-1.06583E-05-3.97206E-19 9.74511E-19
 -1      2592 8.96698E-05-1.34585E-05-3.26527E-05-4.32368E-06-9.35502E-19-3.29299E-18
 -1      2593 8.90237E-05-1.20614E-05-3.30465E-05-5.59555E-06-1.06982E-18-3.52941E-18
 -1      2594 9.01953E-05-1.31646E-05-3.30752E-05-6.65802E-06-1.46608E-18-3.35724E-18
 -1      2595 3.83284E-05-2.11454E-05-6.79022E-06 2.58821E-05-9.66359E-19 1.78300E-18
 -1      2596 7.27448E-05-4.00083E-05-1.36238E-05 4.01898E-05-1.36859E-18 3.75447E-19
 -1      2597 6.51808E-05-3.21957E-05-1.36585E-05 3.64573E-05-1.90561E-18 4.01811E-19
 -1      2598 8.66137E-05-4.43823E-05-1.79487E-05 3.71152E-05-1.80153E-18-1.92700E-19
 -1      2599 9.56257E-05-1.93431E-05-3.27375E-05 9.33410E-06 2.88715E-18 4.65365E-19
 -1      2600 1.43124E-04-3.78006E-05-4.52670E-05 1.01405E-05-1.78036E-18-4.06385E-18
 -1      2601 1.33689E-04-1.90757E-05-4.93517E-05 1.08743E-05-3.41905E-18-3.02783E-18
 -1      2602 1.35571E-04-2.10312E-05-4.92027E-05-1.23189E-05-3.60688E-18-2.24887E-19
 -1      2603 3.53015E-05-2.16867E-05-5.34232E-06-2.41186E-05 1.27288E-18 3.41672E-18
 -1      2604 1.42443E-04-4.30663E-05-4.27304E-05-7.38603E-06-2.46338E-18-6.46710E-19
 -1      2605 9.52335E-05-2.85784E-05-2.85665E-05-3.11553E-08-1.40988E-18 2.34080E-18
 -1      2606 9.52368E-05-2.85814E-05-2.85665E-05-3.25828E-08-1.63328E-18 1.20020E-18
 -1      2607 1.36524E-04-5.89023E-05-3.31589E-05 1.32686E-05-1.34361E-18-1.13672E-18
 -1      2608 9.59206E-05-2.06464E-05-3.22181E-05 7.16659E-06 2.71090E-18 1.35545E-19
 -1      2609 1.14649E-04-5.69846E-05-2.45440E-05 2.93605E-05-1.59232E-18-8.11749E-19
 -1      2610 9.52318E-05-2.85760E-05-2.85668E-05 3.22862E-08-7.75472E-19-9.77226E-19
 -1      2611 9.52383E-05-2.85825E-05-2.85668E-05 3.41215E-08-3.43340E-19-2.88836E-18
 -1      2612 9.52387E-05-2.85789E-05-2.85684E-05 3.59192E-08-1.15337E-18-2.55114E-18
 -1      2613 9.52287E-05-2.85729E-05-2.85668E-05 3.48108E-08-1.04130E-18-9.19432E-19
 -1      2614 1.12051E-04-5.77923E-05-2.29507E-05 3.28495E-05-5.95464E-19-1.74129E-18
 -1      2615 2.49631E-05-1.54204E-05-3.57729E-06 3.31220E-07 1.26466E-18 2.86212E-18
 -1      2616 9.75735E-05-2.73299E-05-3.01232E-05-1.47829E-06 1.58260E-18 3.63582E-19
 -1      2617 6.18520E-05-3.63482E-05-1.04965E-05-3.84231E-05 1.20893E-18 2.26243E-18
 -1      2618 1.41284E-04-5.53172E-05-3.67990E-05-4.99982E-06 6.59362E-20-3.39152E-18
 -1      2619 9.75139E-05-5.26117E-05-1.89233E-05-3.73261E-05 2.48647E-18-1.10233E-18
 -1      2620 1.31038E-04-1.19031E-05-5.13391E-05 1.08673E-07-3.71191E-18-1.44282E-18
 -1      2621 4.39420E-05-2.45114E-05-7.71766E-06-2.98828E-05-1.90678E-18-4.59769E-18
 -1      2622 3.77012E-05-2.24044E-05-6.03712E-06 2.54644E-05 4.99326E-19-4.41982E-18
 -1      2623 3.65298E-05-1.66052E-05-8.14094E-06 1.78912E-05 6.30193E-19-4.63115E-18
 -1      2624 5.12477E-05-2.53264E-05-1.07051E-05 3.07199E-05 1.07600E-18-3.60783E-18
 -1      2625 1.45133E-04-3.69488E-05-4.66774E-05 4.34962E-06 2.12214E-18 1.44123E-18
 -1      2626 1.37371E-04-3.13820E-05-4.58847E-05 1.09903E-05 2.14755E-18 2.23723E-18
 -1      2627 1.40705E-04-4.24462E-05-4.21689E-05 4.27397E-06 1.19506E-18 1.74214E-18
 -1      2628 1.37119E-04-1.69749E-05-5.17562E-05 8.24567E-06 3.10226E-18 1.34763E-18
 -1      2629 1.06253E-04-5.42573E-05-2.19650E-05-3.40181E-05-2.51114E-18-1.96988E-19
 -1      2630 1.14459E-04-5.77252E-05-2.41219E-05-3.19961E-05-1.96427E-18-3.99058E-19
 -1      2631 1.22667E-04-5.89555E-05-2.74575E-05-2.33713E-05-2.00503E-18 7.15319E-19
 -1      2632 7.66552E-05-4.22990E-05-1.42131E-05-4.05830E-05-2.43353E-18-2.06125E-18
 -1      2633 9.27624E-05-1.59916E-05-3.29324E-05-7.81118E-06-1.89516E-18-2.89736E-18
 -1      2634 1.34385E-04-2.03579E-05-4.92321E-05-1.06269E-05 2.95784E-18-4.35481E-19
 -1      2635 1.32839E-04-9.58634E-06-5.31392E-05-1.38212E-06 3.57363E-18 6.80723E-19
 -1      2636 7.59277E-05-4.27885E-05-1.38237E-05 3.99397E-05-8.55503E-20-3.04826E-18
 -1      2637 9.52369E-05-2.85783E-05-2.85680E-05-3.53510E-08-2.11871E-18 1.79386E-18
 -1      2638 9.52336E-05-2.85737E-05-2.85687E-05 3.69178E-08-1.41730E-18-1.94249E-18
 -1      2639 8.76977E-05-1.24014E-05-3.22867E-05 1.48410E-06 1.56559E-18-2.72752E-18
 -1      2640 8.71785E-05-1.19257E-05-3.22756E-05 9.16999E-07 1.31844E-18-2.89251E-18
 -1      2641 8.67836E-05-1.15229E-05-3.22716E-05 5.60706E-07 1.13592E-18-3.02158E-18
 -1      2642 8.65749E-05-1.13354E-05-3.22668E-05 3.47820E-08 8.90170E-19-2.99722E-18
 -1      2643 8.77317E-05-1.31281E-05-3.19540E-05 4.13354E-07 1.13506E-18-2.77386E-18
 -1      2644 9.13124E-05-1.61284E-05-3.22512E-05 3.67416E-06 2.37546E-18-1.79328E-18
 -1      2645 9.02259E-05-1.49940E-05-3.22713E-05 2.99983E-06 2.18412E-18-2.10076E-18
 -1      2646 9.38939E-05-1.91121E-05-3.20835E-05 4.67564E-06 2.53935E-18-1.07419E-18
 -1      2647 9.25450E-05-1.75210E-05-3.21770E-05 4.11841E-06 2.40972E-18-1.45900E-18
 -1      2648 9.27881E-05-1.84653E-05-3.18303E-05 2.62299E-06 2.21689E-18-1.46987E-18
 -1      2649 1.20976E-04-5.74985E-05-2.74062E-05 2.15667E-05-1.74277E-18-9.61475E-19
 -1      2650 1.06197E-04-5.30353E-05-2.25075E-05 3.11353E-05-1.86787E-18-9.71759E-19
 -1      2651 9.70517E-05-2.53855E-05-3.07165E-05 7.78110E-07 1.92696E-18-1.00364E-19
 -1      2652 9.71231E-05-2.45364E-05-3.10755E-05 2.65836E-06 2.13785E-18 4.05132E-21
 -1      2653 4.72408E-05-2.11178E-05-1.08409E-05 2.71797E-05-1.99693E-18 2.45004E-19
 -1      2654 3.56902E-05-1.54145E-05-7.98218E-06 1.70877E-05-6.14972E-19 9.80864E-19
 -1      2655 9.60013E-05-2.18805E-05-3.17691E-05 5.15033E-06 2.52272E-18-2.01531E-19
 -1      2656 1.39259E-04-4.37665E-05-4.11438E-05 1.11801E-05-1.24281E-18-4.15353E-18
 -1      2657 1.34906E-04-3.36756E-05-4.39892E-05 1.52108E-05-1.89757E-18-3.90652E-18
 -1      2658 9.65565E-05-2.50888E-05-3.06060E-05 1.62062E-06-1.19628E-18-1.53164E-18
 -1      2659 9.66491E-05-2.56307E-05-3.04351E-05 3.06028E-06-1.05392E-18-1.46267E-18
 -1      2660 9.67010E-05-2.60483E-05-3.02619E-05 4.32992E-06-9.54877E-19-1.25316E-18
 -1      2661 9.69069E-05-2.64287E-05-3.01984E-05 5.45873E-06-7.66237E-19-1.30210E-18
 -1      2662 9.58229E-05-2.47998E-05-3.04450E-05 3.64776E-06-1.03844E-18-1.43445E-18
 -1      2663 9.69560E-05-2.67121E-05-3.00928E-05 6.52677E-06-6.73187E-19-1.20130E-18
 -1      2664 9.73259E-05-2.70774E-05-3.00966E-05 7.43515E-06-5.25459E-19-1.25972E-18
 -1      2665 9.59309E-05-2.56399E-05-3.01333E-05 6.07428E-06-7.37551E-19-1.16725E-18
 -1      2666 9.74660E-05-2.73789E-05-3.00282E-05 8.34916E-06-3.76001E-19-1.27380E-18
 -1      2667 9.80417E-05-2.78562E-05-3.00684E-05 9.06314E-06-2.00847E-19-1.18151E-18
 -1      2668 9.61257E-05-2.63399E-05-2.99188E-05 8.13221E-06-4.37521E-19-1.24199E-18
 -1      2669 9.83808E-05-2.83258E-05-3.00117E-05 9.83323E-06-7.72498E-20-1.17309E-18
 -1      2670 9.92291E-05-2.90563E-05-3.00639E-05 1.03126E-05-4.73265E-20-1.19570E-18
 -1      2671 9.65969E-05-2.72265E-05-2.97460E-05 9.89340E-06-2.34814E-19-1.16399E-18
 -1      2672 9.99290E-05-2.98713E-05-3.00030E-05 1.08924E-05-6.16861E-20-1.22169E-18
 -1      2673 1.01156E-04-3.10176E-05-3.00534E-05 1.10232E-05-5.01668E-20-1.24626E-18
 -1      2674 9.76048E-05-2.86652E-05-2.95731E-05 1.13465E-05-4.27446E-20-1.19354E-18
 -1      2675 1.02458E-04-3.23794E-05-2.99919E-05 1.12788E-05 1.10202E-19-9.15993E-19
 -1      2676 1.04187E-04-3.40861E-05-3.00480E-05 1.08629E-05 2.18073E-19-6.84599E-19
 -1      2677 9.95453E-05-3.10882E-05-2.93874E-05 1.23547E-05 3.00839E-19-7.06959E-19
 -1      2678 1.06388E-04-3.61417E-05-3.00318E-05 1.05129E-05 1.63338E-19-2.27691E-19
 -1      2679 1.08711E-04-3.84101E-05-3.01469E-05 9.26927E-06 2.25198E-19-1.20020E-19
 -1      2680 1.02971E-04-3.49322E-05-2.92398E-05 1.25568E-05 5.77308E-19-3.96646E-19
 -1      2681 1.11984E-04-4.10222E-05-3.03030E-05 7.89969E-06-9.72764E-22 4.14589E-19
 -1      2682 1.14688E-04-4.33685E-05-3.06015E-05 5.63944E-06 1.41368E-19 4.60809E-19
 -1      2683 1.08262E-04-4.02380E-05-2.93088E-05 1.12101E-05 3.71386E-19 4.32450E-20
 -1      2684 1.19090E-04-4.59784E-05-3.11883E-05 2.28463E-06 4.66327E-19 4.76535E-19
 -1      2685 1.21106E-04-4.70367E-05-3.18709E-05-1.19042E-06 4.17878E-19 6.23165E-19
 -1      2686 1.16546E-04-4.66501E-05-3.01234E-05 7.28202E-06 1.93626E-19 9.05491E-19
 -1      2687 1.24974E-04-4.74000E-05-3.32355E-05-5.84486E-06 5.78404E-19 8.11259E-19
 -1      2688 1.25452E-04-4.53498E-05-3.44511E-05-9.25475E-06 3.65442E-19 9.75928E-19
 -1      2689 1.24215E-04-4.99894E-05-3.20124E-05-1.14370E-07 5.05540E-19 8.40435E-19
 -1      2690 1.27073E-04-3.05036E-05-4.18508E-05-1.53918E-05-2.59361E-18 6.15290E-19
 -1      2691 1.23624E-04-2.30340E-05-4.35132E-05-1.16388E-05-2.97203E-18 1.83661E-19
 -1      2692 1.18723E-04-1.45928E-05-4.50835E-05-9.73621E-07-2.67302E-18-1.08897E-18
 -1      2693 1.19644E-04-1.62657E-05-4.47964E-05 6.76733E-06-2.15559E-18-1.84823E-18
 -1      2694 1.21439E-04-2.07099E-05-4.36573E-05 1.22201E-05-2.35740E-18-2.29377E-18
 -1      2695 1.25173E-04-3.37468E-05-3.93042E-05 1.54645E-05-1.22836E-18-3.07623E-18
 -1      2696 1.27634E-04-4.04672E-05-3.76330E-05 1.48133E-05-1.27034E-18-3.24271E-18
 -1      2697 1.26548E-04-4.53220E-05-3.49170E-05 1.05271E-05-9.98572E-19-3.07830E-18
 -1      2698 1.26378E-04-4.80272E-05-3.35998E-05 6.96909E-06-2.41576E-19-3.09422E-18
 -1      2699 1.32229E-04-4.62574E-05-3.70228E-05 1.08315E-05-7.60080E-19-3.58152E-18
 -1      2700 1.22184E-04-4.77016E-05-3.19872E-05 1.88707E-06 6.98299E-19-2.54824E-18
 -1      2701 1.20043E-04-4.68046E-05-3.12795E-05-1.57073E-06 1.72434E-18-2.30701E-18
 -1      2702 1.26380E-04-5.13433E-05-3.22518E-05 6.61188E-07 4.16714E-19-2.50046E-18
 -1      2703 1.15408E-04-4.41249E-05-3.06029E-05-4.78714E-06 1.60568E-18-2.83094E-18
 -1      2704 1.12734E-04-4.17806E-05-3.02944E-05-7.16718E-06 1.22468E-18-3.41399E-18
 -1      2705 1.16847E-04-4.77289E-05-2.97896E-05-7.44917E-06 1.19884E-18-3.03958E-18
 -1      2706 1.09098E-04-3.88754E-05-3.01146E-05-8.54400E-06 9.80245E-19-2.87383E-18
 -1      2707 1.06750E-04-3.65656E-05-2.99979E-05-9.80553E-06 7.92662E-19-2.30231E-18
 -1      2708 1.08382E-04-4.10903E-05-2.89764E-05-1.13128E-05 1.38334E-18-3.39249E-18
 -1      2709 1.04371E-04-3.43213E-05-3.00193E-05-1.00656E-05 5.45036E-19-1.92026E-18
 -1      2710 1.02598E-04-3.25687E-05-2.99644E-05-1.04969E-05 8.15718E-20-1.60960E-18
 -1      2711 1.02392E-04-3.51790E-05-2.89013E-05-1.23301E-05 1.08025E-18-3.01978E-18
 -1      2712 1.01220E-04-3.11128E-05-3.00338E-05-1.01805E-05-7.44321E-19-1.61857E-18
 -1      2713 9.99703E-05-2.99660E-05-2.99776E-05-1.00862E-05-5.41241E-19-1.52346E-18
 -1      2714 9.87352E-05-3.10205E-05-2.90766E-05-1.18764E-05-9.22166E-20-2.52018E-18
 -1      2715 9.92439E-05-2.91396E-05-3.00298E-05-9.51468E-06-4.47672E-19-1.33701E-18
 -1      2716 9.83753E-05-2.84638E-05-2.99527E-05-9.12388E-06-2.24048E-19-1.94300E-18
 -1      2717 9.67284E-05-2.84998E-05-2.92706E-05-1.07752E-05-7.40045E-19-1.79266E-18
 -1      2718 9.80298E-05-2.80646E-05-2.99696E-05-8.46072E-06-3.98782E-19-2.49807E-18
 -1      2719 9.74133E-05-2.77062E-05-2.98732E-05-7.93044E-06-4.22190E-19-2.90923E-18
 -1      2720 9.57299E-05-2.71661E-05-2.93991E-05-9.43255E-06-1.17353E-18-1.77614E-18
 -1      2721 9.72703E-05-2.75677E-05-2.98574E-05-7.26139E-06-8.08586E-19-3.80694E-18
 -1      2722 9.68164E-05-2.74044E-05-2.97504E-05-6.69169E-06-1.50691E-18-5.00134E-18
 -1      2723 9.52935E-05-2.65981E-05-2.94477E-05-8.04695E-06-1.57723E-18-3.03732E-18
 -1      2724 9.67708E-05-2.74107E-05-2.97115E-05-6.06227E-06-1.11791E-18-4.36864E-18
 -1      2725 9.64243E-05-2.73590E-05-2.96032E-05-5.51262E-06-6.58353E-19-4.17907E-18
 -1      2726 9.51427E-05-2.64804E-05-2.94300E-05-6.72043E-06-1.01905E-18-2.20200E-18
 -1      2727 9.64196E-05-2.74367E-05-2.95509E-05-4.94619E-06-3.44368E-19-3.88721E-18
 -1      2728 9.61482E-05-2.74443E-05-2.94483E-05-4.44840E-06-5.01741E-19-3.51404E-18
 -1      2729 9.51214E-05-2.66028E-05-2.93672E-05-5.50706E-06-1.37737E-19-1.15200E-18
 -1      2730 9.61565E-05-2.75503E-05-2.93908E-05-3.95499E-06 4.19908E-19-3.54938E-18
 -1      2731 9.59410E-05-2.75861E-05-2.92983E-05-3.52297E-06 5.49249E-19-2.38913E-18
 -1      2732 9.51485E-05-2.68357E-05-2.92787E-05-4.43355E-06 2.81906E-19-1.02172E-18
 -1      2733 9.59504E-05-2.76967E-05-2.92412E-05-3.10423E-06-1.61517E-19-2.50646E-18
 -1      2734 9.57790E-05-2.77433E-05-2.91609E-05-2.74086E-06 8.79319E-20-1.71905E-18
 -1      2735 9.51859E-05-2.71041E-05-2.91797E-05-3.50899E-06 2.87538E-19-1.85072E-18
 -1      2736 9.57852E-05-2.78465E-05-2.91077E-05-2.39326E-06 3.15109E-19-1.69325E-18
 -1      2737 9.56498E-05-2.78945E-05-2.90400E-05-2.09512E-06 1.48193E-19-1.30426E-18
 -1      2738 9.52181E-05-2.73675E-05-2.90807E-05-2.73086E-06 3.93391E-19-1.63964E-18
 -1      2739 9.56523E-05-2.79852E-05-2.89928E-05-1.81216E-06-1.63116E-19-1.48854E-18
 -1      2740 9.55465E-05-2.80301E-05-2.89371E-05-1.57258E-06 2.96071E-19-1.37896E-18
 -1      2741 9.52408E-05-2.76062E-05-2.89882E-05-2.08919E-06-1.56671E-19-1.61121E-18
 -1      2742 9.55460E-05-2.81066E-05-2.88965E-05-1.34631E-06 3.97860E-19-1.41558E-18
 -1      2743 9.54645E-05-2.81463E-05-2.88517E-05-1.15731E-06 2.98263E-19-1.55769E-18
 -1      2744 9.52546E-05-2.78124E-05-2.89056E-05-1.56978E-06 3.04559E-19-1.84771E-18
 -1      2745 9.54621E-05-2.82092E-05-2.88178E-05-9.79407E-07 2.84517E-19-9.73550E-19
 -1      2746 9.54005E-05-2.82431E-05-2.87825E-05-8.32857E-07 4.32329E-19-9.14323E-19
 -1      2747 9.52614E-05-2.79848E-05-2.88345E-05-1.15657E-06 2.88980E-19-1.74920E-18
 -1      2748 9.53970E-05-2.82937E-05-2.87547E-05-6.95256E-07 1.34159E-19-5.53961E-19
 -1      2749 9.53514E-05-2.83219E-05-2.87274E-05-5.83507E-07 9.36649E-19-5.15164E-19
 -1      2750 9.52633E-05-2.81255E-05-2.87748E-05-8.33277E-07 6.12202E-19-8.63928E-19
 -1      2751 9.53476E-05-2.83619E-05-2.87052E-05-4.78820E-07 2.05057E-18-1.01595E-18
 -1      2752 9.53145E-05-2.83849E-05-2.86844E-05-3.95045E-07 2.28391E-18-4.44283E-19
 -1      2753 9.52624E-05-2.82381E-05-2.87260E-05-5.84453E-07 9.27577E-19-1.16207E-20
 -1      2754 9.53108E-05-2.84159E-05-2.86670E-05-3.16750E-07 1.56240E-18-6.38044E-19
 -1      2755 9.52875E-05-2.84344E-05-2.86515E-05-2.55073E-07 5.69462E-19 4.77531E-19
 -1      2756 9.52598E-05-2.83265E-05-2.86868E-05-3.96115E-07 1.17125E-18-2.53131E-18
 -1      2757 9.52841E-05-2.84582E-05-2.86380E-05-1.97588E-07-4.80638E-19 4.19871E-19
 -1      2758 9.52683E-05-2.84728E-05-2.86267E-05-1.53096E-07-1.85090E-18 8.42447E-19
 -1      2759 9.52566E-05-2.83950E-05-2.86558E-05-2.56044E-07-5.15942E-20-1.59743E-18
 -1      2760 9.52654E-05-2.84908E-05-2.86165E-05-1.11775E-07-2.85052E-18 1.46154E-18
 -1      2761 9.52552E-05-2.85023E-05-2.86084E-05-8.04669E-08-1.70286E-18 1.41168E-18
 -1      2762 9.52532E-05-2.84471E-05-2.86318E-05-1.53882E-07-1.87017E-18-4.38982E-19
 -1      2763 9.52528E-05-2.85157E-05-2.86007E-05-5.15389E-08-1.46435E-18 1.13670E-18
 -1      2764 9.52467E-05-2.85248E-05-2.85951E-05-3.02492E-08-9.22701E-19 3.24163E-19
 -1      2765 9.52500E-05-2.84865E-05-2.86135E-05-8.10696E-08-2.37764E-18 1.54034E-18
 -1      2766 9.52448E-05-2.85349E-05-2.85893E-05-1.07551E-08-6.23922E-19 1.17083E-21
 -1      2767 9.52416E-05-2.85422E-05-2.85855E-05 2.93363E-09 3.52974E-20-4.32260E-19
 -1      2768 9.52473E-05-2.85160E-05-2.85995E-05-3.07369E-08-1.35969E-18 1.90022E-19
 -1      2769 9.52403E-05-2.85499E-05-2.85812E-05 1.52695E-08 4.84471E-19-1.28216E-18
 -1      2770 9.52392E-05-2.85560E-05-2.85785E-05 2.31365E-08 9.21052E-19-1.00548E-18
 -1      2771 9.52452E-05-2.85382E-05-2.85890E-05 2.44791E-09-1.51682E-19 3.79388E-20
 -1      2772 9.52384E-05-2.85623E-05-2.85752E-05 2.99831E-08-2.53150E-19-1.93103E-18
 -1      2773 9.52387E-05-2.85677E-05-2.85733E-05 3.32408E-08-1.34707E-18-2.64969E-18
 -1      2774 9.52437E-05-2.85556E-05-2.85808E-05 2.25627E-08-9.48019E-19-2.97154E-18
 -1      2775 9.93962E-05-2.93266E-05-3.00286E-05-6.55746E-06 6.67433E-19-9.32383E-20
 -1      2776 9.87515E-05-2.88070E-05-2.99590E-05-6.19933E-06 6.73338E-19-6.95354E-20
 -1      2777 1.19440E-04-5.93133E-05-2.60715E-05 2.66395E-05-3.72165E-19-1.11055E-18
 -1      2778 1.05760E-04-5.43646E-05-2.16496E-05 3.29994E-05-1.43043E-19-1.46836E-18
 -1      2779 9.83695E-05-2.83932E-05-2.99852E-05-5.59627E-06 7.07391E-19-2.70256E-19
 -1      2780 9.79163E-05-2.79619E-05-2.99600E-05-4.96741E-06 9.18857E-19-6.48556E-20
 -1      2781 9.78752E-05-2.80869E-05-2.99267E-05-6.30706E-06 7.59183E-19-4.02742E-19
 -1      2782 1.02701E-04-3.21715E-05-3.02435E-05-6.59700E-06 2.59479E-19-1.95605E-19
 -1      2783 1.01711E-04-3.13080E-05-3.01491E-05-6.94542E-06 4.15304E-19-2.48403E-19
 -1      2784 1.05041E-04-3.42156E-05-3.03848E-05-5.28318E-06 4.93479E-19-2.04089E-19
 -1      2785 1.03938E-04-3.31897E-05-3.02898E-05-6.13996E-06 4.54642E-19-1.00325E-20
 -1      2786 1.02492E-04-3.28115E-05-2.98946E-05-7.42567E-06 2.87401E-19-4.27861E-19
 -1      2787 1.07719E-04-3.64616E-05-3.05851E-05-2.76105E-06 3.36517E-19 6.78511E-20
 -1      2788 1.06631E-04-3.54345E-05-3.04760E-05-4.20613E-06 4.09729E-19-1.69094E-19
 -1      2789 1.05335E-04-3.54052E-05-3.00059E-05-6.00729E-06 3.76066E-19-2.37597E-19
 -1      2790 1.10337E-04-3.82913E-05-3.09289E-05 1.05280E-06 8.95158E-20 4.14697E-19
 -1      2791 1.09519E-04-3.76397E-05-3.07714E-05-9.31342E-07 2.19599E-19 3.76886E-19
 -1      2792 1.08771E-04-3.81944E-05-3.02786E-05-3.20307E-06 1.36265E-19 1.86411E-19
 -1      2793 1.12095E-04-3.85907E-05-3.15392E-05 5.73249E-06 1.71969E-19 7.50923E-19
 -1      2794 1.11917E-04-3.88961E-05-3.12842E-05 3.56358E-06 1.21275E-19 6.62606E-19
 -1      2795 1.12243E-04-4.02628E-05-3.08557E-05 1.13658E-06-7.79370E-21 7.15807E-19
 -1      2796 1.12009E-04-3.61301E-05-3.25110E-05 9.92633E-06-3.49219E-20 1.12741E-18
 -1      2797 1.12758E-04-3.78981E-05-3.21313E-05 8.35723E-06-1.40336E-19 9.54781E-19
 -1      2798 1.14606E-04-4.00830E-05-3.19051E-05 6.49787E-06-1.10999E-19 1.35888E-18
 -1      2799 1.09651E-04-3.07311E-05-3.37601E-05 1.12351E-05 7.52364E-19 1.59291E-18
 -1      2800 1.11144E-04-3.37098E-05-3.33119E-05 1.13585E-05 2.92468E-19 1.59175E-18
 -1      2801 1.14440E-04-3.62149E-05-3.34933E-05 1.11072E-05 2.07027E-20 1.71296E-18
 -1      2802 1.06209E-04-2.46658E-05-3.48987E-05 7.66594E-06 1.56573E-18 1.79710E-18
 -1      2803 1.07650E-04-2.74275E-05-3.45419E-05 1.00383E-05 1.37480E-18 2.29120E-18
 -1      2804 1.11506E-04-2.93555E-05-3.52106E-05 1.19039E-05 7.21464E-19 2.39054E-18
 -1      2805 1.04440E-04-2.18517E-05-3.54332E-05-6.47424E-08 1.41652E-18 1.16805E-18
 -1      2806 1.04867E-04-2.25655E-05-3.53397E-05 3.73075E-06 1.61241E-18 1.23518E-18
 -1      2807 1.08025E-04-2.24998E-05-3.67469E-05 6.45411E-06 1.78438E-18 1.64248E-18
 -1      2808 1.06075E-04-2.46131E-05-3.50563E-05-7.97435E-06 9.25880E-19 3.28473E-19
 -1      2809 1.05075E-04-2.27026E-05-3.52804E-05-4.82685E-06 1.35943E-18 9.55281E-19
 -1      2810 1.07043E-04-2.05262E-05-3.71456E-05-2.90252E-06 1.70074E-18 1.20369E-18
 -1      2811 1.09791E-04-3.07708E-05-3.39976E-05-1.21225E-05-2.68040E-20-4.10943E-21
 -1      2812 1.08006E-04-2.75381E-05-3.44137E-05-1.08805E-05 6.13742E-19 2.42476E-19
 -1      2813 1.09514E-04-2.49892E-05-3.62413E-05-1.06771E-05 1.03498E-18-3.01623E-20
 -1      2814 1.12477E-04-3.61648E-05-3.27860E-05-1.08645E-05 4.24716E-20-1.17612E-18
 -1      2815 1.11307E-04-3.37769E-05-3.31844E-05-1.16468E-05-1.47811E-19-4.74464E-19
 -1      2816 1.13587E-04-3.35204E-05-3.43364E-05-1.26384E-05 2.28355E-19-8.49031E-19
 -1      2817 1.12946E-04-3.87721E-05-3.18004E-05-6.77895E-06 2.67345E-19-1.29179E-18
 -1      2818 1.12615E-04-3.77448E-05-3.20967E-05-8.75985E-06 2.52537E-19-9.52163E-19
 -1      2819 1.14957E-04-3.84775E-05-3.27189E-05-9.81983E-06 2.25738E-19-1.55343E-18
 -1      2820 1.11214E-04-3.84259E-05-3.11698E-05-2.03582E-06-3.49112E-21-8.50740E-19
 -1      2821 1.11703E-04-3.86847E-05-3.13472E-05-4.12324E-06 4.37400E-19-1.04168E-18
 -1      2822 1.13821E-04-4.05162E-05-3.14191E-05-4.56776E-06 2.18305E-19-7.77285E-19
 -1      2823 1.08553E-04-3.65723E-05-3.08117E-05 1.77037E-06 1.14621E-19 6.83053E-20
 -1      2824 1.09476E-04-3.74510E-05-3.09200E-05 9.10234E-08-6.67915E-20-5.22969E-19
 -1      2825 1.10713E-04-3.92539E-05-3.06491E-05 2.86812E-07-1.58514E-19-7.74062E-19
 -1      2826 1.05804E-04-3.43229E-05-3.06012E-05 4.26485E-06 6.68057E-19-8.78199E-19
 -1      2827 1.06850E-04-3.53432E-05-3.06854E-05 3.16142E-06 6.67254E-19 5.42850E-20
 -1      2828 1.07215E-04-3.66984E-05-3.02552E-05 3.74599E-06 4.99564E-19 2.62366E-19
 -1      2829 1.03407E-04-3.23161E-05-3.04430E-05 5.55838E-06 1.00885E-19-1.39900E-18
 -1      2830 1.04399E-04-3.32165E-05-3.05314E-05 4.98449E-06 4.83807E-19-1.17899E-18
 -1      2831 1.04083E-04-3.39940E-05-3.00698E-05 5.75305E-06 8.58114E-19 8.84149E-20
 -1      2832 1.01484E-04-3.07821E-05-3.02853E-05 5.95585E-06-7.47796E-20-4.83467E-19
 -1      2833 1.02352E-04-3.14740E-05-3.03877E-05 5.78407E-06 6.79024E-20-9.69551E-19
 -1      2834 1.01620E-04-3.17502E-05-2.99685E-05 6.60026E-06-1.30171E-20-1.13130E-19
 -1      2835 9.99978E-05-2.97193E-05-3.01105E-05 5.76623E-06 2.00040E-19 2.61879E-19
 -1      2836 1.00728E-04-3.02074E-05-3.02254E-05 5.86206E-06 1.77673E-19 5.17545E-20
 -1      2837 9.98125E-05-3.01293E-05-2.98811E-05 6.65575E-06-1.16061E-19 4.38847E-19
 -1      2838 9.88621E-05-2.90373E-05-2.99207E-05 5.23727E-06-7.28942E-19 5.73153E-21
 -1      2839 9.94655E-05-2.93608E-05-3.00414E-05 5.48859E-06 1.10502E-19 1.87565E-19
 -1      2840 9.85291E-05-2.90704E-05-2.97792E-05 6.22657E-06 1.22449E-19 5.78682E-19
 -1      2841 9.79932E-05-2.86305E-05-2.97254E-05 4.54682E-06-1.18707E-18 2.86121E-19
 -1      2842 9.84871E-05-2.88338E-05-2.98446E-05 4.87145E-06-1.20103E-18 1.29664E-19
 -1      2843 9.76261E-05-2.84416E-05-2.96579E-05 5.53804E-06-8.38923E-19 3.77287E-19
 -1      2844 9.73244E-05-2.84088E-05-2.95353E-05 3.81286E-06-8.47133E-19 1.32225E-18
 -1      2845 9.77254E-05-2.85296E-05-2.96469E-05 4.15580E-06-9.03328E-19 4.29321E-19
 -1      2846 9.69865E-05-2.81110E-05-2.95232E-05 4.74402E-06-1.14166E-18 6.53126E-19
 -1      2847 9.68068E-05-2.83049E-05-2.93587E-05 3.10759E-06-4.00082E-19 1.38445E-18
 -1      2848 9.71296E-05-2.83714E-05-2.94590E-05 3.43528E-06-4.36832E-19 1.51164E-18
 -1      2849 9.65267E-05-2.79723E-05-2.93843E-05 3.94339E-06-9.18540E-19 1.19380E-18
 -1      2850 9.64056E-05-2.82720E-05-2.92012E-05 2.47068E-06-4.27700E-19 7.57476E-19
 -1      2851 9.66625E-05-2.83041E-05-2.92880E-05 2.76496E-06-1.00631E-19 1.33802E-18
 -1      2852 9.61902E-05-2.79487E-05-2.92495E-05 3.19499E-06-1.98816E-20 6.91202E-19
 -1      2853 9.60953E-05-2.82792E-05-2.90651E-05 1.91992E-06 2.97395E-19 8.06870E-19
 -1      2854 9.62971E-05-2.82904E-05-2.91381E-05 2.17296E-06-2.04029E-19 7.41723E-19
 -1      2855 9.59402E-05-2.79885E-05-2.91248E-05 2.52980E-06-1.90054E-19-2.99566E-19
 -1      2856 9.58568E-05-2.83071E-05-2.89508E-05 1.45914E-06 6.56452E-19 8.69485E-19
 -1      2857 9.60131E-05-2.83061E-05-2.90107E-05 1.66963E-06 6.06418E-19 8.47761E-19
 -1      2858 9.57525E-05-2.80588E-05-2.90138E-05 1.96013E-06 6.41380E-19-1.09519E-18
 -1      2859 9.56754E-05-2.83437E-05-2.88572E-05 1.08391E-06 9.96488E-19 5.81625E-19
 -1      2860 9.57945E-05-2.83361E-05-2.89052E-05 1.25433E-06 1.01717E-18 7.34077E-19
 -1      2861 9.56109E-05-2.81394E-05-2.89183E-05 1.48644E-06 1.20802E-18-2.50350E-19
 -1      2862 9.55392E-05-2.83820E-05-2.87823E-05 7.85395E-07 8.42685E-19 8.73904E-19
 -1      2863 9.56283E-05-2.83714E-05-2.88198E-05 9.20180E-07 7.44712E-19 9.34400E-19
 -1      2864 9.55041E-05-2.82188E-05-2.88382E-05 1.10224E-06 8.14575E-19-8.34599E-19
 -1      2865 9.54387E-05-2.84181E-05-2.87235E-05 5.52898E-07 1.58045E-18 7.73071E-19
 -1      2866 9.55039E-05-2.84066E-05-2.87523E-05 6.57241E-07 1.45609E-18 1.70632E-18
 -1      2867 9.54242E-05-2.82911E-05-2.87727E-05 7.97400E-07 7.02370E-19-5.55393E-19
 -1      2868 9.53659E-05-2.84503E-05-2.86784E-05 3.75438E-07 1.12358E-18 1.38108E-18
 -1      2869 9.54125E-05-2.84391E-05-2.87000E-05 4.54575E-07 1.43533E-18 1.54430E-18
 -1      2870 9.53650E-05-2.83537E-05-2.87203E-05 5.60412E-07 1.00216E-18 2.06129E-19
 -1      2871 9.53146E-05-2.84778E-05-2.86445E-05 2.42691E-07-3.86815E-19 1.29348E-18
 -1      2872 9.53469E-05-2.84676E-05-2.86604E-05 3.01483E-07 8.57348E-19 2.18472E-18
 -1      2873 9.53218E-05-2.84059E-05-2.86792E-05 3.79760E-07 1.01751E-18 2.39669E-18
 -1      2874 9.52795E-05-2.85007E-05-2.86196E-05 1.45482E-07-4.78726E-21 7.94294E-19
 -1      2875 9.53010E-05-2.84917E-05-2.86309E-05 1.88201E-07-6.35269E-19 9.83674E-19
 -1      2876 9.52908E-05-2.84483E-05-2.86476E-05 2.44767E-07 8.49731E-20 3.19969E-18
 -1      2877 9.52566E-05-2.85193E-05-2.86018E-05 7.59949E-08 5.55401E-19-2.21610E-19
 -1      2878 9.52701E-05-2.85116E-05-2.86096E-05 1.06244E-07 1.89800E-19-1.35569E-19
 -1      2879 9.52693E-05-2.84819E-05-2.86238E-05 1.46017E-07 3.69516E-19 1.81772E-18
 -1      2880 9.52427E-05-2.85344E-05-2.85893E-05 2.78140E-08-4.39239E-19 7.52376E-19
 -1      2881 9.52504E-05-2.85278E-05-2.85945E-05 4.85193E-08 2.34680E-19 1.52062E-19
 -1      2882 9.52548E-05-2.85082E-05-2.86062E-05 7.55355E-08 3.77324E-19 1.06528E-18
 -1      2883 9.52352E-05-2.85467E-05-2.85808E-05-4.12907E-09 7.00357E-20 4.01872E-20
 -1      2884 9.52389E-05-2.85411E-05-2.85842E-05 9.31202E-09-1.42110E-20 7.23281E-20
 -1      2885 9.52456E-05-2.85286E-05-2.85934E-05 2.68013E-08-1.06354E-19 2.91092E-19
 -1      2886 9.52323E-05-2.85570E-05-2.85752E-05-2.36498E-08-4.12118E-19 2.06868E-20
 -1      2887 9.52331E-05-2.85520E-05-2.85772E-05-1.57919E-08-6.87064E-20 4.56278E-19
 -1      2888 9.52403E-05-2.85446E-05-2.85842E-05-5.31676E-09 3.34204E-19 5.27644E-20
 -1      2889 9.52325E-05-2.85660E-05-2.85713E-05-3.33618E-08-1.49741E-18 1.87641E-18
 -1      2890 9.52315E-05-2.85616E-05-2.85726E-05-3.00668E-08-1.31388E-18 9.86871E-19
 -1      2891 9.52379E-05-2.85575E-05-2.85775E-05-2.47070E-08-1.28221E-18 1.73255E-21
 -1      2892 9.52355E-05-2.85740E-05-2.85692E-05-3.52738E-08-2.58420E-18 2.74231E-18
 -1      2893 9.52334E-05-2.85695E-05-2.85702E-05-3.54037E-08-1.73750E-18 2.02156E-18
 -1      2894 9.52389E-05-2.85679E-05-2.85734E-05-3.33758E-08-1.94033E-18 8.72368E-19
 -1      2895 9.52414E-05-2.85770E-05-2.85705E-05-3.52848E-08-1.98878E-18 6.79507E-19
 -1      2896 9.52491E-05-2.85706E-05-2.85765E-05-1.92721E-09-4.05920E-19-2.29000E-20
 -1      2897 9.52491E-05-2.85707E-05-2.85765E-05-5.64543E-09-5.14919E-20-2.64189E-19
 -1      2898 9.52382E-05-2.85717E-05-2.85712E-05 3.54323E-08-1.61673E-18-2.17633E-18
 -1      2899 9.52389E-05-2.85752E-05-2.85701E-05 3.55058E-08-1.82305E-18-2.67871E-18
 -1      2900 9.52422E-05-2.85773E-05-2.85708E-05 3.49537E-08-1.25240E-18-1.96144E-18
 -1      2901 9.52429E-05-2.85683E-05-2.85750E-05 3.21171E-08-2.01468E-18-3.35266E-18
 -1      2902 9.52498E-05-2.85738E-05-2.85755E-05-1.65439E-08 8.64826E-19-4.88728E-19
 -1      2903 9.52494E-05-2.85739E-05-2.85752E-05-2.02888E-08 1.28880E-18 4.13521E-20
 -1      2904 9.52493E-05-2.85709E-05-2.85765E-05 5.17043E-09-9.54954E-19-5.17359E-21
 -1      2905 9.52492E-05-2.85707E-05-2.85765E-05 1.42094E-09-6.22716E-19-5.66593E-19
 -1      2906 9.52474E-05-2.85568E-05-2.85816E-05-3.07107E-10-7.25720E-20-1.08263E-18
 -1      2907 9.52495E-05-2.85718E-05-2.85762E-05-9.08315E-09-6.18924E-19-1.00704E-18
 -1      2908 9.52494E-05-2.85720E-05-2.85760E-05-1.28552E-08 1.24366E-19-9.54954E-19
 -1      2909 9.52484E-05-2.85608E-05-2.85803E-05-1.34509E-08-2.09087E-19-9.90199E-19
 -1      2910 9.52477E-05-2.85578E-05-2.85812E-05-6.66793E-09-8.27690E-19-1.16315E-19
 -1      2911 9.76910E-05-2.75851E-05-3.00401E-05-4.11164E-06 1.04276E-18-2.30823E-19
 -1      2912 9.74343E-05-2.71569E-05-3.00911E-05-3.19149E-06 1.19315E-18-1.08798E-19
 -1      2913 9.72515E-05-2.71276E-05-3.00687E-05-4.74293E-06 1.00884E-18-5.39344E-19
 -1      2914 9.52498E-05-2.85723E-05-2.85760E-05 1.24188E-08 9.26411E-20 2.12692E-18
 -1      2915 9.52497E-05-2.85720E-05-2.85762E-05 8.62930E-09-1.31158E-18 2.18269E-18
 -1      2916 9.52479E-05-2.85580E-05-2.85813E-05 6.07600E-09 8.38306E-20 8.06500E-19
 -1      2917 9.52498E-05-2.85743E-05-2.85752E-05 2.00783E-08-6.08154E-20-5.92171E-19
 -1      2918 9.52502E-05-2.85742E-05-2.85755E-05 1.62319E-08-4.58276E-19 6.39737E-19
 -1      2919 9.52488E-05-2.85612E-05-2.85803E-05 1.30376E-08-9.51920E-19 1.36630E-18
 -1      2920 9.52482E-05-2.85761E-05-2.85738E-05 2.76449E-08-6.70996E-19-1.54032E-18
 -1      2921 9.52498E-05-2.85765E-05-2.85743E-05 2.40525E-08 3.71534E-19-1.25727E-18
 -1      2922 9.52491E-05-2.85653E-05-2.85787E-05 2.06283E-08-9.45371E-19-1.87331E-19
 -1      2923 9.52458E-05-2.85786E-05-2.85716E-05 3.22979E-08-1.08371E-18-1.51504E-18
 -1      2924 3.36059E-05-1.25344E-05-8.32951E-06 2.82223E-06-2.28964E-19-5.25902E-18
 -1      2925 3.54002E-05-1.36543E-05-8.85136E-06-1.20360E-05-7.50498E-19-4.91681E-18
 -1      2926 9.51314E-05-2.04310E-05-3.20472E-05-5.26513E-06-1.83431E-18-2.35876E-18
 -1      2927 9.57221E-05-2.21616E-05-3.15381E-05-3.17536E-06-1.74145E-18-2.06172E-18
 -1      2928 3.54337E-05-1.68571E-05-7.47463E-06-1.84621E-05 1.15445E-18 2.99828E-18
 -1      2929 4.48443E-05-2.29261E-05-9.01385E-06-2.89888E-05 9.95687E-19 2.41955E-18
 -1      2930 1.35871E-04-3.80550E-05-4.23565E-05-1.36900E-05-2.26857E-18 4.43951E-19
 -1      2931 1.40176E-04-4.95642E-05-3.87889E-05-6.36562E-06-1.48707E-18-2.23828E-19
 -1      2932 1.00823E-04-3.05467E-05-3.01242E-05-6.94280E-06 6.29419E-19-1.48775E-19
 -1      2933 9.99968E-05-2.98742E-05-3.00342E-05-6.89448E-06 7.34817E-19-1.15067E-19
 -1      2934 9.88694E-05-2.92243E-05-2.98678E-05-7.34022E-06 6.97347E-19-1.80770E-19
 -1      2935 1.00363E-04-3.07487E-05-2.98594E-05-7.77400E-06 5.99853E-19-2.06663E-19
 -1      2936 9.62575E-05-2.34767E-05-3.11771E-05-1.59865E-06-1.55502E-18-1.81156E-18
 -1      2937 9.63532E-05-2.43735E-05-3.08548E-05 2.61963E-07-1.31922E-18-1.66915E-18
 -1      2938 9.55711E-05-2.34845E-05-3.08917E-05 9.01202E-07-1.19090E-18-1.77109E-18
 -1      2939 9.49040E-05-2.13645E-05-3.15122E-05-2.10821E-06-1.43654E-18-2.16533E-18
 -1      2940 5.76302E-05-3.02940E-05-1.11667E-05-3.44235E-05 1.46537E-18 1.86728E-18
 -1      2941 7.27673E-05-3.88946E-05-1.44175E-05-3.86448E-05 2.22854E-18 1.04619E-18
 -1      2942 1.26079E-04-1.53825E-05-4.80567E-05-9.79861E-06 2.93624E-18 1.62524E-19
 -1      2943 1.28646E-04-2.40744E-05-4.52109E-05-1.28103E-05 2.58705E-18-6.13040E-20
 -1      2944 8.92306E-05-1.39284E-05-3.22929E-05 2.53712E-06 2.07219E-18-2.36498E-18
 -1      2945 8.84081E-05-1.31369E-05-3.22865E-05 1.89762E-06 1.77365E-18-2.59093E-18
 -1      2946 8.88672E-05-1.42571E-05-3.19564E-05 1.08802E-06 1.58776E-18-2.48136E-18
 -1      2947 9.05941E-05-1.60382E-05-3.19315E-05 1.85709E-06 1.93450E-18-2.04440E-18
 -1      2948 1.25086E-04-1.00621E-05-4.99063E-05 2.94999E-06 3.13550E-18 1.36425E-18
 -1      2949 1.23590E-04-9.88985E-06-4.92284E-05-3.96017E-06 3.13085E-18 7.45918E-19
 -1      2950 8.92372E-05-4.69594E-05-1.80203E-05 3.84943E-05 2.37381E-19-2.20636E-18
 -1      2951 7.08818E-05-3.65372E-05-1.42549E-05 3.69514E-05 7.95364E-19-3.10543E-18
 -1      2952 8.81009E-05-1.28041E-05-3.22969E-05-1.98907E-06-2.10915E-19-3.23368E-18
 -1      2953 8.88990E-05-1.35627E-05-3.23077E-05-2.57113E-06-5.22361E-19-3.29128E-18
 -1      2954 9.22494E-05-1.59716E-05-3.27010E-05-6.24378E-06-1.61346E-18-2.91397E-18
 -1      2955 1.30994E-04-2.05491E-05-4.78729E-05 1.11321E-05 2.69738E-18 1.63117E-18
 -1      2956 1.28134E-04-1.33188E-05-4.98411E-05 7.89014E-06 3.04339E-18 1.18320E-18
 -1      2957 6.95739E-05-3.57078E-05-1.39708E-05-3.77599E-05-2.68996E-18-1.90011E-18
 -1      2958 8.73142E-05-4.50683E-05-1.79855E-05-3.82074E-05-2.71601E-18-9.62600E-19
 -1      2959 3.06717E-05-1.28411E-05-7.21828E-06 6.73894E-06 2.13293E-19 1.86601E-18
 -1      2960 3.13401E-05-1.29962E-05-7.28329E-06-7.17696E-06 6.25375E-19 2.88012E-18
 -1      2961 4.10507E-05-1.36395E-05-1.11233E-05 9.84450E-06-6.43705E-19 6.10075E-19
 -1      2962 1.37572E-04-5.72339E-05-3.50116E-05 4.93841E-06-9.90870E-19-4.10705E-19
 -1      2963 1.30806E-04-5.99901E-05-3.00927E-05 1.53162E-05-4.33999E-19-7.45813E-19
 -1      2964 4.37732E-05-1.97960E-05-9.77083E-06-2.49146E-05-1.69708E-18-4.22966E-18
 -1      2965 5.57112E-05-2.77617E-05-1.16967E-05-3.46350E-05-2.28911E-18-3.17976E-18
 -1      2966 6.88624E-05-3.14811E-05-1.54783E-05-3.32707E-05-2.43601E-18-2.07375E-18
 -1      2967 9.72957E-05-2.66902E-05-3.02559E-05-2.04058E-06 1.52110E-18-1.96341E-19
 -1      2968 9.72192E-05-2.61381E-05-3.04266E-05-7.33597E-07 1.69227E-18-1.62072E-19
 -1      2969 9.65291E-05-2.46174E-05-3.08228E-05 1.91011E-07 1.90294E-18-6.26133E-19
 -1      2970 9.68597E-05-2.60820E-05-3.03449E-05-2.61201E-06 1.37887E-18-6.74649E-19
 -1      2971 1.33548E-04-5.69982E-05-3.28503E-05-1.08503E-05-1.04381E-18 9.89864E-19
 -1      2972 1.39923E-04-5.19014E-05-3.81129E-05-2.98552E-06 1.63143E-19 1.40660E-18
 -1      2973 1.37419E-04-4.71592E-05-3.89620E-05 4.60002E-06 3.73727E-19 1.25467E-18
 -1      2974 9.02259E-05-4.69916E-05-1.80039E-05-3.63523E-05 2.21997E-18-7.67041E-19
 -1      2975 1.06395E-04-5.44447E-05-2.24265E-05-3.22083E-05 1.87967E-18-2.56757E-18
 -1      2976 1.20499E-04-5.87368E-05-2.61717E-05-2.37285E-05 2.21695E-18-2.29975E-18
 -1      2977 1.29315E-04-6.03424E-05-2.99148E-05-1.68430E-05 1.98015E-18-2.30996E-18
 -1      2978 1.36347E-04-5.75940E-05-3.37136E-05-5.86232E-06 8.57978E-19-3.49909E-18
 -1      2979 1.40539E-04-5.21323E-05-3.83693E-05 2.96817E-06-5.15340E-19-4.12982E-18
 -1      2980 1.35961E-04-4.78783E-05-3.79301E-05 8.66132E-06-6.18519E-19-3.64208E-18
 -1      2981 1.32504E-04-5.77687E-05-3.19428E-05-7.22542E-06 1.37603E-18-3.36002E-18
 -1      2982 1.26313E-04-3.68255E-05-3.86078E-05-1.39161E-05-1.57876E-18 1.10635E-18
 -1      2983 8.98784E-05-1.45904E-05-3.22939E-05-2.96436E-06-6.72835E-19-3.19915E-18
 -1      2984 9.09435E-05-1.56423E-05-3.22868E-05-3.56460E-06-1.04421E-18-2.99482E-18
 -1      2985 9.01970E-05-1.55822E-05-3.19528E-05-1.88929E-06-5.34877E-19-2.94640E-18
 -1      2986 8.72732E-05-1.26756E-05-3.19511E-05-1.66532E-07 7.07266E-19-2.85005E-18
 -1      2987 8.65282E-05-1.12831E-05-3.22674E-05-2.81825E-07 6.93477E-19-3.05697E-18
 -1      2988 8.66577E-05-1.13980E-05-3.22733E-05-7.92093E-07 4.66022E-19-3.20911E-18
 -1      2989 1.05997E-04-4.98831E-05-2.40445E-05 2.60929E-05-1.74973E-18-1.21609E-18
 -1      2990 9.80625E-05-4.83425E-05-2.10630E-05 3.33573E-05-1.58247E-18-1.27124E-18
 -1      2991 8.83874E-05-4.10520E-05-2.00248E-05 3.25566E-05-1.45976E-18-1.15519E-18
 -1      2992 1.28565E-04-5.73816E-05-3.04436E-05 1.20074E-05-1.72914E-18-8.98173E-19
 -1      2993 1.21009E-04-5.56220E-05-2.81233E-05 1.63377E-05-1.95193E-18-1.18880E-18
 -1      2994 1.24996E-04-5.84194E-05-2.83784E-05 1.75018E-05 5.12455E-20-7.55712E-19
 -1      2995 9.51951E-05-2.10591E-05-3.17833E-05 4.21900E-06 2.48467E-18-7.32637E-19
 -1      2996 1.31391E-04-4.81972E-05-3.59372E-05-8.35737E-06-1.87882E-19 1.26324E-18
 -1      2997 1.28237E-04-4.27297E-05-3.68351E-05-1.30890E-05-5.35828E-19 1.04897E-18
 -1      2998 1.19791E-04-1.44797E-05-4.55542E-05-6.96105E-06 2.52268E-18 3.88418E-19
 -1      2999 1.21535E-04-1.68986E-05-4.57891E-05-7.49238E-06-2.98092E-18-3.29443E-19
 -1      3000 9.52486E-05-2.85648E-05-2.85787E-05-2.07251E-08 5.25360E-19 3.55946E-19
 -1      3001 9.52493E-05-2.85760E-05-2.85743E-05-2.40992E-08 1.38331E-18 1.65921E-19
 -1      3002 9.52479E-05-2.85756E-05-2.85738E-05-2.74104E-08-5.64292E-20-2.43758E-19
 -1      3003 1.26838E-04-2.84937E-05-4.26773E-05 1.60798E-05-1.85596E-18-3.02915E-18
 -1      3004 9.99871E-05-4.95313E-05-2.13296E-05 3.23367E-05 2.80686E-19-1.91879E-18
 -1      3005 9.52467E-05-2.85774E-05-2.85726E-05-3.05518E-08-1.14190E-18-4.74952E-19
 -1      3006 9.52440E-05-2.85762E-05-2.85719E-05-3.27263E-08-1.57088E-18-4.99341E-19
 -1      3007 9.52428E-05-2.85712E-05-2.85735E-05-3.27864E-08-2.16489E-18-1.73813E-19
 -1      3008 9.52470E-05-2.85688E-05-2.85764E-05-2.74856E-08 1.27060E-19 1.27781E-18
 -1      3009 4.06768E-05-1.45557E-05-1.05571E-05-1.19777E-05 1.66813E-19 2.83057E-18
 -1      3010 9.52464E-05-2.85708E-05-2.85753E-05 2.96632E-08-1.46964E-18-1.29274E-18
 -1      3011 1.20991E-04-1.36099E-05-4.64700E-05 5.73096E-06 3.14408E-18 1.13076E-18
 -1      3012 4.24485E-05-1.50498E-05-1.11763E-05 1.04169E-05 3.56654E-19-4.56085E-18
 -1      3013 7.02038E-05-3.09976E-05-1.66043E-05 3.16841E-05-2.09651E-18 6.95943E-19
 -1      3014 5.85070E-05-2.57230E-05-1.34036E-05 3.13940E-05-2.07830E-18 6.73603E-19
 -1      3015 5.40975E-05-2.01475E-05-1.41780E-05 2.43077E-05-2.01207E-18 2.91591E-19
 -1      3016 8.49945E-05-4.16571E-05-1.81782E-05-3.44800E-05 1.80122E-18-1.65013E-19
 -1      3017 5.72013E-05-2.59476E-05-1.28179E-05-2.97615E-05 1.58438E-18 1.86157E-18
 -1      3018 1.32757E-04-3.57650E-05-4.20952E-05-1.19969E-05 1.53620E-18-8.27234E-19
 -1      3019 1.35452E-04-4.51561E-05-3.89495E-05-6.91493E-06 1.34689E-18-1.16838E-18
 -1      3020 9.51807E-05-2.17954E-05-3.14410E-05 2.42906E-06 2.24082E-18-9.39409E-19
 -1      3021 1.35793E-04-5.30055E-05-3.55409E-05-2.63039E-06-5.33214E-19 3.25578E-19
 -1      3022 6.46107E-05-3.08235E-05-1.40026E-05 3.37655E-05 1.07870E-18-3.26679E-18
 -1      3023 5.85063E-05-2.43155E-05-1.44313E-05 2.80491E-05 1.01877E-18-3.32926E-18
 -1      3024 7.72483E-05-3.50545E-05-1.77933E-05 3.25311E-05 1.33556E-18-2.95826E-18
 -1      3025 1.13596E-04-5.53305E-05-2.47709E-05-2.52997E-05 1.58353E-18-1.86662E-18
 -1      3026 9.85242E-05-4.94351E-05-2.06431E-05-3.48450E-05-2.69124E-18-6.45201E-19
 -1      3027 1.07271E-04-5.23391E-05-2.35822E-05-2.87727E-05-2.52649E-18-8.45709E-21
 -1      3028 9.08235E-05-4.33523E-05-2.00845E-05-3.37192E-05-2.59690E-18-6.16375E-19
 -1      3029 8.69695E-05-1.17053E-05-3.22793E-05-1.10668E-06 2.83089E-19-3.21164E-18
 -1      3030 8.74390E-05-1.21322E-05-3.22928E-05-1.64051E-06-6.04405E-21-3.25919E-18
 -1      3031 8.85341E-05-1.38976E-05-3.19658E-05-1.26300E-06-1.23761E-19-3.05206E-18
 -1      3032 8.75414E-05-1.29279E-05-3.19573E-05-7.02462E-07 3.06951E-19-3.07370E-18
 -1      3033 9.26618E-05-1.73639E-05-3.22684E-05-4.50396E-06-1.35373E-18-2.81621E-18
 -1      3034 1.20842E-04-2.49449E-05-4.15291E-05-1.40116E-05 1.76665E-18 4.04961E-19
 -1      3035 1.28268E-04-3.08693E-05-4.21469E-05-1.40464E-05 1.45642E-18-2.33199E-19
 -1      3036 1.26015E-04-3.55635E-05-3.88345E-05-1.32621E-05 6.44698E-19-4.53546E-19
 -1      3037 1.29076E-04-5.91719E-05-3.00100E-05-1.59760E-05-1.59962E-18 5.08326E-19
 -1      3038 1.31397E-04-5.61274E-05-3.23677E-05-7.30439E-06-1.16702E-18 3.45166E-19
 -1      3039 1.21583E-04-5.73609E-05-2.74675E-05-2.04363E-05-1.70153E-18 2.50139E-21
 -1      3040 1.30654E-04-3.22007E-05-4.24146E-05 1.23744E-05 1.89926E-18 1.37129E-18
 -1      3041 1.31844E-04-2.69162E-05-4.54815E-05 1.22106E-05 2.40600E-18 1.76808E-18
 -1      3042 1.24157E-04-2.20004E-05-4.41625E-05 1.28918E-05 2.45618E-18 9.80123E-19
 -1      3043 1.35811E-04-5.09463E-05-3.67198E-05-1.89121E-06 4.78580E-19-9.19931E-19
 -1      3044 1.31274E-04-5.52241E-05-3.26639E-05 6.54026E-06-1.08064E-18-8.18499E-19
 -1      3045 1.29472E-04-5.29772E-05-3.28315E-05 1.33023E-06-1.07363E-18-9.74194E-19
 -1      3046 1.31899E-04-4.64515E-05-3.66715E-05-7.61976E-06 3.02550E-19-1.17118E-18
 -1      3047 9.38641E-05-2.04933E-05-3.14601E-05 1.50527E-06 2.06264E-18-1.27591E-18
 -1      3048 9.27072E-05-1.91224E-05-3.15456E-05 1.23739E-06 1.93768E-18-1.50542E-18
 -1      3049 1.27469E-04-5.74001E-05-3.03018E-05 1.06114E-05 3.76414E-19 3.55780E-19
 -1      3050 1.18951E-04-5.54545E-05-2.68977E-05 1.93408E-05 2.36428E-19-1.39231E-19
 -1      3051 1.21439E-04-5.38704E-05-2.92674E-05 1.08216E-05-1.60846E-18-1.54776E-18
 -1      3052 1.16052E-04-5.29345E-05-2.66905E-05 1.86299E-05-1.79114E-18-1.18812E-18
 -1      3053 1.31638E-04-5.43421E-05-3.29476E-05 3.87571E-07 4.51204E-19 5.81673E-19
 -1      3054 1.13822E-04-1.39292E-05-4.32890E-05-3.23286E-06 2.32722E-18 4.91363E-19
 -1      3055 1.16128E-04-1.76710E-05-4.23978E-05-1.02606E-05 2.18333E-18 1.65516E-19
 -1      3056 9.48029E-05-2.44273E-05-3.01562E-05 5.31755E-06-6.95252E-19-1.58770E-18
 -1      3057 9.48594E-05-2.48206E-05-3.00140E-05 6.44369E-06-5.38752E-19-1.59769E-18
 -1      3058 9.46912E-05-2.51126E-05-2.98173E-05 7.50231E-06-5.02582E-19-1.42613E-18
 -1      3059 9.48362E-05-2.55035E-05-2.97053E-05 8.46809E-06-3.48949E-19-1.54379E-18
 -1      3060 9.35131E-05-2.39417E-05-2.98152E-05 6.79697E-06-4.75445E-19-1.80042E-18
 -1      3061 9.46988E-05-2.58406E-05-2.95093E-05 9.45983E-06-2.10008E-19-1.38311E-18
 -1      3062 9.50441E-05-2.64025E-05-2.94022E-05 1.02918E-05-1.48618E-19-1.37600E-18
 -1      3063 9.31957E-05-2.46363E-05-2.93853E-05 8.87071E-06-2.62904E-19-1.59565E-18
 -1      3064 9.50903E-05-2.69806E-05-2.91845E-05 1.12584E-05-2.62137E-20-1.23718E-18
 -1      3065 9.58021E-05-2.79249E-05-2.90665E-05 1.19427E-05 1.20285E-19-1.14655E-18
 -1      3066 9.30694E-05-2.56031E-05-2.89254E-05 1.08719E-05 1.17868E-20-1.63732E-18
 -1      3067 9.62684E-05-2.89877E-05-2.88164E-05 1.28997E-05 4.24880E-19-9.49422E-19
 -1      3068 9.76003E-05-3.05730E-05-2.86918E-05 1.33576E-05 6.24522E-19-7.20934E-19
 -1      3069 9.35028E-05-2.73045E-05-2.83997E-05 1.28949E-05 4.23220E-19-1.06928E-18
 -1      3070 9.88708E-05-3.24242E-05-2.84266E-05 1.42549E-05 5.74353E-19-5.69634E-19
 -1      3071 1.01113E-04-3.49119E-05-2.83416E-05 1.42813E-05 7.39776E-19-4.93692E-19
 -1      3072 9.50761E-05-3.03367E-05-2.78088E-05 1.49740E-05 6.52192E-19-9.23706E-19
 -1      3073 1.03908E-04-3.78800E-05-2.81650E-05 1.47317E-05 7.12055E-19-3.65773E-19
 -1      3074 1.07681E-04-4.12372E-05-2.83753E-05 1.35315E-05 5.51888E-19 9.35707E-21
 -1      3075 9.89169E-05-3.56034E-05-2.72508E-05 1.69670E-05 7.81328E-19-7.34694E-19
 -1      3076 1.22534E-04-5.22378E-05-2.98956E-05 8.42940E-06 4.05639E-19 8.48012E-19
 -1      3077 1.26602E-04-5.34766E-05-3.13170E-05 4.08991E-06 7.76226E-19 8.16884E-19
 -1      3078 1.16732E-04-5.00722E-05-2.85350E-05-1.18678E-05 8.25341E-19-2.22295E-18
 -1      3079 1.11689E-04-4.60423E-05-2.78967E-05-1.40897E-05 9.62112E-19-2.90487E-18
 -1      3080 1.06707E-04-4.17845E-05-2.77634E-05-1.44853E-05 1.23004E-18-2.88970E-18
 -1      3081 1.02857E-04-3.80280E-05-2.76581E-05-1.50427E-05 1.32274E-18-2.68908E-18
 -1      3082 1.04526E-04-4.34241E-05-2.64247E-05-1.86540E-05 1.24020E-18-1.80873E-18
 -1      3083 1.00098E-04-3.49398E-05-2.78746E-05-1.42378E-05 1.05466E-18-2.58997E-18
 -1      3084 9.76341E-05-3.22460E-05-2.79733E-05-1.40234E-05 7.72120E-19-3.22669E-18
 -1      3085 9.70462E-05-3.52039E-05-2.66311E-05-1.71310E-05 9.78947E-19-2.47278E-18
 -1      3086 9.63527E-05-3.03124E-05-2.82595E-05-1.29402E-05 6.33374E-19-3.00003E-18
 -1      3087 9.49480E-05-2.86559E-05-2.83965E-05-1.23897E-05 5.49587E-20-2.59485E-18
 -1      3088 9.33196E-05-2.98519E-05-2.72525E-05-1.46909E-05 6.77226E-19-2.49631E-18
 -1      3089 9.45068E-05-2.75982E-05-2.86445E-05-1.13593E-05-5.68776E-19-1.79696E-18
 -1      3090 9.37768E-05-2.66907E-05-2.87533E-05-1.06840E-05-1.00208E-18-1.72746E-18
 -1      3091 9.17724E-05-2.68082E-05-2.78625E-05-1.23563E-05 3.82112E-19-1.70804E-18
 -1      3092 9.37818E-05-2.62190E-05-2.89342E-05-9.76888E-06-1.34079E-18-1.66852E-18
 -1      3093 9.34410E-05-2.58016E-05-2.89974E-05-9.06834E-06-1.42695E-18-1.95664E-18
 -1      3094 9.14221E-05-2.52935E-05-2.83448E-05-1.03304E-05-1.07588E-18-1.94992E-18
 -1      3095 9.36522E-05-2.56866E-05-2.91129E-05-8.26977E-06-1.74009E-18-1.47711E-18
 -1      3096 9.35170E-05-2.55640E-05-2.91342E-05-7.59230E-06-1.99490E-18-1.63810E-18
 -1      3097 9.16726E-05-2.47429E-05-2.86804E-05-8.60457E-06-1.53497E-18-1.63724E-18
 -1      3098 9.38008E-05-2.56478E-05-2.91968E-05-6.89700E-06-1.20795E-18-1.01674E-18
 -1      3099 9.37641E-05-2.56887E-05-2.91868E-05-6.26894E-06-3.61476E-20-6.85067E-19
 -1      3100 9.21737E-05-2.47528E-05-2.88882E-05-7.12402E-06-1.27093E-18-1.00540E-19
 -1      3101 9.40510E-05-2.58700E-05-2.92110E-05-5.66594E-06-5.68904E-20-1.21716E-18
 -1      3102 9.40552E-05-2.59918E-05-2.91808E-05-5.10197E-06 2.30124E-19-6.09966E-19
 -1      3103 9.27375E-05-2.50606E-05-2.89976E-05-5.84493E-06-7.47280E-19-1.09746E-18
 -1      3104 9.43129E-05-2.62092E-05-2.91792E-05-4.58349E-06 2.88395E-19-8.48602E-19
 -1      3105 9.43296E-05-2.63624E-05-2.91382E-05-4.09048E-06 1.71024E-19-7.36476E-19
 -1      3106 9.32704E-05-2.55026E-05-2.90373E-05-4.74044E-06-6.78558E-20-2.03324E-18
 -1      3107 9.45464E-05-2.65812E-05-2.91209E-05-3.65017E-06-2.92158E-19-1.29966E-18
 -1      3108 9.45633E-05-2.67381E-05-2.90759E-05-3.22925E-06-2.40159E-19-1.68633E-18
 -1      3109 9.37325E-05-2.59813E-05-2.90313E-05-3.79389E-06-2.76216E-19-2.10023E-18
 -1      3110 9.47381E-05-2.69400E-05-2.90502E-05-2.86078E-06 2.48251E-19-1.34305E-18
 -1      3111 9.47508E-05-2.70862E-05-2.90056E-05-2.50896E-06 3.96307E-19-1.23587E-18
 -1      3112 9.41131E-05-2.64426E-05-2.89979E-05-2.99257E-06 1.66356E-19-6.60214E-19
 -1      3113 9.48876E-05-2.72632E-05-2.89766E-05-2.20541E-06-7.83258E-20-9.12665E-19
 -1      3114 9.48956E-05-2.73922E-05-2.89353E-05-1.91698E-06-1.96763E-19-1.12790E-18
 -1      3115 9.44158E-05-2.68591E-05-2.89502E-05-2.32413E-06 1.12831E-19-8.17496E-19
 -1      3116 9.50001E-05-2.75419E-05-2.89062E-05-1.67090E-06-1.52741E-19-1.26660E-18
 -1      3117 9.50041E-05-2.76516E-05-2.88695E-05-1.43865E-06 3.82237E-19-1.16569E-18
 -1      3118 9.46502E-05-2.72197E-05-2.88969E-05-1.77531E-06-2.27984E-19 6.56936E-19
 -1      3119 9.50823E-05-2.77751E-05-2.88423E-05-1.24234E-06 6.45028E-19-1.20474E-18
 -1      3120 9.50835E-05-2.78659E-05-2.88108E-05-1.05849E-06 2.98271E-19-6.60495E-19
 -1      3121 9.48278E-05-2.75225E-05-2.88439E-05-1.33193E-06 5.76413E-19 2.37804E-19
 -1      3122 9.51409E-05-2.79655E-05-2.87864E-05-9.04378E-07 5.84666E-19-6.00114E-19
 -1      3123 9.51403E-05-2.80392E-05-2.87601E-05-7.61244E-07 1.10344E-18-3.74179E-19
 -1      3124 9.49597E-05-2.77708E-05-2.87945E-05-9.79483E-07 7.85260E-19-5.17104E-19
 -1      3125 9.51815E-05-2.81180E-05-2.87390E-05-6.42197E-07-1.48200E-19-4.89540E-19
 -1      3126 9.51799E-05-2.81767E-05-2.87175E-05-5.32586E-07-6.72627E-19-1.76385E-18
 -1      3127 9.50558E-05-2.79705E-05-2.87504E-05-7.03825E-07-2.83060E-19-1.05290E-18
 -1      3128 9.52088E-05-2.82381E-05-2.86998E-05-4.42142E-07-4.04498E-19-1.82030E-18
 -1      3129 9.52068E-05-2.82839E-05-2.86826E-05-3.59621E-07 3.35185E-19-2.86014E-18
 -1      3130 9.51243E-05-2.81281E-05-2.87124E-05-4.91732E-07-9.50004E-19-1.25431E-18
 -1      3131 9.52265E-05-2.83310E-05-2.86680E-05-2.92101E-07 9.27888E-19-3.12892E-18
 -1      3132 9.52244E-05-2.83663E-05-2.86544E-05-2.31100E-07-2.77558E-19-2.74810E-18
 -1      3133 9.51718E-05-2.82505E-05-2.86804E-05-3.31291E-07 6.25508E-19-2.83299E-18
 -1      3134 9.52372E-05-2.84018E-05-2.86426E-05-1.81660E-07-3.94611E-19-2.03353E-18
 -1      3135 9.52352E-05-2.84287E-05-2.86321E-05-1.37498E-07-1.07456E-18-1.08502E-18
 -1      3136 9.52037E-05-2.83441E-05-2.86541E-05-2.12107E-07 1.35763E-19-3.19255E-18
 -1      3137 9.52431E-05-2.84551E-05-2.86226E-05-1.02108E-07-1.80052E-18 3.56438E-19
 -1      3138 9.52414E-05-2.84753E-05-2.86145E-05-7.09497E-08-1.45417E-18 1.36055E-18
 -1      3139 9.52241E-05-2.84146E-05-2.86327E-05-1.25375E-07 2.44228E-19-6.71696E-19
 -1      3140 9.52459E-05-2.84948E-05-2.86070E-05-4.63183E-08-1.86972E-18 2.20096E-18
 -1      3141 9.52445E-05-2.85100E-05-2.86008E-05-2.51060E-08-8.62320E-19 1.75193E-18
 -1      3142 9.52364E-05-2.84670E-05-2.86155E-05-6.37861E-08-1.58047E-18 2.28457E-18
 -1      3143 9.52467E-05-2.85244E-05-2.85948E-05-8.79001E-09-8.94326E-19 1.34639E-19
 -1      3144 9.52456E-05-2.85360E-05-2.85901E-05 4.81552E-09-1.44815E-18-8.79900E-19
 -1      3145 9.52432E-05-2.85061E-05-2.86017E-05-2.15790E-08-2.21598E-18 1.25025E-18
 -1      3146 9.52464E-05-2.85468E-05-2.85852E-05 1.48617E-08-1.50073E-18-2.07633E-18
 -1      3147 9.52459E-05-2.85560E-05-2.85815E-05 2.25308E-08-2.33797E-18-3.01449E-18
 -1      3148 9.52463E-05-2.85353E-05-2.85906E-05 5.86686E-09-2.70983E-18-1.17356E-18
 -1      3149 9.52453E-05-2.85441E-05-2.85862E-05 5.62308E-09 8.55039E-20 1.83096E-18
 -1      3150 9.52447E-05-2.85429E-05-2.85866E-05 2.79158E-09 5.54729E-19-2.11266E-20
 -1      3151 1.05353E-04-3.64084E-05-2.95659E-05-7.18981E-06-8.40978E-20 1.53549E-19
 -1      3152 1.03725E-04-3.47845E-05-2.94939E-05-8.08836E-06 1.30106E-19-5.80213E-20
 -1      3153 1.02062E-04-3.32185E-05-2.95093E-05-8.39325E-06 2.19142E-19-3.12263E-19
 -1      3154 1.00795E-04-3.18891E-05-2.94957E-05-8.70846E-06 2.11906E-19-2.59663E-19
 -1      3155 1.01684E-04-3.40142E-05-2.90578E-05-9.61503E-06-1.14523E-20 2.79074E-20
 -1      3156 1.13986E-04-4.26493E-05-3.06253E-05 5.95430E-09-5.54228E-19 1.16301E-18
 -1      3157 1.12388E-04-4.17152E-05-3.02156E-05-2.40214E-06-3.27412E-19 8.55058E-19
 -1      3158 1.17303E-04-4.24778E-05-3.21051E-05 5.99570E-06-4.49652E-19 1.89074E-18
 -1      3159 1.16631E-04-4.33494E-05-3.13787E-05 3.22617E-06-6.11270E-19 1.46113E-18
 -1      3160 1.16551E-04-4.50442E-05-3.06809E-05-6.32211E-07-8.69736E-19 1.37779E-18
 -1      3161 1.17373E-04-3.73929E-05-3.42835E-05 1.12310E-05-1.76196E-19 2.49284E-18
 -1      3162 1.18457E-04-4.07633E-05-3.34015E-05 9.51432E-06-2.89593E-19 2.26686E-18
 -1      3163 1.20650E-04-4.39268E-05-3.28527E-05 6.44479E-06-5.74050E-19 1.91921E-18
 -1      3164 1.16249E-04-2.55873E-05-3.89991E-05 1.24431E-05 1.82763E-18 2.00249E-18
 -1      3165 1.18675E-04-3.13685E-05-3.76326E-05 1.32853E-05 7.56506E-19 2.01645E-18
 -1      3166 1.08989E-04-1.95581E-05-3.86725E-05-7.10644E-06 1.68443E-18 7.48962E-19
 -1      3167 1.08355E-04-1.79352E-05-3.88581E-05-2.02936E-06 1.95299E-18 1.03067E-18
 -1      3168 1.15883E-04-2.96738E-05-3.70950E-05-1.38377E-05 7.27522E-19-1.51963E-19
 -1      3169 1.13767E-04-2.47037E-05-3.82606E-05-1.15563E-05 1.48776E-18 1.29048E-20
 -1      3170 1.17841E-04-3.46865E-05-3.58088E-05-1.32939E-05 6.08957E-19-8.05968E-19
 -1      3171 1.18234E-04-4.27818E-05-3.23385E-05-7.36263E-06-3.56661E-19-7.14529E-19
 -1      3172 1.17882E-04-4.04449E-05-3.31395E-05-9.82568E-06-1.59891E-19-7.19071E-19
 -1      3173 1.14536E-04-4.25935E-05-3.07840E-05-9.84302E-07-3.77135E-19 4.27037E-19
 -1      3174 1.15809E-04-4.29171E-05-3.13226E-05-3.50510E-06-1.45815E-20 2.16577E-19
 -1      3175 1.19023E-04-4.53674E-05-3.17320E-05-3.58801E-06-5.50518E-19 6.74682E-19
 -1      3176 1.09956E-04-3.98485E-05-2.99733E-05 3.53171E-06-2.36031E-19 2.39831E-19
 -1      3177 1.11742E-04-4.12477E-05-3.02564E-05 1.56223E-06-1.26013E-19 4.07444E-19
 -1      3178 1.13384E-04-4.34718E-05-3.00574E-05 2.48150E-06-3.87484E-19 1.52561E-18
 -1      3179 1.05564E-04-3.62872E-05-2.96292E-05 6.24863E-06 3.78130E-19 1.24167E-18
 -1      3180 1.07306E-04-3.79524E-05-2.97529E-05 5.04020E-06-2.31233E-19 9.80928E-19
 -1      3181 1.07911E-04-3.97165E-05-2.92962E-05 6.41317E-06-4.10990E-19 1.52953E-18
 -1      3182 1.02102E-04-3.31147E-05-2.95252E-05 7.43277E-06 6.00866E-19 1.17706E-18
 -1      3183 1.03542E-04-3.45593E-05-2.95754E-05 6.85926E-06 1.04469E-18 8.78496E-19
 -1      3184 1.03224E-04-3.55811E-05-2.90492E-05 8.20308E-06 4.44186E-19 1.20789E-18
 -1      3185 9.96514E-05-3.07434E-05-2.95081E-05 7.61487E-06-5.03716E-19 8.64710E-19
 -1      3186 1.00732E-04-3.18143E-05-2.95370E-05 7.48888E-06 2.15946E-19 1.20073E-18
 -1      3187 9.98757E-05-3.22113E-05-2.90424E-05 8.62008E-06 2.61040E-19 1.69417E-18
 -1      3188 9.80226E-05-2.91614E-05-2.94997E-05 7.20490E-06 1.00495E-19 9.53584E-19
 -1      3189 9.87947E-05-2.98765E-05-2.95322E-05 7.36298E-06-4.77999E-19 9.79562E-19
 -1      3190 9.76960E-05-2.98326E-05-2.91119E-05 8.26449E-06-3.20444E-19 1.74502E-18
 -1      3191 9.69835E-05-2.82105E-05-2.94695E-05 6.47856E-06-2.86970E-19 4.15405E-19
 -1      3192 9.75248E-05-2.86448E-05-2.95133E-05 6.79782E-06 2.82371E-19 7.30688E-19
 -1      3193 9.63776E-05-2.83295E-05-2.91794E-05 7.51013E-06 6.95366E-20 1.94921E-18
 -1      3194 9.63370E-05-2.77096E-05-2.94116E-05 5.61480E-06-1.02859E-18 8.23512E-19
 -1      3195 9.67165E-05-2.79448E-05-2.94660E-05 6.00956E-06-3.75737E-19 5.71466E-19
 -1      3196 9.56361E-05-2.74882E-05-2.92149E-05 6.57956E-06-4.52855E-19 1.47161E-18
 -1      3197 9.59398E-05-2.75046E-05-2.93316E-05 4.72636E-06-1.10835E-18 9.77568E-19
 -1      3198 9.62091E-05-2.76088E-05-2.93924E-05 5.13977E-06-1.02246E-18 1.10600E-18
 -1      3199 9.52548E-05-2.71016E-05-2.92129E-05 5.60444E-06-1.07669E-18 1.58173E-18
 -1      3200 9.56958E-05-2.74802E-05-2.92387E-05 3.88140E-06-7.69871E-19 1.78082E-19
 -1      3201 9.58906E-05-2.75038E-05-2.93011E-05 4.27799E-06-1.05652E-18 5.52173E-19
 -1      3202 9.50852E-05-2.70041E-05-2.91797E-05 4.66238E-06-8.31513E-19 3.60735E-19
 -1      3203 9.55445E-05-2.75563E-05-2.91414E-05 3.11785E-06-3.37023E-20 1.33067E-19
 -1      3204 9.56879E-05-2.75342E-05-2.92017E-05 3.47750E-06-1.32594E-19 5.06676E-19
 -1      3205 9.50320E-05-2.70756E-05-2.91251E-05 3.79765E-06-6.42998E-19-1.07199E-18
 -1      3206 9.54487E-05-2.76809E-05-2.90468E-05 2.45327E-06 2.62619E-19-6.22860E-19
 -1      3207 9.55559E-05-2.76358E-05-2.91023E-05 2.76647E-06 3.13998E-19 4.24994E-19
 -1      3208 9.50375E-05-2.72348E-05-2.90587E-05 3.03288E-06-1.25851E-20 2.92583E-19
 -1      3209 9.53863E-05-2.78216E-05-2.89594E-05 1.89181E-06 6.38834E-19-1.16009E-18
 -1      3210 9.54670E-05-2.77677E-05-2.90084E-05 2.15606E-06 5.74847E-20-1.66753E-18
 -1      3211 9.50684E-05-2.74297E-05-2.89883E-05 2.37629E-06 8.03602E-19-5.61683E-19
 -1      3212 9.53442E-05-2.79596E-05-2.88817E-05 1.42921E-06 1.44599E-18-1.18698E-18
 -1      3213 9.54052E-05-2.79053E-05-2.89237E-05 1.64640E-06 1.52504E-18-8.34391E-19
 -1      3214 9.51066E-05-2.76286E-05-2.89194E-05 1.82654E-06 7.87259E-19-1.03059E-18
 -1      3215 9.53149E-05-2.80851E-05-2.88149E-05 1.05639E-06 3.90419E-19-9.35712E-19
 -1      3216 9.53609E-05-2.80349E-05-2.88500E-05 1.23087E-06 6.58933E-19-5.34796E-19
 -1      3217 9.51430E-05-2.78140E-05-2.88556E-05 1.37632E-06 8.28641E-19-1.25373E-18
 -1      3218 9.52939E-05-2.81937E-05-2.87589E-05 7.61925E-07-1.64790E-21 4.23902E-19
 -1      3219 9.53283E-05-2.81497E-05-2.87876E-05 8.99218E-07 3.78508E-19-3.13495E-19
 -1      3220 9.51739E-05-2.79773E-05-2.87989E-05 1.01500E-06-2.37024E-20-2.05116E-19
 -1      3221 9.52786E-05-2.82842E-05-2.87132E-05 5.33780E-07 7.09904E-19 7.48742E-19
 -1      3222 9.53040E-05-2.82471E-05-2.87360E-05 6.39706E-07 2.31145E-19 4.40086E-19
 -1      3223 9.51982E-05-2.81154E-05-2.87501E-05 7.30480E-07-2.54872E-19 1.14403E-18
 -1      3224 9.52673E-05-2.83576E-05-2.86765E-05 3.60335E-07 1.20801E-19 2.16352E-18
 -1      3225 9.52857E-05-2.83273E-05-2.86944E-05 4.40487E-07 5.82227E-19 1.39704E-18
 -1      3226 9.52161E-05-2.82287E-05-2.87092E-05 5.10534E-07-1.50325E-19 1.45437E-18
 -1      3227 9.52588E-05-2.84158E-05-2.86477E-05 2.31023E-07 5.36116E-19 7.00183E-19
 -1      3228 9.52719E-05-2.83915E-05-2.86614E-05 2.90462E-07 5.12285E-19 1.23251E-18
 -1      3229 9.52285E-05-2.83194E-05-2.86757E-05 3.43619E-07 5.00011E-19-1.16487E-19
 -1      3230 9.52526E-05-2.84610E-05-2.86255E-05 1.36642E-07 6.34685E-19 5.63788E-19
 -1      3231 9.52616E-05-2.84419E-05-2.86358E-05 1.79750E-07 8.46944E-19 1.25717E-18
 -1      3232 9.52366E-05-2.83902E-05-2.86487E-05 2.19372E-07 5.16693E-19-1.58582E-18
 -1      3233 9.52480E-05-2.84955E-05-2.86086E-05 6.94673E-08-3.99865E-20 4.42645E-19
 -1      3234 9.52540E-05-2.84807E-05-2.86162E-05 9.98953E-08 1.68942E-19 7.89940E-19
 -1      3235 9.52414E-05-2.84447E-05-2.86274E-05 1.28844E-07-8.03386E-20-7.14862E-19
 -1      3236 9.52448E-05-2.85217E-05-2.85959E-05 2.32112E-08 2.20310E-19 3.01457E-19
 -1      3237 9.52485E-05-2.85103E-05-2.86015E-05 4.39064E-08 6.80686E-19 7.86620E-19
 -1      3238 9.52438E-05-2.84858E-05-2.86108E-05 6.45643E-08 3.00241E-19 2.14929E-19
 -1      3239 9.52428E-05-2.85418E-05-2.85863E-05-7.02138E-09 2.24237E-19-2.56242E-19
 -1      3240 9.52448E-05-2.85328E-05-2.85904E-05 6.19826E-09-3.76012E-19-6.86312E-20
 -1      3241 9.52447E-05-2.85168E-05-2.85978E-05 2.04603E-08 4.10354E-19 5.36038E-19
 -1      3242 9.52418E-05-2.85576E-05-2.85790E-05-2.48117E-08-2.02767E-18-4.38403E-19
 -1      3243 9.52425E-05-2.85504E-05-2.85820E-05-1.74948E-08-5.14176E-19 5.78248E-19
 -1      3244 9.52448E-05-2.85403E-05-2.85878E-05-8.15826E-09-1.06726E-18 1.18173E-18
 -1      3245 9.52427E-05-2.85667E-05-2.85754E-05-3.05979E-08-2.29682E-18 7.09023E-19
 -1      3246 9.52417E-05-2.85618E-05-2.85770E-05-2.84941E-08-2.31270E-18 1.17333E-20
 -1      3247 9.52449E-05-2.85555E-05-2.85812E-05-2.23978E-08-1.92662E-18 2.08788E-18
 -1      3248 9.52454E-05-2.85659E-05-2.85770E-05-2.83913E-08-1.75674E-18 3.92629E-19
 -1      3249 9.52468E-05-2.85648E-05-2.85778E-05 2.65320E-08-2.13764E-18-1.77085E-18
 -1      3250 8.83585E-05-1.45662E-05-3.16362E-05 1.69383E-07 1.19684E-18-2.55823E-18
 -1      3251 8.79335E-05-1.41655E-05-3.16330E-05-8.99778E-08 9.49932E-19-2.69908E-18
 -1      3252 4.69967E-05-1.69693E-05-1.22956E-05-1.72284E-05-1.40210E-18-4.03876E-18
 -1      3253 9.52472E-05-2.85493E-05-2.85848E-05 1.14594E-08-1.41655E-18 1.15490E-18
 -1      3254 9.52466E-05-2.85474E-05-2.85855E-05 8.04935E-09-1.38761E-18 1.67242E-18
 -1      3255 9.52435E-05-2.85308E-05-2.85909E-05 4.17432E-09-1.13123E-18-6.70115E-20
 -1      3256 9.52441E-05-2.85417E-05-2.85868E-05 9.60902E-10-8.20772E-20-2.03479E-18
 -1      3257 9.52440E-05-2.85417E-05-2.85868E-05-1.72392E-09 2.08844E-19-3.38977E-19
 -1      3258 9.52414E-05-2.85263E-05-2.85919E-05 8.72534E-10 4.60220E-19 6.56919E-20
 -1      3259 4.81798E-05-1.43329E-05-1.42702E-05 1.31206E-05-1.37177E-18-4.70103E-20
 -1      3260 4.49245E-05-1.20342E-05-1.36371E-05 3.31843E-06-9.27640E-19 1.11364E-18
 -1      3261 5.03227E-05-1.67437E-05-1.38296E-05 1.85711E-05 7.08014E-19-3.69688E-18
 -1      3262 4.64992E-05-1.31438E-05-1.40621E-05 5.00303E-06 8.62253E-21-4.05549E-18
 -1      3263 1.09533E-04-3.99389E-05-2.98662E-05-4.51666E-06-8.34179E-20 5.16186E-19
 -1      3264 1.07694E-04-3.82930E-05-2.96732E-05-6.15352E-06-9.39388E-20 4.43920E-19
 -1      3265 1.05662E-04-3.79042E-05-2.91122E-05-8.56472E-06-3.59905E-19 4.70082E-19
 -1      3266 1.10908E-04-4.21299E-05-2.95473E-05-5.78511E-06-5.17645E-19 1.15107E-18
 -1      3267 9.58991E-05-2.35391E-05-3.10116E-05 6.41481E-07 1.97091E-18-8.55756E-19
 -1      3268 9.47267E-05-2.16816E-05-3.13002E-05 1.19499E-06 2.03669E-18-1.08749E-18
 -1      3269 9.46032E-05-2.21657E-05-3.10409E-05-1.99346E-07 1.82029E-18-1.11519E-18
 -1      3270 9.60710E-05-2.44245E-05-3.07121E-05-9.75093E-07 1.72035E-18-8.37282E-19
 -1      3271 9.72347E-05-2.76445E-05-2.98210E-05-6.84666E-06 6.62219E-19-6.45688E-19
 -1      3272 9.68403E-05-2.70764E-05-2.98844E-05-6.15521E-06 7.62784E-19-5.89326E-19
 -1      3273 1.34269E-04-5.35415E-05-3.47490E-05 3.67507E-06-1.79305E-19-3.48469E-18
 -1      3274 9.48226E-05-2.34511E-05-3.05827E-05 2.80183E-06-9.37937E-19-1.90970E-18
 -1      3275 9.48879E-05-2.40069E-05-3.03802E-05 4.14239E-06-8.00420E-19-1.77938E-18
 -1      3276 9.37713E-05-2.31454E-05-3.02653E-05 4.54089E-06-5.89223E-19-2.00611E-18
 -1      3277 7.82480E-05-3.49629E-05-1.80842E-05-3.16410E-05 1.62196E-18 5.78471E-19
 -1      3278 9.20533E-05-4.30589E-05-2.11033E-05-3.06281E-05 1.29895E-18-4.13617E-19
 -1      3279 9.66464E-05-2.65721E-05-3.00317E-05-5.26772E-06 8.63821E-19-5.90184E-19
 -1      3280 9.64046E-05-2.60290E-05-3.01468E-05-4.31033E-06 1.00249E-18-7.80992E-19
 -1      3281 9.58654E-05-2.60520E-05-2.99312E-05-5.82489E-06 7.80708E-19-8.04515E-19
 -1      3282 9.52481E-05-2.85576E-05-2.85817E-05 2.08064E-08-1.68338E-18-1.25992E-18
 -1      3283 1.05962E-04-4.86619E-05-2.41236E-05-2.48466E-05 1.09727E-18-1.62346E-18
 -1      3284 1.16637E-04-5.36525E-05-2.71537E-05-1.84846E-05 9.67550E-19-1.84685E-18
 -1      3285 9.28112E-05-1.83200E-05-3.19246E-05-3.05182E-06-1.14487E-18-2.64778E-18
 -1      3286 1.33020E-04-4.91244E-05-3.61155E-05 3.94241E-06-1.85236E-19 1.18664E-18
 -1      3287 1.33006E-04-4.17892E-05-3.95735E-05 9.55595E-06 8.78400E-19 1.38553E-18
 -1      3288 1.07616E-04-5.16741E-05-2.41208E-05 2.74427E-05 2.39657E-19-1.19358E-18
 -1      3289 9.37636E-05-4.36720E-05-2.11292E-05 3.11656E-05 9.36924E-19-1.97920E-18
 -1      3290 6.49359E-05-2.65649E-05-1.60622E-05-2.93057E-05-2.02041E-18-2.09937E-18
 -1      3291 7.66210E-05-3.42760E-05-1.80380E-05-3.27251E-05-2.45356E-18-9.31419E-19
 -1      3292 5.62257E-05-2.15750E-05-1.44789E-05-2.46332E-05 6.60236E-19 1.31692E-18
 -1      3293 6.71705E-05-2.88467E-05-1.63310E-05-3.03788E-05 1.24143E-18 5.17537E-19
 -1      3294 7.70248E-05-3.09770E-05-1.93646E-05-2.73771E-05 7.29560E-19 3.80080E-19
 -1      3295 4.44051E-05-1.27638E-05-1.33126E-05-6.94684E-06-5.30673E-19 2.50245E-18
 -1      3296 4.88918E-05-1.64667E-05-1.35426E-05-1.80526E-05 1.32587E-19 2.39541E-18
 -1      3297 5.96794E-05-1.94778E-05-1.67842E-05-1.94384E-05-4.27487E-20 1.50724E-18
 -1      3298 4.81875E-05-1.41513E-05-1.43078E-05-1.04273E-05-9.51059E-19-3.75066E-18
 -1      3299 5.53258E-05-1.96073E-05-1.50302E-05-2.27351E-05-1.71180E-18-3.23704E-18
 -1      3300 8.76747E-05-1.38997E-05-3.16309E-05-1.11415E-07 8.34889E-19-2.72080E-18
 -1      3301 8.76156E-05-1.38485E-05-3.16313E-05-3.32320E-07 5.79815E-19-2.70133E-18
 -1      3302 8.82806E-05-1.51552E-05-3.13147E-05-3.16914E-07 9.05912E-19-2.56690E-18
 -1      3303 1.08142E-04-4.86367E-05-2.53688E-05 2.14862E-05-1.48265E-18-1.64501E-18
 -1      3304 9.75794E-05-2.82272E-05-2.97057E-05-7.53614E-06 7.01825E-19-3.63166E-19
 -1      3305 9.63932E-05-2.72817E-05-2.96362E-05-7.48455E-06 6.00825E-19-7.44849E-19
 -1      3306 9.81946E-05-2.89489E-05-2.96726E-05-7.96296E-06 6.58696E-19-4.47052E-19
 -1      3307 1.13366E-04-5.17498E-05-2.63441E-05 2.02337E-05 4.91597E-19-4.12068E-20
 -1      3308 9.52477E-05-2.85531E-05-2.85835E-05-1.48992E-08-1.05065E-18-1.27322E-19
 -1      3309 9.52475E-05-2.85553E-05-2.85824E-05-1.84387E-08-1.12987E-18 1.70389E-18
 -1      3310 1.14551E-04-1.31699E-05-4.38282E-05 3.09933E-06 3.05302E-18 1.12314E-18
 -1      3311 1.11326E-04-1.63184E-05-4.10084E-05-1.88330E-07 2.05533E-18 1.00293E-18
 -1      3312 1.09268E-04-1.80851E-05-3.92588E-05 4.37846E-06 2.24781E-18 1.31271E-18
 -1      3313 1.18124E-04-1.67120E-05-4.38545E-05 9.07086E-06 2.86604E-18 1.25409E-18
 -1      3314 1.01792E-04-4.21671E-05-2.55601E-05 2.15652E-05 1.05084E-18-7.10528E-19
 -1      3315 1.09143E-04-4.56443E-05-2.71109E-05 1.74074E-05 5.11356E-19 1.65056E-19
 -1      3316 5.05219E-05-1.31069E-05-1.55695E-05-2.34674E-06-3.76096E-19-3.76517E-18
 -1      3317 5.69614E-05-1.50218E-05-1.77780E-05-7.84904E-06-7.66241E-19-3.06269E-18
 -1      3318 5.55124E-05-1.42670E-05-1.76157E-05 5.35539E-06 2.22723E-19-3.16028E-18
 -1      3319 1.14332E-04-4.96315E-05-2.76345E-05 1.55189E-05 3.22667E-19 2.67914E-19
 -1      3320 5.17347E-05-1.33578E-05-1.60951E-05-2.63603E-06-1.06859E-18 1.50359E-18
 -1      3321 9.01346E-05-1.63497E-05-3.16389E-05-8.04602E-07-4.08618E-19-2.77997E-18
 -1      3322 9.11382E-05-1.74058E-05-3.16190E-05-1.08271E-06-6.41010E-19-2.82289E-18
 -1      3323 9.44903E-05-2.19463E-05-3.10951E-05 1.72352E-07-1.03197E-18-2.16418E-18
 -1      3324 9.46898E-05-2.27605E-05-3.08327E-05 1.61932E-06-1.00299E-18-1.99555E-18
 -1      3325 9.37197E-05-2.19332E-05-3.07609E-05 2.15021E-06-8.53084E-19-2.09502E-18
 -1      3326 1.29561E-04-5.58726E-05-3.16115E-05-5.37422E-06 7.63805E-19-2.57098E-18
 -1      3327 1.24478E-04-5.50615E-05-2.96043E-05-9.91654E-06 1.43446E-18-2.14839E-18
 -1      3328 9.52412E-05-2.85262E-05-2.85919E-05-1.75985E-09-2.35420E-20-8.91639E-21
 -1      3329 9.52444E-05-2.85427E-05-2.85865E-05-3.51473E-09-5.71477E-19 8.39529E-19
 -1      3330 9.52449E-05-2.85438E-05-2.85862E-05-6.32077E-09-7.58597E-19-3.67729E-19
 -1      3331 9.33287E-05-1.96920E-05-3.15621E-05-1.47746E-06-1.03043E-18-2.43471E-18
 -1      3332 9.90006E-05-3.09895E-05-2.91856E-05-9.52863E-06 2.62823E-19-3.60515E-19
 -1      3333 9.97308E-05-3.07399E-05-2.95653E-05-8.54071E-06 3.37724E-19-2.82150E-19
 -1      3334 9.88226E-05-2.97524E-05-2.95782E-05-8.43129E-06 5.56883E-19-2.89111E-19
 -1      3335 1.23357E-04-3.58419E-05-3.76914E-05 1.26051E-05 4.75900E-19 1.68112E-18
 -1      3336 1.10330E-04-2.06098E-05-3.86749E-05 8.52340E-06 2.30822E-18 1.90255E-18
 -1      3337 1.21674E-04-3.89789E-05-3.55768E-05-1.16493E-05 2.47294E-19-3.85135E-20
 -1      3338 6.13879E-05-2.16384E-05-1.66732E-05 2.15243E-05 1.00082E-18-3.13709E-18
 -1      3339 9.52460E-05-2.85469E-05-2.85855E-05-8.61180E-09-1.17831E-18-8.07135E-19
 -1      3340 9.52466E-05-2.85487E-05-2.85848E-05-1.18076E-08-4.07229E-19-1.06973E-18
 -1      3341 9.52454E-05-2.85381E-05-2.85887E-05-9.56255E-09-1.27288E-18-2.78300E-19
 -1      3342 9.52429E-05-2.85304E-05-2.85908E-05-4.87371E-09-8.64376E-19-1.04057E-18
 -1      3343 8.89658E-05-1.51914E-05-3.16372E-05 2.57478E-07 1.31182E-18-2.36682E-18
 -1      3344 8.91847E-05-1.60473E-05-3.13197E-05-3.18116E-07 1.13659E-18-2.30198E-18
 -1      3345 8.97059E-05-1.59187E-05-3.16346E-05 5.66600E-07 1.58853E-18-2.16213E-18
 -1      3346 5.44494E-05-1.69770E-05-1.56218E-05 1.75935E-05-1.13322E-18-1.45372E-19
 -1      3347 5.71742E-05-1.55530E-05-1.76812E-05 1.20604E-05-1.02474E-18 1.29702E-19
 -1      3348 6.23540E-05-2.09898E-05-1.76469E-05 2.16004E-05-1.20715E-18-8.08916E-20
 -1      3349 9.52482E-05-2.85559E-05-2.85824E-05 1.82837E-08-1.91558E-18-9.37490E-19
 -1      3350 9.52483E-05-2.85537E-05-2.85835E-05 1.45186E-08-1.90788E-18 6.82281E-19
 -1      3351 8.12118E-05-3.55828E-05-1.91761E-05 3.17260E-05-1.51434E-18-2.20467E-19
 -1      3352 7.35523E-05-2.91955E-05-1.88444E-05 2.79646E-05-1.67186E-18 8.59527E-19
 -1      3353 9.03758E-05-3.94505E-05-2.18955E-05 2.78549E-05-1.43180E-18-1.76985E-18
 -1      3354 9.52475E-05-2.85450E-05-2.85866E-05 1.38706E-08-2.30124E-18-1.29198E-18
 -1      3355 1.28226E-04-3.70240E-05-3.93685E-05 1.20229E-05 8.99761E-19 1.29776E-18
 -1      3356 6.44996E-05-2.28706E-05-1.74864E-05-2.30862E-05-1.70831E-18-2.16666E-18
 -1      3357 1.27388E-04-5.43038E-05-3.13741E-05-5.90636E-06-1.42253E-18 7.10105E-19
 -1      3358 1.31903E-04-5.31387E-05-3.39145E-05-7.16602E-07-8.78042E-19 8.98702E-19
 -1      3359 1.28735E-04-4.77549E-05-3.47848E-05 5.51460E-06-4.86978E-19 1.38109E-18
 -1      3360 8.74681E-05-3.94931E-05-2.03994E-05 3.12820E-05 1.31216E-18-2.54232E-18
 -1      3361 7.97464E-05-3.31252E-05-1.99466E-05 2.87057E-05 1.57882E-18-2.86490E-18
 -1      3362 9.51929E-05-4.14466E-05-2.30028E-05 2.72383E-05 1.22621E-18-2.15618E-18
 -1      3363 8.57715E-05-3.85041E-05-1.98936E-05-3.18938E-05-2.34747E-18-1.01946E-18
 -1      3364 9.41305E-05-4.26501E-05-2.20894E-05-2.92601E-05-2.24334E-18-5.64706E-19
 -1      3365 8.16749E-05-3.40069E-05-2.02556E-05-2.90859E-05-1.94272E-18-1.13693E-18
 -1      3366 9.27034E-05-1.97459E-05-3.12483E-05 4.06952E-08 1.67873E-18-1.59610E-18
 -1      3367 9.16170E-05-1.79294E-05-3.15957E-05 1.05410E-06 1.86255E-18-1.89813E-18
 -1      3368 9.06145E-05-1.68722E-05-3.16218E-05 7.10890E-07 1.67183E-18-2.04984E-18
 -1      3369 9.89842E-05-4.29367E-05-2.37978E-05-2.44437E-05 9.52806E-19-8.42904E-19
 -1      3370 1.16017E-04-2.30118E-05-3.99808E-05-1.15619E-05 1.85781E-18 2.15702E-19
 -1      3371 1.15093E-04-5.47901E-05-2.56432E-05-2.39654E-05-2.09747E-18 1.52956E-19
 -1      3372 1.20536E-04-5.53202E-05-2.79378E-05-1.65918E-05-1.78083E-18-1.51275E-20
 -1      3373 1.07111E-04-5.02715E-05-2.43221E-05-2.60931E-05-2.17195E-18-4.07959E-19
 -1      3374 9.52458E-05-2.85386E-05-2.85888E-05 9.33514E-09-2.43982E-18 4.86141E-19
 -1      3375 9.63587E-05-2.56394E-05-3.03111E-05-3.36124E-06 1.18174E-18-8.99919E-19
 -1      3376 9.61914E-05-2.49942E-05-3.05004E-05-2.11017E-06 1.40672E-18-8.38333E-19
 -1      3377 9.54993E-05-2.39406E-05-3.06670E-05-1.74149E-06 1.52292E-18-8.95839E-19
 -1      3378 9.56433E-05-2.50196E-05-3.02735E-05-3.90637E-06 1.07922E-18-9.24891E-19
 -1      3379 8.85872E-05-1.47895E-05-3.16436E-05-5.30109E-07 2.90485E-20-2.89273E-18
 -1      3380 8.92697E-05-1.54670E-05-3.16453E-05-7.75255E-07-2.48636E-19-2.79954E-18
 -1      3381 9.01702E-05-1.70337E-05-3.13243E-05 9.75366E-09-3.84532E-19-2.67025E-18
 -1      3382 1.18588E-04-2.13408E-05-4.19765E-05 1.06632E-05 2.77917E-18 1.22668E-18
 -1      3383 9.16866E-05-2.33550E-05-2.92942E-05 7.83979E-06-2.79357E-19-1.57888E-18
 -1      3384 9.15450E-05-2.37196E-05-2.90577E-05 8.83419E-06-1.55568E-19-1.59653E-18
 -1      3385 9.09985E-05-2.40144E-05-2.87201E-05 9.88390E-06-6.22811E-20-1.60606E-18
 -1      3386 9.10365E-05-2.45930E-05-2.84529E-05 1.08783E-05 2.62978E-19-1.40612E-18
 -1      3387 8.95153E-05-2.27144E-05-2.86186E-05 8.83460E-06-6.65504E-20-1.47129E-18
 -1      3388 9.05683E-05-2.51555E-05-2.80476E-05 1.20899E-05 2.60891E-19-1.43862E-18
 -1      3389 9.10244E-05-2.62089E-05-2.77363E-05 1.31439E-05 4.22394E-19-1.50548E-18
 -1      3390 8.84559E-05-2.35073E-05-2.78308E-05 1.10741E-05 2.49885E-19-1.60247E-18
 -1      3391 9.08668E-05-2.73069E-05-2.72419E-05 1.46494E-05 6.70984E-19-1.63297E-18
 -1      3392 9.21115E-05-2.92044E-05-2.68963E-05 1.58187E-05 7.20421E-19-1.49239E-18
 -1      3393 8.77257E-05-2.50537E-05-2.68685E-05 1.38246E-05 4.84428E-19-2.18181E-18
 -1      3394 9.26089E-05-3.10479E-05-2.63012E-05 1.76864E-05 7.64000E-19-1.30623E-18
 -1      3395 9.49596E-05-3.43339E-05-2.59567E-05 1.91309E-05 1.02375E-18-1.36269E-18
 -1      3396 8.79581E-05-2.80709E-05-2.56919E-05 1.74345E-05 7.59153E-19-1.98829E-18
 -1      3397 9.32764E-05-3.39288E-05-2.52946E-05-1.90706E-05 1.36178E-18-1.97619E-18
 -1      3398 9.02437E-05-3.04697E-05-2.55910E-05-1.77458E-05 7.22951E-19-2.53071E-18
 -1      3399 8.98938E-05-2.84770E-05-2.62314E-05-1.54794E-05 6.09020E-19-2.03959E-18
 -1      3400 8.85894E-05-2.65905E-05-2.65987E-05-1.42292E-05 9.86195E-19-1.50552E-18
 -1      3401 8.50684E-05-2.69192E-05-2.48718E-05-1.72892E-05 1.10997E-18-2.36469E-18
 -1      3402 8.89151E-05-2.55312E-05-2.71097E-05-1.25452E-05 1.01188E-18-1.28791E-18
 -1      3403 8.84604E-05-2.45658E-05-2.74154E-05-1.14843E-05 4.13465E-19-1.58274E-18
 -1      3404 8.51476E-05-2.40791E-05-2.61286E-05-1.32764E-05 1.06131E-18-2.15800E-18
 -1      3405 8.90734E-05-2.41514E-05-2.77927E-05-1.02476E-05-9.47846E-19-1.13332E-18
 -1      3406 8.90699E-05-2.37638E-05-2.80162E-05-9.36482E-06-1.43268E-18-9.80752E-19
 -1      3407 8.61438E-05-2.28594E-05-2.70807E-05-1.04222E-05-1.99006E-19-2.70255E-18
 -1      3408 8.97567E-05-2.37298E-05-2.82801E-05-8.43218E-06-1.26956E-18-1.64629E-18
 -1      3409 8.99598E-05-2.36810E-05-2.84283E-05-7.68598E-06-1.36540E-18-1.63977E-18
 -1      3410 8.74544E-05-2.25907E-05-2.77632E-05-8.36034E-06-1.30807E-18-1.68560E-18
 -1      3411 9.06233E-05-2.38596E-05-2.86032E-05-6.94937E-06-1.47605E-18-1.27059E-18
 -1      3412 9.08992E-05-2.39977E-05-2.86911E-05-6.30717E-06-1.50610E-18-1.22231E-18
 -1      3413 8.87946E-05-2.28521E-05-2.82312E-05-6.79670E-06-1.36287E-18-2.17495E-18
 -1      3414 9.14949E-05-2.42817E-05-2.87995E-05-5.70440E-06-1.42973E-18-1.18612E-18
 -1      3415 9.17748E-05-2.45105E-05-2.88431E-05-5.14711E-06-9.06423E-19-2.03559E-18
 -1      3416 9.00372E-05-2.33955E-05-2.85363E-05-5.54955E-06-1.55659E-18-2.25080E-18
 -1      3417 9.22860E-05-2.48330E-05-2.89041E-05-4.64316E-06-1.95411E-19-1.95049E-18
 -1      3418 9.25378E-05-2.50940E-05-2.89173E-05-4.16066E-06 1.47895E-19-1.73030E-18
 -1      3419 9.11267E-05-2.40623E-05-2.87222E-05-4.51831E-06-6.86799E-19-2.30277E-18
 -1      3420 9.29629E-05-2.54149E-05-2.89456E-05-3.73626E-06 1.46200E-20-1.39307E-18
 -1      3421 9.31750E-05-2.56742E-05-2.89394E-05-3.32255E-06-1.31370E-19-1.22223E-18
 -1      3422 9.20472E-05-2.47547E-05-2.88239E-05-3.64931E-06 2.70113E-19-1.05700E-18
 -1      3423 9.35200E-05-2.59715E-05-2.89463E-05-2.96622E-06 6.92069E-20-1.30381E-18
 -1      3424 9.36913E-05-2.62108E-05-2.89287E-05-2.61642E-06 7.60236E-19-9.18627E-19
 -1      3425 9.28039E-05-2.54153E-05-2.88685E-05-2.91391E-06 2.52048E-19-1.11997E-18
 -1      3426 9.39657E-05-2.64739E-05-2.89223E-05-2.32005E-06 9.98025E-19-1.25962E-18
 -1      3427 9.40999E-05-2.66847E-05-2.88991E-05-2.02894E-06 6.82485E-19-8.94723E-19
 -1      3428 9.34126E-05-2.60132E-05-2.88759E-05-2.29504E-06 1.00018E-18-1.11546E-18
 -1      3429 9.43143E-05-2.69098E-05-2.88851E-05-1.78562E-06 3.07406E-19-3.09296E-19
 -1      3430 9.44169E-05-2.70895E-05-2.88601E-05-1.54734E-06-4.33017E-20-4.83164E-20
 -1      3431 9.38931E-05-2.65347E-05-2.88605E-05-1.78006E-06 1.14103E-18-1.13160E-18
 -1      3432 9.45817E-05-2.72773E-05-2.88425E-05-1.35050E-06-6.42943E-19 1.06931E-18
 -1      3433 9.46586E-05-2.74267E-05-2.88180E-05-1.15867E-06 4.59409E-19 4.38715E-20
 -1      3434 9.42659E-05-2.69769E-05-2.88326E-05-1.35757E-06 3.09812E-19-1.11748E-19
 -1      3435 9.47830E-05-2.75799E-05-2.87994E-05-1.00190E-06 9.46380E-19-2.75802E-19
 -1      3436 9.48395E-05-2.77015E-05-2.87768E-05-8.49999E-07 6.70147E-19-4.64126E-19
 -1      3437 9.45505E-05-2.73433E-05-2.87990E-05-1.01631E-06 2.86314E-19-1.43629E-19
 -1      3438 9.49319E-05-2.78242E-05-2.87588E-05-7.27145E-07 1.58021E-21-1.03372E-18
 -1      3439 9.49726E-05-2.79214E-05-2.87388E-05-6.08822E-07-8.31554E-19-5.90790E-19
 -1      3440 9.47640E-05-2.76408E-05-2.87641E-05-7.45085E-07-1.06818E-19-8.55579E-19
 -1      3441 9.50398E-05-2.80180E-05-2.87223E-05-5.14119E-07-1.31027E-18-8.90223E-19
 -1      3442 9.50684E-05-2.80942E-05-2.87051E-05-4.23483E-07-7.14324E-19-1.15102E-18
 -1      3443 9.49213E-05-2.78781E-05-2.87306E-05-5.33043E-07-7.95447E-19-8.50207E-19
 -1      3444 9.51163E-05-2.81690E-05-2.86906E-05-3.51724E-07-5.30462E-19-2.49227E-18
 -1      3445 9.51357E-05-2.82279E-05-2.86762E-05-2.83496E-07 1.49158E-20-3.60342E-18
 -1      3446 9.50348E-05-2.80642E-05-2.87002E-05-3.70047E-07-1.63623E-18-2.08512E-18
 -1      3447 9.51688E-05-2.82849E-05-2.86637E-05-2.30111E-07 1.12001E-18-4.52845E-18
 -1      3448 9.51816E-05-2.83297E-05-2.86518E-05-1.79721E-07 7.31065E-19-3.69700E-18
 -1      3449 9.51147E-05-2.82077E-05-2.86734E-05-2.46940E-07 3.11539E-19-3.79688E-18
 -1      3450 9.52037E-05-2.83724E-05-2.86413E-05-1.40820E-07 1.20928E-18-2.94579E-18
 -1      3451 9.52116E-05-2.84061E-05-2.86317E-05-1.04424E-07 9.63707E-19-1.61843E-18
 -1      3452 9.51693E-05-2.83167E-05-2.86504E-05-1.55726E-07 1.58852E-18-5.41763E-18
 -1      3453 9.52256E-05-2.84376E-05-2.86229E-05-7.68148E-08-6.91597E-19-1.16386E-19
 -1      3454 9.52302E-05-2.84626E-05-2.86151E-05-5.12507E-08-1.31687E-18 3.74509E-19
 -1      3455 9.52050E-05-2.83983E-05-2.86310E-05-8.96593E-08 8.77254E-19-3.51255E-18
 -1      3456 9.52383E-05-2.84858E-05-2.86078E-05-3.19774E-08-2.78028E-18 6.34706E-19
 -1      3457 9.52408E-05-2.85047E-05-2.86016E-05-1.47472E-08-3.77112E-18-1.76914E-19
 -1      3458 9.52268E-05-2.84584E-05-2.86148E-05-4.32453E-08-1.52531E-18-9.37112E-19
 -1      3459 9.52449E-05-2.85192E-05-2.85963E-05-4.61144E-09-3.77157E-18-1.10671E-19
 -1      3460 9.52457E-05-2.85333E-05-2.85911E-05 6.56912E-09-2.79289E-18-7.29680E-19
 -1      3461 9.52450E-05-2.85305E-05-2.85920E-05 5.27709E-09-3.66502E-18-6.35413E-19
 -1      3462 9.52396E-05-2.85025E-05-2.86020E-05-1.33459E-08-3.70508E-18 4.79466E-19
 -1      3463 9.52477E-05-2.85602E-05-2.85804E-05-2.18117E-08-5.52176E-19 2.23340E-18
 -1      3464 9.52465E-05-2.85621E-05-2.85790E-05-2.48789E-08-8.01363E-19 1.38152E-18
 -1      3465 9.52463E-05-2.85569E-05-2.85812E-05-2.25843E-08-1.75805E-18 1.76152E-18
 -1      3466 9.52468E-05-2.85478E-05-2.85853E-05-1.58972E-08-1.97453E-18 1.83727E-18
 -1      3467 1.24619E-04-4.62360E-05-3.36730E-05 5.65099E-06-4.85456E-19 1.58372E-18
 -1      3468 1.23504E-04-4.86257E-05-3.20841E-05 1.86255E-06-1.06009E-18 1.42279E-18
 -1      3469 1.18566E-04-4.79270E-05-3.03250E-05-3.13078E-06-1.13615E-18 9.43617E-19
 -1      3470 1.15890E-04-4.66026E-05-2.95482E-05-5.96226E-06-8.96538E-19 7.75254E-19
 -1      3471 9.37815E-05-3.71949E-05-2.42096E-05 2.28957E-05 1.16027E-18-1.84780E-18
 -1      3472 1.11838E-04-4.38934E-05-2.89885E-05 7.47059E-06-6.83610E-19 9.89169E-19
 -1      3473 1.15145E-04-4.58407E-05-2.96204E-05 4.83286E-06-2.97674E-19 1.19669E-18
 -1      3474 1.17508E-04-4.83443E-05-2.95069E-05 6.14723E-06-9.86999E-19 4.14212E-19
 -1      3475 1.20534E-04-4.90076E-05-3.06419E-05 2.76237E-06-1.34345E-18-5.89482E-20
 -1      3476 1.00338E-04-3.39213E-05-2.84125E-05 1.01848E-05 5.74356E-19 6.58888E-19
 -1      3477 1.02413E-04-3.60289E-05-2.84337E-05 9.87070E-06 2.42354E-19 7.01365E-19
 -1      3478 9.73030E-05-3.06055E-05-2.85587E-05 9.63044E-06-9.11156E-20 1.32774E-18
 -1      3479 9.86972E-05-3.21204E-05-2.85138E-05 9.76883E-06 2.38193E-19 1.36801E-18
 -1      3480 9.73101E-05-3.23734E-05-2.78911E-05 1.14053E-05-1.65317E-19 1.89605E-19
 -1      3481 9.55419E-05-2.84606E-05-2.87383E-05 8.66076E-06-6.99064E-19 1.61142E-18
 -1      3482 9.64107E-05-2.94413E-05-2.86837E-05 9.02431E-06-5.92369E-19 1.37450E-18
 -1      3483 9.48847E-05-2.92523E-05-2.81651E-05 1.01278E-05-1.51307E-19 7.69604E-19
 -1      3484 9.46279E-05-2.72175E-05-2.88882E-05 7.54630E-06-1.76044E-19 2.64953E-18
 -1      3485 9.51316E-05-2.77857E-05-2.88479E-05 8.01111E-06-1.71587E-19 2.41532E-18
 -1      3486 9.36541E-05-2.73467E-05-2.84365E-05 8.73916E-06-8.38858E-19 1.88726E-18
 -1      3487 9.42384E-05-2.66084E-05-2.89870E-05 6.42422E-06-1.02840E-18 2.66693E-18
 -1      3488 9.45078E-05-2.68886E-05-2.89681E-05 6.92036E-06-9.36584E-20 2.70292E-18
 -1      3489 9.31678E-05-2.63272E-05-2.86544E-05 7.40147E-06-3.10730E-19 3.18188E-18
 -1      3490 9.41510E-05-2.64135E-05-2.90353E-05 5.36291E-06-3.52671E-19 1.62019E-18
 -1      3491 9.42794E-05-2.65066E-05-2.90364E-05 5.84926E-06-9.93740E-19 2.28172E-18
 -1      3492 9.31134E-05-2.59061E-05-2.88057E-05 6.17666E-06-4.59254E-19 2.34455E-18
 -1      3493 9.42224E-05-2.64695E-05-2.90428E-05 4.39713E-06-2.67158E-19 6.54712E-19
 -1      3494 9.42711E-05-2.64497E-05-2.90589E-05 4.84961E-06 2.08882E-20 1.61701E-18
 -1      3495 9.32872E-05-2.58631E-05-2.88955E-05 5.08371E-06-2.40674E-19 1.40228E-18
 -1      3496 9.43651E-05-2.66627E-05-2.90212E-05 3.54331E-06-1.13039E-18-1.01180E-19
 -1      3497 9.43721E-05-2.65813E-05-2.90470E-05 3.94873E-06-8.69492E-19-1.97432E-19
 -1      3498 9.35626E-05-2.60402E-05-2.89363E-05 4.12577E-06 4.76757E-20 1.67105E-18
 -1      3499 9.45286E-05-2.69183E-05-2.89813E-05 2.80667E-06 3.48119E-19 4.54523E-19
 -1      3500 9.45161E-05-2.68087E-05-2.90122E-05 3.15914E-06-7.01864E-19 3.30123E-19
 -1      3501 9.38651E-05-2.63300E-05-2.89413E-05 3.29974E-06-6.92036E-19 2.67676E-19
 -1      3502 9.46857E-05-2.71892E-05-2.89318E-05 2.18484E-06 9.18997E-19 6.54387E-19
 -1      3503 9.46661E-05-2.70724E-05-2.89642E-05 2.48354E-06 1.22040E-18 1.03658E-18
 -1      3504 9.41537E-05-2.66625E-05-2.89226E-05 2.59899E-06 6.78168E-19 6.32749E-19
 -1      3505 9.48236E-05-2.74481E-05-2.88793E-05 1.67038E-06 9.96405E-19 2.83389E-19
 -1      3506 9.48035E-05-2.73362E-05-2.89107E-05 1.91787E-06 7.92755E-19-1.39702E-19
 -1      3507 9.44083E-05-2.69945E-05-2.88897E-05 2.01432E-06 9.35255E-19 1.49184E-18
 -1      3508 9.49378E-05-2.76803E-05-2.88280E-05 1.25273E-06 2.72303E-19 1.88364E-19
 -1      3509 9.49201E-05-2.75799E-05-2.88569E-05 1.45362E-06 1.00224E-18 3.49358E-19
 -1      3510 9.46218E-05-2.73017E-05-2.88499E-05 1.53455E-06 5.18525E-19 1.40879E-18
 -1      3511 9.50285E-05-2.78799E-05-2.87807E-05 9.19757E-07-1.11245E-18 1.65061E-18
 -1      3512 9.50142E-05-2.77935E-05-2.88062E-05 1.07973E-06-6.51299E-19 6.00284E-19
 -1      3513 9.47938E-05-2.75719E-05-2.88082E-05 1.14737E-06-3.11695E-19 2.03395E-18
 -1      3514 9.50978E-05-2.80458E-05-2.87387E-05 6.58920E-07-6.78082E-19 2.08580E-18
 -1      3515 9.50870E-05-2.79739E-05-2.87605E-05 7.83981E-07-5.93737E-19 1.69079E-18
 -1      3516 9.49281E-05-2.78009E-05-2.87680E-05 8.40030E-07-1.14586E-18 2.73111E-18
 -1      3517 9.51491E-05-2.81801E-05-2.87026E-05 4.58142E-07 3.51485E-19 1.04155E-18
 -1      3518 9.51414E-05-2.81219E-05-2.87209E-05 5.54155E-07 3.50034E-20 1.87401E-18
 -1      3519 9.50299E-05-2.79893E-05-2.87311E-05 6.00081E-07 2.24478E-19 2.51556E-18
 -1      3520 9.51857E-05-2.82863E-05-2.86724E-05 3.06344E-07 1.31423E-18 8.01413E-20
 -1      3521 9.51806E-05-2.82402E-05-2.86873E-05 3.78700E-07 1.06645E-18 9.16213E-19
 -1      3522 9.51048E-05-2.81407E-05-2.86985E-05 4.15875E-07 6.31027E-19 1.61943E-18
 -1      3523 9.52108E-05-2.83686E-05-2.86476E-05 1.93750E-07 7.60488E-20 1.74028E-19
 -1      3524 9.52077E-05-2.83328E-05-2.86595E-05 2.47203E-07 6.97479E-19 3.17244E-19
 -1      3525 9.51582E-05-2.82596E-05-2.86706E-05 2.76923E-07 1.00253E-18 1.76861E-18
 -1      3526 9.52272E-05-2.84312E-05-2.86275E-05 1.12026E-07-5.11970E-19-1.42984E-19
 -1      3527 9.52255E-05-2.84039E-05-2.86370E-05 1.50619E-07-2.24284E-19-5.34397E-19
 -1      3528 9.51948E-05-2.83511E-05-2.86472E-05 1.74079E-07 2.67119E-19 1.05837E-18
 -1      3529 9.52372E-05-2.84782E-05-2.86114E-05 5.42772E-08-3.58047E-19 9.44576E-19
 -1      3530 9.52365E-05-2.84576E-05-2.86189E-05 8.13482E-08-7.73843E-19 5.85322E-19
 -1      3531 9.52188E-05-2.84204E-05-2.86278E-05 9.96171E-08-1.10725E-18-1.64720E-20
 -1      3532 9.52426E-05-2.85133E-05-2.85986E-05 1.48373E-08-3.68519E-19 2.05930E-18
 -1      3533 9.52425E-05-2.84977E-05-2.86044E-05 3.31687E-08 1.64976E-19 1.95182E-18
 -1      3534 9.52335E-05-2.84722E-05-2.86120E-05 4.72561E-08-1.40129E-18 1.44712E-18
 -1      3535 9.52359E-05-2.85088E-05-2.85974E-05-4.15644E-10 5.06255E-19-5.25104E-20
 -1      3536 9.52351E-05-2.85076E-05-2.85977E-05-1.02496E-09 4.42003E-19-3.19948E-19
 -1      3537 9.24510E-05-1.90178E-05-3.14711E-05-7.04212E-07-8.57436E-19-2.48583E-18
 -1      3538 1.05081E-04-3.84907E-05-2.84516E-05 9.78382E-06-8.42194E-20 1.13698E-18
 -1      3539 1.07866E-04-4.10006E-05-2.86526E-05 8.66581E-06-3.98622E-19 9.72399E-19
 -1      3540 1.07981E-04-4.28361E-05-2.79917E-05 1.15787E-05-2.68506E-19 6.56497E-19
 -1      3541 1.01476E-04-3.69157E-05-2.77367E-05 1.21710E-05 2.57402E-19 1.82254E-19
 -1      3542 5.52925E-05-1.34362E-05-1.78736E-05 1.40222E-06-9.04486E-19 1.41539E-18
 -1      3543 5.58435E-05-1.40740E-05-1.76698E-05-8.20479E-06-7.66843E-19 1.88735E-18
 -1      3544 7.11781E-05-2.56877E-05-1.91682E-05 2.51978E-05 1.26602E-18-2.83947E-18
 -1      3545 6.28927E-05-1.91883E-05-1.86743E-05 1.71419E-05 8.50950E-19-2.78621E-18
 -1      3546 9.52394E-05-2.85153E-05-2.85960E-05 1.09576E-10-1.86998E-18-1.11455E-18
 -1      3547 9.52376E-05-2.85124E-05-2.85968E-05-1.03386E-09-2.76204E-19-2.01843E-18
 -1      3548 9.52316E-05-2.84912E-05-2.86027E-05-3.69892E-09-6.94668E-19-1.39007E-18
 -1      3549 1.24800E-04-4.94427E-05-3.20743E-05-1.30355E-06-8.06058E-19-3.34975E-19
 -1      3550 9.49827E-05-2.54716E-05-2.97881E-05-6.23542E-06 7.26862E-19-1.11202E-18
 -1      3551 9.47836E-05-2.48504E-05-2.99650E-05-5.28721E-06 8.42524E-19-1.09131E-18
 -1      3552 1.00875E-04-3.42546E-05-2.85340E-05-1.09555E-05-3.55530E-19 6.64034E-20
 -1      3553 9.91641E-05-3.23591E-05-2.85903E-05-1.09830E-05-9.98440E-20-3.29531E-19
 -1      3554 9.39576E-05-3.77598E-05-2.39165E-05-2.31124E-05 1.45140E-18-1.00330E-18
 -1      3555 9.23375E-05-2.27676E-05-2.98218E-05 5.78614E-06-3.51107E-19-1.77306E-18
 -1      3556 9.21693E-05-2.31171E-05-2.95922E-05 6.84325E-06-3.14193E-19-1.72537E-18
 -1      3557 9.05597E-05-2.21925E-05-2.92879E-05 6.82786E-06-1.78314E-19-1.65901E-18
 -1      3558 5.98975E-05-1.72892E-05-1.81638E-05-1.47965E-05-4.09706E-19 1.10135E-18
 -1      3559 6.67677E-05-2.21880E-05-1.90276E-05-2.12742E-05 1.50017E-20 7.86285E-19
 -1      3560 8.77490E-05-1.39702E-05-3.16342E-05-3.19742E-07 4.19891E-19-2.79612E-18
 -1      3561 8.80683E-05-1.42804E-05-3.16391E-05-5.38246E-07 1.67907E-19-2.87117E-18
 -1      3562 8.87750E-05-1.56359E-05-3.13232E-05-8.18295E-08 1.01660E-19-2.69153E-18
 -1      3563 6.38658E-05-2.00150E-05-1.86974E-05-1.86125E-05-1.54464E-18-2.23315E-18
 -1      3564 7.21302E-05-2.62498E-05-1.95400E-05-2.47878E-05-1.79136E-18-1.17229E-18
 -1      3565 1.27408E-04-4.25731E-05-3.66995E-05-9.97701E-06 4.56961E-19-3.86353E-19
 -1      3566 1.28141E-04-4.71221E-05-3.48529E-05-6.39205E-06 2.17542E-19-5.99779E-19
 -1      3567 1.26264E-04-4.79270E-05-3.37234E-05-5.50585E-06-2.42410E-19-6.27102E-19
 -1      3568 1.10049E-04-4.82282E-05-2.65176E-05 1.77463E-05-1.36980E-18-1.21899E-18
 -1      3569 1.01967E-04-4.49480E-05-2.40915E-05 2.46798E-05-1.40406E-18-1.61611E-18
 -1      3570 9.43327E-05-3.99596E-05-2.31915E-05 2.48361E-05-1.45163E-18-1.21118E-18
 -1      3571 9.52439E-05-2.85259E-05-2.85936E-05 2.34032E-09-3.28448E-18 5.79625E-20
 -1      3572 9.23282E-05-1.95619E-05-3.11715E-05 4.47812E-07-7.57208E-19-2.45283E-18
 -1      3573 9.27333E-05-2.19112E-05-3.03590E-05 3.58370E-06-5.05709E-19-2.04529E-18
 -1      3574 9.26564E-05-2.24079E-05-3.01092E-05 4.76464E-06-3.65113E-19-2.01007E-18
 -1      3575 9.13680E-05-2.15754E-05-2.98994E-05 4.85019E-06-3.11814E-19-1.87344E-18
 -1      3576 1.14207E-04-4.88489E-05-2.81245E-05 1.21973E-05-1.08516E-18-1.95148E-19
 -1      3577 8.54661E-05-3.26618E-05-2.27139E-05-2.39490E-05 1.09983E-18-1.36260E-18
 -1      3578 9.73450E-05-2.88276E-05-2.93898E-05-8.74618E-06 5.28648E-19-5.53131E-19
 -1      3579 9.07010E-05-1.76011E-05-3.13090E-05-1.79372E-07 1.45805E-18-1.95018E-18
 -1      3580 9.54223E-05-2.67572E-05-2.94195E-05-7.92738E-06 4.62488E-19-9.46814E-19
 -1      3581 9.50685E-05-2.60576E-05-2.95688E-05-7.16113E-06 5.21456E-19-1.10395E-18
 -1      3582 9.38998E-05-2.48942E-05-2.95812E-05-6.68138E-06 6.09904E-19-1.30655E-18
 -1      3583 8.85275E-05-1.62249E-05-3.09951E-05-6.08856E-07 9.39765E-19-2.40545E-18
 -1      3584 8.82347E-05-1.59618E-05-3.09916E-05-5.22263E-07 7.76208E-19-2.51641E-18
 -1      3585 6.16160E-05-1.63272E-05-1.90697E-05 1.17580E-05 6.46845E-19-2.76477E-18
 -1      3586 6.25124E-05-1.55929E-05-2.00717E-05 5.49942E-06 2.34138E-19-2.67602E-18
 -1      3587 6.94010E-05-1.99973E-05-2.11314E-05 1.54838E-05 7.98271E-19-2.51656E-18
 -1      3588 6.16719E-05-1.53964E-05-1.98999E-05-5.59165E-06-4.59310E-19-2.46402E-18
 -1      3589 6.18219E-05-1.67622E-05-1.90272E-05-1.27077E-05-1.10153E-18-2.49319E-18
 -1      3590 6.85908E-05-1.98441E-05-2.07649E-05-1.49823E-05-1.23700E-18-1.81657E-18
 -1      3591 8.81316E-05-1.50077E-05-3.13149E-05-2.16377E-07 4.91132E-19-2.63666E-18
 -1      3592 1.23183E-04-3.73489E-05-3.69009E-05-1.27723E-05 7.70046E-19 5.09808E-20
 -1      3593 9.25712E-05-2.05379E-05-3.08835E-05 1.43930E-06-7.88814E-19-2.27750E-18
 -1      3594 9.27023E-05-2.12606E-05-3.06197E-05 2.62565E-06-6.87248E-19-2.22831E-18
 -1      3595 9.16333E-05-2.05272E-05-3.04649E-05 2.88609E-06-4.59828E-19-2.12573E-18
 -1      3596 9.13244E-05-1.89203E-05-3.10243E-05 9.67412E-07-6.07984E-19-2.50129E-18
 -1      3597 9.52387E-05-2.85058E-05-2.85995E-05-4.41410E-09-2.83477E-18-1.54482E-18
 -1      3598 9.79894E-05-3.08229E-05-2.87669E-05-1.04140E-05-1.96426E-20-5.61182E-19
 -1      3599 9.69068E-05-2.94757E-05-2.88765E-05-1.00764E-05 1.25235E-19-7.16929E-19
 -1      3600 9.66903E-05-3.08985E-05-2.82454E-05-1.16925E-05-2.83765E-19-9.69289E-19
 -1      3601 1.22308E-04-5.06811E-05-3.07525E-05-4.01701E-06-1.36107E-18 7.50375E-19
 -1      3602 9.47811E-05-2.29528E-05-3.07824E-05-1.36547E-06 1.52655E-18-1.09125E-18
 -1      3603 9.39472E-05-2.17889E-05-3.09257E-05-1.03282E-06 1.54025E-18-1.29975E-18
 -1      3604 9.48646E-05-2.35680E-05-3.05596E-05-2.53575E-06 1.19217E-18-1.10410E-18
 -1      3605 1.12563E-04-4.64496E-05-2.85287E-05-1.08175E-05-9.32891E-19-1.25884E-19
 -1      3606 1.11509E-04-4.40117E-05-2.89695E-05-8.17850E-06-4.46102E-19 4.05634E-19
 -1      3607 1.08631E-04-4.15354E-05-2.86334E-05-9.81311E-06-5.05644E-19 5.55109E-19
 -1      3608 9.37497E-05-2.35881E-05-3.00684E-05-4.68535E-06 9.26772E-19-1.47338E-18
 -1      3609 9.47026E-05-2.42220E-05-3.02091E-05-4.24104E-06 9.32362E-19-1.22595E-18
 -1      3610 6.30906E-05-1.66164E-05-1.97093E-05-1.04137E-05-3.66573E-19 9.52700E-19
 -1      3611 9.52296E-05-2.84876E-05-2.86033E-05-5.54753E-10 4.61883E-19 7.17296E-19
 -1      3612 9.52351E-05-2.85076E-05-2.85977E-05 5.15191E-11 1.42243E-19 3.94894E-19
 -1      3613 9.52356E-05-2.85086E-05-2.85974E-05-5.48531E-10-3.37945E-20 4.66432E-19
 -1      3614 9.52453E-05-2.85397E-05-2.85883E-05-1.02409E-08-1.68233E-18 2.59480E-18
 -1      3615 9.52455E-05-2.85279E-05-2.85929E-05 1.21000E-09-9.59117E-19 2.23871E-18
 -1      3616 9.52462E-05-2.85512E-05-2.85834E-05-1.85206E-08-1.80604E-18 2.39011E-18
 -1      3617 9.46564E-05-2.37157E-05-3.03981E-05-3.25041E-06 1.06433E-18-1.23761E-18
 -1      3618 7.05314E-05-2.48545E-05-1.92809E-05 2.36840E-05-1.32268E-18 4.36540E-19
 -1      3619 6.89015E-05-2.14358E-05-2.02985E-05 1.87192E-05-6.86705E-19 1.07097E-19
 -1      3620 7.89765E-05-2.92258E-05-2.14131E-05 2.38126E-05-1.43026E-18 4.54446E-19
 -1      3621 8.90137E-05-1.67171E-05-3.10041E-05-8.63723E-07 1.05750E-18-2.34374E-18
 -1      3622 8.90009E-05-1.73491E-05-3.06833E-05-1.14157E-06 9.45937E-19-2.20026E-18
 -1      3623 8.96642E-05-1.73119E-05-3.10076E-05-8.90857E-07 1.20696E-18-2.25695E-18
 -1      3624 9.52459E-05-2.85402E-05-2.85882E-05-1.09901E-08-1.46760E-18 3.73298E-18
 -1      3625 1.25666E-04-4.33704E-05-3.54123E-05 9.86442E-06-2.22637E-19 1.90344E-18
 -1      3626 8.04788E-05-2.96941E-05-2.15108E-05 2.37487E-05 1.46107E-18-2.78986E-18
 -1      3627 9.03672E-05-1.80280E-05-3.10172E-05 7.18660E-07-3.54340E-19-2.47771E-18
 -1      3628 9.06277E-05-1.89112E-05-3.07246E-05 1.61988E-06-3.65620E-19-2.23766E-18
 -1      3629 8.95427E-05-1.71707E-05-3.10193E-05 6.26442E-07-1.32602E-19-2.47530E-18
 -1      3630 1.05362E-04-3.87903E-05-2.85150E-05-1.05484E-05-6.87058E-19 3.45407E-19
 -1      3631 1.02926E-04-3.63961E-05-2.84402E-05-1.11531E-05-5.19427E-19 2.13303E-19
 -1      3632 9.97612E-05-3.48790E-05-2.79117E-05-1.27834E-05-4.18655E-19-4.36464E-19
 -1      3633 1.05190E-04-4.04610E-05-2.79124E-05-1.28643E-05-5.98846E-19-1.95062E-19
 -1      3634 1.22129E-04-5.36576E-05-2.93463E-05-1.08700E-05-1.64115E-18 1.34665E-19
 -1      3635 9.52457E-05-2.85351E-05-2.85903E-05-7.41520E-09-1.28974E-18 1.83801E-18
 -1      3636 7.85248E-05-2.96800E-05-2.07038E-05-2.55118E-05-1.66531E-18-1.14327E-18
 -1      3637 8.55371E-05-3.37884E-05-2.22064E-05-2.53415E-05-1.46506E-18-1.21731E-18
 -1      3638 7.70270E-05-2.66149E-05-2.15862E-05-2.18643E-05-1.34969E-18-1.39841E-18
 -1      3639 9.28750E-05-2.06187E-05-3.09739E-05-1.08217E-06 1.38194E-18-1.54765E-18
 -1      3640 1.08278E-04-4.55979E-05-2.68950E-05 1.56275E-05-7.60272E-19-3.94525E-19
 -1      3641 1.01916E-04-4.61989E-05-2.35667E-05-2.68589E-05-2.11021E-18-8.13138E-19
 -1      3642 1.08378E-04-4.93808E-05-2.54377E-05-2.25033E-05-1.80902E-18-4.95938E-19
 -1      3643 9.61683E-05-4.18153E-05-2.32470E-05-2.64115E-05-1.74319E-18-1.02253E-18
 -1      3644 6.17424E-05-1.62458E-05-1.94998E-05 1.05265E-05-6.56065E-19 4.98399E-19
 -1      3645 5.78388E-05-1.39639E-05-1.84706E-05 6.04707E-06-1.01536E-18 8.96902E-19
 -1      3646 6.05176E-05-1.42588E-05-1.97885E-05 9.64194E-07-6.05940E-19 1.02724E-18
 -1      3647 9.52419E-05-2.85112E-05-2.85990E-05 1.16128E-08-8.57867E-19 4.75346E-18
 -1      3648 1.16489E-04-5.10523E-05-2.78065E-05-1.45718E-05-1.64768E-18 1.46973E-19
 -1      3649 9.52419E-05-2.85230E-05-2.85940E-05-2.30842E-09-7.23035E-19-1.04787E-18
 -1      3650 9.52434E-05-2.85273E-05-2.85926E-05-4.53793E-09-4.46496E-19-4.57932E-20
 -1      3651 9.52427E-05-2.85189E-05-2.85957E-05 9.21574E-10 2.27726E-19 1.91443E-18
 -1      3652 7.71767E-05-2.71036E-05-2.12727E-05-2.23785E-05 9.49238E-19-8.60810E-19
 -1      3653 7.65583E-05-2.45072E-05-2.22825E-05-1.89064E-05 5.90210E-19-1.18679E-18
 -1      3654 8.64484E-05-2.18824E-05-2.77065E-05 9.29170E-06 1.12372E-19-1.63755E-18
 -1      3655 8.59463E-05-2.23047E-05-2.72513E-05 1.04396E-05 2.75730E-19-1.69267E-18
 -1      3656 8.46094E-05-2.26292E-05-2.66136E-05 1.18263E-05 3.25655E-19-1.97051E-18
 -1      3657 8.44123E-05-2.34974E-05-2.60528E-05 1.32902E-05 5.08665E-19-1.99971E-18
 -1      3658 8.27759E-05-2.08507E-05-2.64968E-05 9.86435E-06 1.70101E-19-1.78380E-18
 -1      3659 7.85748E-05-2.35920E-05-2.35176E-05-1.59976E-05 6.90043E-19-2.26319E-18
 -1      3660 7.84555E-05-2.20115E-05-2.42931E-05-1.36031E-05 8.64050E-19-2.40544E-18
 -1      3661 7.01070E-05-1.90546E-05-2.17153E-05-1.42870E-05-1.31336E-19-7.06677E-19
 -1      3662 8.05903E-05-2.17540E-05-2.52111E-05-1.18056E-05 8.66410E-19-2.87798E-18
 -1      3663 8.11075E-05-2.11045E-05-2.58027E-05-1.01894E-05 2.46126E-19-3.19518E-18
 -1      3664 7.53149E-05-1.88535E-05-2.40772E-05-9.96582E-06 6.50875E-20-1.78535E-18
 -1      3665 8.28488E-05-2.11860E-05-2.64341E-05-9.03494E-06-5.42217E-20-3.56504E-18
 -1      3666 8.35732E-05-2.10430E-05-2.68611E-05-7.91836E-06-2.80538E-19-3.09315E-18
 -1      3667 7.92599E-05-1.91594E-05-2.56643E-05-7.26669E-06-2.45913E-19-2.52739E-18
 -1      3668 8.49850E-05-2.13220E-05-2.72966E-05-7.15759E-06-8.25701E-19-3.09445E-18
 -1      3669 8.57376E-05-2.14517E-05-2.75953E-05-6.34421E-06-1.31843E-18-2.34768E-18
 -1      3670 8.24293E-05-1.98538E-05-2.67527E-05-5.63739E-06-2.20552E-19-2.79018E-18
 -1      3671 8.68967E-05-2.18412E-05-2.78934E-05-5.79298E-06-1.36944E-18-2.09920E-18
 -1      3672 8.76006E-05-2.21229E-05-2.80939E-05-5.16329E-06-1.46442E-18-2.29810E-18
 -1      3673 8.49892E-05-2.07059E-05-2.75018E-05-4.52738E-06-1.22011E-18-2.78767E-18
 -1      3674 8.85556E-05-2.25644E-05-2.82933E-05-4.73696E-06-1.45898E-18-1.70435E-18
 -1      3675 8.91769E-05-2.29166E-05-2.84212E-05-4.22416E-06-1.15918E-18-1.58297E-18
 -1      3676 8.70872E-05-2.16442E-05-2.80106E-05-3.70785E-06-1.04523E-18-2.00998E-18
 -1      3677 8.99625E-05-2.33680E-05-2.85500E-05-3.87582E-06-7.56442E-19-1.44107E-18
 -1      3678 9.04908E-05-2.37398E-05-2.86260E-05-3.44480E-06-3.23948E-19-1.24771E-18
 -1      3679 8.88106E-05-2.26004E-05-2.83476E-05-3.05463E-06-5.36331E-19-1.24399E-18
 -1      3680 9.11334E-05-2.41733E-05-2.87048E-05-3.15170E-06 3.66065E-19-1.61580E-18
 -1      3681 9.15705E-05-2.45333E-05-2.87446E-05-2.78471E-06 5.64356E-19-1.14280E-18
 -1      3682 9.02230E-05-2.35258E-05-2.85625E-05-2.50714E-06 9.52211E-20-8.09011E-19
 -1      3683 9.20913E-05-2.49314E-05-2.87887E-05-2.53580E-06 3.24929E-19-7.24932E-19
 -1      3684 9.24452E-05-2.52616E-05-2.88043E-05-2.22359E-06 5.12517E-19-5.86748E-19
 -1      3685 9.13725E-05-2.43860E-05-2.86913E-05-2.03770E-06 7.33959E-19-1.52681E-18
 -1      3686 9.28625E-05-2.56149E-05-2.88249E-05-2.01300E-06 7.63405E-19-5.67860E-19
 -1      3687 9.31437E-05-2.59064E-05-2.88250E-05-1.74983E-06 1.17996E-18-4.39804E-19
 -1      3688 9.22988E-05-2.51594E-05-2.87606E-05-1.63399E-06 7.86685E-19-5.00186E-19
 -1      3689 9.34740E-05-2.62113E-05-2.88301E-05-1.57367E-06 1.19749E-18-1.27757E-18
 -1      3690 9.36936E-05-2.64612E-05-2.88210E-05-1.35482E-06 1.03780E-18-1.10669E-18
 -1      3691 9.30367E-05-2.58358E-05-2.87899E-05-1.28980E-06 1.06688E-18-1.58426E-18
 -1      3692 9.39514E-05-2.67183E-05-2.88166E-05-1.20965E-06 6.80150E-19-1.62762E-18
 -1      3693 9.41202E-05-2.69274E-05-2.88024E-05-1.03048E-06 3.88221E-19-1.43345E-18
 -1      3694 9.36168E-05-2.64133E-05-2.87935E-05-1.00061E-06 6.13543E-19-1.90738E-18
 -1      3695 9.43186E-05-2.71398E-05-2.87926E-05-9.12849E-07 4.08072E-20-1.24733E-18
 -1      3696 9.44462E-05-2.73112E-05-2.87764E-05-7.68558E-07 1.32199E-19-1.14008E-18
 -1      3697 9.40665E-05-2.68959E-05-2.87813E-05-7.61786E-07 3.22314E-19-3.01152E-18
 -1      3698 9.45964E-05-2.74833E-05-2.87639E-05-6.74878E-07-2.97737E-19-1.69440E-18
 -1      3699 9.46912E-05-2.76212E-05-2.87475E-05-5.60606E-07-5.62915E-19-1.96331E-18
 -1      3700 9.44098E-05-2.72915E-05-2.87604E-05-5.68113E-07-7.94119E-19-2.99820E-18
 -1      3701 9.48029E-05-2.77582E-05-2.87342E-05-4.87315E-07-1.03927E-18-1.11713E-18
 -1      3702 9.48720E-05-2.78673E-05-2.87187E-05-3.98339E-07-1.39938E-18-1.48081E-18
 -1      3703 9.46676E-05-2.76098E-05-2.87357E-05-4.13915E-07-9.43998E-19-3.02945E-18
 -1      3704 9.49534E-05-2.79745E-05-2.87057E-05-3.42027E-07-2.03038E-18-8.46657E-19
 -1      3705 9.50026E-05-2.80593E-05-2.86918E-05-2.73939E-07-2.01922E-18-1.20683E-18
 -1      3706 9.48575E-05-2.78617E-05-2.87100E-05-2.93385E-07-1.67026E-18-6.59151E-19
 -1      3707 9.50606E-05-2.81419E-05-2.86797E-05-2.31471E-07-1.03612E-18-1.36753E-18
 -1      3708 9.50946E-05-2.82068E-05-2.86675E-05-1.80312E-07 5.01322E-19-2.61255E-18
 -1      3709 9.49944E-05-2.80576E-05-2.86854E-05-2.00910E-07-1.84849E-18-3.90245E-20
 -1      3710 9.51347E-05-2.82693E-05-2.86568E-05-1.48918E-07 1.26541E-18-3.56099E-18
 -1      3711 9.51575E-05-2.83183E-05-2.86463E-05-1.11240E-07 1.43066E-18-3.93638E-18
 -1      3712 9.50905E-05-2.82075E-05-2.86629E-05-1.31301E-07-1.44944E-19-1.17558E-18
 -1      3713 9.51842E-05-2.83649E-05-2.86369E-05-8.86279E-08 1.55258E-18-3.19439E-18
 -1      3714 9.51987E-05-2.84014E-05-2.86281E-05-6.15345E-08 1.22268E-18-2.19607E-18
 -1      3715 9.51558E-05-2.83206E-05-2.86429E-05-8.00759E-08 1.30791E-18-1.19478E-18
 -1      3716 9.52159E-05-2.84361E-05-2.86199E-05-4.56064E-08 2.40904E-19-3.08159E-18
 -1      3717 9.52250E-05-2.84625E-05-2.86124E-05-2.73057E-08-1.58363E-18-1.37831E-18
 -1      3718 9.51981E-05-2.84048E-05-2.86253E-05-4.33044E-08 7.79251E-19-2.44526E-18
 -1      3719 9.39064E-05-2.27479E-05-3.04973E-05-2.90970E-06 1.10963E-18-1.41313E-18
 -1      3720 9.27972E-05-2.30413E-05-2.98959E-05-4.96735E-06 7.60864E-19-1.58214E-18
 -1      3721 9.27254E-05-2.23468E-05-3.01593E-05-3.92981E-06 8.69286E-19-1.68420E-18
 -1      3722 9.63099E-05-2.84275E-05-2.90781E-05-9.34107E-06 3.73359E-19-9.02788E-19
 -1      3723 9.56708E-05-2.74851E-05-2.92100E-05-8.76248E-06 4.53987E-19-1.02129E-18
 -1      3724 9.42052E-05-2.62954E-05-2.91206E-05-8.51096E-06 4.54508E-19-1.33544E-18
 -1      3725 9.16521E-05-2.59246E-05-2.81753E-05 8.40426E-06-1.07583E-18 1.10536E-18
 -1      3726 9.20604E-05-2.65860E-05-2.80352E-05 9.11825E-06-8.99414E-19 9.21188E-19
 -1      3727 6.59909E-05-1.63786E-05-2.12671E-05-8.37012E-06-2.26475E-19 4.61117E-19
 -1      3728 9.37668E-05-2.98739E-05-2.73653E-05 1.20572E-05-4.72275E-19 7.22606E-19
 -1      3729 9.53771E-05-3.17974E-05-2.72085E-05 1.28037E-05-1.45213E-19 4.20634E-19
 -1      3730 9.16717E-05-2.52860E-05-2.84599E-05 6.92243E-06-2.88344E-19 1.49080E-18
 -1      3731 9.17888E-05-2.55850E-05-2.83562E-05 7.56816E-06-7.58984E-19 1.33804E-18
 -1      3732 9.01143E-05-2.48394E-05-2.79787E-05 7.90347E-06-8.69416E-19 2.25068E-19
 -1      3733 9.19919E-05-2.51467E-05-2.86574E-05 5.66016E-06-2.19755E-19 7.62741E-19
 -1      3734 9.19482E-05-2.52132E-05-2.85894E-05 6.23246E-06 2.96345E-19 1.90604E-18
 -1      3735 9.05587E-05-2.44921E-05-2.83121E-05 6.37570E-06-3.26967E-19 2.24499E-19
 -1      3736 9.24441E-05-2.53087E-05-2.87814E-05 4.58747E-06 5.45021E-20 1.29540E-18
 -1      3737 9.23217E-05-2.52359E-05-2.87433E-05 5.08847E-06-5.63413E-19 1.31477E-18
 -1      3738 9.11794E-05-2.45650E-05-2.85443E-05 5.13206E-06-3.06338E-19 2.98768E-19
 -1      3739 9.29285E-05-2.56349E-05-2.88484E-05 3.67891E-06 1.65397E-19 1.33625E-18
 -1      3740 9.27770E-05-2.54870E-05-2.88330E-05 4.11233E-06 5.15681E-19 1.83157E-18
 -1      3741 9.18475E-05-2.48809E-05-2.86943E-05 4.11017E-06-2.23293E-19 1.02432E-18
 -1      3742 9.33897E-05-2.60338E-05-2.88741E-05 2.91451E-06-2.05557E-19 3.43313E-19
 -1      3743 9.32372E-05-2.58531E-05-2.88747E-05 3.28448E-06 4.96202E-20 1.32952E-18
 -1      3744 9.24897E-05-2.53196E-05-2.87816E-05 3.26607E-06 5.36104E-19 9.37111E-19
 -1      3745 9.37996E-05-2.64466E-05-2.88719E-05 2.27768E-06-2.18665E-20 5.84198E-19
 -1      3746 9.36607E-05-2.62600E-05-2.88827E-05 2.58886E-06-4.96259E-19-2.12963E-21
 -1      3747 9.30676E-05-2.58013E-05-2.88234E-05 2.56899E-06-5.63699E-20 9.95071E-19
 -1      3748 9.41473E-05-2.68382E-05-2.88520E-05 1.75352E-06 8.13590E-19 2.19034E-18
 -1      3749 9.40283E-05-2.66617E-05-2.88687E-05 2.01120E-06 6.53416E-19 1.84822E-18
 -1      3750 9.35648E-05-2.62757E-05-2.88339E-05 1.99624E-06-4.40944E-19 1.45731E-18
 -1      3751 9.44320E-05-2.71896E-05-2.88225E-05 1.32792E-06 2.71861E-19 2.92543E-18
 -1      3752 9.43344E-05-2.70317E-05-2.88418E-05 1.53790E-06 6.33375E-19 3.00233E-18
 -1      3753 9.39780E-05-2.67135E-05-2.88241E-05 1.52967E-06 3.87300E-19 3.52655E-18
 -1      3754 9.46582E-05-2.74926E-05-2.87888E-05 9.87287E-07-9.42304E-19 3.79868E-18
 -1      3755 9.45810E-05-2.73568E-05-2.88085E-05 1.15565E-06 5.68857E-20 3.41022E-18
 -1      3756 9.43116E-05-2.70995E-05-2.88024E-05 1.15377E-06 4.01599E-20 4.64796E-18
 -1      3757 9.48332E-05-2.77458E-05-2.87545E-05 7.18735E-07-5.97221E-19 2.85665E-18
 -1      3758 9.47739E-05-2.76326E-05-2.87733E-05 8.51558E-07-8.16615E-19 3.74573E-18
 -1      3759 9.45742E-05-2.74283E-05-2.87746E-05 8.54724E-07-6.54812E-19 4.54843E-18
 -1      3760 9.49652E-05-2.79520E-05-2.87221E-05 5.10273E-07 6.96931E-19 2.15768E-18
 -1      3761 9.49210E-05-2.78600E-05-2.87391E-05 6.13349E-07 1.60589E-19 2.74887E-18
 -1      3762 9.47761E-05-2.77008E-05-2.87449E-05 6.20063E-07-8.32665E-20 2.04975E-18
 -1      3763 9.50621E-05-2.81161E-05-2.86928E-05 3.51054E-07 2.69017E-19 1.76414E-18
 -1      3764 9.50301E-05-2.80431E-05-2.87077E-05 4.29702E-07 7.68584E-19 1.73256E-18
 -1      3765 9.49274E-05-2.79212E-05-2.87158E-05 4.38599E-07 8.55835E-19 1.84806E-18
 -1      3766 9.51311E-05-2.82441E-05-2.86671E-05 2.31520E-07 8.74124E-19 2.15156E-18
 -1      3767 9.51088E-05-2.81872E-05-2.86798E-05 2.90464E-07 5.26536E-19 1.22345E-18
 -1      3768 9.50381E-05-2.80956E-05-2.86888E-05 3.00442E-07 5.67886E-19 1.94983E-18
 -1      3769 9.51787E-05-2.83420E-05-2.86452E-05 1.43469E-07 7.33775E-19 1.22681E-18
 -1      3770 9.51637E-05-2.82986E-05-2.86558E-05 1.86774E-07 1.29188E-18 2.04998E-18
 -1      3771 9.51167E-05-2.82310E-05-2.86647E-05 1.97012E-07 1.22991E-18 1.86908E-18
 -1      3772 9.52099E-05-2.84157E-05-2.86267E-05 8.00947E-08-1.35230E-18 1.17236E-18
 -1      3773 9.52004E-05-2.83830E-05-2.86355E-05 1.11132E-07-2.39278E-19 1.27882E-18
 -1      3774 9.51705E-05-2.83342E-05-2.86437E-05 1.21051E-07 7.30924E-20 2.80883E-18
 -1      3775 9.52295E-05-2.84705E-05-2.86113E-05 3.60985E-08-1.91081E-18 1.05645E-18
 -1      3776 9.52238E-05-2.84463E-05-2.86186E-05 5.72335E-08-2.20099E-18 2.00262E-19
 -1      3777 9.52058E-05-2.84116E-05-2.86258E-05 6.65140E-08-1.34082E-18 1.46991E-18
 -1      3778 1.11604E-04-4.83427E-05-2.70444E-05-1.64653E-05-1.63823E-18-2.66031E-19
 -1      3779 9.78328E-05-4.00626E-05-2.47767E-05 2.11888E-05-7.24478E-19-8.66541E-19
 -1      3780 8.84291E-05-3.44744E-05-2.28488E-05 2.40092E-05-1.35099E-18-5.77147E-19
 -1      3781 9.52372E-05-2.85121E-05-2.85967E-05 1.48552E-10 5.48973E-22 6.54494E-19
 -1      3782 9.52388E-05-2.85151E-05-2.85959E-05-1.03689E-09-5.96892E-19-1.83874E-18
 -1      3783 9.52312E-05-2.84911E-05-2.86026E-05 2.89509E-09 4.96510E-19 7.48787E-19
 -1      3784 9.04921E-05-2.05527E-05-2.99873E-05 3.72667E-06-2.73594E-19-1.85233E-18
 -1      3785 9.01742E-05-2.09367E-05-2.96773E-05 4.69294E-06-2.14150E-19-1.72991E-18
 -1      3786 9.52237E-05-2.84714E-05-2.86084E-05-9.19033E-09-8.44946E-19-2.03990E-18
 -1      3787 9.52213E-05-2.84674E-05-2.86091E-05-7.66027E-09-2.27961E-19-7.10003E-19
 -1      3788 8.83575E-05-1.67394E-05-3.06700E-05-4.29074E-07 5.90539E-19-2.25708E-18
 -1      3789 8.81451E-05-1.58576E-05-3.09902E-05-1.82681E-07 5.92256E-19-2.42509E-18
 -1      3790 8.82617E-05-1.59826E-05-3.09932E-05-6.44316E-08 3.76586E-19-2.48710E-18
 -1      3791 9.29147E-05-2.11893E-05-3.07282E-05-1.93764E-06 1.22852E-18-1.57035E-18
 -1      3792 9.17023E-05-1.92772E-05-3.10392E-05-9.13621E-07 1.45465E-18-1.67906E-18
 -1      3793 9.07319E-05-1.83286E-05-3.10510E-05-9.78037E-07 1.21514E-18-1.89111E-18
 -1      3794 9.26948E-05-2.14281E-05-3.05522E-05-2.64509E-06 1.11081E-18-1.73317E-18
 -1      3795 8.85138E-05-1.61976E-05-3.10012E-05 2.36986E-07 3.32142E-19-2.51321E-18
 -1      3796 8.90078E-05-1.66969E-05-3.10072E-05 3.55112E-07 8.89949E-20-2.54391E-18
 -1      3797 8.92163E-05-1.75459E-05-3.06989E-05 9.74278E-07 1.75898E-20-2.32891E-18
 -1      3798 8.84996E-05-1.68686E-05-3.06768E-05 3.19242E-07 2.57637E-19-2.39367E-18
 -1      3799 9.06198E-05-1.95068E-05-3.04899E-05 2.20131E-06-3.52154E-19-2.08175E-18
 -1      3800 9.06472E-05-2.01359E-05-3.02174E-05 3.12028E-06-2.87807E-19-1.88715E-18
 -1      3801 8.95598E-05-1.95231E-05-3.00030E-05 2.99473E-06-2.77017E-19-1.76356E-18
 -1      3802 8.97247E-05-1.86030E-05-3.04755E-05 1.83950E-06-1.74347E-19-1.92948E-18
 -1      3803 8.95455E-05-2.11772E-05-2.93168E-05 5.49975E-06-1.63150E-19-1.85611E-18
 -1      3804 8.90533E-05-2.14133E-05-2.89896E-05 6.43449E-06-6.08722E-20-1.81153E-18
 -1      3805 8.88317E-05-2.01830E-05-2.94001E-05 4.35245E-06-2.70956E-19-1.87046E-18
 -1      3806 1.06023E-04-4.23248E-05-2.72526E-05 1.39533E-05-4.26752E-19 1.10565E-19
 -1      3807 1.01912E-04-4.16729E-05-2.57637E-05 1.88248E-05-7.01019E-19-8.27220E-19
 -1      3808 9.58813E-05-3.67778E-05-2.53562E-05 1.88259E-05-5.34034E-19-9.69184E-19
 -1      3809 1.02180E-04-3.90500E-05-2.69994E-05 1.44602E-05-2.22091E-19 7.72554E-20
 -1      3810 9.52388E-05-2.85055E-05-2.86002E-05 9.50334E-09-7.46563E-19 1.46486E-18
 -1      3811 9.52355E-05-2.84868E-05-2.86062E-05 2.38572E-08-1.19833E-18 1.22537E-18
 -1      3812 9.52252E-05-2.84625E-05-2.86125E-05 3.22719E-08-1.93163E-18-1.13093E-18
 -1      3813 9.52360E-05-2.84974E-05-2.86025E-05 1.15057E-08-2.85624E-19-1.75507E-18
 -1      3814 9.22078E-05-2.73364E-05-2.78012E-05 1.01293E-05-4.90974E-19 6.16748E-19
 -1      3815 9.31042E-05-2.85361E-05-2.76373E-05 1.08858E-05 5.21471E-20 9.88245E-19
 -1      3816 9.00636E-05-2.58592E-05-2.75311E-05 9.79559E-06-8.90637E-19 1.27223E-19
 -1      3817 8.81547E-05-2.15222E-05-2.85800E-05 7.29049E-06 4.40101E-20-1.78209E-18
 -1      3818 8.75887E-05-2.17586E-05-2.82049E-05 8.27028E-06 8.28909E-20-1.71673E-18
 -1      3819 8.52753E-05-2.06256E-05-2.76726E-05 7.63746E-06 1.90227E-19-1.70664E-18
 -1      3820 8.73103E-05-2.04927E-05-2.86090E-05 5.90357E-06-3.54782E-20-1.90260E-18
 -1      3821 7.59957E-05-2.31418E-05-2.24898E-05 1.81563E-05 7.63147E-19-2.73557E-18
 -1      3822 7.27841E-05-2.01360E-05-2.26455E-05 1.36346E-05 5.67486E-19-2.54277E-18
 -1      3823 6.73703E-05-1.64576E-05-2.18284E-05 6.06952E-06 2.84984E-19-2.21735E-18
 -1      3824 6.34547E-05-1.47617E-05-2.06062E-05 5.22210E-07-2.87511E-20-2.39104E-18
 -1      3825 6.66034E-05-1.61367E-05-2.16259E-05-3.75900E-06-4.39779E-19-1.98328E-18
 -1      3826 8.00696E-05-2.18449E-05-2.48916E-05 1.34505E-05 4.70441E-19-2.14017E-18
 -1      3827 8.31402E-05-2.45408E-05-2.51579E-05 1.56677E-05 7.10260E-19-2.27706E-18
 -1      3828 8.37498E-05-2.65384E-05-2.44592E-05 1.77579E-05 7.59868E-19-2.45400E-18
 -1      3829 9.52303E-05-2.84813E-05-2.86068E-05-1.65115E-08-2.69341E-18-1.42828E-18
 -1      3830 9.52245E-05-2.84697E-05-2.86094E-05-1.59253E-08-1.13584E-18-3.94054E-18
 -1      3831 9.49990E-05-2.81677E-05-2.86707E-05-1.01975E-05 2.15262E-19-1.16677E-18
 -1      3832 9.50303E-05-3.03474E-05-2.76765E-05-1.26377E-05-3.53276E-19-1.01780E-18
 -1      3833 9.38325E-05-2.87102E-05-2.79013E-05-1.18754E-05-1.16431E-19-1.07527E-18
 -1      3834 9.26662E-05-2.36209E-05-2.95981E-05-5.95017E-06 5.96358E-19-1.39699E-18
 -1      3835 9.16215E-05-2.23457E-05-2.96749E-05-5.25639E-06 6.13450E-19-1.69375E-18
 -1      3836 9.27779E-05-2.42628E-05-2.93517E-05-6.90776E-06 4.67298E-19-1.33211E-18
 -1      3837 1.07107E-04-4.46145E-05-2.65338E-05-1.77077E-05-1.23223E-18-3.44769E-19
 -1      3838 6.48449E-05-1.50232E-05-2.11611E-05-4.24260E-06-6.95983E-19 1.06881E-18
 -1      3839 7.09447E-05-1.73716E-05-2.29359E-05-7.71394E-06-7.80002E-19 1.08298E-19
 -1      3840 7.31628E-05-1.75162E-05-2.39291E-05-6.34095E-06-5.70775E-19-8.97962E-19
 -1      3841 6.55503E-05-1.52988E-05-2.15612E-05 2.23084E-07-8.53726E-19 8.00102E-19
 -1      3842 9.07683E-05-2.79151E-05-2.69766E-05 1.21137E-05-3.40581E-19 5.58544E-19
 -1      3843 9.52195E-05-2.84643E-05-2.86095E-05-1.80713E-09 6.28088E-20 9.90925E-19
 -1      3844 9.52195E-05-2.84644E-05-2.86095E-05 9.61455E-10 2.07874E-19 1.04999E-18
 -1      3845 9.52102E-05-2.84400E-05-2.86155E-05-6.86583E-09 3.40820E-19 4.56698E-19
 -1      3846 9.52365E-05-2.85027E-05-2.86000E-05 3.93203E-09-5.37994E-19-1.41923E-18
 -1      3847 9.60421E-05-3.21594E-05-2.73434E-05-1.39030E-05-4.05594E-19-9.09746E-19
 -1      3848 9.27442E-05-2.99485E-05-2.69473E-05-1.43357E-05-3.53620E-19-9.79241E-19
 -1      3849 9.83343E-05-3.46430E-05-2.72350E-05-1.43463E-05-4.69169E-19-9.86376E-19
 -1      3850 8.42744E-05-3.03706E-05-2.30393E-05 2.11532E-05-1.19680E-18-2.65588E-19
 -1      3851 9.05608E-05-1.88133E-05-3.07397E-05-1.60816E-06 1.06243E-18-1.92353E-18
 -1      3852 9.70204E-05-3.37451E-05-2.70726E-05 1.36043E-05 5.92574E-19-1.76773E-19
 -1      3853 9.95591E-05-3.64085E-05-2.70192E-05 1.39639E-05 1.69757E-19 2.82290E-19
 -1      3854 9.69354E-05-3.57107E-05-2.63138E-05 1.60781E-05-3.28341E-20-4.94416E-19
 -1      3855 9.29619E-05-3.13167E-05-2.65216E-05 1.44696E-05-9.20106E-20 5.79744E-19
 -1      3856 8.91395E-05-1.82877E-05-3.03651E-05-1.76063E-06 9.89827E-19-2.03654E-18
 -1      3857 8.85733E-05-1.77963E-05-3.03553E-05-1.43829E-06 7.83933E-19-2.11490E-18
 -1      3858 7.08478E-05-1.95526E-05-2.20425E-05-1.28075E-05-7.06326E-19-1.79978E-18
 -1      3859 7.39678E-05-2.24492E-05-2.18449E-05-1.77472E-05-1.14388E-18-1.60429E-18
 -1      3860 9.17908E-05-2.08728E-05-3.03818E-05-2.99275E-06 1.03171E-18-1.71353E-18
 -1      3861 9.52136E-05-2.84416E-05-2.86162E-05-2.13818E-08-5.92374E-19-2.76668E-18
 -1      3862 8.06041E-05-2.69320E-05-2.30392E-05 2.04445E-05 9.04370E-19-2.51308E-18
 -1      3863 7.88610E-05-2.57161E-05-2.27669E-05-1.88603E-05-1.05266E-18-1.50565E-18
 -1      3864 8.80321E-05-3.33653E-05-2.34141E-05-2.27664E-05-1.32576E-18-1.20619E-18
 -1      3865 9.16937E-05-3.72208E-05-2.31124E-05-2.50733E-05-1.52162E-18-1.04074E-18
 -1      3866 9.79159E-05-4.12152E-05-2.44562E-05-2.32853E-05-1.50276E-18-9.19772E-19
 -1      3867 6.67378E-05-1.83246E-05-2.04686E-05 1.44052E-05-1.07262E-18-1.25176E-19
 -1      3868 6.60988E-05-1.67636E-05-2.11454E-05 9.31293E-06-1.31949E-18 4.29525E-19
 -1      3869 7.25362E-05-2.18711E-05-2.18235E-05 1.65974E-05-1.23614E-18 4.38770E-19
 -1      3870 1.22525E-04-4.45458E-05-3.37521E-05-8.63108E-06-2.41639E-19 1.32762E-19
 -1      3871 8.82339E-05-1.81785E-05-3.00177E-05-1.35845E-06 5.77308E-19-1.89083E-18
 -1      3872 8.82051E-05-1.74222E-05-3.03386E-05-7.48251E-07 5.82480E-19-2.06850E-18
 -1      3873 8.80886E-05-1.73333E-05-3.03368E-05-3.03956E-07 3.88175E-19-2.08497E-18
 -1      3874 7.76133E-05-1.94113E-05-2.50429E-05 9.13660E-06 5.62863E-20-2.15912E-18
 -1      3875 7.61581E-05-1.99998E-05-2.40508E-05 1.13318E-05 3.48849E-19-2.24495E-18
 -1      3876 7.13383E-05-1.75385E-05-2.29075E-05 8.69600E-06 2.03005E-19-2.26026E-18
 -1      3877 8.86153E-05-3.28179E-05-2.36378E-05 2.27940E-05 1.26612E-18-2.44839E-18
 -1      3878 8.15055E-05-2.55851E-05-2.40046E-05-1.67986E-05-6.72604E-19-1.47856E-18
 -1      3879 8.50574E-05-2.90875E-05-2.38064E-05-1.99521E-05-1.05571E-18-1.31815E-18
 -1      3880 9.14447E-05-2.68800E-05-2.76893E-05-1.15976E-05-8.54895E-20-1.23661E-18
 -1      3881 9.34762E-05-2.75068E-05-2.82422E-05-1.07014E-05-5.74611E-21-1.07042E-18
 -1      3882 9.28767E-05-2.64095E-05-2.84843E-05-9.84511E-06 2.92888E-19-1.15968E-18
 -1      3883 7.68137E-05-1.82018E-05-2.51132E-05-5.20185E-06-3.28285E-19-1.35020E-18
 -1      3884 7.85210E-05-1.85791E-05-2.57582E-05-4.46068E-06-1.55348E-19-1.25808E-18
 -1      3885 8.05769E-05-1.91243E-05-2.63536E-05-4.05082E-06-1.99478E-19-1.83563E-18
 -1      3886 8.20201E-05-1.95646E-05-2.68093E-05-3.57021E-06-8.46885E-19-2.25423E-18
 -1      3887 7.86558E-05-1.81542E-05-2.58503E-05-2.20079E-06-4.14606E-19-1.47671E-18
 -1      3888 8.35783E-05-2.00983E-05-2.72184E-05-3.31117E-06-1.12348E-18-1.87163E-18
 -1      3889 8.47505E-05-2.05781E-05-2.75306E-05-2.95762E-06-1.04381E-18-1.83794E-18
 -1      3890 8.21905E-05-1.93858E-05-2.68647E-05-1.86066E-06-7.87341E-19-1.88608E-18
 -1      3891 8.59813E-05-2.11169E-05-2.78096E-05-2.76250E-06-6.58711E-19-1.34937E-18
 -1      3892 8.69398E-05-2.16069E-05-2.80196E-05-2.48355E-06-3.03867E-19-4.96295E-19
 -1      3893 8.48911E-05-2.05119E-05-2.75577E-05-1.62891E-06-4.23620E-19-7.58199E-19
 -1      3894 8.79289E-05-2.21321E-05-2.82070E-05-2.32014E-06-6.23259E-19-4.94358E-19
 -1      3895 8.87150E-05-2.26127E-05-2.83442E-05-2.08430E-06-2.79469E-19-4.34618E-19
 -1      3896 8.70571E-05-2.15991E-05-2.80287E-05-1.43667E-06-2.01563E-19 1.70501E-19
 -1      3897 8.95166E-05-2.31100E-05-2.84665E-05-1.93991E-06-3.21527E-19-6.96124E-19
 -1      3898 9.01584E-05-2.35635E-05-2.85520E-05-1.73331E-06-7.32479E-20-6.75603E-19
 -1      3899 8.88109E-05-2.26346E-05-2.83423E-05-1.25268E-06-5.34646E-19 1.67883E-19
 -1      3900 9.08083E-05-2.40210E-05-2.86280E-05-1.60363E-06 6.19804E-19-1.66699E-18
 -1      3901 9.13279E-05-2.44350E-05-2.86774E-05-1.42123E-06 7.64584E-19-1.98260E-18
 -1      3902 9.02361E-05-2.35992E-05-2.85439E-05-1.07211E-06-6.34465E-20-1.19479E-18
 -1      3903 9.18519E-05-2.48446E-05-2.87211E-05-1.30561E-06 5.59178E-19-1.97663E-18
 -1      3904 9.22682E-05-2.52117E-05-2.87457E-05-1.14593E-06 7.26590E-19-2.31571E-18
 -1      3905 9.13906E-05-2.44756E-05-2.86663E-05-8.98045E-07 4.81323E-19-2.33196E-18
 -1      3906 9.26868E-05-2.55694E-05-2.87673E-05-1.04471E-06 8.85300E-19-2.28116E-18
 -1      3907 9.30162E-05-2.58868E-05-2.87755E-05-9.07184E-07 9.88980E-19-2.76815E-18
 -1      3908 9.23188E-05-2.52524E-05-2.87337E-05-7.35592E-07 6.71127E-19-3.27116E-18
 -1      3909 9.33468E-05-2.61922E-05-2.87824E-05-8.20535E-07 7.86910E-19-3.33440E-18
 -1      3910 9.36038E-05-2.64606E-05-2.87803E-05-7.04371E-07 8.13632E-19-3.46361E-18
 -1      3911 9.30571E-05-2.59250E-05-2.87638E-05-5.89112E-07 9.49131E-19-4.06043E-18
 -1      3912 9.38614E-05-2.67158E-05-2.87780E-05-6.31908E-07 4.02244E-19-4.04490E-18
 -1      3913 9.40591E-05-2.69382E-05-2.87698E-05-5.35749E-07-8.34172E-20-3.93584E-18
 -1      3914 9.36368E-05-2.64949E-05-2.87696E-05-4.61260E-07 3.31872E-19-4.25512E-18
 -1      3915 9.42568E-05-2.71475E-05-2.87620E-05-4.76520E-07-5.43259E-19-3.49417E-18
 -1      3916 9.44064E-05-2.73283E-05-2.87506E-05-3.98494E-07-7.06755E-19-3.17014E-18
 -1      3917 9.40856E-05-2.69683E-05-2.87603E-05-3.52920E-07-1.37695E-19-4.33349E-18
 -1      3918 9.45556E-05-2.74967E-05-2.87401E-05-3.51137E-07-5.70357E-19-3.06140E-18
 -1      3919 9.46669E-05-2.76412E-05-2.87275E-05-2.89047E-07-5.05544E-19-2.19697E-18
 -1      3920 9.44275E-05-2.73540E-05-2.87426E-05-2.63540E-07-5.11658E-19-2.87653E-18
 -1      3921 9.47774E-05-2.77745E-05-2.87159E-05-2.51984E-07-9.99433E-19-2.18279E-18
 -1      3922 9.48585E-05-2.78879E-05-2.87034E-05-2.03515E-07-1.72382E-18-2.10847E-18
 -1      3923 9.46835E-05-2.76628E-05-2.87208E-05-1.91588E-07-7.05427E-19-2.46342E-18
 -1      3924 9.49386E-05-2.79915E-05-2.86918E-05-1.75118E-07-1.89210E-18-1.27470E-18
 -1      3925 9.49963E-05-2.80791E-05-2.86801E-05-1.38006E-07-1.75866E-18-9.83010E-19
 -1      3926 9.48713E-05-2.79057E-05-2.86978E-05-1.34989E-07-1.43804E-18-3.15185E-18
 -1      3927 9.50528E-05-2.81583E-05-2.86692E-05-1.16677E-07-9.59204E-19-4.03368E-19
 -1      3928 9.50927E-05-2.82248E-05-2.86586E-05-8.88210E-08 4.98393E-19-9.20293E-19
 -1      3929 9.50059E-05-2.80935E-05-2.86755E-05-9.14448E-08-7.93778E-19-7.27275E-19
 -1      3930 9.51315E-05-2.82847E-05-2.86487E-05-7.30835E-08 8.11999E-19-1.05817E-18
 -1      3931 9.51581E-05-2.83346E-05-2.86393E-05-5.30663E-08 1.01259E-18-1.82385E-18
 -1      3932 9.50998E-05-2.82366E-05-2.86548E-05-5.84001E-08 3.41072E-19-1.78029E-18
 -1      3933 9.51811E-05-2.83743E-05-2.86314E-05-4.30591E-08 4.89967E-19-1.39420E-18
 -1      3934 9.51985E-05-2.84118E-05-2.86232E-05-2.85354E-08-4.18119E-20-2.28845E-18
 -1      3935 9.51985E-05-2.84133E-05-2.86221E-05-1.99045E-08 7.48155E-20-1.30428E-18
 -1      3936 9.51601E-05-2.83389E-05-2.86371E-05-3.57598E-08 4.32624E-19-3.26427E-18
 -1      3937 9.28760E-05-2.56205E-05-2.88057E-05-8.79354E-06 4.02509E-19-1.28973E-18
 -1      3938 9.26140E-05-2.48493E-05-2.90492E-05-7.88667E-06 3.61067E-19-1.29896E-18
 -1      3939 9.13788E-05-2.35873E-05-2.90499E-05-7.22690E-06 3.70195E-19-1.66390E-18
 -1      3940 9.11864E-05-2.49580E-05-2.83965E-05-9.27150E-06 2.21279E-19-1.34151E-18
 -1      3941 8.94980E-05-2.37075E-05-2.82121E-05 5.50878E-06-8.25541E-19 8.58931E-19
 -1      3942 8.92132E-05-2.37027E-05-2.80638E-05 6.16927E-06-7.85556E-19 6.51052E-19
 -1      3943 8.85957E-05-2.36817E-05-2.78400E-05 6.95633E-06-9.65074E-19 3.93903E-19
 -1      3944 8.84455E-05-2.39214E-05-2.76333E-05 7.78265E-06-1.23107E-18 4.50341E-19
 -1      3945 8.76092E-05-2.28400E-05-2.77470E-05 6.02096E-06-9.57547E-19 1.16217E-18
 -1      3946 9.13122E-05-2.45220E-05-2.86355E-05 3.45588E-06-6.78330E-19 1.30540E-18
 -1      3947 9.09759E-05-2.42950E-05-2.85732E-05 3.89578E-06-5.62646E-19 9.32017E-19
 -1      3948 9.21057E-05-2.50785E-05-2.87352E-05 2.71744E-06 3.74770E-19 1.62293E-18
 -1      3949 9.17948E-05-2.48198E-05-2.87009E-05 3.08026E-06-3.48822E-19 9.18808E-19
 -1      3950 9.09986E-05-2.42592E-05-2.85930E-05 2.86773E-06-4.15428E-19 8.35322E-19
 -1      3951 9.27920E-05-2.56409E-05-2.87867E-05 2.11806E-06-1.86723E-19 1.49170E-18
 -1      3952 9.25194E-05-2.53801E-05-2.87722E-05 2.41699E-06 5.33507E-19 2.29748E-18
 -1      3953 9.18897E-05-2.49010E-05-2.87013E-05 2.23379E-06 1.18317E-19 1.12171E-18
 -1      3954 9.33677E-05-2.61706E-05-2.88050E-05 1.63258E-06-5.30995E-19 1.88664E-18
 -1      3955 9.31377E-05-2.59258E-05-2.88039E-05 1.87742E-06-6.44392E-19 1.39426E-18
 -1      3956 9.26437E-05-2.55218E-05-2.87596E-05 1.72752E-06-3.25529E-20 1.52254E-18
 -1      3957 9.38382E-05-2.66462E-05-2.88017E-05 1.24180E-06-1.01077E-19 2.80636E-18
 -1      3958 9.36501E-05-2.64272E-05-2.88089E-05 1.44050E-06-1.82946E-19 2.09333E-18
 -1      3959 9.32667E-05-2.60918E-05-2.87836E-05 1.32284E-06-7.30502E-19 1.07755E-18
 -1      3960 9.42137E-05-2.70578E-05-2.87852E-05 9.30109E-07 1.16388E-19 3.22734E-18
 -1      3961 9.40640E-05-2.68689E-05-2.87971E-05 1.08953E-06 7.36546E-19 3.33553E-18
 -1      3962 9.37704E-05-2.65949E-05-2.87850E-05 1.00056E-06-1.53819E-19 2.18278E-18
 -1      3963 9.45069E-05-2.74039E-05-2.87617E-05 6.84264E-07-4.92503E-19 2.72733E-18
 -1      3964 9.43905E-05-2.72457E-05-2.87757E-05 8.10540E-07-3.02374E-19 3.30033E-18
 -1      3965 9.41692E-05-2.70254E-05-2.87723E-05 7.45712E-07 6.75973E-20 2.60087E-18
 -1      3966 9.47308E-05-2.76878E-05-2.87352E-05 4.92788E-07 8.26286E-19 1.60889E-18
 -1      3967 9.46425E-05-2.75585E-05-2.87497E-05 5.91428E-07 5.64317E-19 2.65859E-18
 -1      3968 9.44785E-05-2.73843E-05-2.87519E-05 5.46098E-07 5.74332E-19 2.31766E-18
 -1      3969 9.48979E-05-2.79155E-05-2.87087E-05 3.45706E-07 3.06447E-19 2.34957E-18
 -1      3970 9.48326E-05-2.78121E-05-2.87226E-05 4.21625E-07 3.62360E-19 2.23258E-18
 -1      3971 9.47134E-05-2.76767E-05-2.87280E-05 3.91512E-07 3.40953E-19 2.28197E-18
 -1      3972 9.50196E-05-2.80944E-05-2.86837E-05 2.34420E-07 5.61833E-19 2.62710E-18
 -1      3973 9.49726E-05-2.80134E-05-2.86964E-05 2.91929E-07 6.79433E-19 2.56535E-18
 -1      3974 9.48879E-05-2.79099E-05-2.87033E-05 2.73332E-07 4.85463E-19 3.02200E-18
 -1      3975 9.51056E-05-2.82324E-05-2.86610E-05 1.51608E-07 1.00770E-18 2.50043E-18
 -1      3976 9.50729E-05-2.81702E-05-2.86722E-05 1.94422E-07 9.78530E-19 2.42560E-18
 -1      3977 9.50143E-05-2.80925E-05-2.86797E-05 1.84288E-07 5.71301E-19 3.72039E-18
 -1      3978 9.51646E-05-2.83373E-05-2.86411E-05 9.12474E-08-3.15030E-19 2.68745E-18
 -1      3979 9.51426E-05-2.82901E-05-2.86508E-05 1.22342E-07 2.23964E-19 2.76493E-18
 -1      3980 9.51034E-05-2.82328E-05-2.86581E-05 1.18219E-07 7.97851E-20 3.50535E-18
 -1      3981 9.52031E-05-2.84153E-05-2.86238E-05 4.79948E-08-1.40291E-18 1.26606E-18
 -1      3982 9.51888E-05-2.83801E-05-2.86321E-05 7.03583E-08-2.19230E-20 2.21460E-18
 -1      3983 9.51637E-05-2.83388E-05-2.86388E-05 7.06742E-08 4.77329E-20 3.78343E-18
 -1      3984 8.78657E-05-2.41601E-05-2.73252E-05 8.82789E-06-1.27806E-18 5.60533E-19
 -1      3985 8.79933E-05-2.47841E-05-2.70544E-05 9.86779E-06-7.46878E-19 4.83452E-19
 -1      3986 8.63894E-05-2.29231E-05-2.71921E-05 7.80325E-06-1.26948E-18 1.01835E-18
 -1      3987 9.52206E-05-2.84669E-05-2.86091E-05 5.97460E-09 3.40608E-19 1.61488E-19
 -1      3988 9.52227E-05-2.84703E-05-2.86083E-05 8.69510E-09 3.43089E-19 9.52849E-19
 -1      3989 9.52113E-05-2.84404E-05-2.86155E-05 6.05005E-09 3.74166E-19 5.52413E-19
 -1      3990 8.83205E-05-1.94861E-05-2.95160E-05 3.04233E-06-2.96769E-19-2.00493E-18
 -1      3991 8.76710E-05-1.97099E-05-2.91373E-05 3.73010E-06-9.75775E-20-2.01508E-18
 -1      3992 8.15535E-05-1.95854E-05-2.66176E-05 6.94419E-06 2.19697E-19-1.74645E-18
 -1      3993 8.01341E-05-1.96370E-05-2.59351E-05 8.08487E-06 2.47526E-20-2.02282E-18
 -1      3994 7.71666E-05-1.80605E-05-2.52266E-05 5.88976E-06-3.77848E-20-2.17919E-18
 -1      3995 9.52274E-05-2.84790E-05-2.86067E-05 1.12429E-08 4.58469E-19 1.58017E-19
 -1      3996 9.52312E-05-2.84870E-05-2.86048E-05 1.11841E-08-5.57978E-20-1.54355E-18
 -1      3997 9.52262E-05-2.84703E-05-2.86096E-05 1.96299E-08-4.79577E-19-1.10174E-18
 -1      3998 9.52169E-05-2.84516E-05-2.86133E-05 1.55716E-08 3.38935E-19 8.57813E-19
 -1      3999 7.00649E-05-1.73581E-05-2.23803E-05-8.65524E-06-4.60158E-19-1.84251E-18
 -1      4000 7.42267E-05-1.99181E-05-2.33295E-05-1.12627E-05-3.92231E-19-1.73025E-18
 -1      4001 9.05133E-05-1.97948E-05-3.03218E-05-2.77768E-06 9.43093E-19-1.97105E-18
 -1      4002 1.02258E-04-4.07540E-05-2.62779E-05-1.77173E-05-9.34820E-19-6.88357E-19
 -1      4003 9.88032E-05-3.73106E-05-2.62628E-05-1.74951E-05-8.24964E-19-7.67389E-19
 -1      4004 9.00805E-05-2.00697E-05-3.00036E-05-3.18473E-06 8.17772E-19-1.98245E-18
 -1      4005 8.79044E-05-3.11323E-05-2.44269E-05 1.89154E-05-1.06629E-18-1.56364E-19
 -1      4006 8.06572E-05-2.60451E-05-2.31615E-05 1.87037E-05-1.43345E-18 5.08899E-19
 -1      4007 8.97176E-05-2.06281E-05-2.96265E-05-3.89663E-06 6.08213E-19-1.88863E-18
 -1      4008 8.83357E-05-1.91021E-05-2.96526E-05-2.64302E-06 6.52108E-19-1.73353E-18
 -1      4009 8.95635E-05-2.11993E-05-2.93000E-05-4.81881E-06 4.62662E-19-1.86768E-18
 -1      4010 8.75555E-05-2.54362E-05-2.66456E-05 1.13045E-05-1.15732E-19 4.30246E-19
 -1      4011 8.82453E-05-2.66932E-05-2.63299E-05 1.25781E-05-1.55609E-19 7.45923E-19
 -1      4012 8.53016E-05-2.35963E-05-2.64391E-05 1.02461E-05-4.23531E-19 1.74489E-18
 -1      4013 9.04294E-05-2.40336E-05-2.84687E-05 4.36880E-06-4.80673E-19 5.55782E-19
 -1      4014 9.00944E-05-2.38839E-05-2.83687E-05 4.90478E-06-5.13121E-19 6.23339E-19
 -1      4015 8.88306E-05-2.31366E-05-2.81430E-05 4.68840E-06-8.65307E-19 1.23612E-18
 -1      4016 8.99732E-05-2.36461E-05-2.84152E-05 3.66696E-06-9.08824E-19 1.20680E-18
 -1      4017 7.02602E-05-1.67869E-05-2.29333E-05-3.19020E-06-2.72844E-19-1.82907E-18
 -1      4018 8.86734E-05-1.76632E-05-3.04354E-05 1.00860E-06 3.96385E-20-2.20725E-18
 -1      4019 8.91314E-05-1.81160E-05-3.04499E-05 1.34193E-06-1.62717E-19-2.19860E-18
 -1      4020 8.91126E-05-1.86091E-05-3.02103E-05 1.88279E-06-1.96693E-19-2.09719E-18
 -1      4021 8.45601E-05-1.97707E-05-2.78038E-05 5.40186E-06 1.85630E-19-1.63982E-18
 -1      4022 8.33717E-05-1.97642E-05-2.72747E-05 6.23771E-06 3.49067E-19-1.60467E-18
 -1      4023 8.13475E-05-1.86728E-05-2.67854E-05 4.54765E-06 1.88288E-19-1.79998E-18
 -1      4024 8.91785E-05-2.58202E-05-2.71442E-05-1.17603E-05-2.48391E-19-1.44554E-18
 -1      4025 8.89203E-05-2.47361E-05-2.75284E-05-1.04549E-05-7.31153E-20-1.42800E-18
 -1      4026 7.95272E-05-2.25591E-05-2.42352E-05-1.39881E-05-5.13256E-19-1.54646E-18
 -1      4027 8.42004E-05-2.58568E-05-2.50962E-05-1.53164E-05-5.79157E-19-1.30195E-18
 -1      4028 7.32618E-05-1.68223E-05-2.40904E-05-3.18089E-06-8.47122E-19-5.73833E-19
 -1      4029 9.52199E-05-2.84520E-05-2.86148E-05 3.13043E-08-8.31591E-19-3.08596E-19
 -1      4030 9.51955E-05-2.84105E-05-2.86225E-05-1.22809E-08 4.39493E-19 5.58101E-19
 -1      4031 8.46230E-05-2.55589E-05-2.52792E-05 1.41985E-05-3.31557E-19 7.59729E-19
 -1      4032 8.82264E-05-2.82942E-05-2.56585E-05 1.50194E-05-6.28326E-19 6.50580E-19
 -1      4033 6.79023E-05-1.57769E-05-2.21644E-05 4.29043E-06-1.43664E-18 1.56011E-19
 -1      4034 7.06131E-05-1.62745E-05-2.33021E-05-6.89423E-09-1.20377E-18-4.16975E-19
 -1      4035 7.41906E-05-1.71742E-05-2.45229E-05 4.64103E-07-9.99970E-19-1.01566E-18
 -1      4036 7.76973E-05-2.06333E-05-2.44708E-05-1.04620E-05-1.97709E-19-1.50998E-18
 -1      4037 8.97209E-05-3.03635E-05-2.54436E-05 1.63205E-05-5.02559E-19 3.61421E-19
 -1      4038 9.52052E-05-2.84234E-05-2.86206E-05 3.34033E-08 2.22485E-19 1.20532E-18
 -1      4039 9.36982E-05-3.41983E-05-2.55336E-05-1.88167E-05-8.56269E-19-1.25204E-18
 -1      4040 7.74197E-05-2.32314E-05-2.32443E-05 1.54127E-05-1.47954E-18 2.78035E-19
 -1      4041 8.88610E-05-1.89169E-05-2.99881E-05 2.18928E-06-2.84182E-19-2.08346E-18
 -1      4042 8.86972E-05-1.92948E-05-2.97482E-05 2.75827E-06-3.69275E-19-2.11855E-18
 -1      4043 8.77468E-05-1.89005E-05-2.94991E-05 2.13254E-06-2.33608E-19-1.89131E-18
 -1      4044 8.83597E-05-1.84262E-05-2.99601E-05 1.62871E-06-2.53001E-19-1.99246E-18
 -1      4045 8.98406E-05-3.24237E-05-2.45990E-05-1.97046E-05-9.97560E-19-1.17680E-18
 -1      4046 7.09108E-05-1.76140E-05-2.29202E-05 7.80678E-06-1.66852E-18 1.22942E-19
 -1      4047 9.37315E-05-3.41173E-05-2.54433E-05 1.78075E-05-3.00474E-19-5.84305E-19
 -1      4048 8.77974E-05-1.87257E-05-2.96227E-05-1.83741E-06 4.81030E-19-1.76466E-18
 -1      4049 8.81470E-05-1.72885E-05-3.03761E-05 1.87561E-07 2.72967E-19-2.07342E-18
 -1      4050 8.83523E-05-1.74804E-05-3.03853E-05 5.64742E-07 1.38742E-19-2.19878E-18
 -1      4051 8.82687E-05-1.79445E-05-3.01318E-05 8.82636E-07-1.36751E-19-2.06513E-18
 -1      4052 8.80040E-05-1.78531E-05-3.00449E-05-1.10896E-07 2.35302E-19-2.00392E-18
 -1      4053 8.67641E-05-1.97855E-05-2.87277E-05 4.19438E-06 1.75697E-20-1.86997E-18
 -1      4054 8.58384E-05-1.98544E-05-2.82932E-05 4.91197E-06 1.05617E-19-1.85257E-18
 -1      4055 8.43764E-05-1.90619E-05-2.79421E-05 3.59863E-06 1.87412E-19-1.72233E-18
 -1      4056 8.65045E-05-1.90916E-05-2.88523E-05 2.81586E-06 7.06301E-20-1.82928E-18
 -1      4057 7.09673E-05-1.67774E-05-2.33262E-05 4.31203E-06-8.17366E-20-2.05089E-18
 -1      4058 8.72103E-05-2.57760E-05-2.63398E-05-1.31137E-05-2.64088E-19-1.28754E-18
 -1      4059 8.47497E-05-2.34977E-05-2.61909E-05-1.17326E-05-2.40135E-19-1.35133E-18
 -1      4060 7.19186E-05-1.65289E-05-2.36261E-05 1.18001E-07-8.33128E-20-1.68322E-18
 -1      4061 7.39285E-05-1.76058E-05-2.42423E-05-4.42786E-06-5.34127E-20-1.72134E-18
 -1      4062 7.47322E-05-1.74363E-05-2.45541E-05 2.60611E-06-1.16561E-19-1.95881E-18
 -1      4063 9.51740E-05-2.83674E-05-2.86313E-05-1.17533E-08 7.55428E-19-5.76915E-19
 -1      4064 9.51891E-05-2.83990E-05-2.86244E-05 1.44956E-09 1.02197E-18 1.10355E-18
 -1      4065 8.11621E-05-1.91305E-05-2.66212E-05-1.68557E-07-5.12350E-19-1.25274E-18
 -1      4066 8.27437E-05-1.97124E-05-2.70348E-05-1.38964E-07-5.84932E-19-9.92469E-19
 -1      4067 8.40987E-05-2.02626E-05-2.73812E-05-3.29740E-07-5.41991E-19-6.76118E-19
 -1      4068 8.53256E-05-2.08048E-05-2.76661E-05-3.13151E-07-3.54830E-19-4.87486E-19
 -1      4069 8.35331E-05-2.00411E-05-2.71747E-05 1.28154E-06-2.83645E-19-9.11789E-20
 -1      4070 8.64061E-05-2.13356E-05-2.79038E-05-4.29312E-07 3.72407E-20-1.51141E-19
 -1      4071 8.73924E-05-2.18600E-05-2.80961E-05-3.99689E-07-4.69315E-20 2.06079E-19
 -1      4072 8.59128E-05-2.10856E-05-2.77553E-05 7.99474E-07 3.61623E-20-4.55272E-19
 -1      4073 8.82722E-05-2.23702E-05-2.82559E-05-4.68538E-07-5.88606E-19 2.26295E-19
 -1      4074 8.90720E-05-2.28665E-05-2.83821E-05-4.25419E-07-5.92854E-19-2.58186E-19
 -1      4075 8.78404E-05-2.21041E-05-2.81512E-05 4.84701E-07-8.27540E-20-2.01852E-19
 -1      4076 8.97918E-05-2.33455E-05-2.84861E-05-4.62514E-07-3.78330E-19-2.79383E-19
 -1      4077 9.04406E-05-2.38037E-05-2.85654E-05-4.10360E-07-4.40143E-20-1.04674E-18
 -1      4078 8.94182E-05-2.30784E-05-2.84144E-05 2.80696E-07-4.36522E-19-5.02771E-19
 -1      4079 9.10276E-05-2.42415E-05-2.86296E-05-4.26898E-07-5.65423E-19-1.09305E-18
 -1      4080 9.15512E-05-2.46537E-05-2.86758E-05-3.70808E-07 6.11848E-20-1.84621E-18
 -1      4081 9.07099E-05-2.39861E-05-2.85824E-05 1.51816E-07-7.62519E-19-1.34971E-18
 -1      4082 9.20262E-05-2.50437E-05-2.87121E-05-3.74769E-07 5.62423E-19-3.23249E-18
 -1      4083 9.24448E-05-2.54054E-05-2.87356E-05-3.19128E-07 3.49554E-19-3.24983E-18
 -1      4084 9.17609E-05-2.48090E-05-2.86829E-05 7.32674E-08-5.82098E-19-2.21278E-18
 -1      4085 9.28247E-05-2.57443E-05-2.87528E-05-3.16034E-07 8.35543E-19-3.35570E-18
 -1      4086 9.31556E-05-2.60546E-05-2.87612E-05-2.64022E-07 1.04068E-18-3.89668E-18
 -1      4087 9.26075E-05-2.55360E-05-2.87364E-05 2.76917E-08 2.89099E-19-2.86859E-18
 -1      4088 9.34555E-05-2.63426E-05-2.87657E-05-2.57531E-07 5.95916E-19-3.65295E-18
 -1      4089 9.37135E-05-2.66031E-05-2.87645E-05-2.11098E-07-3.73618E-19-3.90913E-18
 -1      4090 9.32811E-05-2.61629E-05-2.87582E-05 3.07811E-09 7.45233E-19-3.99179E-18
 -1      4091 9.39466E-05-2.68427E-05-2.87611E-05-2.03496E-07-2.33465E-19-3.78660E-18
 -1      4092 9.41448E-05-2.70572E-05-2.87540E-05-1.63560E-07 2.02534E-19-3.45301E-18
 -1      4093 9.38094E-05-2.66918E-05-2.87595E-05-8.70802E-09-2.74575E-19-3.72015E-18
 -1      4094 9.43230E-05-2.72528E-05-2.87461E-05-1.56167E-07-1.04616E-19-3.13213E-18
 -1      4095 9.44727E-05-2.74261E-05-2.87360E-05-1.22875E-07-3.47155E-19-2.79659E-18
 -1      4096 9.42172E-05-2.71289E-05-2.87482E-05-1.30287E-08-5.63385E-20-2.30803E-18
 -1      4097 9.46066E-05-2.75828E-05-2.87257E-05-1.16361E-07-5.46924E-19-2.19849E-18
 -1      4098 9.47176E-05-2.77204E-05-2.87144E-05-8.93548E-08-1.16039E-18-2.41349E-18
 -1      4099 9.45267E-05-2.74832E-05-2.87299E-05-1.33051E-08-1.87717E-20-2.29719E-18
 -1      4100 9.48160E-05-2.78437E-05-2.87033E-05-8.39826E-08-1.77355E-18-1.63895E-18
 -1      4101 9.48966E-05-2.79510E-05-2.86919E-05-6.26120E-08-6.81714E-19-1.04941E-18
 -1      4102 9.47571E-05-2.77652E-05-2.87086E-05-1.16361E-08-9.55602E-19-5.46829E-19
 -1      4103 9.49673E-05-2.80464E-05-2.86810E-05-5.84527E-08 9.37576E-20-1.06176E-18
 -1      4104 9.50242E-05-2.81287E-05-2.86702E-05-4.18957E-08-1.67983E-19-7.13346E-19
 -1      4105 9.49249E-05-2.79858E-05-2.86866E-05-9.27414E-09-2.29631E-19-1.36658E-18
 -1      4106 9.50733E-05-2.82007E-05-2.86600E-05-3.88965E-08 2.04940E-19-6.51921E-19
 -1      4107 9.51121E-05-2.82633E-05-2.86502E-05-2.52189E-08 3.69443E-19-6.56477E-19
 -1      4108 9.50438E-05-2.81552E-05-2.86655E-05-7.38056E-09 1.00455E-19-5.95595E-19
 -1      4109 9.51519E-05-2.83275E-05-2.86392E-05-2.01279E-08 7.38470E-19-7.28375E-19
 -1      4110 9.25551E-05-2.54969E-05-2.87465E-05 1.27160E-06-4.42903E-19 1.19943E-18
 -1      4111 9.22096E-05-2.51837E-05-2.87257E-05 1.47792E-06-2.47202E-19 1.42618E-18
 -1      4112 7.52609E-05-1.74606E-05-2.46638E-05 3.45580E-06-1.07654E-18-3.80073E-19
 -1      4113 7.69636E-05-1.79127E-05-2.53327E-05 6.62956E-07-3.14542E-19-1.18542E-18
 -1      4114 8.67636E-05-2.21384E-05-2.77214E-05 4.72989E-06-9.89683E-19 8.10839E-19
 -1      4115 8.61361E-05-2.19962E-05-2.74794E-05 5.44043E-06-1.08542E-18 5.95527E-19
 -1      4116 9.17478E-05-2.48314E-05-2.86875E-05 1.66293E-06-7.65152E-20 1.53318E-18
 -1      4117 9.13339E-05-2.44944E-05-2.86455E-05 1.92079E-06-5.94908E-21 9.24678E-19
 -1      4118 9.17335E-05-2.47922E-05-2.86781E-05 1.18144E-06-4.09777E-19 1.06640E-18
 -1      4119 9.07751E-05-2.41174E-05-2.85789E-05 2.16098E-06-2.00265E-19 5.85309E-19
 -1      4120 9.02914E-05-2.37742E-05-2.85067E-05 2.48494E-06-5.65095E-19 3.28401E-19
 -1      4121 9.07254E-05-2.40293E-05-2.85705E-05 1.55806E-06-3.88965E-19-3.11585E-19
 -1      4122 9.32129E-05-2.60932E-05-2.87714E-05 9.63511E-07-6.93955E-19 1.42624E-18
 -1      4123 9.29310E-05-2.58136E-05-2.87650E-05 1.12852E-06-5.75284E-19 8.72187E-19
 -1      4124 9.25603E-05-2.54872E-05-2.87367E-05 8.91948E-07-4.88016E-19 1.33795E-18
 -1      4125 9.37391E-05-2.66108E-05-2.87739E-05 7.21538E-07-3.76377E-19 1.32512E-18
 -1      4126 9.35139E-05-2.63690E-05-2.87767E-05 8.52900E-07-5.94420E-19 1.07088E-18
 -1      4127 9.32278E-05-2.61002E-05-2.87619E-05 6.68450E-07-7.26072E-19 1.37405E-18
 -1      4128 9.41523E-05-2.70480E-05-2.87626E-05 5.32568E-07 6.35556E-19 1.02517E-18
 -1      4129 9.39760E-05-2.68446E-05-2.87709E-05 6.36340E-07 5.58931E-19 1.79144E-18
 -1      4130 9.37579E-05-2.66263E-05-2.87651E-05 4.95854E-07 2.31284E-19-1.42828E-20
 -1      4131 9.44706E-05-2.74089E-05-2.87436E-05 3.86201E-07 3.83262E-19 8.55578E-19
 -1      4132 9.43354E-05-2.72416E-05-2.87546E-05 4.67366E-07 4.11952E-19 1.16620E-18
 -1      4133 9.41714E-05-2.70670E-05-2.87547E-05 3.62979E-07 5.39792E-19-5.88120E-19
 -1      4134 9.47109E-05-2.77005E-05-2.87209E-05 2.73988E-07-2.46326E-19 1.27985E-18
 -1      4135 9.46095E-05-2.75658E-05-2.87331E-05 3.36736E-07-1.20846E-20 1.14070E-18
 -1      4136 9.44881E-05-2.74283E-05-2.87367E-05 2.61282E-07 3.28776E-19-2.39567E-19
 -1      4137 9.48884E-05-2.79314E-05-2.86975E-05 1.88991E-07 4.07039E-19 2.71749E-18
 -1      4138 9.48141E-05-2.78252E-05-2.87096E-05 2.36865E-07 2.32151E-19 2.14068E-18
 -1      4139 9.47260E-05-2.77185E-05-2.87151E-05 1.84085E-07-3.39353E-19-1.97277E-19
 -1      4140 9.50164E-05-2.81110E-05-2.86749E-05 1.25478E-07-8.41741E-20 3.46701E-18
 -1      4141 9.49634E-05-2.80287E-05-2.86863E-05 1.61483E-07-2.54787E-20 3.18723E-18
 -1      4142 9.49007E-05-2.79473E-05-2.86926E-05 1.26100E-07-3.08393E-19 1.64855E-18
 -1      4143 9.51067E-05-2.82484E-05-2.86541E-05 7.81091E-08 3.56438E-19 2.55365E-18
 -1      4144 9.50691E-05-2.81852E-05-2.86644E-05 1.05406E-07 3.10053E-19 2.89901E-18
 -1      4145 9.50257E-05-2.81244E-05-2.86708E-05 8.32778E-08 5.43528E-19 1.98963E-18
 -1      4146 8.50515E-05-2.17886E-05-2.71460E-05 6.23001E-06-7.29824E-19 5.28155E-19
 -1      4147 8.44478E-05-2.18573E-05-2.68102E-05 7.21460E-06-4.14245E-19 1.59690E-18
 -1      4148 8.44043E-05-2.10203E-05-2.71360E-05 4.84158E-06-3.90179E-19 7.20272E-19
 -1      4149 9.51906E-05-2.84018E-05-2.86241E-05 9.68287E-09 5.08762E-19 5.51493E-19
 -1      4150 7.70870E-05-1.78362E-05-2.54619E-05 2.14087E-06-7.20342E-20-2.03090E-18
 -1      4151 9.51995E-05-2.84143E-05-2.86224E-05 2.94229E-08-7.02654E-22 1.18240E-18
 -1      4152 8.88980E-05-2.15490E-05-2.88835E-05-5.61296E-06 3.08866E-19-1.71840E-18
 -1      4153 8.71685E-05-1.98208E-05-2.88278E-05-3.91856E-06 2.84090E-19-1.39761E-18
 -1      4154 8.86522E-05-2.20680E-05-2.85341E-05-6.54585E-06 1.32055E-19-1.62571E-18
 -1      4155 8.32106E-05-2.18473E-05-2.63429E-05 8.30165E-06-7.93743E-19 1.74331E-18
 -1      4156 8.26675E-05-2.22034E-05-2.58872E-05 9.69478E-06-5.95901E-19 1.63713E-18
 -1      4157 8.21108E-05-2.06924E-05-2.63203E-05 6.66529E-06-4.91059E-19 1.35487E-18
 -1      4158 7.70546E-05-1.89906E-05-2.47578E-05-7.65234E-06-1.30596E-19-1.61852E-18
 -1      4159 8.09161E-05-2.14886E-05-2.55421E-05-1.02695E-05-2.82995E-19-1.24166E-18
 -1      4160 8.33285E-05-2.18427E-05-2.63869E-05-9.39243E-06-2.71264E-19-1.26100E-18
 -1      4161 7.74607E-05-1.85190E-05-2.52993E-05-4.73391E-06 1.98689E-21-1.68090E-18
 -1      4162 7.45249E-05-1.95639E-05-2.33972E-05 1.14333E-05-1.56717E-18 4.91077E-19
 -1      4163 7.49953E-05-1.86215E-05-2.41944E-05 7.17947E-06-1.12670E-18 3.71706E-19
 -1      4164 7.75758E-05-1.92659E-05-2.50348E-05 6.75782E-06-1.24110E-18 1.12086E-19
 -1      4165 8.07813E-05-2.36192E-05-2.45277E-05 1.36312E-05-1.15420E-18 4.94115E-19
 -1      4166 7.89854E-05-1.85096E-05-2.59477E-05 5.95500E-07-4.98232E-19-9.24047E-19
 -1      4167 8.70572E-05-1.90635E-05-2.91592E-05-1.98493E-06 3.35627E-19-1.47478E-18
 -1      4168 8.72973E-05-1.83182E-05-2.95490E-05-6.48552E-07 2.61698E-19-1.54463E-18
 -1      4169 8.78146E-05-2.73939E-05-2.58776E-05-1.47519E-05-4.24006E-19-1.32118E-18
 -1      4170 9.51747E-05-2.83660E-05-2.86320E-05 2.72734E-08 3.04568E-19 1.28001E-18
 -1      4171 8.65748E-05-1.88656E-05-2.90238E-05 1.42841E-06-7.13228E-20-1.54660E-18
 -1      4172 8.56159E-05-1.89496E-05-2.86011E-05 1.72345E-06 1.23748E-19-1.66257E-18
 -1      4173 8.76870E-05-1.84813E-05-2.96729E-05 1.33172E-06-1.25853E-19-1.74616E-18
 -1      4174 8.71096E-05-1.83635E-05-2.94489E-05 4.11280E-07-7.84593E-20-1.57676E-18
 -1      4175 8.95143E-05-2.32239E-05-2.83936E-05 2.05254E-06-7.17564E-19-1.21898E-18
 -1      4176 8.96244E-05-2.33906E-05-2.84003E-05 2.79959E-06-9.71822E-19 4.43244E-19
 -1      4177 8.90753E-05-2.30684E-05-2.82865E-05 3.21148E-06-1.01664E-18-1.12229E-19
 -1      4178 9.51320E-05-2.82961E-05-2.86441E-05-1.92514E-09 6.20639E-19 9.49731E-19
 -1      4179 8.76861E-05-2.24443E-05-2.79561E-05 4.16356E-06-4.25709E-19 3.83268E-19
 -1      4180 8.63886E-05-2.16588E-05-2.77164E-05 3.60558E-06-8.01687E-19 1.16423E-19
 -1      4181 8.82880E-05-2.27053E-05-2.81255E-05 3.62967E-06-8.65443E-19-3.03772E-19
 -1      4182 8.12150E-05-2.23321E-05-2.53152E-05 1.10568E-05-6.47720E-19 9.95965E-19
 -1      4183 8.22835E-05-2.01445E-05-2.65349E-05-7.15731E-06-1.55313E-19-1.15823E-18
 -1      4184 8.52312E-05-2.20536E-05-2.71005E-05-8.61711E-06-3.45914E-19-1.10645E-18
 -1      4185 9.51653E-05-2.83491E-05-2.86357E-05 4.66507E-08-5.37813E-20 1.79769E-18
 -1      4186 9.51418E-05-2.83047E-05-2.86446E-05 6.49760E-08 3.40291E-19 2.65089E-18
 -1      4187 8.63290E-05-1.93619E-05-2.87225E-05-2.55959E-06-9.85172E-21-1.23195E-18
 -1      4188 9.04599E-05-3.02709E-05-2.57779E-05-1.67329E-05-4.73793E-19-1.30302E-18
 -1      4189 7.95099E-05-1.82540E-05-2.62893E-05 2.14981E-06 2.76220E-20-1.95655E-18
 -1      4190 7.78834E-05-1.76464E-05-2.57014E-05-9.80327E-07-2.59429E-20-1.81673E-18
 -1      4191 8.13658E-05-1.85225E-05-2.69683E-05 1.80649E-06 1.74443E-19-1.79214E-18
 -1      4192 7.95650E-05-2.04956E-05-2.52453E-05 8.85432E-06-1.09281E-18 1.49848E-18
 -1      4193 8.72024E-05-2.30591E-05-2.74723E-05-9.27614E-06-1.99070E-19-1.42610E-18
 -1      4194 8.94543E-05-2.40873E-05-2.79918E-05-9.16182E-06 9.40546E-21-1.56169E-18
 -1      4195 9.51130E-05-2.82621E-05-2.86506E-05 4.99865E-08 2.16090E-19 8.90318E-19
 -1      4196 8.57941E-05-2.15227E-05-2.75991E-05-7.35945E-06-2.40273E-19-1.22193E-18
 -1      4197 8.01335E-05-1.89361E-05-2.61874E-05 2.47108E-06-5.57850E-19-2.76897E-19
 -1      4198 7.91131E-05-1.93792E-05-2.56313E-05 5.65206E-06-1.15563E-18 3.40981E-19
 -1      4199 8.94856E-05-2.33483E-05-2.83399E-05-8.14752E-06 5.92059E-20-1.76018E-18
 -1      4200 7.96728E-05-1.88927E-05-2.61146E-05-4.13828E-06-7.99387E-21-1.70671E-18
 -1      4201 8.17377E-05-1.92320E-05-2.68416E-05-3.87041E-06-3.75639E-20-1.43302E-18
 -1      4202 8.59349E-05-2.12984E-05-2.77257E-05 2.09785E-06-2.65154E-19-5.29507E-19
 -1      4203 8.70069E-05-2.17820E-05-2.79588E-05 1.83618E-06-2.92011E-19-5.22307E-19
 -1      4204 8.78053E-05-2.22128E-05-2.81294E-05 1.51480E-06-4.98448E-19-9.87706E-19
 -1      4205 8.86804E-05-2.26894E-05-2.82866E-05 1.33609E-06-3.20018E-19-1.17743E-18
 -1      4206 8.93550E-05-2.31220E-05-2.83997E-05 1.09907E-06-3.90921E-19-1.19943E-18
 -1      4207 9.00719E-05-2.35764E-05-2.85022E-05 9.77103E-07-6.55161E-19-1.38978E-18
 -1      4208 9.06363E-05-2.39906E-05-2.85736E-05 7.99181E-07-5.84281E-19-1.23599E-18
 -1      4209 9.12214E-05-2.44101E-05-2.86369E-05 7.16448E-07-4.94879E-19-4.46979E-19
 -1      4210 9.16875E-05-2.47916E-05-2.86785E-05 5.81103E-07-7.15069E-19-2.02317E-19
 -1      4211 9.21610E-05-2.51677E-05-2.87143E-05 5.25448E-07-3.06408E-19-7.28114E-20
 -1      4212 9.25403E-05-2.55079E-05-2.87351E-05 4.21590E-07-4.70235E-19-7.70814E-20
 -1      4213 9.29191E-05-2.58362E-05-2.87521E-05 3.84502E-07-3.20306E-19-7.80864E-19
 -1      4214 9.32229E-05-2.61313E-05-2.87590E-05 3.04448E-07-1.02529E-20-1.41665E-18
 -1      4215 9.35218E-05-2.64111E-05-2.87635E-05 2.79985E-07 3.76461E-19-1.83177E-18
 -1      4216 9.37609E-05-2.66607E-05-2.87616E-05 2.18234E-07 5.29863E-19-2.17250E-18
 -1      4217 9.39933E-05-2.68940E-05-2.87582E-05 2.02276E-07-1.05358E-19-1.50866E-18
 -1      4218 9.41783E-05-2.71006E-05-2.87509E-05 1.54760E-07 2.82531E-19-1.09783E-18
 -1      4219 9.43559E-05-2.72913E-05-2.87430E-05 1.44478E-07 4.91180E-19-8.68423E-19
 -1      4220 9.44963E-05-2.74588E-05-2.87329E-05 1.08105E-07 1.82656E-19-1.18566E-18
 -1      4221 9.46297E-05-2.76116E-05-2.87227E-05 1.01574E-07-2.94439E-19-1.09444E-18
 -1      4222 9.47341E-05-2.77449E-05-2.87116E-05 7.39454E-08-6.61120E-19-3.72163E-19
 -1      4223 9.48321E-05-2.78653E-05-2.87006E-05 6.98682E-08-4.56895E-19-1.39083E-19
 -1      4224 9.49080E-05-2.79693E-05-2.86894E-05 4.91181E-08-3.66030E-19 1.19926E-19
 -1      4225 9.49785E-05-2.80625E-05-2.86786E-05 4.65469E-08-2.72822E-19 4.72705E-21
 -1      4226 9.50323E-05-2.81427E-05-2.86680E-05 3.15245E-08 6.51466E-19 3.46734E-19
 -1      4227 9.50822E-05-2.82132E-05-2.86579E-05 2.80423E-08 9.16601E-19 6.84772E-19
 -1      4228 8.73466E-05-1.83174E-05-2.95948E-05-6.25010E-08 5.13184E-20-1.63916E-18
 -1      4229 8.48999E-05-1.87125E-05-2.83246E-05 3.17247E-07 1.06423E-19-1.37820E-18
 -1      4230 8.44861E-05-1.88929E-05-2.81329E-05 1.73565E-06 2.52089E-19-1.76210E-18
 -1      4231 8.31334E-05-1.87680E-05-2.76313E-05 2.03454E-06 2.82239E-19-1.71202E-18
 -1      4232 8.36729E-05-2.04268E-05-2.71389E-05 2.93335E-06-2.31706E-19-7.72055E-20
 -1      4233 8.26179E-05-2.00884E-05-2.67938E-05 3.54270E-06 9.11508E-20 1.99441E-19
 -1      4234 8.05106E-05-1.95241E-05-2.61584E-05 4.61994E-06-5.94814E-19 3.93358E-19
 -1      4235 8.49973E-05-2.08956E-05-2.74769E-05 2.54117E-06-2.56321E-19 2.69808E-19
 -1      4236 9.51236E-05-2.82818E-05-2.86465E-05 2.81542E-08 9.34250E-19 8.35904E-19
 -1      4237 8.80773E-05-2.24153E-05-2.81205E-05 2.71122E-06-9.24657E-19-7.45454E-19
 -1      4238 9.51567E-05-2.83354E-05-2.86373E-05 1.84440E-08 6.47727E-19 7.76857E-19
 -1      4239 8.54102E-05-2.03265E-05-2.78322E-05-5.49935E-06-1.92517E-19-1.17851E-18
 -1      4240 8.68704E-05-2.12203E-05-2.81553E-05-6.30244E-06-9.59902E-20-1.50507E-18
 -1      4241 8.51196E-05-1.94424E-05-2.81831E-05-2.99730E-06-5.58802E-20-1.26100E-18
 -1      4242 8.54421E-05-1.87286E-05-2.85550E-05-9.56883E-07 6.30436E-20-1.15424E-18
 -1      4243 8.19269E-05-1.83069E-05-2.71858E-05-1.67915E-07 1.66947E-19-1.65268E-18
 -1      4244 8.80329E-05-1.82411E-05-2.99055E-05 1.10969E-06-1.88173E-19-1.89401E-18
 -1      4245 8.34043E-05-1.93176E-05-2.74908E-05-3.11046E-06-6.77602E-20-1.58259E-18
 -1      4246 8.38647E-05-1.94700E-05-2.75952E-05-3.85324E-06-1.20190E-19-1.44074E-18
 -1      4247 8.50480E-05-1.88055E-05-2.84052E-05-3.84669E-07 3.56300E-20-1.24851E-18
 -1      4248 8.62579E-05-1.87352E-05-2.89427E-05-2.28361E-07 5.36857E-20-1.18313E-18
 -1      4249 8.38397E-05-1.87537E-05-2.79105E-05-4.73710E-07 1.37640E-19-1.57784E-18
 -3
    1PSTEP                         4           1           1          
  100CL  101 1.000000000        4249                     0    1           1
 -4  ERROR       1    1
 -5  STR(%)      1    1    0    0
 -1         1 1.22672E+01
 -1         2 2.39491E+01
 -1         3 7.04477E-04
 -1         4 7.47214E-04
 -1         5 1.37165E+01
 -1         6 1.28065E+01
 -1         7 1.28065E+01
 -1         8 3.52658E+00
 -1         9 1.82931E+00
 -1        10 1.32946E+00
 -1        11 1.06074E+00
 -1        12 8.71483E-01
 -1        13 7.31725E-01
 -1        14 6.31495E-01
 -1        15 6.42943E-01
 -1        16 7.47125E-01
 -1        17 8.79951E-01
 -1        18 1.07447E+00
 -1        19 1.35194E+00
 -1        20 1.84062E+00
 -1        21 3.38006E+00
 -1        22 8.31789E+00
 -1        23 1.28065E+01
 -1        24 4.21403E+00
 -1        25 3.10881E+00
 -1        26 1.90810E+00
 -1        27 1.40572E+00
 -1        28 1.05235E+00
 -1        29 9.07126E-01
 -1        30 9.41814E-01
 -1        31 1.12480E+00
 -1        32 1.44540E+00
 -1        33 1.64101E+00
 -1        34 1.64101E+00
 -1        35 1.61904E+00
 -1        36 1.61904E+00
 -1        37 2.14940E+00
 -1        38 3.98874E+00
 -1        39 4.81784E+00
 -1        40 4.83933E+00
 -1        41 4.83933E+00
 -1        42 4.11043E+00
 -1        43 2.26444E+00
 -1        44 1.70661E+00
 -1        45 1.67108E+00
 -1        46 1.66352E+00
 -1        47 1.66352E+00
 -1        48 1.51256E+00
 -1        49 1.25016E+00
 -1        50 9.96037E-01
 -1        51 7.81376E-01
 -1        52 6.17145E-01
 -1        53 5.15590E-01
 -1        54 4.15927E-01
 -1        55 3.26010E-01
 -1        56 2.49150E-01
 -1        57 1.85924E-01
 -1        58 1.35426E-01
 -1        59 1.06694E-01
 -1        60 8.75712E-02
 -1        61 7.03149E-02
 -1        62 5.52613E-02
 -1        63 4.24463E-02
 -1        64 3.17262E-02
 -1        65 2.35181E-02
 -1        66 1.91257E-02
 -1        67 1.47979E-02
 -1        68 1.05866E-02
 -1        69 6.66486E-03
 -1        70 5.44474E-03
 -1        71 3.56171E-03
 -1        72 1.37165E+01
 -1        73 3.36184E+00
 -1        74 2.31118E+00
 -1        75 1.55058E+00
 -1        76 1.30016E+00
 -1        77 1.07911E+00
 -1        78 8.71317E-01
 -1        79 7.16599E-01
 -1        80 6.91818E-01
 -1        81 7.56314E-01
 -1        82 8.63731E-01
 -1        83 1.04426E+00
 -1        84 1.19989E+00
 -1        85 1.35748E+00
 -1        86 1.60650E+00
 -1        87 2.32614E+00
 -1        88 2.89729E+00
 -1        89 3.25670E+00
 -1        90 3.25670E+00
 -1        91 3.23282E+00
 -1        92 2.41282E+00
 -1        93 1.41486E+00
 -1        94 9.91996E-01
 -1        95 9.15770E-01
 -1        96 1.05809E+00
 -1        97 1.05809E+00
 -1        98 1.03444E+00
 -1        99 9.18840E-01
 -1       100 7.75179E-01
 -1       101 6.42136E-01
 -1       102 5.08356E-01
 -1       103 3.86473E-01
 -1       104 2.90709E-01
 -1       105 2.28870E-01
 -1       106 1.74995E-01
 -1       107 1.30055E-01
 -1       108 9.38330E-02
 -1       109 6.54695E-02
 -1       110 4.72643E-02
 -1       111 3.95021E-02
 -1       112 3.21092E-02
 -1       113 2.53720E-02
 -1       114 1.97163E-02
 -1       115 1.74729E-02
 -1       116 1.46586E-02
 -1       117 1.14588E-02
 -1       118 7.98990E-03
 -1       119 5.30180E-03
 -1       120 3.39849E-03
 -1       121 1.59029E-03
 -1       122 1.20417E-03
 -1       123 4.96508E-04
 -1       124 4.90232E-04
 -1       125 6.38415E-04
 -1       126 6.88078E-04
 -1       127 6.93444E-04
 -1       128 6.93444E-04
 -1       129 7.00278E-04
 -1       130 7.00278E-04
 -1       131 6.94400E-04
 -1       132 6.49340E-04
 -1       133 5.00999E-04
 -1       134 5.55647E-04
 -1       135 1.60616E-03
 -1       136 2.43781E-03
 -1       137 2.52539E+01
 -1       138 4.52647E+01
 -1       139 4.52647E+01
 -1       140 1.92561E+01
 -1       141 1.31839E+01
 -1       142 1.31839E+01
 -1       143 1.24912E+01
 -1       144 1.24912E+01
 -1       145 1.21783E+01
 -1       146 1.83040E+01
 -1       147 4.45661E+01
 -1       148 4.45661E+01
 -1       149 2.61969E+01
 -1       150 2.61969E+01
 -1       151 2.54540E+01
 -1       152 4.74499E+01
 -1       153 4.74499E+01
 -1       154 2.01095E+01
 -1       155 1.27738E+01
 -1       156 1.27738E+01
 -1       157 1.27122E+01
 -1       158 1.27122E+01
 -1       159 1.27520E+01
 -1       160 2.95604E+01
 -1       161 3.01853E+01
 -1       162 2.75449E+01
 -1       163 2.44536E+01
 -1       164 5.83177E+00
 -1       165 2.31489E+00
 -1       166 1.56809E+00
 -1       167 1.19559E+00
 -1       168 9.65745E-01
 -1       169 8.04099E-01
 -1       170 6.85013E-01
 -1       171 6.11983E-01
 -1       172 6.98044E-01
 -1       173 8.15518E-01
 -1       174 9.81804E-01
 -1       175 1.21520E+00
 -1       176 1.58996E+00
 -1       177 2.30463E+00
 -1       178 3.80201E+00
 -1       179 1.37165E+01
 -1       180 4.21403E+00
 -1       181 3.10881E+00
 -1       182 1.90810E+00
 -1       183 1.40572E+00
 -1       184 1.05235E+00
 -1       185 8.26850E-01
 -1       186 9.07126E-01
 -1       187 9.41814E-01
 -1       188 1.12480E+00
 -1       189 1.44540E+00
 -1       190 1.64101E+00
 -1       191 1.56889E+00
 -1       192 1.61904E+00
 -1       193 1.60768E+00
 -1       194 2.41655E+00
 -1       195 3.98874E+00
 -1       196 4.81784E+00
 -1       197 4.83933E+00
 -1       198 4.11043E+00
 -1       199 2.50428E+00
 -1       200 1.70661E+00
 -1       201 1.67108E+00
 -1       202 1.58691E+00
 -1       203 1.66352E+00
 -1       204 1.51256E+00
 -1       205 1.25016E+00
 -1       206 1.05705E+00
 -1       207 9.15938E-01
 -1       208 7.50674E-01
 -1       209 5.88744E-01
 -1       210 4.44756E-01
 -1       211 3.26010E-01
 -1       212 2.53316E-01
 -1       213 1.95230E-01
 -1       214 1.47213E-01
 -1       215 1.08592E-01
 -1       216 8.75712E-02
 -1       217 7.03149E-02
 -1       218 5.52613E-02
 -1       219 4.24463E-02
 -1       220 3.17262E-02
 -1       221 2.40070E-02
 -1       222 1.91257E-02
 -1       223 1.47979E-02
 -1       224 1.05866E-02
 -1       225 7.20439E-03
 -1       226 5.44474E-03
 -1       227 3.56171E-03
 -1       228 3.36184E+00
 -1       229 2.31118E+00
 -1       230 1.55058E+00
 -1       231 1.30016E+00
 -1       232 1.07911E+00
 -1       233 8.71317E-01
 -1       234 7.16599E-01
 -1       235 6.91818E-01
 -1       236 6.58773E-01
 -1       237 7.56314E-01
 -1       238 8.63731E-01
 -1       239 1.04426E+00
 -1       240 1.19989E+00
 -1       241 1.35748E+00
 -1       242 1.66714E+00
 -1       243 2.32614E+00
 -1       244 2.89729E+00
 -1       245 3.25670E+00
 -1       246 3.23282E+00
 -1       247 2.41282E+00
 -1       248 1.41486E+00
 -1       249 9.91996E-01
 -1       250 8.84454E-01
 -1       251 9.15770E-01
 -1       252 1.05809E+00
 -1       253 1.03444E+00
 -1       254 9.18840E-01
 -1       255 7.75179E-01
 -1       256 6.46064E-01
 -1       257 5.27231E-01
 -1       258 4.13110E-01
 -1       259 3.11837E-01
 -1       260 2.28870E-01
 -1       261 1.74995E-01
 -1       262 1.30055E-01
 -1       263 9.53242E-02
 -1       264 6.85797E-02
 -1       265 4.77429E-02
 -1       266 3.95021E-02
 -1       267 3.21092E-02
 -1       268 2.53720E-02
 -1       269 1.97163E-02
 -1       270 1.74729E-02
 -1       271 1.46586E-02
 -1       272 1.14588E-02
 -1       273 7.98990E-03
 -1       274 5.30180E-03
 -1       275 3.39849E-03
 -1       276 1.23207E-03
 -1       277 1.00000E-03
 -1       278 8.13593E-04
 -1       279 1.07431E-03
 -1       280 1.17857E-03
 -1       281 1.19338E-03
 -1       282 1.19338E-03
 -1       283 1.20142E-03
 -1       284 1.20583E-03
 -1       285 1.20583E-03
 -1       286 1.20312E-03
 -1       287 1.10227E-03
 -1       288 8.14790E-04
 -1       289 7.95807E-04
 -1       290 2.26859E-03
 -1       291 3.08292E+01
 -1       292 3.75961E+01
 -1       293 4.52647E+01
 -1       294 1.95652E+01
 -1       295 1.10399E+01
 -1       296 1.31839E+01
 -1       297 1.24825E+01
 -1       298 1.24912E+01
 -1       299 1.21783E+01
 -1       300 1.17529E+01
 -1       301 1.83040E+01
 -1       302 4.45661E+01
 -1       303 3.86295E+01
 -1       304 2.95146E+01
 -1       305 2.95146E+01
 -1       306 2.81666E+01
 -1       307 4.74499E+01
 -1       308 2.11201E+01
 -1       309 1.21183E+01
 -1       310 1.27738E+01
 -1       311 1.22672E+01
 -1       312 1.22561E+01
 -1       313 1.27122E+01
 -1       314 1.14529E+01
 -1       315 1.27520E+01
 -1       316 3.01853E+01
 -1       317 3.33718E+01
 -1       318 3.33718E+01
 -1       319 3.08292E+01
 -1       320 1.10995E+00
 -1       321 2.38384E+00
 -1       322 8.31046E-01
 -1       323 6.92135E-01
 -1       324 5.87576E-01
 -1       325 5.03302E-01
 -1       326 5.16622E-01
 -1       327 6.00241E-01
 -1       328 7.08695E-01
 -1       329 8.37542E-01
 -1       330 9.95170E-01
 -1       331 1.21320E+00
 -1       332 1.33971E+00
 -1       333 2.00137E+00
 -1       334 1.65575E+00
 -1       335 1.46688E+00
 -1       336 9.19683E-01
 -1       337 6.91064E-01
 -1       338 5.24041E-01
 -1       339 6.32881E-01
 -1       340 7.44157E-01
 -1       341 8.93441E-01
 -1       342 1.07186E+00
 -1       343 1.19478E+00
 -1       344 1.12664E+00
 -1       345 1.10587E+00
 -1       346 1.23872E+00
 -1       347 1.62257E+00
 -1       348 2.19475E+00
 -1       349 2.78793E+00
 -1       350 2.80290E+00
 -1       351 2.81967E+00
 -1       352 2.26157E+00
 -1       353 1.66014E+00
 -1       354 1.25295E+00
 -1       355 1.14240E+00
 -1       356 1.21254E+00
 -1       357 1.28004E+00
 -1       358 1.21170E+00
 -1       359 1.08355E+00
 -1       360 9.73582E-01
 -1       361 8.35591E-01
 -1       362 6.85147E-01
 -1       363 5.41676E-01
 -1       364 4.15194E-01
 -1       365 3.09406E-01
 -1       366 2.24279E-01
 -1       367 1.57855E-01
 -1       368 1.08592E-01
 -1       369 7.82257E-02
 -1       370 5.65645E-02
 -1       371 4.26861E-02
 -1       372 3.50152E-02
 -1       373 2.79158E-02
 -1       374 2.15487E-02
 -1       375 1.59579E-02
 -1       376 1.22290E-02
 -1       377 9.60166E-03
 -1       378 6.84672E-03
 -1       379 4.69140E-03
 -1       380 3.09903E-03
 -1       381 9.92989E-01
 -1       382 6.90135E-01
 -1       383 6.46485E-01
 -1       384 5.66652E-01
 -1       385 5.46233E-01
 -1       386 5.42230E-01
 -1       387 5.92550E-01
 -1       388 5.92550E-01
 -1       389 5.21312E-01
 -1       390 4.50076E-01
 -1       391 7.55136E-01
 -1       392 1.28152E+00
 -1       393 1.68317E+00
 -1       394 1.73812E+00
 -1       395 1.73812E+00
 -1       396 1.82046E+00
 -1       397 2.01062E+00
 -1       398 1.70234E+00
 -1       399 1.13080E+00
 -1       400 7.12953E-01
 -1       401 5.03376E-01
 -1       402 6.89879E-01
 -1       403 7.45193E-01
 -1       404 7.82039E-01
 -1       405 7.42530E-01
 -1       406 6.65756E-01
 -1       407 5.86174E-01
 -1       408 4.90462E-01
 -1       409 3.93620E-01
 -1       410 3.04578E-01
 -1       411 2.27752E-01
 -1       412 1.69399E-01
 -1       413 1.28778E-01
 -1       414 9.53242E-02
 -1       415 6.85797E-02
 -1       416 4.77429E-02
 -1       417 3.18876E-02
 -1       418 2.47881E-02
 -1       419 2.06346E-02
 -1       420 1.65000E-02
 -1       421 1.25851E-02
 -1       422 9.37077E-03
 -1       423 7.82733E-03
 -1       424 5.89505E-03
 -1       425 4.39572E-03
 -1       426 2.98225E-03
 -1       427 1.45630E-03
 -1       428 1.95173E-03
 -1       429 2.33354E-03
 -1       430 1.50920E-03
 -1       431 1.50920E-03
 -1       432 1.45280E-03
 -1       433 1.39302E-03
 -1       434 1.40609E-03
 -1       435 1.47753E-03
 -1       436 1.56398E-03
 -1       437 1.56398E-03
 -1       438 1.51352E-03
 -1       439 2.59589E-03
 -1       440 2.53585E+01
 -1       441 3.08949E+01
 -1       442 2.94876E+01
 -1       443 1.47492E+01
 -1       444 8.96338E+00
 -1       445 9.72196E-01
 -1       446 1.04936E+01
 -1       447 1.07470E+01
 -1       448 9.74613E+00
 -1       449 8.05200E+00
 -1       450 7.76168E+00
 -1       451 1.44358E+01
 -1       452 2.53615E+01
 -1       453 2.77934E+01
 -1       454 3.36996E+01
 -1       455 3.36996E+01
 -1       456 2.81666E+01
 -1       457 1.67804E+01
 -1       458 9.66600E+00
 -1       459 8.31218E+00
 -1       460 1.09957E+01
 -1       461 1.22561E+01
 -1       462 1.15709E+01
 -1       463 8.54699E+00
 -1       464 6.61787E+00
 -1       465 1.21023E+01
 -1       466 2.04219E+01
 -1       467 3.33718E+01
 -1       468 3.08949E+01
 -1       469 7.21104E+00
 -1       470 4.28361E+00
 -1       471 7.78141E-01
 -1       472 4.82360E-01
 -1       473 5.55799E-01
 -1       474 3.49865E-01
 -1       475 4.19410E-01
 -1       476 4.95941E-01
 -1       477 5.61063E-01
 -1       478 5.90710E-01
 -1       479 8.11161E-01
 -1       480 1.93614E+01
 -1       481 5.40863E-01
 -1       482 5.85553E-01
 -1       483 5.59025E+00
 -1       484 4.34287E-01
 -1       485 3.56365E-01
 -1       486 5.05067E-01
 -1       487 6.81476E-01
 -1       488 8.57723E-01
 -1       489 1.00298E+00
 -1       490 1.19792E+00
 -1       491 1.43618E+00
 -1       492 1.66768E+00
 -1       493 2.08659E+00
 -1       494 2.28702E+00
 -1       495 2.57146E+00
 -1       496 3.77323E+00
 -1       497 6.84257E+00
 -1       498 3.23984E+00
 -1       499 5.95638E+00
 -1       500 2.63655E+00
 -1       501 2.62841E+00
 -1       502 2.12449E+00
 -1       503 1.99195E+00
 -1       504 1.83901E+00
 -1       505 1.60103E+00
 -1       506 1.36579E+00
 -1       507 1.21781E+00
 -1       508 1.04941E+00
 -1       509 8.68770E-01
 -1       510 6.96660E-01
 -1       511 5.43886E-01
 -1       512 4.14588E-01
 -1       513 3.08923E-01
 -1       514 2.24935E-01
 -1       515 1.59737E-01
 -1       516 1.10212E-01
 -1       517 7.33896E-02
 -1       518 4.66259E-02
 -1       519 2.83908E-02
 -1       520 1.97021E-02
 -1       521 1.68970E-02
 -1       522 1.38315E-02
 -1       523 1.07613E-02
 -1       524 8.03094E-03
 -1       525 6.32001E-03
 -1       526 4.54034E-03
 -1       527 3.39173E-01
 -1       528 3.99449E-01
 -1       529 4.84139E-01
 -1       530 5.83292E-01
 -1       531 6.46820E-01
 -1       532 6.41337E-01
 -1       533 8.00253E-01
 -1       534 8.77040E-01
 -1       535 1.16838E+00
 -1       536 1.45421E+00
 -1       537 1.75694E+00
 -1       538 1.93764E+00
 -1       539 1.89997E+00
 -1       540 1.83208E+00
 -1       541 1.55439E+00
 -1       542 1.26447E+00
 -1       543 9.60417E-01
 -1       544 8.42059E-01
 -1       545 7.12627E-01
 -1       546 7.84065E-01
 -1       547 7.74243E-01
 -1       548 7.13500E-01
 -1       549 6.62068E-01
 -1       550 5.92103E-01
 -1       551 5.08325E-01
 -1       552 4.18867E-01
 -1       553 3.33372E-01
 -1       554 2.57193E-01
 -1       555 1.92621E-01
 -1       556 1.39972E-01
 -1       557 9.84205E-02
 -1       558 6.65778E-02
 -1       559 4.51627E-02
 -1       560 3.16695E-02
 -1       561 2.47881E-02
 -1       562 2.06346E-02
 -1       563 1.65000E-02
 -1       564 1.25851E-02
 -1       565 9.04180E-03
 -1       566 7.20270E-03
 -1       567 5.19752E-03
 -1       568 3.56925E-03
 -1       569 1.83571E-03
 -1       570 1.60664E-03
 -1       571 2.97600E-03
 -1       572 2.04091E-03
 -1       573 1.39302E-03
 -1       574 1.38185E-03
 -1       575 1.40609E-03
 -1       576 1.63313E-03
 -1       577 2.11762E-03
 -1       578 2.11762E-03
 -1       579 2.13767E-03
 -1       580 1.18269E+01
 -1       581 3.08949E+01
 -1       582 3.98970E-01
 -1       583 2.94876E+01
 -1       584 2.26964E+01
 -1       585 9.63425E-01
 -1       586 8.34356E+00
 -1       587 7.56400E+00
 -1       588 1.24559E+01
 -1       589 4.06530E-01
 -1       590 6.57784E+00
 -1       591 7.59183E+00
 -1       592 7.87067E+00
 -1       593 6.25429E+00
 -1       594 3.36996E+01
 -1       595 1.72053E+01
 -1       596 4.16119E+00
 -1       597 2.77934E+01
 -1       598 2.12051E+01
 -1       599 1.29558E+01
 -1       600 8.12522E+00
 -1       601 5.60927E+00
 -1       602 6.24876E+00
 -1       603 7.88087E+00
 -1       604 5.95638E+00
 -1       605 5.76268E+00
 -1       606 1.01897E+01
 -1       607 1.47015E+01
 -1       608 3.81100E+00
 -1       609 1.13906E+00
 -1       610 6.28044E-01
 -1       611 1.12935E+01
 -1       612 2.94745E-03
 -1       613 1.71172E+01
 -1       614 4.19032E+00
 -1       615 6.88394E+00
 -1       616 3.44911E-01
 -1       617 2.75961E-01
 -1       618 4.62197E-01
 -1       619 5.08962E-01
 -1       620 5.81733E+00
 -1       621 4.81383E-01
 -1       622 1.43789E+01
 -1       623 3.53328E+00
 -1       624 4.48592E-01
 -1       625 4.72775E-01
 -1       626 6.16090E-01
 -1       627 8.07647E-01
 -1       628 1.03639E+00
 -1       629 1.28726E+00
 -1       630 1.54032E+00
 -1       631 2.00890E+00
 -1       632 2.74519E+00
 -1       633 4.25511E+00
 -1       634 3.02657E+00
 -1       635 3.03826E+00
 -1       636 3.71811E+00
 -1       637 3.02151E+00
 -1       638 2.37843E+00
 -1       639 1.83901E+00
 -1       640 1.60103E+00
 -1       641 1.36579E+00
 -1       642 1.14165E+00
 -1       643 9.26197E-01
 -1       644 7.34111E-01
 -1       645 5.70248E-01
 -1       646 4.34646E-01
 -1       647 3.25054E-01
 -1       648 2.38360E-01
 -1       649 1.73679E-01
 -1       650 1.23767E-01
 -1       651 8.59129E-02
 -1       652 5.80289E-02
 -1       653 3.91353E-02
 -1       654 2.54039E-02
 -1       655 1.56679E-02
 -1       656 1.01159E-02
 -1       657 9.40702E-03
 -1       658 8.03094E-03
 -1       659 6.32001E-03
 -1       660 4.54034E-03
 -1       661 5.03711E-01
 -1       662 7.41321E+00
 -1       663 4.06734E-01
 -1       664 7.60310E-01
 -1       665 8.92720E-01
 -1       666 9.68444E-01
 -1       667 1.29557E+00
 -1       668 1.50522E+00
 -1       669 1.70547E+00
 -1       670 2.90956E+00
 -1       671 4.09026E+00
 -1       672 2.44674E+00
 -1       673 3.42505E+00
 -1       674 2.28004E+00
 -1       675 2.07489E+00
 -1       676 1.70835E+00
 -1       677 1.36234E+00
 -1       678 1.13451E+00
 -1       679 1.05243E+00
 -1       680 9.55407E-01
 -1       681 8.26878E-01
 -1       682 7.19127E-01
 -1       683 6.40933E-01
 -1       684 5.48552E-01
 -1       685 4.54356E-01
 -1       686 3.65967E-01
 -1       687 2.87476E-01
 -1       688 2.20548E-01
 -1       689 1.65290E-01
 -1       690 1.20898E-01
 -1       691 8.61021E-02
 -1       692 5.94623E-02
 -1       693 3.95470E-02
 -1       694 2.50366E-02
 -1       695 1.56737E-02
 -1       696 1.17738E-02
 -1       697 1.01689E-02
 -1       698 8.23871E-03
 -1       699 6.21145E-03
 -1       700 4.38798E-03
 -1       701 3.51512E-03
 -1       702 1.28556E-03
 -1       703 3.07722E-03
 -1       704 1.78794E-03
 -1       705 1.31694E-03
 -1       706 1.38691E-03
 -1       707 3.22312E-01
 -1       708 1.40547E-03
 -1       709 1.81298E-03
 -1       710 3.05045E-03
 -1       711 1.24733E+01
 -1       712 7.23888E-01
 -1       713 1.54124E+01
 -1       714 3.77323E+00
 -1       715 6.19237E-01
 -1       716 7.03411E-01
 -1       717 1.17097E+01
 -1       718 3.85586E+00
 -1       719 3.98246E-01
 -1       720 5.82549E+00
 -1       721 1.10848E+01
 -1       722 3.92732E-01
 -1       723 4.69031E+00
 -1       724 9.89395E+00
 -1       725 1.32824E+01
 -1       726 5.36410E+00
 -1       727 1.36965E+01
 -1       728 3.27264E-01
 -1       729 3.63095E+00
 -1       730 9.10592E+00
 -1       731 6.44345E+00
 -1       732 3.99457E+00
 -1       733 7.03411E-01
 -1       734 2.55810E-01
 -1       735 6.61751E+00
 -1       736 4.24335E+00
 -1       737 2.13980E-03
 -1       738 2.52178E-03
 -1       739 9.87920E+00
 -1       740 2.62059E+00
 -1       741 1.06485E+01
 -1       742 6.29303E+00
 -1       743 3.21759E-01
 -1       744 3.69046E+00
 -1       745 4.22363E+00
 -1       746 4.09026E+00
 -1       747 3.13410E+00
 -1       748 4.28138E-01
 -1       749 4.68021E+00
 -1       750 4.86450E+00
 -1       751 3.85586E+00
 -1       752 6.09691E-01
 -1       753 7.54132E-01
 -1       754 9.74260E-01
 -1       755 1.29550E+00
 -1       756 1.78323E+00
 -1       757 2.50776E+00
 -1       758 3.44227E+00
 -1       759 6.38143E+00
 -1       760 3.94363E+00
 -1       761 2.82524E+00
 -1       762 2.08693E+00
 -1       763 1.50907E+00
 -1       764 1.16722E+00
 -1       765 9.24457E-01
 -1       766 7.42982E-01
 -1       767 5.84886E-01
 -1       768 4.52317E-01
 -1       769 3.43966E-01
 -1       770 2.57136E-01
 -1       771 1.88734E-01
 -1       772 1.35715E-01
 -1       773 9.55714E-02
 -1       774 6.67960E-02
 -1       775 4.53202E-02
 -1       776 2.96810E-02
 -1       777 1.86320E-02
 -1       778 1.18783E-02
 -1       779 7.20968E-03
 -1       780 4.50925E-03
 -1       781 3.82642E-03
 -1       782 3.36904E-03
 -1       783 1.27270E-03
 -1       784 1.33194E+00
 -1       785 1.02831E+00
 -1       786 2.03331E+00
 -1       787 2.69642E+00
 -1       788 2.90956E+00
 -1       789 2.94093E+00
 -1       790 1.70835E+00
 -1       791 1.76247E+00
 -1       792 1.54613E+00
 -1       793 1.27018E+00
 -1       794 1.00962E+00
 -1       795 8.63986E-01
 -1       796 7.25842E-01
 -1       797 5.99789E-01
 -1       798 4.84259E-01
 -1       799 3.82484E-01
 -1       800 2.97851E-01
 -1       801 2.29307E-01
 -1       802 1.73713E-01
 -1       803 1.29322E-01
 -1       804 9.44360E-02
 -1       805 6.74692E-02
 -1       806 4.69895E-02
 -1       807 3.17367E-02
 -1       808 2.06269E-02
 -1       809 1.27471E-02
 -1       810 7.34101E-03
 -1       811 5.68354E-03
 -1       812 5.08897E-03
 -1       813 4.11182E-03
 -1       814 2.96699E-03
 -1       815 2.62395E-01
 -1       816 1.64535E-03
 -1       817 1.15577E-03
 -1       818 8.94288E+00
 -1       819 8.97627E+00
 -1       820 1.53961E+00
 -1       821 3.45164E-01
 -1       822 5.28411E-01
 -1       823 5.11431E-01
 -1       824 6.51520E+00
 -1       825 4.26424E-01
 -1       826 2.07214E+00
 -1       827 5.96751E+00
 -1       828 7.29645E+00
 -1       829 8.80555E+00
 -1       830 9.21591E+00
 -1       831 9.00619E+00
 -1       832 1.78739E-01
 -1       833 6.60642E-01
 -1       834 2.15298E-03
 -1       835 4.09355E+00
 -1       836 8.20526E+00
 -1       837 4.76946E-01
 -1       838 6.08534E-01
 -1       839 1.21620E-03
 -1       840 8.03520E-01
 -1       841 1.43380E-03
 -1       842 4.03086E-01
 -1       843 7.09364E+00
 -1       844 2.08034E-03
 -1       845 6.88414E+00
 -1       846 2.98796E+00
 -1       847 6.10368E+00
 -1       848 5.10992E+00
 -1       849 4.28669E-01
 -1       850 4.25637E+00
 -1       851 4.05810E-01
 -1       852 3.59039E-01
 -1       853 9.74260E-01
 -1       854 1.27893E+00
 -1       855 1.74204E+00
 -1       856 2.41756E+00
 -1       857 4.63747E+00
 -1       858 5.56472E+00
 -1       859 3.67522E+00
 -1       860 2.45804E+00
 -1       861 1.78897E+00
 -1       862 1.32211E+00
 -1       863 9.92446E-01
 -1       864 7.52254E-01
 -1       865 5.72280E-01
 -1       866 4.34567E-01
 -1       867 3.27934E-01
 -1       868 2.45035E-01
 -1       869 1.80724E-01
 -1       870 1.31163E-01
 -1       871 9.40942E-02
 -1       872 6.69294E-02
 -1       873 4.64596E-02
 -1       874 3.12951E-02
 -1       875 2.02843E-02
 -1       876 1.24742E-02
 -1       877 7.08621E-03
 -1       878 3.33897E-03
 -1       879 2.85938E-03
 -1       880 2.23289E-03
 -1       881 3.99646E+00
 -1       882 2.91300E+00
 -1       883 1.79492E+00
 -1       884 1.41928E+00
 -1       885 1.11121E+00
 -1       886 8.54374E-01
 -1       887 6.71528E-01
 -1       888 5.39266E-01
 -1       889 4.41885E-01
 -1       890 3.54548E-01
 -1       891 2.77716E-01
 -1       892 2.12668E-01
 -1       893 1.59210E-01
 -1       894 1.16375E-01
 -1       895 8.28372E-02
 -1       896 5.80323E-02
 -1       897 3.97346E-02
 -1       898 2.61652E-02
 -1       899 1.63579E-02
 -1       900 9.59215E-03
 -1       901 5.62693E-03
 -1       902 3.51247E-03
 -1       903 2.53130E-03
 -1       904 2.33164E+00
 -1       905 6.17989E+00
 -1       906 7.16623E+00
 -1       907 2.85938E-03
 -1       908 5.29603E-01
 -1       909 1.40998E+00
 -1       910 7.36034E-01
 -1       911 6.17989E+00
 -1       912 2.41731E-01
 -1       913 5.87810E+00
 -1       914 2.00206E+00
 -1       915 5.63834E+00
 -1       916 5.65479E-01
 -1       917 6.66464E-01
 -1       918 3.33846E-01
 -1       919 5.40497E+00
 -1       920 4.92523E+00
 -1       921 4.86571E-01
 -1       922 1.14956E+00
 -1       923 4.63427E-01
 -1       924 4.01192E+00
 -1       925 4.63427E-01
 -1       926 2.78150E-03
 -1       927 3.00819E-03
 -1       928 5.03532E+00
 -1       929 5.24359E-01
 -1       930 4.37569E-01
 -1       931 2.20957E+00
 -1       932 3.37591E+00
 -1       933 4.01192E+00
 -1       934 4.58723E+00
 -1       935 1.80075E-03
 -1       936 1.74204E+00
 -1       937 2.41756E+00
 -1       938 4.86136E+00
 -1       939 3.03422E+00
 -1       940 2.03007E+00
 -1       941 1.39607E+00
 -1       942 1.00099E+00
 -1       943 7.52254E-01
 -1       944 5.72280E-01
 -1       945 4.34567E-01
 -1       946 3.27934E-01
 -1       947 2.45035E-01
 -1       948 1.80724E-01
 -1       949 1.32176E-01
 -1       950 9.57806E-02
 -1       951 6.79886E-02
 -1       952 4.70516E-02
 -1       953 3.17097E-02
 -1       954 2.11826E-02
 -1       955 1.35607E-02
 -1       956 8.21205E-03
 -1       957 4.73826E-03
 -1       958 9.82632E-01
 -1       959 8.75560E-01
 -1       960 1.06553E+00
 -1       961 1.94398E+00
 -1       962 8.21138E-01
 -1       963 6.71528E-01
 -1       964 5.39266E-01
 -1       965 4.26867E-01
 -1       966 3.33174E-01
 -1       967 2.56277E-01
 -1       968 1.94047E-01
 -1       969 1.44395E-01
 -1       970 1.05363E-01
 -1       971 7.51612E-02
 -1       972 5.21894E-02
 -1       973 3.57219E-02
 -1       974 2.38578E-02
 -1       975 1.52318E-02
 -1       976 9.12360E-03
 -1       977 4.94262E-03
 -1       978 4.71845E+00
 -1       979 2.78150E-03
 -1       980 6.46144E-01
 -1       981 3.71914E-03
 -1       982 2.77151E-01
 -1       983 5.24359E-01
 -1       984 3.21770E-01
 -1       985 5.00669E-01
 -1       986 8.83170E-01
 -1       987 2.96313E+00
 -1       988 2.38080E-03
 -1       989 1.43715E+00
 -1       990 1.23092E+00
 -1       991 3.96178E+00
 -1       992 4.27078E+00
 -1       993 2.53761E+00
 -1       994 1.26305E+00
 -1       995 4.42606E+00
 -1       996 6.61418E-03
 -1       997 2.98357E+00
 -1       998 2.74270E+00
 -1       999 8.21336E-01
 -1      1000 3.55073E+00
 -1      1001 4.01192E+00
 -1      1002 4.59347E+00
 -1      1003 5.25453E-01
 -1      1004 3.17752E+00
 -1      1005 3.27029E+00
 -1      1006 1.17416E+00
 -1      1007 2.51720E+00
 -1      1008 1.28848E+00
 -1      1009 9.03575E-01
 -1      1010 6.73043E-01
 -1      1011 5.09997E-01
 -1      1012 3.91352E-01
 -1      1013 3.01622E-01
 -1      1014 2.32044E-01
 -1      1015 1.77379E-01
 -1      1016 1.34251E-01
 -1      1017 1.00295E-01
 -1      1018 7.37366E-02
 -1      1019 5.31613E-02
 -1      1020 3.74109E-02
 -1      1021 2.56732E-02
 -1      1022 1.75084E-02
 -1      1023 1.19373E-02
 -1      1024 6.15775E-03
 -1      1025 1.28094E+00
 -1      1026 8.19454E-01
 -1      1027 1.06553E+00
 -1      1028 4.82884E-01
 -1      1029 3.70340E-01
 -1      1030 2.82542E-01
 -1      1031 2.13767E-01
 -1      1032 1.59924E-01
 -1      1033 1.17969E-01
 -1      1034 8.55435E-02
 -1      1035 6.07572E-02
 -1      1036 4.20667E-02
 -1      1037 2.84394E-02
 -1      1038 1.90561E-02
 -1      1039 1.22123E-02
 -1      1040 7.27748E-03
 -1      1041 1.39450E+00
 -1      1042 6.61418E-03
 -1      1043 6.68965E-01
 -1      1044 1.88747E+00
 -1      1045 3.83783E-03
 -1      1046 3.20091E+00
 -1      1047 4.59347E+00
 -1      1048 1.16390E+00
 -1      1049 1.97442E+00
 -1      1050 6.28374E-01
 -1      1051 3.96843E-01
 -1      1052 1.22861E+00
 -1      1053 2.09530E+00
 -1      1054 3.20091E+00
 -1      1055 3.74787E+00
 -1      1056 4.80745E-01
 -1      1057 7.16807E-01
 -1      1058 8.06728E-01
 -1      1059 2.86315E+00
 -1      1060 1.35311E-02
 -1      1061 1.50589E+00
 -1      1062 8.13552E-01
 -1      1063 5.88366E-01
 -1      1064 4.52898E-01
 -1      1065 3.51022E-01
 -1      1066 2.72018E-01
 -1      1067 2.09691E-01
 -1      1068 1.60186E-01
 -1      1069 1.20891E-01
 -1      1070 8.98798E-02
 -1      1071 6.56311E-02
 -1      1072 4.68888E-02
 -1      1073 3.25965E-02
 -1      1074 2.23279E-02
 -1      1075 1.47948E-02
 -1      1076 2.36488E-01
 -1      1077 1.94826E+00
 -1      1078 1.02664E+00
 -1      1079 3.13153E-01
 -1      1080 4.14864E-01
 -1      1081 1.77808E-01
 -1      1082 1.32571E-01
 -1      1083 9.76673E-02
 -1      1084 7.08479E-02
 -1      1085 5.04018E-02
 -1      1086 3.55208E-02
 -1      1087 2.45471E-02
 -1      1088 1.67258E-02
 -1      1089 1.59898E+00
 -1      1090 1.28094E+00
 -1      1091 1.73156E+00
 -1      1092 2.40187E+00
 -1      1093 3.21091E+00
 -1      1094 7.51729E-01
 -1      1095 7.51729E-01
 -1      1096 5.53193E-01
 -1      1097 7.47956E-01
 -1      1098 1.64066E+00
 -1      1099 1.35311E-02
 -1      1100 1.64066E+00
 -1      1101 1.28094E+00
 -1      1102 1.11954E+00
 -1      1103 8.46974E-01
 -1      1104 1.28065E+01
 -1      1105 8.16654E+00
 -1      1106 2.67794E+00
 -1      1107 1.57938E+00
 -1      1108 1.19510E+00
 -1      1109 9.66110E-01
 -1      1110 8.01604E-01
 -1      1111 6.81610E-01
 -1      1112 6.37219E-01
 -1      1113 6.95034E-01
 -1      1114 8.13538E-01
 -1      1115 9.77212E-01
 -1      1116 1.21321E+00
 -1      1117 1.59628E+00
 -1      1118 2.61034E+00
 -1      1119 5.84897E+00
 -1      1120 1.10172E+01
 -1      1121 1.28065E+01
 -1      1122 8.51027E+00
 -1      1123 3.66142E+00
 -1      1124 2.50846E+00
 -1      1125 1.65691E+00
 -1      1126 1.22903E+00
 -1      1127 9.79738E-01
 -1      1128 9.24470E-01
 -1      1129 1.03331E+00
 -1      1130 1.28510E+00
 -1      1131 1.54320E+00
 -1      1132 1.64101E+00
 -1      1133 1.63002E+00
 -1      1134 1.61904E+00
 -1      1135 1.88422E+00
 -1      1136 3.06907E+00
 -1      1137 4.40329E+00
 -1      1138 4.82858E+00
 -1      1139 4.83933E+00
 -1      1140 4.47488E+00
 -1      1141 3.18743E+00
 -1      1142 1.98553E+00
 -1      1143 1.68885E+00
 -1      1144 1.66730E+00
 -1      1145 1.66352E+00
 -1      1146 1.58804E+00
 -1      1147 1.38136E+00
 -1      1148 1.12310E+00
 -1      1149 8.88707E-01
 -1      1150 6.99260E-01
 -1      1151 5.66367E-01
 -1      1152 4.65758E-01
 -1      1153 3.70969E-01
 -1      1154 2.87580E-01
 -1      1155 2.17537E-01
 -1      1156 1.60675E-01
 -1      1157 1.21060E-01
 -1      1158 9.71327E-02
 -1      1159 7.89431E-02
 -1      1160 6.27881E-02
 -1      1161 4.88538E-02
 -1      1162 3.70862E-02
 -1      1163 2.76222E-02
 -1      1164 2.13219E-02
 -1      1165 1.69618E-02
 -1      1166 1.26923E-02
 -1      1167 8.62573E-03
 -1      1168 6.05480E-03
 -1      1169 4.50323E-03
 -1      1170 2.15446E-03
 -1      1171 1.37165E+01
 -1      1172 8.53918E+00
 -1      1173 2.83651E+00
 -1      1174 1.93088E+00
 -1      1175 1.42537E+00
 -1      1176 1.18963E+00
 -1      1177 9.75213E-01
 -1      1178 7.93958E-01
 -1      1179 7.04209E-01
 -1      1180 7.24066E-01
 -1      1181 8.10023E-01
 -1      1182 9.53998E-01
 -1      1183 1.12208E+00
 -1      1184 1.27868E+00
 -1      1185 1.48199E+00
 -1      1186 1.96632E+00
 -1      1187 2.61172E+00
 -1      1188 3.07699E+00
 -1      1189 3.25670E+00
 -1      1190 3.24476E+00
 -1      1191 2.82282E+00
 -1      1192 1.91384E+00
 -1      1193 1.20343E+00
 -1      1194 9.53883E-01
 -1      1195 9.86928E-01
 -1      1196 1.05809E+00
 -1      1197 1.04626E+00
 -1      1198 9.76640E-01
 -1      1199 8.47009E-01
 -1      1200 7.08658E-01
 -1      1201 5.75246E-01
 -1      1202 4.47415E-01
 -1      1203 3.38591E-01
 -1      1204 2.59790E-01
 -1      1205 2.01933E-01
 -1      1206 1.52525E-01
 -1      1207 1.11944E-01
 -1      1208 7.96513E-02
 -1      1209 5.63669E-02
 -1      1210 4.33832E-02
 -1      1211 3.58056E-02
 -1      1212 2.87406E-02
 -1      1213 2.25441E-02
 -1      1214 1.85946E-02
 -1      1215 1.60657E-02
 -1      1216 1.30587E-02
 -1      1217 9.72436E-03
 -1      1218 6.64585E-03
 -1      1219 4.35015E-03
 -1      1220 2.05148E-03
 -1      1221 1.14738E-03
 -1      1222 1.39723E-03
 -1      1223 8.50337E-04
 -1      1224 4.93370E-04
 -1      1225 5.64324E-04
 -1      1226 6.63247E-04
 -1      1227 6.90761E-04
 -1      1228 6.93444E-04
 -1      1229 6.96861E-04
 -1      1230 7.00278E-04
 -1      1231 6.97339E-04
 -1      1232 6.71870E-04
 -1      1233 5.75169E-04
 -1      1234 5.28323E-04
 -1      1235 1.08090E-03
 -1      1236 2.02198E-03
 -1      1237 1.59251E-03
 -1      1238 2.46015E+01
 -1      1239 3.52593E+01
 -1      1240 4.52647E+01
 -1      1241 3.22604E+01
 -1      1242 1.62200E+01
 -1      1243 1.31839E+01
 -1      1244 1.28375E+01
 -1      1245 1.24912E+01
 -1      1246 1.23347E+01
 -1      1247 1.52412E+01
 -1      1248 3.14351E+01
 -1      1249 4.45661E+01
 -1      1250 3.53815E+01
 -1      1251 2.61969E+01
 -1      1252 2.58255E+01
 -1      1253 3.64520E+01
 -1      1254 4.74499E+01
 -1      1255 3.37797E+01
 -1      1256 1.64417E+01
 -1      1257 1.27738E+01
 -1      1258 1.25205E+01
 -1      1259 1.24897E+01
 -1      1260 1.27122E+01
 -1      1261 1.27321E+01
 -1      1262 2.11562E+01
 -1      1263 2.98728E+01
 -1      1264 2.88651E+01
 -1      1265 2.59992E+01
 -1      1266 2.42013E+01
 -1      1267 1.28065E+01
 -1      1268 4.67917E+00
 -1      1269 9.31914E+00
 -1      1270 2.07210E+00
 -1      1271 2.92073E+00
 -1      1272 4.07333E+00
 -1      1273 1.44877E+00
 -1      1274 1.69870E+00
 -1      1275 1.94149E+00
 -1      1276 1.12816E+00
 -1      1277 1.26253E+00
 -1      1278 1.38184E+00
 -1      1279 9.18614E-01
 -1      1280 1.01324E+00
 -1      1281 1.08067E+00
 -1      1282 7.67912E-01
 -1      1283 8.37791E-01
 -1      1284 8.84922E-01
 -1      1285 6.58254E-01
 -1      1286 7.08369E-01
 -1      1287 7.44556E-01
 -1      1288 6.27463E-01
 -1      1289 6.21739E-01
 -1      1290 6.48498E-01
 -1      1291 7.22585E-01
 -1      1292 6.70494E-01
 -1      1293 6.55014E-01
 -1      1294 8.47734E-01
 -1      1295 7.81321E-01
 -1      1296 7.56781E-01
 -1      1297 1.02814E+00
 -1      1298 9.30877E-01
 -1      1299 8.98661E-01
 -1      1300 1.28357E+00
 -1      1301 1.14484E+00
 -1      1302 1.09850E+00
 -1      1303 1.71529E+00
 -1      1304 1.47095E+00
 -1      1305 1.40258E+00
 -1      1306 2.84235E+00
 -1      1307 2.07263E+00
 -1      1308 1.94730E+00
 -1      1309 6.05995E+00
 -1      1310 3.59103E+00
 -1      1311 3.05332E+00
 -1      1312 1.37165E+01
 -1      1313 1.10172E+01
 -1      1314 8.75926E+00
 -1      1315 1.37165E+01
 -1      1316 8.51027E+00
 -1      1317 4.21403E+00
 -1      1318 3.66142E+00
 -1      1319 3.10881E+00
 -1      1320 3.66142E+00
 -1      1321 2.50846E+00
 -1      1322 1.90810E+00
 -1      1323 2.50846E+00
 -1      1324 1.65691E+00
 -1      1325 1.40572E+00
 -1      1326 1.65691E+00
 -1      1327 1.22903E+00
 -1      1328 1.05235E+00
 -1      1329 1.22903E+00
 -1      1330 9.39600E-01
 -1      1331 8.66988E-01
 -1      1332 9.39600E-01
 -1      1333 9.07126E-01
 -1      1334 9.24470E-01
 -1      1335 8.66988E-01
 -1      1336 9.41814E-01
 -1      1337 1.03331E+00
 -1      1338 9.24470E-01
 -1      1339 1.12480E+00
 -1      1340 1.28510E+00
 -1      1341 1.03331E+00
 -1      1342 1.44540E+00
 -1      1343 1.54320E+00
 -1      1344 1.28510E+00
 -1      1345 1.64101E+00
 -1      1346 1.64101E+00
 -1      1347 1.54320E+00
 -1      1348 1.60495E+00
 -1      1349 1.59396E+00
 -1      1350 1.60495E+00
 -1      1351 1.61904E+00
 -1      1352 1.61904E+00
 -1      1353 1.59396E+00
 -1      1354 1.61336E+00
 -1      1355 1.87854E+00
 -1      1356 1.61336E+00
 -1      1357 2.28298E+00
 -1      1358 3.20264E+00
 -1      1359 2.01212E+00
 -1      1360 3.98874E+00
 -1      1361 4.40329E+00
 -1      1362 3.20264E+00
 -1      1363 4.81784E+00
 -1      1364 4.82858E+00
 -1      1365 4.40329E+00
 -1      1366 4.83933E+00
 -1      1367 4.83933E+00
 -1      1368 4.82858E+00
 -1      1369 4.47488E+00
 -1      1370 4.11043E+00
 -1      1371 4.47488E+00
 -1      1372 3.30735E+00
 -1      1373 2.38436E+00
 -1      1374 3.30735E+00
 -1      1375 1.98553E+00
 -1      1376 1.70661E+00
 -1      1377 2.10545E+00
 -1      1378 1.68885E+00
 -1      1379 1.67108E+00
 -1      1380 1.68885E+00
 -1      1381 1.62900E+00
 -1      1382 1.62522E+00
 -1      1383 1.62900E+00
 -1      1384 1.66352E+00
 -1      1385 1.66352E+00
 -1      1386 1.62522E+00
 -1      1387 1.58804E+00
 -1      1388 1.51256E+00
 -1      1389 1.58804E+00
 -1      1390 1.38136E+00
 -1      1391 1.25016E+00
 -1      1392 1.38136E+00
 -1      1393 1.15361E+00
 -1      1394 1.02654E+00
 -1      1395 1.15361E+00
 -1      1396 9.55987E-01
 -1      1397 8.48657E-01
 -1      1398 9.86495E-01
 -1      1399 7.66025E-01
 -1      1400 6.83910E-01
 -1      1401 8.33306E-01
 -1      1402 6.02945E-01
 -1      1403 5.52167E-01
 -1      1404 6.69709E-01
 -1      1405 4.80173E-01
 -1      1406 4.30341E-01
 -1      1407 5.16750E-01
 -1      1408 3.70969E-01
 -1      1409 3.26010E-01
 -1      1410 3.85383E-01
 -1      1411 2.89663E-01
 -1      1412 2.51233E-01
 -1      1413 2.89663E-01
 -1      1414 2.22190E-01
 -1      1415 1.90577E-01
 -1      1416 2.24273E-01
 -1      1417 1.66568E-01
 -1      1418 1.41320E-01
 -1      1419 1.71222E-01
 -1      1420 1.22009E-01
 -1      1421 1.07643E-01
 -1      1422 1.27902E-01
 -1      1423 9.71327E-02
 -1      1424 8.75712E-02
 -1      1425 9.80814E-02
 -1      1426 7.89431E-02
 -1      1427 7.03149E-02
 -1      1428 7.89431E-02
 -1      1429 6.27881E-02
 -1      1430 5.52613E-02
 -1      1431 6.27881E-02
 -1      1432 4.88538E-02
 -1      1433 4.24463E-02
 -1      1434 4.88538E-02
 -1      1435 3.70862E-02
 -1      1436 3.17262E-02
 -1      1437 3.70862E-02
 -1      1438 2.78666E-02
 -1      1439 2.37625E-02
 -1      1440 2.78666E-02
 -1      1441 2.13219E-02
 -1      1442 1.91257E-02
 -1      1443 2.15663E-02
 -1      1444 1.69618E-02
 -1      1445 1.47979E-02
 -1      1446 1.69618E-02
 -1      1447 1.26923E-02
 -1      1448 1.05866E-02
 -1      1449 1.26923E-02
 -1      1450 8.89549E-03
 -1      1451 6.93462E-03
 -1      1452 8.89549E-03
 -1      1453 6.05480E-03
 -1      1454 5.44474E-03
 -1      1455 6.32457E-03
 -1      1456 4.50323E-03
 -1      1457 3.56171E-03
 -1      1458 4.50323E-03
 -1      1459 2.99976E-03
 -1      1460 2.99976E-03
 -1      1461 3.36184E+00
 -1      1462 8.53918E+00
 -1      1463 8.53918E+00
 -1      1464 2.31118E+00
 -1      1465 2.83651E+00
 -1      1466 2.83651E+00
 -1      1467 1.55058E+00
 -1      1468 1.93088E+00
 -1      1469 1.93088E+00
 -1      1470 1.30016E+00
 -1      1471 1.42537E+00
 -1      1472 1.42537E+00
 -1      1473 1.07911E+00
 -1      1474 1.18963E+00
 -1      1475 1.18963E+00
 -1      1476 8.71317E-01
 -1      1477 9.75213E-01
 -1      1478 9.75213E-01
 -1      1479 7.16599E-01
 -1      1480 7.93958E-01
 -1      1481 7.93958E-01
 -1      1482 6.91818E-01
 -1      1483 7.04209E-01
 -1      1484 7.04209E-01
 -1      1485 7.07543E-01
 -1      1486 6.75296E-01
 -1      1487 6.75296E-01
 -1      1488 8.10023E-01
 -1      1489 7.56314E-01
 -1      1490 7.07543E-01
 -1      1491 9.53998E-01
 -1      1492 8.63731E-01
 -1      1493 8.10023E-01
 -1      1494 1.12208E+00
 -1      1495 1.04426E+00
 -1      1496 9.53998E-01
 -1      1497 1.27868E+00
 -1      1498 1.19989E+00
 -1      1499 1.12208E+00
 -1      1500 1.48199E+00
 -1      1501 1.35748E+00
 -1      1502 1.27868E+00
 -1      1503 1.99664E+00
 -1      1504 1.63682E+00
 -1      1505 1.51231E+00
 -1      1506 2.61172E+00
 -1      1507 2.32614E+00
 -1      1508 1.99664E+00
 -1      1509 3.07699E+00
 -1      1510 2.89729E+00
 -1      1511 2.61172E+00
 -1      1512 3.25670E+00
 -1      1513 3.25670E+00
 -1      1514 3.07699E+00
 -1      1515 3.23282E+00
 -1      1516 3.24476E+00
 -1      1517 3.24476E+00
 -1      1518 2.41282E+00
 -1      1519 2.82282E+00
 -1      1520 2.82282E+00
 -1      1521 1.41486E+00
 -1      1522 1.91384E+00
 -1      1523 1.91384E+00
 -1      1524 9.91996E-01
 -1      1525 1.20343E+00
 -1      1526 1.20343E+00
 -1      1527 9.00112E-01
 -1      1528 9.38225E-01
 -1      1529 9.38225E-01
 -1      1530 9.86928E-01
 -1      1531 9.15770E-01
 -1      1532 9.00112E-01
 -1      1533 1.05809E+00
 -1      1534 1.05809E+00
 -1      1535 9.86928E-01
 -1      1536 1.03444E+00
 -1      1537 1.04626E+00
 -1      1538 1.04626E+00
 -1      1539 9.18840E-01
 -1      1540 9.76640E-01
 -1      1541 9.76640E-01
 -1      1542 7.75179E-01
 -1      1543 8.47009E-01
 -1      1544 8.47009E-01
 -1      1545 6.44100E-01
 -1      1546 7.10621E-01
 -1      1547 7.10621E-01
 -1      1548 5.17794E-01
 -1      1549 5.84684E-01
 -1      1550 5.86648E-01
 -1      1551 3.99792E-01
 -1      1552 4.60733E-01
 -1      1553 4.70171E-01
 -1      1554 3.01273E-01
 -1      1555 3.49155E-01
 -1      1556 3.62474E-01
 -1      1557 2.28870E-01
 -1      1558 2.59790E-01
 -1      1559 2.70354E-01
 -1      1560 1.74995E-01
 -1      1561 2.01933E-01
 -1      1562 2.01933E-01
 -1      1563 1.30055E-01
 -1      1564 1.52525E-01
 -1      1565 1.52525E-01
 -1      1566 9.45786E-02
 -1      1567 1.12690E-01
 -1      1568 1.12690E-01
 -1      1569 6.70246E-02
 -1      1570 8.12063E-02
 -1      1571 8.19519E-02
 -1      1572 4.75036E-02
 -1      1573 5.66062E-02
 -1      1574 5.81613E-02
 -1      1575 3.95021E-02
 -1      1576 4.33832E-02
 -1      1577 4.36225E-02
 -1      1578 3.21092E-02
 -1      1579 3.58056E-02
 -1      1580 3.58056E-02
 -1      1581 2.53720E-02
 -1      1582 2.87406E-02
 -1      1583 2.87406E-02
 -1      1584 1.97163E-02
 -1      1585 2.25441E-02
 -1      1586 2.25441E-02
 -1      1587 1.74729E-02
 -1      1588 1.85946E-02
 -1      1589 1.85946E-02
 -1      1590 1.46586E-02
 -1      1591 1.60657E-02
 -1      1592 1.60657E-02
 -1      1593 1.14588E-02
 -1      1594 1.30587E-02
 -1      1595 1.30587E-02
 -1      1596 7.98990E-03
 -1      1597 9.72436E-03
 -1      1598 9.72436E-03
 -1      1599 5.30180E-03
 -1      1600 6.64585E-03
 -1      1601 6.64585E-03
 -1      1602 3.39849E-03
 -1      1603 4.35015E-03
 -1      1604 4.35015E-03
 -1      1605 2.49439E-03
 -1      1606 1.21812E-03
 -1      1607 1.41118E-03
 -1      1608 7.48255E-04
 -1      1609 1.10208E-03
 -1      1610 1.11604E-03
 -1      1611 6.51913E-04
 -1      1612 6.55050E-04
 -1      1613 9.06798E-04
 -1      1614 8.56365E-04
 -1      1615 7.82274E-04
 -1      1616 9.43954E-04
 -1      1617 9.33323E-04
 -1      1618 9.08491E-04
 -1      1619 1.12644E-03
 -1      1620 9.43412E-04
 -1      1621 9.40729E-04
 -1      1622 1.18597E-03
 -1      1623 9.43412E-04
 -1      1624 9.43412E-04
 -1      1625 1.19338E-03
 -1      1626 9.50850E-04
 -1      1627 9.47433E-04
 -1      1628 1.19740E-03
 -1      1629 9.53052E-04
 -1      1630 9.53052E-04
 -1      1631 1.20362E-03
 -1      1632 9.50113E-04
 -1      1633 9.53052E-04
 -1      1634 1.20583E-03
 -1      1635 9.26230E-04
 -1      1636 9.48760E-04
 -1      1637 1.20447E-03
 -1      1638 8.01633E-04
 -1      1639 8.75803E-04
 -1      1640 1.15269E-03
 -1      1641 6.85219E-04
 -1      1642 6.57895E-04
 -1      1643 9.58529E-04
 -1      1644 1.20099E-03
 -1      1645 6.75727E-04
 -1      1646 8.05299E-04
 -1      1647 2.35320E-03
 -1      1648 1.93738E-03
 -1      1649 1.53220E-03
 -1      1650 2.91515E-03
 -1      1651 2.80416E+01
 -1      1652 2.73892E+01
 -1      1653 4.14304E+01
 -1      1654 3.14250E+01
 -1      1655 4.52647E+01
 -1      1656 4.52647E+01
 -1      1657 1.94107E+01
 -1      1658 3.24149E+01
 -1      1659 1.21119E+01
 -1      1660 1.51480E+01
 -1      1661 1.31839E+01
 -1      1662 1.31839E+01
 -1      1663 1.24868E+01
 -1      1664 1.28332E+01
 -1      1665 1.24912E+01
 -1      1666 1.24912E+01
 -1      1667 1.21783E+01
 -1      1668 1.23347E+01
 -1      1669 1.50285E+01
 -1      1670 1.19656E+01
 -1      1671 3.14351E+01
 -1      1672 1.83040E+01
 -1      1673 4.45661E+01
 -1      1674 4.45661E+01
 -1      1675 3.24132E+01
 -1      1676 4.15978E+01
 -1      1677 2.78558E+01
 -1      1678 2.78558E+01
 -1      1679 2.74843E+01
 -1      1680 2.78558E+01
 -1      1681 3.78083E+01
 -1      1682 2.68103E+01
 -1      1683 4.74499E+01
 -1      1684 4.74499E+01
 -1      1685 2.06148E+01
 -1      1686 3.42850E+01
 -1      1687 1.24461E+01
 -1      1688 1.61139E+01
 -1      1689 1.27738E+01
 -1      1690 1.27738E+01
 -1      1691 1.22672E+01
 -1      1692 1.25205E+01
 -1      1693 1.24842E+01
 -1      1694 1.22617E+01
 -1      1695 1.27122E+01
 -1      1696 1.27122E+01
 -1      1697 1.21025E+01
 -1      1698 1.20826E+01
 -1      1699 2.11562E+01
 -1      1700 1.27520E+01
 -1      1701 3.01853E+01
 -1      1702 2.98728E+01
 -1      1703 3.04584E+01
 -1      1704 3.17785E+01
 -1      1705 2.89127E+01
 -1      1706 3.04584E+01
 -1      1707 2.73892E+01
 -1      1708 2.76414E+01
 -1      1709 1.53025E+01
 -1      1710 3.24149E+01
 -1      1711 2.49439E-03
 -1      1712 2.31528E-03
 -1      1713 3.42127E+01
 -1      1714 4.14304E+01
 -1      1715 3.08292E+01
 -1      1716 1.21119E+01
 -1      1717 1.28332E+01
 -1      1718 1.24868E+01
 -1      1719 1.23347E+01
 -1      1720 1.19656E+01
 -1      1721 1.50285E+01
 -1      1722 3.14351E+01
 -1      1723 4.15978E+01
 -1      1724 3.40721E+01
 -1      1725 2.95146E+01
 -1      1726 2.88406E+01
 -1      1727 3.78083E+01
 -1      1728 3.42850E+01
 -1      1729 1.66192E+01
 -1      1730 1.24461E+01
 -1      1731 1.25205E+01
 -1      1732 1.22617E+01
 -1      1733 1.24842E+01
 -1      1734 1.20826E+01
 -1      1735 1.21025E+01
 -1      1736 2.14686E+01
 -1      1737 3.17785E+01
 -1      1738 3.33718E+01
 -1      1739 3.21005E+01
 -1      1740 9.31914E+00
 -1      1741 1.33902E+00
 -1      1742 1.71242E+00
 -1      1743 2.34936E+00
 -1      1744 4.10780E+00
 -1      1745 1.74689E+00
 -1      1746 8.98396E-01
 -1      1747 1.01332E+00
 -1      1748 7.48117E-01
 -1      1749 8.28940E-01
 -1      1750 7.61591E-01
 -1      1751 6.36295E-01
 -1      1752 6.95838E-01
 -1      1753 6.39856E-01
 -1      1754 5.57643E-01
 -1      1755 5.94158E-01
 -1      1756 5.45439E-01
 -1      1757 6.07333E-01
 -1      1758 5.64302E-01
 -1      1759 5.09962E-01
 -1      1760 7.07879E-01
 -1      1761 6.49143E-01
 -1      1762 5.58431E-01
 -1      1763 8.45250E-01
 -1      1764 7.62106E-01
 -1      1765 6.54468E-01
 -1      1766 1.02637E+00
 -1      1767 9.09673E-01
 -1      1768 7.73118E-01
 -1      1769 1.29256E+00
 -1      1770 1.10519E+00
 -1      1771 9.16356E-01
 -1      1772 1.75892E+00
 -1      1773 1.40158E+00
 -1      1774 1.10419E+00
 -1      1775 2.57086E+00
 -1      1776 1.82217E+00
 -1      1777 1.27646E+00
 -1      1778 7.85895E+00
 -1      1779 2.90169E+00
 -1      1780 1.67054E+00
 -1      1781 2.68161E+00
 -1      1782 5.02290E+00
 -1      1783 1.98347E+00
 -1      1784 2.50880E+00
 -1      1785 1.82856E+00
 -1      1786 3.29893E+00
 -1      1787 2.28784E+00
 -1      1788 1.68749E+00
 -1      1789 1.41389E+00
 -1      1790 1.16270E+00
 -1      1791 1.19328E+00
 -1      1792 1.04839E+00
 -1      1793 8.71707E-01
 -1      1794 8.05373E-01
 -1      1795 7.88195E-01
 -1      1796 6.75445E-01
 -1      1797 6.07552E-01
 -1      1798 7.29865E-01
 -1      1799 7.70004E-01
 -1      1800 5.78461E-01
 -1      1801 8.25642E-01
 -1      1802 8.42986E-01
 -1      1803 6.88519E-01
 -1      1804 9.17628E-01
 -1      1805 1.00912E+00
 -1      1806 8.18799E-01
 -1      1807 1.09833E+00
 -1      1808 1.25863E+00
 -1      1809 9.82653E-01
 -1      1810 1.32009E+00
 -1      1811 1.41790E+00
 -1      1812 1.13332E+00
 -1      1813 1.38382E+00
 -1      1814 1.34776E+00
 -1      1815 1.16071E+00
 -1      1816 1.33738E+00
 -1      1817 1.36246E+00
 -1      1818 1.11625E+00
 -1      1819 1.42888E+00
 -1      1820 1.42320E+00
 -1      1821 1.17230E+00
 -1      1822 1.61512E+00
 -1      1823 2.01956E+00
 -1      1824 1.43065E+00
 -1      1825 2.30565E+00
 -1      1826 3.09174E+00
 -1      1827 1.90866E+00
 -1      1828 3.38833E+00
 -1      1829 3.80288E+00
 -1      1830 2.49134E+00
 -1      1831 3.81037E+00
 -1      1832 3.82112E+00
 -1      1833 2.79541E+00
 -1      1834 3.82950E+00
 -1      1835 3.46505E+00
 -1      1836 2.81129E+00
 -1      1837 3.18600E+00
 -1      1838 2.38292E+00
 -1      1839 2.54062E+00
 -1      1840 2.08221E+00
 -1      1841 1.68338E+00
 -1      1842 1.96085E+00
 -1      1843 1.47978E+00
 -1      1844 1.46201E+00
 -1      1845 1.45654E+00
 -1      1846 1.40674E+00
 -1      1847 1.36465E+00
 -1      1848 1.19767E+00
 -1      1849 1.39973E+00
 -1      1850 1.43803E+00
 -1      1851 1.17747E+00
 -1      1852 1.47178E+00
 -1      1853 1.39630E+00
 -1      1854 1.24629E+00
 -1      1855 1.36213E+00
 -1      1856 1.23093E+00
 -1      1857 1.24587E+00
 -1      1858 1.16686E+00
 -1      1859 1.07030E+00
 -1      1860 1.14763E+00
 -1      1861 1.01532E+00
 -1      1862 9.44760E-01
 -1      1863 1.02857E+00
 -1      1864 8.75764E-01
 -1      1865 7.93133E-01
 -1      1866 9.04586E-01
 -1      1867 7.17911E-01
 -1      1868 6.36946E-01
 -1      1869 7.60369E-01
 -1      1870 5.65210E-01
 -1      1871 4.93216E-01
 -1      1872 6.13412E-01
 -1      1873 4.29975E-01
 -1      1874 3.70602E-01
 -1      1875 4.78435E-01
 -1      1876 3.17708E-01
 -1      1877 2.81361E-01
 -1      1878 3.62300E-01
 -1      1879 2.38797E-01
 -1      1880 2.09754E-01
 -1      1881 2.66842E-01
 -1      1882 1.76543E-01
 -1      1883 1.52534E-01
 -1      1884 1.91067E-01
 -1      1885 1.27902E-01
 -1      1886 1.08592E-01
 -1      1887 1.33223E-01
 -1      1888 9.34086E-02
 -1      1889 8.28985E-02
 -1      1890 9.34086E-02
 -1      1891 7.20678E-02
 -1      1892 6.34397E-02
 -1      1893 6.73951E-02
 -1      1894 5.65005E-02
 -1      1895 4.89737E-02
 -1      1896 4.96253E-02
 -1      1897 4.51382E-02
 -1      1898 3.87307E-02
 -1      1899 3.88506E-02
 -1      1900 3.51810E-02
 -1      1901 2.98210E-02
 -1      1902 3.14655E-02
 -1      1903 2.66374E-02
 -1      1904 2.27778E-02
 -1      1905 2.47322E-02
 -1      1906 1.99824E-02
 -1      1907 1.75418E-02
 -1      1908 1.87533E-02
 -1      1909 1.56773E-02
 -1      1910 1.35135E-02
 -1      1911 1.40935E-02
 -1      1912 1.21998E-02
 -1      1913 1.00941E-02
 -1      1914 1.09153E-02
 -1      1915 8.71665E-03
 -1      1916 7.02555E-03
 -1      1917 8.22419E-03
 -1      1918 5.94790E-03
 -1      1919 5.06807E-03
 -1      1920 5.76906E-03
 -1      1921 4.27189E-03
 -1      1922 3.33037E-03
 -1      1923 2.68381E-03
 -1      1924 3.89522E-03
 -1      1925 1.27179E+00
 -1      1926 1.65209E+00
 -1      1927 1.32437E+00
 -1      1928 9.95146E-01
 -1      1929 1.12036E+00
 -1      1930 8.41562E-01
 -1      1931 8.62797E-01
 -1      1932 9.73321E-01
 -1      1933 6.68310E-01
 -1      1934 7.18985E-01
 -1      1935 8.22880E-01
 -1      1936 6.06569E-01
 -1      1937 6.31416E-01
 -1      1938 7.08775E-01
 -1      1939 5.56443E-01
 -1      1940 6.17024E-01
 -1      1941 6.29415E-01
 -1      1942 5.44232E-01
 -1      1943 6.25661E-01
 -1      1944 6.42184E-01
 -1      1945 5.67390E-01
 -1      1946 6.74432E-01
 -1      1947 6.25661E-01
 -1      1948 5.92550E-01
 -1      1949 6.92521E-01
 -1      1950 6.38813E-01
 -1      1951 5.56931E-01
 -1      1952 7.47170E-01
 -1      1953 6.56904E-01
 -1      1954 4.85694E-01
 -1      1955 9.77511E-01
 -1      1956 8.99700E-01
 -1      1957 6.02606E-01
 -1      1958 1.31950E+00
 -1      1959 1.24070E+00
 -1      1960 1.01833E+00
 -1      1961 1.67516E+00
 -1      1962 1.52033E+00
 -1      1963 1.48235E+00
 -1      1964 2.03213E+00
 -1      1965 1.70263E+00
 -1      1966 1.71065E+00
 -1      1967 2.31770E+00
 -1      1968 2.03213E+00
 -1      1969 1.73812E+00
 -1      1970 2.53858E+00
 -1      1971 2.35887E+00
 -1      1972 1.77929E+00
 -1      1973 2.62172E+00
 -1      1974 2.63366E+00
 -1      1975 1.91554E+00
 -1      1976 2.05758E+00
 -1      1977 2.46758E+00
 -1      1978 1.85648E+00
 -1      1979 1.27283E+00
 -1      1980 1.77181E+00
 -1      1981 1.41657E+00
 -1      1982 8.52475E-01
 -1      1983 1.06391E+00
 -1      1984 9.21877E-01
 -1      1985 6.93915E-01
 -1      1986 7.47686E-01
 -1      1987 6.08165E-01
 -1      1988 8.02824E-01
 -1      1989 7.87166E-01
 -1      1990 5.96627E-01
 -1      1991 9.01639E-01
 -1      1992 8.30481E-01
 -1      1993 7.17536E-01
 -1      1994 9.08239E-01
 -1      1995 9.20062E-01
 -1      1996 7.63616E-01
 -1      1997 8.30685E-01
 -1      1998 8.88485E-01
 -1      1999 7.62284E-01
 -1      2000 7.20468E-01
 -1      2001 7.92298E-01
 -1      2002 7.04143E-01
 -1      2003 6.16119E-01
 -1      2004 6.80676E-01
 -1      2005 6.25965E-01
 -1      2006 5.08847E-01
 -1      2007 5.68263E-01
 -1      2008 5.38318E-01
 -1      2009 4.03365E-01
 -1      2010 4.60426E-01
 -1      2011 4.42041E-01
 -1      2012 3.08208E-01
 -1      2013 3.58844E-01
 -1      2014 3.49099E-01
 -1      2015 2.28311E-01
 -1      2016 2.69795E-01
 -1      2017 2.66165E-01
 -1      2018 1.72197E-01
 -1      2019 1.99135E-01
 -1      2020 1.98576E-01
 -1      2021 1.29417E-01
 -1      2022 1.51887E-01
 -1      2023 1.49089E-01
 -1      2024 9.53242E-02
 -1      2025 1.12690E-01
 -1      2026 1.12051E-01
 -1      2027 6.85797E-02
 -1      2028 8.19519E-02
 -1      2029 8.19519E-02
 -1      2030 4.77429E-02
 -1      2031 5.81613E-02
 -1      2032 5.81613E-02
 -1      2033 3.56948E-02
 -1      2034 3.98152E-02
 -1      2035 3.98152E-02
 -1      2036 2.84487E-02
 -1      2037 3.21451E-02
 -1      2038 2.83378E-02
 -1      2039 2.30033E-02
 -1      2040 2.63719E-02
 -1      2041 2.27114E-02
 -1      2042 1.81081E-02
 -1      2043 2.09360E-02
 -1      2044 1.85673E-02
 -1      2045 1.50290E-02
 -1      2046 1.61507E-02
 -1      2047 1.45426E-02
 -1      2048 1.20147E-02
 -1      2049 1.34218E-02
 -1      2050 1.09779E-02
 -1      2051 9.64307E-03
 -1      2052 1.12430E-02
 -1      2053 8.59905E-03
 -1      2054 6.94248E-03
 -1      2055 8.67693E-03
 -1      2056 6.86119E-03
 -1      2057 4.84876E-03
 -1      2058 6.19281E-03
 -1      2059 5.14539E-03
 -1      2060 3.19037E-03
 -1      2061 4.14202E-03
 -1      2062 3.68898E-03
 -1      2063 2.10716E-03
 -1      2064 1.26531E-03
 -1      2065 1.13495E-03
 -1      2066 1.38266E-03
 -1      2067 1.47587E-03
 -1      2068 1.70402E-03
 -1      2069 1.66677E-03
 -1      2070 1.78281E-03
 -1      2071 2.65789E-03
 -1      2072 2.14264E-03
 -1      2073 1.34388E-03
 -1      2074 1.29176E-03
 -1      2075 1.48275E-03
 -1      2076 1.35129E-03
 -1      2077 1.34388E-03
 -1      2078 1.50920E-03
 -1      2079 1.32309E-03
 -1      2080 1.32309E-03
 -1      2081 1.48100E-03
 -1      2082 1.29722E-03
 -1      2083 1.29320E-03
 -1      2084 1.42291E-03
 -1      2085 1.30596E-03
 -1      2086 1.30376E-03
 -1      2087 1.39955E-03
 -1      2088 1.34168E-03
 -1      2089 1.34168E-03
 -1      2090 1.44181E-03
 -1      2091 1.38355E-03
 -1      2092 1.38490E-03
 -1      2093 1.52076E-03
 -1      2094 1.33312E-03
 -1      2095 1.38355E-03
 -1      2096 1.56398E-03
 -1      2097 1.16415E-03
 -1      2098 1.30789E-03
 -1      2099 1.53875E-03
 -1      2100 1.69585E-03
 -1      2101 1.70534E-03
 -1      2102 2.05470E-03
 -1      2103 3.53116E+01
 -1      2104 3.14773E+01
 -1      2105 3.08620E+01
 -1      2106 3.08620E+01
 -1      2107 3.35419E+01
 -1      2108 3.01584E+01
 -1      2109 3.01912E+01
 -1      2110 1.71572E+01
 -1      2111 3.00069E+01
 -1      2112 1.00016E+01
 -1      2113 1.42643E+01
 -1      2114 1.08389E+00
 -1      2115 1.27014E+00
 -1      2116 1.04107E+00
 -1      2117 9.01621E-01
 -1      2118 1.14881E+01
 -1      2119 1.18387E+01
 -1      2120 1.16191E+01
 -1      2121 1.16148E+01
 -1      2122 1.06203E+01
 -1      2123 1.09622E+01
 -1      2124 1.11186E+01
 -1      2125 9.90247E+00
 -1      2126 1.01152E+01
 -1      2127 8.89907E+00
 -1      2128 1.30329E+01
 -1      2129 9.75731E+00
 -1      2130 2.95009E+01
 -1      2131 1.63699E+01
 -1      2132 3.19955E+01
 -1      2133 3.49638E+01
 -1      2134 2.86540E+01
 -1      2135 3.32115E+01
 -1      2136 2.65775E+01
 -1      2137 3.16071E+01
 -1      2138 3.16071E+01
 -1      2139 3.09331E+01
 -1      2140 3.16071E+01
 -1      2141 3.78083E+01
 -1      2142 2.81666E+01
 -1      2143 1.89502E+01
 -1      2144 3.21152E+01
 -1      2145 1.08922E+01
 -1      2146 1.53930E+01
 -1      2147 1.05430E+01
 -1      2148 1.02153E+01
 -1      2149 1.16315E+01
 -1      2150 1.18848E+01
 -1      2151 1.22561E+01
 -1      2152 1.22617E+01
 -1      2153 1.21416E+01
 -1      2154 1.19135E+01
 -1      2155 1.19135E+01
 -1      2156 9.99997E+00
 -1      2157 1.06296E+01
 -1      2158 9.68493E+00
 -1      2159 9.03541E+00
 -1      2160 2.11438E+01
 -1      2161 1.24272E+01
 -1      2162 2.68969E+01
 -1      2163 2.53036E+01
 -1      2164 3.33718E+01
 -1      2165 3.33718E+01
 -1      2166 3.08620E+01
 -1      2167 3.21333E+01
 -1      2168 1.01975E+01
 -1      2169 9.12546E+00
 -1      2170 8.08721E+00
 -1      2171 2.74632E+00
 -1      2172 8.85234E+00
 -1      2173 1.92536E+00
 -1      2174 2.74230E+01
 -1      2175 2.00538E+01
 -1      2176 2.43224E-03
 -1      2177 3.08949E+01
 -1      2178 1.18563E+01
 -1      2179 3.21333E+01
 -1      2180 2.68969E+01
 -1      2181 1.62621E+01
 -1      2182 9.36011E+00
 -1      2183 1.00589E+01
 -1      2184 1.16259E+01
 -1      2185 9.65396E+00
 -1      2186 8.98909E+00
 -1      2187 1.32232E+01
 -1      2188 2.24735E+01
 -1      2189 3.09331E+01
 -1      2190 3.07465E+01
 -1      2191 1.98987E+01
 -1      2192 8.01827E+00
 -1      2193 6.16780E+00
 -1      2194 6.02265E+00
 -1      2195 1.02466E+01
 -1      2196 1.10987E+01
 -1      2197 3.36996E+01
 -1      2198 7.58243E+00
 -1      2199 8.85565E-01
 -1      2200 1.21695E+00
 -1      2201 5.34968E-01
 -1      2202 5.87248E-01
 -1      2203 6.23967E-01
 -1      2204 6.93422E-01
 -1      2205 5.19079E-01
 -1      2206 4.33243E-01
 -1      2207 4.26584E-01
 -1      2208 5.09825E-01
 -1      2209 4.68016E-01
 -1      2210 3.84637E-01
 -1      2211 6.02318E-01
 -1      2212 5.48091E-01
 -1      2213 4.57675E-01
 -1      2214 6.99302E-01
 -1      2215 6.34879E-01
 -1      2216 5.28502E-01
 -1      2217 7.92940E-01
 -1      2218 7.14126E-01
 -1      2219 5.75887E-01
 -1      2220 1.01218E+00
 -1      2221 9.03166E-01
 -1      2222 7.00936E-01
 -1      2223 2.23600E+01
 -1      2224 2.44245E+01
 -1      2225 6.15499E-01
 -1      2226 7.66926E-01
 -1      2227 6.59502E-01
 -1      2228 1.02622E+00
 -1      2229 7.52618E-01
 -1      2230 8.04194E+00
 -1      2231 6.40065E+00
 -1      2232 6.76985E-01
 -1      2233 5.62675E-01
 -1      2234 5.09920E-01
 -1      2235 5.23714E-01
 -1      2236 4.40203E-01
 -1      2237 3.95326E-01
 -1      2238 5.14554E-01
 -1      2239 5.68974E-01
 -1      2240 4.30716E-01
 -1      2241 6.57178E-01
 -1      2242 7.12816E-01
 -1      2243 5.93272E-01
 -1      2244 8.00940E-01
 -1      2245 8.75582E-01
 -1      2246 7.69600E-01
 -1      2247 9.48212E-01
 -1      2248 1.03742E+00
 -1      2249 9.30353E-01
 -1      2250 1.13489E+00
 -1      2251 1.19635E+00
 -1      2252 1.10045E+00
 -1      2253 1.31548E+00
 -1      2254 1.28141E+00
 -1      2255 1.31705E+00
 -1      2256 1.39716E+00
 -1      2257 1.38678E+00
 -1      2258 1.55193E+00
 -1      2259 1.59623E+00
 -1      2260 1.66266E+00
 -1      2261 1.87714E+00
 -1      2262 1.76287E+00
 -1      2263 1.95479E+00
 -1      2264 2.18681E+00
 -1      2265 2.09701E+00
 -1      2266 2.38311E+00
 -1      2267 2.42924E+00
 -1      2268 2.98399E+00
 -1      2269 3.28058E+00
 -1      2270 3.17235E+00
 -1      2271 4.81525E+00
 -1      2272 4.82274E+00
 -1      2273 5.30790E+00
 -1      2274 3.02137E+00
 -1      2275 3.02975E+00
 -1      2276 5.04120E+00
 -1      2277 4.38803E+00
 -1      2278 4.10898E+00
 -1      2279 4.59811E+00
 -1      2280 2.44906E+00
 -1      2281 2.14834E+00
 -1      2282 4.29646E+00
 -1      2283 2.14427E+00
 -1      2284 1.94068E+00
 -1      2285 2.63248E+00
 -1      2286 1.68872E+00
 -1      2287 1.63344E+00
 -1      2288 2.37645E+00
 -1      2289 1.56718E+00
 -1      2290 1.60225E+00
 -1      2291 2.05822E+00
 -1      2292 1.52578E+00
 -1      2293 1.55953E+00
 -1      2294 1.91548E+00
 -1      2295 1.44053E+00
 -1      2296 1.40636E+00
 -1      2297 1.72002E+00
 -1      2298 1.28874E+00
 -1      2299 1.22467E+00
 -1      2300 1.48341E+00
 -1      2301 1.15068E+00
 -1      2302 1.09569E+00
 -1      2303 1.29180E+00
 -1      2304 1.01150E+00
 -1      2305 9.42501E-01
 -1      2306 1.13361E+00
 -1      2307 8.52180E-01
 -1      2308 7.76959E-01
 -1      2309 9.59090E-01
 -1      2310 6.90904E-01
 -1      2311 6.19168E-01
 -1      2312 7.82715E-01
 -1      2313 5.42781E-01
 -1      2314 4.79540E-01
 -1      2315 6.20273E-01
 -1      2316 4.14891E-01
 -1      2317 3.61997E-01
 -1      2318 4.79237E-01
 -1      2319 3.09164E-01
 -1      2320 2.66601E-01
 -1      2321 3.61755E-01
 -1      2322 2.24607E-01
 -1      2323 1.91395E-01
 -1      2324 2.66929E-01
 -1      2325 1.58796E-01
 -1      2326 1.34164E-01
 -1      2327 1.92336E-01
 -1      2328 1.09402E-01
 -1      2329 9.42188E-02
 -1      2330 1.34974E-01
 -1      2331 7.58076E-02
 -1      2332 6.49770E-02
 -1      2333 9.18007E-02
 -1      2334 5.15952E-02
 -1      2335 4.46560E-02
 -1      2336 6.00077E-02
 -1      2337 3.55384E-02
 -1      2338 3.17030E-02
 -1      2339 3.75083E-02
 -1      2340 2.73586E-02
 -1      2341 2.38089E-02
 -1      2342 2.40464E-02
 -1      2343 2.24064E-02
 -1      2344 1.92228E-02
 -1      2345 1.82995E-02
 -1      2346 1.76901E-02
 -1      2347 1.48947E-02
 -1      2348 1.53642E-02
 -1      2349 1.33596E-02
 -1      2350 1.14952E-02
 -1      2351 1.22964E-02
 -1      2352 1.01300E-02
 -1      2353 8.81630E-03
 -1      2354 9.39613E-03
 -1      2355 7.96083E-03
 -1      2356 6.58336E-03
 -1      2357 7.17547E-03
 -1      2358 5.69353E-03
 -1      2359 4.61587E-03
 -1      2360 5.43017E-03
 -1      2361 4.52913E-01
 -1      2362 4.92829E-01
 -1      2363 4.72841E-01
 -1      2364 4.83051E-01
 -1      2365 3.69311E-01
 -1      2366 5.13184E-01
 -1      2367 5.15186E-01
 -1      2368 4.41794E-01
 -1      2369 5.87921E-01
 -1      2370 5.62761E-01
 -1      2371 5.33715E-01
 -1      2372 6.19685E-01
 -1      2373 6.19685E-01
 -1      2374 6.15056E-01
 -1      2375 5.81324E-01
 -1      2376 6.16944E-01
 -1      2377 6.44079E-01
 -1      2378 6.25165E-01
 -1      2379 6.60782E-01
 -1      2380 7.20795E-01
 -1      2381 8.16088E-01
 -1      2382 6.63558E-01
 -1      2383 8.38646E-01
 -1      2384 1.22495E+00
 -1      2385 9.61758E-01
 -1      2386 1.02271E+00
 -1      2387 1.56869E+00
 -1      2388 1.36787E+00
 -1      2389 1.31130E+00
 -1      2390 1.74753E+00
 -1      2391 1.72006E+00
 -1      2392 1.60558E+00
 -1      2393 1.83788E+00
 -1      2394 1.83788E+00
 -1      2395 1.84729E+00
 -1      2396 1.86021E+00
 -1      2397 1.81905E+00
 -1      2398 1.91881E+00
 -1      2399 1.92135E+00
 -1      2400 1.82627E+00
 -1      2401 1.86603E+00
 -1      2402 1.62837E+00
 -1      2403 1.78251E+00
 -1      2404 1.69324E+00
 -1      2405 1.19764E+00
 -1      2406 1.48341E+00
 -1      2407 1.40943E+00
 -1      2408 8.36685E-01
 -1      2409 1.04561E+00
 -1      2410 1.11244E+00
 -1      2411 6.72717E-01
 -1      2412 7.77506E-01
 -1      2413 9.01238E-01
 -1      2414 7.01253E-01
 -1      2415 6.08002E-01
 -1      2416 7.77343E-01
 -1      2417 7.64629E-01
 -1      2418 7.36972E-01
 -1      2419 7.48346E-01
 -1      2420 7.78141E-01
 -1      2421 7.59718E-01
 -1      2422 7.79154E-01
 -1      2423 7.28015E-01
 -1      2424 7.47769E-01
 -1      2425 7.43872E-01
 -1      2426 6.63912E-01
 -1      2427 7.02299E-01
 -1      2428 6.87784E-01
 -1      2429 5.89138E-01
 -1      2430 6.28930E-01
 -1      2431 6.27085E-01
 -1      2432 4.99393E-01
 -1      2433 5.47249E-01
 -1      2434 5.50214E-01
 -1      2435 4.06243E-01
 -1      2436 4.54665E-01
 -1      2437 4.63596E-01
 -1      2438 3.18975E-01
 -1      2439 3.63496E-01
 -1      2440 3.76120E-01
 -1      2441 2.42473E-01
 -1      2442 2.80886E-01
 -1      2443 2.95283E-01
 -1      2444 1.81010E-01
 -1      2445 2.10187E-01
 -1      2446 2.24907E-01
 -1      2447 1.34375E-01
 -1      2448 1.54685E-01
 -1      2449 1.66296E-01
 -1      2450 9.68723E-02
 -1      2451 1.13599E-01
 -1      2452 1.19196E-01
 -1      2453 6.75787E-02
 -1      2454 8.09510E-02
 -1      2455 8.24992E-02
 -1      2456 4.64528E-02
 -1      2457 5.68712E-02
 -1      2458 5.58703E-02
 -1      2459 3.17785E-02
 -1      2460 3.97062E-02
 -1      2461 3.84161E-02
 -1      2462 2.47881E-02
 -1      2463 2.83378E-02
 -1      2464 2.82288E-02
 -1      2465 2.06346E-02
 -1      2466 2.27114E-02
 -1      2467 2.27114E-02
 -1      2468 1.65000E-02
 -1      2469 1.85673E-02
 -1      2470 1.85673E-02
 -1      2471 1.25851E-02
 -1      2472 1.45426E-02
 -1      2473 1.45426E-02
 -1      2474 9.20628E-03
 -1      2475 1.08135E-02
 -1      2476 1.08135E-02
 -1      2477 7.51501E-03
 -1      2478 8.28674E-03
 -1      2479 8.12225E-03
 -1      2480 5.54628E-03
 -1      2481 6.51242E-03
 -1      2482 6.20011E-03
 -1      2483 3.98249E-03
 -1      2484 4.73215E-03
 -1      2485 4.38339E-03
 -1      2486 3.36463E-03
 -1      2487 1.67246E-03
 -1      2488 1.67246E-03
 -1      2489 1.52972E-03
 -1      2490 1.55792E-03
 -1      2491 1.72118E-03
 -1      2492 2.21615E-03
 -1      2493 2.46386E-03
 -1      2494 1.77505E-03
 -1      2495 1.74861E-03
 -1      2496 2.50845E-03
 -1      2497 1.93831E-03
 -1      2498 1.39302E-03
 -1      2499 1.42291E-03
 -1      2500 1.49983E-03
 -1      2501 1.39397E-03
 -1      2502 1.38743E-03
 -1      2503 1.38743E-03
 -1      2504 1.44181E-03
 -1      2505 1.40609E-03
 -1      2506 1.39397E-03
 -1      2507 1.59856E-03
 -1      2508 1.55533E-03
 -1      2509 1.51961E-03
 -1      2510 1.84080E-03
 -1      2511 1.84080E-03
 -1      2512 1.87537E-03
 -1      2513 1.81557E-03
 -1      2514 1.84080E-03
 -1      2515 2.11762E-03
 -1      2516 2.36678E-03
 -1      2517 1.82559E-03
 -1      2518 2.12764E-03
 -1      2519 1.32881E+01
 -1      2520 1.85927E+01
 -1      2521 2.84746E-03
 -1      2522 3.08949E+01
 -1      2523 3.08949E+01
 -1      2524 5.22727E-01
 -1      2525 5.44552E-01
 -1      2526 3.69072E-01
 -1      2527 2.94876E+01
 -1      2528 3.01912E+01
 -1      2529 2.67956E+01
 -1      2530 2.80341E+01
 -1      2531 1.67363E+00
 -1      2532 1.21515E+00
 -1      2533 7.74489E-01
 -1      2534 1.03669E+00
 -1      2535 8.65347E+00
 -1      2536 1.15464E+01
 -1      2537 9.91005E+00
 -1      2538 9.27987E+00
 -1      2539 1.89087E+01
 -1      2540 1.34459E+01
 -1      2541 4.54916E-01
 -1      2542 4.97053E-01
 -1      2543 4.44445E-01
 -1      2544 3.78198E-01
 -1      2545 1.05068E+01
 -1      2546 7.16976E+00
 -1      2547 9.16943E+00
 -1      2548 9.04273E+00
 -1      2549 8.80840E+00
 -1      2550 9.30885E+00
 -1      2551 7.15315E+00
 -1      2552 8.00021E+00
 -1      2553 3.36996E+01
 -1      2554 3.36996E+01
 -1      2555 2.24993E+01
 -1      2556 2.12834E+01
 -1      2557 5.38953E+00
 -1      2558 6.35409E+00
 -1      2559 3.07465E+01
 -1      2560 2.77934E+01
 -1      2561 3.07465E+01
 -1      2562 2.46859E+01
 -1      2563 2.74524E+01
 -1      2564 1.48681E+01
 -1      2565 2.05612E+01
 -1      2566 8.89561E+00
 -1      2567 1.24528E+01
 -1      2568 6.96072E+00
 -1      2569 7.63763E+00
 -1      2570 8.62226E+00
 -1      2571 7.28047E+00
 -1      2572 9.72587E+00
 -1      2573 1.00685E+01
 -1      2574 7.25169E+00
 -1      2575 8.76363E+00
 -1      2576 8.93251E+00
 -1      2577 6.19028E+00
 -1      2578 1.53058E+01
 -1      2579 1.11460E+01
 -1      2580 7.97620E+00
 -1      2581 2.40366E+01
 -1      2582 1.75617E+01
 -1      2583 5.51102E+00
 -1      2584 6.38719E+00
 -1      2585 6.07728E+00
 -1      2586 4.70063E+00
 -1      2587 1.39741E+00
 -1      2588 1.57022E+00
 -1      2589 1.23939E+00
 -1      2590 9.58601E-01
 -1      2591 5.43072E+00
 -1      2592 5.91921E-01
 -1      2593 7.29545E-01
 -1      2594 8.00120E-01
 -1      2595 2.44245E+01
 -1      2596 1.83260E+01
 -1      2597 1.53275E+01
 -1      2598 1.15602E+01
 -1      2599 1.17613E+00
 -1      2600 5.05879E+00
 -1      2601 6.91863E+00
 -1      2602 6.90638E+00
 -1      2603 2.67956E+01
 -1      2604 5.92902E+00
 -1      2605 2.95140E-03
 -1      2606 2.76049E-03
 -1      2607 6.86725E+00
 -1      2608 9.75111E-01
 -1      2609 1.00852E+01
 -1      2610 3.02324E-03
 -1      2611 2.77167E-03
 -1      2612 2.54256E-03
 -1      2613 3.81943E-03
 -1      2614 1.05405E+01
 -1      2615 3.01912E+01
 -1      2616 4.69917E-01
 -1      2617 1.86989E+01
 -1      2618 4.96194E+00
 -1      2619 1.24456E+01
 -1      2620 7.72244E+00
 -1      2621 2.24993E+01
 -1      2622 2.54084E+01
 -1      2623 2.54084E+01
 -1      2624 1.91612E+01
 -1      2625 6.12116E+00
 -1      2626 5.22231E+00
 -1      2627 4.23697E+00
 -1      2628 7.06248E+00
 -1      2629 9.66994E+00
 -1      2630 1.06599E+01
 -1      2631 6.73089E+00
 -1      2632 1.48306E+01
 -1      2633 9.67811E-01
 -1      2634 6.59104E+00
 -1      2635 7.73125E+00
 -1      2636 1.70805E+01
 -1      2637 3.27262E-03
 -1      2638 3.74389E-03
 -1      2639 4.20426E-01
 -1      2640 3.82160E-01
 -1      2641 3.47685E-01
 -1      2642 3.12913E-01
 -1      2643 3.10436E-01
 -1      2644 5.26454E-01
 -1      2645 5.11630E-01
 -1      2646 6.60062E-01
 -1      2647 5.49836E-01
 -1      2648 4.85580E-01
 -1      2649 7.08044E+00
 -1      2650 8.82213E+00
 -1      2651 5.11123E-01
 -1      2652 6.29762E-01
 -1      2653 1.68702E+01
 -1      2654 2.19332E+01
 -1      2655 7.94651E-01
 -1      2656 3.84724E+00
 -1      2657 4.74483E+00
 -1      2658 4.41439E-01
 -1      2659 4.02478E-01
 -1      2660 4.14570E-01
 -1      2661 4.88921E-01
 -1      2662 4.60684E-01
 -1      2663 5.60578E-01
 -1      2664 6.48783E-01
 -1      2665 5.44432E-01
 -1      2666 7.44561E-01
 -1      2667 8.32685E-01
 -1      2668 7.11868E-01
 -1      2669 9.47056E-01
 -1      2670 1.01969E+00
 -1      2671 9.22018E-01
 -1      2672 1.14512E+00
 -1      2673 1.24259E+00
 -1      2674 1.16183E+00
 -1      2675 1.36912E+00
 -1      2676 1.48825E+00
 -1      2677 1.41379E+00
 -1      2678 1.72254E+00
 -1      2679 1.83829E+00
 -1      2680 1.77461E+00
 -1      2681 2.20644E+00
 -1      2682 2.41589E+00
 -1      2683 2.37705E+00
 -1      2684 3.17085E+00
 -1      2685 3.27106E+00
 -1      2686 3.50015E+00
 -1      2687 2.65679E+00
 -1      2688 2.79901E+00
 -1      2689 3.64084E+00
 -1      2690 5.01100E+00
 -1      2691 6.54567E+00
 -1      2692 7.36172E+00
 -1      2693 5.56036E+00
 -1      2694 6.91863E+00
 -1      2695 4.74483E+00
 -1      2696 3.08491E+00
 -1      2697 2.83740E+00
 -1      2698 2.83334E+00
 -1      2699 3.28577E+00
 -1      2700 3.17326E+00
 -1      2701 2.92130E+00
 -1      2702 3.37819E+00
 -1      2703 2.57300E+00
 -1      2704 2.50673E+00
 -1      2705 3.36981E+00
 -1      2706 2.18519E+00
 -1      2707 2.10872E+00
 -1      2708 2.69997E+00
 -1      2709 1.83901E+00
 -1      2710 1.72002E+00
 -1      2711 2.10872E+00
 -1      2712 1.60103E+00
 -1      2713 1.48341E+00
 -1      2714 1.72002E+00
 -1      2715 1.36579E+00
 -1      2716 1.29180E+00
 -1      2717 1.48341E+00
 -1      2718 1.17973E+00
 -1      2719 1.09553E+00
 -1      2720 1.25372E+00
 -1      2721 9.87804E-01
 -1      2722 8.97484E-01
 -1      2723 1.03393E+00
 -1      2724 8.01440E-01
 -1      2725 7.15385E-01
 -1      2726 8.30154E-01
 -1      2727 6.33454E-01
 -1      2728 5.57067E-01
 -1      2729 6.52179E-01
 -1      2730 4.89266E-01
 -1      2731 4.24617E-01
 -1      2732 5.02447E-01
 -1      2733 3.69821E-01
 -1      2734 3.16988E-01
 -1      2735 3.79850E-01
 -1      2736 2.73641E-01
 -1      2737 2.31647E-01
 -1      2738 2.81707E-01
 -1      2739 1.99307E-01
 -1      2740 1.66708E-01
 -1      2741 2.06020E-01
 -1      2742 1.41752E-01
 -1      2743 1.16989E-01
 -1      2744 1.48723E-01
 -1      2745 9.80624E-02
 -1      2746 7.96512E-02
 -1      2747 1.04840E-01
 -1      2748 6.57092E-02
 -1      2749 5.23274E-02
 -1      2750 7.19709E-02
 -1      2751 4.28806E-02
 -1      2752 3.37630E-02
 -1      2753 4.85821E-02
 -1      2754 2.68973E-02
 -1      2755 2.25530E-02
 -1      2756 3.22696E-02
 -1      2757 1.76850E-02
 -1      2758 1.62824E-02
 -1      2759 2.05359E-02
 -1      2760 1.35065E-02
 -1      2761 1.19737E-02
 -1      2762 1.28919E-02
 -1      2763 1.16193E-02
 -1      2764 1.00842E-02
 -1      2765 9.76148E-03
 -1      2766 9.39613E-03
 -1      2767 8.03094E-03
 -1      2768 8.71898E-03
 -1      2769 7.17547E-03
 -1      2770 6.32001E-03
 -1      2771 7.17547E-03
 -1      2772 5.43017E-03
 -1      2773 4.54034E-03
 -1      2774 5.43017E-03
 -1      2775 4.93925E-01
 -1      2776 4.51580E-01
 -1      2777 7.76921E+00
 -1      2778 1.01845E+01
 -1      2779 4.03092E-01
 -1      2780 3.72954E-01
 -1      2781 4.55222E-01
 -1      2782 7.03565E-01
 -1      2783 6.71801E-01
 -1      2784 7.67029E-01
 -1      2785 7.69770E-01
 -1      2786 8.26515E-01
 -1      2787 8.84348E-01
 -1      2788 8.04891E-01
 -1      2789 9.30582E-01
 -1      2790 1.08630E+00
 -1      2791 1.04791E+00
 -1      2792 1.13201E+00
 -1      2793 1.33680E+00
 -1      2794 1.19113E+00
 -1      2795 1.40039E+00
 -1      2796 1.57984E+00
 -1      2797 1.43692E+00
 -1      2798 1.60534E+00
 -1      2799 2.33325E+00
 -1      2800 2.18189E+00
 -1      2801 2.30752E+00
 -1      2802 3.01395E+00
 -1      2803 2.92360E+00
 -1      2804 3.49991E+00
 -1      2805 2.17336E+00
 -1      2806 2.19219E+00
 -1      2807 3.26850E+00
 -1      2808 2.62857E+00
 -1      2809 2.66251E+00
 -1      2810 2.93590E+00
 -1      2811 1.91722E+00
 -1      2812 2.05606E+00
 -1      2813 2.85255E+00
 -1      2814 1.66968E+00
 -1      2815 1.81464E+00
 -1      2816 2.17747E+00
 -1      2817 1.33438E+00
 -1      2818 1.48641E+00
 -1      2819 1.89162E+00
 -1      2820 1.10220E+00
 -1      2821 1.16138E+00
 -1      2822 1.53535E+00
 -1      2823 9.23568E-01
 -1      2824 9.88284E-01
 -1      2825 1.24843E+00
 -1      2826 9.18248E-01
 -1      2827 8.82529E-01
 -1      2828 1.09347E+00
 -1      2829 8.64825E-01
 -1      2830 8.69736E-01
 -1      2831 1.00392E+00
 -1      2832 7.70189E-01
 -1      2833 8.00561E-01
 -1      2834 8.91142E-01
 -1      2835 6.90597E-01
 -1      2836 7.16313E-01
 -1      2837 7.73002E-01
 -1      2838 6.16518E-01
 -1      2839 6.51500E-01
 -1      2840 6.80030E-01
 -1      2841 5.28438E-01
 -1      2842 5.70327E-01
 -1      2843 5.94742E-01
 -1      2844 4.36612E-01
 -1      2845 4.81340E-01
 -1      2846 5.01454E-01
 -1      2847 3.49669E-01
 -1      2848 3.92417E-01
 -1      2849 4.10161E-01
 -1      2850 2.72335E-01
 -1      2851 3.10424E-01
 -1      2852 3.26722E-01
 -1      2853 2.06584E-01
 -1      2854 2.38871E-01
 -1      2855 2.54012E-01
 -1      2856 1.52631E-01
 -1      2857 1.78955E-01
 -1      2858 1.92919E-01
 -1      2859 1.09659E-01
 -1      2860 1.30435E-01
 -1      2861 1.43094E-01
 -1      2862 7.63399E-02
 -1      2863 9.22613E-02
 -1      2864 1.03500E-01
 -1      2865 5.23125E-02
 -1      2866 6.30201E-02
 -1      2867 7.27822E-02
 -1      2868 3.56082E-02
 -1      2869 4.23548E-02
 -1      2870 4.95047E-02
 -1      2871 2.49124E-02
 -1      2872 2.83531E-02
 -1      2873 3.22918E-02
 -1      2874 1.81542E-02
 -1      2875 2.02309E-02
 -1      2876 2.03552E-02
 -1      2877 1.41369E-02
 -1      2878 1.62042E-02
 -1      2879 1.37237E-02
 -1      2880 1.13770E-02
 -1      2881 1.33345E-02
 -1      2882 1.09713E-02
 -1      2883 8.64025E-03
 -1      2884 1.04119E-02
 -1      2885 9.20379E-03
 -1      2886 6.70707E-03
 -1      2887 7.62662E-03
 -1      2888 7.22508E-03
 -1      2889 4.79275E-03
 -1      2890 5.79534E-03
 -1      2891 5.29971E-03
 -1      2892 3.54219E-03
 -1      2893 4.35632E-03
 -1      2894 3.95155E-03
 -1      2895 3.24556E-03
 -1      2896 1.33371E-03
 -1      2897 1.33929E-03
 -1      2898 3.80878E-03
 -1      2899 3.01234E-03
 -1      2900 2.60745E-03
 -1      2901 3.80878E-03
 -1      2902 1.69729E-03
 -1      2903 1.81183E-03
 -1      2904 1.36151E-03
 -1      2905 1.34939E-03
 -1      2906 1.30125E-03
 -1      2907 1.38996E-03
 -1      2908 1.49678E-03
 -1      2909 1.58742E-03
 -1      2910 1.33624E-03
 -1      2911 3.30743E-01
 -1      2912 3.60641E-01
 -1      2913 3.64523E-01
 -1      2914 1.51930E-03
 -1      2915 1.40578E-03
 -1      2916 1.36120E-03
 -1      2917 1.96530E-03
 -1      2918 1.72305E-03
 -1      2919 1.60922E-03
 -1      2920 2.58403E-03
 -1      2921 2.58403E-03
 -1      2922 2.43171E-03
 -1      2923 2.59742E-03
 -1      2924 2.30865E+01
 -1      2925 2.01334E+01
 -1      2926 8.43656E-01
 -1      2927 6.54720E-01
 -1      2928 2.31536E+01
 -1      2929 1.90544E+01
 -1      2930 5.01100E+00
 -1      2931 4.69125E+00
 -1      2932 6.01265E-01
 -1      2933 5.51688E-01
 -1      2934 5.61474E-01
 -1      2935 6.89774E-01
 -1      2936 6.44482E-01
 -1      2937 5.68849E-01
 -1      2938 5.76001E-01
 -1      2939 7.13649E-01
 -1      2940 1.72030E+01
 -1      2941 1.32056E+01
 -1      2942 5.72385E+00
 -1      2943 4.72306E+00
 -1      2944 4.79654E-01
 -1      2945 4.47094E-01
 -1      2946 3.71578E-01
 -1      2947 4.30222E-01
 -1      2948 6.84808E+00
 -1      2949 6.70866E+00
 -1      2950 1.20203E+01
 -1      2951 1.61450E+01
 -1      2952 4.37546E-01
 -1      2953 4.74265E-01
 -1      2954 8.48042E-01
 -1      2955 5.47230E+00
 -1      2956 6.28049E+00
 -1      2957 1.35496E+01
 -1      2958 1.11749E+01
 -1      2959 2.13850E+01
 -1      2960 2.20886E+01
 -1      2961 1.38306E+01
 -1      2962 5.48669E+00
 -1      2963 6.74466E+00
 -1      2964 2.07449E+01
 -1      2965 1.54509E+01
 -1      2966 1.17952E+01
 -1      2967 3.63117E-01
 -1      2968 4.34064E-01
 -1      2969 4.04323E-01
 -1      2970 3.24788E-01
 -1      2971 5.10440E+00
 -1      2972 3.95728E+00
 -1      2973 3.91064E+00
 -1      2974 1.19037E+01
 -1      2975 9.64782E+00
 -1      2976 8.31659E+00
 -1      2977 6.10307E+00
 -1      2978 4.87863E+00
 -1      2979 4.07788E+00
 -1      2980 3.76393E+00
 -1      2981 5.21901E+00
 -1      2982 3.77323E+00
 -1      2983 6.29605E-01
 -1      2984 6.65727E-01
 -1      2985 5.48071E-01
 -1      2986 2.65886E-01
 -1      2987 3.02838E-01
 -1      2988 3.31170E-01
 -1      2989 6.21742E+00
 -1      2990 9.22222E+00
 -1      2991 8.95551E+00
 -1      2992 6.29346E+00
 -1      2993 5.03034E+00
 -1      2994 6.38865E+00
 -1      2995 6.46272E-01
 -1      2996 3.39990E+00
 -1      2997 3.17235E+00
 -1      2998 4.84068E+00
 -1      2999 7.20328E+00
 -1      3000 1.96387E-03
 -1      3001 1.98776E-03
 -1      3002 2.09035E-03
 -1      3003 5.95638E+00
 -1      3004 9.24901E+00
 -1      3005 2.28134E-03
 -1      3006 2.74889E-03
 -1      3007 3.01845E-03
 -1      3008 2.33079E-03
 -1      3009 1.43474E+01
 -1      3010 3.06384E-03
 -1      3011 5.25790E+00
 -1      3012 1.47953E+01
 -1      3013 1.05864E+01
 -1      3014 1.46203E+01
 -1      3015 1.21290E+01
 -1      3016 1.04078E+01
 -1      3017 1.35611E+01
 -1      3018 4.10542E+00
 -1      3019 3.21580E+00
 -1      3020 4.95173E-01
 -1      3021 4.56867E+00
 -1      3022 1.59268E+01
 -1      3023 1.38829E+01
 -1      3024 1.08667E+01
 -1      3025 7.77468E+00
 -1      3026 9.37449E+00
 -1      3027 6.58849E+00
 -1      3028 8.09349E+00
 -1      3029 3.64145E-01
 -1      3030 4.02059E-01
 -1      3031 3.57246E-01
 -1      3032 2.88785E-01
 -1      3033 6.75966E-01
 -1      3034 3.77316E+00
 -1      3035 4.64035E+00
 -1      3036 3.15553E+00
 -1      3037 5.40074E+00
 -1      3038 3.92729E+00
 -1      3039 5.55379E+00
 -1      3040 4.14029E+00
 -1      3041 5.17228E+00
 -1      3042 4.39029E+00
 -1      3043 3.47255E+00
 -1      3044 5.73883E+00
 -1      3045 3.68873E+00
 -1      3046 2.87735E+00
 -1      3047 4.68550E-01
 -1      3048 4.45167E-01
 -1      3049 5.02216E+00
 -1      3050 6.04671E+00
 -1      3051 4.55393E+00
 -1      3052 5.34092E+00
 -1      3053 4.19533E+00
 -1      3054 4.84068E+00
 -1      3055 3.85586E+00
 -1      3056 5.41233E-01
 -1      3057 6.12890E-01
 -1      3058 6.85111E-01
 -1      3059 7.80890E-01
 -1      3060 6.81912E-01
 -1      3061 8.90954E-01
 -1      3062 1.00532E+00
 -1      3063 8.64196E-01
 -1      3064 1.16595E+00
 -1      3065 1.29138E+00
 -1      3066 1.13488E+00
 -1      3067 1.53524E+00
 -1      3068 1.66177E+00
 -1      3069 1.53937E+00
 -1      3070 2.02404E+00
 -1      3071 2.25833E+00
 -1      3072 2.14550E+00
 -1      3073 2.72558E+00
 -1      3074 3.09373E+00
 -1      3075 2.97502E+00
 -1      3076 4.46766E+00
 -1      3077 3.85339E+00
 -1      3078 5.04977E+00
 -1      3079 4.70147E+00
 -1      3080 3.48257E+00
 -1      3081 3.16103E+00
 -1      3082 5.16253E+00
 -1      3083 2.60184E+00
 -1      3084 2.33213E+00
 -1      3085 3.38444E+00
 -1      3086 1.96297E+00
 -1      3087 1.84398E+00
 -1      3088 2.45608E+00
 -1      3089 1.55505E+00
 -1      3090 1.43743E+00
 -1      3091 1.79800E+00
 -1      3092 1.26650E+00
 -1      3093 1.15444E+00
 -1      3094 1.33815E+00
 -1      3095 1.03306E+00
 -1      3096 9.25327E-01
 -1      3097 1.04584E+00
 -1      3098 8.34589E-01
 -1      3099 7.38546E-01
 -1      3100 8.33719E-01
 -1      3101 6.59498E-01
 -1      3102 5.77567E-01
 -1      3103 6.63934E-01
 -1      3104 5.11282E-01
 -1      3105 4.43482E-01
 -1      3106 5.18601E-01
 -1      3107 3.89306E-01
 -1      3108 3.34510E-01
 -1      3109 3.98142E-01
 -1      3110 2.91095E-01
 -1      3111 2.47748E-01
 -1      3112 3.00551E-01
 -1      3113 2.13547E-01
 -1      3114 1.81207E-01
 -1      3115 2.22935E-01
 -1      3116 1.54697E-01
 -1      3117 1.29741E-01
 -1      3118 1.62224E-01
 -1      3119 1.09669E-01
 -1      3120 9.07422E-02
 -1      3121 1.15643E-01
 -1      3122 7.63544E-02
 -1      3123 6.24124E-02
 -1      3124 8.11837E-02
 -1      3125 5.16746E-02
 -1      3126 4.22278E-02
 -1      3127 5.60581E-02
 -1      3128 3.44081E-02
 -1      3129 2.75424E-02
 -1      3130 3.75006E-02
 -1      3131 2.20179E-02
 -1      3132 1.71499E-02
 -1      3133 2.41565E-02
 -1      3134 1.37731E-02
 -1      3135 1.09971E-02
 -1      3136 1.52552E-02
 -1      3137 8.66281E-03
 -1      3138 8.30835E-03
 -1      3139 9.54401E-03
 -1      3140 6.95813E-03
 -1      3141 6.27010E-03
 -1      3142 5.85946E-03
 -1      3143 5.92868E-03
 -1      3144 5.07321E-03
 -1      3145 4.16783E-03
 -1      3146 4.84452E-03
 -1      3147 3.95469E-03
 -1      3148 3.59773E-03
 -1      3149 1.33908E-03
 -1      3150 1.29482E-03
 -1      3151 1.15019E+00
 -1      3152 1.11233E+00
 -1      3153 9.60514E-01
 -1      3154 8.94309E-01
 -1      3155 1.18012E+00
 -1      3156 1.76926E+00
 -1      3157 1.66444E+00
 -1      3158 2.20094E+00
 -1      3159 2.10082E+00
 -1      3160 2.36487E+00
 -1      3161 2.90956E+00
 -1      3162 2.30752E+00
 -1      3163 2.80299E+00
 -1      3164 4.09026E+00
 -1      3165 3.49991E+00
 -1      3166 3.64046E+00
 -1      3167 3.15130E+00
 -1      3168 2.98525E+00
 -1      3169 3.55776E+00
 -1      3170 2.88267E+00
 -1      3171 2.32464E+00
 -1      3172 2.50791E+00
 -1      3173 1.53535E+00
 -1      3174 1.70835E+00
 -1      3175 2.32464E+00
 -1      3176 1.44849E+00
 -1      3177 1.56240E+00
 -1      3178 1.73541E+00
 -1      3179 1.29928E+00
 -1      3180 1.34032E+00
 -1      3181 1.65430E+00
 -1      3182 1.11280E+00
 -1      3183 1.16131E+00
 -1      3184 1.40816E+00
 -1      3185 9.18250E-01
 -1      3186 9.82514E-01
 -1      3187 1.13990E+00
 -1      3188 7.91556E-01
 -1      3189 8.45432E-01
 -1      3190 9.36804E-01
 -1      3191 6.83387E-01
 -1      3192 7.22484E-01
 -1      3193 7.94914E-01
 -1      3194 5.74171E-01
 -1      3195 6.20361E-01
 -1      3196 6.62816E-01
 -1      3197 4.69308E-01
 -1      3198 5.16405E-01
 -1      3199 5.42024E-01
 -1      3200 3.74226E-01
 -1      3201 4.18420E-01
 -1      3202 4.33372E-01
 -1      3203 2.92664E-01
 -1      3204 3.31909E-01
 -1      3205 3.40168E-01
 -1      3206 2.24927E-01
 -1      3207 2.58392E-01
 -1      3208 2.63579E-01
 -1      3209 1.69501E-01
 -1      3210 1.97130E-01
 -1      3211 2.01510E-01
 -1      3212 1.25110E-01
 -1      3213 1.47306E-01
 -1      3214 1.51517E-01
 -1      3215 9.02690E-02
 -1      3216 1.07667E-01
 -1      3217 1.11879E-01
 -1      3218 6.34658E-02
 -1      3219 7.67856E-02
 -1      3220 8.09526E-02
 -1      3221 4.32683E-02
 -1      3222 5.32259E-02
 -1      3223 5.72294E-02
 -1      3224 2.83866E-02
 -1      3225 3.56418E-02
 -1      3226 3.93631E-02
 -1      3227 1.81503E-02
 -1      3228 2.28318E-02
 -1      3229 2.61818E-02
 -1      3230 1.22604E-02
 -1      3231 1.42104E-02
 -1      3232 1.66870E-02
 -1      3233 8.75494E-03
 -1      3234 9.55738E-03
 -1      3235 1.00440E-02
 -1      3236 6.96113E-03
 -1      3237 7.92621E-03
 -1      3238 6.51228E-03
 -1      3239 5.65021E-03
 -1      3240 6.66384E-03
 -1      3241 5.38625E-03
 -1      3242 4.24990E-03
 -1      3243 5.16163E-03
 -1      3244 4.60039E-03
 -1      3245 3.24106E-03
 -1      3246 3.67749E-03
 -1      3247 3.53941E-03
 -1      3248 2.74439E-03
 -1      3249 3.79539E-03
 -1      3250 3.03653E-01
 -1      3251 2.69178E-01
 -1      3252 1.30849E+01
 -1      3253 1.72917E-03
 -1      3254 1.52541E-03
 -1      3255 1.45903E-03
 -1      3256 1.23636E-03
 -1      3257 1.22067E-03
 -1      3258 1.21424E-03
 -1      3259 1.16609E+01
 -1      3260 1.11126E+01
 -1      3261 1.30467E+01
 -1      3262 1.07248E+01
 -1      3263 1.41759E+00
 -1      3264 1.25403E+00
 -1      3265 1.43577E+00
 -1      3266 1.78646E+00
 -1      3267 4.13273E-01
 -1      3268 4.27063E-01
 -1      3269 3.86651E-01
 -1      3270 3.36214E-01
 -1      3271 5.16061E-01
 -1      3272 4.67573E-01
 -1      3273 3.51642E+00
 -1      3274 4.80012E-01
 -1      3275 4.92103E-01
 -1      3276 5.60561E-01
 -1      3277 9.11243E+00
 -1      3278 7.81056E+00
 -1      3279 4.16579E-01
 -1      3280 3.74368E-01
 -1      3281 4.77418E-01
 -1      3282 3.20975E-03
 -1      3283 7.74367E+00
 -1      3284 6.41244E+00
 -1      3285 7.13649E-01
 -1      3286 2.85155E+00
 -1      3287 3.13123E+00
 -1      3288 6.69036E+00
 -1      3289 8.52617E+00
 -1      3290 1.04965E+01
 -1      3291 8.59520E+00
 -1      3292 1.21090E+01
 -1      3293 1.02576E+01
 -1      3294 7.66037E+00
 -1      3295 1.12491E+01
 -1      3296 1.23142E+01
 -1      3297 9.01073E+00
 -1      3298 1.07398E+01
 -1      3299 1.13513E+01
 -1      3300 2.27350E-01
 -1      3301 2.17274E-01
 -1      3302 2.20567E-01
 -1      3303 5.74101E+00
 -1      3304 5.82177E-01
 -1      3305 5.94527E-01
 -1      3306 6.39940E-01
 -1      3307 5.32386E+00
 -1      3308 1.97046E-03
 -1      3309 2.14639E-03
 -1      3310 4.95952E+00
 -1      3311 3.97470E+00
 -1      3312 3.27014E+00
 -1      3313 4.39193E+00
 -1      3314 4.70489E+00
 -1      3315 4.35635E+00
 -1      3316 1.03393E+01
 -1      3317 8.60573E+00
 -1      3318 8.59077E+00
 -1      3319 5.11131E+00
 -1      3320 9.07940E+00
 -1      3321 4.34839E-01
 -1      3322 5.90179E-01
 -1      3323 6.55973E-01
 -1      3324 5.28563E-01
 -1      3325 5.59983E-01
 -1      3326 4.74086E+00
 -1      3327 5.08078E+00
 -1      3328 1.18599E-03
 -1      3329 1.25088E-03
 -1      3330 1.30155E-03
 -1      3331 7.03411E-01
 -1      3332 9.15913E-01
 -1      3333 7.81915E-01
 -1      3334 7.11379E-01
 -1      3335 3.49991E+00
 -1      3336 4.09191E+00
 -1      3337 3.31569E+00
 -1      3338 9.81240E+00
 -1      3339 1.41035E-03
 -1      3340 1.61087E-03
 -1      3341 1.79339E-03
 -1      3342 1.32500E-03
 -1      3343 3.73998E-01
 -1      3344 3.32740E-01
 -1      3345 4.00666E-01
 -1      3346 1.07363E+01
 -1      3347 8.01826E+00
 -1      3348 8.48642E+00
 -1      3349 2.56539E-03
 -1      3350 1.94666E-03
 -1      3351 9.08882E+00
 -1      3352 8.38167E+00
 -1      3353 6.75082E+00
 -1      3354 2.72469E-03
 -1      3355 3.08120E+00
 -1      3356 8.15132E+00
 -1      3357 3.60580E+00
 -1      3358 3.30946E+00
 -1      3359 2.53005E+00
 -1      3360 8.59425E+00
 -1      3361 8.37611E+00
 -1      3362 6.03560E+00
 -1      3363 7.50194E+00
 -1      3364 5.70148E+00
 -1      3365 6.20319E+00
 -1      3366 4.28403E-01
 -1      3367 4.45433E-01
 -1      3368 4.13458E-01
 -1      3369 6.44831E+00
 -1      3370 3.77316E+00
 -1      3371 5.57015E+00
 -1      3372 4.24000E+00
 -1      3373 5.27470E+00
 -1      3374 1.86285E-03
 -1      3375 3.64061E-01
 -1      3376 3.66537E-01
 -1      3377 3.75487E-01
 -1      3378 4.16117E-01
 -1      3379 3.40399E-01
 -1      3380 3.75885E-01
 -1      3381 4.17993E-01
 -1      3382 4.09191E+00
 -1      3383 8.64196E-01
 -1      3384 9.74260E-01
 -1      3385 1.12660E+00
 -1      3386 1.28722E+00
 -1      3387 1.12660E+00
 -1      3388 1.51877E+00
 -1      3389 1.76263E+00
 -1      3390 1.51049E+00
 -1      3391 2.10039E+00
 -1      3392 2.46266E+00
 -1      3393 2.07980E+00
 -1      3394 3.57262E+00
 -1      3395 4.03987E+00
 -1      3396 3.52752E+00
 -1      3397 4.75417E+00
 -1      3398 4.19498E+00
 -1      3399 3.25023E+00
 -1      3400 2.88107E+00
 -1      3401 4.61997E+00
 -1      3402 2.27248E+00
 -1      3403 1.98356E+00
 -1      3404 3.06663E+00
 -1      3405 1.64902E+00
 -1      3406 1.47810E+00
 -1      3407 2.12351E+00
 -1      3408 1.24467E+00
 -1      3409 1.12328E+00
 -1      3410 1.55554E+00
 -1      3411 9.58452E-01
 -1      3412 8.67714E-01
 -1      3413 1.15728E+00
 -1      3414 7.47618E-01
 -1      3415 6.68570E-01
 -1      3416 8.72350E-01
 -1      3417 5.78583E-01
 -1      3418 5.12298E-01
 -1      3419 6.62267E-01
 -1      3420 4.43442E-01
 -1      3421 3.89267E-01
 -1      3422 5.03424E-01
 -1      3423 3.35950E-01
 -1      3424 2.92535E-01
 -1      3425 3.81251E-01
 -1      3426 2.51086E-01
 -1      3427 2.16884E-01
 -1      3428 2.86484E-01
 -1      3429 1.84729E-01
 -1      3430 1.58219E-01
 -1      3431 2.12879E-01
 -1      3432 1.33439E-01
 -1      3433 1.13367E-01
 -1      3434 1.55944E-01
 -1      3435 9.48328E-02
 -1      3436 8.04451E-02
 -1      3437 1.12629E-01
 -1      3438 6.68627E-02
 -1      3439 5.61248E-02
 -1      3440 8.05118E-02
 -1      3441 4.58899E-02
 -1      3442 3.80703E-02
 -1      3443 5.66945E-02
 -1      3444 3.04880E-02
 -1      3445 2.49635E-02
 -1      3446 3.88773E-02
 -1      3447 1.94581E-02
 -1      3448 1.60813E-02
 -1      3449 2.57897E-02
 -1      3450 1.21763E-02
 -1      3451 9.84193E-03
 -1      3452 1.63793E-02
 -1      3453 7.14794E-03
 -1      3454 5.79773E-03
 -1      3455 9.78020E-03
 -1      3456 3.92411E-03
 -1      3457 3.58269E-03
 -1      3458 5.21259E-03
 -1      3459 3.34290E-03
 -1      3460 3.11421E-03
 -1      3461 2.46986E-03
 -1      3462 3.09918E-03
 -1      3463 2.18634E-03
 -1      3464 2.37733E-03
 -1      3465 2.59994E-03
 -1      3466 2.19293E-03
 -1      3467 2.94876E+00
 -1      3468 2.84219E+00
 -1      3469 3.34644E+00
 -1      3470 3.01489E+00
 -1      3471 5.30249E+00
 -1      3472 2.33773E+00
 -1      3473 2.31068E+00
 -1      3474 3.28643E+00
 -1      3475 3.90271E+00
 -1      3476 1.53255E+00
 -1      3477 1.67053E+00
 -1      3478 1.21445E+00
 -1      3479 1.34473E+00
 -1      3480 1.60710E+00
 -1      3481 9.87596E-01
 -1      3482 1.06041E+00
 -1      3483 1.26525E+00
 -1      3484 7.90108E-01
 -1      3485 8.59180E-01
 -1      3486 9.82790E-01
 -1      3487 6.35659E-01
 -1      3488 6.98685E-01
 -1      3489 7.62951E-01
 -1      3490 5.11763E-01
 -1      3491 5.69528E-01
 -1      3492 6.05397E-01
 -1      3493 4.12185E-01
 -1      3494 4.63072E-01
 -1      3495 4.90575E-01
 -1      3496 3.26199E-01
 -1      3497 3.68516E-01
 -1      3498 3.98216E-01
 -1      3499 2.53511E-01
 -1      3500 2.87783E-01
 -1      3501 3.16132E-01
 -1      3502 1.93190E-01
 -1      3503 2.20987E-01
 -1      3504 2.45192E-01
 -1      3505 1.44266E-01
 -1      3506 1.66461E-01
 -1      3507 1.85939E-01
 -1      3508 1.05406E-01
 -1      3509 1.22849E-01
 -1      3510 1.37793E-01
 -1      3511 7.51532E-02
 -1      3512 8.86366E-02
 -1      3513 9.96062E-02
 -1      3514 5.25109E-02
 -1      3515 6.27508E-02
 -1      3516 7.04348E-02
 -1      3517 3.57356E-02
 -1      3518 4.33621E-02
 -1      3519 4.88835E-02
 -1      3520 2.33960E-02
 -1      3521 2.89509E-02
 -1      3522 3.29499E-02
 -1      3523 1.45525E-02
 -1      3524 1.84924E-02
 -1      3525 2.12615E-02
 -1      3526 8.46658E-03
 -1      3527 1.11696E-02
 -1      3528 1.29750E-02
 -1      3529 5.65523E-03
 -1      3530 6.48397E-03
 -1      3531 7.60954E-03
 -1      3532 4.30072E-03
 -1      3533 4.59801E-03
 -1      3534 4.56970E-03
 -1      3535 1.90200E-03
 -1      3536 1.84354E-03
 -1      3537 6.55973E-01
 -1      3538 1.93888E+00
 -1      3539 2.04705E+00
 -1      3540 2.62232E+00
 -1      3541 2.06328E+00
 -1      3542 7.56139E+00
 -1      3543 7.69790E+00
 -1      3544 8.90738E+00
 -1      3545 8.07125E+00
 -1      3546 2.25237E-03
 -1      3547 2.06604E-03
 -1      3548 2.69534E-03
 -1      3549 3.59214E+00
 -1      3550 5.29007E-01
 -1      3551 4.78013E-01
 -1      3552 1.37096E+00
 -1      3553 1.21914E+00
 -1      3554 5.22941E+00
 -1      3555 6.72862E-01
 -1      3556 7.45083E-01
 -1      3557 8.55147E-01
 -1      3558 7.69790E+00
 -1      3559 7.49272E+00
 -1      3560 2.48771E-01
 -1      3561 2.81745E-01
 -1      3562 3.00385E-01
 -1      3563 7.44215E+00
 -1      3564 6.58728E+00
 -1      3565 2.31133E+00
 -1      3566 2.56808E+00
 -1      3567 3.03751E+00
 -1      3568 5.25142E+00
 -1      3569 6.12793E+00
 -1      3570 6.26124E+00
 -1      3571 2.25237E-03
 -1      3572 5.42740E-01
 -1      3573 5.38455E-01
 -1      3574 5.87585E-01
 -1      3575 6.50756E-01
 -1      3576 3.88875E+00
 -1      3577 6.03996E+00
 -1      3578 7.32081E-01
 -1      3579 4.15877E-01
 -1      3580 6.63553E-01
 -1      3581 5.97438E-01
 -1      3582 5.98033E-01
 -1      3583 2.98120E-01
 -1      3584 2.56292E-01
 -1      3585 7.19062E+00
 -1      3586 6.80511E+00
 -1      3587 6.28560E+00
 -1      3588 6.56525E+00
 -1      3589 6.96571E+00
 -1      3590 5.40167E+00
 -1      3591 2.10235E-01
 -1      3592 2.84626E+00
 -1      3593 5.47553E-01
 -1      3594 4.99001E-01
 -1      3595 5.26025E-01
 -1      3596 4.81759E-01
 -1      3597 2.85938E-03
 -1      3598 1.08894E+00
 -1      3599 9.76542E-01
 -1      3600 1.27977E+00
 -1      3601 3.49221E+00
 -1      3602 4.04296E-01
 -1      3603 4.45782E-01
 -1      3604 4.34618E-01
 -1      3605 4.00419E+00
 -1      3606 3.02262E+00
 -1      3607 2.77576E+00
 -1      3608 4.96515E-01
 -1      3609 4.44926E-01
 -1      3610 6.17989E+00
 -1      3611 2.65640E-03
 -1      3612 1.96864E-03
 -1      3613 1.99885E-03
 -1      3614 3.56000E-03
 -1      3615 4.04858E-03
 -1      3616 3.17235E-03
 -1      3617 4.34618E-01
 -1      3618 7.45726E+00
 -1      3619 6.06448E+00
 -1      3620 5.95973E+00
 -1      3621 3.93377E-01
 -1      3622 4.29102E-01
 -1      3623 4.63722E-01
 -1      3624 2.62054E-03
 -1      3625 2.49085E+00
 -1      3626 6.63495E+00
 -1      3627 4.57258E-01
 -1      3628 4.62070E-01
 -1      3629 3.98304E-01
 -1      3630 1.87459E+00
 -1      3631 1.77076E+00
 -1      3632 1.80978E+00
 -1      3633 3.11075E+00
 -1      3634 4.11005E+00
 -1      3635 2.58058E-03
 -1      3636 5.33618E+00
 -1      3637 4.24291E+00
 -1      3638 4.62700E+00
 -1      3639 4.46048E-01
 -1      3640 4.27567E+00
 -1      3641 5.15248E+00
 -1      3642 4.13414E+00
 -1      3643 4.56092E+00
 -1      3644 5.84043E+00
 -1      3645 6.76505E+00
 -1      3646 5.38356E+00
 -1      3647 3.26033E-03
 -1      3648 4.12641E+00
 -1      3649 1.61727E-03
 -1      3650 1.97686E-03
 -1      3651 2.40447E-03
 -1      3652 7.18513E+00
 -1      3653 5.87231E+00
 -1      3654 1.51049E+00
 -1      3655 1.74204E+00
 -1      3656 2.07980E+00
 -1      3657 2.41756E+00
 -1      3658 2.07980E+00
 -1      3659 5.21304E+00
 -1      3660 4.26829E+00
 -1      3661 5.52063E+00
 -1      3662 3.35472E+00
 -1      3663 2.74613E+00
 -1      3664 3.94779E+00
 -1      3665 2.24406E+00
 -1      3666 1.90952E+00
 -1      3667 2.53214E+00
 -1      3668 1.59252E+00
 -1      3669 1.35909E+00
 -1      3670 1.71307E+00
 -1      3671 1.16155E+00
 -1      3672 9.96719E-01
 -1      3673 1.19853E+00
 -1      3674 8.72350E-01
 -1      3675 7.52254E-01
 -1      3676 8.76623E-01
 -1      3677 6.62267E-01
 -1      3678 5.72280E-01
 -1      3679 6.62267E-01
 -1      3680 5.03424E-01
 -1      3681 4.34567E-01
 -1      3682 5.03424E-01
 -1      3683 3.81251E-01
 -1      3684 3.27934E-01
 -1      3685 3.81251E-01
 -1      3686 2.86484E-01
 -1      3687 2.45035E-01
 -1      3688 2.86484E-01
 -1      3689 2.12879E-01
 -1      3690 1.80724E-01
 -1      3691 2.12879E-01
 -1      3692 1.56450E-01
 -1      3693 1.31670E-01
 -1      3694 1.56450E-01
 -1      3695 1.13472E-01
 -1      3696 9.49374E-02
 -1      3697 1.13978E-01
 -1      3698 8.10414E-02
 -1      3699 6.74590E-02
 -1      3700 8.18846E-02
 -1      3701 5.69905E-02
 -1      3702 4.67556E-02
 -1      3703 5.75201E-02
 -1      3704 3.90847E-02
 -1      3705 3.15024E-02
 -1      3706 3.93807E-02
 -1      3707 2.62388E-02
 -1      3708 2.07335E-02
 -1      3709 2.64462E-02
 -1      3710 1.69225E-02
 -1      3711 1.30175E-02
 -1      3712 1.73717E-02
 -1      3713 1.03431E-02
 -1      3714 7.64913E-03
 -1      3715 1.08864E-02
 -1      3716 5.91223E-03
 -1      3717 4.03861E-03
 -1      3718 6.47515E-03
 -1      3719 4.63427E-01
 -1      3720 7.56117E-01
 -1      3721 7.23030E-01
 -1      3722 8.39540E-01
 -1      3723 7.68101E-01
 -1      3724 7.71012E-01
 -1      3725 9.59953E-01
 -1      3726 1.08837E+00
 -1      3727 5.52063E+00
 -1      3728 1.68163E+00
 -1      3729 1.86945E+00
 -1      3730 7.46333E-01
 -1      3731 8.37756E-01
 -1      3732 9.43335E-01
 -1      3733 6.05397E-01
 -1      3734 6.71528E-01
 -1      3735 7.46333E-01
 -1      3736 4.90575E-01
 -1      3737 5.39266E-01
 -1      3738 6.05397E-01
 -1      3739 3.90707E-01
 -1      3740 4.34376E-01
 -1      3741 4.83066E-01
 -1      3742 3.05445E-01
 -1      3743 3.43861E-01
 -1      3744 3.80021E-01
 -1      3745 2.34472E-01
 -1      3746 2.66996E-01
 -1      3747 2.94725E-01
 -1      3748 1.76628E-01
 -1      3749 2.03357E-01
 -1      3750 2.25162E-01
 -1      3751 1.30385E-01
 -1      3752 1.51803E-01
 -1      3753 1.69221E-01
 -1      3754 9.41002E-02
 -1      3755 1.10869E-01
 -1      3756 1.24879E-01
 -1      3757 6.65968E-02
 -1      3758 7.89992E-02
 -1      3759 9.02622E-02
 -1      3760 4.59620E-02
 -1      3761 5.51109E-02
 -1      3762 6.36753E-02
 -1      3763 3.09435E-02
 -1      3764 3.77283E-02
 -1      3765 4.39557E-02
 -1      3766 2.01079E-02
 -1      3767 2.50115E-02
 -1      3768 2.97899E-02
 -1      3769 1.24120E-02
 -1      3770 1.57948E-02
 -1      3771 1.95448E-02
 -1      3772 7.37527E-03
 -1      3773 9.35788E-03
 -1      3774 1.21777E-02
 -1      3775 4.22755E-03
 -1      3776 5.28478E-03
 -1      3777 7.03311E-03
 -1      3778 4.00419E+00
 -1      3779 5.17840E+00
 -1      3780 5.80129E+00
 -1      3781 1.99885E-03
 -1      3782 2.10765E-03
 -1      3783 2.78150E-03
 -1      3784 6.05811E-01
 -1      3785 6.91089E-01
 -1      3786 3.28926E-03
 -1      3787 3.12522E-03
 -1      3788 3.05498E-01
 -1      3789 2.27945E-01
 -1      3790 2.59441E-01
 -1      3791 4.93893E-01
 -1      3792 4.76514E-01
 -1      3793 4.63722E-01
 -1      3794 4.93893E-01
 -1      3795 2.81751E-01
 -1      3796 3.40405E-01
 -1      3797 3.79670E-01
 -1      3798 2.99461E-01
 -1      3799 4.93620E-01
 -1      3800 5.33074E-01
 -1      3801 5.73406E-01
 -1      3802 4.69119E-01
 -1      3803 8.09602E-01
 -1      3804 9.28715E-01
 -1      3805 7.64657E-01
 -1      3806 2.93806E+00
 -1      3807 4.30073E+00
 -1      3808 3.84079E+00
 -1      3809 2.64738E+00
 -1      3810 2.69449E-03
 -1      3811 2.94664E-03
 -1      3812 3.66171E-03
 -1      3813 2.09077E-03
 -1      3814 1.27418E+00
 -1      3815 1.42822E+00
 -1      3816 1.25134E+00
 -1      3817 1.10259E+00
 -1      3818 1.25493E+00
 -1      3819 1.48648E+00
 -1      3820 1.05704E+00
 -1      3821 5.56400E+00
 -1      3822 4.68337E+00
 -1      3823 4.83787E+00
 -1      3824 6.23802E+00
 -1      3825 4.59801E+00
 -1      3826 3.18967E+00
 -1      3827 3.18967E+00
 -1      3828 4.29963E+00
 -1      3829 3.79882E-03
 -1      3830 3.79882E-03
 -1      3831 1.01256E+00
 -1      3832 1.97379E+00
 -1      3833 1.84359E+00
 -1      3834 8.96325E-01
 -1      3835 1.12284E+00
 -1      3836 9.64756E-01
 -1      3837 4.01192E+00
 -1      3838 5.30297E+00
 -1      3839 4.64371E+00
 -1      3840 3.73014E+00
 -1      3841 4.50664E+00
 -1      3842 1.69056E+00
 -1      3843 4.57274E-03
 -1      3844 4.69784E-03
 -1      3845 5.16666E-03
 -1      3846 2.29113E-03
 -1      3847 2.19678E+00
 -1      3848 2.76059E+00
 -1      3849 2.59657E+00
 -1      3850 4.87689E+00
 -1      3851 5.24359E-01
 -1      3852 2.26881E+00
 -1      3853 2.53717E+00
 -1      3854 2.85291E+00
 -1      3855 2.34334E+00
 -1      3856 6.72848E-01
 -1      3857 5.77591E-01
 -1      3858 4.23798E+00
 -1      3859 4.71442E+00
 -1      3860 7.53496E-01
 -1      3861 4.22870E-03
 -1      3862 5.90185E+00
 -1      3863 3.46332E+00
 -1      3864 3.69391E+00
 -1      3865 4.56092E+00
 -1      3866 4.01192E+00
 -1      3867 5.84356E+00
 -1      3868 4.59035E+00
 -1      3869 4.81440E+00
 -1      3870 2.47149E+00
 -1      3871 6.73395E-01
 -1      3872 4.29650E-01
 -1      3873 4.01302E-01
 -1      3874 2.79754E+00
 -1      3875 3.56965E+00
 -1      3876 4.29124E+00
 -1      3877 5.37058E+00
 -1      3878 3.41051E+00
 -1      3879 3.32310E+00
 -1      3880 1.85588E+00
 -1      3881 1.16186E+00
 -1      3882 1.02486E+00
 -1      3883 2.77571E+00
 -1      3884 2.27364E+00
 -1      3885 1.65927E+00
 -1      3886 1.34227E+00
 -1      3887 1.90284E+00
 -1      3888 1.14982E+00
 -1      3889 9.52284E-01
 -1      3890 1.09603E+00
 -1      3891 8.37017E-01
 -1      3892 7.12648E-01
 -1      3893 7.88309E-01
 -1      3894 6.31126E-01
 -1      3895 5.41139E-01
 -1      3896 5.91520E-01
 -1      3897 4.81816E-01
 -1      3898 4.12960E-01
 -1      3899 4.50675E-01
 -1      3900 3.68095E-01
 -1      3901 3.14778E-01
 -1      3902 3.46487E-01
 -1      3903 2.79989E-01
 -1      3904 2.38540E-01
 -1      3905 2.66833E-01
 -1      3906 2.11207E-01
 -1      3907 1.79052E-01
 -1      3908 2.04712E-01
 -1      3909 1.57487E-01
 -1      3910 1.33213E-01
 -1      3911 1.55815E-01
 -1      3912 1.16236E-01
 -1      3913 9.80380E-02
 -1      3914 1.17273E-01
 -1      3915 8.47586E-02
 -1      3916 7.08626E-02
 -1      3917 8.70160E-02
 -1      3918 6.05750E-02
 -1      3919 5.01065E-02
 -1      3920 6.34490E-02
 -1      3921 4.22313E-02
 -1      3922 3.45603E-02
 -1      3923 4.52861E-02
 -1      3924 2.86915E-02
 -1      3925 2.34279E-02
 -1      3926 3.15421E-02
 -1      3927 1.93455E-02
 -1      3928 1.55345E-02
 -1      3929 2.15908E-02
 -1      3930 1.27490E-02
 -1      3931 1.00747E-02
 -1      3932 1.47228E-02
 -1      3933 7.18490E-03
 -1      3934 5.44800E-03
 -1      3935 4.93844E-03
 -1      3936 9.04753E-03
 -1      3937 1.07825E+00
 -1      3938 9.73704E-01
 -1      3939 1.27200E+00
 -1      3940 1.22755E+00
 -1      3941 7.45491E-01
 -1      3942 8.20296E-01
 -1      3943 9.43335E-01
 -1      3944 1.06553E+00
 -1      3945 9.42493E-01
 -1      3946 4.54876E-01
 -1      3947 5.11075E-01
 -1      3948 3.51757E-01
 -1      3949 3.98604E-01
 -1      3950 4.26612E-01
 -1      3951 2.69409E-01
 -1      3952 3.07858E-01
 -1      3953 3.26441E-01
 -1      3954 2.03907E-01
 -1      3955 2.35022E-01
 -1      3956 2.48155E-01
 -1      3957 1.52160E-01
 -1      3958 1.76986E-01
 -1      3959 1.86846E-01
 -1      3960 1.11666E-01
 -1      3961 1.31182E-01
 -1      3962 1.38947E-01
 -1      3963 8.03524E-02
 -1      3964 9.54534E-02
 -1      3965 1.01756E-01
 -1      3966 5.64733E-02
 -1      3967 6.79592E-02
 -1      3968 7.31504E-02
 -1      3969 3.88943E-02
 -1      3970 4.71280E-02
 -1      3971 5.14119E-02
 -1      3972 2.61486E-02
 -1      3973 3.20807E-02
 -1      3974 3.52531E-02
 -1      3975 1.71439E-02
 -1      3976 2.14570E-02
 -1      3977 2.37478E-02
 -1      3978 1.06680E-02
 -1      3979 1.37220E-02
 -1      3980 1.56342E-02
 -1      3981 6.11005E-03
 -1      3982 8.20054E-03
 -1      3983 9.74489E-03
 -1      3984 1.23001E+00
 -1      3985 1.41583E+00
 -1      3986 1.23001E+00
 -1      3987 4.69784E-03
 -1      3988 4.69784E-03
 -1      3989 6.61418E-03
 -1      3990 6.57554E-01
 -1      3991 7.76068E-01
 -1      3992 1.81476E+00
 -1      3993 2.15252E+00
 -1      3994 2.53250E+00
 -1      3995 3.30966E-03
 -1      3996 2.81929E-03
 -1      3997 3.10931E-03
 -1      3998 5.22600E-03
 -1      3999 4.06307E+00
 -1      4000 3.37582E+00
 -1      4001 7.53496E-01
 -1      4002 4.01192E+00
 -1      4003 3.11075E+00
 -1      4004 9.01984E-01
 -1      4005 4.65596E+00
 -1      4006 4.81440E+00
 -1      4007 1.07327E+00
 -1      4008 9.92620E-01
 -1      4009 1.21348E+00
 -1      4010 1.70579E+00
 -1      4011 1.95920E+00
 -1      4012 1.68446E+00
 -1      4013 5.83820E-01
 -1      4014 6.49951E-01
 -1      4015 7.23914E-01
 -1      4016 5.55629E-01
 -1      4017 3.73584E+00
 -1      4018 3.59307E-01
 -1      4019 4.17206E-01
 -1      4020 4.48756E-01
 -1      4021 1.22976E+00
 -1      4022 1.48532E+00
 -1      4023 1.55804E+00
 -1      4024 2.31645E+00
 -1      4025 1.63473E+00
 -1      4026 3.37582E+00
 -1      4027 3.23560E+00
 -1      4028 3.47163E+00
 -1      4029 4.39023E-03
 -1      4030 6.38597E-03
 -1      4031 3.28395E+00
 -1      4032 3.26872E+00
 -1      4033 4.16755E+00
 -1      4034 4.08696E+00
 -1      4035 3.13253E+00
 -1      4036 3.20091E+00
 -1      4037 3.66809E+00
 -1      4038 5.55765E-03
 -1      4039 3.49774E+00
 -1      4040 4.59347E+00
 -1      4041 4.90707E-01
 -1      4042 5.63444E-01
 -1      4043 5.74855E-01
 -1      4044 4.38794E-01
 -1      4045 3.64111E+00
 -1      4046 4.17067E+00
 -1      4047 3.73057E+00
 -1      4048 8.44678E-01
 -1      4049 4.96979E-01
 -1      4050 5.19289E-01
 -1      4051 5.56825E-01
 -1      4052 6.21130E-01
 -1      4053 8.44949E-01
 -1      4054 1.01882E+00
 -1      4055 1.01767E+00
 -1      4056 7.37847E-01
 -1      4057 3.72415E+00
 -1      4058 2.86926E+00
 -1      4059 2.64811E+00
 -1      4060 3.56697E+00
 -1      4061 3.03203E+00
 -1      4062 3.02034E+00
 -1      4063 9.84441E-03
 -1      4064 1.00726E-02
 -1      4065 1.39718E+00
 -1      4066 1.20473E+00
 -1      4067 8.58563E-01
 -1      4068 7.43297E-01
 -1      4069 1.15972E+00
 -1      4070 6.30704E-01
 -1      4071 5.49182E-01
 -1      4072 7.00959E-01
 -1      4073 4.81448E-01
 -1      4074 4.22125E-01
 -1      4075 5.20632E-01
 -1      4076 3.71187E-01
 -1      4077 3.26322E-01
 -1      4078 4.01960E-01
 -1      4079 2.86820E-01
 -1      4080 2.52031E-01
 -1      4081 3.11520E-01
 -1      4082 2.20868E-01
 -1      4083 1.93535E-01
 -1      4084 2.40855E-01
 -1      4085 1.68783E-01
 -1      4086 1.47218E-01
 -1      4087 1.84938E-01
 -1      4088 1.27571E-01
 -1      4089 1.10593E-01
 -1      4090 1.40538E-01
 -1      4091 9.50876E-02
 -1      4092 8.18082E-02
 -1      4093 1.05385E-01
 -1      4094 6.96839E-02
 -1      4095 5.93962E-02
 -1      4096 7.77555E-02
 -1      4097 5.00251E-02
 -1      4098 4.21499E-02
 -1      4099 5.62600E-02
 -1      4100 3.50037E-02
 -1      4101 2.91349E-02
 -1      4102 3.97427E-02
 -1      4103 2.40005E-02
 -1      4104 1.99181E-02
 -1      4105 2.74622E-02
 -1      4106 1.61516E-02
 -1      4107 1.33660E-02
 -1      4108 1.85613E-02
 -1      4109 1.27342E-02
 -1      4110 2.25127E-01
 -1      4111 2.59515E-01
 -1      4112 2.84807E+00
 -1      4113 2.23273E+00
 -1      4114 9.23047E-01
 -1      4115 1.04609E+00
 -1      4116 2.97847E-01
 -1      4117 3.41747E-01
 -1      4118 2.74820E-01
 -1      4119 3.92602E-01
 -1      4120 4.48874E-01
 -1      4121 3.64008E-01
 -1      4122 1.68866E-01
 -1      4123 1.95788E-01
 -1      4124 2.07148E-01
 -1      4125 1.25270E-01
 -1      4126 1.46247E-01
 -1      4127 1.55189E-01
 -1      4128 9.16054E-02
 -1      4129 1.07818E-01
 -1      4130 1.15119E-01
 -1      4131 6.58025E-02
 -1      4132 7.81957E-02
 -1      4133 8.42576E-02
 -1      4134 4.62342E-02
 -1      4135 5.55795E-02
 -1      4136 6.06248E-02
 -1      4137 3.19801E-02
 -1      4138 3.87937E-02
 -1      4139 4.29613E-02
 -1      4140 2.18016E-02
 -1      4141 2.64933E-02
 -1      4142 3.00340E-02
 -1      4143 1.44690E-02
 -1      4144 1.78909E-02
 -1      4145 2.06364E-02
 -1      4146 1.33226E+00
 -1      4147 1.49674E+00
 -1      4148 1.31281E+00
 -1      4149 1.00726E-02
 -1      4150 2.37531E+00
 -1      4151 6.94583E-03
 -1      4152 1.27200E+00
 -1      4153 1.22242E+00
 -1      4154 1.28094E+00
 -1      4155 1.56303E+00
 -1      4156 1.85299E+00
 -1      4157 1.66527E+00
 -1      4158 2.80139E+00
 -1      4159 2.80139E+00
 -1      4160 2.24859E+00
 -1      4161 2.63251E+00
 -1      4162 3.90219E+00
 -1      4163 3.47939E+00
 -1      4164 2.57959E+00
 -1      4165 3.90219E+00
 -1      4166 1.61837E+00
 -1      4167 9.57816E-01
 -1      4168 6.38591E-01
 -1      4169 3.09224E+00
 -1      4170 1.04043E-02
 -1      4171 7.10347E-01
 -1      4172 7.79229E-01
 -1      4173 6.92886E-01
 -1      4174 7.34268E-01
 -1      4175 4.84028E-01
 -1      4176 5.18039E-01
 -1      4177 5.90784E-01
 -1      4178 1.41629E-02
 -1      4179 7.83705E-01
 -1      4180 8.87298E-01
 -1      4181 6.88165E-01
 -1      4182 2.59267E+00
 -1      4183 2.02126E+00
 -1      4184 1.86798E+00
 -1      4185 1.04043E-02
 -1      4186 1.28717E-02
 -1      4187 1.01634E+00
 -1      4188 3.12693E+00
 -1      4189 1.76407E+00
 -1      4190 2.25191E+00
 -1      4191 1.43463E+00
 -1      4192 2.47124E+00
 -1      4193 1.68812E+00
 -1      4194 1.22755E+00
 -1      4195 1.51284E-02
 -1      4196 1.46080E+00
 -1      4197 1.72708E+00
 -1      4198 1.83991E+00
 -1      4199 1.28094E+00
 -1      4200 2.02126E+00
 -1      4201 1.64066E+00
 -1      4202 7.80754E-01
 -1      4203 6.68161E-01
 -1      4204 5.70780E-01
 -1      4205 5.03046E-01
 -1      4206 4.33881E-01
 -1      4207 3.82943E-01
 -1      4208 3.32087E-01
 -1      4209 2.92586E-01
 -1      4210 2.54253E-01
 -1      4211 2.23089E-01
 -1      4212 1.93750E-01
 -1      4213 1.68997E-01
 -1      4214 1.46378E-01
 -1      4215 1.26731E-01
 -1      4216 1.09279E-01
 -1      4217 9.37736E-02
 -1      4218 8.03638E-02
 -1      4219 6.82395E-02
 -1      4220 5.80165E-02
 -1      4221 4.86453E-02
 -1      4222 4.12048E-02
 -1      4223 3.40587E-02
 -1      4224 2.85718E-02
 -1      4225 2.34375E-02
 -1      4226 1.95268E-02
 -1      4227 1.57603E-02
 -1      4228 7.34268E-01
 -1      4229 9.35633E-01
 -1      4230 9.63133E-01
 -1      4231 1.17407E+00
 -1      4232 1.26627E+00
 -1      4233 1.55244E+00
 -1      4234 1.77362E+00
 -1      4235 9.20096E-01
 -1      4236 1.51284E-02
 -1      4237 6.50574E-01
 -1      4238 1.35311E-02
 -1      4239 1.46080E+00
 -1      4240 1.28094E+00
 -1      4241 1.06396E+00
 -1      4242 7.99352E-01
 -1      4243 1.38010E+00
 -1      4244 5.98776E-01
 -1      4245 1.38010E+00
 -1      4246 1.24382E+00
 -1      4247 7.99352E-01
 -1      4248 7.51729E-01
 -1      4249 9.83256E-01
 -3
 9999
