    1C
    1UUSER                                                              
    1UDATE              26.october.2022                                 
    1UTIME              23:46:03                                        
    1UHOST                                                              
    1UPGM               CalculiX                                        
    1UVERSION           Version 2.17                             
    1UCOMPILETIME       Thu Jul 23 21:43:50 CEST 2020                    
    1UDIR                                                               
    1UDBN                                                               
    1UMAT    1SOLIDMATERIAL                                             
    2C                          4285                                     1
 -1         1 1.11812E+02 3.12836E+01 0.00000E+00
 -1         2 1.14683E+02 2.56306E+01 0.00000E+00
 -1         3 1.50000E+02 0.00000E+00 0.00000E+00
 -1         4 1.50000E+02 5.00000E+01 0.00000E+00
 -1         5 0.00000E+00 0.00000E+00 0.00000E+00
 -1         6 0.00000E+00 5.00000E+01 0.00000E+00
 -1         7 0.00000E+00 4.70500E+01 0.00000E+00
 -1         8 0.00000E+00 4.41000E+01 0.00000E+00
 -1         9 0.00000E+00 4.11500E+01 0.00000E+00
 -1        10 0.00000E+00 3.82000E+01 0.00000E+00
 -1        11 0.00000E+00 3.52500E+01 0.00000E+00
 -1        12 0.00000E+00 3.23500E+01 0.00000E+00
 -1        13 0.00000E+00 2.94000E+01 0.00000E+00
 -1        14 0.00000E+00 2.64500E+01 0.00000E+00
 -1        15 0.00000E+00 2.35000E+01 0.00000E+00
 -1        16 0.00000E+00 2.05500E+01 0.00000E+00
 -1        17 0.00000E+00 1.76000E+01 0.00000E+00
 -1        18 0.00000E+00 1.47000E+01 0.00000E+00
 -1        19 0.00000E+00 1.17500E+01 0.00000E+00
 -1        20 0.00000E+00 8.80000E+00 0.00000E+00
 -1        21 0.00000E+00 5.85000E+00 0.00000E+00
 -1        22 0.00000E+00 2.90000E+00 0.00000E+00
 -1        23 3.15000E+00 5.00000E+01 0.00000E+00
 -1        24 6.15000E+00 5.00000E+01 0.00000E+00
 -1        25 9.15000E+00 5.00000E+01 0.00000E+00
 -1        26 1.21500E+01 5.00000E+01 0.00000E+00
 -1        27 1.51500E+01 5.00000E+01 0.00000E+00
 -1        28 1.81500E+01 5.00000E+01 0.00000E+00
 -1        29 2.11500E+01 5.00000E+01 0.00000E+00
 -1        30 2.41500E+01 5.00000E+01 0.00000E+00
 -1        31 2.71500E+01 5.00000E+01 0.00000E+00
 -1        32 3.01500E+01 5.00000E+01 0.00000E+00
 -1        33 3.31500E+01 5.00000E+01 0.00000E+00
 -1        34 3.61500E+01 5.00000E+01 0.00000E+00
 -1        35 3.91500E+01 5.00000E+01 0.00000E+00
 -1        36 4.21500E+01 5.00000E+01 0.00000E+00
 -1        37 4.51500E+01 5.00000E+01 0.00000E+00
 -1        38 4.81500E+01 5.00000E+01 0.00000E+00
 -1        39 5.11500E+01 5.00000E+01 0.00000E+00
 -1        40 5.41500E+01 5.00000E+01 0.00000E+00
 -1        41 5.71500E+01 5.00000E+01 0.00000E+00
 -1        42 6.01500E+01 5.00000E+01 0.00000E+00
 -1        43 6.31500E+01 5.00000E+01 0.00000E+00
 -1        44 6.61500E+01 5.00000E+01 0.00000E+00
 -1        45 6.91500E+01 5.00000E+01 0.00000E+00
 -1        46 7.21500E+01 5.00000E+01 0.00000E+00
 -1        47 7.51500E+01 5.00000E+01 0.00000E+00
 -1        48 7.81500E+01 5.00000E+01 0.00000E+00
 -1        49 8.11500E+01 5.00000E+01 0.00000E+00
 -1        50 8.41500E+01 5.00000E+01 0.00000E+00
 -1        51 8.71500E+01 5.00000E+01 0.00000E+00
 -1        52 9.01500E+01 5.00000E+01 0.00000E+00
 -1        53 9.31500E+01 5.00000E+01 0.00000E+00
 -1        54 9.61500E+01 5.00000E+01 0.00000E+00
 -1        55 9.91500E+01 5.00000E+01 0.00000E+00
 -1        56 1.02150E+02 5.00000E+01 0.00000E+00
 -1        57 1.05150E+02 5.00000E+01 0.00000E+00
 -1        58 1.08150E+02 5.00000E+01 0.00000E+00
 -1        59 1.11150E+02 5.00000E+01 0.00000E+00
 -1        60 1.14150E+02 5.00000E+01 0.00000E+00
 -1        61 1.17150E+02 5.00000E+01 0.00000E+00
 -1        62 1.20150E+02 5.00000E+01 0.00000E+00
 -1        63 1.23150E+02 5.00000E+01 0.00000E+00
 -1        64 1.26150E+02 5.00000E+01 0.00000E+00
 -1        65 1.29150E+02 5.00000E+01 0.00000E+00
 -1        66 1.32150E+02 5.00000E+01 0.00000E+00
 -1        67 1.35150E+02 5.00000E+01 0.00000E+00
 -1        68 1.38150E+02 5.00000E+01 0.00000E+00
 -1        69 1.41150E+02 5.00000E+01 0.00000E+00
 -1        70 1.44150E+02 5.00000E+01 0.00000E+00
 -1        71 1.47150E+02 5.00000E+01 0.00000E+00
 -1        72 3.15000E+00 0.00000E+00 0.00000E+00
 -1        73 6.15000E+00 0.00000E+00 0.00000E+00
 -1        74 9.15000E+00 0.00000E+00 0.00000E+00
 -1        75 1.21500E+01 0.00000E+00 0.00000E+00
 -1        76 1.51500E+01 0.00000E+00 0.00000E+00
 -1        77 1.81500E+01 0.00000E+00 0.00000E+00
 -1        78 2.11500E+01 0.00000E+00 0.00000E+00
 -1        79 2.41500E+01 0.00000E+00 0.00000E+00
 -1        80 2.71500E+01 0.00000E+00 0.00000E+00
 -1        81 3.01500E+01 0.00000E+00 0.00000E+00
 -1        82 3.31500E+01 0.00000E+00 0.00000E+00
 -1        83 3.61500E+01 0.00000E+00 0.00000E+00
 -1        84 3.91500E+01 0.00000E+00 0.00000E+00
 -1        85 4.21500E+01 0.00000E+00 0.00000E+00
 -1        86 4.51500E+01 0.00000E+00 0.00000E+00
 -1        87 4.81500E+01 0.00000E+00 0.00000E+00
 -1        88 5.11500E+01 0.00000E+00 0.00000E+00
 -1        89 5.41500E+01 0.00000E+00 0.00000E+00
 -1        90 5.71500E+01 0.00000E+00 0.00000E+00
 -1        91 6.01500E+01 0.00000E+00 0.00000E+00
 -1        92 6.31500E+01 0.00000E+00 0.00000E+00
 -1        93 6.61500E+01 0.00000E+00 0.00000E+00
 -1        94 6.91500E+01 0.00000E+00 0.00000E+00
 -1        95 7.21500E+01 0.00000E+00 0.00000E+00
 -1        96 7.51500E+01 0.00000E+00 0.00000E+00
 -1        97 7.81500E+01 0.00000E+00 0.00000E+00
 -1        98 8.11500E+01 0.00000E+00 0.00000E+00
 -1        99 8.41500E+01 0.00000E+00 0.00000E+00
 -1       100 8.71500E+01 0.00000E+00 0.00000E+00
 -1       101 9.01500E+01 0.00000E+00 0.00000E+00
 -1       102 9.31500E+01 0.00000E+00 0.00000E+00
 -1       103 9.61500E+01 0.00000E+00 0.00000E+00
 -1       104 9.91500E+01 0.00000E+00 0.00000E+00
 -1       105 1.02150E+02 0.00000E+00 0.00000E+00
 -1       106 1.05150E+02 0.00000E+00 0.00000E+00
 -1       107 1.08150E+02 0.00000E+00 0.00000E+00
 -1       108 1.11150E+02 0.00000E+00 0.00000E+00
 -1       109 1.14150E+02 0.00000E+00 0.00000E+00
 -1       110 1.17150E+02 0.00000E+00 0.00000E+00
 -1       111 1.20150E+02 0.00000E+00 0.00000E+00
 -1       112 1.23150E+02 0.00000E+00 0.00000E+00
 -1       113 1.26150E+02 0.00000E+00 0.00000E+00
 -1       114 1.29150E+02 0.00000E+00 0.00000E+00
 -1       115 1.32150E+02 0.00000E+00 0.00000E+00
 -1       116 1.35150E+02 0.00000E+00 0.00000E+00
 -1       117 1.38150E+02 0.00000E+00 0.00000E+00
 -1       118 1.41150E+02 0.00000E+00 0.00000E+00
 -1       119 1.44150E+02 0.00000E+00 0.00000E+00
 -1       120 1.47150E+02 0.00000E+00 0.00000E+00
 -1       121 1.50000E+02 2.95000E+00 0.00000E+00
 -1       122 1.50000E+02 5.90000E+00 0.00000E+00
 -1       123 1.50000E+02 8.85000E+00 0.00000E+00
 -1       124 1.50000E+02 1.18000E+01 0.00000E+00
 -1       125 1.50000E+02 1.47500E+01 0.00000E+00
 -1       126 1.50000E+02 1.76500E+01 0.00000E+00
 -1       127 1.50000E+02 2.06000E+01 0.00000E+00
 -1       128 1.50000E+02 2.35500E+01 0.00000E+00
 -1       129 1.50000E+02 2.65000E+01 0.00000E+00
 -1       130 1.50000E+02 2.94500E+01 0.00000E+00
 -1       131 1.50000E+02 3.24000E+01 0.00000E+00
 -1       132 1.50000E+02 3.53000E+01 0.00000E+00
 -1       133 1.50000E+02 3.82500E+01 0.00000E+00
 -1       134 1.50000E+02 4.12000E+01 0.00000E+00
 -1       135 1.50000E+02 4.41500E+01 0.00000E+00
 -1       136 1.50000E+02 4.71000E+01 0.00000E+00
 -1       137 1.14531E+02 2.41765E+01 0.00000E+00
 -1       138 1.14093E+02 2.28171E+01 0.00000E+00
 -1       139 1.13374E+02 2.15540E+01 0.00000E+00
 -1       140 1.12425E+02 2.04811E+01 0.00000E+00
 -1       141 1.11117E+02 1.95307E+01 0.00000E+00
 -1       142 1.09705E+02 1.89287E+01 0.00000E+00
 -1       143 1.08242E+02 1.86528E+01 0.00000E+00
 -1       144 1.06598E+02 1.87152E+01 0.00000E+00
 -1       145 1.05064E+02 1.91393E+01 0.00000E+00
 -1       146 1.03714E+02 1.98649E+01 0.00000E+00
 -1       147 1.02628E+02 2.07886E+01 0.00000E+00
 -1       148 1.01744E+02 2.19258E+01 0.00000E+00
 -1       149 1.01103E+02 2.32438E+01 0.00000E+00
 -1       150 1.00757E+02 2.46168E+01 0.00000E+00
 -1       151 1.00698E+02 2.60744E+01 0.00000E+00
 -1       152 1.00971E+02 2.76153E+01 0.00000E+00
 -1       153 1.01523E+02 2.89537E+01 0.00000E+00
 -1       154 1.02433E+02 3.02596E+01 0.00000E+00
 -1       155 1.03556E+02 3.12839E+01 0.00000E+00
 -1       156 1.04833E+02 3.20240E+01 0.00000E+00
 -1       157 1.06209E+02 3.24734E+01 0.00000E+00
 -1       158 1.07662E+02 3.26305E+01 0.00000E+00
 -1       159 1.09159E+02 3.24733E+01 0.00000E+00
 -1       160 1.10534E+02 3.20238E+01 0.00000E+00
 -1       161 1.13060E+02 3.01135E+01 0.00000E+00
 -1       162 1.13951E+02 2.87479E+01 0.00000E+00
 -1       163 1.14508E+02 2.71870E+01 0.00000E+00
 -1       164 2.59800E+00 4.55750E+01 0.00000E+00
 -1       165 2.59800E+00 4.26250E+01 0.00000E+00
 -1       166 2.59800E+00 3.96750E+01 0.00000E+00
 -1       167 2.59800E+00 3.67250E+01 0.00000E+00
 -1       168 2.59800E+00 3.38250E+01 0.00000E+00
 -1       169 2.59800E+00 3.08750E+01 0.00000E+00
 -1       170 2.59800E+00 2.79250E+01 0.00000E+00
 -1       171 2.59800E+00 2.49750E+01 0.00000E+00
 -1       172 2.59800E+00 2.20250E+01 0.00000E+00
 -1       173 2.59800E+00 1.90750E+01 0.00000E+00
 -1       174 2.59800E+00 1.61750E+01 0.00000E+00
 -1       175 2.59800E+00 1.32250E+01 0.00000E+00
 -1       176 2.59800E+00 1.02750E+01 0.00000E+00
 -1       177 2.59800E+00 7.32500E+00 0.00000E+00
 -1       178 2.59800E+00 4.37500E+00 0.00000E+00
 -1       179 2.87400E+00 2.18750E+00 0.00000E+00
 -1       180 4.65000E+00 4.74020E+01 0.00000E+00
 -1       181 7.65000E+00 4.74020E+01 0.00000E+00
 -1       182 1.06500E+01 4.74020E+01 0.00000E+00
 -1       183 1.36500E+01 4.74020E+01 0.00000E+00
 -1       184 1.66500E+01 4.74020E+01 0.00000E+00
 -1       185 1.96500E+01 4.74020E+01 0.00000E+00
 -1       186 2.26500E+01 4.74020E+01 0.00000E+00
 -1       187 2.56500E+01 4.74020E+01 0.00000E+00
 -1       188 2.86500E+01 4.74020E+01 0.00000E+00
 -1       189 3.16500E+01 4.74020E+01 0.00000E+00
 -1       190 3.46500E+01 4.74020E+01 0.00000E+00
 -1       191 3.76500E+01 4.74020E+01 0.00000E+00
 -1       192 4.06500E+01 4.74020E+01 0.00000E+00
 -1       193 4.36500E+01 4.74020E+01 0.00000E+00
 -1       194 4.66500E+01 4.74020E+01 0.00000E+00
 -1       195 4.96500E+01 4.74020E+01 0.00000E+00
 -1       196 5.26500E+01 4.74020E+01 0.00000E+00
 -1       197 5.56500E+01 4.74020E+01 0.00000E+00
 -1       198 5.86500E+01 4.74020E+01 0.00000E+00
 -1       199 6.16500E+01 4.74020E+01 0.00000E+00
 -1       200 6.46500E+01 4.74020E+01 0.00000E+00
 -1       201 6.76500E+01 4.74020E+01 0.00000E+00
 -1       202 7.06500E+01 4.74020E+01 0.00000E+00
 -1       203 7.36500E+01 4.74020E+01 0.00000E+00
 -1       204 7.66500E+01 4.74020E+01 0.00000E+00
 -1       205 7.96500E+01 4.74020E+01 0.00000E+00
 -1       206 8.26500E+01 4.74020E+01 0.00000E+00
 -1       207 8.56500E+01 4.74020E+01 0.00000E+00
 -1       208 8.86500E+01 4.74020E+01 0.00000E+00
 -1       209 9.16500E+01 4.74020E+01 0.00000E+00
 -1       210 9.46500E+01 4.74020E+01 0.00000E+00
 -1       211 9.76500E+01 4.74020E+01 0.00000E+00
 -1       212 1.00650E+02 4.74020E+01 0.00000E+00
 -1       213 1.03650E+02 4.74020E+01 0.00000E+00
 -1       214 1.06650E+02 4.74020E+01 0.00000E+00
 -1       215 1.09650E+02 4.74020E+01 0.00000E+00
 -1       216 1.12650E+02 4.74020E+01 0.00000E+00
 -1       217 1.15650E+02 4.74020E+01 0.00000E+00
 -1       218 1.18650E+02 4.74020E+01 0.00000E+00
 -1       219 1.21650E+02 4.74020E+01 0.00000E+00
 -1       220 1.24650E+02 4.74020E+01 0.00000E+00
 -1       221 1.27650E+02 4.74020E+01 0.00000E+00
 -1       222 1.30650E+02 4.74020E+01 0.00000E+00
 -1       223 1.33650E+02 4.74020E+01 0.00000E+00
 -1       224 1.36650E+02 4.74020E+01 0.00000E+00
 -1       225 1.39650E+02 4.74020E+01 0.00000E+00
 -1       226 1.42650E+02 4.74020E+01 0.00000E+00
 -1       227 1.45650E+02 4.74020E+01 0.00000E+00
 -1       228 5.87400E+00 2.18750E+00 0.00000E+00
 -1       229 8.87400E+00 2.18750E+00 0.00000E+00
 -1       230 1.18740E+01 2.18750E+00 0.00000E+00
 -1       231 1.48740E+01 2.18750E+00 0.00000E+00
 -1       232 1.78740E+01 2.18750E+00 0.00000E+00
 -1       233 2.08740E+01 2.18750E+00 0.00000E+00
 -1       234 2.38740E+01 2.18750E+00 0.00000E+00
 -1       235 2.68740E+01 2.18750E+00 0.00000E+00
 -1       236 2.98740E+01 2.18750E+00 0.00000E+00
 -1       237 3.28740E+01 2.18750E+00 0.00000E+00
 -1       238 3.58740E+01 2.18750E+00 0.00000E+00
 -1       239 3.88740E+01 2.18750E+00 0.00000E+00
 -1       240 4.18740E+01 2.18750E+00 0.00000E+00
 -1       241 4.48740E+01 2.18750E+00 0.00000E+00
 -1       242 4.78740E+01 2.18750E+00 0.00000E+00
 -1       243 5.08740E+01 2.18750E+00 0.00000E+00
 -1       244 5.38740E+01 2.18750E+00 0.00000E+00
 -1       245 5.68740E+01 2.18750E+00 0.00000E+00
 -1       246 5.98740E+01 2.18750E+00 0.00000E+00
 -1       247 6.28740E+01 2.18750E+00 0.00000E+00
 -1       248 6.58740E+01 2.18750E+00 0.00000E+00
 -1       249 6.88740E+01 2.18750E+00 0.00000E+00
 -1       250 7.18740E+01 2.18750E+00 0.00000E+00
 -1       251 7.48740E+01 2.18750E+00 0.00000E+00
 -1       252 7.78740E+01 2.18750E+00 0.00000E+00
 -1       253 8.08740E+01 2.18750E+00 0.00000E+00
 -1       254 8.38740E+01 2.18750E+00 0.00000E+00
 -1       255 8.68740E+01 2.18750E+00 0.00000E+00
 -1       256 8.98740E+01 2.18750E+00 0.00000E+00
 -1       257 9.28740E+01 2.18750E+00 0.00000E+00
 -1       258 9.58740E+01 2.18750E+00 0.00000E+00
 -1       259 9.88740E+01 2.18750E+00 0.00000E+00
 -1       260 1.01874E+02 2.18750E+00 0.00000E+00
 -1       261 1.04874E+02 2.18750E+00 0.00000E+00
 -1       262 1.07874E+02 2.18750E+00 0.00000E+00
 -1       263 1.10874E+02 2.18750E+00 0.00000E+00
 -1       264 1.13874E+02 2.18750E+00 0.00000E+00
 -1       265 1.16874E+02 2.18750E+00 0.00000E+00
 -1       266 1.19874E+02 2.18750E+00 0.00000E+00
 -1       267 1.22874E+02 2.18750E+00 0.00000E+00
 -1       268 1.25874E+02 2.18750E+00 0.00000E+00
 -1       269 1.28874E+02 2.18750E+00 0.00000E+00
 -1       270 1.31874E+02 2.18750E+00 0.00000E+00
 -1       271 1.34874E+02 2.18750E+00 0.00000E+00
 -1       272 1.37874E+02 2.18750E+00 0.00000E+00
 -1       273 1.40874E+02 2.18750E+00 0.00000E+00
 -1       274 1.43874E+02 2.18750E+00 0.00000E+00
 -1       275 1.46874E+02 2.18750E+00 0.00000E+00
 -1       276 1.47402E+02 4.42500E+00 0.00000E+00
 -1       277 1.47402E+02 7.37500E+00 0.00000E+00
 -1       278 1.47402E+02 1.03250E+01 0.00000E+00
 -1       279 1.47402E+02 1.32750E+01 0.00000E+00
 -1       280 1.47402E+02 1.61750E+01 0.00000E+00
 -1       281 1.47402E+02 1.91250E+01 0.00000E+00
 -1       282 1.47402E+02 2.20750E+01 0.00000E+00
 -1       283 1.47402E+02 2.50250E+01 0.00000E+00
 -1       284 1.47402E+02 2.79750E+01 0.00000E+00
 -1       285 1.47402E+02 3.09250E+01 0.00000E+00
 -1       286 1.47402E+02 3.38250E+01 0.00000E+00
 -1       287 1.47402E+02 3.67750E+01 0.00000E+00
 -1       288 1.47402E+02 3.97250E+01 0.00000E+00
 -1       289 1.47402E+02 4.26750E+01 0.00000E+00
 -1       290 1.46526E+02 4.50385E+01 0.00000E+00
 -1       291 1.15896E+02 2.47682E+01 0.00000E+00
 -1       292 1.15705E+02 2.30483E+01 0.00000E+00
 -1       293 1.14860E+02 2.15441E+01 0.00000E+00
 -1       294 1.13808E+02 2.02144E+01 0.00000E+00
 -1       295 1.12583E+02 1.88896E+01 0.00000E+00
 -1       296 1.10886E+02 1.81143E+01 0.00000E+00
 -1       297 1.09213E+02 1.75170E+01 0.00000E+00
 -1       298 1.07364E+02 1.72213E+01 0.00000E+00
 -1       299 1.05419E+02 1.74356E+01 0.00000E+00
 -1       300 1.03735E+02 1.82866E+01 0.00000E+00
 -1       301 1.02331E+02 1.93395E+01 0.00000E+00
 -1       302 1.01163E+02 2.05617E+01 0.00000E+00
 -1       303 1.00333E+02 2.20544E+01 0.00000E+00
 -1       304 9.97544E+01 2.36343E+01 0.00000E+00
 -1       305 9.95160E+01 2.52960E+01 0.00000E+00
 -1       306 9.95579E+01 2.70711E+01 0.00000E+00
 -1       307 1.00048E+02 2.87786E+01 0.00000E+00
 -1       308 1.00777E+02 3.04435E+01 0.00000E+00
 -1       309 1.02121E+02 3.17295E+01 0.00000E+00
 -1       310 1.03587E+02 3.27031E+01 0.00000E+00
 -1       311 1.05118E+02 3.34808E+01 0.00000E+00
 -1       312 1.06796E+02 3.38407E+01 0.00000E+00
 -1       313 1.08555E+02 3.39243E+01 0.00000E+00
 -1       314 1.10223E+02 3.34009E+01 0.00000E+00
 -1       315 1.11823E+02 3.27753E+01 0.00000E+00
 -1       316 1.13380E+02 3.17052E+01 0.00000E+00
 -1       317 1.14591E+02 3.01392E+01 0.00000E+00
 -1       318 1.15450E+02 2.84033E+01 0.00000E+00
 -1       319 1.15801E+02 2.65444E+01 0.00000E+00
 -1       320 5.19600E+00 4.11500E+01 0.00000E+00
 -1       321 5.19600E+00 4.41000E+01 0.00000E+00
 -1       322 5.19600E+00 3.52750E+01 0.00000E+00
 -1       323 5.19600E+00 3.23250E+01 0.00000E+00
 -1       324 5.19600E+00 2.93750E+01 0.00000E+00
 -1       325 5.19600E+00 2.64250E+01 0.00000E+00
 -1       326 5.19600E+00 2.34750E+01 0.00000E+00
 -1       327 5.19600E+00 2.05250E+01 0.00000E+00
 -1       328 5.19600E+00 1.76250E+01 0.00000E+00
 -1       329 5.19600E+00 1.46750E+01 0.00000E+00
 -1       330 5.19600E+00 1.17250E+01 0.00000E+00
 -1       331 5.19600E+00 8.77500E+00 0.00000E+00
 -1       332 5.19600E+00 5.82500E+00 0.00000E+00
 -1       333 5.53500E+00 4.00625E+00 0.00000E+00
 -1       334 8.53500E+00 4.00625E+00 0.00000E+00
 -1       335 9.15000E+00 4.48040E+01 0.00000E+00
 -1       336 1.21500E+01 4.48040E+01 0.00000E+00
 -1       337 1.51500E+01 4.48040E+01 0.00000E+00
 -1       338 1.81500E+01 4.48040E+01 0.00000E+00
 -1       339 2.11500E+01 4.48040E+01 0.00000E+00
 -1       340 2.41500E+01 4.48040E+01 0.00000E+00
 -1       341 2.71500E+01 4.48040E+01 0.00000E+00
 -1       342 3.01500E+01 4.48040E+01 0.00000E+00
 -1       343 3.31500E+01 4.48040E+01 0.00000E+00
 -1       344 3.61500E+01 4.48040E+01 0.00000E+00
 -1       345 3.91500E+01 4.48040E+01 0.00000E+00
 -1       346 4.21500E+01 4.48040E+01 0.00000E+00
 -1       347 4.51500E+01 4.48040E+01 0.00000E+00
 -1       348 4.81500E+01 4.48040E+01 0.00000E+00
 -1       349 5.11500E+01 4.48040E+01 0.00000E+00
 -1       350 5.41500E+01 4.48040E+01 0.00000E+00
 -1       351 5.71500E+01 4.48040E+01 0.00000E+00
 -1       352 6.01500E+01 4.48040E+01 0.00000E+00
 -1       353 6.31500E+01 4.48040E+01 0.00000E+00
 -1       354 6.61500E+01 4.48040E+01 0.00000E+00
 -1       355 6.91500E+01 4.48040E+01 0.00000E+00
 -1       356 7.21500E+01 4.48040E+01 0.00000E+00
 -1       357 7.51500E+01 4.48040E+01 0.00000E+00
 -1       358 7.81500E+01 4.48040E+01 0.00000E+00
 -1       359 8.11500E+01 4.48040E+01 0.00000E+00
 -1       360 8.41500E+01 4.48040E+01 0.00000E+00
 -1       361 8.71500E+01 4.48040E+01 0.00000E+00
 -1       362 9.01500E+01 4.48040E+01 0.00000E+00
 -1       363 9.31500E+01 4.48040E+01 0.00000E+00
 -1       364 9.61500E+01 4.48040E+01 0.00000E+00
 -1       365 9.91500E+01 4.48040E+01 0.00000E+00
 -1       366 1.02150E+02 4.48040E+01 0.00000E+00
 -1       367 1.05150E+02 4.48040E+01 0.00000E+00
 -1       368 1.08150E+02 4.48040E+01 0.00000E+00
 -1       369 1.11150E+02 4.48040E+01 0.00000E+00
 -1       370 1.14150E+02 4.48040E+01 0.00000E+00
 -1       371 1.17150E+02 4.48040E+01 0.00000E+00
 -1       372 1.20150E+02 4.48040E+01 0.00000E+00
 -1       373 1.23150E+02 4.48040E+01 0.00000E+00
 -1       374 1.26150E+02 4.48040E+01 0.00000E+00
 -1       375 1.29150E+02 4.48040E+01 0.00000E+00
 -1       376 1.32150E+02 4.48040E+01 0.00000E+00
 -1       377 1.35150E+02 4.48040E+01 0.00000E+00
 -1       378 1.38150E+02 4.48040E+01 0.00000E+00
 -1       379 1.41150E+02 4.48040E+01 0.00000E+00
 -1       380 1.43838E+02 4.49212E+01 0.00000E+00
 -1       381 1.15350E+01 4.00625E+00 0.00000E+00
 -1       382 1.45350E+01 4.00625E+00 0.00000E+00
 -1       383 1.75350E+01 4.00625E+00 0.00000E+00
 -1       384 2.05350E+01 4.00625E+00 0.00000E+00
 -1       385 2.35350E+01 4.00625E+00 0.00000E+00
 -1       386 2.65350E+01 4.00625E+00 0.00000E+00
 -1       387 2.95350E+01 4.00625E+00 0.00000E+00
 -1       388 3.25350E+01 4.00625E+00 0.00000E+00
 -1       389 3.55350E+01 4.00625E+00 0.00000E+00
 -1       390 3.85350E+01 4.00625E+00 0.00000E+00
 -1       391 4.15350E+01 4.00625E+00 0.00000E+00
 -1       392 4.45350E+01 4.00625E+00 0.00000E+00
 -1       393 4.75350E+01 4.00625E+00 0.00000E+00
 -1       394 5.05350E+01 4.00625E+00 0.00000E+00
 -1       395 5.35350E+01 4.00625E+00 0.00000E+00
 -1       396 5.65350E+01 4.00625E+00 0.00000E+00
 -1       397 5.95350E+01 4.00625E+00 0.00000E+00
 -1       398 6.25350E+01 4.00625E+00 0.00000E+00
 -1       399 6.55350E+01 4.00625E+00 0.00000E+00
 -1       400 6.85350E+01 4.00625E+00 0.00000E+00
 -1       401 7.15350E+01 4.00625E+00 0.00000E+00
 -1       402 7.45350E+01 4.00625E+00 0.00000E+00
 -1       403 7.75350E+01 4.00625E+00 0.00000E+00
 -1       404 8.05350E+01 4.00625E+00 0.00000E+00
 -1       405 8.35350E+01 4.00625E+00 0.00000E+00
 -1       406 8.65350E+01 4.00625E+00 0.00000E+00
 -1       407 8.95350E+01 4.00625E+00 0.00000E+00
 -1       408 9.25350E+01 4.00625E+00 0.00000E+00
 -1       409 9.55350E+01 4.00625E+00 0.00000E+00
 -1       410 9.85350E+01 4.00625E+00 0.00000E+00
 -1       411 1.01535E+02 4.00625E+00 0.00000E+00
 -1       412 1.04535E+02 4.00625E+00 0.00000E+00
 -1       413 1.07535E+02 4.00625E+00 0.00000E+00
 -1       414 1.10535E+02 4.00625E+00 0.00000E+00
 -1       415 1.13535E+02 4.00625E+00 0.00000E+00
 -1       416 1.16535E+02 4.00625E+00 0.00000E+00
 -1       417 1.19535E+02 4.00625E+00 0.00000E+00
 -1       418 1.22535E+02 4.00625E+00 0.00000E+00
 -1       419 1.25535E+02 4.00625E+00 0.00000E+00
 -1       420 1.28535E+02 4.00625E+00 0.00000E+00
 -1       421 1.31535E+02 4.00625E+00 0.00000E+00
 -1       422 1.34535E+02 4.00625E+00 0.00000E+00
 -1       423 1.37535E+02 4.00625E+00 0.00000E+00
 -1       424 1.40535E+02 4.00625E+00 0.00000E+00
 -1       425 1.43535E+02 4.00625E+00 0.00000E+00
 -1       426 1.45469E+02 4.21562E+00 0.00000E+00
 -1       427 1.44804E+02 1.18000E+01 0.00000E+00
 -1       428 1.44804E+02 8.85000E+00 0.00000E+00
 -1       429 1.45136E+02 6.53281E+00 0.00000E+00
 -1       430 1.44804E+02 1.47000E+01 0.00000E+00
 -1       431 1.44804E+02 1.76500E+01 0.00000E+00
 -1       432 1.44804E+02 2.06000E+01 0.00000E+00
 -1       433 1.44804E+02 2.35500E+01 0.00000E+00
 -1       434 1.44804E+02 2.65000E+01 0.00000E+00
 -1       435 1.44804E+02 2.94500E+01 0.00000E+00
 -1       436 1.44804E+02 3.23500E+01 0.00000E+00
 -1       437 1.44804E+02 3.53000E+01 0.00000E+00
 -1       438 1.44804E+02 3.82500E+01 0.00000E+00
 -1       439 1.44804E+02 4.12000E+01 0.00000E+00
 -1       440 1.16413E+02 2.16611E+01 0.00000E+00
 -1       441 1.17143E+02 2.57260E+01 0.00000E+00
 -1       442 1.17256E+02 2.37467E+01 0.00000E+00
 -1       443 1.15679E+02 1.98150E+01 0.00000E+00
 -1       444 1.14454E+02 1.84902E+01 0.00000E+00
 -1       445 5.19600E+00 3.82125E+01 0.00000E+00
 -1       446 1.10542E+02 1.64372E+01 0.00000E+00
 -1       447 1.08560E+02 1.56756E+01 0.00000E+00
 -1       448 1.06204E+02 1.56237E+01 0.00000E+00
 -1       449 1.03954E+02 1.66296E+01 0.00000E+00
 -1       450 1.02205E+02 1.77090E+01 0.00000E+00
 -1       451 1.00628E+02 1.88813E+01 0.00000E+00
 -1       452 9.94686E+01 2.05970E+01 0.00000E+00
 -1       453 9.85908E+01 2.23119E+01 0.00000E+00
 -1       454 9.82692E+01 2.42692E+01 0.00000E+00
 -1       455 9.79061E+01 2.62220E+01 0.00000E+00
 -1       456 9.84767E+01 2.83058E+01 0.00000E+00
 -1       457 9.89179E+01 3.02648E+01 0.00000E+00
 -1       458 1.00495E+02 3.20836E+01 0.00000E+00
 -1       459 1.01905E+02 3.36450E+01 0.00000E+00
 -1       460 1.03436E+02 3.44228E+01 0.00000E+00
 -1       461 1.05650E+02 3.50919E+01 0.00000E+00
 -1       462 1.07602E+02 3.54283E+01 0.00000E+00
 -1       463 1.09802E+02 3.49793E+01 0.00000E+00
 -1       464 1.11401E+02 3.43537E+01 0.00000E+00
 -1       465 1.13383E+02 3.33775E+01 0.00000E+00
 -1       466 1.15276E+02 3.19202E+01 0.00000E+00
 -1       467 1.16257E+02 2.98836E+01 0.00000E+00
 -1       468 1.17229E+02 2.77759E+01 0.00000E+00
 -1       469 1.12238E+02 1.72124E+01 0.00000E+00
 -1       470 1.00350E+01 6.60425E+00 0.00000E+00
 -1       471 7.79400E+00 3.08500E+01 0.00000E+00
 -1       472 7.79400E+00 3.38000E+01 0.00000E+00
 -1       473 7.79400E+00 2.49500E+01 0.00000E+00
 -1       474 7.79400E+00 2.20000E+01 0.00000E+00
 -1       475 7.79400E+00 1.91000E+01 0.00000E+00
 -1       476 7.79400E+00 1.61500E+01 0.00000E+00
 -1       477 7.79400E+00 1.32000E+01 0.00000E+00
 -1       478 7.79400E+00 1.02500E+01 0.00000E+00
 -1       479 1.30350E+01 6.60425E+00 0.00000E+00
 -1       480 1.06500E+01 4.22060E+01 0.00000E+00
 -1       481 1.14203E+02 1.63656E+01 0.00000E+00
 -1       482 1.18580E+02 2.19984E+01 0.00000E+00
 -1       483 1.36500E+01 4.22060E+01 0.00000E+00
 -1       484 1.66500E+01 4.22060E+01 0.00000E+00
 -1       485 1.96500E+01 4.22060E+01 0.00000E+00
 -1       486 2.26500E+01 4.22060E+01 0.00000E+00
 -1       487 2.56500E+01 4.22060E+01 0.00000E+00
 -1       488 2.86500E+01 4.22060E+01 0.00000E+00
 -1       489 3.16500E+01 4.22060E+01 0.00000E+00
 -1       490 3.46500E+01 4.22060E+01 0.00000E+00
 -1       491 3.76500E+01 4.22060E+01 0.00000E+00
 -1       492 4.06500E+01 4.22060E+01 0.00000E+00
 -1       493 4.36500E+01 4.22060E+01 0.00000E+00
 -1       494 4.66500E+01 4.22060E+01 0.00000E+00
 -1       495 4.96500E+01 4.22060E+01 0.00000E+00
 -1       496 5.26500E+01 4.22060E+01 0.00000E+00
 -1       497 5.56500E+01 4.22060E+01 0.00000E+00
 -1       498 5.86500E+01 4.22060E+01 0.00000E+00
 -1       499 6.16500E+01 4.22060E+01 0.00000E+00
 -1       500 6.46500E+01 4.22060E+01 0.00000E+00
 -1       501 6.76500E+01 4.22060E+01 0.00000E+00
 -1       502 7.06500E+01 4.22060E+01 0.00000E+00
 -1       503 7.36500E+01 4.22060E+01 0.00000E+00
 -1       504 7.66500E+01 4.22060E+01 0.00000E+00
 -1       505 7.96500E+01 4.22060E+01 0.00000E+00
 -1       506 8.26500E+01 4.22060E+01 0.00000E+00
 -1       507 8.56500E+01 4.22060E+01 0.00000E+00
 -1       508 8.86500E+01 4.22060E+01 0.00000E+00
 -1       509 9.16500E+01 4.22060E+01 0.00000E+00
 -1       510 9.46500E+01 4.22060E+01 0.00000E+00
 -1       511 9.76500E+01 4.22060E+01 0.00000E+00
 -1       512 1.00650E+02 4.22060E+01 0.00000E+00
 -1       513 1.03650E+02 4.22060E+01 0.00000E+00
 -1       514 1.06650E+02 4.22060E+01 0.00000E+00
 -1       515 1.09650E+02 4.22060E+01 0.00000E+00
 -1       516 1.12650E+02 4.22060E+01 0.00000E+00
 -1       517 1.15650E+02 4.22060E+01 0.00000E+00
 -1       518 1.18650E+02 4.22060E+01 0.00000E+00
 -1       519 1.21650E+02 4.22060E+01 0.00000E+00
 -1       520 1.24650E+02 4.22060E+01 0.00000E+00
 -1       521 1.27650E+02 4.22060E+01 0.00000E+00
 -1       522 1.30650E+02 4.22060E+01 0.00000E+00
 -1       523 1.33650E+02 4.22060E+01 0.00000E+00
 -1       524 1.36650E+02 4.22060E+01 0.00000E+00
 -1       525 1.39650E+02 4.22060E+01 0.00000E+00
 -1       526 1.90350E+01 6.60425E+00 0.00000E+00
 -1       527 2.20350E+01 6.60425E+00 0.00000E+00
 -1       528 2.50350E+01 6.60425E+00 0.00000E+00
 -1       529 2.80350E+01 6.60425E+00 0.00000E+00
 -1       530 3.10350E+01 6.60425E+00 0.00000E+00
 -1       531 3.40350E+01 6.60425E+00 0.00000E+00
 -1       532 3.70350E+01 6.60425E+00 0.00000E+00
 -1       533 4.00350E+01 6.60425E+00 0.00000E+00
 -1       534 4.30350E+01 6.60425E+00 0.00000E+00
 -1       535 4.60350E+01 6.60425E+00 0.00000E+00
 -1       536 4.90350E+01 6.60425E+00 0.00000E+00
 -1       537 5.20350E+01 6.60425E+00 0.00000E+00
 -1       538 5.50350E+01 6.60425E+00 0.00000E+00
 -1       539 5.80350E+01 6.60425E+00 0.00000E+00
 -1       540 6.10350E+01 6.60425E+00 0.00000E+00
 -1       541 6.40350E+01 6.60425E+00 0.00000E+00
 -1       542 6.70350E+01 6.60425E+00 0.00000E+00
 -1       543 7.00350E+01 6.60425E+00 0.00000E+00
 -1       544 7.30350E+01 6.60425E+00 0.00000E+00
 -1       545 7.60350E+01 6.60425E+00 0.00000E+00
 -1       546 7.90350E+01 6.60425E+00 0.00000E+00
 -1       547 8.20350E+01 6.60425E+00 0.00000E+00
 -1       548 8.50350E+01 6.60425E+00 0.00000E+00
 -1       549 8.80350E+01 6.60425E+00 0.00000E+00
 -1       550 9.10350E+01 6.60425E+00 0.00000E+00
 -1       551 9.40350E+01 6.60425E+00 0.00000E+00
 -1       552 9.70350E+01 6.60425E+00 0.00000E+00
 -1       553 1.00035E+02 6.60425E+00 0.00000E+00
 -1       554 1.03035E+02 6.60425E+00 0.00000E+00
 -1       555 1.06035E+02 6.60425E+00 0.00000E+00
 -1       556 1.09035E+02 6.60425E+00 0.00000E+00
 -1       557 1.12035E+02 6.60425E+00 0.00000E+00
 -1       558 1.15035E+02 6.60425E+00 0.00000E+00
 -1       559 1.18035E+02 6.60425E+00 0.00000E+00
 -1       560 1.21035E+02 6.60425E+00 0.00000E+00
 -1       561 1.24035E+02 6.60425E+00 0.00000E+00
 -1       562 1.27035E+02 6.60425E+00 0.00000E+00
 -1       563 1.30035E+02 6.60425E+00 0.00000E+00
 -1       564 1.33035E+02 6.60425E+00 0.00000E+00
 -1       565 1.36035E+02 6.60425E+00 0.00000E+00
 -1       566 1.39035E+02 6.60425E+00 0.00000E+00
 -1       567 1.42035E+02 6.60425E+00 0.00000E+00
 -1       568 1.42206E+02 1.61750E+01 0.00000E+00
 -1       569 1.42206E+02 1.91250E+01 0.00000E+00
 -1       570 1.42206E+02 1.03250E+01 0.00000E+00
 -1       571 1.42206E+02 1.32500E+01 0.00000E+00
 -1       572 1.42206E+02 2.20750E+01 0.00000E+00
 -1       573 1.42206E+02 2.50250E+01 0.00000E+00
 -1       574 1.42206E+02 2.79750E+01 0.00000E+00
 -1       575 1.42206E+02 3.08750E+01 0.00000E+00
 -1       576 1.42206E+02 3.38250E+01 0.00000E+00
 -1       577 1.42206E+02 3.67750E+01 0.00000E+00
 -1       578 1.42206E+02 3.97250E+01 0.00000E+00
 -1       579 1.18912E+02 2.48340E+01 0.00000E+00
 -1       580 1.17846E+02 2.01523E+01 0.00000E+00
 -1       581 1.60350E+01 6.60425E+00 0.00000E+00
 -1       582 1.18997E+02 2.68840E+01 0.00000E+00
 -1       583 1.16448E+02 1.78743E+01 0.00000E+00
 -1       584 1.12173E+02 1.51125E+01 0.00000E+00
 -1       585 1.18453E+02 2.96178E+01 0.00000E+00
 -1       586 1.09011E+02 3.67201E+01 0.00000E+00
 -1       587 1.00113E+02 3.38454E+01 0.00000E+00
 -1       588 7.79400E+00 2.79000E+01 0.00000E+00
 -1       589 1.07423E+02 1.37674E+01 0.00000E+00
 -1       590 1.06278E+02 3.72805E+01 0.00000E+00
 -1       591 1.10190E+02 1.43509E+01 0.00000E+00
 -1       592 1.04413E+02 1.46374E+01 0.00000E+00
 -1       593 1.02267E+02 1.58524E+01 0.00000E+00
 -1       594 1.00394E+02 1.69186E+01 0.00000E+00
 -1       595 9.88358E+01 1.89195E+01 0.00000E+00
 -1       596 9.75030E+01 2.06730E+01 0.00000E+00
 -1       597 9.69856E+01 2.30532E+01 0.00000E+00
 -1       598 9.66225E+01 2.50060E+01 0.00000E+00
 -1       599 9.65372E+01 2.77169E+01 0.00000E+00
 -1       600 9.69783E+01 2.96759E+01 0.00000E+00
 -1       601 9.85369E+01 3.21879E+01 0.00000E+00
 -1       602 1.01818E+02 3.57126E+01 0.00000E+00
 -1       603 1.15375E+02 3.40078E+01 0.00000E+00
 -1       604 1.04064E+02 3.66114E+01 0.00000E+00
 -1       605 1.11226E+02 3.62638E+01 0.00000E+00
 -1       606 1.13208E+02 3.52876E+01 0.00000E+00
 -1       607 1.17471E+02 3.16544E+01 0.00000E+00
 -1       608 7.92300E+00 4.16780E+01 0.00000E+00
 -1       609 7.61550E+00 6.21462E+00 0.00000E+00
 -1       610 7.79400E+00 3.67375E+01 0.00000E+00
 -1       611 7.85850E+00 3.92077E+01 0.00000E+00
 -1       612 1.17571E+02 3.37420E+01 0.00000E+00
 -1       613 1.05633E+02 1.27812E+01 0.00000E+00
 -1       614 9.65974E+01 3.15990E+01 0.00000E+00
 -1       615 9.52536E+01 2.65009E+01 0.00000E+00
 -1       616 1.41678E+02 4.22645E+01 0.00000E+00
 -1       617 1.03920E+01 2.05500E+01 0.00000E+00
 -1       618 1.03920E+01 2.35000E+01 0.00000E+00
 -1       619 1.03920E+01 1.46750E+01 0.00000E+00
 -1       620 1.03920E+01 1.17250E+01 0.00000E+00
 -1       621 1.15350E+01 9.20225E+00 0.00000E+00
 -1       622 1.02330E+02 1.34607E+01 0.00000E+00
 -1       623 1.51500E+01 3.96080E+01 0.00000E+00
 -1       624 1.81500E+01 3.96080E+01 0.00000E+00
 -1       625 2.11500E+01 3.96080E+01 0.00000E+00
 -1       626 2.41500E+01 3.96080E+01 0.00000E+00
 -1       627 2.71500E+01 3.96080E+01 0.00000E+00
 -1       628 3.01500E+01 3.96080E+01 0.00000E+00
 -1       629 3.31500E+01 3.96080E+01 0.00000E+00
 -1       630 3.61500E+01 3.96080E+01 0.00000E+00
 -1       631 3.91500E+01 3.96080E+01 0.00000E+00
 -1       632 4.21500E+01 3.96080E+01 0.00000E+00
 -1       633 4.51500E+01 3.96080E+01 0.00000E+00
 -1       634 4.81500E+01 3.96080E+01 0.00000E+00
 -1       635 5.11500E+01 3.96080E+01 0.00000E+00
 -1       636 5.41500E+01 3.96080E+01 0.00000E+00
 -1       637 5.71500E+01 3.96080E+01 0.00000E+00
 -1       638 6.01500E+01 3.96080E+01 0.00000E+00
 -1       639 6.31500E+01 3.96080E+01 0.00000E+00
 -1       640 6.61500E+01 3.96080E+01 0.00000E+00
 -1       641 6.91500E+01 3.96080E+01 0.00000E+00
 -1       642 7.21500E+01 3.96080E+01 0.00000E+00
 -1       643 7.51500E+01 3.96080E+01 0.00000E+00
 -1       644 7.81500E+01 3.96080E+01 0.00000E+00
 -1       645 8.11500E+01 3.96080E+01 0.00000E+00
 -1       646 8.41500E+01 3.96080E+01 0.00000E+00
 -1       647 8.71500E+01 3.96080E+01 0.00000E+00
 -1       648 9.01500E+01 3.96080E+01 0.00000E+00
 -1       649 9.31500E+01 3.96080E+01 0.00000E+00
 -1       650 9.61500E+01 3.96080E+01 0.00000E+00
 -1       651 9.91500E+01 3.96080E+01 0.00000E+00
 -1       652 1.02150E+02 3.96080E+01 0.00000E+00
 -1       653 1.08150E+02 3.96530E+01 0.00000E+00
 -1       654 1.11150E+02 3.96530E+01 0.00000E+00
 -1       655 1.14150E+02 3.96530E+01 0.00000E+00
 -1       656 1.17150E+02 3.96530E+01 0.00000E+00
 -1       657 1.20150E+02 3.96530E+01 0.00000E+00
 -1       658 1.23150E+02 3.96530E+01 0.00000E+00
 -1       659 1.26150E+02 3.96530E+01 0.00000E+00
 -1       660 1.29150E+02 3.96530E+01 0.00000E+00
 -1       661 1.32150E+02 3.96530E+01 0.00000E+00
 -1       662 1.35150E+02 3.96530E+01 0.00000E+00
 -1       663 1.38150E+02 3.96530E+01 0.00000E+00
 -1       664 2.35350E+01 9.20225E+00 0.00000E+00
 -1       665 1.40178E+02 3.96890E+01 0.00000E+00
 -1       666 2.05350E+01 9.20225E+00 0.00000E+00
 -1       667 2.95350E+01 9.20225E+00 0.00000E+00
 -1       668 3.25350E+01 9.20225E+00 0.00000E+00
 -1       669 3.55350E+01 9.20225E+00 0.00000E+00
 -1       670 3.85350E+01 9.20225E+00 0.00000E+00
 -1       671 4.15350E+01 9.20225E+00 0.00000E+00
 -1       672 4.45350E+01 9.20225E+00 0.00000E+00
 -1       673 4.75350E+01 9.20225E+00 0.00000E+00
 -1       674 5.05350E+01 9.20225E+00 0.00000E+00
 -1       675 5.35350E+01 9.20225E+00 0.00000E+00
 -1       676 5.65350E+01 9.20225E+00 0.00000E+00
 -1       677 5.95350E+01 9.20225E+00 0.00000E+00
 -1       678 6.25350E+01 9.20225E+00 0.00000E+00
 -1       679 6.55350E+01 9.20225E+00 0.00000E+00
 -1       680 6.85350E+01 9.20225E+00 0.00000E+00
 -1       681 7.15350E+01 9.20225E+00 0.00000E+00
 -1       682 7.45350E+01 9.20225E+00 0.00000E+00
 -1       683 7.75350E+01 9.20225E+00 0.00000E+00
 -1       684 8.05350E+01 9.20225E+00 0.00000E+00
 -1       685 8.35350E+01 9.20225E+00 0.00000E+00
 -1       686 8.65350E+01 9.20225E+00 0.00000E+00
 -1       687 8.95350E+01 9.20225E+00 0.00000E+00
 -1       688 9.25350E+01 9.20225E+00 0.00000E+00
 -1       689 9.55350E+01 9.20225E+00 0.00000E+00
 -1       690 9.85350E+01 9.20225E+00 0.00000E+00
 -1       691 1.01535E+02 9.20225E+00 0.00000E+00
 -1       692 1.04535E+02 9.20225E+00 0.00000E+00
 -1       693 1.07535E+02 9.20225E+00 0.00000E+00
 -1       694 1.10535E+02 9.20225E+00 0.00000E+00
 -1       695 1.13535E+02 9.20225E+00 0.00000E+00
 -1       696 1.16535E+02 9.20225E+00 0.00000E+00
 -1       697 1.19535E+02 9.20225E+00 0.00000E+00
 -1       698 1.22535E+02 9.20225E+00 0.00000E+00
 -1       699 1.25535E+02 9.20225E+00 0.00000E+00
 -1       700 1.28535E+02 9.20225E+00 0.00000E+00
 -1       701 1.31535E+02 9.20225E+00 0.00000E+00
 -1       702 1.34535E+02 9.20225E+00 0.00000E+00
 -1       703 1.37535E+02 9.20225E+00 0.00000E+00
 -1       704 1.39870E+02 9.76363E+00 0.00000E+00
 -1       705 1.18609E+02 1.81165E+01 0.00000E+00
 -1       706 1.39608E+02 2.35500E+01 0.00000E+00
 -1       707 1.39608E+02 1.76500E+01 0.00000E+00
 -1       708 1.39608E+02 2.65000E+01 0.00000E+00
 -1       709 1.39608E+02 2.06000E+01 0.00000E+00
 -1       710 1.04626E+02 3.87481E+01 0.00000E+00
 -1       711 1.39608E+02 2.94000E+01 0.00000E+00
 -1       712 1.39608E+02 3.23500E+01 0.00000E+00
 -1       713 1.39608E+02 3.53000E+01 0.00000E+00
 -1       714 1.20407E+02 2.85860E+01 0.00000E+00
 -1       715 1.19962E+02 2.03800E+01 0.00000E+00
 -1       716 1.75350E+01 9.20225E+00 0.00000E+00
 -1       717 1.20584E+02 2.57907E+01 0.00000E+00
 -1       718 1.20449E+02 2.32168E+01 0.00000E+00
 -1       719 1.05855E+01 3.97357E+01 0.00000E+00
 -1       720 9.52409E+01 2.14276E+01 0.00000E+00
 -1       721 1.16376E+02 1.55572E+01 0.00000E+00
 -1       722 1.15249E+02 3.62689E+01 0.00000E+00
 -1       723 2.65350E+01 9.20225E+00 0.00000E+00
 -1       724 1.28678E+01 3.96719E+01 0.00000E+00
 -1       725 1.45350E+01 9.20225E+00 0.00000E+00
 -1       726 1.03920E+01 1.76125E+01 0.00000E+00
 -1       727 1.03920E+01 3.23250E+01 0.00000E+00
 -1       728 1.11917E+02 1.28178E+01 0.00000E+00
 -1       729 9.97611E+01 3.58790E+01 0.00000E+00
 -1       730 1.00457E+02 1.45270E+01 0.00000E+00
 -1       731 9.81293E+01 1.67624E+01 0.00000E+00
 -1       732 9.78396E+01 3.44297E+01 0.00000E+00
 -1       733 9.48777E+01 2.33804E+01 0.00000E+00
 -1       734 1.14353E+02 1.38518E+01 0.00000E+00
 -1       735 9.47576E+01 2.91469E+01 0.00000E+00
 -1       736 9.68039E+01 1.87584E+01 0.00000E+00
 -1       737 1.10465E+02 3.81718E+01 0.00000E+00
 -1       738 1.02179E+02 3.80654E+01 0.00000E+00
 -1       739 1.12975E+02 3.73142E+01 0.00000E+00
 -1       740 1.09230E+02 1.20530E+01 0.00000E+00
 -1       741 1.19507E+02 3.13808E+01 0.00000E+00
 -1       742 1.03920E+01 3.52625E+01 0.00000E+00
 -1       743 1.03920E+01 2.64500E+01 0.00000E+00
 -1       744 1.05632E+02 3.98909E+01 0.00000E+00
 -1       745 1.18536E+02 1.57994E+01 0.00000E+00
 -1       746 1.39870E+02 1.26886E+01 0.00000E+00
 -1       747 1.17444E+02 3.60031E+01 0.00000E+00
 -1       748 9.43766E+01 3.10699E+01 0.00000E+00
 -1       749 9.35088E+01 2.48753E+01 0.00000E+00
 -1       750 1.38879E+02 3.74765E+01 0.00000E+00
 -1       751 1.19607E+02 3.34684E+01 0.00000E+00
 -1       752 1.03920E+01 2.93875E+01 0.00000E+00
 -1       753 1.39739E+02 1.51693E+01 0.00000E+00
 -1       754 1.29900E+01 1.32000E+01 0.00000E+00
 -1       755 1.04462E+02 1.21181E+01 0.00000E+00
 -1       756 1.04888E+01 3.74991E+01 0.00000E+00
 -1       757 1.06915E+02 1.14230E+01 0.00000E+00
 -1       758 1.37625E+01 1.12011E+01 0.00000E+00
 -1       759 1.21749E+02 3.05606E+01 0.00000E+00
 -1       760 1.96500E+01 3.70100E+01 0.00000E+00
 -1       761 2.26500E+01 3.70100E+01 0.00000E+00
 -1       762 2.56500E+01 3.70100E+01 0.00000E+00
 -1       763 2.86500E+01 3.70100E+01 0.00000E+00
 -1       764 3.16500E+01 3.70100E+01 0.00000E+00
 -1       765 3.46500E+01 3.70100E+01 0.00000E+00
 -1       766 3.76500E+01 3.70100E+01 0.00000E+00
 -1       767 4.06500E+01 3.70100E+01 0.00000E+00
 -1       768 4.36500E+01 3.70100E+01 0.00000E+00
 -1       769 4.66500E+01 3.70100E+01 0.00000E+00
 -1       770 4.96500E+01 3.70100E+01 0.00000E+00
 -1       771 5.26500E+01 3.70100E+01 0.00000E+00
 -1       772 5.56500E+01 3.70100E+01 0.00000E+00
 -1       773 5.86500E+01 3.70100E+01 0.00000E+00
 -1       774 6.16500E+01 3.70100E+01 0.00000E+00
 -1       775 6.46500E+01 3.70100E+01 0.00000E+00
 -1       776 6.76500E+01 3.70100E+01 0.00000E+00
 -1       777 7.06500E+01 3.70100E+01 0.00000E+00
 -1       778 7.36500E+01 3.70100E+01 0.00000E+00
 -1       779 7.66500E+01 3.70100E+01 0.00000E+00
 -1       780 7.96500E+01 3.70100E+01 0.00000E+00
 -1       781 8.26500E+01 3.70100E+01 0.00000E+00
 -1       782 8.56500E+01 3.70100E+01 0.00000E+00
 -1       783 8.86500E+01 3.70100E+01 0.00000E+00
 -1       784 9.16500E+01 3.70100E+01 0.00000E+00
 -1       785 9.46500E+01 3.70100E+01 0.00000E+00
 -1       786 1.21650E+02 3.70550E+01 0.00000E+00
 -1       787 1.24650E+02 3.70550E+01 0.00000E+00
 -1       788 1.27650E+02 3.70550E+01 0.00000E+00
 -1       789 1.30650E+02 3.70550E+01 0.00000E+00
 -1       790 1.33650E+02 3.70550E+01 0.00000E+00
 -1       791 1.36264E+02 3.72658E+01 0.00000E+00
 -1       792 3.70350E+01 1.18003E+01 0.00000E+00
 -1       793 3.40350E+01 1.18003E+01 0.00000E+00
 -1       794 3.10350E+01 1.18003E+01 0.00000E+00
 -1       795 4.00350E+01 1.18003E+01 0.00000E+00
 -1       796 4.30350E+01 1.18003E+01 0.00000E+00
 -1       797 4.60350E+01 1.18003E+01 0.00000E+00
 -1       798 4.90350E+01 1.18003E+01 0.00000E+00
 -1       799 5.20350E+01 1.18003E+01 0.00000E+00
 -1       800 5.50350E+01 1.18003E+01 0.00000E+00
 -1       801 5.80350E+01 1.18003E+01 0.00000E+00
 -1       802 6.10350E+01 1.18003E+01 0.00000E+00
 -1       803 6.40350E+01 1.18003E+01 0.00000E+00
 -1       804 6.70350E+01 1.18003E+01 0.00000E+00
 -1       805 7.00350E+01 1.18003E+01 0.00000E+00
 -1       806 7.30350E+01 1.18003E+01 0.00000E+00
 -1       807 7.60350E+01 1.18003E+01 0.00000E+00
 -1       808 7.90350E+01 1.18003E+01 0.00000E+00
 -1       809 8.20350E+01 1.18003E+01 0.00000E+00
 -1       810 8.50350E+01 1.18003E+01 0.00000E+00
 -1       811 8.80350E+01 1.18003E+01 0.00000E+00
 -1       812 9.10350E+01 1.18003E+01 0.00000E+00
 -1       813 9.40350E+01 1.18003E+01 0.00000E+00
 -1       814 9.70350E+01 1.18003E+01 0.00000E+00
 -1       815 1.21035E+02 1.18003E+01 0.00000E+00
 -1       816 1.24035E+02 1.18003E+01 0.00000E+00
 -1       817 1.27035E+02 1.18003E+01 0.00000E+00
 -1       818 1.30035E+02 1.18003E+01 0.00000E+00
 -1       819 1.33035E+02 1.18003E+01 0.00000E+00
 -1       820 1.36035E+02 1.18003E+01 0.00000E+00
 -1       821 1.37953E+02 1.22444E+01 0.00000E+00
 -1       822 9.74649E+01 3.69250E+01 0.00000E+00
 -1       823 1.37010E+02 2.50250E+01 0.00000E+00
 -1       824 1.37010E+02 3.38250E+01 0.00000E+00
 -1       825 1.37010E+02 2.79250E+01 0.00000E+00
 -1       826 1.29900E+01 2.20250E+01 0.00000E+00
 -1       827 9.51876E+01 3.39056E+01 0.00000E+00
 -1       828 9.29905E+01 2.74461E+01 0.00000E+00
 -1       829 9.94958E+01 1.18646E+01 0.00000E+00
 -1       830 9.43978E+01 1.91416E+01 0.00000E+00
 -1       831 1.22229E+02 2.44137E+01 0.00000E+00
 -1       832 1.90350E+01 1.18003E+01 0.00000E+00
 -1       833 1.37010E+02 3.08750E+01 0.00000E+00
 -1       834 1.21189E+02 1.81102E+01 0.00000E+00
 -1       835 1.66500E+01 3.70100E+01 0.00000E+00
 -1       836 1.17955E+02 1.23797E+01 0.00000E+00
 -1       837 2.20350E+01 1.18003E+01 0.00000E+00
 -1       838 9.33731E+01 2.20904E+01 0.00000E+00
 -1       839 9.54794E+01 1.64409E+01 0.00000E+00
 -1       840 1.22542E+02 2.73181E+01 0.00000E+00
 -1       841 1.22557E+02 2.13950E+01 0.00000E+00
 -1       842 1.29900E+01 2.49750E+01 0.00000E+00
 -1       843 1.29900E+01 1.61375E+01 0.00000E+00
 -1       844 1.27710E+01 3.74352E+01 0.00000E+00
 -1       845 1.29900E+01 3.37938E+01 0.00000E+00
 -1       846 1.63988E+01 1.15007E+01 0.00000E+00
 -1       847 2.80350E+01 1.18003E+01 0.00000E+00
 -1       848 1.29900E+01 3.08563E+01 0.00000E+00
 -1       849 1.37010E+02 1.91250E+01 0.00000E+00
 -1       850 1.37010E+02 2.20750E+01 0.00000E+00
 -1       851 1.29900E+01 1.90875E+01 0.00000E+00
 -1       852 1.21849E+02 3.26482E+01 0.00000E+00
 -1       853 9.26095E+01 2.93692E+01 0.00000E+00
 -1       854 1.37141E+02 1.66443E+01 0.00000E+00
 -1       855 2.50350E+01 1.18003E+01 0.00000E+00
 -1       856 1.21116E+02 1.57931E+01 0.00000E+00
 -1       857 1.36637E+02 3.55454E+01 0.00000E+00
 -1       858 9.74876E+01 1.41528E+01 0.00000E+00
 -1       859 2.11500E+01 3.44120E+01 0.00000E+00
 -1       860 2.41500E+01 3.44120E+01 0.00000E+00
 -1       861 2.71500E+01 3.44120E+01 0.00000E+00
 -1       862 3.01500E+01 3.44120E+01 0.00000E+00
 -1       863 3.31500E+01 3.44120E+01 0.00000E+00
 -1       864 3.61500E+01 3.44120E+01 0.00000E+00
 -1       865 3.91500E+01 3.44120E+01 0.00000E+00
 -1       866 4.21500E+01 3.44120E+01 0.00000E+00
 -1       867 4.51500E+01 3.44120E+01 0.00000E+00
 -1       868 4.81500E+01 3.44120E+01 0.00000E+00
 -1       869 5.11500E+01 3.44120E+01 0.00000E+00
 -1       870 5.41500E+01 3.44120E+01 0.00000E+00
 -1       871 5.71500E+01 3.44120E+01 0.00000E+00
 -1       872 6.01500E+01 3.44120E+01 0.00000E+00
 -1       873 6.31500E+01 3.44120E+01 0.00000E+00
 -1       874 6.61500E+01 3.44120E+01 0.00000E+00
 -1       875 6.91500E+01 3.44120E+01 0.00000E+00
 -1       876 7.21500E+01 3.44120E+01 0.00000E+00
 -1       877 7.51500E+01 3.44120E+01 0.00000E+00
 -1       878 7.81500E+01 3.44120E+01 0.00000E+00
 -1       879 8.11500E+01 3.44120E+01 0.00000E+00
 -1       880 8.41500E+01 3.44120E+01 0.00000E+00
 -1       881 8.71500E+01 3.44120E+01 0.00000E+00
 -1       882 9.01500E+01 3.44120E+01 0.00000E+00
 -1       883 9.26688E+01 3.41588E+01 0.00000E+00
 -1       884 1.26150E+02 3.44570E+01 0.00000E+00
 -1       885 1.29150E+02 3.44570E+01 0.00000E+00
 -1       886 1.32150E+02 3.44570E+01 0.00000E+00
 -1       887 3.55350E+01 1.43982E+01 0.00000E+00
 -1       888 3.85350E+01 1.43982E+01 0.00000E+00
 -1       889 3.25350E+01 1.43982E+01 0.00000E+00
 -1       890 4.45350E+01 1.43982E+01 0.00000E+00
 -1       891 4.75350E+01 1.43982E+01 0.00000E+00
 -1       892 5.05350E+01 1.43982E+01 0.00000E+00
 -1       893 5.35350E+01 1.43982E+01 0.00000E+00
 -1       894 5.65350E+01 1.43982E+01 0.00000E+00
 -1       895 5.95350E+01 1.43982E+01 0.00000E+00
 -1       896 6.25350E+01 1.43982E+01 0.00000E+00
 -1       897 6.55350E+01 1.43982E+01 0.00000E+00
 -1       898 6.85350E+01 1.43982E+01 0.00000E+00
 -1       899 7.15350E+01 1.43982E+01 0.00000E+00
 -1       900 7.45350E+01 1.43982E+01 0.00000E+00
 -1       901 7.75350E+01 1.43982E+01 0.00000E+00
 -1       902 8.05350E+01 1.43982E+01 0.00000E+00
 -1       903 8.35350E+01 1.43982E+01 0.00000E+00
 -1       904 8.65350E+01 1.43982E+01 0.00000E+00
 -1       905 8.95350E+01 1.43982E+01 0.00000E+00
 -1       906 9.25350E+01 1.43982E+01 0.00000E+00
 -1       907 1.24431E+02 2.31253E+01 0.00000E+00
 -1       908 1.31535E+02 1.43982E+01 0.00000E+00
 -1       909 1.34535E+02 1.43982E+01 0.00000E+00
 -1       910 1.28535E+02 1.43982E+01 0.00000E+00
 -1       911 1.19889E+02 3.50060E+01 0.00000E+00
 -1       912 9.09113E+01 2.56892E+01 0.00000E+00
 -1       913 1.34412E+02 2.64750E+01 0.00000E+00
 -1       914 4.15350E+01 1.43982E+01 0.00000E+00
 -1       915 1.29900E+01 2.79188E+01 0.00000E+00
 -1       916 1.81500E+01 3.44120E+01 0.00000E+00
 -1       917 1.25535E+02 1.43982E+01 0.00000E+00
 -1       918 1.24075E+02 1.88358E+01 0.00000E+00
 -1       919 9.16322E+01 1.98330E+01 0.00000E+00
 -1       920 1.24744E+02 2.60297E+01 0.00000E+00
 -1       921 9.07756E+01 2.29043E+01 0.00000E+00
 -1       922 9.28798E+01 1.69667E+01 0.00000E+00
 -1       923 1.24625E+02 2.95457E+01 0.00000E+00
 -1       924 1.37547E+02 1.44444E+01 0.00000E+00
 -1       925 2.05350E+01 1.43982E+01 0.00000E+00
 -1       926 1.55700E+01 3.26341E+01 0.00000E+00
 -1       927 1.78988E+01 1.40987E+01 0.00000E+00
 -1       928 1.55880E+01 1.46687E+01 0.00000E+00
 -1       929 9.05303E+01 2.76123E+01 0.00000E+00
 -1       930 9.48166E+01 1.38339E+01 0.00000E+00
 -1       931 2.95350E+01 1.43982E+01 0.00000E+00
 -1       932 1.25950E+02 2.05662E+01 0.00000E+00
 -1       933 1.34394E+02 3.50012E+01 0.00000E+00
 -1       934 2.35350E+01 1.43982E+01 0.00000E+00
 -1       935 1.34412E+02 2.35250E+01 0.00000E+00
 -1       936 1.24725E+02 3.16333E+01 0.00000E+00
 -1       937 1.55880E+01 2.05562E+01 0.00000E+00
 -1       938 1.34481E+02 1.77474E+01 0.00000E+00
 -1       939 1.34412E+02 2.94250E+01 0.00000E+00
 -1       940 1.55880E+01 2.35063E+01 0.00000E+00
 -1       941 1.34447E+02 2.06362E+01 0.00000E+00
 -1       942 1.34403E+02 3.22131E+01 0.00000E+00
 -1       943 9.13797E+01 3.18906E+01 0.00000E+00
 -1       944 1.55880E+01 1.76125E+01 0.00000E+00
 -1       945 1.96500E+01 3.18140E+01 0.00000E+00
 -1       946 2.56500E+01 3.18140E+01 0.00000E+00
 -1       947 2.86500E+01 3.18140E+01 0.00000E+00
 -1       948 3.16500E+01 3.18140E+01 0.00000E+00
 -1       949 3.46500E+01 3.18140E+01 0.00000E+00
 -1       950 3.76500E+01 3.18140E+01 0.00000E+00
 -1       951 4.06500E+01 3.18140E+01 0.00000E+00
 -1       952 4.36500E+01 3.18140E+01 0.00000E+00
 -1       953 4.66500E+01 3.18140E+01 0.00000E+00
 -1       954 4.96500E+01 3.18140E+01 0.00000E+00
 -1       955 5.26500E+01 3.18140E+01 0.00000E+00
 -1       956 5.56500E+01 3.18140E+01 0.00000E+00
 -1       957 5.86500E+01 3.18140E+01 0.00000E+00
 -1       958 6.16500E+01 3.18140E+01 0.00000E+00
 -1       959 6.46500E+01 3.18140E+01 0.00000E+00
 -1       960 6.76500E+01 3.18140E+01 0.00000E+00
 -1       961 7.06500E+01 3.18140E+01 0.00000E+00
 -1       962 7.36500E+01 3.18140E+01 0.00000E+00
 -1       963 7.66500E+01 3.18140E+01 0.00000E+00
 -1       964 7.96500E+01 3.18140E+01 0.00000E+00
 -1       965 8.26500E+01 3.18140E+01 0.00000E+00
 -1       966 8.56500E+01 3.18140E+01 0.00000E+00
 -1       967 8.85149E+01 3.18523E+01 0.00000E+00
 -1       968 5.20350E+01 1.69963E+01 0.00000E+00
 -1       969 1.23705E+02 1.68714E+01 0.00000E+00
 -1       970 1.30650E+02 3.18590E+01 0.00000E+00
 -1       971 1.55700E+01 2.96966E+01 0.00000E+00
 -1       972 3.40350E+01 1.69963E+01 0.00000E+00
 -1       973 4.90350E+01 1.69963E+01 0.00000E+00
 -1       974 4.60350E+01 1.69963E+01 0.00000E+00
 -1       975 5.50350E+01 1.69963E+01 0.00000E+00
 -1       976 5.80350E+01 1.69963E+01 0.00000E+00
 -1       977 6.10350E+01 1.69963E+01 0.00000E+00
 -1       978 6.40350E+01 1.69963E+01 0.00000E+00
 -1       979 6.70350E+01 1.69963E+01 0.00000E+00
 -1       980 7.00350E+01 1.69963E+01 0.00000E+00
 -1       981 7.30350E+01 1.69963E+01 0.00000E+00
 -1       982 7.60350E+01 1.69963E+01 0.00000E+00
 -1       983 7.90350E+01 1.69963E+01 0.00000E+00
 -1       984 8.20350E+01 1.69963E+01 0.00000E+00
 -1       985 8.50350E+01 1.69963E+01 0.00000E+00
 -1       986 8.80350E+01 1.69963E+01 0.00000E+00
 -1       987 1.33035E+02 1.69963E+01 0.00000E+00
 -1       988 1.30035E+02 1.69963E+01 0.00000E+00
 -1       989 2.26500E+01 3.18140E+01 0.00000E+00
 -1       990 1.55880E+01 2.64500E+01 0.00000E+00
 -1       991 9.02224E+01 1.75148E+01 0.00000E+00
 -1       992 4.00350E+01 1.69963E+01 0.00000E+00
 -1       993 1.27688E+02 3.17462E+01 0.00000E+00
 -1       994 2.65350E+01 1.43982E+01 0.00000E+00
 -1       995 1.27035E+02 1.69963E+01 0.00000E+00
 -1       996 8.89062E+01 2.07278E+01 0.00000E+00
 -1       997 1.27236E+02 2.78737E+01 0.00000E+00
 -1       998 1.26626E+02 2.43582E+01 0.00000E+00
 -1       999 4.30350E+01 1.69963E+01 0.00000E+00
 -1      1000 3.70350E+01 1.69963E+01 0.00000E+00
 -1      1001 8.84609E+01 2.44129E+01 0.00000E+00
 -1      1002 8.80799E+01 2.63360E+01 0.00000E+00
 -1      1003 3.10350E+01 1.69963E+01 0.00000E+00
 -1      1004 1.78988E+01 1.70424E+01 0.00000E+00
 -1      1005 8.97298E+01 2.91133E+01 0.00000E+00
 -1      1006 1.31814E+02 2.50000E+01 0.00000E+00
 -1      1007 1.27462E+02 2.98099E+01 0.00000E+00
 -1      1008 1.31814E+02 2.79500E+01 0.00000E+00
 -1      1009 1.78988E+01 1.99862E+01 0.00000E+00
 -1      1010 1.78988E+01 2.29362E+01 0.00000E+00
 -1      1011 2.10567E+01 1.75546E+01 0.00000E+00
 -1      1012 1.32241E+02 1.88162E+01 0.00000E+00
 -1      1013 5.05350E+01 1.95942E+01 0.00000E+00
 -1      1014 2.71500E+01 2.92160E+01 0.00000E+00
 -1      1015 1.28950E+02 2.05662E+01 0.00000E+00
 -1      1016 3.01500E+01 2.92160E+01 0.00000E+00
 -1      1017 3.31500E+01 2.92160E+01 0.00000E+00
 -1      1018 3.61500E+01 2.92160E+01 0.00000E+00
 -1      1019 3.91500E+01 2.92160E+01 0.00000E+00
 -1      1020 4.21500E+01 2.92160E+01 0.00000E+00
 -1      1021 4.51500E+01 2.92160E+01 0.00000E+00
 -1      1022 4.81500E+01 2.92160E+01 0.00000E+00
 -1      1023 5.11500E+01 2.92160E+01 0.00000E+00
 -1      1024 5.41500E+01 2.92160E+01 0.00000E+00
 -1      1025 5.71500E+01 2.92160E+01 0.00000E+00
 -1      1026 6.01500E+01 2.92160E+01 0.00000E+00
 -1      1027 6.31500E+01 2.92160E+01 0.00000E+00
 -1      1028 6.61500E+01 2.92160E+01 0.00000E+00
 -1      1029 6.91500E+01 2.92160E+01 0.00000E+00
 -1      1030 7.21500E+01 2.92160E+01 0.00000E+00
 -1      1031 7.51500E+01 2.92160E+01 0.00000E+00
 -1      1032 7.81500E+01 2.92160E+01 0.00000E+00
 -1      1033 8.11500E+01 2.92160E+01 0.00000E+00
 -1      1034 8.41500E+01 2.92160E+01 0.00000E+00
 -1      1035 5.65350E+01 1.95942E+01 0.00000E+00
 -1      1036 2.80350E+01 1.69963E+01 0.00000E+00
 -1      1037 5.35350E+01 1.95942E+01 0.00000E+00
 -1      1038 4.75350E+01 1.95942E+01 0.00000E+00
 -1      1039 5.95350E+01 1.95942E+01 0.00000E+00
 -1      1040 6.25350E+01 1.95942E+01 0.00000E+00
 -1      1041 6.55350E+01 1.95942E+01 0.00000E+00
 -1      1042 6.85350E+01 1.95942E+01 0.00000E+00
 -1      1043 7.15350E+01 1.95942E+01 0.00000E+00
 -1      1044 7.45350E+01 1.95942E+01 0.00000E+00
 -1      1045 7.75350E+01 1.95942E+01 0.00000E+00
 -1      1046 8.05350E+01 1.95942E+01 0.00000E+00
 -1      1047 8.35350E+01 1.95942E+01 0.00000E+00
 -1      1048 8.62206E+01 2.01610E+01 0.00000E+00
 -1      1049 2.11500E+01 2.92160E+01 0.00000E+00
 -1      1050 1.78988E+01 2.58799E+01 0.00000E+00
 -1      1051 2.50350E+01 1.69963E+01 0.00000E+00
 -1      1052 1.31849E+02 2.21112E+01 0.00000E+00
 -1      1053 8.57753E+01 2.38461E+01 0.00000E+00
 -1      1054 3.55350E+01 1.95942E+01 0.00000E+00
 -1      1055 1.29446E+02 2.56795E+01 0.00000E+00
 -1      1056 3.85350E+01 1.95942E+01 0.00000E+00
 -1      1057 2.41500E+01 2.92160E+01 0.00000E+00
 -1      1058 4.15350E+01 1.95942E+01 0.00000E+00
 -1      1059 4.45350E+01 1.95942E+01 0.00000E+00
 -1      1060 2.10627E+01 2.08289E+01 0.00000E+00
 -1      1061 3.25350E+01 1.95942E+01 0.00000E+00
 -1      1062 2.50410E+01 2.02705E+01 0.00000E+00
 -1      1063 8.69399E+01 2.91647E+01 0.00000E+00
 -1      1064 8.53943E+01 2.57692E+01 0.00000E+00
 -1      1065 1.88067E+01 2.84493E+01 0.00000E+00
 -1      1066 3.70350E+01 2.21922E+01 0.00000E+00
 -1      1067 2.86500E+01 2.66180E+01 0.00000E+00
 -1      1068 3.16500E+01 2.66180E+01 0.00000E+00
 -1      1069 3.46500E+01 2.66180E+01 0.00000E+00
 -1      1070 3.76500E+01 2.66180E+01 0.00000E+00
 -1      1071 4.06500E+01 2.66180E+01 0.00000E+00
 -1      1072 4.36500E+01 2.66180E+01 0.00000E+00
 -1      1073 4.66500E+01 2.66180E+01 0.00000E+00
 -1      1074 4.96500E+01 2.66180E+01 0.00000E+00
 -1      1075 5.26500E+01 2.66180E+01 0.00000E+00
 -1      1076 5.56500E+01 2.66180E+01 0.00000E+00
 -1      1077 5.86500E+01 2.66180E+01 0.00000E+00
 -1      1078 6.16500E+01 2.66180E+01 0.00000E+00
 -1      1079 6.46500E+01 2.66180E+01 0.00000E+00
 -1      1080 6.76500E+01 2.66180E+01 0.00000E+00
 -1      1081 7.06500E+01 2.66180E+01 0.00000E+00
 -1      1082 7.36500E+01 2.66180E+01 0.00000E+00
 -1      1083 7.66500E+01 2.66180E+01 0.00000E+00
 -1      1084 7.96500E+01 2.66180E+01 0.00000E+00
 -1      1085 8.26500E+01 2.66180E+01 0.00000E+00
 -1      1086 6.10350E+01 2.21922E+01 0.00000E+00
 -1      1087 5.50350E+01 2.21922E+01 0.00000E+00
 -1      1088 4.90350E+01 2.21922E+01 0.00000E+00
 -1      1089 6.40350E+01 2.21922E+01 0.00000E+00
 -1      1090 6.70350E+01 2.21922E+01 0.00000E+00
 -1      1091 7.00350E+01 2.21922E+01 0.00000E+00
 -1      1092 7.30350E+01 2.21922E+01 0.00000E+00
 -1      1093 7.60350E+01 2.21922E+01 0.00000E+00
 -1      1094 7.90350E+01 2.21922E+01 0.00000E+00
 -1      1095 8.20350E+01 2.21922E+01 0.00000E+00
 -1      1096 8.39051E+01 2.30192E+01 0.00000E+00
 -1      1097 2.02420E+01 2.66466E+01 0.00000E+00
 -1      1098 2.09209E+01 2.40449E+01 0.00000E+00
 -1      1099 5.20350E+01 2.21922E+01 0.00000E+00
 -1      1100 4.00350E+01 2.21922E+01 0.00000E+00
 -1      1101 5.80350E+01 2.21922E+01 0.00000E+00
 -1      1102 2.95350E+01 1.95942E+01 0.00000E+00
 -1      1103 3.40350E+01 2.21922E+01 0.00000E+00
 -1      1104 4.60350E+01 2.21922E+01 0.00000E+00
 -1      1105 2.48992E+01 2.34865E+01 0.00000E+00
 -1      1106 2.56500E+01 2.66180E+01 0.00000E+00
 -1      1107 8.32776E+01 2.48186E+01 0.00000E+00
 -1      1108 4.30350E+01 2.21922E+01 0.00000E+00
 -1      1109 2.29460E+01 2.66323E+01 0.00000E+00
 -1      1110 3.31500E+01 2.40200E+01 0.00000E+00
 -1      1111 3.10350E+01 2.21922E+01 0.00000E+00
 -1      1112 2.79671E+01 2.28394E+01 0.00000E+00
 -1      1113 0.00000E+00 4.85250E+01 0.00000E+00
 -1      1114 0.00000E+00 4.55750E+01 0.00000E+00
 -1      1115 0.00000E+00 4.26250E+01 0.00000E+00
 -1      1116 0.00000E+00 3.96750E+01 0.00000E+00
 -1      1117 0.00000E+00 3.67250E+01 0.00000E+00
 -1      1118 0.00000E+00 3.38000E+01 0.00000E+00
 -1      1119 0.00000E+00 3.08750E+01 0.00000E+00
 -1      1120 0.00000E+00 2.79250E+01 0.00000E+00
 -1      1121 0.00000E+00 2.49750E+01 0.00000E+00
 -1      1122 0.00000E+00 2.20250E+01 0.00000E+00
 -1      1123 0.00000E+00 1.90750E+01 0.00000E+00
 -1      1124 0.00000E+00 1.61500E+01 0.00000E+00
 -1      1125 0.00000E+00 1.32250E+01 0.00000E+00
 -1      1126 0.00000E+00 1.02750E+01 0.00000E+00
 -1      1127 0.00000E+00 7.32500E+00 0.00000E+00
 -1      1128 0.00000E+00 4.37500E+00 0.00000E+00
 -1      1129 0.00000E+00 1.45000E+00 0.00000E+00
 -1      1130 1.57500E+00 5.00000E+01 0.00000E+00
 -1      1131 4.65000E+00 5.00000E+01 0.00000E+00
 -1      1132 7.65000E+00 5.00000E+01 0.00000E+00
 -1      1133 1.06500E+01 5.00000E+01 0.00000E+00
 -1      1134 1.36500E+01 5.00000E+01 0.00000E+00
 -1      1135 1.66500E+01 5.00000E+01 0.00000E+00
 -1      1136 1.96500E+01 5.00000E+01 0.00000E+00
 -1      1137 2.26500E+01 5.00000E+01 0.00000E+00
 -1      1138 2.56500E+01 5.00000E+01 0.00000E+00
 -1      1139 2.86500E+01 5.00000E+01 0.00000E+00
 -1      1140 3.16500E+01 5.00000E+01 0.00000E+00
 -1      1141 3.46500E+01 5.00000E+01 0.00000E+00
 -1      1142 3.76500E+01 5.00000E+01 0.00000E+00
 -1      1143 4.06500E+01 5.00000E+01 0.00000E+00
 -1      1144 4.36500E+01 5.00000E+01 0.00000E+00
 -1      1145 4.66500E+01 5.00000E+01 0.00000E+00
 -1      1146 4.96500E+01 5.00000E+01 0.00000E+00
 -1      1147 5.26500E+01 5.00000E+01 0.00000E+00
 -1      1148 5.56500E+01 5.00000E+01 0.00000E+00
 -1      1149 5.86500E+01 5.00000E+01 0.00000E+00
 -1      1150 6.16500E+01 5.00000E+01 0.00000E+00
 -1      1151 6.46500E+01 5.00000E+01 0.00000E+00
 -1      1152 6.76500E+01 5.00000E+01 0.00000E+00
 -1      1153 7.06500E+01 5.00000E+01 0.00000E+00
 -1      1154 7.36500E+01 5.00000E+01 0.00000E+00
 -1      1155 7.66500E+01 5.00000E+01 0.00000E+00
 -1      1156 7.96500E+01 5.00000E+01 0.00000E+00
 -1      1157 8.26500E+01 5.00000E+01 0.00000E+00
 -1      1158 8.56500E+01 5.00000E+01 0.00000E+00
 -1      1159 8.86500E+01 5.00000E+01 0.00000E+00
 -1      1160 9.16500E+01 5.00000E+01 0.00000E+00
 -1      1161 9.46500E+01 5.00000E+01 0.00000E+00
 -1      1162 9.76500E+01 5.00000E+01 0.00000E+00
 -1      1163 1.00650E+02 5.00000E+01 0.00000E+00
 -1      1164 1.03650E+02 5.00000E+01 0.00000E+00
 -1      1165 1.06650E+02 5.00000E+01 0.00000E+00
 -1      1166 1.09650E+02 5.00000E+01 0.00000E+00
 -1      1167 1.12650E+02 5.00000E+01 0.00000E+00
 -1      1168 1.15650E+02 5.00000E+01 0.00000E+00
 -1      1169 1.18650E+02 5.00000E+01 0.00000E+00
 -1      1170 1.21650E+02 5.00000E+01 0.00000E+00
 -1      1171 1.24650E+02 5.00000E+01 0.00000E+00
 -1      1172 1.27650E+02 5.00000E+01 0.00000E+00
 -1      1173 1.30650E+02 5.00000E+01 0.00000E+00
 -1      1174 1.33650E+02 5.00000E+01 0.00000E+00
 -1      1175 1.36650E+02 5.00000E+01 0.00000E+00
 -1      1176 1.39650E+02 5.00000E+01 0.00000E+00
 -1      1177 1.42650E+02 5.00000E+01 0.00000E+00
 -1      1178 1.45650E+02 5.00000E+01 0.00000E+00
 -1      1179 1.48575E+02 5.00000E+01 0.00000E+00
 -1      1180 1.57500E+00 0.00000E+00 0.00000E+00
 -1      1181 4.65000E+00 0.00000E+00 0.00000E+00
 -1      1182 7.65000E+00 0.00000E+00 0.00000E+00
 -1      1183 1.06500E+01 0.00000E+00 0.00000E+00
 -1      1184 1.36500E+01 0.00000E+00 0.00000E+00
 -1      1185 1.66500E+01 0.00000E+00 0.00000E+00
 -1      1186 1.96500E+01 0.00000E+00 0.00000E+00
 -1      1187 2.26500E+01 0.00000E+00 0.00000E+00
 -1      1188 2.56500E+01 0.00000E+00 0.00000E+00
 -1      1189 2.86500E+01 0.00000E+00 0.00000E+00
 -1      1190 3.16500E+01 0.00000E+00 0.00000E+00
 -1      1191 3.46500E+01 0.00000E+00 0.00000E+00
 -1      1192 3.76500E+01 0.00000E+00 0.00000E+00
 -1      1193 4.06500E+01 0.00000E+00 0.00000E+00
 -1      1194 4.36500E+01 0.00000E+00 0.00000E+00
 -1      1195 4.66500E+01 0.00000E+00 0.00000E+00
 -1      1196 4.96500E+01 0.00000E+00 0.00000E+00
 -1      1197 5.26500E+01 0.00000E+00 0.00000E+00
 -1      1198 5.56500E+01 0.00000E+00 0.00000E+00
 -1      1199 5.86500E+01 0.00000E+00 0.00000E+00
 -1      1200 6.16500E+01 0.00000E+00 0.00000E+00
 -1      1201 6.46500E+01 0.00000E+00 0.00000E+00
 -1      1202 6.76500E+01 0.00000E+00 0.00000E+00
 -1      1203 7.06500E+01 0.00000E+00 0.00000E+00
 -1      1204 7.36500E+01 0.00000E+00 0.00000E+00
 -1      1205 7.66500E+01 0.00000E+00 0.00000E+00
 -1      1206 7.96500E+01 0.00000E+00 0.00000E+00
 -1      1207 8.26500E+01 0.00000E+00 0.00000E+00
 -1      1208 8.56500E+01 0.00000E+00 0.00000E+00
 -1      1209 8.86500E+01 0.00000E+00 0.00000E+00
 -1      1210 9.16500E+01 0.00000E+00 0.00000E+00
 -1      1211 9.46500E+01 0.00000E+00 0.00000E+00
 -1      1212 9.76500E+01 0.00000E+00 0.00000E+00
 -1      1213 1.00650E+02 0.00000E+00 0.00000E+00
 -1      1214 1.03650E+02 0.00000E+00 0.00000E+00
 -1      1215 1.06650E+02 0.00000E+00 0.00000E+00
 -1      1216 1.09650E+02 0.00000E+00 0.00000E+00
 -1      1217 1.12650E+02 0.00000E+00 0.00000E+00
 -1      1218 1.15650E+02 0.00000E+00 0.00000E+00
 -1      1219 1.18650E+02 0.00000E+00 0.00000E+00
 -1      1220 1.21650E+02 0.00000E+00 0.00000E+00
 -1      1221 1.24650E+02 0.00000E+00 0.00000E+00
 -1      1222 1.27650E+02 0.00000E+00 0.00000E+00
 -1      1223 1.30650E+02 0.00000E+00 0.00000E+00
 -1      1224 1.33650E+02 0.00000E+00 0.00000E+00
 -1      1225 1.36650E+02 0.00000E+00 0.00000E+00
 -1      1226 1.39650E+02 0.00000E+00 0.00000E+00
 -1      1227 1.42650E+02 0.00000E+00 0.00000E+00
 -1      1228 1.45650E+02 0.00000E+00 0.00000E+00
 -1      1229 1.48575E+02 0.00000E+00 0.00000E+00
 -1      1230 1.50000E+02 1.47500E+00 0.00000E+00
 -1      1231 1.50000E+02 4.42500E+00 0.00000E+00
 -1      1232 1.50000E+02 7.37500E+00 0.00000E+00
 -1      1233 1.50000E+02 1.03250E+01 0.00000E+00
 -1      1234 1.50000E+02 1.32750E+01 0.00000E+00
 -1      1235 1.50000E+02 1.62000E+01 0.00000E+00
 -1      1236 1.50000E+02 1.91250E+01 0.00000E+00
 -1      1237 1.50000E+02 2.20750E+01 0.00000E+00
 -1      1238 1.50000E+02 2.50250E+01 0.00000E+00
 -1      1239 1.50000E+02 2.79750E+01 0.00000E+00
 -1      1240 1.50000E+02 3.09250E+01 0.00000E+00
 -1      1241 1.50000E+02 3.38500E+01 0.00000E+00
 -1      1242 1.50000E+02 3.67750E+01 0.00000E+00
 -1      1243 1.50000E+02 3.97250E+01 0.00000E+00
 -1      1244 1.50000E+02 4.26750E+01 0.00000E+00
 -1      1245 1.50000E+02 4.56250E+01 0.00000E+00
 -1      1246 1.50000E+02 4.85500E+01 0.00000E+00
 -1      1247 1.14645E+02 2.48995E+01 0.00000E+00
 -1      1248 1.14347E+02 2.34856E+01 0.00000E+00
 -1      1249 1.13766E+02 2.21668E+01 0.00000E+00
 -1      1250 1.12927E+02 2.09932E+01 0.00000E+00
 -1      1251 1.11799E+02 1.99680E+01 0.00000E+00
 -1      1252 1.10428E+02 1.91908E+01 0.00000E+00
 -1      1253 1.08980E+02 1.87518E+01 0.00000E+00
 -1      1254 1.07418E+02 1.86356E+01 0.00000E+00
 -1      1255 1.05819E+02 1.88835E+01 0.00000E+00
 -1      1256 1.04369E+02 1.94650E+01 0.00000E+00
 -1      1257 1.03148E+02 2.02990E+01 0.00000E+00
 -1      1258 1.02157E+02 2.13344E+01 0.00000E+00
 -1      1259 1.01389E+02 2.25680E+01 0.00000E+00
 -1      1260 1.00895E+02 2.39216E+01 0.00000E+00
 -1      1261 1.00689E+02 2.53441E+01 0.00000E+00
 -1      1262 1.00791E+02 2.68525E+01 0.00000E+00
 -1      1263 1.01212E+02 2.82988E+01 0.00000E+00
 -1      1264 1.01940E+02 2.96326E+01 0.00000E+00
 -1      1265 1.02966E+02 3.08024E+01 0.00000E+00
 -1      1266 1.04175E+02 3.16877E+01 0.00000E+00
 -1      1267 1.05509E+02 3.22843E+01 0.00000E+00
 -1      1268 1.06931E+02 3.25900E+01 0.00000E+00
 -1      1269 1.08415E+02 3.25923E+01 0.00000E+00
 -1      1270 1.09858E+02 3.22841E+01 0.00000E+00
 -1      1271 1.11193E+02 3.16875E+01 0.00000E+00
 -1      1272 1.12472E+02 3.07369E+01 0.00000E+00
 -1      1273 1.13545E+02 2.94568E+01 0.00000E+00
 -1      1274 1.14276E+02 2.79840E+01 0.00000E+00
 -1      1275 1.14640E+02 2.64137E+01 0.00000E+00
 -1      1276 1.57500E+00 4.85250E+01 0.00000E+00
 -1      1277 1.29900E+00 4.48375E+01 0.00000E+00
 -1      1278 1.29900E+00 4.63125E+01 0.00000E+00
 -1      1279 1.29900E+00 4.18875E+01 0.00000E+00
 -1      1280 1.29900E+00 4.33625E+01 0.00000E+00
 -1      1281 2.59800E+00 4.41000E+01 0.00000E+00
 -1      1282 1.29900E+00 3.89375E+01 0.00000E+00
 -1      1283 1.29900E+00 4.04125E+01 0.00000E+00
 -1      1284 2.59800E+00 4.11500E+01 0.00000E+00
 -1      1285 1.29900E+00 3.59875E+01 0.00000E+00
 -1      1286 1.29900E+00 3.74625E+01 0.00000E+00
 -1      1287 2.59800E+00 3.82000E+01 0.00000E+00
 -1      1288 1.29900E+00 3.30875E+01 0.00000E+00
 -1      1289 1.29900E+00 3.45375E+01 0.00000E+00
 -1      1290 2.59800E+00 3.52750E+01 0.00000E+00
 -1      1291 1.29900E+00 3.01375E+01 0.00000E+00
 -1      1292 1.29900E+00 3.16125E+01 0.00000E+00
 -1      1293 2.59800E+00 3.23500E+01 0.00000E+00
 -1      1294 1.29900E+00 2.71875E+01 0.00000E+00
 -1      1295 1.29900E+00 2.86625E+01 0.00000E+00
 -1      1296 2.59800E+00 2.94000E+01 0.00000E+00
 -1      1297 1.29900E+00 2.42375E+01 0.00000E+00
 -1      1298 1.29900E+00 2.57125E+01 0.00000E+00
 -1      1299 2.59800E+00 2.64500E+01 0.00000E+00
 -1      1300 1.29900E+00 2.12875E+01 0.00000E+00
 -1      1301 1.29900E+00 2.27625E+01 0.00000E+00
 -1      1302 2.59800E+00 2.35000E+01 0.00000E+00
 -1      1303 1.29900E+00 1.83375E+01 0.00000E+00
 -1      1304 1.29900E+00 1.98125E+01 0.00000E+00
 -1      1305 2.59800E+00 2.05500E+01 0.00000E+00
 -1      1306 1.29900E+00 1.54375E+01 0.00000E+00
 -1      1307 1.29900E+00 1.68875E+01 0.00000E+00
 -1      1308 2.59800E+00 1.76250E+01 0.00000E+00
 -1      1309 1.29900E+00 1.24875E+01 0.00000E+00
 -1      1310 1.29900E+00 1.39625E+01 0.00000E+00
 -1      1311 2.59800E+00 1.47000E+01 0.00000E+00
 -1      1312 1.29900E+00 9.53750E+00 0.00000E+00
 -1      1313 1.29900E+00 1.10125E+01 0.00000E+00
 -1      1314 2.59800E+00 1.17500E+01 0.00000E+00
 -1      1315 1.29900E+00 6.58750E+00 0.00000E+00
 -1      1316 1.29900E+00 8.06250E+00 0.00000E+00
 -1      1317 2.59800E+00 8.80000E+00 0.00000E+00
 -1      1318 1.29900E+00 3.63750E+00 0.00000E+00
 -1      1319 1.29900E+00 5.11250E+00 0.00000E+00
 -1      1320 2.59800E+00 5.85000E+00 0.00000E+00
 -1      1321 1.43700E+00 1.09375E+00 0.00000E+00
 -1      1322 1.43700E+00 2.54375E+00 0.00000E+00
 -1      1323 2.73600E+00 3.28125E+00 0.00000E+00
 -1      1324 3.01200E+00 1.09375E+00 0.00000E+00
 -1      1325 3.90000E+00 4.87010E+01 0.00000E+00
 -1      1326 5.40000E+00 4.87010E+01 0.00000E+00
 -1      1327 6.90000E+00 4.87010E+01 0.00000E+00
 -1      1328 8.40000E+00 4.87010E+01 0.00000E+00
 -1      1329 6.15000E+00 4.74020E+01 0.00000E+00
 -1      1330 9.90000E+00 4.87010E+01 0.00000E+00
 -1      1331 1.14000E+01 4.87010E+01 0.00000E+00
 -1      1332 9.15000E+00 4.74020E+01 0.00000E+00
 -1      1333 1.29000E+01 4.87010E+01 0.00000E+00
 -1      1334 1.44000E+01 4.87010E+01 0.00000E+00
 -1      1335 1.21500E+01 4.74020E+01 0.00000E+00
 -1      1336 1.59000E+01 4.87010E+01 0.00000E+00
 -1      1337 1.74000E+01 4.87010E+01 0.00000E+00
 -1      1338 1.51500E+01 4.74020E+01 0.00000E+00
 -1      1339 1.89000E+01 4.87010E+01 0.00000E+00
 -1      1340 2.04000E+01 4.87010E+01 0.00000E+00
 -1      1341 1.81500E+01 4.74020E+01 0.00000E+00
 -1      1342 2.19000E+01 4.87010E+01 0.00000E+00
 -1      1343 2.34000E+01 4.87010E+01 0.00000E+00
 -1      1344 2.11500E+01 4.74020E+01 0.00000E+00
 -1      1345 2.49000E+01 4.87010E+01 0.00000E+00
 -1      1346 2.64000E+01 4.87010E+01 0.00000E+00
 -1      1347 2.41500E+01 4.74020E+01 0.00000E+00
 -1      1348 2.79000E+01 4.87010E+01 0.00000E+00
 -1      1349 2.94000E+01 4.87010E+01 0.00000E+00
 -1      1350 2.71500E+01 4.74020E+01 0.00000E+00
 -1      1351 3.09000E+01 4.87010E+01 0.00000E+00
 -1      1352 3.24000E+01 4.87010E+01 0.00000E+00
 -1      1353 3.01500E+01 4.74020E+01 0.00000E+00
 -1      1354 3.39000E+01 4.87010E+01 0.00000E+00
 -1      1355 3.54000E+01 4.87010E+01 0.00000E+00
 -1      1356 3.31500E+01 4.74020E+01 0.00000E+00
 -1      1357 3.69000E+01 4.87010E+01 0.00000E+00
 -1      1358 3.84000E+01 4.87010E+01 0.00000E+00
 -1      1359 3.61500E+01 4.74020E+01 0.00000E+00
 -1      1360 3.99000E+01 4.87010E+01 0.00000E+00
 -1      1361 4.14000E+01 4.87010E+01 0.00000E+00
 -1      1362 3.91500E+01 4.74020E+01 0.00000E+00
 -1      1363 4.29000E+01 4.87010E+01 0.00000E+00
 -1      1364 4.44000E+01 4.87010E+01 0.00000E+00
 -1      1365 4.21500E+01 4.74020E+01 0.00000E+00
 -1      1366 4.59000E+01 4.87010E+01 0.00000E+00
 -1      1367 4.74000E+01 4.87010E+01 0.00000E+00
 -1      1368 4.51500E+01 4.74020E+01 0.00000E+00
 -1      1369 4.89000E+01 4.87010E+01 0.00000E+00
 -1      1370 5.04000E+01 4.87010E+01 0.00000E+00
 -1      1371 4.81500E+01 4.74020E+01 0.00000E+00
 -1      1372 5.19000E+01 4.87010E+01 0.00000E+00
 -1      1373 5.34000E+01 4.87010E+01 0.00000E+00
 -1      1374 5.11500E+01 4.74020E+01 0.00000E+00
 -1      1375 5.49000E+01 4.87010E+01 0.00000E+00
 -1      1376 5.64000E+01 4.87010E+01 0.00000E+00
 -1      1377 5.41500E+01 4.74020E+01 0.00000E+00
 -1      1378 5.79000E+01 4.87010E+01 0.00000E+00
 -1      1379 5.94000E+01 4.87010E+01 0.00000E+00
 -1      1380 5.71500E+01 4.74020E+01 0.00000E+00
 -1      1381 6.09000E+01 4.87010E+01 0.00000E+00
 -1      1382 6.24000E+01 4.87010E+01 0.00000E+00
 -1      1383 6.01500E+01 4.74020E+01 0.00000E+00
 -1      1384 6.39000E+01 4.87010E+01 0.00000E+00
 -1      1385 6.54000E+01 4.87010E+01 0.00000E+00
 -1      1386 6.31500E+01 4.74020E+01 0.00000E+00
 -1      1387 6.69000E+01 4.87010E+01 0.00000E+00
 -1      1388 6.84000E+01 4.87010E+01 0.00000E+00
 -1      1389 6.61500E+01 4.74020E+01 0.00000E+00
 -1      1390 6.99000E+01 4.87010E+01 0.00000E+00
 -1      1391 7.14000E+01 4.87010E+01 0.00000E+00
 -1      1392 6.91500E+01 4.74020E+01 0.00000E+00
 -1      1393 7.29000E+01 4.87010E+01 0.00000E+00
 -1      1394 7.44000E+01 4.87010E+01 0.00000E+00
 -1      1395 7.21500E+01 4.74020E+01 0.00000E+00
 -1      1396 7.59000E+01 4.87010E+01 0.00000E+00
 -1      1397 7.74000E+01 4.87010E+01 0.00000E+00
 -1      1398 7.51500E+01 4.74020E+01 0.00000E+00
 -1      1399 7.89000E+01 4.87010E+01 0.00000E+00
 -1      1400 8.04000E+01 4.87010E+01 0.00000E+00
 -1      1401 7.81500E+01 4.74020E+01 0.00000E+00
 -1      1402 8.19000E+01 4.87010E+01 0.00000E+00
 -1      1403 8.34000E+01 4.87010E+01 0.00000E+00
 -1      1404 8.11500E+01 4.74020E+01 0.00000E+00
 -1      1405 8.49000E+01 4.87010E+01 0.00000E+00
 -1      1406 8.64000E+01 4.87010E+01 0.00000E+00
 -1      1407 8.41500E+01 4.74020E+01 0.00000E+00
 -1      1408 8.79000E+01 4.87010E+01 0.00000E+00
 -1      1409 8.94000E+01 4.87010E+01 0.00000E+00
 -1      1410 8.71500E+01 4.74020E+01 0.00000E+00
 -1      1411 9.09000E+01 4.87010E+01 0.00000E+00
 -1      1412 9.24000E+01 4.87010E+01 0.00000E+00
 -1      1413 9.01500E+01 4.74020E+01 0.00000E+00
 -1      1414 9.39000E+01 4.87010E+01 0.00000E+00
 -1      1415 9.54000E+01 4.87010E+01 0.00000E+00
 -1      1416 9.31500E+01 4.74020E+01 0.00000E+00
 -1      1417 9.69000E+01 4.87010E+01 0.00000E+00
 -1      1418 9.84000E+01 4.87010E+01 0.00000E+00
 -1      1419 9.61500E+01 4.74020E+01 0.00000E+00
 -1      1420 9.99000E+01 4.87010E+01 0.00000E+00
 -1      1421 1.01400E+02 4.87010E+01 0.00000E+00
 -1      1422 9.91500E+01 4.74020E+01 0.00000E+00
 -1      1423 1.02900E+02 4.87010E+01 0.00000E+00
 -1      1424 1.04400E+02 4.87010E+01 0.00000E+00
 -1      1425 1.02150E+02 4.74020E+01 0.00000E+00
 -1      1426 1.05900E+02 4.87010E+01 0.00000E+00
 -1      1427 1.07400E+02 4.87010E+01 0.00000E+00
 -1      1428 1.05150E+02 4.74020E+01 0.00000E+00
 -1      1429 1.08900E+02 4.87010E+01 0.00000E+00
 -1      1430 1.10400E+02 4.87010E+01 0.00000E+00
 -1      1431 1.08150E+02 4.74020E+01 0.00000E+00
 -1      1432 1.11900E+02 4.87010E+01 0.00000E+00
 -1      1433 1.13400E+02 4.87010E+01 0.00000E+00
 -1      1434 1.11150E+02 4.74020E+01 0.00000E+00
 -1      1435 1.14900E+02 4.87010E+01 0.00000E+00
 -1      1436 1.16400E+02 4.87010E+01 0.00000E+00
 -1      1437 1.14150E+02 4.74020E+01 0.00000E+00
 -1      1438 1.17900E+02 4.87010E+01 0.00000E+00
 -1      1439 1.19400E+02 4.87010E+01 0.00000E+00
 -1      1440 1.17150E+02 4.74020E+01 0.00000E+00
 -1      1441 1.20900E+02 4.87010E+01 0.00000E+00
 -1      1442 1.22400E+02 4.87010E+01 0.00000E+00
 -1      1443 1.20150E+02 4.74020E+01 0.00000E+00
 -1      1444 1.23900E+02 4.87010E+01 0.00000E+00
 -1      1445 1.25400E+02 4.87010E+01 0.00000E+00
 -1      1446 1.23150E+02 4.74020E+01 0.00000E+00
 -1      1447 1.26900E+02 4.87010E+01 0.00000E+00
 -1      1448 1.28400E+02 4.87010E+01 0.00000E+00
 -1      1449 1.26150E+02 4.74020E+01 0.00000E+00
 -1      1450 1.29900E+02 4.87010E+01 0.00000E+00
 -1      1451 1.31400E+02 4.87010E+01 0.00000E+00
 -1      1452 1.29150E+02 4.74020E+01 0.00000E+00
 -1      1453 1.32900E+02 4.87010E+01 0.00000E+00
 -1      1454 1.34400E+02 4.87010E+01 0.00000E+00
 -1      1455 1.32150E+02 4.74020E+01 0.00000E+00
 -1      1456 1.35900E+02 4.87010E+01 0.00000E+00
 -1      1457 1.37400E+02 4.87010E+01 0.00000E+00
 -1      1458 1.35150E+02 4.74020E+01 0.00000E+00
 -1      1459 1.38900E+02 4.87010E+01 0.00000E+00
 -1      1460 1.40400E+02 4.87010E+01 0.00000E+00
 -1      1461 1.38150E+02 4.74020E+01 0.00000E+00
 -1      1462 1.41900E+02 4.87010E+01 0.00000E+00
 -1      1463 1.43400E+02 4.87010E+01 0.00000E+00
 -1      1464 1.41150E+02 4.74020E+01 0.00000E+00
 -1      1465 1.44900E+02 4.87010E+01 0.00000E+00
 -1      1466 1.46400E+02 4.87010E+01 0.00000E+00
 -1      1467 1.44150E+02 4.74020E+01 0.00000E+00
 -1      1468 1.48575E+02 4.85500E+01 0.00000E+00
 -1      1469 1.47825E+02 4.72510E+01 0.00000E+00
 -1      1470 6.01200E+00 1.09375E+00 0.00000E+00
 -1      1471 4.51200E+00 1.09375E+00 0.00000E+00
 -1      1472 4.37400E+00 2.18750E+00 0.00000E+00
 -1      1473 9.01200E+00 1.09375E+00 0.00000E+00
 -1      1474 7.51200E+00 1.09375E+00 0.00000E+00
 -1      1475 7.37400E+00 2.18750E+00 0.00000E+00
 -1      1476 1.20120E+01 1.09375E+00 0.00000E+00
 -1      1477 1.05120E+01 1.09375E+00 0.00000E+00
 -1      1478 1.03740E+01 2.18750E+00 0.00000E+00
 -1      1479 1.50120E+01 1.09375E+00 0.00000E+00
 -1      1480 1.35120E+01 1.09375E+00 0.00000E+00
 -1      1481 1.33740E+01 2.18750E+00 0.00000E+00
 -1      1482 1.80120E+01 1.09375E+00 0.00000E+00
 -1      1483 1.65120E+01 1.09375E+00 0.00000E+00
 -1      1484 1.63740E+01 2.18750E+00 0.00000E+00
 -1      1485 2.10120E+01 1.09375E+00 0.00000E+00
 -1      1486 1.95120E+01 1.09375E+00 0.00000E+00
 -1      1487 1.93740E+01 2.18750E+00 0.00000E+00
 -1      1488 2.40120E+01 1.09375E+00 0.00000E+00
 -1      1489 2.25120E+01 1.09375E+00 0.00000E+00
 -1      1490 2.23740E+01 2.18750E+00 0.00000E+00
 -1      1491 2.70120E+01 1.09375E+00 0.00000E+00
 -1      1492 2.55120E+01 1.09375E+00 0.00000E+00
 -1      1493 2.53740E+01 2.18750E+00 0.00000E+00
 -1      1494 3.00120E+01 1.09375E+00 0.00000E+00
 -1      1495 2.85120E+01 1.09375E+00 0.00000E+00
 -1      1496 2.83740E+01 2.18750E+00 0.00000E+00
 -1      1497 3.30120E+01 1.09375E+00 0.00000E+00
 -1      1498 3.15120E+01 1.09375E+00 0.00000E+00
 -1      1499 3.13740E+01 2.18750E+00 0.00000E+00
 -1      1500 3.60120E+01 1.09375E+00 0.00000E+00
 -1      1501 3.45120E+01 1.09375E+00 0.00000E+00
 -1      1502 3.43740E+01 2.18750E+00 0.00000E+00
 -1      1503 3.90120E+01 1.09375E+00 0.00000E+00
 -1      1504 3.75120E+01 1.09375E+00 0.00000E+00
 -1      1505 3.73740E+01 2.18750E+00 0.00000E+00
 -1      1506 4.20120E+01 1.09375E+00 0.00000E+00
 -1      1507 4.05120E+01 1.09375E+00 0.00000E+00
 -1      1508 4.03740E+01 2.18750E+00 0.00000E+00
 -1      1509 4.50120E+01 1.09375E+00 0.00000E+00
 -1      1510 4.35120E+01 1.09375E+00 0.00000E+00
 -1      1511 4.33740E+01 2.18750E+00 0.00000E+00
 -1      1512 4.80120E+01 1.09375E+00 0.00000E+00
 -1      1513 4.65120E+01 1.09375E+00 0.00000E+00
 -1      1514 4.63740E+01 2.18750E+00 0.00000E+00
 -1      1515 5.10120E+01 1.09375E+00 0.00000E+00
 -1      1516 4.95120E+01 1.09375E+00 0.00000E+00
 -1      1517 4.93740E+01 2.18750E+00 0.00000E+00
 -1      1518 5.40120E+01 1.09375E+00 0.00000E+00
 -1      1519 5.25120E+01 1.09375E+00 0.00000E+00
 -1      1520 5.23740E+01 2.18750E+00 0.00000E+00
 -1      1521 5.70120E+01 1.09375E+00 0.00000E+00
 -1      1522 5.55120E+01 1.09375E+00 0.00000E+00
 -1      1523 5.53740E+01 2.18750E+00 0.00000E+00
 -1      1524 6.00120E+01 1.09375E+00 0.00000E+00
 -1      1525 5.85120E+01 1.09375E+00 0.00000E+00
 -1      1526 5.83740E+01 2.18750E+00 0.00000E+00
 -1      1527 6.30120E+01 1.09375E+00 0.00000E+00
 -1      1528 6.15120E+01 1.09375E+00 0.00000E+00
 -1      1529 6.13740E+01 2.18750E+00 0.00000E+00
 -1      1530 6.60120E+01 1.09375E+00 0.00000E+00
 -1      1531 6.45120E+01 1.09375E+00 0.00000E+00
 -1      1532 6.43740E+01 2.18750E+00 0.00000E+00
 -1      1533 6.90120E+01 1.09375E+00 0.00000E+00
 -1      1534 6.75120E+01 1.09375E+00 0.00000E+00
 -1      1535 6.73740E+01 2.18750E+00 0.00000E+00
 -1      1536 7.20120E+01 1.09375E+00 0.00000E+00
 -1      1537 7.05120E+01 1.09375E+00 0.00000E+00
 -1      1538 7.03740E+01 2.18750E+00 0.00000E+00
 -1      1539 7.50120E+01 1.09375E+00 0.00000E+00
 -1      1540 7.35120E+01 1.09375E+00 0.00000E+00
 -1      1541 7.33740E+01 2.18750E+00 0.00000E+00
 -1      1542 7.80120E+01 1.09375E+00 0.00000E+00
 -1      1543 7.65120E+01 1.09375E+00 0.00000E+00
 -1      1544 7.63740E+01 2.18750E+00 0.00000E+00
 -1      1545 8.10120E+01 1.09375E+00 0.00000E+00
 -1      1546 7.95120E+01 1.09375E+00 0.00000E+00
 -1      1547 7.93740E+01 2.18750E+00 0.00000E+00
 -1      1548 8.40120E+01 1.09375E+00 0.00000E+00
 -1      1549 8.25120E+01 1.09375E+00 0.00000E+00
 -1      1550 8.23740E+01 2.18750E+00 0.00000E+00
 -1      1551 8.70120E+01 1.09375E+00 0.00000E+00
 -1      1552 8.55120E+01 1.09375E+00 0.00000E+00
 -1      1553 8.53740E+01 2.18750E+00 0.00000E+00
 -1      1554 9.00120E+01 1.09375E+00 0.00000E+00
 -1      1555 8.85120E+01 1.09375E+00 0.00000E+00
 -1      1556 8.83740E+01 2.18750E+00 0.00000E+00
 -1      1557 9.30120E+01 1.09375E+00 0.00000E+00
 -1      1558 9.15120E+01 1.09375E+00 0.00000E+00
 -1      1559 9.13740E+01 2.18750E+00 0.00000E+00
 -1      1560 9.60120E+01 1.09375E+00 0.00000E+00
 -1      1561 9.45120E+01 1.09375E+00 0.00000E+00
 -1      1562 9.43740E+01 2.18750E+00 0.00000E+00
 -1      1563 9.90120E+01 1.09375E+00 0.00000E+00
 -1      1564 9.75120E+01 1.09375E+00 0.00000E+00
 -1      1565 9.73740E+01 2.18750E+00 0.00000E+00
 -1      1566 1.02012E+02 1.09375E+00 0.00000E+00
 -1      1567 1.00512E+02 1.09375E+00 0.00000E+00
 -1      1568 1.00374E+02 2.18750E+00 0.00000E+00
 -1      1569 1.05012E+02 1.09375E+00 0.00000E+00
 -1      1570 1.03512E+02 1.09375E+00 0.00000E+00
 -1      1571 1.03374E+02 2.18750E+00 0.00000E+00
 -1      1572 1.08012E+02 1.09375E+00 0.00000E+00
 -1      1573 1.06512E+02 1.09375E+00 0.00000E+00
 -1      1574 1.06374E+02 2.18750E+00 0.00000E+00
 -1      1575 1.11012E+02 1.09375E+00 0.00000E+00
 -1      1576 1.09512E+02 1.09375E+00 0.00000E+00
 -1      1577 1.09374E+02 2.18750E+00 0.00000E+00
 -1      1578 1.14012E+02 1.09375E+00 0.00000E+00
 -1      1579 1.12512E+02 1.09375E+00 0.00000E+00
 -1      1580 1.12374E+02 2.18750E+00 0.00000E+00
 -1      1581 1.17012E+02 1.09375E+00 0.00000E+00
 -1      1582 1.15512E+02 1.09375E+00 0.00000E+00
 -1      1583 1.15374E+02 2.18750E+00 0.00000E+00
 -1      1584 1.20012E+02 1.09375E+00 0.00000E+00
 -1      1585 1.18512E+02 1.09375E+00 0.00000E+00
 -1      1586 1.18374E+02 2.18750E+00 0.00000E+00
 -1      1587 1.23012E+02 1.09375E+00 0.00000E+00
 -1      1588 1.21512E+02 1.09375E+00 0.00000E+00
 -1      1589 1.21374E+02 2.18750E+00 0.00000E+00
 -1      1590 1.26012E+02 1.09375E+00 0.00000E+00
 -1      1591 1.24512E+02 1.09375E+00 0.00000E+00
 -1      1592 1.24374E+02 2.18750E+00 0.00000E+00
 -1      1593 1.29012E+02 1.09375E+00 0.00000E+00
 -1      1594 1.27512E+02 1.09375E+00 0.00000E+00
 -1      1595 1.27374E+02 2.18750E+00 0.00000E+00
 -1      1596 1.32012E+02 1.09375E+00 0.00000E+00
 -1      1597 1.30512E+02 1.09375E+00 0.00000E+00
 -1      1598 1.30374E+02 2.18750E+00 0.00000E+00
 -1      1599 1.35012E+02 1.09375E+00 0.00000E+00
 -1      1600 1.33512E+02 1.09375E+00 0.00000E+00
 -1      1601 1.33374E+02 2.18750E+00 0.00000E+00
 -1      1602 1.38012E+02 1.09375E+00 0.00000E+00
 -1      1603 1.36512E+02 1.09375E+00 0.00000E+00
 -1      1604 1.36374E+02 2.18750E+00 0.00000E+00
 -1      1605 1.41012E+02 1.09375E+00 0.00000E+00
 -1      1606 1.39512E+02 1.09375E+00 0.00000E+00
 -1      1607 1.39374E+02 2.18750E+00 0.00000E+00
 -1      1608 1.44012E+02 1.09375E+00 0.00000E+00
 -1      1609 1.42512E+02 1.09375E+00 0.00000E+00
 -1      1610 1.42374E+02 2.18750E+00 0.00000E+00
 -1      1611 1.47012E+02 1.09375E+00 0.00000E+00
 -1      1612 1.45512E+02 1.09375E+00 0.00000E+00
 -1      1613 1.45374E+02 2.18750E+00 0.00000E+00
 -1      1614 1.48575E+02 1.47500E+00 0.00000E+00
 -1      1615 1.48701E+02 5.16250E+00 0.00000E+00
 -1      1616 1.48701E+02 3.68750E+00 0.00000E+00
 -1      1617 1.48701E+02 8.11250E+00 0.00000E+00
 -1      1618 1.48701E+02 6.63750E+00 0.00000E+00
 -1      1619 1.47402E+02 5.90000E+00 0.00000E+00
 -1      1620 1.48701E+02 1.10625E+01 0.00000E+00
 -1      1621 1.48701E+02 9.58750E+00 0.00000E+00
 -1      1622 1.47402E+02 8.85000E+00 0.00000E+00
 -1      1623 1.48701E+02 1.40125E+01 0.00000E+00
 -1      1624 1.48701E+02 1.25375E+01 0.00000E+00
 -1      1625 1.47402E+02 1.18000E+01 0.00000E+00
 -1      1626 1.48701E+02 1.69125E+01 0.00000E+00
 -1      1627 1.48701E+02 1.54625E+01 0.00000E+00
 -1      1628 1.47402E+02 1.47250E+01 0.00000E+00
 -1      1629 1.48701E+02 1.98625E+01 0.00000E+00
 -1      1630 1.48701E+02 1.83875E+01 0.00000E+00
 -1      1631 1.47402E+02 1.76500E+01 0.00000E+00
 -1      1632 1.48701E+02 2.28125E+01 0.00000E+00
 -1      1633 1.48701E+02 2.13375E+01 0.00000E+00
 -1      1634 1.47402E+02 2.06000E+01 0.00000E+00
 -1      1635 1.48701E+02 2.57625E+01 0.00000E+00
 -1      1636 1.48701E+02 2.42875E+01 0.00000E+00
 -1      1637 1.47402E+02 2.35500E+01 0.00000E+00
 -1      1638 1.48701E+02 2.87125E+01 0.00000E+00
 -1      1639 1.48701E+02 2.72375E+01 0.00000E+00
 -1      1640 1.47402E+02 2.65000E+01 0.00000E+00
 -1      1641 1.48701E+02 3.16625E+01 0.00000E+00
 -1      1642 1.48701E+02 3.01875E+01 0.00000E+00
 -1      1643 1.47402E+02 2.94500E+01 0.00000E+00
 -1      1644 1.48701E+02 3.45625E+01 0.00000E+00
 -1      1645 1.48701E+02 3.31125E+01 0.00000E+00
 -1      1646 1.47402E+02 3.23750E+01 0.00000E+00
 -1      1647 1.48701E+02 3.75125E+01 0.00000E+00
 -1      1648 1.48701E+02 3.60375E+01 0.00000E+00
 -1      1649 1.47402E+02 3.53000E+01 0.00000E+00
 -1      1650 1.48701E+02 4.04625E+01 0.00000E+00
 -1      1651 1.48701E+02 3.89875E+01 0.00000E+00
 -1      1652 1.47402E+02 3.82500E+01 0.00000E+00
 -1      1653 1.48701E+02 4.34125E+01 0.00000E+00
 -1      1654 1.48701E+02 4.19375E+01 0.00000E+00
 -1      1655 1.47402E+02 4.12000E+01 0.00000E+00
 -1      1656 1.48263E+02 4.60692E+01 0.00000E+00
 -1      1657 1.48263E+02 4.45942E+01 0.00000E+00
 -1      1658 1.46964E+02 4.38568E+01 0.00000E+00
 -1      1659 1.46088E+02 4.62202E+01 0.00000E+00
 -1      1660 1.15214E+02 2.44724E+01 0.00000E+00
 -1      1661 1.15290E+02 2.51994E+01 0.00000E+00
 -1      1662 1.14899E+02 2.29327E+01 0.00000E+00
 -1      1663 1.15118E+02 2.36124E+01 0.00000E+00
 -1      1664 1.14117E+02 2.15491E+01 0.00000E+00
 -1      1665 1.14477E+02 2.21806E+01 0.00000E+00
 -1      1666 1.13116E+02 2.03477E+01 0.00000E+00
 -1      1667 1.13591E+02 2.08842E+01 0.00000E+00
 -1      1668 1.11850E+02 1.92101E+01 0.00000E+00
 -1      1669 1.12504E+02 1.96854E+01 0.00000E+00
 -1      1670 1.10295E+02 1.85215E+01 0.00000E+00
 -1      1671 1.11002E+02 1.88225E+01 0.00000E+00
 -1      1672 1.08727E+02 1.80849E+01 0.00000E+00
 -1      1673 1.09459E+02 1.82229E+01 0.00000E+00
 -1      1674 1.06981E+02 1.79683E+01 0.00000E+00
 -1      1675 1.07803E+02 1.79371E+01 0.00000E+00
 -1      1676 1.05241E+02 1.82875E+01 0.00000E+00
 -1      1677 1.06008E+02 1.80754E+01 0.00000E+00
 -1      1678 1.03725E+02 1.90757E+01 0.00000E+00
 -1      1679 1.04400E+02 1.87129E+01 0.00000E+00
 -1      1680 1.02480E+02 2.00641E+01 0.00000E+00
 -1      1681 1.03023E+02 1.96022E+01 0.00000E+00
 -1      1682 1.01454E+02 2.12438E+01 0.00000E+00
 -1      1683 1.01896E+02 2.06752E+01 0.00000E+00
 -1      1684 1.00718E+02 2.26491E+01 0.00000E+00
 -1      1685 1.01039E+02 2.19901E+01 0.00000E+00
 -1      1686 1.00256E+02 2.41256E+01 0.00000E+00
 -1      1687 1.00429E+02 2.34391E+01 0.00000E+00
 -1      1688 1.00107E+02 2.56852E+01 0.00000E+00
 -1      1689 1.00137E+02 2.49564E+01 0.00000E+00
 -1      1690 1.00264E+02 2.73432E+01 0.00000E+00
 -1      1691 1.00128E+02 2.65728E+01 0.00000E+00
 -1      1692 1.00785E+02 2.88661E+01 0.00000E+00
 -1      1693 1.00510E+02 2.81969E+01 0.00000E+00
 -1      1694 1.01605E+02 3.03516E+01 0.00000E+00
 -1      1695 1.01150E+02 2.96986E+01 0.00000E+00
 -1      1696 1.02838E+02 3.15067E+01 0.00000E+00
 -1      1697 1.02277E+02 3.09946E+01 0.00000E+00
 -1      1698 1.04210E+02 3.23635E+01 0.00000E+00
 -1      1699 1.03571E+02 3.19935E+01 0.00000E+00
 -1      1700 1.05663E+02 3.29771E+01 0.00000E+00
 -1      1701 1.04976E+02 3.27524E+01 0.00000E+00
 -1      1702 1.07229E+02 3.32356E+01 0.00000E+00
 -1      1703 1.06502E+02 3.31570E+01 0.00000E+00
 -1      1704 1.08857E+02 3.31988E+01 0.00000E+00
 -1      1705 1.08108E+02 3.32774E+01 0.00000E+00
 -1      1706 1.10379E+02 3.27123E+01 0.00000E+00
 -1      1707 1.09691E+02 3.29371E+01 0.00000E+00
 -1      1708 1.11817E+02 3.20295E+01 0.00000E+00
 -1      1709 1.11178E+02 3.23995E+01 0.00000E+00
 -1      1710 1.13220E+02 3.09094E+01 0.00000E+00
 -1      1711 1.12596E+02 3.14944E+01 0.00000E+00
 -1      1712 1.14271E+02 2.94436E+01 0.00000E+00
 -1      1713 1.13825E+02 3.01264E+01 0.00000E+00
 -1      1714 1.14979E+02 2.77951E+01 0.00000E+00
 -1      1715 1.14701E+02 2.85756E+01 0.00000E+00
 -1      1716 1.15242E+02 2.60875E+01 0.00000E+00
 -1      1717 1.15154E+02 2.68657E+01 0.00000E+00
 -1      1718 1.13195E+02 1.95520E+01 0.00000E+00
 -1      1719 1.14334E+02 2.08793E+01 0.00000E+00
 -1      1720 1.48437E+02 2.56875E+00 0.00000E+00
 -1      1721 1.47138E+02 3.30625E+00 0.00000E+00
 -1      1722 1.15801E+02 2.39082E+01 0.00000E+00
 -1      1723 1.15283E+02 2.22962E+01 0.00000E+00
 -1      1724 1.15848E+02 2.56563E+01 0.00000E+00
 -1      1725 1.11734E+02 1.85020E+01 0.00000E+00
 -1      1726 1.10050E+02 1.78157E+01 0.00000E+00
 -1      1727 1.08289E+02 1.73692E+01 0.00000E+00
 -1      1728 1.06392E+02 1.73285E+01 0.00000E+00
 -1      1729 1.04577E+02 1.78611E+01 0.00000E+00
 -1      1730 1.03033E+02 1.88131E+01 0.00000E+00
 -1      1731 1.01747E+02 1.99506E+01 0.00000E+00
 -1      1732 1.00748E+02 2.13081E+01 0.00000E+00
 -1      1733 1.00044E+02 2.28444E+01 0.00000E+00
 -1      1734 9.96352E+01 2.44652E+01 0.00000E+00
 -1      1735 9.95369E+01 2.61836E+01 0.00000E+00
 -1      1736 9.98031E+01 2.79248E+01 0.00000E+00
 -1      1737 1.00412E+02 2.96110E+01 0.00000E+00
 -1      1738 1.01449E+02 3.10865E+01 0.00000E+00
 -1      1739 1.02854E+02 3.22163E+01 0.00000E+00
 -1      1740 1.04353E+02 3.30919E+01 0.00000E+00
 -1      1741 1.05957E+02 3.36607E+01 0.00000E+00
 -1      1742 1.07675E+02 3.38825E+01 0.00000E+00
 -1      1743 1.09389E+02 3.36626E+01 0.00000E+00
 -1      1744 1.11023E+02 3.30881E+01 0.00000E+00
 -1      1745 1.12601E+02 3.22402E+01 0.00000E+00
 -1      1746 1.13985E+02 3.09222E+01 0.00000E+00
 -1      1747 1.15021E+02 2.92712E+01 0.00000E+00
 -1      1748 1.15625E+02 2.74738E+01 0.00000E+00
 -1      1749 2.87400E+00 4.77875E+01 0.00000E+00
 -1      1750 3.89700E+00 4.04125E+01 0.00000E+00
 -1      1751 3.89700E+00 4.18875E+01 0.00000E+00
 -1      1752 3.89700E+00 4.33625E+01 0.00000E+00
 -1      1753 3.89700E+00 4.48375E+01 0.00000E+00
 -1      1754 5.19600E+00 4.26250E+01 0.00000E+00
 -1      1755 3.89700E+00 3.45500E+01 0.00000E+00
 -1      1756 3.89700E+00 3.60000E+01 0.00000E+00
 -1      1757 3.89700E+00 3.16000E+01 0.00000E+00
 -1      1758 3.89700E+00 3.30750E+01 0.00000E+00
 -1      1759 5.19600E+00 3.38000E+01 0.00000E+00
 -1      1760 3.89700E+00 2.86500E+01 0.00000E+00
 -1      1761 3.89700E+00 3.01250E+01 0.00000E+00
 -1      1762 5.19600E+00 3.08500E+01 0.00000E+00
 -1      1763 3.89700E+00 2.57000E+01 0.00000E+00
 -1      1764 3.89700E+00 2.71750E+01 0.00000E+00
 -1      1765 5.19600E+00 2.79000E+01 0.00000E+00
 -1      1766 3.89700E+00 2.27500E+01 0.00000E+00
 -1      1767 3.89700E+00 2.42250E+01 0.00000E+00
 -1      1768 5.19600E+00 2.49500E+01 0.00000E+00
 -1      1769 3.89700E+00 1.98000E+01 0.00000E+00
 -1      1770 3.89700E+00 2.12750E+01 0.00000E+00
 -1      1771 5.19600E+00 2.20000E+01 0.00000E+00
 -1      1772 3.89700E+00 1.69000E+01 0.00000E+00
 -1      1773 3.89700E+00 1.83500E+01 0.00000E+00
 -1      1774 5.19600E+00 1.90750E+01 0.00000E+00
 -1      1775 3.89700E+00 1.39500E+01 0.00000E+00
 -1      1776 3.89700E+00 1.54250E+01 0.00000E+00
 -1      1777 5.19600E+00 1.61500E+01 0.00000E+00
 -1      1778 3.89700E+00 1.10000E+01 0.00000E+00
 -1      1779 3.89700E+00 1.24750E+01 0.00000E+00
 -1      1780 5.19600E+00 1.32000E+01 0.00000E+00
 -1      1781 3.89700E+00 8.05000E+00 0.00000E+00
 -1      1782 3.89700E+00 9.52500E+00 0.00000E+00
 -1      1783 5.19600E+00 1.02500E+01 0.00000E+00
 -1      1784 3.89700E+00 5.10000E+00 0.00000E+00
 -1      1785 3.89700E+00 6.57500E+00 0.00000E+00
 -1      1786 5.19600E+00 7.30000E+00 0.00000E+00
 -1      1787 4.20450E+00 3.09687E+00 0.00000E+00
 -1      1788 4.06650E+00 4.19063E+00 0.00000E+00
 -1      1789 5.36550E+00 4.91563E+00 0.00000E+00
 -1      1790 5.70450E+00 3.09687E+00 0.00000E+00
 -1      1791 3.62400E+00 4.64885E+01 0.00000E+00
 -1      1792 8.70450E+00 3.09687E+00 0.00000E+00
 -1      1793 7.20450E+00 3.09687E+00 0.00000E+00
 -1      1794 7.03500E+00 4.00625E+00 0.00000E+00
 -1      1795 4.92300E+00 4.57510E+01 0.00000E+00
 -1      1796 8.40000E+00 4.61030E+01 0.00000E+00
 -1      1797 9.90000E+00 4.61030E+01 0.00000E+00
 -1      1798 1.14000E+01 4.61030E+01 0.00000E+00
 -1      1799 1.29000E+01 4.61030E+01 0.00000E+00
 -1      1800 1.06500E+01 4.48040E+01 0.00000E+00
 -1      1801 1.44000E+01 4.61030E+01 0.00000E+00
 -1      1802 1.59000E+01 4.61030E+01 0.00000E+00
 -1      1803 1.36500E+01 4.48040E+01 0.00000E+00
 -1      1804 1.74000E+01 4.61030E+01 0.00000E+00
 -1      1805 1.89000E+01 4.61030E+01 0.00000E+00
 -1      1806 1.66500E+01 4.48040E+01 0.00000E+00
 -1      1807 2.04000E+01 4.61030E+01 0.00000E+00
 -1      1808 2.19000E+01 4.61030E+01 0.00000E+00
 -1      1809 1.96500E+01 4.48040E+01 0.00000E+00
 -1      1810 2.34000E+01 4.61030E+01 0.00000E+00
 -1      1811 2.49000E+01 4.61030E+01 0.00000E+00
 -1      1812 2.26500E+01 4.48040E+01 0.00000E+00
 -1      1813 2.64000E+01 4.61030E+01 0.00000E+00
 -1      1814 2.79000E+01 4.61030E+01 0.00000E+00
 -1      1815 2.56500E+01 4.48040E+01 0.00000E+00
 -1      1816 2.94000E+01 4.61030E+01 0.00000E+00
 -1      1817 3.09000E+01 4.61030E+01 0.00000E+00
 -1      1818 2.86500E+01 4.48040E+01 0.00000E+00
 -1      1819 3.24000E+01 4.61030E+01 0.00000E+00
 -1      1820 3.39000E+01 4.61030E+01 0.00000E+00
 -1      1821 3.16500E+01 4.48040E+01 0.00000E+00
 -1      1822 3.54000E+01 4.61030E+01 0.00000E+00
 -1      1823 3.69000E+01 4.61030E+01 0.00000E+00
 -1      1824 3.46500E+01 4.48040E+01 0.00000E+00
 -1      1825 3.84000E+01 4.61030E+01 0.00000E+00
 -1      1826 3.99000E+01 4.61030E+01 0.00000E+00
 -1      1827 3.76500E+01 4.48040E+01 0.00000E+00
 -1      1828 4.14000E+01 4.61030E+01 0.00000E+00
 -1      1829 4.29000E+01 4.61030E+01 0.00000E+00
 -1      1830 4.06500E+01 4.48040E+01 0.00000E+00
 -1      1831 4.44000E+01 4.61030E+01 0.00000E+00
 -1      1832 4.59000E+01 4.61030E+01 0.00000E+00
 -1      1833 4.36500E+01 4.48040E+01 0.00000E+00
 -1      1834 4.74000E+01 4.61030E+01 0.00000E+00
 -1      1835 4.89000E+01 4.61030E+01 0.00000E+00
 -1      1836 4.66500E+01 4.48040E+01 0.00000E+00
 -1      1837 5.04000E+01 4.61030E+01 0.00000E+00
 -1      1838 5.19000E+01 4.61030E+01 0.00000E+00
 -1      1839 4.96500E+01 4.48040E+01 0.00000E+00
 -1      1840 5.34000E+01 4.61030E+01 0.00000E+00
 -1      1841 5.49000E+01 4.61030E+01 0.00000E+00
 -1      1842 5.26500E+01 4.48040E+01 0.00000E+00
 -1      1843 5.64000E+01 4.61030E+01 0.00000E+00
 -1      1844 5.79000E+01 4.61030E+01 0.00000E+00
 -1      1845 5.56500E+01 4.48040E+01 0.00000E+00
 -1      1846 5.94000E+01 4.61030E+01 0.00000E+00
 -1      1847 6.09000E+01 4.61030E+01 0.00000E+00
 -1      1848 5.86500E+01 4.48040E+01 0.00000E+00
 -1      1849 6.24000E+01 4.61030E+01 0.00000E+00
 -1      1850 6.39000E+01 4.61030E+01 0.00000E+00
 -1      1851 6.16500E+01 4.48040E+01 0.00000E+00
 -1      1852 6.54000E+01 4.61030E+01 0.00000E+00
 -1      1853 6.69000E+01 4.61030E+01 0.00000E+00
 -1      1854 6.46500E+01 4.48040E+01 0.00000E+00
 -1      1855 6.84000E+01 4.61030E+01 0.00000E+00
 -1      1856 6.99000E+01 4.61030E+01 0.00000E+00
 -1      1857 6.76500E+01 4.48040E+01 0.00000E+00
 -1      1858 7.14000E+01 4.61030E+01 0.00000E+00
 -1      1859 7.29000E+01 4.61030E+01 0.00000E+00
 -1      1860 7.06500E+01 4.48040E+01 0.00000E+00
 -1      1861 7.44000E+01 4.61030E+01 0.00000E+00
 -1      1862 7.59000E+01 4.61030E+01 0.00000E+00
 -1      1863 7.36500E+01 4.48040E+01 0.00000E+00
 -1      1864 7.74000E+01 4.61030E+01 0.00000E+00
 -1      1865 7.89000E+01 4.61030E+01 0.00000E+00
 -1      1866 7.66500E+01 4.48040E+01 0.00000E+00
 -1      1867 8.04000E+01 4.61030E+01 0.00000E+00
 -1      1868 8.19000E+01 4.61030E+01 0.00000E+00
 -1      1869 7.96500E+01 4.48040E+01 0.00000E+00
 -1      1870 8.34000E+01 4.61030E+01 0.00000E+00
 -1      1871 8.49000E+01 4.61030E+01 0.00000E+00
 -1      1872 8.26500E+01 4.48040E+01 0.00000E+00
 -1      1873 8.64000E+01 4.61030E+01 0.00000E+00
 -1      1874 8.79000E+01 4.61030E+01 0.00000E+00
 -1      1875 8.56500E+01 4.48040E+01 0.00000E+00
 -1      1876 8.94000E+01 4.61030E+01 0.00000E+00
 -1      1877 9.09000E+01 4.61030E+01 0.00000E+00
 -1      1878 8.86500E+01 4.48040E+01 0.00000E+00
 -1      1879 9.24000E+01 4.61030E+01 0.00000E+00
 -1      1880 9.39000E+01 4.61030E+01 0.00000E+00
 -1      1881 9.16500E+01 4.48040E+01 0.00000E+00
 -1      1882 9.54000E+01 4.61030E+01 0.00000E+00
 -1      1883 9.69000E+01 4.61030E+01 0.00000E+00
 -1      1884 9.46500E+01 4.48040E+01 0.00000E+00
 -1      1885 9.84000E+01 4.61030E+01 0.00000E+00
 -1      1886 9.99000E+01 4.61030E+01 0.00000E+00
 -1      1887 9.76500E+01 4.48040E+01 0.00000E+00
 -1      1888 1.01400E+02 4.61030E+01 0.00000E+00
 -1      1889 1.02900E+02 4.61030E+01 0.00000E+00
 -1      1890 1.00650E+02 4.48040E+01 0.00000E+00
 -1      1891 1.04400E+02 4.61030E+01 0.00000E+00
 -1      1892 1.05900E+02 4.61030E+01 0.00000E+00
 -1      1893 1.03650E+02 4.48040E+01 0.00000E+00
 -1      1894 1.07400E+02 4.61030E+01 0.00000E+00
 -1      1895 1.08900E+02 4.61030E+01 0.00000E+00
 -1      1896 1.06650E+02 4.48040E+01 0.00000E+00
 -1      1897 1.10400E+02 4.61030E+01 0.00000E+00
 -1      1898 1.11900E+02 4.61030E+01 0.00000E+00
 -1      1899 1.09650E+02 4.48040E+01 0.00000E+00
 -1      1900 1.13400E+02 4.61030E+01 0.00000E+00
 -1      1901 1.14900E+02 4.61030E+01 0.00000E+00
 -1      1902 1.12650E+02 4.48040E+01 0.00000E+00
 -1      1903 1.16400E+02 4.61030E+01 0.00000E+00
 -1      1904 1.17900E+02 4.61030E+01 0.00000E+00
 -1      1905 1.15650E+02 4.48040E+01 0.00000E+00
 -1      1906 1.19400E+02 4.61030E+01 0.00000E+00
 -1      1907 1.20900E+02 4.61030E+01 0.00000E+00
 -1      1908 1.18650E+02 4.48040E+01 0.00000E+00
 -1      1909 1.22400E+02 4.61030E+01 0.00000E+00
 -1      1910 1.23900E+02 4.61030E+01 0.00000E+00
 -1      1911 1.21650E+02 4.48040E+01 0.00000E+00
 -1      1912 1.25400E+02 4.61030E+01 0.00000E+00
 -1      1913 1.26900E+02 4.61030E+01 0.00000E+00
 -1      1914 1.24650E+02 4.48040E+01 0.00000E+00
 -1      1915 1.28400E+02 4.61030E+01 0.00000E+00
 -1      1916 1.29900E+02 4.61030E+01 0.00000E+00
 -1      1917 1.27650E+02 4.48040E+01 0.00000E+00
 -1      1918 1.31400E+02 4.61030E+01 0.00000E+00
 -1      1919 1.32900E+02 4.61030E+01 0.00000E+00
 -1      1920 1.30650E+02 4.48040E+01 0.00000E+00
 -1      1921 1.34400E+02 4.61030E+01 0.00000E+00
 -1      1922 1.35900E+02 4.61030E+01 0.00000E+00
 -1      1923 1.33650E+02 4.48040E+01 0.00000E+00
 -1      1924 1.37400E+02 4.61030E+01 0.00000E+00
 -1      1925 1.38900E+02 4.61030E+01 0.00000E+00
 -1      1926 1.36650E+02 4.48040E+01 0.00000E+00
 -1      1927 1.40400E+02 4.61030E+01 0.00000E+00
 -1      1928 1.41900E+02 4.61030E+01 0.00000E+00
 -1      1929 1.39650E+02 4.48040E+01 0.00000E+00
 -1      1930 1.43244E+02 4.61616E+01 0.00000E+00
 -1      1931 1.44744E+02 4.61616E+01 0.00000E+00
 -1      1932 1.45182E+02 4.49799E+01 0.00000E+00
 -1      1933 1.42494E+02 4.48626E+01 0.00000E+00
 -1      1934 1.17045E+01 3.09687E+00 0.00000E+00
 -1      1935 1.02045E+01 3.09687E+00 0.00000E+00
 -1      1936 1.00350E+01 4.00625E+00 0.00000E+00
 -1      1937 1.47045E+01 3.09687E+00 0.00000E+00
 -1      1938 1.32045E+01 3.09687E+00 0.00000E+00
 -1      1939 1.30350E+01 4.00625E+00 0.00000E+00
 -1      1940 1.77045E+01 3.09687E+00 0.00000E+00
 -1      1941 1.62045E+01 3.09687E+00 0.00000E+00
 -1      1942 1.60350E+01 4.00625E+00 0.00000E+00
 -1      1943 2.07045E+01 3.09687E+00 0.00000E+00
 -1      1944 1.92045E+01 3.09687E+00 0.00000E+00
 -1      1945 1.90350E+01 4.00625E+00 0.00000E+00
 -1      1946 2.37045E+01 3.09687E+00 0.00000E+00
 -1      1947 2.22045E+01 3.09687E+00 0.00000E+00
 -1      1948 2.20350E+01 4.00625E+00 0.00000E+00
 -1      1949 2.67045E+01 3.09687E+00 0.00000E+00
 -1      1950 2.52045E+01 3.09687E+00 0.00000E+00
 -1      1951 2.50350E+01 4.00625E+00 0.00000E+00
 -1      1952 2.97045E+01 3.09687E+00 0.00000E+00
 -1      1953 2.82045E+01 3.09687E+00 0.00000E+00
 -1      1954 2.80350E+01 4.00625E+00 0.00000E+00
 -1      1955 3.27045E+01 3.09687E+00 0.00000E+00
 -1      1956 3.12045E+01 3.09687E+00 0.00000E+00
 -1      1957 3.10350E+01 4.00625E+00 0.00000E+00
 -1      1958 3.57045E+01 3.09687E+00 0.00000E+00
 -1      1959 3.42045E+01 3.09687E+00 0.00000E+00
 -1      1960 3.40350E+01 4.00625E+00 0.00000E+00
 -1      1961 3.87045E+01 3.09687E+00 0.00000E+00
 -1      1962 3.72045E+01 3.09687E+00 0.00000E+00
 -1      1963 3.70350E+01 4.00625E+00 0.00000E+00
 -1      1964 4.17045E+01 3.09687E+00 0.00000E+00
 -1      1965 4.02045E+01 3.09687E+00 0.00000E+00
 -1      1966 4.00350E+01 4.00625E+00 0.00000E+00
 -1      1967 4.47045E+01 3.09687E+00 0.00000E+00
 -1      1968 4.32045E+01 3.09687E+00 0.00000E+00
 -1      1969 4.30350E+01 4.00625E+00 0.00000E+00
 -1      1970 4.77045E+01 3.09687E+00 0.00000E+00
 -1      1971 4.62045E+01 3.09687E+00 0.00000E+00
 -1      1972 4.60350E+01 4.00625E+00 0.00000E+00
 -1      1973 5.07045E+01 3.09687E+00 0.00000E+00
 -1      1974 4.92045E+01 3.09687E+00 0.00000E+00
 -1      1975 4.90350E+01 4.00625E+00 0.00000E+00
 -1      1976 5.37045E+01 3.09687E+00 0.00000E+00
 -1      1977 5.22045E+01 3.09687E+00 0.00000E+00
 -1      1978 5.20350E+01 4.00625E+00 0.00000E+00
 -1      1979 5.67045E+01 3.09687E+00 0.00000E+00
 -1      1980 5.52045E+01 3.09687E+00 0.00000E+00
 -1      1981 5.50350E+01 4.00625E+00 0.00000E+00
 -1      1982 5.97045E+01 3.09687E+00 0.00000E+00
 -1      1983 5.82045E+01 3.09687E+00 0.00000E+00
 -1      1984 5.80350E+01 4.00625E+00 0.00000E+00
 -1      1985 6.27045E+01 3.09687E+00 0.00000E+00
 -1      1986 6.12045E+01 3.09687E+00 0.00000E+00
 -1      1987 6.10350E+01 4.00625E+00 0.00000E+00
 -1      1988 6.57045E+01 3.09687E+00 0.00000E+00
 -1      1989 6.42045E+01 3.09687E+00 0.00000E+00
 -1      1990 6.40350E+01 4.00625E+00 0.00000E+00
 -1      1991 6.87045E+01 3.09687E+00 0.00000E+00
 -1      1992 6.72045E+01 3.09687E+00 0.00000E+00
 -1      1993 6.70350E+01 4.00625E+00 0.00000E+00
 -1      1994 7.17045E+01 3.09687E+00 0.00000E+00
 -1      1995 7.02045E+01 3.09687E+00 0.00000E+00
 -1      1996 7.00350E+01 4.00625E+00 0.00000E+00
 -1      1997 7.47045E+01 3.09687E+00 0.00000E+00
 -1      1998 7.32045E+01 3.09687E+00 0.00000E+00
 -1      1999 7.30350E+01 4.00625E+00 0.00000E+00
 -1      2000 7.77045E+01 3.09687E+00 0.00000E+00
 -1      2001 7.62045E+01 3.09687E+00 0.00000E+00
 -1      2002 7.60350E+01 4.00625E+00 0.00000E+00
 -1      2003 8.07045E+01 3.09687E+00 0.00000E+00
 -1      2004 7.92045E+01 3.09687E+00 0.00000E+00
 -1      2005 7.90350E+01 4.00625E+00 0.00000E+00
 -1      2006 8.37045E+01 3.09687E+00 0.00000E+00
 -1      2007 8.22045E+01 3.09687E+00 0.00000E+00
 -1      2008 8.20350E+01 4.00625E+00 0.00000E+00
 -1      2009 8.67045E+01 3.09687E+00 0.00000E+00
 -1      2010 8.52045E+01 3.09687E+00 0.00000E+00
 -1      2011 8.50350E+01 4.00625E+00 0.00000E+00
 -1      2012 8.97045E+01 3.09687E+00 0.00000E+00
 -1      2013 8.82045E+01 3.09687E+00 0.00000E+00
 -1      2014 8.80350E+01 4.00625E+00 0.00000E+00
 -1      2015 9.27045E+01 3.09687E+00 0.00000E+00
 -1      2016 9.12045E+01 3.09687E+00 0.00000E+00
 -1      2017 9.10350E+01 4.00625E+00 0.00000E+00
 -1      2018 9.57045E+01 3.09687E+00 0.00000E+00
 -1      2019 9.42045E+01 3.09687E+00 0.00000E+00
 -1      2020 9.40350E+01 4.00625E+00 0.00000E+00
 -1      2021 9.87045E+01 3.09687E+00 0.00000E+00
 -1      2022 9.72045E+01 3.09687E+00 0.00000E+00
 -1      2023 9.70350E+01 4.00625E+00 0.00000E+00
 -1      2024 1.01704E+02 3.09687E+00 0.00000E+00
 -1      2025 1.00204E+02 3.09687E+00 0.00000E+00
 -1      2026 1.00035E+02 4.00625E+00 0.00000E+00
 -1      2027 1.04704E+02 3.09687E+00 0.00000E+00
 -1      2028 1.03204E+02 3.09687E+00 0.00000E+00
 -1      2029 1.03035E+02 4.00625E+00 0.00000E+00
 -1      2030 1.07704E+02 3.09687E+00 0.00000E+00
 -1      2031 1.06204E+02 3.09687E+00 0.00000E+00
 -1      2032 1.06035E+02 4.00625E+00 0.00000E+00
 -1      2033 1.10704E+02 3.09687E+00 0.00000E+00
 -1      2034 1.09204E+02 3.09687E+00 0.00000E+00
 -1      2035 1.09035E+02 4.00625E+00 0.00000E+00
 -1      2036 1.13704E+02 3.09687E+00 0.00000E+00
 -1      2037 1.12204E+02 3.09687E+00 0.00000E+00
 -1      2038 1.12035E+02 4.00625E+00 0.00000E+00
 -1      2039 1.16704E+02 3.09687E+00 0.00000E+00
 -1      2040 1.15204E+02 3.09687E+00 0.00000E+00
 -1      2041 1.15035E+02 4.00625E+00 0.00000E+00
 -1      2042 1.19704E+02 3.09687E+00 0.00000E+00
 -1      2043 1.18204E+02 3.09687E+00 0.00000E+00
 -1      2044 1.18035E+02 4.00625E+00 0.00000E+00
 -1      2045 1.22704E+02 3.09687E+00 0.00000E+00
 -1      2046 1.21204E+02 3.09687E+00 0.00000E+00
 -1      2047 1.21035E+02 4.00625E+00 0.00000E+00
 -1      2048 1.25704E+02 3.09687E+00 0.00000E+00
 -1      2049 1.24204E+02 3.09687E+00 0.00000E+00
 -1      2050 1.24035E+02 4.00625E+00 0.00000E+00
 -1      2051 1.28704E+02 3.09687E+00 0.00000E+00
 -1      2052 1.27204E+02 3.09687E+00 0.00000E+00
 -1      2053 1.27035E+02 4.00625E+00 0.00000E+00
 -1      2054 1.31704E+02 3.09687E+00 0.00000E+00
 -1      2055 1.30204E+02 3.09687E+00 0.00000E+00
 -1      2056 1.30035E+02 4.00625E+00 0.00000E+00
 -1      2057 1.34704E+02 3.09687E+00 0.00000E+00
 -1      2058 1.33204E+02 3.09687E+00 0.00000E+00
 -1      2059 1.33035E+02 4.00625E+00 0.00000E+00
 -1      2060 1.37704E+02 3.09687E+00 0.00000E+00
 -1      2061 1.36204E+02 3.09687E+00 0.00000E+00
 -1      2062 1.36035E+02 4.00625E+00 0.00000E+00
 -1      2063 1.40704E+02 3.09687E+00 0.00000E+00
 -1      2064 1.39204E+02 3.09687E+00 0.00000E+00
 -1      2065 1.39035E+02 4.00625E+00 0.00000E+00
 -1      2066 1.43704E+02 3.09687E+00 0.00000E+00
 -1      2067 1.42204E+02 3.09687E+00 0.00000E+00
 -1      2068 1.42035E+02 4.00625E+00 0.00000E+00
 -1      2069 1.46171E+02 3.20156E+00 0.00000E+00
 -1      2070 1.44671E+02 3.20156E+00 0.00000E+00
 -1      2071 1.44502E+02 4.11094E+00 0.00000E+00
 -1      2072 1.46435E+02 4.32031E+00 0.00000E+00
 -1      2073 1.46103E+02 1.25375E+01 0.00000E+00
 -1      2074 1.46103E+02 1.10625E+01 0.00000E+00
 -1      2075 1.46103E+02 9.58750E+00 0.00000E+00
 -1      2076 1.46103E+02 8.11250E+00 0.00000E+00
 -1      2077 1.44804E+02 1.03250E+01 0.00000E+00
 -1      2078 1.46269E+02 6.95391E+00 0.00000E+00
 -1      2079 1.46269E+02 5.47891E+00 0.00000E+00
 -1      2080 1.45302E+02 5.37422E+00 0.00000E+00
 -1      2081 1.44970E+02 7.69141E+00 0.00000E+00
 -1      2082 1.46103E+02 1.54375E+01 0.00000E+00
 -1      2083 1.46103E+02 1.39875E+01 0.00000E+00
 -1      2084 1.44804E+02 1.32500E+01 0.00000E+00
 -1      2085 1.46103E+02 1.83875E+01 0.00000E+00
 -1      2086 1.46103E+02 1.69125E+01 0.00000E+00
 -1      2087 1.44804E+02 1.61750E+01 0.00000E+00
 -1      2088 1.46103E+02 2.13375E+01 0.00000E+00
 -1      2089 1.46103E+02 1.98625E+01 0.00000E+00
 -1      2090 1.44804E+02 1.91250E+01 0.00000E+00
 -1      2091 1.46103E+02 2.42875E+01 0.00000E+00
 -1      2092 1.46103E+02 2.28125E+01 0.00000E+00
 -1      2093 1.44804E+02 2.20750E+01 0.00000E+00
 -1      2094 1.46103E+02 2.72375E+01 0.00000E+00
 -1      2095 1.46103E+02 2.57625E+01 0.00000E+00
 -1      2096 1.44804E+02 2.50250E+01 0.00000E+00
 -1      2097 1.46103E+02 3.01875E+01 0.00000E+00
 -1      2098 1.46103E+02 2.87125E+01 0.00000E+00
 -1      2099 1.44804E+02 2.79750E+01 0.00000E+00
 -1      2100 1.46103E+02 3.30875E+01 0.00000E+00
 -1      2101 1.46103E+02 3.16375E+01 0.00000E+00
 -1      2102 1.44804E+02 3.09000E+01 0.00000E+00
 -1      2103 1.46103E+02 3.60375E+01 0.00000E+00
 -1      2104 1.46103E+02 3.45625E+01 0.00000E+00
 -1      2105 1.44804E+02 3.38250E+01 0.00000E+00
 -1      2106 1.46103E+02 3.89875E+01 0.00000E+00
 -1      2107 1.46103E+02 3.75125E+01 0.00000E+00
 -1      2108 1.44804E+02 3.67750E+01 0.00000E+00
 -1      2109 1.46103E+02 4.19375E+01 0.00000E+00
 -1      2110 1.46103E+02 4.04625E+01 0.00000E+00
 -1      2111 1.44804E+02 3.97250E+01 0.00000E+00
 -1      2112 1.15636E+02 2.16026E+01 0.00000E+00
 -1      2113 1.16059E+02 2.23547E+01 0.00000E+00
 -1      2114 1.16519E+02 2.52471E+01 0.00000E+00
 -1      2115 1.16472E+02 2.61352E+01 0.00000E+00
 -1      2116 1.16480E+02 2.33975E+01 0.00000E+00
 -1      2117 1.16576E+02 2.42575E+01 0.00000E+00
 -1      2118 1.14743E+02 2.00147E+01 0.00000E+00
 -1      2119 1.15269E+02 2.06796E+01 0.00000E+00
 -1      2120 1.13518E+02 1.86899E+01 0.00000E+00
 -1      2121 1.14131E+02 1.93523E+01 0.00000E+00
 -1      2122 1.15066E+02 1.91526E+01 0.00000E+00
 -1      2123 3.89700E+00 3.74688E+01 0.00000E+00
 -1      2124 3.89700E+00 3.89437E+01 0.00000E+00
 -1      2125 5.19600E+00 3.96813E+01 0.00000E+00
 -1      2126 5.19600E+00 3.67438E+01 0.00000E+00
 -1      2127 1.09878E+02 1.69771E+01 0.00000E+00
 -1      2128 1.10714E+02 1.72757E+01 0.00000E+00
 -1      2129 1.07962E+02 1.64485E+01 0.00000E+00
 -1      2130 1.08887E+02 1.65963E+01 0.00000E+00
 -1      2131 1.05811E+02 1.65297E+01 0.00000E+00
 -1      2132 1.06784E+02 1.64225E+01 0.00000E+00
 -1      2133 1.03845E+02 1.74581E+01 0.00000E+00
 -1      2134 1.04687E+02 1.70326E+01 0.00000E+00
 -1      2135 1.02268E+02 1.85242E+01 0.00000E+00
 -1      2136 1.02970E+02 1.79978E+01 0.00000E+00
 -1      2137 1.00896E+02 1.97215E+01 0.00000E+00
 -1      2138 1.01480E+02 1.91104E+01 0.00000E+00
 -1      2139 9.99010E+01 2.13257E+01 0.00000E+00
 -1      2140 1.00316E+02 2.05794E+01 0.00000E+00
 -1      2141 9.91726E+01 2.29731E+01 0.00000E+00
 -1      2142 9.94621E+01 2.21831E+01 0.00000E+00
 -1      2143 9.88926E+01 2.47826E+01 0.00000E+00
 -1      2144 9.90118E+01 2.39518E+01 0.00000E+00
 -1      2145 9.87320E+01 2.66466E+01 0.00000E+00
 -1      2146 9.87110E+01 2.57590E+01 0.00000E+00
 -1      2147 9.92625E+01 2.85422E+01 0.00000E+00
 -1      2148 9.90173E+01 2.76885E+01 0.00000E+00
 -1      2149 9.98473E+01 3.03542E+01 0.00000E+00
 -1      2150 9.94831E+01 2.95217E+01 0.00000E+00
 -1      2151 1.01308E+02 3.19065E+01 0.00000E+00
 -1      2152 1.00636E+02 3.12636E+01 0.00000E+00
 -1      2153 1.02746E+02 3.31740E+01 0.00000E+00
 -1      2154 1.02013E+02 3.26872E+01 0.00000E+00
 -1      2155 1.04277E+02 3.39518E+01 0.00000E+00
 -1      2156 1.03512E+02 3.35629E+01 0.00000E+00
 -1      2157 1.02671E+02 3.40339E+01 0.00000E+00
 -1      2158 1.06223E+02 3.44663E+01 0.00000E+00
 -1      2159 1.05384E+02 3.42863E+01 0.00000E+00
 -1      2160 1.08078E+02 3.46763E+01 0.00000E+00
 -1      2161 1.07199E+02 3.46345E+01 0.00000E+00
 -1      2162 1.10013E+02 3.41901E+01 0.00000E+00
 -1      2163 1.09178E+02 3.44518E+01 0.00000E+00
 -1      2164 1.11612E+02 3.35645E+01 0.00000E+00
 -1      2165 1.10812E+02 3.38773E+01 0.00000E+00
 -1      2166 1.10602E+02 3.46665E+01 0.00000E+00
 -1      2167 1.13381E+02 3.25414E+01 0.00000E+00
 -1      2168 1.12603E+02 3.30764E+01 0.00000E+00
 -1      2169 1.14933E+02 3.10297E+01 0.00000E+00
 -1      2170 1.14328E+02 3.18127E+01 0.00000E+00
 -1      2171 1.15854E+02 2.91434E+01 0.00000E+00
 -1      2172 1.15424E+02 3.00114E+01 0.00000E+00
 -1      2173 1.16515E+02 2.71602E+01 0.00000E+00
 -1      2174 1.16339E+02 2.80896E+01 0.00000E+00
 -1      2175 1.11562E+02 1.76634E+01 0.00000E+00
 -1      2176 1.12410E+02 1.80510E+01 0.00000E+00
 -1      2177 1.11390E+02 1.68248E+01 0.00000E+00
 -1      2178 6.42300E+00 4.57510E+01 0.00000E+00
 -1      2179 1.13346E+02 1.78513E+01 0.00000E+00
 -1      2180 7.17300E+00 4.44520E+01 0.00000E+00
 -1      2181 1.16834E+02 2.27039E+01 0.00000E+00
 -1      2182 1.17199E+02 2.47364E+01 0.00000E+00
 -1      2183 1.45665E+02 4.31193E+01 0.00000E+00
 -1      2184 1.16046E+02 2.07381E+01 0.00000E+00
 -1      2185 1.17186E+02 2.67509E+01 0.00000E+00
 -1      2186 1.16743E+02 2.88298E+01 0.00000E+00
 -1      2187 1.15766E+02 3.09019E+01 0.00000E+00
 -1      2188 1.12392E+02 3.38656E+01 0.00000E+00
 -1      2189 1.08702E+02 3.52038E+01 0.00000E+00
 -1      2190 1.04543E+02 3.47573E+01 0.00000E+00
 -1      2191 1.01200E+02 3.28643E+01 0.00000E+00
 -1      2192 9.97062E+01 3.11742E+01 0.00000E+00
 -1      2193 9.86973E+01 2.92853E+01 0.00000E+00
 -1      2194 9.81914E+01 2.72639E+01 0.00000E+00
 -1      2195 9.80876E+01 2.52456E+01 0.00000E+00
 -1      2196 9.84300E+01 2.32906E+01 0.00000E+00
 -1      2197 9.90297E+01 2.14545E+01 0.00000E+00
 -1      2198 1.00049E+02 1.97392E+01 0.00000E+00
 -1      2199 1.01417E+02 1.82951E+01 0.00000E+00
 -1      2200 1.03080E+02 1.71693E+01 0.00000E+00
 -1      2201 1.05079E+02 1.61266E+01 0.00000E+00
 -1      2202 1.09551E+02 1.60564E+01 0.00000E+00
 -1      2203 1.07382E+02 1.56496E+01 0.00000E+00
 -1      2204 1.06626E+02 3.52601E+01 0.00000E+00
 -1      2205 1.14329E+02 3.26489E+01 0.00000E+00
 -1      2206 1.07850E+01 5.30525E+00 0.00000E+00
 -1      2207 9.28500E+00 5.30525E+00 0.00000E+00
 -1      2208 6.49500E+00 3.01125E+01 0.00000E+00
 -1      2209 6.49500E+00 3.15875E+01 0.00000E+00
 -1      2210 6.49500E+00 3.30625E+01 0.00000E+00
 -1      2211 6.49500E+00 3.45375E+01 0.00000E+00
 -1      2212 7.79400E+00 3.23250E+01 0.00000E+00
 -1      2213 6.49500E+00 2.42125E+01 0.00000E+00
 -1      2214 6.49500E+00 2.56875E+01 0.00000E+00
 -1      2215 6.49500E+00 2.12625E+01 0.00000E+00
 -1      2216 6.49500E+00 2.27375E+01 0.00000E+00
 -1      2217 7.79400E+00 2.34750E+01 0.00000E+00
 -1      2218 6.49500E+00 1.83625E+01 0.00000E+00
 -1      2219 6.49500E+00 1.98125E+01 0.00000E+00
 -1      2220 7.79400E+00 2.05500E+01 0.00000E+00
 -1      2221 6.49500E+00 1.54125E+01 0.00000E+00
 -1      2222 6.49500E+00 1.68875E+01 0.00000E+00
 -1      2223 7.79400E+00 1.76250E+01 0.00000E+00
 -1      2224 6.49500E+00 1.24625E+01 0.00000E+00
 -1      2225 6.49500E+00 1.39375E+01 0.00000E+00
 -1      2226 7.79400E+00 1.46750E+01 0.00000E+00
 -1      2227 6.49500E+00 9.51250E+00 0.00000E+00
 -1      2228 6.49500E+00 1.09875E+01 0.00000E+00
 -1      2229 7.79400E+00 1.17250E+01 0.00000E+00
 -1      2230 1.37850E+01 5.30525E+00 0.00000E+00
 -1      2231 1.22850E+01 5.30525E+00 0.00000E+00
 -1      2232 1.15350E+01 6.60425E+00 0.00000E+00
 -1      2233 9.90000E+00 4.35050E+01 0.00000E+00
 -1      2234 1.14000E+01 4.35050E+01 0.00000E+00
 -1      2235 1.13221E+02 1.67890E+01 0.00000E+00
 -1      2236 1.14328E+02 1.74279E+01 0.00000E+00
 -1      2237 1.17496E+02 2.18298E+01 0.00000E+00
 -1      2238 1.17918E+02 2.28726E+01 0.00000E+00
 -1      2239 1.29000E+01 4.35050E+01 0.00000E+00
 -1      2240 1.44000E+01 4.35050E+01 0.00000E+00
 -1      2241 1.21500E+01 4.22060E+01 0.00000E+00
 -1      2242 1.59000E+01 4.35050E+01 0.00000E+00
 -1      2243 1.74000E+01 4.35050E+01 0.00000E+00
 -1      2244 1.51500E+01 4.22060E+01 0.00000E+00
 -1      2245 1.89000E+01 4.35050E+01 0.00000E+00
 -1      2246 2.04000E+01 4.35050E+01 0.00000E+00
 -1      2247 1.81500E+01 4.22060E+01 0.00000E+00
 -1      2248 2.19000E+01 4.35050E+01 0.00000E+00
 -1      2249 2.34000E+01 4.35050E+01 0.00000E+00
 -1      2250 2.11500E+01 4.22060E+01 0.00000E+00
 -1      2251 2.49000E+01 4.35050E+01 0.00000E+00
 -1      2252 2.64000E+01 4.35050E+01 0.00000E+00
 -1      2253 2.41500E+01 4.22060E+01 0.00000E+00
 -1      2254 2.79000E+01 4.35050E+01 0.00000E+00
 -1      2255 2.94000E+01 4.35050E+01 0.00000E+00
 -1      2256 2.71500E+01 4.22060E+01 0.00000E+00
 -1      2257 3.09000E+01 4.35050E+01 0.00000E+00
 -1      2258 3.24000E+01 4.35050E+01 0.00000E+00
 -1      2259 3.01500E+01 4.22060E+01 0.00000E+00
 -1      2260 3.39000E+01 4.35050E+01 0.00000E+00
 -1      2261 3.54000E+01 4.35050E+01 0.00000E+00
 -1      2262 3.31500E+01 4.22060E+01 0.00000E+00
 -1      2263 3.69000E+01 4.35050E+01 0.00000E+00
 -1      2264 3.84000E+01 4.35050E+01 0.00000E+00
 -1      2265 3.61500E+01 4.22060E+01 0.00000E+00
 -1      2266 3.99000E+01 4.35050E+01 0.00000E+00
 -1      2267 4.14000E+01 4.35050E+01 0.00000E+00
 -1      2268 3.91500E+01 4.22060E+01 0.00000E+00
 -1      2269 4.29000E+01 4.35050E+01 0.00000E+00
 -1      2270 4.44000E+01 4.35050E+01 0.00000E+00
 -1      2271 4.21500E+01 4.22060E+01 0.00000E+00
 -1      2272 4.59000E+01 4.35050E+01 0.00000E+00
 -1      2273 4.74000E+01 4.35050E+01 0.00000E+00
 -1      2274 4.51500E+01 4.22060E+01 0.00000E+00
 -1      2275 4.89000E+01 4.35050E+01 0.00000E+00
 -1      2276 5.04000E+01 4.35050E+01 0.00000E+00
 -1      2277 4.81500E+01 4.22060E+01 0.00000E+00
 -1      2278 5.19000E+01 4.35050E+01 0.00000E+00
 -1      2279 5.34000E+01 4.35050E+01 0.00000E+00
 -1      2280 5.11500E+01 4.22060E+01 0.00000E+00
 -1      2281 5.49000E+01 4.35050E+01 0.00000E+00
 -1      2282 5.64000E+01 4.35050E+01 0.00000E+00
 -1      2283 5.41500E+01 4.22060E+01 0.00000E+00
 -1      2284 5.79000E+01 4.35050E+01 0.00000E+00
 -1      2285 5.94000E+01 4.35050E+01 0.00000E+00
 -1      2286 5.71500E+01 4.22060E+01 0.00000E+00
 -1      2287 6.09000E+01 4.35050E+01 0.00000E+00
 -1      2288 6.24000E+01 4.35050E+01 0.00000E+00
 -1      2289 6.01500E+01 4.22060E+01 0.00000E+00
 -1      2290 6.39000E+01 4.35050E+01 0.00000E+00
 -1      2291 6.54000E+01 4.35050E+01 0.00000E+00
 -1      2292 6.31500E+01 4.22060E+01 0.00000E+00
 -1      2293 6.69000E+01 4.35050E+01 0.00000E+00
 -1      2294 6.84000E+01 4.35050E+01 0.00000E+00
 -1      2295 6.61500E+01 4.22060E+01 0.00000E+00
 -1      2296 6.99000E+01 4.35050E+01 0.00000E+00
 -1      2297 7.14000E+01 4.35050E+01 0.00000E+00
 -1      2298 6.91500E+01 4.22060E+01 0.00000E+00
 -1      2299 7.29000E+01 4.35050E+01 0.00000E+00
 -1      2300 7.44000E+01 4.35050E+01 0.00000E+00
 -1      2301 7.21500E+01 4.22060E+01 0.00000E+00
 -1      2302 7.59000E+01 4.35050E+01 0.00000E+00
 -1      2303 7.74000E+01 4.35050E+01 0.00000E+00
 -1      2304 7.51500E+01 4.22060E+01 0.00000E+00
 -1      2305 7.89000E+01 4.35050E+01 0.00000E+00
 -1      2306 8.04000E+01 4.35050E+01 0.00000E+00
 -1      2307 7.81500E+01 4.22060E+01 0.00000E+00
 -1      2308 8.19000E+01 4.35050E+01 0.00000E+00
 -1      2309 8.34000E+01 4.35050E+01 0.00000E+00
 -1      2310 8.11500E+01 4.22060E+01 0.00000E+00
 -1      2311 8.49000E+01 4.35050E+01 0.00000E+00
 -1      2312 8.64000E+01 4.35050E+01 0.00000E+00
 -1      2313 8.41500E+01 4.22060E+01 0.00000E+00
 -1      2314 8.79000E+01 4.35050E+01 0.00000E+00
 -1      2315 8.94000E+01 4.35050E+01 0.00000E+00
 -1      2316 8.71500E+01 4.22060E+01 0.00000E+00
 -1      2317 9.09000E+01 4.35050E+01 0.00000E+00
 -1      2318 9.24000E+01 4.35050E+01 0.00000E+00
 -1      2319 9.01500E+01 4.22060E+01 0.00000E+00
 -1      2320 9.39000E+01 4.35050E+01 0.00000E+00
 -1      2321 9.54000E+01 4.35050E+01 0.00000E+00
 -1      2322 9.31500E+01 4.22060E+01 0.00000E+00
 -1      2323 9.69000E+01 4.35050E+01 0.00000E+00
 -1      2324 9.84000E+01 4.35050E+01 0.00000E+00
 -1      2325 9.61500E+01 4.22060E+01 0.00000E+00
 -1      2326 9.99000E+01 4.35050E+01 0.00000E+00
 -1      2327 1.01400E+02 4.35050E+01 0.00000E+00
 -1      2328 9.91500E+01 4.22060E+01 0.00000E+00
 -1      2329 1.02900E+02 4.35050E+01 0.00000E+00
 -1      2330 1.04400E+02 4.35050E+01 0.00000E+00
 -1      2331 1.02150E+02 4.22060E+01 0.00000E+00
 -1      2332 1.05900E+02 4.35050E+01 0.00000E+00
 -1      2333 1.07400E+02 4.35050E+01 0.00000E+00
 -1      2334 1.05150E+02 4.22060E+01 0.00000E+00
 -1      2335 1.08900E+02 4.35050E+01 0.00000E+00
 -1      2336 1.10400E+02 4.35050E+01 0.00000E+00
 -1      2337 1.08150E+02 4.22060E+01 0.00000E+00
 -1      2338 1.11900E+02 4.35050E+01 0.00000E+00
 -1      2339 1.13400E+02 4.35050E+01 0.00000E+00
 -1      2340 1.11150E+02 4.22060E+01 0.00000E+00
 -1      2341 1.14900E+02 4.35050E+01 0.00000E+00
 -1      2342 1.16400E+02 4.35050E+01 0.00000E+00
 -1      2343 1.14150E+02 4.22060E+01 0.00000E+00
 -1      2344 1.17900E+02 4.35050E+01 0.00000E+00
 -1      2345 1.19400E+02 4.35050E+01 0.00000E+00
 -1      2346 1.17150E+02 4.22060E+01 0.00000E+00
 -1      2347 1.20900E+02 4.35050E+01 0.00000E+00
 -1      2348 1.22400E+02 4.35050E+01 0.00000E+00
 -1      2349 1.20150E+02 4.22060E+01 0.00000E+00
 -1      2350 1.23900E+02 4.35050E+01 0.00000E+00
 -1      2351 1.25400E+02 4.35050E+01 0.00000E+00
 -1      2352 1.23150E+02 4.22060E+01 0.00000E+00
 -1      2353 1.26900E+02 4.35050E+01 0.00000E+00
 -1      2354 1.28400E+02 4.35050E+01 0.00000E+00
 -1      2355 1.26150E+02 4.22060E+01 0.00000E+00
 -1      2356 1.29900E+02 4.35050E+01 0.00000E+00
 -1      2357 1.31400E+02 4.35050E+01 0.00000E+00
 -1      2358 1.29150E+02 4.22060E+01 0.00000E+00
 -1      2359 1.32900E+02 4.35050E+01 0.00000E+00
 -1      2360 1.34400E+02 4.35050E+01 0.00000E+00
 -1      2361 1.32150E+02 4.22060E+01 0.00000E+00
 -1      2362 1.35900E+02 4.35050E+01 0.00000E+00
 -1      2363 1.37400E+02 4.35050E+01 0.00000E+00
 -1      2364 1.35150E+02 4.22060E+01 0.00000E+00
 -1      2365 1.38900E+02 4.35050E+01 0.00000E+00
 -1      2366 1.40400E+02 4.35050E+01 0.00000E+00
 -1      2367 1.38150E+02 4.22060E+01 0.00000E+00
 -1      2368 1.97850E+01 5.30525E+00 0.00000E+00
 -1      2369 1.82850E+01 5.30525E+00 0.00000E+00
 -1      2370 2.27850E+01 5.30525E+00 0.00000E+00
 -1      2371 2.12850E+01 5.30525E+00 0.00000E+00
 -1      2372 2.05350E+01 6.60425E+00 0.00000E+00
 -1      2373 2.57850E+01 5.30525E+00 0.00000E+00
 -1      2374 2.42850E+01 5.30525E+00 0.00000E+00
 -1      2375 2.35350E+01 6.60425E+00 0.00000E+00
 -1      2376 2.87850E+01 5.30525E+00 0.00000E+00
 -1      2377 2.72850E+01 5.30525E+00 0.00000E+00
 -1      2378 2.65350E+01 6.60425E+00 0.00000E+00
 -1      2379 3.17850E+01 5.30525E+00 0.00000E+00
 -1      2380 3.02850E+01 5.30525E+00 0.00000E+00
 -1      2381 2.95350E+01 6.60425E+00 0.00000E+00
 -1      2382 3.47850E+01 5.30525E+00 0.00000E+00
 -1      2383 3.32850E+01 5.30525E+00 0.00000E+00
 -1      2384 3.25350E+01 6.60425E+00 0.00000E+00
 -1      2385 3.77850E+01 5.30525E+00 0.00000E+00
 -1      2386 3.62850E+01 5.30525E+00 0.00000E+00
 -1      2387 3.55350E+01 6.60425E+00 0.00000E+00
 -1      2388 4.07850E+01 5.30525E+00 0.00000E+00
 -1      2389 3.92850E+01 5.30525E+00 0.00000E+00
 -1      2390 3.85350E+01 6.60425E+00 0.00000E+00
 -1      2391 4.37850E+01 5.30525E+00 0.00000E+00
 -1      2392 4.22850E+01 5.30525E+00 0.00000E+00
 -1      2393 4.15350E+01 6.60425E+00 0.00000E+00
 -1      2394 4.67850E+01 5.30525E+00 0.00000E+00
 -1      2395 4.52850E+01 5.30525E+00 0.00000E+00
 -1      2396 4.45350E+01 6.60425E+00 0.00000E+00
 -1      2397 4.97850E+01 5.30525E+00 0.00000E+00
 -1      2398 4.82850E+01 5.30525E+00 0.00000E+00
 -1      2399 4.75350E+01 6.60425E+00 0.00000E+00
 -1      2400 5.27850E+01 5.30525E+00 0.00000E+00
 -1      2401 5.12850E+01 5.30525E+00 0.00000E+00
 -1      2402 5.05350E+01 6.60425E+00 0.00000E+00
 -1      2403 5.57850E+01 5.30525E+00 0.00000E+00
 -1      2404 5.42850E+01 5.30525E+00 0.00000E+00
 -1      2405 5.35350E+01 6.60425E+00 0.00000E+00
 -1      2406 5.87850E+01 5.30525E+00 0.00000E+00
 -1      2407 5.72850E+01 5.30525E+00 0.00000E+00
 -1      2408 5.65350E+01 6.60425E+00 0.00000E+00
 -1      2409 6.17850E+01 5.30525E+00 0.00000E+00
 -1      2410 6.02850E+01 5.30525E+00 0.00000E+00
 -1      2411 5.95350E+01 6.60425E+00 0.00000E+00
 -1      2412 6.47850E+01 5.30525E+00 0.00000E+00
 -1      2413 6.32850E+01 5.30525E+00 0.00000E+00
 -1      2414 6.25350E+01 6.60425E+00 0.00000E+00
 -1      2415 6.77850E+01 5.30525E+00 0.00000E+00
 -1      2416 6.62850E+01 5.30525E+00 0.00000E+00
 -1      2417 6.55350E+01 6.60425E+00 0.00000E+00
 -1      2418 7.07850E+01 5.30525E+00 0.00000E+00
 -1      2419 6.92850E+01 5.30525E+00 0.00000E+00
 -1      2420 6.85350E+01 6.60425E+00 0.00000E+00
 -1      2421 7.37850E+01 5.30525E+00 0.00000E+00
 -1      2422 7.22850E+01 5.30525E+00 0.00000E+00
 -1      2423 7.15350E+01 6.60425E+00 0.00000E+00
 -1      2424 7.67850E+01 5.30525E+00 0.00000E+00
 -1      2425 7.52850E+01 5.30525E+00 0.00000E+00
 -1      2426 7.45350E+01 6.60425E+00 0.00000E+00
 -1      2427 7.97850E+01 5.30525E+00 0.00000E+00
 -1      2428 7.82850E+01 5.30525E+00 0.00000E+00
 -1      2429 7.75350E+01 6.60425E+00 0.00000E+00
 -1      2430 8.27850E+01 5.30525E+00 0.00000E+00
 -1      2431 8.12850E+01 5.30525E+00 0.00000E+00
 -1      2432 8.05350E+01 6.60425E+00 0.00000E+00
 -1      2433 8.57850E+01 5.30525E+00 0.00000E+00
 -1      2434 8.42850E+01 5.30525E+00 0.00000E+00
 -1      2435 8.35350E+01 6.60425E+00 0.00000E+00
 -1      2436 8.87850E+01 5.30525E+00 0.00000E+00
 -1      2437 8.72850E+01 5.30525E+00 0.00000E+00
 -1      2438 8.65350E+01 6.60425E+00 0.00000E+00
 -1      2439 9.17850E+01 5.30525E+00 0.00000E+00
 -1      2440 9.02850E+01 5.30525E+00 0.00000E+00
 -1      2441 8.95350E+01 6.60425E+00 0.00000E+00
 -1      2442 9.47850E+01 5.30525E+00 0.00000E+00
 -1      2443 9.32850E+01 5.30525E+00 0.00000E+00
 -1      2444 9.25350E+01 6.60425E+00 0.00000E+00
 -1      2445 9.77850E+01 5.30525E+00 0.00000E+00
 -1      2446 9.62850E+01 5.30525E+00 0.00000E+00
 -1      2447 9.55350E+01 6.60425E+00 0.00000E+00
 -1      2448 1.00785E+02 5.30525E+00 0.00000E+00
 -1      2449 9.92850E+01 5.30525E+00 0.00000E+00
 -1      2450 9.85350E+01 6.60425E+00 0.00000E+00
 -1      2451 1.03785E+02 5.30525E+00 0.00000E+00
 -1      2452 1.02285E+02 5.30525E+00 0.00000E+00
 -1      2453 1.01535E+02 6.60425E+00 0.00000E+00
 -1      2454 1.06785E+02 5.30525E+00 0.00000E+00
 -1      2455 1.05285E+02 5.30525E+00 0.00000E+00
 -1      2456 1.04535E+02 6.60425E+00 0.00000E+00
 -1      2457 1.09785E+02 5.30525E+00 0.00000E+00
 -1      2458 1.08285E+02 5.30525E+00 0.00000E+00
 -1      2459 1.07535E+02 6.60425E+00 0.00000E+00
 -1      2460 1.12785E+02 5.30525E+00 0.00000E+00
 -1      2461 1.11285E+02 5.30525E+00 0.00000E+00
 -1      2462 1.10535E+02 6.60425E+00 0.00000E+00
 -1      2463 1.15785E+02 5.30525E+00 0.00000E+00
 -1      2464 1.14285E+02 5.30525E+00 0.00000E+00
 -1      2465 1.13535E+02 6.60425E+00 0.00000E+00
 -1      2466 1.18785E+02 5.30525E+00 0.00000E+00
 -1      2467 1.17285E+02 5.30525E+00 0.00000E+00
 -1      2468 1.16535E+02 6.60425E+00 0.00000E+00
 -1      2469 1.21785E+02 5.30525E+00 0.00000E+00
 -1      2470 1.20285E+02 5.30525E+00 0.00000E+00
 -1      2471 1.19535E+02 6.60425E+00 0.00000E+00
 -1      2472 1.24785E+02 5.30525E+00 0.00000E+00
 -1      2473 1.23285E+02 5.30525E+00 0.00000E+00
 -1      2474 1.22535E+02 6.60425E+00 0.00000E+00
 -1      2475 1.27785E+02 5.30525E+00 0.00000E+00
 -1      2476 1.26285E+02 5.30525E+00 0.00000E+00
 -1      2477 1.25535E+02 6.60425E+00 0.00000E+00
 -1      2478 1.30785E+02 5.30525E+00 0.00000E+00
 -1      2479 1.29285E+02 5.30525E+00 0.00000E+00
 -1      2480 1.28535E+02 6.60425E+00 0.00000E+00
 -1      2481 1.33785E+02 5.30525E+00 0.00000E+00
 -1      2482 1.32285E+02 5.30525E+00 0.00000E+00
 -1      2483 1.31535E+02 6.60425E+00 0.00000E+00
 -1      2484 1.36785E+02 5.30525E+00 0.00000E+00
 -1      2485 1.35285E+02 5.30525E+00 0.00000E+00
 -1      2486 1.34535E+02 6.60425E+00 0.00000E+00
 -1      2487 1.39785E+02 5.30525E+00 0.00000E+00
 -1      2488 1.38285E+02 5.30525E+00 0.00000E+00
 -1      2489 1.37535E+02 6.60425E+00 0.00000E+00
 -1      2490 1.42785E+02 5.30525E+00 0.00000E+00
 -1      2491 1.41285E+02 5.30525E+00 0.00000E+00
 -1      2492 1.40535E+02 6.60425E+00 0.00000E+00
 -1      2493 1.44336E+02 5.26953E+00 0.00000E+00
 -1      2494 1.43505E+02 1.69125E+01 0.00000E+00
 -1      2495 1.43505E+02 1.54375E+01 0.00000E+00
 -1      2496 1.43505E+02 1.98625E+01 0.00000E+00
 -1      2497 1.43505E+02 1.83875E+01 0.00000E+00
 -1      2498 1.42206E+02 1.76500E+01 0.00000E+00
 -1      2499 1.43505E+02 1.10625E+01 0.00000E+00
 -1      2500 1.43505E+02 9.58750E+00 0.00000E+00
 -1      2501 1.43505E+02 1.39750E+01 0.00000E+00
 -1      2502 1.43505E+02 1.25250E+01 0.00000E+00
 -1      2503 1.42206E+02 1.17875E+01 0.00000E+00
 -1      2504 1.42206E+02 1.47125E+01 0.00000E+00
 -1      2505 1.43505E+02 2.28125E+01 0.00000E+00
 -1      2506 1.43505E+02 2.13375E+01 0.00000E+00
 -1      2507 1.42206E+02 2.06000E+01 0.00000E+00
 -1      2508 1.43505E+02 2.57625E+01 0.00000E+00
 -1      2509 1.43505E+02 2.42875E+01 0.00000E+00
 -1      2510 1.42206E+02 2.35500E+01 0.00000E+00
 -1      2511 1.43505E+02 2.87125E+01 0.00000E+00
 -1      2512 1.43505E+02 2.72375E+01 0.00000E+00
 -1      2513 1.42206E+02 2.65000E+01 0.00000E+00
 -1      2514 1.43505E+02 3.16125E+01 0.00000E+00
 -1      2515 1.43505E+02 3.01625E+01 0.00000E+00
 -1      2516 1.42206E+02 2.94250E+01 0.00000E+00
 -1      2517 1.43505E+02 3.45625E+01 0.00000E+00
 -1      2518 1.43505E+02 3.30875E+01 0.00000E+00
 -1      2519 1.42206E+02 3.23500E+01 0.00000E+00
 -1      2520 1.43505E+02 3.75125E+01 0.00000E+00
 -1      2521 1.43505E+02 3.60375E+01 0.00000E+00
 -1      2522 1.42206E+02 3.53000E+01 0.00000E+00
 -1      2523 1.43505E+02 4.04625E+01 0.00000E+00
 -1      2524 1.43505E+02 3.89875E+01 0.00000E+00
 -1      2525 1.42206E+02 3.82500E+01 0.00000E+00
 -1      2526 1.18084E+02 2.42904E+01 0.00000E+00
 -1      2527 1.18027E+02 2.52800E+01 0.00000E+00
 -1      2528 1.16762E+02 1.99836E+01 0.00000E+00
 -1      2529 1.17129E+02 2.09067E+01 0.00000E+00
 -1      2530 1.18213E+02 2.10753E+01 0.00000E+00
 -1      2531 1.67850E+01 5.30525E+00 0.00000E+00
 -1      2532 1.52850E+01 5.30525E+00 0.00000E+00
 -1      2533 1.75350E+01 6.60425E+00 0.00000E+00
 -1      2534 1.44321E+02 4.30606E+01 0.00000E+00
 -1      2535 1.18070E+02 2.63050E+01 0.00000E+00
 -1      2536 1.18113E+02 2.73299E+01 0.00000E+00
 -1      2537 1.18954E+02 2.58590E+01 0.00000E+00
 -1      2538 1.15451E+02 1.81823E+01 0.00000E+00
 -1      2539 1.16064E+02 1.88447E+01 0.00000E+00
 -1      2540 1.11357E+02 1.57748E+01 0.00000E+00
 -1      2541 1.12205E+02 1.61625E+01 0.00000E+00
 -1      2542 1.17841E+02 2.86969E+01 0.00000E+00
 -1      2543 1.17355E+02 2.97507E+01 0.00000E+00
 -1      2544 1.09407E+02 3.58497E+01 0.00000E+00
 -1      2545 1.08306E+02 3.60742E+01 0.00000E+00
 -1      2546 1.01009E+02 3.37452E+01 0.00000E+00
 -1      2547 1.00304E+02 3.29645E+01 0.00000E+00
 -1      2548 6.49500E+00 2.71625E+01 0.00000E+00
 -1      2549 6.49500E+00 2.86375E+01 0.00000E+00
 -1      2550 7.79400E+00 2.93750E+01 0.00000E+00
 -1      2551 7.79400E+00 2.64250E+01 0.00000E+00
 -1      2552 1.06813E+02 1.46955E+01 0.00000E+00
 -1      2553 1.07991E+02 1.47215E+01 0.00000E+00
 -1      2554 1.06940E+02 3.63544E+01 0.00000E+00
 -1      2555 1.05964E+02 3.61862E+01 0.00000E+00
 -1      2556 1.09375E+02 1.50133E+01 0.00000E+00
 -1      2557 1.10366E+02 1.53940E+01 0.00000E+00
 -1      2558 1.11182E+02 1.47317E+01 0.00000E+00
 -1      2559 1.04184E+02 1.56335E+01 0.00000E+00
 -1      2560 1.05308E+02 1.51306E+01 0.00000E+00
 -1      2561 1.02236E+02 1.67807E+01 0.00000E+00
 -1      2562 1.03111E+02 1.62410E+01 0.00000E+00
 -1      2563 1.00511E+02 1.79000E+01 0.00000E+00
 -1      2564 1.01300E+02 1.73138E+01 0.00000E+00
 -1      2565 9.91522E+01 1.97582E+01 0.00000E+00
 -1      2566 9.97321E+01 1.89004E+01 0.00000E+00
 -1      2567 9.80469E+01 2.14924E+01 0.00000E+00
 -1      2568 9.84858E+01 2.06350E+01 0.00000E+00
 -1      2569 9.76274E+01 2.36612E+01 0.00000E+00
 -1      2570 9.77882E+01 2.26826E+01 0.00000E+00
 -1      2571 9.72643E+01 2.56140E+01 0.00000E+00
 -1      2572 9.74458E+01 2.46376E+01 0.00000E+00
 -1      2573 9.68040E+01 2.40296E+01 0.00000E+00
 -1      2574 9.75070E+01 2.80114E+01 0.00000E+00
 -1      2575 9.72216E+01 2.69695E+01 0.00000E+00
 -1      2576 9.79481E+01 2.99704E+01 0.00000E+00
 -1      2577 9.77275E+01 2.89909E+01 0.00000E+00
 -1      2578 9.67578E+01 2.86964E+01 0.00000E+00
 -1      2579 9.95157E+01 3.21357E+01 0.00000E+00
 -1      2580 9.87274E+01 3.12264E+01 0.00000E+00
 -1      2581 1.02627E+02 3.50677E+01 0.00000E+00
 -1      2582 1.01862E+02 3.46788E+01 0.00000E+00
 -1      2583 1.15326E+02 3.29640E+01 0.00000E+00
 -1      2584 1.14379E+02 3.36927E+01 0.00000E+00
 -1      2585 1.04857E+02 3.58517E+01 0.00000E+00
 -1      2586 1.03750E+02 3.55171E+01 0.00000E+00
 -1      2587 1.05171E+02 3.69460E+01 0.00000E+00
 -1      2588 1.11314E+02 3.53087E+01 0.00000E+00
 -1      2589 1.10514E+02 3.56215E+01 0.00000E+00
 -1      2590 1.13295E+02 3.43325E+01 0.00000E+00
 -1      2591 1.12305E+02 3.48206E+01 0.00000E+00
 -1      2592 1.12217E+02 3.57757E+01 0.00000E+00
 -1      2593 1.16864E+02 3.07690E+01 0.00000E+00
 -1      2594 1.16373E+02 3.17873E+01 0.00000E+00
 -1      2595 1.17962E+02 3.06361E+01 0.00000E+00
 -1      2596 6.55950E+00 4.28890E+01 0.00000E+00
 -1      2597 8.53650E+00 4.32410E+01 0.00000E+00
 -1      2598 9.28650E+00 4.19420E+01 0.00000E+00
 -1      2599 6.55950E+00 4.14140E+01 0.00000E+00
 -1      2600 8.07525E+00 5.11044E+00 0.00000E+00
 -1      2601 6.57525E+00 5.11044E+00 0.00000E+00
 -1      2602 6.40575E+00 6.01981E+00 0.00000E+00
 -1      2603 8.82525E+00 6.40944E+00 0.00000E+00
 -1      2604 1.08807E+02 1.40592E+01 0.00000E+00
 -1      2605 7.79400E+00 3.52687E+01 0.00000E+00
 -1      2606 6.49500E+00 3.60062E+01 0.00000E+00
 -1      2607 6.49500E+00 3.74750E+01 0.00000E+00
 -1      2608 1.45350E+01 6.60425E+00 0.00000E+00
 -1      2609 6.40575E+00 7.49481E+00 0.00000E+00
 -1      2610 6.52725E+00 3.87101E+01 0.00000E+00
 -1      2611 6.52725E+00 4.01789E+01 0.00000E+00
 -1      2612 7.89075E+00 4.04429E+01 0.00000E+00
 -1      2613 7.82625E+00 3.79726E+01 0.00000E+00
 -1      2614 1.15326E+02 1.71200E+01 0.00000E+00
 -1      2615 1.18746E+02 2.34162E+01 0.00000E+00
 -1      2616 1.18725E+02 2.82509E+01 0.00000E+00
 -1      2617 1.14292E+02 3.46477E+01 0.00000E+00
 -1      2618 1.43586E+02 6.56853E+00 0.00000E+00
 -1      2619 1.17147E+02 1.90133E+01 0.00000E+00
 -1      2620 1.43419E+02 7.72713E+00 0.00000E+00
 -1      2621 1.42120E+02 8.46463E+00 0.00000E+00
 -1      2622 1.16423E+02 3.28311E+01 0.00000E+00
 -1      2623 1.16473E+02 3.38749E+01 0.00000E+00
 -1      2624 1.17521E+02 3.26982E+01 0.00000E+00
 -1      2625 1.02941E+02 3.61620E+01 0.00000E+00
 -1      2626 1.05023E+02 1.37093E+01 0.00000E+00
 -1      2627 1.05918E+02 1.42024E+01 0.00000E+00
 -1      2628 1.06528E+02 1.32743E+01 0.00000E+00
 -1      2629 9.77576E+01 3.09319E+01 0.00000E+00
 -1      2630 9.67879E+01 3.06375E+01 0.00000E+00
 -1      2631 9.75671E+01 3.18935E+01 0.00000E+00
 -1      2632 1.13188E+02 1.57391E+01 0.00000E+00
 -1      2633 1.07644E+02 3.70003E+01 0.00000E+00
 -1      2634 9.65798E+01 2.63615E+01 0.00000E+00
 -1      2635 9.59380E+01 2.57535E+01 0.00000E+00
 -1      2636 9.58954E+01 2.71089E+01 0.00000E+00
 -1      2637 9.72443E+01 2.18631E+01 0.00000E+00
 -1      2638 9.93252E+01 3.30167E+01 0.00000E+00
 -1      2639 9.81694E+01 1.97962E+01 0.00000E+00
 -1      2640 9.96148E+01 1.79191E+01 0.00000E+00
 -1      2641 1.01330E+02 1.63855E+01 0.00000E+00
 -1      2642 1.00966E+02 3.47790E+01 0.00000E+00
 -1      2643 1.10119E+02 3.64919E+01 0.00000E+00
 -1      2644 7.70475E+00 8.23231E+00 0.00000E+00
 -1      2645 1.03340E+02 1.52449E+01 0.00000E+00
 -1      2646 1.42758E+02 4.35929E+01 0.00000E+00
 -1      2647 1.43241E+02 4.17323E+01 0.00000E+00
 -1      2648 1.41942E+02 4.09948E+01 0.00000E+00
 -1      2649 1.41414E+02 4.35342E+01 0.00000E+00
 -1      2650 1.40664E+02 4.22352E+01 0.00000E+00
 -1      2651 9.09300E+00 1.98250E+01 0.00000E+00
 -1      2652 9.09300E+00 2.12750E+01 0.00000E+00
 -1      2653 9.09300E+00 2.27500E+01 0.00000E+00
 -1      2654 9.09300E+00 2.42250E+01 0.00000E+00
 -1      2655 1.03920E+01 2.20250E+01 0.00000E+00
 -1      2656 9.09300E+00 1.39375E+01 0.00000E+00
 -1      2657 9.09300E+00 1.54125E+01 0.00000E+00
 -1      2658 9.09300E+00 1.09875E+01 0.00000E+00
 -1      2659 9.09300E+00 1.24625E+01 0.00000E+00
 -1      2660 1.03920E+01 1.32000E+01 0.00000E+00
 -1      2661 1.22850E+01 7.90325E+00 0.00000E+00
 -1      2662 1.07850E+01 7.90325E+00 0.00000E+00
 -1      2663 1.02299E+02 1.46565E+01 0.00000E+00
 -1      2664 1.03372E+02 1.40491E+01 0.00000E+00
 -1      2665 8.91450E+00 8.42712E+00 0.00000E+00
 -1      2666 1.44000E+01 4.09070E+01 0.00000E+00
 -1      2667 1.59000E+01 4.09070E+01 0.00000E+00
 -1      2668 1.74000E+01 4.09070E+01 0.00000E+00
 -1      2669 1.89000E+01 4.09070E+01 0.00000E+00
 -1      2670 1.66500E+01 3.96080E+01 0.00000E+00
 -1      2671 2.04000E+01 4.09070E+01 0.00000E+00
 -1      2672 2.19000E+01 4.09070E+01 0.00000E+00
 -1      2673 1.96500E+01 3.96080E+01 0.00000E+00
 -1      2674 2.34000E+01 4.09070E+01 0.00000E+00
 -1      2675 2.49000E+01 4.09070E+01 0.00000E+00
 -1      2676 2.26500E+01 3.96080E+01 0.00000E+00
 -1      2677 2.64000E+01 4.09070E+01 0.00000E+00
 -1      2678 2.79000E+01 4.09070E+01 0.00000E+00
 -1      2679 2.56500E+01 3.96080E+01 0.00000E+00
 -1      2680 2.94000E+01 4.09070E+01 0.00000E+00
 -1      2681 3.09000E+01 4.09070E+01 0.00000E+00
 -1      2682 2.86500E+01 3.96080E+01 0.00000E+00
 -1      2683 3.24000E+01 4.09070E+01 0.00000E+00
 -1      2684 3.39000E+01 4.09070E+01 0.00000E+00
 -1      2685 3.16500E+01 3.96080E+01 0.00000E+00
 -1      2686 3.54000E+01 4.09070E+01 0.00000E+00
 -1      2687 3.69000E+01 4.09070E+01 0.00000E+00
 -1      2688 3.46500E+01 3.96080E+01 0.00000E+00
 -1      2689 3.84000E+01 4.09070E+01 0.00000E+00
 -1      2690 3.99000E+01 4.09070E+01 0.00000E+00
 -1      2691 3.76500E+01 3.96080E+01 0.00000E+00
 -1      2692 4.14000E+01 4.09070E+01 0.00000E+00
 -1      2693 4.29000E+01 4.09070E+01 0.00000E+00
 -1      2694 4.06500E+01 3.96080E+01 0.00000E+00
 -1      2695 4.44000E+01 4.09070E+01 0.00000E+00
 -1      2696 4.59000E+01 4.09070E+01 0.00000E+00
 -1      2697 4.36500E+01 3.96080E+01 0.00000E+00
 -1      2698 4.74000E+01 4.09070E+01 0.00000E+00
 -1      2699 4.89000E+01 4.09070E+01 0.00000E+00
 -1      2700 4.66500E+01 3.96080E+01 0.00000E+00
 -1      2701 5.04000E+01 4.09070E+01 0.00000E+00
 -1      2702 5.19000E+01 4.09070E+01 0.00000E+00
 -1      2703 4.96500E+01 3.96080E+01 0.00000E+00
 -1      2704 5.34000E+01 4.09070E+01 0.00000E+00
 -1      2705 5.49000E+01 4.09070E+01 0.00000E+00
 -1      2706 5.26500E+01 3.96080E+01 0.00000E+00
 -1      2707 5.64000E+01 4.09070E+01 0.00000E+00
 -1      2708 5.79000E+01 4.09070E+01 0.00000E+00
 -1      2709 5.56500E+01 3.96080E+01 0.00000E+00
 -1      2710 5.94000E+01 4.09070E+01 0.00000E+00
 -1      2711 6.09000E+01 4.09070E+01 0.00000E+00
 -1      2712 5.86500E+01 3.96080E+01 0.00000E+00
 -1      2713 6.24000E+01 4.09070E+01 0.00000E+00
 -1      2714 6.39000E+01 4.09070E+01 0.00000E+00
 -1      2715 6.16500E+01 3.96080E+01 0.00000E+00
 -1      2716 6.54000E+01 4.09070E+01 0.00000E+00
 -1      2717 6.69000E+01 4.09070E+01 0.00000E+00
 -1      2718 6.46500E+01 3.96080E+01 0.00000E+00
 -1      2719 6.84000E+01 4.09070E+01 0.00000E+00
 -1      2720 6.99000E+01 4.09070E+01 0.00000E+00
 -1      2721 6.76500E+01 3.96080E+01 0.00000E+00
 -1      2722 7.14000E+01 4.09070E+01 0.00000E+00
 -1      2723 7.29000E+01 4.09070E+01 0.00000E+00
 -1      2724 7.06500E+01 3.96080E+01 0.00000E+00
 -1      2725 7.44000E+01 4.09070E+01 0.00000E+00
 -1      2726 7.59000E+01 4.09070E+01 0.00000E+00
 -1      2727 7.36500E+01 3.96080E+01 0.00000E+00
 -1      2728 7.74000E+01 4.09070E+01 0.00000E+00
 -1      2729 7.89000E+01 4.09070E+01 0.00000E+00
 -1      2730 7.66500E+01 3.96080E+01 0.00000E+00
 -1      2731 8.04000E+01 4.09070E+01 0.00000E+00
 -1      2732 8.19000E+01 4.09070E+01 0.00000E+00
 -1      2733 7.96500E+01 3.96080E+01 0.00000E+00
 -1      2734 8.34000E+01 4.09070E+01 0.00000E+00
 -1      2735 8.49000E+01 4.09070E+01 0.00000E+00
 -1      2736 8.26500E+01 3.96080E+01 0.00000E+00
 -1      2737 8.64000E+01 4.09070E+01 0.00000E+00
 -1      2738 8.79000E+01 4.09070E+01 0.00000E+00
 -1      2739 8.56500E+01 3.96080E+01 0.00000E+00
 -1      2740 8.94000E+01 4.09070E+01 0.00000E+00
 -1      2741 9.09000E+01 4.09070E+01 0.00000E+00
 -1      2742 8.86500E+01 3.96080E+01 0.00000E+00
 -1      2743 9.24000E+01 4.09070E+01 0.00000E+00
 -1      2744 9.39000E+01 4.09070E+01 0.00000E+00
 -1      2745 9.16500E+01 3.96080E+01 0.00000E+00
 -1      2746 9.54000E+01 4.09070E+01 0.00000E+00
 -1      2747 9.69000E+01 4.09070E+01 0.00000E+00
 -1      2748 9.46500E+01 3.96080E+01 0.00000E+00
 -1      2749 9.84000E+01 4.09070E+01 0.00000E+00
 -1      2750 9.99000E+01 4.09070E+01 0.00000E+00
 -1      2751 9.76500E+01 3.96080E+01 0.00000E+00
 -1      2752 1.01400E+02 4.09070E+01 0.00000E+00
 -1      2753 1.02900E+02 4.09070E+01 0.00000E+00
 -1      2754 1.00650E+02 3.96080E+01 0.00000E+00
 -1      2755 1.07400E+02 4.09295E+01 0.00000E+00
 -1      2756 1.08900E+02 4.09295E+01 0.00000E+00
 -1      2757 1.10400E+02 4.09295E+01 0.00000E+00
 -1      2758 1.11900E+02 4.09295E+01 0.00000E+00
 -1      2759 1.09650E+02 3.96530E+01 0.00000E+00
 -1      2760 1.13400E+02 4.09295E+01 0.00000E+00
 -1      2761 1.14900E+02 4.09295E+01 0.00000E+00
 -1      2762 1.12650E+02 3.96530E+01 0.00000E+00
 -1      2763 1.16400E+02 4.09295E+01 0.00000E+00
 -1      2764 1.17900E+02 4.09295E+01 0.00000E+00
 -1      2765 1.15650E+02 3.96530E+01 0.00000E+00
 -1      2766 1.19400E+02 4.09295E+01 0.00000E+00
 -1      2767 1.20900E+02 4.09295E+01 0.00000E+00
 -1      2768 1.18650E+02 3.96530E+01 0.00000E+00
 -1      2769 1.22400E+02 4.09295E+01 0.00000E+00
 -1      2770 1.23900E+02 4.09295E+01 0.00000E+00
 -1      2771 1.21650E+02 3.96530E+01 0.00000E+00
 -1      2772 1.25400E+02 4.09295E+01 0.00000E+00
 -1      2773 1.26900E+02 4.09295E+01 0.00000E+00
 -1      2774 1.24650E+02 3.96530E+01 0.00000E+00
 -1      2775 1.28400E+02 4.09295E+01 0.00000E+00
 -1      2776 1.29900E+02 4.09295E+01 0.00000E+00
 -1      2777 1.27650E+02 3.96530E+01 0.00000E+00
 -1      2778 1.31400E+02 4.09295E+01 0.00000E+00
 -1      2779 1.32900E+02 4.09295E+01 0.00000E+00
 -1      2780 1.30650E+02 3.96530E+01 0.00000E+00
 -1      2781 1.34400E+02 4.09295E+01 0.00000E+00
 -1      2782 1.35900E+02 4.09295E+01 0.00000E+00
 -1      2783 1.33650E+02 3.96530E+01 0.00000E+00
 -1      2784 1.37400E+02 4.09295E+01 0.00000E+00
 -1      2785 1.38900E+02 4.09295E+01 0.00000E+00
 -1      2786 1.36650E+02 3.96530E+01 0.00000E+00
 -1      2787 2.42850E+01 7.90325E+00 0.00000E+00
 -1      2788 2.27850E+01 7.90325E+00 0.00000E+00
 -1      2789 1.39914E+02 4.09475E+01 0.00000E+00
 -1      2790 1.40928E+02 4.09768E+01 0.00000E+00
 -1      2791 1.41192E+02 3.97070E+01 0.00000E+00
 -1      2792 1.39164E+02 3.96710E+01 0.00000E+00
 -1      2793 2.12850E+01 7.90325E+00 0.00000E+00
 -1      2794 1.97850E+01 7.90325E+00 0.00000E+00
 -1      2795 2.20350E+01 9.20225E+00 0.00000E+00
 -1      2796 3.02850E+01 7.90325E+00 0.00000E+00
 -1      2797 2.87850E+01 7.90325E+00 0.00000E+00
 -1      2798 3.32850E+01 7.90325E+00 0.00000E+00
 -1      2799 3.17850E+01 7.90325E+00 0.00000E+00
 -1      2800 3.10350E+01 9.20225E+00 0.00000E+00
 -1      2801 3.62850E+01 7.90325E+00 0.00000E+00
 -1      2802 3.47850E+01 7.90325E+00 0.00000E+00
 -1      2803 3.40350E+01 9.20225E+00 0.00000E+00
 -1      2804 3.92850E+01 7.90325E+00 0.00000E+00
 -1      2805 3.77850E+01 7.90325E+00 0.00000E+00
 -1      2806 3.70350E+01 9.20225E+00 0.00000E+00
 -1      2807 4.22850E+01 7.90325E+00 0.00000E+00
 -1      2808 4.07850E+01 7.90325E+00 0.00000E+00
 -1      2809 4.00350E+01 9.20225E+00 0.00000E+00
 -1      2810 4.52850E+01 7.90325E+00 0.00000E+00
 -1      2811 4.37850E+01 7.90325E+00 0.00000E+00
 -1      2812 4.30350E+01 9.20225E+00 0.00000E+00
 -1      2813 4.82850E+01 7.90325E+00 0.00000E+00
 -1      2814 4.67850E+01 7.90325E+00 0.00000E+00
 -1      2815 4.60350E+01 9.20225E+00 0.00000E+00
 -1      2816 5.12850E+01 7.90325E+00 0.00000E+00
 -1      2817 4.97850E+01 7.90325E+00 0.00000E+00
 -1      2818 4.90350E+01 9.20225E+00 0.00000E+00
 -1      2819 5.42850E+01 7.90325E+00 0.00000E+00
 -1      2820 5.27850E+01 7.90325E+00 0.00000E+00
 -1      2821 5.20350E+01 9.20225E+00 0.00000E+00
 -1      2822 5.72850E+01 7.90325E+00 0.00000E+00
 -1      2823 5.57850E+01 7.90325E+00 0.00000E+00
 -1      2824 5.50350E+01 9.20225E+00 0.00000E+00
 -1      2825 6.02850E+01 7.90325E+00 0.00000E+00
 -1      2826 5.87850E+01 7.90325E+00 0.00000E+00
 -1      2827 5.80350E+01 9.20225E+00 0.00000E+00
 -1      2828 6.32850E+01 7.90325E+00 0.00000E+00
 -1      2829 6.17850E+01 7.90325E+00 0.00000E+00
 -1      2830 6.10350E+01 9.20225E+00 0.00000E+00
 -1      2831 6.62850E+01 7.90325E+00 0.00000E+00
 -1      2832 6.47850E+01 7.90325E+00 0.00000E+00
 -1      2833 6.40350E+01 9.20225E+00 0.00000E+00
 -1      2834 6.92850E+01 7.90325E+00 0.00000E+00
 -1      2835 6.77850E+01 7.90325E+00 0.00000E+00
 -1      2836 6.70350E+01 9.20225E+00 0.00000E+00
 -1      2837 7.22850E+01 7.90325E+00 0.00000E+00
 -1      2838 7.07850E+01 7.90325E+00 0.00000E+00
 -1      2839 7.00350E+01 9.20225E+00 0.00000E+00
 -1      2840 7.52850E+01 7.90325E+00 0.00000E+00
 -1      2841 7.37850E+01 7.90325E+00 0.00000E+00
 -1      2842 7.30350E+01 9.20225E+00 0.00000E+00
 -1      2843 7.82850E+01 7.90325E+00 0.00000E+00
 -1      2844 7.67850E+01 7.90325E+00 0.00000E+00
 -1      2845 7.60350E+01 9.20225E+00 0.00000E+00
 -1      2846 8.12850E+01 7.90325E+00 0.00000E+00
 -1      2847 7.97850E+01 7.90325E+00 0.00000E+00
 -1      2848 7.90350E+01 9.20225E+00 0.00000E+00
 -1      2849 8.42850E+01 7.90325E+00 0.00000E+00
 -1      2850 8.27850E+01 7.90325E+00 0.00000E+00
 -1      2851 8.20350E+01 9.20225E+00 0.00000E+00
 -1      2852 8.72850E+01 7.90325E+00 0.00000E+00
 -1      2853 8.57850E+01 7.90325E+00 0.00000E+00
 -1      2854 8.50350E+01 9.20225E+00 0.00000E+00
 -1      2855 9.02850E+01 7.90325E+00 0.00000E+00
 -1      2856 8.87850E+01 7.90325E+00 0.00000E+00
 -1      2857 8.80350E+01 9.20225E+00 0.00000E+00
 -1      2858 9.32850E+01 7.90325E+00 0.00000E+00
 -1      2859 9.17850E+01 7.90325E+00 0.00000E+00
 -1      2860 9.10350E+01 9.20225E+00 0.00000E+00
 -1      2861 9.62850E+01 7.90325E+00 0.00000E+00
 -1      2862 9.47850E+01 7.90325E+00 0.00000E+00
 -1      2863 9.40350E+01 9.20225E+00 0.00000E+00
 -1      2864 9.92850E+01 7.90325E+00 0.00000E+00
 -1      2865 9.77850E+01 7.90325E+00 0.00000E+00
 -1      2866 9.70350E+01 9.20225E+00 0.00000E+00
 -1      2867 1.02285E+02 7.90325E+00 0.00000E+00
 -1      2868 1.00785E+02 7.90325E+00 0.00000E+00
 -1      2869 1.00035E+02 9.20225E+00 0.00000E+00
 -1      2870 1.05285E+02 7.90325E+00 0.00000E+00
 -1      2871 1.03785E+02 7.90325E+00 0.00000E+00
 -1      2872 1.03035E+02 9.20225E+00 0.00000E+00
 -1      2873 1.08285E+02 7.90325E+00 0.00000E+00
 -1      2874 1.06785E+02 7.90325E+00 0.00000E+00
 -1      2875 1.06035E+02 9.20225E+00 0.00000E+00
 -1      2876 1.11285E+02 7.90325E+00 0.00000E+00
 -1      2877 1.09785E+02 7.90325E+00 0.00000E+00
 -1      2878 1.09035E+02 9.20225E+00 0.00000E+00
 -1      2879 1.14285E+02 7.90325E+00 0.00000E+00
 -1      2880 1.12785E+02 7.90325E+00 0.00000E+00
 -1      2881 1.12035E+02 9.20225E+00 0.00000E+00
 -1      2882 1.17285E+02 7.90325E+00 0.00000E+00
 -1      2883 1.15785E+02 7.90325E+00 0.00000E+00
 -1      2884 1.15035E+02 9.20225E+00 0.00000E+00
 -1      2885 1.20285E+02 7.90325E+00 0.00000E+00
 -1      2886 1.18785E+02 7.90325E+00 0.00000E+00
 -1      2887 1.18035E+02 9.20225E+00 0.00000E+00
 -1      2888 1.23285E+02 7.90325E+00 0.00000E+00
 -1      2889 1.21785E+02 7.90325E+00 0.00000E+00
 -1      2890 1.21035E+02 9.20225E+00 0.00000E+00
 -1      2891 1.26285E+02 7.90325E+00 0.00000E+00
 -1      2892 1.24785E+02 7.90325E+00 0.00000E+00
 -1      2893 1.24035E+02 9.20225E+00 0.00000E+00
 -1      2894 1.29285E+02 7.90325E+00 0.00000E+00
 -1      2895 1.27785E+02 7.90325E+00 0.00000E+00
 -1      2896 1.27035E+02 9.20225E+00 0.00000E+00
 -1      2897 1.32285E+02 7.90325E+00 0.00000E+00
 -1      2898 1.30785E+02 7.90325E+00 0.00000E+00
 -1      2899 1.30035E+02 9.20225E+00 0.00000E+00
 -1      2900 1.35285E+02 7.90325E+00 0.00000E+00
 -1      2901 1.33785E+02 7.90325E+00 0.00000E+00
 -1      2902 1.33035E+02 9.20225E+00 0.00000E+00
 -1      2903 1.38285E+02 7.90325E+00 0.00000E+00
 -1      2904 1.36785E+02 7.90325E+00 0.00000E+00
 -1      2905 1.36035E+02 9.20225E+00 0.00000E+00
 -1      2906 1.40953E+02 8.18394E+00 0.00000E+00
 -1      2907 1.39453E+02 8.18394E+00 0.00000E+00
 -1      2908 1.38703E+02 9.48294E+00 0.00000E+00
 -1      2909 1.41038E+02 1.00443E+01 0.00000E+00
 -1      2910 1.17529E+02 1.79954E+01 0.00000E+00
 -1      2911 1.18227E+02 1.91344E+01 0.00000E+00
 -1      2912 1.40907E+02 2.42875E+01 0.00000E+00
 -1      2913 1.40907E+02 2.28125E+01 0.00000E+00
 -1      2914 1.40907E+02 1.83875E+01 0.00000E+00
 -1      2915 1.40907E+02 1.69125E+01 0.00000E+00
 -1      2916 1.40907E+02 2.72375E+01 0.00000E+00
 -1      2917 1.40907E+02 2.57625E+01 0.00000E+00
 -1      2918 1.39608E+02 2.50250E+01 0.00000E+00
 -1      2919 1.40907E+02 2.13375E+01 0.00000E+00
 -1      2920 1.40907E+02 1.98625E+01 0.00000E+00
 -1      2921 1.39608E+02 1.91250E+01 0.00000E+00
 -1      2922 1.39608E+02 2.20750E+01 0.00000E+00
 -1      2923 1.05452E+02 3.80143E+01 0.00000E+00
 -1      2924 1.04345E+02 3.76798E+01 0.00000E+00
 -1      2925 1.40907E+02 3.01375E+01 0.00000E+00
 -1      2926 1.40907E+02 2.86875E+01 0.00000E+00
 -1      2927 1.39608E+02 2.79500E+01 0.00000E+00
 -1      2928 1.40907E+02 3.30875E+01 0.00000E+00
 -1      2929 1.40907E+02 3.16125E+01 0.00000E+00
 -1      2930 1.39608E+02 3.08750E+01 0.00000E+00
 -1      2931 1.40907E+02 3.60375E+01 0.00000E+00
 -1      2932 1.40907E+02 3.45625E+01 0.00000E+00
 -1      2933 1.39608E+02 3.38250E+01 0.00000E+00
 -1      2934 1.41192E+02 3.82320E+01 0.00000E+00
 -1      2935 1.19702E+02 2.77350E+01 0.00000E+00
 -1      2936 1.19430E+02 2.91019E+01 0.00000E+00
 -1      2937 1.18904E+02 2.02661E+01 0.00000E+00
 -1      2938 1.19271E+02 2.11892E+01 0.00000E+00
 -1      2939 1.82850E+01 7.90325E+00 0.00000E+00
 -1      2940 1.67850E+01 7.90325E+00 0.00000E+00
 -1      2941 1.90350E+01 9.20225E+00 0.00000E+00
 -1      2942 1.19748E+02 2.53124E+01 0.00000E+00
 -1      2943 1.19791E+02 2.63373E+01 0.00000E+00
 -1      2944 1.19514E+02 2.26076E+01 0.00000E+00
 -1      2945 1.19680E+02 2.40254E+01 0.00000E+00
 -1      2946 9.25425E+00 4.07069E+01 0.00000E+00
 -1      2947 1.06178E+01 4.09709E+01 0.00000E+00
 -1      2948 9.22200E+00 3.94717E+01 0.00000E+00
 -1      2949 9.61132E+01 2.22404E+01 0.00000E+00
 -1      2950 9.63719E+01 2.10503E+01 0.00000E+00
 -1      2951 1.15289E+02 1.59614E+01 0.00000E+00
 -1      2952 1.16412E+02 1.67158E+01 0.00000E+00
 -1      2953 1.15312E+02 3.51384E+01 0.00000E+00
 -1      2954 1.14228E+02 3.57782E+01 0.00000E+00
 -1      2955 2.72850E+01 7.90325E+00 0.00000E+00
 -1      2956 2.57850E+01 7.90325E+00 0.00000E+00
 -1      2957 2.50350E+01 9.20225E+00 0.00000E+00
 -1      2958 2.80350E+01 9.20225E+00 0.00000E+00
 -1      2959 1.17589E+01 4.09389E+01 0.00000E+00
 -1      2960 1.32589E+01 4.09389E+01 0.00000E+00
 -1      2961 1.40089E+01 3.96399E+01 0.00000E+00
 -1      2962 1.17266E+01 3.97038E+01 0.00000E+00
 -1      2963 1.52850E+01 7.90325E+00 0.00000E+00
 -1      2964 1.37850E+01 7.90325E+00 0.00000E+00
 -1      2965 1.30350E+01 9.20225E+00 0.00000E+00
 -1      2966 1.60350E+01 9.20225E+00 0.00000E+00
 -1      2967 9.09300E+00 1.68813E+01 0.00000E+00
 -1      2968 9.09300E+00 1.83563E+01 0.00000E+00
 -1      2969 1.03920E+01 1.90812E+01 0.00000E+00
 -1      2970 1.03920E+01 1.61437E+01 0.00000E+00
 -1      2971 9.09300E+00 3.15875E+01 0.00000E+00
 -1      2972 9.09300E+00 3.30625E+01 0.00000E+00
 -1      2973 1.11054E+02 1.35844E+01 0.00000E+00
 -1      2974 1.12045E+02 1.39652E+01 0.00000E+00
 -1      2975 1.00790E+02 3.57958E+01 0.00000E+00
 -1      2976 9.99373E+01 3.48622E+01 0.00000E+00
 -1      2977 1.00425E+02 1.57228E+01 0.00000E+00
 -1      2978 1.01362E+02 1.51897E+01 0.00000E+00
 -1      2979 1.01393E+02 1.39939E+01 0.00000E+00
 -1      2980 9.84825E+01 1.78409E+01 0.00000E+00
 -1      2981 9.92615E+01 1.68405E+01 0.00000E+00
 -1      2982 9.89765E+01 3.41375E+01 0.00000E+00
 -1      2983 9.81882E+01 3.33088E+01 0.00000E+00
 -1      2984 9.57501E+01 2.41932E+01 0.00000E+00
 -1      2985 9.59317E+01 2.32168E+01 0.00000E+00
 -1      2986 9.50593E+01 2.24040E+01 0.00000E+00
 -1      2987 1.13263E+02 1.44822E+01 0.00000E+00
 -1      2988 1.14278E+02 1.51087E+01 0.00000E+00
 -1      2989 9.58680E+01 2.94114E+01 0.00000E+00
 -1      2990 9.56474E+01 2.84319E+01 0.00000E+00
 -1      2991 9.71535E+01 1.97157E+01 0.00000E+00
 -1      2992 9.78199E+01 1.88389E+01 0.00000E+00
 -1      2993 1.10846E+02 3.72178E+01 0.00000E+00
 -1      2994 1.09738E+02 3.74459E+01 0.00000E+00
 -1      2995 1.03122E+02 3.73384E+01 0.00000E+00
 -1      2996 1.01999E+02 3.68890E+01 0.00000E+00
 -1      2997 1.13091E+02 3.63009E+01 0.00000E+00
 -1      2998 1.12101E+02 3.67890E+01 0.00000E+00
 -1      2999 1.08327E+02 1.29102E+01 0.00000E+00
 -1      3000 1.09710E+02 1.32020E+01 0.00000E+00
 -1      3001 1.18980E+02 3.04993E+01 0.00000E+00
 -1      3002 1.18489E+02 3.15176E+01 0.00000E+00
 -1      3003 9.09300E+00 3.45313E+01 0.00000E+00
 -1      3004 9.09300E+00 3.60000E+01 0.00000E+00
 -1      3005 1.03920E+01 3.37938E+01 0.00000E+00
 -1      3006 1.03920E+01 2.49750E+01 0.00000E+00
 -1      3007 9.09300E+00 2.57000E+01 0.00000E+00
 -1      3008 9.09300E+00 2.71750E+01 0.00000E+00
 -1      3009 9.66450E+00 9.72612E+00 0.00000E+00
 -1      3010 1.14112E+02 3.67916E+01 0.00000E+00
 -1      3011 1.03403E+02 3.84068E+01 0.00000E+00
 -1      3012 1.06141E+02 4.10485E+01 0.00000E+00
 -1      3013 1.06891E+02 3.97720E+01 0.00000E+00
 -1      3014 1.04641E+02 4.10485E+01 0.00000E+00
 -1      3015 1.19957E+02 2.99834E+01 0.00000E+00
 -1      3016 1.11720E+02 3.77430E+01 0.00000E+00
 -1      3017 1.17492E+02 1.68369E+01 0.00000E+00
 -1      3018 1.18573E+02 1.69579E+01 0.00000E+00
 -1      3019 1.17456E+02 1.56783E+01 0.00000E+00
 -1      3020 1.41038E+02 1.15068E+01 0.00000E+00
 -1      3021 1.39870E+02 1.12261E+01 0.00000E+00
 -1      3022 1.41038E+02 1.29693E+01 0.00000E+00
 -1      3023 1.17508E+02 3.48726E+01 0.00000E+00
 -1      3024 1.16410E+02 3.50055E+01 0.00000E+00
 -1      3025 1.16347E+02 3.61360E+01 0.00000E+00
 -1      3026 9.56775E+01 3.03729E+01 0.00000E+00
 -1      3027 9.45671E+01 3.01084E+01 0.00000E+00
 -1      3028 9.54870E+01 3.13345E+01 0.00000E+00
 -1      3029 9.50657E+01 2.49407E+01 0.00000E+00
 -1      3030 9.41933E+01 2.41278E+01 0.00000E+00
 -1      3031 9.43812E+01 2.56881E+01 0.00000E+00
 -1      3032 1.39529E+02 3.85828E+01 0.00000E+00
 -1      3033 1.40542E+02 3.71258E+01 0.00000E+00
 -1      3034 1.39243E+02 3.63883E+01 0.00000E+00
 -1      3035 1.38514E+02 3.85648E+01 0.00000E+00
 -1      3036 1.19286E+02 1.92482E+01 0.00000E+00
 -1      3037 1.20496E+02 2.71884E+01 0.00000E+00
 -1      3038 1.18539E+02 3.25614E+01 0.00000E+00
 -1      3039 1.18589E+02 3.36052E+01 0.00000E+00
 -1      3040 1.19557E+02 3.24246E+01 0.00000E+00
 -1      3041 1.20206E+02 2.17984E+01 0.00000E+00
 -1      3042 1.20517E+02 2.45037E+01 0.00000E+00
 -1      3043 9.72185E+01 3.30143E+01 0.00000E+00
 -1      3044 1.15364E+02 1.47045E+01 0.00000E+00
 -1      3045 9.50056E+01 2.78239E+01 0.00000E+00
 -1      3046 1.05955E+02 3.85857E+01 0.00000E+00
 -1      3047 1.05129E+02 3.93195E+01 0.00000E+00
 -1      3048 9.09300E+00 2.86437E+01 0.00000E+00
 -1      3049 9.09300E+00 3.01187E+01 0.00000E+00
 -1      3050 1.03920E+01 3.08563E+01 0.00000E+00
 -1      3051 1.03920E+01 2.79188E+01 0.00000E+00
 -1      3052 1.09635E+01 1.04636E+01 0.00000E+00
 -1      3053 1.40973E+02 1.56722E+01 0.00000E+00
 -1      3054 1.40973E+02 1.42097E+01 0.00000E+00
 -1      3055 1.39805E+02 1.39290E+01 0.00000E+00
 -1      3056 1.39674E+02 1.64097E+01 0.00000E+00
 -1      3057 9.88003E+01 3.51543E+01 0.00000E+00
 -1      3058 9.92929E+01 1.56447E+01 0.00000E+00
 -1      3059 1.08581E+02 3.81866E+01 0.00000E+00
 -1      3060 1.07214E+02 3.84668E+01 0.00000E+00
 -1      3061 1.00970E+02 3.69722E+01 0.00000E+00
 -1      3062 1.10573E+02 1.24354E+01 0.00000E+00
 -1      3063 1.13135E+02 1.33348E+01 0.00000E+00
 -1      3064 9.74666E+01 1.77604E+01 0.00000E+00
 -1      3065 1.16910E+01 1.24625E+01 0.00000E+00
 -1      3066 1.16910E+01 1.39375E+01 0.00000E+00
 -1      3067 1.03396E+02 1.27894E+01 0.00000E+00
 -1      3068 1.04438E+02 1.33777E+01 0.00000E+00
 -1      3069 9.14137E+00 3.71183E+01 0.00000E+00
 -1      3070 9.17362E+00 3.83534E+01 0.00000E+00
 -1      3071 1.05371E+01 3.86174E+01 0.00000E+00
 -1      3072 1.04404E+01 3.63808E+01 0.00000E+00
 -1      3073 1.07169E+02 1.25952E+01 0.00000E+00
 -1      3074 1.08073E+02 1.17380E+01 0.00000E+00
 -1      3075 1.26488E+01 1.02017E+01 0.00000E+00
 -1      3076 1.20772E+01 1.14631E+01 0.00000E+00
 -1      3077 1.33763E+01 1.22006E+01 0.00000E+00
 -1      3078 1.41488E+01 1.02017E+01 0.00000E+00
 -1      3079 1.21078E+02 2.95733E+01 0.00000E+00
 -1      3080 1.20628E+02 3.09707E+01 0.00000E+00
 -1      3081 1.03891E+02 3.97494E+01 0.00000E+00
 -1      3082 1.89000E+01 3.83090E+01 0.00000E+00
 -1      3083 2.04000E+01 3.83090E+01 0.00000E+00
 -1      3084 2.19000E+01 3.83090E+01 0.00000E+00
 -1      3085 2.34000E+01 3.83090E+01 0.00000E+00
 -1      3086 2.11500E+01 3.70100E+01 0.00000E+00
 -1      3087 2.49000E+01 3.83090E+01 0.00000E+00
 -1      3088 2.64000E+01 3.83090E+01 0.00000E+00
 -1      3089 2.41500E+01 3.70100E+01 0.00000E+00
 -1      3090 2.79000E+01 3.83090E+01 0.00000E+00
 -1      3091 2.94000E+01 3.83090E+01 0.00000E+00
 -1      3092 2.71500E+01 3.70100E+01 0.00000E+00
 -1      3093 3.09000E+01 3.83090E+01 0.00000E+00
 -1      3094 3.24000E+01 3.83090E+01 0.00000E+00
 -1      3095 3.01500E+01 3.70100E+01 0.00000E+00
 -1      3096 3.39000E+01 3.83090E+01 0.00000E+00
 -1      3097 3.54000E+01 3.83090E+01 0.00000E+00
 -1      3098 3.31500E+01 3.70100E+01 0.00000E+00
 -1      3099 3.69000E+01 3.83090E+01 0.00000E+00
 -1      3100 3.84000E+01 3.83090E+01 0.00000E+00
 -1      3101 3.61500E+01 3.70100E+01 0.00000E+00
 -1      3102 3.99000E+01 3.83090E+01 0.00000E+00
 -1      3103 4.14000E+01 3.83090E+01 0.00000E+00
 -1      3104 3.91500E+01 3.70100E+01 0.00000E+00
 -1      3105 4.29000E+01 3.83090E+01 0.00000E+00
 -1      3106 4.44000E+01 3.83090E+01 0.00000E+00
 -1      3107 4.21500E+01 3.70100E+01 0.00000E+00
 -1      3108 4.59000E+01 3.83090E+01 0.00000E+00
 -1      3109 4.74000E+01 3.83090E+01 0.00000E+00
 -1      3110 4.51500E+01 3.70100E+01 0.00000E+00
 -1      3111 4.89000E+01 3.83090E+01 0.00000E+00
 -1      3112 5.04000E+01 3.83090E+01 0.00000E+00
 -1      3113 4.81500E+01 3.70100E+01 0.00000E+00
 -1      3114 5.19000E+01 3.83090E+01 0.00000E+00
 -1      3115 5.34000E+01 3.83090E+01 0.00000E+00
 -1      3116 5.11500E+01 3.70100E+01 0.00000E+00
 -1      3117 5.49000E+01 3.83090E+01 0.00000E+00
 -1      3118 5.64000E+01 3.83090E+01 0.00000E+00
 -1      3119 5.41500E+01 3.70100E+01 0.00000E+00
 -1      3120 5.79000E+01 3.83090E+01 0.00000E+00
 -1      3121 5.94000E+01 3.83090E+01 0.00000E+00
 -1      3122 5.71500E+01 3.70100E+01 0.00000E+00
 -1      3123 6.09000E+01 3.83090E+01 0.00000E+00
 -1      3124 6.24000E+01 3.83090E+01 0.00000E+00
 -1      3125 6.01500E+01 3.70100E+01 0.00000E+00
 -1      3126 6.39000E+01 3.83090E+01 0.00000E+00
 -1      3127 6.54000E+01 3.83090E+01 0.00000E+00
 -1      3128 6.31500E+01 3.70100E+01 0.00000E+00
 -1      3129 6.69000E+01 3.83090E+01 0.00000E+00
 -1      3130 6.84000E+01 3.83090E+01 0.00000E+00
 -1      3131 6.61500E+01 3.70100E+01 0.00000E+00
 -1      3132 6.99000E+01 3.83090E+01 0.00000E+00
 -1      3133 7.14000E+01 3.83090E+01 0.00000E+00
 -1      3134 6.91500E+01 3.70100E+01 0.00000E+00
 -1      3135 7.29000E+01 3.83090E+01 0.00000E+00
 -1      3136 7.44000E+01 3.83090E+01 0.00000E+00
 -1      3137 7.21500E+01 3.70100E+01 0.00000E+00
 -1      3138 7.59000E+01 3.83090E+01 0.00000E+00
 -1      3139 7.74000E+01 3.83090E+01 0.00000E+00
 -1      3140 7.51500E+01 3.70100E+01 0.00000E+00
 -1      3141 7.89000E+01 3.83090E+01 0.00000E+00
 -1      3142 8.04000E+01 3.83090E+01 0.00000E+00
 -1      3143 7.81500E+01 3.70100E+01 0.00000E+00
 -1      3144 8.19000E+01 3.83090E+01 0.00000E+00
 -1      3145 8.34000E+01 3.83090E+01 0.00000E+00
 -1      3146 8.11500E+01 3.70100E+01 0.00000E+00
 -1      3147 8.49000E+01 3.83090E+01 0.00000E+00
 -1      3148 8.64000E+01 3.83090E+01 0.00000E+00
 -1      3149 8.41500E+01 3.70100E+01 0.00000E+00
 -1      3150 8.79000E+01 3.83090E+01 0.00000E+00
 -1      3151 8.94000E+01 3.83090E+01 0.00000E+00
 -1      3152 8.71500E+01 3.70100E+01 0.00000E+00
 -1      3153 9.09000E+01 3.83090E+01 0.00000E+00
 -1      3154 9.24000E+01 3.83090E+01 0.00000E+00
 -1      3155 9.01500E+01 3.70100E+01 0.00000E+00
 -1      3156 9.39000E+01 3.83090E+01 0.00000E+00
 -1      3157 9.54000E+01 3.83090E+01 0.00000E+00
 -1      3158 9.31500E+01 3.70100E+01 0.00000E+00
 -1      3159 1.15797E+02 3.78281E+01 0.00000E+00
 -1      3160 1.17297E+02 3.78281E+01 0.00000E+00
 -1      3161 1.18797E+02 3.78281E+01 0.00000E+00
 -1      3162 1.20900E+02 3.83540E+01 0.00000E+00
 -1      3163 1.22400E+02 3.83540E+01 0.00000E+00
 -1      3164 1.23900E+02 3.83540E+01 0.00000E+00
 -1      3165 1.25400E+02 3.83540E+01 0.00000E+00
 -1      3166 1.23150E+02 3.70550E+01 0.00000E+00
 -1      3167 1.26900E+02 3.83540E+01 0.00000E+00
 -1      3168 1.28400E+02 3.83540E+01 0.00000E+00
 -1      3169 1.26150E+02 3.70550E+01 0.00000E+00
 -1      3170 1.29900E+02 3.83540E+01 0.00000E+00
 -1      3171 1.31400E+02 3.83540E+01 0.00000E+00
 -1      3172 1.29150E+02 3.70550E+01 0.00000E+00
 -1      3173 1.32900E+02 3.83540E+01 0.00000E+00
 -1      3174 1.34400E+02 3.83540E+01 0.00000E+00
 -1      3175 1.32150E+02 3.70550E+01 0.00000E+00
 -1      3176 1.35707E+02 3.84594E+01 0.00000E+00
 -1      3177 1.37207E+02 3.84594E+01 0.00000E+00
 -1      3178 1.37572E+02 3.73712E+01 0.00000E+00
 -1      3179 1.34957E+02 3.71604E+01 0.00000E+00
 -1      3180 3.77850E+01 1.05013E+01 0.00000E+00
 -1      3181 3.62850E+01 1.05013E+01 0.00000E+00
 -1      3182 3.47850E+01 1.05013E+01 0.00000E+00
 -1      3183 3.32850E+01 1.05013E+01 0.00000E+00
 -1      3184 3.55350E+01 1.18003E+01 0.00000E+00
 -1      3185 3.17850E+01 1.05013E+01 0.00000E+00
 -1      3186 3.02850E+01 1.05013E+01 0.00000E+00
 -1      3187 3.25350E+01 1.18003E+01 0.00000E+00
 -1      3188 4.07850E+01 1.05013E+01 0.00000E+00
 -1      3189 3.92850E+01 1.05013E+01 0.00000E+00
 -1      3190 3.85350E+01 1.18003E+01 0.00000E+00
 -1      3191 4.37850E+01 1.05013E+01 0.00000E+00
 -1      3192 4.22850E+01 1.05013E+01 0.00000E+00
 -1      3193 4.15350E+01 1.18003E+01 0.00000E+00
 -1      3194 4.67850E+01 1.05013E+01 0.00000E+00
 -1      3195 4.52850E+01 1.05013E+01 0.00000E+00
 -1      3196 4.45350E+01 1.18003E+01 0.00000E+00
 -1      3197 4.97850E+01 1.05013E+01 0.00000E+00
 -1      3198 4.82850E+01 1.05013E+01 0.00000E+00
 -1      3199 4.75350E+01 1.18003E+01 0.00000E+00
 -1      3200 5.27850E+01 1.05013E+01 0.00000E+00
 -1      3201 5.12850E+01 1.05013E+01 0.00000E+00
 -1      3202 5.05350E+01 1.18003E+01 0.00000E+00
 -1      3203 5.57850E+01 1.05013E+01 0.00000E+00
 -1      3204 5.42850E+01 1.05013E+01 0.00000E+00
 -1      3205 5.35350E+01 1.18003E+01 0.00000E+00
 -1      3206 5.87850E+01 1.05013E+01 0.00000E+00
 -1      3207 5.72850E+01 1.05013E+01 0.00000E+00
 -1      3208 5.65350E+01 1.18003E+01 0.00000E+00
 -1      3209 6.17850E+01 1.05013E+01 0.00000E+00
 -1      3210 6.02850E+01 1.05013E+01 0.00000E+00
 -1      3211 5.95350E+01 1.18003E+01 0.00000E+00
 -1      3212 6.47850E+01 1.05013E+01 0.00000E+00
 -1      3213 6.32850E+01 1.05013E+01 0.00000E+00
 -1      3214 6.25350E+01 1.18003E+01 0.00000E+00
 -1      3215 6.77850E+01 1.05013E+01 0.00000E+00
 -1      3216 6.62850E+01 1.05013E+01 0.00000E+00
 -1      3217 6.55350E+01 1.18003E+01 0.00000E+00
 -1      3218 7.07850E+01 1.05013E+01 0.00000E+00
 -1      3219 6.92850E+01 1.05013E+01 0.00000E+00
 -1      3220 6.85350E+01 1.18003E+01 0.00000E+00
 -1      3221 7.37850E+01 1.05013E+01 0.00000E+00
 -1      3222 7.22850E+01 1.05013E+01 0.00000E+00
 -1      3223 7.15350E+01 1.18003E+01 0.00000E+00
 -1      3224 7.67850E+01 1.05013E+01 0.00000E+00
 -1      3225 7.52850E+01 1.05013E+01 0.00000E+00
 -1      3226 7.45350E+01 1.18003E+01 0.00000E+00
 -1      3227 7.97850E+01 1.05013E+01 0.00000E+00
 -1      3228 7.82850E+01 1.05013E+01 0.00000E+00
 -1      3229 7.75350E+01 1.18003E+01 0.00000E+00
 -1      3230 8.27850E+01 1.05013E+01 0.00000E+00
 -1      3231 8.12850E+01 1.05013E+01 0.00000E+00
 -1      3232 8.05350E+01 1.18003E+01 0.00000E+00
 -1      3233 8.57850E+01 1.05013E+01 0.00000E+00
 -1      3234 8.42850E+01 1.05013E+01 0.00000E+00
 -1      3235 8.35350E+01 1.18003E+01 0.00000E+00
 -1      3236 8.87850E+01 1.05013E+01 0.00000E+00
 -1      3237 8.72850E+01 1.05013E+01 0.00000E+00
 -1      3238 8.65350E+01 1.18003E+01 0.00000E+00
 -1      3239 9.17850E+01 1.05013E+01 0.00000E+00
 -1      3240 9.02850E+01 1.05013E+01 0.00000E+00
 -1      3241 8.95350E+01 1.18003E+01 0.00000E+00
 -1      3242 9.47850E+01 1.05013E+01 0.00000E+00
 -1      3243 9.32850E+01 1.05013E+01 0.00000E+00
 -1      3244 9.25350E+01 1.18003E+01 0.00000E+00
 -1      3245 9.77850E+01 1.05013E+01 0.00000E+00
 -1      3246 9.62850E+01 1.05013E+01 0.00000E+00
 -1      3247 9.55350E+01 1.18003E+01 0.00000E+00
 -1      3248 1.04499E+02 1.06602E+01 0.00000E+00
 -1      3249 1.02999E+02 1.06602E+01 0.00000E+00
 -1      3250 1.07225E+02 1.03126E+01 0.00000E+00
 -1      3251 1.05725E+02 1.03126E+01 0.00000E+00
 -1      3252 1.12726E+02 1.10100E+01 0.00000E+00
 -1      3253 1.11226E+02 1.10100E+01 0.00000E+00
 -1      3254 1.15444E+02 1.15270E+01 0.00000E+00
 -1      3255 1.13944E+02 1.15270E+01 0.00000E+00
 -1      3256 1.21785E+02 1.05013E+01 0.00000E+00
 -1      3257 1.20285E+02 1.05013E+01 0.00000E+00
 -1      3258 1.24785E+02 1.05013E+01 0.00000E+00
 -1      3259 1.23285E+02 1.05013E+01 0.00000E+00
 -1      3260 1.22535E+02 1.18003E+01 0.00000E+00
 -1      3261 1.27785E+02 1.05013E+01 0.00000E+00
 -1      3262 1.26285E+02 1.05013E+01 0.00000E+00
 -1      3263 1.25535E+02 1.18003E+01 0.00000E+00
 -1      3264 1.30785E+02 1.05013E+01 0.00000E+00
 -1      3265 1.29285E+02 1.05013E+01 0.00000E+00
 -1      3266 1.28535E+02 1.18003E+01 0.00000E+00
 -1      3267 1.33785E+02 1.05013E+01 0.00000E+00
 -1      3268 1.32285E+02 1.05013E+01 0.00000E+00
 -1      3269 1.31535E+02 1.18003E+01 0.00000E+00
 -1      3270 1.36785E+02 1.05013E+01 0.00000E+00
 -1      3271 1.35285E+02 1.05013E+01 0.00000E+00
 -1      3272 1.34535E+02 1.18003E+01 0.00000E+00
 -1      3273 1.38912E+02 1.10040E+01 0.00000E+00
 -1      3274 1.37744E+02 1.07233E+01 0.00000E+00
 -1      3275 1.36994E+02 1.20223E+01 0.00000E+00
 -1      3276 1.38912E+02 1.24665E+01 0.00000E+00
 -1      3277 9.60224E+01 2.00930E+01 0.00000E+00
 -1      3278 9.86130E+01 3.64020E+01 0.00000E+00
 -1      3279 9.76522E+01 3.56773E+01 0.00000E+00
 -1      3280 1.38309E+02 2.57625E+01 0.00000E+00
 -1      3281 1.38309E+02 2.42875E+01 0.00000E+00
 -1      3282 1.38309E+02 3.45625E+01 0.00000E+00
 -1      3283 1.38309E+02 3.30875E+01 0.00000E+00
 -1      3284 1.38309E+02 2.86625E+01 0.00000E+00
 -1      3285 1.38309E+02 2.72125E+01 0.00000E+00
 -1      3286 1.37010E+02 2.64750E+01 0.00000E+00
 -1      3287 1.16910E+01 2.12875E+01 0.00000E+00
 -1      3288 1.16910E+01 2.27625E+01 0.00000E+00
 -1      3289 1.05047E+02 1.24496E+01 0.00000E+00
 -1      3290 9.65136E+01 3.41676E+01 0.00000E+00
 -1      3291 9.58925E+01 3.27523E+01 0.00000E+00
 -1      3292 9.38740E+01 2.82965E+01 0.00000E+00
 -1      3293 9.41220E+01 2.69735E+01 0.00000E+00
 -1      3294 1.01933E+02 1.13315E+01 0.00000E+00
 -1      3295 1.06274E+02 1.21021E+01 0.00000E+00
 -1      3296 1.09882E+02 1.06276E+01 0.00000E+00
 -1      3297 1.00913E+02 1.26627E+01 0.00000E+00
 -1      3298 1.00515E+02 1.05334E+01 0.00000E+00
 -1      3299 9.90154E+01 1.05334E+01 0.00000E+00
 -1      3300 9.99762E+01 1.31958E+01 0.00000E+00
 -1      3301 9.48193E+01 2.02846E+01 0.00000E+00
 -1      3302 9.56009E+01 1.89500E+01 0.00000E+00
 -1      3303 1.21339E+02 2.38152E+01 0.00000E+00
 -1      3304 1.21407E+02 2.51022E+01 0.00000E+00
 -1      3305 1.97850E+01 1.05013E+01 0.00000E+00
 -1      3306 1.82850E+01 1.05013E+01 0.00000E+00
 -1      3307 1.38309E+02 3.16125E+01 0.00000E+00
 -1      3308 1.38309E+02 3.01375E+01 0.00000E+00
 -1      3309 1.37010E+02 2.94000E+01 0.00000E+00
 -1      3310 1.37010E+02 3.23500E+01 0.00000E+00
 -1      3311 1.19899E+02 1.81133E+01 0.00000E+00
 -1      3312 1.20576E+02 1.92451E+01 0.00000E+00
 -1      3313 1.59000E+01 3.83090E+01 0.00000E+00
 -1      3314 1.74000E+01 3.83090E+01 0.00000E+00
 -1      3315 1.81500E+01 3.70100E+01 0.00000E+00
 -1      3316 1.09307E+02 3.89124E+01 0.00000E+00
 -1      3317 1.17245E+02 1.07910E+01 0.00000E+00
 -1      3318 1.16154E+02 1.31158E+01 0.00000E+00
 -1      3319 1.17165E+02 1.39685E+01 0.00000E+00
 -1      3320 1.18745E+02 1.07910E+01 0.00000E+00
 -1      3321 1.08382E+02 1.06276E+01 0.00000E+00
 -1      3322 2.27850E+01 1.05013E+01 0.00000E+00
 -1      3323 2.12850E+01 1.05013E+01 0.00000E+00
 -1      3324 2.05350E+01 1.18003E+01 0.00000E+00
 -1      3325 9.41254E+01 2.27354E+01 0.00000E+00
 -1      3326 9.43070E+01 2.17590E+01 0.00000E+00
 -1      3327 9.61417E+01 1.75996E+01 0.00000E+00
 -1      3328 9.68043E+01 1.66016E+01 0.00000E+00
 -1      3329 1.21563E+02 2.65544E+01 0.00000E+00
 -1      3330 1.21474E+02 2.79521E+01 0.00000E+00
 -1      3331 1.21259E+02 2.08875E+01 0.00000E+00
 -1      3332 1.21503E+02 2.23059E+01 0.00000E+00
 -1      3333 1.10807E+02 3.89124E+01 0.00000E+00
 -1      3334 1.12063E+02 3.84836E+01 0.00000E+00
 -1      3335 1.13563E+02 3.84836E+01 0.00000E+00
 -1      3336 1.16910E+01 2.42375E+01 0.00000E+00
 -1      3337 1.16910E+01 2.57125E+01 0.00000E+00
 -1      3338 1.29900E+01 2.35000E+01 0.00000E+00
 -1      3339 1.14699E+02 3.79610E+01 0.00000E+00
 -1      3340 9.47821E+01 3.24878E+01 0.00000E+00
 -1      3341 1.16910E+01 1.54063E+01 0.00000E+00
 -1      3342 1.16910E+01 1.68750E+01 0.00000E+00
 -1      3343 1.29900E+01 1.46687E+01 0.00000E+00
 -1      3344 1.16299E+01 3.74672E+01 0.00000E+00
 -1      3345 1.16783E+01 3.85855E+01 0.00000E+00
 -1      3346 1.28194E+01 3.85536E+01 0.00000E+00
 -1      3347 1.16910E+01 3.30594E+01 0.00000E+00
 -1      3348 1.16910E+01 3.45281E+01 0.00000E+00
 -1      3349 1.69669E+01 1.03515E+01 0.00000E+00
 -1      3350 1.54669E+01 1.03515E+01 0.00000E+00
 -1      3351 1.50806E+01 1.13509E+01 0.00000E+00
 -1      3352 1.77169E+01 1.16505E+01 0.00000E+00
 -1      3353 9.60574E+01 3.69675E+01 0.00000E+00
 -1      3354 9.68074E+01 3.82665E+01 0.00000E+00
 -1      3355 9.83074E+01 3.82665E+01 0.00000E+00
 -1      3356 1.00665E+02 3.88367E+01 0.00000E+00
 -1      3357 1.02165E+02 3.88367E+01 0.00000E+00
 -1      3358 2.95350E+01 1.18003E+01 0.00000E+00
 -1      3359 2.87850E+01 1.05013E+01 0.00000E+00
 -1      3360 2.72850E+01 1.05013E+01 0.00000E+00
 -1      3361 1.39605E+01 3.85216E+01 0.00000E+00
 -1      3362 1.19547E+02 3.65291E+01 0.00000E+00
 -1      3363 1.18246E+02 1.40896E+01 0.00000E+00
 -1      3364 1.05084E+02 1.09917E+01 0.00000E+00
 -1      3365 9.82654E+01 1.18324E+01 0.00000E+00
 -1      3366 9.38854E+01 2.06160E+01 0.00000E+00
 -1      3367 1.22393E+02 2.29043E+01 0.00000E+00
 -1      3368 1.19495E+02 1.20900E+01 0.00000E+00
 -1      3369 1.21873E+02 1.97526E+01 0.00000E+00
 -1      3370 1.03388E+02 3.91781E+01 0.00000E+00
 -1      3371 9.94556E+01 3.77435E+01 0.00000E+00
 -1      3372 1.16910E+01 3.15906E+01 0.00000E+00
 -1      3373 1.29900E+01 3.23250E+01 0.00000E+00
 -1      3374 1.16910E+01 3.01219E+01 0.00000E+00
 -1      3375 1.38309E+02 1.98625E+01 0.00000E+00
 -1      3376 1.38309E+02 1.83875E+01 0.00000E+00
 -1      3377 1.37010E+02 2.35500E+01 0.00000E+00
 -1      3378 1.38309E+02 2.28125E+01 0.00000E+00
 -1      3379 1.38309E+02 2.13375E+01 0.00000E+00
 -1      3380 9.32496E+01 2.61607E+01 0.00000E+00
 -1      3381 1.16910E+01 1.98188E+01 0.00000E+00
 -1      3382 1.29900E+01 2.05562E+01 0.00000E+00
 -1      3383 1.16910E+01 1.83500E+01 0.00000E+00
 -1      3384 1.20678E+02 3.20145E+01 0.00000E+00
 -1      3385 1.20728E+02 3.30583E+01 0.00000E+00
 -1      3386 1.21799E+02 3.16044E+01 0.00000E+00
 -1      3387 1.47105E+01 3.72226E+01 0.00000E+00
 -1      3388 9.62448E+01 3.57198E+01 0.00000E+00
 -1      3389 9.49188E+01 3.54578E+01 0.00000E+00
 -1      3390 9.34930E+01 3.02196E+01 0.00000E+00
 -1      3391 9.36835E+01 2.92580E+01 0.00000E+00
 -1      3392 9.28000E+01 2.84077E+01 0.00000E+00
 -1      3393 1.22386E+02 2.58659E+01 0.00000E+00
 -1      3394 1.37076E+02 1.78847E+01 0.00000E+00
 -1      3395 1.38375E+02 1.71472E+01 0.00000E+00
 -1      3396 1.38440E+02 1.59068E+01 0.00000E+00
 -1      3397 2.57850E+01 1.05013E+01 0.00000E+00
 -1      3398 2.42850E+01 1.05013E+01 0.00000E+00
 -1      3399 2.35350E+01 1.18003E+01 0.00000E+00
 -1      3400 2.65350E+01 1.18003E+01 0.00000E+00
 -1      3401 1.19863E+02 1.69548E+01 0.00000E+00
 -1      3402 1.21153E+02 1.69517E+01 0.00000E+00
 -1      3403 1.19826E+02 1.57963E+01 0.00000E+00
 -1      3404 1.22145E+02 2.89393E+01 0.00000E+00
 -1      3405 1.37758E+02 3.65110E+01 0.00000E+00
 -1      3406 1.38123E+02 3.54227E+01 0.00000E+00
 -1      3407 1.36824E+02 3.46852E+01 0.00000E+00
 -1      3408 1.36451E+02 3.64056E+01 0.00000E+00
 -1      3409 9.78084E+01 1.54576E+01 0.00000E+00
 -1      3410 9.89721E+01 1.43399E+01 0.00000E+00
 -1      3411 9.84917E+01 1.30087E+01 0.00000E+00
 -1      3412 9.64835E+01 1.52968E+01 0.00000E+00
 -1      3413 9.34410E+01 2.34829E+01 0.00000E+00
 -1      3414 9.49386E+01 1.77912E+01 0.00000E+00
 -1      3415 1.15815E+01 3.63489E+01 0.00000E+00
 -1      3416 1.37010E+02 2.06000E+01 0.00000E+00
 -1      3417 2.04000E+01 3.57110E+01 0.00000E+00
 -1      3418 2.19000E+01 3.57110E+01 0.00000E+00
 -1      3419 2.34000E+01 3.57110E+01 0.00000E+00
 -1      3420 2.49000E+01 3.57110E+01 0.00000E+00
 -1      3421 2.26500E+01 3.44120E+01 0.00000E+00
 -1      3422 2.64000E+01 3.57110E+01 0.00000E+00
 -1      3423 2.79000E+01 3.57110E+01 0.00000E+00
 -1      3424 2.56500E+01 3.44120E+01 0.00000E+00
 -1      3425 2.94000E+01 3.57110E+01 0.00000E+00
 -1      3426 3.09000E+01 3.57110E+01 0.00000E+00
 -1      3427 2.86500E+01 3.44120E+01 0.00000E+00
 -1      3428 3.24000E+01 3.57110E+01 0.00000E+00
 -1      3429 3.39000E+01 3.57110E+01 0.00000E+00
 -1      3430 3.16500E+01 3.44120E+01 0.00000E+00
 -1      3431 3.54000E+01 3.57110E+01 0.00000E+00
 -1      3432 3.69000E+01 3.57110E+01 0.00000E+00
 -1      3433 3.46500E+01 3.44120E+01 0.00000E+00
 -1      3434 3.84000E+01 3.57110E+01 0.00000E+00
 -1      3435 3.99000E+01 3.57110E+01 0.00000E+00
 -1      3436 3.76500E+01 3.44120E+01 0.00000E+00
 -1      3437 4.14000E+01 3.57110E+01 0.00000E+00
 -1      3438 4.29000E+01 3.57110E+01 0.00000E+00
 -1      3439 4.06500E+01 3.44120E+01 0.00000E+00
 -1      3440 4.44000E+01 3.57110E+01 0.00000E+00
 -1      3441 4.59000E+01 3.57110E+01 0.00000E+00
 -1      3442 4.36500E+01 3.44120E+01 0.00000E+00
 -1      3443 4.74000E+01 3.57110E+01 0.00000E+00
 -1      3444 4.89000E+01 3.57110E+01 0.00000E+00
 -1      3445 4.66500E+01 3.44120E+01 0.00000E+00
 -1      3446 5.04000E+01 3.57110E+01 0.00000E+00
 -1      3447 5.19000E+01 3.57110E+01 0.00000E+00
 -1      3448 4.96500E+01 3.44120E+01 0.00000E+00
 -1      3449 5.34000E+01 3.57110E+01 0.00000E+00
 -1      3450 5.49000E+01 3.57110E+01 0.00000E+00
 -1      3451 5.26500E+01 3.44120E+01 0.00000E+00
 -1      3452 5.64000E+01 3.57110E+01 0.00000E+00
 -1      3453 5.79000E+01 3.57110E+01 0.00000E+00
 -1      3454 5.56500E+01 3.44120E+01 0.00000E+00
 -1      3455 5.94000E+01 3.57110E+01 0.00000E+00
 -1      3456 6.09000E+01 3.57110E+01 0.00000E+00
 -1      3457 5.86500E+01 3.44120E+01 0.00000E+00
 -1      3458 6.24000E+01 3.57110E+01 0.00000E+00
 -1      3459 6.39000E+01 3.57110E+01 0.00000E+00
 -1      3460 6.16500E+01 3.44120E+01 0.00000E+00
 -1      3461 6.54000E+01 3.57110E+01 0.00000E+00
 -1      3462 6.69000E+01 3.57110E+01 0.00000E+00
 -1      3463 6.46500E+01 3.44120E+01 0.00000E+00
 -1      3464 6.84000E+01 3.57110E+01 0.00000E+00
 -1      3465 6.99000E+01 3.57110E+01 0.00000E+00
 -1      3466 6.76500E+01 3.44120E+01 0.00000E+00
 -1      3467 7.14000E+01 3.57110E+01 0.00000E+00
 -1      3468 7.29000E+01 3.57110E+01 0.00000E+00
 -1      3469 7.06500E+01 3.44120E+01 0.00000E+00
 -1      3470 7.44000E+01 3.57110E+01 0.00000E+00
 -1      3471 7.59000E+01 3.57110E+01 0.00000E+00
 -1      3472 7.36500E+01 3.44120E+01 0.00000E+00
 -1      3473 7.74000E+01 3.57110E+01 0.00000E+00
 -1      3474 7.89000E+01 3.57110E+01 0.00000E+00
 -1      3475 7.66500E+01 3.44120E+01 0.00000E+00
 -1      3476 8.04000E+01 3.57110E+01 0.00000E+00
 -1      3477 8.19000E+01 3.57110E+01 0.00000E+00
 -1      3478 7.96500E+01 3.44120E+01 0.00000E+00
 -1      3479 8.34000E+01 3.57110E+01 0.00000E+00
 -1      3480 8.49000E+01 3.57110E+01 0.00000E+00
 -1      3481 8.26500E+01 3.44120E+01 0.00000E+00
 -1      3482 8.64000E+01 3.57110E+01 0.00000E+00
 -1      3483 8.79000E+01 3.57110E+01 0.00000E+00
 -1      3484 8.56500E+01 3.44120E+01 0.00000E+00
 -1      3485 8.94000E+01 3.57110E+01 0.00000E+00
 -1      3486 9.09000E+01 3.57110E+01 0.00000E+00
 -1      3487 8.86500E+01 3.44120E+01 0.00000E+00
 -1      3488 9.21594E+01 3.55844E+01 0.00000E+00
 -1      3489 9.36594E+01 3.55844E+01 0.00000E+00
 -1      3490 9.39282E+01 3.40322E+01 0.00000E+00
 -1      3491 9.14094E+01 3.42854E+01 0.00000E+00
 -1      3492 1.19786E+02 1.37998E+01 0.00000E+00
 -1      3493 1.25400E+02 3.57560E+01 0.00000E+00
 -1      3494 1.26900E+02 3.57560E+01 0.00000E+00
 -1      3495 1.28400E+02 3.57560E+01 0.00000E+00
 -1      3496 1.29900E+02 3.57560E+01 0.00000E+00
 -1      3497 1.27650E+02 3.44570E+01 0.00000E+00
 -1      3498 1.31400E+02 3.57560E+01 0.00000E+00
 -1      3499 1.32900E+02 3.57560E+01 0.00000E+00
 -1      3500 1.30650E+02 3.44570E+01 0.00000E+00
 -1      3501 3.62850E+01 1.30992E+01 0.00000E+00
 -1      3502 3.47850E+01 1.30992E+01 0.00000E+00
 -1      3503 1.28805E+01 3.56145E+01 0.00000E+00
 -1      3504 3.92850E+01 1.30992E+01 0.00000E+00
 -1      3505 3.77850E+01 1.30992E+01 0.00000E+00
 -1      3506 3.70350E+01 1.43982E+01 0.00000E+00
 -1      3507 3.32850E+01 1.30992E+01 0.00000E+00
 -1      3508 3.17850E+01 1.30992E+01 0.00000E+00
 -1      3509 3.40350E+01 1.43982E+01 0.00000E+00
 -1      3510 4.52850E+01 1.30992E+01 0.00000E+00
 -1      3511 4.37850E+01 1.30992E+01 0.00000E+00
 -1      3512 4.82850E+01 1.30992E+01 0.00000E+00
 -1      3513 4.67850E+01 1.30992E+01 0.00000E+00
 -1      3514 4.60350E+01 1.43982E+01 0.00000E+00
 -1      3515 5.12850E+01 1.30992E+01 0.00000E+00
 -1      3516 4.97850E+01 1.30992E+01 0.00000E+00
 -1      3517 4.90350E+01 1.43982E+01 0.00000E+00
 -1      3518 5.42850E+01 1.30992E+01 0.00000E+00
 -1      3519 5.27850E+01 1.30992E+01 0.00000E+00
 -1      3520 5.20350E+01 1.43982E+01 0.00000E+00
 -1      3521 5.72850E+01 1.30992E+01 0.00000E+00
 -1      3522 5.57850E+01 1.30992E+01 0.00000E+00
 -1      3523 5.50350E+01 1.43982E+01 0.00000E+00
 -1      3524 6.02850E+01 1.30992E+01 0.00000E+00
 -1      3525 5.87850E+01 1.30992E+01 0.00000E+00
 -1      3526 5.80350E+01 1.43982E+01 0.00000E+00
 -1      3527 6.32850E+01 1.30992E+01 0.00000E+00
 -1      3528 6.17850E+01 1.30992E+01 0.00000E+00
 -1      3529 6.10350E+01 1.43982E+01 0.00000E+00
 -1      3530 6.62850E+01 1.30992E+01 0.00000E+00
 -1      3531 6.47850E+01 1.30992E+01 0.00000E+00
 -1      3532 6.40350E+01 1.43982E+01 0.00000E+00
 -1      3533 6.92850E+01 1.30992E+01 0.00000E+00
 -1      3534 6.77850E+01 1.30992E+01 0.00000E+00
 -1      3535 6.70350E+01 1.43982E+01 0.00000E+00
 -1      3536 7.22850E+01 1.30992E+01 0.00000E+00
 -1      3537 7.07850E+01 1.30992E+01 0.00000E+00
 -1      3538 7.00350E+01 1.43982E+01 0.00000E+00
 -1      3539 7.52850E+01 1.30992E+01 0.00000E+00
 -1      3540 7.37850E+01 1.30992E+01 0.00000E+00
 -1      3541 7.30350E+01 1.43982E+01 0.00000E+00
 -1      3542 7.82850E+01 1.30992E+01 0.00000E+00
 -1      3543 7.67850E+01 1.30992E+01 0.00000E+00
 -1      3544 7.60350E+01 1.43982E+01 0.00000E+00
 -1      3545 8.12850E+01 1.30992E+01 0.00000E+00
 -1      3546 7.97850E+01 1.30992E+01 0.00000E+00
 -1      3547 7.90350E+01 1.43982E+01 0.00000E+00
 -1      3548 8.42850E+01 1.30992E+01 0.00000E+00
 -1      3549 8.27850E+01 1.30992E+01 0.00000E+00
 -1      3550 8.20350E+01 1.43982E+01 0.00000E+00
 -1      3551 8.72850E+01 1.30992E+01 0.00000E+00
 -1      3552 8.57850E+01 1.30992E+01 0.00000E+00
 -1      3553 8.50350E+01 1.43982E+01 0.00000E+00
 -1      3554 9.02850E+01 1.30992E+01 0.00000E+00
 -1      3555 8.87850E+01 1.30992E+01 0.00000E+00
 -1      3556 8.80350E+01 1.43982E+01 0.00000E+00
 -1      3557 9.32850E+01 1.30992E+01 0.00000E+00
 -1      3558 9.17850E+01 1.30992E+01 0.00000E+00
 -1      3559 9.10350E+01 1.43982E+01 0.00000E+00
 -1      3560 9.72613E+01 1.29765E+01 0.00000E+00
 -1      3561 1.23494E+02 2.22601E+01 0.00000E+00
 -1      3562 1.23330E+02 2.37695E+01 0.00000E+00
 -1      3563 1.22576E+02 1.37967E+01 0.00000E+00
 -1      3564 1.21076E+02 1.37967E+01 0.00000E+00
 -1      3565 1.32285E+02 1.30992E+01 0.00000E+00
 -1      3566 1.30785E+02 1.30992E+01 0.00000E+00
 -1      3567 1.35285E+02 1.30992E+01 0.00000E+00
 -1      3568 1.33785E+02 1.30992E+01 0.00000E+00
 -1      3569 1.33035E+02 1.43982E+01 0.00000E+00
 -1      3570 1.29285E+02 1.30992E+01 0.00000E+00
 -1      3571 1.27785E+02 1.30992E+01 0.00000E+00
 -1      3572 1.30035E+02 1.43982E+01 0.00000E+00
 -1      3573 1.18730E+02 3.43740E+01 0.00000E+00
 -1      3574 1.18667E+02 3.55045E+01 0.00000E+00
 -1      3575 9.19509E+01 2.65677E+01 0.00000E+00
 -1      3576 9.22101E+01 2.52823E+01 0.00000E+00
 -1      3577 1.35711E+02 2.72000E+01 0.00000E+00
 -1      3578 1.35711E+02 2.57500E+01 0.00000E+00
 -1      3579 4.22850E+01 1.30992E+01 0.00000E+00
 -1      3580 4.07850E+01 1.30992E+01 0.00000E+00
 -1      3581 4.30350E+01 1.43982E+01 0.00000E+00
 -1      3582 1.48200E+01 3.54019E+01 0.00000E+00
 -1      3583 1.16910E+01 2.71844E+01 0.00000E+00
 -1      3584 1.16910E+01 2.86531E+01 0.00000E+00
 -1      3585 1.29900E+01 2.93875E+01 0.00000E+00
 -1      3586 1.74000E+01 3.57110E+01 0.00000E+00
 -1      3587 1.89000E+01 3.57110E+01 0.00000E+00
 -1      3588 1.96500E+01 3.44120E+01 0.00000E+00
 -1      3589 1.26285E+02 1.30992E+01 0.00000E+00
 -1      3590 1.24785E+02 1.30992E+01 0.00000E+00
 -1      3591 1.27035E+02 1.43982E+01 0.00000E+00
 -1      3592 1.22632E+02 1.84730E+01 0.00000E+00
 -1      3593 1.23316E+02 2.01154E+01 0.00000E+00
 -1      3594 9.25026E+01 2.09617E+01 0.00000E+00
 -1      3595 9.30150E+01 1.94873E+01 0.00000E+00
 -1      3596 1.19748E+02 3.42372E+01 0.00000E+00
 -1      3597 1.23487E+02 2.52217E+01 0.00000E+00
 -1      3598 1.23643E+02 2.66739E+01 0.00000E+00
 -1      3599 1.24588E+02 2.45775E+01 0.00000E+00
 -1      3600 1.21749E+02 3.48516E+01 0.00000E+00
 -1      3601 1.23249E+02 3.48516E+01 0.00000E+00
 -1      3602 9.21422E+01 2.38898E+01 0.00000E+00
 -1      3603 9.20743E+01 2.24974E+01 0.00000E+00
 -1      3604 9.08434E+01 2.42968E+01 0.00000E+00
 -1      3605 9.36388E+01 1.80542E+01 0.00000E+00
 -1      3606 9.41796E+01 1.67038E+01 0.00000E+00
 -1      3607 1.23584E+02 2.84319E+01 0.00000E+00
 -1      3608 1.23187E+02 3.00531E+01 0.00000E+00
 -1      3609 1.38643E+02 1.48068E+01 0.00000E+00
 -1      3610 1.38709E+02 1.35665E+01 0.00000E+00
 -1      3611 1.37750E+02 1.33444E+01 0.00000E+00
 -1      3612 1.37344E+02 1.55443E+01 0.00000E+00
 -1      3613 2.12850E+01 1.30992E+01 0.00000E+00
 -1      3614 1.97850E+01 1.30992E+01 0.00000E+00
 -1      3615 9.35227E+01 3.26144E+01 0.00000E+00
 -1      3616 1.42800E+01 3.32139E+01 0.00000E+00
 -1      3617 1.61100E+01 3.48221E+01 0.00000E+00
 -1      3618 1.68600E+01 3.35231E+01 0.00000E+00
 -1      3619 1.42800E+01 3.17452E+01 0.00000E+00
 -1      3620 1.84669E+01 1.29495E+01 0.00000E+00
 -1      3621 1.71488E+01 1.27997E+01 0.00000E+00
 -1      3622 1.92169E+01 1.42485E+01 0.00000E+00
 -1      3623 1.42890E+01 1.39344E+01 0.00000E+00
 -1      3624 1.42890E+01 1.54031E+01 0.00000E+00
 -1      3625 9.17604E+01 2.75292E+01 0.00000E+00
 -1      3626 9.07208E+01 2.66508E+01 0.00000E+00
 -1      3627 9.15699E+01 2.84908E+01 0.00000E+00
 -1      3628 1.23326E+02 1.50957E+01 0.00000E+00
 -1      3629 9.51480E+01 1.51374E+01 0.00000E+00
 -1      3630 9.61521E+01 1.39933E+01 0.00000E+00
 -1      3631 3.02850E+01 1.30992E+01 0.00000E+00
 -1      3632 2.87850E+01 1.30992E+01 0.00000E+00
 -1      3633 3.10350E+01 1.43982E+01 0.00000E+00
 -1      3634 1.25012E+02 1.97010E+01 0.00000E+00
 -1      3635 1.24253E+02 2.09806E+01 0.00000E+00
 -1      3636 1.25191E+02 2.18457E+01 0.00000E+00
 -1      3637 1.29900E+01 2.64469E+01 0.00000E+00
 -1      3638 1.23999E+02 3.35526E+01 0.00000E+00
 -1      3639 1.34022E+02 3.60281E+01 0.00000E+00
 -1      3640 1.35329E+02 3.61335E+01 0.00000E+00
 -1      3641 1.35515E+02 3.52733E+01 0.00000E+00
 -1      3642 1.33272E+02 3.47291E+01 0.00000E+00
 -1      3643 4.00350E+01 1.43982E+01 0.00000E+00
 -1      3644 9.59258E+01 1.28171E+01 0.00000E+00
 -1      3645 9.44258E+01 1.28171E+01 0.00000E+00
 -1      3646 9.36758E+01 1.41161E+01 0.00000E+00
 -1      3647 9.22560E+01 1.83999E+01 0.00000E+00
 -1      3648 1.20770E+02 3.60305E+01 0.00000E+00
 -1      3649 1.36791E+02 1.31223E+01 0.00000E+00
 -1      3650 2.27850E+01 1.30992E+01 0.00000E+00
 -1      3651 2.20350E+01 1.43982E+01 0.00000E+00
 -1      3652 2.42850E+01 1.30992E+01 0.00000E+00
 -1      3653 1.24685E+02 2.77877E+01 0.00000E+00
 -1      3654 1.36041E+02 1.44213E+01 0.00000E+00
 -1      3655 1.29900E+01 1.76125E+01 0.00000E+00
 -1      3656 1.34412E+02 2.50000E+01 0.00000E+00
 -1      3657 1.35711E+02 2.42750E+01 0.00000E+00
 -1      3658 1.35711E+02 2.28000E+01 0.00000E+00
 -1      3659 9.12039E+01 2.13687E+01 0.00000E+00
 -1      3660 1.23237E+02 3.10970E+01 0.00000E+00
 -1      3661 1.23287E+02 3.21408E+01 0.00000E+00
 -1      3662 1.24675E+02 3.05895E+01 0.00000E+00
 -1      3663 1.42890E+01 1.98219E+01 0.00000E+00
 -1      3664 1.42890E+01 2.12906E+01 0.00000E+00
 -1      3665 1.35746E+02 1.84362E+01 0.00000E+00
 -1      3666 1.35811E+02 1.71959E+01 0.00000E+00
 -1      3667 1.35711E+02 3.01500E+01 0.00000E+00
 -1      3668 1.35711E+02 2.86750E+01 0.00000E+00
 -1      3669 1.34412E+02 2.79500E+01 0.00000E+00
 -1      3670 1.42890E+01 2.27656E+01 0.00000E+00
 -1      3671 1.42890E+01 2.42406E+01 0.00000E+00
 -1      3672 1.55880E+01 2.20313E+01 0.00000E+00
 -1      3673 9.38482E+01 1.54003E+01 0.00000E+00
 -1      3674 1.20869E+02 3.38271E+01 0.00000E+00
 -1      3675 1.35702E+02 3.44131E+01 0.00000E+00
 -1      3676 1.35728E+02 2.13556E+01 0.00000E+00
 -1      3677 1.35728E+02 1.98806E+01 0.00000E+00
 -1      3678 1.34464E+02 1.91918E+01 0.00000E+00
 -1      3679 1.34429E+02 2.20806E+01 0.00000E+00
 -1      3680 1.35706E+02 3.30191E+01 0.00000E+00
 -1      3681 1.35706E+02 3.15441E+01 0.00000E+00
 -1      3682 1.34407E+02 3.08191E+01 0.00000E+00
 -1      3683 1.34398E+02 3.36072E+01 0.00000E+00
 -1      3684 9.20243E+01 3.30247E+01 0.00000E+00
 -1      3685 9.28782E+01 3.14803E+01 0.00000E+00
 -1      3686 9.19946E+01 3.06299E+01 0.00000E+00
 -1      3687 9.07649E+01 3.31513E+01 0.00000E+00
 -1      3688 1.46944E+01 1.23503E+01 0.00000E+00
 -1      3689 1.59934E+01 1.30847E+01 0.00000E+00
 -1      3690 1.42890E+01 1.68750E+01 0.00000E+00
 -1      3691 1.42890E+01 1.83500E+01 0.00000E+00
 -1      3692 1.55880E+01 1.90844E+01 0.00000E+00
 -1      3693 1.55880E+01 1.61406E+01 0.00000E+00
 -1      3694 1.89000E+01 3.31130E+01 0.00000E+00
 -1      3695 2.04000E+01 3.31130E+01 0.00000E+00
 -1      3696 2.49000E+01 3.31130E+01 0.00000E+00
 -1      3697 2.64000E+01 3.31130E+01 0.00000E+00
 -1      3698 2.79000E+01 3.31130E+01 0.00000E+00
 -1      3699 2.94000E+01 3.31130E+01 0.00000E+00
 -1      3700 2.71500E+01 3.18140E+01 0.00000E+00
 -1      3701 3.09000E+01 3.31130E+01 0.00000E+00
 -1      3702 3.24000E+01 3.31130E+01 0.00000E+00
 -1      3703 3.01500E+01 3.18140E+01 0.00000E+00
 -1      3704 3.39000E+01 3.31130E+01 0.00000E+00
 -1      3705 3.54000E+01 3.31130E+01 0.00000E+00
 -1      3706 3.31500E+01 3.18140E+01 0.00000E+00
 -1      3707 3.69000E+01 3.31130E+01 0.00000E+00
 -1      3708 3.84000E+01 3.31130E+01 0.00000E+00
 -1      3709 3.61500E+01 3.18140E+01 0.00000E+00
 -1      3710 3.99000E+01 3.31130E+01 0.00000E+00
 -1      3711 4.14000E+01 3.31130E+01 0.00000E+00
 -1      3712 3.91500E+01 3.18140E+01 0.00000E+00
 -1      3713 4.29000E+01 3.31130E+01 0.00000E+00
 -1      3714 4.44000E+01 3.31130E+01 0.00000E+00
 -1      3715 4.21500E+01 3.18140E+01 0.00000E+00
 -1      3716 4.59000E+01 3.31130E+01 0.00000E+00
 -1      3717 4.74000E+01 3.31130E+01 0.00000E+00
 -1      3718 4.51500E+01 3.18140E+01 0.00000E+00
 -1      3719 4.89000E+01 3.31130E+01 0.00000E+00
 -1      3720 5.04000E+01 3.31130E+01 0.00000E+00
 -1      3721 4.81500E+01 3.18140E+01 0.00000E+00
 -1      3722 5.19000E+01 3.31130E+01 0.00000E+00
 -1      3723 5.34000E+01 3.31130E+01 0.00000E+00
 -1      3724 5.11500E+01 3.18140E+01 0.00000E+00
 -1      3725 5.49000E+01 3.31130E+01 0.00000E+00
 -1      3726 5.64000E+01 3.31130E+01 0.00000E+00
 -1      3727 5.41500E+01 3.18140E+01 0.00000E+00
 -1      3728 5.79000E+01 3.31130E+01 0.00000E+00
 -1      3729 5.94000E+01 3.31130E+01 0.00000E+00
 -1      3730 5.71500E+01 3.18140E+01 0.00000E+00
 -1      3731 6.09000E+01 3.31130E+01 0.00000E+00
 -1      3732 6.24000E+01 3.31130E+01 0.00000E+00
 -1      3733 6.01500E+01 3.18140E+01 0.00000E+00
 -1      3734 6.39000E+01 3.31130E+01 0.00000E+00
 -1      3735 6.54000E+01 3.31130E+01 0.00000E+00
 -1      3736 6.31500E+01 3.18140E+01 0.00000E+00
 -1      3737 6.69000E+01 3.31130E+01 0.00000E+00
 -1      3738 6.84000E+01 3.31130E+01 0.00000E+00
 -1      3739 6.61500E+01 3.18140E+01 0.00000E+00
 -1      3740 6.99000E+01 3.31130E+01 0.00000E+00
 -1      3741 7.14000E+01 3.31130E+01 0.00000E+00
 -1      3742 6.91500E+01 3.18140E+01 0.00000E+00
 -1      3743 7.29000E+01 3.31130E+01 0.00000E+00
 -1      3744 7.44000E+01 3.31130E+01 0.00000E+00
 -1      3745 7.21500E+01 3.18140E+01 0.00000E+00
 -1      3746 7.59000E+01 3.31130E+01 0.00000E+00
 -1      3747 7.74000E+01 3.31130E+01 0.00000E+00
 -1      3748 7.51500E+01 3.18140E+01 0.00000E+00
 -1      3749 7.89000E+01 3.31130E+01 0.00000E+00
 -1      3750 8.04000E+01 3.31130E+01 0.00000E+00
 -1      3751 7.81500E+01 3.18140E+01 0.00000E+00
 -1      3752 8.19000E+01 3.31130E+01 0.00000E+00
 -1      3753 8.34000E+01 3.31130E+01 0.00000E+00
 -1      3754 8.11500E+01 3.18140E+01 0.00000E+00
 -1      3755 8.49000E+01 3.31130E+01 0.00000E+00
 -1      3756 8.64000E+01 3.31130E+01 0.00000E+00
 -1      3757 8.41500E+01 3.18140E+01 0.00000E+00
 -1      3758 8.78324E+01 3.31322E+01 0.00000E+00
 -1      3759 8.93324E+01 3.31322E+01 0.00000E+00
 -1      3760 8.99473E+01 3.18715E+01 0.00000E+00
 -1      3761 8.70824E+01 3.18332E+01 0.00000E+00
 -1      3762 1.67434E+01 1.43837E+01 0.00000E+00
 -1      3763 5.27850E+01 1.56973E+01 0.00000E+00
 -1      3764 5.12850E+01 1.56973E+01 0.00000E+00
 -1      3765 1.22410E+02 1.63323E+01 0.00000E+00
 -1      3766 1.22447E+02 1.74908E+01 0.00000E+00
 -1      3767 1.33276E+02 3.33351E+01 0.00000E+00
 -1      3768 1.29900E+02 3.31580E+01 0.00000E+00
 -1      3769 1.31400E+02 3.31580E+01 0.00000E+00
 -1      3770 1.42800E+01 2.88077E+01 0.00000E+00
 -1      3771 1.42800E+01 3.02764E+01 0.00000E+00
 -1      3772 1.55700E+01 3.11654E+01 0.00000E+00
 -1      3773 3.47850E+01 1.56973E+01 0.00000E+00
 -1      3774 3.32850E+01 1.56973E+01 0.00000E+00
 -1      3775 4.97850E+01 1.56973E+01 0.00000E+00
 -1      3776 4.82850E+01 1.56973E+01 0.00000E+00
 -1      3777 5.05350E+01 1.69963E+01 0.00000E+00
 -1      3778 4.67850E+01 1.56973E+01 0.00000E+00
 -1      3779 4.52850E+01 1.56973E+01 0.00000E+00
 -1      3780 4.75350E+01 1.69963E+01 0.00000E+00
 -1      3781 5.57850E+01 1.56973E+01 0.00000E+00
 -1      3782 5.42850E+01 1.56973E+01 0.00000E+00
 -1      3783 5.35350E+01 1.69963E+01 0.00000E+00
 -1      3784 5.87850E+01 1.56973E+01 0.00000E+00
 -1      3785 5.72850E+01 1.56973E+01 0.00000E+00
 -1      3786 5.65350E+01 1.69963E+01 0.00000E+00
 -1      3787 6.17850E+01 1.56973E+01 0.00000E+00
 -1      3788 6.02850E+01 1.56973E+01 0.00000E+00
 -1      3789 5.95350E+01 1.69963E+01 0.00000E+00
 -1      3790 6.47850E+01 1.56973E+01 0.00000E+00
 -1      3791 6.32850E+01 1.56973E+01 0.00000E+00
 -1      3792 6.25350E+01 1.69963E+01 0.00000E+00
 -1      3793 6.77850E+01 1.56973E+01 0.00000E+00
 -1      3794 6.62850E+01 1.56973E+01 0.00000E+00
 -1      3795 6.55350E+01 1.69963E+01 0.00000E+00
 -1      3796 7.07850E+01 1.56973E+01 0.00000E+00
 -1      3797 6.92850E+01 1.56973E+01 0.00000E+00
 -1      3798 6.85350E+01 1.69963E+01 0.00000E+00
 -1      3799 7.37850E+01 1.56973E+01 0.00000E+00
 -1      3800 7.22850E+01 1.56973E+01 0.00000E+00
 -1      3801 7.15350E+01 1.69963E+01 0.00000E+00
 -1      3802 7.67850E+01 1.56973E+01 0.00000E+00
 -1      3803 7.52850E+01 1.56973E+01 0.00000E+00
 -1      3804 7.45350E+01 1.69963E+01 0.00000E+00
 -1      3805 7.97850E+01 1.56973E+01 0.00000E+00
 -1      3806 7.82850E+01 1.56973E+01 0.00000E+00
 -1      3807 7.75350E+01 1.69963E+01 0.00000E+00
 -1      3808 8.27850E+01 1.56973E+01 0.00000E+00
 -1      3809 8.12850E+01 1.56973E+01 0.00000E+00
 -1      3810 8.05350E+01 1.69963E+01 0.00000E+00
 -1      3811 8.57850E+01 1.56973E+01 0.00000E+00
 -1      3812 8.42850E+01 1.56973E+01 0.00000E+00
 -1      3813 8.35350E+01 1.69963E+01 0.00000E+00
 -1      3814 8.87850E+01 1.56973E+01 0.00000E+00
 -1      3815 8.72850E+01 1.56973E+01 0.00000E+00
 -1      3816 8.65350E+01 1.69963E+01 0.00000E+00
 -1      3817 9.27074E+01 1.56825E+01 0.00000E+00
 -1      3818 1.33785E+02 1.56973E+01 0.00000E+00
 -1      3819 1.32285E+02 1.56973E+01 0.00000E+00
 -1      3820 1.30785E+02 1.56973E+01 0.00000E+00
 -1      3821 1.29285E+02 1.56973E+01 0.00000E+00
 -1      3822 1.31535E+02 1.69963E+01 0.00000E+00
 -1      3823 1.35838E+02 1.55213E+01 0.00000E+00
 -1      3824 2.19000E+01 3.31130E+01 0.00000E+00
 -1      3825 2.34000E+01 3.31130E+01 0.00000E+00
 -1      3826 2.11500E+01 3.18140E+01 0.00000E+00
 -1      3827 1.42890E+01 2.57125E+01 0.00000E+00
 -1      3828 1.42890E+01 2.71844E+01 0.00000E+00
 -1      3829 1.55880E+01 2.49781E+01 0.00000E+00
 -1      3830 9.09273E+01 1.86739E+01 0.00000E+00
 -1      3831 9.15511E+01 1.72407E+01 0.00000E+00
 -1      3832 1.25438E+02 3.30452E+01 0.00000E+00
 -1      3833 4.07850E+01 1.56973E+01 0.00000E+00
 -1      3834 3.92850E+01 1.56973E+01 0.00000E+00
 -1      3835 1.26919E+02 3.31016E+01 0.00000E+00
 -1      3836 1.28419E+02 3.31016E+01 0.00000E+00
 -1      3837 1.29169E+02 3.18026E+01 0.00000E+00
 -1      3838 1.26206E+02 3.16898E+01 0.00000E+00
 -1      3839 2.72850E+01 1.30992E+01 0.00000E+00
 -1      3840 2.57850E+01 1.30992E+01 0.00000E+00
 -1      3841 2.80350E+01 1.43982E+01 0.00000E+00
 -1      3842 1.27785E+02 1.56973E+01 0.00000E+00
 -1      3843 1.26285E+02 1.56973E+01 0.00000E+00
 -1      3844 1.28535E+02 1.69963E+01 0.00000E+00
 -1      3845 8.98409E+01 2.18161E+01 0.00000E+00
 -1      3846 9.02692E+01 2.02804E+01 0.00000E+00
 -1      3847 1.25990E+02 2.69517E+01 0.00000E+00
 -1      3848 1.25931E+02 2.87097E+01 0.00000E+00
 -1      3849 1.23890E+02 1.78536E+01 0.00000E+00
 -1      3850 1.25529E+02 2.37418E+01 0.00000E+00
 -1      3851 1.25685E+02 2.51940E+01 0.00000E+00
 -1      3852 4.37850E+01 1.56973E+01 0.00000E+00
 -1      3853 4.22850E+01 1.56973E+01 0.00000E+00
 -1      3854 4.45350E+01 1.69963E+01 0.00000E+00
 -1      3855 3.77850E+01 1.56973E+01 0.00000E+00
 -1      3856 3.62850E+01 1.56973E+01 0.00000E+00
 -1      3857 3.85350E+01 1.69963E+01 0.00000E+00
 -1      3858 8.96861E+01 2.50511E+01 0.00000E+00
 -1      3859 8.96182E+01 2.36586E+01 0.00000E+00
 -1      3860 9.13787E+01 1.59565E+01 0.00000E+00
 -1      3861 1.25370E+02 1.69338E+01 0.00000E+00
 -1      3862 1.25555E+02 1.79160E+01 0.00000E+00
 -1      3863 8.93051E+01 2.69741E+01 0.00000E+00
 -1      3864 8.94956E+01 2.60126E+01 0.00000E+00
 -1      3865 8.82704E+01 2.53745E+01 0.00000E+00
 -1      3866 3.17850E+01 1.56973E+01 0.00000E+00
 -1      3867 3.02850E+01 1.56973E+01 0.00000E+00
 -1      3868 3.25350E+01 1.69963E+01 0.00000E+00
 -1      3869 1.67434E+01 1.58556E+01 0.00000E+00
 -1      3870 1.67434E+01 1.73275E+01 0.00000E+00
 -1      3871 1.78988E+01 1.55706E+01 0.00000E+00
 -1      3872 1.26492E+02 1.87812E+01 0.00000E+00
 -1      3873 2.41500E+01 3.18140E+01 0.00000E+00
 -1      3874 1.55790E+01 2.80733E+01 0.00000E+00
 -1      3875 1.26931E+02 2.61159E+01 0.00000E+00
 -1      3876 1.32526E+02 3.20361E+01 0.00000E+00
 -1      3877 9.11696E+01 2.92413E+01 0.00000E+00
 -1      3878 9.01301E+01 2.83628E+01 0.00000E+00
 -1      3879 8.89049E+01 2.77247E+01 0.00000E+00
 -1      3880 9.05548E+01 3.05020E+01 0.00000E+00
 -1      3881 1.26288E+02 2.24622E+01 0.00000E+00
 -1      3882 3.55350E+01 1.69963E+01 0.00000E+00
 -1      3883 8.98787E+01 1.59565E+01 0.00000E+00
 -1      3884 8.91287E+01 1.72555E+01 0.00000E+00
 -1      3885 8.95643E+01 1.91213E+01 0.00000E+00
 -1      3886 2.50350E+01 1.43982E+01 0.00000E+00
 -1      3887 1.76100E+01 3.22241E+01 0.00000E+00
 -1      3888 1.24620E+02 1.56348E+01 0.00000E+00
 -1      3889 1.33113E+02 2.57375E+01 0.00000E+00
 -1      3890 1.33113E+02 2.42625E+01 0.00000E+00
 -1      3891 1.26044E+02 2.96778E+01 0.00000E+00
 -1      3892 1.26094E+02 3.07216E+01 0.00000E+00
 -1      3893 1.27575E+02 3.07781E+01 0.00000E+00
 -1      3894 1.27349E+02 2.88418E+01 0.00000E+00
 -1      3895 1.33113E+02 2.72125E+01 0.00000E+00
 -1      3896 1.31814E+02 2.64750E+01 0.00000E+00
 -1      3897 1.33113E+02 2.86875E+01 0.00000E+00
 -1      3898 1.67434E+01 1.87993E+01 0.00000E+00
 -1      3899 1.67434E+01 2.02712E+01 0.00000E+00
 -1      3900 1.78988E+01 1.85143E+01 0.00000E+00
 -1      3901 1.34508E+02 1.60728E+01 0.00000E+00
 -1      3902 4.15350E+01 1.69963E+01 0.00000E+00
 -1      3903 1.92169E+01 1.57203E+01 0.00000E+00
 -1      3904 1.78988E+01 2.14612E+01 0.00000E+00
 -1      3905 1.67434E+01 2.17462E+01 0.00000E+00
 -1      3906 1.67434E+01 2.32212E+01 0.00000E+00
 -1      3907 8.86835E+01 2.25704E+01 0.00000E+00
 -1      3908 2.07958E+01 1.59764E+01 0.00000E+00
 -1      3909 1.94777E+01 1.72985E+01 0.00000E+00
 -1      3910 2.22958E+01 1.59764E+01 0.00000E+00
 -1      3911 1.33758E+02 1.73718E+01 0.00000E+00
 -1      3912 1.33361E+02 1.82818E+01 0.00000E+00
 -1      3913 1.32638E+02 1.79062E+01 0.00000E+00
 -1      3914 1.31138E+02 1.79062E+01 0.00000E+00
 -1      3915 1.33344E+02 1.97262E+01 0.00000E+00
 -1      3916 5.12850E+01 1.82952E+01 0.00000E+00
 -1      3917 4.97850E+01 1.82952E+01 0.00000E+00
 -1      3918 2.64000E+01 3.05150E+01 0.00000E+00
 -1      3919 2.79000E+01 3.05150E+01 0.00000E+00
 -1      3920 1.27992E+02 1.87812E+01 0.00000E+00
 -1      3921 1.27450E+02 2.05662E+01 0.00000E+00
 -1      3922 1.29492E+02 1.87812E+01 0.00000E+00
 -1      3923 2.94000E+01 3.05150E+01 0.00000E+00
 -1      3924 3.09000E+01 3.05150E+01 0.00000E+00
 -1      3925 2.86500E+01 2.92160E+01 0.00000E+00
 -1      3926 3.24000E+01 3.05150E+01 0.00000E+00
 -1      3927 3.39000E+01 3.05150E+01 0.00000E+00
 -1      3928 3.16500E+01 2.92160E+01 0.00000E+00
 -1      3929 3.54000E+01 3.05150E+01 0.00000E+00
 -1      3930 3.69000E+01 3.05150E+01 0.00000E+00
 -1      3931 3.46500E+01 2.92160E+01 0.00000E+00
 -1      3932 3.84000E+01 3.05150E+01 0.00000E+00
 -1      3933 3.99000E+01 3.05150E+01 0.00000E+00
 -1      3934 3.76500E+01 2.92160E+01 0.00000E+00
 -1      3935 4.14000E+01 3.05150E+01 0.00000E+00
 -1      3936 4.29000E+01 3.05150E+01 0.00000E+00
 -1      3937 4.06500E+01 2.92160E+01 0.00000E+00
 -1      3938 4.44000E+01 3.05150E+01 0.00000E+00
 -1      3939 4.59000E+01 3.05150E+01 0.00000E+00
 -1      3940 4.36500E+01 2.92160E+01 0.00000E+00
 -1      3941 4.74000E+01 3.05150E+01 0.00000E+00
 -1      3942 4.89000E+01 3.05150E+01 0.00000E+00
 -1      3943 4.66500E+01 2.92160E+01 0.00000E+00
 -1      3944 5.04000E+01 3.05150E+01 0.00000E+00
 -1      3945 5.19000E+01 3.05150E+01 0.00000E+00
 -1      3946 4.96500E+01 2.92160E+01 0.00000E+00
 -1      3947 5.34000E+01 3.05150E+01 0.00000E+00
 -1      3948 5.49000E+01 3.05150E+01 0.00000E+00
 -1      3949 5.26500E+01 2.92160E+01 0.00000E+00
 -1      3950 5.64000E+01 3.05150E+01 0.00000E+00
 -1      3951 5.79000E+01 3.05150E+01 0.00000E+00
 -1      3952 5.56500E+01 2.92160E+01 0.00000E+00
 -1      3953 5.94000E+01 3.05150E+01 0.00000E+00
 -1      3954 6.09000E+01 3.05150E+01 0.00000E+00
 -1      3955 5.86500E+01 2.92160E+01 0.00000E+00
 -1      3956 6.24000E+01 3.05150E+01 0.00000E+00
 -1      3957 6.39000E+01 3.05150E+01 0.00000E+00
 -1      3958 6.16500E+01 2.92160E+01 0.00000E+00
 -1      3959 6.54000E+01 3.05150E+01 0.00000E+00
 -1      3960 6.69000E+01 3.05150E+01 0.00000E+00
 -1      3961 6.46500E+01 2.92160E+01 0.00000E+00
 -1      3962 6.84000E+01 3.05150E+01 0.00000E+00
 -1      3963 6.99000E+01 3.05150E+01 0.00000E+00
 -1      3964 6.76500E+01 2.92160E+01 0.00000E+00
 -1      3965 7.14000E+01 3.05150E+01 0.00000E+00
 -1      3966 7.29000E+01 3.05150E+01 0.00000E+00
 -1      3967 7.06500E+01 2.92160E+01 0.00000E+00
 -1      3968 7.44000E+01 3.05150E+01 0.00000E+00
 -1      3969 7.59000E+01 3.05150E+01 0.00000E+00
 -1      3970 7.36500E+01 2.92160E+01 0.00000E+00
 -1      3971 7.74000E+01 3.05150E+01 0.00000E+00
 -1      3972 7.89000E+01 3.05150E+01 0.00000E+00
 -1      3973 7.66500E+01 2.92160E+01 0.00000E+00
 -1      3974 8.04000E+01 3.05150E+01 0.00000E+00
 -1      3975 8.19000E+01 3.05150E+01 0.00000E+00
 -1      3976 7.96500E+01 2.92160E+01 0.00000E+00
 -1      3977 8.34000E+01 3.05150E+01 0.00000E+00
 -1      3978 8.49000E+01 3.05150E+01 0.00000E+00
 -1      3979 8.26500E+01 2.92160E+01 0.00000E+00
 -1      3980 5.72850E+01 1.82952E+01 0.00000E+00
 -1      3981 5.57850E+01 1.82952E+01 0.00000E+00
 -1      3982 2.87850E+01 1.56973E+01 0.00000E+00
 -1      3983 2.72850E+01 1.56973E+01 0.00000E+00
 -1      3984 2.95350E+01 1.69963E+01 0.00000E+00
 -1      3985 1.76100E+01 3.07553E+01 0.00000E+00
 -1      3986 8.84706E+01 1.88620E+01 0.00000E+00
 -1      3987 5.42850E+01 1.82952E+01 0.00000E+00
 -1      3988 5.27850E+01 1.82952E+01 0.00000E+00
 -1      3989 5.50350E+01 1.95942E+01 0.00000E+00
 -1      3990 4.82850E+01 1.82952E+01 0.00000E+00
 -1      3991 4.67850E+01 1.82952E+01 0.00000E+00
 -1      3992 4.90350E+01 1.95942E+01 0.00000E+00
 -1      3993 6.02850E+01 1.82952E+01 0.00000E+00
 -1      3994 5.87850E+01 1.82952E+01 0.00000E+00
 -1      3995 5.80350E+01 1.95942E+01 0.00000E+00
 -1      3996 6.32850E+01 1.82952E+01 0.00000E+00
 -1      3997 6.17850E+01 1.82952E+01 0.00000E+00
 -1      3998 6.10350E+01 1.95942E+01 0.00000E+00
 -1      3999 6.62850E+01 1.82952E+01 0.00000E+00
 -1      4000 6.47850E+01 1.82952E+01 0.00000E+00
 -1      4001 6.40350E+01 1.95942E+01 0.00000E+00
 -1      4002 6.92850E+01 1.82952E+01 0.00000E+00
 -1      4003 6.77850E+01 1.82952E+01 0.00000E+00
 -1      4004 6.70350E+01 1.95942E+01 0.00000E+00
 -1      4005 7.22850E+01 1.82952E+01 0.00000E+00
 -1      4006 7.07850E+01 1.82952E+01 0.00000E+00
 -1      4007 7.00350E+01 1.95942E+01 0.00000E+00
 -1      4008 7.52850E+01 1.82952E+01 0.00000E+00
 -1      4009 7.37850E+01 1.82952E+01 0.00000E+00
 -1      4010 7.30350E+01 1.95942E+01 0.00000E+00
 -1      4011 7.82850E+01 1.82952E+01 0.00000E+00
 -1      4012 7.67850E+01 1.82952E+01 0.00000E+00
 -1      4013 7.60350E+01 1.95942E+01 0.00000E+00
 -1      4014 8.12850E+01 1.82952E+01 0.00000E+00
 -1      4015 7.97850E+01 1.82952E+01 0.00000E+00
 -1      4016 7.90350E+01 1.95942E+01 0.00000E+00
 -1      4017 8.42850E+01 1.82952E+01 0.00000E+00
 -1      4018 8.27850E+01 1.82952E+01 0.00000E+00
 -1      4019 8.20350E+01 1.95942E+01 0.00000E+00
 -1      4020 8.71278E+01 1.85786E+01 0.00000E+00
 -1      4021 8.56278E+01 1.85786E+01 0.00000E+00
 -1      4022 8.48778E+01 1.98776E+01 0.00000E+00
 -1      4023 8.75634E+01 2.04444E+01 0.00000E+00
 -1      4024 2.04000E+01 3.05150E+01 0.00000E+00
 -1      4025 2.19000E+01 3.05150E+01 0.00000E+00
 -1      4026 1.94777E+01 1.87704E+01 0.00000E+00
 -1      4027 1.67434E+01 2.46931E+01 0.00000E+00
 -1      4028 1.67434E+01 2.61650E+01 0.00000E+00
 -1      4029 1.78988E+01 2.44081E+01 0.00000E+00
 -1      4030 2.57850E+01 1.56973E+01 0.00000E+00
 -1      4031 2.42850E+01 1.56973E+01 0.00000E+00
 -1      4032 2.65350E+01 1.69963E+01 0.00000E+00
 -1      4033 1.32531E+02 3.06420E+01 0.00000E+00
 -1      4034 1.31831E+02 2.35556E+01 0.00000E+00
 -1      4035 1.33130E+02 2.28181E+01 0.00000E+00
 -1      4036 1.33148E+02 2.13737E+01 0.00000E+00
 -1      4037 8.71181E+01 2.41295E+01 0.00000E+00
 -1      4038 8.73407E+01 2.22870E+01 0.00000E+00
 -1      4039 8.59979E+01 2.20036E+01 0.00000E+00
 -1      4040 3.62850E+01 1.82952E+01 0.00000E+00
 -1      4041 3.47850E+01 1.82952E+01 0.00000E+00
 -1      4042 1.28036E+02 2.50188E+01 0.00000E+00
 -1      4043 1.28341E+02 2.67766E+01 0.00000E+00
 -1      4044 1.27788E+02 2.24622E+01 0.00000E+00
 -1      4045 2.30458E+01 1.72754E+01 0.00000E+00
 -1      4046 3.92850E+01 1.82952E+01 0.00000E+00
 -1      4047 3.77850E+01 1.82952E+01 0.00000E+00
 -1      4048 3.70350E+01 1.95942E+01 0.00000E+00
 -1      4049 2.34000E+01 3.05150E+01 0.00000E+00
 -1      4050 2.49000E+01 3.05150E+01 0.00000E+00
 -1      4051 2.56500E+01 2.92160E+01 0.00000E+00
 -1      4052 2.26500E+01 2.92160E+01 0.00000E+00
 -1      4053 4.22850E+01 1.82952E+01 0.00000E+00
 -1      4054 4.07850E+01 1.82952E+01 0.00000E+00
 -1      4055 4.00350E+01 1.95942E+01 0.00000E+00
 -1      4056 4.52850E+01 1.82952E+01 0.00000E+00
 -1      4057 4.37850E+01 1.82952E+01 0.00000E+00
 -1      4058 4.30350E+01 1.95942E+01 0.00000E+00
 -1      4059 4.60350E+01 1.95942E+01 0.00000E+00
 -1      4060 1.31232E+02 2.99045E+01 0.00000E+00
 -1      4061 2.10597E+01 1.91918E+01 0.00000E+00
 -1      4062 1.94807E+01 2.04075E+01 0.00000E+00
 -1      4063 3.32850E+01 1.82952E+01 0.00000E+00
 -1      4064 3.17850E+01 1.82952E+01 0.00000E+00
 -1      4065 3.40350E+01 1.95942E+01 0.00000E+00
 -1      4066 1.94807E+01 2.18825E+01 0.00000E+00
 -1      4067 2.50380E+01 1.86334E+01 0.00000E+00
 -1      4068 2.30489E+01 1.89126E+01 0.00000E+00
 -1      4069 2.30519E+01 2.05497E+01 0.00000E+00
 -1      4070 8.91223E+01 3.04828E+01 0.00000E+00
 -1      4071 8.62950E+01 3.04893E+01 0.00000E+00
 -1      4072 8.77274E+01 3.05085E+01 0.00000E+00
 -1      4073 8.83349E+01 2.91390E+01 0.00000E+00
 -1      4074 8.55450E+01 2.91903E+01 0.00000E+00
 -1      4075 1.30630E+02 2.68147E+01 0.00000E+00
 -1      4076 1.30630E+02 2.53397E+01 0.00000E+00
 -1      4077 5.20350E+01 1.95942E+01 0.00000E+00
 -1      4078 1.30595E+02 1.96912E+01 0.00000E+00
 -1      4079 1.29198E+02 2.31228E+01 0.00000E+00
 -1      4080 8.69276E+01 2.50911E+01 0.00000E+00
 -1      4081 8.55848E+01 2.48077E+01 0.00000E+00
 -1      4082 8.67371E+01 2.60526E+01 0.00000E+00
 -1      4083 1.32045E+02 2.04637E+01 0.00000E+00
 -1      4084 1.29525E+02 2.79118E+01 0.00000E+00
 -1      4085 1.71884E+01 2.90730E+01 0.00000E+00
 -1      4086 1.92284E+01 3.01317E+01 0.00000E+00
 -1      4087 1.71974E+01 2.74497E+01 0.00000E+00
 -1      4088 1.99784E+01 2.88327E+01 0.00000E+00
 -1      4089 1.83527E+01 2.71646E+01 0.00000E+00
 -1      4090 1.29056E+02 3.08345E+01 0.00000E+00
 -1      4091 1.29638E+02 2.88800E+01 0.00000E+00
 -1      4092 3.77850E+01 2.08932E+01 0.00000E+00
 -1      4093 3.62850E+01 2.08932E+01 0.00000E+00
 -1      4094 2.79000E+01 2.79170E+01 0.00000E+00
 -1      4095 2.94000E+01 2.79170E+01 0.00000E+00
 -1      4096 3.09000E+01 2.79170E+01 0.00000E+00
 -1      4097 3.24000E+01 2.79170E+01 0.00000E+00
 -1      4098 3.01500E+01 2.66180E+01 0.00000E+00
 -1      4099 3.39000E+01 2.79170E+01 0.00000E+00
 -1      4100 3.54000E+01 2.79170E+01 0.00000E+00
 -1      4101 3.31500E+01 2.66180E+01 0.00000E+00
 -1      4102 3.69000E+01 2.79170E+01 0.00000E+00
 -1      4103 3.84000E+01 2.79170E+01 0.00000E+00
 -1      4104 3.61500E+01 2.66180E+01 0.00000E+00
 -1      4105 3.99000E+01 2.79170E+01 0.00000E+00
 -1      4106 4.14000E+01 2.79170E+01 0.00000E+00
 -1      4107 3.91500E+01 2.66180E+01 0.00000E+00
 -1      4108 4.29000E+01 2.79170E+01 0.00000E+00
 -1      4109 4.44000E+01 2.79170E+01 0.00000E+00
 -1      4110 4.21500E+01 2.66180E+01 0.00000E+00
 -1      4111 4.59000E+01 2.79170E+01 0.00000E+00
 -1      4112 4.74000E+01 2.79170E+01 0.00000E+00
 -1      4113 4.51500E+01 2.66180E+01 0.00000E+00
 -1      4114 4.89000E+01 2.79170E+01 0.00000E+00
 -1      4115 5.04000E+01 2.79170E+01 0.00000E+00
 -1      4116 4.81500E+01 2.66180E+01 0.00000E+00
 -1      4117 5.19000E+01 2.79170E+01 0.00000E+00
 -1      4118 5.34000E+01 2.79170E+01 0.00000E+00
 -1      4119 5.11500E+01 2.66180E+01 0.00000E+00
 -1      4120 5.49000E+01 2.79170E+01 0.00000E+00
 -1      4121 5.64000E+01 2.79170E+01 0.00000E+00
 -1      4122 5.41500E+01 2.66180E+01 0.00000E+00
 -1      4123 5.79000E+01 2.79170E+01 0.00000E+00
 -1      4124 5.94000E+01 2.79170E+01 0.00000E+00
 -1      4125 5.71500E+01 2.66180E+01 0.00000E+00
 -1      4126 6.09000E+01 2.79170E+01 0.00000E+00
 -1      4127 6.24000E+01 2.79170E+01 0.00000E+00
 -1      4128 6.01500E+01 2.66180E+01 0.00000E+00
 -1      4129 6.39000E+01 2.79170E+01 0.00000E+00
 -1      4130 6.54000E+01 2.79170E+01 0.00000E+00
 -1      4131 6.31500E+01 2.66180E+01 0.00000E+00
 -1      4132 6.69000E+01 2.79170E+01 0.00000E+00
 -1      4133 6.84000E+01 2.79170E+01 0.00000E+00
 -1      4134 6.61500E+01 2.66180E+01 0.00000E+00
 -1      4135 6.99000E+01 2.79170E+01 0.00000E+00
 -1      4136 7.14000E+01 2.79170E+01 0.00000E+00
 -1      4137 6.91500E+01 2.66180E+01 0.00000E+00
 -1      4138 7.29000E+01 2.79170E+01 0.00000E+00
 -1      4139 7.44000E+01 2.79170E+01 0.00000E+00
 -1      4140 7.21500E+01 2.66180E+01 0.00000E+00
 -1      4141 7.59000E+01 2.79170E+01 0.00000E+00
 -1      4142 7.74000E+01 2.79170E+01 0.00000E+00
 -1      4143 7.51500E+01 2.66180E+01 0.00000E+00
 -1      4144 7.89000E+01 2.79170E+01 0.00000E+00
 -1      4145 8.04000E+01 2.79170E+01 0.00000E+00
 -1      4146 7.81500E+01 2.66180E+01 0.00000E+00
 -1      4147 8.19000E+01 2.79170E+01 0.00000E+00
 -1      4148 8.34000E+01 2.79170E+01 0.00000E+00
 -1      4149 8.11500E+01 2.66180E+01 0.00000E+00
 -1      4150 6.17850E+01 2.08932E+01 0.00000E+00
 -1      4151 6.02850E+01 2.08932E+01 0.00000E+00
 -1      4152 5.57850E+01 2.08932E+01 0.00000E+00
 -1      4153 5.42850E+01 2.08932E+01 0.00000E+00
 -1      4154 4.97850E+01 2.08932E+01 0.00000E+00
 -1      4155 4.82850E+01 2.08932E+01 0.00000E+00
 -1      4156 6.47850E+01 2.08932E+01 0.00000E+00
 -1      4157 6.32850E+01 2.08932E+01 0.00000E+00
 -1      4158 6.25350E+01 2.21922E+01 0.00000E+00
 -1      4159 6.77850E+01 2.08932E+01 0.00000E+00
 -1      4160 6.62850E+01 2.08932E+01 0.00000E+00
 -1      4161 6.55350E+01 2.21922E+01 0.00000E+00
 -1      4162 7.07850E+01 2.08932E+01 0.00000E+00
 -1      4163 6.92850E+01 2.08932E+01 0.00000E+00
 -1      4164 6.85350E+01 2.21922E+01 0.00000E+00
 -1      4165 7.37850E+01 2.08932E+01 0.00000E+00
 -1      4166 7.22850E+01 2.08932E+01 0.00000E+00
 -1      4167 7.15350E+01 2.21922E+01 0.00000E+00
 -1      4168 7.67850E+01 2.08932E+01 0.00000E+00
 -1      4169 7.52850E+01 2.08932E+01 0.00000E+00
 -1      4170 7.45350E+01 2.21922E+01 0.00000E+00
 -1      4171 7.97850E+01 2.08932E+01 0.00000E+00
 -1      4172 7.82850E+01 2.08932E+01 0.00000E+00
 -1      4173 7.75350E+01 2.21922E+01 0.00000E+00
 -1      4174 8.27850E+01 2.08932E+01 0.00000E+00
 -1      4175 8.12850E+01 2.08932E+01 0.00000E+00
 -1      4176 8.05350E+01 2.21922E+01 0.00000E+00
 -1      4177 8.50629E+01 2.15901E+01 0.00000E+00
 -1      4178 8.37201E+01 2.13067E+01 0.00000E+00
 -1      4179 8.29701E+01 2.26057E+01 0.00000E+00
 -1      4180 8.48402E+01 2.34327E+01 0.00000E+00
 -1      4181 1.90704E+01 2.62633E+01 0.00000E+00
 -1      4182 1.95244E+01 2.75480E+01 0.00000E+00
 -1      4183 2.06960E+01 2.79313E+01 0.00000E+00
 -1      4184 2.09918E+01 2.24369E+01 0.00000E+00
 -1      4185 1.94098E+01 2.34905E+01 0.00000E+00
 -1      4186 5.27850E+01 2.08932E+01 0.00000E+00
 -1      4187 5.12850E+01 2.08932E+01 0.00000E+00
 -1      4188 5.05350E+01 2.21922E+01 0.00000E+00
 -1      4189 1.30399E+02 2.13387E+01 0.00000E+00
 -1      4190 1.94098E+01 2.49624E+01 0.00000E+00
 -1      4191 2.65380E+01 1.86334E+01 0.00000E+00
 -1      4192 8.75099E+01 2.77503E+01 0.00000E+00
 -1      4193 1.30648E+02 2.38953E+01 0.00000E+00
 -1      4194 4.07850E+01 2.08932E+01 0.00000E+00
 -1      4195 3.92850E+01 2.08932E+01 0.00000E+00
 -1      4196 3.85350E+01 2.21922E+01 0.00000E+00
 -1      4197 5.87850E+01 2.08932E+01 0.00000E+00
 -1      4198 5.72850E+01 2.08932E+01 0.00000E+00
 -1      4199 5.65350E+01 2.21922E+01 0.00000E+00
 -1      4200 5.95350E+01 2.21922E+01 0.00000E+00
 -1      4201 3.02850E+01 1.82952E+01 0.00000E+00
 -1      4202 2.87850E+01 1.82952E+01 0.00000E+00
 -1      4203 3.10350E+01 1.95942E+01 0.00000E+00
 -1      4204 3.55350E+01 2.21922E+01 0.00000E+00
 -1      4205 3.47850E+01 2.08932E+01 0.00000E+00
 -1      4206 3.32850E+01 2.08932E+01 0.00000E+00
 -1      4207 8.40221E+01 2.61936E+01 0.00000E+00
 -1      4208 8.47721E+01 2.74926E+01 0.00000E+00
 -1      4209 8.61671E+01 2.74669E+01 0.00000E+00
 -1      4210 5.35350E+01 2.21922E+01 0.00000E+00
 -1      4211 4.75350E+01 2.21922E+01 0.00000E+00
 -1      4212 4.67850E+01 2.08932E+01 0.00000E+00
 -1      4213 4.52850E+01 2.08932E+01 0.00000E+00
 -1      4214 2.05815E+01 2.53457E+01 0.00000E+00
 -1      4215 2.29809E+01 2.21577E+01 0.00000E+00
 -1      4216 2.29100E+01 2.37657E+01 0.00000E+00
 -1      4217 2.49701E+01 2.18785E+01 0.00000E+00
 -1      4218 2.49000E+01 2.79170E+01 0.00000E+00
 -1      4219 2.64000E+01 2.79170E+01 0.00000E+00
 -1      4220 2.71500E+01 2.66180E+01 0.00000E+00
 -1      4221 2.72880E+01 1.99324E+01 0.00000E+00
 -1      4222 8.43359E+01 2.52939E+01 0.00000E+00
 -1      4223 8.45264E+01 2.43324E+01 0.00000E+00
 -1      4224 8.35914E+01 2.39189E+01 0.00000E+00
 -1      4225 8.29638E+01 2.57183E+01 0.00000E+00
 -1      4226 4.37850E+01 2.08932E+01 0.00000E+00
 -1      4227 4.22850E+01 2.08932E+01 0.00000E+00
 -1      4228 4.15350E+01 2.21922E+01 0.00000E+00
 -1      4229 4.45350E+01 2.21922E+01 0.00000E+00
 -1      4230 2.20480E+01 2.79241E+01 0.00000E+00
 -1      4231 2.35480E+01 2.79241E+01 0.00000E+00
 -1      4232 2.42980E+01 2.66251E+01 0.00000E+00
 -1      4233 2.15940E+01 2.66394E+01 0.00000E+00
 -1      4234 5.38425E+01 2.44051E+01 0.00000E+00
 -1      4235 5.23425E+01 2.44051E+01 0.00000E+00
 -1      4236 3.24000E+01 2.53190E+01 0.00000E+00
 -1      4237 3.39000E+01 2.53190E+01 0.00000E+00
 -1      4238 3.58425E+01 2.44051E+01 0.00000E+00
 -1      4239 3.73425E+01 2.44051E+01 0.00000E+00
 -1      4240 3.88425E+01 2.44051E+01 0.00000E+00
 -1      4241 4.03425E+01 2.44051E+01 0.00000E+00
 -1      4242 4.18425E+01 2.44051E+01 0.00000E+00
 -1      4243 4.33425E+01 2.44051E+01 0.00000E+00
 -1      4244 4.48425E+01 2.44051E+01 0.00000E+00
 -1      4245 4.63425E+01 2.44051E+01 0.00000E+00
 -1      4246 4.78425E+01 2.44051E+01 0.00000E+00
 -1      4247 4.93425E+01 2.44051E+01 0.00000E+00
 -1      4248 5.08425E+01 2.44051E+01 0.00000E+00
 -1      4249 5.53425E+01 2.44051E+01 0.00000E+00
 -1      4250 5.68425E+01 2.44051E+01 0.00000E+00
 -1      4251 5.83425E+01 2.44051E+01 0.00000E+00
 -1      4252 5.98425E+01 2.44051E+01 0.00000E+00
 -1      4253 6.13425E+01 2.44051E+01 0.00000E+00
 -1      4254 6.28425E+01 2.44051E+01 0.00000E+00
 -1      4255 6.43425E+01 2.44051E+01 0.00000E+00
 -1      4256 6.58425E+01 2.44051E+01 0.00000E+00
 -1      4257 6.73425E+01 2.44051E+01 0.00000E+00
 -1      4258 6.88425E+01 2.44051E+01 0.00000E+00
 -1      4259 7.03425E+01 2.44051E+01 0.00000E+00
 -1      4260 7.18425E+01 2.44051E+01 0.00000E+00
 -1      4261 7.33425E+01 2.44051E+01 0.00000E+00
 -1      4262 7.48425E+01 2.44051E+01 0.00000E+00
 -1      4263 7.63425E+01 2.44051E+01 0.00000E+00
 -1      4264 7.78425E+01 2.44051E+01 0.00000E+00
 -1      4265 7.93425E+01 2.44051E+01 0.00000E+00
 -1      4266 8.08425E+01 2.44051E+01 0.00000E+00
 -1      4267 8.26563E+01 2.35054E+01 0.00000E+00
 -1      4268 3.17850E+01 2.08932E+01 0.00000E+00
 -1      4269 3.02850E+01 2.08932E+01 0.00000E+00
 -1      4270 3.25350E+01 2.21922E+01 0.00000E+00
 -1      4271 2.98425E+01 2.44051E+01 0.00000E+00
 -1      4272 3.13425E+01 2.44051E+01 0.00000E+00
 -1      4273 2.87510E+01 2.12168E+01 0.00000E+00
 -1      4274 2.65041E+01 2.15549E+01 0.00000E+00
 -1      4275 2.64331E+01 2.31629E+01 0.00000E+00
 -1      4276 2.95010E+01 2.25158E+01 0.00000E+00
 -1      4277 2.19334E+01 2.53386E+01 0.00000E+00
 -1      4278 2.83085E+01 2.47287E+01 0.00000E+00
 -1      4279 2.39226E+01 2.50594E+01 0.00000E+00
 -1      4280 8.14638E+01 2.57183E+01 0.00000E+00
 -1      4281 2.68085E+01 2.47287E+01 0.00000E+00
 -1      4282 3.50925E+01 2.31061E+01 0.00000E+00
 -1      4283 2.52746E+01 2.50522E+01 0.00000E+00
 -1      4284 3.20925E+01 2.31061E+01 0.00000E+00
 -1      4285 3.35925E+01 2.31061E+01 0.00000E+00
 -3
    3C                          2061                                     1
 -1       164    8    0    1
 -2         6         7        23      1113      1276      1130
 -1       165    8    0    1
 -2         7         8       164      1114      1277      1278
 -1       166    8    0    1
 -2         8         9       165      1115      1279      1280
 -1       167    8    0    1
 -2         8       165       164      1280      1281      1277
 -1       168    8    0    1
 -2         9        10       166      1116      1282      1283
 -1       169    8    0    1
 -2         9       166       165      1283      1284      1279
 -1       170    8    0    1
 -2        10        11       167      1117      1285      1286
 -1       171    8    0    1
 -2        10       167       166      1286      1287      1282
 -1       172    8    0    1
 -2        11        12       168      1118      1288      1289
 -1       173    8    0    1
 -2        11       168       167      1289      1290      1285
 -1       174    8    0    1
 -2        12        13       169      1119      1291      1292
 -1       175    8    0    1
 -2        12       169       168      1292      1293      1288
 -1       176    8    0    1
 -2        13        14       170      1120      1294      1295
 -1       177    8    0    1
 -2        13       170       169      1295      1296      1291
 -1       178    8    0    1
 -2        14        15       171      1121      1297      1298
 -1       179    8    0    1
 -2        14       171       170      1298      1299      1294
 -1       180    8    0    1
 -2        15        16       172      1122      1300      1301
 -1       181    8    0    1
 -2        15       172       171      1301      1302      1297
 -1       182    8    0    1
 -2        16        17       173      1123      1303      1304
 -1       183    8    0    1
 -2        16       173       172      1304      1305      1300
 -1       184    8    0    1
 -2        17        18       174      1124      1306      1307
 -1       185    8    0    1
 -2        17       174       173      1307      1308      1303
 -1       186    8    0    1
 -2        18        19       175      1125      1309      1310
 -1       187    8    0    1
 -2        18       175       174      1310      1311      1306
 -1       188    8    0    1
 -2        19        20       176      1126      1312      1313
 -1       189    8    0    1
 -2        19       176       175      1313      1314      1309
 -1       190    8    0    1
 -2        20        21       177      1127      1315      1316
 -1       191    8    0    1
 -2        20       177       176      1316      1317      1312
 -1       192    8    0    1
 -2        21        22       178      1128      1318      1319
 -1       193    8    0    1
 -2        21       178       177      1319      1320      1315
 -1       194    8    0    1
 -2        22         5       179      1129      1321      1322
 -1       195    8    0    1
 -2       178        22       179      1318      1322      1323
 -1       196    8    0    1
 -2         5        72       179      1180      1324      1321
 -1       197    8    0    1
 -2        24        23       180      1131      1325      1326
 -1       198    8    0    1
 -2        25        24       181      1132      1327      1328
 -1       199    8    0    1
 -2        24       180       181      1326      1329      1327
 -1       200    8    0    1
 -2        26        25       182      1133      1330      1331
 -1       201    8    0    1
 -2        25       181       182      1328      1332      1330
 -1       202    8    0    1
 -2        27        26       183      1134      1333      1334
 -1       203    8    0    1
 -2        26       182       183      1331      1335      1333
 -1       204    8    0    1
 -2        28        27       184      1135      1336      1337
 -1       205    8    0    1
 -2        27       183       184      1334      1338      1336
 -1       206    8    0    1
 -2        29        28       185      1136      1339      1340
 -1       207    8    0    1
 -2        28       184       185      1337      1341      1339
 -1       208    8    0    1
 -2        30        29       186      1137      1342      1343
 -1       209    8    0    1
 -2        29       185       186      1340      1344      1342
 -1       210    8    0    1
 -2        31        30       187      1138      1345      1346
 -1       211    8    0    1
 -2        30       186       187      1343      1347      1345
 -1       212    8    0    1
 -2        32        31       188      1139      1348      1349
 -1       213    8    0    1
 -2        31       187       188      1346      1350      1348
 -1       214    8    0    1
 -2        33        32       189      1140      1351      1352
 -1       215    8    0    1
 -2        32       188       189      1349      1353      1351
 -1       216    8    0    1
 -2        34        33       190      1141      1354      1355
 -1       217    8    0    1
 -2        33       189       190      1352      1356      1354
 -1       218    8    0    1
 -2        35        34       191      1142      1357      1358
 -1       219    8    0    1
 -2        34       190       191      1355      1359      1357
 -1       220    8    0    1
 -2        36        35       192      1143      1360      1361
 -1       221    8    0    1
 -2        35       191       192      1358      1362      1360
 -1       222    8    0    1
 -2        37        36       193      1144      1363      1364
 -1       223    8    0    1
 -2        36       192       193      1361      1365      1363
 -1       224    8    0    1
 -2        38        37       194      1145      1366      1367
 -1       225    8    0    1
 -2        37       193       194      1364      1368      1366
 -1       226    8    0    1
 -2        39        38       195      1146      1369      1370
 -1       227    8    0    1
 -2        38       194       195      1367      1371      1369
 -1       228    8    0    1
 -2        40        39       196      1147      1372      1373
 -1       229    8    0    1
 -2        39       195       196      1370      1374      1372
 -1       230    8    0    1
 -2        41        40       197      1148      1375      1376
 -1       231    8    0    1
 -2        40       196       197      1373      1377      1375
 -1       232    8    0    1
 -2        42        41       198      1149      1378      1379
 -1       233    8    0    1
 -2        41       197       198      1376      1380      1378
 -1       234    8    0    1
 -2        43        42       199      1150      1381      1382
 -1       235    8    0    1
 -2        42       198       199      1379      1383      1381
 -1       236    8    0    1
 -2        44        43       200      1151      1384      1385
 -1       237    8    0    1
 -2        43       199       200      1382      1386      1384
 -1       238    8    0    1
 -2        45        44       201      1152      1387      1388
 -1       239    8    0    1
 -2        44       200       201      1385      1389      1387
 -1       240    8    0    1
 -2        46        45       202      1153      1390      1391
 -1       241    8    0    1
 -2        45       201       202      1388      1392      1390
 -1       242    8    0    1
 -2        47        46       203      1154      1393      1394
 -1       243    8    0    1
 -2        46       202       203      1391      1395      1393
 -1       244    8    0    1
 -2        48        47       204      1155      1396      1397
 -1       245    8    0    1
 -2        47       203       204      1394      1398      1396
 -1       246    8    0    1
 -2        49        48       205      1156      1399      1400
 -1       247    8    0    1
 -2        48       204       205      1397      1401      1399
 -1       248    8    0    1
 -2        50        49       206      1157      1402      1403
 -1       249    8    0    1
 -2        49       205       206      1400      1404      1402
 -1       250    8    0    1
 -2        51        50       207      1158      1405      1406
 -1       251    8    0    1
 -2        50       206       207      1403      1407      1405
 -1       252    8    0    1
 -2        52        51       208      1159      1408      1409
 -1       253    8    0    1
 -2        51       207       208      1406      1410      1408
 -1       254    8    0    1
 -2        53        52       209      1160      1411      1412
 -1       255    8    0    1
 -2        52       208       209      1409      1413      1411
 -1       256    8    0    1
 -2        54        53       210      1161      1414      1415
 -1       257    8    0    1
 -2        53       209       210      1412      1416      1414
 -1       258    8    0    1
 -2        55        54       211      1162      1417      1418
 -1       259    8    0    1
 -2        54       210       211      1415      1419      1417
 -1       260    8    0    1
 -2        56        55       212      1163      1420      1421
 -1       261    8    0    1
 -2        55       211       212      1418      1422      1420
 -1       262    8    0    1
 -2        57        56       213      1164      1423      1424
 -1       263    8    0    1
 -2        56       212       213      1421      1425      1423
 -1       264    8    0    1
 -2        58        57       214      1165      1426      1427
 -1       265    8    0    1
 -2        57       213       214      1424      1428      1426
 -1       266    8    0    1
 -2        59        58       215      1166      1429      1430
 -1       267    8    0    1
 -2        58       214       215      1427      1431      1429
 -1       268    8    0    1
 -2        60        59       216      1167      1432      1433
 -1       269    8    0    1
 -2        59       215       216      1430      1434      1432
 -1       270    8    0    1
 -2        61        60       217      1168      1435      1436
 -1       271    8    0    1
 -2        60       216       217      1433      1437      1435
 -1       272    8    0    1
 -2        62        61       218      1169      1438      1439
 -1       273    8    0    1
 -2        61       217       218      1436      1440      1438
 -1       274    8    0    1
 -2        63        62       219      1170      1441      1442
 -1       275    8    0    1
 -2        62       218       219      1439      1443      1441
 -1       276    8    0    1
 -2        64        63       220      1171      1444      1445
 -1       277    8    0    1
 -2        63       219       220      1442      1446      1444
 -1       278    8    0    1
 -2        65        64       221      1172      1447      1448
 -1       279    8    0    1
 -2        64       220       221      1445      1449      1447
 -1       280    8    0    1
 -2        66        65       222      1173      1450      1451
 -1       281    8    0    1
 -2        65       221       222      1448      1452      1450
 -1       282    8    0    1
 -2        67        66       223      1174      1453      1454
 -1       283    8    0    1
 -2        66       222       223      1451      1455      1453
 -1       284    8    0    1
 -2        68        67       224      1175      1456      1457
 -1       285    8    0    1
 -2        67       223       224      1454      1458      1456
 -1       286    8    0    1
 -2        69        68       225      1176      1459      1460
 -1       287    8    0    1
 -2        68       224       225      1457      1461      1459
 -1       288    8    0    1
 -2        70        69       226      1177      1462      1463
 -1       289    8    0    1
 -2        69       225       226      1460      1464      1462
 -1       290    8    0    1
 -2        71        70       227      1178      1465      1466
 -1       291    8    0    1
 -2        70       226       227      1463      1467      1465
 -1       292    8    0    1
 -2         4        71       136      1179      1468      1246
 -1       293    8    0    1
 -2       136        71       227      1468      1466      1469
 -1       294    8    0    1
 -2        72        73       228      1181      1470      1471
 -1       295    8    0    1
 -2        72       228       179      1471      1472      1324
 -1       296    8    0    1
 -2        73        74       229      1182      1473      1474
 -1       297    8    0    1
 -2        73       229       228      1474      1475      1470
 -1       298    8    0    1
 -2        74        75       230      1183      1476      1477
 -1       299    8    0    1
 -2        74       230       229      1477      1478      1473
 -1       300    8    0    1
 -2        75        76       231      1184      1479      1480
 -1       301    8    0    1
 -2        75       231       230      1480      1481      1476
 -1       302    8    0    1
 -2        76        77       232      1185      1482      1483
 -1       303    8    0    1
 -2        76       232       231      1483      1484      1479
 -1       304    8    0    1
 -2        77        78       233      1186      1485      1486
 -1       305    8    0    1
 -2        77       233       232      1486      1487      1482
 -1       306    8    0    1
 -2        78        79       234      1187      1488      1489
 -1       307    8    0    1
 -2        78       234       233      1489      1490      1485
 -1       308    8    0    1
 -2        79        80       235      1188      1491      1492
 -1       309    8    0    1
 -2        79       235       234      1492      1493      1488
 -1       310    8    0    1
 -2        80        81       236      1189      1494      1495
 -1       311    8    0    1
 -2        80       236       235      1495      1496      1491
 -1       312    8    0    1
 -2        81        82       237      1190      1497      1498
 -1       313    8    0    1
 -2        81       237       236      1498      1499      1494
 -1       314    8    0    1
 -2        82        83       238      1191      1500      1501
 -1       315    8    0    1
 -2        82       238       237      1501      1502      1497
 -1       316    8    0    1
 -2        83        84       239      1192      1503      1504
 -1       317    8    0    1
 -2        83       239       238      1504      1505      1500
 -1       318    8    0    1
 -2        84        85       240      1193      1506      1507
 -1       319    8    0    1
 -2        84       240       239      1507      1508      1503
 -1       320    8    0    1
 -2        85        86       241      1194      1509      1510
 -1       321    8    0    1
 -2        85       241       240      1510      1511      1506
 -1       322    8    0    1
 -2        86        87       242      1195      1512      1513
 -1       323    8    0    1
 -2        86       242       241      1513      1514      1509
 -1       324    8    0    1
 -2        87        88       243      1196      1515      1516
 -1       325    8    0    1
 -2        87       243       242      1516      1517      1512
 -1       326    8    0    1
 -2        88        89       244      1197      1518      1519
 -1       327    8    0    1
 -2        88       244       243      1519      1520      1515
 -1       328    8    0    1
 -2        89        90       245      1198      1521      1522
 -1       329    8    0    1
 -2        89       245       244      1522      1523      1518
 -1       330    8    0    1
 -2        90        91       246      1199      1524      1525
 -1       331    8    0    1
 -2        90       246       245      1525      1526      1521
 -1       332    8    0    1
 -2        91        92       247      1200      1527      1528
 -1       333    8    0    1
 -2        91       247       246      1528      1529      1524
 -1       334    8    0    1
 -2        92        93       248      1201      1530      1531
 -1       335    8    0    1
 -2        92       248       247      1531      1532      1527
 -1       336    8    0    1
 -2        93        94       249      1202      1533      1534
 -1       337    8    0    1
 -2        93       249       248      1534      1535      1530
 -1       338    8    0    1
 -2        94        95       250      1203      1536      1537
 -1       339    8    0    1
 -2        94       250       249      1537      1538      1533
 -1       340    8    0    1
 -2        95        96       251      1204      1539      1540
 -1       341    8    0    1
 -2        95       251       250      1540      1541      1536
 -1       342    8    0    1
 -2        96        97       252      1205      1542      1543
 -1       343    8    0    1
 -2        96       252       251      1543      1544      1539
 -1       344    8    0    1
 -2        97        98       253      1206      1545      1546
 -1       345    8    0    1
 -2        97       253       252      1546      1547      1542
 -1       346    8    0    1
 -2        98        99       254      1207      1548      1549
 -1       347    8    0    1
 -2        98       254       253      1549      1550      1545
 -1       348    8    0    1
 -2        99       100       255      1208      1551      1552
 -1       349    8    0    1
 -2        99       255       254      1552      1553      1548
 -1       350    8    0    1
 -2       100       101       256      1209      1554      1555
 -1       351    8    0    1
 -2       100       256       255      1555      1556      1551
 -1       352    8    0    1
 -2       101       102       257      1210      1557      1558
 -1       353    8    0    1
 -2       101       257       256      1558      1559      1554
 -1       354    8    0    1
 -2       102       103       258      1211      1560      1561
 -1       355    8    0    1
 -2       102       258       257      1561      1562      1557
 -1       356    8    0    1
 -2       103       104       259      1212      1563      1564
 -1       357    8    0    1
 -2       103       259       258      1564      1565      1560
 -1       358    8    0    1
 -2       104       105       260      1213      1566      1567
 -1       359    8    0    1
 -2       104       260       259      1567      1568      1563
 -1       360    8    0    1
 -2       105       106       261      1214      1569      1570
 -1       361    8    0    1
 -2       105       261       260      1570      1571      1566
 -1       362    8    0    1
 -2       106       107       262      1215      1572      1573
 -1       363    8    0    1
 -2       106       262       261      1573      1574      1569
 -1       364    8    0    1
 -2       107       108       263      1216      1575      1576
 -1       365    8    0    1
 -2       107       263       262      1576      1577      1572
 -1       366    8    0    1
 -2       108       109       264      1217      1578      1579
 -1       367    8    0    1
 -2       108       264       263      1579      1580      1575
 -1       368    8    0    1
 -2       109       110       265      1218      1581      1582
 -1       369    8    0    1
 -2       109       265       264      1582      1583      1578
 -1       370    8    0    1
 -2       110       111       266      1219      1584      1585
 -1       371    8    0    1
 -2       110       266       265      1585      1586      1581
 -1       372    8    0    1
 -2       111       112       267      1220      1587      1588
 -1       373    8    0    1
 -2       111       267       266      1588      1589      1584
 -1       374    8    0    1
 -2       112       113       268      1221      1590      1591
 -1       375    8    0    1
 -2       112       268       267      1591      1592      1587
 -1       376    8    0    1
 -2       113       114       269      1222      1593      1594
 -1       377    8    0    1
 -2       113       269       268      1594      1595      1590
 -1       378    8    0    1
 -2       114       115       270      1223      1596      1597
 -1       379    8    0    1
 -2       114       270       269      1597      1598      1593
 -1       380    8    0    1
 -2       115       116       271      1224      1599      1600
 -1       381    8    0    1
 -2       115       271       270      1600      1601      1596
 -1       382    8    0    1
 -2       116       117       272      1225      1602      1603
 -1       383    8    0    1
 -2       116       272       271      1603      1604      1599
 -1       384    8    0    1
 -2       117       118       273      1226      1605      1606
 -1       385    8    0    1
 -2       117       273       272      1606      1607      1602
 -1       386    8    0    1
 -2       118       119       274      1227      1608      1609
 -1       387    8    0    1
 -2       118       274       273      1609      1610      1605
 -1       388    8    0    1
 -2       119       120       275      1228      1611      1612
 -1       389    8    0    1
 -2       119       275       274      1612      1613      1608
 -1       390    8    0    1
 -2       120         3       121      1229      1230      1614
 -1       391    8    0    1
 -2       121       122       276      1231      1615      1616
 -1       392    8    0    1
 -2       122       123       277      1232      1617      1618
 -1       393    8    0    1
 -2       122       277       276      1618      1619      1615
 -1       394    8    0    1
 -2       123       124       278      1233      1620      1621
 -1       395    8    0    1
 -2       123       278       277      1621      1622      1617
 -1       396    8    0    1
 -2       124       125       279      1234      1623      1624
 -1       397    8    0    1
 -2       124       279       278      1624      1625      1620
 -1       398    8    0    1
 -2       125       126       280      1235      1626      1627
 -1       399    8    0    1
 -2       125       280       279      1627      1628      1623
 -1       400    8    0    1
 -2       126       127       281      1236      1629      1630
 -1       401    8    0    1
 -2       126       281       280      1630      1631      1626
 -1       402    8    0    1
 -2       127       128       282      1237      1632      1633
 -1       403    8    0    1
 -2       127       282       281      1633      1634      1629
 -1       404    8    0    1
 -2       128       129       283      1238      1635      1636
 -1       405    8    0    1
 -2       128       283       282      1636      1637      1632
 -1       406    8    0    1
 -2       129       130       284      1239      1638      1639
 -1       407    8    0    1
 -2       129       284       283      1639      1640      1635
 -1       408    8    0    1
 -2       130       131       285      1240      1641      1642
 -1       409    8    0    1
 -2       130       285       284      1642      1643      1638
 -1       410    8    0    1
 -2       131       132       286      1241      1644      1645
 -1       411    8    0    1
 -2       131       286       285      1645      1646      1641
 -1       412    8    0    1
 -2       132       133       287      1242      1647      1648
 -1       413    8    0    1
 -2       132       287       286      1648      1649      1644
 -1       414    8    0    1
 -2       133       134       288      1243      1650      1651
 -1       415    8    0    1
 -2       133       288       287      1651      1652      1647
 -1       416    8    0    1
 -2       134       135       289      1244      1653      1654
 -1       417    8    0    1
 -2       134       289       288      1654      1655      1650
 -1       418    8    0    1
 -2       135       136       290      1245      1656      1657
 -1       419    8    0    1
 -2       289       135       290      1653      1657      1658
 -1       420    8    0    1
 -2       136       227       290      1469      1659      1656
 -1       421    8    0    1
 -2         2       137       291      1247      1660      1661
 -1       422    8    0    1
 -2       137       138       292      1248      1662      1663
 -1       423    8    0    1
 -2       138       139       293      1249      1664      1665
 -1       424    8    0    1
 -2       139       140       294      1250      1666      1667
 -1       425    8    0    1
 -2       140       141       295      1251      1668      1669
 -1       426    8    0    1
 -2       141       142       296      1252      1670      1671
 -1       427    8    0    1
 -2       142       143       297      1253      1672      1673
 -1       428    8    0    1
 -2       143       144       298      1254      1674      1675
 -1       429    8    0    1
 -2       144       145       299      1255      1676      1677
 -1       430    8    0    1
 -2       145       146       300      1256      1678      1679
 -1       431    8    0    1
 -2       146       147       301      1257      1680      1681
 -1       432    8    0    1
 -2       147       148       302      1258      1682      1683
 -1       433    8    0    1
 -2       148       149       303      1259      1684      1685
 -1       434    8    0    1
 -2       149       150       304      1260      1686      1687
 -1       435    8    0    1
 -2       150       151       305      1261      1688      1689
 -1       436    8    0    1
 -2       151       152       306      1262      1690      1691
 -1       437    8    0    1
 -2       152       153       307      1263      1692      1693
 -1       438    8    0    1
 -2       153       154       308      1264      1694      1695
 -1       439    8    0    1
 -2       154       155       309      1265      1696      1697
 -1       440    8    0    1
 -2       155       156       310      1266      1698      1699
 -1       441    8    0    1
 -2       156       157       311      1267      1700      1701
 -1       442    8    0    1
 -2       157       158       312      1268      1702      1703
 -1       443    8    0    1
 -2       158       159       313      1269      1704      1705
 -1       444    8    0    1
 -2       159       160       314      1270      1706      1707
 -1       445    8    0    1
 -2       160         1       315      1271      1708      1709
 -1       446    8    0    1
 -2         1       161       316      1272      1710      1711
 -1       447    8    0    1
 -2       161       162       317      1273      1712      1713
 -1       448    8    0    1
 -2       162       163       318      1274      1714      1715
 -1       449    8    0    1
 -2       163         2       319      1275      1716      1717
 -1       450    8    0    1
 -2       294       140       295      1666      1669      1718
 -1       451    8    0    1
 -2       293       139       294      1664      1667      1719
 -1       452    8    0    1
 -2       120       121       275      1614      1720      1611
 -1       453    8    0    1
 -2       121       276       275      1616      1721      1720
 -1       454    8    0    1
 -2       291       137       292      1660      1663      1722
 -1       455    8    0    1
 -2       292       138       293      1662      1665      1723
 -1       456    8    0    1
 -2         2       291       319      1661      1724      1716
 -1       457    8    0    1
 -2       141       296       295      1671      1725      1668
 -1       458    8    0    1
 -2       142       297       296      1673      1726      1670
 -1       459    8    0    1
 -2       143       298       297      1675      1727      1672
 -1       460    8    0    1
 -2       144       299       298      1677      1728      1674
 -1       461    8    0    1
 -2       145       300       299      1679      1729      1676
 -1       462    8    0    1
 -2       146       301       300      1681      1730      1678
 -1       463    8    0    1
 -2       147       302       301      1683      1731      1680
 -1       464    8    0    1
 -2       148       303       302      1685      1732      1682
 -1       465    8    0    1
 -2       149       304       303      1687      1733      1684
 -1       466    8    0    1
 -2       150       305       304      1689      1734      1686
 -1       467    8    0    1
 -2       151       306       305      1691      1735      1688
 -1       468    8    0    1
 -2       152       307       306      1693      1736      1690
 -1       469    8    0    1
 -2       153       308       307      1695      1737      1692
 -1       470    8    0    1
 -2       154       309       308      1697      1738      1694
 -1       471    8    0    1
 -2       155       310       309      1699      1739      1696
 -1       472    8    0    1
 -2       156       311       310      1701      1740      1698
 -1       473    8    0    1
 -2       157       312       311      1703      1741      1700
 -1       474    8    0    1
 -2       158       313       312      1705      1742      1702
 -1       475    8    0    1
 -2       159       314       313      1707      1743      1704
 -1       476    8    0    1
 -2       160       315       314      1709      1744      1706
 -1       477    8    0    1
 -2         1       316       315      1711      1745      1708
 -1       478    8    0    1
 -2       161       317       316      1713      1746      1710
 -1       479    8    0    1
 -2       162       318       317      1715      1747      1712
 -1       480    8    0    1
 -2       163       319       318      1717      1748      1714
 -1       481    8    0    1
 -2        23         7       164      1276      1278      1749
 -1       482    8    0    1
 -2       165       166       320      1284      1750      1751
 -1       483    8    0    1
 -2       164       165       321      1281      1752      1753
 -1       484    8    0    1
 -2       165       320       321      1751      1754      1752
 -1       485    8    0    1
 -2       167       168       322      1290      1755      1756
 -1       486    8    0    1
 -2       168       169       323      1293      1757      1758
 -1       487    8    0    1
 -2       168       323       322      1758      1759      1755
 -1       488    8    0    1
 -2       169       170       324      1296      1760      1761
 -1       489    8    0    1
 -2       169       324       323      1761      1762      1757
 -1       490    8    0    1
 -2       170       171       325      1299      1763      1764
 -1       491    8    0    1
 -2       170       325       324      1764      1765      1760
 -1       492    8    0    1
 -2       171       172       326      1302      1766      1767
 -1       493    8    0    1
 -2       171       326       325      1767      1768      1763
 -1       494    8    0    1
 -2       172       173       327      1305      1769      1770
 -1       495    8    0    1
 -2       172       327       326      1770      1771      1766
 -1       496    8    0    1
 -2       173       174       328      1308      1772      1773
 -1       497    8    0    1
 -2       173       328       327      1773      1774      1769
 -1       498    8    0    1
 -2       174       175       329      1311      1775      1776
 -1       499    8    0    1
 -2       174       329       328      1776      1777      1772
 -1       500    8    0    1
 -2       175       176       330      1314      1778      1779
 -1       501    8    0    1
 -2       175       330       329      1779      1780      1775
 -1       502    8    0    1
 -2       176       177       331      1317      1781      1782
 -1       503    8    0    1
 -2       176       331       330      1782      1783      1778
 -1       504    8    0    1
 -2       177       178       332      1320      1784      1785
 -1       505    8    0    1
 -2       177       332       331      1785      1786      1781
 -1       506    8    0    1
 -2       178       179       333      1323      1787      1788
 -1       507    8    0    1
 -2       332       178       333      1784      1788      1789
 -1       508    8    0    1
 -2       179       228       333      1472      1790      1787
 -1       509    8    0    1
 -2       180        23       164      1325      1749      1791
 -1       510    8    0    1
 -2       228       229       334      1475      1792      1793
 -1       511    8    0    1
 -2       228       334       333      1793      1794      1790
 -1       512    8    0    1
 -2       180       164       321      1791      1753      1795
 -1       513    8    0    1
 -2       182       181       335      1332      1796      1797
 -1       514    8    0    1
 -2       183       182       336      1335      1798      1799
 -1       515    8    0    1
 -2       182       335       336      1797      1800      1798
 -1       516    8    0    1
 -2       184       183       337      1338      1801      1802
 -1       517    8    0    1
 -2       183       336       337      1799      1803      1801
 -1       518    8    0    1
 -2       185       184       338      1341      1804      1805
 -1       519    8    0    1
 -2       184       337       338      1802      1806      1804
 -1       520    8    0    1
 -2       186       185       339      1344      1807      1808
 -1       521    8    0    1
 -2       185       338       339      1805      1809      1807
 -1       522    8    0    1
 -2       187       186       340      1347      1810      1811
 -1       523    8    0    1
 -2       186       339       340      1808      1812      1810
 -1       524    8    0    1
 -2       188       187       341      1350      1813      1814
 -1       525    8    0    1
 -2       187       340       341      1811      1815      1813
 -1       526    8    0    1
 -2       189       188       342      1353      1816      1817
 -1       527    8    0    1
 -2       188       341       342      1814      1818      1816
 -1       528    8    0    1
 -2       190       189       343      1356      1819      1820
 -1       529    8    0    1
 -2       189       342       343      1817      1821      1819
 -1       530    8    0    1
 -2       191       190       344      1359      1822      1823
 -1       531    8    0    1
 -2       190       343       344      1820      1824      1822
 -1       532    8    0    1
 -2       192       191       345      1362      1825      1826
 -1       533    8    0    1
 -2       191       344       345      1823      1827      1825
 -1       534    8    0    1
 -2       193       192       346      1365      1828      1829
 -1       535    8    0    1
 -2       192       345       346      1826      1830      1828
 -1       536    8    0    1
 -2       194       193       347      1368      1831      1832
 -1       537    8    0    1
 -2       193       346       347      1829      1833      1831
 -1       538    8    0    1
 -2       195       194       348      1371      1834      1835
 -1       539    8    0    1
 -2       194       347       348      1832      1836      1834
 -1       540    8    0    1
 -2       196       195       349      1374      1837      1838
 -1       541    8    0    1
 -2       195       348       349      1835      1839      1837
 -1       542    8    0    1
 -2       197       196       350      1377      1840      1841
 -1       543    8    0    1
 -2       196       349       350      1838      1842      1840
 -1       544    8    0    1
 -2       198       197       351      1380      1843      1844
 -1       545    8    0    1
 -2       197       350       351      1841      1845      1843
 -1       546    8    0    1
 -2       199       198       352      1383      1846      1847
 -1       547    8    0    1
 -2       198       351       352      1844      1848      1846
 -1       548    8    0    1
 -2       200       199       353      1386      1849      1850
 -1       549    8    0    1
 -2       199       352       353      1847      1851      1849
 -1       550    8    0    1
 -2       201       200       354      1389      1852      1853
 -1       551    8    0    1
 -2       200       353       354      1850      1854      1852
 -1       552    8    0    1
 -2       202       201       355      1392      1855      1856
 -1       553    8    0    1
 -2       201       354       355      1853      1857      1855
 -1       554    8    0    1
 -2       203       202       356      1395      1858      1859
 -1       555    8    0    1
 -2       202       355       356      1856      1860      1858
 -1       556    8    0    1
 -2       204       203       357      1398      1861      1862
 -1       557    8    0    1
 -2       203       356       357      1859      1863      1861
 -1       558    8    0    1
 -2       205       204       358      1401      1864      1865
 -1       559    8    0    1
 -2       204       357       358      1862      1866      1864
 -1       560    8    0    1
 -2       206       205       359      1404      1867      1868
 -1       561    8    0    1
 -2       205       358       359      1865      1869      1867
 -1       562    8    0    1
 -2       207       206       360      1407      1870      1871
 -1       563    8    0    1
 -2       206       359       360      1868      1872      1870
 -1       564    8    0    1
 -2       208       207       361      1410      1873      1874
 -1       565    8    0    1
 -2       207       360       361      1871      1875      1873
 -1       566    8    0    1
 -2       209       208       362      1413      1876      1877
 -1       567    8    0    1
 -2       208       361       362      1874      1878      1876
 -1       568    8    0    1
 -2       210       209       363      1416      1879      1880
 -1       569    8    0    1
 -2       209       362       363      1877      1881      1879
 -1       570    8    0    1
 -2       211       210       364      1419      1882      1883
 -1       571    8    0    1
 -2       210       363       364      1880      1884      1882
 -1       572    8    0    1
 -2       212       211       365      1422      1885      1886
 -1       573    8    0    1
 -2       211       364       365      1883      1887      1885
 -1       574    8    0    1
 -2       213       212       366      1425      1888      1889
 -1       575    8    0    1
 -2       212       365       366      1886      1890      1888
 -1       576    8    0    1
 -2       214       213       367      1428      1891      1892
 -1       577    8    0    1
 -2       213       366       367      1889      1893      1891
 -1       578    8    0    1
 -2       215       214       368      1431      1894      1895
 -1       579    8    0    1
 -2       214       367       368      1892      1896      1894
 -1       580    8    0    1
 -2       216       215       369      1434      1897      1898
 -1       581    8    0    1
 -2       215       368       369      1895      1899      1897
 -1       582    8    0    1
 -2       217       216       370      1437      1900      1901
 -1       583    8    0    1
 -2       216       369       370      1898      1902      1900
 -1       584    8    0    1
 -2       218       217       371      1440      1903      1904
 -1       585    8    0    1
 -2       217       370       371      1901      1905      1903
 -1       586    8    0    1
 -2       219       218       372      1443      1906      1907
 -1       587    8    0    1
 -2       218       371       372      1904      1908      1906
 -1       588    8    0    1
 -2       220       219       373      1446      1909      1910
 -1       589    8    0    1
 -2       219       372       373      1907      1911      1909
 -1       590    8    0    1
 -2       221       220       374      1449      1912      1913
 -1       591    8    0    1
 -2       220       373       374      1910      1914      1912
 -1       592    8    0    1
 -2       222       221       375      1452      1915      1916
 -1       593    8    0    1
 -2       221       374       375      1913      1917      1915
 -1       594    8    0    1
 -2       223       222       376      1455      1918      1919
 -1       595    8    0    1
 -2       222       375       376      1916      1920      1918
 -1       596    8    0    1
 -2       224       223       377      1458      1921      1922
 -1       597    8    0    1
 -2       223       376       377      1919      1923      1921
 -1       598    8    0    1
 -2       225       224       378      1461      1924      1925
 -1       599    8    0    1
 -2       224       377       378      1922      1926      1924
 -1       600    8    0    1
 -2       226       225       379      1464      1927      1928
 -1       601    8    0    1
 -2       225       378       379      1925      1929      1927
 -1       602    8    0    1
 -2       227       226       380      1467      1930      1931
 -1       603    8    0    1
 -2       290       227       380      1659      1931      1932
 -1       604    8    0    1
 -2       226       379       380      1928      1933      1930
 -1       605    8    0    1
 -2       229       230       381      1478      1934      1935
 -1       606    8    0    1
 -2       229       381       334      1935      1936      1792
 -1       607    8    0    1
 -2       230       231       382      1481      1937      1938
 -1       608    8    0    1
 -2       230       382       381      1938      1939      1934
 -1       609    8    0    1
 -2       231       232       383      1484      1940      1941
 -1       610    8    0    1
 -2       231       383       382      1941      1942      1937
 -1       611    8    0    1
 -2       232       233       384      1487      1943      1944
 -1       612    8    0    1
 -2       232       384       383      1944      1945      1940
 -1       613    8    0    1
 -2       233       234       385      1490      1946      1947
 -1       614    8    0    1
 -2       233       385       384      1947      1948      1943
 -1       615    8    0    1
 -2       234       235       386      1493      1949      1950
 -1       616    8    0    1
 -2       234       386       385      1950      1951      1946
 -1       617    8    0    1
 -2       235       236       387      1496      1952      1953
 -1       618    8    0    1
 -2       235       387       386      1953      1954      1949
 -1       619    8    0    1
 -2       236       237       388      1499      1955      1956
 -1       620    8    0    1
 -2       236       388       387      1956      1957      1952
 -1       621    8    0    1
 -2       237       238       389      1502      1958      1959
 -1       622    8    0    1
 -2       237       389       388      1959      1960      1955
 -1       623    8    0    1
 -2       238       239       390      1505      1961      1962
 -1       624    8    0    1
 -2       238       390       389      1962      1963      1958
 -1       625    8    0    1
 -2       239       240       391      1508      1964      1965
 -1       626    8    0    1
 -2       239       391       390      1965      1966      1961
 -1       627    8    0    1
 -2       240       241       392      1511      1967      1968
 -1       628    8    0    1
 -2       240       392       391      1968      1969      1964
 -1       629    8    0    1
 -2       241       242       393      1514      1970      1971
 -1       630    8    0    1
 -2       241       393       392      1971      1972      1967
 -1       631    8    0    1
 -2       242       243       394      1517      1973      1974
 -1       632    8    0    1
 -2       242       394       393      1974      1975      1970
 -1       633    8    0    1
 -2       243       244       395      1520      1976      1977
 -1       634    8    0    1
 -2       243       395       394      1977      1978      1973
 -1       635    8    0    1
 -2       244       245       396      1523      1979      1980
 -1       636    8    0    1
 -2       244       396       395      1980      1981      1976
 -1       637    8    0    1
 -2       245       246       397      1526      1982      1983
 -1       638    8    0    1
 -2       245       397       396      1983      1984      1979
 -1       639    8    0    1
 -2       246       247       398      1529      1985      1986
 -1       640    8    0    1
 -2       246       398       397      1986      1987      1982
 -1       641    8    0    1
 -2       247       248       399      1532      1988      1989
 -1       642    8    0    1
 -2       247       399       398      1989      1990      1985
 -1       643    8    0    1
 -2       248       249       400      1535      1991      1992
 -1       644    8    0    1
 -2       248       400       399      1992      1993      1988
 -1       645    8    0    1
 -2       249       250       401      1538      1994      1995
 -1       646    8    0    1
 -2       249       401       400      1995      1996      1991
 -1       647    8    0    1
 -2       250       251       402      1541      1997      1998
 -1       648    8    0    1
 -2       250       402       401      1998      1999      1994
 -1       649    8    0    1
 -2       251       252       403      1544      2000      2001
 -1       650    8    0    1
 -2       251       403       402      2001      2002      1997
 -1       651    8    0    1
 -2       252       253       404      1547      2003      2004
 -1       652    8    0    1
 -2       252       404       403      2004      2005      2000
 -1       653    8    0    1
 -2       253       254       405      1550      2006      2007
 -1       654    8    0    1
 -2       253       405       404      2007      2008      2003
 -1       655    8    0    1
 -2       254       255       406      1553      2009      2010
 -1       656    8    0    1
 -2       254       406       405      2010      2011      2006
 -1       657    8    0    1
 -2       255       256       407      1556      2012      2013
 -1       658    8    0    1
 -2       255       407       406      2013      2014      2009
 -1       659    8    0    1
 -2       256       257       408      1559      2015      2016
 -1       660    8    0    1
 -2       256       408       407      2016      2017      2012
 -1       661    8    0    1
 -2       257       258       409      1562      2018      2019
 -1       662    8    0    1
 -2       257       409       408      2019      2020      2015
 -1       663    8    0    1
 -2       258       259       410      1565      2021      2022
 -1       664    8    0    1
 -2       258       410       409      2022      2023      2018
 -1       665    8    0    1
 -2       259       260       411      1568      2024      2025
 -1       666    8    0    1
 -2       259       411       410      2025      2026      2021
 -1       667    8    0    1
 -2       260       261       412      1571      2027      2028
 -1       668    8    0    1
 -2       260       412       411      2028      2029      2024
 -1       669    8    0    1
 -2       261       262       413      1574      2030      2031
 -1       670    8    0    1
 -2       261       413       412      2031      2032      2027
 -1       671    8    0    1
 -2       262       263       414      1577      2033      2034
 -1       672    8    0    1
 -2       262       414       413      2034      2035      2030
 -1       673    8    0    1
 -2       263       264       415      1580      2036      2037
 -1       674    8    0    1
 -2       263       415       414      2037      2038      2033
 -1       675    8    0    1
 -2       264       265       416      1583      2039      2040
 -1       676    8    0    1
 -2       264       416       415      2040      2041      2036
 -1       677    8    0    1
 -2       265       266       417      1586      2042      2043
 -1       678    8    0    1
 -2       265       417       416      2043      2044      2039
 -1       679    8    0    1
 -2       266       267       418      1589      2045      2046
 -1       680    8    0    1
 -2       266       418       417      2046      2047      2042
 -1       681    8    0    1
 -2       267       268       419      1592      2048      2049
 -1       682    8    0    1
 -2       267       419       418      2049      2050      2045
 -1       683    8    0    1
 -2       268       269       420      1595      2051      2052
 -1       684    8    0    1
 -2       268       420       419      2052      2053      2048
 -1       685    8    0    1
 -2       269       270       421      1598      2054      2055
 -1       686    8    0    1
 -2       269       421       420      2055      2056      2051
 -1       687    8    0    1
 -2       270       271       422      1601      2057      2058
 -1       688    8    0    1
 -2       270       422       421      2058      2059      2054
 -1       689    8    0    1
 -2       271       272       423      1604      2060      2061
 -1       690    8    0    1
 -2       271       423       422      2061      2062      2057
 -1       691    8    0    1
 -2       272       273       424      1607      2063      2064
 -1       692    8    0    1
 -2       272       424       423      2064      2065      2060
 -1       693    8    0    1
 -2       273       274       425      1610      2066      2067
 -1       694    8    0    1
 -2       273       425       424      2067      2068      2063
 -1       695    8    0    1
 -2       274       275       426      1613      2069      2070
 -1       696    8    0    1
 -2       425       274       426      2066      2070      2071
 -1       697    8    0    1
 -2       275       276       426      1721      2072      2069
 -1       698    8    0    1
 -2       278       279       427      1625      2073      2074
 -1       699    8    0    1
 -2       277       278       428      1622      2075      2076
 -1       700    8    0    1
 -2       278       427       428      2074      2077      2075
 -1       701    8    0    1
 -2       276       277       429      1619      2078      2079
 -1       702    8    0    1
 -2       426       276       429      2072      2079      2080
 -1       703    8    0    1
 -2       277       428       429      2076      2081      2078
 -1       704    8    0    1
 -2       279       280       430      1628      2082      2083
 -1       705    8    0    1
 -2       279       430       427      2083      2084      2073
 -1       706    8    0    1
 -2       280       281       431      1631      2085      2086
 -1       707    8    0    1
 -2       280       431       430      2086      2087      2082
 -1       708    8    0    1
 -2       281       282       432      1634      2088      2089
 -1       709    8    0    1
 -2       281       432       431      2089      2090      2085
 -1       710    8    0    1
 -2       282       283       433      1637      2091      2092
 -1       711    8    0    1
 -2       282       433       432      2092      2093      2088
 -1       712    8    0    1
 -2       283       284       434      1640      2094      2095
 -1       713    8    0    1
 -2       283       434       433      2095      2096      2091
 -1       714    8    0    1
 -2       284       285       435      1643      2097      2098
 -1       715    8    0    1
 -2       284       435       434      2098      2099      2094
 -1       716    8    0    1
 -2       285       286       436      1646      2100      2101
 -1       717    8    0    1
 -2       285       436       435      2101      2102      2097
 -1       718    8    0    1
 -2       286       287       437      1649      2103      2104
 -1       719    8    0    1
 -2       286       437       436      2104      2105      2100
 -1       720    8    0    1
 -2       287       288       438      1652      2106      2107
 -1       721    8    0    1
 -2       287       438       437      2107      2108      2103
 -1       722    8    0    1
 -2       288       289       439      1655      2109      2110
 -1       723    8    0    1
 -2       288       439       438      2110      2111      2106
 -1       724    8    0    1
 -2       292       293       440      1723      2112      2113
 -1       725    8    0    1
 -2       319       291       441      1724      2114      2115
 -1       726    8    0    1
 -2       291       292       442      1722      2116      2117
 -1       727    8    0    1
 -2       293       294       443      1719      2118      2119
 -1       728    8    0    1
 -2       294       295       444      1718      2120      2121
 -1       729    8    0    1
 -2       294       444       443      2121      2122      2118
 -1       730    8    0    1
 -2       166       167       445      1287      2123      2124
 -1       731    8    0    1
 -2       320       166       445      1750      2124      2125
 -1       732    8    0    1
 -2       167       322       445      1756      2126      2123
 -1       733    8    0    1
 -2       296       297       446      1726      2127      2128
 -1       734    8    0    1
 -2       297       298       447      1727      2129      2130
 -1       735    8    0    1
 -2       298       299       448      1728      2131      2132
 -1       736    8    0    1
 -2       299       300       449      1729      2133      2134
 -1       737    8    0    1
 -2       300       301       450      1730      2135      2136
 -1       738    8    0    1
 -2       301       302       451      1731      2137      2138
 -1       739    8    0    1
 -2       302       303       452      1732      2139      2140
 -1       740    8    0    1
 -2       303       304       453      1733      2141      2142
 -1       741    8    0    1
 -2       304       305       454      1734      2143      2144
 -1       742    8    0    1
 -2       305       306       455      1735      2145      2146
 -1       743    8    0    1
 -2       306       307       456      1736      2147      2148
 -1       744    8    0    1
 -2       307       308       457      1737      2149      2150
 -1       745    8    0    1
 -2       308       309       458      1738      2151      2152
 -1       746    8    0    1
 -2       309       310       459      1739      2153      2154
 -1       747    8    0    1
 -2       310       311       460      1740      2155      2156
 -1       748    8    0    1
 -2       310       460       459      2156      2157      2153
 -1       749    8    0    1
 -2       311       312       461      1741      2158      2159
 -1       750    8    0    1
 -2       312       313       462      1742      2160      2161
 -1       751    8    0    1
 -2       313       314       463      1743      2162      2163
 -1       752    8    0    1
 -2       314       315       464      1744      2164      2165
 -1       753    8    0    1
 -2       314       464       463      2165      2166      2162
 -1       754    8    0    1
 -2       315       316       465      1745      2167      2168
 -1       755    8    0    1
 -2       316       317       466      1746      2169      2170
 -1       756    8    0    1
 -2       317       318       467      1747      2171      2172
 -1       757    8    0    1
 -2       318       319       468      1748      2173      2174
 -1       758    8    0    1
 -2       295       296       469      1725      2175      2176
 -1       759    8    0    1
 -2       296       446       469      2128      2177      2175
 -1       760    8    0    1
 -2       180       321       181      1795      2178      1329
 -1       761    8    0    1
 -2       444       295       469      2120      2176      2179
 -1       762    8    0    1
 -2       181       321       335      2178      2180      1796
 -1       763    8    0    1
 -2       442       292       440      2116      2113      2181
 -1       764    8    0    1
 -2       441       291       442      2114      2117      2182
 -1       765    8    0    1
 -2       439       289       290      2109      1658      2183
 -1       766    8    0    1
 -2       440       293       443      2112      2119      2184
 -1       767    8    0    1
 -2       319       441       468      2115      2185      2173
 -1       768    8    0    1
 -2       467       318       468      2171      2174      2186
 -1       769    8    0    1
 -2       466       317       467      2169      2172      2187
 -1       770    8    0    1
 -2       464       315       465      2164      2168      2188
 -1       771    8    0    1
 -2       462       313       463      2160      2163      2189
 -1       772    8    0    1
 -2       460       311       461      2155      2159      2190
 -1       773    8    0    1
 -2       458       309       459      2151      2154      2191
 -1       774    8    0    1
 -2       457       308       458      2149      2152      2192
 -1       775    8    0    1
 -2       456       307       457      2147      2150      2193
 -1       776    8    0    1
 -2       455       306       456      2145      2148      2194
 -1       777    8    0    1
 -2       454       305       455      2143      2146      2195
 -1       778    8    0    1
 -2       453       304       454      2141      2144      2196
 -1       779    8    0    1
 -2       452       303       453      2139      2142      2197
 -1       780    8    0    1
 -2       451       302       452      2137      2140      2198
 -1       781    8    0    1
 -2       450       301       451      2135      2138      2199
 -1       782    8    0    1
 -2       449       300       450      2133      2136      2200
 -1       783    8    0    1
 -2       448       299       449      2131      2134      2201
 -1       784    8    0    1
 -2       446       297       447      2127      2130      2202
 -1       785    8    0    1
 -2       447       298       448      2129      2132      2203
 -1       786    8    0    1
 -2       461       312       462      2158      2161      2204
 -1       787    8    0    1
 -2       465       316       466      2167      2170      2205
 -1       788    8    0    1
 -2       334       381       470      1936      2206      2207
 -1       789    8    0    1
 -2       323       324       471      1762      2208      2209
 -1       790    8    0    1
 -2       322       323       472      1759      2210      2211
 -1       791    8    0    1
 -2       323       471       472      2209      2212      2210
 -1       792    8    0    1
 -2       325       326       473      1768      2213      2214
 -1       793    8    0    1
 -2       326       327       474      1771      2215      2216
 -1       794    8    0    1
 -2       326       474       473      2216      2217      2213
 -1       795    8    0    1
 -2       327       328       475      1774      2218      2219
 -1       796    8    0    1
 -2       327       475       474      2219      2220      2215
 -1       797    8    0    1
 -2       328       329       476      1777      2221      2222
 -1       798    8    0    1
 -2       328       476       475      2222      2223      2218
 -1       799    8    0    1
 -2       329       330       477      1780      2224      2225
 -1       800    8    0    1
 -2       329       477       476      2225      2226      2221
 -1       801    8    0    1
 -2       330       331       478      1783      2227      2228
 -1       802    8    0    1
 -2       330       478       477      2228      2229      2224
 -1       803    8    0    1
 -2       381       382       479      1939      2230      2231
 -1       804    8    0    1
 -2       381       479       470      2231      2232      2206
 -1       805    8    0    1
 -2       336       335       480      1800      2233      2234
 -1       806    8    0    1
 -2       444       469       481      2179      2235      2236
 -1       807    8    0    1
 -2       442       440       482      2181      2237      2238
 -1       808    8    0    1
 -2       337       336       483      1803      2239      2240
 -1       809    8    0    1
 -2       336       480       483      2234      2241      2239
 -1       810    8    0    1
 -2       338       337       484      1806      2242      2243
 -1       811    8    0    1
 -2       337       483       484      2240      2244      2242
 -1       812    8    0    1
 -2       339       338       485      1809      2245      2246
 -1       813    8    0    1
 -2       338       484       485      2243      2247      2245
 -1       814    8    0    1
 -2       340       339       486      1812      2248      2249
 -1       815    8    0    1
 -2       339       485       486      2246      2250      2248
 -1       816    8    0    1
 -2       341       340       487      1815      2251      2252
 -1       817    8    0    1
 -2       340       486       487      2249      2253      2251
 -1       818    8    0    1
 -2       342       341       488      1818      2254      2255
 -1       819    8    0    1
 -2       341       487       488      2252      2256      2254
 -1       820    8    0    1
 -2       343       342       489      1821      2257      2258
 -1       821    8    0    1
 -2       342       488       489      2255      2259      2257
 -1       822    8    0    1
 -2       344       343       490      1824      2260      2261
 -1       823    8    0    1
 -2       343       489       490      2258      2262      2260
 -1       824    8    0    1
 -2       345       344       491      1827      2263      2264
 -1       825    8    0    1
 -2       344       490       491      2261      2265      2263
 -1       826    8    0    1
 -2       346       345       492      1830      2266      2267
 -1       827    8    0    1
 -2       345       491       492      2264      2268      2266
 -1       828    8    0    1
 -2       347       346       493      1833      2269      2270
 -1       829    8    0    1
 -2       346       492       493      2267      2271      2269
 -1       830    8    0    1
 -2       348       347       494      1836      2272      2273
 -1       831    8    0    1
 -2       347       493       494      2270      2274      2272
 -1       832    8    0    1
 -2       349       348       495      1839      2275      2276
 -1       833    8    0    1
 -2       348       494       495      2273      2277      2275
 -1       834    8    0    1
 -2       350       349       496      1842      2278      2279
 -1       835    8    0    1
 -2       349       495       496      2276      2280      2278
 -1       836    8    0    1
 -2       351       350       497      1845      2281      2282
 -1       837    8    0    1
 -2       350       496       497      2279      2283      2281
 -1       838    8    0    1
 -2       352       351       498      1848      2284      2285
 -1       839    8    0    1
 -2       351       497       498      2282      2286      2284
 -1       840    8    0    1
 -2       353       352       499      1851      2287      2288
 -1       841    8    0    1
 -2       352       498       499      2285      2289      2287
 -1       842    8    0    1
 -2       354       353       500      1854      2290      2291
 -1       843    8    0    1
 -2       353       499       500      2288      2292      2290
 -1       844    8    0    1
 -2       355       354       501      1857      2293      2294
 -1       845    8    0    1
 -2       354       500       501      2291      2295      2293
 -1       846    8    0    1
 -2       356       355       502      1860      2296      2297
 -1       847    8    0    1
 -2       355       501       502      2294      2298      2296
 -1       848    8    0    1
 -2       357       356       503      1863      2299      2300
 -1       849    8    0    1
 -2       356       502       503      2297      2301      2299
 -1       850    8    0    1
 -2       358       357       504      1866      2302      2303
 -1       851    8    0    1
 -2       357       503       504      2300      2304      2302
 -1       852    8    0    1
 -2       359       358       505      1869      2305      2306
 -1       853    8    0    1
 -2       358       504       505      2303      2307      2305
 -1       854    8    0    1
 -2       360       359       506      1872      2308      2309
 -1       855    8    0    1
 -2       359       505       506      2306      2310      2308
 -1       856    8    0    1
 -2       361       360       507      1875      2311      2312
 -1       857    8    0    1
 -2       360       506       507      2309      2313      2311
 -1       858    8    0    1
 -2       362       361       508      1878      2314      2315
 -1       859    8    0    1
 -2       361       507       508      2312      2316      2314
 -1       860    8    0    1
 -2       363       362       509      1881      2317      2318
 -1       861    8    0    1
 -2       362       508       509      2315      2319      2317
 -1       862    8    0    1
 -2       364       363       510      1884      2320      2321
 -1       863    8    0    1
 -2       363       509       510      2318      2322      2320
 -1       864    8    0    1
 -2       365       364       511      1887      2323      2324
 -1       865    8    0    1
 -2       364       510       511      2321      2325      2323
 -1       866    8    0    1
 -2       366       365       512      1890      2326      2327
 -1       867    8    0    1
 -2       365       511       512      2324      2328      2326
 -1       868    8    0    1
 -2       367       366       513      1893      2329      2330
 -1       869    8    0    1
 -2       366       512       513      2327      2331      2329
 -1       870    8    0    1
 -2       368       367       514      1896      2332      2333
 -1       871    8    0    1
 -2       367       513       514      2330      2334      2332
 -1       872    8    0    1
 -2       369       368       515      1899      2335      2336
 -1       873    8    0    1
 -2       368       514       515      2333      2337      2335
 -1       874    8    0    1
 -2       370       369       516      1902      2338      2339
 -1       875    8    0    1
 -2       369       515       516      2336      2340      2338
 -1       876    8    0    1
 -2       371       370       517      1905      2341      2342
 -1       877    8    0    1
 -2       370       516       517      2339      2343      2341
 -1       878    8    0    1
 -2       372       371       518      1908      2344      2345
 -1       879    8    0    1
 -2       371       517       518      2342      2346      2344
 -1       880    8    0    1
 -2       373       372       519      1911      2347      2348
 -1       881    8    0    1
 -2       372       518       519      2345      2349      2347
 -1       882    8    0    1
 -2       374       373       520      1914      2350      2351
 -1       883    8    0    1
 -2       373       519       520      2348      2352      2350
 -1       884    8    0    1
 -2       375       374       521      1917      2353      2354
 -1       885    8    0    1
 -2       374       520       521      2351      2355      2353
 -1       886    8    0    1
 -2       376       375       522      1920      2356      2357
 -1       887    8    0    1
 -2       375       521       522      2354      2358      2356
 -1       888    8    0    1
 -2       377       376       523      1923      2359      2360
 -1       889    8    0    1
 -2       376       522       523      2357      2361      2359
 -1       890    8    0    1
 -2       378       377       524      1926      2362      2363
 -1       891    8    0    1
 -2       377       523       524      2360      2364      2362
 -1       892    8    0    1
 -2       379       378       525      1929      2365      2366
 -1       893    8    0    1
 -2       378       524       525      2363      2367      2365
 -1       894    8    0    1
 -2       383       384       526      1945      2368      2369
 -1       895    8    0    1
 -2       384       385       527      1948      2370      2371
 -1       896    8    0    1
 -2       384       527       526      2371      2372      2368
 -1       897    8    0    1
 -2       385       386       528      1951      2373      2374
 -1       898    8    0    1
 -2       385       528       527      2374      2375      2370
 -1       899    8    0    1
 -2       386       387       529      1954      2376      2377
 -1       900    8    0    1
 -2       386       529       528      2377      2378      2373
 -1       901    8    0    1
 -2       387       388       530      1957      2379      2380
 -1       902    8    0    1
 -2       387       530       529      2380      2381      2376
 -1       903    8    0    1
 -2       388       389       531      1960      2382      2383
 -1       904    8    0    1
 -2       388       531       530      2383      2384      2379
 -1       905    8    0    1
 -2       389       390       532      1963      2385      2386
 -1       906    8    0    1
 -2       389       532       531      2386      2387      2382
 -1       907    8    0    1
 -2       390       391       533      1966      2388      2389
 -1       908    8    0    1
 -2       390       533       532      2389      2390      2385
 -1       909    8    0    1
 -2       391       392       534      1969      2391      2392
 -1       910    8    0    1
 -2       391       534       533      2392      2393      2388
 -1       911    8    0    1
 -2       392       393       535      1972      2394      2395
 -1       912    8    0    1
 -2       392       535       534      2395      2396      2391
 -1       913    8    0    1
 -2       393       394       536      1975      2397      2398
 -1       914    8    0    1
 -2       393       536       535      2398      2399      2394
 -1       915    8    0    1
 -2       394       395       537      1978      2400      2401
 -1       916    8    0    1
 -2       394       537       536      2401      2402      2397
 -1       917    8    0    1
 -2       395       396       538      1981      2403      2404
 -1       918    8    0    1
 -2       395       538       537      2404      2405      2400
 -1       919    8    0    1
 -2       396       397       539      1984      2406      2407
 -1       920    8    0    1
 -2       396       539       538      2407      2408      2403
 -1       921    8    0    1
 -2       397       398       540      1987      2409      2410
 -1       922    8    0    1
 -2       397       540       539      2410      2411      2406
 -1       923    8    0    1
 -2       398       399       541      1990      2412      2413
 -1       924    8    0    1
 -2       398       541       540      2413      2414      2409
 -1       925    8    0    1
 -2       399       400       542      1993      2415      2416
 -1       926    8    0    1
 -2       399       542       541      2416      2417      2412
 -1       927    8    0    1
 -2       400       401       543      1996      2418      2419
 -1       928    8    0    1
 -2       400       543       542      2419      2420      2415
 -1       929    8    0    1
 -2       401       402       544      1999      2421      2422
 -1       930    8    0    1
 -2       401       544       543      2422      2423      2418
 -1       931    8    0    1
 -2       402       403       545      2002      2424      2425
 -1       932    8    0    1
 -2       402       545       544      2425      2426      2421
 -1       933    8    0    1
 -2       403       404       546      2005      2427      2428
 -1       934    8    0    1
 -2       403       546       545      2428      2429      2424
 -1       935    8    0    1
 -2       404       405       547      2008      2430      2431
 -1       936    8    0    1
 -2       404       547       546      2431      2432      2427
 -1       937    8    0    1
 -2       405       406       548      2011      2433      2434
 -1       938    8    0    1
 -2       405       548       547      2434      2435      2430
 -1       939    8    0    1
 -2       406       407       549      2014      2436      2437
 -1       940    8    0    1
 -2       406       549       548      2437      2438      2433
 -1       941    8    0    1
 -2       407       408       550      2017      2439      2440
 -1       942    8    0    1
 -2       407       550       549      2440      2441      2436
 -1       943    8    0    1
 -2       408       409       551      2020      2442      2443
 -1       944    8    0    1
 -2       408       551       550      2443      2444      2439
 -1       945    8    0    1
 -2       409       410       552      2023      2445      2446
 -1       946    8    0    1
 -2       409       552       551      2446      2447      2442
 -1       947    8    0    1
 -2       410       411       553      2026      2448      2449
 -1       948    8    0    1
 -2       410       553       552      2449      2450      2445
 -1       949    8    0    1
 -2       411       412       554      2029      2451      2452
 -1       950    8    0    1
 -2       411       554       553      2452      2453      2448
 -1       951    8    0    1
 -2       412       413       555      2032      2454      2455
 -1       952    8    0    1
 -2       412       555       554      2455      2456      2451
 -1       953    8    0    1
 -2       413       414       556      2035      2457      2458
 -1       954    8    0    1
 -2       413       556       555      2458      2459      2454
 -1       955    8    0    1
 -2       414       415       557      2038      2460      2461
 -1       956    8    0    1
 -2       414       557       556      2461      2462      2457
 -1       957    8    0    1
 -2       415       416       558      2041      2463      2464
 -1       958    8    0    1
 -2       415       558       557      2464      2465      2460
 -1       959    8    0    1
 -2       416       417       559      2044      2466      2467
 -1       960    8    0    1
 -2       416       559       558      2467      2468      2463
 -1       961    8    0    1
 -2       417       418       560      2047      2469      2470
 -1       962    8    0    1
 -2       417       560       559      2470      2471      2466
 -1       963    8    0    1
 -2       418       419       561      2050      2472      2473
 -1       964    8    0    1
 -2       418       561       560      2473      2474      2469
 -1       965    8    0    1
 -2       419       420       562      2053      2475      2476
 -1       966    8    0    1
 -2       419       562       561      2476      2477      2472
 -1       967    8    0    1
 -2       420       421       563      2056      2478      2479
 -1       968    8    0    1
 -2       420       563       562      2479      2480      2475
 -1       969    8    0    1
 -2       421       422       564      2059      2481      2482
 -1       970    8    0    1
 -2       421       564       563      2482      2483      2478
 -1       971    8    0    1
 -2       422       423       565      2062      2484      2485
 -1       972    8    0    1
 -2       422       565       564      2485      2486      2481
 -1       973    8    0    1
 -2       423       424       566      2065      2487      2488
 -1       974    8    0    1
 -2       423       566       565      2488      2489      2484
 -1       975    8    0    1
 -2       424       425       567      2068      2490      2491
 -1       976    8    0    1
 -2       424       567       566      2491      2492      2487
 -1       977    8    0    1
 -2       425       426       429      2071      2080      2493
 -1       978    8    0    1
 -2       430       431       568      2087      2494      2495
 -1       979    8    0    1
 -2       431       432       569      2090      2496      2497
 -1       980    8    0    1
 -2       431       569       568      2497      2498      2494
 -1       981    8    0    1
 -2       428       427       570      2077      2499      2500
 -1       982    8    0    1
 -2       427       430       571      2084      2501      2502
 -1       983    8    0    1
 -2       570       427       571      2499      2502      2503
 -1       984    8    0    1
 -2       430       568       571      2495      2504      2501
 -1       985    8    0    1
 -2       432       433       572      2093      2505      2506
 -1       986    8    0    1
 -2       432       572       569      2506      2507      2496
 -1       987    8    0    1
 -2       433       434       573      2096      2508      2509
 -1       988    8    0    1
 -2       433       573       572      2509      2510      2505
 -1       989    8    0    1
 -2       434       435       574      2099      2511      2512
 -1       990    8    0    1
 -2       434       574       573      2512      2513      2508
 -1       991    8    0    1
 -2       435       436       575      2102      2514      2515
 -1       992    8    0    1
 -2       435       575       574      2515      2516      2511
 -1       993    8    0    1
 -2       436       437       576      2105      2517      2518
 -1       994    8    0    1
 -2       436       576       575      2518      2519      2514
 -1       995    8    0    1
 -2       437       438       577      2108      2520      2521
 -1       996    8    0    1
 -2       437       577       576      2521      2522      2517
 -1       997    8    0    1
 -2       438       439       578      2111      2523      2524
 -1       998    8    0    1
 -2       438       578       577      2524      2525      2520
 -1       999    8    0    1
 -2       441       442       579      2182      2526      2527
 -1      1000    8    0    1
 -2       440       443       580      2184      2528      2529
 -1      1001    8    0    1
 -2       440       580       482      2529      2530      2237
 -1      1002    8    0    1
 -2       382       383       581      1942      2531      2532
 -1      1003    8    0    1
 -2       383       526       581      2369      2533      2531
 -1      1004    8    0    1
 -2       439       290       380      2183      1932      2534
 -1      1005    8    0    1
 -2       468       441       582      2185      2535      2536
 -1      1006    8    0    1
 -2       441       579       582      2527      2537      2535
 -1      1007    8    0    1
 -2       443       444       583      2122      2538      2539
 -1      1008    8    0    1
 -2       469       446       584      2177      2540      2541
 -1      1009    8    0    1
 -2       467       468       585      2186      2542      2543
 -1      1010    8    0    1
 -2       462       463       586      2189      2544      2545
 -1      1011    8    0    1
 -2       458       459       587      2191      2546      2547
 -1      1012    8    0    1
 -2       324       325       588      1765      2548      2549
 -1      1013    8    0    1
 -2       471       324       588      2208      2549      2550
 -1      1014    8    0    1
 -2       325       473       588      2214      2551      2548
 -1      1015    8    0    1
 -2       447       448       589      2203      2552      2553
 -1      1016    8    0    1
 -2       461       462       590      2204      2554      2555
 -1      1017    8    0    1
 -2       446       447       591      2202      2556      2557
 -1      1018    8    0    1
 -2       446       591       584      2557      2558      2540
 -1      1019    8    0    1
 -2       448       449       592      2201      2559      2560
 -1      1020    8    0    1
 -2       449       450       593      2200      2561      2562
 -1      1021    8    0    1
 -2       450       451       594      2199      2563      2564
 -1      1022    8    0    1
 -2       451       452       595      2198      2565      2566
 -1      1023    8    0    1
 -2       452       453       596      2197      2567      2568
 -1      1024    8    0    1
 -2       453       454       597      2196      2569      2570
 -1      1025    8    0    1
 -2       454       455       598      2195      2571      2572
 -1      1026    8    0    1
 -2       454       598       597      2572      2573      2569
 -1      1027    8    0    1
 -2       455       456       599      2194      2574      2575
 -1      1028    8    0    1
 -2       456       457       600      2193      2576      2577
 -1      1029    8    0    1
 -2       456       600       599      2577      2578      2574
 -1      1030    8    0    1
 -2       457       458       601      2192      2579      2580
 -1      1031    8    0    1
 -2       459       460       602      2157      2581      2582
 -1      1032    8    0    1
 -2       465       466       603      2205      2583      2584
 -1      1033    8    0    1
 -2       460       461       604      2190      2585      2586
 -1      1034    8    0    1
 -2       461       590       604      2555      2587      2585
 -1      1035    8    0    1
 -2       463       464       605      2166      2588      2589
 -1      1036    8    0    1
 -2       464       465       606      2188      2590      2591
 -1      1037    8    0    1
 -2       464       606       605      2591      2592      2588
 -1      1038    8    0    1
 -2       466       467       607      2187      2593      2594
 -1      1039    8    0    1
 -2       467       585       607      2543      2595      2593
 -1      1040    8    0    1
 -2       335       321       608      2180      2596      2597
 -1      1041    8    0    1
 -2       480       335       608      2233      2597      2598
 -1      1042    8    0    1
 -2       321       320       608      1754      2599      2596
 -1      1043    8    0    1
 -2       333       334       609      1794      2600      2601
 -1      1044    8    0    1
 -2       332       333       609      1789      2601      2602
 -1      1045    8    0    1
 -2       334       470       609      2207      2603      2600
 -1      1046    8    0    1
 -2       447       589       591      2553      2604      2556
 -1      1047    8    0    1
 -2       322       472       610      2211      2605      2606
 -1      1048    8    0    1
 -2       322       610       445      2606      2607      2126
 -1      1049    8    0    1
 -2       479       382       581      2230      2532      2608
 -1      1050    8    0    1
 -2       331       332       609      1786      2602      2609
 -1      1051    8    0    1
 -2       320       445       611      2125      2610      2611
 -1      1052    8    0    1
 -2       608       320       611      2599      2611      2612
 -1      1053    8    0    1
 -2       445       610       611      2607      2613      2610
 -1      1054    8    0    1
 -2       444       481       583      2236      2614      2538
 -1      1055    8    0    1
 -2       442       482       579      2238      2615      2526
 -1      1056    8    0    1
 -2       468       582       585      2536      2616      2542
 -1      1057    8    0    1
 -2       606       465       603      2590      2584      2617
 -1      1058    8    0    1
 -2       425       429       567      2493      2618      2490
 -1      1059    8    0    1
 -2       580       443       583      2528      2539      2619
 -1      1060    8    0    1
 -2       429       428       567      2081      2620      2618
 -1      1061    8    0    1
 -2       567       428       570      2620      2500      2621
 -1      1062    8    0    1
 -2       603       466       612      2583      2622      2623
 -1      1063    8    0    1
 -2       466       607       612      2594      2624      2622
 -1      1064    8    0    1
 -2       602       460       604      2581      2586      2625
 -1      1065    8    0    1
 -2       448       592       613      2560      2626      2627
 -1      1066    8    0    1
 -2       448       613       589      2627      2628      2552
 -1      1067    8    0    1
 -2       600       457       614      2576      2629      2630
 -1      1068    8    0    1
 -2       457       601       614      2580      2631      2629
 -1      1069    8    0    1
 -2       469       584       481      2541      2632      2235
 -1      1070    8    0    1
 -2       462       586       590      2545      2633      2554
 -1      1071    8    0    1
 -2       598       455       615      2571      2634      2635
 -1      1072    8    0    1
 -2       455       599       615      2575      2636      2634
 -1      1073    8    0    1
 -2       596       453       597      2567      2570      2637
 -1      1074    8    0    1
 -2       458       587       601      2547      2638      2579
 -1      1075    8    0    1
 -2       595       452       596      2565      2568      2639
 -1      1076    8    0    1
 -2       594       451       595      2563      2566      2640
 -1      1077    8    0    1
 -2       593       450       594      2561      2564      2641
 -1      1078    8    0    1
 -2       587       459       602      2546      2582      2642
 -1      1079    8    0    1
 -2       586       463       605      2544      2589      2643
 -1      1080    8    0    1
 -2       331       609       478      2609      2644      2227
 -1      1081    8    0    1
 -2       592       449       593      2559      2562      2645
 -1      1082    8    0    1
 -2       439       380       616      2534      2646      2647
 -1      1083    8    0    1
 -2       578       439       616      2523      2647      2648
 -1      1084    8    0    1
 -2       380       379       616      1933      2649      2646
 -1      1085    8    0    1
 -2       616       379       525      2649      2366      2650
 -1      1086    8    0    1
 -2       474       475       617      2220      2651      2652
 -1      1087    8    0    1
 -2       473       474       618      2217      2653      2654
 -1      1088    8    0    1
 -2       474       617       618      2652      2655      2653
 -1      1089    8    0    1
 -2       476       477       619      2226      2656      2657
 -1      1090    8    0    1
 -2       477       478       620      2229      2658      2659
 -1      1091    8    0    1
 -2       477       620       619      2659      2660      2656
 -1      1092    8    0    1
 -2       470       479       621      2232      2661      2662
 -1      1093    8    0    1
 -2       592       593       622      2645      2663      2664
 -1      1094    8    0    1
 -2       609       470       478      2603      2665      2644
 -1      1095    8    0    1
 -2       484       483       623      2244      2666      2667
 -1      1096    8    0    1
 -2       485       484       624      2247      2668      2669
 -1      1097    8    0    1
 -2       484       623       624      2667      2670      2668
 -1      1098    8    0    1
 -2       486       485       625      2250      2671      2672
 -1      1099    8    0    1
 -2       485       624       625      2669      2673      2671
 -1      1100    8    0    1
 -2       487       486       626      2253      2674      2675
 -1      1101    8    0    1
 -2       486       625       626      2672      2676      2674
 -1      1102    8    0    1
 -2       488       487       627      2256      2677      2678
 -1      1103    8    0    1
 -2       487       626       627      2675      2679      2677
 -1      1104    8    0    1
 -2       489       488       628      2259      2680      2681
 -1      1105    8    0    1
 -2       488       627       628      2678      2682      2680
 -1      1106    8    0    1
 -2       490       489       629      2262      2683      2684
 -1      1107    8    0    1
 -2       489       628       629      2681      2685      2683
 -1      1108    8    0    1
 -2       491       490       630      2265      2686      2687
 -1      1109    8    0    1
 -2       490       629       630      2684      2688      2686
 -1      1110    8    0    1
 -2       492       491       631      2268      2689      2690
 -1      1111    8    0    1
 -2       491       630       631      2687      2691      2689
 -1      1112    8    0    1
 -2       493       492       632      2271      2692      2693
 -1      1113    8    0    1
 -2       492       631       632      2690      2694      2692
 -1      1114    8    0    1
 -2       494       493       633      2274      2695      2696
 -1      1115    8    0    1
 -2       493       632       633      2693      2697      2695
 -1      1116    8    0    1
 -2       495       494       634      2277      2698      2699
 -1      1117    8    0    1
 -2       494       633       634      2696      2700      2698
 -1      1118    8    0    1
 -2       496       495       635      2280      2701      2702
 -1      1119    8    0    1
 -2       495       634       635      2699      2703      2701
 -1      1120    8    0    1
 -2       497       496       636      2283      2704      2705
 -1      1121    8    0    1
 -2       496       635       636      2702      2706      2704
 -1      1122    8    0    1
 -2       498       497       637      2286      2707      2708
 -1      1123    8    0    1
 -2       497       636       637      2705      2709      2707
 -1      1124    8    0    1
 -2       499       498       638      2289      2710      2711
 -1      1125    8    0    1
 -2       498       637       638      2708      2712      2710
 -1      1126    8    0    1
 -2       500       499       639      2292      2713      2714
 -1      1127    8    0    1
 -2       499       638       639      2711      2715      2713
 -1      1128    8    0    1
 -2       501       500       640      2295      2716      2717
 -1      1129    8    0    1
 -2       500       639       640      2714      2718      2716
 -1      1130    8    0    1
 -2       502       501       641      2298      2719      2720
 -1      1131    8    0    1
 -2       501       640       641      2717      2721      2719
 -1      1132    8    0    1
 -2       503       502       642      2301      2722      2723
 -1      1133    8    0    1
 -2       502       641       642      2720      2724      2722
 -1      1134    8    0    1
 -2       504       503       643      2304      2725      2726
 -1      1135    8    0    1
 -2       503       642       643      2723      2727      2725
 -1      1136    8    0    1
 -2       505       504       644      2307      2728      2729
 -1      1137    8    0    1
 -2       504       643       644      2726      2730      2728
 -1      1138    8    0    1
 -2       506       505       645      2310      2731      2732
 -1      1139    8    0    1
 -2       505       644       645      2729      2733      2731
 -1      1140    8    0    1
 -2       507       506       646      2313      2734      2735
 -1      1141    8    0    1
 -2       506       645       646      2732      2736      2734
 -1      1142    8    0    1
 -2       508       507       647      2316      2737      2738
 -1      1143    8    0    1
 -2       507       646       647      2735      2739      2737
 -1      1144    8    0    1
 -2       509       508       648      2319      2740      2741
 -1      1145    8    0    1
 -2       508       647       648      2738      2742      2740
 -1      1146    8    0    1
 -2       510       509       649      2322      2743      2744
 -1      1147    8    0    1
 -2       509       648       649      2741      2745      2743
 -1      1148    8    0    1
 -2       511       510       650      2325      2746      2747
 -1      1149    8    0    1
 -2       510       649       650      2744      2748      2746
 -1      1150    8    0    1
 -2       512       511       651      2328      2749      2750
 -1      1151    8    0    1
 -2       511       650       651      2747      2751      2749
 -1      1152    8    0    1
 -2       513       512       652      2331      2752      2753
 -1      1153    8    0    1
 -2       512       651       652      2750      2754      2752
 -1      1154    8    0    1
 -2       515       514       653      2337      2755      2756
 -1      1155    8    0    1
 -2       516       515       654      2340      2757      2758
 -1      1156    8    0    1
 -2       515       653       654      2756      2759      2757
 -1      1157    8    0    1
 -2       517       516       655      2343      2760      2761
 -1      1158    8    0    1
 -2       516       654       655      2758      2762      2760
 -1      1159    8    0    1
 -2       518       517       656      2346      2763      2764
 -1      1160    8    0    1
 -2       517       655       656      2761      2765      2763
 -1      1161    8    0    1
 -2       519       518       657      2349      2766      2767
 -1      1162    8    0    1
 -2       518       656       657      2764      2768      2766
 -1      1163    8    0    1
 -2       520       519       658      2352      2769      2770
 -1      1164    8    0    1
 -2       519       657       658      2767      2771      2769
 -1      1165    8    0    1
 -2       521       520       659      2355      2772      2773
 -1      1166    8    0    1
 -2       520       658       659      2770      2774      2772
 -1      1167    8    0    1
 -2       522       521       660      2358      2775      2776
 -1      1168    8    0    1
 -2       521       659       660      2773      2777      2775
 -1      1169    8    0    1
 -2       523       522       661      2361      2778      2779
 -1      1170    8    0    1
 -2       522       660       661      2776      2780      2778
 -1      1171    8    0    1
 -2       524       523       662      2364      2781      2782
 -1      1172    8    0    1
 -2       523       661       662      2779      2783      2781
 -1      1173    8    0    1
 -2       525       524       663      2367      2784      2785
 -1      1174    8    0    1
 -2       524       662       663      2782      2786      2784
 -1      1175    8    0    1
 -2       527       528       664      2375      2787      2788
 -1      1176    8    0    1
 -2       616       525       665      2650      2789      2790
 -1      1177    8    0    1
 -2       578       616       665      2648      2790      2791
 -1      1178    8    0    1
 -2       525       663       665      2785      2792      2789
 -1      1179    8    0    1
 -2       526       527       666      2372      2793      2794
 -1      1180    8    0    1
 -2       527       664       666      2788      2795      2793
 -1      1181    8    0    1
 -2       529       530       667      2381      2796      2797
 -1      1182    8    0    1
 -2       530       531       668      2384      2798      2799
 -1      1183    8    0    1
 -2       530       668       667      2799      2800      2796
 -1      1184    8    0    1
 -2       531       532       669      2387      2801      2802
 -1      1185    8    0    1
 -2       531       669       668      2802      2803      2798
 -1      1186    8    0    1
 -2       532       533       670      2390      2804      2805
 -1      1187    8    0    1
 -2       532       670       669      2805      2806      2801
 -1      1188    8    0    1
 -2       533       534       671      2393      2807      2808
 -1      1189    8    0    1
 -2       533       671       670      2808      2809      2804
 -1      1190    8    0    1
 -2       534       535       672      2396      2810      2811
 -1      1191    8    0    1
 -2       534       672       671      2811      2812      2807
 -1      1192    8    0    1
 -2       535       536       673      2399      2813      2814
 -1      1193    8    0    1
 -2       535       673       672      2814      2815      2810
 -1      1194    8    0    1
 -2       536       537       674      2402      2816      2817
 -1      1195    8    0    1
 -2       536       674       673      2817      2818      2813
 -1      1196    8    0    1
 -2       537       538       675      2405      2819      2820
 -1      1197    8    0    1
 -2       537       675       674      2820      2821      2816
 -1      1198    8    0    1
 -2       538       539       676      2408      2822      2823
 -1      1199    8    0    1
 -2       538       676       675      2823      2824      2819
 -1      1200    8    0    1
 -2       539       540       677      2411      2825      2826
 -1      1201    8    0    1
 -2       539       677       676      2826      2827      2822
 -1      1202    8    0    1
 -2       540       541       678      2414      2828      2829
 -1      1203    8    0    1
 -2       540       678       677      2829      2830      2825
 -1      1204    8    0    1
 -2       541       542       679      2417      2831      2832
 -1      1205    8    0    1
 -2       541       679       678      2832      2833      2828
 -1      1206    8    0    1
 -2       542       543       680      2420      2834      2835
 -1      1207    8    0    1
 -2       542       680       679      2835      2836      2831
 -1      1208    8    0    1
 -2       543       544       681      2423      2837      2838
 -1      1209    8    0    1
 -2       543       681       680      2838      2839      2834
 -1      1210    8    0    1
 -2       544       545       682      2426      2840      2841
 -1      1211    8    0    1
 -2       544       682       681      2841      2842      2837
 -1      1212    8    0    1
 -2       545       546       683      2429      2843      2844
 -1      1213    8    0    1
 -2       545       683       682      2844      2845      2840
 -1      1214    8    0    1
 -2       546       547       684      2432      2846      2847
 -1      1215    8    0    1
 -2       546       684       683      2847      2848      2843
 -1      1216    8    0    1
 -2       547       548       685      2435      2849      2850
 -1      1217    8    0    1
 -2       547       685       684      2850      2851      2846
 -1      1218    8    0    1
 -2       548       549       686      2438      2852      2853
 -1      1219    8    0    1
 -2       548       686       685      2853      2854      2849
 -1      1220    8    0    1
 -2       549       550       687      2441      2855      2856
 -1      1221    8    0    1
 -2       549       687       686      2856      2857      2852
 -1      1222    8    0    1
 -2       550       551       688      2444      2858      2859
 -1      1223    8    0    1
 -2       550       688       687      2859      2860      2855
 -1      1224    8    0    1
 -2       551       552       689      2447      2861      2862
 -1      1225    8    0    1
 -2       551       689       688      2862      2863      2858
 -1      1226    8    0    1
 -2       552       553       690      2450      2864      2865
 -1      1227    8    0    1
 -2       552       690       689      2865      2866      2861
 -1      1228    8    0    1
 -2       553       554       691      2453      2867      2868
 -1      1229    8    0    1
 -2       553       691       690      2868      2869      2864
 -1      1230    8    0    1
 -2       554       555       692      2456      2870      2871
 -1      1231    8    0    1
 -2       554       692       691      2871      2872      2867
 -1      1232    8    0    1
 -2       555       556       693      2459      2873      2874
 -1      1233    8    0    1
 -2       555       693       692      2874      2875      2870
 -1      1234    8    0    1
 -2       556       557       694      2462      2876      2877
 -1      1235    8    0    1
 -2       556       694       693      2877      2878      2873
 -1      1236    8    0    1
 -2       557       558       695      2465      2879      2880
 -1      1237    8    0    1
 -2       557       695       694      2880      2881      2876
 -1      1238    8    0    1
 -2       558       559       696      2468      2882      2883
 -1      1239    8    0    1
 -2       558       696       695      2883      2884      2879
 -1      1240    8    0    1
 -2       559       560       697      2471      2885      2886
 -1      1241    8    0    1
 -2       559       697       696      2886      2887      2882
 -1      1242    8    0    1
 -2       560       561       698      2474      2888      2889
 -1      1243    8    0    1
 -2       560       698       697      2889      2890      2885
 -1      1244    8    0    1
 -2       561       562       699      2477      2891      2892
 -1      1245    8    0    1
 -2       561       699       698      2892      2893      2888
 -1      1246    8    0    1
 -2       562       563       700      2480      2894      2895
 -1      1247    8    0    1
 -2       562       700       699      2895      2896      2891
 -1      1248    8    0    1
 -2       563       564       701      2483      2897      2898
 -1      1249    8    0    1
 -2       563       701       700      2898      2899      2894
 -1      1250    8    0    1
 -2       564       565       702      2486      2900      2901
 -1      1251    8    0    1
 -2       564       702       701      2901      2902      2897
 -1      1252    8    0    1
 -2       565       566       703      2489      2903      2904
 -1      1253    8    0    1
 -2       565       703       702      2904      2905      2900
 -1      1254    8    0    1
 -2       566       567       704      2492      2906      2907
 -1      1255    8    0    1
 -2       703       566       704      2903      2907      2908
 -1      1256    8    0    1
 -2       567       570       704      2621      2909      2906
 -1      1257    8    0    1
 -2       580       583       705      2619      2910      2911
 -1      1258    8    0    1
 -2       572       573       706      2510      2912      2913
 -1      1259    8    0    1
 -2       568       569       707      2498      2914      2915
 -1      1260    8    0    1
 -2       573       574       708      2513      2916      2917
 -1      1261    8    0    1
 -2       573       708       706      2917      2918      2912
 -1      1262    8    0    1
 -2       569       572       709      2507      2919      2920
 -1      1263    8    0    1
 -2       707       569       709      2914      2920      2921
 -1      1264    8    0    1
 -2       572       706       709      2913      2922      2919
 -1      1265    8    0    1
 -2       604       590       710      2587      2923      2924
 -1      1266    8    0    1
 -2       574       575       711      2516      2925      2926
 -1      1267    8    0    1
 -2       574       711       708      2926      2927      2916
 -1      1268    8    0    1
 -2       575       576       712      2519      2928      2929
 -1      1269    8    0    1
 -2       575       712       711      2929      2930      2925
 -1      1270    8    0    1
 -2       576       577       713      2522      2931      2932
 -1      1271    8    0    1
 -2       576       713       712      2932      2933      2928
 -1      1272    8    0    1
 -2       577       578       665      2525      2791      2934
 -1      1273    8    0    1
 -2       585       582       714      2616      2935      2936
 -1      1274    8    0    1
 -2       482       580       715      2530      2937      2938
 -1      1275    8    0    1
 -2       581       526       716      2533      2939      2940
 -1      1276    8    0    1
 -2       526       666       716      2794      2941      2939
 -1      1277    8    0    1
 -2       582       579       717      2537      2942      2943
 -1      1278    8    0    1
 -2       579       482       718      2615      2944      2945
 -1      1279    8    0    1
 -2       480       608       719      2598      2946      2947
 -1      1280    8    0    1
 -2       608       611       719      2612      2948      2946
 -1      1281    8    0    1
 -2       596       597       720      2637      2949      2950
 -1      1282    8    0    1
 -2       583       481       721      2614      2951      2952
 -1      1283    8    0    1
 -2       606       603       722      2617      2953      2954
 -1      1284    8    0    1
 -2       528       529       723      2378      2955      2956
 -1      1285    8    0    1
 -2       664       528       723      2787      2956      2957
 -1      1286    8    0    1
 -2       529       667       723      2797      2958      2955
 -1      1287    8    0    1
 -2       483       480       724      2241      2959      2960
 -1      1288    8    0    1
 -2       623       483       724      2666      2960      2961
 -1      1289    8    0    1
 -2       480       719       724      2947      2962      2959
 -1      1290    8    0    1
 -2       479       581       725      2608      2963      2964
 -1      1291    8    0    1
 -2       621       479       725      2661      2964      2965
 -1      1292    8    0    1
 -2       581       716       725      2940      2966      2963
 -1      1293    8    0    1
 -2       475       476       726      2223      2967      2968
 -1      1294    8    0    1
 -2       617       475       726      2651      2968      2969
 -1      1295    8    0    1
 -2       476       619       726      2657      2970      2967
 -1      1296    8    0    1
 -2       472       471       727      2212      2971      2972
 -1      1297    8    0    1
 -2       584       591       728      2558      2973      2974
 -1      1298    8    0    1
 -2       587       602       729      2642      2975      2976
 -1      1299    8    0    1
 -2       593       594       730      2641      2977      2978
 -1      1300    8    0    1
 -2       593       730       622      2978      2979      2663
 -1      1301    8    0    1
 -2       594       595       731      2640      2980      2981
 -1      1302    8    0    1
 -2       601       587       732      2638      2982      2983
 -1      1303    8    0    1
 -2       597       598       733      2573      2984      2985
 -1      1304    8    0    1
 -2       597       733       720      2985      2986      2949
 -1      1305    8    0    1
 -2       481       584       734      2632      2987      2988
 -1      1306    8    0    1
 -2       599       600       735      2578      2989      2990
 -1      1307    8    0    1
 -2       595       596       736      2639      2991      2992
 -1      1308    8    0    1
 -2       586       605       737      2643      2993      2994
 -1      1309    8    0    1
 -2       602       604       738      2625      2995      2996
 -1      1310    8    0    1
 -2       605       606       739      2592      2997      2998
 -1      1311    8    0    1
 -2       591       589       740      2604      2999      3000
 -1      1312    8    0    1
 -2       607       585       741      2595      3001      3002
 -1      1313    8    0    1
 -2       610       472       742      2605      3003      3004
 -1      1314    8    0    1
 -2       472       727       742      2972      3005      3003
 -1      1315    8    0    1
 -2       473       618       743      2654      3006      3007
 -1      1316    8    0    1
 -2       473       743       588      3007      3008      2551
 -1      1317    8    0    1
 -2       478       470       621      2665      2662      3009
 -1      1318    8    0    1
 -2       739       606       722      2997      2954      3010
 -1      1319    8    0    1
 -2       738       604       710      2995      2924      3011
 -1      1320    8    0    1
 -2       653       514       744      2755      3012      3013
 -1      1321    8    0    1
 -2       514       513       744      2334      3014      3012
 -1      1322    8    0    1
 -2       585       714       741      2936      3015      3001
 -1      1323    8    0    1
 -2       737       605       739      2993      2998      3016
 -1      1324    8    0    1
 -2       705       583       745      2910      3017      3018
 -1      1325    8    0    1
 -2       583       721       745      2952      3019      3017
 -1      1326    8    0    1
 -2       704       570       746      2909      3020      3021
 -1      1327    8    0    1
 -2       570       571       746      2503      3022      3020
 -1      1328    8    0    1
 -2       603       612       747      2623      3023      3024
 -1      1329    8    0    1
 -2       603       747       722      3024      3025      2953
 -1      1330    8    0    1
 -2       735       600       748      2989      3026      3027
 -1      1331    8    0    1
 -2       600       614       748      2630      3028      3026
 -1      1332    8    0    1
 -2       733       598       749      2984      3029      3030
 -1      1333    8    0    1
 -2       598       615       749      2635      3031      3029
 -1      1334    8    0    1
 -2       577       665       750      2934      3032      3033
 -1      1335    8    0    1
 -2       713       577       750      2931      3033      3034
 -1      1336    8    0    1
 -2       665       663       750      2792      3035      3032
 -1      1337    8    0    1
 -2       715       580       705      2937      2911      3036
 -1      1338    8    0    1
 -2       714       582       717      2935      2943      3037
 -1      1339    8    0    1
 -2       612       607       751      2624      3038      3039
 -1      1340    8    0    1
 -2       607       741       751      3002      3040      3038
 -1      1341    8    0    1
 -2       482       715       718      2938      3041      2944
 -1      1342    8    0    1
 -2       717       579       718      2942      2945      3042
 -1      1343    8    0    1
 -2       614       601       732      2631      2983      3043
 -1      1344    8    0    1
 -2       721       481       734      2951      2988      3044
 -1      1345    8    0    1
 -2       615       599       735      2636      2990      3045
 -1      1346    8    0    1
 -2       710       590       744      2923      3046      3047
 -1      1347    8    0    1
 -2       471       588       752      2550      3048      3049
 -1      1348    8    0    1
 -2       727       471       752      2971      3049      3050
 -1      1349    8    0    1
 -2       588       743       752      3008      3051      3048
 -1      1350    8    0    1
 -2       478       621       620      3009      3052      2658
 -1      1351    8    0    1
 -2       571       568       753      2504      3053      3054
 -1      1352    8    0    1
 -2       746       571       753      3022      3054      3055
 -1      1353    8    0    1
 -2       568       707       753      2915      3056      3053
 -1      1354    8    0    1
 -2       732       587       729      2982      2976      3057
 -1      1355    8    0    1
 -2       730       594       731      2977      2981      3058
 -1      1356    8    0    1
 -2       590       586       653      2633      3059      3060
 -1      1357    8    0    1
 -2       729       602       738      2975      2996      3061
 -1      1358    8    0    1
 -2       728       591       740      2973      3000      3062
 -1      1359    8    0    1
 -2       584       728       734      2974      3063      2987
 -1      1360    8    0    1
 -2       731       595       736      2980      2992      3064
 -1      1361    8    0    1
 -2       744       590       653      3046      3060      3013
 -1      1362    8    0    1
 -2       619       620       754      2660      3065      3066
 -1      1363    8    0    1
 -2       592       622       755      2664      3067      3068
 -1      1364    8    0    1
 -2       611       610       756      2613      3069      3070
 -1      1365    8    0    1
 -2       719       611       756      2948      3070      3071
 -1      1366    8    0    1
 -2       610       742       756      3004      3072      3069
 -1      1367    8    0    1
 -2       740       589       757      2999      3073      3074
 -1      1368    8    0    1
 -2       620       621       758      3052      3075      3076
 -1      1369    8    0    1
 -2       754       620       758      3065      3076      3077
 -1      1370    8    0    1
 -2       621       725       758      2965      3078      3075
 -1      1371    8    0    1
 -2       741       714       759      3015      3079      3080
 -1      1372    8    0    1
 -2       513       652       744      2753      3081      3014
 -1      1373    8    0    1
 -2       625       624       760      2673      3082      3083
 -1      1374    8    0    1
 -2       626       625       761      2676      3084      3085
 -1      1375    8    0    1
 -2       625       760       761      3083      3086      3084
 -1      1376    8    0    1
 -2       627       626       762      2679      3087      3088
 -1      1377    8    0    1
 -2       626       761       762      3085      3089      3087
 -1      1378    8    0    1
 -2       628       627       763      2682      3090      3091
 -1      1379    8    0    1
 -2       627       762       763      3088      3092      3090
 -1      1380    8    0    1
 -2       629       628       764      2685      3093      3094
 -1      1381    8    0    1
 -2       628       763       764      3091      3095      3093
 -1      1382    8    0    1
 -2       630       629       765      2688      3096      3097
 -1      1383    8    0    1
 -2       629       764       765      3094      3098      3096
 -1      1384    8    0    1
 -2       631       630       766      2691      3099      3100
 -1      1385    8    0    1
 -2       630       765       766      3097      3101      3099
 -1      1386    8    0    1
 -2       632       631       767      2694      3102      3103
 -1      1387    8    0    1
 -2       631       766       767      3100      3104      3102
 -1      1388    8    0    1
 -2       633       632       768      2697      3105      3106
 -1      1389    8    0    1
 -2       632       767       768      3103      3107      3105
 -1      1390    8    0    1
 -2       634       633       769      2700      3108      3109
 -1      1391    8    0    1
 -2       633       768       769      3106      3110      3108
 -1      1392    8    0    1
 -2       635       634       770      2703      3111      3112
 -1      1393    8    0    1
 -2       634       769       770      3109      3113      3111
 -1      1394    8    0    1
 -2       636       635       771      2706      3114      3115
 -1      1395    8    0    1
 -2       635       770       771      3112      3116      3114
 -1      1396    8    0    1
 -2       637       636       772      2709      3117      3118
 -1      1397    8    0    1
 -2       636       771       772      3115      3119      3117
 -1      1398    8    0    1
 -2       638       637       773      2712      3120      3121
 -1      1399    8    0    1
 -2       637       772       773      3118      3122      3120
 -1      1400    8    0    1
 -2       639       638       774      2715      3123      3124
 -1      1401    8    0    1
 -2       638       773       774      3121      3125      3123
 -1      1402    8    0    1
 -2       640       639       775      2718      3126      3127
 -1      1403    8    0    1
 -2       639       774       775      3124      3128      3126
 -1      1404    8    0    1
 -2       641       640       776      2721      3129      3130
 -1      1405    8    0    1
 -2       640       775       776      3127      3131      3129
 -1      1406    8    0    1
 -2       642       641       777      2724      3132      3133
 -1      1407    8    0    1
 -2       641       776       777      3130      3134      3132
 -1      1408    8    0    1
 -2       643       642       778      2727      3135      3136
 -1      1409    8    0    1
 -2       642       777       778      3133      3137      3135
 -1      1410    8    0    1
 -2       644       643       779      2730      3138      3139
 -1      1411    8    0    1
 -2       643       778       779      3136      3140      3138
 -1      1412    8    0    1
 -2       645       644       780      2733      3141      3142
 -1      1413    8    0    1
 -2       644       779       780      3139      3143      3141
 -1      1414    8    0    1
 -2       646       645       781      2736      3144      3145
 -1      1415    8    0    1
 -2       645       780       781      3142      3146      3144
 -1      1416    8    0    1
 -2       647       646       782      2739      3147      3148
 -1      1417    8    0    1
 -2       646       781       782      3145      3149      3147
 -1      1418    8    0    1
 -2       648       647       783      2742      3150      3151
 -1      1419    8    0    1
 -2       647       782       783      3148      3152      3150
 -1      1420    8    0    1
 -2       649       648       784      2745      3153      3154
 -1      1421    8    0    1
 -2       648       783       784      3151      3155      3153
 -1      1422    8    0    1
 -2       650       649       785      2748      3156      3157
 -1      1423    8    0    1
 -2       649       784       785      3154      3158      3156
 -1      1424    8    0    1
 -2       656       655       747      2765      3159      3160
 -1      1425    8    0    1
 -2       657       656       747      2768      3160      3161
 -1      1426    8    0    1
 -2       658       657       786      2771      3162      3163
 -1      1427    8    0    1
 -2       659       658       787      2774      3164      3165
 -1      1428    8    0    1
 -2       658       786       787      3163      3166      3164
 -1      1429    8    0    1
 -2       660       659       788      2777      3167      3168
 -1      1430    8    0    1
 -2       659       787       788      3165      3169      3167
 -1      1431    8    0    1
 -2       661       660       789      2780      3170      3171
 -1      1432    8    0    1
 -2       660       788       789      3168      3172      3170
 -1      1433    8    0    1
 -2       662       661       790      2783      3173      3174
 -1      1434    8    0    1
 -2       661       789       790      3171      3175      3173
 -1      1435    8    0    1
 -2       663       662       791      2786      3176      3177
 -1      1436    8    0    1
 -2       750       663       791      3035      3177      3178
 -1      1437    8    0    1
 -2       662       790       791      3174      3179      3176
 -1      1438    8    0    1
 -2       669       670       792      2806      3180      3181
 -1      1439    8    0    1
 -2       668       669       793      2803      3182      3183
 -1      1440    8    0    1
 -2       669       792       793      3181      3184      3182
 -1      1441    8    0    1
 -2       667       668       794      2800      3185      3186
 -1      1442    8    0    1
 -2       668       793       794      3183      3187      3185
 -1      1443    8    0    1
 -2       670       671       795      2809      3188      3189
 -1      1444    8    0    1
 -2       670       795       792      3189      3190      3180
 -1      1445    8    0    1
 -2       671       672       796      2812      3191      3192
 -1      1446    8    0    1
 -2       671       796       795      3192      3193      3188
 -1      1447    8    0    1
 -2       672       673       797      2815      3194      3195
 -1      1448    8    0    1
 -2       672       797       796      3195      3196      3191
 -1      1449    8    0    1
 -2       673       674       798      2818      3197      3198
 -1      1450    8    0    1
 -2       673       798       797      3198      3199      3194
 -1      1451    8    0    1
 -2       674       675       799      2821      3200      3201
 -1      1452    8    0    1
 -2       674       799       798      3201      3202      3197
 -1      1453    8    0    1
 -2       675       676       800      2824      3203      3204
 -1      1454    8    0    1
 -2       675       800       799      3204      3205      3200
 -1      1455    8    0    1
 -2       676       677       801      2827      3206      3207
 -1      1456    8    0    1
 -2       676       801       800      3207      3208      3203
 -1      1457    8    0    1
 -2       677       678       802      2830      3209      3210
 -1      1458    8    0    1
 -2       677       802       801      3210      3211      3206
 -1      1459    8    0    1
 -2       678       679       803      2833      3212      3213
 -1      1460    8    0    1
 -2       678       803       802      3213      3214      3209
 -1      1461    8    0    1
 -2       679       680       804      2836      3215      3216
 -1      1462    8    0    1
 -2       679       804       803      3216      3217      3212
 -1      1463    8    0    1
 -2       680       681       805      2839      3218      3219
 -1      1464    8    0    1
 -2       680       805       804      3219      3220      3215
 -1      1465    8    0    1
 -2       681       682       806      2842      3221      3222
 -1      1466    8    0    1
 -2       681       806       805      3222      3223      3218
 -1      1467    8    0    1
 -2       682       683       807      2845      3224      3225
 -1      1468    8    0    1
 -2       682       807       806      3225      3226      3221
 -1      1469    8    0    1
 -2       683       684       808      2848      3227      3228
 -1      1470    8    0    1
 -2       683       808       807      3228      3229      3224
 -1      1471    8    0    1
 -2       684       685       809      2851      3230      3231
 -1      1472    8    0    1
 -2       684       809       808      3231      3232      3227
 -1      1473    8    0    1
 -2       685       686       810      2854      3233      3234
 -1      1474    8    0    1
 -2       685       810       809      3234      3235      3230
 -1      1475    8    0    1
 -2       686       687       811      2857      3236      3237
 -1      1476    8    0    1
 -2       686       811       810      3237      3238      3233
 -1      1477    8    0    1
 -2       687       688       812      2860      3239      3240
 -1      1478    8    0    1
 -2       687       812       811      3240      3241      3236
 -1      1479    8    0    1
 -2       688       689       813      2863      3242      3243
 -1      1480    8    0    1
 -2       688       813       812      3243      3244      3239
 -1      1481    8    0    1
 -2       689       690       814      2866      3245      3246
 -1      1482    8    0    1
 -2       689       814       813      3246      3247      3242
 -1      1483    8    0    1
 -2       691       692       755      2872      3248      3249
 -1      1484    8    0    1
 -2       692       693       757      2875      3250      3251
 -1      1485    8    0    1
 -2       694       695       728      2881      3252      3253
 -1      1486    8    0    1
 -2       695       696       734      2884      3254      3255
 -1      1487    8    0    1
 -2       697       698       815      2890      3256      3257
 -1      1488    8    0    1
 -2       698       699       816      2893      3258      3259
 -1      1489    8    0    1
 -2       698       816       815      3259      3260      3256
 -1      1490    8    0    1
 -2       699       700       817      2896      3261      3262
 -1      1491    8    0    1
 -2       699       817       816      3262      3263      3258
 -1      1492    8    0    1
 -2       700       701       818      2899      3264      3265
 -1      1493    8    0    1
 -2       700       818       817      3265      3266      3261
 -1      1494    8    0    1
 -2       701       702       819      2902      3267      3268
 -1      1495    8    0    1
 -2       701       819       818      3268      3269      3264
 -1      1496    8    0    1
 -2       702       703       820      2905      3270      3271
 -1      1497    8    0    1
 -2       702       820       819      3271      3272      3267
 -1      1498    8    0    1
 -2       703       704       821      2908      3273      3274
 -1      1499    8    0    1
 -2       820       703       821      3270      3274      3275
 -1      1500    8    0    1
 -2       704       746       821      3021      3276      3273
 -1      1501    8    0    1
 -2       736       596       720      2991      2950      3277
 -1      1502    8    0    1
 -2       732       729       822      3057      3278      3279
 -1      1503    8    0    1
 -2       706       708       823      2918      3280      3281
 -1      1504    8    0    1
 -2       712       713       824      2933      3282      3283
 -1      1505    8    0    1
 -2       708       711       825      2927      3284      3285
 -1      1506    8    0    1
 -2       708       825       823      3285      3286      3280
 -1      1507    8    0    1
 -2       618       617       826      2655      3287      3288
 -1      1508    8    0    1
 -2       613       592       755      2626      3068      3289
 -1      1509    8    0    1
 -2       614       732       827      3043      3290      3291
 -1      1510    8    0    1
 -2       615       735       828      3045      3292      3293
 -1      1511    8    0    1
 -2       755       622       691      3067      3294      3249
 -1      1512    8    0    1
 -2       757       589       613      3073      2628      3295
 -1      1513    8    0    1
 -2       694       728       740      3253      3062      3296
 -1      1514    8    0    1
 -2       695       734       728      3255      3063      3252
 -1      1515    8    0    1
 -2       691       622       829      3294      3297      3298
 -1      1516    8    0    1
 -2       690       691       829      2869      3298      3299
 -1      1517    8    0    1
 -2       622       730       829      2979      3300      3297
 -1      1518    8    0    1
 -2       736       720       830      3277      3301      3302
 -1      1519    8    0    1
 -2       717       718       831      3042      3303      3304
 -1      1520    8    0    1
 -2       716       666       832      2941      3305      3306
 -1      1521    8    0    1
 -2       711       712       833      2930      3307      3308
 -1      1522    8    0    1
 -2       825       711       833      3284      3308      3309
 -1      1523    8    0    1
 -2       712       824       833      3283      3310      3307
 -1      1524    8    0    1
 -2       715       705       834      3036      3311      3312
 -1      1525    8    0    1
 -2       624       623       835      2670      3313      3314
 -1      1526    8    0    1
 -2       624       835       760      3314      3315      3082
 -1      1527    8    0    1
 -2       653       586       737      3059      2994      3316
 -1      1528    8    0    1
 -2       734       696       836      3254      3317      3318
 -1      1529    8    0    1
 -2       721       734       836      3044      3318      3319
 -1      1530    8    0    1
 -2       696       697       836      2887      3320      3317
 -1      1531    8    0    1
 -2       757       693       740      3250      3321      3074
 -1      1532    8    0    1
 -2       666       664       837      2795      3322      3323
 -1      1533    8    0    1
 -2       666       837       832      3323      3324      3305
 -1      1534    8    0    1
 -2       720       733       838      2986      3325      3326
 -1      1535    8    0    1
 -2       731       736       839      3064      3327      3328
 -1      1536    8    0    1
 -2       714       717       840      3037      3329      3330
 -1      1537    8    0    1
 -2       694       740       693      3296      3321      2878
 -1      1538    8    0    1
 -2       718       715       841      3041      3331      3332
 -1      1539    8    0    1
 -2       653       737       654      3316      3333      2759
 -1      1540    8    0    1
 -2       654       737       739      3333      3016      3334
 -1      1541    8    0    1
 -2       654       739       655      3334      3335      2762
 -1      1542    8    0    1
 -2       743       618       842      3006      3336      3337
 -1      1543    8    0    1
 -2       618       826       842      3288      3338      3336
 -1      1544    8    0    1
 -2       739       722       655      3010      3339      3335
 -1      1545    8    0    1
 -2       614       827       748      3291      3340      3028
 -1      1546    8    0    1
 -2       726       619       843      2970      3341      3342
 -1      1547    8    0    1
 -2       619       754       843      3066      3343      3341
 -1      1548    8    0    1
 -2       719       756       844      3071      3344      3345
 -1      1549    8    0    1
 -2       719       844       724      3345      3346      2962
 -1      1550    8    0    1
 -2       742       727       845      3005      3347      3348
 -1      1551    8    0    1
 -2       725       716       846      2966      3349      3350
 -1      1552    8    0    1
 -2       758       725       846      3078      3350      3351
 -1      1553    8    0    1
 -2       716       832       846      3306      3352      3349
 -1      1554    8    0    1
 -2       650       785       822      3157      3353      3354
 -1      1555    8    0    1
 -2       651       650       822      2751      3354      3355
 -1      1556    8    0    1
 -2       652       651       738      2754      3356      3357
 -1      1557    8    0    1
 -2       667       794       847      3186      3358      3359
 -1      1558    8    0    1
 -2       667       847       723      3359      3360      2958
 -1      1559    8    0    1
 -2       623       724       844      2961      3346      3361
 -1      1560    8    0    1
 -2       657       747       786      3161      3362      3162
 -1      1561    8    0    1
 -2       745       721       836      3019      3319      3363
 -1      1562    8    0    1
 -2       757       613       692      3295      3364      3251
 -1      1563    8    0    1
 -2       814       690       829      3245      3299      3365
 -1      1564    8    0    1
 -2       830       720       838      3301      3326      3366
 -1      1565    8    0    1
 -2       718       841       831      3332      3367      3303
 -1      1566    8    0    1
 -2       697       815       836      3257      3368      3320
 -1      1567    8    0    1
 -2       841       715       834      3331      3312      3369
 -1      1568    8    0    1
 -2       652       738       710      3357      3011      3370
 -1      1569    8    0    1
 -2       738       651       729      3356      3371      3061
 -1      1570    8    0    1
 -2       729       651       822      3371      3355      3278
 -1      1571    8    0    1
 -2       845       727       848      3347      3372      3373
 -1      1572    8    0    1
 -2       727       752       848      3050      3374      3372
 -1      1573    8    0    1
 -2       707       709       849      2921      3375      3376
 -1      1574    8    0    1
 -2       706       823       850      3281      3377      3378
 -1      1575    8    0    1
 -2       706       850       709      3378      3379      2922
 -1      1576    8    0    1
 -2       749       615       828      3031      3293      3380
 -1      1577    8    0    1
 -2       826       617       851      3287      3381      3382
 -1      1578    8    0    1
 -2       617       726       851      2969      3383      3381
 -1      1579    8    0    1
 -2       751       741       852      3040      3384      3385
 -1      1580    8    0    1
 -2       741       759       852      3080      3386      3384
 -1      1581    8    0    1
 -2       623       844       835      3361      3387      3313
 -1      1582    8    0    1
 -2       827       732       785      3290      3388      3389
 -1      1583    8    0    1
 -2       735       748       853      3027      3390      3391
 -1      1584    8    0    1
 -2       735       853       828      3391      3392      3292
 -1      1585    8    0    1
 -2       717       831       840      3304      3393      3329
 -1      1586    8    0    1
 -2       707       849       854      3376      3394      3395
 -1      1587    8    0    1
 -2       707       854       753      3395      3396      3056
 -1      1588    8    0    1
 -2       664       723       855      2957      3397      3398
 -1      1589    8    0    1
 -2       837       664       855      3322      3398      3399
 -1      1590    8    0    1
 -2       723       847       855      3360      3400      3397
 -1      1591    8    0    1
 -2       834       705       856      3311      3401      3402
 -1      1592    8    0    1
 -2       705       745       856      3018      3403      3401
 -1      1593    8    0    1
 -2       759       714       840      3079      3330      3404
 -1      1594    8    0    1
 -2       713       750       857      3034      3405      3406
 -1      1595    8    0    1
 -2       824       713       857      3282      3406      3407
 -1      1596    8    0    1
 -2       750       791       857      3178      3408      3405
 -1      1597    8    0    1
 -2       732       822       785      3279      3353      3388
 -1      1598    8    0    1
 -2       730       731       858      3058      3409      3410
 -1      1599    8    0    1
 -2       829       730       858      3300      3410      3411
 -1      1600    8    0    1
 -2       731       839       858      3328      3412      3409
 -1      1601    8    0    1
 -2       838       733       749      3325      3030      3413
 -1      1602    8    0    1
 -2       736       830       839      3302      3414      3327
 -1      1603    8    0    1
 -2       844       756       742      3344      3072      3415
 -1      1604    8    0    1
 -2       849       709       850      3375      3379      3416
 -1      1605    8    0    1
 -2       761       760       859      3086      3417      3418
 -1      1606    8    0    1
 -2       744       652       710      3081      3370      3047
 -1      1607    8    0    1
 -2       762       761       860      3089      3419      3420
 -1      1608    8    0    1
 -2       761       859       860      3418      3421      3419
 -1      1609    8    0    1
 -2       763       762       861      3092      3422      3423
 -1      1610    8    0    1
 -2       762       860       861      3420      3424      3422
 -1      1611    8    0    1
 -2       764       763       862      3095      3425      3426
 -1      1612    8    0    1
 -2       763       861       862      3423      3427      3425
 -1      1613    8    0    1
 -2       765       764       863      3098      3428      3429
 -1      1614    8    0    1
 -2       764       862       863      3426      3430      3428
 -1      1615    8    0    1
 -2       766       765       864      3101      3431      3432
 -1      1616    8    0    1
 -2       765       863       864      3429      3433      3431
 -1      1617    8    0    1
 -2       767       766       865      3104      3434      3435
 -1      1618    8    0    1
 -2       766       864       865      3432      3436      3434
 -1      1619    8    0    1
 -2       768       767       866      3107      3437      3438
 -1      1620    8    0    1
 -2       767       865       866      3435      3439      3437
 -1      1621    8    0    1
 -2       769       768       867      3110      3440      3441
 -1      1622    8    0    1
 -2       768       866       867      3438      3442      3440
 -1      1623    8    0    1
 -2       770       769       868      3113      3443      3444
 -1      1624    8    0    1
 -2       769       867       868      3441      3445      3443
 -1      1625    8    0    1
 -2       771       770       869      3116      3446      3447
 -1      1626    8    0    1
 -2       770       868       869      3444      3448      3446
 -1      1627    8    0    1
 -2       772       771       870      3119      3449      3450
 -1      1628    8    0    1
 -2       771       869       870      3447      3451      3449
 -1      1629    8    0    1
 -2       773       772       871      3122      3452      3453
 -1      1630    8    0    1
 -2       772       870       871      3450      3454      3452
 -1      1631    8    0    1
 -2       774       773       872      3125      3455      3456
 -1      1632    8    0    1
 -2       773       871       872      3453      3457      3455
 -1      1633    8    0    1
 -2       775       774       873      3128      3458      3459
 -1      1634    8    0    1
 -2       774       872       873      3456      3460      3458
 -1      1635    8    0    1
 -2       776       775       874      3131      3461      3462
 -1      1636    8    0    1
 -2       775       873       874      3459      3463      3461
 -1      1637    8    0    1
 -2       777       776       875      3134      3464      3465
 -1      1638    8    0    1
 -2       776       874       875      3462      3466      3464
 -1      1639    8    0    1
 -2       778       777       876      3137      3467      3468
 -1      1640    8    0    1
 -2       777       875       876      3465      3469      3467
 -1      1641    8    0    1
 -2       779       778       877      3140      3470      3471
 -1      1642    8    0    1
 -2       778       876       877      3468      3472      3470
 -1      1643    8    0    1
 -2       780       779       878      3143      3473      3474
 -1      1644    8    0    1
 -2       779       877       878      3471      3475      3473
 -1      1645    8    0    1
 -2       781       780       879      3146      3476      3477
 -1      1646    8    0    1
 -2       780       878       879      3474      3478      3476
 -1      1647    8    0    1
 -2       782       781       880      3149      3479      3480
 -1      1648    8    0    1
 -2       781       879       880      3477      3481      3479
 -1      1649    8    0    1
 -2       783       782       881      3152      3482      3483
 -1      1650    8    0    1
 -2       782       880       881      3480      3484      3482
 -1      1651    8    0    1
 -2       784       783       882      3155      3485      3486
 -1      1652    8    0    1
 -2       783       881       882      3483      3487      3485
 -1      1653    8    0    1
 -2       785       784       883      3158      3488      3489
 -1      1654    8    0    1
 -2       827       785       883      3389      3489      3490
 -1      1655    8    0    1
 -2       784       882       883      3486      3491      3488
 -1      1656    8    0    1
 -2       745       836       815      3363      3368      3492
 -1      1657    8    0    1
 -2       788       787       884      3169      3493      3494
 -1      1658    8    0    1
 -2       789       788       885      3172      3495      3496
 -1      1659    8    0    1
 -2       788       884       885      3494      3497      3495
 -1      1660    8    0    1
 -2       790       789       886      3175      3498      3499
 -1      1661    8    0    1
 -2       789       885       886      3496      3500      3498
 -1      1662    8    0    1
 -2       793       792       887      3184      3501      3502
 -1      1663    8    0    1
 -2       742       845       844      3348      3503      3415
 -1      1664    8    0    1
 -2       792       795       888      3190      3504      3505
 -1      1665    8    0    1
 -2       792       888       887      3505      3506      3501
 -1      1666    8    0    1
 -2       794       793       889      3187      3507      3508
 -1      1667    8    0    1
 -2       793       887       889      3502      3509      3507
 -1      1668    8    0    1
 -2       796       797       890      3196      3510      3511
 -1      1669    8    0    1
 -2       797       798       891      3199      3512      3513
 -1      1670    8    0    1
 -2       797       891       890      3513      3514      3510
 -1      1671    8    0    1
 -2       798       799       892      3202      3515      3516
 -1      1672    8    0    1
 -2       798       892       891      3516      3517      3512
 -1      1673    8    0    1
 -2       799       800       893      3205      3518      3519
 -1      1674    8    0    1
 -2       799       893       892      3519      3520      3515
 -1      1675    8    0    1
 -2       800       801       894      3208      3521      3522
 -1      1676    8    0    1
 -2       800       894       893      3522      3523      3518
 -1      1677    8    0    1
 -2       801       802       895      3211      3524      3525
 -1      1678    8    0    1
 -2       801       895       894      3525      3526      3521
 -1      1679    8    0    1
 -2       802       803       896      3214      3527      3528
 -1      1680    8    0    1
 -2       802       896       895      3528      3529      3524
 -1      1681    8    0    1
 -2       803       804       897      3217      3530      3531
 -1      1682    8    0    1
 -2       803       897       896      3531      3532      3527
 -1      1683    8    0    1
 -2       804       805       898      3220      3533      3534
 -1      1684    8    0    1
 -2       804       898       897      3534      3535      3530
 -1      1685    8    0    1
 -2       805       806       899      3223      3536      3537
 -1      1686    8    0    1
 -2       805       899       898      3537      3538      3533
 -1      1687    8    0    1
 -2       806       807       900      3226      3539      3540
 -1      1688    8    0    1
 -2       806       900       899      3540      3541      3536
 -1      1689    8    0    1
 -2       807       808       901      3229      3542      3543
 -1      1690    8    0    1
 -2       807       901       900      3543      3544      3539
 -1      1691    8    0    1
 -2       808       809       902      3232      3545      3546
 -1      1692    8    0    1
 -2       808       902       901      3546      3547      3542
 -1      1693    8    0    1
 -2       809       810       903      3235      3548      3549
 -1      1694    8    0    1
 -2       809       903       902      3549      3550      3545
 -1      1695    8    0    1
 -2       810       811       904      3238      3551      3552
 -1      1696    8    0    1
 -2       810       904       903      3552      3553      3548
 -1      1697    8    0    1
 -2       811       812       905      3241      3554      3555
 -1      1698    8    0    1
 -2       811       905       904      3555      3556      3551
 -1      1699    8    0    1
 -2       812       813       906      3244      3557      3558
 -1      1700    8    0    1
 -2       812       906       905      3558      3559      3554
 -1      1701    8    0    1
 -2       814       829       858      3365      3411      3560
 -1      1702    8    0    1
 -2       831       841       907      3367      3561      3562
 -1      1703    8    0    1
 -2       815       816       856      3260      3563      3564
 -1      1704    8    0    1
 -2       818       819       908      3269      3565      3566
 -1      1705    8    0    1
 -2       819       820       909      3272      3567      3568
 -1      1706    8    0    1
 -2       819       909       908      3568      3569      3565
 -1      1707    8    0    1
 -2       817       818       910      3266      3570      3571
 -1      1708    8    0    1
 -2       818       908       910      3566      3572      3570
 -1      1709    8    0    1
 -2       747       612       911      3023      3573      3574
 -1      1710    8    0    1
 -2       749       828       912      3380      3575      3576
 -1      1711    8    0    1
 -2       823       825       913      3286      3577      3578
 -1      1712    8    0    1
 -2       795       796       914      3193      3579      3580
 -1      1713    8    0    1
 -2       796       890       914      3511      3581      3579
 -1      1714    8    0    1
 -2       835       844       845      3387      3503      3582
 -1      1715    8    0    1
 -2       752       743       915      3051      3583      3584
 -1      1716    8    0    1
 -2       752       915       848      3584      3585      3374
 -1      1717    8    0    1
 -2       760       835       916      3315      3586      3587
 -1      1718    8    0    1
 -2       760       916       859      3587      3588      3417
 -1      1719    8    0    1
 -2       816       817       917      3263      3589      3590
 -1      1720    8    0    1
 -2       817       910       917      3571      3591      3589
 -1      1721    8    0    1
 -2       841       834       918      3369      3592      3593
 -1      1722    8    0    1
 -2       830       838       919      3366      3594      3595
 -1      1723    8    0    1
 -2       612       751       911      3039      3596      3573
 -1      1724    8    0    1
 -2       840       831       920      3393      3597      3598
 -1      1725    8    0    1
 -2       831       907       920      3562      3599      3597
 -1      1726    8    0    1
 -2       787       786       852      3166      3600      3601
 -1      1727    8    0    1
 -2       838       749       921      3413      3602      3603
 -1      1728    8    0    1
 -2       749       912       921      3576      3604      3602
 -1      1729    8    0    1
 -2       745       815       856      3492      3564      3403
 -1      1730    8    0    1
 -2       839       830       922      3414      3605      3606
 -1      1731    8    0    1
 -2       759       840       923      3404      3607      3608
 -1      1732    8    0    1
 -2       746       753       924      3055      3609      3610
 -1      1733    8    0    1
 -2       821       746       924      3276      3610      3611
 -1      1734    8    0    1
 -2       753       854       924      3396      3612      3609
 -1      1735    8    0    1
 -2       832       837       925      3324      3613      3614
 -1      1736    8    0    1
 -2       748       827       883      3340      3490      3615
 -1      1737    8    0    1
 -2       835       845       926      3582      3616      3617
 -1      1738    8    0    1
 -2       916       835       926      3586      3617      3618
 -1      1739    8    0    1
 -2       845       848       926      3373      3619      3616
 -1      1740    8    0    1
 -2       846       832       927      3352      3620      3621
 -1      1741    8    0    1
 -2       832       925       927      3614      3622      3620
 -1      1742    8    0    1
 -2       843       754       928      3343      3623      3624
 -1      1743    8    0    1
 -2       912       828       929      3575      3625      3626
 -1      1744    8    0    1
 -2       828       853       929      3392      3627      3625
 -1      1745    8    0    1
 -2       816       917       856      3590      3628      3563
 -1      1746    8    0    1
 -2       858       839       930      3412      3629      3630
 -1      1747    8    0    1
 -2       847       794       931      3358      3631      3632
 -1      1748    8    0    1
 -2       794       889       931      3508      3633      3631
 -1      1749    8    0    1
 -2       841       918       932      3593      3634      3635
 -1      1750    8    0    1
 -2       841       932       907      3635      3636      3561
 -1      1751    8    0    1
 -2       747       655       722      3159      3339      3025
 -1      1752    8    0    1
 -2       743       842       915      3337      3637      3583
 -1      1753    8    0    1
 -2       884       787       852      3493      3601      3638
 -1      1754    8    0    1
 -2       791       790       933      3179      3639      3640
 -1      1755    8    0    1
 -2       857       791       933      3408      3640      3641
 -1      1756    8    0    1
 -2       790       886       933      3499      3642      3639
 -1      1757    8    0    1
 -2       888       795       914      3504      3580      3643
 -1      1758    8    0    1
 -2       814       858       930      3560      3630      3644
 -1      1759    8    0    1
 -2       906       813       930      3557      3645      3646
 -1      1760    8    0    1
 -2       813       814       930      3247      3644      3645
 -1      1761    8    0    1
 -2       755       692       613      3248      3364      3289
 -1      1762    8    0    1
 -2       922       830       919      3605      3595      3647
 -1      1763    8    0    1
 -2       747       911       786      3574      3648      3362
 -1      1764    8    0    1
 -2       820       821       924      3275      3611      3649
 -1      1765    8    0    1
 -2       925       837       934      3613      3650      3651
 -1      1766    8    0    1
 -2       837       855       934      3399      3652      3650
 -1      1767    8    0    1
 -2       840       920       923      3598      3653      3607
 -1      1768    8    0    1
 -2       820       924       909      3649      3654      3567
 -1      1769    8    0    1
 -2       726       843       851      3342      3655      3383
 -1      1770    8    0    1
 -2       823       913       935      3578      3656      3657
 -1      1771    8    0    1
 -2       823       935       850      3657      3658      3377
 -1      1772    8    0    1
 -2       919       838       921      3594      3603      3659
 -1      1773    8    0    1
 -2       852       759       936      3386      3660      3661
 -1      1774    8    0    1
 -2       759       923       936      3608      3662      3660
 -1      1775    8    0    1
 -2       826       851       937      3382      3663      3664
 -1      1776    8    0    1
 -2       854       849       938      3394      3665      3666
 -1      1777    8    0    1
 -2       825       833       939      3309      3667      3668
 -1      1778    8    0    1
 -2       825       939       913      3668      3669      3577
 -1      1779    8    0    1
 -2       842       826       940      3338      3670      3671
 -1      1780    8    0    1
 -2       826       937       940      3664      3672      3670
 -1      1781    8    0    1
 -2       930       839       922      3629      3606      3673
 -1      1782    8    0    1
 -2       911       751       852      3596      3385      3674
 -1      1783    8    0    1
 -2       852       786       911      3600      3648      3674
 -1      1784    8    0    1
 -2       824       857       933      3407      3641      3675
 -1      1785    8    0    1
 -2       849       850       941      3416      3676      3677
 -1      1786    8    0    1
 -2       938       849       941      3665      3677      3678
 -1      1787    8    0    1
 -2       850       935       941      3658      3679      3676
 -1      1788    8    0    1
 -2       833       824       942      3310      3680      3681
 -1      1789    8    0    1
 -2       939       833       942      3667      3681      3682
 -1      1790    8    0    1
 -2       824       933       942      3675      3683      3680
 -1      1791    8    0    1
 -2       748       883       943      3615      3684      3685
 -1      1792    8    0    1
 -2       853       748       943      3390      3685      3686
 -1      1793    8    0    1
 -2       883       882       943      3491      3687      3684
 -1      1794    8    0    1
 -2       928       754       846      3623      3688      3689
 -1      1795    8    0    1
 -2       754       758       846      3077      3351      3688
 -1      1796    8    0    1
 -2       851       843       944      3655      3690      3691
 -1      1797    8    0    1
 -2       937       851       944      3663      3691      3692
 -1      1798    8    0    1
 -2       843       928       944      3624      3693      3690
 -1      1799    8    0    1
 -2       859       916       945      3588      3694      3695
 -1      1800    8    0    1
 -2       861       860       946      3424      3696      3697
 -1      1801    8    0    1
 -2       862       861       947      3427      3698      3699
 -1      1802    8    0    1
 -2       861       946       947      3697      3700      3698
 -1      1803    8    0    1
 -2       863       862       948      3430      3701      3702
 -1      1804    8    0    1
 -2       862       947       948      3699      3703      3701
 -1      1805    8    0    1
 -2       864       863       949      3433      3704      3705
 -1      1806    8    0    1
 -2       863       948       949      3702      3706      3704
 -1      1807    8    0    1
 -2       865       864       950      3436      3707      3708
 -1      1808    8    0    1
 -2       864       949       950      3705      3709      3707
 -1      1809    8    0    1
 -2       866       865       951      3439      3710      3711
 -1      1810    8    0    1
 -2       865       950       951      3708      3712      3710
 -1      1811    8    0    1
 -2       867       866       952      3442      3713      3714
 -1      1812    8    0    1
 -2       866       951       952      3711      3715      3713
 -1      1813    8    0    1
 -2       868       867       953      3445      3716      3717
 -1      1814    8    0    1
 -2       867       952       953      3714      3718      3716
 -1      1815    8    0    1
 -2       869       868       954      3448      3719      3720
 -1      1816    8    0    1
 -2       868       953       954      3717      3721      3719
 -1      1817    8    0    1
 -2       870       869       955      3451      3722      3723
 -1      1818    8    0    1
 -2       869       954       955      3720      3724      3722
 -1      1819    8    0    1
 -2       871       870       956      3454      3725      3726
 -1      1820    8    0    1
 -2       870       955       956      3723      3727      3725
 -1      1821    8    0    1
 -2       872       871       957      3457      3728      3729
 -1      1822    8    0    1
 -2       871       956       957      3726      3730      3728
 -1      1823    8    0    1
 -2       873       872       958      3460      3731      3732
 -1      1824    8    0    1
 -2       872       957       958      3729      3733      3731
 -1      1825    8    0    1
 -2       874       873       959      3463      3734      3735
 -1      1826    8    0    1
 -2       873       958       959      3732      3736      3734
 -1      1827    8    0    1
 -2       875       874       960      3466      3737      3738
 -1      1828    8    0    1
 -2       874       959       960      3735      3739      3737
 -1      1829    8    0    1
 -2       876       875       961      3469      3740      3741
 -1      1830    8    0    1
 -2       875       960       961      3738      3742      3740
 -1      1831    8    0    1
 -2       877       876       962      3472      3743      3744
 -1      1832    8    0    1
 -2       876       961       962      3741      3745      3743
 -1      1833    8    0    1
 -2       878       877       963      3475      3746      3747
 -1      1834    8    0    1
 -2       877       962       963      3744      3748      3746
 -1      1835    8    0    1
 -2       879       878       964      3478      3749      3750
 -1      1836    8    0    1
 -2       878       963       964      3747      3751      3749
 -1      1837    8    0    1
 -2       880       879       965      3481      3752      3753
 -1      1838    8    0    1
 -2       879       964       965      3750      3754      3752
 -1      1839    8    0    1
 -2       881       880       966      3484      3755      3756
 -1      1840    8    0    1
 -2       880       965       966      3753      3757      3755
 -1      1841    8    0    1
 -2       882       881       967      3487      3758      3759
 -1      1842    8    0    1
 -2       943       882       967      3687      3759      3760
 -1      1843    8    0    1
 -2       881       966       967      3756      3761      3758
 -1      1844    8    0    1
 -2       928       846       927      3689      3621      3762
 -1      1845    8    0    1
 -2       892       893       968      3520      3763      3764
 -1      1846    8    0    1
 -2       834       856       969      3402      3765      3766
 -1      1847    8    0    1
 -2       933       886       942      3642      3767      3683
 -1      1848    8    0    1
 -2       886       885       970      3500      3768      3769
 -1      1849    8    0    1
 -2       848       915       971      3585      3770      3771
 -1      1850    8    0    1
 -2       848       971       926      3771      3772      3619
 -1      1851    8    0    1
 -2       889       887       972      3509      3773      3774
 -1      1852    8    0    1
 -2       891       892       973      3517      3775      3776
 -1      1853    8    0    1
 -2       892       968       973      3764      3777      3775
 -1      1854    8    0    1
 -2       890       891       974      3514      3778      3779
 -1      1855    8    0    1
 -2       891       973       974      3776      3780      3778
 -1      1856    8    0    1
 -2       893       894       975      3523      3781      3782
 -1      1857    8    0    1
 -2       893       975       968      3782      3783      3763
 -1      1858    8    0    1
 -2       894       895       976      3526      3784      3785
 -1      1859    8    0    1
 -2       894       976       975      3785      3786      3781
 -1      1860    8    0    1
 -2       895       896       977      3529      3787      3788
 -1      1861    8    0    1
 -2       895       977       976      3788      3789      3784
 -1      1862    8    0    1
 -2       896       897       978      3532      3790      3791
 -1      1863    8    0    1
 -2       896       978       977      3791      3792      3787
 -1      1864    8    0    1
 -2       897       898       979      3535      3793      3794
 -1      1865    8    0    1
 -2       897       979       978      3794      3795      3790
 -1      1866    8    0    1
 -2       898       899       980      3538      3796      3797
 -1      1867    8    0    1
 -2       898       980       979      3797      3798      3793
 -1      1868    8    0    1
 -2       899       900       981      3541      3799      3800
 -1      1869    8    0    1
 -2       899       981       980      3800      3801      3796
 -1      1870    8    0    1
 -2       900       901       982      3544      3802      3803
 -1      1871    8    0    1
 -2       900       982       981      3803      3804      3799
 -1      1872    8    0    1
 -2       901       902       983      3547      3805      3806
 -1      1873    8    0    1
 -2       901       983       982      3806      3807      3802
 -1      1874    8    0    1
 -2       902       903       984      3550      3808      3809
 -1      1875    8    0    1
 -2       902       984       983      3809      3810      3805
 -1      1876    8    0    1
 -2       903       904       985      3553      3811      3812
 -1      1877    8    0    1
 -2       903       985       984      3812      3813      3808
 -1      1878    8    0    1
 -2       904       905       986      3556      3814      3815
 -1      1879    8    0    1
 -2       904       986       985      3815      3816      3811
 -1      1880    8    0    1
 -2       906       930       922      3646      3673      3817
 -1      1881    8    0    1
 -2       908       909       987      3569      3818      3819
 -1      1882    8    0    1
 -2       910       908       988      3572      3820      3821
 -1      1883    8    0    1
 -2       908       987       988      3819      3822      3820
 -1      1884    8    0    1
 -2       924       854       909      3612      3823      3654
 -1      1885    8    0    1
 -2       860       859       989      3421      3824      3825
 -1      1886    8    0    1
 -2       859       945       989      3695      3826      3824
 -1      1887    8    0    1
 -2       915       842       990      3637      3827      3828
 -1      1888    8    0    1
 -2       842       940       990      3671      3829      3827
 -1      1889    8    0    1
 -2       922       919       991      3647      3830      3831
 -1      1890    8    0    1
 -2       884       852       936      3638      3661      3832
 -1      1891    8    0    1
 -2       888       914       992      3643      3833      3834
 -1      1892    8    0    1
 -2       885       884       993      3497      3835      3836
 -1      1893    8    0    1
 -2       970       885       993      3768      3836      3837
 -1      1894    8    0    1
 -2       884       936       993      3832      3838      3835
 -1      1895    8    0    1
 -2       855       847       994      3400      3839      3840
 -1      1896    8    0    1
 -2       847       931       994      3632      3841      3839
 -1      1897    8    0    1
 -2       917       910       995      3591      3842      3843
 -1      1898    8    0    1
 -2       910       988       995      3821      3844      3842
 -1      1899    8    0    1
 -2       919       921       996      3659      3845      3846
 -1      1900    8    0    1
 -2       923       920       997      3653      3847      3848
 -1      1901    8    0    1
 -2       918       834       969      3592      3766      3849
 -1      1902    8    0    1
 -2       920       907       998      3599      3850      3851
 -1      1903    8    0    1
 -2       914       890       999      3581      3852      3853
 -1      1904    8    0    1
 -2       890       974       999      3779      3854      3852
 -1      1905    8    0    1
 -2       887       888      1000      3506      3855      3856
 -1      1906    8    0    1
 -2       888       992      1000      3834      3857      3855
 -1      1907    8    0    1
 -2       921       912      1001      3604      3858      3859
 -1      1908    8    0    1
 -2       906       922       991      3817      3831      3860
 -1      1909    8    0    1
 -2       918       969       995      3849      3861      3862
 -1      1910    8    0    1
 -2       912       929      1002      3626      3863      3864
 -1      1911    8    0    1
 -2       912      1002      1001      3864      3865      3858
 -1      1912    8    0    1
 -2       931       889      1003      3633      3866      3867
 -1      1913    8    0    1
 -2       889       972      1003      3774      3868      3866
 -1      1914    8    0    1
 -2       944       928      1004      3693      3869      3870
 -1      1915    8    0    1
 -2       928       927      1004      3762      3871      3869
 -1      1916    8    0    1
 -2       932       918       995      3634      3862      3872
 -1      1917    8    0    1
 -2       946       860       989      3696      3825      3873
 -1      1918    8    0    1
 -2       971       915       990      3770      3828      3874
 -1      1919    8    0    1
 -2       920       998       997      3851      3875      3847
 -1      1920    8    0    1
 -2       942       886       970      3767      3769      3876
 -1      1921    8    0    1
 -2       929       853      1005      3627      3877      3878
 -1      1922    8    0    1
 -2      1002       929      1005      3863      3878      3879
 -1      1923    8    0    1
 -2       853       943      1005      3686      3880      3877
 -1      1924    8    0    1
 -2       907       932       998      3636      3881      3850
 -1      1925    8    0    1
 -2       972       887      1000      3773      3856      3882
 -1      1926    8    0    1
 -2       986       905       991      3814      3883      3884
 -1      1927    8    0    1
 -2       905       906       991      3559      3860      3883
 -1      1928    8    0    1
 -2       919       996       991      3846      3885      3830
 -1      1929    8    0    1
 -2       934       855       994      3652      3840      3886
 -1      1930    8    0    1
 -2       916       926       945      3618      3887      3694
 -1      1931    8    0    1
 -2       969       856       917      3765      3628      3888
 -1      1932    8    0    1
 -2       935       913      1006      3656      3889      3890
 -1      1933    8    0    1
 -2       936       923      1007      3662      3891      3892
 -1      1934    8    0    1
 -2       993       936      1007      3838      3892      3893
 -1      1935    8    0    1
 -2       923       997      1007      3848      3894      3891
 -1      1936    8    0    1
 -2       969       917       995      3888      3843      3861
 -1      1937    8    0    1
 -2      1006       913      1008      3889      3895      3896
 -1      1938    8    0    1
 -2       913       939      1008      3669      3897      3895
 -1      1939    8    0    1
 -2       937       944      1009      3692      3898      3899
 -1      1940    8    0    1
 -2       944      1004      1009      3870      3900      3898
 -1      1941    8    0    1
 -2       854       938       909      3666      3901      3823
 -1      1942    8    0    1
 -2       992       914       999      3833      3853      3902
 -1      1943    8    0    1
 -2       927       925      1004      3622      3903      3871
 -1      1944    8    0    1
 -2       937      1009      1010      3899      3904      3905
 -1      1945    8    0    1
 -2       937      1010       940      3905      3906      3672
 -1      1946    8    0    1
 -2       996       921      1001      3845      3859      3907
 -1      1947    8    0    1
 -2      1004       925      1011      3903      3908      3909
 -1      1948    8    0    1
 -2       925       934      1011      3651      3910      3908
 -1      1949    8    0    1
 -2       909       938       987      3901      3911      3818
 -1      1950    8    0    1
 -2       987       938      1012      3911      3912      3913
 -1      1951    8    0    1
 -2       988       987      1012      3822      3913      3914
 -1      1952    8    0    1
 -2       938       941      1012      3678      3915      3912
 -1      1953    8    0    1
 -2       973       968      1013      3777      3916      3917
 -1      1954    8    0    1
 -2       947       946      1014      3700      3918      3919
 -1      1955    8    0    1
 -2       932       995      1015      3872      3920      3921
 -1      1956    8    0    1
 -2       995       988      1015      3844      3922      3920
 -1      1957    8    0    1
 -2       948       947      1016      3703      3923      3924
 -1      1958    8    0    1
 -2       947      1014      1016      3919      3925      3923
 -1      1959    8    0    1
 -2       949       948      1017      3706      3926      3927
 -1      1960    8    0    1
 -2       948      1016      1017      3924      3928      3926
 -1      1961    8    0    1
 -2       950       949      1018      3709      3929      3930
 -1      1962    8    0    1
 -2       949      1017      1018      3927      3931      3929
 -1      1963    8    0    1
 -2       951       950      1019      3712      3932      3933
 -1      1964    8    0    1
 -2       950      1018      1019      3930      3934      3932
 -1      1965    8    0    1
 -2       952       951      1020      3715      3935      3936
 -1      1966    8    0    1
 -2       951      1019      1020      3933      3937      3935
 -1      1967    8    0    1
 -2       953       952      1021      3718      3938      3939
 -1      1968    8    0    1
 -2       952      1020      1021      3936      3940      3938
 -1      1969    8    0    1
 -2       954       953      1022      3721      3941      3942
 -1      1970    8    0    1
 -2       953      1021      1022      3939      3943      3941
 -1      1971    8    0    1
 -2       955       954      1023      3724      3944      3945
 -1      1972    8    0    1
 -2       954      1022      1023      3942      3946      3944
 -1      1973    8    0    1
 -2       956       955      1024      3727      3947      3948
 -1      1974    8    0    1
 -2       955      1023      1024      3945      3949      3947
 -1      1975    8    0    1
 -2       957       956      1025      3730      3950      3951
 -1      1976    8    0    1
 -2       956      1024      1025      3948      3952      3950
 -1      1977    8    0    1
 -2       958       957      1026      3733      3953      3954
 -1      1978    8    0    1
 -2       957      1025      1026      3951      3955      3953
 -1      1979    8    0    1
 -2       959       958      1027      3736      3956      3957
 -1      1980    8    0    1
 -2       958      1026      1027      3954      3958      3956
 -1      1981    8    0    1
 -2       960       959      1028      3739      3959      3960
 -1      1982    8    0    1
 -2       959      1027      1028      3957      3961      3959
 -1      1983    8    0    1
 -2       961       960      1029      3742      3962      3963
 -1      1984    8    0    1
 -2       960      1028      1029      3960      3964      3962
 -1      1985    8    0    1
 -2       962       961      1030      3745      3965      3966
 -1      1986    8    0    1
 -2       961      1029      1030      3963      3967      3965
 -1      1987    8    0    1
 -2       963       962      1031      3748      3968      3969
 -1      1988    8    0    1
 -2       962      1030      1031      3966      3970      3968
 -1      1989    8    0    1
 -2       964       963      1032      3751      3971      3972
 -1      1990    8    0    1
 -2       963      1031      1032      3969      3973      3971
 -1      1991    8    0    1
 -2       965       964      1033      3754      3974      3975
 -1      1992    8    0    1
 -2       964      1032      1033      3972      3976      3974
 -1      1993    8    0    1
 -2       966       965      1034      3757      3977      3978
 -1      1994    8    0    1
 -2       965      1033      1034      3975      3979      3977
 -1      1995    8    0    1
 -2       975       976      1035      3786      3980      3981
 -1      1996    8    0    1
 -2       994       931      1036      3841      3982      3983
 -1      1997    8    0    1
 -2       931      1003      1036      3867      3984      3982
 -1      1998    8    0    1
 -2       926       971       945      3772      3985      3887
 -1      1999    8    0    1
 -2       991       996       986      3885      3986      3884
 -1      2000    8    0    1
 -2       968       975      1037      3783      3987      3988
 -1      2001    8    0    1
 -2       975      1035      1037      3981      3989      3987
 -1      2002    8    0    1
 -2       974       973      1038      3780      3990      3991
 -1      2003    8    0    1
 -2       973      1013      1038      3917      3992      3990
 -1      2004    8    0    1
 -2       976       977      1039      3789      3993      3994
 -1      2005    8    0    1
 -2       976      1039      1035      3994      3995      3980
 -1      2006    8    0    1
 -2       977       978      1040      3792      3996      3997
 -1      2007    8    0    1
 -2       977      1040      1039      3997      3998      3993
 -1      2008    8    0    1
 -2       978       979      1041      3795      3999      4000
 -1      2009    8    0    1
 -2       978      1041      1040      4000      4001      3996
 -1      2010    8    0    1
 -2       979       980      1042      3798      4002      4003
 -1      2011    8    0    1
 -2       979      1042      1041      4003      4004      3999
 -1      2012    8    0    1
 -2       980       981      1043      3801      4005      4006
 -1      2013    8    0    1
 -2       980      1043      1042      4006      4007      4002
 -1      2014    8    0    1
 -2       981       982      1044      3804      4008      4009
 -1      2015    8    0    1
 -2       981      1044      1043      4009      4010      4005
 -1      2016    8    0    1
 -2       982       983      1045      3807      4011      4012
 -1      2017    8    0    1
 -2       982      1045      1044      4012      4013      4008
 -1      2018    8    0    1
 -2       983       984      1046      3810      4014      4015
 -1      2019    8    0    1
 -2       983      1046      1045      4015      4016      4011
 -1      2020    8    0    1
 -2       984       985      1047      3813      4017      4018
 -1      2021    8    0    1
 -2       984      1047      1046      4018      4019      4014
 -1      2022    8    0    1
 -2       985       986      1048      3816      4020      4021
 -1      2023    8    0    1
 -2      1047       985      1048      4017      4021      4022
 -1      2024    8    0    1
 -2       986       996      1048      3986      4023      4020
 -1      2025    8    0    1
 -2       989       945      1049      3826      4024      4025
 -1      2026    8    0    1
 -2      1009      1004      1011      3900      3909      4026
 -1      2027    8    0    1
 -2       990       940      1050      3829      4027      4028
 -1      2028    8    0    1
 -2       940      1010      1050      3906      4029      4027
 -1      2029    8    0    1
 -2       934       994      1051      3886      4030      4031
 -1      2030    8    0    1
 -2       994      1036      1051      3983      4032      4030
 -1      2031    8    0    1
 -2       939       942       970      3682      3876      4033
 -1      2032    8    0    1
 -2       935      1006      1052      3890      4034      4035
 -1      2033    8    0    1
 -2       935      1052       941      4035      4036      3679
 -1      2034    8    0    1
 -2       996      1001      1053      3907      4037      4038
 -1      2035    8    0    1
 -2       996      1053      1048      4038      4039      4023
 -1      2036    8    0    1
 -2       972      1000      1054      3882      4040      4041
 -1      2037    8    0    1
 -2       997       998      1055      3875      4042      4043
 -1      2038    8    0    1
 -2       998       932      1015      3881      3921      4044
 -1      2039    8    0    1
 -2      1011       934      1051      3910      4031      4045
 -1      2040    8    0    1
 -2      1000       992      1056      3857      4046      4047
 -1      2041    8    0    1
 -2      1000      1056      1054      4047      4048      4040
 -1      2042    8    0    1
 -2       946       989      1057      3873      4049      4050
 -1      2043    8    0    1
 -2      1014       946      1057      3918      4050      4051
 -1      2044    8    0    1
 -2       989      1049      1057      4025      4052      4049
 -1      2045    8    0    1
 -2       992       999      1058      3902      4053      4054
 -1      2046    8    0    1
 -2       992      1058      1056      4054      4055      4046
 -1      2047    8    0    1
 -2       999       974      1059      3854      4056      4057
 -1      2048    8    0    1
 -2      1058       999      1059      4053      4057      4058
 -1      2049    8    0    1
 -2       974      1038      1059      3991      4059      4056
 -1      2050    8    0    1
 -2       939       970      1008      4033      4060      3897
 -1      2051    8    0    1
 -2      1009      1011      1060      4026      4061      4062
 -1      2052    8    0    1
 -2      1003       972      1061      3868      4063      4064
 -1      2053    8    0    1
 -2       972      1054      1061      4041      4065      4063
 -1      2054    8    0    1
 -2      1009      1060      1010      4062      4066      3904
 -1      2055    8    0    1
 -2      1011      1051      1062      4045      4067      4068
 -1      2056    8    0    1
 -2      1011      1062      1060      4068      4069      4061
 -1      2057    8    0    1
 -2       943       967      1005      3760      4070      3880
 -1      2058    8    0    1
 -2       967       966      1063      3761      4071      4072
 -1      2059    8    0    1
 -2      1005       967      1063      4070      4072      4073
 -1      2060    8    0    1
 -2       966      1034      1063      3978      4074      4071
 -1      2061    8    0    1
 -2      1006      1008      1055      3896      4075      4076
 -1      2062    8    0    1
 -2      1013       968      1037      3916      3988      4077
 -1      2063    8    0    1
 -2       988      1012      1015      3914      4078      3922
 -1      2064    8    0    1
 -2      1055       998      1015      4042      4044      4079
 -1      2065    8    0    1
 -2      1053      1001      1064      4037      4080      4081
 -1      2066    8    0    1
 -2      1001      1002      1064      3865      4082      4080
 -1      2067    8    0    1
 -2       941      1052      1012      4036      4083      3915
 -1      2068    8    0    1
 -2       997      1055      1008      4043      4075      4084
 -1      2069    8    0    1
 -2       945       971      1065      3985      4085      4086
 -1      2070    8    0    1
 -2       971       990      1065      3874      4087      4085
 -1      2071    8    0    1
 -2       945      1065      1049      4086      4088      4024
 -1      2072    8    0    1
 -2      1065       990      1050      4087      4028      4089
 -1      2073    8    0    1
 -2      1008       970      1007      4060      4090      4091
 -1      2074    8    0    1
 -2      1054      1056      1066      4048      4092      4093
 -1      2075    8    0    1
 -2      1016      1014      1067      3925      4094      4095
 -1      2076    8    0    1
 -2      1017      1016      1068      3928      4096      4097
 -1      2077    8    0    1
 -2      1016      1067      1068      4095      4098      4096
 -1      2078    8    0    1
 -2      1018      1017      1069      3931      4099      4100
 -1      2079    8    0    1
 -2      1017      1068      1069      4097      4101      4099
 -1      2080    8    0    1
 -2      1019      1018      1070      3934      4102      4103
 -1      2081    8    0    1
 -2      1018      1069      1070      4100      4104      4102
 -1      2082    8    0    1
 -2      1020      1019      1071      3937      4105      4106
 -1      2083    8    0    1
 -2      1019      1070      1071      4103      4107      4105
 -1      2084    8    0    1
 -2      1021      1020      1072      3940      4108      4109
 -1      2085    8    0    1
 -2      1020      1071      1072      4106      4110      4108
 -1      2086    8    0    1
 -2      1022      1021      1073      3943      4111      4112
 -1      2087    8    0    1
 -2      1021      1072      1073      4109      4113      4111
 -1      2088    8    0    1
 -2      1023      1022      1074      3946      4114      4115
 -1      2089    8    0    1
 -2      1022      1073      1074      4112      4116      4114
 -1      2090    8    0    1
 -2      1024      1023      1075      3949      4117      4118
 -1      2091    8    0    1
 -2      1023      1074      1075      4115      4119      4117
 -1      2092    8    0    1
 -2      1025      1024      1076      3952      4120      4121
 -1      2093    8    0    1
 -2      1024      1075      1076      4118      4122      4120
 -1      2094    8    0    1
 -2      1026      1025      1077      3955      4123      4124
 -1      2095    8    0    1
 -2      1025      1076      1077      4121      4125      4123
 -1      2096    8    0    1
 -2      1027      1026      1078      3958      4126      4127
 -1      2097    8    0    1
 -2      1026      1077      1078      4124      4128      4126
 -1      2098    8    0    1
 -2      1028      1027      1079      3961      4129      4130
 -1      2099    8    0    1
 -2      1027      1078      1079      4127      4131      4129
 -1      2100    8    0    1
 -2      1029      1028      1080      3964      4132      4133
 -1      2101    8    0    1
 -2      1028      1079      1080      4130      4134      4132
 -1      2102    8    0    1
 -2      1030      1029      1081      3967      4135      4136
 -1      2103    8    0    1
 -2      1029      1080      1081      4133      4137      4135
 -1      2104    8    0    1
 -2      1031      1030      1082      3970      4138      4139
 -1      2105    8    0    1
 -2      1030      1081      1082      4136      4140      4138
 -1      2106    8    0    1
 -2      1032      1031      1083      3973      4141      4142
 -1      2107    8    0    1
 -2      1031      1082      1083      4139      4143      4141
 -1      2108    8    0    1
 -2      1033      1032      1084      3976      4144      4145
 -1      2109    8    0    1
 -2      1032      1083      1084      4142      4146      4144
 -1      2110    8    0    1
 -2      1034      1033      1085      3979      4147      4148
 -1      2111    8    0    1
 -2      1033      1084      1085      4145      4149      4147
 -1      2112    8    0    1
 -2      1039      1040      1086      3998      4150      4151
 -1      2113    8    0    1
 -2      1037      1035      1087      3989      4152      4153
 -1      2114    8    0    1
 -2      1038      1013      1088      3992      4154      4155
 -1      2115    8    0    1
 -2      1040      1041      1089      4001      4156      4157
 -1      2116    8    0    1
 -2      1040      1089      1086      4157      4158      4150
 -1      2117    8    0    1
 -2      1041      1042      1090      4004      4159      4160
 -1      2118    8    0    1
 -2      1041      1090      1089      4160      4161      4156
 -1      2119    8    0    1
 -2      1042      1043      1091      4007      4162      4163
 -1      2120    8    0    1
 -2      1042      1091      1090      4163      4164      4159
 -1      2121    8    0    1
 -2      1043      1044      1092      4010      4165      4166
 -1      2122    8    0    1
 -2      1043      1092      1091      4166      4167      4162
 -1      2123    8    0    1
 -2      1044      1045      1093      4013      4168      4169
 -1      2124    8    0    1
 -2      1044      1093      1092      4169      4170      4165
 -1      2125    8    0    1
 -2      1045      1046      1094      4016      4171      4172
 -1      2126    8    0    1
 -2      1045      1094      1093      4172      4173      4168
 -1      2127    8    0    1
 -2      1046      1047      1095      4019      4174      4175
 -1      2128    8    0    1
 -2      1046      1095      1094      4175      4176      4171
 -1      2129    8    0    1
 -2      1047      1048      1096      4022      4177      4178
 -1      2130    8    0    1
 -2      1095      1047      1096      4174      4178      4179
 -1      2131    8    0    1
 -2      1048      1053      1096      4039      4180      4177
 -1      2132    8    0    1
 -2      1065      1050      1097      4089      4181      4182
 -1      2133    8    0    1
 -2      1065      1097      1049      4182      4183      4088
 -1      2134    8    0    1
 -2      1010      1060      1098      4066      4184      4185
 -1      2135    8    0    1
 -2      1013      1037      1099      4077      4186      4187
 -1      2136    8    0    1
 -2      1013      1099      1088      4187      4188      4154
 -1      2137    8    0    1
 -2      1015      1012      1052      4078      4083      4189
 -1      2138    8    0    1
 -2      1050      1010      1098      4029      4185      4190
 -1      2139    8    0    1
 -2      1051      1036      1062      4032      4191      4067
 -1      2140    8    0    1
 -2      1002      1005      1063      3879      4073      4192
 -1      2141    8    0    1
 -2      1052      1006      1055      4034      4076      4193
 -1      2142    8    0    1
 -2      1056      1058      1100      4055      4194      4195
 -1      2143    8    0    1
 -2      1056      1100      1066      4195      4196      4092
 -1      2144    8    0    1
 -2      1035      1039      1101      3995      4197      4198
 -1      2145    8    0    1
 -2      1087      1035      1101      4152      4198      4199
 -1      2146    8    0    1
 -2      1039      1086      1101      4151      4200      4197
 -1      2147    8    0    1
 -2       970       993      1007      3837      3893      4090
 -1      2148    8    0    1
 -2      1036      1003      1102      3984      4201      4202
 -1      2149    8    0    1
 -2      1003      1061      1102      4064      4203      4201
 -1      2150    8    0    1
 -2      1055      1015      1052      4079      4189      4193
 -1      2151    8    0    1
 -2      1054      1066      1103      4093      4204      4205
 -1      2152    8    0    1
 -2      1054      1103      1061      4205      4206      4065
 -1      2153    8    0    1
 -2      1034      1085      1064      4148      4207      4208
 -1      2154    8    0    1
 -2      1002      1063      1064      4192      4209      4082
 -1      2155    8    0    1
 -2      1063      1034      1064      4074      4208      4209
 -1      2156    8    0    1
 -2      1037      1087      1099      4153      4210      4186
 -1      2157    8    0    1
 -2      1038      1088      1104      4155      4211      4212
 -1      2158    8    0    1
 -2      1038      1104      1059      4212      4213      4059
 -1      2159    8    0    1
 -2      1097      1050      1098      4181      4190      4214
 -1      2160    8    0    1
 -2      1098      1060      1105      4184      4215      4216
 -1      2161    8    0    1
 -2      1060      1062      1105      4069      4217      4215
 -1      2162    8    0    1
 -2      1007       997      1008      3894      4084      4091
 -1      2163    8    0    1
 -2      1014      1057      1106      4051      4218      4219
 -1      2164    8    0    1
 -2      1014      1106      1067      4219      4220      4094
 -1      2165    8    0    1
 -2      1062      1036      1102      4191      4202      4221
 -1      2166    8    0    1
 -2      1053      1064      1107      4081      4222      4223
 -1      2167    8    0    1
 -2      1096      1053      1107      4180      4223      4224
 -1      2168    8    0    1
 -2      1064      1085      1107      4207      4225      4222
 -1      2169    8    0    1
 -2      1058      1059      1108      4058      4226      4227
 -1      2170    8    0    1
 -2      1100      1058      1108      4194      4227      4228
 -1      2171    8    0    1
 -2      1059      1104      1108      4213      4229      4226
 -1      2172    8    0    1
 -2      1057      1049      1109      4052      4230      4231
 -1      2173    8    0    1
 -2      1106      1057      1109      4218      4231      4232
 -1      2174    8    0    1
 -2      1049      1097      1109      4183      4233      4230
 -1      2175    8    0    1
 -2      1099      1087      1075      4210      4234      4235
 -1      2176    8    0    1
 -2      1069      1068      1110      4101      4236      4237
 -1      2177    8    0    1
 -2      1070      1069      1066      4104      4238      4239
 -1      2178    8    0    1
 -2      1071      1070      1100      4107      4240      4241
 -1      2179    8    0    1
 -2      1072      1071      1108      4110      4242      4243
 -1      2180    8    0    1
 -2      1073      1072      1104      4113      4244      4245
 -1      2181    8    0    1
 -2      1074      1073      1088      4116      4246      4247
 -1      2182    8    0    1
 -2      1075      1074      1099      4119      4248      4235
 -1      2183    8    0    1
 -2      1076      1075      1087      4122      4234      4249
 -1      2184    8    0    1
 -2      1077      1076      1101      4125      4250      4251
 -1      2185    8    0    1
 -2      1078      1077      1086      4128      4252      4253
 -1      2186    8    0    1
 -2      1079      1078      1089      4131      4254      4255
 -1      2187    8    0    1
 -2      1080      1079      1090      4134      4256      4257
 -1      2188    8    0    1
 -2      1081      1080      1091      4137      4258      4259
 -1      2189    8    0    1
 -2      1082      1081      1092      4140      4260      4261
 -1      2190    8    0    1
 -2      1083      1082      1093      4143      4262      4263
 -1      2191    8    0    1
 -2      1084      1083      1094      4146      4264      4265
 -1      2192    8    0    1
 -2      1089      1090      1079      4161      4256      4255
 -1      2193    8    0    1
 -2      1086      1089      1078      4158      4254      4253
 -1      2194    8    0    1
 -2      1091      1092      1081      4167      4260      4259
 -1      2195    8    0    1
 -2      1092      1093      1082      4170      4262      4261
 -1      2196    8    0    1
 -2      1093      1094      1083      4173      4264      4263
 -1      2197    8    0    1
 -2      1094      1095      1084      4176      4266      4265
 -1      2198    8    0    1
 -2      1095      1096      1107      4179      4224      4267
 -1      2199    8    0    1
 -2      1088      1099      1074      4188      4248      4247
 -1      2200    8    0    1
 -2      1090      1091      1080      4164      4258      4257
 -1      2201    8    0    1
 -2      1102      1061      1111      4203      4268      4269
 -1      2202    8    0    1
 -2      1061      1103      1111      4206      4270      4268
 -1      2203    8    0    1
 -2      1088      1073      1104      4246      4245      4211
 -1      2204    8    0    1
 -2      1068      1067      1111      4098      4271      4272
 -1      2205    8    0    1
 -2      1066      1100      1070      4196      4240      4239
 -1      2206    8    0    1
 -2      1076      1087      1101      4249      4199      4250
 -1      2207    8    0    1
 -2      1062      1102      1112      4221      4273      4274
 -1      2208    8    0    1
 -2      1105      1062      1112      4217      4274      4275
 -1      2209    8    0    1
 -2      1102      1111      1112      4269      4276      4273
 -1      2210    8    0    1
 -2      1097      1098      1109      4214      4277      4233
 -1      2211    8    0    1
 -2      1071      1100      1108      4241      4228      4242
 -1      2212    8    0    1
 -2      1086      1077      1101      4252      4251      4200
 -1      2213    8    0    1
 -2      1072      1108      1104      4243      4229      4244
 -1      2214    8    0    1
 -2      1111      1067      1112      4271      4278      4276
 -1      2215    8    0    1
 -2      1109      1098      1105      4277      4216      4279
 -1      2216    8    0    1
 -2      1084      1095      1107      4266      4267      4280
 -1      2217    8    0    1
 -2      1112      1067      1106      4278      4220      4281
 -1      2218    8    0    1
 -2      1066      1069      1110      4238      4237      4282
 -1      2219    8    0    1
 -2      1105      1112      1106      4275      4281      4283
 -1      2220    8    0    1
 -2      1085      1084      1107      4149      4280      4225
 -1      2221    8    0    1
 -2      1068      1111      1110      4272      4284      4236
 -1      2222    8    0    1
 -2      1109      1105      1106      4279      4283      4232
 -1      2223    8    0    1
 -2      1103      1066      1110      4204      4282      4285
 -1      2224    8    0    1
 -2      1111      1103      1110      4270      4285      4284
 -3
    1PSTEP                         1           1           1          
  100CL  101 1.000000000        4285                     0    1           1
 -4  DISP        4    1
 -5  D1          1    2    1    0
 -5  D2          1    2    2    0
 -5  D3          1    2    3    0
 -5  ALL         1    2    0    0    1ALL
 -1         1 1.19376E-02-4.41579E-04-5.92420E-14
 -1         2 1.28454E-02 2.49901E-04-6.22212E-14
 -1         3 1.49971E-02 8.29141E-04-1.00455E-13
 -1         4 1.49831E-02-2.31048E-04-9.78008E-14
 -1         5 0.00000E+00 0.00000E+00 0.00000E+00
 -1         6 0.00000E+00 0.00000E+00 0.00000E+00
 -1         7 0.00000E+00 0.00000E+00 0.00000E+00
 -1         8 0.00000E+00 0.00000E+00 0.00000E+00
 -1         9 0.00000E+00 0.00000E+00 0.00000E+00
 -1        10 0.00000E+00 0.00000E+00 0.00000E+00
 -1        11 0.00000E+00 0.00000E+00 0.00000E+00
 -1        12 0.00000E+00 0.00000E+00 0.00000E+00
 -1        13 0.00000E+00 0.00000E+00 0.00000E+00
 -1        14 0.00000E+00 0.00000E+00 0.00000E+00
 -1        15 0.00000E+00 0.00000E+00 0.00000E+00
 -1        16 0.00000E+00 0.00000E+00 0.00000E+00
 -1        17 0.00000E+00 0.00000E+00 0.00000E+00
 -1        18 0.00000E+00 0.00000E+00 0.00000E+00
 -1        19 0.00000E+00 0.00000E+00 0.00000E+00
 -1        20 0.00000E+00 0.00000E+00 0.00000E+00
 -1        21 0.00000E+00 0.00000E+00 0.00000E+00
 -1        22 0.00000E+00 0.00000E+00 0.00000E+00
 -1        23 4.00716E-04-2.54408E-04 4.35138E-17
 -1        24 6.84660E-04-3.90573E-04-1.58090E-17
 -1        25 9.47113E-04-4.84035E-04-1.77189E-16
 -1        26 1.20413E-03-5.48689E-04-4.41037E-16
 -1        27 1.46026E-03-5.93495E-04-8.06284E-16
 -1        28 1.71757E-03-6.23747E-04-1.27286E-15
 -1        29 1.97699E-03-6.43095E-04-1.84044E-15
 -1        30 2.23886E-03-6.54192E-04-2.50854E-15
 -1        31 2.50320E-03-6.59017E-04-3.27544E-15
 -1        32 2.76982E-03-6.59046E-04-4.13805E-15
 -1        33 3.03840E-03-6.55341E-04-5.09119E-15
 -1        34 3.30854E-03-6.48581E-04-6.13010E-15
 -1        35 3.57978E-03-6.38988E-04-7.25784E-15
 -1        36 3.85187E-03-6.26038E-04-8.47308E-15
 -1        37 4.12931E-03-6.15932E-04-9.77387E-15
 -1        38 4.41303E-03-6.03798E-04-1.11626E-14
 -1        39 4.69771E-03-5.90375E-04-1.26334E-14
 -1        40 4.98341E-03-5.76198E-04-1.41842E-14
 -1        41 5.27069E-03-5.61109E-04-1.58189E-14
 -1        42 5.56014E-03-5.45100E-04-1.75370E-14
 -1        43 5.85246E-03-5.28379E-04-1.93341E-14
 -1        44 6.14848E-03-5.11378E-04-2.12131E-14
 -1        45 6.44918E-03-4.94822E-04-2.31694E-14
 -1        46 6.75578E-03-4.79808E-04-2.52032E-14
 -1        47 7.06958E-03-4.67941E-04-2.73094E-14
 -1        48 7.39199E-03-4.61512E-04-2.94853E-14
 -1        49 7.72414E-03-4.63631E-04-3.17328E-14
 -1        50 8.06650E-03-4.78259E-04-3.40536E-14
 -1        51 8.41817E-03-5.09925E-04-3.64492E-14
 -1        52 8.77595E-03-5.62873E-04-3.89096E-14
 -1        53 9.13355E-03-6.39312E-04-4.14291E-14
 -1        54 9.48159E-03-7.36702E-04-4.40082E-14
 -1        55 9.80940E-03-8.44851E-04-4.66393E-14
 -1        56 1.01092E-02-9.44927E-04-4.93046E-14
 -1        57 1.03816E-02-1.01315E-03-5.19988E-14
 -1        58 1.06379E-02-1.02973E-03-5.47230E-14
 -1        59 1.08967E-02-9.88541E-04-5.74859E-14
 -1        60 1.11750E-02-9.00427E-04-6.02907E-14
 -1        61 1.14809E-02-7.87362E-04-6.31384E-14
 -1        62 1.18119E-02-6.72194E-04-6.60215E-14
 -1        63 1.21586E-02-5.71005E-04-6.89714E-14
 -1        64 1.25099E-02-4.91028E-04-7.19801E-14
 -1        65 1.28572E-02-4.32485E-04-7.50479E-14
 -1        66 1.31949E-02-3.91533E-04-7.81846E-14
 -1        67 1.35202E-02-3.62677E-04-8.13717E-14
 -1        68 1.38329E-02-3.40200E-04-8.45999E-14
 -1        69 1.41340E-02-3.18882E-04-8.78841E-14
 -1        70 1.44259E-02-2.94421E-04-9.12128E-14
 -1        71 1.47123E-02-2.64253E-04-9.45830E-14
 -1        72 4.17932E-04 2.63750E-04 3.28276E-17
 -1        73 7.10574E-04 4.08026E-04-4.58448E-17
 -1        74 9.84501E-04 5.07002E-04-2.29980E-16
 -1        75 1.25230E-03 5.78840E-04-5.20180E-16
 -1        76 1.51884E-03 6.31942E-04-9.14802E-16
 -1        77 1.78629E-03 6.71615E-04-1.41401E-15
 -1        78 2.05561E-03 7.01517E-04-2.01700E-15
 -1        79 2.32718E-03 7.24298E-04-2.72057E-15
 -1        80 2.60103E-03 7.41926E-04-3.51949E-15
 -1        81 2.87705E-03 7.55874E-04-4.40784E-15
 -1        82 3.15502E-03 7.67251E-04-5.38981E-15
 -1        83 3.43469E-03 7.76892E-04-6.46048E-15
 -1        84 3.71576E-03 7.85362E-04-7.61738E-15
 -1        85 3.99800E-03 7.92768E-04-8.86713E-15
 -1        86 4.28141E-03 7.99195E-04-1.02102E-14
 -1        87 4.56593E-03 8.04802E-04-1.16411E-14
 -1        88 4.85156E-03 8.09663E-04-1.31547E-14
 -1        89 5.13844E-03 8.13790E-04-1.47497E-14
 -1        90 5.42688E-03 8.17228E-04-1.64281E-14
 -1        91 5.71730E-03 8.20077E-04-1.81919E-14
 -1        92 6.01028E-03 8.22533E-04-2.00429E-14
 -1        93 6.30662E-03 8.24966E-04-2.19751E-14
 -1        94 6.60727E-03 8.28027E-04-2.39932E-14
 -1        95 6.91336E-03 8.32752E-04-2.60909E-14
 -1        96 7.22607E-03 8.40688E-04-2.82577E-14
 -1        97 7.54654E-03 8.54007E-04-3.04929E-14
 -1        98 7.87555E-03 8.75573E-04-3.28020E-14
 -1        99 8.21314E-03 9.08877E-04-3.51789E-14
 -1       100 8.55794E-03 9.57669E-04-3.76251E-14
 -1       101 8.90654E-03 1.02508E-03-4.01428E-14
 -1       102 9.25298E-03 1.11206E-03-4.27348E-14
 -1       103 9.58904E-03 1.21517E-03-4.53977E-14
 -1       104 9.90603E-03 1.32458E-03-4.81278E-14
 -1       105 1.01983E-02 1.42383E-03-5.09221E-14
 -1       106 1.04672E-02 1.49331E-03-5.37753E-14
 -1       107 1.07225E-02 1.51724E-03-5.66910E-14
 -1       108 1.09798E-02 1.49083E-03-5.96555E-14
 -1       109 1.12534E-02 1.42261E-03-6.26736E-14
 -1       110 1.15508E-02 1.33023E-03-6.57332E-14
 -1       111 1.18705E-02 1.23276E-03-6.88201E-14
 -1       112 1.22054E-02 1.14455E-03-7.19318E-14
 -1       113 1.25464E-02 1.07297E-03-7.50559E-14
 -1       114 1.28854E-02 1.01936E-03-7.82080E-14
 -1       115 1.32171E-02 9.81128E-04-8.13743E-14
 -1       116 1.35384E-02 9.53799E-04-8.45522E-14
 -1       117 1.38487E-02 9.32369E-04-8.77412E-14
 -1       118 1.41485E-02 9.12072E-04-9.09464E-14
 -1       119 1.44399E-02 8.88890E-04-9.41633E-14
 -1       120 1.47261E-02 8.60341E-04-9.73949E-14
 -1       121 1.50305E-02 7.44332E-04-1.00337E-13
 -1       122 1.50682E-02 6.60708E-04-1.00241E-13
 -1       123 1.51110E-02 5.82056E-04-1.00133E-13
 -1       124 1.51561E-02 5.11261E-04-1.00014E-13
 -1       125 1.51996E-02 4.49692E-04-9.98793E-14
 -1       126 1.52365E-02 3.98107E-04-9.97606E-14
 -1       127 1.52643E-02 3.53396E-04-9.96327E-14
 -1       128 1.52791E-02 3.14074E-04-9.94925E-14
 -1       129 1.52789E-02 2.76890E-04-9.93516E-14
 -1       130 1.52638E-02 2.38241E-04-9.91968E-14
 -1       131 1.52351E-02 1.94699E-04-9.90602E-14
 -1       132 1.51966E-02 1.44452E-04-9.89238E-14
 -1       133 1.51510E-02 8.41191E-05-9.87542E-14
 -1       134 1.51033E-02 1.41758E-05-9.85595E-14
 -1       135 1.50581E-02-6.42058E-05-9.83254E-14
 -1       136 1.50180E-02-1.47590E-04-9.80602E-14
 -1       137 1.27991E-02 4.22024E-04-6.21234E-14
 -1       138 1.26638E-02 5.82032E-04-6.17410E-14
 -1       139 1.24403E-02 7.33687E-04-6.10957E-14
 -1       140 1.21439E-02 8.63799E-04-6.02323E-14
 -1       141 1.17349E-02 9.80674E-04-5.90116E-14
 -1       142 1.12901E-02 1.05467E-03-5.76884E-14
 -1       143 1.08289E-02 1.08727E-03-5.63125E-14
 -1       144 1.03117E-02 1.07514E-03-5.47679E-14
 -1       145 9.83026E-03 1.01623E-03-5.33275E-14
 -1       146 9.40575E-03 9.21027E-04-5.20617E-14
 -1       147 9.06536E-03 8.04045E-04-5.10422E-14
 -1       148 8.78860E-03 6.64709E-04-5.02065E-14
 -1       149 8.58728E-03 5.07082E-04-4.95808E-14
 -1       150 8.47722E-03 3.45754E-04-4.92161E-14
 -1       151 8.45496E-03 1.75537E-04-4.91026E-14
 -1       152 8.53511E-03-4.34702E-06-4.92851E-14
 -1       153 8.70222E-03-1.63101E-04-4.97323E-14
 -1       154 8.98139E-03-3.20774E-04-5.05061E-14
 -1       155 9.32937E-03-4.48722E-04-5.14849E-14
 -1       156 9.72933E-03-5.43411E-04-5.26261E-14
 -1       157 1.01622E-02-6.02161E-04-5.38849E-14
 -1       158 1.06223E-02-6.22242E-04-5.52413E-14
 -1       159 1.10960E-02-5.99871E-04-5.66666E-14
 -1       160 1.15332E-02-5.39099E-04-5.79945E-14
 -1       161 1.23317E-02-2.92453E-04-6.04831E-14
 -1       162 1.26130E-02-1.23590E-04-6.14027E-14
 -1       163 1.27890E-02 6.43803E-05-6.20031E-14
 -1       164 2.34653E-04-1.22742E-04-1.10250E-17
 -1       165 2.20390E-04-9.26273E-05-2.80605E-17
 -1       166 2.15297E-04-7.12872E-05-3.80995E-17
 -1       167 2.13054E-04-5.39512E-05-4.42592E-17
 -1       168 2.12079E-04-3.90538E-05-4.78641E-17
 -1       169 2.11746E-04-2.51811E-05-5.00020E-17
 -1       170 2.11812E-04-1.20389E-05-5.12828E-17
 -1       171 2.12162E-04 7.87790E-07-5.21162E-17
 -1       172 2.12768E-04 1.36579E-05-5.22789E-17
 -1       173 2.13671E-04 2.69368E-05-5.18926E-17
 -1       174 2.14972E-04 4.08118E-05-5.08491E-17
 -1       175 2.16997E-04 5.63585E-05-4.83148E-17
 -1       176 2.20351E-04 7.43312E-05-4.35036E-17
 -1       177 2.26661E-04 9.66727E-05-3.48605E-17
 -1       178 2.41174E-04 1.28523E-04-1.89566E-17
 -1       179 3.00436E-04 1.87002E-04-2.52077E-18
 -1       180 4.56810E-04-2.57109E-04-3.30546E-17
 -1       181 7.47365E-04-3.71717E-04-1.67848E-16
 -1       182 1.02396E-03-4.50588E-04-3.99020E-16
 -1       183 1.29427E-03-5.05077E-04-7.28967E-16
 -1       184 1.56192E-03-5.42079E-04-1.15762E-15
 -1       185 1.82892E-03-5.66206E-04-1.68504E-15
 -1       186 2.09638E-03-5.80709E-04-2.31110E-15
 -1       187 2.36489E-03-5.87975E-04-3.03472E-15
 -1       188 2.63467E-03-5.89772E-04-3.85489E-15
 -1       189 2.90576E-03-5.87402E-04-4.76745E-15
 -1       190 3.17811E-03-5.81778E-04-5.76848E-15
 -1       191 3.45163E-03-5.73456E-04-6.85619E-15
 -1       192 3.72631E-03-5.62634E-04-8.03250E-15
 -1       193 4.00207E-03-5.49314E-04-9.29298E-15
 -1       194 4.28238E-03-5.35244E-04-1.06396E-14
 -1       195 4.56640E-03-5.22917E-04-1.20711E-14
 -1       196 4.85156E-03-5.09132E-04-1.35823E-14
 -1       197 5.13829E-03-4.94149E-04-1.51760E-14
 -1       198 5.42689E-03-4.78047E-04-1.68533E-14
 -1       199 5.71772E-03-4.60941E-04-1.86102E-14
 -1       200 6.01131E-03-4.43130E-04-2.04488E-14
 -1       201 6.30832E-03-4.25148E-04-2.23664E-14
 -1       202 6.60952E-03-4.07844E-04-2.43614E-14
 -1       203 6.91580E-03-3.92512E-04-2.64314E-14
 -1       204 7.22809E-03-3.81067E-04-2.85746E-14
 -1       205 7.54725E-03-3.76238E-04-3.07890E-14
 -1       206 7.87383E-03-3.81699E-04-3.30752E-14
 -1       207 8.20777E-03-4.02027E-04-3.54348E-14
 -1       208 8.54798E-03-4.42223E-04-3.78598E-14
 -1       209 8.89187E-03-5.06452E-04-4.03465E-14
 -1       210 9.23505E-03-5.95667E-04-4.28889E-14
 -1       211 9.57168E-03-7.04271E-04-4.54868E-14
 -1       212 9.89596E-03-8.17215E-04-4.81316E-14
 -1       213 1.02049E-02-9.10582E-04-5.08128E-14
 -1       214 1.05013E-02-9.58575E-04-5.35259E-14
 -1       215 1.07936E-02-9.45357E-04-5.62788E-14
 -1       216 1.10921E-02-8.73865E-04-5.90698E-14
 -1       217 1.14039E-02-7.64048E-04-6.19047E-14
 -1       218 1.17297E-02-6.42140E-04-6.47794E-14
 -1       219 1.20652E-02-5.29593E-04-6.77092E-14
 -1       220 1.24041E-02-4.38102E-04-7.06972E-14
 -1       221 1.27409E-02-3.70450E-04-7.37401E-14
 -1       222 1.30715E-02-3.23731E-04-7.68403E-14
 -1       223 1.33937E-02-2.92422E-04-8.00012E-14
 -1       224 1.37068E-02-2.70351E-04-8.32118E-14
 -1       225 1.40112E-02-2.51697E-04-8.64706E-14
 -1       226 1.43079E-02-2.31416E-04-8.97771E-14
 -1       227 1.45987E-02-2.05682E-04-9.31237E-14
 -1       228 6.10153E-04 3.34516E-04-9.39461E-17
 -1       229 9.01956E-04 4.38634E-04-2.85071E-16
 -1       230 1.18341E-03 5.13502E-04-5.77961E-16
 -1       231 1.46019E-03 5.68355E-04-9.72285E-16
 -1       232 1.73528E-03 6.09006E-04-1.46873E-15
 -1       233 2.01030E-03 6.39407E-04-2.06635E-15
 -1       234 2.28607E-03 6.62390E-04-2.76378E-15
 -1       235 2.56301E-03 6.80041E-04-3.55481E-15
 -1       236 2.84123E-03 6.93908E-04-4.43712E-15
 -1       237 3.12074E-03 7.05143E-04-5.41051E-15
 -1       238 3.40145E-03 7.14602E-04-6.47308E-15
 -1       239 3.68329E-03 7.22934E-04-7.62324E-15
 -1       240 3.96620E-03 7.30230E-04-8.86550E-15
 -1       241 4.25020E-03 7.36487E-04-1.01978E-14
 -1       242 4.53519E-03 7.41933E-04-1.16181E-14
 -1       243 4.82116E-03 7.46626E-04-1.31221E-14
 -1       244 5.10828E-03 7.50534E-04-1.47080E-14
 -1       245 5.39681E-03 7.53681E-04-1.63761E-14
 -1       246 5.68707E-03 7.56130E-04-1.81264E-14
 -1       247 5.97957E-03 7.58029E-04-1.99666E-14
 -1       248 6.27489E-03 7.59693E-04-2.18883E-14
 -1       249 6.57377E-03 7.61708E-04-2.38923E-14
 -1       250 6.87704E-03 7.65047E-04-2.59737E-14
 -1       251 7.18557E-03 7.71197E-04-2.81283E-14
 -1       252 7.50015E-03 7.82298E-04-3.03553E-14
 -1       253 7.82133E-03 8.01238E-04-3.26528E-14
 -1       254 8.14914E-03 8.31637E-04-3.50190E-14
 -1       255 8.48275E-03 8.77548E-04-3.74519E-14
 -1       256 8.82004E-03 9.42648E-04-3.99563E-14
 -1       257 9.15736E-03 1.02867E-03-4.25344E-14
 -1       258 9.48968E-03 1.13306E-03-4.51835E-14
 -1       259 9.81153E-03 1.24656E-03-4.78957E-14
 -1       260 1.01190E-02 1.35238E-03-5.06743E-14
 -1       261 1.04122E-02 1.42933E-03-5.35127E-14
 -1       262 1.06966E-02 1.45924E-03-5.64070E-14
 -1       263 1.09811E-02 1.43551E-03-5.93493E-14
 -1       264 1.12746E-02 1.36642E-03-6.23413E-14
 -1       265 1.15817E-02 1.27086E-03-6.53807E-14
 -1       266 1.19019E-02 1.16960E-03-6.84538E-14
 -1       267 1.22308E-02 1.07829E-03-7.15528E-14
 -1       268 1.25627E-02 1.00490E-03-7.46746E-14
 -1       269 1.28925E-02 9.50808E-04-7.78234E-14
 -1       270 1.32166E-02 9.13183E-04-8.09888E-14
 -1       271 1.35331E-02 8.87230E-04-8.41659E-14
 -1       272 1.38412E-02 8.67632E-04-8.73545E-14
 -1       273 1.41413E-02 8.49335E-04-9.05573E-14
 -1       274 1.44348E-02 8.28019E-04-9.37772E-14
 -1       275 1.47235E-02 8.00770E-04-9.70070E-14
 -1       276 1.48014E-02 7.32494E-04-9.74871E-14
 -1       277 1.48432E-02 6.52897E-04-9.73746E-14
 -1       278 1.48895E-02 5.78487E-04-9.72565E-14
 -1       279 1.49365E-02 5.10335E-04-9.71302E-14
 -1       280 1.49790E-02 4.49763E-04-9.69961E-14
 -1       281 1.50140E-02 3.94155E-04-9.68581E-14
 -1       282 1.50368E-02 3.43267E-04-9.67152E-14
 -1       283 1.50447E-02 2.95070E-04-9.65694E-14
 -1       284 1.50367E-02 2.47127E-04-9.64120E-14
 -1       285 1.50134E-02 1.96937E-04-9.62478E-14
 -1       286 1.49779E-02 1.43275E-04-9.60814E-14
 -1       287 1.49328E-02 8.27433E-05-9.59046E-14
 -1       288 1.48833E-02 1.54767E-05-9.57096E-14
 -1       289 1.48343E-02-5.83261E-05-9.54895E-14
 -1       290 1.47148E-02-1.30888E-04-9.43095E-14
 -1       291 1.28573E-02 2.96478E-04-6.34728E-14
 -1       292 1.27262E-02 3.87313E-04-6.33615E-14
 -1       293 1.24865E-02 5.20965E-04-6.25887E-14
 -1       294 1.21716E-02 6.80456E-04-6.16106E-14
 -1       295 1.17754E-02 8.52751E-04-6.04757E-14
 -1       296 1.13771E-02 1.02587E-03-5.88642E-14
 -1       297 1.09831E-02 1.13652E-03-5.72846E-14
 -1       298 1.05918E-02 1.16964E-03-5.55429E-14
 -1       299 1.01945E-02 1.09592E-03-5.37156E-14
 -1       300 9.78285E-03 9.42786E-04-5.21342E-14
 -1       301 9.39102E-03 7.68656E-04-5.08218E-14
 -1       302 9.03808E-03 5.99199E-04-4.97303E-14
 -1       303 8.73165E-03 4.56755E-04-4.89413E-14
 -1       304 8.52196E-03 3.38813E-04-4.83740E-14
 -1       305 8.42832E-03 2.42609E-04-4.81066E-14
 -1       306 8.46764E-03 1.48841E-04-4.80827E-14
 -1       307 8.64414E-03 3.82430E-05-4.84551E-14
 -1       308 8.94024E-03-9.56475E-05-4.90440E-14
 -1       309 9.30175E-03-2.84451E-04-5.01937E-14
 -1       310 9.68120E-03-4.63666E-04-5.14757E-14
 -1       311 1.00681E-02-6.07275E-04-5.28418E-14
 -1       312 1.04381E-02-6.89636E-04-5.43765E-14
 -1       313 1.08093E-02-6.91962E-04-5.60209E-14
 -1       314 1.11942E-02-6.01532E-04-5.76230E-14
 -1       315 1.15720E-02-4.54354E-04-5.91704E-14
 -1       316 1.19834E-02-2.56759E-04-6.07085E-14
 -1       317 1.23884E-02-6.71120E-05-6.19537E-14
 -1       318 1.26912E-02 8.71129E-05-6.28725E-14
 -1       319 1.28520E-02 2.00178E-04-6.33000E-14
 -1       320 4.45962E-04-1.60601E-04-1.31883E-16
 -1       321 4.63411E-04-2.07708E-04-1.02782E-16
 -1       322 4.33518E-04-9.12405E-05-1.63281E-16
 -1       323 4.31617E-04-6.25601E-05-1.71273E-16
 -1       324 4.31009E-04-3.58632E-05-1.76406E-16
 -1       325 4.31276E-04-1.01954E-05-1.79364E-16
 -1       326 4.32260E-04 1.52076E-05-1.80753E-16
 -1       327 4.33977E-04 4.10626E-05-1.80340E-16
 -1       328 4.36568E-04 6.76845E-05-1.78090E-16
 -1       329 4.40582E-04 9.69836E-05-1.72883E-16
 -1       330 4.46962E-04 1.29992E-04-1.63437E-16
 -1       331 4.57856E-04 1.69170E-04-1.47601E-16
 -1       332 4.79034E-04 2.19266E-04-1.21305E-16
 -1       333 5.36263E-04 2.72762E-04-1.13072E-16
 -1       334 8.31054E-04 3.78730E-04-3.06572E-16
 -1       335 8.43061E-04-3.46729E-04-3.41663E-16
 -1       336 1.12275E-03-4.11357E-04-6.38809E-16
 -1       337 1.39901E-03-4.56033E-04-1.03235E-15
 -1       338 1.67330E-03-4.85829E-04-1.52170E-15
 -1       339 1.94674E-03-5.04479E-04-2.10807E-15
 -1       340 2.22008E-03-5.14763E-04-2.79046E-15
 -1       341 2.49377E-03-5.18755E-04-3.56880E-15
 -1       342 2.76808E-03-5.17992E-04-4.43984E-15
 -1       343 3.04315E-03-5.13580E-04-5.40209E-15
 -1       344 3.31910E-03-5.06258E-04-6.45162E-15
 -1       345 3.59608E-03-4.96420E-04-7.58790E-15
 -1       346 3.87434E-03-4.84130E-04-8.81092E-15
 -1       347 4.15371E-03-4.69751E-04-1.01175E-14
 -1       348 4.43451E-03-4.56289E-04-1.15087E-14
 -1       349 4.71771E-03-4.42698E-04-1.29815E-14
 -1       350 5.00319E-03-4.27741E-04-1.45345E-14
 -1       351 5.29048E-03-4.11744E-04-1.61708E-14
 -1       352 5.57951E-03-3.94613E-04-1.78877E-14
 -1       353 5.87046E-03-3.76552E-04-1.96862E-14
 -1       354 6.16363E-03-3.57907E-04-2.15656E-14
 -1       355 6.45947E-03-3.39302E-04-2.35229E-14
 -1       356 6.75856E-03-3.21718E-04-2.55568E-14
 -1       357 7.06157E-03-3.06658E-04-2.76643E-14
 -1       358 7.36924E-03-2.96342E-04-2.98466E-14
 -1       359 7.68238E-03-2.93885E-04-3.20985E-14
 -1       360 8.00175E-03-3.03410E-04-3.44219E-14
 -1       361 8.32799E-03-3.29926E-04-3.68146E-14
 -1       362 8.66126E-03-3.78699E-04-3.92662E-14
 -1       363 9.00071E-03-4.53692E-04-4.17752E-14
 -1       364 9.34363E-03-5.54644E-04-4.43412E-14
 -1       365 9.68497E-03-6.72928E-04-4.69631E-14
 -1       366 1.00185E-02-7.88138E-04-4.96264E-14
 -1       367 1.03407E-02-8.70202E-04-5.23251E-14
 -1       368 1.06549E-02-8.91358E-04-5.50609E-14
 -1       369 1.09704E-02-8.42533E-04-5.78393E-14
 -1       370 1.12950E-02-7.39707E-04-6.06643E-14
 -1       371 1.16298E-02-6.12967E-04-6.35277E-14
 -1       372 1.19700E-02-4.90207E-04-6.64406E-14
 -1       373 1.23092E-02-3.87803E-04-6.94095E-14
 -1       374 1.26430E-02-3.11031E-04-7.24306E-14
 -1       375 1.29693E-02-2.57938E-04-7.55082E-14
 -1       376 1.32875E-02-2.23164E-04-7.86362E-14
 -1       377 1.35980E-02-2.00355E-04-8.18185E-14
 -1       378 1.39013E-02-1.83383E-04-8.50497E-14
 -1       379 1.41984E-02-1.66817E-04-8.83378E-14
 -1       380 1.44582E-02-1.51834E-04-9.13083E-14
 -1       381 1.11873E-03 4.56114E-04-5.98507E-16
 -1       382 1.40155E-03 5.12892E-04-9.89880E-16
 -1       383 1.68179E-03 5.54860E-04-1.48100E-15
 -1       384 1.96099E-03 5.86113E-04-2.07156E-15
 -1       385 2.24006E-03 6.09620E-04-2.76040E-15
 -1       386 2.51953E-03 6.27570E-04-3.54245E-15
 -1       387 2.79968E-03 6.41587E-04-4.41577E-15
 -1       388 3.08061E-03 6.52872E-04-5.38049E-15
 -1       389 3.36230E-03 6.62302E-04-6.43330E-15
 -1       390 3.64482E-03 6.70557E-04-7.57376E-15
 -1       391 3.92827E-03 6.77893E-04-8.80585E-15
 -1       392 4.21284E-03 6.84029E-04-1.01264E-14
 -1       393 4.49820E-03 6.89439E-04-1.15364E-14
 -1       394 4.78431E-03 6.94089E-04-1.30296E-14
 -1       395 5.07138E-03 6.97905E-04-1.46040E-14
 -1       396 5.35962E-03 7.00917E-04-1.62603E-14
 -1       397 5.64930E-03 7.03166E-04-1.80005E-14
 -1       398 5.94080E-03 7.04757E-04-1.98277E-14
 -1       399 6.23457E-03 7.05954E-04-2.17372E-14
 -1       400 6.53120E-03 7.07282E-04-2.37258E-14
 -1       401 6.83133E-03 7.09638E-04-2.57939E-14
 -1       402 7.13567E-03 7.14422E-04-2.79352E-14
 -1       403 7.44489E-03 7.23679E-04-3.01505E-14
 -1       404 7.75958E-03 7.40216E-04-3.24353E-14
 -1       405 8.08010E-03 7.67627E-04-3.47893E-14
 -1       406 8.40633E-03 8.10082E-04-3.72099E-14
 -1       407 8.73741E-03 8.71645E-04-3.97011E-14
 -1       408 9.07135E-03 9.54854E-04-4.22661E-14
 -1       409 9.40479E-03 1.05840E-03-4.49004E-14
 -1       410 9.73325E-03 1.17432E-03-4.75972E-14
 -1       411 1.00524E-02 1.28632E-03-5.03587E-14
 -1       412 1.03605E-02 1.37184E-03-5.31812E-14
 -1       413 1.06606E-02 1.40971E-03-5.60584E-14
 -1       414 1.09600E-02 1.39046E-03-5.89825E-14
 -1       415 1.12661E-02 1.32170E-03-6.19566E-14
 -1       416 1.15824E-02 1.22374E-03-6.49762E-14
 -1       417 1.19075E-02 1.11931E-03-6.80373E-14
 -1       418 1.22372E-02 1.02536E-03-7.11274E-14
 -1       419 1.25668E-02 9.50344E-04-7.42427E-14
 -1       420 1.28928E-02 8.95616E-04-7.73879E-14
 -1       421 1.32127E-02 8.58178E-04-8.05504E-14
 -1       422 1.35257E-02 8.33045E-04-8.37256E-14
 -1       423 1.38316E-02 8.14745E-04-8.69139E-14
 -1       424 1.41309E-02 7.98092E-04-9.01160E-14
 -1       425 1.44243E-02 7.78606E-04-9.33377E-14
 -1       426 1.46137E-02 7.57034E-04-9.54111E-14
 -1       427 1.46693E-02 5.64553E-04-9.43789E-14
 -1       428 1.46198E-02 6.37866E-04-9.45050E-14
 -1       429 1.46147E-02 6.96291E-04-9.49599E-14
 -1       430 1.47166E-02 4.97693E-04-9.42459E-14
 -1       431 1.47584E-02 4.34850E-04-9.40994E-14
 -1       432 1.47895E-02 3.76493E-04-9.39474E-14
 -1       433 1.48061E-02 3.21270E-04-9.37912E-14
 -1       434 1.48062E-02 2.67338E-04-9.36281E-14
 -1       435 1.47895E-02 2.12626E-04-9.34565E-14
 -1       436 1.47584E-02 1.56169E-04-9.32794E-14
 -1       437 1.47152E-02 9.44833E-05-9.30889E-14
 -1       438 1.46648E-02 2.75413E-05-9.28895E-14
 -1       439 1.46125E-02-4.49723E-05-9.26773E-14
 -1       440 1.25894E-02 4.05456E-04-6.41423E-14
 -1       441 1.28893E-02 2.50495E-04-6.46754E-14
 -1       442 1.28284E-02 3.04524E-04-6.48855E-14
 -1       443 1.22766E-02 5.33804E-04-6.34997E-14
 -1       444 1.19498E-02 6.94960E-04-6.23438E-14
 -1       445 4.37615E-04-1.23139E-04-1.50806E-16
 -1       446 1.11396E-02 1.10064E-03-5.86117E-14
 -1       447 1.07947E-02 1.19715E-03-5.67398E-14
 -1       448 1.04331E-02 1.17584E-03-5.45136E-14
 -1       449 1.00247E-02 1.01803E-03-5.23890E-14
 -1       450 9.64301E-03 8.21877E-04-5.07560E-14
 -1       451 9.27269E-03 6.22752E-04-4.93001E-14
 -1       452 8.90078E-03 4.49906E-04-4.82176E-14
 -1       453 8.62236E-03 3.32539E-04-4.73942E-14
 -1       454 8.44745E-03 2.60274E-04-4.70543E-14
 -1       455 8.40872E-03 2.07890E-04-4.66797E-14
 -1       456 8.53760E-03 1.39704E-04-4.71059E-14
 -1       457 8.78173E-03 4.65613E-05-4.74250E-14
 -1       458 9.18405E-03-1.45192E-04-4.87448E-14
 -1       459 9.57941E-03-3.46104E-04-4.99397E-14
 -1       460 9.89081E-03-5.12654E-04-5.12828E-14
 -1       461 1.02905E-02-6.82087E-04-5.32666E-14
 -1       462 1.06114E-02-7.36894E-04-5.50566E-14
 -1       463 1.09804E-02-6.71873E-04-5.71410E-14
 -1       464 1.12867E-02-5.46222E-04-5.86870E-14
 -1       465 1.17021E-02-3.27640E-04-6.06224E-14
 -1       466 1.21505E-02-8.69817E-05-6.25225E-14
 -1       467 1.25332E-02 7.80527E-05-6.35889E-14
 -1       468 1.28047E-02 1.93801E-04-6.46563E-14
 -1       469 1.14750E-02 9.47971E-04-6.02242E-14
 -1       470 9.36777E-04 3.52205E-04-4.99231E-16
 -1       471 6.57696E-04-7.08500E-05-3.70943E-16
 -1       472 6.60057E-04-1.11081E-04-3.58583E-16
 -1       473 6.58022E-04 4.73299E-06-3.82862E-16
 -1       474 6.60181E-04 4.22181E-05-3.83499E-16
 -1       475 6.63722E-04 8.01805E-05-3.80792E-16
 -1       476 6.69250E-04 1.21082E-04-3.73962E-16
 -1       477 6.77732E-04 1.65782E-04-3.61209E-16
 -1       478 6.91198E-04 2.16339E-04-3.39911E-16
 -1       479 1.22424E-03 4.16100E-04-8.53904E-16
 -1       480 9.55488E-04-3.17446E-04-5.38615E-16
 -1       481 1.16783E-02 8.30392E-04-6.21972E-14
 -1       482 1.27460E-02 3.36043E-04-6.63040E-14
 -1       483 1.23538E-03-3.68048E-04-8.98133E-16
 -1       484 1.51449E-03-4.03099E-04-1.35163E-15
 -1       485 1.79279E-03-4.25951E-04-1.89993E-15
 -1       486 2.07060E-03-4.39472E-04-2.54285E-15
 -1       487 2.34824E-03-4.45913E-04-3.28031E-15
 -1       488 2.62597E-03-4.46991E-04-4.11082E-15
 -1       489 2.90399E-03-4.43978E-04-5.03154E-15
 -1       490 3.18244E-03-4.37768E-04-6.04242E-15
 -1       491 3.46147E-03-4.28932E-04-7.14133E-15
 -1       492 3.74115E-03-4.17792E-04-8.32576E-15
 -1       493 4.02133E-03-4.04708E-04-9.59418E-15
 -1       494 4.30165E-03-3.90834E-04-1.09457E-14
 -1       495 4.58094E-03-3.78439E-04-1.23800E-14
 -1       496 4.86633E-03-3.61846E-04-1.38942E-14
 -1       497 5.15187E-03-3.46342E-04-1.54903E-14
 -1       498 5.43931E-03-3.29345E-04-1.71672E-14
 -1       499 5.72799E-03-3.11512E-04-1.89269E-14
 -1       500 6.01771E-03-2.92894E-04-2.07671E-14
 -1       501 6.30872E-03-2.73888E-04-2.26875E-14
 -1       502 6.60133E-03-2.55177E-04-2.46842E-14
 -1       503 6.89599E-03-2.37837E-04-2.67581E-14
 -1       504 7.19331E-03-2.23512E-04-2.89049E-14
 -1       505 7.49413E-03-2.14590E-04-3.11247E-14
 -1       506 7.79966E-03-2.14371E-04-3.34137E-14
 -1       507 8.11158E-03-2.27194E-04-3.57705E-14
 -1       508 8.43204E-03-2.58382E-04-3.81924E-14
 -1       509 8.76328E-03-3.13757E-04-4.06684E-14
 -1       510 9.10640E-03-3.98081E-04-4.32016E-14
 -1       511 9.45923E-03-5.11351E-04-4.57949E-14
 -1       512 9.81454E-03-6.42343E-04-4.84372E-14
 -1       513 1.01621E-02-7.62292E-04-5.11191E-14
 -1       514 1.04975E-02-8.29060E-04-5.38406E-14
 -1       515 1.08279E-02-8.12241E-04-5.66028E-14
 -1       516 1.11662E-02-7.17852E-04-5.94146E-14
 -1       517 1.15163E-02-5.82843E-04-6.22692E-14
 -1       518 1.18709E-02-4.47284E-04-6.51645E-14
 -1       519 1.22198E-02-3.33850E-04-6.81148E-14
 -1       520 1.25576E-02-2.49404E-04-7.11179E-14
 -1       521 1.28830E-02-1.91475E-04-7.41749E-14
 -1       522 1.31978E-02-1.54142E-04-7.72785E-14
 -1       523 1.35041E-02-1.30763E-04-8.04325E-14
 -1       524 1.38039E-02-1.15138E-04-8.36351E-14
 -1       525 1.40985E-02-1.01819E-04-8.68916E-14
 -1       526 1.79394E-03 4.99429E-04-1.85385E-15
 -1       527 2.07718E-03 5.26078E-04-2.49899E-15
 -1       528 2.36005E-03 5.46246E-04-3.23729E-15
 -1       529 2.64287E-03 5.61790E-04-4.06733E-15
 -1       530 2.92586E-03 5.74099E-04-4.98848E-15
 -1       531 3.20908E-03 5.84196E-04-5.99900E-15
 -1       532 3.49248E-03 5.92828E-04-7.09651E-15
 -1       533 3.77497E-03 6.00880E-04-8.28315E-15
 -1       534 4.06152E-03 6.06828E-04-9.55984E-15
 -1       535 4.34726E-03 6.12619E-04-1.09248E-14
 -1       536 4.63324E-03 6.17704E-04-1.23738E-14
 -1       537 4.91978E-03 6.21825E-04-1.39049E-14
 -1       538 5.20707E-03 6.25111E-04-1.55184E-14
 -1       539 5.49520E-03 6.27593E-04-1.72153E-14
 -1       540 5.78437E-03 6.29286E-04-1.89967E-14
 -1       541 6.07487E-03 6.30316E-04-2.08611E-14
 -1       542 6.36705E-03 6.31023E-04-2.28038E-14
 -1       543 6.66134E-03 6.32045E-04-2.48249E-14
 -1       544 6.95825E-03 6.34436E-04-2.69234E-14
 -1       545 7.25838E-03 6.39795E-04-2.90970E-14
 -1       546 7.56245E-03 6.50402E-04-3.13404E-14
 -1       547 7.87133E-03 6.69338E-04-3.36538E-14
 -1       548 8.18600E-03 7.00484E-04-3.60326E-14
 -1       549 8.50744E-03 7.48293E-04-3.84821E-14
 -1       550 8.83623E-03 8.17046E-04-4.10046E-14
 -1       551 9.17175E-03 9.09215E-04-4.35960E-14
 -1       552 9.51115E-03 1.02256E-03-4.62504E-14
 -1       553 9.84891E-03 1.14628E-03-4.89697E-14
 -1       554 1.01788E-02 1.25860E-03-5.17461E-14
 -1       555 1.04985E-02 1.33085E-03-5.45796E-14
 -1       556 1.08130E-02 1.34083E-03-5.74666E-14
 -1       557 1.11313E-02 1.28717E-03-6.04032E-14
 -1       558 1.14592E-02 1.19028E-03-6.33834E-14
 -1       559 1.17951E-02 1.07893E-03-6.64086E-14
 -1       560 1.21327E-02 9.75697E-04-6.94762E-14
 -1       561 1.24664E-02 8.92270E-04-7.25739E-14
 -1       562 1.27929E-02 8.31183E-04-7.56966E-14
 -1       563 1.31113E-02 7.89722E-04-7.88488E-14
 -1       564 1.34220E-02 7.62859E-04-8.20150E-14
 -1       565 1.37259E-02 7.45015E-04-8.51969E-14
 -1       566 1.40241E-02 7.30855E-04-8.83949E-14
 -1       567 1.43172E-02 7.15600E-04-9.16142E-14
 -1       568 1.44984E-02 4.74524E-04-9.13574E-14
 -1       569 1.45382E-02 4.10722E-04-9.11989E-14
 -1       570 1.43979E-02 6.15279E-04-9.16350E-14
 -1       571 1.44500E-02 5.42453E-04-9.15024E-14
 -1       572 1.45644E-02 3.50765E-04-9.10361E-14
 -1       573 1.45738E-02 2.93137E-04-9.08663E-14
 -1       574 1.45650E-02 2.35855E-04-9.06875E-14
 -1       575 1.45393E-02 1.77870E-04-9.05046E-14
 -1       576 1.44986E-02 1.15444E-04-9.03071E-14
 -1       577 1.44479E-02 4.83620E-05-9.01022E-14
 -1       578 1.43924E-02-2.38971E-05-8.98915E-14
 -1       579 1.29166E-02 2.69070E-04-6.64887E-14
 -1       580 1.25154E-02 4.22271E-04-6.56568E-14
 -1       581 1.50983E-03 4.63839E-04-1.30524E-15
 -1       582 1.29039E-02 2.35789E-04-6.64643E-14
 -1       583 1.21210E-02 6.00030E-04-6.43627E-14
 -1       584 1.13034E-02 1.03301E-03-6.02572E-14
 -1       585 1.26983E-02 1.61420E-04-6.57686E-14
 -1       586 1.08049E-02-7.33125E-04-5.63090E-14
 -1       587 9.35804E-03-2.17705E-04-4.83464E-14
 -1       588 6.57159E-04-3.26216E-05-3.78742E-16
 -1       589 1.06285E-02 1.22346E-03-5.57273E-14
 -1       590 1.04357E-02-7.41090E-04-5.37472E-14
 -1       591 1.09995E-02 1.16512E-03-5.83604E-14
 -1       592 1.02089E-02 1.10716E-03-5.28742E-14
 -1       593 9.83721E-03 9.13649E-04-5.08650E-14
 -1       594 9.48243E-03 7.15005E-04-4.91398E-14
 -1       595 9.06584E-03 5.01223E-04-4.77005E-14
 -1       596 8.73956E-03 3.61066E-04-4.64845E-14
 -1       597 8.48777E-03 2.71227E-04-4.59733E-14
 -1       598 8.38574E-03 2.29512E-04-4.56052E-14
 -1       599 8.42992E-03 1.83673E-04-4.54494E-14
 -1       600 8.59169E-03 1.26457E-04-4.57643E-14
 -1       601 8.98653E-03-3.25957E-05-4.70251E-14
 -1       602 9.75539E-03-4.41499E-04-4.97833E-14
 -1       603 1.18979E-02-2.00770E-04-6.25034E-14
 -1       604 1.01190E-02-6.30364E-04-5.17623E-14
 -1       605 1.11302E-02-6.18405E-04-5.84180E-14
 -1       606 1.14764E-02-4.35488E-04-6.03533E-14
 -1       607 1.24069E-02 4.72243E-05-6.46819E-14
 -1       608 6.97764E-04-2.44442E-04-3.00375E-16
 -1       609 7.08235E-04 2.94877E-04-2.77403E-16
 -1       610 6.65163E-04-1.54549E-04-3.40768E-16
 -1       611 6.78735E-04-1.96533E-04-3.24742E-16
 -1       612 1.21978E-02-6.33252E-05-6.46552E-14
 -1       613 1.04119E-02 1.19859E-03-5.40656E-14
 -1       614 8.74066E-03 5.71874E-05-4.53664E-14
 -1       615 8.34459E-03 2.05664E-04-4.43878E-14
 -1       616 1.42941E-02-9.32602E-05-8.91193E-14
 -1       617 8.95745E-04 7.99485E-05-6.56589E-16
 -1       618 8.91727E-04 3.11896E-05-6.58219E-16
 -1       619 9.11671E-04 1.84031E-04-6.35000E-16
 -1       620 9.26066E-04 2.42747E-04-6.10667E-16
 -1       621 1.05297E-03 3.21362E-04-7.12782E-16
 -1       622 9.97285E-03 1.01524E-03-5.09836E-14
 -1       623 1.35691E-03-3.20673E-04-1.17739E-15
 -1       624 1.63780E-03-3.46639E-04-1.68860E-15
 -1       625 1.91882E-03-3.62929E-04-2.29337E-15
 -1       626 2.19976E-03-3.71662E-04-2.99059E-15
 -1       627 2.48064E-03-3.74583E-04-3.78023E-15
 -1       628 2.76151E-03-3.73049E-04-4.66062E-15
 -1       629 3.04247E-03-3.68066E-04-5.63233E-15
 -1       630 3.32358E-03-3.60337E-04-6.69096E-15
 -1       631 3.60488E-03-3.50342E-04-7.83757E-15
 -1       632 3.88628E-03-3.38486E-04-9.06783E-15
 -1       633 4.16758E-03-3.25383E-04-1.03815E-14
 -1       634 4.44887E-03-3.11711E-04-1.17768E-14
 -1       635 4.73041E-03-2.96932E-04-1.32530E-14
 -1       636 5.00816E-03-2.82255E-04-1.48113E-14
 -1       637 5.29831E-03-2.64510E-04-1.64495E-14
 -1       638 5.58517E-03-2.47574E-04-1.81686E-14
 -1       639 5.87227E-03-2.29620E-04-1.99719E-14
 -1       640 6.15942E-03-2.11018E-04-2.18526E-14
 -1       641 6.44660E-03-1.92244E-04-2.38125E-14
 -1       642 6.73411E-03-1.73957E-04-2.58498E-14
 -1       643 7.02235E-03-1.57255E-04-2.79632E-14
 -1       644 7.31198E-03-1.43779E-04-3.01507E-14
 -1       645 7.60410E-03-1.35850E-04-3.24080E-14
 -1       646 7.90057E-03-1.36665E-04-3.47305E-14
 -1       647 8.20434E-03-1.50552E-04-3.71189E-14
 -1       648 8.51962E-03-1.83299E-04-3.95665E-14
 -1       649 8.85142E-03-2.42345E-04-4.20701E-14
 -1       650 9.20338E-03-3.35719E-04-4.46299E-14
 -1       651 9.57307E-03-4.66603E-04-4.72463E-14
 -1       652 9.94997E-03-6.19943E-04-4.99073E-14
 -1       653 1.06709E-02-7.86079E-04-5.53566E-14
 -1       654 1.10275E-02-7.08713E-04-5.81563E-14
 -1       655 1.13974E-02-5.59883E-04-6.09981E-14
 -1       656 1.17737E-02-4.02328E-04-6.38796E-14
 -1       657 1.21385E-02-2.74042E-04-6.68121E-14
 -1       658 1.24840E-02-1.82810E-04-6.97945E-14
 -1       659 1.28103E-02-1.22656E-04-7.28330E-14
 -1       660 1.31214E-02-8.50783E-05-7.59226E-14
 -1       661 1.34222E-02-6.24694E-05-7.90527E-14
 -1       662 1.37163E-02-4.85650E-05-8.22282E-14
 -1       663 1.40063E-02-3.82329E-05-8.54514E-14
 -1       664 2.19824E-03 4.63709E-04-2.93331E-15
 -1       665 1.41998E-02-3.19338E-05-8.76589E-14
 -1       666 1.91252E-03 4.41337E-04-2.23738E-15
 -1       667 2.76881E-03 4.94363E-04-4.59863E-15
 -1       668 3.05386E-03 5.05290E-04-5.56662E-15
 -1       669 3.33884E-03 5.14499E-04-6.62151E-15
 -1       670 3.62391E-03 5.22490E-04-7.76518E-15
 -1       671 3.90935E-03 5.29238E-04-8.99729E-15
 -1       672 4.19511E-03 5.35434E-04-1.03179E-14
 -1       673 4.48102E-03 5.41302E-04-1.17234E-14
 -1       674 4.76710E-03 5.45926E-04-1.32105E-14
 -1       675 5.05366E-03 5.49706E-04-1.47818E-14
 -1       676 5.34044E-03 5.52769E-04-1.64355E-14
 -1       677 5.62754E-03 5.55020E-04-1.81717E-14
 -1       678 5.91509E-03 5.56462E-04-1.99914E-14
 -1       679 6.20330E-03 5.57272E-04-2.18899E-14
 -1       680 6.49237E-03 5.57858E-04-2.38655E-14
 -1       681 6.78264E-03 5.58943E-04-2.59198E-14
 -1       682 7.07453E-03 5.61660E-04-2.80493E-14
 -1       683 7.36873E-03 5.67682E-04-3.02540E-14
 -1       684 7.66625E-03 5.79354E-04-3.25254E-14
 -1       685 7.96861E-03 5.99823E-04-3.48650E-14
 -1       686 8.27795E-03 6.33137E-04-3.72730E-14
 -1       687 8.59689E-03 6.84193E-04-3.97528E-14
 -1       688 8.92786E-03 7.58236E-04-4.23022E-14
 -1       689 9.27149E-03 8.59104E-04-4.49154E-14
 -1       690 9.62431E-03 9.85194E-04-4.75909E-14
 -1       691 9.97687E-03 1.12177E-03-5.03276E-14
 -1       692 1.03201E-02 1.23647E-03-5.31153E-14
 -1       693 1.06516E-02 1.28883E-03-5.59619E-14
 -1       694 1.09823E-02 1.25769E-03-5.88607E-14
 -1       695 1.13236E-02 1.16039E-03-6.18100E-14
 -1       696 1.16751E-02 1.03688E-03-6.48017E-14
 -1       697 1.20278E-02 9.20803E-04-6.78375E-14
 -1       698 1.23719E-02 8.28648E-04-7.09100E-14
 -1       699 1.27032E-02 7.62725E-04-7.40136E-14
 -1       700 1.30219E-02 7.19043E-04-7.71504E-14
 -1       701 1.33304E-02 6.91721E-04-8.03027E-14
 -1       702 1.36313E-02 6.74884E-04-8.34774E-14
 -1       703 1.39264E-02 6.63225E-04-8.66731E-14
 -1       704 1.41639E-02 6.39541E-04-8.91492E-14
 -1       705 1.23887E-02 5.03628E-04-6.65198E-14
 -1       706 1.43402E-02 3.20990E-04-8.81315E-14
 -1       707 1.42824E-02 4.45078E-04-8.84711E-14
 -1       708 1.43409E-02 2.62512E-04-8.79493E-14
 -1       709 1.43198E-02 3.81175E-04-8.83079E-14
 -1       710 1.02433E-02-7.10586E-04-5.21757E-14
 -1       711 1.43219E-02 2.04304E-04-8.77630E-14
 -1       712 1.42847E-02 1.42102E-04-8.75636E-14
 -1       713 1.42338E-02 7.52907E-05-8.73557E-14
 -1       714 1.28827E-02 2.09412E-04-6.77721E-14
 -1       715 1.27059E-02 3.77475E-04-6.77764E-14
 -1       716 1.62634E-03 4.11821E-04-1.63431E-15
 -1       717 1.29781E-02 2.56728E-04-6.81134E-14
 -1       718 1.29186E-02 2.96577E-04-6.81211E-14
 -1       719 9.32056E-04-2.60130E-04-5.75274E-16
 -1       720 8.51630E-03 2.96896E-04-4.45054E-14
 -1       721 1.19098E-02 7.39376E-04-6.43935E-14
 -1       722 1.16909E-02-3.37654E-04-6.22523E-14
 -1       723 2.48363E-03 4.80882E-04-3.72009E-15
 -1       724 1.14399E-03-2.94511E-04-8.49296E-16
 -1       725 1.33972E-03 3.72742E-04-1.12643E-15
 -1       726 9.02109E-04 1.30384E-04-6.49342E-16
 -1       727 8.91802E-04-1.14925E-04-6.29681E-16
 -1       728 1.11889E-02 1.12036E-03-6.00968E-14
 -1       729 9.48270E-03-3.12173E-04-4.79533E-14
 -1       730 9.67275E-03 8.48306E-04-4.92517E-14
 -1       731 9.20574E-03 5.89426E-04-4.71222E-14
 -1       732 9.12681E-03-1.29587E-04-4.63310E-14
 -1       733 8.38034E-03 2.49131E-04-4.41481E-14
 -1       734 1.15413E-02 9.44847E-04-6.24541E-14
 -1       735 8.42456E-03 1.57714E-04-4.38808E-14
 -1       736 8.87432E-03 4.30091E-04-4.59155E-14
 -1       737 1.09688E-02-7.04673E-04-5.75944E-14
 -1       738 9.91444E-03-5.65742E-04-5.00054E-14
 -1       739 1.13258E-02-5.38661E-04-6.00182E-14
 -1       740 1.08473E-02 1.23140E-03-5.75131E-14
 -1       741 1.26144E-02 1.12406E-04-6.67070E-14
 -1       742 8.96961E-04-1.67589E-04-6.07150E-16
 -1       743 8.89701E-04-1.68594E-05-6.54391E-16
 -1       744 1.03761E-02-7.66958E-04-5.30342E-14
 -1       745 1.21976E-02 6.31656E-04-6.65483E-14
 -1       746 1.42201E-02 5.63166E-04-8.90116E-14
 -1       747 1.19985E-02-1.97751E-04-6.43963E-14
 -1       748 8.51784E-03 1.03770E-04-4.34873E-14
 -1       749 8.27524E-03 2.23898E-04-4.29466E-14
 -1       750 1.41223E-02 2.05330E-05-8.64043E-14
 -1       751 1.24459E-02 1.89900E-05-6.66767E-14
 -1       752 8.89627E-04-6.51125E-05-6.45083E-16
 -1       753 1.42536E-02 5.02408E-04-8.87459E-14
 -1       754 1.16257E-03 2.52475E-04-9.57205E-16
 -1       755 1.02779E-02 1.16757E-03-5.29876E-14
 -1       756 9.12684E-04-2.12006E-04-5.94671E-16
 -1       757 1.05758E-02 1.24721E-03-5.53135E-14
 -1       758 1.24914E-03 3.10819E-04-1.04392E-15
 -1       759 1.28500E-02 1.64048E-04-6.89954E-14
 -1       760 1.76711E-03-2.86646E-04-2.04294E-15
 -1       761 2.05019E-03-2.96940E-04-2.70142E-15
 -1       762 2.33352E-03-3.01318E-04-3.45106E-15
 -1       763 2.61687E-03-3.01088E-04-4.29155E-15
 -1       764 2.90016E-03-2.97279E-04-5.22247E-15
 -1       765 3.18334E-03-2.90659E-04-6.24276E-15
 -1       766 3.46640E-03-2.81785E-04-7.34917E-15
 -1       767 3.74926E-03-2.71091E-04-8.54158E-15
 -1       768 4.03184E-03-2.59002E-04-9.81688E-15
 -1       769 4.31412E-03-2.45937E-04-1.11743E-14
 -1       770 4.59613E-03-2.32084E-04-1.26131E-14
 -1       771 4.87809E-03-2.17201E-04-1.41313E-14
 -1       772 5.16046E-03-2.00730E-04-1.57331E-14
 -1       773 5.44034E-03-1.83880E-04-1.74132E-14
 -1       774 5.72865E-03-1.67250E-04-1.91764E-14
 -1       775 6.01302E-03-1.49879E-04-2.10206E-14
 -1       776 6.29598E-03-1.31999E-04-2.29439E-14
 -1       777 6.57783E-03-1.14003E-04-2.49441E-14
 -1       778 6.85869E-03-9.65680E-05-2.70222E-14
 -1       779 7.13883E-03-8.07064E-05-2.91768E-14
 -1       780 7.41888E-03-6.78474E-05-3.14020E-14
 -1       781 7.70012E-03-5.99628E-05-3.36941E-14
 -1       782 7.98497E-03-5.98247E-05-3.60495E-14
 -1       783 8.27758E-03-7.15658E-05-3.84662E-14
 -1       784 8.58436E-03-1.01720E-04-4.09411E-14
 -1       785 8.91426E-03-1.61199E-04-4.34718E-14
 -1       786 1.24346E-02-1.04394E-04-6.84748E-14
 -1       787 1.27591E-02-4.60110E-05-7.14936E-14
 -1       788 1.30623E-02-1.16987E-05-7.45640E-14
 -1       789 1.33540E-02 7.68534E-06-7.76782E-14
 -1       790 1.36394E-02 1.87143E-05-8.08302E-14
 -1       791 1.38808E-02 1.96175E-05-8.35980E-14
 -1       792 3.47019E-03 4.43891E-04-7.25066E-15
 -1       793 3.18384E-03 4.35423E-04-6.15014E-15
 -1       794 2.89730E-03 4.25612E-04-5.13743E-15
 -1       795 3.75638E-03 4.51326E-04-8.43989E-15
 -1       796 4.04238E-03 4.58017E-04-9.71615E-15
 -1       797 4.32782E-03 4.64431E-04-1.10777E-14
 -1       798 4.61372E-03 4.69910E-04-1.25222E-14
 -1       799 4.90012E-03 4.74368E-04-1.40509E-14
 -1       800 5.18588E-03 4.78348E-04-1.56611E-14
 -1       801 5.47131E-03 4.81568E-04-1.73535E-14
 -1       802 5.75646E-03 4.83934E-04-1.91273E-14
 -1       803 6.04139E-03 4.85495E-04-2.09835E-14
 -1       804 6.32613E-03 4.86476E-04-2.29162E-14
 -1       805 6.61079E-03 4.87323E-04-2.49240E-14
 -1       806 6.89558E-03 4.88761E-04-2.70109E-14
 -1       807 7.18092E-03 4.91876E-04-2.91728E-14
 -1       808 7.46762E-03 4.98230E-04-3.14065E-14
 -1       809 7.75711E-03 5.10000E-04-3.37066E-14
 -1       810 8.05170E-03 5.30191E-04-3.60733E-14
 -1       811 8.35492E-03 5.62974E-04-3.85120E-14
 -1       812 8.67150E-03 6.14199E-04-4.10204E-14
 -1       813 9.00658E-03 6.91642E-04-4.35914E-14
 -1       814 9.36243E-03 8.03300E-04-4.62281E-14
 -1       815 1.22890E-02 7.56171E-04-6.92560E-14
 -1       816 1.26268E-02 6.87050E-04-7.23381E-14
 -1       817 1.29455E-02 6.43704E-04-7.54566E-14
 -1       818 1.32506E-02 6.18261E-04-7.85967E-14
 -1       819 1.35465E-02 6.03856E-04-8.17583E-14
 -1       820 1.38367E-02 5.95248E-04-8.49454E-14
 -1       821 1.40296E-02 5.78972E-04-8.69763E-14
 -1       822 9.24740E-03-2.52737E-04-4.58988E-14
 -1       823 1.41178E-02 2.89895E-04-8.52389E-14
 -1       824 1.40244E-02 1.05785E-04-8.46509E-14
 -1       825 1.41076E-02 2.32440E-04-8.50515E-14
 -1       826 1.13199E-03 6.80035E-05-1.00240E-15
 -1       827 8.78982E-03-2.30651E-05-4.40663E-14
 -1       828 8.26380E-03 1.88140E-04-4.24386E-14
 -1       829 9.66476E-03 9.18531E-04-4.84322E-14
 -1       830 8.61989E-03 3.66183E-04-4.38217E-14
 -1       831 1.30411E-02 2.78933E-04-6.98512E-14
 -1       832 1.74878E-03 3.56932E-04-1.97756E-15
 -1       833 1.40751E-02 1.71569E-04-8.48542E-14
 -1       834 1.26471E-02 4.56555E-04-6.91263E-14
 -1       835 1.48470E-03-2.68901E-04-1.47635E-15
 -1       836 1.19429E-02 8.35028E-04-6.61100E-14
 -1       837 2.03614E-03 3.80857E-04-2.63155E-15
 -1       838 8.36035E-03 2.70591E-04-4.28922E-14
 -1       839 8.92382E-03 5.09629E-04-4.48001E-14
 -1       840 1.30438E-02 2.37355E-04-6.99959E-14
 -1       841 1.29567E-02 3.38435E-04-7.03545E-14
 -1       842 1.12817E-03 1.04223E-05-1.00053E-15
 -1       843 1.14837E-03 1.87876E-04-9.82053E-16
 -1       844 1.12362E-03-2.41710E-04-8.73620E-16
 -1       845 1.13260E-03-1.65106E-04-9.48626E-16
 -1       846 1.49869E-03 3.37800E-04-1.47409E-15
 -1       847 2.61049E-03 4.13877E-04-4.21227E-15
 -1       848 1.12818E-03-1.04986E-04-9.74454E-16
 -1       849 1.40707E-02 4.11950E-04-8.55988E-14
 -1       850 1.41048E-02 3.49069E-04-8.54218E-14
 -1       851 1.13850E-03 1.26605E-04-9.96507E-16
 -1       852 1.27234E-02 9.34723E-05-6.89618E-14
 -1       853 8.30411E-03 1.52164E-04-4.20566E-14
 -1       854 1.40412E-02 4.69108E-04-8.58768E-14
 -1       855 2.32343E-03 3.99347E-04-3.37657E-15
 -1       856 1.24926E-02 5.63480E-04-6.91594E-14
 -1       857 1.39546E-02 6.40302E-05-8.41266E-14
 -1       858 9.30850E-03 7.04968E-04-4.66005E-14
 -1       859 1.90125E-03-2.23095E-04-2.41501E-15
 -1       860 2.18608E-03-2.28090E-04-3.12468E-15
 -1       861 2.47128E-03-2.28655E-04-3.92486E-15
 -1       862 2.75652E-03-2.25727E-04-4.81539E-15
 -1       863 3.04160E-03-2.20049E-04-5.79592E-15
 -1       864 3.32638E-03-2.12187E-04-6.86357E-15
 -1       865 3.61078E-03-2.02576E-04-8.01643E-15
 -1       866 3.89471E-03-1.91574E-04-9.25371E-15
 -1       867 4.17811E-03-1.79488E-04-1.05737E-14
 -1       868 4.46101E-03-1.66504E-04-1.19746E-14
 -1       869 4.74347E-03-1.52599E-04-1.34552E-14
 -1       870 5.02549E-03-1.37671E-04-1.50163E-14
 -1       871 5.30727E-03-1.21901E-04-1.66609E-14
 -1       872 5.58913E-03-1.05619E-04-1.83845E-14
 -1       873 5.87053E-03-8.96819E-05-2.01916E-14
 -1       874 6.15038E-03-7.33981E-05-2.20778E-14
 -1       875 6.42815E-03-5.66888E-05-2.40427E-14
 -1       876 6.70364E-03-3.99350E-05-2.60850E-14
 -1       877 6.97667E-03-2.37138E-05-2.82018E-14
 -1       878 7.24723E-03-8.80741E-06-3.03937E-14
 -1       879 7.51566E-03 3.76320E-06-3.26545E-14
 -1       880 7.78299E-03 1.26423E-05-3.49797E-14
 -1       881 8.05152E-03 1.58099E-05-3.73696E-14
 -1       882 8.32572E-03 9.63537E-06-3.98176E-14
 -1       883 8.55266E-03 1.89185E-06-4.19232E-14
 -1       884 1.30229E-02 6.40885E-05-7.32033E-14
 -1       885 1.32988E-02 7.76614E-05-7.62990E-14
 -1       886 1.35708E-02 8.46596E-05-7.94364E-14
 -1       887 3.31565E-03 3.64764E-04-6.74050E-15
 -1       888 3.60275E-03 3.72776E-04-7.88666E-15
 -1       889 3.02815E-03 3.55801E-04-5.68221E-15
 -1       890 4.17561E-03 3.87056E-04-1.04381E-14
 -1       891 4.46161E-03 3.93459E-04-1.18400E-14
 -1       892 4.74715E-03 3.98868E-04-1.33255E-14
 -1       893 5.03208E-03 4.03958E-04-1.48933E-14
 -1       894 5.31629E-03 4.08457E-04-1.65417E-14
 -1       895 5.59967E-03 4.12161E-04-1.82716E-14
 -1       896 5.88215E-03 4.15001E-04-2.00830E-14
 -1       897 6.16363E-03 4.17079E-04-2.19744E-14
 -1       898 6.44398E-03 4.18645E-04-2.39400E-14
 -1       899 6.72315E-03 4.20111E-04-2.59816E-14
 -1       900 7.00121E-03 4.22100E-04-2.81009E-14
 -1       901 7.27852E-03 4.25499E-04-3.02942E-14
 -1       902 7.55592E-03 4.31555E-04-3.25554E-14
 -1       903 7.83507E-03 4.42036E-04-3.48835E-14
 -1       904 8.11890E-03 4.59584E-04-3.72832E-14
 -1       905 8.41213E-03 4.88366E-04-3.97524E-14
 -1       906 8.72231E-03 5.36107E-04-4.22825E-14
 -1       907 1.31406E-02 3.05718E-04-7.21691E-14
 -1       908 1.34715E-02 5.31846E-04-8.00414E-14
 -1       909 1.37538E-02 5.27103E-04-8.32160E-14
 -1       910 1.31842E-02 5.41835E-04-7.68921E-14
 -1       911 1.23616E-02-5.10761E-05-6.68597E-14
 -1       912 8.13417E-03 2.08304E-04-4.07420E-14
 -1       913 1.38969E-02 2.59648E-04-8.23688E-14
 -1       914 3.88941E-03 3.80125E-04-9.12012E-15
 -1       915 1.12686E-03-4.68771E-05-9.91344E-16
 -1       916 1.61734E-03-2.12550E-04-1.79566E-15
 -1       917 1.28869E-02 5.62290E-04-7.37691E-14
 -1       918 1.29495E-02 4.11801E-04-7.20376E-14
 -1       919 8.35089E-03 3.22358E-04-4.14571E-14
 -1       920 1.31871E-02 2.59316E-04-7.23156E-14
 -1       921 8.16863E-03 2.50912E-04-4.06877E-14
 -1       922 8.62011E-03 4.33162E-04-4.25527E-14
 -1       923 1.31037E-02 1.96467E-04-7.19710E-14
 -1       924 1.40362E-02 5.22833E-04-8.64295E-14
 -1       925 1.87572E-03 2.99146E-04-2.33482E-15
 -1       926 1.37075E-03-1.56941E-04-1.35752E-15
 -1       927 1.62478E-03 2.85963E-04-1.78777E-15
 -1       928 1.40101E-03 2.49376E-04-1.37637E-15
 -1       929 8.12593E-03 1.78932E-04-4.03756E-14
 -1       930 9.00485E-03 6.20104E-04-4.42552E-14
 -1       931 2.74029E-03 3.45484E-04-4.71170E-15
 -1       932 1.31730E-02 3.63667E-04-7.38714E-14
 -1       933 1.37609E-02 7.42381E-05-8.17692E-14
 -1       934 2.16386E-03 3.18107E-04-3.03731E-15
 -1       935 1.38945E-02 3.16993E-04-8.25554E-14
 -1       936 1.30249E-02 1.44316E-04-7.19364E-14
 -1       937 1.37807E-03 1.12404E-04-1.41263E-15
 -1       938 1.38222E-02 4.41997E-04-8.29752E-14
 -1       939 1.38712E-02 2.00997E-04-8.21773E-14
 -1       940 1.37197E-03 4.66403E-05-1.41501E-15
 -1       941 1.38686E-02 3.76385E-04-8.27705E-14
 -1       942 1.38238E-02 1.41026E-04-8.19763E-14
 -1       943 8.32464E-03 8.67446E-05-4.09385E-14
 -1       944 1.38752E-03 1.79630E-04-1.40014E-15
 -1       945 1.75424E-03-1.51677E-04-2.13345E-15
 -1       946 2.32589E-03-1.56538E-04-3.56257E-15
 -1       947 2.61256E-03-1.53926E-04-4.41260E-15
 -1       948 2.89920E-03-1.48822E-04-5.35180E-15
 -1       949 3.18553E-03-1.41730E-04-6.37961E-15
 -1       950 3.47139E-03-1.33042E-04-7.49320E-15
 -1       951 3.75666E-03-1.23069E-04-8.69143E-15
 -1       952 4.04125E-03-1.12056E-04-9.97327E-15
 -1       953 4.32510E-03-1.00165E-04-1.13377E-14
 -1       954 4.60819E-03-8.74398E-05-1.27806E-14
 -1       955 4.89044E-03-7.38268E-05-1.43052E-14
 -1       956 5.17184E-03-5.93703E-05-1.59112E-14
 -1       957 5.45249E-03-4.44362E-05-1.75968E-14
 -1       958 5.73212E-03-2.99374E-05-1.93641E-14
 -1       959 6.00988E-03-1.54581E-05-2.12138E-14
 -1       960 6.28517E-03-6.48009E-07-2.31422E-14
 -1       961 6.55741E-03 1.44216E-05-2.51499E-14
 -1       962 6.82603E-03 2.94574E-05-2.72309E-14
 -1       963 7.09050E-03 4.40596E-05-2.93855E-14
 -1       964 7.35030E-03 5.77574E-05-3.16136E-14
 -1       965 7.60504E-03 7.00306E-05-3.39090E-14
 -1       966 7.85462E-03 8.02907E-05-3.62677E-14
 -1       967 8.08997E-03 8.62691E-05-3.85787E-14
 -1       968 4.87927E-03 3.29276E-04-1.41309E-14
 -1       969 1.28172E-02 4.83159E-04-7.17559E-14
 -1       970 1.35082E-02 1.47215E-04-7.80399E-14
 -1       971 1.36725E-03-9.03220E-05-1.38508E-15
 -1       972 3.16105E-03 2.85219E-04-6.23461E-15
 -1       973 4.59474E-03 3.22976E-04-1.26059E-14
 -1       974 4.30928E-03 3.16297E-04-1.11629E-14
 -1       975 5.16273E-03 3.35212E-04-1.57357E-14
 -1       976 5.44499E-03 3.40545E-04-1.74217E-14
 -1       977 5.72588E-03 3.45051E-04-1.91898E-14
 -1       978 6.00522E-03 3.48737E-04-2.10382E-14
 -1       979 6.28270E-03 3.51759E-04-2.29629E-14
 -1       980 6.55801E-03 3.54337E-04-2.49626E-14
 -1       981 6.83087E-03 3.56780E-04-2.70401E-14
 -1       982 7.10113E-03 3.59504E-04-2.91919E-14
 -1       983 7.36889E-03 3.63067E-04-3.14154E-14
 -1       984 7.63469E-03 3.68233E-04-3.37063E-14
 -1       985 7.89986E-03 3.76110E-04-3.60647E-14
 -1       986 8.16722E-03 3.88704E-04-3.84937E-14
 -1       987 1.36765E-02 4.59826E-04-8.14823E-14
 -1       988 1.34066E-02 4.59841E-04-7.83229E-14
 -1       989 2.03958E-03-1.56030E-04-2.80340E-15
 -1       990 1.36890E-03-1.83210E-05-1.40736E-15
 -1       991 8.34241E-03 3.86009E-04-4.03011E-14
 -1       992 3.73636E-03 3.01574E-04-8.52829E-15
 -1       993 1.32634E-02 1.47436E-04-7.49696E-14
 -1       994 2.45214E-03 3.33199E-04-3.82958E-15
 -1       995 1.31347E-02 4.63721E-04-7.51921E-14
 -1       996 8.10446E-03 2.92596E-04-3.91701E-14
 -1       997 1.33298E-02 2.29966E-04-7.47604E-14
 -1       998 1.33040E-02 2.89168E-04-7.43515E-14
 -1       999 4.02311E-03 3.09108E-04-9.80400E-15
 -1      1000 3.44899E-03 2.93670E-04-7.33805E-15
 -1      1001 7.98995E-03 2.23286E-04-3.87447E-14
 -1      1002 7.95691E-03 1.92185E-04-3.83933E-14
 -1      1003 2.87262E-03 2.75950E-04-5.21895E-15
 -1      1004 1.60961E-03 2.11123E-04-1.81788E-15
 -1      1005 8.10367E-03 1.50298E-04-3.96684E-14
 -1      1006 1.36893E-02 2.85490E-04-7.97146E-14
 -1      1007 1.33040E-02 1.92145E-04-7.48662E-14
 -1      1008 1.36756E-02 2.29991E-04-7.95262E-14
 -1      1009 1.59858E-03 1.38355E-04-1.83393E-15
 -1      1010 1.59115E-03 6.68948E-05-1.83840E-15
 -1      1011 1.90977E-03 2.18025E-04-2.48357E-15
 -1      1012 1.36469E-02 4.14596E-04-8.05404E-14
 -1      1013 4.72736E-03 2.53901E-04-1.33744E-14
 -1      1014 2.46918E-03-8.25392E-05-4.01532E-15
 -1      1015 1.34101E-02 3.68775E-04-7.69831E-14
 -1      1016 2.75694E-03-7.74375E-05-4.91304E-15
 -1      1017 3.04454E-03-7.07210E-05-5.89966E-15
 -1      1018 3.33168E-03-6.26848E-05-6.97375E-15
 -1      1019 3.61818E-03-5.35702E-05-8.13150E-15
 -1      1020 3.90393E-03-4.35663E-05-9.37487E-15
 -1      1021 4.18882E-03-3.28080E-05-1.07011E-14
 -1      1022 4.47276E-03-2.13561E-05-1.21086E-14
 -1      1023 4.75558E-03-9.18559E-06-1.35966E-14
 -1      1024 5.03701E-03 3.81979E-06-1.51643E-14
 -1      1025 5.31698E-03 1.76909E-05-1.68124E-14
 -1      1026 5.59622E-03 3.06841E-05-1.85414E-14
 -1      1027 5.87361E-03 4.28264E-05-2.03518E-14
 -1      1028 6.14812E-03 5.53985E-05-2.22427E-14
 -1      1029 6.41915E-03 6.82336E-05-2.42144E-14
 -1      1030 6.68603E-03 8.11590E-05-2.62610E-14
 -1      1031 6.94793E-03 9.39589E-05-2.83803E-14
 -1      1032 7.20382E-03 1.06406E-04-3.05715E-14
 -1      1033 7.45248E-03 1.18299E-04-3.28360E-14
 -1      1034 7.69236E-03 1.29515E-04-3.51658E-14
 -1      1035 5.29233E-03 2.68505E-04-1.65781E-14
 -1      1036 2.58385E-03 2.65463E-04-4.29197E-15
 -1      1037 5.01060E-03 2.61349E-04-1.49370E-14
 -1      1038 4.44286E-03 2.46309E-04-1.18921E-14
 -1      1039 5.57241E-03 2.74982E-04-1.83025E-14
 -1      1040 5.85070E-03 2.80551E-04-2.01076E-14
 -1      1041 6.12675E-03 2.85479E-04-2.19914E-14
 -1      1042 6.40002E-03 2.89899E-04-2.39521E-14
 -1      1043 6.66996E-03 2.93951E-04-2.59884E-14
 -1      1044 6.93605E-03 2.97778E-04-2.81001E-14
 -1      1045 7.19774E-03 3.01543E-04-3.02855E-14
 -1      1046 7.45454E-03 3.05409E-04-3.25383E-14
 -1      1047 7.70632E-03 3.09672E-04-3.48590E-14
 -1      1048 7.91207E-03 3.01234E-04-3.69883E-14
 -1      1049 1.89492E-03-8.63503E-05-2.48834E-15
 -1      1050 1.58702E-03-3.71335E-06-1.83122E-15
 -1      1051 2.29492E-03 2.53196E-04-3.45338E-15
 -1      1052 1.36717E-02 3.41392E-04-7.99307E-14
 -1      1053 7.80829E-03 2.28750E-04-3.65801E-14
 -1      1054 3.29566E-03 2.14195E-04-6.79569E-15
 -1      1055 1.35083E-02 2.70321E-04-7.71952E-14
 -1      1056 3.58360E-03 2.22493E-04-7.94220E-15
 -1      1057 2.18164E-03-8.56567E-05-3.20693E-15
 -1      1058 3.87083E-03 2.30590E-04-9.17398E-15
 -1      1059 4.15728E-03 2.38539E-04-1.04907E-14
 -1      1060 1.89832E-03 1.31665E-04-2.50112E-15
 -1      1061 3.00711E-03 2.05558E-04-5.73532E-15
 -1      1062 2.28258E-03 1.62003E-04-3.47583E-15
 -1      1063 7.90443E-03 1.40286E-04-3.73913E-14
 -1      1064 7.76833E-03 1.95012E-04-3.62392E-14
 -1      1065 1.67200E-03-6.59570E-05-1.99541E-15
 -1      1066 3.43163E-03 1.43076E-04-7.36321E-15
 -1      1067 2.61555E-03-6.45980E-06-4.48040E-15
 -1      1068 2.90405E-03 4.32510E-07-5.42543E-15
 -1      1069 3.19218E-03 8.20706E-06-6.45775E-15
 -1      1070 3.47974E-03 1.67369E-05-7.57554E-15
 -1      1071 3.76654E-03 2.59167E-05-8.77917E-15
 -1      1072 4.05244E-03 3.56533E-05-1.00653E-14
 -1      1073 4.33735E-03 4.58914E-05-1.14370E-14
 -1      1074 4.62109E-03 5.66263E-05-1.28892E-14
 -1      1075 4.90339E-03 6.79171E-05-1.44198E-14
 -1      1076 5.18364E-03 7.99848E-05-1.60298E-14
 -1      1077 5.46001E-03 9.54495E-05-1.77208E-14
 -1      1078 5.74012E-03 1.02490E-04-1.94921E-14
 -1      1079 6.01566E-03 1.12566E-04-2.13458E-14
 -1      1080 6.28729E-03 1.22973E-04-2.32802E-14
 -1      1081 6.55469E-03 1.33435E-04-2.52916E-14
 -1      1082 6.81705E-03 1.43783E-04-2.73773E-14
 -1      1083 7.07327E-03 1.53865E-04-2.95342E-14
 -1      1084 7.32183E-03 1.63538E-04-3.17615E-14
 -1      1085 7.56076E-03 1.72596E-04-3.40597E-14
 -1      1086 5.69943E-03 2.11788E-04-1.91811E-14
 -1      1087 5.14143E-03 1.95452E-04-1.57426E-14
 -1      1088 4.57636E-03 1.77577E-04-1.26227E-14
 -1      1089 5.97531E-03 2.18753E-04-2.10241E-14
 -1      1090 6.24827E-03 2.25329E-04-2.29450E-14
 -1      1091 6.51748E-03 2.31634E-04-2.49427E-14
 -1      1092 6.78225E-03 2.37636E-04-2.70142E-14
 -1      1093 7.04171E-03 2.43323E-04-2.91612E-14
 -1      1094 7.29480E-03 2.48670E-04-3.13780E-14
 -1      1095 7.53995E-03 2.53521E-04-3.36637E-14
 -1      1096 7.67716E-03 2.40713E-04-3.51090E-14
 -1      1097 1.80907E-03-2.04101E-05-2.30826E-15
 -1      1098 1.87711E-03 4.75176E-05-2.46876E-15
 -1      1099 4.85970E-03 1.86451E-04-1.41446E-14
 -1      1100 3.71919E-03 1.51565E-04-8.55080E-15
 -1      1101 5.42118E-03 2.04252E-04-1.74211E-14
 -1      1102 2.71810E-03 1.96353E-04-4.76281E-15
 -1      1103 3.14333E-03 1.34646E-04-6.26090E-15
 -1      1104 4.29169E-03 1.68821E-04-1.11832E-14
 -1      1105 2.26005E-03 7.26165E-05-3.43980E-15
 -1      1106 2.32709E-03-1.23114E-05-3.62508E-15
 -1      1107 7.61337E-03 2.06835E-04-3.45861E-14
 -1      1108 4.00592E-03 1.60149E-04-9.82479E-15
 -1      1109 2.06756E-03-1.69211E-05-2.93066E-15
 -1      1110 3.05346E-03 7.92920E-05-5.94789E-15
 -1      1111 2.85449E-03 1.26211E-04-5.24432E-15
 -1      1112 2.55709E-03 9.91036E-05-4.29590E-15
 -1      1113 0.00000E+00 0.00000E+00 0.00000E+00
 -1      1114 0.00000E+00 0.00000E+00 0.00000E+00
 -1      1115 0.00000E+00 0.00000E+00 0.00000E+00
 -1      1116 0.00000E+00 0.00000E+00 0.00000E+00
 -1      1117 0.00000E+00 0.00000E+00 0.00000E+00
 -1      1118 0.00000E+00 0.00000E+00 0.00000E+00
 -1      1119 0.00000E+00 0.00000E+00 0.00000E+00
 -1      1120 0.00000E+00 0.00000E+00 0.00000E+00
 -1      1121 0.00000E+00 0.00000E+00 0.00000E+00
 -1      1122 0.00000E+00 0.00000E+00 0.00000E+00
 -1      1123 0.00000E+00 0.00000E+00 0.00000E+00
 -1      1124 0.00000E+00 0.00000E+00 0.00000E+00
 -1      1125 0.00000E+00 0.00000E+00 0.00000E+00
 -1      1126 0.00000E+00 0.00000E+00 0.00000E+00
 -1      1127 0.00000E+00 0.00000E+00 0.00000E+00
 -1      1128 0.00000E+00 0.00000E+00 0.00000E+00
 -1      1129 0.00000E+00 0.00000E+00 0.00000E+00
 -1      1130 2.06240E-04-1.44865E-04 1.98409E-17
 -1      1131 5.37087E-04-3.29278E-04 1.89735E-19
 -1      1132 8.11042E-04-4.46729E-04-1.08461E-16
 -1      1133 1.07302E-03-5.24434E-04-3.21845E-16
 -1      1134 1.33096E-03-5.77438E-04-6.37457E-16
 -1      1135 1.58838E-03-6.13492E-04-1.05380E-15
 -1      1136 1.84709E-03-6.37167E-04-1.57086E-15
 -1      1137 2.10791E-03-6.51539E-04-2.18873E-15
 -1      1138 2.37111E-03-6.58857E-04-2.90622E-15
 -1      1139 2.63664E-03-6.60805E-04-3.72002E-15
 -1      1140 2.90428E-03-6.58616E-04-4.62765E-15
 -1      1141 3.17364E-03-6.53066E-04-5.62321E-15
 -1      1142 3.44389E-03-6.44316E-04-6.70637E-15
 -1      1143 3.71276E-03-6.31182E-04-7.87821E-15
 -1      1144 3.97706E-03-6.15871E-04-9.13603E-15
 -1      1145 4.25926E-03-6.08891E-04-1.04807E-14
 -1      1146 4.55326E-03-5.97714E-04-1.19113E-14
 -1      1147 4.84049E-03-5.83539E-04-1.34203E-14
 -1      1148 5.12735E-03-5.68794E-04-1.50125E-14
 -1      1149 5.41577E-03-5.53234E-04-1.66908E-14
 -1      1150 5.70673E-03-5.36733E-04-1.84493E-14
 -1      1151 6.00097E-03-5.19638E-04-2.02870E-14
 -1      1152 6.29943E-03-5.02455E-04-2.22033E-14
 -1      1153 6.60317E-03-4.86095E-04-2.41976E-14
 -1      1154 6.91344E-03-4.71869E-04-2.62674E-14
 -1      1155 7.23157E-03-4.61691E-04-2.84107E-14
 -1      1156 7.55880E-03-4.58267E-04-3.06220E-14
 -1      1157 7.89590E-03-4.65230E-04-3.29022E-14
 -1      1158 8.24266E-03-4.87077E-04-3.52615E-14
 -1      1159 8.59707E-03-5.28681E-04-3.76898E-14
 -1      1160 8.95452E-03-5.93993E-04-4.01772E-14
 -1      1161 9.30732E-03-6.83633E-04-4.27264E-14
 -1      1162 9.64550E-03-7.91613E-04-4.53331E-14
 -1      1163 9.95967E-03-9.02758E-04-4.79787E-14
 -1      1164 1.02459E-02-9.93744E-04-5.06573E-14
 -1      1165 1.05099E-02-1.04011E-03-5.33656E-14
 -1      1166 1.07669E-02-1.02710E-03-5.61090E-14
 -1      1167 1.10352E-02-9.57431E-04-5.88941E-14
 -1      1168 1.13276E-02-8.49750E-04-6.17218E-14
 -1      1169 1.16464E-02-7.29104E-04-6.45882E-14
 -1      1170 1.19854E-02-6.16598E-04-6.75057E-14
 -1      1171 1.23342E-02-5.24194E-04-7.04841E-14
 -1      1172 1.26833E-02-4.55064E-04-7.35240E-14
 -1      1173 1.30255E-02-4.06608E-04-7.66296E-14
 -1      1174 1.33568E-02-3.73498E-04-7.97894E-14
 -1      1175 1.36757E-02-3.49693E-04-8.29917E-14
 -1      1176 1.39827E-02-3.29446E-04-8.62437E-14
 -1      1177 1.42793E-02-3.07769E-04-8.95493E-14
 -1      1178 1.45683E-02-2.80891E-04-9.29023E-14
 -1      1179 1.48467E-02-2.48827E-04-9.62014E-14
 -1      1180 2.30618E-04 1.61955E-04 1.73608E-17
 -1      1181 5.59495E-04 3.45227E-04-1.91091E-17
 -1      1182 8.43291E-04 4.66511E-04-1.50555E-16
 -1      1183 1.11593E-03 5.50544E-04-3.88321E-16
 -1      1184 1.38429E-03 6.11257E-04-7.31213E-16
 -1      1185 1.65195E-03 6.56168E-04-1.17837E-15
 -1      1186 1.92069E-03 6.89829E-04-1.73012E-15
 -1      1187 2.19133E-03 7.15319E-04-2.38237E-15
 -1      1188 2.46414E-03 7.34876E-04-3.13352E-15
 -1      1189 2.73912E-03 7.50170E-04-3.97711E-15
 -1      1190 3.01614E-03 7.62463E-04-4.91165E-15
 -1      1191 3.29498E-03 7.72714E-04-5.93803E-15
 -1      1192 3.57537E-03 7.81636E-04-7.05329E-15
 -1      1193 3.85704E-03 7.89386E-04-8.25587E-15
 -1      1194 4.13988E-03 7.96178E-04-9.55036E-15
 -1      1195 4.42383E-03 8.02247E-04-1.09387E-14
 -1      1196 4.70892E-03 8.07480E-04-1.24112E-14
 -1      1197 4.99520E-03 8.11949E-04-1.39632E-14
 -1      1198 5.28291E-03 8.15674E-04-1.56012E-14
 -1      1199 5.57240E-03 8.18724E-04-1.73250E-14
 -1      1200 5.86417E-03 8.21226E-04-1.91316E-14
 -1      1201 6.15891E-03 8.23428E-04-2.10207E-14
 -1      1202 6.45748E-03 8.25804E-04-2.29954E-14
 -1      1203 6.76092E-03 8.29160E-04-2.50530E-14
 -1      1204 7.07037E-03 8.34756E-04-2.71869E-14
 -1      1205 7.38697E-03 8.44438E-04-2.93877E-14
 -1      1206 7.71165E-03 8.60756E-04-3.16575E-14
 -1      1207 8.04480E-03 8.87007E-04-3.39990E-14
 -1      1208 8.38576E-03 9.27070E-04-3.64102E-14
 -1      1209 8.73220E-03 9.84829E-04-3.88927E-14
 -1      1210 9.07953E-03 1.06292E-03-4.14474E-14
 -1      1211 9.42075E-03 1.16068E-03-4.40771E-14
 -1      1212 9.74745E-03 1.27166E-03-4.67717E-14
 -1      1213 1.00523E-02 1.38207E-03-4.95320E-14
 -1      1214 1.03330E-02 1.47218E-03-5.23530E-14
 -1      1215 1.05949E-02 1.52215E-03-5.52345E-14
 -1      1216 1.08509E-02 1.52027E-03-5.81768E-14
 -1      1217 1.11163E-02 1.46868E-03-6.11716E-14
 -1      1218 1.14019E-02 1.38229E-03-6.42098E-14
 -1      1219 1.17106E-02 1.28164E-03-6.72844E-14
 -1      1220 1.20381E-02 1.18485E-03-7.03845E-14
 -1      1221 1.23759E-02 1.10314E-03-7.35017E-14
 -1      1222 1.27157E-02 1.04046E-03-7.66366E-14
 -1      1223 1.30508E-02 9.95550E-04-7.97913E-14
 -1      1224 1.33771E-02 9.64309E-04-8.29600E-14
 -1      1225 1.36929E-02 9.41592E-04-8.61446E-14
 -1      1226 1.39979E-02 9.22234E-04-8.93458E-14
 -1      1227 1.42936E-02 9.01604E-04-9.25567E-14
 -1      1228 1.45823E-02 8.76178E-04-9.57811E-14
 -1      1229 1.48607E-02 8.45867E-04-9.89296E-14
 -1      1230 1.50126E-02 7.87668E-04-1.00393E-13
 -1      1231 1.50479E-02 7.03171E-04-1.00287E-13
 -1      1232 1.50887E-02 6.21932E-04-1.00183E-13
 -1      1233 1.51337E-02 5.47237E-04-1.00072E-13
 -1      1234 1.51794E-02 4.81074E-04-9.99492E-14
 -1      1235 1.52210E-02 4.24483E-04-9.98188E-14
 -1      1236 1.52546E-02 3.76174E-04-9.97017E-14
 -1      1237 1.52767E-02 3.33971E-04-9.95639E-14
 -1      1238 1.52844E-02 2.95498E-04-9.94226E-14
 -1      1239 1.52765E-02 2.57360E-04-9.92743E-14
 -1      1240 1.52538E-02 2.16072E-04-9.91260E-14
 -1      1241 1.52190E-02 1.69006E-04-9.89912E-14
 -1      1242 1.51755E-02 1.13694E-04-9.88420E-14
 -1      1243 1.51274E-02 4.85653E-05-9.86604E-14
 -1      1244 1.50797E-02-2.55659E-05-9.84434E-14
 -1      1245 1.50365E-02-1.06581E-04-9.81964E-14
 -1      1246 1.49994E-02-1.90346E-04-9.79341E-14
 -1      1247 1.28735E-02 3.23193E-04-6.22084E-14
 -1      1248 1.27664E-02 4.68996E-04-6.19611E-14
 -1      1249 1.25628E-02 6.17331E-04-6.14473E-14
 -1      1250 1.22768E-02 7.66058E-04-6.07000E-14
 -1      1251 1.19079E-02 9.12416E-04-5.96612E-14
 -1      1252 1.14785E-02 1.03653E-03-5.83822E-14
 -1      1253 1.10401E-02 1.11062E-03-5.70313E-14
 -1      1254 1.05752E-02 1.12668E-03-5.55664E-14
 -1      1255 1.00977E-02 1.07754E-03-5.40606E-14
 -1      1256 9.65348E-03 9.75420E-04-5.26950E-14
 -1      1257 9.26420E-03 8.42853E-04-5.15425E-14
 -1      1258 8.93480E-03 6.97459E-04-5.06097E-14
 -1      1259 8.66868E-03 5.46205E-04-4.98736E-14
 -1      1260 8.49081E-03 3.98921E-04-4.93727E-14
 -1      1261 8.41325E-03 2.55734E-04-4.91251E-14
 -1      1262 8.44628E-03 1.06110E-04-4.91502E-14
 -1      1263 8.59175E-03-4.58925E-05-4.94743E-14
 -1      1264 8.84096E-03-2.02906E-04-5.00881E-14
 -1      1265 9.17982E-03-3.61226E-04-5.09757E-14
 -1      1266 9.56511E-03-4.98441E-04-5.20486E-14
 -1      1267 9.97636E-03-6.00609E-04-5.32630E-14
 -1      1268 1.04044E-02-6.56208E-04-5.45786E-14
 -1      1269 1.08475E-02-6.55413E-04-5.59736E-14
 -1      1270 1.12839E-02-5.98271E-04-5.73525E-14
 -1      1271 1.16993E-02-4.92930E-04-5.86477E-14
 -1      1272 1.21135E-02-3.42929E-04-5.99099E-14
 -1      1273 1.24777E-02-1.68360E-04-6.09956E-14
 -1      1274 1.27360E-02 5.14012E-06-6.17592E-14
 -1      1275 1.28697E-02 1.70589E-04-6.21580E-14
 -1      1276 1.62435E-04-1.07889E-04 4.33681E-18
 -1      1277 1.09912E-04-5.59141E-05-1.61275E-17
 -1      1278 1.14748E-04-6.62372E-05-1.05981E-17
 -1      1279 1.06139E-04-4.27820E-05-2.53161E-17
 -1      1280 1.07831E-04-4.87439E-05-2.24159E-17
 -1      1281 2.21155E-04-1.05498E-04-5.25974E-17
 -1      1282 1.04857E-04-3.31293E-05-3.09269E-17
 -1      1283 1.05556E-04-3.77554E-05-2.92192E-17
 -1      1284 2.14619E-04-8.09662E-05-6.96464E-17
 -1      1285 1.04342E-04-2.50093E-05-3.44912E-17
 -1      1286 1.04641E-04-2.89715E-05-3.35425E-17
 -1      1287 2.11985E-04-6.21839E-05-8.05698E-17
 -1      1288 1.04180E-04-1.78581E-05-3.67816E-17
 -1      1289 1.04285E-04-2.13759E-05-3.61852E-17
 -1      1290 2.10847E-04-4.63695E-05-8.75629E-17
 -1      1291 1.04201E-04-1.10845E-05-3.81775E-17
 -1      1292 1.04203E-04-1.44329E-05-3.78387E-17
 -1      1293 2.10429E-04-3.21395E-05-9.21030E-17
 -1      1294 1.04336E-04-4.58999E-06-3.90990E-17
 -1      1295 1.04271E-04-7.81723E-06-3.88822E-17
 -1      1296 2.10420E-04-1.87246E-05-9.49355E-17
 -1      1297 1.04555E-04 1.80380E-06-3.96140E-17
 -1      1298 1.04438E-04-1.39185E-06-3.94785E-17
 -1      1299 2.10679E-04-5.79962E-06-9.67786E-17
 -1      1300 1.04856E-04 8.26102E-06-3.95192E-17
 -1      1301 1.04684E-04 5.01214E-06-3.95598E-17
 -1      1302 2.11151E-04 6.99792E-06-9.74427E-17
 -1      1303 1.05261E-04 1.49558E-05-3.90990E-17
 -1      1304 1.05019E-04 1.15605E-05-3.92752E-17
 -1      1305 2.11841E-04 2.00098E-05-9.69819E-17
 -1      1306 1.05820E-04 2.19746E-05-3.80284E-17
 -1      1307 1.05471E-04 1.83814E-05-3.84214E-17
 -1      1308 2.12808E-04 3.34936E-05-9.55453E-17
 -1      1309 1.06679E-04 2.98564E-05-3.61581E-17
 -1      1310 1.06120E-04 2.57690E-05-3.68900E-17
 -1      1311 2.14210E-04 4.80297E-05-9.25638E-17
 -1      1312 1.08114E-04 3.89934E-05-3.26345E-17
 -1      1313 1.07137E-04 3.41763E-05-3.39762E-17
 -1      1314 2.16394E-04 6.44859E-05-8.72105E-17
 -1      1315 1.10916E-04 5.04997E-05-2.65223E-17
 -1      1316 1.08941E-04 4.42691E-05-2.91379E-17
 -1      1317 2.20125E-04 8.40817E-05-7.78593E-17
 -1      1318 1.17891E-04 6.79444E-05-1.59107E-17
 -1      1319 1.12979E-04 5.79987E-05-2.11013E-17
 -1      1320 2.27794E-04 1.10014E-04-6.27753E-17
 -1      1321 1.59087E-04 1.10617E-04 1.43657E-18
 -1      1322 1.36872E-04 8.65937E-05-9.83913E-18
 -1      1323 2.58212E-04 1.53071E-04-4.42626E-17
 -1      1324 3.38333E-04 2.22419E-04-1.61411E-17
 -1      1325 4.10638E-04-2.55586E-04-1.79842E-17
 -1      1326 5.59694E-04-3.28509E-04-5.28549E-17
 -1      1327 7.02972E-04-3.87094E-04-1.14397E-16
 -1      1328 8.42319E-04-4.34418E-04-2.00984E-16
 -1      1329 5.96584E-04-3.22577E-04-1.14614E-16
 -1      1330 9.78595E-04-4.73494E-04-3.11979E-16
 -1      1331 1.11275E-03-5.05438E-04-4.48250E-16
 -1      1332 8.82342E-04-4.19279E-04-2.97586E-16
 -1      1333 1.24559E-03-5.32080E-04-6.09511E-16
 -1      1334 1.37762E-03-5.53894E-04-7.96197E-16
 -1      1335 1.15757E-03-4.84573E-04-5.78381E-16
 -1      1336 1.50927E-03-5.71926E-04-1.00733E-15
 -1      1337 1.64078E-03-5.86503E-04-1.24367E-15
 -1      1338 1.42746E-03-5.28878E-04-9.58042E-16
 -1      1339 1.77240E-03-5.98245E-04-1.50478E-15
 -1      1340 1.90423E-03-6.07439E-04-1.79047E-15
 -1      1341 1.69522E-03-5.58270E-04-1.43604E-15
 -1      1342 2.03640E-03-6.14484E-04-2.10117E-15
 -1      1343 2.16893E-03-6.19623E-04-2.43712E-15
 -1      1344 1.96266E-03-5.76668E-04-2.01262E-15
 -1      1345 2.30189E-03-6.23128E-04-2.79749E-15
 -1      1346 2.43528E-03-6.25200E-04-3.18174E-15
 -1      1347 2.23075E-03-5.86844E-04-2.68722E-15
 -1      1348 2.56911E-03-6.26027E-04-3.59019E-15
 -1      1349 2.70336E-03-6.25767E-04-4.02188E-15
 -1      1350 2.49994E-03-5.90834E-04-3.45901E-15
 -1      1351 2.83803E-03-6.24547E-04-4.47618E-15
 -1      1352 2.97309E-03-6.22476E-04-4.95334E-15
 -1      1353 2.77040E-03-5.90144E-04-4.32439E-15
 -1      1354 3.10850E-03-6.19638E-04-5.45203E-15
 -1      1355 3.24420E-03-6.16042E-04-5.97317E-15
 -1      1356 3.04214E-03-5.85842E-04-5.28050E-15
 -1      1357 3.38013E-03-6.11806E-04-6.51626E-15
 -1      1358 3.51600E-03-6.06602E-04-7.08084E-15
 -1      1359 3.31498E-03-5.78600E-04-6.32457E-15
 -1      1360 3.65165E-03-6.01000E-04-7.66786E-15
 -1      1361 3.78597E-03-5.93133E-04-8.27623E-15
 -1      1362 3.58808E-03-5.68728E-04-7.45694E-15
 -1      1363 3.91806E-03-5.85594E-04-8.90607E-15
 -1      1364 4.04630E-03-5.78929E-04-9.55739E-15
 -1      1365 3.85803E-03-5.55878E-04-8.67561E-15
 -1      1366 4.19354E-03-5.72885E-04-1.02301E-14
 -1      1367 4.34417E-03-5.68889E-04-1.09244E-14
 -1      1368 4.13484E-03-5.39824E-04-9.97928E-15
 -1      1369 4.48787E-03-5.63670E-04-1.16390E-14
 -1      1370 4.63200E-03-5.56796E-04-1.23739E-14
 -1      1371 4.42288E-03-5.28233E-04-1.13674E-14
 -1      1372 4.77500E-03-5.49821E-04-1.31300E-14
 -1      1373 4.91836E-03-5.42504E-04-1.39053E-14
 -1      1374 4.70910E-03-5.16068E-04-1.28386E-14
 -1      1375 5.06164E-03-5.35264E-04-1.47020E-14
 -1      1376 5.20546E-03-5.27661E-04-1.55197E-14
 -1      1377 4.99532E-03-5.01693E-04-1.43914E-14
 -1      1378 5.34982E-03-5.19674E-04-1.63577E-14
 -1      1379 5.49473E-03-5.11456E-04-1.72175E-14
 -1      1380 5.28297E-03-4.86226E-04-1.60263E-14
 -1      1381 5.64023E-03-5.03064E-04-1.80968E-14
 -1      1382 5.78649E-03-4.94454E-04-1.89953E-14
 -1      1383 5.57273E-03-4.69536E-04-1.77439E-14
 -1      1384 5.93356E-03-4.85640E-04-1.99147E-14
 -1      1385 6.08155E-03-4.76757E-04-2.08533E-14
 -1      1386 5.86500E-03-4.51928E-04-1.95424E-14
 -1      1387 6.23056E-03-4.67852E-04-2.18114E-14
 -1      1388 6.38070E-03-4.59071E-04-2.27893E-14
 -1      1389 6.16041E-03-4.33699E-04-2.14203E-14
 -1      1390 6.53209E-03-4.50503E-04-2.37867E-14
 -1      1391 6.68486E-03-4.42346E-04-2.48029E-14
 -1      1392 6.45963E-03-4.15576E-04-2.33764E-14
 -1      1393 6.83916E-03-4.34759E-04-2.58376E-14
 -1      1394 6.99511E-03-4.28009E-04-2.68912E-14
 -1      1395 6.76348E-03-3.98594E-04-2.54088E-14
 -1      1396 7.15286E-03-4.22357E-04-2.79626E-14
 -1      1397 7.31251E-03-4.18156E-04-2.90521E-14
 -1      1398 7.07285E-03-3.84317E-04-2.75150E-14
 -1      1399 7.47418E-03-4.15805E-04-3.01589E-14
 -1      1400 7.63793E-03-4.15747E-04-3.12812E-14
 -1      1401 7.38859E-03-3.75047E-04-2.96943E-14
 -1      1402 7.80379E-03-4.18553E-04-3.24230E-14
 -1      1403 7.97173E-03-4.24736E-04-3.35844E-14
 -1      1404 7.71137E-03-3.74019E-04-3.19439E-14
 -1      1405 8.14165E-03-4.35031E-04-3.47626E-14
 -1      1406 8.31333E-03-4.49957E-04-3.59594E-14
 -1      1407 8.04140E-03-3.85509E-04-3.42651E-14
 -1      1408 8.48646E-03-4.70318E-04-3.71730E-14
 -1      1409 8.66058E-03-4.96494E-04-3.84013E-14
 -1      1410 8.37810E-03-4.14645E-04-3.66565E-14
 -1      1411 8.83512E-03-5.29104E-04-3.96443E-14
 -1      1412 9.00931E-03-5.68121E-04-4.09017E-14
 -1      1413 8.71969E-03-4.66601E-04-3.91113E-14
 -1      1414 9.18235E-03-6.13533E-04-4.21749E-14
 -1      1415 9.35328E-03-6.64527E-04-4.34639E-14
 -1      1416 9.06284E-03-5.44751E-04-4.16258E-14
 -1      1417 9.52117E-03-7.19911E-04-4.47640E-14
 -1      1418 9.68511E-03-7.77749E-04-4.60748E-14
 -1      1419 9.40262E-03-6.47535E-04-4.41964E-14
 -1      1420 9.84445E-03-8.35383E-04-4.73976E-14
 -1      1421 9.99879E-03-8.89830E-04-4.87292E-14
 -1      1422 9.73330E-03-7.64718E-04-4.68177E-14
 -1      1423 1.01481E-02-9.37454E-04-5.00686E-14
 -1      1424 1.02930E-02-9.75072E-04-5.14156E-14
 -1      1425 1.00503E-02-8.75521E-04-4.94802E-14
 -1      1426 1.04344E-02-9.99534E-04-5.27715E-14
 -1      1427 1.05737E-02-1.00891E-03-5.41356E-14
 -1      1428 1.03531E-02-9.52371E-04-5.21764E-14
 -1      1429 1.07125E-02-1.00220E-03-5.55105E-14
 -1      1430 1.08527E-02-9.79769E-04-5.68945E-14
 -1      1431 1.06474E-02-9.71653E-04-5.49086E-14
 -1      1432 1.09954E-02-9.43367E-04-5.82887E-14
 -1      1433 1.11422E-02-8.95441E-04-5.96949E-14
 -1      1434 1.09427E-02-9.25973E-04-5.76815E-14
 -1      1435 1.12935E-02-8.39476E-04-6.11086E-14
 -1      1436 1.14496E-02-7.78696E-04-6.25324E-14
 -1      1437 1.12481E-02-8.28448E-04-6.04930E-14
 -1      1438 1.16102E-02-7.16551E-04-6.39708E-14
 -1      1439 1.17748E-02-6.55727E-04-6.54213E-14
 -1      1440 1.15673E-02-7.05168E-04-6.33505E-14
 -1      1441 1.19425E-02-5.98421E-04-6.68821E-14
 -1      1442 1.21123E-02-5.46163E-04-6.83576E-14
 -1      1443 1.18980E-02-5.82354E-04-6.62535E-14
 -1      1444 1.22833E-02-4.99701E-04-6.98481E-14
 -1      1445 1.24545E-02-4.59495E-04-7.13540E-14
 -1      1446 1.22350E-02-4.77422E-04-6.92120E-14
 -1      1447 1.26252E-02-4.25251E-04-7.28760E-14
 -1      1448 1.27947E-02-3.96750E-04-7.44128E-14
 -1      1449 1.25724E-02-3.97247E-04-7.22276E-14
 -1      1450 1.29625E-02-3.73189E-04-7.59634E-14
 -1      1451 1.31281E-02-3.54007E-04-7.75305E-14
 -1      1452 1.29056E-02-3.40953E-04-7.53000E-14
 -1      1453 1.32913E-02-3.38272E-04-7.91096E-14
 -1      1454 1.34519E-02-3.25308E-04-8.07007E-14
 -1      1455 1.32317E-02-3.03575E-04-7.84305E-14
 -1      1456 1.36100E-02-3.14244E-04-8.23047E-14
 -1      1457 1.37654E-02-3.04410E-04-8.39181E-14
 -1      1458 1.35493E-02-2.78744E-04-8.16152E-14
 -1      1459 1.39185E-02-2.95058E-04-8.55452E-14
 -1      1460 1.40692E-02-2.85580E-04-8.71845E-14
 -1      1461 1.38580E-02-2.60152E-04-8.48446E-14
 -1      1462 1.42178E-02-2.75381E-04-8.88388E-14
 -1      1463 1.43647E-02-2.63954E-04-9.05030E-14
 -1      1464 1.41587E-02-2.42165E-04-8.81277E-14
 -1      1465 1.45100E-02-2.50946E-04-9.21778E-14
 -1      1466 1.46541E-02-2.36068E-04-9.38619E-14
 -1      1467 1.44527E-02-2.20144E-04-9.14536E-14
 -1      1468 1.48636E-02-2.07465E-04-9.63258E-14
 -1      1469 1.48079E-02-1.79300E-04-9.55940E-14
 -1      1470 6.49456E-04 3.75715E-04-9.85946E-17
 -1      1471 4.97790E-04 3.06331E-04-4.37205E-17
 -1      1472 4.48988E-04 2.68128E-04-6.45236E-17
 -1      1473 9.37985E-04 4.78192E-04-2.87002E-16
 -1      1474 7.95669E-04 4.31372E-04-1.79964E-16
 -1      1475 7.51642E-04 3.95175E-04-2.03776E-16
 -1      1476 1.21567E-03 5.50744E-04-5.78341E-16
 -1      1477 1.07763E-03 5.17420E-04-4.19518E-16
 -1      1478 1.04033E-03 4.83419E-04-4.45837E-16
 -1      1479 1.48886E-03 6.03720E-04-9.73234E-16
 -1      1480 1.35251E-03 5.79292E-04-7.62953E-16
 -1      1481 1.32075E-03 5.46684E-04-7.89733E-16
 -1      1482 1.76088E-03 6.43031E-04-1.47086E-15
 -1      1483 1.62485E-03 6.24844E-04-1.20901E-15
 -1      1484 1.59733E-03 5.93059E-04-1.23515E-15
 -1      1485 2.03341E-03 6.72514E-04-2.07112E-15
 -1      1486 1.89700E-03 6.58831E-04-1.75824E-15
 -1      1487 1.87269E-03 6.27499E-04-1.78220E-15
 -1      1488 2.30723E-03 6.94878E-04-2.76877E-15
 -1      1489 2.17012E-03 6.84458E-04-2.40796E-15
 -1      1490 2.14823E-03 6.53354E-04-2.42898E-15
 -1      1491 2.58266E-03 7.12113E-04-3.56375E-15
 -1      1492 2.44473E-03 7.04039E-04-3.15454E-15
 -1      1493 2.42466E-03 6.73025E-04-3.17244E-15
 -1      1494 2.85976E-03 7.25708E-04-4.44955E-15
 -1      1495 2.72100E-03 7.19292E-04-3.99539E-15
 -1      1496 2.70227E-03 6.88288E-04-4.00930E-15
 -1      1497 3.13844E-03 7.36782E-04-5.42574E-15
 -1      1498 2.99891E-03 7.31503E-04-4.92647E-15
 -1      1499 2.98114E-03 7.00460E-04-4.93709E-15
 -1      1500 3.41860E-03 7.46193E-04-6.49238E-15
 -1      1501 3.27835E-03 7.41658E-04-5.94791E-15
 -1      1502 3.26125E-03 7.10540E-04-5.95513E-15
 -1      1503 3.70001E-03 7.54544E-04-7.64906E-15
 -1      1504 3.55917E-03 7.50491E-04-7.05943E-15
 -1      1505 3.54254E-03 7.19290E-04-7.06217E-15
 -1      1506 3.98265E-03 7.61502E-04-8.89248E-15
 -1      1507 3.84120E-03 7.58135E-04-8.25941E-15
 -1      1508 3.82496E-03 7.26897E-04-8.25877E-15
 -1      1509 4.26628E-03 7.68012E-04-1.02291E-14
 -1      1510 4.12432E-03 7.64886E-04-9.54941E-15
 -1      1511 4.10842E-03 7.33529E-04-9.54458E-15
 -1      1512 4.55103E-03 7.73537E-04-1.16545E-14
 -1      1513 4.40852E-03 7.70861E-04-1.09306E-14
 -1      1514 4.39287E-03 7.39455E-04-1.09206E-14
 -1      1515 4.83689E-03 7.78291E-04-1.31623E-14
 -1      1516 4.69382E-03 7.76004E-04-1.23986E-14
 -1      1517 4.67835E-03 7.44522E-04-1.23826E-14
 -1      1518 5.12400E-03 7.82268E-04-1.47516E-14
 -1      1519 4.98028E-03 7.80369E-04-1.39471E-14
 -1      1520 4.96493E-03 7.48794E-04-1.39270E-14
 -1      1521 5.41264E-03 7.85488E-04-1.64282E-14
 -1      1522 5.26811E-03 7.83958E-04-1.55791E-14
 -1      1523 5.25280E-03 7.52263E-04-1.55545E-14
 -1      1524 5.70319E-03 7.88034E-04-1.81878E-14
 -1      1525 5.55765E-03 7.86827E-04-1.72969E-14
 -1      1526 5.54226E-03 7.54968E-04-1.72664E-14
 -1      1527 5.99620E-03 7.90054E-04-2.00291E-14
 -1      1528 5.84935E-03 7.89079E-04-1.90983E-14
 -1      1529 5.83372E-03 7.56998E-04-1.90617E-14
 -1      1530 6.29234E-03 7.91867E-04-2.19559E-14
 -1      1531 6.14383E-03 7.90936E-04-2.09819E-14
 -1      1532 6.12772E-03 7.58548E-04-2.09408E-14
 -1      1533 6.59244E-03 7.94068E-04-2.39653E-14
 -1      1534 6.44184E-03 7.92844E-04-2.29506E-14
 -1      1535 6.42492E-03 7.60036E-04-2.29026E-14
 -1      1536 6.89746E-03 7.97640E-04-2.60541E-14
 -1      1537 6.74428E-03 7.95577E-04-2.50004E-14
 -1      1538 6.72610E-03 7.62206E-04-2.49451E-14
 -1      1539 7.20836E-03 8.04090E-04-2.82165E-14
 -1      1540 7.05211E-03 8.00363E-04-2.71262E-14
 -1      1541 7.03208E-03 7.66257E-04-2.70637E-14
 -1      1542 7.52602E-03 8.15587E-04-3.04458E-14
 -1      1543 7.36629E-03 8.09026E-04-2.93220E-14
 -1      1544 7.34367E-03 7.73986E-04-2.92541E-14
 -1      1545 7.85099E-03 8.35066E-04-3.27472E-14
 -1      1546 7.68756E-03 8.24115E-04-3.15880E-14
 -1      1547 7.66151E-03 7.87930E-04-3.15151E-14
 -1      1548 8.18313E-03 8.66220E-04-3.51162E-14
 -1      1549 8.01618E-03 8.48962E-04-3.39228E-14
 -1      1550 7.98586E-03 8.11443E-04-3.38448E-14
 -1      1551 8.52125E-03 9.13193E-04-3.75583E-14
 -1      1552 8.35155E-03 8.87549E-04-3.63288E-14
 -1      1553 8.31629E-03 8.48584E-04-3.62439E-14
 -1      1554 8.86254E-03 9.79737E-04-4.00689E-14
 -1      1555 8.69173E-03 9.43971E-04-3.88051E-14
 -1      1556 8.65135E-03 9.03617E-04-3.87140E-14
 -1      1557 9.20242E-03 1.06757E-03-4.26558E-14
 -1      1558 9.03302E-03 1.02120E-03-4.13524E-14
 -1      1559 8.98824E-03 9.79819E-04-4.12554E-14
 -1      1560 9.53476E-03 1.17392E-03-4.53095E-14
 -1      1561 9.36998E-03 1.11903E-03-4.39739E-14
 -1      1562 9.32276E-03 1.07739E-03-4.38688E-14
 -1      1563 9.85325E-03 1.28904E-03-4.80300E-14
 -1      1564 9.69613E-03 1.23141E-03-4.66619E-14
 -1      1565 9.64978E-03 1.19076E-03-4.65487E-14
 -1      1566 1.01538E-02 1.39556E-03-5.08138E-14
 -1      1567 1.00059E-02 1.34468E-03-4.94136E-14
 -1      1568 9.96462E-03 1.30643E-03-4.92932E-14
 -1      1569 1.04372E-02 1.47182E-03-5.36569E-14
 -1      1570 1.02974E-02 1.43862E-03-5.22283E-14
 -1      1571 1.02653E-02 1.40385E-03-5.20992E-14
 -1      1572 1.07104E-02 1.49973E-03-5.65573E-14
 -1      1573 1.05744E-02 1.49230E-03-5.51004E-14
 -1      1574 1.05543E-02 1.46110E-03-5.49636E-14
 -1      1575 1.09844E-02 1.47319E-03-5.95172E-14
 -1      1576 1.08465E-02 1.49282E-03-5.80303E-14
 -1      1577 1.08389E-02 1.46409E-03-5.78832E-14
 -1      1578 1.12696E-02 1.40120E-03-6.25209E-14
 -1      1579 1.11250E-02 1.44169E-03-6.10141E-14
 -1      1580 1.11281E-02 1.41369E-03-6.08537E-14
 -1      1581 1.15715E-02 1.30327E-03-6.55680E-14
 -1      1582 1.14183E-02 1.35409E-03-6.40385E-14
 -1      1583 1.14287E-02 1.32528E-03-6.38687E-14
 -1      1584 1.18898E-02 1.20049E-03-6.86470E-14
 -1      1585 1.17288E-02 1.25140E-03-6.71040E-14
 -1      1586 1.17425E-02 1.22096E-03-6.69240E-14
 -1      1587 1.22194E-02 1.10856E-03-7.17522E-14
 -1      1588 1.20536E-02 1.15260E-03-7.01962E-14
 -1      1589 1.20669E-02 1.12051E-03-7.00106E-14
 -1      1590 1.25537E-02 1.03522E-03-7.48754E-14
 -1      1591 1.23864E-02 1.06945E-03-7.33114E-14
 -1      1592 1.23969E-02 1.03613E-03-7.31206E-14
 -1      1593 1.28865E-02 9.81516E-04-7.80206E-14
 -1      1594 1.27207E-02 1.00609E-03-7.64443E-14
 -1      1595 1.27274E-02 9.72153E-04-7.62529E-14
 -1      1596 1.32136E-02 9.44354E-04-8.11821E-14
 -1      1597 1.30510E-02 9.61180E-04-7.95998E-14
 -1      1598 1.30540E-02 9.27193E-04-7.94066E-14
 -1      1599 1.35322E-02 9.18758E-04-8.43582E-14
 -1      1600 1.33740E-02 9.30456E-04-8.27697E-14
 -1      1601 1.33740E-02 8.96872E-04-8.25765E-14
 -1      1602 1.38416E-02 8.99315E-04-8.75509E-14
 -1      1603 1.36880E-02 9.08591E-04-8.59524E-14
 -1      1604 1.36862E-02 8.75724E-04-8.57600E-14
 -1      1605 1.41422E-02 8.80923E-04-9.07566E-14
 -1      1606 1.39929E-02 8.90260E-04-8.91521E-14
 -1      1607 1.39904E-02 8.58293E-04-8.89587E-14
 -1      1608 1.44354E-02 8.59244E-04-9.39735E-14
 -1      1609 1.42896E-02 8.70690E-04-9.23630E-14
 -1      1610 1.42874E-02 8.39689E-04-9.21691E-14
 -1      1611 1.47236E-02 8.31462E-04-9.72013E-14
 -1      1612 1.45799E-02 8.46157E-04-9.55874E-14
 -1      1613 1.45785E-02 8.16045E-04-9.53941E-14
 -1      1614 1.48769E-02 8.03781E-04-9.88658E-14
 -1      1615 1.49340E-02 6.98711E-04-9.88590E-14
 -1      1616 1.49149E-02 7.39657E-04-9.89146E-14
 -1      1617 1.49769E-02 6.20189E-04-9.87487E-14
 -1      1618 1.49548E-02 6.58793E-04-9.88041E-14
 -1      1619 1.48209E-02 6.93281E-04-9.74294E-14
 -1      1620 1.50235E-02 5.47777E-04-9.86321E-14
 -1      1621 1.50000E-02 5.83123E-04-9.86900E-14
 -1      1622 1.48658E-02 6.16360E-04-9.73122E-14
 -1      1623 1.50699E-02 4.82647E-04-9.85031E-14
 -1      1624 1.50470E-02 5.14266E-04-9.85715E-14
 -1      1625 1.49138E-02 5.45151E-04-9.71908E-14
 -1      1626 1.51106E-02 4.25889E-04-9.83778E-14
 -1      1627 1.50911E-02 4.53394E-04-9.84393E-14
 -1      1628 1.49599E-02 4.80808E-04-9.70622E-14
 -1      1629 1.51428E-02 3.74713E-04-9.82464E-14
 -1      1630 1.51281E-02 3.99561E-04-9.83139E-14
 -1      1631 1.50001E-02 4.22579E-04-9.69301E-14
 -1      1632 1.51621E-02 3.28395E-04-9.81028E-14
 -1      1633 1.51542E-02 3.51083E-04-9.81753E-14
 -1      1634 1.50300E-02 3.69131E-04-9.67885E-14
 -1      1635 1.51660E-02 2.84467E-04-9.79559E-14
 -1      1636 1.51660E-02 3.06300E-04-9.80290E-14
 -1      1637 1.50460E-02 3.19330E-04-9.66402E-14
 -1      1638 1.51540E-02 2.40086E-04-9.78007E-14
 -1      1639 1.51620E-02 2.62509E-04-9.78791E-14
 -1      1640 1.50460E-02 2.70978E-04-9.64864E-14
 -1      1641 1.51272E-02 1.92448E-04-9.76466E-14
 -1      1642 1.51424E-02 2.16832E-04-9.77224E-14
 -1      1643 1.50298E-02 2.21645E-04-9.63244E-14
 -1      1644 1.50892E-02 1.40157E-04-9.74955E-14
 -1      1645 1.51095E-02 1.67092E-04-9.75742E-14
 -1      1646 1.49994E-02 1.69485E-04-9.61626E-14
 -1      1647 1.50427E-02 7.98589E-05-9.73284E-14
 -1      1648 1.50667E-02 1.10962E-04-9.74149E-14
 -1      1649 1.49578E-02 1.12288E-04-9.59974E-14
 -1      1650 1.49931E-02 1.18452E-05-9.71307E-14
 -1      1651 1.50180E-02 4.68084E-05-9.72337E-14
 -1      1652 1.49090E-02 4.83677E-05-9.58134E-14
 -1      1653 1.49452E-02-6.32991E-05-9.69070E-14
 -1      1654 1.49686E-02-2.49217E-05-9.70226E-14
 -1      1655 1.48583E-02-2.21049E-05-9.56062E-14
 -1      1656 1.48651E-02-1.41078E-04-9.61890E-14
 -1      1657 1.48858E-02-1.00474E-04-9.63123E-14
 -1      1658 1.47735E-02-9.55340E-05-9.49043E-14
 -1      1659 1.46552E-02-1.69037E-04-9.37238E-14
 -1      1660 1.28689E-02 3.21251E-04-6.27981E-14
 -1      1661 1.29000E-02 2.76469E-04-6.28461E-14
 -1      1662 1.27094E-02 4.22620E-04-6.25492E-14
 -1      1663 1.27969E-02 3.72388E-04-6.27396E-14
 -1      1664 1.24477E-02 5.66297E-04-6.18437E-14
 -1      1665 1.25814E-02 4.99865E-04-6.21630E-14
 -1      1666 1.21174E-02 7.31472E-04-6.09304E-14
 -1      1667 1.22777E-02 6.55142E-04-6.13633E-14
 -1      1668 1.17033E-02 9.10458E-04-5.97543E-14
 -1      1669 1.18982E-02 8.22415E-04-6.03677E-14
 -1      1670 1.12992E-02 1.07049E-03-5.82903E-14
 -1      1671 1.14875E-02 1.00463E-03-5.89526E-14
 -1      1672 1.09035E-02 1.16243E-03-5.68211E-14
 -1      1673 1.10806E-02 1.12961E-03-5.75066E-14
 -1      1674 1.04938E-02 1.17098E-03-5.51806E-14
 -1      1675 1.06835E-02 1.18143E-03-5.59547E-14
 -1      1676 1.00841E-02 1.07745E-03-5.35428E-14
 -1      1677 1.02696E-02 1.13205E-03-5.42653E-14
 -1      1678 9.66569E-03 9.17235E-04-5.21144E-14
 -1      1679 9.85174E-03 9.96042E-04-5.27494E-14
 -1      1680 9.27907E-03 7.43899E-04-5.09451E-14
 -1      1681 9.44912E-03 8.24172E-04-5.14557E-14
 -1      1682 8.93210E-03 5.76753E-04-4.99807E-14
 -1      1683 9.08672E-03 6.51924E-04-5.03955E-14
 -1      1684 8.64244E-03 4.36569E-04-4.92722E-14
 -1      1685 8.76503E-03 5.00255E-04-4.95843E-14
 -1      1686 8.45854E-03 3.21508E-04-4.88015E-14
 -1      1687 8.52952E-03 3.70837E-04-4.89832E-14
 -1      1688 8.39375E-03 2.22990E-04-4.86064E-14
 -1      1689 8.40773E-03 2.67517E-04-4.86628E-14
 -1      1690 8.46782E-03 1.19567E-04-4.86819E-14
 -1      1691 8.41470E-03 1.69185E-04-4.85906E-14
 -1      1692 8.66877E-03-1.35070E-07-4.90935E-14
 -1      1693 8.56355E-03 5.73227E-05-4.88687E-14
 -1      1694 8.99188E-03-1.50722E-04-4.97787E-14
 -1      1695 8.83104E-03-7.22689E-05-4.93929E-14
 -1      1696 9.36447E-03-3.40271E-04-5.08451E-14
 -1      1697 9.18642E-03-2.55960E-04-5.03567E-14
 -1      1698 9.75192E-03-5.13665E-04-5.20648E-14
 -1      1699 9.57076E-03-4.37858E-04-5.14929E-14
 -1      1700 1.01414E-02-6.44104E-04-5.33831E-14
 -1      1701 9.96647E-03-5.90027E-04-5.27558E-14
 -1      1702 1.05204E-02-7.08735E-04-5.48314E-14
 -1      1703 1.03468E-02-6.88619E-04-5.41554E-14
 -1      1704 1.09052E-02-6.89403E-04-5.63581E-14
 -1      1705 1.07280E-02-7.10472E-04-5.56528E-14
 -1      1706 1.12980E-02-5.86558E-04-5.78189E-14
 -1      1707 1.11203E-02-6.41143E-04-5.71580E-14
 -1      1708 1.16867E-02-4.28620E-04-5.92213E-14
 -1      1709 1.15044E-02-5.07255E-04-5.85944E-14
 -1      1710 1.21140E-02-2.24866E-04-6.06141E-14
 -1      1711 1.19117E-02-3.22100E-04-5.99897E-14
 -1      1712 1.24990E-02-4.17804E-05-6.16952E-14
 -1      1713 1.23357E-02-1.22885E-04-6.12329E-14
 -1      1714 1.27738E-02 1.07751E-04-6.24507E-14
 -1      1715 1.26626E-02 4.34149E-05-6.21505E-14
 -1      1716 1.28978E-02 2.21633E-04-6.27675E-14
 -1      1717 1.28605E-02 1.71315E-04-6.26547E-14
 -1      1718 1.19420E-02 7.38682E-04-6.10540E-14
 -1      1719 1.23226E-02 5.56404E-04-6.21032E-14
 -1      1720 1.48762E-02 7.74190E-04-9.86742E-14
 -1      1721 1.47611E-02 7.67418E-04-9.72469E-14
 -1      1722 1.28355E-02 3.17322E-04-6.34152E-14
 -1      1723 1.26274E-02 4.09389E-04-6.29731E-14
 -1      1724 1.29091E-02 2.50431E-04-6.33891E-14
 -1      1725 1.15382E-02 9.41643E-04-5.96805E-14
 -1      1726 1.11461E-02 1.11059E-03-5.80898E-14
 -1      1727 1.07747E-02 1.19856E-03-5.64336E-14
 -1      1728 1.04100E-02 1.17491E-03-5.46490E-14
 -1      1729 1.00294E-02 1.03786E-03-5.29415E-14
 -1      1730 9.62714E-03 8.44794E-04-5.14916E-14
 -1      1731 9.23860E-03 6.49046E-04-5.02878E-14
 -1      1732 8.88255E-03 4.83111E-04-4.93468E-14
 -1      1733 8.59746E-03 3.58669E-04-4.86670E-14
 -1      1734 8.42712E-03 2.72035E-04-4.82454E-14
 -1      1735 8.39529E-03 2.03540E-04-4.80958E-14
 -1      1736 8.51738E-03 1.27227E-04-4.82675E-14
 -1      1737 8.78067E-03 1.61141E-05-4.87507E-14
 -1      1738 9.13750E-03-1.51214E-04-4.96217E-14
 -1      1739 9.52801E-03-3.58764E-04-5.08416E-14
 -1      1740 9.91606E-03-5.47943E-04-5.21734E-14
 -1      1741 1.02787E-02-6.84824E-04-5.36296E-14
 -1      1742 1.06262E-02-7.36907E-04-5.52177E-14
 -1      1743 1.09732E-02-6.83935E-04-5.68355E-14
 -1      1744 1.13445E-02-5.42549E-04-5.84094E-14
 -1      1745 1.17420E-02-3.40142E-04-5.99551E-14
 -1      1746 1.21726E-02-1.22275E-04-6.13478E-14
 -1      1747 1.25593E-02 5.44821E-05-6.24293E-14
 -1      1748 1.28175E-02 1.71284E-04-6.30979E-14
 -1      1749 2.77990E-04-1.72302E-04-2.13994E-17
 -1      1750 3.25550E-04-1.14308E-04-1.12798E-16
 -1      1751 3.29164E-04-1.30146E-04-1.02864E-16
 -1      1752 3.34580E-04-1.48696E-04-9.12763E-17
 -1      1753 3.43518E-04-1.70150E-04-7.58399E-17
 -1      1754 4.48355E-04-1.83595E-04-1.48956E-16
 -1      1755 3.19646E-04-6.38545E-05-1.36054E-16
 -1      1756 3.20400E-04-7.49680E-05-1.31907E-16
 -1      1757 3.18925E-04-4.26534E-05-1.42098E-16
 -1      1758 3.19197E-04-5.30083E-05-1.39347E-16
 -1      1759 4.30155E-04-7.69429E-05-2.03722E-16
 -1      1760 3.18880E-04-2.27477E-05-1.45920E-16
 -1      1761 3.18845E-04-3.25639E-05-1.44212E-16
 -1      1762 4.29191E-04-4.93326E-05-2.11338E-16
 -1      1763 3.19302E-04-3.46415E-06-1.47899E-16
 -1      1764 3.19043E-04-1.30480E-05-1.46909E-16
 -1      1765 4.29160E-04-2.32017E-05-2.15851E-16
 -1      1766 3.20124E-04 1.57518E-05-1.48590E-16
 -1      1767 3.19661E-04 6.13472E-06-1.48576E-16
 -1      1768 4.29821E-04 2.29388E-06-2.18277E-16
 -1      1769 3.21382E-04 3.54407E-05-1.47709E-16
 -1      1770 3.20684E-04 2.55198E-05-1.48305E-16
 -1      1771 4.31114E-04 2.78815E-05-2.18724E-16
 -1      1772 3.23193E-04 5.58584E-05-1.45093E-16
 -1      1773 3.22187E-04 4.55007E-05-1.46693E-16
 -1      1774 4.33113E-04 5.40710E-05-2.16868E-16
 -1      1775 3.25956E-04 7.85342E-05-1.39916E-16
 -1      1776 3.24402E-04 6.69350E-05-1.42952E-16
 -1      1777 4.36095E-04 8.19397E-05-2.12504E-16
 -1      1778 3.30379E-04 1.04457E-04-1.30863E-16
 -1      1779 3.27859E-04 9.10559E-05-1.36162E-16
 -1      1780 4.40702E-04 1.12962E-04-2.04196E-16
 -1      1781 3.38199E-04 1.36092E-04-1.15603E-16
 -1      1782 3.33615E-04 1.19491E-04-1.24290E-16
 -1      1783 4.48178E-04 1.48870E-04-1.90020E-16
 -1      1784 3.54814E-04 1.78921E-04-9.08290E-17
 -1      1785 3.44857E-04 1.55882E-04-1.04924E-16
 -1      1786 4.61805E-04 1.93259E-04-1.67116E-16
 -1      1787 4.11217E-04 2.35575E-04-7.49590E-17
 -1      1788 3.81049E-04 2.04234E-04-8.59637E-17
 -1      1789 4.99467E-04 2.46271E-04-1.47031E-16
 -1      1790 5.63368E-04 3.05416E-04-1.32124E-16
 -1      1791 3.31636E-04-1.86627E-04-4.87078E-17
 -1      1792 8.60915E-04 4.12500E-04-3.25261E-16
 -1      1793 7.13263E-04 3.63450E-04-2.16298E-16
 -1      1794 6.78758E-04 3.32528E-04-2.25704E-16
 -1      1795 4.47873E-04-2.31119E-04-9.68464E-17
 -1      1796 7.87519E-04-3.63703E-04-2.79060E-16
 -1      1797 9.29244E-04-4.02877E-04-3.99542E-16
 -1      1798 1.06860E-03-4.35490E-04-5.43890E-16
 -1      1799 1.20683E-03-4.62239E-04-7.12660E-16
 -1      1800 9.80438E-04-3.85325E-04-5.06431E-16
 -1      1801 1.34384E-03-4.84478E-04-9.05932E-16
 -1      1802 1.48016E-03-5.02503E-04-1.12359E-15
 -1      1803 1.25950E-03-4.38978E-04-8.51370E-16
 -1      1804 1.61598E-03-5.17213E-04-1.36535E-15
 -1      1805 1.75150E-03-5.28848E-04-1.63163E-15
 -1      1806 1.53542E-03-4.75212E-04-1.29249E-15
 -1      1807 1.88691E-03-5.38005E-04-1.92198E-15
 -1      1808 2.02228E-03-5.44885E-04-2.23680E-15
 -1      1809 1.80965E-03-4.98563E-04-1.82992E-15
 -1      1810 2.15776E-03-5.49899E-04-2.57661E-15
 -1      1811 2.29333E-03-5.53215E-04-2.94009E-15
 -1      1812 2.08325E-03-5.12319E-04-2.46415E-15
 -1      1813 2.42913E-03-5.55122E-04-3.32705E-15
 -1      1814 2.56510E-03-5.55757E-04-3.73809E-15
 -1      1815 2.35689E-03-5.18894E-04-3.19452E-15
 -1      1816 2.70133E-03-5.55321E-04-4.17215E-15
 -1      1817 2.83779E-03-5.53921E-04-4.62876E-15
 -1      1818 2.63097E-03-5.20073E-04-4.01884E-15
 -1      1819 2.97453E-03-5.51687E-04-5.10773E-15
 -1      1820 3.11150E-03-5.48690E-04-5.60897E-15
 -1      1821 2.90572E-03-5.17158E-04-4.93442E-15
 -1      1822 3.24877E-03-5.45017E-04-6.13259E-15
 -1      1823 3.38616E-03-5.40663E-04-6.67802E-15
 -1      1824 3.18130E-03-5.11047E-04-5.93937E-15
 -1      1825 3.52397E-03-5.35774E-04-7.24536E-15
 -1      1826 3.66120E-03-5.30162E-04-7.83430E-15
 -1      1827 3.45779E-03-5.02324E-04-7.03280E-15
 -1      1828 3.79953E-03-5.24393E-04-8.44390E-15
 -1      1829 3.93396E-03-5.17222E-04-9.07550E-15
 -1      1830 3.73523E-03-4.91581E-04-8.21218E-15
 -1      1831 4.07340E-03-5.08448E-04-9.72894E-15
 -1      1832 4.21706E-03-5.00434E-04-1.04026E-14
 -1      1833 4.01401E-03-4.77205E-04-9.47708E-15
 -1      1834 4.35789E-03-4.94465E-04-1.10964E-14
 -1      1835 4.50070E-03-4.89301E-04-1.18112E-14
 -1      1836 4.29401E-03-4.62080E-04-1.08256E-14
 -1      1837 4.64316E-03-4.82174E-04-1.25477E-14
 -1      1838 4.78592E-03-4.75053E-04-1.33042E-14
 -1      1839 4.57675E-03-4.48983E-04-1.22571E-14
 -1      1840 4.92829E-03-4.68283E-04-1.40808E-14
 -1      1841 5.07155E-03-4.60828E-04-1.48776E-14
 -1      1842 4.86119E-03-4.34659E-04-1.37700E-14
 -1      1843 5.21548E-03-4.52683E-04-1.56957E-14
 -1      1844 5.35978E-03-4.44446E-04-1.65337E-14
 -1      1845 5.14729E-03-4.19513E-04-1.53648E-14
 -1      1846 5.50436E-03-4.36263E-04-1.73921E-14
 -1      1847 5.64963E-03-4.27563E-04-1.82716E-14
 -1      1848 5.43550E-03-4.02975E-04-1.70414E-14
 -1      1849 5.79548E-03-4.18557E-04-1.91710E-14
 -1      1850 5.94202E-03-4.09373E-04-2.00904E-14
 -1      1851 5.72539E-03-3.85519E-04-1.87995E-14
 -1      1852 6.08923E-03-4.00055E-04-2.10297E-14
 -1      1853 6.23726E-03-3.90694E-04-2.19882E-14
 -1      1854 6.01749E-03-3.66895E-04-2.06391E-14
 -1      1855 6.38610E-03-3.81380E-04-2.29662E-14
 -1      1856 6.53593E-03-3.72244E-04-2.39636E-14
 -1      1857 6.31207E-03-3.47870E-04-2.25569E-14
 -1      1858 6.68674E-03-3.63439E-04-2.49801E-14
 -1      1859 6.83873E-03-3.55147E-04-2.60147E-14
 -1      1860 6.60959E-03-3.29221E-04-2.45520E-14
 -1      1861 6.99188E-03-3.47618E-04-2.70682E-14
 -1      1862 7.14640E-03-3.41105E-04-2.81401E-14
 -1      1863 6.91067E-03-3.12156E-04-2.66220E-14
 -1      1864 7.30229E-03-3.35989E-04-2.92305E-14
 -1      1865 7.45971E-03-3.32613E-04-3.03382E-14
 -1      1866 7.21598E-03-2.98507E-04-2.87667E-14
 -1      1867 7.61869E-03-3.31518E-04-3.14644E-14
 -1      1868 7.77928E-03-3.33156E-04-3.26073E-14
 -1      1869 7.52628E-03-2.90942E-04-3.09841E-14
 -1      1870 7.94159E-03-3.38224E-04-3.37684E-14
 -1      1871 8.10546E-03-3.47278E-04-3.49470E-14
 -1      1872 7.84233E-03-2.93152E-04-3.32717E-14
 -1      1873 8.27111E-03-3.61112E-04-3.61411E-14
 -1      1874 8.43805E-03-3.80331E-04-3.73526E-14
 -1      1875 8.16487E-03-3.09895E-04-3.56280E-14
 -1      1876 8.60667E-03-4.05638E-04-3.85790E-14
 -1      1877 8.77601E-03-4.37523E-04-3.98197E-14
 -1      1878 8.49438E-03-3.46703E-04-3.80478E-14
 -1      1879 8.94662E-03-4.76251E-04-4.10767E-14
 -1      1880 9.11699E-03-5.21838E-04-4.23476E-14
 -1      1881 8.83075E-03-4.08845E-04-4.05286E-14
 -1      1882 9.28773E-03-5.73621E-04-4.36331E-14
 -1      1883 9.45698E-03-6.30577E-04-4.49299E-14
 -1      1884 9.17246E-03-4.99055E-04-4.30688E-14
 -1      1885 9.62510E-03-6.90674E-04-4.62371E-14
 -1      1886 9.79056E-03-7.51342E-04-4.75590E-14
 -1      1887 9.51569E-03-6.13662E-04-4.56601E-14
 -1      1888 9.95322E-03-8.09191E-04-4.88894E-14
 -1      1889 1.01129E-02-8.60392E-04-5.02286E-14
 -1      1890 9.85424E-03-7.37972E-04-4.82996E-14
 -1      1891 1.02689E-02-9.01176E-04-5.15790E-14
 -1      1892 1.04233E-02-9.27948E-04-5.29370E-14
 -1      1893 1.01821E-02-8.44720E-04-5.09795E-14
 -1      1894 1.05749E-02-9.38376E-04-5.43039E-14
 -1      1895 1.07274E-02-9.31286E-04-5.56824E-14
 -1      1896 1.04986E-02-9.01340E-04-5.36992E-14
 -1      1897 1.08796E-02-9.07107E-04-5.70710E-14
 -1      1898 1.10349E-02-8.67912E-04-5.84692E-14
 -1      1899 1.08110E-02-8.86584E-04-5.64582E-14
 -1      1900 1.11923E-02-8.16666E-04-5.98782E-14
 -1      1901 1.13530E-02-7.57222E-04-6.12960E-14
 -1      1902 1.11298E-02-8.04505E-04-5.92595E-14
 -1      1903 1.15166E-02-6.93401E-04-6.27265E-14
 -1      1904 1.16822E-02-6.28736E-04-6.41698E-14
 -1      1905 1.14600E-02-6.81528E-04-6.21045E-14
 -1      1906 1.18501E-02-5.66229E-04-6.56256E-14
 -1      1907 1.20183E-02-5.07951E-04-6.70935E-14
 -1      1908 1.17987E-02-5.49970E-04-6.49927E-14
 -1      1909 1.21873E-02-4.55446E-04-6.85726E-14
 -1      1910 1.23554E-02-4.09296E-04-7.00671E-14
 -1      1911 1.21394E-02-4.33413E-04-6.79334E-14
 -1      1912 1.25232E-02-3.69772E-04-7.15781E-14
 -1      1913 1.26892E-02-3.36609E-04-7.31030E-14
 -1      1914 1.24762E-02-3.42473E-04-7.09278E-14
 -1      1915 1.28540E-02-3.09274E-04-7.46406E-14
 -1      1916 1.30167E-02-2.87127E-04-7.61899E-14
 -1      1917 1.28062E-02-2.77940E-04-7.39797E-14
 -1      1918 1.31777E-02-2.69280E-04-7.77561E-14
 -1      1919 1.33366E-02-2.55019E-04-7.93343E-14
 -1      1920 1.31282E-02-2.35351E-04-7.70813E-14
 -1      1921 1.34936E-02-2.43387E-04-8.09246E-14
 -1      1922 1.36486E-02-2.33713E-04-8.25283E-14
 -1      1923 1.34424E-02-2.08272E-04-8.02373E-14
 -1      1924 1.38017E-02-2.25120E-04-8.41464E-14
 -1      1925 1.39531E-02-2.17006E-04-8.57737E-14
 -1      1926 1.37492E-02-1.90119E-04-8.34431E-14
 -1      1927 1.41026E-02-2.08640E-04-8.74140E-14
 -1      1928 1.42507E-02-1.99479E-04-8.90676E-14
 -1      1929 1.40494E-02-1.74921E-04-8.67026E-14
 -1      1930 1.43812E-02-1.91852E-04-9.05517E-14
 -1      1931 1.45267E-02-1.79791E-04-9.22244E-14
 -1      1932 1.45860E-02-1.43044E-04-9.28107E-14
 -1      1933 1.43278E-02-1.60241E-04-8.98279E-14
 -1      1934 1.14835E-03 4.88550E-04-6.17182E-16
 -1      1935 1.00541E-03 4.53676E-04-4.58509E-16
 -1      1936 9.72089E-04 4.23837E-04-4.68145E-16
 -1      1937 1.42972E-03 5.43766E-04-1.01044E-15
 -1      1938 1.28945E-03 5.18370E-04-8.01266E-16
 -1      1939 1.25870E-03 4.89823E-04-8.09804E-16
 -1      1940 1.70820E-03 5.84433E-04-1.50365E-15
 -1      1941 1.56914E-03 5.65675E-04-1.24431E-15
 -1      1942 1.54097E-03 5.38070E-04-1.25071E-15
 -1      1943 1.98573E-03 6.14704E-04-2.09759E-15
 -1      1944 1.84699E-03 6.00700E-04-1.78816E-15
 -1      1945 1.82108E-03 5.73713E-04-1.79140E-15
 -1      1946 2.26336E-03 6.37492E-04-2.78846E-15
 -1      1947 2.12448E-03 6.26911E-04-2.43104E-15
 -1      1948 2.10042E-03 6.00311E-04-2.43032E-15
 -1      1949 2.54165E-03 6.54924E-04-3.57464E-15
 -1      1950 2.40241E-03 6.46787E-04-3.17011E-15
 -1      1951 2.37980E-03 6.20421E-04-3.16512E-15
 -1      1952 2.82086E-03 6.68574E-04-4.45278E-15
 -1      1953 2.68114E-03 6.62156E-04-4.00197E-15
 -1      1954 2.65967E-03 6.35921E-04-3.99268E-15
 -1      1955 3.10106E-03 6.79608E-04-5.42119E-15
 -1      1956 2.96084E-03 6.74370E-04-4.92584E-15
 -1      1957 2.94024E-03 6.48201E-04-4.91165E-15
 -1      1958 3.38227E-03 6.88913E-04-6.47831E-15
 -1      1959 3.24155E-03 6.84443E-04-5.93910E-15
 -1      1960 3.22157E-03 6.58295E-04-5.92073E-15
 -1      1961 3.66456E-03 6.97240E-04-7.62591E-15
 -1      1962 3.52334E-03 6.93213E-04-7.04043E-15
 -1      1963 3.50377E-03 6.67026E-04-7.01744E-15
 -1      1964 3.94786E-03 7.03901E-04-8.86163E-15
 -1      1965 3.80609E-03 7.00623E-04-8.23265E-15
 -1      1966 3.78694E-03 6.74530E-04-8.20372E-15
 -1      1967 4.23194E-03 7.10412E-04-1.01873E-14
 -1      1968 4.08973E-03 7.07328E-04-9.51343E-15
 -1      1969 4.07088E-03 6.80990E-04-9.47972E-15
 -1      1970 4.51708E-03 7.15839E-04-1.16014E-14
 -1      1971 4.37440E-03 7.13217E-04-1.08837E-14
 -1      1972 4.35573E-03 6.86954E-04-1.08446E-14
 -1      1973 4.80317E-03 7.20479E-04-1.30997E-14
 -1      1974 4.66000E-03 7.18258E-04-1.23403E-14
 -1      1975 4.64144E-03 6.92000E-04-1.22959E-14
 -1      1976 5.09035E-03 7.24291E-04-1.46793E-14
 -1      1977 4.94661E-03 7.22483E-04-1.38797E-14
 -1      1978 4.92804E-03 6.96202E-04-1.38298E-14
 -1      1979 5.37885E-03 7.27285E-04-1.63432E-14
 -1      1980 5.23442E-03 7.25880E-04-1.55000E-14
 -1      1981 5.21574E-03 6.99550E-04-1.54450E-14
 -1      1982 5.66898E-03 7.29523E-04-1.80911E-14
 -1      1983 5.52369E-03 7.28488E-04-1.72064E-14
 -1      1984 5.50477E-03 7.02085E-04-1.71449E-14
 -1      1985 5.96117E-03 7.31105E-04-1.99223E-14
 -1      1986 5.81478E-03 7.30375E-04-1.89967E-14
 -1      1987 5.79542E-03 7.03863E-04-1.89290E-14
 -1      1988 6.25593E-03 7.32303E-04-2.18363E-14
 -1      1989 6.10818E-03 7.31717E-04-2.08691E-14
 -1      1990 6.08813E-03 7.05034E-04-2.07966E-14
 -1      1991 6.55393E-03 7.33650E-04-2.38322E-14
 -1      1992 6.40447E-03 7.32901E-04-2.28246E-14
 -1      1993 6.38341E-03 7.05961E-04-2.27444E-14
 -1      1994 6.85586E-03 7.36066E-04-2.59062E-14
 -1      1995 6.70434E-03 7.34642E-04-2.48597E-14
 -1      1996 6.68186E-03 7.07320E-04-2.47732E-14
 -1      1997 7.16247E-03 7.40990E-04-2.80552E-14
 -1      1998 7.00852E-03 7.38098E-04-2.69711E-14
 -1      1999 6.98414E-03 7.10232E-04-2.68778E-14
 -1      2000 7.47445E-03 7.50528E-04-3.02733E-14
 -1      2001 7.31773E-03 7.45027E-04-2.91549E-14
 -1      2002 7.29091E-03 7.16400E-04-2.90554E-14
 -1      2003 7.79229E-03 7.67588E-04-3.25644E-14
 -1      2004 7.63260E-03 7.57923E-04-3.14107E-14
 -1      2005 7.60280E-03 7.28266E-04-3.13037E-14
 -1      2006 8.11611E-03 7.95900E-04-3.49217E-14
 -1      2007 7.95347E-03 7.80115E-04-3.37353E-14
 -1      2008 7.92024E-03 7.49113E-04-3.36235E-14
 -1      2009 8.44537E-03 8.39790E-04-3.73513E-14
 -1      2010 8.28015E-03 8.15683E-04-3.61278E-14
 -1      2011 8.24336E-03 7.83017E-04-3.60104E-14
 -1      2012 8.77862E-03 9.03426E-04-3.98495E-14
 -1      2013 8.61171E-03 8.69005E-04-3.85913E-14
 -1      2014 8.57173E-03 8.34455E-04-3.84672E-14
 -1      2015 9.11317E-03 9.89270E-04-4.24208E-14
 -1      2016 8.94608E-03 9.43644E-04-4.11251E-14
 -1      2017 8.90405E-03 9.07274E-04-4.09947E-14
 -1      2018 9.44514E-03 1.09559E-03-4.50593E-14
 -1      2019 9.27993E-03 1.04031E-03-4.37313E-14
 -1      2020 9.23781E-03 1.00274E-03-4.35925E-14
 -1      2021 9.76987E-03 1.21362E-03-4.77644E-14
 -1      2022 9.60885E-03 1.15406E-03-4.64039E-14
 -1      2023 9.56917E-03 1.11665E-03-4.62582E-14
 -1      2024 1.00835E-02 1.32614E-03-5.05318E-14
 -1      2025 9.92829E-03 1.27187E-03-4.91400E-14
 -1      2026 9.89354E-03 1.23659E-03-4.89860E-14
 -1      2027 1.03852E-02 1.41017E-03-5.33614E-14
 -1      2028 1.02356E-02 1.37299E-03-5.19397E-14
 -1      2029 1.02074E-02 1.34164E-03-5.17780E-14
 -1      2030 1.06789E-02 1.44508E-03-5.62426E-14
 -1      2031 1.05324E-02 1.43441E-03-5.47958E-14
 -1      2032 1.05110E-02 1.40757E-03-5.46262E-14
 -1      2033 1.09723E-02 1.42245E-03-5.91793E-14
 -1      2034 1.08248E-02 1.44059E-03-5.77038E-14
 -1      2035 1.08099E-02 1.41710E-03-5.75259E-14
 -1      2036 1.12729E-02 1.35072E-03-6.21632E-14
 -1      2037 1.11211E-02 1.39154E-03-6.06659E-14
 -1      2038 1.11120E-02 1.36927E-03-6.04772E-14
 -1      2039 1.15847E-02 1.25047E-03-6.51908E-14
 -1      2040 1.14273E-02 1.30276E-03-6.36717E-14
 -1      2041 1.14233E-02 1.27985E-03-6.34743E-14
 -1      2042 1.19066E-02 1.14448E-03-6.82561E-14
 -1      2043 1.17446E-02 1.19711E-03-6.67192E-14
 -1      2044 1.17445E-02 1.17273E-03-6.65154E-14
 -1      2045 1.22346E-02 1.04971E-03-7.13485E-14
 -1      2046 1.20703E-02 1.09516E-03-6.97993E-14
 -1      2047 1.20724E-02 1.06931E-03-6.95896E-14
 -1      2048 1.25641E-02 9.74511E-04-7.44685E-14
 -1      2049 1.23996E-02 1.00958E-03-7.29055E-14
 -1      2050 1.24022E-02 9.82716E-04-7.26908E-14
 -1      2051 1.28909E-02 9.20026E-04-7.76112E-14
 -1      2052 1.27282E-02 9.44870E-04-7.60374E-14
 -1      2053 1.27298E-02 9.17472E-04-7.58196E-14
 -1      2054 1.32123E-02 8.83035E-04-8.07708E-14
 -1      2055 1.30525E-02 8.99654E-04-7.91897E-14
 -1      2056 1.30525E-02 8.72145E-04-7.89726E-14
 -1      2057 1.35268E-02 8.58346E-04-8.39466E-14
 -1      2058 1.33705E-02 8.69484E-04-8.23577E-14
 -1      2059 1.33687E-02 8.42201E-04-8.21381E-14
 -1      2060 1.38339E-02 8.40331E-04-8.71357E-14
 -1      2061 1.36813E-02 8.48810E-04-8.55381E-14
 -1      2062 1.36781E-02 8.22022E-04-8.53183E-14
 -1      2063 1.41340E-02 8.23687E-04-9.03435E-14
 -1      2064 1.39848E-02 8.32100E-04-8.87402E-14
 -1      2065 1.39807E-02 8.06025E-04-8.85168E-14
 -1      2066 1.44280E-02 8.03872E-04-9.35608E-14
 -1      2067 1.42816E-02 8.14375E-04-9.19498E-14
 -1      2068 1.42771E-02 7.89180E-04-9.17305E-14
 -1      2069 1.46673E-02 7.79892E-04-9.62119E-14
 -1      2070 1.45228E-02 7.93245E-04-9.45961E-14
 -1      2071 1.45182E-02 7.68851E-04-9.43778E-14
 -1      2072 1.47068E-02 7.46091E-04-9.64505E-14
 -1      2073 1.48042E-02 5.39317E-04-9.57533E-14
 -1      2074 1.47797E-02 5.73956E-04-9.58168E-14
 -1      2075 1.47551E-02 6.10046E-04-9.58787E-14
 -1      2076 1.47311E-02 6.47434E-04-9.59398E-14
 -1      2077 1.46447E-02 6.01432E-04-9.44438E-14
 -1      2078 1.47287E-02 6.76269E-04-9.61654E-14
 -1      2079 1.47069E-02 7.15790E-04-9.62245E-14
 -1      2080 1.46129E-02 7.27226E-04-9.51872E-14
 -1      2081 1.46165E-02 6.67610E-04-9.47338E-14
 -1      2082 1.48500E-02 4.75325E-04-9.56205E-14
 -1      2083 1.48277E-02 5.06645E-04-9.56858E-14
 -1      2084 1.46944E-02 5.31380E-04-9.43141E-14
 -1      2085 1.48892E-02 4.15561E-04-9.54790E-14
 -1      2086 1.48708E-02 4.44848E-04-9.55501E-14
 -1      2087 1.47404E-02 4.66479E-04-9.41742E-14
 -1      2088 1.49166E-02 3.60201E-04-9.53308E-14
 -1      2089 1.49046E-02 3.87470E-04-9.54070E-14
 -1      2090 1.47780E-02 4.05820E-04-9.40260E-14
 -1      2091 1.49291E-02 3.07653E-04-9.51758E-14
 -1      2092 1.49249E-02 3.33762E-04-9.52549E-14
 -1      2093 1.48027E-02 3.48956E-04-9.38717E-14
 -1      2094 1.49249E-02 2.55891E-04-9.50191E-14
 -1      2095 1.49291E-02 2.81880E-04-9.51001E-14
 -1      2096 1.48114E-02 2.94302E-04-9.37135E-14
 -1      2097 1.49044E-02 2.02747E-04-9.48498E-14
 -1      2098 1.49166E-02 2.29689E-04-9.49355E-14
 -1      2099 1.48029E-02 2.39907E-04-9.35480E-14
 -1      2100 1.48703E-02 1.47243E-04-9.46809E-14
 -1      2101 1.48889E-02 1.75551E-04-9.47643E-14
 -1      2102 1.47782E-02 1.84243E-04-9.33746E-14
 -1      2103 1.48252E-02 8.59786E-05-9.45005E-14
 -1      2104 1.48488E-02 1.17311E-04-9.45918E-14
 -1      2105 1.47399E-02 1.25140E-04-9.31930E-14
 -1      2106 1.47744E-02 1.90260E-05-9.43028E-14
 -1      2107 1.48002E-02 5.32361E-05-9.44034E-14
 -1      2108 1.46917E-02 6.08074E-05-9.30008E-14
 -1      2109 1.47229E-02-5.37759E-05-9.40869E-14
 -1      2110 1.47484E-02-1.66918E-05-9.41970E-14
 -1      2111 1.46389E-02-8.90778E-06-9.27948E-14
 -1      2112 1.25385E-02 4.10189E-04-6.33660E-14
 -1      2113 1.26716E-02 3.57746E-04-6.37513E-14
 -1      2114 1.29131E-02 2.60039E-04-6.40750E-14
 -1      2115 1.29095E-02 2.41178E-04-6.39895E-14
 -1      2116 1.28037E-02 3.06752E-04-6.41230E-14
 -1      2117 1.28753E-02 2.84207E-04-6.41781E-14
 -1      2118 1.21961E-02 5.55384E-04-6.25621E-14
 -1      2119 1.23626E-02 4.77686E-04-6.30491E-14
 -1      2120 1.18224E-02 7.44958E-04-6.14197E-14
 -1      2121 1.20139E-02 6.46291E-04-6.19906E-14
 -1      2122 1.20939E-02 5.79451E-04-6.29299E-14
 -1      2123 3.21489E-04-8.70543E-05-1.26757E-16
 -1      2124 3.23165E-04-9.99771E-05-1.20238E-16
 -1      2125 4.37733E-04-1.41614E-04-1.74570E-16
 -1      2126 4.32606E-04-1.07116E-04-1.91972E-16
 -1      2127 1.10396E-02 1.14978E-03-5.79635E-14
 -1      2128 1.12016E-02 1.07979E-03-5.87527E-14
 -1      2129 1.07046E-02 1.22478E-03-5.61604E-14
 -1      2130 1.08548E-02 1.20413E-03-5.70315E-14
 -1      2131 1.03565E-02 1.16736E-03-5.41338E-14
 -1      2132 1.05133E-02 1.21254E-03-5.50507E-14
 -1      2133 9.96246E-03 9.84435E-04-5.22784E-14
 -1      2134 1.01397E-02 1.07741E-03-5.30710E-14
 -1      2135 9.57249E-03 7.71160E-04-5.08056E-14
 -1      2136 9.75624E-03 8.74240E-04-5.14607E-14
 -1      2137 9.19230E-03 5.66595E-04-4.95285E-14
 -1      2138 9.37036E-03 6.58795E-04-5.00739E-14
 -1      2139 8.82326E-03 4.05207E-04-4.85937E-14
 -1      2140 8.98528E-03 4.72185E-04-4.89848E-14
 -1      2141 8.55192E-03 3.01212E-04-4.78965E-14
 -1      2142 8.66802E-03 3.41720E-04-4.81786E-14
 -1      2143 8.40054E-03 2.44372E-04-4.75874E-14
 -1      2144 8.45343E-03 2.65759E-04-4.77206E-14
 -1      2145 8.40195E-03 2.02968E-04-4.73857E-14
 -1      2146 8.38016E-03 2.19643E-04-4.73981E-14
 -1      2147 8.57241E-03 1.36080E-04-4.77827E-14
 -1      2148 8.47427E-03 1.69380E-04-4.75970E-14
 -1      2149 8.86827E-03 2.97059E-05-4.82393E-14
 -1      2150 8.71181E-03 8.86315E-05-4.79451E-14
 -1      2151 9.27794E-03-1.74658E-04-4.94744E-14
 -1      2152 9.08966E-03-7.63130E-05-4.89019E-14
 -1      2153 9.67812E-03-3.90623E-04-5.07173E-14
 -1      2154 9.49773E-03-2.86035E-04-5.00755E-14
 -1      2155 1.00144E-02-5.75072E-04-5.20762E-14
 -1      2156 9.84823E-03-4.85344E-04-5.13938E-14
 -1      2157 9.77253E-03-4.25379E-04-5.06210E-14
 -1      2158 1.03765E-02-7.23093E-04-5.38419E-14
 -1      2159 1.02273E-02-6.70518E-04-5.30755E-14
 -1      2160 1.06908E-02-7.54858E-04-5.55561E-14
 -1      2161 1.05470E-02-7.53969E-04-5.47400E-14
 -1      2162 1.10389E-02-6.63216E-04-5.73927E-14
 -1      2163 1.08834E-02-7.18593E-04-5.65956E-14
 -1      2164 1.13703E-02-5.01653E-04-5.89427E-14
 -1      2165 1.12030E-02-5.91847E-04-5.81670E-14
 -1      2166 1.10997E-02-6.32662E-04-5.79258E-14
 -1      2167 1.17911E-02-2.63637E-04-6.06841E-14
 -1      2168 1.15925E-02-3.77948E-04-5.99121E-14
 -1      2169 1.22421E-02-2.86269E-05-6.22577E-14
 -1      2170 1.20355E-02-1.28427E-04-6.16318E-14
 -1      2171 1.26217E-02 1.24572E-04-6.32484E-14
 -1      2172 1.24571E-02 6.00225E-05-6.27854E-14
 -1      2173 1.28611E-02 2.14973E-04-6.39873E-14
 -1      2174 1.27719E-02 1.85674E-04-6.37729E-14
 -1      2175 1.13831E-02 9.92700E-04-5.95569E-14
 -1      2176 1.15670E-02 8.88444E-04-6.03647E-14
 -1      2177 1.12694E-02 1.03872E-03-5.94308E-14
 -1      2178 5.93198E-04-2.90557E-04-1.64108E-16
 -1      2179 1.16798E-02 8.08154E-04-6.12935E-14
 -1      2180 6.48238E-04-2.84665E-04-2.32494E-16
 -1      2181 1.27441E-02 3.18976E-04-6.45140E-14
 -1      2182 1.29050E-02 2.67535E-04-6.47803E-14
 -1      2183 1.46616E-02-8.85287E-05-9.35024E-14
 -1      2184 1.24363E-02 4.28258E-04-6.38247E-14
 -1      2185 1.28933E-02 2.34829E-04-6.46714E-14
 -1      2186 1.27022E-02 1.74915E-04-6.41349E-14
 -1      2187 1.23416E-02 3.75512E-05-6.30738E-14
 -1      2188 1.14565E-02-4.37477E-04-5.96688E-14
 -1      2189 1.07803E-02-7.47891E-04-5.61109E-14
 -1      2190 1.01231E-02-6.22792E-04-5.22872E-14
 -1      2191 9.41235E-03-2.19920E-04-4.93496E-14
 -1      2192 8.98282E-03-5.38316E-06-4.80909E-14
 -1      2193 8.63803E-03 1.30342E-04-4.72723E-14
 -1      2194 8.42777E-03 1.96271E-04-4.69000E-14
 -1      2195 8.38047E-03 2.26897E-04-4.68760E-14
 -1      2196 8.49822E-03 2.68440E-04-4.72368E-14
 -1      2197 8.74741E-03 3.49541E-04-4.78200E-14
 -1      2198 9.09819E-03 4.96974E-04-4.87722E-14
 -1      2199 9.48860E-03 6.99007E-04-5.00414E-14
 -1      2200 9.87432E-03 9.22871E-04-5.15867E-14
 -1      2201 1.02629E-02 1.12973E-03-5.34642E-14
 -1      2202 1.09403E-02 1.18512E-03-5.76881E-14
 -1      2203 1.06159E-02 1.23146E-03-5.56395E-14
 -1      2204 1.04658E-02-7.49752E-04-5.41788E-14
 -1      2205 1.19024E-02-1.78321E-04-6.15883E-14
 -1      2206 1.02359E-03 4.06794E-04-5.78612E-16
 -1      2207 8.78163E-04 3.68877E-04-4.29181E-16
 -1      2208 5.41395E-04-5.24341E-05-3.02032E-16
 -1      2209 5.41793E-04-6.89605E-05-2.97803E-16
 -1      2210 5.42558E-04-8.60595E-05-2.92694E-16
 -1      2211 5.43754E-04-1.03776E-04-2.86351E-16
 -1      2212 6.56393E-04-9.11597E-05-4.00477E-16
 -1      2213 5.42452E-04 1.12160E-05-3.10122E-16
 -1      2214 5.41834E-04-4.52822E-06-3.09065E-16
 -1      2215 5.44387E-04 4.30961E-05-3.09865E-16
 -1      2216 5.43298E-04 2.70781E-05-3.10407E-16
 -1      2217 6.56929E-04 2.32616E-05-4.20033E-16
 -1      2218 5.47369E-04 7.56570E-05-3.06748E-16
 -1      2219 5.45727E-04 5.91868E-05-3.08686E-16
 -1      2220 6.59667E-04 6.09827E-05-4.18854E-16
 -1      2221 5.51950E-04 1.11138E-04-2.99660E-16
 -1      2222 5.49428E-04 9.30498E-05-3.03793E-16
 -1      2223 6.63939E-04 1.00398E-04-4.13772E-16
 -1      2224 5.59057E-04 1.50563E-04-2.86961E-16
 -1      2225 5.55118E-04 1.30282E-04-2.94103E-16
 -1      2226 6.70476E-04 1.43200E-04-4.03066E-16
 -1      2227 5.70684E-04 1.96361E-04-2.66253E-16
 -1      2228 5.64185E-04 1.72528E-04-2.77881E-16
 -1      2229 6.80627E-04 1.90875E-04-3.84905E-16
 -1      2230 1.31087E-03 4.67294E-04-9.51238E-16
 -1      2231 1.16765E-03 4.39492E-04-7.52450E-16
 -1      2232 1.07805E-03 3.88914E-04-6.93727E-16
 -1      2233 8.94710E-04-3.35600E-04-4.65936E-16
 -1      2234 1.03561E-03-3.66869E-04-6.18524E-16
 -1      2235 1.15428E-02 8.78876E-04-6.12209E-14
 -1      2236 1.17703E-02 7.44709E-04-6.22833E-14
 -1      2237 1.26801E-02 3.30667E-04-6.52242E-14
 -1      2238 1.28060E-02 2.96316E-04-6.55950E-14
 -1      2239 1.17569E-03-3.93102E-04-7.94517E-16
 -1      2240 1.31536E-03-4.14729E-04-9.94390E-16
 -1      2241 1.09321E-03-3.47379E-04-7.35740E-16
 -1      2242 1.45442E-03-4.32580E-04-1.21787E-15
 -1      2243 1.59312E-03-4.46940E-04-1.46546E-15
 -1      2244 1.37354E-03-3.89637E-04-1.14183E-15
 -1      2245 1.73148E-03-4.58468E-04-1.73708E-15
 -1      2246 1.86962E-03-4.67371E-04-2.03219E-15
 -1      2247 1.65278E-03-4.17910E-04-1.64243E-15
 -1      2248 2.00763E-03-4.74138E-04-2.35093E-15
 -1      2249 2.14556E-03-4.78942E-04-2.69441E-15
 -1      2250 1.93117E-03-4.35469E-04-2.23766E-15
 -1      2251 2.28349E-03-4.82136E-04-3.06110E-15
 -1      2252 2.42143E-03-4.83860E-04-3.45130E-15
 -1      2253 2.20912E-03-4.44916E-04-2.92689E-15
 -1      2254 2.55946E-03-4.84367E-04-3.86487E-15
 -1      2255 2.69757E-03-4.83767E-04-4.30134E-15
 -1      2256 2.48696E-03-4.48241E-04-3.71057E-15
 -1      2257 2.83582E-03-4.82232E-04-4.76051E-15
 -1      2258 2.97420E-03-4.79847E-04-5.24174E-15
 -1      2259 2.76494E-03-4.46934E-04-4.58571E-15
 -1      2260 3.11275E-03-4.76720E-04-5.74558E-15
 -1      2261 3.25148E-03-4.72904E-04-6.27185E-15
 -1      2262 3.04325E-03-4.42061E-04-5.55154E-15
 -1      2263 3.39041E-03-4.68463E-04-6.81918E-15
 -1      2264 3.52953E-03-4.63449E-04-7.38881E-15
 -1      2265 3.32206E-03-4.34341E-04-6.60528E-15
 -1      2266 3.66890E-03-4.57899E-04-7.97999E-15
 -1      2267 3.80835E-03-4.52090E-04-8.59179E-15
 -1      2268 3.60147E-03-4.24272E-04-7.74637E-15
 -1      2269 3.94844E-03-4.45206E-04-9.22420E-15
 -1      2270 4.08841E-03-4.36943E-04-9.87914E-15
 -1      2271 3.88175E-03-4.11891E-04-8.97241E-15
 -1      2272 4.22905E-03-4.29672E-04-1.05554E-14
 -1      2273 4.36941E-03-4.23179E-04-1.12502E-14
 -1      2274 4.16295E-03-3.97831E-04-1.02820E-14
 -1      2275 4.51384E-03-4.15093E-04-1.19658E-14
 -1      2276 4.65542E-03-4.08023E-04-1.27030E-14
 -1      2277 4.44734E-03-3.82384E-04-1.16753E-14
 -1      2278 4.79456E-03-4.02413E-04-1.34602E-14
 -1      2279 4.93681E-03-3.95338E-04-1.42372E-14
 -1      2280 4.73015E-03-3.68546E-04-1.31496E-14
 -1      2281 5.07963E-03-3.85658E-04-1.50344E-14
 -1      2282 5.22327E-03-3.77365E-04-1.58528E-14
 -1      2283 5.01200E-03-3.53656E-04-1.47053E-14
 -1      2284 5.36606E-03-3.70092E-04-1.66918E-14
 -1      2285 5.51025E-03-3.61688E-04-1.75504E-14
 -1      2286 5.29715E-03-3.36593E-04-1.63419E-14
 -1      2287 5.65485E-03-3.52772E-04-1.84295E-14
 -1      2288 5.79993E-03-3.43581E-04-1.93298E-14
 -1      2289 5.58412E-03-3.20221E-04-1.80606E-14
 -1      2290 5.94539E-03-3.34211E-04-2.02489E-14
 -1      2291 6.09137E-03-3.24663E-04-2.11882E-14
 -1      2292 5.87321E-03-3.01905E-04-1.98597E-14
 -1      2293 6.23779E-03-3.15052E-04-2.21490E-14
 -1      2294 6.38480E-03-3.05439E-04-2.31276E-14
 -1      2295 6.16359E-03-2.82805E-04-2.17398E-14
 -1      2296 6.53237E-03-2.95956E-04-2.41250E-14
 -1      2297 6.68064E-03-2.86732E-04-2.51420E-14
 -1      2298 6.45541E-03-2.63513E-04-2.36987E-14
 -1      2299 6.82959E-03-2.77962E-04-2.61779E-14
 -1      2300 6.97940E-03-2.69835E-04-2.72319E-14
 -1      2301 6.74903E-03-2.44885E-04-2.57331E-14
 -1      2302 7.13006E-03-2.62648E-04-2.83052E-14
 -1      2303 7.28176E-03-2.56679E-04-2.93971E-14
 -1      2304 7.04493E-03-2.28264E-04-2.78441E-14
 -1      2305 7.43454E-03-2.52347E-04-3.05048E-14
 -1      2306 7.58857E-03-2.50054E-04-3.16324E-14
 -1      2307 7.34384E-03-2.15646E-04-3.00269E-14
 -1      2308 7.74397E-03-2.50345E-04-3.27752E-14
 -1      2309 7.90086E-03-2.53784E-04-3.39364E-14
 -1      2310 7.64676E-03-2.09883E-04-3.22798E-14
 -1      2311 8.05952E-03-2.61009E-04-3.51148E-14
 -1      2312 8.21993E-03-2.72772E-04-3.63080E-14
 -1      2313 7.95518E-03-2.14859E-04-3.46014E-14
 -1      2314 8.38259E-03-2.89708E-04-3.75185E-14
 -1      2315 8.54718E-03-3.12720E-04-3.87432E-14
 -1      2316 8.27111E-03-2.35583E-04-3.69896E-14
 -1      2317 8.71446E-03-3.42246E-04-3.99839E-14
 -1      2318 8.88357E-03-3.79117E-04-4.12381E-14
 -1      2319 8.59705E-03-2.78013E-04-3.94396E-14
 -1      2320 9.05542E-03-4.23255E-04-4.25050E-14
 -1      2321 9.22840E-03-4.74838E-04-4.37889E-14
 -1      2322 8.93510E-03-3.48193E-04-4.19449E-14
 -1      2323 9.40322E-03-5.32855E-04-4.50849E-14
 -1      2324 9.57761E-03-5.95763E-04-4.63916E-14
 -1      2325 9.28512E-03-4.49742E-04-4.45067E-14
 -1      2326 9.75166E-03-6.61166E-04-4.77107E-14
 -1      2327 9.92330E-03-7.24877E-04-4.90405E-14
 -1      2328 9.64208E-03-5.78395E-04-4.71229E-14
 -1      2329 1.00917E-02-7.83301E-04-5.03810E-14
 -1      2330 1.02572E-02-8.30217E-04-5.17319E-14
 -1      2331 9.99529E-03-7.13944E-04-4.97817E-14
 -1      2332 1.04184E-02-8.62342E-04-5.30922E-14
 -1      2333 1.05789E-02-8.74869E-04-5.44625E-14
 -1      2334 1.03346E-02-8.17214E-04-5.24837E-14
 -1      2335 1.07373E-02-8.66653E-04-5.58441E-14
 -1      2336 1.08987E-02-8.38821E-04-5.72365E-14
 -1      2337 1.06617E-02-8.45657E-04-5.52278E-14
 -1      2338 1.10616E-02-7.93358E-04-5.86390E-14
 -1      2339 1.12287E-02-7.35660E-04-6.00528E-14
 -1      2340 1.09910E-02-7.84131E-04-5.80161E-14
 -1      2341 1.13986E-02-6.69392E-04-6.14774E-14
 -1      2342 1.15709E-02-6.00510E-04-6.29113E-14
 -1      2343 1.13344E-02-6.59045E-04-6.08491E-14
 -1      2344 1.17451E-02-5.32290E-04-6.43593E-14
 -1      2345 1.19185E-02-4.68077E-04-6.58211E-14
 -1      2346 1.16892E-02-5.14446E-04-6.37230E-14
 -1      2347 1.20916E-02-4.09769E-04-6.72926E-14
 -1      2348 1.22624E-02-3.58200E-04-6.87756E-14
 -1      2349 1.20437E-02-3.84836E-04-6.66480E-14
 -1      2350 1.24317E-02-3.13995E-04-7.02775E-14
 -1      2351 1.25979E-02-2.76679E-04-7.17921E-14
 -1      2352 1.23887E-02-2.84156E-04-6.96254E-14
 -1      2353 1.27621E-02-2.46051E-04-7.33164E-14
 -1      2354 1.29235E-02-2.21140E-04-7.48570E-14
 -1      2355 1.27209E-02-2.13289E-04-7.26544E-14
 -1      2356 1.30828E-02-2.01319E-04-7.64076E-14
 -1      2357 1.32399E-02-1.85626E-04-7.79718E-14
 -1      2358 1.30410E-02-1.66960E-04-7.57347E-14
 -1      2359 1.33950E-02-1.73258E-04-7.95515E-14
 -1      2360 1.35484E-02-1.63394E-04-8.11397E-14
 -1      2361 1.33514E-02-1.38256E-04-7.88648E-14
 -1      2362 1.37000E-02-1.55227E-04-8.27430E-14
 -1      2363 1.38502E-02-1.48077E-04-8.43603E-14
 -1      2364 1.36542E-02-1.20443E-04-8.20456E-14
 -1      2365 1.39990E-02-1.41220E-04-8.59890E-14
 -1      2366 1.41465E-02-1.34069E-04-8.76289E-14
 -1      2367 1.39513E-02-1.07551E-04-8.52742E-14
 -1      2368 1.87732E-03 5.44815E-04-1.99053E-15
 -1      2369 1.73632E-03 5.29585E-04-1.69385E-15
 -1      2370 2.15883E-03 5.69482E-04-2.65581E-15
 -1      2371 2.01814E-03 5.58056E-04-2.31144E-15
 -1      2372 1.93508E-03 5.15311E-04-2.19171E-15
 -1      2373 2.44018E-03 5.88181E-04-3.41539E-15
 -1      2374 2.29951E-03 5.79475E-04-3.02392E-15
 -1      2375 2.21835E-03 5.38116E-04-2.88321E-15
 -1      2376 2.72173E-03 6.02661E-04-4.26689E-15
 -1      2377 2.58093E-03 5.95871E-04-3.82969E-15
 -1      2378 2.50134E-03 5.55483E-04-3.66687E-15
 -1      2379 3.00370E-03 6.14216E-04-5.20959E-15
 -1      2380 2.86267E-03 6.08746E-04-4.72667E-15
 -1      2381 2.78434E-03 5.69025E-04-4.54225E-15
 -1      2382 3.28619E-03 6.23800E-04-6.24064E-15
 -1      2383 3.14492E-03 6.19206E-04-5.71426E-15
 -1      2384 3.06757E-03 5.79930E-04-5.50819E-15
 -1      2385 3.56949E-03 6.32130E-04-7.36032E-15
 -1      2386 3.42793E-03 6.28056E-04-6.78923E-15
 -1      2387 3.35136E-03 5.89063E-04-6.56179E-15
 -1      2388 3.85476E-03 6.39179E-04-8.56924E-15
 -1      2389 3.71281E-03 6.35689E-04-7.95363E-15
 -1      2390 3.63659E-03 5.96792E-04-7.70396E-15
 -1      2391 4.13811E-03 6.45636E-04-9.86707E-15
 -1      2392 3.99561E-03 6.42462E-04-9.20690E-15
 -1      2393 3.92116E-03 6.03679E-04-8.93530E-15
 -1      2394 4.42326E-03 6.51203E-04-1.12532E-14
 -1      2395 4.28046E-03 6.48484E-04-1.05495E-14
 -1      2396 4.20517E-03 6.09942E-04-1.02554E-14
 -1      2397 4.70923E-03 6.56031E-04-1.27238E-14
 -1      2398 4.56612E-03 6.53736E-04-1.19781E-14
 -1      2399 4.49055E-03 6.15423E-04-1.16622E-14
 -1      2400 4.99605E-03 6.59926E-04-1.42769E-14
 -1      2401 4.85251E-03 6.58083E-04-1.34903E-14
 -1      2402 4.77668E-03 6.20016E-04-1.31518E-14
 -1      2403 5.28390E-03 6.62942E-04-1.59129E-14
 -1      2404 5.13984E-03 6.61521E-04-1.50845E-14
 -1      2405 5.06362E-03 6.23613E-04-1.47251E-14
 -1      2406 5.57288E-03 6.65169E-04-1.76323E-14
 -1      2407 5.42822E-03 6.64154E-04-1.67611E-14
 -1      2408 5.35139E-03 6.26391E-04-1.63806E-14
 -1      2409 5.86330E-03 6.66616E-04-1.94346E-14
 -1      2410 5.71788E-03 6.65979E-04-1.85227E-14
 -1      2411 5.64009E-03 6.28365E-04-1.81180E-14
 -1      2412 6.15554E-03 6.67460E-04-2.13203E-14
 -1      2413 6.00915E-03 6.67091E-04-2.03679E-14
 -1      2414 5.92997E-03 6.29546E-04-1.99404E-14
 -1      2415 6.45002E-03 6.68113E-04-2.32858E-14
 -1      2416 6.30245E-03 6.67771E-04-2.22934E-14
 -1      2417 6.22135E-03 6.30142E-04-2.18444E-14
 -1      2418 6.74729E-03 6.69324E-04-2.53307E-14
 -1      2419 6.59825E-03 6.68586E-04-2.42986E-14
 -1      2420 6.51461E-03 6.30613E-04-2.38268E-14
 -1      2421 7.04791E-03 6.72312E-04-2.74507E-14
 -1      2422 6.89712E-03 6.70503E-04-2.63807E-14
 -1      2423 6.81021E-03 6.31778E-04-2.58868E-14
 -1      2424 7.35252E-03 6.78911E-04-2.96414E-14
 -1      2425 7.19966E-03 6.75028E-04-2.85375E-14
 -1      2426 7.10868E-03 6.34940E-04-2.80212E-14
 -1      2427 7.66175E-03 6.91716E-04-3.19071E-14
 -1      2428 7.50651E-03 6.84357E-04-3.07653E-14
 -1      2429 7.41067E-03 6.42035E-04-3.02298E-14
 -1      2430 7.97623E-03 7.14181E-04-3.42388E-14
 -1      2431 7.81832E-03 7.01508E-04-3.30644E-14
 -1      2432 7.71697E-03 6.55773E-04-3.25077E-14
 -1      2433 8.29647E-03 7.50548E-04-3.66403E-14
 -1      2434 8.13568E-03 7.30352E-04-3.54309E-14
 -1      2435 8.02852E-03 6.79732E-04-3.48541E-14
 -1      2436 8.62264E-03 8.05410E-04-3.91117E-14
 -1      2437 8.45895E-03 7.75390E-04-3.78671E-14
 -1      2438 8.34638E-03 7.18291E-04-3.72690E-14
 -1      2439 8.95420E-03 8.82599E-04-4.16533E-14
 -1      2440 8.78802E-03 8.41036E-04-4.03726E-14
 -1      2441 8.67150E-03 7.76201E-04-3.97547E-14
 -1      2442 9.28928E-03 9.83051E-04-4.42623E-14
 -1      2443 9.12173E-03 9.30024E-04-4.29492E-14
 -1      2444 9.00411E-03 8.57446E-04-4.23098E-14
 -1      2445 9.62409E-03 1.10163E-03-4.69394E-14
 -1      2446 9.45726E-03 1.04072E-03-4.55931E-14
 -1      2447 9.34267E-03 9.62916E-04-4.49310E-14
 -1      2448 9.95332E-03 1.22396E-03-4.96790E-14
 -1      2449 9.78983E-03 1.16366E-03-4.83029E-14
 -1      2450 9.68276E-03 1.08666E-03-4.76194E-14
 -1      2451 1.02725E-02 1.32634E-03-5.24752E-14
 -1      2452 1.01141E-02 1.27946E-03-5.10690E-14
 -1      2453 1.00176E-02 1.21192E-03-5.03670E-14
 -1      2454 1.05819E-02 1.38248E-03-5.53307E-14
 -1      2455 1.04277E-02 1.36168E-03-5.38976E-14
 -1      2456 1.03416E-02 1.31116E-03-5.31703E-14
 -1      2457 1.08881E-02 1.37626E-03-5.82346E-14
 -1      2458 1.07343E-02 1.38737E-03-5.67755E-14
 -1      2459 1.06559E-02 1.35541E-03-5.60304E-14
 -1      2460 1.12000E-02 1.31190E-03-6.11916E-14
 -1      2461 1.10425E-02 1.35019E-03-5.97074E-14
 -1      2462 1.09694E-02 1.33100E-03-5.89407E-14
 -1      2463 1.15218E-02 1.21103E-03-6.41900E-14
 -1      2464 1.13596E-02 1.26430E-03-6.26858E-14
 -1      2465 1.12914E-02 1.24918E-03-6.19019E-14
 -1      2466 1.18519E-02 1.10001E-03-6.72341E-14
 -1      2467 1.16863E-02 1.15527E-03-6.57077E-14
 -1      2468 1.16242E-02 1.13785E-03-6.49046E-14
 -1      2469 1.21847E-02 9.99196E-04-7.03106E-14
 -1      2470 1.20185E-02 1.04749E-03-6.87685E-14
 -1      2471 1.19624E-02 1.02512E-03-6.79519E-14
 -1      2472 1.25154E-02 9.18750E-04-7.34171E-14
 -1      2473 1.23508E-02 9.56189E-04-7.18593E-14
 -1      2474 1.22993E-02 9.28964E-04-7.10312E-14
 -1      2475 1.28407E-02 8.60475E-04-7.65491E-14
 -1      2476 1.26790E-02 8.86957E-04-7.49786E-14
 -1      2477 1.26299E-02 8.55953E-04-7.41402E-14
 -1      2478 1.31594E-02 8.21306E-04-7.97019E-14
 -1      2479 1.30010E-02 8.38789E-04-7.81237E-14
 -1      2480 1.29524E-02 8.05216E-04-7.72753E-14
 -1      2481 1.34711E-02 7.95991E-04-8.28741E-14
 -1      2482 1.33161E-02 8.07251E-04-8.12878E-14
 -1      2483 1.32668E-02 7.72260E-04-8.04337E-14
 -1      2484 1.37762E-02 7.78784E-04-8.60574E-14
 -1      2485 1.36244E-02 7.86701E-04-8.44636E-14
 -1      2486 1.35740E-02 7.51367E-04-8.36082E-14
 -1      2487 1.40753E-02 7.64240E-04-8.92641E-14
 -1      2488 1.39264E-02 7.71481E-04-8.76573E-14
 -1      2489 1.38749E-02 7.36840E-04-8.67995E-14
 -1      2490 1.43690E-02 7.47569E-04-9.24807E-14
 -1      2491 1.42227E-02 7.56439E-04-9.08703E-14
 -1      2492 1.41706E-02 7.23478E-04-9.00085E-14
 -1      2493 1.45184E-02 7.37829E-04-9.41496E-14
 -1      2494 1.46309E-02 4.55290E-04-9.27283E-14
 -1      2495 1.46089E-02 4.87637E-04-9.28028E-14
 -1      2496 1.46669E-02 3.93917E-04-9.25758E-14
 -1      2497 1.46504E-02 4.24137E-04-9.26526E-14
 -1      2498 1.45218E-02 4.42267E-04-9.12838E-14
 -1      2499 1.45347E-02 5.90755E-04-9.30089E-14
 -1      2500 1.45088E-02 6.27977E-04-9.30727E-14
 -1      2501 1.45851E-02 5.20866E-04-9.28725E-14
 -1      2502 1.45603E-02 5.55041E-04-9.29399E-14
 -1      2503 1.44248E-02 5.78513E-04-9.15727E-14
 -1      2504 1.44764E-02 5.08122E-04-9.14314E-14
 -1      2505 1.46886E-02 3.35947E-04-9.24123E-14
 -1      2506 1.46797E-02 3.64654E-04-9.24942E-14
 -1      2507 1.45558E-02 3.80472E-04-9.11228E-14
 -1      2508 1.46932E-02 2.79739E-04-9.22500E-14
 -1      2509 1.46931E-02 3.07806E-04-9.23327E-14
 -1      2510 1.45743E-02 3.21827E-04-9.09585E-14
 -1      2511 1.46801E-02 2.23326E-04-9.20757E-14
 -1      2512 1.46889E-02 2.51749E-04-9.21633E-14
 -1      2513 1.45746E-02 2.64554E-04-9.07868E-14
 -1      2514 1.46511E-02 1.65776E-04-9.18960E-14
 -1      2515 1.46674E-02 1.94971E-04-9.19873E-14
 -1      2516 1.45568E-02 2.07083E-04-9.06072E-14
 -1      2517 1.46084E-02 1.03516E-04-9.17064E-14
 -1      2518 1.46311E-02 1.35230E-04-9.18024E-14
 -1      2519 1.45227E-02 1.47019E-04-9.04196E-14
 -1      2520 1.45570E-02 3.64617E-05-9.15036E-14
 -1      2521 1.45835E-02 7.06462E-05-9.16060E-14
 -1      2522 1.44757E-02 8.23353E-05-9.02216E-14
 -1      2523 1.45023E-02-3.58389E-05-9.12920E-14
 -1      2524 1.45297E-02 9.66041E-07-9.13982E-14
 -1      2525 1.44211E-02 1.26685E-05-9.00115E-14
 -1      2526 1.29034E-02 2.67945E-04-6.56878E-14
 -1      2527 1.29318E-02 2.58913E-04-6.55808E-14
 -1      2528 1.23934E-02 4.35129E-04-6.45822E-14
 -1      2529 1.25471E-02 3.76555E-04-6.49022E-14
 -1      2530 1.26458E-02 3.48433E-04-6.59830E-14
 -1      2531 1.59500E-03 5.11821E-04-1.42185E-15
 -1      2532 1.45323E-03 4.91317E-04-1.17419E-15
 -1      2533 1.65105E-03 4.84912E-04-1.59574E-15
 -1      2534 1.45340E-02-9.80493E-05-9.20047E-14
 -1      2535 1.29253E-02 2.46679E-04-6.55727E-14
 -1      2536 1.28821E-02 2.36602E-04-6.55650E-14
 -1      2537 1.29493E-02 2.54016E-04-6.64787E-14
 -1      2538 1.20106E-02 6.14907E-04-6.33607E-14
 -1      2539 1.21723E-02 5.33986E-04-6.39380E-14
 -1      2540 1.11933E-02 1.07956E-03-5.94449E-14
 -1      2541 1.13408E-02 9.94877E-04-6.02548E-14
 -1      2542 1.27680E-02 2.03912E-04-6.52232E-14
 -1      2543 1.26250E-02 1.61914E-04-6.46896E-14
 -1      2544 1.08651E-02-7.32107E-04-5.67378E-14
 -1      2545 1.07105E-02-7.68844E-04-5.57009E-14
 -1      2546 9.49768E-03-2.59333E-04-4.91512E-14
 -1      2547 9.30632E-03-1.52483E-04-4.85558E-14
 -1      2548 5.41444E-04-2.03339E-05-3.07371E-16
 -1      2549 5.41289E-04-3.62384E-05-3.05176E-16
 -1      2550 6.55174E-04-5.19346E-05-4.11224E-16
 -1      2551 6.55431E-04-1.41505E-05-4.17486E-16
 -1      2552 1.05485E-02 1.23160E-03-5.51353E-14
 -1      2553 1.06996E-02 1.24170E-03-5.62496E-14
 -1      2554 1.05226E-02-7.70892E-04-5.44190E-14
 -1      2555 1.03908E-02-7.40199E-04-5.35275E-14
 -1      2556 1.08888E-02 1.20998E-03-5.75609E-14
 -1      2557 1.10332E-02 1.15507E-03-5.84999E-14
 -1      2558 1.11255E-02 1.12076E-03-5.93164E-14
 -1      2559 1.01589E-02 1.07797E-03-5.26497E-14
 -1      2560 1.03358E-02 1.16657E-03-5.37111E-14
 -1      2561 9.78766E-03 8.61440E-04-5.08282E-14
 -1      2562 9.96277E-03 9.68935E-04-5.16428E-14
 -1      2563 9.41607E-03 6.43733E-04-4.92358E-14
 -1      2564 9.59652E-03 7.48159E-04-4.99632E-14
 -1      2565 9.00101E-03 4.38518E-04-4.79743E-14
 -1      2566 9.18719E-03 5.25175E-04-4.85117E-14
 -1      2567 8.67722E-03 3.12851E-04-4.69552E-14
 -1      2568 8.82087E-03 3.62787E-04-4.73629E-14
 -1      2569 8.44405E-03 2.46975E-04-4.65253E-14
 -1      2570 8.53411E-03 2.68767E-04-4.66960E-14
 -1      2571 8.36484E-03 2.21792E-04-4.61529E-14
 -1      2572 8.38784E-03 2.30035E-04-4.63387E-14
 -1      2573 8.40140E-03 2.35087E-04-4.58021E-14
 -1      2574 8.46123E-03 1.90551E-04-4.62845E-14
 -1      2575 8.39096E-03 2.06139E-04-4.60736E-14
 -1      2576 8.67577E-03 1.26277E-04-4.66026E-14
 -1      2577 8.55465E-03 1.63067E-04-4.64437E-14
 -1      2578 8.48445E-03 1.79319E-04-4.56191E-14
 -1      2579 9.10166E-03-4.88911E-05-4.78927E-14
 -1      2580 8.89454E-03 4.27169E-05-4.72363E-14
 -1      2581 9.85763E-03-4.74344E-04-5.05458E-14
 -1      2582 9.71314E-03-3.85221E-04-4.98742E-14
 -1      2583 1.19906E-02-1.15904E-04-6.25326E-14
 -1      2584 1.17686E-02-2.39303E-04-6.15796E-14
 -1      2585 1.02256E-02-6.76918E-04-5.25293E-14
 -1      2586 1.00522E-02-5.84697E-04-5.15382E-14
 -1      2587 1.02976E-02-7.15474E-04-5.27683E-14
 -1      2588 1.11647E-02-5.95670E-04-5.85637E-14
 -1      2589 1.10328E-02-6.66165E-04-5.77893E-14
 -1      2590 1.15413E-02-3.72838E-04-6.05042E-14
 -1      2591 1.13483E-02-4.92136E-04-5.95322E-14
 -1      2592 1.12714E-02-5.39184E-04-5.93945E-14
 -1      2593 1.24599E-02 1.00959E-04-6.41525E-14
 -1      2594 1.22715E-02 2.22612E-05-6.36161E-14
 -1      2595 1.25660E-02 1.38150E-04-6.52363E-14
 -1      2596 5.75625E-04-2.31824E-04-2.19551E-16
 -1      2597 7.63974E-04-2.96022E-04-3.53043E-16
 -1      2598 8.23019E-04-2.84491E-04-4.40620E-16
 -1      2599 5.66969E-04-2.04633E-04-2.38335E-16
 -1      2600 7.63264E-04 3.38592E-04-3.22713E-16
 -1      2601 6.15826E-04 2.87988E-04-2.17247E-16
 -1      2602 5.88502E-04 2.60926E-04-2.21015E-16
 -1      2603 8.18659E-04 3.27706E-04-4.09815E-16
 -1      2604 1.08020E-02 1.23441E-03-5.70503E-14
 -1      2605 6.59688E-04-1.33020E-04-3.84472E-16
 -1      2606 5.45543E-04-1.22375E-04-2.78843E-16
 -1      2607 5.48037E-04-1.41998E-04-2.69356E-16
 -1      2608 1.36561E-03 4.44050E-04-1.09626E-15
 -1      2609 5.75263E-04 2.30513E-04-2.40300E-16
 -1      2610 5.53850E-04-1.60390E-04-2.62472E-16
 -1      2611 5.58496E-04-1.82989E-04-2.49299E-16
 -1      2612 6.83940E-04-2.21079E-04-3.44925E-16
 -1      2613 6.68531E-04-1.75944E-04-3.66203E-16
 -1      2614 1.18794E-02 6.93797E-04-6.32854E-14
 -1      2615 1.28748E-02 2.81909E-04-6.63984E-14
 -1      2616 1.28410E-02 2.22454E-04-6.61235E-14
 -1      2617 1.16589E-02-3.06268E-04-6.14410E-14
 -1      2618 1.44659E-02 7.07426E-04-9.32874E-14
 -1      2619 1.23162E-02 4.77554E-04-6.50142E-14
 -1      2620 1.44688E-02 6.77254E-04-9.30600E-14
 -1      2621 1.43566E-02 6.64735E-04-9.16310E-14
 -1      2622 1.21441E-02-3.83555E-05-6.36064E-14
 -1      2623 1.20349E-02-1.04730E-04-6.35941E-14
 -1      2624 1.22891E-02 1.83742E-05-6.46864E-14
 -1      2625 9.96618E-03-5.47528E-04-5.07844E-14
 -1      2626 1.03339E-02 1.17552E-03-5.34857E-14
 -1      2627 1.04387E-02 1.20980E-03-5.43092E-14
 -1      2628 1.05235E-02 1.23754E-03-5.49088E-14
 -1      2629 8.77167E-03 8.96935E-05-4.64044E-14
 -1      2630 8.66146E-03 1.18602E-04-4.55795E-14
 -1      2631 8.86322E-03 4.51439E-05-4.62065E-14
 -1      2632 1.14583E-02 9.34944E-04-6.12348E-14
 -1      2633 1.06161E-02-7.79869E-04-5.50388E-14
 -1      2634 8.35754E-03 2.13752E-04-4.55384E-14
 -1      2635 8.33728E-03 2.16573E-04-4.50061E-14
 -1      2636 8.36144E-03 2.06590E-04-4.49285E-14
 -1      2637 8.58921E-03 2.85604E-04-4.62435E-14
 -1      2638 9.18655E-03-9.48038E-05-4.76960E-14
 -1      2639 8.89918E-03 3.95189E-04-4.71053E-14
 -1      2640 9.29370E-03 5.81325E-04-4.84323E-14
 -1      2641 9.68888E-03 8.05784E-04-5.00153E-14
 -1      2642 9.58958E-03-3.19816E-04-4.90755E-14
 -1      2643 1.09476E-02-7.06727E-04-5.73730E-14
 -1      2644 6.92763E-04 2.54798E-04-3.43069E-16
 -1      2645 1.00560E-02 1.02589E-03-5.18831E-14
 -1      2646 1.43745E-02-1.23245E-04-9.02225E-14
 -1      2647 1.44538E-02-7.02836E-05-9.09025E-14
 -1      2648 1.43431E-02-5.81864E-05-8.95177E-14
 -1      2649 1.42450E-02-1.29591E-04-8.87395E-14
 -1      2650 1.41961E-02-9.75619E-05-8.80169E-14
 -1      2651 7.77098E-04 8.16539E-05-5.45164E-16
 -1      2652 7.75018E-04 5.98459E-05-5.47048E-16
 -1      2653 7.73336E-04 3.80120E-05-5.47725E-16
 -1      2654 7.72073E-04 1.64505E-05-5.47332E-16
 -1      2655 8.91516E-04 5.53967E-05-6.92751E-16
 -1      2656 7.91809E-04 1.77472E-04-5.22084E-16
 -1      2657 7.86946E-04 1.52015E-04-5.30785E-16
 -1      2658 8.05451E-04 2.32845E-04-4.97893E-16
 -1      2659 7.97928E-04 2.04350E-04-5.11445E-16
 -1      2660 9.15652E-04 2.13487E-04-6.56715E-16
 -1      2661 1.13527E-03 3.70228E-04-8.13301E-16
 -1      2662 9.91020E-04 3.39456E-04-6.33255E-16
 -1      2663 9.94043E-03 9.69570E-04-5.09416E-14
 -1      2664 1.01091E-02 1.07042E-03-5.19446E-14
 -1      2665 8.06709E-04 2.82849E-04-4.50229E-16
 -1      2666 1.29351E-03-3.46999E-04-1.06446E-15
 -1      2667 1.43391E-03-3.63638E-04-1.29393E-15
 -1      2668 1.57415E-03-3.77247E-04-1.54678E-15
 -1      2669 1.71431E-03-3.88045E-04-1.82337E-15
 -1      2670 1.49595E-03-3.36753E-04-1.45058E-15
 -1      2671 1.85433E-03-3.96502E-04-2.12323E-15
 -1      2672 1.99426E-03-4.02806E-04-2.44619E-15
 -1      2673 1.77737E-03-3.57426E-04-2.00805E-15
 -1      2674 2.13411E-03-4.07325E-04-2.79299E-15
 -1      2675 2.27391E-03-4.10207E-04-3.16292E-15
 -1      2676 2.05867E-03-3.69489E-04-2.65860E-15
 -1      2677 2.41369E-03-4.11732E-04-3.55632E-15
 -1      2678 2.55345E-03-4.12018E-04-3.97223E-15
 -1      2679 2.33981E-03-3.74921E-04-3.40189E-15
 -1      2680 2.69324E-03-4.11268E-04-4.41123E-15
 -1      2681 2.83305E-03-4.09571E-04-4.87269E-15
 -1      2682 2.62085E-03-3.75286E-04-4.23657E-15
 -1      2683 2.97293E-03-4.07067E-04-5.35683E-15
 -1      2684 3.11287E-03-4.03818E-04-5.86304E-15
 -1      2685 2.90189E-03-3.71765E-04-5.16218E-15
 -1      2686 3.25290E-03-3.99914E-04-6.39115E-15
 -1      2687 3.39302E-03-3.95394E-04-6.94104E-15
 -1      2688 3.18302E-03-3.65200E-04-6.17703E-15
 -1      2689 3.53323E-03-3.90329E-04-7.51229E-15
 -1      2690 3.67353E-03-3.84794E-04-8.10581E-15
 -1      2691 3.46430E-03-3.56177E-04-7.27878E-15
 -1      2692 3.81394E-03-3.78670E-04-8.72024E-15
 -1      2693 3.95461E-03-3.72034E-04-9.35463E-15
 -1      2694 3.74575E-03-3.45050E-04-8.46660E-15
 -1      2695 4.09511E-03-3.65244E-04-1.00096E-14
 -1      2696 4.23609E-03-3.58230E-04-1.06871E-14
 -1      2697 4.02729E-03-3.32293E-04-9.73841E-15
 -1      2698 4.37708E-03-3.50735E-04-1.13839E-14
 -1      2699 4.52118E-03-3.42613E-04-1.21006E-14
 -1      2700 4.30936E-03-3.18069E-04-1.10917E-14
 -1      2701 4.66414E-03-3.35594E-04-1.28385E-14
 -1      2702 4.80216E-03-3.29833E-04-1.35967E-14
 -1      2703 4.59329E-03-3.04092E-04-1.25280E-14
 -1      2704 4.95289E-03-3.19952E-04-1.43751E-14
 -1      2705 5.09481E-03-3.11196E-04-1.51737E-14
 -1      2706 4.88468E-03-2.87436E-04-1.40446E-14
 -1      2707 5.22994E-03-3.05628E-04-1.59923E-14
 -1      2708 5.37269E-03-2.98053E-04-1.68314E-14
 -1      2709 5.16939E-03-2.72300E-04-1.56433E-14
 -1      2710 5.51368E-03-2.87902E-04-1.76909E-14
 -1      2711 5.65752E-03-2.79076E-04-1.85709E-14
 -1      2712 5.44604E-03-2.57144E-04-1.73222E-14
 -1      2713 5.80114E-03-2.69917E-04-1.94712E-14
 -1      2714 5.94538E-03-2.60552E-04-2.03912E-14
 -1      2715 5.72965E-03-2.38225E-04-1.90824E-14
 -1      2716 6.08965E-03-2.51113E-04-2.13322E-14
 -1      2717 6.23423E-03-2.41496E-04-2.22934E-14
 -1      2718 6.01627E-03-2.19743E-04-2.09253E-14
 -1      2719 6.37897E-03-2.31866E-04-2.32721E-14
 -1      2720 6.52400E-03-2.22286E-04-2.42699E-14
 -1      2721 6.30328E-03-2.00836E-04-2.28459E-14
 -1      2722 6.66926E-03-2.12914E-04-2.52884E-14
 -1      2723 6.81491E-03-2.03867E-04-2.63260E-14
 -1      2724 6.59056E-03-1.81854E-04-2.48437E-14
 -1      2725 6.96092E-03-1.95364E-04-2.73813E-14
 -1      2726 7.10746E-03-1.87599E-04-2.84561E-14
 -1      2727 6.87832E-03-1.63743E-04-2.69195E-14
 -1      2728 7.25456E-03-1.80872E-04-2.95483E-14
 -1      2729 7.40242E-03-1.75487E-04-3.06580E-14
 -1      2730 7.16705E-03-1.47856E-04-2.90692E-14
 -1      2731 7.55116E-03-1.71831E-04-3.17850E-14
 -1      2732 7.70104E-03-1.70371E-04-3.29288E-14
 -1      2733 7.45761E-03-1.36147E-04-3.12903E-14
 -1      2734 7.85231E-03-1.71561E-04-3.40896E-14
 -1      2735 8.00526E-03-1.76113E-04-3.52665E-14
 -1      2736 7.75150E-03-1.31355E-04-3.35787E-14
 -1      2737 8.16039E-03-1.84501E-04-3.64623E-14
 -1      2738 8.31797E-03-1.97777E-04-3.76713E-14
 -1      2739 8.05121E-03-1.37241E-04-3.59339E-14
 -1      2740 8.47878E-03-2.16348E-04-3.88954E-14
 -1      2741 8.64285E-03-2.41669E-04-4.01344E-14
 -1      2742 8.36057E-03-1.58921E-04-3.83532E-14
 -1      2743 8.81132E-03-2.73954E-04-4.13871E-14
 -1      2744 8.98346E-03-3.14806E-04-4.26523E-14
 -1      2745 8.68469E-03-2.03307E-04-4.08289E-14
 -1      2746 9.16053E-03-3.64020E-04-4.39320E-14
 -1      2747 9.34039E-03-4.22311E-04-4.52266E-14
 -1      2748 9.02873E-03-2.79135E-04-4.33594E-14
 -1      2749 9.52412E-03-4.88521E-04-4.65334E-14
 -1      2750 9.70767E-03-5.60507E-04-4.78509E-14
 -1      2751 9.39406E-03-3.94086E-04-4.59440E-14
 -1      2752 9.89099E-03-6.35502E-04-4.91813E-14
 -1      2753 1.00706E-02-7.05583E-04-5.05216E-14
 -1      2754 9.77261E-03-5.45594E-04-4.85806E-14
 -1      2755 1.05816E-02-8.25392E-04-5.46094E-14
 -1      2756 1.07490E-02-8.15309E-04-5.59955E-14
 -1      2757 1.09161E-02-7.78842E-04-5.73902E-14
 -1      2758 1.10895E-02-7.22684E-04-5.87981E-14
 -1      2759 1.08418E-02-7.76782E-04-5.67627E-14
 -1      2760 1.12667E-02-6.51164E-04-6.02168E-14
 -1      2761 1.14479E-02-5.74348E-04-6.16450E-14
 -1      2762 1.11997E-02-6.48415E-04-5.95830E-14
 -1      2763 1.16324E-02-4.95891E-04-6.30861E-14
 -1      2764 1.18151E-02-4.23455E-04-6.45382E-14
 -1      2765 1.15763E-02-4.79202E-04-6.24466E-14
 -1      2766 1.19970E-02-3.58350E-04-6.60034E-14
 -1      2767 1.21743E-02-3.01094E-04-6.74797E-14
 -1      2768 1.19518E-02-3.30063E-04-6.53559E-14
 -1      2769 1.23483E-02-2.52716E-04-6.89705E-14
 -1      2770 1.25174E-02-2.12328E-04-7.04745E-14
 -1      2771 1.23109E-02-2.18963E-04-6.83151E-14
 -1      2772 1.26828E-02-1.79739E-04-7.19906E-14
 -1      2773 1.28441E-02-1.53281E-04-7.35194E-14
 -1      2774 1.26483E-02-1.44235E-04-7.13245E-14
 -1      2775 1.30024E-02-1.32592E-04-7.50590E-14
 -1      2776 1.31576E-02-1.16284E-04-7.66125E-14
 -1      2777 1.29673E-02-9.71429E-05-7.43851E-14
 -1      2778 1.33105E-02-1.03774E-04-7.81789E-14
 -1      2779 1.34615E-02-9.40298E-05-7.97568E-14
 -1      2780 1.32730E-02-6.89221E-05-7.74937E-14
 -1      2781 1.36108E-02-8.64131E-05-8.13476E-14
 -1      2782 1.37587E-02-8.01583E-05-8.29488E-14
 -1      2783 1.35702E-02-5.23920E-05-8.06503E-14
 -1      2784 1.39055E-02-7.46401E-05-8.45612E-14
 -1      2785 1.40513E-02-6.92568E-05-8.61886E-14
 -1      2786 1.38620E-02-4.18288E-05-8.38514E-14
 -1      2787 2.27896E-03 5.06181E-04-3.11163E-15
 -1      2788 2.13670E-03 4.96411E-04-2.74208E-15
 -1      2789 1.41490E-02-6.58922E-05-8.72942E-14
 -1      2790 1.42461E-02-6.24458E-05-8.84015E-14
 -1      2791 1.42965E-02-2.81443E-05-8.87873E-14
 -1      2792 1.41035E-02-3.45611E-05-8.65709E-14
 -1      2793 1.99431E-03 4.85152E-04-2.39564E-15
 -1      2794 1.85176E-03 4.72246E-04-2.07232E-15
 -1      2795 2.05478E-03 4.54481E-04-2.60165E-15
 -1      2796 2.84750E-03 5.34998E-04-4.81916E-15
 -1      2797 2.70540E-03 5.29018E-04-4.35805E-15
 -1      2798 3.13175E-03 5.45336E-04-5.80765E-15
 -1      2799 2.98960E-03 5.40414E-04-5.30241E-15
 -1      2800 2.91121E-03 5.00670E-04-5.09743E-15
 -1      2801 3.41635E-03 5.54109E-04-6.88406E-15
 -1      2802 3.27389E-03 5.49878E-04-6.33491E-15
 -1      2803 3.19633E-03 5.10494E-04-6.10858E-15
 -1      2804 3.70242E-03 5.61530E-04-8.04943E-15
 -1      2805 3.55858E-03 5.57936E-04-7.45575E-15
 -1      2806 3.48152E-03 5.18745E-04-7.20801E-15
 -1      2807 3.98621E-03 5.68331E-04-9.30325E-15
 -1      2808 3.84501E-03 5.64923E-04-8.66532E-15
 -1      2809 3.76695E-03 5.26187E-04-8.39610E-15
 -1      2810 4.27164E-03 5.74221E-04-1.06446E-14
 -1      2811 4.12907E-03 5.71269E-04-9.96256E-15
 -1      2812 4.05249E-03 5.32676E-04-9.67172E-15
 -1      2813 4.55741E-03 5.79785E-04-1.20710E-14
 -1      2814 4.41451E-03 5.77173E-04-1.13475E-14
 -1      2815 4.33822E-03 5.38692E-04-1.10340E-14
 -1      2816 4.84369E-03 5.84097E-04-1.35811E-14
 -1      2817 4.70046E-03 5.82079E-04-1.28158E-14
 -1      2818 4.62402E-03 5.44160E-04-1.24807E-14
 -1      2819 5.13071E-03 5.87357E-04-1.51735E-14
 -1      2820 4.98717E-03 5.85759E-04-1.43662E-14
 -1      2821 4.91048E-03 5.48063E-04-1.40097E-14
 -1      2822 5.41820E-03 5.90002E-04-1.68478E-14
 -1      2823 5.27438E-03 5.88780E-04-1.60005E-14
 -1      2824 5.19728E-03 5.51272E-04-1.56214E-14
 -1      2825 5.70635E-03 5.91801E-04-1.86064E-14
 -1      2826 5.56217E-03 5.91007E-04-1.77171E-14
 -1      2827 5.48426E-03 5.53842E-04-1.73166E-14
 -1      2828 5.99538E-03 5.92804E-04-2.04467E-14
 -1      2829 5.85072E-03 5.92393E-04-1.95158E-14
 -1      2830 5.77161E-03 5.55550E-04-1.90934E-14
 -1      2831 6.28555E-03 5.93248E-04-2.23677E-14
 -1      2832 6.14029E-03 5.93073E-04-2.13971E-14
 -1      2833 6.05949E-03 5.56464E-04-2.09522E-14
 -1      2834 6.57719E-03 5.93638E-04-2.43662E-14
 -1      2835 6.43115E-03 5.93408E-04-2.33570E-14
 -1      2836 6.34812E-03 5.56851E-04-2.28896E-14
 -1      2837 6.87069E-03 5.94848E-04-2.64430E-14
 -1      2838 6.72366E-03 5.94074E-04-2.53961E-14
 -1      2839 6.63776E-03 5.57256E-04-2.49053E-14
 -1      2840 7.16657E-03 5.98238E-04-2.85923E-14
 -1      2841 7.01828E-03 5.96169E-04-2.75082E-14
 -1      2842 6.92875E-03 5.58583E-04-2.69972E-14
 -1      2843 7.46556E-03 6.05803E-04-3.08163E-14
 -1      2844 7.31561E-03 6.01351E-04-2.96951E-14
 -1      2845 7.22164E-03 5.62218E-04-2.91629E-14
 -1      2846 7.76865E-03 6.20309E-04-3.31070E-14
 -1      2847 7.61652E-03 6.11980E-04-3.19532E-14
 -1      2848 7.51727E-03 5.70161E-04-3.14002E-14
 -1      2849 8.07721E-03 6.45401E-04-3.54677E-14
 -1      2850 7.92217E-03 6.31251E-04-3.42786E-14
 -1      2851 7.81693E-03 5.85179E-04-3.37061E-14
 -1      2852 8.39300E-03 6.85577E-04-3.78984E-14
 -1      2853 8.23416E-03 6.63251E-04-3.66743E-14
 -1      2854 8.12252E-03 6.10939E-04-3.60810E-14
 -1      2855 8.71786E-03 7.45835E-04-4.03963E-14
 -1      2856 8.55433E-03 7.12803E-04-3.91382E-14
 -1      2857 8.43658E-03 6.52079E-04-3.85245E-14
 -1      2858 9.05289E-03 8.30608E-04-4.29646E-14
 -1      2859 8.88433E-03 7.84861E-04-4.16737E-14
 -1      2860 8.76201E-03 7.14066E-04-4.10378E-14
 -1      2861 9.39683E-03 9.41203E-04-4.55978E-14
 -1      2862 9.22428E-03 8.82759E-04-4.42726E-14
 -1      2863 9.10078E-03 8.02237E-04-4.36180E-14
 -1      2864 9.74423E-03 1.07126E-03-4.82952E-14
 -1      2865 9.57094E-03 1.00480E-03-4.69378E-14
 -1      2866 9.45164E-03 9.18946E-04-4.62621E-14
 -1      2867 1.00859E-02 1.20114E-03-5.10484E-14
 -1      2868 9.91640E-03 1.13835E-03-4.96654E-14
 -1      2869 9.80724E-03 1.05744E-03-4.89667E-14
 -1      2870 1.04148E-02 1.29784E-03-5.38605E-14
 -1      2871 1.02517E-02 1.25647E-03-5.24474E-14
 -1      2872 1.01557E-02 1.19347E-03-5.17293E-14
 -1      2873 1.07336E-02 1.32804E-03-5.67266E-14
 -1      2874 1.05741E-02 1.32280E-03-5.52885E-14
 -1      2875 1.04893E-02 1.28574E-03-5.45469E-14
 -1      2876 1.10546E-02 1.28177E-03-5.96436E-14
 -1      2877 1.08923E-02 1.31349E-03-5.81781E-14
 -1      2878 1.08141E-02 1.29684E-03-5.74204E-14
 -1      2879 1.13877E-02 1.18036E-03-6.26086E-14
 -1      2880 1.12192E-02 1.23545E-03-6.11206E-14
 -1      2881 1.11456E-02 1.22476E-03-6.03429E-14
 -1      2882 1.17319E-02 1.05951E-03-6.56164E-14
 -1      2883 1.15593E-02 1.12011E-03-6.41070E-14
 -1      2884 1.14924E-02 1.10389E-03-6.33147E-14
 -1      2885 1.20776E-02 9.47467E-04-6.86670E-14
 -1      2886 1.19054E-02 1.00109E-03-6.71381E-14
 -1      2887 1.18476E-02 9.76608E-04-6.63269E-14
 -1      2888 1.24168E-02 8.58360E-04-7.17496E-14
 -1      2889 1.22486E-02 8.99804E-04-7.02042E-14
 -1      2890 1.21986E-02 8.68939E-04-6.93803E-14
 -1      2891 1.27459E-02 7.94255E-04-7.48634E-14
 -1      2892 1.25829E-02 8.23388E-04-7.33039E-14
 -1      2893 1.25378E-02 7.89139E-04-7.24680E-14
 -1      2894 1.30646E-02 7.51725E-04-7.80019E-14
 -1      2895 1.29066E-02 7.70692E-04-7.64294E-14
 -1      2896 1.28634E-02 7.34956E-04-7.55851E-14
 -1      2897 1.33743E-02 7.25085E-04-8.11630E-14
 -1      2898 1.32205E-02 7.36822E-04-7.95795E-14
 -1      2899 1.31770E-02 7.00737E-04-7.87288E-14
 -1      2900 1.36769E-02 7.08442E-04-8.43432E-14
 -1      2901 1.35264E-02 7.15874E-04-8.27518E-14
 -1      2902 1.34815E-02 6.80115E-04-8.18927E-14
 -1      2903 1.39738E-02 6.96333E-04-8.75407E-14
 -1      2904 1.38260E-02 7.02134E-04-8.59389E-14
 -1      2905 1.37794E-02 6.67325E-04-8.50795E-14
 -1      2906 1.42390E-02 6.77752E-04-9.03853E-14
 -1      2907 1.40934E-02 6.83957E-04-8.87763E-14
 -1      2908 1.40457E-02 6.50661E-04-8.79134E-14
 -1      2909 1.42815E-02 6.27562E-04-9.03959E-14
 -1      2910 1.22491E-02 5.23470E-04-6.54456E-14
 -1      2911 1.24427E-02 4.37243E-04-6.60935E-14
 -1      2912 1.44602E-02 3.06910E-04-8.95041E-14
 -1      2913 1.44551E-02 3.36176E-04-8.95887E-14
 -1      2914 1.44132E-02 4.27771E-04-8.98415E-14
 -1      2915 1.43919E-02 4.60349E-04-8.99184E-14
 -1      2916 1.44558E-02 2.48957E-04-8.93246E-14
 -1      2917 1.44604E-02 2.78014E-04-8.94158E-14
 -1      2918 1.43461E-02 2.91672E-04-8.80499E-14
 -1      2919 1.44453E-02 3.65845E-04-8.96723E-14
 -1      2920 1.44312E-02 3.96377E-04-8.97572E-14
 -1      2921 1.43053E-02 4.12261E-04-8.83970E-14
 -1      2922 1.43352E-02 3.50545E-04-8.82269E-14
 -1      2923 1.03478E-02-7.46701E-04-5.29739E-14
 -1      2924 1.02058E-02-6.87758E-04-5.19825E-14
 -1      2925 1.44329E-02 1.90766E-04-8.91391E-14
 -1      2926 1.44465E-02 2.20200E-04-8.92333E-14
 -1      2927 1.43367E-02 2.33805E-04-8.78673E-14
 -1      2928 1.43933E-02 1.28361E-04-8.89460E-14
 -1      2929 1.44149E-02 1.60114E-04-8.90442E-14
 -1      2930 1.43078E-02 1.74014E-04-8.76768E-14
 -1      2931 1.43417E-02 6.13609E-05-8.87407E-14
 -1      2932 1.43687E-02 9.55228E-05-8.88447E-14
 -1      2933 1.42625E-02 1.09764E-04-8.74770E-14
 -1      2934 1.43258E-02 9.16192E-06-8.88963E-14
 -1      2935 1.29135E-02 2.35314E-04-6.71272E-14
 -1      2936 1.28104E-02 2.09399E-04-6.67795E-14
 -1      2937 1.26170E-02 3.71422E-04-6.67209E-14
 -1      2938 1.27316E-02 3.34165E-04-6.70450E-14
 -1      2939 1.70902E-03 4.57279E-04-1.77252E-15
 -1      2940 1.56601E-03 4.40052E-04-1.49700E-15
 -1      2941 1.76850E-03 4.29053E-04-1.95269E-15
 -1      2942 1.29714E-02 2.59305E-04-6.73048E-14
 -1      2943 1.29661E-02 2.52825E-04-6.72934E-14
 -1      2944 1.28551E-02 2.94357E-04-6.72162E-14
 -1      2945 1.29395E-02 2.72884E-04-6.73054E-14
 -1      2946 8.11367E-04-2.56817E-04-4.57845E-16
 -1      2947 9.40153E-04-2.90173E-04-5.88478E-16
 -1      2948 8.01817E-04-2.30754E-04-4.72428E-16
 -1      2949 8.49280E-03 2.63084E-04-4.52521E-14
 -1      2950 8.61454E-03 2.99036E-04-4.55048E-14
 -1      2951 1.17726E-02 7.68831E-04-6.33019E-14
 -1      2952 1.19891E-02 6.53928E-04-6.43852E-14
 -1      2953 1.17614E-02-2.57970E-04-6.23974E-14
 -1      2954 1.15593E-02-3.76919E-04-6.13169E-14
 -1      2955 2.56329E-03 5.22307E-04-3.92016E-15
 -1      2956 2.42116E-03 5.14771E-04-3.50466E-15
 -1      2957 2.34056E-03 4.73805E-04-3.34253E-15
 -1      2958 2.62599E-03 4.88762E-04-4.17487E-15
 -1      2959 1.04651E-03-3.09721E-04-7.16509E-16
 -1      2960 1.18694E-03-3.32801E-04-9.04929E-16
 -1      2961 1.24851E-03-3.10304E-04-1.03631E-15
 -1      2962 1.03549E-03-2.80153E-04-7.35889E-16
 -1      2963 1.42275E-03 4.20034E-04-1.24530E-15
 -1      2964 1.27910E-03 3.96967E-04-1.01724E-15
 -1      2965 1.19422E-03 3.50526E-04-9.37821E-16
 -1      2966 1.48162E-03 3.95311E-04-1.39781E-15
 -1      2967 7.82956E-04 1.27742E-04-5.37073E-16
 -1      2968 7.79732E-04 1.04313E-04-5.41722E-16
 -1      2969 8.96539E-04 1.05041E-04-6.87913E-16
 -1      2970 9.04194E-04 1.57160E-04-6.76515E-16
 -1      2971 7.71753E-04-9.24676E-05-5.27044E-16
 -1      2972 7.73122E-04-1.15525E-04-5.18791E-16
 -1      2973 1.10795E-02 1.15799E-03-5.92380E-14
 -1      2974 1.12166E-02 1.08878E-03-6.01901E-14
 -1      2975 9.64040E-03-3.67770E-04-4.88791E-14
 -1      2976 9.45206E-03-2.50693E-04-4.81623E-14
 -1      2977 9.61211E-03 7.73675E-04-4.92122E-14
 -1      2978 9.78070E-03 8.74699E-04-5.00736E-14
 -1      2979 9.84493E-03 9.35298E-04-5.01301E-14
 -1      2980 9.15977E-03 5.21328E-04-4.74270E-14
 -1      2981 9.36058E-03 6.29019E-04-4.81426E-14
 -1      2982 9.25911E-03-1.47885E-04-4.73493E-14
 -1      2983 9.07773E-03-5.68863E-05-4.66933E-14
 -1      2984 8.36160E-03 2.30952E-04-4.48889E-14
 -1      2985 8.41672E-03 2.42086E-04-4.50711E-14
 -1      2986 8.42692E-03 2.55770E-04-4.43402E-14
 -1      2987 1.14008E-02 9.89248E-04-6.13615E-14
 -1      2988 1.15740E-02 8.85124E-04-6.23365E-14
 -1      2989 8.49348E-03 1.66152E-04-4.48309E-14
 -1      2990 8.41432E-03 1.86593E-04-4.46741E-14
 -1      2991 8.81159E-03 3.68346E-04-4.62172E-14
 -1      2992 8.97633E-03 4.34254E-04-4.68203E-14
 -1      2993 1.10233E-02-6.81072E-04-5.80167E-14
 -1      2994 1.08776E-02-7.41436E-04-5.69660E-14
 -1      2995 1.00365E-02-6.05885E-04-5.08952E-14
 -1      2996 9.86767E-03-5.08810E-04-4.99081E-14
 -1      2997 1.13663E-02-4.91200E-04-6.01975E-14
 -1      2998 1.12065E-02-5.87644E-04-5.92259E-14
 -1      2999 1.07399E-02 1.25311E-03-5.66306E-14
 -1      3000 1.09051E-02 1.22081E-03-5.79495E-14
 -1      3001 1.26600E-02 1.61491E-04-6.62505E-14
 -1      3002 1.25142E-02 1.10328E-04-6.57074E-14
 -1      3003 7.75204E-04-1.39332E-04-5.09087E-16
 -1      3004 7.78090E-04-1.64108E-04-4.97324E-16
 -1      3005 8.91765E-04-1.41620E-04-6.52351E-16
 -1      3006 8.88556E-04 6.95921E-06-6.91463E-16
 -1      3007 7.71194E-04-5.03791E-06-5.45476E-16
 -1      3008 7.70696E-04-2.65291E-05-5.42779E-16
 -1      3009 8.67883E-04 2.71740E-04-5.40949E-16
 -1      3010 1.14855E-02-4.38636E-04-6.11457E-14
 -1      3011 1.00976E-02-6.56028E-04-5.10972E-14
 -1      3012 1.04432E-02-8.15054E-04-5.34499E-14
 -1      3013 1.05261E-02-8.04519E-04-5.42044E-14
 -1      3014 1.02734E-02-7.77751E-04-5.20861E-14
 -1      3015 1.27732E-02 1.86248E-04-6.72535E-14
 -1      3016 1.11254E-02-6.42144E-04-5.88140E-14
 -1      3017 1.21380E-02 5.95060E-04-6.54648E-14
 -1      3018 1.22808E-02 5.50569E-04-6.65443E-14
 -1      3019 1.20438E-02 6.69225E-04-6.54793E-14
 -1      3020 1.43090E-02 5.89670E-04-9.03277E-14
 -1      3021 1.41925E-02 6.00414E-04-8.90820E-14
 -1      3022 1.43363E-02 5.52984E-04-9.02545E-14
 -1      3023 1.20790E-02-1.15459E-04-6.45433E-14
 -1      3024 1.19223E-02-1.80293E-04-6.34661E-14
 -1      3025 1.18300E-02-2.55798E-04-6.33378E-14
 -1      3026 8.55599E-03 1.38624E-04-4.46350E-14
 -1      3027 8.46030E-03 1.47803E-04-4.36970E-14
 -1      3028 8.62090E-03 1.04475E-04-4.44370E-14
 -1      3029 8.31793E-03 2.21926E-04-4.42810E-14
 -1      3030 8.30549E-03 2.28594E-04-4.35577E-14
 -1      3031 8.28740E-03 2.15733E-04-4.36764E-14
 -1      3032 1.41613E-02-5.11826E-06-8.70493E-14
 -1      3033 1.42866E-02 3.42592E-05-8.82647E-14
 -1      3034 1.41800E-02 4.89831E-05-8.68987E-14
 -1      3035 1.40653E-02-7.50418E-06-8.59472E-14
 -1      3036 1.25562E-02 4.13527E-04-6.71554E-14
 -1      3037 1.29668E-02 2.43448E-04-6.79555E-14
 -1      3038 1.24129E-02 5.93038E-05-6.56944E-14
 -1      3039 1.23190E-02 1.65870E-06-6.56809E-14
 -1      3040 1.25287E-02 8.68628E-05-6.67077E-14
 -1      3041 1.28380E-02 3.15186E-04-6.79578E-14
 -1      3042 1.29833E-02 2.69431E-04-6.81244E-14
 -1      3043 8.93719E-03-8.26738E-06-4.58631E-14
 -1      3044 1.17032E-02 8.37673E-04-6.34291E-14
 -1      3045 8.35598E-03 1.94179E-04-4.41453E-14
 -1      3046 1.04139E-02-7.72332E-04-5.34074E-14
 -1      3047 1.03208E-02-7.56906E-04-5.26165E-14
 -1      3048 7.70603E-04-4.81275E-05-5.38740E-16
 -1      3049 7.70928E-04-7.00966E-05-5.33387E-16
 -1      3050 8.88380E-04-9.03057E-05-6.71772E-16
 -1      3051 8.87471E-04-4.12269E-05-6.84376E-16
 -1      3052 9.85825E-04 2.82260E-04-6.93347E-16
 -1      3053 1.43781E-02 4.88511E-04-9.00533E-14
 -1      3054 1.43527E-02 5.22977E-04-9.01261E-14
 -1      3055 1.42385E-02 5.32006E-04-8.88816E-14
 -1      3056 1.42707E-02 4.72959E-04-8.86160E-14
 -1      3057 9.31936E-03-2.03682E-04-4.71539E-14
 -1      3058 9.46045E-03 7.05854E-04-4.81966E-14
 -1      3059 1.07256E-02-7.83212E-04-5.58473E-14
 -1      3060 1.05645E-02-7.92065E-04-5.45692E-14
 -1      3061 9.72736E-03-4.42685E-04-4.89887E-14
 -1      3062 1.10035E-02 1.20196E-03-5.88130E-14
 -1      3063 1.13441E-02 1.04357E-03-6.12823E-14
 -1      3064 9.04653E-03 4.85102E-04-4.65325E-14
 -1      3065 1.04176E-03 2.50399E-04-8.06172E-16
 -1      3066 1.03401E-03 2.18601E-04-8.20456E-16
 -1      3067 1.01457E-02 1.10908E-03-5.19966E-14
 -1      3068 1.02665E-02 1.15244E-03-5.29493E-14
 -1      3069 7.85486E-04-1.84638E-04-4.91767E-16
 -1      3070 7.92531E-04-2.08050E-04-4.81521E-16
 -1      3071 9.19267E-04-2.37036E-04-6.17196E-16
 -1      3072 9.02093E-04-1.90485E-04-6.33825E-16
 -1      3073 1.06033E-02 1.25531E-03-5.55379E-14
 -1      3074 1.07086E-02 1.26610E-03-5.64242E-14
 -1      3075 1.14854E-03 3.19020E-04-9.01785E-16
 -1      3076 1.08470E-03 2.79296E-04-8.44241E-16
 -1      3077 1.20339E-03 2.82277E-04-1.03159E-15
 -1      3078 1.29210E-03 3.42910E-04-1.11585E-15
 -1      3079 1.28762E-02 2.01733E-04-6.83982E-14
 -1      3080 1.27440E-02 1.59682E-04-6.78632E-14
 -1      3081 1.01755E-02-7.17294E-04-5.14739E-14
 -1      3082 1.70070E-03-3.18552E-04-1.89290E-15
 -1      3083 1.84191E-03-3.26007E-04-2.19704E-15
 -1      3084 1.98313E-03-3.31599E-04-2.52413E-15
 -1      3085 2.12437E-03-3.35479E-04-2.87433E-15
 -1      3086 1.90768E-03-2.93826E-04-2.39004E-15
 -1      3087 2.26559E-03-3.37916E-04-3.24762E-15
 -1      3088 2.40679E-03-3.39035E-04-3.64349E-15
 -1      3089 2.19119E-03-3.00839E-04-3.09351E-15
 -1      3090 2.54798E-03-3.39045E-04-4.06252E-15
 -1      3091 2.68914E-03-3.38041E-04-4.50399E-15
 -1      3092 2.47476E-03-3.02624E-04-3.88865E-15
 -1      3093 2.83029E-03-3.36179E-04-4.96725E-15
 -1      3094 2.97143E-03-3.33529E-04-5.45397E-15
 -1      3095 2.75825E-03-3.00360E-04-4.77370E-15
 -1      3096 3.11257E-03-3.30202E-04-5.96269E-15
 -1      3097 3.25370E-03-3.26242E-04-6.49308E-15
 -1      3098 3.04162E-03-2.94944E-04-5.74841E-15
 -1      3099 3.39482E-03-3.21735E-04-7.04486E-15
 -1      3100 3.53594E-03-3.16718E-04-7.61794E-15
 -1      3101 3.32485E-03-2.87031E-04-6.81136E-15
 -1      3102 3.67704E-03-3.11233E-04-8.21287E-15
 -1      3103 3.81813E-03-3.05300E-04-8.82912E-15
 -1      3104 3.60789E-03-2.77091E-04-7.95993E-15
 -1      3105 3.95914E-03-2.99083E-04-9.46544E-15
 -1      3106 4.10019E-03-2.92565E-04-1.01225E-14
 -1      3107 3.89067E-03-2.65548E-04-9.19294E-15
 -1      3108 4.24116E-03-2.85752E-04-1.08011E-14
 -1      3109 4.38273E-03-2.78216E-04-1.14992E-14
 -1      3110 4.17319E-03-2.52713E-04-1.05097E-14
 -1      3111 4.52364E-03-2.71179E-04-1.22173E-14
 -1      3112 4.66620E-03-2.64727E-04-1.29559E-14
 -1      3113 4.45548E-03-2.39033E-04-1.19077E-14
 -1      3114 4.80785E-03-2.56097E-04-1.37157E-14
 -1      3115 4.95775E-03-2.46589E-04-1.44948E-14
 -1      3116 4.73854E-03-2.23454E-04-1.33862E-14
 -1      3117 5.10047E-03-2.39292E-04-1.52940E-14
 -1      3118 5.23428E-03-2.34072E-04-1.61142E-14
 -1      3119 5.02284E-03-2.08543E-04-1.49460E-14
 -1      3120 5.38244E-03-2.29065E-04-1.69543E-14
 -1      3121 5.52241E-03-2.19998E-04-1.78143E-14
 -1      3122 5.31131E-03-1.97197E-04-1.65864E-14
 -1      3123 5.65942E-03-2.06896E-04-1.86954E-14
 -1      3124 5.80219E-03-1.97884E-04-1.95965E-14
 -1      3125 5.59500E-03-1.79683E-04-1.83078E-14
 -1      3126 5.94371E-03-1.88831E-04-2.05172E-14
 -1      3127 6.08631E-03-1.79703E-04-2.14593E-14
 -1      3128 5.87320E-03-1.58196E-04-2.01116E-14
 -1      3129 6.22854E-03-1.70402E-04-2.24210E-14
 -1      3130 6.37092E-03-1.61016E-04-2.34003E-14
 -1      3131 6.15510E-03-1.40358E-04-2.19948E-14
 -1      3132 6.51311E-03-1.51657E-04-2.44006E-14
 -1      3133 6.65530E-03-1.42381E-04-2.54197E-14
 -1      3134 6.43710E-03-1.22094E-04-2.39577E-14
 -1      3135 6.79737E-03-1.33350E-04-2.64580E-14
 -1      3136 6.93950E-03-1.24667E-04-2.75152E-14
 -1      3137 6.71826E-03-1.03921E-04-2.59970E-14
 -1      3138 7.08163E-03-1.16548E-04-2.85903E-14
 -1      3139 7.22396E-03-1.09169E-04-2.96841E-14
 -1      3140 6.99853E-03-8.66684E-05-2.81118E-14
 -1      3141 7.36652E-03-1.02795E-04-3.07951E-14
 -1      3142 7.50960E-03-9.77226E-05-3.19229E-14
 -1      3143 7.27829E-03-7.15235E-05-3.02994E-14
 -1      3144 7.65333E-03-9.42535E-05-3.30691E-14
 -1      3145 7.79814E-03-9.28860E-05-3.42298E-14
 -1      3146 7.55847E-03-6.01315E-05-3.25578E-14
 -1      3147 7.94434E-03-9.39266E-05-3.54062E-14
 -1      3148 8.09255E-03-9.82298E-05-3.66007E-14
 -1      3149 7.84094E-03-5.47678E-05-3.48804E-14
 -1      3150 8.24337E-03-1.06056E-04-3.78103E-14
 -1      3151 8.39758E-03-1.18884E-04-3.90333E-14
 -1      3152 8.12913E-03-5.87104E-05-3.72679E-14
 -1      3153 8.55622E-03-1.36850E-04-4.02705E-14
 -1      3154 8.71995E-03-1.62479E-04-4.15228E-14
 -1      3155 8.42874E-03-7.71043E-05-3.97141E-14
 -1      3156 8.89033E-03-1.95861E-04-4.27876E-14
 -1      3157 9.06699E-03-2.40200E-04-4.40655E-14
 -1      3158 8.74824E-03-1.18799E-04-4.22156E-14
 -1      3159 1.16658E-02-3.82327E-04-6.27013E-14
 -1      3160 1.18606E-02-2.98983E-04-6.41561E-14
 -1      3161 1.20505E-02-2.29387E-04-6.56216E-14
 -1      3162 1.22803E-02-1.80538E-04-6.76606E-14
 -1      3163 1.24532E-02-1.38094E-04-6.91528E-14
 -1      3164 1.26204E-02-1.05550E-04-7.06605E-14
 -1      3165 1.27812E-02-7.93999E-05-7.21812E-14
 -1      3166 1.25983E-02-6.36560E-05-6.99955E-14
 -1      3167 1.29376E-02-5.97159E-05-7.37120E-14
 -1      3168 1.30902E-02-4.43698E-05-7.52546E-14
 -1      3169 1.29130E-02-2.06756E-05-7.30389E-14
 -1      3170 1.32398E-02-3.29832E-05-7.68112E-14
 -1      3171 1.33872E-02-2.42617E-05-7.83794E-14
 -1      3172 1.32103E-02 3.54491E-06-7.61292E-14
 -1      3173 1.35329E-02-1.77889E-05-7.99549E-14
 -1      3174 1.36775E-02-1.27329E-05-8.15442E-14
 -1      3175 1.34984E-02 1.68180E-05-7.92627E-14
 -1      3176 1.38001E-02-1.19685E-05-8.29322E-14
 -1      3177 1.39433E-02-8.12240E-06-8.45418E-14
 -1      3178 1.40025E-02 2.10354E-05-8.50158E-14
 -1      3179 1.37612E-02 2.11880E-05-8.22268E-14
 -1      3180 3.54736E-03 4.83290E-04-7.53343E-15
 -1      3181 3.40435E-03 4.79582E-04-6.96126E-15
 -1      3182 3.26143E-03 4.75415E-04-6.41155E-15
 -1      3183 3.11850E-03 4.70920E-04-5.88346E-15
 -1      3184 3.32696E-03 4.40105E-04-6.71574E-15
 -1      3185 2.97553E-03 4.66032E-04-5.37703E-15
 -1      3186 2.83253E-03 4.60715E-04-4.89315E-15
 -1      3187 3.04041E-03 4.31156E-04-5.65893E-15
 -1      3188 3.83312E-03 4.90715E-04-8.74382E-15
 -1      3189 3.69021E-03 4.86963E-04-8.12759E-15
 -1      3190 3.61326E-03 4.47935E-04-7.86044E-15
 -1      3191 4.11876E-03 4.96894E-04-1.00404E-14
 -1      3192 3.97592E-03 4.93930E-04-9.38164E-15
 -1      3193 3.89924E-03 4.54924E-04-9.09239E-15
 -1      3194 4.40370E-03 5.03700E-04-1.14233E-14
 -1      3195 4.26091E-03 5.00476E-04-1.07215E-14
 -1      3196 4.18419E-03 4.61888E-04-1.04104E-14
 -1      3197 4.68973E-03 5.08708E-04-1.28907E-14
 -1      3198 4.54661E-03 5.06525E-04-1.21465E-14
 -1      3199 4.46866E-03 4.68909E-04-1.18143E-14
 -1      3200 4.97689E-03 5.12012E-04-1.44389E-14
 -1      3201 4.83363E-03 5.10216E-04-1.36543E-14
 -1      3202 4.75612E-03 4.72690E-04-1.33004E-14
 -1      3203 5.26331E-03 5.15431E-04-1.60705E-14
 -1      3204 5.12017E-03 5.13823E-04-1.52445E-14
 -1      3205 5.04303E-03 4.76366E-04-1.48688E-14
 -1      3206 5.54958E-03 5.18027E-04-1.77850E-14
 -1      3207 5.40645E-03 5.16843E-04-1.69176E-14
 -1      3208 5.32881E-03 4.79925E-04-1.65202E-14
 -1      3209 5.83589E-03 5.19741E-04-1.95812E-14
 -1      3210 5.69271E-03 5.18996E-04-1.86738E-14
 -1      3211 5.61414E-03 4.82626E-04-1.82545E-14
 -1      3212 6.12236E-03 5.20668E-04-2.14572E-14
 -1      3213 5.97908E-03 5.20293E-04-2.05084E-14
 -1      3214 5.89917E-03 4.84436E-04-2.00686E-14
 -1      3215 6.40914E-03 5.21100E-04-2.34109E-14
 -1      3216 6.26568E-03 5.20920E-04-2.24241E-14
 -1      3217 6.18398E-03 4.85470E-04-2.19612E-14
 -1      3218 6.69642E-03 5.21614E-04-2.54445E-14
 -1      3219 6.55268E-03 5.21306E-04-2.44178E-14
 -1      3220 6.46862E-03 4.86053E-04-2.39328E-14
 -1      3221 6.98454E-03 5.23113E-04-2.75513E-14
 -1      3222 6.84033E-03 5.22172E-04-2.64891E-14
 -1      3223 6.75324E-03 4.86753E-04-2.59816E-14
 -1      3224 7.27405E-03 5.26964E-04-2.97325E-14
 -1      3225 7.12905E-03 5.24641E-04-2.86322E-14
 -1      3226 7.03812E-03 4.88450E-04-2.81048E-14
 -1      3227 7.56594E-03 5.35120E-04-3.19837E-14
 -1      3228 7.41960E-03 5.30349E-04-3.08497E-14
 -1      3229 7.32387E-03 4.92444E-04-3.03008E-14
 -1      3230 7.86180E-03 5.50281E-04-3.43037E-14
 -1      3231 7.71324E-03 5.41597E-04-3.31361E-14
 -1      3232 7.61161E-03 5.00577E-04-3.25677E-14
 -1      3233 8.16408E-03 5.76079E-04-3.66949E-14
 -1      3234 8.01196E-03 5.61516E-04-3.54900E-14
 -1      3235 7.90326E-03 5.15406E-04-3.49018E-14
 -1      3236 8.47624E-03 6.17320E-04-3.91511E-14
 -1      3237 8.31874E-03 5.94300E-04-3.79143E-14
 -1      3238 8.20186E-03 5.40497E-04-3.73061E-14
 -1      3239 8.80236E-03 6.80107E-04-4.16780E-14
 -1      3240 8.63746E-03 6.45389E-04-4.04057E-14
 -1      3241 8.51188E-03 5.80872E-04-3.97779E-14
 -1      3242 9.14569E-03 7.71214E-04-4.42701E-14
 -1      3243 8.97215E-03 7.21526E-04-4.29659E-14
 -1      3244 8.83888E-03 6.43702E-04-4.23167E-14
 -1      3245 9.50514E-03 8.94822E-04-4.69232E-14
 -1      3246 9.32428E-03 8.28898E-04-4.55889E-14
 -1      3247 9.18747E-03 7.38095E-04-4.49195E-14
 -1      3248 1.03098E-02 1.21463E-03-5.30686E-14
 -1      3249 1.01344E-02 1.15141E-03-5.16716E-14
 -1      3250 1.06164E-02 1.28365E-03-5.56549E-14
 -1      3251 1.04495E-02 1.25943E-03-5.42301E-14
 -1      3252 1.12428E-02 1.14603E-03-6.09651E-14
 -1      3253 1.10650E-02 1.20783E-03-5.94946E-14
 -1      3254 1.15885E-02 9.90310E-04-6.36384E-14
 -1      3255 1.14010E-02 1.06627E-03-6.21474E-14
 -1      3256 1.23254E-02 7.89701E-04-7.00940E-14
 -1      3257 1.21510E-02 8.35235E-04-6.85617E-14
 -1      3258 1.26618E-02 7.21709E-04-7.31848E-14
 -1      3259 1.24962E-02 7.52420E-04-7.16333E-14
 -1      3260 1.24579E-02 7.12919E-04-7.08055E-14
 -1      3261 1.29817E-02 6.78333E-04-7.63080E-14
 -1      3262 1.28237E-02 6.97502E-04-7.47444E-14
 -1      3263 1.27876E-02 6.58087E-04-7.39021E-14
 -1      3264 1.32891E-02 6.52419E-04-7.94538E-14
 -1      3265 1.31368E-02 6.63722E-04-7.78782E-14
 -1      3266 1.30997E-02 6.25510E-04-7.70303E-14
 -1      3267 1.35879E-02 6.37459E-04-8.26239E-14
 -1      3268 1.34394E-02 6.43969E-04-8.10350E-14
 -1      3269 1.34000E-02 6.07281E-04-8.01800E-14
 -1      3270 1.38810E-02 6.28097E-04-8.58159E-14
 -1      3271 1.37350E-02 6.32390E-04-8.42183E-14
 -1      3272 1.36928E-02 5.97274E-04-8.33544E-14
 -1      3273 1.40964E-02 6.08854E-04-8.80656E-14
 -1      3274 1.39784E-02 6.19448E-04-8.68286E-14
 -1      3275 1.39342E-02 5.85869E-04-8.59643E-14
 -1      3276 1.41259E-02 5.70485E-04-8.79929E-14
 -1      3277 8.67682E-03 3.32497E-04-4.52229E-14
 -1      3278 9.37885E-03-2.68923E-04-4.69367E-14
 -1      3279 9.20687E-03-1.79636E-04-4.61321E-14
 -1      3280 1.42324E-02 2.76246E-04-8.66026E-14
 -1      3281 1.42319E-02 3.05394E-04-8.66942E-14
 -1      3282 1.41302E-02 9.09961E-05-8.60135E-14
 -1      3283 1.41576E-02 1.24852E-04-8.61173E-14
 -1      3284 1.42173E-02 2.18648E-04-8.64151E-14
 -1      3285 1.42275E-02 2.47699E-04-8.65090E-14
 -1      3286 1.41188E-02 2.61458E-04-8.51595E-14
 -1      3287 1.01148E-03 7.53276E-05-8.54866E-16
 -1      3288 1.00922E-03 4.84447E-05-8.55842E-16
 -1      3289 1.03550E-02 1.20040E-03-5.35403E-14
 -1      3290 8.95840E-03-5.18532E-05-4.52091E-14
 -1      3291 8.77522E-03 3.73623E-05-4.47315E-14
 -1      3292 8.32214E-03 1.85611E-04-4.31696E-14
 -1      3293 8.29049E-03 2.02771E-04-4.34201E-14
 -1      3294 9.99576E-03 1.07476E-03-5.06763E-14
 -1      3295 1.05028E-02 1.24472E-03-5.47034E-14
 -1      3296 1.09103E-02 1.25756E-03-5.81985E-14
 -1      3297 9.83169E-03 9.65121E-04-4.97197E-14
 -1      3298 9.83843E-03 1.02927E-03-4.93892E-14
 -1      3299 9.65538E-03 9.53010E-04-4.80286E-14
 -1      3300 9.69054E-03 8.82195E-04-4.88589E-14
 -1      3301 8.56382E-03 3.12822E-04-4.41788E-14
 -1      3302 8.74231E-03 3.74235E-04-4.48809E-14
 -1      3303 1.29996E-02 2.78993E-04-6.89938E-14
 -1      3304 1.30289E-02 2.66031E-04-6.89904E-14
 -1      3305 1.82941E-03 4.00178E-04-2.13614E-15
 -1      3306 1.68577E-03 3.86064E-04-1.83364E-15
 -1      3307 1.41817E-02 1.57240E-04-8.62196E-14
 -1      3308 1.42018E-02 1.88495E-04-8.63159E-14
 -1      3309 1.40969E-02 2.03099E-04-8.49669E-14
 -1      3310 1.40540E-02 1.40350E-04-8.47667E-14
 -1      3311 1.25194E-02 4.58100E-04-6.78293E-14
 -1      3312 1.26749E-02 3.99364E-04-6.84624E-14
 -1      3313 1.41858E-03-2.96934E-04-1.35409E-15
 -1      3314 1.55958E-03-3.08924E-04-1.61195E-15
 -1      3315 1.62452E-03-2.80116E-04-1.77802E-15
 -1      3316 1.08063E-02-7.74433E-04-5.64843E-14
 -1      3317 1.17929E-02 9.38579E-04-6.54702E-14
 -1      3318 1.17321E-02 8.79363E-04-6.42842E-14
 -1      3319 1.19033E-02 7.80730E-04-6.52597E-14
 -1      3320 1.19754E-02 8.76402E-04-6.69831E-14
 -1      3321 1.07421E-02 1.27956E-03-5.67528E-14
 -1      3322 2.11644E-03 4.23253E-04-2.80957E-15
 -1      3323 1.97297E-03 4.12519E-04-2.46127E-15
 -1      3324 1.89149E-03 3.70704E-04-2.32214E-15
 -1      3325 8.35797E-03 2.48683E-04-4.35349E-14
 -1      3326 8.42454E-03 2.67825E-04-4.37100E-14
 -1      3327 8.91166E-03 4.51737E-04-4.53765E-14
 -1      3328 9.07040E-03 5.28156E-04-4.59728E-14
 -1      3329 1.30287E-02 2.50917E-04-6.90653E-14
 -1      3330 1.29828E-02 2.34569E-04-6.88940E-14
 -1      3331 1.28462E-02 3.39036E-04-6.90716E-14
 -1      3332 1.29463E-02 3.05117E-04-6.92417E-14
 -1      3333 1.09860E-02-7.21442E-04-5.78876E-14
 -1      3334 1.11500E-02-6.43279E-04-5.90949E-14
 -1      3335 1.13424E-02-5.53039E-04-6.05182E-14
 -1      3336 1.00753E-03 2.17978E-05-8.55151E-16
 -1      3337 1.00639E-03-4.71878E-06-8.52535E-16
 -1      3338 1.12799E-03 3.90495E-05-1.03562E-15
 -1      3339 1.15125E-02-4.54474E-04-6.16392E-14
 -1      3340 8.64765E-03 6.24781E-05-4.37925E-14
 -1      3341 1.02757E-03 1.88178E-04-8.31868E-16
 -1      3342 1.02230E-03 1.58835E-04-8.40731E-16
 -1      3343 1.15284E-03 2.20408E-04-1.00253E-15
 -1      3344 1.01561E-03-2.29032E-04-7.58752E-16
 -1      3345 1.02500E-03-2.54145E-04-7.48371E-16
 -1      3346 1.13125E-03-2.69317E-04-8.93084E-16
 -1      3347 1.00946E-03-1.40237E-04-8.14615E-16
 -1      3348 1.01225E-03-1.69055E-04-8.00873E-16
 -1      3349 1.56076E-03 3.75914E-04-1.58384E-15
 -1      3350 1.41705E-03 3.57501E-04-1.32576E-15
 -1      3351 1.37210E-03 3.26623E-04-1.27983E-15
 -1      3352 1.62237E-03 3.49388E-04-1.74641E-15
 -1      3353 9.08482E-03-1.92429E-04-4.46949E-14
 -1      3354 9.23901E-03-2.88721E-04-4.52811E-14
 -1      3355 9.42908E-03-3.56384E-04-4.65839E-14
 -1      3356 9.75572E-03-5.13390E-04-4.86316E-14
 -1      3357 9.94911E-03-6.00140E-04-4.99664E-14
 -1      3358 2.75362E-03 4.20594E-04-4.68993E-15
 -1      3359 2.68946E-03 4.54830E-04-4.43142E-15
 -1      3360 2.54633E-03 4.48307E-04-3.99226E-15
 -1      3361 1.23779E-03-2.82436E-04-1.05115E-15
 -1      3362 1.22146E-02-1.31651E-04-6.64432E-14
 -1      3363 1.20497E-02 7.27236E-04-6.63420E-14
 -1      3364 1.03736E-02 1.22928E-03-5.36095E-14
 -1      3365 9.52188E-03 8.56108E-04-4.73397E-14
 -1      3366 8.47084E-03 2.98380E-04-4.33726E-14
 -1      3367 1.30224E-02 2.97775E-04-7.01140E-14
 -1      3368 1.21121E-02 7.86335E-04-6.76902E-14
 -1      3369 1.28201E-02 3.75982E-04-6.97534E-14
 -1      3370 1.01078E-02-6.78609E-04-5.10470E-14
 -1      3371 9.55814E-03-3.88436E-04-4.76139E-14
 -1      3372 1.00750E-03-1.12191E-04-8.25769E-16
 -1      3373 1.12811E-03-1.35489E-04-9.94837E-16
 -1      3374 1.00630E-03-8.47921E-05-8.35039E-16
 -1      3375 1.41985E-02 3.95934E-04-8.69546E-14
 -1      3376 1.41782E-02 4.28247E-04-8.70404E-14
 -1      3377 1.41174E-02 3.18908E-04-8.53424E-14
 -1      3378 1.42259E-02 3.34751E-04-8.67822E-14
 -1      3379 1.42146E-02 3.64910E-04-8.68710E-14
 -1      3380 8.24257E-03 2.08241E-04-4.27046E-14
 -1      3381 1.01436E-03 1.02519E-04-8.52007E-16
 -1      3382 1.13307E-03 9.72265E-05-1.03335E-15
 -1      3383 1.01791E-03 1.30247E-04-8.47304E-16
 -1      3384 1.26671E-02 1.20925E-04-6.78492E-14
 -1      3385 1.25902E-02 7.58653E-05-6.78324E-14
 -1      3386 1.27934E-02 1.43761E-04-6.89969E-14
 -1      3387 1.30191E-03-2.59047E-04-1.18585E-15
 -1      3388 9.03599E-03-1.29473E-04-4.49117E-14
 -1      3389 8.86357E-03-7.98497E-05-4.37873E-14
 -1      3390 8.39440E-03 1.44369E-04-4.27834E-14
 -1      3391 8.35507E-03 1.67449E-04-4.29768E-14
 -1      3392 8.26777E-03 1.79154E-04-4.22592E-14
 -1      3393 1.30723E-02 2.59329E-04-6.99375E-14
 -1      3394 1.40593E-02 4.39114E-04-8.57437E-14
 -1      3395 1.41643E-02 4.56373E-04-8.71793E-14
 -1      3396 1.41486E-02 4.85508E-04-8.73154E-14
 -1      3397 2.40311E-03 4.40960E-04-3.57555E-15
 -1      3398 2.25982E-03 4.32690E-04-3.18108E-15
 -1      3399 2.17912E-03 3.91547E-04-3.02076E-15
 -1      3400 2.46652E-03 4.07731E-04-3.81024E-15
 -1      3401 1.24273E-02 5.17290E-04-6.78459E-14
 -1      3402 1.25665E-02 4.96243E-04-6.91575E-14
 -1      3403 1.23429E-02 5.81297E-04-6.78644E-14
 -1      3404 1.29755E-02 2.15828E-04-6.95102E-14
 -1      3405 1.40390E-02 4.30975E-05-8.52798E-14
 -1      3406 1.40958E-02 7.03486E-05-8.57527E-14
 -1      3407 1.39919E-02 8.64244E-05-8.44043E-14
 -1      3408 1.39194E-02 4.35356E-05-8.38816E-14
 -1      3409 9.27928E-03 6.35703E-04-4.68785E-14
 -1      3410 9.50213E-03 7.63230E-04-4.79357E-14
 -1      3411 9.50390E-03 8.08215E-04-4.75269E-14
 -1      3412 9.12397E-03 5.90981E-04-4.57132E-14
 -1      3413 8.29172E-03 2.37575E-04-4.29343E-14
 -1      3414 8.77016E-03 4.17676E-04-4.43279E-14
 -1      3415 1.00718E-03-2.04840E-04-7.67168E-16
 -1      3416 1.40929E-02 3.79230E-04-8.55177E-14
 -1      3417 1.83259E-03-2.56424E-04-2.25658E-15
 -1      3418 1.97467E-03-2.60853E-04-2.58693E-15
 -1      3419 2.11686E-03-2.63856E-04-2.94022E-15
 -1      3420 2.25912E-03-2.65551E-04-3.31621E-15
 -1      3421 2.04272E-03-2.27113E-04-2.78794E-15
 -1      3422 2.40140E-03-2.66129E-04-3.71507E-15
 -1      3423 2.54368E-03-2.65684E-04-4.13688E-15
 -1      3424 2.32802E-03-2.29666E-04-3.54255E-15
 -1      3425 2.68594E-03-2.64369E-04-4.58018E-15
 -1      3426 2.82816E-03-2.62255E-04-5.04597E-15
 -1      3427 2.61346E-03-2.28277E-04-4.38735E-15
 -1      3428 2.97034E-03-2.59460E-04-5.53485E-15
 -1      3429 3.11245E-03-2.56034E-04-6.04581E-15
 -1      3430 2.89880E-03-2.23795E-04-5.32178E-15
 -1      3431 3.25451E-03-2.52067E-04-6.57823E-15
 -1      3432 3.39648E-03-2.47595E-04-7.13191E-15
 -1      3433 3.18386E-03-2.16873E-04-6.34527E-15
 -1      3434 3.53838E-03-2.42685E-04-7.70674E-15
 -1      3435 3.68019E-03-2.37362E-04-8.30350E-15
 -1      3436 3.46856E-03-2.08005E-04-7.45451E-15
 -1      3437 3.82189E-03-2.31711E-04-8.92095E-15
 -1      3438 3.96347E-03-2.25746E-04-9.55873E-15
 -1      3439 3.75280E-03-1.97586E-04-8.64899E-15
 -1      3440 4.10496E-03-2.19512E-04-1.02179E-14
 -1      3441 4.24642E-03-2.12919E-04-1.08979E-14
 -1      3442 4.03652E-03-1.85931E-04-9.92727E-15
 -1      3443 4.38769E-03-2.06290E-04-1.15973E-14
 -1      3444 4.52893E-03-1.99435E-04-1.23165E-14
 -1      3445 4.31970E-03-1.73332E-04-1.12871E-14
 -1      3446 4.67022E-03-1.92042E-04-1.30574E-14
 -1      3447 4.81237E-03-1.83418E-04-1.38180E-14
 -1      3448 4.60254E-03-1.59581E-04-1.27288E-14
 -1      3449 4.95330E-03-1.75909E-04-1.45984E-14
 -1      3450 5.09534E-03-1.69973E-04-1.53988E-14
 -1      3451 4.88483E-03-1.45001E-04-1.42508E-14
 -1      3452 5.23636E-03-1.61949E-04-1.62194E-14
 -1      3453 5.38307E-03-1.57359E-04-1.70607E-14
 -1      3454 5.16670E-03-1.29853E-04-1.58535E-14
 -1      3455 5.52523E-03-1.49573E-04-1.79224E-14
 -1      3456 5.66092E-03-1.37240E-04-1.88051E-14
 -1      3457 5.44943E-03-1.14994E-04-1.75374E-14
 -1      3458 5.80188E-03-1.27709E-04-1.97063E-14
 -1      3459 5.94176E-03-1.19291E-04-2.06281E-14
 -1      3460 5.73106E-03-9.87383E-05-1.93021E-14
 -1      3461 6.08243E-03-1.10667E-04-2.15710E-14
 -1      3462 6.22257E-03-1.01922E-04-2.25338E-14
 -1      3463 6.01081E-03-8.11938E-05-2.11483E-14
 -1      3464 6.36249E-03-9.30963E-05-2.35150E-14
 -1      3465 6.50200E-03-8.42024E-05-2.45168E-14
 -1      3466 6.28938E-03-6.44319E-05-2.30733E-14
 -1      3467 6.64107E-03-7.53609E-05-2.55364E-14
 -1      3468 6.77974E-03-6.66048E-05-2.65755E-14
 -1      3469 6.56585E-03-4.73805E-05-2.50766E-14
 -1      3470 6.91793E-03-5.80923E-05-2.76337E-14
 -1      3471 7.05576E-03-4.98867E-05-2.87092E-14
 -1      3472 6.83990E-03-3.04655E-05-2.71549E-14
 -1      3473 7.19317E-03-4.21797E-05-2.98042E-14
 -1      3474 7.33038E-03-3.50884E-05-3.09168E-14
 -1      3475 7.11137E-03-1.43408E-05-2.93083E-14
 -1      3476 7.46734E-03-2.88244E-05-3.20457E-14
 -1      3477 7.60444E-03-2.36078E-05-3.31927E-14
 -1      3478 7.38039E-03 1.43775E-07-3.15346E-14
 -1      3479 7.74172E-03-1.96423E-05-3.43542E-14
 -1      3480 7.87984E-03-1.73681E-05-3.55314E-14
 -1      3481 7.64763E-03 1.19068E-05-3.38264E-14
 -1      3482 8.01894E-03-1.69391E-05-3.67255E-14
 -1      3483 8.16016E-03-1.92787E-05-3.79356E-14
 -1      3484 7.91477E-03 1.94773E-05-3.61836E-14
 -1      3485 8.30386E-03-2.44020E-05-3.91572E-14
 -1      3486 8.45183E-03-3.44020E-05-4.03938E-14
 -1      3487 8.18531E-03 2.04869E-05-3.86016E-14
 -1      3488 8.57374E-03-4.09633E-05-4.14484E-14
 -1      3489 8.73197E-03-6.27322E-05-4.27102E-14
 -1      3490 8.67020E-03 5.48064E-06-4.30050E-14
 -1      3491 8.43675E-03 1.63110E-05-4.08787E-14
 -1      3492 1.22240E-02 6.87897E-04-6.79121E-14
 -1      3493 1.28949E-02 1.91639E-05-7.23639E-14
 -1      3494 1.30417E-02 3.14617E-05-7.38967E-14
 -1      3495 1.31850E-02 4.01561E-05-7.54458E-14
 -1      3496 1.33266E-02 4.66213E-05-7.70042E-14
 -1      3497 1.31643E-02 7.70164E-05-7.47605E-14
 -1      3498 1.34665E-02 5.11347E-05-7.85700E-14
 -1      3499 1.36058E-02 5.44414E-05-8.01478E-14
 -1      3500 1.34374E-02 8.51206E-05-7.78785E-14
 -1      3501 3.39289E-03 4.04624E-04-7.02144E-15
 -1      3502 3.24939E-03 4.00490E-04-6.47125E-15
 -1      3503 1.12526E-03-2.04014E-04-9.44462E-16
 -1      3504 3.67954E-03 4.12329E-04-8.18845E-15
 -1      3505 3.53629E-03 4.08573E-04-7.59375E-15
 -1      3506 3.45914E-03 3.69093E-04-7.32875E-15
 -1      3507 3.10583E-03 3.96030E-04-5.94217E-15
 -1      3508 2.96219E-03 3.91240E-04-5.43477E-15
 -1      3509 3.17174E-03 3.60718E-04-6.22693E-15
 -1      3510 4.25089E-03 4.26620E-04-1.07810E-14
 -1      3511 4.10871E-03 4.22809E-04-1.01008E-14
 -1      3512 4.53691E-03 4.32498E-04-1.22053E-14
 -1      3513 4.39380E-03 4.29865E-04-1.14825E-14
 -1      3514 4.31854E-03 3.90803E-04-1.11528E-14
 -1      3515 4.82355E-03 4.36585E-04-1.37113E-14
 -1      3516 4.67997E-03 4.34722E-04-1.29481E-14
 -1      3517 4.60456E-03 3.96378E-04-1.25968E-14
 -1      3518 5.10902E-03 4.41063E-04-1.52994E-14
 -1      3519 4.96626E-03 4.38894E-04-1.44950E-14
 -1      3520 4.88988E-03 4.01393E-04-1.41228E-14
 -1      3521 5.39382E-03 4.44844E-04-1.69699E-14
 -1      3522 5.25147E-03 4.43067E-04-1.61243E-14
 -1      3523 5.17445E-03 4.06173E-04-1.57301E-14
 -1      3524 5.67800E-03 4.47742E-04-1.87229E-14
 -1      3525 5.53597E-03 4.46413E-04-1.78362E-14
 -1      3526 5.45825E-03 4.10245E-04-1.74196E-14
 -1      3527 5.96155E-03 4.49753E-04-2.05543E-14
 -1      3528 5.81984E-03 4.48862E-04-1.96290E-14
 -1      3529 5.74114E-03 4.13428E-04-1.91900E-14
 -1      3530 6.24448E-03 4.50990E-04-2.24649E-14
 -1      3531 6.10309E-03 4.50448E-04-2.14997E-14
 -1      3532 6.02308E-03 4.15713E-04-2.10410E-14
 -1      3533 6.52674E-03 4.51833E-04-2.44541E-14
 -1      3534 6.38568E-03 4.51444E-04-2.34499E-14
 -1      3535 6.30393E-03 4.17284E-04-2.29696E-14
 -1      3536 6.80839E-03 4.52797E-04-2.65185E-14
 -1      3537 6.66761E-03 4.52263E-04-2.54767E-14
 -1      3538 6.58357E-03 4.18477E-04-2.49741E-14
 -1      3539 7.08971E-03 4.54714E-04-2.86565E-14
 -1      3540 6.94904E-03 4.53579E-04-2.75785E-14
 -1      3541 6.86200E-03 4.19775E-04-2.70547E-14
 -1      3542 7.37129E-03 4.58768E-04-3.08686E-14
 -1      3543 7.23038E-03 4.56383E-04-2.97537E-14
 -1      3544 7.13940E-03 4.21908E-04-2.92099E-14
 -1      3545 7.65435E-03 4.66631E-04-3.31498E-14
 -1      3546 7.51249E-03 4.62079E-04-3.20006E-14
 -1      3547 7.41637E-03 4.25897E-04-3.14364E-14
 -1      3548 7.94106E-03 4.80659E-04-3.54997E-14
 -1      3549 7.79703E-03 4.72643E-04-3.43158E-14
 -1      3550 7.69416E-03 4.33178E-04-3.37323E-14
 -1      3551 8.23501E-03 5.04274E-04-3.79176E-14
 -1      3552 8.08681E-03 4.90872E-04-3.67000E-14
 -1      3553 7.97511E-03 4.45809E-04-3.60963E-14
 -1      3554 8.54169E-03 5.42775E-04-4.04024E-14
 -1      3555 8.38635E-03 5.20980E-04-3.91521E-14
 -1      3556 8.26329E-03 4.67038E-04-3.85285E-14
 -1      3557 8.86819E-03 6.04520E-04-4.29544E-14
 -1      3558 8.70205E-03 5.69647E-04-4.16705E-14
 -1      3559 8.56522E-03 5.02418E-04-4.10281E-14
 -1      3560 9.34937E-03 7.49465E-04-4.64313E-14
 -1      3561 1.30654E-02 3.12426E-04-7.12680E-14
 -1      3562 1.31010E-02 2.87028E-04-7.10176E-14
 -1      3563 1.25467E-02 6.20229E-04-7.07556E-14
 -1      3564 1.23772E-02 6.53051E-04-6.92244E-14
 -1      3565 1.35087E-02 5.65393E-04-8.09072E-14
 -1      3566 1.33635E-02 5.70163E-04-7.93250E-14
 -1      3567 1.37955E-02 5.59569E-04-8.40867E-14
 -1      3568 1.36526E-02 5.62076E-04-8.24921E-14
 -1      3569 1.36145E-02 5.26786E-04-8.16312E-14
 -1      3570 1.32164E-02 5.76711E-04-7.77500E-14
 -1      3571 1.30667E-02 5.86177E-04-7.61831E-14
 -1      3572 1.33301E-02 5.32443E-04-7.84716E-14
 -1      3573 1.22697E-02-3.72355E-05-6.57724E-14
 -1      3574 1.21761E-02-1.06616E-04-6.56398E-14
 -1      3575 8.18209E-03 2.01703E-04-4.16001E-14
 -1      3576 8.19320E-03 2.15403E-04-4.18503E-14
 -1      3577 1.40053E-02 2.46565E-04-8.37198E-14
 -1      3578 1.40108E-02 2.74777E-04-8.38129E-14
 -1      3579 3.96577E-03 4.19304E-04-9.44251E-15
 -1      3580 3.82277E-03 4.15879E-04-8.80504E-15
 -1      3581 4.03249E-03 3.83905E-04-9.79311E-15
 -1      3582 1.30559E-03-2.16948E-04-1.23160E-15
 -1      3583 1.00579E-03-3.12318E-05-8.48456E-16
 -1      3584 1.00574E-03-5.78421E-05-8.42615E-16
 -1      3585 1.12538E-03-7.62546E-05-1.01636E-15
 -1      3586 1.54910E-03-2.42474E-04-1.66357E-15
 -1      3587 1.69072E-03-2.50342E-04-1.94862E-15
 -1      3588 1.75799E-03-2.19580E-04-2.12376E-15
 -1      3589 1.29138E-02 5.98880E-04-7.46192E-14
 -1      3590 1.27567E-02 6.16518E-04-7.30616E-14
 -1      3591 1.30382E-02 5.45447E-04-7.53347E-14
 -1      3592 1.28064E-02 4.18405E-04-7.05899E-14
 -1      3593 1.29566E-02 3.64052E-04-7.12035E-14
 -1      3594 8.35053E-03 2.85145E-04-4.21907E-14
 -1      3595 8.47621E-03 3.28482E-04-4.26496E-14
 -1      3596 1.23983E-02-5.16839E-07-6.67840E-14
 -1      3597 1.31286E-02 2.68045E-04-7.10933E-14
 -1      3598 1.31297E-02 2.51377E-04-7.11653E-14
 -1      3599 1.31854E-02 2.79373E-04-7.22540E-14
 -1      3600 1.25726E-02 9.36124E-06-6.87388E-14
 -1      3601 1.27264E-02 3.22472E-05-7.02451E-14
 -1      3602 8.21167E-03 2.32180E-04-4.18264E-14
 -1      3603 8.25238E-03 2.52136E-04-4.17998E-14
 -1      3604 8.13189E-03 2.26176E-04-4.07295E-14
 -1      3605 8.62392E-03 3.86520E-04-4.32047E-14
 -1      3606 8.76919E-03 4.54453E-04-4.36889E-14
 -1      3607 1.30841E-02 2.24522E-04-7.09966E-14
 -1      3608 1.29894E-02 1.92632E-04-7.04938E-14
 -1      3609 1.41467E-02 5.11956E-04-8.75916E-14
 -1      3610 1.41287E-02 5.42746E-04-8.77217E-14
 -1      3611 1.40340E-02 5.49763E-04-8.67072E-14
 -1      3612 1.40408E-02 4.94710E-04-8.61588E-14
 -1      3613 1.95468E-03 3.40597E-04-2.51085E-15
 -1      3614 1.81065E-03 3.29320E-04-2.18366E-15
 -1      3615 8.54086E-03 6.73520E-05-4.27184E-14
 -1      3616 1.24954E-03-1.63196E-04-1.17579E-15
 -1      3617 1.42485E-03-2.12509E-04-1.45073E-15
 -1      3618 1.49216E-03-1.85311E-04-1.60036E-15
 -1      3619 1.24713E-03-1.31005E-04-1.19056E-15
 -1      3620 1.68517E-03 3.22088E-04-1.91264E-15
 -1      3621 1.55981E-03 3.13374E-04-1.65887E-15
 -1      3622 1.74895E-03 2.93970E-04-2.08184E-15
 -1      3623 1.27970E-03 2.53215E-04-1.18883E-15
 -1      3624 1.27221E-03 2.18974E-04-1.20304E-15
 -1      3625 8.18567E-03 1.88606E-04-4.14144E-14
 -1      3626 8.11502E-03 1.96274E-04-4.05712E-14
 -1      3627 8.19854E-03 1.73740E-04-4.12260E-14
 -1      3628 1.26899E-02 5.51177E-04-7.14644E-14
 -1      3629 8.97519E-03 5.54877E-04-4.45485E-14
 -1      3630 9.16148E-03 6.49614E-04-4.54398E-14
 -1      3631 2.81846E-03 3.86038E-04-4.95029E-15
 -1      3632 2.67466E-03 3.80369E-04-4.48800E-15
 -1      3633 2.88393E-03 3.51232E-04-5.21271E-15
 -1      3634 1.30716E-02 3.78019E-04-7.29663E-14
 -1      3635 1.30678E-02 3.42779E-04-7.21174E-14
 -1      3636 1.31660E-02 3.27442E-04-7.30300E-14
 -1      3637 1.12544E-03-1.84645E-05-1.02990E-15
 -1      3638 1.28703E-02 8.88743E-05-7.10874E-14
 -1      3639 1.37026E-02 4.92700E-05-8.13126E-14
 -1      3640 1.38215E-02 4.86685E-05-8.26986E-14
 -1      3641 1.38591E-02 7.06523E-05-8.29599E-14
 -1      3642 1.36674E-02 8.17340E-05-8.06132E-14
 -1      3643 3.74609E-03 3.76680E-04-8.51802E-15
 -1      3644 9.19113E-03 7.02509E-04-4.52543E-14
 -1      3645 9.01257E-03 6.50063E-04-4.39432E-14
 -1      3646 8.86396E-03 5.66598E-04-4.32832E-14
 -1      3647 8.47618E-03 3.61754E-04-4.20222E-14
 -1      3648 1.23906E-02-6.75479E-05-6.76838E-14
 -1      3649 1.39388E-02 5.56842E-04-8.56937E-14
 -1      3650 2.09874E-03 3.50557E-04-2.86137E-15
 -1      3651 2.01880E-03 3.09867E-04-2.70335E-15
 -1      3652 2.24279E-03 3.59331E-04-3.23439E-15
 -1      3653 1.31691E-02 2.34387E-04-7.21584E-14
 -1      3654 1.38966E-02 5.23633E-04-8.48243E-14
 -1      3655 1.14107E-03 1.57278E-04-1.02276E-15
 -1      3656 1.39030E-02 2.88062E-04-8.24764E-14
 -1      3657 1.40098E-02 3.03288E-04-8.39085E-14
 -1      3658 1.40024E-02 3.32448E-04-8.39984E-14
 -1      3659 8.24166E-03 2.74979E-04-4.10887E-14
 -1      3660 1.29393E-02 1.65417E-04-7.04765E-14
 -1      3661 1.28844E-02 1.33245E-04-7.04604E-14
 -1      3662 1.30736E-02 1.79291E-04-7.19698E-14
 -1      3663 1.25620E-03 1.20902E-04-1.22824E-15
 -1      3664 1.25267E-03 8.95003E-05-1.23184E-15
 -1      3665 1.39500E-02 4.25440E-04-8.42907E-14
 -1      3666 1.39331E-02 4.54497E-04-8.44315E-14
 -1      3667 1.39753E-02 1.87286E-04-8.35229E-14
 -1      3668 1.39933E-02 2.17476E-04-8.36225E-14
 -1      3669 1.38911E-02 2.31448E-04-8.22853E-14
 -1      3670 1.24987E-03 5.83369E-05-1.23289E-15
 -1      3671 1.24778E-03 2.74216E-05-1.23167E-15
 -1      3672 1.37304E-03 7.94415E-05-1.44652E-15
 -1      3673 8.81306E-03 5.09928E-04-4.34187E-14
 -1      3674 1.25482E-02 4.20138E-05-6.79240E-14
 -1      3675 1.38956E-02 9.19307E-05-8.32187E-14
 -1      3676 1.39906E-02 3.61831E-04-8.41035E-14
 -1      3677 1.39717E-02 3.93243E-04-8.41900E-14
 -1      3678 1.38505E-02 4.06898E-04-8.28835E-14
 -1      3679 1.38880E-02 3.45173E-04-8.26784E-14
 -1      3680 1.39255E-02 1.24668E-04-8.33226E-14
 -1      3681 1.39531E-02 1.57698E-04-8.34243E-14
 -1      3682 1.38531E-02 1.73154E-04-8.20879E-14
 -1      3683 1.37962E-02 1.10251E-04-8.18854E-14
 -1      3684 8.43056E-03 5.83997E-05-4.14437E-14
 -1      3685 8.41878E-03 1.08594E-04-4.22198E-14
 -1      3686 8.30760E-03 1.30587E-04-4.15092E-14
 -1      3687 8.32438E-03 5.72184E-05-4.03912E-14
 -1      3688 1.32808E-03 2.96544E-04-1.23290E-15
 -1      3689 1.44736E-03 2.93746E-04-1.45738E-15
 -1      3690 1.26586E-03 1.85578E-04-1.21397E-15
 -1      3691 1.26058E-03 1.52881E-04-1.22238E-15
 -1      3692 1.38072E-03 1.46074E-04-1.43912E-15
 -1      3693 1.39204E-03 2.14747E-04-1.42102E-15
 -1      3694 1.68405E-03-1.83562E-04-1.99214E-15
 -1      3695 1.82634E-03-1.87825E-04-2.30328E-15
 -1      3696 2.25480E-03-1.93374E-04-3.37081E-15
 -1      3697 2.39788E-03-1.93186E-04-3.77220E-15
 -1      3698 2.54098E-03-1.92180E-04-4.19605E-15
 -1      3699 2.68408E-03-1.90417E-04-4.64162E-15
 -1      3700 2.46860E-03-1.56164E-04-4.00530E-15
 -1      3701 2.82714E-03-1.88009E-04-5.11008E-15
 -1      3702 2.97014E-03-1.85002E-04-5.60087E-15
 -1      3703 2.75547E-03-1.52163E-04-4.89963E-15
 -1      3704 3.11304E-03-1.81485E-04-6.11329E-15
 -1      3705 3.25585E-03-1.77489E-04-6.64753E-15
 -1      3706 3.04212E-03-1.45941E-04-5.88219E-15
 -1      3707 3.39853E-03-1.73085E-04-7.20296E-15
 -1      3708 3.54109E-03-1.68295E-04-7.77957E-15
 -1      3709 3.32835E-03-1.37944E-04-6.95197E-15
 -1      3710 3.68350E-03-1.63183E-04-8.37782E-15
 -1      3711 3.82575E-03-1.57766E-04-8.99682E-15
 -1      3712 3.61402E-03-1.28522E-04-8.10704E-15
 -1      3713 3.96785E-03-1.52086E-04-9.63658E-15
 -1      3714 4.10980E-03-1.46141E-04-1.02973E-14
 -1      3715 3.89902E-03-1.17951E-04-9.34643E-15
 -1      3716 4.25157E-03-1.40012E-04-1.09780E-14
 -1      3717 4.39318E-03-1.33677E-04-1.16788E-14
 -1      3718 4.18328E-03-1.06451E-04-1.06689E-14
 -1      3719 4.53467E-03-1.27050E-04-1.23999E-14
 -1      3720 4.67613E-03-1.19936E-04-1.31420E-14
 -1      3721 4.46681E-03-9.40616E-05-1.20725E-14
 -1      3722 4.81729E-03-1.12901E-04-1.39044E-14
 -1      3723 4.95813E-03-1.05831E-04-1.46864E-14
 -1      3724 4.74955E-03-8.08137E-05-1.35576E-14
 -1      3725 5.09927E-03-9.87907E-05-1.54879E-14
 -1      3726 5.24013E-03-9.11627E-05-1.63095E-14
 -1      3727 5.03170E-03-6.71720E-05-1.51230E-14
 -1      3728 5.38028E-03-8.29980E-05-1.71519E-14
 -1      3729 5.52150E-03-7.64906E-05-1.80154E-14
 -1      3730 5.31253E-03-5.24409E-05-1.67684E-14
 -1      3731 5.66208E-03-6.88077E-05-1.88985E-14
 -1      3732 5.80125E-03-5.97642E-05-1.98005E-14
 -1      3733 5.59260E-03-3.73448E-05-1.84942E-14
 -1      3734 5.94059E-03-5.17844E-05-2.07253E-14
 -1      3735 6.07946E-03-4.39219E-05-2.16696E-14
 -1      3736 5.87144E-03-2.26244E-05-2.03032E-14
 -1      3737 6.21780E-03-3.60248E-05-2.26321E-14
 -1      3738 6.35557E-03-2.79647E-05-2.36149E-14
 -1      3739 6.14768E-03-7.63629E-06-2.21917E-14
 -1      3740 6.49261E-03-1.98643E-05-2.46173E-14
 -1      3741 6.62896E-03-1.17090E-05-2.56385E-14
 -1      3742 6.42126E-03 7.46358E-06-2.41585E-14
 -1      3743 6.76445E-03-3.62611E-06-2.66787E-14
 -1      3744 6.89916E-03 4.40016E-06-2.77370E-14
 -1      3745 6.69150E-03 2.27904E-05-2.62022E-14
 -1      3746 7.03292E-03 1.22143E-05-2.88142E-14
 -1      3747 7.16583E-03 1.98297E-05-2.99094E-14
 -1      3748 6.95775E-03 3.79711E-05-2.83207E-14
 -1      3749 7.29775E-03 2.70676E-05-3.10222E-14
 -1      3750 7.42886E-03 3.39334E-05-3.21523E-14
 -1      3751 7.21945E-03 5.26027E-05-3.05105E-14
 -1      3752 7.55899E-03 4.02423E-05-3.32993E-14
 -1      3753 7.68853E-03 4.59598E-05-3.44621E-14
 -1      3754 7.47610E-03 6.62570E-05-3.27718E-14
 -1      3755 7.81725E-03 5.09147E-05-3.56408E-14
 -1      3756 7.94598E-03 5.49054E-05-3.68361E-14
 -1      3757 7.72740E-03 7.85413E-05-3.50981E-14
 -1      3758 8.06918E-03 5.72132E-05-3.79890E-14
 -1      3759 8.19896E-03 5.84159E-05-3.92112E-14
 -1      3760 8.20217E-03 9.46209E-05-3.97651E-14
 -1      3761 7.96861E-03 8.83371E-05-3.74316E-14
 -1      3762 1.51121E-03 2.68759E-04-1.60615E-15
 -1      3763 4.95571E-03 3.66577E-04-1.45339E-14
 -1      3764 4.81349E-03 3.63825E-04-1.37511E-14
 -1      3765 1.26595E-02 5.08803E-04-7.04685E-14
 -1      3766 1.27308E-02 4.57993E-04-7.04489E-14
 -1      3767 1.37027E-02 1.16174E-04-8.07164E-14
 -1      3768 1.34106E-02 1.18126E-04-7.71842E-14
 -1      3769 1.35420E-02 1.19350E-04-7.87530E-14
 -1      3770 1.24481E-03-6.82037E-05-1.21325E-15
 -1      3771 1.24556E-03-9.93769E-05-1.20306E-15
 -1      3772 1.36698E-03-1.24103E-04-1.40411E-15
 -1      3773 3.23811E-03 3.25251E-04-6.51376E-15
 -1      3774 3.09410E-03 3.20856E-04-5.98415E-15
 -1      3775 4.67106E-03 3.60983E-04-1.29888E-14
 -1      3776 4.52832E-03 3.58241E-04-1.22463E-14
 -1      3777 4.73726E-03 3.26114E-04-1.33812E-14
 -1      3778 4.38543E-03 3.55185E-04-1.15244E-14
 -1      3779 4.24239E-03 3.51889E-04-1.08237E-14
 -1      3780 4.45220E-03 3.19738E-04-1.18977E-14
 -1      3781 5.23948E-03 3.71755E-04-1.61607E-14
 -1      3782 5.09772E-03 3.69239E-04-1.53374E-14
 -1      3783 5.02128E-03 3.32201E-04-1.49460E-14
 -1      3784 5.52220E-03 3.76205E-04-1.78695E-14
 -1      3785 5.38098E-03 3.74099E-04-1.70050E-14
 -1      3786 5.30415E-03 3.37852E-04-1.65919E-14
 -1      3787 5.80367E-03 3.79780E-04-1.96579E-14
 -1      3788 5.66306E-03 3.78122E-04-1.87532E-14
 -1      3789 5.58566E-03 3.42779E-04-1.83184E-14
 -1      3790 6.08390E-03 3.82393E-04-2.15262E-14
 -1      3791 5.94397E-03 3.81169E-04-2.05826E-14
 -1      3792 5.86572E-03 3.46736E-04-2.01255E-14
 -1      3793 6.36250E-03 3.84444E-04-2.34727E-14
 -1      3794 6.22339E-03 3.83506E-04-2.24897E-14
 -1      3795 6.14408E-03 3.49892E-04-2.20123E-14
 -1      3796 6.63936E-03 3.86088E-04-2.54944E-14
 -1      3797 6.50115E-03 3.85298E-04-2.44740E-14
 -1      3798 6.42035E-03 3.52487E-04-2.39757E-14
 -1      3799 6.91433E-03 3.87797E-04-2.75915E-14
 -1      3800 6.77706E-03 3.86913E-04-2.65338E-14
 -1      3801 6.69426E-03 3.54695E-04-2.60152E-14
 -1      3802 7.18751E-03 3.90170E-04-2.97620E-14
 -1      3803 7.05110E-03 3.88866E-04-2.86676E-14
 -1      3804 6.96556E-03 3.56890E-04-2.81288E-14
 -1      3805 7.45938E-03 3.94029E-04-3.20040E-14
 -1      3806 7.32352E-03 3.91855E-04-3.08744E-14
 -1      3807 7.23419E-03 3.59514E-04-3.03154E-14
 -1      3808 7.73112E-03 4.00528E-04-3.43150E-14
 -1      3809 7.59510E-03 3.96839E-04-3.31503E-14
 -1      3810 7.50045E-03 3.63150E-04-3.25727E-14
 -1      3811 8.00507E-03 4.11392E-04-3.66943E-14
 -1      3812 7.86751E-03 4.05206E-04-3.54964E-14
 -1      3813 7.76528E-03 3.68630E-04-3.48982E-14
 -1      3814 8.28549E-03 4.29566E-04-3.91402E-14
 -1      3815 8.14390E-03 4.19075E-04-3.79085E-14
 -1      3816 8.03076E-03 3.77186E-04-3.72919E-14
 -1      3817 8.67525E-03 4.74878E-04-4.24377E-14
 -1      3818 1.37165E-02 4.91337E-04-8.23571E-14
 -1      3819 1.35783E-02 4.91697E-04-8.07714E-14
 -1      3820 1.34398E-02 4.92624E-04-7.91897E-14
 -1      3821 1.33000E-02 4.94699E-04-7.76161E-14
 -1      3822 1.35441E-02 4.56906E-04-7.99087E-14
 -1      3823 1.39015E-02 4.95594E-04-8.45501E-14
 -1      3824 1.96896E-03-1.90806E-04-2.63663E-15
 -1      3825 2.11181E-03-1.92608E-04-2.99238E-15
 -1      3826 1.89568E-03-1.55090E-04-2.48667E-15
 -1      3827 1.24638E-03-3.32641E-06-1.22836E-15
 -1      3828 1.24565E-03-3.40921E-05-1.22284E-15
 -1      3829 1.36850E-03 1.39625E-05-1.44367E-15
 -1      3830 8.34564E-03 3.45006E-04-4.08975E-14
 -1      3831 8.47604E-03 3.97567E-04-4.14395E-14
 -1      3832 1.30253E-02 1.12211E-04-7.25832E-14
 -1      3833 3.81283E-03 3.41037E-04-8.84849E-15
 -1      3834 3.66936E-03 3.37311E-04-8.23164E-15
 -1      3835 1.31524E-02 1.14513E-04-7.40991E-14
 -1      3836 1.32834E-02 1.17621E-04-7.56493E-14
 -1      3837 1.33893E-02 1.51345E-04-7.65143E-14
 -1      3838 1.31487E-02 1.52536E-04-7.34633E-14
 -1      3839 2.53077E-03 3.74097E-04-4.04761E-15
 -1      3840 2.38681E-03 3.67144E-04-3.62999E-15
 -1      3841 2.59575E-03 3.40122E-04-4.28713E-15
 -1      3842 1.31591E-02 4.98093E-04-7.60489E-14
 -1      3843 1.30154E-02 5.04052E-04-7.44882E-14
 -1      3844 1.32737E-02 4.56896E-04-7.67618E-14
 -1      3845 8.13023E-03 2.65577E-04-3.99450E-14
 -1      3846 8.21900E-03 2.98788E-04-4.03262E-14
 -1      3847 1.32672E-02 2.47245E-04-7.35477E-14
 -1      3848 1.32286E-02 2.18685E-04-7.33761E-14
 -1      3849 1.28875E-02 4.36915E-04-7.19073E-14
 -1      3850 1.32331E-02 2.94001E-04-7.32679E-14
 -1      3851 1.32565E-02 2.73229E-04-7.33433E-14
 -1      3852 4.09928E-03 3.48422E-04-1.01446E-14
 -1      3853 3.95616E-03 3.44705E-04-9.48662E-15
 -1      3854 4.16627E-03 3.12863E-04-1.04968E-14
 -1      3855 3.52574E-03 3.33455E-04-7.63778E-15
 -1      3856 3.38199E-03 3.29446E-04-7.06492E-15
 -1      3857 3.59263E-03 2.97796E-04-7.94814E-15
 -1      3858 8.05389E-03 2.14929E-04-3.97535E-14
 -1      3859 8.06834E-03 2.33941E-04-3.97272E-14
 -1      3860 8.52575E-03 4.45336E-04-4.13070E-14
 -1      3861 1.29805E-02 4.64208E-04-7.34786E-14
 -1      3862 1.30411E-02 4.31042E-04-7.36177E-14
 -1      3863 8.03176E-03 1.87993E-04-3.93939E-14
 -1      3864 8.03898E-03 2.01443E-04-3.95739E-14
 -1      3865 7.96270E-03 2.07580E-04-3.85851E-14
 -1      3866 2.94998E-03 3.16179E-04-5.47689E-15
 -1      3867 2.80576E-03 3.11190E-04-4.99182E-15
 -1      3868 3.01656E-03 2.80938E-04-5.74324E-15
 -1      3869 1.50343E-03 2.32033E-04-1.62133E-15
 -1      3870 1.49680E-03 1.95962E-04-1.63303E-15
 -1      3871 1.61530E-03 2.48940E-04-1.83478E-15
 -1      3872 1.31582E-02 4.05509E-04-7.45419E-14
 -1      3873 2.18184E-03-1.57371E-04-3.20073E-15
 -1      3874 1.36605E-03-5.46350E-05-1.42921E-15
 -1      3875 1.33356E-02 2.60567E-04-7.45695E-14
 -1      3876 1.36677E-02 1.46390E-04-8.00140E-14
 -1      3877 8.19578E-03 1.58877E-04-4.08688E-14
 -1      3878 8.10484E-03 1.69508E-04-4.00342E-14
 -1      3879 8.01459E-03 1.75338E-04-3.90454E-14
 -1      3880 8.19743E-03 1.29760E-04-4.03168E-14
 -1      3881 1.32588E-02 3.19033E-04-7.41256E-14
 -1      3882 3.30487E-03 2.89699E-04-6.80235E-15
 -1      3883 8.37896E-03 4.29526E-04-4.00464E-14
 -1      3884 8.25269E-03 3.80642E-04-3.94128E-14
 -1      3885 8.21192E-03 3.27851E-04-3.97545E-14
 -1      3886 2.30731E-03 3.26660E-04-3.45043E-15
 -1      3887 1.56042E-03-1.56824E-04-1.75459E-15
 -1      3888 1.28492E-02 5.16172E-04-7.27690E-14
 -1      3889 1.37973E-02 2.72889E-04-8.10499E-14
 -1      3890 1.37957E-02 3.00677E-04-8.11460E-14
 -1      3891 1.32089E-02 1.99622E-04-7.34293E-14
 -1      3892 1.31765E-02 1.76587E-04-7.34117E-14
 -1      3893 1.32908E-02 1.74785E-04-7.49332E-14
 -1      3894 1.33261E-02 2.14849E-04-7.48278E-14
 -1      3895 1.37907E-02 2.45337E-04-8.09583E-14
 -1      3896 1.36917E-02 2.58330E-04-7.96354E-14
 -1      3897 1.37763E-02 2.16828E-04-8.08607E-14
 -1      3898 1.49119E-03 1.60495E-04-1.64192E-15
 -1      3899 1.48654E-03 1.25518E-04-1.64778E-15
 -1      3900 1.60226E-03 1.74899E-04-1.85766E-15
 -1      3901 1.37914E-02 4.81708E-04-8.31039E-14
 -1      3902 3.87975E-03 3.05484E-04-9.18021E-15
 -1      3903 1.74082E-03 2.55175E-04-2.09904E-15
 -1      3904 1.59308E-03 1.02608E-04-1.86807E-15
 -1      3905 1.48274E-03 9.08682E-05-1.65067E-15
 -1      3906 1.47978E-03 5.65024E-05-1.65089E-15
 -1      3907 8.03024E-03 2.51892E-04-3.89779E-14
 -1      3908 1.89110E-03 2.59145E-04-2.43990E-15
 -1      3909 1.75824E-03 2.15794E-04-2.16779E-15
 -1      3910 2.03534E-03 2.68114E-04-2.78443E-15
 -1      3911 1.37523E-02 4.48876E-04-8.22374E-14
 -1      3912 1.37366E-02 4.26498E-04-8.17643E-14
 -1      3913 1.36647E-02 4.34774E-04-8.10221E-14
 -1      3914 1.35325E-02 4.33132E-04-7.94392E-14
 -1      3915 1.37631E-02 3.93169E-04-8.16634E-14
 -1      3916 4.80331E-03 2.91600E-04-1.37751E-14
 -1      3917 4.66121E-03 2.88189E-04-1.30134E-14
 -1      3918 2.39644E-03-1.20343E-04-3.81607E-15
 -1      3919 2.54016E-03-1.18618E-04-4.24182E-15
 -1      3920 1.32852E-02 4.07137E-04-7.60969E-14
 -1      3921 1.32962E-02 3.61628E-04-7.54337E-14
 -1      3922 1.34133E-02 4.09227E-04-7.76632E-14
 -1      3923 2.68389E-03-1.16339E-04-4.68982E-15
 -1      3924 2.82759E-03-1.13541E-04-5.15985E-15
 -1      3925 2.61249E-03-8.06080E-05-4.48150E-15
 -1      3926 2.97121E-03-1.10300E-04-5.65227E-15
 -1      3927 3.11473E-03-1.06640E-04-6.16632E-15
 -1      3928 2.90037E-03-7.46114E-05-5.42319E-15
 -1      3929 3.25812E-03-1.02624E-04-6.70172E-15
 -1      3930 3.40137E-03-9.82674E-05-7.25868E-15
 -1      3931 3.18790E-03-6.71585E-05-6.45270E-15
 -1      3932 3.54446E-03-9.36252E-05-7.83720E-15
 -1      3933 3.68736E-03-8.87070E-05-8.43620E-15
 -1      3934 3.47485E-03-5.85161E-05-7.56780E-15
 -1      3935 3.83008E-03-8.35552E-05-9.05692E-15
 -1      3936 3.97260E-03-7.81726E-05-9.69842E-15
 -1      3937 3.76107E-03-4.89009E-05-8.76809E-15
 -1      3938 4.11490E-03-7.26009E-05-1.03603E-14
 -1      3939 4.25699E-03-6.68341E-05-1.10428E-14
 -1      3940 4.04645E-03-3.84807E-05-1.00521E-14
 -1      3941 4.39886E-03-6.08680E-05-1.17453E-14
 -1      3942 4.54053E-03-5.46489E-05-1.24684E-14
 -1      3943 4.33091E-03-2.73451E-05-1.14188E-14
 -1      3944 4.68193E-03-4.83129E-05-1.32105E-14
 -1      3945 4.82305E-03-4.17475E-05-1.39747E-14
 -1      3946 4.61434E-03-1.55345E-05-1.28660E-14
 -1      3947 4.96412E-03-3.50329E-05-1.47592E-14
 -1      3948 5.10495E-03-2.84584E-05-1.55615E-14
 -1      3949 4.89678E-03-3.05439E-06-1.43939E-14
 -1      3950 5.24655E-03-2.38132E-05-1.63846E-14
 -1      3951 5.38611E-03-1.62583E-05-1.72285E-14
 -1      3952 5.17905E-03 7.83936E-06-1.60019E-14
 -1      3953 5.52441E-03-6.54047E-06-1.80926E-14
 -1      3954 5.66419E-03 1.16908E-07-1.89764E-14
 -1      3955 5.45839E-03 2.19818E-05-1.76906E-14
 -1      3956 5.80316E-03 6.98339E-06-1.98803E-14
 -1      3957 5.94132E-03 1.40579E-05-2.08062E-14
 -1      3958 5.73530E-03 3.70209E-05-1.94599E-14
 -1      3959 6.07881E-03 2.07732E-05-2.17520E-14
 -1      3960 6.21564E-03 2.77137E-05-2.27160E-14
 -1      3961 6.01113E-03 4.95080E-05-2.13109E-14
 -1      3962 6.35166E-03 3.47175E-05-2.36997E-14
 -1      3963 6.48679E-03 4.18387E-05-2.47030E-14
 -1      3964 6.28363E-03 6.21526E-05-2.32414E-14
 -1      3965 6.62089E-03 4.89445E-05-2.57250E-14
 -1      3966 6.75393E-03 5.60979E-05-2.67663E-14
 -1      3967 6.55241E-03 7.51565E-05-2.52485E-14
 -1      3968 6.88573E-03 6.31554E-05-2.78267E-14
 -1      3969 7.01627E-03 7.02027E-05-2.89035E-14
 -1      3970 6.81655E-03 8.82125E-05-2.73319E-14
 -1      3971 7.14534E-03 7.70666E-05-2.99995E-14
 -1      3972 7.27295E-03 8.38702E-05-3.11124E-14
 -1      3973 7.07508E-03 1.01093E-04-2.94873E-14
 -1      3974 7.39882E-03 9.04008E-05-3.22433E-14
 -1      3975 7.52304E-03 9.68488E-05-3.33909E-14
 -1      3976 7.32681E-03 1.13616E-04-3.17156E-14
 -1      3977 7.64515E-03 1.02958E-04-3.45536E-14
 -1      3978 7.76543E-03 1.09051E-04-3.57338E-14
 -1      3979 7.57025E-03 1.25673E-04-3.40099E-14
 -1      3980 5.36852E-03 3.04513E-04-1.70228E-14
 -1      3981 5.22776E-03 3.01480E-04-1.61803E-14
 -1      3982 2.66146E-03 3.05799E-04-4.52860E-15
 -1      3983 2.51708E-03 2.99952E-04-4.08775E-15
 -1      3984 2.72779E-03 2.71187E-04-4.77232E-15
 -1      3985 1.55854E-03-1.21075E-04-1.77149E-15
 -1      3986 8.13138E-03 3.32347E-04-3.88539E-14
 -1      3987 5.08663E-03 2.98260E-04-1.53581E-14
 -1      3988 4.94514E-03 2.94971E-04-1.45564E-14
 -1      3989 5.15176E-03 2.64876E-04-1.57706E-14
 -1      3990 4.51881E-03 2.84709E-04-1.22719E-14
 -1      3991 4.37613E-03 2.81185E-04-1.15506E-14
 -1      3992 4.58532E-03 2.50040E-04-1.26463E-14
 -1      3993 5.64866E-03 3.10063E-04-1.87678E-14
 -1      3994 5.50874E-03 3.07459E-04-1.78858E-14
 -1      3995 5.43249E-03 2.71878E-04-1.74534E-14
 -1      3996 5.92745E-03 3.14226E-04-2.05937E-14
 -1      3997 5.78834E-03 3.12134E-04-1.96709E-14
 -1      3998 5.71162E-03 2.77666E-04-1.92174E-14
 -1      3999 6.20384E-03 3.18239E-04-2.24978E-14
 -1      4000 6.06591E-03 3.16403E-04-2.15355E-14
 -1      4001 5.98886E-03 2.82695E-04-2.10614E-14
 -1      4002 6.47773E-03 3.21483E-04-2.44790E-14
 -1      4003 6.34112E-03 3.19934E-04-2.34791E-14
 -1      4004 6.26337E-03 2.87407E-04-2.29836E-14
 -1      4005 6.74861E-03 3.24374E-04-2.65363E-14
 -1      4006 6.61356E-03 3.22973E-04-2.54986E-14
 -1      4007 6.53484E-03 2.91452E-04-2.49833E-14
 -1      4008 7.01610E-03 3.27159E-04-2.86664E-14
 -1      4009 6.88278E-03 3.25783E-04-2.75929E-14
 -1      4010 6.80264E-03 2.95147E-04-2.70574E-14
 -1      4011 7.27991E-03 3.30116E-04-3.08690E-14
 -1      4012 7.14843E-03 3.28619E-04-2.97583E-14
 -1      4013 7.06619E-03 2.98628E-04-2.92044E-14
 -1      4014 7.54006E-03 3.33587E-04-3.31401E-14
 -1      4015 7.41036E-03 3.31779E-04-3.19957E-14
 -1      4016 7.32494E-03 3.02005E-04-3.14223E-14
 -1      4017 7.79700E-03 3.38087E-04-3.54823E-14
 -1      4018 7.66876E-03 3.35688E-04-3.43029E-14
 -1      4019 7.57848E-03 3.05348E-04-3.37099E-14
 -1      4020 8.02934E-03 3.36598E-04-3.77598E-14
 -1      4021 7.90296E-03 3.33678E-04-3.65501E-14
 -1      4022 7.80688E-03 3.02454E-04-3.59382E-14
 -1      4023 8.00507E-03 2.92702E-04-3.80932E-14
 -1      4024 1.82298E-03-1.20153E-04-2.33824E-15
 -1      4025 1.96597E-03-1.21411E-04-2.67410E-15
 -1      4026 1.75224E-03 1.77761E-04-2.17778E-15
 -1      4027 1.47760E-03 2.23837E-05-1.64858E-15
 -1      4028 1.47618E-03-1.16798E-05-1.64358E-15
 -1      4029 1.58732E-03 3.14284E-05-1.86670E-15
 -1      4030 2.37265E-03 2.93521E-04-3.66890E-15
 -1      4031 2.22823E-03 2.86437E-04-3.27239E-15
 -1      4032 2.43872E-03 2.59944E-04-3.88987E-15
 -1      4033 1.36973E-02 1.77287E-04-8.01135E-14
 -1      4034 1.36892E-02 3.12160E-04-7.98354E-14
 -1      4035 1.37876E-02 3.28324E-04-8.12542E-14
 -1      4036 1.37726E-02 3.57484E-04-8.13582E-14
 -1      4037 7.89483E-03 2.24493E-04-3.76747E-14
 -1      4038 7.94139E-03 2.55631E-04-3.78872E-14
 -1      4039 7.84774E-03 2.60212E-04-3.68072E-14
 -1      4040 3.37203E-03 2.54073E-04-7.09293E-15
 -1      4041 3.22791E-03 2.49877E-04-6.54141E-15
 -1      4042 1.34130E-02 2.79546E-04-7.57795E-14
 -1      4043 1.34292E-02 2.51482E-04-7.59875E-14
 -1      4044 1.33674E-02 3.23729E-04-7.56738E-14
 -1      4045 2.10131E-03 2.36471E-04-2.97788E-15
 -1      4046 3.65980E-03 2.62157E-04-8.25964E-15
 -1      4047 3.51600E-03 2.58165E-04-7.66578E-15
 -1      4048 3.43952E-03 2.18435E-04-7.38487E-15
 -1      4049 2.10927E-03-1.21812E-04-3.03270E-15
 -1      4050 2.25279E-03-1.21424E-04-3.41324E-15
 -1      4051 2.32459E-03-8.48113E-05-3.62901E-15
 -1      4052 2.03716E-03-8.68126E-05-2.86610E-15
 -1      4053 3.94686E-03 2.69988E-04-9.51307E-15
 -1      4054 3.80343E-03 2.66094E-04-8.87551E-15
 -1      4055 3.72720E-03 2.26594E-04-8.57280E-15
 -1      4056 4.23324E-03 2.77540E-04-1.08505E-14
 -1      4057 4.09013E-03 2.73797E-04-1.01716E-14
 -1      4058 4.01412E-03 2.34592E-04-9.84712E-15
 -1      4059 4.30021E-03 2.42415E-04-1.12057E-14
 -1      4060 1.36042E-02 1.92721E-04-7.87987E-14
 -1      4061 1.90238E-03 1.74975E-04-2.52400E-15
 -1      4062 1.74691E-03 1.35898E-04-2.18570E-15
 -1      4063 3.08364E-03 2.45533E-04-6.01190E-15
 -1      4064 2.93924E-03 2.41028E-04-5.50378E-15
 -1      4065 3.15114E-03 2.10024E-04-6.28249E-15
 -1      4066 1.74283E-03 9.84739E-05-2.18827E-15
 -1      4067 2.28749E-03 2.07804E-04-3.49552E-15
 -1      4068 2.09472E-03 1.91674E-04-2.99030E-15
 -1      4069 2.08922E-03 1.47115E-04-2.99833E-15
 -1      4070 8.09012E-03 1.25324E-04-3.91369E-14
 -1      4071 7.87444E-03 1.14889E-04-3.68464E-14
 -1      4072 7.98566E-03 1.19951E-04-3.79992E-14
 -1      4073 7.99902E-03 1.49301E-04-3.85380E-14
 -1      4074 7.79500E-03 1.37442E-04-3.62871E-14
 -1      4075 1.35983E-02 2.51512E-04-7.83711E-14
 -1      4076 1.36032E-02 2.77735E-04-7.84641E-14
 -1      4077 4.86925E-03 2.57524E-04-1.41688E-14
 -1      4078 1.35297E-02 3.89005E-04-7.87673E-14
 -1      4079 1.34816E-02 3.15000E-04-7.71031E-14
 -1      4080 7.87363E-03 2.09180E-04-3.75009E-14
 -1      4081 7.78074E-03 2.11335E-04-3.64287E-14
 -1      4082 7.85771E-03 1.94297E-04-3.73258E-14
 -1      4083 1.36662E-02 3.74764E-04-8.02466E-14
 -1      4084 1.35038E-02 2.31772E-04-7.71464E-14
 -1      4085 1.51761E-03-7.99129E-05-1.70805E-15
 -1      4086 1.71129E-03-1.08832E-04-2.09599E-15
 -1      4087 1.51840E-03-4.15805E-05-1.72070E-15
 -1      4088 1.78210E-03-7.65717E-05-2.26510E-15
 -1      4089 1.62784E-03-3.47450E-05-1.94391E-15
 -1      4090 1.34077E-02 1.73525E-04-7.64624E-14
 -1      4091 1.34970E-02 2.13769E-04-7.72005E-14
 -1      4092 3.50730E-03 1.82816E-04-7.67797E-15
 -1      4093 3.36326E-03 1.78648E-04-7.10551E-15
 -1      4094 2.54137E-03-4.50602E-05-4.27531E-15
 -1      4095 2.68556E-03-4.21684E-05-4.72464E-15
 -1      4096 2.82972E-03-3.89451E-05-5.19584E-15
 -1      4097 2.97380E-03-3.54088E-05-5.68976E-15
 -1      4098 2.75931E-03-3.35108E-06-4.97044E-15
 -1      4099 3.11778E-03-3.16002E-05-6.20489E-15
 -1      4100 3.26161E-03-2.75268E-05-6.74108E-15
 -1      4101 3.04781E-03 4.00762E-06-5.95798E-15
 -1      4102 3.40528E-03-2.32312E-05-7.29970E-15
 -1      4103 3.54877E-03-1.87157E-05-7.87930E-15
 -1      4104 3.33580E-03 1.22035E-05-7.03256E-15
 -1      4105 3.69207E-03-1.40141E-05-8.47953E-15
 -1      4106 3.83514E-03-9.12808E-06-9.10127E-15
 -1      4107 3.62310E-03 2.10892E-05-8.19267E-15
 -1      4108 3.97800E-03-4.08523E-06-9.74435E-15
 -1      4109 4.12061E-03 1.11486E-06-1.04077E-14
 -1      4110 3.90955E-03 3.05708E-05-9.43683E-15
 -1      4111 4.26300E-03 6.46428E-06-1.10917E-14
 -1      4112 4.40509E-03 1.19708E-05-1.17968E-14
 -1      4113 4.19506E-03 4.05766E-05-1.07652E-14
 -1      4114 4.54703E-03 1.76207E-05-1.25206E-14
 -1      4115 4.68852E-03 2.34092E-05-1.32653E-14
 -1      4116 4.47962E-03 5.10786E-05-1.21759E-14
 -1      4117 4.83030E-03 2.94115E-05-1.40309E-14
 -1      4118 4.97122E-03 3.55131E-05-1.48157E-14
 -1      4119 4.76352E-03 6.21242E-05-1.36676E-14
 -1      4120 5.11419E-03 4.17980E-05-1.56205E-14
 -1      4121 5.25507E-03 4.60620E-05-1.64448E-14
 -1      4122 5.04837E-03 7.36674E-05-1.52386E-14
 -1      4123 5.40562E-03 4.51836E-05-1.72894E-14
 -1      4124 5.54402E-03 5.35650E-05-1.81549E-14
 -1      4125 5.34125E-03 7.79950E-05-1.68891E-14
 -1      4126 5.67175E-03 6.71469E-05-1.90402E-14
 -1      4127 5.81037E-03 7.28264E-05-1.99451E-14
 -1      4128 5.61945E-03 8.94952E-05-1.86200E-14
 -1      4129 5.94519E-03 7.83849E-05-2.08714E-14
 -1      4130 6.08194E-03 8.40105E-05-2.18181E-14
 -1      4131 5.88278E-03 1.07628E-04-2.04326E-14
 -1      4132 6.21720E-03 8.98046E-05-2.27842E-14
 -1      4133 6.35216E-03 9.56696E-05-2.37691E-14
 -1      4134 6.15260E-03 1.17859E-04-2.23266E-14
 -1      4135 6.48589E-03 1.01547E-04-2.47730E-14
 -1      4136 6.61861E-03 1.07469E-04-2.57962E-14
 -1      4137 6.42112E-03 1.28339E-04-2.42981E-14
 -1      4138 6.74997E-03 1.13326E-04-2.68375E-14
 -1      4139 6.87997E-03 1.19204E-04-2.78983E-14
 -1      4140 6.68560E-03 1.38806E-04-2.63447E-14
 -1      4141 7.00833E-03 1.24950E-04-2.89765E-14
 -1      4142 7.13498E-03 1.30710E-04-3.00726E-14
 -1      4143 6.94454E-03 1.49094E-04-2.84659E-14
 -1      4144 7.25960E-03 1.36275E-04-3.11873E-14
 -1      4145 7.38210E-03 1.41880E-04-3.23181E-14
 -1      4146 7.19646E-03 1.59069E-04-3.06590E-14
 -1      4147 7.50204E-03 1.47149E-04-3.34654E-14
 -1      4148 7.61920E-03 1.52642E-04-3.46300E-14
 -1      4149 7.43950E-03 1.68654E-04-3.29206E-14
 -1      4150 5.77452E-03 2.45014E-04-1.96670E-14
 -1      4151 5.63556E-03 2.42200E-04-1.87655E-14
 -1      4152 5.21636E-03 2.32181E-04-1.61824E-14
 -1      4153 5.07576E-03 2.28133E-04-1.53622E-14
 -1      4154 4.65174E-03 2.15755E-04-1.30208E-14
 -1      4155 4.50959E-03 2.11687E-04-1.22799E-14
 -1      4156 6.04979E-03 2.51835E-04-2.15289E-14
 -1      4157 5.91232E-03 2.48796E-04-2.05883E-14
 -1      4158 5.83693E-03 2.14109E-04-2.01162E-14
 -1      4159 6.32273E-03 2.57372E-04-2.34699E-14
 -1      4160 6.18677E-03 2.54749E-04-2.24891E-14
 -1      4161 6.11115E-03 2.21682E-04-2.19970E-14
 -1      4162 6.59197E-03 2.62386E-04-2.54871E-14
 -1      4163 6.45790E-03 2.59962E-04-2.44684E-14
 -1      4164 6.38247E-03 2.28250E-04-2.39554E-14
 -1      4165 6.85678E-03 2.67033E-04-2.75775E-14
 -1      4166 6.72497E-03 2.64778E-04-2.65227E-14
 -1      4167 6.64948E-03 2.34347E-04-2.59894E-14
 -1      4168 7.11645E-03 2.71361E-04-2.97417E-14
 -1      4169 6.98728E-03 2.69265E-04-2.86509E-14
 -1      4170 6.91138E-03 2.40070E-04-2.80983E-14
 -1      4171 7.37008E-03 2.75347E-04-3.19757E-14
 -1      4172 7.24403E-03 2.73448E-04-3.08504E-14
 -1      4173 7.16726E-03 2.45401E-04-3.02794E-14
 -1      4174 7.61661E-03 2.78830E-04-3.42812E-14
 -1      4175 7.49423E-03 2.77210E-04-3.31199E-14
 -1      4176 7.41583E-03 2.50217E-04-3.25309E-14
 -1      4177 7.78443E-03 2.67101E-04-3.60668E-14
 -1      4178 7.68434E-03 2.71598E-04-3.50083E-14
 -1      4179 7.60570E-03 2.45685E-04-3.44043E-14
 -1      4180 7.73890E-03 2.33236E-04-3.58621E-14
 -1      4181 1.69656E-03-1.21128E-05-2.09387E-15
 -1      4182 1.73902E-03-4.39902E-05-2.18021E-15
 -1      4183 1.85056E-03-5.34495E-05-2.42878E-15
 -1      4184 1.88607E-03 8.94825E-05-2.51693E-15
 -1      4185 1.73256E-03 5.77268E-05-2.17315E-15
 -1      4186 4.93493E-03 2.23927E-04-1.45621E-14
 -1      4187 4.79346E-03 2.19851E-04-1.37817E-14
 -1      4188 4.71803E-03 1.81888E-04-1.33957E-14
 -1      4189 1.35472E-02 3.52440E-04-7.84644E-14
 -1      4190 1.73024E-03 2.08063E-05-2.16952E-15
 -1      4191 2.43211E-03 2.13610E-04-3.90375E-15
 -1      4192 7.92027E-03 1.69578E-04-3.79079E-14
 -1      4193 1.35992E-02 3.03963E-04-7.85709E-14
 -1      4194 3.79481E-03 1.91122E-04-8.88681E-15
 -1      4195 3.65116E-03 1.86977E-04-8.27165E-15
 -1      4196 3.57534E-03 1.47265E-04-7.97255E-15
 -1      4197 5.49544E-03 2.40130E-04-1.78840E-14
 -1      4198 5.35591E-03 2.36327E-04-1.70234E-14
 -1      4199 5.28024E-03 2.00332E-04-1.65944E-14
 -1      4200 5.55932E-03 2.07589E-04-1.83145E-14
 -1      4201 2.79473E-03 2.36293E-04-5.01808E-15
 -1      4202 2.65014E-03 2.31309E-04-4.55467E-15
 -1      4203 2.86220E-03 2.01180E-04-5.26638E-15
 -1      4204 3.28728E-03 1.38822E-04-6.82783E-15
 -1      4205 3.21905E-03 1.74434E-04-6.55399E-15
 -1      4206 3.07468E-03 1.70191E-04-6.02460E-15
 -1      4207 7.66151E-03 1.84707E-04-3.51595E-14
 -1      4208 7.72089E-03 1.64695E-04-3.57205E-14
 -1      4209 7.82308E-03 1.70055E-04-3.68329E-14
 -1      4210 5.00029E-03 1.90958E-04-1.49558E-14
 -1      4211 4.43411E-03 1.73090E-04-1.19160E-14
 -1      4212 4.36718E-03 2.07596E-04-1.15608E-14
 -1      4213 4.22444E-03 2.03506E-04-1.08613E-14
 -1      4214 1.84155E-03 1.31033E-05-2.41960E-15
 -1      4215 2.07774E-03 1.03341E-04-2.98347E-15
 -1      4216 2.06725E-03 5.97951E-05-2.96438E-15
 -1      4217 2.27001E-03 1.17268E-04-3.48913E-15
 -1      4218 2.25314E-03-4.96861E-05-3.44374E-15
 -1      4219 2.39721E-03-4.75745E-05-3.84809E-15
 -1      4220 2.47060E-03-9.76477E-06-4.07083E-15
 -1      4221 2.49965E-03 1.79496E-04-4.12322E-15
 -1      4222 7.68681E-03 2.00802E-04-3.54266E-14
 -1      4223 7.70661E-03 2.17225E-04-3.55966E-14
 -1      4224 7.63980E-03 2.22832E-04-3.48687E-14
 -1      4225 7.58196E-03 1.90015E-04-3.43419E-14
 -1      4226 4.08147E-03 1.99387E-04-1.01829E-14
 -1      4227 3.93825E-03 1.95263E-04-9.52428E-15
 -1      4228 3.86257E-03 1.55789E-04-9.20314E-15
 -1      4229 4.14888E-03 1.64401E-04-1.05187E-14
 -1      4230 1.97975E-03-5.26147E-05-2.73619E-15
 -1      4231 2.12342E-03-5.13920E-05-3.09861E-15
 -1      4232 2.19636E-03-1.50230E-05-3.29848E-15
 -1      4233 1.93706E-03-1.91069E-05-2.64097E-15
 -1      4234 5.02249E-03 1.32288E-04-1.51034E-14
 -1      4235 4.88197E-03 1.26963E-04-1.43109E-14
 -1      4236 2.97808E-03 3.96073E-05-5.71293E-15
 -1      4237 3.12236E-03 4.36022E-05-6.22869E-15
 -1      4238 3.31107E-03 7.54645E-05-6.93469E-15
 -1      4239 3.45505E-03 7.97442E-05-7.50088E-15
 -1      4240 3.59882E-03 8.40963E-05-8.08780E-15
 -1      4241 3.74240E-03 8.85500E-05-8.69553E-15
 -1      4242 3.88573E-03 9.30694E-05-9.32540E-15
 -1      4243 4.02884E-03 9.76817E-05-9.97626E-15
 -1      4244 4.17168E-03 1.02350E-04-1.06475E-14
 -1      4245 4.31428E-03 1.07113E-04-1.13399E-14
 -1      4246 4.45651E-03 1.11927E-04-1.20520E-14
 -1      4247 4.59861E-03 1.16845E-04-1.27841E-14
 -1      4248 4.74010E-03 1.21838E-04-1.35369E-14
 -1      4249 5.16554E-03 1.37492E-04-1.59154E-14
 -1      4250 5.30462E-03 1.43225E-04-1.67481E-14
 -1      4251 5.45522E-03 1.40492E-04-1.76000E-14
 -1      4252 5.59459E-03 1.43864E-04-1.84731E-14
 -1      4253 5.72211E-03 1.56391E-04-1.93661E-14
 -1      4254 5.85992E-03 1.61119E-04-2.02795E-14
 -1      4255 5.99429E-03 1.65209E-04-2.12137E-14
 -1      4256 6.13086E-03 1.69537E-04-2.21673E-14
 -1      4257 6.26554E-03 1.73752E-04-2.31403E-14
 -1      4258 6.40000E-03 1.77919E-04-2.41327E-14
 -1      4259 6.53303E-03 1.82084E-04-2.51431E-14
 -1      4260 6.66500E-03 1.86113E-04-2.61730E-14
 -1      4261 6.79550E-03 1.90162E-04-2.72213E-14
 -1      4262 6.92453E-03 1.94014E-04-2.82878E-14
 -1      4263 7.05185E-03 1.97900E-04-2.93726E-14
 -1      4264 7.17731E-03 2.01511E-04-3.04746E-14
 -1      4265 7.30068E-03 2.05197E-04-3.15941E-14
 -1      4266 7.42174E-03 2.08459E-04-3.27316E-14
 -1      4267 7.57150E-03 2.28742E-04-3.41448E-14
 -1      4268 2.93017E-03 1.65873E-04-5.51672E-15
 -1      4269 2.78556E-03 1.61469E-04-5.03051E-15
 -1      4270 2.99857E-03 1.30429E-04-5.76903E-15
 -1      4271 2.73365E-03 5.93401E-05-4.88799E-15
 -1      4272 2.87817E-03 6.32320E-05-5.36722E-15
 -1      4273 2.63660E-03 1.47573E-04-4.55748E-15
 -1      4274 2.41882E-03 1.31107E-04-3.90532E-15
 -1      4275 2.40773E-03 8.57055E-05-3.88550E-15
 -1      4276 2.70522E-03 1.12580E-04-4.78664E-15
 -1      4277 1.97095E-03 1.56819E-05-2.72636E-15
 -1      4278 2.58517E-03 4.62738E-05-4.41983E-15
 -1      4279 2.16230E-03 2.70574E-05-3.21183E-15
 -1      4280 7.46513E-03 1.85916E-04-3.31818E-14
 -1      4281 2.44063E-03 4.26683E-05-3.98568E-15
 -1      4282 3.24223E-03 1.11058E-04-6.66490E-15
 -1      4283 2.29235E-03 3.01491E-05-3.56327E-15
 -1      4284 2.95350E-03 1.02763E-04-5.61905E-15
 -1      4285 3.09794E-03 1.06896E-04-6.13092E-15
 -3
    1PSTEP                         2           1           1          
  100CL  101 1.000000000        4285                     0    1           1
 -4  STRESS      6    1
 -5  SXX         1    4    1    1
 -5  SYY         1    4    2    2
 -5  SZZ         1    4    3    3
 -5  SXY         1    4    1    2
 -5  SYZ         1    4    2    3
 -5  SZX         1    4    3    1
 -1         1 2.28613E+01 1.11572E+01 9.94796E-01-1.56449E+01 1.41942E-13-9.83102E-14
 -1         2-7.00539E-01-2.49580E+01-3.41981E+00-1.96275E-02-2.06603E-12 1.52954E-13
 -1         3 1.99802E+01-2.09975E-02 4.11945E-02-2.08016E-02-5.31572E-13-5.36271E-13
 -1         4 1.99803E+01-2.02336E-02 4.59513E-02 2.04343E-02 4.53550E-13-1.30379E-13
 -1         5 3.30796E+01 6.20231E+00 2.76931E+00 6.27191E+00-2.56531E-14 2.03869E-12
 -1         6 3.48499E+01 1.19546E+01 4.99848E+00-8.44156E+00-1.13812E-13 2.32024E-12
 -1         7 2.03004E+01 5.94878E+00-1.27757E-01-4.62676E+00-1.68199E-14 6.22852E-13
 -1         8 1.92242E+01 5.80015E+00 4.90602E-02-3.21625E+00-2.74503E-14 4.80367E-14
 -1         9 1.87464E+01 5.65414E+00 4.79216E-02-2.48720E+00-2.62394E-14-2.79277E-13
 -1        10 1.85550E+01 5.58953E+00 5.04090E-02-1.92379E+00-1.89397E-14-4.60409E-13
 -1        11 1.84791E+01 5.56257E+00 4.97676E-02-1.43707E+00-1.46400E-14-5.54728E-13
 -1        12 1.84587E+01 5.55392E+00 4.83042E-02-1.00228E+00-1.26273E-14-6.13654E-13
 -1        13 1.84677E+01 5.55532E+00 4.70735E-02-5.86960E-01-8.28721E-15-6.37844E-13
 -1        14 1.84951E+01 5.56298E+00 4.64529E-02-1.85991E-01-3.94650E-15-6.55680E-13
 -1        15 1.85364E+01 5.57542E+00 4.65696E-02 2.11238E-01 1.75901E-15-6.68925E-13
 -1        16 1.85918E+01 5.59274E+00 4.74469E-02 6.14852E-01 5.27096E-15-6.69944E-13
 -1        17 1.86670E+01 5.61659E+00 4.90079E-02 1.03600E+00 7.00178E-15-6.58690E-13
 -1        18 1.87719E+01 5.65072E+00 5.08060E-02 1.48023E+00 1.13763E-14-6.25248E-13
 -1        19 1.89370E+01 5.70470E+00 5.15809E-02 1.98253E+00 1.63498E-14-5.57956E-13
 -1        20 1.92221E+01 5.79858E+00 4.89554E-02 2.56890E+00 2.27630E-14-4.16171E-13
 -1        21 1.97940E+01 5.98776E+00 4.64957E-02 3.31970E+00 3.08503E-14-1.23304E-13
 -1        22 2.13828E+01 6.43495E+00 1.41959E-01 4.54747E+00 6.34215E-15 5.10633E-13
 -1        23 2.24100E+01-1.34375E+00-9.16607E-01-6.97134E-01-7.30527E-14 1.91794E-12
 -1        24 1.88234E+01-9.73950E-02-3.03475E-01 6.14087E-02-1.89302E-14 1.55944E-12
 -1        25 1.81495E+01-5.52447E-02-6.76118E-02 5.94358E-02-1.34519E-14 1.17881E-12
 -1        26 1.79545E+01-2.17006E-02-6.45094E-03 3.23819E-02 5.87692E-15 8.89049E-13
 -1        27 1.79700E+01-1.15767E-02 1.53997E-03 2.22293E-02-1.29753E-14 7.19473E-13
 -1        28 1.80864E+01-6.07786E-03 1.81724E-03 1.60467E-02-2.00745E-14 5.58485E-13
 -1        29 1.82469E+01-2.93718E-03 1.85903E-03 1.19433E-02 9.57547E-15 4.18030E-13
 -1        30 1.84199E+01-1.05549E-03 2.23608E-03 8.96360E-03 2.76658E-15 3.15432E-13
 -1        31 1.85867E+01 1.09462E-04 2.72908E-03 6.63187E-03 1.24901E-14 2.29098E-13
 -1        32 1.87358E+01 8.90394E-04 2.79570E-03 4.64848E-03-2.77076E-14 1.30776E-13
 -1        33 1.88582E+01 1.54263E-03-9.17710E-04 2.73697E-03 2.32094E-14 8.97255E-14
 -1        34 1.89423E+01 1.83750E-03-2.29523E-02 2.21206E-04-3.99031E-14 3.48775E-14
 -1        35 1.89636E+01-1.16046E-03-1.07865E-01-3.74741E-03 1.03452E-14-7.21992E-14
 -1        36 1.89464E+01 8.12599E-02-2.44914E-01 8.92393E-02 1.99753E-15-1.86171E-14
 -1        37 2.00738E+01-5.27645E-02 1.98970E-01 9.22984E-02-4.48652E-14-7.87426E-14
 -1        38 2.00183E+01 5.60626E-03 1.62922E-01-7.63319E-03-1.70850E-14-1.68636E-13
 -1        39 1.99847E+01-2.03131E-03 4.01533E-02-3.63564E-03 4.45248E-14-5.41633E-14
 -1        40 2.00509E+01-3.78879E-03-4.81616E-03-1.25506E-03-8.03578E-15-8.12100E-14
 -1        41 2.01791E+01-3.12979E-03-8.53967E-03 4.24057E-04 1.69715E-14-3.08576E-13
 -1        42 2.03546E+01-3.61726E-03-8.32986E-03 1.45733E-03-1.48092E-14-3.66628E-13
 -1        43 2.05841E+01-3.91369E-03-5.76068E-03 3.01511E-03-4.10033E-15-1.67464E-13
 -1        44 2.08767E+01-4.75420E-03-5.98393E-03 4.75849E-03 2.35419E-14-5.23442E-14
 -1        45 2.12451E+01-5.36911E-03-7.22974E-03 7.03832E-03-3.83481E-14-7.35969E-14
 -1        46 2.17021E+01-5.56042E-03-8.35511E-03 1.01478E-02 1.90823E-14-1.72645E-13
 -1        47 2.22553E+01-4.89262E-03-8.50531E-03 1.41029E-02-1.22744E-14-1.27179E-13
 -1        48 2.28996E+01-2.76768E-03-6.54375E-03 1.85633E-02 1.16965E-13 1.88696E-13
 -1        49 2.36056E+01 1.52103E-03-8.58972E-04 2.25147E-02-1.50977E-14 2.42641E-13
 -1        50 2.43039E+01 8.54947E-03 1.04828E-02 2.37673E-02 1.46106E-14-2.09849E-14
 -1        51 2.48681E+01 1.81622E-02 2.86796E-02 1.84803E-02-1.02231E-14-1.44209E-13
 -1        52 2.51084E+01 2.84695E-02 5.16988E-02 1.46491E-03 6.11262E-14-6.41947E-14
 -1        53 2.47967E+01 3.49306E-02 7.08676E-02-3.12904E-02-1.13033E-13-4.39336E-13
 -1        54 2.37558E+01 3.09368E-02 6.97784E-02-7.66398E-02 9.12066E-14-4.75966E-13
 -1        55 2.20179E+01 1.16730E-02 3.20964E-02-1.17244E-01-2.13744E-14-1.33581E-13
 -1        56 1.99745E+01-1.94462E-02-3.96403E-02-1.23591E-01 4.77434E-14 1.46209E-13
 -1        57 1.83434E+01-4.82049E-02-1.11306E-01-7.49083E-02 7.16788E-14 5.01283E-13
 -1        58 1.78298E+01-5.72918E-02-1.34841E-01 1.37536E-02-4.28876E-14 4.16670E-13
 -1        59 1.86639E+01-4.06907E-02-9.25381E-02 9.44998E-02 1.42321E-14 4.53713E-13
 -1        60 2.04308E+01-9.00619E-03-1.52450E-02 1.26207E-01-5.52907E-14 3.08975E-13
 -1        61 2.23668E+01 1.98728E-02 4.90859E-02 1.06007E-01 1.21463E-13 3.45821E-13
 -1        62 2.38242E+01 3.45832E-02 7.50466E-02 6.05521E-02-1.56236E-14 3.86816E-13
 -1        63 2.45249E+01 3.48077E-02 6.81625E-02 1.72020E-02-3.33759E-14 5.96734E-13
 -1        64 2.45166E+01 2.65047E-02 4.66538E-02-1.16093E-02-1.02007E-13 3.05907E-13
 -1        65 2.40045E+01 1.57499E-02 2.44880E-02-2.57656E-02 4.45597E-14 1.76859E-13
 -1        66 2.32136E+01 6.10924E-03 7.73599E-03-2.99790E-02 1.05893E-13 2.79806E-13
 -1        67 2.23247E+01-1.36085E-03-3.45036E-03-2.88979E-02 7.42599E-15 8.00013E-13
 -1        68 2.14654E+01-6.99369E-03-1.15747E-02-2.52297E-02-5.90948E-14 5.97027E-13
 -1        69 2.07287E+01-1.13495E-02-1.93187E-02-1.91982E-02-7.45376E-14-2.52637E-13
 -1        70 2.01998E+01-1.22836E-02-2.44862E-02-6.49001E-03 5.74513E-14-7.12783E-13
 -1        71 1.99680E+01 2.79141E-03-6.95379E-03 1.22283E-02-1.53758E-13-9.02297E-13
 -1        72 2.12730E+01-4.08502E-01-9.86753E-01-3.16154E-01 3.77198E-14 1.78438E-12
 -1        73 1.95547E+01-6.61820E-02-2.92414E-01-5.44774E-02 1.86136E-14 1.24786E-12
 -1        74 1.89030E+01-2.05073E-02-6.42928E-02-2.05128E-02 7.07550E-15 8.90380E-13
 -1        75 1.86908E+01-9.83981E-03-9.12499E-03-1.54814E-02 3.38130E-15 6.22625E-13
 -1        76 1.86913E+01-5.12289E-03 8.47189E-04-1.23327E-02 6.78868E-15 3.94259E-13
 -1        77 1.87924E+01-2.58066E-03 1.86093E-03-1.00001E-02 9.54740E-15 1.67653E-13
 -1        78 1.89378E+01-1.12923E-03 1.93244E-03-8.20648E-03-2.36145E-15 8.15294E-14
 -1        79 1.90968E+01-2.95912E-04 2.02376E-03-6.72177E-03 1.36765E-14-4.65604E-14
 -1        80 1.92523E+01 1.51545E-04 2.04891E-03-5.44305E-03-3.05475E-14-1.79830E-13
 -1        81 1.93956E+01 3.42242E-04 2.25696E-03-4.35755E-03 3.97316E-14-1.64658E-13
 -1        82 1.95233E+01 6.45219E-04 3.69835E-03-3.51255E-03-8.98914E-15-2.51660E-13
 -1        83 1.96320E+01 1.88430E-04 5.55986E-03-1.98580E-03 4.06389E-17-2.76219E-13
 -1        84 1.97169E+01 1.17980E-04 1.19954E-03-2.25601E-04-9.95439E-15-1.82580E-13
 -1        85 1.97954E+01-5.23387E-04-9.88139E-03-5.66847E-04 8.27517E-15-1.70375E-13
 -1        86 1.98771E+01-2.77392E-04-5.18607E-03-5.24495E-04 3.72433E-14-5.02521E-13
 -1        87 1.99542E+01-5.97251E-04-2.03402E-03 4.68206E-04-4.12742E-14-4.70442E-13
 -1        88 2.00355E+01-9.77386E-04-1.47468E-03 7.56639E-04-3.59506E-14-2.16641E-13
 -1        89 2.01330E+01-1.43291E-03-1.82405E-03 9.08546E-04 5.81732E-14-6.07530E-13
 -1        90 2.02554E+01-1.93164E-03-2.76208E-03 1.12933E-03-3.34027E-14-8.07096E-13
 -1        91 2.04131E+01-2.43573E-03-3.87588E-03 1.11820E-03-3.73414E-14-5.61020E-13
 -1        92 2.06189E+01-2.90330E-03-5.06136E-03 7.04141E-04 2.29651E-14-4.06778E-13
 -1        93 2.08863E+01-3.23751E-03-6.20904E-03-2.26683E-04 2.09876E-14-4.32774E-13
 -1        94 2.12273E+01-3.29363E-03-7.14046E-03-1.83889E-03-2.18161E-14-6.79747E-13
 -1        95 2.16506E+01-2.84853E-03-7.51496E-03-4.35143E-03 2.27984E-14-4.72361E-13
 -1        96 2.21575E+01-1.58610E-03-6.71049E-03-7.98101E-03 7.09946E-14-1.98294E-13
 -1        97 2.27348E+01 8.73864E-04-3.73245E-03-1.27902E-02-5.37945E-14 1.04606E-13
 -1        98 2.33454E+01 4.85052E-03 2.76842E-03-1.83773E-02 2.60003E-15-5.44096E-14
 -1        99 2.39153E+01 1.03006E-02 1.41165E-02-2.33509E-02 3.68683E-16-1.81565E-13
 -1       100 2.43230E+01 1.63057E-02 3.04884E-02-2.46909E-02-2.01797E-14-2.13776E-13
 -1       101 2.44009E+01 2.05441E-02 4.88601E-02-1.75619E-02-4.24335E-15-4.66696E-13
 -1       102 2.39676E+01 1.94080E-02 6.08700E-02 3.17057E-03 4.22164E-14-5.91310E-13
 -1       103 2.29097E+01 9.79536E-03 5.36013E-02 3.83732E-02-2.19685E-14-4.41053E-13
 -1       104 2.13061E+01-7.39275E-03 1.71703E-02 7.81938E-02 5.15000E-14-5.13901E-13
 -1       105 1.95234E+01-2.51478E-02-4.21223E-02 1.00727E-01-7.05577E-15-6.26652E-13
 -1       106 1.81567E+01-3.37302E-02-9.62008E-02 8.44770E-02 1.01672E-14-7.57590E-13
 -1       107 1.77557E+01-2.82436E-02-1.11106E-01 2.92078E-02 2.94946E-15-1.35610E-12
 -1       108 1.84841E+01-1.26217E-02-7.64946E-02-3.74750E-02 3.23183E-14-1.47738E-12
 -1       109 2.00058E+01 4.48150E-03-1.52166E-02-8.13997E-02 4.45694E-15-1.30534E-12
 -1       110 2.17083E+01 1.61410E-02 3.75893E-02-8.83252E-02-4.55908E-14-1.39842E-12
 -1       111 2.30523E+01 2.01102E-02 6.20280E-02-6.77176E-02 2.73996E-14-1.08469E-12
 -1       112 2.37748E+01 1.80401E-02 6.00974E-02-3.76323E-02-1.42111E-13-3.84800E-13
 -1       113 2.38779E+01 1.28997E-02 4.42435E-02-1.12195E-02 1.00549E-13-2.25551E-14
 -1       114 2.35114E+01 7.14247E-03 2.56390E-02 6.73401E-03-1.46381E-13 2.16469E-13
 -1       115 2.28614E+01 2.06055E-03 1.01810E-02 1.68262E-02 1.12830E-13-8.23994E-15
 -1       116 2.20903E+01-2.06096E-03-1.09868E-03 2.15486E-02 3.71476E-15-6.48516E-13
 -1       117 2.13217E+01-5.44882E-03-9.90412E-03 2.31033E-02-8.66915E-15-1.02787E-12
 -1       118 2.06517E+01-8.17797E-03-1.83197E-02 2.22291E-02-2.43539E-14-7.51847E-13
 -1       119 2.01700E+01-8.82257E-03-2.39204E-02 1.57466E-02 4.20920E-15-1.12962E-12
 -1       120 1.99732E+01 8.74617E-03-3.31685E-03-5.51246E-03 2.54397E-13-1.14730E-12
 -1       121 1.99988E+01-1.34934E-02-4.30021E-03-1.25030E-02-1.13146E-12 1.31705E-13
 -1       122 1.99884E+01 1.88872E-01-2.24860E-02 8.13776E-03-7.63024E-13-4.47405E-14
 -1       123 1.99920E+01 6.61514E-01-1.49670E-02 1.92116E-02-3.33534E-13-3.63596E-14
 -1       124 1.99973E+01 1.28314E+00-4.81768E-03 2.34018E-02-4.59058E-13 5.19919E-14
 -1       125 2.00029E+01 1.94876E+00 4.32485E-03 2.32515E-02-1.81237E-13-3.49697E-14
 -1       126 2.00083E+01 2.55406E+00 1.21556E-02 2.00981E-02-1.08586E-12-1.41943E-13
 -1       127 2.00123E+01 3.03303E+00 1.83071E-02 1.39651E-02-4.54821E-13 1.86309E-13
 -1       128 2.00148E+01 3.30593E+00 2.20798E-02 5.65354E-03-4.71682E-13-7.55841E-15
 -1       129 2.00152E+01 3.33072E+00 2.27077E-02-3.67880E-03-5.05952E-13-4.85733E-15
 -1       130 2.00134E+01 3.10080E+00 1.99978E-02-1.25977E-02-1.00130E-12-1.04419E-13
 -1       131 2.00094E+01 2.64722E+00 1.42645E-02-1.99788E-02-1.97222E-12-2.40631E-13
 -1       132 2.00043E+01 2.04429E+00 6.41076E-03-2.40873E-02-1.77834E-12 3.31659E-13
 -1       133 1.99982E+01 1.35925E+00-3.57197E-03-2.50401E-02-9.41896E-13 8.71973E-14
 -1       134 1.99907E+01 7.03651E-01-1.61457E-02-2.28519E-02-2.02740E-13 1.21249E-13
 -1       135 1.99898E+01 2.10071E-01-2.08343E-02-1.36417E-02 6.79454E-13-6.07641E-14
 -1       136 1.99894E+01-5.56393E-03-3.81071E-03 2.55963E-02 8.33497E-13-1.86090E-13
 -1       137-1.43629E+00-2.01451E+01-3.10615E+00-3.79498E+00-8.55122E-13-2.56829E-13
 -1       138-1.54558E+00-9.37402E+00-2.33719E+00-3.04415E+00 2.64899E-13 2.29927E-13
 -1       139 2.47802E+00 2.73123E+00-1.16489E+00 2.94759E+00 1.90881E-12 1.48642E-12
 -1       140 1.39116E+01 1.00828E+01 2.46789E-01 1.17932E+01 1.34087E-12 1.25400E-12
 -1       141 3.38938E+01 1.03099E+01 1.77653E+00 1.82047E+01 1.03889E-12 1.89115E-12
 -1       142 5.40036E+01 5.21011E+00 2.95948E+00 1.55425E+01 5.01738E-13 1.57607E-12
 -1       143 6.52390E+01 1.31536E+00 3.54719E+00 4.73022E+00 4.40342E-14 1.14692E-12
 -1       144 6.22131E+01 2.47600E+00 3.39074E+00-9.24099E+00-6.97524E-14 1.61982E-13
 -1       145 4.61332E+01 7.38925E+00 2.49258E+00-1.73018E+01 1.11772E-13-2.62068E-13
 -1       146 2.54670E+01 1.08634E+01 1.14634E+00-1.63036E+01 4.94937E-13-5.07983E-13
 -1       147 9.41397E+00 8.35420E+00-2.53536E-01-8.91709E+00 4.38594E-13-6.40321E-13
 -1       148 4.76471E-01-6.56684E-01-1.56259E+00-4.84063E-01 1.01630E-12-4.79117E-13
 -1       149-1.81576E+00-1.30142E+01-2.61479E+00 4.06941E+00 1.61576E-12-5.39541E-13
 -1       150-1.01894E+00-2.22840E+01-3.20865E+00 2.94128E+00 1.51965E-12-1.64534E-13
 -1       151-7.86918E-01-2.41231E+01-3.33231E+00-1.48107E+00 1.07725E-12-1.14145E-14
 -1       152-1.71235E+00-1.65965E+01-2.86942E+00-4.24487E+00-2.77833E-13-7.16788E-14
 -1       153-8.22599E-01-4.52122E+00-1.93956E+00-1.45321E+00-1.21914E-12-7.68302E-13
 -1       154 6.92835E+00 6.70831E+00-5.64208E-01 7.00344E+00-1.34665E-12-1.02857E-12
 -1       155 2.26154E+01 1.10206E+01 9.44824E-01 1.55709E+01-1.29768E-12-1.72901E-12
 -1       156 4.27633E+01 8.30972E+00 2.31327E+00 1.80802E+01-9.98840E-13-2.21256E-12
 -1       157 5.95989E+01 3.36143E+00 3.26895E+00 1.22455E+01-4.19581E-13-1.88849E-12
 -1       158 6.65053E+01 9.41209E-01 3.63438E+00 9.42002E-02 2.83662E-14-1.86205E-12
 -1       159 5.99401E+01 3.30779E+00 3.29429E+00-1.21672E+01 2.49828E-13-1.46405E-12
 -1       160 4.29998E+01 8.42013E+00 2.34076E+00-1.83358E+01 1.68088E-13-7.63833E-13
 -1       161 5.55361E+00 6.00416E+00-7.01984E-01-5.97940E+00-5.89140E-13 4.52971E-13
 -1       162-1.34578E+00-6.60552E+00-2.16066E+00 2.41693E+00-8.32889E-13 3.44974E-13
 -1       163-1.53736E+00-1.97706E+01-3.12397E+00 4.12138E+00-2.18353E-12 2.80082E-13
 -1       164 2.05095E+01 3.61197E+00-5.61150E-02-3.53511E+00-2.99833E-13 2.94802E-13
 -1       165 1.95568E+01 4.12171E+00-4.48507E-02-2.75263E+00-3.03723E-13-6.84591E-14
 -1       166 1.91344E+01 4.39263E+00-3.06300E-02-2.15342E+00-2.64603E-13-2.85112E-13
 -1       167 1.89426E+01 4.53808E+00-2.30197E-02-1.64185E+00-2.09113E-13-4.18139E-13
 -1       168 1.88583E+01 4.62812E+00-1.92064E-02-1.19322E+00-1.56056E-13-4.75999E-13
 -1       169 1.88293E+01 4.68844E+00-1.72065E-02-7.71427E-01-1.16802E-13-5.25167E-13
 -1       170 1.88353E+01 4.72614E+00-1.62620E-02-3.69987E-01-6.23293E-14-5.32270E-13
 -1       171 1.88664E+01 4.74485E+00-1.60243E-02 2.25415E-02-1.01063E-14-5.46998E-13
 -1       172 1.89202E+01 4.74540E+00-1.64047E-02 4.16300E-01 3.20611E-14-5.57132E-13
 -1       173 1.90004E+01 4.72628E+00-1.75069E-02 8.21588E-01 7.76808E-14-5.65440E-13
 -1       174 1.91154E+01 4.68404E+00-1.97300E-02 1.24285E+00 1.22114E-13-5.47531E-13
 -1       175 1.92931E+01 4.60700E+00-2.41261E-02 1.71015E+00 1.89845E-13-4.88252E-13
 -1       176 1.95839E+01 4.47059E+00-3.30914E-02 2.24021E+00 2.48518E-13-3.95604E-13
 -1       177 2.01207E+01 4.20248E+00-4.76146E-02 2.86366E+00 3.10882E-13-2.11137E-13
 -1       178 2.12966E+01 3.48451E+00-6.01806E-02 3.55846E+00 3.14573E-13 1.55709E-13
 -1       179 2.26264E+01 1.14830E+00-3.38939E-01 3.03325E+00 2.50116E-13 6.78693E-13
 -1       180 2.14153E+01 8.40725E-01 6.12204E-04-1.91812E+00-2.44617E-13 7.01630E-13
 -1       181 1.99254E+01 1.87393E-01-9.69783E-03-7.47250E-01-2.30998E-13 5.66516E-13
 -1       182 1.91689E+01 1.00121E-01 1.33261E-02-2.77086E-01-1.80678E-13 4.40718E-13
 -1       183 1.88397E+01 4.63994E-02 9.80577E-03-6.29561E-02-1.25705E-13 3.07609E-13
 -1       184 1.87167E+01 2.20624E-02 5.05774E-03 4.23076E-02-1.08172E-13 2.30615E-13
 -1       185 1.87076E+01 9.03045E-03 2.36581E-03 9.34646E-02-9.55920E-14 2.06160E-13
 -1       186 1.87588E+01 1.47652E-03 1.10301E-03 1.14318E-01-5.50591E-14 1.38452E-13
 -1       187 1.88389E+01-3.08491E-03 5.47182E-04 1.17235E-01-5.16681E-14 9.33362E-14
 -1       188 1.89291E+01-6.00717E-03 3.39563E-04 1.09144E-01-7.64235E-14 7.77941E-14
 -1       189 1.90184E+01-8.24212E-03-1.99510E-04 9.38691E-02-5.45492E-14 5.75776E-14
 -1       190 1.91001E+01-1.08095E-02-4.43162E-03 7.30458E-02-4.90787E-14-7.95022E-14
 -1       191 1.91692E+01-1.52831E-02-2.46126E-02 4.64564E-02-5.43825E-14-9.53881E-14
 -1       192 1.92104E+01-1.75074E-02-8.60952E-02 8.07208E-03 2.12959E-14-1.31853E-13
 -1       193 1.92650E+01 1.19958E-01 1.29470E-03-1.56296E-01-1.37772E-14-1.15574E-13
 -1       194 1.99855E+01 8.81484E-02 1.92691E-01-1.48516E-01-5.26558E-14-1.18724E-14
 -1       195 1.99519E+01 2.71543E-02 4.88988E-02 1.60148E-02 3.92698E-15-6.02574E-14
 -1       196 2.00206E+01 1.22244E-02-1.15694E-03 7.43525E-02-4.79998E-15-1.03268E-13
 -1       197 2.01368E+01 1.15297E-02-6.86465E-03 1.11482E-01-8.54002E-14-1.31691E-13
 -1       198 2.02792E+01 1.27197E-02-6.76547E-03 1.45823E-01-7.79307E-14-1.80070E-13
 -1       199 2.04567E+01 1.71608E-02-1.39040E-03 1.86812E-01 5.50201E-14-2.15313E-13
 -1       200 2.06740E+01 2.07026E-02 5.10509E-04 2.35682E-01 6.90919E-14-1.38680E-13
 -1       201 2.09409E+01 2.46693E-02 1.09820E-03 2.94054E-01-3.99589E-14-1.20650E-13
 -1       202 2.12657E+01 2.79889E-02 1.13271E-03 3.61381E-01-2.16580E-15-9.00046E-14
 -1       203 2.16535E+01 2.88289E-02 8.27222E-04 4.33433E-01 7.14167E-14 4.89821E-15
 -1       204 2.21027E+01 2.44424E-02 2.03557E-04 5.00326E-01 4.23708E-14-5.43460E-14
 -1       205 2.25993E+01 1.08723E-02-7.93637E-04 5.44073E-01 3.60588E-14-8.88714E-14
 -1       206 2.31112E+01-1.68655E-02-2.12844E-03 5.36099E-01-1.26457E-13-1.02849E-13
 -1       207 2.35805E+01-6.31160E-02-3.53283E-03 4.37035E-01-2.90659E-14-1.19383E-13
 -1       208 2.39200E+01-1.26906E-01-4.43187E-03 2.03985E-01-2.35450E-14-2.01369E-14
 -1       209 2.40188E+01-1.93537E-01-4.11750E-03-1.86999E-01-1.69230E-13-9.59857E-14
 -1       210 2.37693E+01-2.26378E-01-2.26582E-03-6.99005E-01-4.26143E-14 1.12818E-13
 -1       211 2.31243E+01-1.72333E-01 3.06530E-04-1.18819E+00 6.93872E-14-6.30797E-14
 -1       212 2.21783E+01-7.10107E-04 1.68714E-03-1.40740E+00 1.65379E-13 8.17194E-14
 -1       213 2.12169E+01 2.36887E-01 9.86150E-04-1.12929E+00 2.60252E-13 2.21969E-13
 -1       214 2.06367E+01 3.99549E-01-4.89852E-04-3.59293E-01-6.91201E-15 2.02562E-13
 -1       215 2.07121E+01 3.67130E-01-2.27760E-04 5.72231E-01-4.20393E-14 3.69090E-13
 -1       216 2.13875E+01 1.64440E-01 1.19858E-03 1.21284E+00-1.84298E-13 1.16500E-13
 -1       217 2.23218E+01-6.69748E-02 1.62216E-03 1.32155E+00-5.60138E-14 2.37076E-13
 -1       218 2.31286E+01-2.05350E-01-3.77203E-04 9.82073E-01-1.12216E-13-4.35693E-14
 -1       219 2.35766E+01-2.28496E-01-3.11089E-03 4.51131E-01 2.40693E-14 2.87511E-14
 -1       220 2.36218E+01-1.80875E-01-4.49679E-03-4.80070E-02-4.44718E-14 2.72194E-14
 -1       221 2.33368E+01-1.12275E-01-4.31093E-03-4.05964E-01 1.13407E-13 2.14414E-13
 -1       222 2.28368E+01-5.14084E-02-2.97519E-03-6.06481E-01 9.30085E-14 5.34607E-13
 -1       223 2.22328E+01-6.88276E-03-1.25709E-03-6.77678E-01 1.54831E-13 5.34269E-13
 -1       224 2.16138E+01 2.40203E-02 2.85407E-04-6.55259E-01-1.52023E-13 2.35912E-13
 -1       225 2.10455E+01 4.82190E-02 1.22984E-03-5.64448E-01-3.89492E-13-4.46744E-14
 -1       226 2.05765E+01 7.29149E-02 1.67266E-03-4.16271E-01-1.42524E-13-1.19634E-13
 -1       227 2.02279E+01 9.81469E-02 1.28168E-03-2.17873E-01-1.15618E-13-2.11387E-13
 -1       228 2.11584E+01 2.77627E-01-5.16242E-02 1.17365E+00 2.58241E-13 5.48254E-13
 -1       229 2.00524E+01 1.26810E-01 8.35780E-03 4.50025E-01 1.73984E-13 3.69892E-13
 -1       230 1.95362E+01 5.78055E-02 1.27927E-02 1.57301E-01 1.56068E-13 2.06095E-13
 -1       231 1.93165E+01 2.74263E-02 7.65407E-03 1.88039E-02 1.29730E-13 9.43208E-14
 -1       232 1.92559E+01 1.28161E-02 3.82864E-03-4.95386E-02 8.93489E-14 2.39925E-14
 -1       233 1.92803E+01 4.94466E-03 1.89874E-03-8.13415E-02 4.72729E-14-3.93212E-14
 -1       234 1.93474E+01 5.22974E-04 9.79981E-04-9.27715E-02 7.17504E-14-8.08857E-14
 -1       235 1.94330E+01-1.86715E-03 5.31486E-04-9.27123E-02 7.52360E-14-1.40221E-13
 -1       236 1.95230E+01-2.90404E-03 5.31129E-04-8.65993E-02 3.85881E-14-2.77555E-13
 -1       237 1.96099E+01-3.11874E-03 1.54030E-03-7.78047E-02-1.88021E-14-2.09943E-13
 -1       238 1.96919E+01-4.41259E-03 4.16849E-03-6.76879E-02 2.26020E-14-1.73154E-13
 -1       239 1.97672E+01-1.10768E-03 3.53108E-03-5.60208E-02 5.51989E-15-2.42272E-13
 -1       240 1.98400E+01-9.09172E-04-5.93925E-03-5.72339E-02 5.73482E-14-3.07502E-13
 -1       241 1.99147E+01-2.04740E-03-3.79146E-03-5.49431E-02 9.45667E-14-3.50164E-13
 -1       242 1.99829E+01 5.47210E-04-9.35134E-04-5.35337E-02-9.67795E-14-2.09074E-13
 -1       243 2.00576E+01 3.32464E-03 2.64734E-04-6.08429E-02-6.05825E-15-2.97487E-13
 -1       244 2.01471E+01 4.99695E-03 4.98222E-04-7.42579E-02 2.18795E-13-4.47918E-13
 -1       245 2.02572E+01 7.12714E-03 3.94945E-04-9.34687E-02 3.22906E-14-4.24872E-13
 -1       246 2.03961E+01 9.86539E-03 3.75622E-04-1.20258E-01-1.15775E-13-4.34761E-13
 -1       247 2.05731E+01 1.27638E-02 3.89929E-04-1.55546E-01-1.20200E-13-3.17950E-13
 -1       248 2.07972E+01 1.54872E-02 3.69359E-04-1.99124E-01-8.14019E-15-1.82918E-13
 -1       249 2.10763E+01 1.76121E-02 2.71298E-04-2.49628E-01 9.16428E-14-2.51858E-13
 -1       250 2.14150E+01 1.83890E-02 6.25594E-05-3.03876E-01-1.28852E-13-3.55770E-13
 -1       251 2.18122E+01 1.65331E-02-2.69214E-04-3.55602E-01-1.54092E-13-4.41832E-14
 -1       252 2.22565E+01 1.00658E-02-6.88691E-04-3.93726E-01-8.82955E-14 1.08360E-13
 -1       253 2.27210E+01-3.63935E-03-1.06192E-03-4.00547E-01 9.47555E-14 2.25593E-13
 -1       254 2.31565E+01-2.72356E-02-1.12036E-03-3.51037E-01 7.87577E-14 9.00619E-14
 -1       255 2.34874E+01-6.15291E-02-5.04433E-04-2.15778E-01 3.25243E-14-7.88536E-14
 -1       256 2.36148E+01-1.01777E-01 9.91074E-04 2.81790E-02 5.42522E-14-2.35125E-13
 -1       257 2.34353E+01-1.33023E-01 2.95138E-03 3.74797E-01-1.08143E-14-1.68523E-13
 -1       258 2.28848E+01-1.29140E-01 3.95538E-03 7.58626E-01-3.31146E-14-7.60763E-14
 -1       259 2.20028E+01-6.41642E-02 2.17372E-03 1.03879E+00 2.19246E-13-1.69744E-13
 -1       260 2.09863E+01 5.99115E-02-2.69675E-03 1.03891E+00-2.24590E-14-2.96164E-13
 -1       261 2.01684E+01 1.90734E-01-7.92029E-03 6.62416E-01 7.11488E-14-2.50991E-13
 -1       262 1.98758E+01 2.48321E-01-9.09036E-03 1.06898E-02 3.05166E-13-4.78471E-13
 -1       263 2.02288E+01 1.92335E-01-4.63535E-03-6.34197E-01-1.50197E-14-7.18918E-13
 -1       264 2.10555E+01 6.24940E-02 2.05239E-03-9.94169E-01-1.12385E-13-4.86097E-13
 -1       265 2.20078E+01-6.16806E-02 5.83495E-03-9.75959E-01 3.98683E-14-4.34168E-13
 -1       266 2.27653E+01-1.28558E-01 5.18061E-03-6.81335E-01-2.70430E-13-2.47599E-13
 -1       267 2.31597E+01-1.35232E-01 2.32778E-03-2.86456E-01-3.22105E-13-1.47461E-14
 -1       268 2.31757E+01-1.06274E-01-2.64934E-04 6.96540E-02-7.75135E-14-2.80216E-14
 -1       269 2.28907E+01-6.68219E-02-1.59922E-03 3.22191E-01-1.45462E-13 8.37780E-14
 -1       270 2.24136E+01-3.12582E-02-1.69437E-03 4.63128E-01 4.48704E-13 1.42330E-14
 -1       271 2.18473E+01-3.90250E-03-1.12821E-03 5.10814E-01 2.43526E-13-3.60406E-13
 -1       272 2.12763E+01 1.68616E-02-6.26116E-04 4.87195E-01 6.65053E-14-4.74830E-13
 -1       273 2.07664E+01 3.49594E-02-8.44426E-04 4.06679E-01-1.54802E-13-7.16566E-13
 -1       274 2.03694E+01 5.54482E-02-6.08664E-04 2.73976E-01 1.56638E-13-5.87209E-13
 -1       275 2.01117E+01 6.41683E-02 1.58875E-03 1.02864E-01-6.91648E-14-4.05625E-13
 -1       276 2.00870E+01 2.22426E-01 1.60821E-03 2.06855E-01-1.22089E-13 2.34713E-13
 -1       277 2.00614E+01 5.28729E-01 8.65804E-04 3.74915E-01-3.02330E-13 1.35025E-13
 -1       278 2.00283E+01 9.30852E-01 4.54641E-04 4.81106E-01-3.36988E-13 2.87283E-14
 -1       279 1.99980E+01 1.38299E+00-1.74715E-04 5.12894E-01-2.44264E-13-5.12395E-15
 -1       280 1.99702E+01 1.82084E+00-1.14153E-03 4.73784E-01-5.35709E-13-5.09206E-13
 -1       281 1.99456E+01 2.20123E+00-1.99402E-03 3.68503E-01-2.89659E-13 2.31704E-13
 -1       282 1.99278E+01 2.46248E+00-2.60515E-03 2.09934E-01-3.05141E-13 1.02736E-13
 -1       283 1.99200E+01 2.56629E+00-2.84859E-03 1.91571E-02-2.42618E-13-1.37541E-13
 -1       284 1.99238E+01 2.49585E+00-2.69297E-03-1.76560E-01-2.85715E-13-2.74899E-13
 -1       285 1.99390E+01 2.25989E+00-2.14448E-03-3.48470E-01-2.29257E-13-4.05217E-13
 -1       286 1.99624E+01 1.89873E+00-1.25558E-03-4.69830E-01-2.79586E-13 4.61679E-14
 -1       287 1.99924E+01 1.45053E+00-3.19853E-04-5.26420E-01-4.05414E-13 3.98708E-13
 -1       288 2.00258E+01 9.83574E-01 4.63090E-04-5.04533E-01-1.17034E-13 6.67660E-13
 -1       289 2.00657E+01 5.63006E-01 1.70407E-03-3.95303E-01-3.91289E-14 5.40717E-13
 -1       290 2.01441E+01 3.08380E-01 2.17061E-03-3.47724E-01-2.58115E-13 2.47179E-13
 -1       291-7.92022E-01-1.04868E+01-8.99782E-01 1.24055E+00-5.40026E-13 4.72372E-13
 -1       292 3.15492E+00-8.03888E+00-6.08931E-01 4.06876E+00-6.84730E-14 6.97498E-13
 -1       293 9.14711E+00-5.42806E+00-4.88157E-01 5.59188E+00 9.45632E-14 1.08911E-12
 -1       294 1.75805E+01-1.42695E+00-1.50541E-01 7.08039E+00 7.40297E-13 4.51666E-13
 -1       295 2.84430E+01 1.64550E+00 2.50266E-01 7.01715E+00 5.74291E-13 1.00620E-12
 -1       296 3.84452E+01 4.93290E+00 7.26509E-01 6.46614E+00 6.99480E-13 7.06490E-13
 -1       297 4.43240E+01 6.43034E+00 8.94747E-01 3.08455E+00 3.41088E-13 8.95645E-13
 -1       298 4.43451E+01 7.22984E+00 7.75998E-01-4.30076E-01 5.53335E-13 5.80907E-13
 -1       299 4.06231E+01 5.87952E+00 5.70525E-01-3.01027E+00 2.36283E-13 2.37921E-13
 -1       300 3.42117E+01 3.46045E+00 4.41402E-01-6.15625E+00 1.65673E-13-5.90916E-14
 -1       301 2.45401E+01 6.66465E-01 1.11697E-01-7.30191E+00 2.02505E-13 2.70617E-14
 -1       302 1.49327E+01-2.80142E+00-2.54884E-01-6.63211E+00 4.27103E-13-8.43769E-15
 -1       303 6.29597E+00-6.41325E+00-6.48119E-01-4.64594E+00 6.72046E-13 4.20497E-14
 -1       304 9.86792E-01-9.60394E+00-8.95327E-01-2.50410E+00 7.40574E-13-2.27984E-13
 -1       305-1.24794E+00-1.11424E+01-1.00252E+00-4.61339E-01 5.25701E-13-3.42254E-13
 -1       306-9.92110E-02-9.97256E+00-8.79997E-01 1.88095E+00 2.02283E-13-5.63730E-13
 -1       307 4.69833E+00-7.39366E+00-6.53497E-01 4.26010E+00-2.30954E-13-6.83335E-13
 -1       308 1.34006E+01-4.26184E+00-3.00418E-01 6.39595E+00-5.09703E-13-5.68753E-13
 -1       309 2.28596E+01-3.83576E-02 4.23613E-02 7.18627E+00-5.86781E-13-9.33587E-13
 -1       310 3.30094E+01 3.45667E+00 4.82777E-01 7.16893E+00-5.27314E-13-1.13914E-12
 -1       311 4.10694E+01 5.50553E+00 7.74446E-01 4.74805E+00-5.08128E-13-1.14286E-12
 -1       312 4.56338E+01 6.69616E+00 9.48486E-01 1.70246E+00-1.39971E-13-1.29521E-12
 -1       313 4.49717E+01 6.89970E+00 8.74893E-01-1.60523E+00 1.15435E-13-1.15380E-12
 -1       314 4.17660E+01 5.56244E+00 8.53539E-01-5.37637E+00 8.74509E-14-1.36230E-12
 -1       315 3.31459E+01 3.30981E+00 4.61054E-01-6.86162E+00 1.25247E-13-1.04000E-12
 -1       316 2.26196E+01-4.74414E-01 3.03262E-02-7.16351E+00-8.58202E-14-7.99222E-13
 -1       317 1.13876E+01-4.39734E+00-4.10909E-01-6.04542E+00-1.61926E-13-1.51087E-13
 -1       318 3.26509E+00-8.35730E+00-7.73210E-01-3.71947E+00-4.76452E-13-3.93616E-13
 -1       319-9.02057E-01-1.11516E+01-1.02715E+00-1.06599E+00-5.74096E-13 6.62526E-14
 -1       320 1.97245E+01 2.94469E+00-2.14335E-02-2.05040E+00-3.31010E-13-9.32214E-14
 -1       321 2.02824E+01 2.16442E+00-1.71914E-02-2.31298E+00-3.41896E-13 1.15380E-13
 -1       322 1.92763E+01 3.63449E+00-1.53186E-02-1.28238E+00-2.14881E-13-3.30284E-13
 -1       323 1.92002E+01 3.79629E+00-1.35176E-02-8.93668E-01-1.69588E-13-3.85456E-13
 -1       324 1.91764E+01 3.89351E+00-1.25805E-02-5.17525E-01-1.04035E-13-3.99424E-13
 -1       325 1.91893E+01 3.94234E+00-1.22016E-02-1.49527E-01-3.57682E-14-4.14385E-13
 -1       326 1.92329E+01 3.94888E+00-1.22526E-02 2.16251E-01 1.76984E-14-4.30216E-13
 -1       327 1.93079E+01 3.91246E+00-1.27291E-02 5.85988E-01 7.08968E-14-4.47361E-13
 -1       328 1.94196E+01 3.82750E+00-1.37688E-02 9.59241E-01 1.33031E-13-4.43345E-13
 -1       329 1.95887E+01 3.67333E+00-1.56973E-02 1.35303E+00 1.98729E-13-3.82929E-13
 -1       330 1.98478E+01 3.41171E+00-1.89353E-02 1.75844E+00 2.69960E-13-3.14009E-13
 -1       331 2.02643E+01 2.96199E+00-2.31341E-02 2.14727E+00 3.39584E-13-2.06377E-13
 -1       332 2.08836E+01 2.13711E+00-3.07619E-02 2.34120E+00 3.62660E-13 9.94690E-15
 -1       333 2.12615E+01 1.19198E+00-2.51603E-02 1.93705E+00 3.35607E-13 2.10932E-13
 -1       334 2.05491E+01 4.89563E-01 8.32197E-03 9.40101E-01 2.58365E-13 1.28458E-13
 -1       335 1.99819E+01 6.63351E-01 1.23394E-02-9.98973E-01-2.71785E-13 1.47694E-13
 -1       336 1.95721E+01 3.31582E-01 7.05411E-03-4.41793E-01-2.00169E-13 1.28333E-13
 -1       337 1.93274E+01 1.73226E-01 4.05733E-03-1.38495E-01-1.73553E-13 1.03242E-13
 -1       338 1.91991E+01 8.81094E-02 1.81959E-03 2.92289E-02-1.27336E-13 6.28320E-14
 -1       339 1.91494E+01 3.89868E-02 7.50154E-04 1.17664E-01-8.68685E-14 4.53590E-14
 -1       340 1.91489E+01 9.48885E-03 2.68038E-04 1.58162E-01-7.05514E-14 1.12391E-14
 -1       341 1.91775E+01-8.61460E-03 1.10783E-04 1.69271E-01-6.40082E-14 3.55861E-14
 -1       342 1.92226E+01-2.00348E-02 1.70268E-04 1.62517E-01-8.34834E-14 2.50010E-14
 -1       343 1.92773E+01-2.77947E-02-5.11417E-05 1.45588E-01-1.51340E-13-2.82341E-14
 -1       344 1.93402E+01-3.38985E-02-2.98275E-03 1.24400E-01-8.86814E-14-1.10505E-13
 -1       345 1.94150E+01-3.82332E-02-1.38862E-02 1.04990E-01-2.69058E-14-9.49564E-14
 -1       346 1.95158E+01-2.24786E-02-2.07713E-02 1.05669E-01-1.00215E-14-8.07210E-14
 -1       347 1.96376E+01 1.36102E-01 7.37562E-02 9.92827E-02 5.37417E-15-1.25820E-13
 -1       348 1.98207E+01 9.07039E-02 6.13515E-02 5.39714E-02-2.50995E-14-1.14029E-13
 -1       349 1.99109E+01 6.90242E-02-1.64355E-02 1.49398E-01-3.31332E-15-1.32051E-13
 -1       350 2.00590E+01 4.43294E-02-1.54886E-02 1.94221E-01-4.96469E-14-1.39824E-13
 -1       351 2.01730E+01 4.42676E-02-2.71229E-02 2.42459E-01-6.92849E-14-6.37775E-14
 -1       352 2.03136E+01 5.95051E-02-9.15251E-03 3.02981E-01-3.92549E-14-1.30535E-13
 -1       353 2.04638E+01 7.43432E-02-2.60427E-03 3.74524E-01 8.67656E-14-1.82097E-13
 -1       354 2.06400E+01 8.99262E-02-3.11785E-05 4.63052E-01-2.08054E-14-1.83700E-13
 -1       355 2.08505E+01 1.04198E-01 9.75146E-04 5.67662E-01 4.23067E-14-1.89406E-13
 -1       356 2.11020E+01 1.11838E-01 1.10141E-03 6.84000E-01 9.48408E-14-1.75271E-13
 -1       357 2.13983E+01 1.04773E-01 8.26685E-04 8.01023E-01 8.91801E-14-1.99867E-13
 -1       358 2.17403E+01 7.12850E-02 1.93501E-04 8.98402E-01 6.11304E-14-2.17526E-13
 -1       359 2.21247E+01-4.20038E-03-9.01801E-04 9.43070E-01 3.80001E-14-1.56714E-13
 -1       360 2.25423E+01-1.38232E-01-2.50980E-03 8.86611E-01-2.12649E-14 4.88487E-16
 -1       361 2.29737E+01-3.38260E-01-4.43887E-03 6.67716E-01-1.40200E-14 6.82551E-14
 -1       362 2.33806E+01-5.80824E-01-6.06133E-03 2.27920E-01-5.03727E-14-7.77997E-14
 -1       363 2.36913E+01-7.80328E-01-6.47078E-03-4.47297E-01-1.10822E-13-5.42323E-14
 -1       364 2.37968E+01-7.74472E-01-5.01568E-03-1.25757E+00 7.66058E-14 9.35764E-14
 -1       365 2.35874E+01-3.84799E-01-2.65158E-03-1.91790E+00 1.98646E-13 2.94064E-13
 -1       366 2.30752E+01 3.90116E-01-2.18182E-03-2.00131E+00 2.54594E-13 2.26359E-13
 -1       367 2.25213E+01 1.18908E+00-2.82185E-03-1.22212E+00 6.23121E-14 2.64836E-13
 -1       368 2.23175E+01 1.45857E+00-3.85344E-03 1.72917E-01-5.69015E-14 4.44684E-14
 -1       369 2.26176E+01 9.77008E-01-3.31554E-03 1.44289E+00-1.34534E-13-1.82376E-14
 -1       370 2.31558E+01 1.23538E-01-1.44851E-03 1.95394E+00-4.35018E-14 3.45322E-13
 -1       371 2.35467E+01-5.65189E-01-2.64466E-03 1.63787E+00-1.81138E-14 1.60863E-13
 -1       372 2.35994E+01-8.27759E-01-5.66129E-03 8.73213E-01-2.80047E-14 3.71037E-13
 -1       373 2.33625E+01-7.54260E-01-6.60568E-03 6.29902E-02 1.29102E-14 4.45118E-13
 -1       374 2.29501E+01-5.28497E-01-5.88569E-03-5.66519E-01 4.16835E-14 2.07217E-13
 -1       375 2.24627E+01-2.89229E-01-3.93919E-03-9.54273E-01 4.12644E-13 3.37401E-13
 -1       376 2.19625E+01-9.68910E-02-1.87191E-03-1.12783E+00 2.04304E-13 5.41256E-13
 -1       377 2.14852E+01 4.05759E-02-1.31866E-04-1.14048E+00-2.55086E-13 2.80691E-13
 -1       378 2.10512E+01 1.39712E-01 1.16682E-03-1.03872E+00-6.29021E-13 3.15149E-13
 -1       379 2.06749E+01 2.22328E-01 2.46849E-03-8.52301E-01-3.34045E-13 2.75602E-13
 -1       380 2.03929E+01 2.74047E-01 2.78215E-03-6.17435E-01 4.63260E-14 3.10379E-13
 -1       381 2.00385E+01 2.27765E-01 1.08172E-02 4.11575E-01 2.11520E-13 6.97827E-14
 -1       382 1.97407E+01 1.14419E-01 6.17828E-03 1.33902E-01 1.71692E-13 2.26681E-14
 -1       383 1.95965E+01 5.68073E-02 2.79892E-03-1.37420E-02 1.09397E-13-3.93080E-14
 -1       384 1.95466E+01 2.51403E-02 1.16372E-03-8.95939E-02 7.84219E-14-8.00719E-14
 -1       385 1.95519E+01 7.05823E-03 4.33564E-04-1.24173E-01 7.65859E-14-1.28189E-13
 -1       386 1.95873E+01-3.06814E-03 1.30154E-04-1.34641E-01 1.02709E-13-1.08844E-13
 -1       387 1.96369E+01-8.08871E-03 2.99902E-04-1.31492E-01 8.93512E-14-1.25323E-13
 -1       388 1.96913E+01-9.61328E-03 1.83682E-03-1.21626E-01-2.22540E-14-1.44347E-13
 -1       389 1.97462E+01-9.17312E-03 6.86526E-03-1.10999E-01 3.46136E-14-2.08953E-13
 -1       390 1.98244E+01-1.90374E-02 1.28801E-02-9.37364E-02 6.43461E-14-2.24761E-13
 -1       391 1.98645E+01 5.85610E-03-1.34579E-02-1.02360E-01 1.33124E-13-2.90687E-13
 -1       392 1.99476E+01-8.40345E-03-6.55738E-03-9.36848E-02 7.44905E-14-2.63827E-13
 -1       393 2.00000E+01 2.61678E-03-1.47249E-03-9.13105E-02-8.26765E-14-2.84236E-13
 -1       394 2.00631E+01 1.20796E-02 8.74322E-04-1.05659E-01 8.72946E-14-4.15890E-13
 -1       395 2.01403E+01 1.76418E-02 1.05136E-03-1.28330E-01 2.44952E-13-3.83506E-13
 -1       396 2.02333E+01 2.48245E-02 6.57088E-04-1.59955E-01 3.22525E-14-2.78624E-13
 -1       397 2.03489E+01 3.39512E-02 6.78269E-04-2.03903E-01-1.17361E-13-3.00511E-13
 -1       398 2.04943E+01 4.34857E-02 8.17700E-04-2.61321E-01-1.33422E-13-2.40807E-13
 -1       399 2.06762E+01 5.22673E-02 9.39735E-04-3.31655E-01-1.07734E-13-1.64005E-13
 -1       400 2.09001E+01 5.88360E-02 9.81046E-04-4.12617E-01 1.69871E-13-1.29052E-13
 -1       401 2.11699E+01 6.07168E-02 8.79088E-04-4.99172E-01-6.11034E-14-6.03890E-14
 -1       402 2.14856E+01 5.38105E-02 5.59481E-04-5.81754E-01-2.83128E-13-8.55059E-14
 -1       403 2.18421E+01 3.19942E-02-6.41635E-05-6.43886E-01-7.68207E-14-8.06935E-14
 -1       404 2.22256E+01-1.26157E-02-1.04723E-03-6.59788E-01 5.17271E-14-6.51432E-14
 -1       405 2.26102E+01-8.76741E-02-2.34316E-03-5.93443E-01 1.69915E-13 1.09082E-13
 -1       406 2.29548E+01-1.95081E-01-3.72903E-03-4.02378E-01 1.70315E-13 1.47047E-13
 -1       407 2.32001E+01-3.20272E-01-4.72491E-03-5.17045E-02 1.01194E-13 9.45611E-14
 -1       408 2.32714E+01-4.18779E-01-4.76586E-03 4.55808E-01-3.88006E-14 2.08878E-13
 -1       409 2.30952E+01-4.12421E-01-3.52681E-03 1.03614E+00 6.96678E-14 1.31353E-14
 -1       410 2.26419E+01-2.20090E-01-1.42633E-03 1.49306E+00 1.41774E-13-8.91622E-14
 -1       411 2.19927E+01 1.61304E-01 8.99196E-04 1.55968E+00-9.63046E-14 1.10030E-13
 -1       412 2.13791E+01 5.80249E-01 2.86279E-03 1.05977E+00 9.12729E-14 6.26456E-14
 -1       413 2.10966E+01 7.84235E-01 3.99617E-03 1.08280E-01 3.49006E-13 1.11131E-13
 -1       414 2.12953E+01 6.27620E-01 4.26467E-03-8.75505E-01 1.47459E-13 1.41892E-13
 -1       415 2.18480E+01 2.21080E-01 4.24028E-03-1.44588E+00-2.63724E-13 3.94155E-14
 -1       416 2.24570E+01-1.82438E-01 1.74778E-03-1.43795E+00 3.15850E-15 2.06462E-13
 -1       417 2.28746E+01-4.09035E-01-2.49816E-03-1.00097E+00-3.40182E-13 1.93361E-13
 -1       418 2.30047E+01-4.40486E-01-5.29263E-03-4.03681E-01-2.89835E-13-5.69093E-14
 -1       419 2.28719E+01-3.52079E-01-5.73206E-03 1.40429E-01-2.64119E-13-2.84671E-14
 -1       420 2.25510E+01-2.24907E-01-4.68054E-03 5.30782E-01-5.47789E-14 9.70513E-15
 -1       421 2.21213E+01-1.07177E-01-2.89221E-03 7.52115E-01 3.46739E-13 2.74228E-14
 -1       422 2.16491E+01-1.50652E-02-1.05530E-03 8.29945E-01 4.29541E-13 7.52242E-14
 -1       423 2.11849E+01 5.47139E-02 4.33862E-04 7.97249E-01 1.13090E-13-2.12615E-13
 -1       424 2.07654E+01 1.12390E-01 1.34001E-03 6.78855E-01-8.60954E-14-3.51385E-13
 -1       425 2.04149E+01 1.64597E-01 1.63838E-03 4.90207E-01-1.55427E-13-8.69566E-14
 -1       426 2.02334E+01 2.03701E-01 1.62632E-03 3.56999E-01-5.04467E-14 2.73807E-13
 -1       427 2.00472E+01 9.85047E-01 6.01734E-04 8.55311E-01-4.88632E-13-1.14718E-13
 -1       428 2.01584E+01 6.48495E-01 1.89908E-03 7.54933E-01-2.60636E-13 3.03075E-13
 -1       429 2.02137E+01 4.14605E-01 2.41578E-03 5.74623E-01-2.73360E-13-1.61883E-13
 -1       430 1.99372E+01 1.32412E+00-5.99219E-04 8.44537E-01-5.39390E-13-4.77502E-13
 -1       431 1.98328E+01 1.64226E+00-1.61773E-03 7.21567E-01-3.90760E-14 2.00710E-13
 -1       432 1.97480E+01 1.89216E+00-2.39560E-03 4.97086E-01-5.48890E-14 1.33710E-13
 -1       433 1.96963E+01 2.03714E+00-2.85075E-03 1.98391E-01-2.14433E-13-1.50042E-13
 -1       434 1.96883E+01 2.05349E+00-2.91603E-03-1.32953E-01 1.64934E-15 5.64302E-14
 -1       435 1.97266E+01 1.93731E+00-2.55833E-03-4.47867E-01 1.29374E-13-3.13060E-13
 -1       436 1.98030E+01 1.71072E+00-1.81283E-03-6.96217E-01 1.62477E-13-1.56677E-13
 -1       437 1.99087E+01 1.39878E+00-8.20748E-04-8.51307E-01 6.67856E-14 4.56735E-13
 -1       438 2.00307E+01 1.04592E+00 4.24926E-04-8.87415E-01-6.21083E-14 4.67259E-13
 -1       439 2.01589E+01 6.92792E-01 2.09708E-03-8.01690E-01-2.52567E-13 4.89182E-13
 -1       440 1.04384E+01-5.67526E+00-3.04082E-02 6.94685E+00-2.00090E-13 9.61183E-13
 -1       441 9.22571E-01-4.91169E+00-1.00472E-01-1.86745E-01 7.98753E-15 2.91656E-13
 -1       442 3.60134E+00-4.54564E+00-2.88343E-02 4.17984E+00-1.39680E-13 6.73558E-13
 -1       443 1.91672E+01-5.66505E+00 1.80648E-02 6.74314E+00-5.73569E-14 6.78808E-13
 -1       444 2.56557E+01-4.25887E+00-3.69329E-02 4.61308E+00 2.50619E-13 3.80945E-13
 -1       445 1.94333E+01 3.37409E+00-1.82997E-02-1.67937E+00-2.79571E-13-2.26943E-13
 -1       446 3.47347E+01 4.98810E+00 3.49246E-02 7.00065E-02 3.74714E-13 4.69930E-13
 -1       447 3.40648E+01 7.78582E+00-5.19976E-02-3.27466E-01 5.65797E-13 6.59455E-13
 -1       448 3.35300E+01 7.09353E+00-8.13788E-02 8.09496E-01 4.94438E-13 6.51527E-13
 -1       449 3.35482E+01 3.03078E+00 1.45278E-02-3.06155E-01 2.69972E-13 1.37362E-13
 -1       450 2.98138E+01-1.33689E+00 8.93431E-03-2.81540E+00 2.03990E-13-4.85445E-14
 -1       451 2.37632E+01-4.58042E+00-7.27296E-03-5.33061E+00 1.23887E-13-2.66037E-14
 -1       452 1.52491E+01-5.64611E+00-2.95085E-02-7.03038E+00 2.11886E-13 4.29848E-13
 -1       453 7.75130E+00-5.18160E+00-2.80074E-02-6.30336E+00 1.26052E-13 1.79551E-13
 -1       454 2.15046E+00-4.80969E+00-7.94637E-02-3.02854E+00 2.07521E-13-2.58682E-13
 -1       455 1.79426E+00-3.81172E+00 1.84299E-02 1.31201E+00 1.45842E-13-6.33785E-13
 -1       456 5.40608E+00-5.08075E+00-5.03332E-02 5.32922E+00-3.95517E-15-8.77090E-13
 -1       457 1.34101E+01-5.64730E+00 9.38561E-03 7.09124E+00-6.94583E-14-6.20070E-13
 -1       458 2.24609E+01-4.86631E+00-4.61301E-03 5.74767E+00-3.36148E-13-5.22332E-13
 -1       459 2.94513E+01-2.20388E+00-2.36197E-03 2.53641E+00-2.18773E-13-5.73736E-13
 -1       460 3.27557E+01 1.61319E+00-2.28758E-02 5.35789E-01-3.24185E-13-5.21083E-13
 -1       461 3.52555E+01 6.32007E+00 2.36528E-02-4.65882E-01-1.94872E-13-5.53613E-13
 -1       462 3.51987E+01 8.04305E+00 1.36630E-02-8.92446E-02 1.78746E-14-4.72452E-13
 -1       463 3.56802E+01 6.29947E+00 6.78999E-02 1.06367E-01 1.24928E-13-6.22224E-13
 -1       464 3.42920E+01 3.00107E+00 9.45531E-02-9.89190E-01-1.04333E-13-1.12421E-12
 -1       465 2.92829E+01-1.98872E+00 1.25271E-02-3.26438E+00-2.63532E-13-8.93646E-13
 -1       466 2.16379E+01-5.55666E+00-1.08270E-03-6.11146E+00 4.28546E-14-6.33917E-13
 -1       467 1.16347E+01-5.82541E+00-4.56313E-02-7.05033E+00-3.09197E-14-3.58165E-13
 -1       468 4.23517E+00-4.58186E+00-1.06487E-02-4.63703E+00 1.69947E-13-4.84585E-13
 -1       469 3.24047E+01 9.94194E-01 6.01788E-02 1.72375E+00 4.45107E-13 2.60542E-13
 -1       470 2.04868E+01 8.31347E-01 3.99610E-03 9.91592E-01 2.49288E-13-7.37197E-14
 -1       471 1.94931E+01 3.06414E+00-5.34490E-03-6.01540E-01-1.16508E-13-3.33896E-13
 -1       472 1.95419E+01 2.88849E+00-5.92189E-03-9.15804E-01-1.71187E-13-3.17019E-13
 -1       473 1.95135E+01 3.19712E+00-4.99493E-03 3.78243E-02-2.45622E-14-3.83276E-13
 -1       474 1.95743E+01 3.17052E+00-5.08541E-03 3.58269E-01 1.99337E-14-4.06455E-13
 -1       475 1.96693E+01 3.08025E+00-5.40760E-03 6.72757E-01 9.86378E-14-4.11960E-13
 -1       476 1.98098E+01 2.90886E+00-5.95327E-03 9.87544E-01 1.64543E-13-3.72451E-13
 -1       477 2.00079E+01 2.62950E+00-6.55513E-03 1.28178E+00 2.15497E-13-3.06258E-13
 -1       478 2.02944E+01 2.18763E+00-5.75651E-03 1.52517E+00 2.70009E-13-2.28918E-13
 -1       479 2.02180E+01 4.51724E-01 5.07817E-03 4.84716E-01 2.19799E-13-1.01451E-13
 -1       480 1.99120E+01 9.57319E-01 2.84717E-03-9.10510E-01-2.53904E-13-2.16019E-14
 -1       481 2.88871E+01-2.87309E+00-5.26364E-02 8.20973E-01 1.48482E-13 3.05519E-14
 -1       482 1.05044E+01-3.20293E+00 1.63939E-01 6.17036E+00-3.38514E-13 8.34395E-13
 -1       483 1.97493E+01 5.36863E-01 2.23937E-03-4.47307E-01-1.90747E-13-2.60598E-14
 -1       484 1.96105E+01 2.97631E-01 9.41694E-04-1.51752E-01-1.61660E-13-2.56375E-14
 -1       485 1.95171E+01 1.56668E-01 4.14362E-04 2.60475E-02-1.24195E-13-1.55286E-15
 -1       486 1.94652E+01 7.04292E-02 1.47184E-04 1.25562E-01-8.14733E-14-3.63233E-14
 -1       487 1.94450E+01 1.70199E-02 5.20997E-05 1.74454E-01-8.24326E-14-8.92394E-14
 -1       488 1.94476E+01-1.58241E-02 9.18921E-05 1.91348E-01-9.13600E-14-1.28004E-13
 -1       489 1.94666E+01-3.52886E-02 2.27506E-04 1.89567E-01-1.36293E-13-1.40278E-13
 -1       490 1.94987E+01-4.52470E-02 6.03658E-05 1.79569E-01-1.22704E-13-6.49666E-14
 -1       491 1.95423E+01-4.57973E-02-1.50362E-03 1.71001E-01-3.09873E-14 6.23416E-15
 -1       492 1.95946E+01-2.91899E-02-2.63450E-03 1.73897E-01-2.33108E-14 1.10748E-14
 -1       493 1.96443E+01 3.86661E-02 2.41378E-02 1.82482E-01-3.24422E-14-4.27089E-14
 -1       494 1.96963E+01 1.31367E-01 8.67682E-02 1.71366E-01-7.45964E-14-9.48547E-15
 -1       495 1.98165E+01 1.05088E-01 9.53073E-02 1.82922E-01-5.59709E-14-5.06539E-14
 -1       496 2.00018E+01 2.03977E-02 1.26798E-02 2.12021E-01-5.59344E-14-5.81028E-14
 -1       497 2.00099E+01 1.07521E-01-7.83886E-02 3.04840E-01 4.51687E-14-7.02112E-14
 -1       498 2.01868E+01 9.94359E-02-2.85502E-02 3.68471E-01-6.47937E-14-3.26978E-14
 -1       499 2.02744E+01 1.33847E-01-1.47735E-02 4.38407E-01-8.39125E-14-2.64742E-14
 -1       500 2.03730E+01 1.66937E-01-5.91425E-03 5.37003E-01 2.00293E-14-2.29363E-13
 -1       501 2.04837E+01 2.00135E-01-1.08480E-03 6.56716E-01-1.16520E-14-1.39947E-13
 -1       502 2.06167E+01 2.24696E-01 3.30982E-04 7.97217E-01-6.91270E-15-1.07240E-13
 -1       503 2.07795E+01 2.28833E-01 5.09062E-04 9.49664E-01 7.55076E-14-2.80318E-13
 -1       504 2.09807E+01 1.95313E-01 3.28265E-04 1.09887E+00 9.47889E-14-2.91360E-13
 -1       505 2.12333E+01 9.95047E-02-5.53535E-05 1.21986E+00 8.24024E-14-2.53821E-13
 -1       506 2.15584E+01-8.94327E-02-6.90899E-04 1.27335E+00 1.48380E-13-1.99927E-13
 -1       507 2.19851E+01-3.99727E-01-1.61741E-03 1.20166E+00 7.88983E-15-1.82164E-13
 -1       508 2.25422E+01-8.32305E-01-2.66573E-03 9.28192E-01-1.48591E-14-5.54175E-14
 -1       509 2.32304E+01-1.31103E+00-3.37046E-03 3.70704E-01-3.58141E-14 1.49240E-13
 -1       510 2.39663E+01-1.61550E+00-4.13515E-03-5.04483E-01 4.28237E-14 1.44497E-13
 -1       511 2.45435E+01-1.37725E+00-6.94402E-03-1.56526E+00 9.97094E-14 1.40452E-13
 -1       512 2.46649E+01-2.51471E-01-1.58525E-02-2.35564E+00 1.83412E-13 5.11312E-14
 -1       513 2.42815E+01 1.53495E+00-2.90799E-02-2.17690E+00 1.16496E-13-5.46296E-14
 -1       514 2.38619E+01 2.83787E+00-3.58821E-02-7.44842E-01-1.48936E-13-1.86431E-13
 -1       515 2.39294E+01 2.58144E+00-3.96780E-02 1.15373E+00-1.17888E-13-1.47762E-13
 -1       516 2.43910E+01 9.68617E-01-2.44740E-02 2.22769E+00 7.15469E-14-1.48458E-13
 -1       517 2.46263E+01-7.27881E-01-1.24149E-02 2.04691E+00-1.01166E-13-7.55044E-15
 -1       518 2.42993E+01-1.55940E+00-5.52310E-03 1.07826E+00-2.18266E-15-3.61909E-14
 -1       519 2.36235E+01-1.60297E+00-3.47172E-03 2.47308E-02 5.03217E-14 1.34245E-14
 -1       520 2.28525E+01-1.21268E+00-3.45333E-03-7.83588E-01-1.49795E-13-2.30321E-13
 -1       521 2.21682E+01-7.30083E-01-2.38074E-03-1.27135E+00 3.26800E-13-1.64256E-13
 -1       522 2.16174E+01-3.14730E-01-1.23959E-03-1.49248E+00 5.66373E-13-8.96817E-14
 -1       523 2.11891E+01-1.02109E-02-3.29269E-04-1.52124E+00-7.90243E-16-7.12630E-14
 -1       524 2.08523E+01 2.02979E-01 3.35105E-04-1.41992E+00-2.26152E-13 2.40129E-13
 -1       525 2.05805E+01 3.62884E-01 9.67565E-04-1.22655E+00-3.74800E-13 9.86447E-13
 -1       526 1.98998E+01 1.27222E-01 9.94392E-04 3.91464E-03 1.40036E-13-1.41369E-13
 -1       527 1.98335E+01 5.85109E-02 3.59478E-04-9.34897E-02 9.71050E-14-1.73109E-13
 -1       528 1.98059E+01 1.78454E-02 1.09405E-04-1.41137E-01 9.54386E-14-1.69822E-13
 -1       529 1.98029E+01-5.28925E-03 2.42521E-04-1.58152E-01 5.64418E-14-1.75869E-13
 -1       530 1.98141E+01-1.66186E-02 1.65192E-03-1.57139E-01 5.14082E-14-7.95777E-14
 -1       531 1.98331E+01-1.84700E-02 7.89370E-03-1.46768E-01 9.31696E-14-1.17778E-13
 -1       532 1.98500E+01-1.69223E-03 2.88399E-02-1.36101E-01 9.12233E-14-2.04330E-13
 -1       533 1.99194E+01-1.54821E-02 4.21234E-02-1.25250E-01 9.83220E-14-2.53443E-13
 -1       534 1.99823E+01-3.97121E-02-2.32813E-02-1.18992E-01 6.17090E-14-1.90825E-13
 -1       535 2.00041E+01-7.21127E-04-5.25016E-03-1.22986E-01-2.48326E-15-2.52414E-13
 -1       536 2.00429E+01 2.82266E-02 3.13428E-03-1.45382E-01 3.99963E-14-2.75145E-13
 -1       537 2.00974E+01 3.88681E-02 3.39229E-03-1.75242E-01 1.73515E-13-2.67243E-13
 -1       538 2.01565E+01 5.42030E-02 1.09742E-03-2.12252E-01 5.40311E-14-8.00617E-14
 -1       539 2.02275E+01 7.58230E-02 5.08153E-04-2.66273E-01-2.76531E-14 9.70188E-15
 -1       540 2.03167E+01 9.91099E-02 4.87046E-04-3.38875E-01-1.28015E-13-7.45424E-14
 -1       541 2.04282E+01 1.21443E-01 5.72108E-04-4.29433E-01-8.38689E-14-2.16921E-13
 -1       542 2.05656E+01 1.40034E-01 6.34729E-04-5.35966E-01-5.47081E-14-2.52289E-13
 -1       543 2.07326E+01 1.50386E-01 6.25021E-04-6.54097E-01 1.26452E-14-7.69635E-14
 -1       544 2.09331E+01 1.44964E-01 5.15089E-04-7.75318E-01-6.40980E-14-1.75127E-13
 -1       545 2.11710E+01 1.12134E-01 2.39478E-04-8.84558E-01-8.69407E-14-3.88703E-13
 -1       546 2.14511E+01 3.59621E-02-2.64643E-04-9.57355E-01-4.94843E-14-3.12806E-13
 -1       547 2.17782E+01-1.01768E-01-1.04866E-03-9.57245E-01 3.10737E-14-2.63778E-13
 -1       548 2.21554E+01-3.14229E-01-2.07583E-03-8.35177E-01 1.33036E-13-2.69391E-13
 -1       549 2.25766E+01-5.92642E-01-3.20065E-03-5.35134E-01-5.97341E-15-1.16718E-13
 -1       550 2.30102E+01-8.77413E-01-3.98036E-03-1.42908E-02-1.11757E-13-2.51793E-14
 -1       551 2.33777E+01-1.02966E+00-4.10709E-03 7.11402E-01 5.18270E-14 5.51688E-15
 -1       552 2.35465E+01-8.41680E-01-4.06774E-03 1.49710E+00 6.94359E-14 1.03067E-13
 -1       553 2.33985E+01-1.63728E-01-4.58378E-03 2.01188E+00 4.49373E-14 3.13182E-13
 -1       554 2.29646E+01 8.76518E-01-3.95369E-03 1.84584E+00 6.34558E-14 2.79278E-13
 -1       555 2.25533E+01 1.71841E+00-3.53802E-03 8.42522E-01 3.79371E-13 7.14888E-14
 -1       556 2.25091E+01 1.76714E+00-6.76821E-03-5.84430E-01 1.79755E-13 4.91539E-14
 -1       557 2.28613E+01 9.80915E-01-6.14425E-03-1.65966E+00 2.77929E-14 7.32076E-14
 -1       558 2.32825E+01-8.30706E-02-1.70209E-03-1.90409E+00-2.14956E-13 1.91552E-13
 -1       559 2.34294E+01-8.19830E-01-2.64946E-03-1.42785E+00-4.43826E-14 3.17587E-13
 -1       560 2.32496E+01-1.06179E+00-4.02706E-03-6.30745E-01-2.12364E-13-3.19782E-14
 -1       561 2.28521E+01-9.37262E-01-3.99113E-03 1.35327E-01-1.21164E-13-1.40854E-13
 -1       562 2.23731E+01-6.56128E-01-3.58512E-03 7.03749E-01 2.00118E-14-4.80915E-13
 -1       563 2.18981E+01-3.61609E-01-2.41404E-03 1.04345E+00 1.32982E-13-3.80296E-13
 -1       564 2.14650E+01-1.18575E-01-1.11651E-03 1.18665E+00 3.41871E-13-1.60701E-13
 -1       565 2.10832E+01 6.53672E-02 6.83939E-05 1.18041E+00 2.90297E-13-1.13879E-14
 -1       566 2.07529E+01 2.07846E-01 1.39994E-03 1.06456E+00 1.23607E-13 2.49836E-14
 -1       567 2.04643E+01 3.26396E-01 1.93911E-03 8.64055E-01-1.49492E-13 2.07202E-13
 -1       568 1.97596E+01 1.22152E+00-7.11558E-04 1.05530E+00-4.62675E-14 2.18302E-13
 -1       569 1.95572E+01 1.47398E+00-9.44494E-04 8.27156E-01 1.40147E-13 1.85495E-13
 -1       570 2.02023E+01 6.59517E-01 5.77503E-04 1.08942E+00-1.77662E-13-3.54117E-13
 -1       571 1.99823E+01 9.40978E-01-1.06015E-04 1.14115E+00-3.04473E-13-1.32631E-13
 -1       572 1.94090E+01 1.65632E+00-1.18537E-03 4.76774E-01-1.20812E-14 1.21973E-13
 -1       573 1.93435E+01 1.73527E+00-1.30531E-03 4.96475E-02 2.72794E-13 2.76476E-13
 -1       574 1.93762E+01 1.69458E+00-1.24998E-03-3.89753E-01 2.20677E-13-5.48508E-14
 -1       575 1.94989E+01 1.54487E+00-9.88494E-04-7.67465E-01 3.04534E-13-3.87753E-13
 -1       576 1.96938E+01 1.30719E+00-6.52584E-04-1.04109E+00 1.58830E-13-1.53879E-13
 -1       577 1.99266E+01 1.01971E+00-1.95075E-04-1.17147E+00-4.58901E-14 2.46161E-13
 -1       578 2.01768E+01 7.19306E-01 3.01257E-04-1.14287E+00-5.20567E-13 5.95559E-13
 -1       579 5.02813E+00-1.53872E+00 1.79587E-01 1.75084E+00 1.05546E-13 2.08514E-13
 -1       580 1.64602E+01-4.99007E+00 9.11609E-02 6.78191E+00-2.29650E-13 9.34110E-13
 -1       581 2.00228E+01 2.44283E-01 2.45386E-03 1.80882E-01 1.78008E-13-9.59402E-14
 -1       582 5.63658E+00-1.53636E+00 1.78106E-01-2.53956E+00 2.71755E-13-3.20188E-13
 -1       583 2.40844E+01-5.62845E+00 1.96798E-02 4.42781E+00-1.11897E-13 2.03632E-13
 -1       584 3.01203E+01 1.53574E+00-1.26346E-01-1.60479E+00 1.46501E-13 2.04788E-13
 -1       585 1.14994E+01-3.56123E+00 1.56545E-01-6.42177E+00 4.33709E-13-3.43857E-13
 -1       586 3.04787E+01 6.66934E+00-1.71047E-01 1.01109E+00 1.16643E-13-7.66505E-14
 -1       587 2.65001E+01-4.80359E+00-1.83056E-02 2.96982E+00-1.78305E-13-4.04607E-13
 -1       588 1.94859E+01 3.16281E+00-5.06991E-03-2.82350E-01-6.89786E-14-3.63946E-13
 -1       589 2.86114E+01 6.75711E+00-2.00978E-01 2.67657E-01 5.15185E-13 3.30525E-13
 -1       590 2.91216E+01 6.17306E+00-1.99100E-01-1.33931E+00-2.38295E-13-1.71266E-13
 -1       591 2.96615E+01 5.22177E+00-1.67993E-01-1.74009E+00 2.42889E-13 2.63525E-13
 -1       592 2.99951E+01 3.95307E+00-1.39457E-01 2.04015E+00 3.66290E-13 8.01935E-13
 -1       593 3.00263E+01-6.07394E-01-9.35299E-02 6.15388E-01 1.20931E-13 4.05051E-13
 -1       594 2.73985E+01-4.13708E+00-2.27164E-02-2.10917E+00 3.56798E-14 2.20046E-13
 -1       595 2.12298E+01-5.66645E+00 3.42933E-02-5.72524E+00 7.17135E-14 1.83215E-13
 -1       596 1.44913E+01-4.53314E+00 1.15156E-01-6.82102E+00-4.23203E-14 4.44443E-13
 -1       597 7.27307E+00-2.75438E+00 1.40644E-01-5.00699E+00 5.87655E-14 1.96357E-13
 -1       598 4.59399E+00-1.53220E+00 1.70114E-01-1.41171E+00 5.45050E-14-4.38719E-13
 -1       599 6.71194E+00-1.91969E+00 1.67904E-01 3.93593E+00 5.48242E-14-9.19612E-13
 -1       600 1.16258E+01-3.48852E+00 1.46897E-01 6.24938E+00-4.41799E-14-8.40120E-13
 -1       601 2.03402E+01-5.56290E+00 3.79573E-02 5.81973E+00-1.04715E-13-5.10393E-13
 -1       602 2.95204E+01-1.36820E+00-8.87442E-02-8.38728E-01-2.00350E-13-2.37241E-13
 -1       603 2.65772E+01-4.89071E+00-4.48084E-02-2.84671E+00-7.22061E-14-8.49397E-13
 -1       604 3.00416E+01 3.15707E+00-1.54970E-01-2.16689E+00-2.75356E-13-3.67525E-13
 -1       605 3.07101E+01 3.37003E+00-1.45757E-01 1.82231E+00 1.13666E-13-3.84429E-13
 -1       606 3.01652E+01-9.55343E-01-8.08017E-02 3.98635E-01-2.53464E-13-7.68136E-13
 -1       607 1.84107E+01-5.31914E+00 9.69646E-02-6.44965E+00 3.25066E-13-6.38685E-13
 -1       608 1.99661E+01 1.72388E+00-5.11036E-03-1.48367E+00-3.06185E-13-5.32034E-14
 -1       609 2.07098E+01 1.30736E+00-1.06084E-03 1.56666E+00 3.19098E-13-5.14192E-14
 -1       610 1.96448E+01 2.60961E+00-6.39550E-03-1.20730E+00-2.34052E-13-2.37426E-13
 -1       611 1.97868E+01 2.24038E+00-5.64469E-03-1.39771E+00-2.78551E-13-1.51496E-13
 -1       612 2.32285E+01-5.33120E+00 2.45097E-02-4.21973E+00 3.00641E-13-7.08302E-13
 -1       613 2.70375E+01 4.79637E+00-1.62097E-01 1.69194E+00 2.22947E-13 5.55134E-13
 -1       614 1.73592E+01-4.35226E+00 7.41622E-02 6.01740E+00-1.70072E-14-6.03694E-13
 -1       615 7.22108E+00-3.84014E-01 1.64539E-01 1.49703E+00-8.92637E-14-6.95687E-13
 -1       616 2.04233E+01 4.52414E-01 1.39108E-03-1.05148E+00-3.05991E-13 1.04887E-12
 -1       617 1.98708E+01 2.43145E+00-1.57973E-03 4.26698E-01 5.16709E-14-3.31789E-13
 -1       618 1.97969E+01 2.50142E+00-1.50813E-03 1.69049E-01-1.31191E-14-3.62269E-13
 -1       619 2.01142E+01 2.03780E+00-1.58626E-03 8.80484E-01 1.73754E-13-3.03185E-13
 -1       620 2.02759E+01 1.67097E+00-2.23365E-03 1.01956E+00 2.18402E-13-2.38270E-13
 -1       621 2.03910E+01 1.03400E+00 2.86224E-03 8.56917E-01 2.44365E-13-1.84993E-13
 -1       622 2.77436E+01 5.08006E-01-1.01429E-01 2.29669E+00 3.73410E-13 4.84574E-13
 -1       623 1.98636E+01 6.56980E-01-6.49738E-04-3.72906E-01-1.73390E-13-4.38831E-14
 -1       624 1.97975E+01 3.82764E-01 2.32276E-04-1.20655E-01-1.44969E-13-5.40746E-14
 -1       625 1.97388E+01 2.04948E-01 4.75715E-05 3.75339E-02-9.79785E-14-4.33077E-14
 -1       626 1.96965E+01 9.11401E-02 1.23269E-05 1.30460E-01-1.17904E-13-5.17473E-14
 -1       627 1.96707E+01 1.94285E-02 2.39359E-05 1.78390E-01-1.28300E-13-6.96305E-14
 -1       628 1.96595E+01-2.36533E-02 8.46006E-05 1.97745E-01-9.82379E-14-6.41595E-14
 -1       629 1.96606E+01-4.60945E-02 1.28692E-04 2.01365E-01-7.61122E-14 3.57923E-14
 -1       630 1.96713E+01-5.13274E-02-1.05490E-04 1.99517E-01-4.62954E-14 5.92778E-14
 -1       631 1.96872E+01-3.80877E-02-2.88929E-04 1.99565E-01-5.43509E-14 3.89239E-15
 -1       632 1.97017E+01 1.12321E-03 6.72161E-03 2.01063E-01-8.96319E-14 2.52931E-14
 -1       633 1.97139E+01 5.68634E-02 3.10023E-02 1.88494E-01-1.73572E-14 8.31288E-14
 -1       634 1.97892E+01 8.72639E-02 9.83221E-02 1.74338E-01-9.82270E-14 1.18242E-13
 -1       635 1.97913E+01 2.00011E-01 1.54889E-01 2.41887E-01-6.77323E-14 7.22269E-14
 -1       636 1.99425E+01 1.40439E-01 1.16105E-01 2.81845E-01-9.53508E-14 9.14546E-14
 -1       637 2.01127E+01 5.90825E-02-4.82669E-02 3.40103E-01-1.20667E-14 2.85605E-14
 -1       638 2.00789E+01 2.12736E-01-4.62263E-02 4.35619E-01-6.92111E-14-3.77120E-14
 -1       639 2.01612E+01 2.30711E-01-2.78209E-02 5.35147E-01-1.47192E-13-8.37091E-15
 -1       640 2.01820E+01 2.92894E-01-8.57654E-03 6.50067E-01 5.03538E-14-5.91870E-14
 -1       641 2.02121E+01 3.44487E-01-1.55147E-03 7.97282E-01 3.23191E-14-2.14733E-14
 -1       642 2.02562E+01 3.73885E-01 3.71624E-05 9.66032E-01-3.13611E-14 6.51970E-14
 -1       643 2.03221E+01 3.64056E-01 2.25172E-04 1.14858E+00 5.31663E-14 1.17709E-13
 -1       644 2.04266E+01 2.87373E-01 1.50179E-04 1.33293E+00 5.16037E-14 4.63857E-14
 -1       645 2.06008E+01 1.04642E-01-8.65872E-07 1.49896E+00 1.10205E-13-2.95480E-14
 -1       646 2.08967E+01-2.31797E-01-2.39263E-04 1.61252E+00 1.45004E-13-2.26317E-13
 -1       647 2.13905E+01-7.63153E-01-5.94592E-04 1.61532E+00 1.49030E-13-1.59003E-13
 -1       648 2.21732E+01-1.48346E+00-6.49121E-04 1.41006E+00 7.53576E-14 1.13976E-14
 -1       649 2.32991E+01-2.24575E+00 2.54871E-04 8.47918E-01 1.58902E-13 2.42707E-13
 -1       650 2.46715E+01-2.62298E+00-1.41307E-03-2.08159E-01 1.24042E-13 2.76641E-13
 -1       651 2.58662E+01-1.91464E+00-3.11607E-02-1.65072E+00-5.83908E-15 2.13140E-13
 -1       652 2.63136E+01 5.52653E-01-6.40203E-02-2.64225E+00-1.24224E-14 5.53897E-15
 -1       653 2.57493E+01 4.84250E+00-1.16361E-01 3.46366E-01-1.15595E-13-2.84431E-13
 -1       654 2.61154E+01 2.78523E+00-1.05158E-01 2.25660E+00 1.55376E-13-1.04881E-14
 -1       655 2.64041E+01-3.86970E-01-4.30944E-02 2.38681E+00-1.61813E-13-4.93858E-14
 -1       656 2.54292E+01-2.20104E+00-2.86713E-02 1.03813E+00 1.88148E-14-3.53982E-13
 -1       657 2.42330E+01-2.65118E+00-1.44017E-03-3.04438E-01 1.48318E-13-1.87273E-13
 -1       658 2.29000E+01-2.08093E+00-1.26029E-03-1.26177E+00-2.15258E-13-2.23529E-13
 -1       659 2.18805E+01-1.31379E+00-6.20370E-04-1.72663E+00 2.29709E-13 1.93982E-13
 -1       660 2.11831E+01-6.27667E-01-3.77099E-04-1.88534E+00 4.14250E-13 1.08609E-13
 -1       661 2.07514E+01-1.23519E-01-9.74028E-05-1.85442E+00 2.96466E-13-1.34978E-13
 -1       662 2.04904E+01 2.24179E-01 1.88349E-04-1.71491E+00 8.69940E-14 1.41272E-14
 -1       663 2.03279E+01 4.69129E-01 3.42716E-04-1.50613E+00 1.45499E-13 2.33127E-13
 -1       664 2.00196E+01 8.67412E-02 5.08113E-05-8.74755E-02 1.11228E-13-1.39250E-13
 -1       665 2.02479E+01 6.01009E-01 7.34398E-04-1.33575E+00-7.32026E-14 1.89586E-13
 -1       666 2.00802E+01 1.86798E-01 1.80270E-04 9.90749E-03 1.13219E-13-1.22775E-13
 -1       667 1.99577E+01-9.51343E-03 3.88108E-04-1.55801E-01 2.57397E-14-1.12115E-13
 -1       668 1.99456E+01-2.70753E-02 2.17898E-03-1.55344E-01 8.03907E-14-1.31600E-13
 -1       669 1.99417E+01-3.38849E-02 7.94263E-03-1.41695E-01 1.19248E-13-6.26018E-14
 -1       670 1.99738E+01-4.79970E-02 1.84371E-02-1.29984E-01 6.72734E-14-3.91462E-14
 -1       671 1.99685E+01-1.64125E-02-9.01611E-03-1.39076E-01 2.46218E-14-2.87913E-15
 -1       672 2.00098E+01-8.82245E-03-4.73776E-03-1.37456E-01 7.85184E-14-2.56446E-14
 -1       673 2.00259E+01 5.74088E-02 1.59871E-02-1.60026E-01 4.34756E-14-1.23101E-13
 -1       674 2.00729E+01 5.99752E-02 1.48568E-02-2.00771E-01 9.92405E-14-1.33245E-13
 -1       675 2.00942E+01 7.95155E-02 4.07034E-03-2.28819E-01-1.86206E-15-1.33077E-14
 -1       676 2.01208E+01 1.16523E-01 9.68883E-04-2.82081E-01-8.02814E-14 6.61733E-14
 -1       677 2.01590E+01 1.56784E-01 3.29232E-04-3.57973E-01-5.11100E-14 5.84517E-14
 -1       678 2.02090E+01 1.96583E-01 2.61889E-04-4.54647E-01 5.57904E-14-5.95361E-14
 -1       679 2.02721E+01 2.32544E-01 2.82988E-04-5.70833E-01-5.70584E-14-1.63768E-13
 -1       680 2.03506E+01 2.59389E-01 2.67567E-04-7.04129E-01-2.26461E-14-1.65718E-13
 -1       681 2.04490E+01 2.67972E-01 2.56475E-04-8.49672E-01 6.38756E-14-1.32310E-13
 -1       682 2.05751E+01 2.43472E-01 1.94242E-04-9.98177E-01-7.38463E-14 8.28410E-14
 -1       683 2.07427E+01 1.64305E-01 6.68229E-05-1.13361E+00-9.08816E-14 9.27800E-14
 -1       684 2.09735E+01 2.49939E-03-1.56312E-04-1.23014E+00-1.18088E-14 1.57194E-13
 -1       685 2.12996E+01-2.71530E-01-5.28476E-04-1.24835E+00 1.86446E-13 2.54267E-14
 -1       686 2.17605E+01-6.74308E-01-9.92623E-04-1.13105E+00 1.75518E-14 5.23026E-14
 -1       687 2.23879E+01-1.17630E+00-1.65596E-03-8.02346E-01-1.42973E-13 1.94488E-13
 -1       688 2.31643E+01-1.64311E+00-2.31861E-03-1.85355E-01-3.03282E-14 2.94007E-13
 -1       689 2.39664E+01-1.78881E+00-4.91639E-03 7.29666E-01-6.40963E-14 2.39728E-13
 -1       690 2.45351E+01-1.18046E+00-7.76579E-03 1.76704E+00-2.90685E-14 1.44148E-13
 -1       691 2.45133E+01 3.45463E-01-2.29455E-02 2.38603E+00 1.15716E-13 9.90527E-15
 -1       692 2.40753E+01 2.26416E+00-3.43811E-02 1.83427E+00 2.62140E-13-1.92745E-13
 -1       693 2.38293E+01 3.28966E+00-4.62081E-02 1.62172E-01 4.76128E-13-7.45211E-14
 -1       694 2.40163E+01 2.48883E+00-5.21724E-02-1.57830E+00 6.54008E-14-4.33121E-14
 -1       695 2.44184E+01 5.76361E-01-3.85779E-02-2.25170E+00-1.32787E-13 2.29781E-14
 -1       696 2.45308E+01-1.11826E+00-3.39487E-03-1.72682E+00-3.80699E-13 4.14170E-14
 -1       697 2.39932E+01-1.81784E+00-4.06396E-03-6.74746E-01 9.11957E-14 1.09072E-13
 -1       698 2.31748E+01-1.73417E+00-6.55205E-04 3.08161E-01 1.40851E-13-1.76953E-13
 -1       699 2.23662E+01-1.28631E+00-1.73677E-03 9.81082E-01 7.46325E-14-3.95495E-13
 -1       700 2.17004E+01-7.66110E-01-1.37663E-03 1.36012E+00-7.37084E-14-3.50807E-13
 -1       701 2.12042E+01-3.23539E-01-7.00231E-04 1.50856E+00 3.22410E-14-5.15033E-13
 -1       702 2.08454E+01 1.20455E-02-1.17251E-04 1.49816E+00 2.23523E-13-2.47401E-13
 -1       703 2.05832E+01 2.62146E-01 5.08362E-04 1.37681E+00 9.00812E-14-4.21736E-14
 -1       704 2.03656E+01 4.60943E-01 5.19294E-04 1.26026E+00-3.53030E-13-2.07848E-13
 -1       705 2.09955E+01-4.84355E+00 5.77822E-02 5.06261E+00-4.43808E-13 1.01447E-13
 -1       706 1.89409E+01 1.49127E+00-4.21149E-04 3.43054E-01 2.26175E-13 3.27146E-13
 -1       707 1.94359E+01 1.11605E+00-3.71462E-04 1.17848E+00-7.81345E-14 2.87260E-13
 -1       708 1.89107E+01 1.51804E+00-4.28337E-04-2.07234E-01 2.27413E-13-3.97099E-14
 -1       709 1.91308E+01 1.34506E+00-3.76272E-04 8.29645E-01 2.10464E-13-5.56319E-14
 -1       710 2.70007E+01 3.56132E+00-1.18483E-01-2.30051E+00-3.36953E-13-1.29495E-13
 -1       711 1.90459E+01 1.42103E+00-3.79247E-04-7.19568E-01 2.18114E-13-1.45726E-13
 -1       712 1.93221E+01 1.22088E+00-2.77127E-04-1.12809E+00 1.90670E-13-5.31187E-13
 -1       713 1.96873E+01 9.62004E-01-4.08405E-04-1.36572E+00 8.92407E-14-1.17424E-13
 -1       714 1.04110E+01-1.28443E+00 1.32683E-01-4.35236E+00 2.44433E-13-5.25531E-13
 -1       715 1.52788E+01-3.09328E+00 9.76937E-02 5.85248E+00-5.34666E-13 9.78360E-13
 -1       716 2.01651E+01 3.49770E-01 6.33363E-04 1.78307E-01 1.71203E-13-1.49504E-13
 -1       717 7.71927E+00-1.76239E-01 1.47690E-01-2.33957E-01 7.49357E-14-1.19273E-13
 -1       718 9.56582E+00-9.86541E-01 1.35014E-01 3.77624E+00 1.10122E-13 2.89498E-13
 -1       719 1.99017E+01 1.40259E+00 1.43754E-04-9.61366E-01-2.53623E-13-9.65163E-14
 -1       720 1.27219E+01-2.21945E+00 1.06088E-01-5.41113E+00-1.96003E-13 5.56229E-13
 -1       721 2.63706E+01-4.25753E+00-3.81508E-02 1.32643E+00-1.57525E-13-1.23686E-14
 -1       722 2.75719E+01-3.03149E+00-5.92460E-02 1.35429E-01-1.19566E-13-5.57804E-13
 -1       723 1.99807E+01 2.56779E-02 3.64171E-05-1.37066E-01 6.51563E-14-1.00487E-13
 -1       724 1.98930E+01 9.74398E-01 3.72962E-04-6.30876E-01-1.92520E-13-7.16947E-14
 -1       725 2.02720E+01 6.10275E-01 9.70471E-04 4.47674E-01 1.98287E-13-1.66717E-13
 -1       726 1.99762E+01 2.28194E+00-1.64955E-03 6.69412E-01 1.24621E-13-3.37339E-13
 -1       727 1.97556E+01 2.27236E+00-1.59437E-03-5.94561E-01-1.11450E-13-2.91057E-13
 -1       728 2.72682E+01 2.24152E+00-1.03536E-01-2.36600E+00-2.02824E-14 6.03129E-14
 -1       729 2.73564E+01-3.74393E+00-4.63214E-02 3.33281E-01-4.23984E-14-2.74544E-13
 -1       730 2.77264E+01-2.51905E+00-5.33573E-02 7.29499E-01 2.15469E-13 2.88679E-13
 -1       731 2.45091E+01-5.05579E+00 2.95730E-03-3.13529E+00 1.31180E-13 1.09669E-13
 -1       732 2.41836E+01-5.07536E+00 3.24877E-02 3.30964E+00-8.96436E-14-2.18927E-13
 -1       733 9.31342E+00-7.08685E-01 1.48354E-01-3.44465E+00-8.52183E-14 8.21565E-14
 -1       734 2.76154E+01-1.40453E+00-6.66883E-02-1.48567E+00 6.71165E-15-1.25521E-13
 -1       735 1.15610E+01-1.29499E+00 1.41747E-01 4.56819E+00-2.18679E-14-9.13665E-13
 -1       736 1.95423E+01-4.72044E+00 7.04226E-02-5.57720E+00-1.85376E-13 2.74719E-13
 -1       737 2.77496E+01 4.11184E+00-1.55306E-01 1.98951E+00 2.41189E-13-4.07868E-14
 -1       738 2.77543E+01 2.17154E-01-8.25900E-02-2.42645E+00 4.56232E-15-1.03525E-13
 -1       739 2.85866E+01 4.07817E-01-8.29841E-02 2.14343E+00-9.90319E-14-2.94972E-13
 -1       740 2.61991E+01 4.86482E+00-1.28042E-01-1.13377E+00 1.61024E-13 1.39453E-13
 -1       741 1.65385E+01-3.66731E+00 1.02802E-01-5.93722E+00 2.96214E-13-5.79512E-13
 -1       742 1.98044E+01 2.02887E+00-1.07167E-03-8.08347E-01-1.66184E-13-2.22612E-13
 -1       743 1.97531E+01 2.49874E+00-1.50245E-03-9.26916E-02-4.74041E-14-3.60359E-13
 -1       744 2.57914E+01 3.80186E+00-8.21380E-02-1.67268E+00-1.78763E-13-4.20970E-13
 -1       745 2.41324E+01-4.52471E+00 1.13182E-02 2.65291E+00-2.43724E-13 1.33075E-13
 -1       746 2.00413E+01 6.99759E-01 7.98564E-05 1.35343E+00-6.08717E-14-8.10260E-14
 -1       747 2.56825E+01-4.48484E+00-1.46024E-02-1.53025E+00-4.70735E-14-3.21564E-13
 -1       748 1.56196E+01-2.35418E+00 6.89572E-02 5.00662E+00 1.79294E-13-5.29783E-13
 -1       749 9.66945E+00 3.75595E-01 1.06091E-01-1.08536E+00-2.76666E-13-4.59372E-13
 -1       750 1.99751E+01 7.08204E-01 1.79390E-04-1.49042E+00 9.67273E-14 1.10812E-13
 -1       751 2.06809E+01-4.23130E+00 3.21839E-02-4.62222E+00 6.14959E-14-4.64981E-13
 -1       752 1.97389E+01 2.42470E+00-1.54072E-03-3.49778E-01-7.61676E-14-3.09119E-13
 -1       753 1.97422E+01 9.07491E-01-3.52906E-04 1.32559E+00 1.00819E-14 8.58424E-14
 -1       754 2.02843E+01 1.29450E+00 8.22337E-04 6.62947E-01 1.70830E-13-2.33585E-13
 -1       755 2.64694E+01 3.24484E+00-1.06811E-01 2.25467E+00 3.20147E-13 2.62452E-13
 -1       756 1.98554E+01 1.75212E+00 1.44738E-05-9.19195E-01-2.24617E-13-1.38768E-13
 -1       757 2.55199E+01 4.66411E+00-1.12243E-01 6.82739E-01 3.69104E-13 1.10511E-13
 -1       758 2.03159E+01 9.38784E-01 2.86920E-05 5.83274E-01 1.99663E-13-1.70861E-13
 -1       759 1.48460E+01-1.65701E+00 7.64133E-02-4.68390E+00 3.71352E-14-3.77007E-13
 -1       760 1.99346E+01 4.22825E-01-4.75260E-06-7.10638E-02-9.51239E-14-5.65357E-14
 -1       761 1.99026E+01 2.25596E-01-3.29245E-06 5.70737E-02-1.14426E-13-5.28558E-14
 -1       762 1.98698E+01 9.65447E-02-2.82622E-06 1.33669E-01-1.50001E-13-4.68319E-14
 -1       763 1.98419E+01 1.55001E-02 1.49083E-05 1.74733E-01-6.33443E-14 1.26212E-14
 -1       764 1.98209E+01-3.07683E-02 3.16805E-05 1.93281E-01-2.42436E-14 1.85550E-14
 -1       765 1.98065E+01-5.02461E-02-2.77876E-05 1.99738E-01-7.17614E-14 4.12925E-14
 -1       766 1.97962E+01-4.69100E-02-1.73855E-04 2.01464E-01-7.50650E-14 1.29802E-14
 -1       767 1.97869E+01-2.21122E-02 1.14970E-03 2.01278E-01-3.37493E-14 6.93320E-14
 -1       768 1.97783E+01 1.82981E-02 7.26837E-03 1.96789E-01-2.61308E-14 6.94223E-14
 -1       769 1.97800E+01 6.43255E-02 2.78252E-02 1.91337E-01-9.01649E-14 3.06972E-14
 -1       770 1.97895E+01 1.02658E-01 5.79973E-02 1.92046E-01-1.12793E-13 4.80640E-14
 -1       771 1.98915E+01 1.32630E-01 1.29285E-01 2.24721E-01-8.55566E-14 8.58168E-14
 -1       772 1.98165E+01 2.76166E-01 5.45840E-02 2.86593E-01-7.75005E-14 9.82131E-14
 -1       773 1.99583E+01 2.32603E-01-3.61591E-03 3.49871E-01-8.41896E-14 5.92582E-14
 -1       774 1.99925E+01 2.35254E-01-1.06722E-01 4.53952E-01-4.21486E-14-2.96568E-14
 -1       775 1.99426E+01 3.66068E-01-3.15967E-02 5.66103E-01 1.64739E-14 1.08170E-13
 -1       776 1.98960E+01 4.51302E-01-7.31979E-03 7.08529E-01 1.84572E-14 8.34541E-14
 -1       777 1.98427E+01 5.13483E-01-1.15236E-03 8.73754E-01 2.83553E-14-5.96620E-14
 -1       778 1.97883E+01 5.42306E-01 8.06703E-06 1.06217E+00 1.03396E-13 1.08146E-13
 -1       779 1.97442E+01 5.13956E-01 1.39074E-04 1.27364E+00-1.31225E-13 8.24305E-14
 -1       780 1.97347E+01 3.90801E-01 1.37166E-04 1.50703E+00-6.09882E-14-7.32898E-14
 -1       781 1.98064E+01 1.19748E-01 1.63856E-04 1.75814E+00 2.83003E-14-1.69229E-13
 -1       782 2.00410E+01-3.65848E-01 3.77591E-04 2.01192E+00 1.85946E-13-2.48790E-13
 -1       783 2.05699E+01-1.12966E+00 1.32626E-03 2.22067E+00 2.28589E-13-8.53585E-14
 -1       784 2.15772E+01-2.18222E+00 3.66992E-03 2.26695E+00 1.46559E-13 2.86693E-14
 -1       785 2.32915E+01-3.35624E+00 1.14784E-02 1.88712E+00 3.23604E-14-7.30154E-14
 -1       786 2.27474E+01-3.08067E+00 1.32718E-02-2.26798E+00-7.57663E-14-4.18773E-13
 -1       787 2.13377E+01-1.93772E+00-6.23539E-03-2.47563E+00 3.13980E-13-1.58818E-13
 -1       788 2.04743E+01-9.39828E-01 1.03151E-03-2.40645E+00 2.96815E-13-2.61226E-14
 -1       789 2.00767E+01-2.38479E-01 2.13837E-04-2.19392E+00 1.61321E-13-1.31466E-13
 -1       790 1.99229E+01 2.37402E-01 1.78182E-04-1.94405E+00 2.05704E-13-2.33166E-13
 -1       791 1.99427E+01 5.07077E-01 3.73976E-04-1.71586E+00 6.90213E-14-9.99079E-14
 -1       792 2.00283E+01-4.65160E-02 4.40889E-03-1.35531E-01 5.94123E-14-9.91656E-14
 -1       793 2.00412E+01-3.96885E-02 1.75869E-03-1.39619E-01 3.60990E-14-1.41326E-13
 -1       794 2.00648E+01-1.76024E-02 4.10936E-04-1.39172E-01 7.55995E-14-8.96472E-14
 -1       795 2.00170E+01-3.82528E-02-1.36627E-03-1.35120E-01 3.36460E-15-4.61504E-14
 -1       796 1.99965E+01-1.09535E-02-1.40521E-02-1.36257E-01 6.89684E-14-5.92295E-14
 -1       797 1.99387E+01 1.31314E-02-1.87794E-02-1.21788E-01 7.92890E-14 6.73767E-14
 -1       798 2.01185E+01 5.70839E-02 3.90640E-02-1.95289E-01 5.56395E-14 2.41925E-14
 -1       799 2.00545E+01 9.34043E-02 1.18071E-02-2.08182E-01-1.16688E-14 1.38113E-13
 -1       800 2.00377E+01 1.48148E-01 3.04469E-03-2.60022E-01-6.03624E-14 5.28954E-14
 -1       801 2.00322E+01 2.05753E-01 7.18216E-04-3.32527E-01-4.56957E-14-2.86103E-14
 -1       802 2.00312E+01 2.64139E-01 2.52885E-04-4.25488E-01-2.56081E-14-8.95756E-14
 -1       803 2.00330E+01 3.19760E-01 1.98356E-04-5.38718E-01 2.07609E-14-1.96186E-14
 -1       804 2.00368E+01 3.67966E-01 1.07584E-04-6.71768E-01-8.09227E-14-1.22984E-14
 -1       805 2.00453E+01 4.00268E-01 1.58297E-04-8.23787E-01-1.48576E-13 1.15685E-13
 -1       806 2.00651E+01 4.01757E-01 1.36958E-04-9.91932E-01-1.15219E-13 3.34169E-13
 -1       807 2.01101E+01 3.49710E-01 1.06497E-04-1.17035E+00-7.88066E-16 3.30189E-13
 -1       808 2.02051E+01 2.12002E-01 7.34207E-05-1.34827E+00 8.75082E-14 1.21329E-13
 -1       809 2.03917E+01-5.20521E-02 4.39544E-05-1.50660E+00 6.37138E-14-1.19432E-14
 -1       810 2.07331E+01-4.85376E-01-8.30406E-05-1.61118E+00 9.51645E-14 1.80956E-13
 -1       811 2.13164E+01-1.11320E+00 2.31366E-04-1.59902E+00-2.12531E-13 3.53398E-13
 -1       812 2.22260E+01-1.88534E+00 8.60770E-05-1.35577E+00-1.79541E-13 3.01426E-13
 -1       813 2.34987E+01-2.57157E+00 6.42363E-03-7.22642E-01-6.14777E-14 4.19799E-13
 -1       814 2.49135E+01-2.64679E+00-5.60878E-03 4.24680E-01 6.99618E-14 3.82052E-13
 -1       815 2.36918E+01-2.69967E+00-1.32077E-03 7.78166E-01 1.20144E-13-2.85153E-13
 -1       816 2.23772E+01-2.05528E+00-6.95884E-03 1.50023E+00 1.40347E-13-9.41114E-14
 -1       817 2.14184E+01-1.25714E+00-1.28649E-03 1.83042E+00-9.95489E-14-1.19211E-13
 -1       818 2.08157E+01-5.85911E-01-5.36294E-04 1.88132E+00 4.31532E-14-1.38280E-13
 -1       819 2.04603E+01-8.19079E-02 2.47448E-06 1.79273E+00-4.35703E-14-2.07537E-13
 -1       820 2.02635E+01 2.81125E-01-5.03380E-05 1.62621E+00-1.01394E-14-1.53065E-13
 -1       821 2.01243E+01 4.96160E-01-9.32394E-04 1.50284E+00-1.36312E-13-5.90458E-14
 -1       822 2.52549E+01-3.79641E+00-1.86443E-02 8.67342E-01 2.51279E-14-2.62506E-13
 -1       823 1.83625E+01 1.37442E+00-2.36413E-04 9.85375E-02 1.91670E-13 9.74969E-14
 -1       824 1.92730E+01 8.92146E-01-7.64087E-04-1.50314E+00 9.63965E-14-5.16490E-13
 -1       825 1.84454E+01 1.33536E+00-1.79847E-04-5.61375E-01 2.25348E-14-2.18442E-13
 -1       826 2.00280E+01 1.87116E+00-3.32420E-04 2.35894E-01 1.94218E-14-2.74842E-13
 -1       827 2.08211E+01-3.83169E+00 4.38251E-02 4.11677E+00 8.31587E-14-5.04572E-13
 -1       828 1.08985E+01 2.54723E-01 9.30911E-02 2.04372E+00-1.19416E-13-7.54414E-13
 -1       829 2.58869E+01-1.73889E+00-2.57137E-02 1.58696E+00 8.04912E-15 2.80591E-13
 -1       830 1.74358E+01-2.89727E+00 6.28642E-02-5.00749E+00-2.22140E-13 2.49191E-13
 -1       831 1.04781E+01 2.35914E-01 8.59007E-02 1.57294E+00 2.60851E-13 2.10020E-13
 -1       832 2.02428E+01 4.09580E-01-1.89792E-04 1.46310E-01 1.27968E-13-1.36340E-13
 -1       833 1.87742E+01 1.15596E+00-2.84175E-04-1.13122E+00-2.00196E-14-2.46260E-13
 -1       834 1.91898E+01-3.23265E+00 4.41001E-02 4.65887E+00-5.23531E-13 3.69745E-13
 -1       835 1.99643E+01 7.09567E-01 4.35033E-04-2.67981E-01-1.35519E-13-1.01252E-13
 -1       836 2.51931E+01-2.88857E+00-3.52211E-03-1.83030E-01 5.00607E-14-3.45673E-13
 -1       837 2.01890E+01 2.20752E-01-3.98186E-05 4.31800E-03 9.76289E-14-9.70327E-14
 -1       838 1.25585E+01-7.00270E-01 8.27791E-02-3.90155E+00-3.40309E-13 5.66373E-13
 -1       839 2.21299E+01-4.08315E+00 2.38629E-02-3.48251E+00-1.78959E-13-2.82413E-15
 -1       840 1.11107E+01 2.19157E-01 7.97397E-02-2.00157E+00 1.25181E-13-4.19411E-13
 -1       841 1.41067E+01-9.72674E-01 6.38273E-02 4.10035E+00-1.21292E-14 3.55821E-13
 -1       842 1.99743E+01 1.90607E+00-3.13502E-04 4.01315E-02-2.20091E-14-3.27799E-13
 -1       843 2.01907E+01 1.57207E+00-2.69668E-04 5.68776E-01 1.03994E-13-2.74999E-13
 -1       844 1.99263E+01 1.25979E+00 2.51662E-04-6.39899E-01-1.78413E-13-1.14075E-13
 -1       845 1.99341E+01 1.56601E+00 2.44148E-05-5.00806E-01-1.13156E-13-2.08174E-13
 -1       846 2.02850E+01 6.25364E-01-4.74763E-04 3.29580E-01 1.49994E-13-1.56891E-13
 -1       847 2.00974E+01 2.57396E-02 4.60664E-05-1.22620E-01 4.76853E-14-5.15427E-14
 -1       848 1.99279E+01 1.75793E+00-2.74081E-04-3.40995E-01-7.24880E-14-2.96412E-13
 -1       849 1.89416E+01 1.02820E+00-1.72065E-04 1.24075E+00 2.79106E-13 2.66227E-13
 -1       850 1.85442E+01 1.26033E+00-1.26621E-04 7.43686E-01 3.00482E-13 1.75541E-13
 -1       851 2.01015E+01 1.76178E+00-3.51699E-04 4.17322E-01 5.06622E-14-3.08088E-13
 -1       852 1.83833E+01-2.70873E+00 2.49161E-02-4.53882E+00-5.84862E-15-2.84915E-13
 -1       853 1.33155E+01-4.59147E-01 6.52330E-02 3.47775E+00 4.50547E-14-7.13389E-13
 -1       854 1.93809E+01 8.04391E-01 5.71039E-04 1.48236E+00 1.03525E-13 2.43390E-13
 -1       855 2.01390E+01 1.00400E-01-6.00816E-06-7.93661E-02 5.93315E-14-3.98694E-14
 -1       856 2.19747E+01-3.54614E+00 9.39937E-03 3.17061E+00-2.18986E-13 4.13718E-13
 -1       857 1.95947E+01 6.94364E-01 5.14615E-04-1.64944E+00 1.14863E-13-1.90539E-14
 -1       858 2.53033E+01-3.76480E+00-1.03646E-03-8.09531E-01 7.69554E-14 4.80050E-13
 -1       859 2.00473E+01 4.19468E-01-1.03438E-05-1.76128E-02-6.35937E-14-1.39120E-13
 -1       860 2.00280E+01 2.19335E-01-2.23331E-05 7.51757E-02-9.71566E-14-8.32236E-14
 -1       861 1.99996E+01 8.73904E-02-5.86772E-06 1.32076E-01-8.48459E-14-2.13268E-14
 -1       862 1.99687E+01 6.19563E-03-6.38586E-07 1.63269E-01-6.44630E-14-3.20932E-14
 -1       863 1.99386E+01-3.65564E-02-2.32960E-05 1.78207E-01-5.49628E-14-7.31698E-14
 -1       864 1.99102E+01-4.91446E-02-1.14142E-04 1.84149E-01-8.10801E-14-4.13324E-14
 -1       865 1.98830E+01-3.72150E-02-1.77417E-05 1.85511E-01-4.51130E-14-3.36713E-14
 -1       866 1.98565E+01-6.60056E-03 1.00499E-03 1.84046E-01-4.43894E-14-1.16622E-13
 -1       867 1.98334E+01 3.56518E-02 5.64077E-03 1.81925E-01-5.89937E-14-1.79747E-13
 -1       868 1.98174E+01 8.12490E-02 1.49577E-02 1.84765E-01-9.33312E-14-1.56675E-13
 -1       869 1.98153E+01 1.38559E-01 3.90658E-02 2.05592E-01-9.59267E-14-1.30516E-13
 -1       870 1.98017E+01 2.03329E-01 3.90243E-02 2.32159E-01-2.90349E-15-1.09604E-14
 -1       871 1.98371E+01 2.26420E-01 2.22537E-03 2.82658E-01-1.24773E-13 1.17828E-13
 -1       872 1.97600E+01 3.43867E-01-9.45989E-02 3.45926E-01-3.13222E-14 1.61456E-13
 -1       873 1.97655E+01 4.34206E-01-3.54266E-02 4.32436E-01-2.52567E-14 1.77219E-13
 -1       874 1.96712E+01 5.34466E-01-1.06638E-02 5.60388E-01-2.80367E-14-7.31936E-14
 -1       875 1.95484E+01 6.25752E-01-2.10059E-03 7.04743E-01 4.61087E-15-4.84872E-14
 -1       876 1.94013E+01 6.94749E-01-1.37631E-04 8.71996E-01 1.16186E-13-3.92359E-14
 -1       877 1.92327E+01 7.23930E-01 1.08103E-04 1.06908E+00-6.03417E-14-1.93017E-13
 -1       878 1.90519E+01 6.84217E-01 8.65774E-05 1.30601E+00-1.73776E-13-1.56052E-13
 -1       879 1.88810E+01 5.32257E-01 7.80881E-05 1.59888E+00-1.05040E-13-6.35515E-14
 -1       880 1.87678E+01 2.04870E-01 3.02694E-04 1.97071E+00 4.70111E-14-1.12324E-13
 -1       881 1.88048E+01-3.84530E-01 1.56141E-03 2.44551E+00 1.34948E-13-3.35935E-13
 -1       882 1.91705E+01-1.34541E+00 3.94977E-03 3.02088E+00 1.79298E-13-4.49178E-13
 -1       883 1.97371E+01-2.48442E+00 9.48460E-03 3.60703E+00 6.88848E-14-5.57501E-13
 -1       884 1.92861E+01-1.10757E+00 8.72849E-03-3.04900E+00 2.89351E-13-4.10966E-13
 -1       885 1.90294E+01-2.65090E-01-1.09176E-03-2.51692E+00 2.29504E-13-3.53252E-13
 -1       886 1.90822E+01 3.01828E-01-1.05562E-03-2.08738E+00 6.92678E-14-8.89850E-14
 -1       887 2.01000E+01-4.71651E-02 9.26968E-04-1.17595E-01 7.32991E-14-9.45338E-14
 -1       888 2.00704E+01-4.56746E-02-1.81423E-04-1.17105E-01 3.16638E-14-9.86287E-14
 -1       889 2.01328E+01-2.78439E-02 3.04377E-04-1.14749E-01 1.04626E-13-7.35443E-14
 -1       890 2.00142E+01-7.91449E-03-1.43870E-02-1.08726E-01-1.51268E-14-6.97315E-14
 -1       891 2.00194E+01 1.05320E-02-1.12742E-02-1.36870E-01 3.51568E-14-8.69894E-14
 -1       892 1.99966E+01 1.03110E-01 7.62805E-04-1.69148E-01-5.40235E-14 2.84169E-14
 -1       893 1.99730E+01 1.67573E-01 1.76296E-03-2.11946E-01-1.49578E-14 8.44789E-14
 -1       894 1.99386E+01 2.39862E-01 4.65976E-04-2.75454E-01 8.96227E-15 6.73378E-14
 -1       895 1.98996E+01 3.15704E-01-1.00551E-04-3.57866E-01 6.08355E-15 4.05117E-14
 -1       896 1.98552E+01 3.89889E-01-1.87827E-04-4.58790E-01-9.18634E-15 6.67824E-14
 -1       897 1.98007E+01 4.59697E-01-3.83845E-04-5.78230E-01-5.16030E-14 7.40620E-14
 -1       898 1.97360E+01 5.19436E-01 1.24413E-04-7.18780E-01-1.31930E-13 2.24826E-14
 -1       899 1.96632E+01 5.56161E-01 1.81337E-04-8.82342E-01-1.75968E-13-1.71953E-14
 -1       900 1.95907E+01 5.50293E-01 1.28279E-04-1.07108E+00-1.23601E-13 7.99370E-14
 -1       901 1.95359E+01 4.72233E-01 1.00774E-04-1.28720E+00 8.96743E-14 1.28036E-13
 -1       902 1.95314E+01 2.80804E-01 1.14487E-04-1.53222E+00 1.48259E-13 2.15932E-13
 -1       903 1.96342E+01-7.72712E-02 4.00896E-04-1.80389E+00-4.22772E-14 2.60322E-13
 -1       904 1.99377E+01-6.62348E-01 9.17800E-04-2.08365E+00-1.68184E-13 3.23995E-13
 -1       905 2.05880E+01-1.53270E+00 1.69545E-03-2.32101E+00-1.94830E-13 2.48517E-13
 -1       906 2.17788E+01-2.65530E+00 2.19870E-03-2.35398E+00-2.29077E-13 2.01844E-13
 -1       907 1.34203E+01 3.24290E-01 2.88598E-02 2.14306E+00 1.31705E-14-5.74991E-14
 -1       908 1.98484E+01-1.55327E-01 4.61412E-04 2.08783E+00 9.53808E-14 5.11745E-13
 -1       909 1.97611E+01 3.06108E-01 1.74173E-03 1.81835E+00-1.69610E-15 3.43915E-13
 -1       910 2.01460E+01-8.16133E-01-8.75402E-04 2.35545E+00 5.38165E-14 4.97712E-13
 -1       911 2.26099E+01-4.14066E+00 6.24412E-02-3.35948E+00-8.95299E-14-1.92828E-13
 -1       912 1.23072E+01 8.77181E-01 4.06871E-02-1.39085E-02-4.06992E-13-2.70560E-13
 -1       913 1.77065E+01 1.26259E+00-1.41362E-03-2.76130E-01-1.09316E-13-2.01001E-13
 -1       914 2.00407E+01-2.68069E-02-4.26651E-03-1.14863E-01 4.52452E-14-1.09373E-13
 -1       915 1.99421E+01 1.86823E+00-2.40724E-04-1.56685E-01-5.02629E-14-3.27175E-13
 -1       916 2.00471E+01 7.10496E-01 1.72387E-04-1.61690E-01-9.65653E-14-1.40921E-13
 -1       917 2.08202E+01-1.72064E+00 5.11292E-03 2.56421E+00-5.28464E-14 4.87089E-13
 -1       918 1.75855E+01-1.45794E+00 1.98004E-02 3.78756E+00-1.00275E-13 7.69131E-13
 -1       919 1.61832E+01-1.08698E+00 2.81753E-02-3.81410E+00-1.87724E-13 4.25596E-13
 -1       920 1.27886E+01 7.93488E-01 3.42327E-02-3.53895E-01 4.15412E-13-5.06505E-14
 -1       921 1.33878E+01 4.44097E-01 2.59037E-02-2.22985E+00-4.18626E-13 9.00773E-14
 -1       922 1.98858E+01-2.69910E+00 1.71246E-02-3.67744E+00-2.48220E-13-1.41478E-13
 -1       923 1.46887E+01-5.21299E-02 3.50133E-02-2.92832E+00 1.67703E-13-4.08223E-13
 -1       924 1.97778E+01 6.39011E-01-5.62579E-05 1.54573E+00 1.52463E-14 1.82928E-13
 -1       925 2.02898E+01 4.23341E-01-1.97870E-04 1.05121E-01 8.53984E-14-1.39554E-13
 -1       926 2.00331E+01 1.17249E+00-7.57071E-04-2.75794E-01-9.08852E-14-2.11778E-13
 -1       927 2.03011E+01 6.61053E-01 3.33731E-04 2.43734E-01 8.60822E-14-1.63868E-13
 -1       928 2.02929E+01 9.95518E-01-2.43871E-04 4.02316E-01 1.14368E-13-2.08244E-13
 -1       929 1.31348E+01 6.80036E-01 2.46022E-02 1.53166E+00-2.40267E-13-5.55148E-13
 -1       930 2.34499E+01-3.36910E+00 4.98311E-03-1.66001E+00-7.28983E-14 3.54962E-13
 -1       931 2.01709E+01 1.73741E-02 5.31278E-05-1.01597E-01 6.29535E-14-8.10727E-14
 -1       932 1.62293E+01-2.13408E-01 1.50988E-02 2.95192E+00 6.89716E-14 3.81489E-13
 -1       933 1.93659E+01 5.24334E-01 9.38262E-04-1.84784E+00 2.36780E-13-7.67800E-14
 -1       934 2.02550E+01 2.24131E-01-3.58602E-04-3.92773E-03 6.96974E-14-1.59345E-13
 -1       935 1.77863E+01 1.21001E+00-3.07412E-04 5.57141E-01 4.31783E-13-2.28126E-13
 -1       936 1.68107E+01-8.42947E-01 1.75547E-02-3.46972E+00 2.16103E-13-3.97467E-13
 -1       937 2.01942E+01 1.32539E+00-4.73460E-05 2.35568E-01 1.72054E-14-2.74065E-13
 -1       938 1.89246E+01 6.43817E-01-9.05230E-04 1.67061E+00 2.51301E-13 4.26108E-13
 -1       939 1.80187E+01 1.12229E+00 8.29201E-04-1.04874E+00 1.12501E-13-8.65938E-14
 -1       940 2.01432E+01 1.39089E+00-7.89740E-05 1.07082E-01 2.60915E-14-2.90290E-13
 -1       941 1.82450E+01 9.72049E-01 1.64739E-04 1.24424E+00 3.20229E-13 3.42114E-13
 -1       942 1.86280E+01 8.27007E-01-1.99667E-03-1.58931E+00 1.57313E-14-3.45686E-13
 -1       943 1.68261E+01-1.10214E+00 2.50556E-02 3.66181E+00 4.19222E-14-4.52827E-13
 -1       944 2.02485E+01 1.19345E+00 3.48372E-05 3.40026E-01 4.81672E-14-2.50529E-13
 -1       945 2.01307E+01 6.56437E-01 1.08748E-04-6.88393E-02-5.45251E-14-1.65677E-13
 -1       946 2.01232E+01 1.91826E-01-7.28815E-06 8.48738E-02-6.37602E-14-1.30220E-13
 -1       947 2.00941E+01 6.70559E-02-3.26456E-06 1.22090E-01-6.03669E-14-1.60697E-13
 -1       948 2.00581E+01-6.63664E-03-1.12470E-05 1.42517E-01-5.08034E-14-1.35874E-13
 -1       949 2.00193E+01-4.09313E-02-5.09051E-05 1.52322E-01-2.37569E-14-6.01261E-14
 -1       950 1.99797E+01-4.46133E-02-1.12021E-04 1.55919E-01-6.07438E-14-1.31926E-14
 -1       951 1.99399E+01-2.47238E-02-9.06624E-05 1.56180E-01-1.21043E-13-7.45545E-14
 -1       952 1.99009E+01 1.23994E-02 6.62824E-04 1.55656E-01-8.08577E-14-9.88631E-14
 -1       953 1.98637E+01 6.09735E-02 3.06468E-03 1.58483E-01-8.64706E-14-1.34689E-13
 -1       954 1.98291E+01 1.21222E-01 1.18462E-02 1.71616E-01-5.01298E-14-1.90116E-13
 -1       955 1.97946E+01 1.91687E-01 2.58106E-02 1.96438E-01 6.23173E-14 2.40931E-14
 -1       956 1.97729E+01 2.79127E-01 5.55411E-02 2.33147E-01-3.35773E-14 2.11324E-14
 -1       957 1.97266E+01 3.44775E-01 1.37556E-02 2.74011E-01 3.13118E-14 7.70495E-14
 -1       958 1.96385E+01 4.59451E-01-2.93289E-02 3.14549E-01-5.26358E-14 1.14173E-13
 -1       959 1.95277E+01 5.83052E-01-1.60386E-02 3.91608E-01-1.24804E-13 3.20902E-14
 -1       960 1.93708E+01 6.95812E-01-4.70405E-03 4.96669E-01 9.09404E-15 1.12153E-13
 -1       961 1.91678E+01 7.96742E-01-8.22362E-04 6.22082E-01 2.63501E-14-2.37791E-14
 -1       962 1.89171E+01 8.75006E-01-5.99942E-05 7.72567E-01 2.82989E-14-7.26494E-14
 -1       963 1.86148E+01 9.11663E-01-6.91339E-05 9.59595E-01-1.35682E-13 1.54745E-14
 -1       964 1.82580E+01 8.78490E-01-1.36723E-04 1.20279E+00-5.74827E-14-8.70206E-14
 -1       965 1.78464E+01 7.36470E-01-2.03777E-04 1.53719E+00-1.27311E-13-7.71807E-14
 -1       966 1.73966E+01 4.17423E-01 2.39045E-04 2.02065E+00-1.63589E-14-2.29522E-13
 -1       967 1.70042E+01-1.48258E-01 4.21382E-03 2.70198E+00-2.03771E-14-2.43780E-13
 -1       968 1.99314E+01 1.68384E-01-4.53441E-04-1.56794E-01-1.26262E-13-2.88662E-14
 -1       969 1.96633E+01-2.18203E+00 1.76551E-02 3.50357E+00-8.59924E-15 5.89191E-13
 -1       970 1.79085E+01 4.78247E-01-3.63217E-03-2.04216E+00 1.80193E-13-2.81577E-13
 -1       971 2.00665E+01 1.31019E+00 1.36120E-05-1.71521E-01-4.09546E-14-2.63137E-13
 -1       972 2.01659E+01-3.69125E-02 1.59250E-04-8.39325E-02 2.90401E-14-6.46460E-14
 -1       973 1.99777E+01 8.81873E-02-2.49022E-03-1.28644E-01-8.00843E-14-3.78987E-14
 -1       974 2.00170E+01 2.08961E-02-5.07595E-03-1.02296E-01 3.67566E-15-4.86505E-14
 -1       975 1.98780E+01 2.54398E-01-1.41018E-04-2.01278E-01-1.25487E-14 3.83210E-14
 -1       976 1.98131E+01 3.46830E-01-1.34490E-03-2.67207E-01 1.64426E-14 5.47796E-14
 -1       977 1.97389E+01 4.35702E-01-3.10232E-03-3.50951E-01 3.35804E-14-8.12241E-15
 -1       978 1.96452E+01 5.22242E-01-3.94407E-03-4.46526E-01 5.10880E-14-1.25415E-13
 -1       979 1.95288E+01 6.07498E-01-6.54742E-04-5.61015E-01-1.25077E-13-1.18869E-13
 -1       980 1.93865E+01 6.78909E-01 2.61092E-04-6.98315E-01-1.55195E-13-7.15661E-14
 -1       981 1.92193E+01 7.22895E-01 2.19531E-04-8.64532E-01-2.47161E-13-1.08464E-13
 -1       982 1.90330E+01 7.16845E-01 7.77179E-05-1.06887E+00 2.94980E-15-1.35815E-13
 -1       983 1.88416E+01 6.27543E-01 9.66225E-06-1.32498E+00-2.92160E-15-1.23748E-13
 -1       984 1.86719E+01 4.10292E-01-1.22414E-04-1.65240E+00-7.72309E-14 1.25414E-13
 -1       985 1.85778E+01-1.22956E-03-3.96571E-04-2.08712E+00-8.86396E-14 1.97788E-13
 -1       986 1.86814E+01-7.03202E-01 9.24516E-04-2.65306E+00-9.77396E-14 2.66288E-14
 -1       987 1.90006E+01 3.81071E-01-2.74827E-03 1.90830E+00 1.85088E-13 5.31030E-13
 -1       988 1.88741E+01-1.27054E-01-7.35363E-04 2.34979E+00 4.95373E-14 4.70938E-13
 -1       989 2.01377E+01 3.83387E-01-4.10727E-05 2.34961E-02-5.51009E-14-1.37342E-13
 -1       990 2.01009E+01 1.38852E+00-3.50274E-04-2.98215E-02-9.87149E-15-3.11330E-13
 -1       991 1.85550E+01-1.34401E+00 7.42411E-03-3.22834E+00-1.58857E-13-3.24951E-14
 -1       992 2.00843E+01-3.85797E-02-9.76192E-04-8.73482E-02 5.66007E-14-7.57272E-14
 -1       993 1.73696E+01-4.65758E-02 2.80220E-03-2.64281E+00 2.70278E-13-2.47351E-13
 -1       994 2.02123E+01 9.75526E-02-3.70063E-05-6.83596E-02 4.43578E-14-1.51130E-13
 -1       995 1.89552E+01-8.85258E-01 3.19595E-03 2.90150E+00-3.01974E-14 5.33028E-13
 -1       996 1.58348E+01 1.10311E-01 6.60998E-03-2.61498E+00-2.69712E-13 1.68890E-13
 -1       997 1.50737E+01 7.96871E-01 1.42619E-02-1.33273E+00 3.03335E-13-2.44517E-13
 -1       998 1.43468E+01 8.71634E-01 1.04597E-02 8.82859E-01 4.03851E-14-4.28181E-13
 -1       999 2.00475E+01-1.47984E-02-3.87555E-03-8.88197E-02 3.59557E-14-7.48908E-14
 -1      1000 2.01242E+01-4.86493E-02-2.54785E-05-8.68045E-02 4.69841E-14 2.04674E-15
 -1      1001 1.42236E+01 1.00398E+00 1.38486E-02-7.54779E-01-5.48583E-13-1.38309E-13
 -1      1002 1.43597E+01 1.08825E+00 1.19354E-02 3.98639E-01-4.28851E-13-1.42755E-13
 -1      1003 2.02088E+01 3.32583E-03 3.05805E-05-7.45532E-02 1.08985E-13-1.17432E-13
 -1      1004 2.03037E+01 8.25060E-01 4.25413E-04 2.28886E-01 8.06799E-14-2.06737E-13
 -1      1005 1.45500E+01 4.14067E-01 1.32868E-02 2.23895E+00-1.39304E-13-4.47407E-13
 -1      1006 1.68863E+01 1.15540E+00 5.45089E-03 2.07227E-01 2.20114E-13-3.77630E-13
 -1      1007 1.61039E+01 4.31577E-01 1.02770E-02-2.13362E+00 3.38275E-13-4.46453E-13
 -1      1008 1.70428E+01 1.11131E+00 1.17409E-03-8.38836E-01 1.97269E-13-1.69223E-13
 -1      1009 2.02768E+01 9.44546E-01 2.84109E-04 1.77582E-01 4.72027E-14-2.37211E-13
 -1      1010 2.02383E+01 1.01184E+00 1.68383E-04 1.01400E-01 1.04777E-14-2.91628E-13
 -1      1011 2.03232E+01 4.96547E-01-1.20861E-04 9.66131E-02 6.83670E-14-1.99969E-13
 -1      1012 1.83566E+01 5.24857E-01-1.06111E-04 1.82556E+00 1.25134E-13 1.79106E-13
 -1      1013 1.99184E+01 1.49582E-01-6.45543E-04-9.38919E-02-9.64718E-14-1.11535E-14
 -1      1014 2.01914E+01 1.49454E-01-3.88026E-05 8.14375E-02-7.37315E-14-1.90606E-13
 -1      1015 1.69851E+01 4.01824E-01 4.96860E-03 2.14432E+00 1.22017E-13 5.65656E-13
 -1      1016 2.01577E+01 3.97955E-02-3.60943E-05 1.01396E-01-4.48046E-14-1.67017E-13
 -1      1017 2.01154E+01-2.06645E-02-9.51740E-06 1.11995E-01 1.99407E-14-1.11461E-13
 -1      1018 2.00692E+01-4.35233E-02-6.75153E-05 1.16737E-01-1.40018E-14-9.34593E-14
 -1      1019 2.00212E+01-3.71731E-02-1.22139E-04 1.17863E-01-9.97495E-14-8.37663E-14
 -1      1020 1.99724E+01-8.42567E-03-4.30900E-05 1.17360E-01-9.98342E-14-1.60676E-14
 -1      1021 1.99228E+01 3.75143E-02 7.51544E-04 1.17803E-01-1.58550E-13-1.43724E-13
 -1      1022 1.98714E+01 9.87966E-02 5.33353E-03 1.22941E-01-3.86098E-14-6.65861E-14
 -1      1023 1.98157E+01 1.76708E-01 2.09731E-02 1.36763E-01 9.86203E-14-7.04736E-14
 -1      1024 1.97596E+01 2.72425E-01 7.07934E-02 1.65126E-01 1.94671E-14-6.06581E-14
 -1      1025 1.97650E+01 3.82621E-01 1.85676E-01 2.08006E-01-1.95538E-14 9.60343E-15
 -1      1026 1.95846E+01 4.64681E-01-4.31002E-03 1.63164E-01 6.75814E-14-1.58207E-14
 -1      1027 1.94711E+01 5.76114E-01-4.48170E-02 2.23675E-01-1.16844E-13-3.99572E-14
 -1      1028 1.93013E+01 7.14119E-01-1.73768E-02 2.83184E-01-6.16681E-14-1.07576E-13
 -1      1029 1.90771E+01 8.37832E-01-4.31986E-03 3.56646E-01-4.94188E-14-1.21540E-13
 -1      1030 1.87914E+01 9.48317E-01-8.67019E-04 4.44529E-01 3.75696E-14-2.77326E-14
 -1      1031 1.84322E+01 1.03684E+00-3.55281E-04 5.53357E-01-1.53918E-14-1.44715E-13
 -1      1032 1.79815E+01 1.08734E+00-5.03916E-04 6.96235E-01-1.22670E-13 3.19060E-15
 -1      1033 1.74126E+01 1.07755E+00-7.40765E-04 8.95929E-01-2.20948E-13-7.05215E-14
 -1      1034 1.66777E+01 9.82550E-01 7.88181E-04 1.20040E+00-1.45988E-13-1.17674E-13
 -1      1035 1.97667E+01 3.53956E-01-2.89191E-03-1.67020E-01-1.00289E-14 2.56972E-14
 -1      1036 2.02524E+01 7.82509E-02-2.15468E-04-5.17882E-02 6.98620E-15-1.24557E-13
 -1      1037 1.98496E+01 2.44893E-01 2.00298E-04-1.20996E-01-1.16285E-13 1.02114E-15
 -1      1038 1.99773E+01 7.06144E-02-1.38685E-03-7.45286E-02-5.32272E-14-6.69441E-15
 -1      1039 1.96755E+01 4.58621E-01-1.39181E-02-2.35784E-01 1.34699E-13-4.41721E-14
 -1      1040 1.95638E+01 5.45204E-01-2.16835E-02-3.00829E-01 1.13619E-13-2.00896E-13
 -1      1041 1.94213E+01 6.53079E-01-5.95993E-03-3.79636E-01-2.80961E-14-1.57674E-13
 -1      1042 1.92382E+01 7.52361E-01-1.16781E-04-4.75584E-01-1.56398E-13-2.38339E-13
 -1      1043 1.90106E+01 8.37785E-01 5.33855E-04-5.95634E-01-9.81427E-14-2.57744E-13
 -1      1044 1.87354E+01 8.94732E-01 1.83002E-04-7.49248E-01-1.47750E-13-2.62537E-13
 -1      1045 1.84073E+01 9.01995E-01-2.14109E-04-9.51700E-01-7.58457E-14-7.75606E-14
 -1      1046 1.80246E+01 8.25850E-01-1.03350E-03-1.23119E+00-2.41369E-13-7.92993E-14
 -1      1047 1.75901E+01 6.19827E-01-2.12273E-03-1.62658E+00-1.34335E-13-7.67339E-14
 -1      1048 1.68631E+01 4.18215E-01 2.06526E-03-2.02451E+00-1.24527E-13-1.23335E-13
 -1      1049 2.02021E+01 5.77494E-01 1.93900E-04-3.05628E-03-1.39261E-14-2.04835E-13
 -1      1050 2.01960E+01 1.02244E+00-1.08664E-04 1.56168E-02 4.09720E-14-2.98151E-13
 -1      1051 2.02876E+01 2.09951E-01 5.16801E-04-8.60415E-03 4.60726E-14-1.30187E-13
 -1      1052 1.72587E+01 9.49909E-01-3.41501E-03 1.19458E+00 1.79899E-13 1.49253E-13
 -1      1053 1.56206E+01 1.10073E+00 4.90972E-03-7.57817E-01-3.35566E-13-1.72041E-13
 -1      1054 2.01687E+01-4.33120E-02-3.94655E-05-4.66357E-02 4.66842E-14-7.53245E-14
 -1      1055 1.58031E+01 1.10188E+00 9.17814E-04-1.21267E-03 1.34020E-13-3.71800E-13
 -1      1056 2.01206E+01-4.48313E-02-1.93682E-04-4.91804E-02 9.27496E-14-6.09583E-14
 -1      1057 2.02095E+01 3.22844E-01 1.43325E-05 4.83090E-02-5.23756E-14-2.02193E-13
 -1      1058 2.00735E+01-2.50875E-02-9.34921E-04-5.19096E-02 4.92873E-14-1.64352E-14
 -1      1059 2.00275E+01 1.24459E-02-1.54805E-03-5.94809E-02-5.89689E-15-3.56253E-15
 -1      1060 2.03159E+01 5.84972E-01-1.71600E-04 8.32806E-02 7.06395E-14-2.11015E-13
 -1      1061 2.02164E+01-1.30926E-02 3.67701E-07-4.12636E-02-1.60370E-14-1.01465E-13
 -1      1062 2.03172E+01 2.54923E-01 6.86468E-05 1.79738E-02 1.05693E-14-2.56241E-13
 -1      1063 1.57542E+01 7.89956E-01 1.63161E-03 1.60455E+00-8.59366E-14-2.75055E-13
 -1      1064 1.56307E+01 1.19917E+00 1.46996E-03 5.95620E-02-2.18561E-13-3.22536E-14
 -1      1065 2.01814E+01 8.60527E-01-7.49501E-05-3.89805E-02 1.21137E-14-2.48120E-13
 -1      1066 2.01467E+01-4.59562E-02-1.68451E-04-4.10641E-03 2.28169E-14-1.98480E-13
 -1      1067 2.02347E+01 1.00792E-01 1.15704E-04 6.35581E-02-4.24976E-14-1.34739E-13
 -1      1068 2.01930E+01 1.21772E-02 1.67984E-05 6.97234E-02 2.02574E-14-1.24999E-13
 -1      1069 2.01457E+01-3.35880E-02-4.49107E-05 7.28161E-02 8.76301E-15-1.14414E-13
 -1      1070 2.00947E+01-4.27246E-02 5.20008E-05 7.37995E-02-5.99387E-14-7.79196E-14
 -1      1071 2.00411E+01-2.56566E-02 1.12031E-04 7.30103E-02-9.43972E-14-9.45743E-14
 -1      1072 1.99861E+01 1.27488E-02 7.05550E-04 7.15476E-02-1.45456E-13-1.25735E-13
 -1      1073 1.99287E+01 6.96663E-02 3.97356E-03 7.11281E-02-5.45533E-14-1.19847E-13
 -1      1074 1.98682E+01 1.45799E-01 1.76248E-02 7.37901E-02 9.49853E-15-1.58967E-13
 -1      1075 1.98082E+01 2.49718E-01 6.61905E-02 8.08562E-02 6.90906E-14-1.68542E-13
 -1      1076 1.97643E+01 4.10151E-01 2.01392E-01 6.96512E-02 7.35627E-14-3.69704E-14
 -1      1077 1.96117E+01 4.46428E-01 2.50466E-02 8.13741E-02-1.70974E-14-3.83027E-15
 -1      1078 1.94525E+01 5.04401E-01-2.00461E-01 8.39574E-02-9.90093E-14-9.38971E-14
 -1      1079 1.93058E+01 6.77270E-01-6.91875E-02 8.78479E-02-7.61173E-14-2.47927E-14
 -1      1080 1.90953E+01 8.21819E-01-1.72804E-02 1.13247E-01-7.78772E-15 1.24129E-13
 -1      1081 1.88146E+01 9.49185E-01-3.33902E-03 1.38867E-01 4.24018E-14 8.83094E-14
 -1      1082 1.84552E+01 1.06282E+00-3.63588E-04 1.67327E-01-6.58705E-14-1.22612E-14
 -1      1083 1.79964E+01 1.15534E+00 5.06099E-05 2.00372E-01-3.10294E-14-1.87624E-13
 -1      1084 1.74078E+01 1.21854E+00 2.78303E-04 2.50291E-01-1.07044E-13-1.18027E-13
 -1      1085 1.66769E+01 1.20587E+00 3.59128E-03 3.14952E-01-2.94784E-13 1.15200E-13
 -1      1086 1.94750E+01 4.99332E-01-1.56681E-01-1.47539E-01 1.24012E-13-4.48183E-14
 -1      1087 1.97627E+01 3.34210E-01 1.36807E-02-5.37331E-02 1.30260E-14-1.45885E-13
 -1      1088 1.99202E+01 1.21674E-01 1.29164E-03-2.81768E-02-6.00470E-14 1.33998E-13
 -1      1089 1.93906E+01 6.53822E-01-3.62740E-02-1.98393E-01 7.74849E-14 8.42390E-14
 -1      1090 1.92003E+01 7.72265E-01-4.21210E-03-2.44694E-01-3.65073E-15 1.25989E-14
 -1      1091 1.89470E+01 8.85973E-01 1.15608E-03-3.09571E-01-6.92423E-14-1.22462E-13
 -1      1092 1.86310E+01 9.85483E-01 8.72332E-04-3.95404E-01-1.20578E-13-1.36827E-13
 -1      1093 1.82385E+01 1.05869E+00 2.06556E-04-5.10143E-01-1.35200E-13-1.74550E-13
 -1      1094 1.77460E+01 1.09163E+00 2.30959E-04-6.66488E-01-9.67888E-14-1.77372E-13
 -1      1095 1.71354E+01 1.06303E+00 4.97849E-03-8.93967E-01-1.30916E-13-3.35453E-13
 -1      1096 1.64651E+01 1.07801E+00 4.79383E-03-8.57010E-01-1.63338E-13-2.67278E-13
 -1      1097 2.02359E+01 7.15128E-01 1.17133E-04 1.46596E-02 1.50064E-14-2.62145E-13
 -1      1098 2.02842E+01 6.42120E-01 3.19502E-04 5.35350E-02 3.61833E-14-3.03051E-13
 -1      1099 1.98475E+01 2.14627E-01 7.32015E-03-3.92727E-02-4.60608E-14 7.34872E-15
 -1      1100 2.00941E+01-3.45516E-02-2.25512E-04-6.82219E-03-7.76906E-15-1.12198E-13
 -1      1101 1.96777E+01 4.43843E-01-3.25612E-02-9.37548E-02 7.26580E-14-2.37491E-13
 -1      1102 2.02625E+01 5.29891E-02 2.19938E-04-2.82659E-02 4.05770E-14-2.23808E-13
 -1      1103 2.01956E+01-2.72636E-02 2.12302E-06-2.21376E-03 4.01618E-15-2.40959E-13
 -1      1104 1.99836E+01 4.97263E-02-2.94695E-04-1.85262E-02-4.97106E-14 1.15619E-13
 -1      1105 2.03053E+01 2.94546E-01 1.40406E-04 3.72292E-02 2.79593E-14-2.20708E-13
 -1      1106 2.02599E+01 2.48465E-01 1.11761E-04 5.27608E-02-1.39583E-14-1.69026E-13
 -1      1107 1.64312E+01 1.19648E+00-6.30330E-03-2.66174E-01-1.85060E-13-8.31051E-14
 -1      1108 2.00404E+01-2.32580E-03-4.30501E-04-1.11700E-02-3.96745E-14-6.21050E-15
 -1      1109 2.02630E+01 4.42120E-01-2.68525E-04 3.69813E-02-2.26264E-14-2.36423E-13
 -1      1110 2.02032E+01-1.56761E-02 1.98159E-04 2.96542E-02 1.10336E-14-2.12327E-13
 -1      1111 2.02469E+01 2.37777E-02-7.27226E-05 3.89437E-03-3.70271E-14-2.28454E-13
 -1      1112 2.02853E+01 1.25922E-01-3.05137E-04 2.13576E-02-4.93347E-15-1.99830E-13
 -1      1113 2.72605E+01 8.85808E+00 2.26626E+00-6.54538E+00-2.90323E-14 1.44887E-12
 -1      1114 2.00569E+01 6.07794E+00 2.02898E-01-3.82845E+00-2.00673E-14 3.91041E-13
 -1      1115 1.90144E+01 5.72621E+00 7.29701E-02-2.83968E+00-1.54668E-14-1.04356E-13
 -1      1116 1.86600E+01 5.61575E+00 5.91122E-02-2.20210E+00-1.03910E-14-3.58662E-13
 -1      1117 1.85222E+01 5.57375E+00 5.69398E-02-1.67845E+00-8.31279E-15-4.94751E-13
 -1      1118 1.84728E+01 5.55834E+00 5.49229E-02-1.21840E+00-5.92235E-15-5.76544E-13
 -1      1119 1.84668E+01 5.55605E+00 5.33058E-02-7.93847E-01-3.68043E-15-6.13325E-13
 -1      1120 1.84849E+01 5.56112E+00 5.21965E-02-3.86128E-01-2.02876E-15-6.36014E-13
 -1      1121 1.85191E+01 5.57131E+00 5.19006E-02 1.25679E-02-7.00828E-16-6.49676E-13
 -1      1122 1.85676E+01 5.58603E+00 5.24858E-02 4.12575E-01 1.29844E-15-6.57003E-13
 -1      1123 1.86331E+01 5.60610E+00 5.39310E-02 8.24458E-01 2.31412E-15-6.54207E-13
 -1      1124 1.87240E+01 5.63406E+00 5.61969E-02 1.25667E+00 4.70630E-15-6.28810E-13
 -1      1125 1.88602E+01 5.67561E+00 5.84847E-02 1.72913E+00 6.05765E-15-5.80476E-13
 -1      1126 1.90895E+01 5.74502E+00 6.05927E-02 2.27214E+00 1.03875E-14-4.74986E-13
 -1      1127 1.95347E+01 5.88137E+00 6.98783E-02 2.93645E+00 1.51684E-14-2.55060E-13
 -1      1128 2.06084E+01 6.22926E+00 1.55720E-01 3.89562E+00 1.89571E-14 1.97432E-13
 -1      1129 2.54516E+01 8.06942E+00 1.44640E+00 5.88549E+00 4.42979E-14 1.20523E-12
 -1      1130 2.80662E+01 3.52731E+00 1.23914E+00-4.11889E+00-1.33005E-13 2.13546E-12
 -1      1131 1.96684E+01-1.73740E-01-6.02933E-01-1.08679E-01-4.07729E-14 1.83142E-12
 -1      1132 1.83007E+01-9.45686E-02-2.31769E-01 6.09884E-02-1.51129E-14 1.37523E-12
 -1      1133 1.79755E+01-4.72298E-02-5.86337E-02 3.97062E-02-1.22038E-14 1.03430E-12
 -1      1134 1.79256E+01-2.41833E-02-1.49860E-02 2.63274E-02-6.55097E-15 8.15369E-13
 -1      1135 1.80103E+01-1.27773E-02-4.84212E-03 1.87545E-02-1.75790E-14 6.40508E-13
 -1      1136 1.81587E+01-6.38562E-03-1.27752E-03 1.38864E-02-3.41318E-15 5.06152E-13
 -1      1137 1.83311E+01-2.59240E-03 9.22285E-04 1.04617E-02-6.70278E-15 3.76282E-13
 -1      1138 1.85044E+01-2.84399E-04 2.54728E-03 7.85050E-03 1.37158E-14 2.63374E-13
 -1      1139 1.86646E+01 1.17083E-03 3.58300E-03 5.69572E-03 3.51898E-15 2.03350E-13
 -1      1140 1.88020E+01 2.20325E-03 2.43577E-03 3.72735E-03-1.41128E-14 8.65323E-14
 -1      1141 1.89075E+01 3.16538E-03-9.03411E-03 1.64398E-03-7.11958E-15 8.69478E-14
 -1      1142 1.89647E+01 4.45270E-03-5.72352E-02-6.85364E-04-1.64550E-14-2.79429E-14
 -1      1143 1.89653E+01 2.02606E-02-1.77529E-01 1.58982E-02-4.67335E-15-5.93831E-14
 -1      1144 1.92730E+01-1.66428E-02-1.34708E-01 1.69402E-01-6.32827E-15-3.01426E-14
 -1      1145 2.00324E+01 2.30607E-03 1.94049E-01 1.19898E-02-3.77007E-14-1.46383E-13
 -1      1146 1.99766E+01-5.37148E-03 8.76469E-02-2.39420E-03 2.01688E-14-1.20501E-13
 -1      1147 2.00053E+01-7.35673E-03 1.05315E-02-1.49866E-03 2.61824E-14-3.03681E-14
 -1      1148 2.01056E+01-4.44987E-03-9.94218E-03-3.58000E-04-1.65998E-14-2.00341E-13
 -1      1149 2.02573E+01-6.10802E-03-1.18210E-02 1.16219E-03 7.14446E-15-3.83953E-13
 -1      1150 2.04581E+01-6.02658E-03-1.05264E-02 2.43607E-03 2.67679E-15-2.40835E-13
 -1      1151 2.07169E+01-7.58362E-03-1.00548E-02 4.17953E-03 6.16553E-15-1.27258E-13
 -1      1152 2.10450E+01-8.92702E-03-1.15845E-02 6.19580E-03-9.44709E-15-2.71857E-14
 -1      1153 2.14559E+01-9.90297E-03-1.33401E-02 8.90351E-03-3.32450E-14-1.38882E-13
 -1      1154 2.19608E+01-9.89289E-03-1.40123E-02 1.24136E-02 1.42522E-14-1.93609E-13
 -1      1155 2.25630E+01-7.99670E-03-1.20866E-02 1.65357E-02 3.12135E-14 3.21687E-14
 -1      1156 2.32474E+01-3.00245E-03-5.47788E-03 2.05635E-02 4.91404E-14 3.29771E-13
 -1      1157 2.39677E+01 6.50298E-03 8.43412E-03 2.28818E-02-2.23303E-14 8.97477E-14
 -1      1158 2.46280E+01 2.15458E-02 3.18726E-02 2.05097E-02-3.99485E-15-8.30239E-14
 -1      1159 2.50685E+01 4.13616E-02 6.40580E-02 9.04029E-03 4.49423E-14-1.11581E-13
 -1      1160 2.50702E+01 6.10681E-02 9.68413E-02-1.59752E-02-4.98030E-14-2.39066E-13
 -1      1161 2.44084E+01 6.97021E-02 1.11178E-01-5.49133E-02-5.53377E-16-6.08201E-13
 -1      1162 2.29819E+01 5.21711E-02 8.15874E-02-9.76968E-02 3.24051E-14-2.31967E-13
 -1      1163 2.09899E+01 2.43180E-04-3.82433E-03-1.21117E-01 3.27051E-14 3.04756E-14
 -1      1164 1.90201E+01-7.03754E-02-1.17371E-01-9.98764E-02 5.71982E-14 3.66346E-13
 -1      1165 1.78597E+01-1.18542E-01-1.93496E-01-3.08193E-02 1.78000E-14 4.83894E-13
 -1      1166 1.80373E+01-1.08858E-01-1.78393E-01 5.44567E-02 1.69404E-14 3.77524E-13
 -1      1167 1.94486E+01-4.88400E-02-8.30451E-02 1.10957E-01 5.54591E-15 4.35790E-13
 -1      1168 2.14309E+01 2.03584E-02 2.87327E-02 1.16748E-01 1.89913E-14 2.49162E-13
 -1      1169 2.32115E+01 6.26289E-02 9.88361E-02 8.39951E-02 4.65288E-14 4.70943E-13
 -1      1170 2.43100E+01 7.09265E-02 1.13090E-01 3.97898E-02 2.15548E-14 4.67230E-13
 -1      1171 2.46320E+01 5.76123E-02 9.08597E-02 3.75765E-03-6.10519E-14 4.98144E-13
 -1      1172 2.43322E+01 3.68125E-02 5.67821E-02-1.79198E-02-3.86796E-14 3.02328E-13
 -1      1173 2.36434E+01 1.74251E-02 2.60831E-02-2.74323E-02 5.68881E-14 2.18662E-13
 -1      1174 2.27750E+01 2.50361E-03 3.59697E-03-2.92967E-02 5.72741E-14 4.80407E-13
 -1      1175 2.18804E+01-8.26329E-03-1.21279E-02-2.71038E-02-5.61299E-14 8.94968E-13
 -1      1176 2.10665E+01-1.64540E-02-2.47079E-02-2.23504E-02-4.24381E-14 1.86531E-13
 -1      1177 2.04188E+01-2.29855E-02-3.56427E-02-1.36863E-02-1.19024E-14-4.72310E-13
 -1      1178 2.00320E+01-2.95882E-02-3.48479E-02 3.82807E-03 4.79354E-14-9.82604E-13
 -1      1179 1.99665E+01 1.12478E-02 2.17510E-02 1.19736E-02-1.48102E-15-5.21916E-13
 -1      1180 2.80672E+01 5.30455E-01 3.81416E-01 1.98086E+00-2.00812E-14 2.05763E-12
 -1      1181 2.03130E+01-6.64629E-02-5.76558E-01 1.29702E-01 1.86448E-14 1.53039E-12
 -1      1182 1.91272E+01-4.06168E-02-1.93821E-01 1.92906E-02 1.17658E-14 1.08455E-12
 -1      1183 1.87389E+01-2.13347E-02-5.04269E-02 1.37413E-03 4.76745E-15 7.63219E-13
 -1      1184 1.86576E+01-1.23001E-02-1.31691E-02-4.11144E-03 1.96609E-15 5.19668E-13
 -1      1185 1.87216E+01-7.29894E-03-4.45434E-03-5.51568E-03 1.46338E-14 2.82940E-13
 -1      1186 1.88526E+01-4.24209E-03-1.78596E-03-5.65457E-03 2.92724E-15 1.37976E-13
 -1      1187 1.90097E+01-2.31093E-03-2.95066E-04-5.32309E-03 3.64262E-15 6.87592E-14
 -1      1188 1.91701E+01-1.11180E-03 6.88426E-04-4.77241E-03 8.16865E-15-1.55296E-13
 -1      1189 1.93214E+01-4.29446E-04 1.37116E-03-4.13139E-03-4.99367E-15-1.39396E-13
 -1      1190 1.94581E+01-3.96255E-05 2.46736E-03-3.54125E-03 1.61670E-14-2.24610E-13
 -1      1191 1.95782E+01 8.82992E-04 4.73532E-03-2.64917E-03-1.03113E-15-2.78190E-13
 -1      1192 1.96758E+01-9.90899E-05 4.21403E-03-9.37312E-04-2.90528E-15-2.65363E-13
 -1      1193 1.97553E+01-1.09322E-03-5.03699E-03-9.38652E-04-1.10773E-14-1.32593E-13
 -1      1194 1.98356E+01-9.34575E-05-8.31978E-03-1.72767E-04 2.42702E-14-3.19733E-13
 -1      1195 1.99149E+01-1.19596E-03-4.03177E-03-3.78420E-05 7.00061E-15-5.42344E-13
 -1      1196 1.99926E+01-1.79792E-03-2.65392E-03 7.95258E-04-4.60642E-14-3.21877E-13
 -1      1197 2.00806E+01-2.47735E-03-2.95444E-03 1.26682E-03 1.10894E-14-3.53014E-13
 -1      1198 2.01890E+01-3.47078E-03-4.13653E-03 1.68818E-03 3.74878E-14-7.62737E-13
 -1      1199 2.03268E+01-4.61589E-03-5.86035E-03 2.11781E-03-1.60011E-14-6.64891E-13
 -1      1200 2.05060E+01-5.83055E-03-7.80746E-03 2.32999E-03-1.39584E-14-4.96881E-13
 -1      1201 2.07397E+01-6.99151E-03-9.82110E-03 2.17417E-03-2.26696E-15-3.57650E-13
 -1      1202 2.10410E+01-7.89215E-03-1.16607E-02 1.47962E-03 7.17525E-15-5.69439E-13
 -1      1203 2.14208E+01-8.16731E-03-1.28896E-02 3.94384E-06 2.21346E-14-6.34860E-13
 -1      1204 2.18849E+01-7.22381E-03-1.27147E-02-2.57421E-03 2.87547E-14-3.90124E-13
 -1      1205 2.24290E+01-4.20543E-03-9.83488E-03-6.59464E-03-3.07117E-15-1.20737E-15
 -1      1206 2.30300E+01 1.92825E-03-2.39896E-03-1.22287E-02-5.29359E-15 1.38674E-14
 -1      1207 2.36352E+01 1.20360E-02 1.16745E-02-1.90830E-02-1.98662E-14-1.57853E-13
 -1      1208 2.41490E+01 2.59230E-02 3.35551E-02-2.55441E-02-4.22557E-15-1.91746E-13
 -1      1209 2.44258E+01 4.09179E-02 6.11302E-02-2.80711E-02-9.94213E-15-3.14468E-13
 -1      1210 2.42835E+01 5.06049E-02 8.58937E-02-2.12421E-02 2.27700E-14-6.54438E-13
 -1      1211 2.35580E+01 4.57257E-02 9.18966E-02 1.00137E-06 7.87304E-15-5.20417E-13
 -1      1212 2.22105E+01 1.97663E-02 6.18208E-02 3.50346E-02-1.21778E-14-4.76258E-13
 -1      1213 2.04526E+01-2.20364E-02-7.65477E-03 7.20308E-02-6.12249E-16-6.39169E-13
 -1      1214 1.87832E+01-5.98230E-02-9.17949E-02 8.98841E-02-3.45527E-14-6.00395E-13
 -1      1215 1.78208E+01-7.13658E-02-1.45290E-01 7.22636E-02 4.39856E-14-1.10420E-12
 -1      1216 1.79649E+01-5.15137E-02-1.35762E-01 2.35435E-02 4.28841E-14-1.46604E-12
 -1      1217 1.91337E+01-1.60329E-02-7.19280E-02-3.14653E-02-6.83741E-15-1.40638E-12
 -1      1218 2.08183E+01 1.44994E-02 5.66223E-03-6.68930E-02 5.73380E-16-1.34194E-12
 -1      1219 2.24032E+01 3.00695E-02 5.94054E-02-7.33518E-02 6.01776E-15-1.33614E-12
 -1      1220 2.34688E+01 3.19474E-02 7.72552E-02-5.82632E-02-3.55146E-14-7.93095E-13
 -1      1221 2.38872E+01 2.60696E-02 6.84569E-02-3.49178E-02-4.83611E-14-7.65672E-14
 -1      1222 2.37460E+01 1.76083E-02 4.80384E-02-1.32530E-02 2.34192E-14-1.04760E-14
 -1      1223 2.32229E+01 9.41965E-03 2.68581E-02 2.64365E-03 1.80194E-15 1.80141E-13
 -1      1224 2.24973E+01 2.30333E-03 9.43583E-03 1.27107E-02 3.03620E-15-2.80227E-13
 -1      1225 2.17136E+01-4.12009E-03-4.45712E-03 1.85323E-02 2.22465E-14-8.76455E-13
 -1      1226 2.09798E+01-1.06715E-02-1.71641E-02 2.15409E-02-3.91568E-14-9.59295E-13
 -1      1227 2.03863E+01-1.70163E-02-2.90992E-02 2.11731E-02-4.37996E-15-8.08178E-13
 -1      1228 2.00273E+01-1.65450E-02-2.84374E-02 1.18353E-02 1.19655E-13-1.19849E-12
 -1      1229 1.99728E+01 9.61810E-03 2.12814E-02-9.85561E-03-2.79418E-14-8.68210E-13
 -1      1230 2.00095E+01-2.82290E-02 1.98262E-02-9.15625E-03-9.27701E-13-9.47918E-14
 -1      1231 1.99792E+01 3.39204E-02-2.99823E-02-4.14539E-03-1.13128E-12-1.00310E-13
 -1      1232 1.99816E+01 3.89090E-01-2.95244E-02 1.38833E-02-5.39678E-13-2.04569E-14
 -1      1233 1.99905E+01 9.54504E-01-1.52325E-02 2.13252E-02-2.85189E-13-1.00130E-13
 -1      1234 2.00007E+01 1.61723E+00 2.42839E-04 2.32765E-02-1.57711E-13-1.23577E-14
 -1      1235 2.00105E+01 2.27020E+00 1.42831E-02 2.14501E-02-8.58803E-13-9.84861E-14
 -1      1236 2.00191E+01 2.82745E+00 2.59704E-02 1.69981E-02-7.72254E-13-5.62428E-14
 -1      1237 2.00254E+01 3.21449E+00 3.44955E-02 9.76974E-03-3.13569E-13 6.65897E-14
 -1      1238 2.00281E+01 3.36814E+00 3.82332E-02 9.72046E-04-6.06913E-13-2.48183E-14
 -1      1239 2.00267E+01 3.26316E+00 3.64100E-02-8.13927E-03-5.77970E-13-5.93605E-14
 -1      1240 2.00212E+01 2.91194E+00 2.91615E-02-1.61791E-02-1.71437E-12-2.00951E-13
 -1      1241 2.00132E+01 2.36854E+00 1.77345E-02-2.19930E-02-1.99391E-12 4.29032E-14
 -1      1242 2.00026E+01 1.70644E+00 3.00940E-03-2.45433E-02-1.25389E-12 1.00129E-13
 -1      1243 1.99912E+01 1.01531E+00-1.44963E-02-2.34448E-02-6.98497E-13 3.57137E-14
 -1      1244 1.99801E+01 4.06720E-01-3.35104E-02-1.87743E-02 2.43094E-13 3.26681E-14
 -1      1245 1.99715E+01 4.85131E-02-3.03311E-02 1.06689E-02 9.64928E-13-1.61631E-13
 -1      1246 2.00120E+01-3.30724E-02 2.17981E-02 1.05737E-02 7.58467E-13 1.28584E-14
 -1      1247-1.12885E+00-2.43655E+01-3.77191E+00-2.25102E+00-1.34553E-12-5.07164E-14
 -1      1248-1.92257E+00-1.59166E+01-3.15704E+00-4.02766E+00-5.44453E-13-1.37779E-13
 -1      1249-1.45398E-01-3.73389E+00-2.03240E+00-7.04600E-01 1.21947E-12 9.21929E-13
 -1      1250 7.69243E+00 6.89836E+00-4.47910E-01 7.24614E+00 1.90625E-12 1.56319E-12
 -1      1251 2.39810E+01 1.10422E+01 1.26997E+00 1.55280E+01 9.19487E-13 1.54188E-12
 -1      1252 4.52715E+01 8.27503E+00 2.87046E+00 1.78470E+01 8.42493E-13 1.79945E-12
 -1      1253 6.19802E+01 3.54464E+00 3.99566E+00 1.07453E+01 2.33702E-13 1.38223E-12
 -1      1254 6.66829E+01 2.01961E+00 4.30973E+00-2.43334E+00 6.34215E-15 6.56503E-13
 -1      1255 5.63297E+01 5.53293E+00 3.70973E+00-1.41219E+01-4.16334E-15-3.46390E-14
 -1      1256 3.67673E+01 1.00086E+01 2.34741E+00-1.77417E+01 2.71672E-13-4.48530E-13
 -1      1257 1.73169E+01 1.04020E+01 6.45438E-01-1.29323E+01 5.63993E-13-6.79679E-13
 -1      1258 4.42836E+00 4.16104E+00-9.54638E-01-4.44439E+00 6.70131E-13-4.59632E-13
 -1      1259-1.12940E+00-7.35376E+00-2.34523E+00 2.43947E+00 1.38889E-12-5.57332E-13
 -1      1260-1.60851E+00-1.89287E+01-3.31074E+00 4.03922E+00 1.58518E-12-4.45144E-13
 -1      1261-8.77190E-01-2.49677E+01-3.74070E+00 8.56044E-01 1.38911E-12-7.39964E-14
 -1      1262-1.33694E+00-2.19551E+01-3.54158E+00-3.33115E+00 5.04707E-13-1.55431E-14
 -1      1263-1.69031E+00-1.14360E+01-2.75525E+00-3.58992E+00-8.74412E-13-3.97682E-13
 -1      1264 2.38863E+00 1.16970E+00-1.39895E+00 2.31341E+00-1.40177E-12-9.51572E-13
 -1      1265 1.44232E+01 9.55835E+00 2.81677E-01 1.14779E+01-1.26721E-12-1.41531E-12
 -1      1266 3.32930E+01 1.03988E+01 2.00073E+00 1.76308E+01-1.17850E-12-2.03970E-12
 -1      1267 5.28418E+01 6.35689E+00 3.40261E+00 1.59440E+01-7.18925E-13-2.13052E-12
 -1      1268 6.56111E+01 2.33319E+00 4.21704E+00 6.54883E+00-1.87857E-13-1.94467E-12
 -1      1269 6.56129E+01 2.40522E+00 4.20208E+00-6.36257E+00 1.50196E-13-1.70280E-12
 -1      1270 5.32479E+01 6.28080E+00 3.43170E+00-1.61343E+01 2.76223E-13-1.11000E-12
 -1      1271 3.35917E+01 1.05507E+01 2.05717E+00-1.77597E+01 1.48326E-13-4.33431E-13
 -1      1272 1.38505E+01 9.38658E+00 2.72740E-01-1.10731E+01-3.66818E-13 2.56239E-13
 -1      1273 1.48062E+00-2.73126E-01-1.57643E+00-1.20275E+00-5.85310E-13 3.80806E-13
 -1      1274-1.74915E+00-1.42462E+01-2.99124E+00 4.02812E+00-1.46283E-12 3.55938E-13
 -1      1275-1.02244E+00-2.42134E+01-3.73316E+00 2.36291E+00-2.51404E-12 2.27131E-13
 -1      1276 2.16910E+01 1.79505E+00-7.09262E-01-2.73217E+00-4.71290E-14 1.24928E-12
 -1      1277 1.98838E+01 4.58555E+00-4.74925E-02-3.24316E+00-1.56847E-13 1.61302E-13
 -1      1278 2.03565E+01 4.69705E+00-1.11712E-01-4.07526E+00-1.94511E-13 4.20296E-13
 -1      1279 1.91203E+01 4.89180E+00-1.90500E-02-2.60728E+00-1.71023E-13-2.12216E-13
 -1      1280 1.93887E+01 4.97922E+00-3.00293E-04-2.98852E+00-1.91326E-13-4.78645E-14
 -1      1281 2.00565E+01 3.86802E+00-2.55936E-02-3.01218E+00-2.84370E-13 1.44121E-13
 -1      1282 1.88273E+01 4.99090E+00-3.07143E-03-2.03610E+00-1.44749E-13-4.14859E-13
 -1      1283 1.89495E+01 5.03802E+00 1.01723E-02-2.32329E+00-1.65767E-13-3.19664E-13
 -1      1284 1.93501E+01 4.28104E+00-2.33807E-02-2.44173E+00-2.71155E-13-1.71502E-13
 -1      1285 1.86997E+01 5.04810E+00 3.64682E-03-1.53891E+00-1.17392E-13-5.32435E-13
 -1      1286 1.87540E+01 5.07045E+00 1.25164E-02-1.78457E+00-1.29776E-13-4.79804E-13
 -1      1287 1.90424E+01 4.47431E+00-1.90932E-02-1.89395E+00-2.21601E-13-3.42906E-13
 -1      1288 1.86507E+01 5.08847E+00 6.67407E-03-1.09790E+00-8.72578E-14-5.92106E-13
 -1      1289 1.86709E+01 5.09803E+00 1.25342E-02-1.31625E+00-9.60993E-14-5.57119E-13
 -1      1290 1.89037E+01 4.58838E+00-1.57443E-02-1.41553E+00-1.74448E-13-4.41897E-13
 -1      1291 1.86429E+01 5.11934E+00 8.26937E-03-6.79483E-01-6.27391E-14-6.24237E-13
 -1      1292 1.86442E+01 5.12158E+00 1.18126E-02-8.87420E-01-7.28207E-14-6.11088E-13
 -1      1293 1.88464E+01 4.66262E+00-1.37797E-02-9.81130E-01-1.31027E-13-4.98802E-13
 -1      1294 1.86613E+01 5.14242E+00 9.34878E-03-2.78262E-01-3.14917E-14-6.42722E-13
 -1      1295 1.86501E+01 5.13984E+00 1.09199E-02-4.78757E-01-4.15252E-14-6.30076E-13
 -1      1296 1.88347E+01 4.71118E+00-1.27706E-02-5.70088E-01-8.59585E-14-5.21808E-13
 -1      1297 1.86989E+01 5.15859E+00 1.02693E-02 1.16735E-01-2.12677E-15-6.54941E-13
 -1      1298 1.86779E+01 5.15219E+00 1.00343E-02-8.18233E-02-1.30638E-14-6.48100E-13
 -1      1299 1.88532E+01 4.73921E+00-1.23667E-02-1.73561E-01-3.43645E-14-5.35690E-13
 -1      1300 1.87550E+01 5.16838E+00 1.12002E-02 5.15623E-01 2.40138E-14-6.58295E-13
 -1      1301 1.87240E+01 5.15808E+00 9.12629E-03 3.13774E-01 1.23248E-14-6.56883E-13
 -1      1302 1.88956E+01 4.74884E+00-1.24244E-02 2.19147E-01 7.41052E-15-5.47801E-13
 -1      1303 1.88342E+01 5.17200E+00 1.21278E-02 9.29107E-01 4.92531E-14-6.55614E-13
 -1      1304 1.87901E+01 5.15679E+00 8.03606E-03 7.18228E-01 3.86045E-14-6.60378E-13
 -1      1305 1.89626E+01 4.73979E+00-1.29495E-02 6.18192E-01 5.34616E-14-5.58914E-13
 -1      1306 1.89464E+01 5.17018E+00 1.29363E-02 1.36231E+00 7.55056E-14-6.30876E-13
 -1      1307 1.88829E+01 5.14728E+00 6.33420E-03 1.13931E+00 6.44138E-14-6.48332E-13
 -1      1308 1.90608E+01 4.70968E+00-1.40135E-02 1.03092E+00 1.00662E-13-5.51760E-13
 -1      1309 1.91211E+01 5.16313E+00 1.28747E-02 1.84787E+00 1.16854E-13-5.68080E-13
 -1      1310 1.90203E+01 5.12632E+00 2.98904E-03 1.59443E+00 1.00163E-13-6.03559E-13
 -1      1311 1.92076E+01 4.65147E+00-1.62049E-02 1.47422E+00 1.47972E-13-5.12326E-13
 -1      1312 1.94136E+01 5.15122E+00 1.02468E-02 2.40722E+00 1.58262E-13-4.46761E-13
 -1      1313 1.92412E+01 5.08730E+00-4.61503E-03 2.10849E+00 1.36148E-13-5.21406E-13
 -1      1314 1.94432E+01 4.54885E+00-2.01011E-02 1.97104E+00 2.07872E-13-4.38774E-13
 -1      1315 1.99724E+01 5.12802E+00 6.25778E-03 3.09783E+00 1.96829E-13-2.06758E-13
 -1      1316 1.96361E+01 5.00570E+00-2.09247E-02 2.70751E+00 1.71259E-13-3.54373E-13
 -1      1317 1.98582E+01 4.36157E+00-2.47179E-02 2.54333E+00 2.70407E-13-2.96027E-13
 -1      1318 2.12741E+01 4.94329E+00 8.92129E-03 4.07711E+00 1.79023E-13 2.81442E-13
 -1      1319 2.04771E+01 4.76304E+00-4.84697E-02 3.43277E+00 1.72667E-13-2.21351E-14
 -1      1320 2.06986E+01 3.93688E+00-2.24430E-02 3.19765E+00 3.00503E-13-2.02616E-14
 -1      1321 2.74595E+01 3.23279E+00 9.38751E-01 4.61499E+00 9.61731E-14 1.28692E-12
 -1      1322 2.22148E+01 3.54757E+00-1.83499E-01 3.90803E+00 9.52294E-14 5.80480E-13
 -1      1323 2.22994E+01 2.57801E+00-3.21025E-02 3.47809E+00 2.98377E-13 4.33042E-13
 -1      1324 2.16433E+01 3.60728E-01-7.68512E-01 1.18913E+00 1.68497E-13 1.21209E-12
 -1      1325 2.14238E+01 1.29598E-01-3.92073E-01-1.25948E+00-1.47216E-13 1.29174E-12
 -1      1326 2.01282E+01 3.00693E-01-1.61409E-01-7.89476E-01-1.41567E-13 1.11781E-12
 -1      1327 1.95441E+01 1.50716E-01-7.20417E-02-3.93574E-01-1.17812E-13 1.03561E-12
 -1      1328 1.90843E+01 8.97247E-02-1.46702E-02-3.22580E-01-1.18169E-13 8.69853E-13
 -1      1329 2.04381E+01 3.62390E-01-1.01998E-01-1.24725E+00-2.54269E-13 6.46372E-13
 -1      1330 1.87357E+01 6.34639E-02 2.94035E-03-1.31309E-01-1.01110E-13 7.93317E-13
 -1      1331 1.85860E+01 4.06334E-02 1.29341E-02-1.13718E-01-8.88681E-14 6.57079E-13
 -1      1332 1.94117E+01 1.31792E-01-3.44374E-02-4.91684E-01-2.09627E-13 5.19315E-13
 -1      1333 1.84307E+01 3.10069E-02 1.29637E-02-2.56723E-02-5.45822E-14 5.88297E-13
 -1      1334 1.84137E+01 1.90422E-02 1.08283E-02-1.64443E-02-6.88542E-14 5.01486E-13
 -1      1335 1.89474E+01 5.45785E-02-8.39002E-03-1.63380E-01-1.52640E-13 3.89175E-13
 -1      1336 1.83608E+01 1.56936E-02 8.60195E-03 2.63765E-02-5.54765E-14 4.58611E-13
 -1      1337 1.84044E+01 8.84133E-03 6.30901E-03 3.09022E-02-6.47876E-14 3.83197E-13
 -1      1338 1.87466E+01 2.39548E-02-3.44469E-03-7.30124E-03-1.17462E-13 2.66220E-13
 -1      1339 1.84064E+01 7.58928E-03 4.59062E-03 5.14594E-02-6.06431E-14 3.74513E-13
 -1      1340 1.84771E+01 3.25948E-03 3.57981E-03 5.32387E-02-3.57149E-14 3.01810E-13
 -1      1341 1.86950E+01 9.82324E-03-2.16531E-03 6.96598E-02-1.13273E-13 2.33352E-13
 -1      1342 1.85077E+01 2.87613E-03 2.43849E-03 6.13914E-02-2.19869E-14 2.73710E-13
 -1      1343 1.85876E+01 5.26730E-06 2.23354E-03 6.15055E-02-3.22308E-14 2.27896E-13
 -1      1344 1.87243E+01 2.32665E-03-1.24660E-03 1.04997E-01-6.57119E-14 1.71297E-13
 -1      1345 1.86314E+01 5.92126E-06 1.45100E-03 6.23283E-02-2.77781E-14 2.05141E-13
 -1      1346 1.87102E+01-1.95576E-03 1.59359E-03 6.14126E-02-2.34019E-14 1.49270E-13
 -1      1347 1.87950E+01-1.99529E-03-4.23015E-04 1.16492E-01-5.64679E-14 1.23488E-13
 -1      1348 1.87581E+01-1.81688E-03 1.05511E-03 5.77273E-02-2.74310E-14 1.50240E-13
 -1      1349 1.88294E+01-3.21713E-03 1.07256E-03 5.61506E-02-4.70922E-14 1.04383E-13
 -1      1350 1.88832E+01-4.65361E-03 2.40009E-04 1.13669E-01-5.41227E-14 7.34775E-14
 -1      1351 1.88759E+01-3.07621E-03 4.68708E-04 4.94697E-02-5.44134E-14 8.06109E-14
 -1      1352 1.89352E+01-4.21220E-03-1.34060E-03 4.74122E-02-1.65747E-14 5.85634E-14
 -1      1353 1.89747E+01-6.58271E-03 4.54807E-04 1.01856E-01-7.41123E-14 6.69519E-14
 -1      1354 1.89770E+01-4.11231E-03-3.71464E-03 3.83218E-02-3.93302E-15 7.13448E-15
 -1      1355 1.90191E+01-5.32964E-03-1.38922E-02 3.57591E-02-4.40062E-14-3.09952E-14
 -1      1356 1.90612E+01-8.63319E-03-1.62557E-03 8.38154E-02-4.49375E-14-3.46294E-16
 -1      1357 1.90530E+01-5.37046E-03-2.43897E-02 2.39095E-02-5.98048E-14-2.95181E-14
 -1      1358 1.90677E+01-6.51380E-03-6.09644E-02 2.15993E-02-3.30434E-14-9.47714E-14
 -1      1359 1.91373E+01-1.20695E-02-1.33247E-02 6.03503E-02-5.78245E-14-8.65202E-14
 -1      1360 1.90767E+01-5.23662E-03-9.55304E-02 2.74011E-03 2.64571E-14-1.03174E-13
 -1      1361 1.90276E+01-2.01847E-03-1.79126E-01 2.87094E-02 6.92502E-15-7.84373E-14
 -1      1362 1.91949E+01-1.60436E-02-5.07988E-02 2.85260E-02-6.49459E-15-1.28571E-13
 -1      1363 1.88688E+01 6.79485E-02-2.04220E-01-2.27563E-02-9.78384E-16-6.51701E-14
 -1      1364 1.95580E+01 6.87827E-02 9.78533E-02-9.83068E-02-3.92256E-14-1.07525E-13
 -1      1365 1.92226E+01 2.22342E-02-8.22609E-02-4.64309E-02 8.11851E-16-1.07081E-13
 -1      1366 2.02413E+01 4.79939E-02 2.84107E-01-6.89052E-02-4.71359E-14-5.58997E-14
 -1      1367 2.00737E+01 4.10456E-02 2.01300E-01-6.60638E-02-4.14113E-14-8.18789E-14
 -1      1368 1.97994E+01 2.11172E-01 2.01219E-01-2.18161E-01-3.21548E-14-8.21843E-14
 -1      1369 1.99881E+01 1.08870E-02 1.00214E-01 3.81536E-03 3.43649E-15-1.11203E-13
 -1      1370 1.99811E+01 1.36876E-02 4.99539E-02 8.27430E-03 3.42885E-14-7.97418E-14
 -1      1371 1.99400E+01 3.34128E-02 9.72868E-02-4.52593E-02-4.14668E-14-2.94764E-14
 -1      1372 2.00072E+01 6.87734E-03 2.08959E-02 3.48852E-02 2.31646E-14-7.58976E-14
 -1      1373 2.00425E+01 5.72865E-03 1.02913E-03 3.75327E-02-2.36165E-14-8.23265E-14
 -1      1374 1.99750E+01 1.30417E-02 1.74263E-02 4.83231E-02 2.82691E-14-7.89056E-14
 -1      1375 2.00972E+01 6.34698E-03-3.65160E-03 5.36239E-02-6.23919E-14-1.28636E-13
 -1      1376 2.01630E+01 6.40172E-03-5.16864E-03 5.71979E-02-4.94140E-14-2.09884E-13
 -1      1377 2.00722E+01 1.19287E-02-5.23872E-03 9.32265E-02-6.97983E-14-1.29786E-13
 -1      1378 2.02345E+01 6.27023E-03-5.52918E-03 7.20502E-02-1.84648E-14-2.47983E-13
 -1      1379 2.03221E+01 6.58422E-03-4.76764E-03 7.53063E-02-5.32469E-14-3.02536E-13
 -1      1380 2.02017E+01 7.88511E-03-1.00549E-02 1.28578E-01-7.13414E-14-1.49744E-13
 -1      1381 2.04111E+01 8.07444E-03-3.20772E-03 9.23769E-02 1.65519E-14-2.75447E-13
 -1      1382 2.05260E+01 8.53538E-03-9.78690E-04 9.68313E-02 2.94211E-14-2.01518E-13
 -1      1383 2.03604E+01 1.29939E-02-6.48284E-03 1.66138E-01-2.66293E-14-2.07431E-13
 -1      1384 2.06360E+01 9.77868E-03-7.91782E-04 1.17218E-01 3.91035E-14-1.61128E-13
 -1      1385 2.07816E+01 1.00585E-02 3.59815E-04 1.22431E-01 5.59109E-14-9.09407E-14
 -1      1386 2.05561E+01 1.50774E-02-3.97058E-03 2.11028E-01 6.67749E-14-2.05135E-13
 -1      1387 2.09172E+01 1.17603E-02-3.07837E-04 1.46751E-01 3.84545E-15-9.94686E-14
 -1      1388 2.10999E+01 1.17225E-02 5.15020E-04 1.53006E-01-2.98023E-14-9.25943E-14
 -1      1389 2.07963E+01 1.80871E-02-3.40689E-03 2.64592E-01 2.60657E-14-1.43647E-13
 -1      1390 2.12653E+01 1.35843E-02-5.99286E-04 1.81064E-01-3.00140E-14-1.23872E-13
 -1      1391 2.14906E+01 1.28309E-02 2.07584E-04 1.88268E-01-9.07586E-15-1.20410E-13
 -1      1392 2.10907E+01 2.10019E-02-3.66070E-03 3.27551E-01-3.30892E-14-9.45494E-14
 -1      1393 2.16889E+01 1.44805E-02-1.17412E-03 2.18301E-01 3.20527E-14-1.00487E-13
 -1      1394 2.19597E+01 1.24138E-02-3.26735E-04 2.25891E-01 1.06920E-14-5.68452E-14
 -1      1395 2.14466E+01 2.26999E-02-4.01777E-03 3.97574E-01 3.86885E-14-1.89686E-14
 -1      1396 2.21900E+01 1.32614E-02-1.80426E-03 2.53742E-01 2.25247E-14-1.11619E-13
 -1      1397 2.25026E+01 9.08956E-03-9.40017E-04 2.60471E-01 9.03683E-14 1.97412E-14
 -1      1398 2.18666E+01 2.12497E-02-4.01581E-03 4.67697E-01 4.50761E-14-2.41428E-14
 -1      1399 2.27580E+01 8.18282E-03-2.22510E-03 2.78551E-01 9.40175E-14 3.76903E-14
 -1      1400 2.30966E+01 9.76190E-04-1.40130E-03 2.82151E-01 5.32831E-16 7.70807E-14
 -1      1401 2.23442E+01 1.37897E-02-3.21125E-03 5.24105E-01 5.26787E-14-5.09050E-14
 -1      1402 2.33606E+01-3.05642E-03-1.95960E-03 2.78389E-01-7.32205E-14 2.67494E-15
 -1      1403 2.36901E+01-1.40527E-02-1.23832E-03 2.75228E-01-7.23846E-14-4.45442E-14
 -1      1404 2.28577E+01-3.48090E-03-1.04100E-03 5.43615E-01-4.92735E-14-1.11334E-13
 -1      1405 2.39323E+01-2.27573E-02-2.51854E-04 2.33003E-01 1.65683E-14-9.17842E-14
 -1      1406 2.41914E+01-3.72840E-02 2.52004E-04 2.18082E-01-1.81799E-15-1.39310E-13
 -1      1407 2.33633E+01-3.45063E-02 3.17786E-03 4.92167E-01-8.28664E-14-9.42094E-14
 -1      1408 2.43657E+01-5.14222E-02 3.66844E-03 1.19372E-01-2.80869E-14-1.24890E-13
 -1      1409 2.44655E+01-6.66451E-02 3.61380E-03 8.75075E-02 9.16541E-15-4.47315E-14
 -1      1410 2.37883E+01-8.05876E-02 9.95995E-03 3.28009E-01-2.04966E-14-8.18755E-14
 -1      1411 2.45126E+01-8.41745E-02 9.72161E-03-7.74728E-02-3.69765E-14-1.25715E-13
 -1      1412 2.43514E+01-9.28935E-02 8.29712E-03-1.28100E-01-1.31458E-13-2.17163E-13
 -1      1413 2.40301E+01-1.34678E-01 1.88559E-02 1.61248E-02-9.63899E-14-8.31852E-14
 -1      1414 2.42127E+01-1.06498E-01 1.56541E-02-3.43144E-01-5.64219E-14-1.67776E-13
 -1      1415 2.37188E+01-9.72622E-02 1.15317E-02-4.04673E-01 5.78409E-14-1.92117E-13
 -1      1416 2.39706E+01-1.74521E-01 2.70957E-02-4.39629E-01-1.19880E-13 3.71695E-14
 -1      1417 2.33679E+01-9.44571E-02 1.64392E-02-6.08508E-01 1.01335E-13-2.18735E-13
 -1      1418 2.25682E+01-5.74815E-02 8.55815E-03-6.57705E-01 4.08701E-14-1.07747E-13
 -1      1419 2.35183E+01-1.62223E-01 2.86430E-02-9.51050E-01 3.00125E-14 5.66908E-14
 -1      1420 2.20548E+01-2.87722E-02 7.04320E-03-7.46772E-01 6.45955E-14-3.66235E-14
 -1      1421 2.11335E+01 3.15282E-02-3.58264E-03-7.49951E-01 9.76305E-14 8.10602E-14
 -1      1422 2.26838E+01-6.49836E-02 1.59083E-02-1.32018E+00 1.24250E-13-1.57686E-15
 -1      1423 2.06118E+01 7.77136E-02-1.10105E-02-6.31034E-01 1.58828E-13 1.60094E-13
 -1      1424 1.98858E+01 1.34603E-01-2.04615E-02-5.67602E-01 1.77452E-13 3.31790E-13
 -1      1425 2.16604E+01 1.03741E-01-1.26814E-02-1.29940E+00 1.85243E-13 1.69982E-13
 -1      1426 1.95712E+01 1.67911E-01-2.69796E-02-2.44977E-01 1.42577E-14 3.46164E-13
 -1      1427 1.93427E+01 1.86291E-01-3.00370E-02-1.35039E-01-7.94139E-14 3.22591E-13
 -1      1428 2.08212E+01 2.64511E-01-4.34684E-02-7.65691E-01 1.49524E-13 2.05180E-13
 -1      1429 1.93848E+01 1.79519E-01-2.86170E-02 2.54059E-01 1.23512E-15 3.69333E-13
 -1      1430 1.97511E+01 1.46546E-01-2.33955E-02 3.54749E-01 2.69437E-14 3.66207E-13
 -1      1431 2.05462E+01 3.15755E-01-5.41390E-02 1.10729E-01-5.57991E-14 2.82969E-13
 -1      1432 2.01197E+01 1.05259E-01-1.55159E-02 6.23957E-01-4.35849E-14 3.30215E-13
 -1      1433 2.09046E+01 4.33053E-02-5.30482E-03 6.66934E-01-1.02487E-13 2.25611E-13
 -1      1434 2.09623E+01 2.22698E-01-3.53225E-02 9.19090E-01-9.67473E-14 2.63199E-13
 -1      1435 2.14139E+01-6.21943E-04 1.19818E-03 7.15243E-01-8.25319E-14 3.13409E-13
 -1      1436 2.22877E+01-5.59682E-02 1.11785E-02 6.93992E-01 3.76166E-14 2.50605E-13
 -1      1437 2.18414E+01 4.71765E-02-2.53442E-03 1.29735E+00-1.49543E-13 1.46987E-13
 -1      1438 2.27281E+01-7.72254E-02 1.07610E-02 5.54224E-01 4.99340E-15 1.11355E-13
 -1      1439 2.34009E+01-1.05385E-01 1.72542E-02 4.96738E-01-1.15397E-13 8.58966E-14
 -1      1440 2.27752E+01-1.06725E-01 2.24262E-02 1.16985E+00-6.03129E-14 6.11074E-14
 -1      1441 2.36481E+01-1.02264E-01 1.13248E-02 2.74789E-01 2.07334E-14 1.54064E-13
 -1      1442 2.39840E+01-1.04618E-01 1.41788E-02 2.13479E-01-1.37043E-16 2.44180E-13
 -1      1443 2.34308E+01-1.78162E-01 3.00495E-02 7.20099E-01-5.22828E-14-3.26648E-15
 -1      1444 2.40154E+01-8.91968E-02 7.25796E-03 3.51704E-03-4.73926E-14 2.76428E-13
 -1      1445 2.40240E+01-7.70981E-02 7.90218E-03-4.32571E-02-6.94601E-14 1.28083E-13
 -1      1446 2.36747E+01-1.70689E-01 2.57534E-02 1.96279E-01-1.52690E-14 2.63559E-14
 -1      1447 2.38798E+01-6.05640E-02 2.97031E-03-1.94450E-01-2.14689E-14 2.17948E-13
 -1      1448 2.36480E+01-4.42598E-02 2.53611E-03-2.22354E-01 7.24767E-14 1.83447E-13
 -1      1449 2.35354E+01-1.23509E-01 1.68045E-02-2.35003E-01 2.33676E-14 1.21571E-13
 -1      1450 2.33902E+01-3.19413E-02 3.94701E-04-3.07382E-01 5.74298E-14 3.55601E-13
 -1      1451 2.30204E+01-1.69615E-02-4.64344E-04-3.19414E-01 7.62259E-14 3.87135E-13
 -1      1452 2.31195E+01-6.96570E-02 8.28075E-03-5.13535E-01 1.36102E-13 4.22128E-13
 -1      1453 2.27080E+01-9.58052E-03-4.58639E-04-3.49928E-01 8.31677E-14 3.40545E-13
 -1      1454 2.22862E+01 2.44791E-03-1.55802E-03-3.50848E-01 4.85772E-14 5.51639E-13
 -1      1455 2.25468E+01-2.56378E-02 1.93307E-03-6.47626E-01 9.69524E-14 4.83546E-13
 -1      1456 2.19662E+01 6.40598E-03-4.89600E-04-3.41852E-01-2.35901E-15 4.82754E-13
 -1      1457 2.15556E+01 1.59417E-02-1.85378E-03-3.35327E-01-1.14735E-13 4.00770E-13
 -1      1458 2.19192E+01 5.85620E-03-2.35147E-03-6.70482E-01 4.99304E-14 3.65184E-13
 -1      1459 2.12622E+01 1.85962E-02-8.22302E-04-2.97426E-01-2.29219E-13 2.06037E-13
 -1      1460 2.09094E+01 2.66812E-02-2.44926E-03-2.85068E-01-2.25075E-13-1.55171E-13
 -1      1461 2.13137E+01 2.89026E-02-5.42660E-03-6.13069E-01-3.11709E-13 1.13548E-13
 -1      1462 2.06680E+01 2.98943E-02-2.31462E-03-2.22968E-01-1.50633E-13-1.95930E-13
 -1      1463 2.04131E+01 3.68882E-02-3.09024E-03-2.04225E-01-3.27503E-14-3.26173E-13
 -1      1464 2.07867E+01 4.95564E-02-7.83475E-03-4.93266E-01-3.22046E-13-1.04877E-13
 -1      1465 2.02382E+01 4.43303E-02-3.11238E-03-1.18963E-01-5.32738E-14-4.61010E-13
 -1      1466 2.01143E+01 4.17243E-02 2.02020E-04-9.47504E-02-5.77095E-14-5.71725E-13
 -1      1467 2.03762E+01 7.26686E-02-8.95459E-03-3.20048E-01-7.48199E-14-1.43294E-13
 -1      1468 1.99995E+01 1.31246E-02 2.84601E-03 5.30622E-03 3.11561E-13-4.16967E-13
 -1      1469 2.00800E+01 6.78916E-02-3.75429E-03-9.02608E-02 2.79115E-13-2.68529E-13
 -1      1470 2.04688E+01 7.55340E-02-1.52748E-01 4.87617E-01 1.48770E-13 8.85951E-13
 -1      1471 2.17473E+01 2.17120E-01-2.30273E-01 7.25511E-01 1.31090E-13 1.12349E-12
 -1      1472 2.19287E+01 8.86277E-01-8.60622E-02 2.07846E+00 2.56822E-13 6.86146E-13
 -1      1473 1.95301E+01 3.23073E-02-2.13141E-02 1.89396E-01 9.67872E-14 6.26235E-13
 -1      1474 1.99556E+01 1.13851E-01-6.29517E-02 2.41347E-01 9.66449E-14 7.76944E-13
 -1      1475 2.04916E+01 1.87936E-01-5.54510E-02 7.93962E-01 2.14509E-13 4.65105E-13
 -1      1476 1.91383E+01 1.49971E-02 5.76918E-03 5.71848E-02 7.86333E-14 4.07566E-13
 -1      1477 1.92818E+01 5.15334E-02 1.01968E-03 8.33726E-02 7.51066E-14 5.31741E-13
 -1      1478 1.97364E+01 7.16660E-02-1.21320E-02 3.06100E-01 1.63130E-13 3.11036E-13
 -1      1479 1.90172E+01 7.01488E-03 7.04490E-03-4.86039E-03 7.08361E-14 2.44287E-13
 -1      1480 1.90373E+01 2.56832E-02 1.11483E-02 9.39255E-03 6.42797E-14 3.45921E-13
 -1      1481 1.93911E+01 3.07956E-02-2.38662E-03 9.11536E-02 1.34604E-13 1.53280E-13
 -1      1482 1.90316E+01 3.12211E-03 4.81307E-03-3.46797E-02 4.98763E-14 8.38669E-14
 -1      1483 1.89939E+01 1.36244E-02 8.54540E-03-2.67050E-02 5.57362E-14 1.87255E-13
 -1      1484 1.92640E+01 1.30448E-02-1.54528E-03-1.30403E-02 1.22838E-13 5.64375E-14
 -1      1485 1.91131E+01 9.94994E-04 3.28807E-03-4.77689E-02 3.12187E-14 6.14786E-15
 -1      1486 1.90493E+01 7.12151E-03 5.36318E-03-4.34240E-02 2.76748E-14 5.62553E-14
 -1      1487 1.92539E+01 4.37761E-03-1.57242E-03-6.38050E-02 5.60238E-14 9.01406E-15
 -1      1488 1.92242E+01-2.06499E-04 2.45877E-03-5.15334E-02 3.38063E-14-5.94576E-14
 -1      1489 1.91511E+01 3.34408E-03 3.39958E-03-4.94119E-02 2.64234E-14-1.42169E-14
 -1      1490 1.93047E+01-1.89422E-04-1.33837E-03-8.59305E-02 5.46815E-14-5.84376E-14
 -1      1491 1.93435E+01-8.39315E-04 1.97436E-03-5.00981E-02 2.23770E-14-1.76061E-13
 -1      1492 1.92705E+01 1.11246E-03 2.27993E-03-4.93318E-02 5.44618E-14-1.23306E-13
 -1      1493 1.93844E+01-2.57421E-03-9.81744E-04-9.19690E-02 9.00476E-14-1.06728E-13
 -1      1494 1.94595E+01-1.08160E-03 1.90757E-03-4.60379E-02 3.17286E-14-2.11485E-13
 -1      1495 1.93912E+01-1.32304E-04 1.71718E-03-4.60324E-02-1.06290E-14-2.27746E-13
 -1      1496 1.94743E+01-3.63233E-03-5.37684E-04-8.91251E-02 3.62491E-14-2.16125E-13
 -1      1497 1.95662E+01-1.09888E-03 2.88901E-03-4.09757E-02-9.76975E-15-2.12304E-13
 -1      1498 1.95050E+01-7.67451E-04 1.95270E-03-4.13369E-02 1.60143E-14-2.02293E-13
 -1      1499 1.95641E+01-3.87020E-03 3.53955E-04-8.18850E-02 1.93800E-14-2.58037E-13
 -1      1500 1.96613E+01-1.53867E-03 4.76678E-03-3.49243E-02 2.09856E-14-2.26251E-13
 -1      1501 1.96085E+01-1.51508E-03 3.46400E-03-3.60571E-02 8.19787E-15-2.07597E-13
 -1      1502 1.96490E+01-4.19659E-03 2.22845E-03-7.27351E-02-1.09721E-16-1.60799E-13
 -1      1503 1.97418E+01 6.65092E-05 2.20324E-03-2.83987E-02-3.43042E-15-2.25009E-13
 -1      1504 1.96997E+01-1.31384E-03 3.98717E-03-2.92779E-02-4.45217E-15-2.55133E-13
 -1      1505 1.97294E+01-3.22525E-03 4.16842E-03-6.08204E-02 1.77792E-14-2.16234E-13
 -1      1506 1.98180E+01-8.59159E-04-7.19832E-03-2.89034E-02 2.15418E-14-2.36180E-13
 -1      1507 1.97793E+01 1.34232E-04-1.96856E-03-2.92249E-02-2.19009E-15-2.14766E-13
 -1      1508 1.98034E+01-1.20987E-03-1.28316E-03-5.69098E-02 2.13681E-14-2.68337E-13
 -1      1509 1.98961E+01-2.53766E-04-3.91100E-03-2.80808E-02 6.63814E-14-3.94732E-13
 -1      1510 1.98552E+01-6.15635E-04-6.63818E-03-2.77076E-02 6.42333E-14-2.73168E-13
 -1      1511 1.98771E+01-1.00632E-03-5.13670E-03-5.61322E-02 8.51064E-14-3.57482E-13
 -1      1512 1.99693E+01 5.57519E-04-1.10176E-03-2.72194E-02-6.45119E-14-3.55161E-13
 -1      1513 1.99306E+01 1.93482E-04-2.71439E-03-2.71291E-02-1.15836E-14-3.83171E-13
 -1      1514 1.99475E+01-1.88931E-03-2.94781E-03-5.38579E-02 4.83229E-15-2.66709E-13
 -1      1515 2.00479E+01 1.39817E-03-2.33432E-04-3.10313E-02-3.53063E-14-2.70106E-13
 -1      1516 2.00069E+01 1.81174E-03-4.39584E-04-2.98762E-02-5.44136E-14-3.58885E-13
 -1      1517 2.00182E+01 1.18146E-03-1.05681E-03-5.66887E-02-7.70555E-14-2.35510E-13
 -1      1518 2.01420E+01 2.00822E-03-1.31801E-04-3.80987E-02 1.31692E-13-4.81110E-13
 -1      1519 2.00930E+01 2.95028E-03 2.71676E-04-3.61634E-02 1.05840E-13-3.29682E-13
 -1      1520 2.00995E+01 3.11246E-03-6.26570E-04-6.70175E-02 1.20260E-13-4.02703E-13
 -1      1521 2.02590E+01 2.80396E-03-4.28726E-04-4.81459E-02-3.73246E-14-6.20084E-13
 -1      1522 2.01977E+01 4.19987E-03 3.90892E-04-4.53955E-02 4.53697E-14-5.73772E-13
 -1      1523 2.01980E+01 4.46006E-03-1.02184E-03-8.31034E-02 1.46930E-13-4.48605E-13
 -1      1524 2.04082E+01 3.79321E-03-7.50212E-04-6.21896E-02-5.07141E-14-4.94073E-13
 -1      1525 2.03294E+01 5.83481E-03 3.49340E-04-5.82806E-02-7.64593E-14-5.89178E-13
 -1      1526 2.03210E+01 6.38234E-03-1.58458E-03-1.05835E-01-7.37469E-14-3.91990E-13
 -1      1527 2.06006E+01 4.79908E-03-1.06039E-03-8.07450E-02-3.61700E-14-3.69558E-13
 -1      1528 2.04982E+01 7.69519E-03 3.44478E-04-7.54835E-02-7.73618E-14-4.19235E-13
 -1      1529 2.04773E+01 8.62429E-03-2.15266E-03-1.36616E-01-9.30113E-14-3.68009E-13
 -1      1530 2.08473E+01 5.70261E-03-1.35451E-03-1.03697E-01 1.96264E-14-3.15375E-13
 -1      1531 2.07150E+01 9.57921E-03 3.37481E-04-9.70105E-02 1.47018E-15-3.00550E-13
 -1      1532 2.06760E+01 1.08147E-02-2.76708E-03-1.75787E-01-7.57454E-14-2.49321E-13
 -1      1533 2.11581E+01 6.32912E-03-1.60994E-03-1.30326E-01 2.68043E-14-4.41594E-13
 -1      1534 2.09902E+01 1.12508E-02 3.01672E-04-1.22286E-01 5.66639E-14-3.51415E-13
 -1      1535 2.09257E+01 1.26536E-02-3.40833E-03-2.22599E-01 5.42459E-14-1.87163E-13
 -1      1536 2.15394E+01 6.37034E-03-1.75604E-03-1.58943E-01-5.80068E-14-4.00654E-13
 -1      1537 2.13320E+01 1.23030E-02 2.14813E-04-1.49880E-01-6.03565E-14-5.09613E-13
 -1      1538 2.12332E+01 1.36982E-02-3.98654E-03-2.74856E-01 1.31106E-14-3.16129E-13
 -1      1539 2.19907E+01 5.31747E-03-1.62510E-03-1.86188E-01-6.08958E-14-1.29769E-13
 -1      1540 2.17439E+01 1.20268E-02 7.50391E-05-1.76913E-01-7.61506E-14-2.62713E-13
 -1      1541 2.16006E+01 1.31675E-02-4.31412E-03-3.27964E-01-1.38242E-13-2.26400E-13
 -1      1542 2.24993E+01 2.42125E-03-9.03499E-04-2.06063E-01-8.06558E-14 1.33579E-13
 -1      1543 2.22201E+01 9.29713E-03-6.55570E-05-1.98196E-01-2.40827E-14-1.59942E-14
 -1      1544 2.20227E+01 9.78671E-03-4.05998E-03-3.73443E-01-1.40083E-13 3.23374E-14
 -1      1545 2.30320E+01-3.24928E-03 9.02380E-04-2.08921E-01 6.37014E-14 1.24387E-13
 -1      1546 2.27395E+01 2.55278E-03-5.57436E-05-2.05272E-01 2.55011E-14 1.54168E-13
 -1      1547 2.24817E+01 1.72811E-03-2.70942E-03-3.97149E-01 2.41766E-14 1.57918E-13
 -1      1548 2.35267E+01-1.24993E-02 4.38467E-03-1.81055E-01 2.81147E-14-4.98750E-14
 -1      1549 2.32571E+01-9.93756E-03 3.93840E-04-1.85879E-01 1.94298E-14 7.77156E-16
 -1      1550 2.29408E+01-1.31516E-02 4.06356E-04-3.77942E-01 6.70262E-14 1.99175E-13
 -1      1551 2.38850E+01-2.52130E-02 9.86010E-03-1.06344E-01 5.78444E-15-1.47312E-13
 -1      1552 2.36963E+01-2.91660E-02 1.66285E-03-1.25015E-01 3.37373E-14-1.24695E-13
 -1      1553 2.33389E+01-3.63710E-02 5.87165E-03-2.88604E-01 7.11627E-14 2.60608E-14
 -1      1554 2.39756E+01-3.89501E-02 1.65373E-02 2.76320E-02 4.28815E-14-2.77708E-13
 -1      1555 2.39459E+01-5.34745E-02 3.95015E-03-9.64074E-03 2.63990E-14-2.05964E-13
 -1      1556 2.35879E+01-6.66039E-02 1.35915E-02-1.02390E-01 2.36824E-14-1.96795E-13
 -1      1557 2.36612E+01-4.74872E-02 2.14159E-02 2.16927E-01 2.62117E-14-3.37803E-13
 -1      1558 2.38720E+01-7.59206E-02 6.68781E-03 1.60853E-01 1.14440E-14-3.33553E-13
 -1      1559 2.35826E+01-9.62120E-02 2.18246E-02 1.90636E-01 3.09162E-14-2.46869E-13
 -1      1560 2.28600E+01-4.12888E-02 1.91037E-02 4.24365E-01-3.28028E-14-2.24362E-13
 -1      1561 2.33584E+01-8.30179E-02 7.90811E-03 3.59366E-01-1.87792E-14-2.88464E-13
 -1      1562 2.32306E+01-1.08425E-01 2.65319E-02 5.56994E-01-2.79082E-14-1.34549E-13
 -1      1563 2.16364E+01-1.29128E-02 4.55257E-03 5.71425E-01 1.33343E-13-3.07074E-13
 -1      1564 2.23800E+01-5.91675E-02 4.55822E-03 5.20420E-01 7.15656E-14-2.41043E-13
 -1      1565 2.25083E+01-8.07392E-02 2.24702E-02 8.95118E-01 7.14186E-14-6.22800E-14
 -1      1566 2.02690E+01 3.28845E-02-2.07811E-02 5.61925E-01 2.74216E-15-4.69021E-13
 -1      1567 2.10868E+01 3.09609E-04-5.07859E-03 5.53870E-01 3.19913E-14-4.22849E-13
 -1      1568 2.15279E+01-2.67353E-04 7.43643E-03 1.04473E+00 1.44422E-13-3.02109E-13
 -1      1569 1.92081E+01 7.42159E-02-4.48715E-02 3.46524E-01 2.37640E-14-4.76605E-13
 -1      1570 1.98303E+01 7.54158E-02-1.79113E-02 3.97046E-01 6.76542E-16-4.25389E-13
 -1      1571 2.05628E+01 1.12853E-01-1.33673E-02 8.63559E-01-4.43205E-14-2.48392E-13
 -1      1572 1.88746E+01 8.46891E-02-5.10065E-02-1.42537E-02 1.39644E-13-9.03506E-13
 -1      1573 1.90557E+01 1.26046E-01-2.58037E-02 7.92053E-02 2.04078E-13-6.33295E-13
 -1      1574 1.99646E+01 2.00601E-01-2.87000E-02 3.48564E-01 2.81299E-13-3.07354E-13
 -1      1575 1.94039E+01 5.67940E-02-3.29156E-02-3.63366E-01 9.72486E-15-1.08381E-12
 -1      1576 1.90715E+01 1.21386E-01-2.16777E-02-2.69093E-01-7.90513E-15-1.06347E-12
 -1      1577 1.99776E+01 2.03884E-01-3.01771E-02-3.07396E-01 1.44176E-13-6.75630E-13
 -1      1578 2.05508E+01 9.75400E-03-1.78637E-03-5.50735E-01-8.34350E-14-8.84404E-13
 -1      1579 1.98555E+01 6.74157E-02-7.03973E-03-4.95154E-01-5.96892E-14-9.80313E-13
 -1      1580 2.05793E+01 1.16960E-01-1.93951E-02-8.17131E-01-8.80728E-14-5.82742E-13
 -1      1581 2.18505E+01-2.93857E-02 2.37403E-02-5.30729E-01-2.46921E-14-8.67903E-13
 -1      1582 2.10682E+01-3.58631E-04 8.89937E-03-5.26063E-01 2.59584E-14-8.81836E-13
 -1      1583 2.14971E+01-5.05542E-03-5.29343E-03-9.90328E-01-1.78026E-15-4.87697E-13
 -1      1584 2.28843E+01-4.68737E-02 3.35067E-02-3.63910E-01-1.34236E-13-7.05228E-13
 -1      1585 2.22614E+01-4.87098E-02 1.76658E-02-3.96120E-01-1.27133E-13-9.00363E-13
 -1      1586 2.23812E+01-9.63880E-02 4.83364E-03-8.32384E-01-1.04770E-13-4.35657E-13
 -1      1587 2.34378E+01-4.50051E-02 2.96780E-02-1.48126E-01-2.21659E-13-2.65434E-13
 -1      1588 2.30991E+01-6.65004E-02 1.75716E-02-1.94278E-01-1.63786E-13-5.13423E-13
 -1      1589 2.29778E+01-1.29438E-01 9.14543E-03-4.85403E-01-3.45692E-13-5.38519E-14
 -1      1590 2.35011E+01-3.31739E-02 1.96947E-02 4.22075E-02 1.59022E-14-1.29380E-14
 -1      1591 2.34503E+01-6.08690E-02 1.22323E-02-4.95433E-04-1.30573E-13-2.07735E-13
 -1      1592 2.31929E+01-1.15597E-01 9.38292E-03-1.08718E-01-2.18745E-13-7.77659E-14
 -1      1593 2.31828E+01-1.94389E-02 9.57113E-03 1.74402E-01-1.30118E-13 1.22843E-13
 -1      1594 2.33541E+01-4.43080E-02 5.91939E-03 1.43010E-01 6.04551E-15-4.75141E-15
 -1      1595 2.30596E+01-8.03721E-02 7.67633E-03 1.95827E-01-6.17371E-14 9.62958E-14
 -1      1596 2.26271E+01-7.79607E-03 2.10791E-03 2.46248E-01 3.35692E-13-1.98452E-15
 -1      1597 2.29349E+01-2.60824E-02 1.09757E-03 2.27244E-01 1.48958E-13 2.08071E-13
 -1      1598 2.26744E+01-4.33792E-02 5.47814E-03 3.92473E-01 1.06173E-13 1.09623E-13
 -1      1599 2.19655E+01 9.48491E-04-2.56987E-03 2.68819E-01 1.35116E-13-5.21441E-13
 -1      1600 2.23331E+01-1.03669E-02-1.62548E-03 2.60349E-01 1.81473E-13-1.86882E-13
 -1      1601 2.21460E+01-1.35180E-02 3.37569E-03 4.86861E-01 3.61492E-13-1.64736E-13
 -1      1602 2.13020E+01 7.67125E-03-5.67285E-03 2.54211E-01 4.95409E-14-6.92023E-13
 -1      1603 2.16695E+01 2.44506E-03-2.87055E-03 2.54283E-01 7.87077E-15-6.25448E-13
 -1      1604 2.15696E+01 8.25880E-03 1.23640E-03 4.99399E-01 1.06691E-13-5.46090E-13
 -1      1605 2.07182E+01 1.37649E-02-8.45441E-03 2.09790E-01-1.01265E-13-7.90264E-13
 -1      1606 2.10386E+01 1.38755E-02-3.69024E-03 2.17683E-01-8.47449E-14-8.47600E-13
 -1      1607 2.10207E+01 2.49123E-02-1.43092E-03 4.48365E-01-2.78107E-14-4.81902E-13
 -1      1608 2.02835E+01 2.02183E-02-9.81221E-03 1.36942E-01 6.25433E-14-8.75129E-13
 -1      1609 2.05142E+01 2.58170E-02-4.50677E-03 1.54161E-01 5.64908E-14-7.14362E-13
 -1      1610 2.05578E+01 4.09305E-02-4.45437E-03 3.43620E-01-9.15067E-15-7.27449E-13
 -1      1611 2.00557E+01 2.54590E-02 1.08792E-04 4.46863E-02-1.67895E-15-8.31057E-13
 -1      1612 2.01559E+01 3.46226E-02-3.21805E-03 6.80439E-02-1.24245E-14-8.83767E-13
 -1      1613 2.02220E+01 5.54483E-02-5.84804E-03 1.90883E-01 1.32691E-13-4.82798E-13
 -1      1614 2.00038E+01 1.35938E-02 3.99841E-03-9.17960E-04-4.14912E-13-4.29539E-13
 -1      1615 2.00352E+01 2.23651E-01-4.86888E-03 1.13752E-01-4.70195E-13 3.76808E-14
 -1      1616 2.00392E+01 1.12603E-01 1.40143E-03 8.91327E-02-5.75700E-13 9.53434E-14
 -1      1617 2.00231E+01 6.05876E-01-2.73970E-03 2.00792E-01-4.18878E-13 8.21951E-14
 -1      1618 2.00313E+01 3.80695E-01-3.31420E-03 1.85735E-01-4.64002E-13 3.01547E-14
 -1      1619 2.00662E+01 3.53760E-01-6.70512E-03 2.92418E-01-2.24818E-13 1.10795E-13
 -1      1620 2.00086E+01 1.10718E+00-7.82383E-04 2.52400E-01-3.97205E-13-7.52235E-14
 -1      1621 2.00177E+01 8.13054E-01-2.23138E-03 2.45254E-01-2.80432E-13 3.49766E-14
 -1      1622 2.00367E+01 7.14160E-01-5.55578E-03 4.31790E-01-3.37125E-13 2.32236E-13
 -1      1623 1.99945E+01 1.65677E+00 2.60270E-04 2.65380E-01-1.65850E-13 2.49326E-14
 -1      1624 2.00034E+01 1.34148E+00-9.90973E-04 2.65925E-01-3.57735E-13 1.12619E-13
 -1      1625 2.00110E+01 1.15194E+00-1.79716E-03 5.00849E-01-2.92620E-13-1.17065E-13
 -1      1626 1.99817E+01 2.17039E+00 6.56935E-04 2.41686E-01-7.70630E-13-2.42838E-13
 -1      1627 1.99897E+01 1.88374E+00-3.03021E-04 2.49068E-01-4.02220E-13-2.55343E-13
 -1      1628 1.99873E+01 1.60969E+00 2.28611E-03 4.96782E-01-4.26240E-13-3.97230E-13
 -1      1629 1.99709E+01 2.59471E+00 8.89497E-04 1.84010E-01-3.98118E-13 2.21979E-13
 -1      1630 1.99775E+01 2.36808E+00 2.55684E-04 1.97775E-01-6.56135E-13 8.42399E-14
 -1      1631 1.99665E+01 2.03090E+00 5.99969E-03 4.24371E-01-4.47737E-13-4.07088E-14
 -1      1632 1.99639E+01 2.85930E+00 1.00589E-03 9.95894E-02-3.43243E-13 4.78133E-14
 -1      1633 1.99678E+01 2.73043E+00 6.63474E-04 1.17903E-01-3.71942E-13 2.44829E-13
 -1      1634 1.99497E+01 2.36154E+00 9.10936E-03 2.91526E-01-2.53379E-13 2.15665E-13
 -1      1635 1.99619E+01 2.92471E+00 9.95812E-04-2.46610E-04-3.40556E-13-8.07167E-15
 -1      1636 1.99624E+01 2.91325E+00 9.77082E-04 2.00930E-02-3.72866E-13-3.99815E-14
 -1      1637 1.99396E+01 2.55004E+00 1.10175E-02 1.15552E-01-2.62903E-13-1.40931E-13
 -1      1638 1.99655E+01 2.77913E+00 8.03204E-04-1.01158E-01-6.05585E-13-2.05919E-13
 -1      1639 1.99625E+01 2.88812E+00 1.13576E-03-8.18002E-02-4.19206E-13-1.14114E-13
 -1      1640 1.99381E+01 2.56760E+00 1.13229E-02-7.92228E-02-2.52512E-13-1.08857E-13
 -1      1641 1.99740E+01 2.44177E+00 4.34618E-04-1.88306E-01-1.08503E-12-2.78091E-13
 -1      1642 1.99682E+01 2.65658E+00 1.17074E-03-1.72819E-01-6.80633E-13-2.60227E-13
 -1      1643 1.99454E+01 2.40995E+00 9.91085E-03-2.64496E-01-2.65967E-13-4.02135E-13
 -1      1644 1.99862E+01 1.96900E+00-6.24076E-06-2.48251E-01-1.02139E-12 2.28608E-13
 -1      1645 1.99781E+01 2.25412E+00 9.63463E-04-2.38993E-01-1.00596E-12-2.39071E-13
 -1      1646 1.99610E+01 2.10195E+00 7.15678E-03-4.12165E-01-2.87534E-13-2.97876E-13
 -1      1647 2.00012E+01 1.41232E+00-8.24197E-04-2.73851E-01-6.76278E-13 2.31989E-13
 -1      1648 1.99915E+01 1.73616E+00 4.73631E-04-2.71806E-01-1.04579E-12 4.32108E-13
 -1      1649 1.99820E+01 1.68536E+00 3.29355E-03-5.01971E-01-4.00319E-13 4.59281E-13
 -1      1650 2.00170E+01 8.61715E-01-2.30189E-03-2.58500E-01-1.92854E-13 3.98481E-13
 -1      1651 2.00069E+01 1.17021E+00-7.02375E-04-2.64489E-01-5.63737E-13 3.63205E-13
 -1      1652 2.00077E+01 1.21398E+00-1.13555E-03-5.19738E-01-3.32461E-13 3.51181E-13
 -1      1653 2.00353E+01 4.11666E-01-7.66104E-04-1.98627E-01 2.11523E-13 2.34228E-13
 -1      1654 2.00222E+01 6.45682E-01-2.89070E-03-2.14044E-01-6.98486E-14 3.45058E-13
 -1      1655 2.00369E+01 7.57434E-01-5.25927E-03-4.55767E-01-4.83138E-14 6.03826E-13
 -1      1656 2.00659E+01 1.64678E-01 4.32117E-03-1.44616E-01 2.07860E-13-7.03181E-14
 -1      1657 2.00600E+01 2.86668E-01-2.38880E-03-1.83021E-01 2.56743E-13 1.19450E-13
 -1      1658 2.00944E+01 4.18752E-01-6.28839E-03-3.71414E-01-9.96924E-14 4.53166E-13
 -1      1659 2.01879E+01 1.96473E-01-5.38210E-05-2.84201E-01-2.30643E-13-1.86633E-14
 -1      1660-6.19619E-01-1.47094E+01-1.65509E+00-9.52392E-01-6.54254E-13 8.36831E-14
 -1      1661-6.23639E-01-1.68851E+01-1.87501E+00 3.28629E-01-1.18527E-12 2.28539E-13
 -1      1662 1.55235E+00-8.46746E+00-1.13740E+00 7.46542E-01 6.65024E-14 4.60257E-13
 -1      1663 8.32466E-01-1.30727E+01-1.59275E+00 2.64306E-01-4.17000E-13 1.97758E-13
 -1      1664 6.35479E+00-1.24314E+00-5.80636E-01 4.12752E+00 9.18821E-13 1.22813E-12
 -1      1665 3.67239E+00-6.72883E+00-1.28595E+00 1.56657E+00 2.64899E-13 7.27307E-13
 -1      1666 1.56603E+01 4.49279E+00 1.22451E-01 9.03375E+00 1.17029E-12 8.54206E-13
 -1      1667 9.73589E+00 7.69168E-01-7.54903E-01 5.36280E+00 1.23479E-12 9.13714E-13
 -1      1668 3.05751E+01 6.06560E+00 9.19303E-01 1.21297E+01 7.49845E-13 1.43796E-12
 -1      1669 2.12502E+01 5.24093E+00 1.92711E-02 9.68742E+00 8.50653E-13 1.19460E-12
 -1      1670 4.51344E+01 5.24770E+00 1.59757E+00 1.10057E+01 6.24056E-13 1.18527E-12
 -1      1671 3.59252E+01 6.84241E+00 9.01386E-01 1.22972E+01 8.57425E-13 1.25433E-12
 -1      1672 5.34109E+01 3.64622E+00 1.75722E+00 4.28143E+00 1.92957E-13 1.09340E-12
 -1      1673 4.85890E+01 5.05521E+00 1.49854E+00 8.91006E+00 4.03108E-13 1.23157E-12
 -1      1674 5.22103E+01 4.15772E+00 1.53249E+00-4.25072E+00 2.17382E-13 4.16556E-13
 -1      1675 5.36593E+01 3.86524E+00 1.68761E+00 1.62146E+00 2.72615E-13 8.25534E-13
 -1      1676 4.28677E+01 5.66470E+00 1.04489E+00-9.72637E+00 1.68324E-13 1.56541E-14
 -1      1677 4.98129E+01 4.13197E+00 1.51729E+00-6.27000E+00 9.25371E-14 1.63758E-13
 -1      1678 2.96753E+01 6.36272E+00 4.54457E-01-1.12448E+01 3.07643E-13-2.56017E-13
 -1      1679 3.89698E+01 5.47360E+00 1.16838E+00-1.14392E+01 1.51545E-13-2.06613E-13
 -1      1680 1.68651E+01 4.16372E+00-2.59791E-01-8.42696E+00 3.43725E-13-3.37508E-13
 -1      1681 2.45755E+01 5.82914E+00 5.71843E-01-1.13455E+01 3.78142E-13-1.86295E-13
 -1      1682 7.55558E+00-1.54820E+00-9.47500E-01-3.96739E+00 7.00107E-13-2.17826E-13
 -1      1683 1.23843E+01 2.76488E+00-1.40463E-01-7.42429E+00 4.05009E-13-3.29403E-13
 -1      1684 2.00068E+00-9.07500E+00-1.54238E+00-4.24104E-01 1.14053E-12-3.02647E-13
 -1      1685 3.90911E+00-3.43784E+00-8.75813E-01-2.46066E+00 8.44658E-13-2.47191E-13
 -1      1686-4.90179E-02-1.51382E+01-1.83701E+00 3.31881E-01 1.06948E-12-2.48829E-13
 -1      1687 2.05651E-01-1.10124E+01-1.45151E+00 5.67076E-01 1.14808E-12-4.02678E-13
 -1      1688-7.34336E-01-1.69229E+01-1.86707E+00-6.16203E-01 7.62113E-13-1.93956E-13
 -1      1689-7.44381E-01-1.61493E+01-1.80823E+00 9.32543E-01 1.04700E-12-1.98397E-13
 -1      1690-3.14279E-01-1.28913E+01-1.55118E+00-9.04751E-01 4.44089E-15-3.58075E-13
 -1      1691-3.97716E-01-1.62102E+01-1.84903E+00-4.37214E-02 6.27165E-13-2.39142E-13
 -1      1692 2.55190E+00-5.79193E+00-1.02018E+00 1.42183E+00-7.13207E-13-6.61748E-13
 -1      1693 1.29665E+00-1.11905E+01-1.60808E+00 1.05474E-01-2.78111E-13-3.87634E-13
 -1      1694 1.06273E+01 1.10653E+00-2.64050E-01 6.36605E+00-9.43912E-13-7.19313E-13
 -1      1695 6.25027E+00-3.99870E+00-1.07187E+00 2.95281E+00-7.98028E-13-7.02549E-13
 -1      1696 2.25129E+01 5.68538E+00 5.38000E-01 1.09635E+01-9.13825E-13-1.31872E-12
 -1      1697 1.47954E+01 3.20650E+00-3.83692E-01 7.52143E+00-8.90177E-13-1.02585E-12
 -1      1698 3.70461E+01 6.11403E+00 1.24750E+00 1.24373E+01-7.84484E-13-1.67466E-12
 -1      1699 2.76288E+01 6.59621E+00 4.12536E-01 1.15247E+01-8.75744E-13-1.44107E-12
 -1      1700 4.91132E+01 4.40467E+00 1.67291E+00 8.56300E+00-4.99427E-13-1.50735E-12
 -1      1701 4.16103E+01 5.97820E+00 1.13235E+00 1.11313E+01-7.31748E-13-1.64746E-12
 -1      1702 5.48467E+01 3.51248E+00 1.83580E+00 1.31673E+00-3.28071E-14-1.57263E-12
 -1      1703 5.18299E+01 4.36496E+00 1.65163E+00 6.50170E+00-1.85740E-13-1.56614E-12
 -1      1704 5.16636E+01 4.45072E+00 1.62982E+00-6.37039E+00 1.11994E-13-1.32888E-12
 -1      1705 5.44876E+01 3.62677E+00 1.79555E+00-1.19292E+00 7.01106E-14-1.41934E-12
 -1      1706 4.19903E+01 6.22334E+00 1.21493E+00-1.16409E+01 1.22125E-13-9.92539E-13
 -1      1707 4.96147E+01 4.47238E+00 1.73745E+00-8.87345E+00 1.91309E-13-1.26077E-12
 -1      1708 2.79474E+01 6.47723E+00 4.29707E-01-1.13582E+01 2.13163E-13-6.03073E-13
 -1      1709 3.72346E+01 6.00322E+00 1.23531E+00-1.22661E+01 1.53322E-13-9.10383E-13
 -1      1710 1.40379E+01 2.55263E+00-4.83304E-01-7.02509E+00-3.33067E-13-1.33449E-13
 -1      1711 2.24641E+01 5.38684E+00 5.02385E-01-1.08965E+01-2.62013E-14-4.10783E-13
 -1      1712 4.73549E+00-4.98953E+00-1.26312E+00-2.14858E+00-4.74065E-13 1.27787E-13
 -1      1713 8.81311E+00 8.42763E-01-3.82599E-01-5.69384E+00-3.71259E-13 1.41442E-13
 -1      1714 6.78244E-01-1.32133E+01-1.77808E+00 2.33947E-01-1.18661E-12-1.12063E-14
 -1      1715 1.66306E+00-7.36754E+00-1.17758E+00-7.12511E-01-6.61249E-13-5.55112E-16
 -1      1716-6.28500E-01-1.73128E+01-1.94958E+00-2.58980E-01-1.33760E-12 1.79745E-13
 -1      1717-6.94607E-01-1.49955E+01-1.75724E+00 1.17015E+00-1.43019E-12 3.99125E-14
 -1      1718 2.34005E+01 3.54458E-01 2.14721E-01 7.29189E+00 7.71272E-13 8.39329E-13
 -1      1719 1.31545E+01-3.66080E+00-4.25330E-01 6.24143E+00 3.27738E-13 7.38687E-13
 -1      1720 2.00403E+01 3.99675E-02-2.85908E-03 4.23466E-02-5.61811E-13-1.05041E-13
 -1      1721 2.00953E+01 1.37388E-01-2.23144E-03 1.52438E-01-1.28949E-13 7.35773E-14
 -1      1722 7.03292E-01-9.93542E+00-1.07610E+00 2.62759E+00-3.18578E-13 4.99656E-13
 -1      1723 5.76243E+00-7.44141E+00-8.32892E-01 4.65224E+00 1.21014E-14 9.23248E-13
 -1      1724-1.34189E+00-1.18034E+01-1.35227E+00 9.32020E-02-5.94580E-13 4.26936E-13
 -1      1725 3.39846E+01 3.74674E+00 7.77036E-01 6.81457E+00 5.92998E-13 8.04912E-13
 -1      1726 4.27088E+01 6.31985E+00 1.34860E+00 4.97637E+00 5.17808E-13 8.35110E-13
 -1      1727 4.58660E+01 7.63518E+00 1.47897E+00 1.30002E+00 4.50640E-13 7.38687E-13
 -1      1728 4.38604E+01 7.38491E+00 1.28659E+00-1.77031E+00 4.32543E-13 4.14113E-13
 -1      1729 3.86615E+01 5.26944E+00 1.01150E+00-4.77736E+00 1.69267E-13 1.24567E-13
 -1      1730 2.99993E+01 2.47708E+00 5.65121E-01-6.94277E+00 1.99007E-13 9.10383E-15
 -1      1731 1.98497E+01-9.67159E-01-2.88700E-03-7.00085E+00 2.84328E-13-9.48130E-14
 -1      1732 1.04267E+01-4.79998E+00-5.52554E-01-5.64057E+00 5.47784E-13 9.29812E-14
 -1      1733 3.23402E+00-8.63429E+00-1.04620E+00-3.46838E+00 7.57949E-13-1.72751E-13
 -1      1734-5.89679E-01-1.12816E+01-1.31625E+00-1.41750E+00 6.88061E-13-2.24598E-13
 -1      1735-1.19651E+00-1.14475E+01-1.31728E+00 6.78029E-01 3.53634E-13-3.94240E-13
 -1      1736 1.85968E+00-9.44163E+00-1.08069E+00 2.96451E+00 2.26485E-14-7.14095E-13
 -1      1737 8.80804E+00-6.09939E+00-6.24204E-01 5.38428E+00-4.01457E-13-6.50480E-13
 -1      1738 1.80478E+01-2.29335E+00-1.66681E-01 6.68644E+00-5.89639E-13-7.36300E-13
 -1      1739 2.83182E+01 2.04463E+00 4.67437E-01 7.25225E+00-5.56555E-13-1.01963E-12
 -1      1740 3.80871E+01 5.08643E+00 1.08263E+00 6.22958E+00-5.42878E-13-1.18483E-12
 -1      1741 4.46992E+01 6.78336E+00 1.42680E+00 3.34847E+00-2.90656E-13-1.30318E-12
 -1      1742 4.66958E+01 7.56745E+00 1.51332E+00 3.30958E-02-4.82947E-14-1.21719E-12
 -1      1743 4.47504E+01 6.86356E+00 1.41514E+00-3.59485E+00 1.24178E-13-1.28614E-12
 -1      1744 3.82538E+01 4.98240E+00 1.03541E+00-6.25874E+00 8.83946E-14-1.22069E-12
 -1      1745 2.82982E+01 1.73194E+00 4.54108E-01-7.08830E+00-2.02061E-14-8.64531E-13
 -1      1746 1.71037E+01-2.45988E+00-1.69192E-01-6.70937E+00-9.17044E-14-4.79283E-13
 -1      1747 7.00388E+00-6.85084E+00-7.89087E-01-4.80381E+00-3.11084E-13-2.08195E-13
 -1      1748 6.68796E-01-1.04989E+01-1.22886E+00-2.33564E+00-5.96079E-13-2.98150E-13
 -1      1749 2.22779E+01 1.94013E+00-2.37528E-02-2.66484E+00-1.87204E-13 1.03748E-12
 -1      1750 1.94284E+01 3.64913E+00-3.39608E-02-2.11004E+00-2.94193E-13-1.53891E-13
 -1      1751 1.96288E+01 3.49019E+00-4.19742E-02-2.39051E+00-3.18872E-13-5.14484E-14
 -1      1752 1.99117E+01 3.11798E+00-4.39499E-02-2.53127E+00-3.14408E-13 7.02355E-14
 -1      1753 2.01016E+01 2.74973E+00-1.39430E-01-2.79319E+00-3.22058E-13 2.41848E-13
 -1      1754 1.99872E+01 2.63897E+00-2.99280E-03-2.17266E+00-3.34890E-13 1.97307E-14
 -1      1755 1.90620E+01 4.12624E+00-1.97351E-02-1.23994E+00-1.85696E-13-3.65340E-13
 -1      1756 1.91117E+01 4.08220E+00-1.69144E-02-1.46094E+00-2.15380E-13-3.32415E-13
 -1      1757 1.90113E+01 4.23895E+00-1.64830E-02-8.34124E-01-1.41839E-13-4.12975E-13
 -1      1758 1.90312E+01 4.21019E+00-1.42066E-02-1.04232E+00-1.66553E-13-3.86944E-13
 -1      1759 1.92428E+01 3.72802E+00-9.16969E-03-1.08718E+00-1.90865E-13-3.62474E-13
 -1      1760 1.90039E+01 4.30744E+00-1.45738E-02-4.44972E-01-8.57849E-14-4.20710E-13
 -1      1761 1.90039E+01 4.28955E+00-1.32379E-02-6.43407E-01-1.12168E-13-4.21205E-13
 -1      1762 1.91919E+01 3.85402E+00-9.13932E-03-7.05060E-01-1.30327E-13-3.92419E-13
 -1      1763 1.90271E+01 4.34186E+00-1.35031E-02-6.44716E-02-1.99414E-14-4.30664E-13
 -1      1764 1.90123E+01 4.33275E+00-1.31679E-02-2.58597E-01-5.11526E-14-4.26378E-13
 -1      1765 1.91859E+01 3.92551E+00-9.09545E-03-3.33271E-01-7.05500E-14-4.09280E-13
 -1      1766 1.90769E+01 4.34581E+00-1.30546E-02 3.15455E-01 2.56326E-14-4.47850E-13
 -1      1767 1.90485E+01 4.34501E+00-1.37354E-02 1.20725E-01 4.13011E-15-4.39104E-13
 -1      1768 1.92140E+01 3.95280E+00-9.09645E-03 3.33209E-02-8.99692E-15-4.22003E-13
 -1      1769 1.91556E+01 4.31806E+00-1.32576E-02 7.03069E-01 7.72318E-14-4.61582E-13
 -1      1770 1.91117E+01 4.32647E+00-1.49326E-02 5.02756E-01 5.39598E-14-4.58186E-13
 -1      1771 1.92734E+01 3.93843E+00-9.15298E-03 4.00800E-01 4.14889E-14-4.42552E-13
 -1      1772 1.92698E+01 4.25391E+00-1.43843E-02 1.10025E+00 1.29319E-13-4.50156E-13
 -1      1773 1.92060E+01 4.27321E+00-1.70306E-02 8.92406E-01 1.06123E-13-4.58859E-13
 -1      1774 1.93676E+01 3.87937E+00-9.17137E-03 7.71985E-01 1.04332E-13-4.42988E-13
 -1      1775 1.94437E+01 4.13578E+00-1.74372E-02 1.53041E+00 1.97417E-13-3.90750E-13
 -1      1776 1.93459E+01 4.17325E+00-2.06194E-02 1.30060E+00 1.57427E-13-4.22126E-13
 -1      1777 1.95088E+01 3.76374E+00-9.23179E-03 1.15526E+00 1.60362E-13-4.15170E-13
 -1      1778 1.97168E+01 3.92738E+00-2.53326E-02 1.99636E+00 2.62661E-13-3.13326E-13
 -1      1779 1.95617E+01 3.99943E+00-2.71212E-02 1.73823E+00 2.28660E-13-3.58664E-13
 -1      1780 1.97252E+01 3.56436E+00-8.69715E-03 1.55490E+00 2.29751E-13-3.49967E-13
 -1      1781 2.01721E+01 3.53510E+00-4.55303E-02 2.49041E+00 3.29436E-13-1.75585E-13
 -1      1782 1.99082E+01 3.69183E+00-4.01174E-02 2.19991E+00 2.88982E-13-2.59116E-13
 -1      1783 2.00667E+01 3.22749E+00-5.25820E-03 1.95442E+00 3.01717E-13-2.55573E-13
 -1      1784 2.10693E+01 2.69510E+00-5.81346E-02 2.87753E+00 3.39323E-13 1.12070E-13
 -1      1785 2.05351E+01 3.10942E+00-5.09869E-02 2.63425E+00 3.25522E-13-6.07014E-14
 -1      1786 2.06280E+01 2.61784E+00 3.21665E-03 2.26412E+00 3.45560E-13-9.66831E-14
 -1      1787 2.19176E+01 1.21848E+00-1.23000E-01 2.34539E+00 2.99434E-13 4.84501E-13
 -1      1788 2.14403E+01 2.27497E+00 6.77558E-05 2.75907E+00 3.17090E-13 2.33716E-13
 -1      1789 2.10886E+01 1.69139E+00-2.30916E-02 2.15731E+00 3.51925E-13 1.05381E-13
 -1      1790 2.11332E+01 7.81572E-01-6.27935E-02 1.53590E+00 3.05644E-13 3.82179E-13
 -1      1791 2.12610E+01 2.40429E+00 8.88710E-02-2.98382E+00-2.57993E-13 5.34392E-13
 -1      1792 2.02728E+01 2.98035E-01-8.98834E-03 6.66643E-01 2.16431E-13 2.46823E-13
 -1      1793 2.08304E+01 4.41139E-01-1.26199E-02 1.04459E+00 2.49079E-13 3.29295E-13
 -1      1794 2.09074E+01 8.47536E-01 2.24338E-03 1.42889E+00 3.00156E-13 1.73975E-13
 -1      1795 2.09898E+01 1.70666E+00 7.77002E-02-2.28730E+00-2.86899E-13 4.05211E-13
 -1      1796 2.00209E+01 4.92053E-01 3.18733E-02-8.99473E-01-2.43108E-13 3.51217E-13
 -1      1797 1.95999E+01 3.46133E-01 7.56302E-03-6.12925E-01-2.16827E-13 2.86300E-13
 -1      1798 1.94110E+01 2.53115E-01 2.68914E-02-3.78644E-01-1.90428E-13 2.86743E-13
 -1      1799 1.92259E+01 1.75118E-01 1.02060E-02-2.43084E-01-1.62649E-13 2.19521E-13
 -1      1800 1.97300E+01 4.75128E-01-5.81753E-03-7.02181E-01-2.40463E-13 1.44973E-13
 -1      1801 1.91085E+01 1.30279E-01 1.63450E-02-1.12021E-01-1.49378E-13 2.03147E-13
 -1      1802 1.90339E+01 9.11716E-02 6.80965E-03-4.25917E-02-1.33371E-13 1.65937E-13
 -1      1803 1.94148E+01 2.39707E-01-5.63806E-03-2.82611E-01-1.89665E-13 1.05907E-13
 -1      1804 1.89725E+01 6.67425E-02 8.52266E-03 2.93575E-02-1.24170E-13 1.54713E-13
 -1      1805 1.89602E+01 4.51552E-02 3.96010E-03 6.45375E-02-1.09277E-13 1.35006E-13
 -1      1806 1.92401E+01 1.22382E-01-4.58895E-03-5.03662E-02-1.56772E-13 9.68860E-14
 -1      1807 1.89369E+01 3.07956E-02 4.16021E-03 1.01965E-01-9.60832E-14 1.30702E-13
 -1      1808 1.89579E+01 1.82140E-02 2.30710E-03 1.17733E-01-6.98365E-14 8.14253E-14
 -1      1809 1.91597E+01 5.85189E-02-3.41376E-03 7.59935E-02-1.10054E-13 5.58684E-14
 -1      1810 1.89585E+01 9.40529E-03 1.85925E-03 1.34330E-01-7.19065E-14 7.84794E-14
 -1      1811 1.89958E+01 1.88668E-03 1.36163E-03 1.38521E-01-5.92746E-14 5.11404E-14
 -1      1812 1.91404E+01 2.12634E-02-2.29959E-03 1.39475E-01-7.72515E-14 2.58941E-14
 -1      1813 1.90105E+01-3.64919E-03 7.05799E-04 1.42376E-01-5.31116E-14 6.43057E-14
 -1      1814 1.90541E+01-8.25199E-03 8.31442E-04 1.39462E-01-6.12228E-14 5.41083E-14
 -1      1815 1.91582E+01-1.18258E-03-1.38802E-03 1.64685E-01-7.05705E-14 1.70171E-14
 -1      1816 1.90769E+01-1.18377E-02 2.38486E-04 1.35554E-01-8.81000E-14 7.33862E-14
 -1      1817 1.91208E+01-1.48586E-02 3.31393E-04 1.28150E-01-6.33494E-14 5.48456E-14
 -1      1818 1.91973E+01-1.51138E-02-7.08302E-04 1.66479E-01-7.20926E-14 3.01587E-14
 -1      1819 1.91484E+01-1.73880E-02-2.86720E-04 1.19701E-01-9.99271E-14 2.42519E-14
 -1      1820 1.91897E+01-1.97259E-02-1.88194E-03 1.09239E-01-9.73027E-14-4.15985E-14
 -1      1821 1.92482E+01-2.42949E-02-4.88756E-04 1.54384E-01-1.22797E-13-1.49175E-14
 -1      1822 1.92208E+01-2.20955E-02-4.08241E-03 9.84903E-02-7.57512E-14-8.41459E-14
 -1      1823 1.92595E+01-2.38978E-02-1.19690E-02 8.53802E-02-5.30910E-14-9.15344E-14
 -1      1824 1.93070E+01-3.11592E-02-2.10760E-03 1.35232E-01-1.25479E-13-6.05801E-14
 -1      1825 1.92929E+01-2.70653E-02-2.08083E-02 7.41488E-02-4.05886E-14-8.28226E-14
 -1      1826 1.93338E+01-2.55442E-02-3.94110E-02 5.47107E-02-2.03691E-14-1.18024E-13
 -1      1827 1.93748E+01-3.63195E-02-9.05825E-03 1.15268E-01-5.40019E-14-1.08519E-13
 -1      1828 1.93673E+01-2.03759E-02-5.94961E-02 4.78995E-02 4.78784E-16-1.34510E-13
 -1      1829 1.94339E+01-1.45181E-02-3.38862E-02 7.25044E-03-6.73506E-15-1.12674E-13
 -1      1830 1.94610E+01-3.12536E-02-1.77037E-02 1.02109E-01-2.38490E-14-9.93389E-14
 -1      1831 1.95797E+01 1.15263E-01 7.26478E-02 2.35073E-02 6.77930E-15-1.08608E-13
 -1      1832 1.97835E+01 1.68462E-01 1.41597E-01-3.23954E-02-1.09426E-14-5.09939E-14
 -1      1833 1.95780E+01 4.76855E-02 2.47330E-02 1.12743E-01-9.55486E-15-1.05815E-13
 -1      1834 1.98378E+01 1.00321E-01 1.01970E-01-2.45801E-02-4.39510E-14-3.36883E-14
 -1      1835 1.98756E+01 7.20549E-02 5.59888E-02 4.01616E-02-2.19512E-14-5.71210E-14
 -1      1836 1.97191E+01 1.32440E-01 7.28633E-02 7.25899E-02-8.61117E-15-1.28050E-13
 -1      1837 1.99330E+01 4.94482E-02 2.14207E-02 8.42497E-02-4.16334E-17-6.12115E-14
 -1      1838 1.99729E+01 3.29073E-02-4.69671E-03 1.11587E-01 1.43392E-14-1.02959E-13
 -1      1839 1.98539E+01 6.36991E-02 1.07618E-02 9.00347E-02-1.00753E-14-1.15499E-13
 -1      1840 2.00356E+01 2.97988E-02-8.73945E-03 1.33694E-01-4.51705E-14-1.13241E-13
 -1      1841 2.01011E+01 3.06886E-02-9.61981E-03 1.56007E-01-6.18377E-14-1.15344E-13
 -1      1842 1.99940E+01 6.40250E-02-6.52146E-03 1.72763E-01-3.98813E-14-1.41021E-13
 -1      1843 2.01604E+01 2.81321E-02-1.45295E-02 1.77318E-01-4.33195E-14-9.32544E-14
 -1      1844 2.02305E+01 3.04922E-02-1.36875E-02 1.95904E-01-6.47173E-14-1.20977E-13
 -1      1845 2.01152E+01 3.46118E-02-2.45654E-02 2.17284E-01-4.23134E-14-1.05255E-13
 -1      1846 2.02979E+01 3.61121E-02-8.48170E-03 2.22918E-01-8.01130E-14-1.46693E-13
 -1      1847 2.03897E+01 4.15952E-02-2.70271E-03 2.47085E-01-3.05572E-15-1.57244E-13
 -1      1848 2.02418E+01 5.52027E-02-1.68835E-02 2.72888E-01-7.40345E-14-9.32050E-14
 -1      1849 2.04631E+01 4.53397E-02-2.15438E-03 2.79047E-01 6.75807E-14-1.83370E-13
 -1      1850 2.05740E+01 5.10126E-02 1.75415E-03 3.07678E-01 5.89940E-14-1.47057E-13
 -1      1851 2.03841E+01 6.44173E-02-7.53335E-03 3.38270E-01 2.10834E-14-1.79557E-13
 -1      1852 2.06607E+01 5.51393E-02 1.25543E-04 3.47341E-01 3.05994E-14-1.36333E-13
 -1      1853 2.07962E+01 6.09354E-02 3.74594E-03 3.81539E-01-2.10481E-14-1.60449E-13
 -1      1854 2.05451E+01 7.93820E-02-3.83878E-03 4.18186E-01 3.36220E-14-1.63455E-13
 -1      1855 2.09000E+01 6.46713E-02 9.64635E-04 4.28428E-01-2.24811E-14-1.16133E-13
 -1      1856 2.10641E+01 6.94089E-02 4.50941E-03 4.67742E-01 3.12354E-14-1.31236E-13
 -1      1857 2.07372E+01 9.36105E-02-2.57671E-03 5.14749E-01 5.68989E-15-1.82330E-13
 -1      1858 2.11885E+01 7.11132E-02 1.14590E-03 5.19992E-01 3.87936E-14-1.03725E-13
 -1      1859 2.13833E+01 7.24182E-02 4.31765E-03 5.61812E-01 9.74425E-14-7.07416E-14
 -1      1860 2.09675E+01 1.04173E-01-2.33993E-03 6.25523E-01 6.79179E-14-1.67056E-13
 -1      1861 2.15306E+01 6.96779E-02 1.02431E-03 6.14464E-01 7.43338E-14-1.11472E-13
 -1      1862 2.17544E+01 6.40842E-02 3.13951E-03 6.53075E-01 2.81372E-14-8.53720E-14
 -1      1863 2.12415E+01 1.04429E-01-2.46440E-03 7.42868E-01 1.10364E-13-1.77281E-13
 -1      1864 2.19256E+01 5.33977E-02 7.52445E-04 6.96858E-01 5.62474E-14-1.40359E-13
 -1      1865 2.21704E+01 3.60037E-02 6.03827E-04 7.22097E-01 5.26346E-14-1.37329E-13
 -1      1866 2.15618E+01 8.45311E-02-2.62326E-03 8.51238E-01 7.71866E-14-2.34758E-13
 -1      1867 2.23646E+01 1.27166E-02 3.99562E-04 7.41802E-01 1.39279E-14-1.47884E-13
 -1      1868 2.26130E+01-2.25077E-02-3.71578E-03 7.37776E-01-3.25506E-14-1.32240E-13
 -1      1869 2.19275E+01 3.09872E-02-2.71620E-03 9.24109E-01 3.01347E-14-1.76448E-13
 -1      1870 2.28266E+01-6.33604E-02 5.01038E-05 7.10992E-01-7.06796E-14-6.03597E-14
 -1      1871 2.30486E+01-1.21490E-01-9.91399E-03 6.56081E-01-5.55532E-14-3.08581E-14
 -1      1872 2.23325E+01-7.21063E-02-2.64176E-03 9.20832E-01 2.51352E-14-9.33812E-14
 -1      1873 2.32729E+01-1.82150E-01-2.62151E-04 5.54343E-01-2.09186E-14 1.19262E-14
 -1      1874 2.34250E+01-2.61757E-01-1.71347E-02 4.25171E-01 3.91180E-14 1.73223E-14
 -1      1875 2.27630E+01-2.36604E-01-2.07962E-03 7.86294E-01-4.04034E-14 4.90237E-14
 -1      1876 2.36403E+01-3.35076E-01-8.00424E-04 2.21531E-01-3.31306E-14 1.28660E-14
 -1      1877 2.36701E+01-4.18346E-01-2.28080E-02 4.89181E-03-1.41455E-13-5.47690E-14
 -1      1878 2.31906E+01-4.54307E-01-2.54806E-04 4.59498E-01-1.84700E-14 7.31012E-15
 -1      1879 2.38375E+01-4.78098E-01-2.47322E-03-3.06383E-01-1.52199E-13-2.84087E-14
 -1      1880 2.36997E+01-5.21126E-01-2.25373E-02-5.91191E-01-9.33229E-14 1.39732E-14
 -1      1881 2.35605E+01-6.70226E-01 3.93706E-03-9.87762E-02-8.80155E-14-9.18041E-14
 -1      1882 2.37577E+01-5.17209E-01-6.46704E-03-9.61457E-01-2.69611E-14 6.85363E-14
 -1      1883 2.34421E+01-4.55770E-01-1.20767E-02-1.23735E+00 3.16873E-14 5.56933E-14
 -1      1884 2.37805E+01-7.60837E-01 1.04019E-02-8.49849E-01-1.77020E-14 2.45247E-16
 -1      1885 2.33273E+01-3.32754E-01-1.24336E-02-1.53301E+00 7.68517E-14 9.47940E-14
 -1      1886 2.28913E+01-1.27864E-01 6.88553E-03-1.66351E+00 2.05470E-13 2.08694E-13
 -1      1887 2.37334E+01-5.57960E-01 1.54712E-02-1.60463E+00 1.27840E-13 2.12120E-13
 -1      1888 2.26082E+01 1.15009E-01-1.55758E-02-1.69128E+00 1.93550E-13 1.74721E-13
 -1      1889 2.21838E+01 4.02724E-01 2.23411E-02-1.54483E+00 2.44653E-13 2.69479E-13
 -1      1890 2.33561E+01 1.85534E-02 9.39297E-03-2.00017E+00 2.16845E-13 2.69982E-13
 -1      1891 2.18773E+01 6.52830E-01-7.58137E-03-1.18394E+00 1.26977E-13 2.25760E-13
 -1      1892 2.16268E+01 8.51093E-01 2.09545E-02-7.57322E-01 6.39697E-14 1.80155E-13
 -1      1893 2.27810E+01 7.79909E-01-1.22823E-02-1.65758E+00 1.85128E-13 2.69298E-13
 -1      1894 2.15147E+01 9.35649E-01 1.00519E-02-1.23243E-01 3.95864E-15 1.28539E-13
 -1      1895 2.15443E+01 8.95823E-01 3.81670E-03 3.97171E-01-1.02498E-13 2.22926E-13
 -1      1896 2.23665E+01 1.29245E+00-3.09783E-02-5.40952E-01 2.33424E-14 2.14378E-13
 -1      1897 2.17131E+01 7.45203E-01 2.34660E-02 9.76163E-01-1.50911E-13 1.92888E-13
 -1      1898 2.20007E+01 4.98068E-01-1.22878E-02 1.32853E+00-2.13458E-13 7.16458E-14
 -1      1899 2.24226E+01 1.19076E+00-2.75935E-02 8.36844E-01-1.25183E-13-4.67621E-14
 -1      1900 2.23015E+01 2.30907E-01 1.93532E-02 1.56928E+00-1.05742E-13 2.61005E-13
 -1      1901 2.27148E+01-4.87159E-02-1.58064E-02 1.62067E+00-1.42974E-15 3.21500E-13
 -1      1902 2.28845E+01 5.51027E-01-4.12274E-03 1.74616E+00-8.02709E-14 1.87505E-13
 -1      1903 2.29330E+01-2.64400E-01 1.42708E-03 1.48642E+00-6.25437E-14 2.15761E-13
 -1      1904 2.33082E+01-4.28492E-01-1.08929E-02 1.28986E+00-6.39332E-14 1.37451E-13
 -1      1905 2.33857E+01-1.99953E-01 1.44399E-02 1.83081E+00-7.87014E-14 2.19674E-13
 -1      1906 2.33397E+01-5.11961E-01-1.62221E-02 9.44205E-01-2.91286E-14 2.88420E-13
 -1      1907 2.35638E+01-5.36247E-01-5.80310E-03 6.46582E-01 1.04482E-14 3.31609E-13
 -1      1908 2.36151E+01-6.76645E-01 1.48494E-02 1.26518E+00 3.83374E-14 1.83964E-13
 -1      1909 2.34376E+01-5.15298E-01-2.34199E-02 2.75245E-01 1.40166E-15 3.00736E-13
 -1      1910 2.34761E+01-4.54778E-01-2.61987E-03-2.06014E-03-9.81853E-15 2.74156E-13
 -1      1911 2.35152E+01-7.75306E-01 8.91940E-03 4.62211E-01-4.65773E-14 4.53989E-13
 -1      1912 2.32576E+01-3.86675E-01-2.14235E-02-2.92666E-01-3.03889E-14 1.92087E-13
 -1      1913 2.31347E+01-3.00980E-01-1.34686E-03-4.90977E-01 6.33512E-14 2.68412E-13
 -1      1914 2.31781E+01-6.32391E-01 2.59806E-03-2.63511E-01 5.55892E-14 3.31424E-13
 -1      1915 2.28802E+01-2.28394E-01-1.47818E-02-6.70657E-01 3.19964E-13 3.54760E-13
 -1      1916 2.26471E+01-1.52068E-01-4.83106E-04-7.81593E-01 3.46760E-13 5.06298E-13
 -1      1917 2.27175E+01-4.04416E-01-8.47826E-04-7.71689E-01 2.01414E-13 2.10276E-13
 -1      1918 2.23894E+01-9.35087E-02-7.48838E-03-8.62628E-01 1.36665E-13 5.48024E-13
 -1      1919 2.20997E+01-3.70921E-02 5.78307E-04-9.01390E-01 2.27297E-13 6.66199E-13
 -1      1920 2.22152E+01-1.92326E-01-2.35556E-03-1.04982E+00 3.22952E-13 3.97579E-13
 -1      1921 2.18565E+01 5.02768E-03-1.58456E-03-9.08456E-01-7.09689E-14 5.61010E-13
 -1      1922 2.15554E+01 4.43653E-02 2.03480E-03-8.94500E-01-2.82628E-13 3.37229E-13
 -1      1923 2.17197E+01-3.02286E-02-2.93392E-03-1.14033E+00-5.09927E-14 4.68572E-13
 -1      1924 2.13356E+01 7.50786E-02 2.27888E-03-8.49180E-01-4.14338E-13 3.79854E-13
 -1      1925 2.10571E+01 1.04834E-01 3.63329E-03-7.96627E-01-4.70184E-13 1.21827E-13
 -1      1926 2.12591E+01 8.59048E-02-3.18434E-03-1.09405E+00-3.64688E-13 2.48960E-13
 -1      1927 2.08651E+01 1.30712E-01 4.09498E-03-7.12826E-01-3.80601E-13 4.71975E-14
 -1      1928 2.06341E+01 1.57050E-01 4.90391E-03-6.28484E-01-2.04001E-13 6.97938E-14
 -1      1929 2.08500E+01 1.74500E-01-3.06549E-03-9.49057E-01-5.52278E-13 1.77185E-13
 -1      1930 2.04898E+01 1.73963E-01 4.33553E-03-5.19520E-01-3.34628E-15 9.03856E-15
 -1      1931 2.03189E+01 1.95986E-01 6.39057E-03-4.11971E-01-9.54792E-15 1.37394E-14
 -1      1932 2.02645E+01 2.78183E-01-2.66174E-03-4.84359E-01-1.48107E-13 2.77449E-13
 -1      1933 2.05175E+01 2.43518E-01-3.78882E-03-7.35517E-01-5.34401E-14 3.58811E-13
 -1      1934 1.97808E+01 1.41541E-01 7.88980E-03 2.69317E-01 1.99419E-13 1.33888E-13
 -1      1935 2.00579E+01 2.03764E-01 1.64576E-02 4.42135E-01 1.85699E-13 2.18775E-13
 -1      1936 2.02562E+01 3.50408E-01-1.51227E-03 6.67610E-01 2.26898E-13 1.06957E-13
 -1      1937 1.95290E+01 7.13088E-02 6.93908E-03 6.72524E-02 1.48631E-13 4.84491E-14
 -1      1938 1.96490E+01 1.01199E-01 1.42131E-02 1.55306E-01 1.60025E-13 1.08329E-13
 -1      1939 1.98545E+01 1.64437E-01-1.90911E-03 2.69422E-01 1.98399E-13 5.86727E-14
 -1      1940 1.94284E+01 3.56124E-02 4.40441E-03-3.72368E-02 1.01798E-13-8.71048E-15
 -1      1941 1.94639E+01 5.13663E-02 8.33207E-03 9.47760E-03 1.24609E-13 2.31959E-14
 -1      1942 1.96449E+01 7.98710E-02-2.79287E-03 5.85099E-02 1.46194E-13-1.20039E-14
 -1      1943 1.94160E+01 1.58354E-02 2.82676E-03-8.89461E-02 6.90446E-14-5.65038E-14
 -1      1944 1.94064E+01 2.46015E-02 4.33820E-03-6.47386E-02 7.70160E-14-4.80822E-15
 -1      1945 1.95561E+01 3.68283E-02-2.81466E-03-5.23390E-02 8.85214E-14-5.35329E-14
 -1      1946 1.94521E+01 4.46852E-03 1.94885E-03-1.10614E-01 7.46276E-14-9.68452E-14
 -1      1947 1.94197E+01 9.36381E-03 2.13178E-03-9.94392E-02 4.67379E-14-7.13993E-14
 -1      1948 1.95394E+01 1.32968E-02-2.29256E-03-1.07129E-01 7.53326E-14-1.05230E-13
 -1      1949 1.95123E+01-1.90608E-03 1.45050E-03-1.14960E-01 8.84218E-14-1.06296E-13
 -1      1950 1.94698E+01 6.39764E-04 9.53914E-04-1.11453E-01 9.26202E-14-9.11077E-14
 -1      1951 1.95634E+01 1.83955E-04-1.66216E-03-1.29431E-01 9.56761E-14-1.38976E-13
 -1      1952 1.95819E+01-5.03746E-03 1.40757E-03-1.09785E-01 7.00025E-14-2.05384E-13
 -1      1953 1.95366E+01-4.00634E-03 4.55282E-04-1.10606E-01 6.85301E-14-1.20080E-13
 -1      1954 1.96083E+01-6.69332E-03-9.66541E-04-1.32972E-01 8.91881E-14-9.50193E-14
 -1      1955 1.96525E+01-6.03190E-03 2.58570E-03-1.00187E-01-5.20747E-14-1.95433E-13
 -1      1956 1.96081E+01-5.88847E-03 9.38387E-04-1.03179E-01 1.44317E-14-2.18384E-13
 -1      1957 1.96618E+01-9.49281E-03 3.40229E-04-1.26406E-01 5.38357E-14-1.44992E-13
 -1      1958 1.97208E+01-6.83580E-03 6.20517E-03-9.04371E-02 1.92580E-14-1.87139E-13
 -1      1959 1.96787E+01-6.08292E-03 3.48904E-03-9.37270E-02 1.87025E-15-1.99191E-13
 -1      1960 1.97169E+01-9.66730E-03 3.67070E-03-1.15895E-01 6.00475E-15-1.59710E-13
 -1      1961 1.97926E+01-2.51615E-03 9.21070E-03-7.73971E-02 5.88071E-14-2.35349E-13
 -1      1962 1.97520E+01-7.43577E-03 7.56924E-03-8.30332E-02 3.85829E-14-2.00081E-13
 -1      1963 1.97754E+01-1.41198E-02 8.17662E-03-1.06482E-01 3.37647E-14-2.24104E-13
 -1      1964 1.98580E+01-3.44448E-03-7.40106E-03-7.97484E-02 1.18051E-13-3.06520E-13
 -1      1965 1.98206E+01 5.40107E-04-6.90428E-04-7.94106E-02 6.74990E-14-2.65848E-13
 -1      1966 1.98400E+01-7.04907E-03-2.71189E-03-8.74221E-02 1.00525E-13-2.63688E-13
 -1      1967 1.99324E+01-3.65214E-03-4.14357E-03-7.49614E-02 9.77014E-14-3.41312E-13
 -1      1968 1.98923E+01-4.90810E-03-7.47786E-03-7.59891E-02 9.48772E-14-2.89355E-13
 -1      1969 1.99149E+01-2.21410E-03-6.48966E-03-1.00660E-01 1.09905E-13-2.69932E-13
 -1      1970 1.99933E+01 2.65767E-03-3.91150E-04-7.32067E-02-1.00884E-13-2.39653E-13
 -1      1971 1.99576E+01-1.06113E-03-3.03922E-03-7.23501E-02-7.19693E-15-2.98735E-13
 -1      1972 1.99723E+01-3.90968E-03-4.26541E-03-9.12923E-02 2.99673E-15-2.89955E-13
 -1      1973 2.00618E+01 8.30763E-03 1.11758E-03-8.39743E-02 3.17378E-14-3.37824E-13
 -1      1974 2.00237E+01 6.26436E-03 1.32919E-04-7.85726E-02-6.14981E-14-2.93703E-13
 -1      1975 2.00293E+01 6.52200E-03-9.63806E-04-9.79960E-02-1.67192E-14-3.68676E-13
 -1      1976 2.01455E+01 1.21975E-02 1.46610E-03-1.02344E-01 1.98297E-13-4.36899E-13
 -1      1977 2.00999E+01 1.08137E-02 9.98613E-04-9.36360E-02 1.47389E-13-3.41389E-13
 -1      1978 2.00992E+01 1.41803E-02 2.44594E-04-1.16604E-01 1.98873E-13-3.88406E-13
 -1      1979 2.02476E+01 1.71654E-02 1.46330E-03-1.28199E-01 5.55030E-14-3.54587E-13
 -1      1980 2.01915E+01 1.53258E-02 1.02654E-03-1.15766E-01 1.25032E-13-3.88614E-13
 -1      1981 2.01833E+01 1.98624E-02-3.32164E-04-1.43407E-01 1.28286E-13-3.25157E-13
 -1      1982 2.03754E+01 2.32967E-02 1.66712E-03-1.64053E-01-1.38037E-13-3.79875E-13
 -1      1983 2.03049E+01 2.12054E-02 1.12765E-03-1.46808E-01-3.79926E-14-3.30621E-13
 -1      1984 2.02864E+01 2.75812E-02-9.20201E-04-1.80998E-01-5.45265E-14-2.82437E-13
 -1      1985 2.05372E+01 2.96350E-02 1.95416E-03-2.10931E-01-1.44176E-13-3.04902E-13
 -1      1986 2.04477E+01 2.77469E-02 1.38531E-03-1.88368E-01-1.21330E-13-3.67941E-13
 -1      1987 2.04157E+01 3.64345E-02-1.24797E-03-2.31570E-01-1.04550E-13-3.04291E-13
 -1      1988 2.07409E+01 3.54208E-02 2.22098E-03-2.68421E-01-6.88408E-14-1.88119E-13
 -1      1989 2.06279E+01 3.40686E-02 1.63067E-03-2.40587E-01-1.31327E-13-2.79709E-13
 -1      1990 2.05782E+01 4.51103E-02-1.52147E-03-2.95353E-01-1.35547E-13-1.94191E-13
 -1      1991 2.09929E+01 3.96260E-02 2.35972E-03-3.34627E-01 1.39101E-13-2.04879E-13
 -1      1992 2.08527E+01 3.92810E-02 1.78100E-03-3.02255E-01 8.20299E-14-1.49398E-13
 -1      1993 2.07802E+01 5.23295E-02-1.80538E-03-3.70972E-01 3.40563E-14-1.30124E-13
 -1      1994 2.12973E+01 4.04985E-02 2.22101E-03-4.05310E-01-1.07733E-13-2.35781E-13
 -1      1995 2.11279E+01 4.19590E-02 1.75811E-03-3.70266E-01 1.26741E-14-1.93491E-13
 -1      1996 2.10264E+01 5.61916E-02-2.09810E-03-4.54850E-01 7.01409E-14-1.24189E-13
 -1      1997 2.16531E+01 3.51671E-02 1.60928E-03-4.72348E-01-2.00095E-13-6.07214E-14
 -1      1998 2.14556E+01 3.96964E-02 1.46449E-03-4.38409E-01-2.35025E-13-2.50874E-13
 -1      1999 2.13192E+01 5.35367E-02-2.35841E-03-5.39816E-01-2.00351E-13-1.05788E-13
 -1      2000 2.20516E+01 1.93993E-02 3.02817E-04-5.21655E-01-9.63488E-14 6.21725E-15
 -1      2001 2.18323E+01 2.87677E-02 7.86241E-04-4.95583E-01-1.38283E-13-2.93160E-14
 -1      2002 2.16566E+01 3.94434E-02-2.51098E-03-6.13026E-01-1.56361E-13-2.96026E-14
 -1      2003 2.24716E+01-1.21343E-02-1.85265E-03-5.31085E-01 8.08964E-14 8.52087E-14
 -1      2004 2.22450E+01 4.10502E-03-3.76343E-04-5.23746E-01 1.24919E-14 3.77346E-14
 -1      2005 2.20296E+01 7.17950E-03-2.41859E-03-6.53554E-01-4.65518E-15-9.66558E-14
 -1      2006 2.28756E+01-6.43199E-02-4.75748E-03-4.69694E-01 1.53338E-13 1.16386E-13
 -1      2007 2.26666E+01-3.98275E-02-2.04342E-03-4.96544E-01 1.13974E-13 1.72429E-13
 -1      2008 2.24190E+01-5.06893E-02-1.84225E-03-6.30635E-01 9.79724E-14 3.00125E-14
 -1      2009 2.32056E+01-1.37545E-01-7.78773E-03-3.01335E-01 8.83772E-14 4.24361E-14
 -1      2010 2.30512E+01-1.06182E-01-4.08170E-03-3.80724E-01 1.07348E-13 8.50656E-14
 -1      2011 2.27917E+01-1.38586E-01-4.15846E-04-5.04861E-01 1.65234E-13 9.04181E-14
 -1      2012 2.33848E+01-2.20228E-01-9.59795E-03 2.40141E-03 6.41587E-14-1.12549E-13
 -1      2013 2.33314E+01-1.89591E-01-6.12730E-03-1.44282E-01 5.81115E-14-2.37536E-14
 -1      2014 2.30972E+01-2.50001E-01 2.27680E-03-2.36690E-01 1.31469E-13 1.22556E-13
 -1      2015 2.33287E+01-2.80240E-01-8.47372E-03 4.35240E-01-3.97451E-14-3.50622E-14
 -1      2016 2.34217E+01-2.67202E-01-7.62378E-03 2.23775E-01-1.07726E-14-9.64595E-14
 -1      2017 2.32668E+01-3.55780E-01 6.35368E-03 1.91921E-01 2.17066E-14 8.97474E-14
 -1      2018 2.29727E+01-2.64532E-01-3.68052E-03 9.18893E-01-6.84956E-15-9.90041E-14
 -1      2019 2.32367E+01-2.92738E-01-7.90845E-03 6.81261E-01-2.56739E-15-1.23766E-13
 -1      2020 2.32227E+01-3.96286E-01 1.08320E-02 7.40469E-01 3.03984E-14 1.26643E-13
 -1      2021 2.23208E+01-1.23562E-01 2.52689E-03 1.28094E+00 1.97680E-13-2.09600E-13
 -1      2022 2.27343E+01-2.08385E-01-6.36500E-03 1.10222E+00 7.58100E-14-1.46716E-13
 -1      2023 2.29066E+01-2.95743E-01 1.28166E-02 1.27053E+00 9.55729E-14-3.96991E-14
 -1      2024 2.15032E+01 1.33765E-01 5.08851E-03 1.29952E+00-2.93949E-14-1.31331E-13
 -1      2025 2.19787E+01 1.07379E-02-2.25520E-03 1.28669E+00 1.47298E-13-9.59163E-14
 -1      2026 2.23387E+01-1.74185E-02 8.51934E-03 1.54659E+00 4.90625E-14 3.22034E-14
 -1      2027 2.07900E+01 3.98024E-01 4.94600E-04 8.45211E-01 5.11934E-14-1.04340E-13
 -1      2028 2.11830E+01 2.98200E-01 4.39759E-03 1.05565E+00-4.34618E-14-5.70620E-14
 -1      2029 2.16780E+01 3.63524E-01-2.35427E-03 1.33573E+00-4.97293E-14 1.09746E-13
 -1      2030 2.04910E+01 5.08112E-01-7.54652E-03 3.58908E-02 3.09475E-13-1.10935E-13
 -1      2031 2.06533E+01 4.98716E-01 1.11260E-02 4.06844E-01 2.57428E-13-7.59297E-14
 -1      2032 2.12040E+01 6.57271E-01-1.25188E-02 5.98127E-01 2.61442E-13 4.49801E-14
 -1      2033 2.07546E+01 3.86580E-01-1.03723E-02-7.74764E-01 7.39478E-14-2.86968E-13
 -1      2034 2.06177E+01 4.78882E-01 1.38001E-02-4.09709E-01 2.11706E-13-1.91777E-13
 -1      2035 2.11573E+01 6.80206E-01-1.30524E-02-3.92295E-01 2.75486E-13 1.51431E-13
 -1      2036 2.14435E+01 1.18529E-01-4.21842E-03-1.23030E+00-2.18724E-13-2.79755E-13
 -1      2037 2.10681E+01 2.53217E-01 1.03920E-02-1.02682E+00-1.69214E-13-3.44468E-13
 -1      2038 2.15490E+01 4.14801E-01-3.72302E-03-1.18392E+00-7.66904E-14 8.09925E-14
 -1      2039 2.22336E+01-1.34285E-01 4.52258E-03-1.20823E+00 1.71000E-14-2.05495E-14
 -1      2040 2.17740E+01-3.12413E-02 2.34005E-03-1.21270E+00-5.99026E-14-9.13887E-14
 -1      2041 2.21507E+01 2.74105E-02 5.73961E-03-1.46232E+00-1.48648E-13 7.09198E-14
 -1      2042 2.28310E+01-2.69094E-01 9.04271E-03-8.36204E-01-3.47809E-13 6.94505E-14
 -1      2043 2.24459E+01-2.30423E-01-6.00715E-03-9.90014E-01-1.53355E-13-4.19578E-14
 -1      2044 2.26767E+01-2.82391E-01 6.77226E-03-1.22803E+00-1.30534E-13 2.01441E-13
 -1      2045 2.30967E+01-2.81448E-01 8.51750E-03-3.37121E-01-3.10759E-13-6.18104E-15
 -1      2046 2.28807E+01-2.96241E-01-1.09142E-02-5.45493E-01-3.18199E-13 6.27883E-15
 -1      2047 2.29547E+01-4.13753E-01 3.13236E-03-7.00554E-01-3.59549E-13 7.64727E-14
 -1      2048 2.30357E+01-2.21261E-01 5.32661E-03 1.13460E-01-1.54441E-13-6.06242E-14
 -1      2049 2.30071E+01-2.61532E-01-1.15463E-02-7.64347E-02-2.22137E-13-3.40943E-14
 -1      2050 2.29530E+01-3.89635E-01-1.98973E-04-1.25210E-01-2.27369E-13-1.27041E-13
 -1      2051 2.27277E+01-1.39211E-01 1.90256E-03 4.33666E-01-1.33590E-13 1.02506E-13
 -1      2052 2.28537E+01-1.82422E-01-9.34978E-03 2.96478E-01-8.54221E-14 7.11948E-14
 -1      2053 2.27239E+01-2.85219E-01-1.58278E-03 3.42353E-01-1.89408E-13-4.63000E-14
 -1      2054 2.22695E+01-6.43814E-02-2.93811E-04 6.12716E-01 3.73020E-13-3.65012E-14
 -1      2055 2.24974E+01-9.97331E-02-5.97867E-03 5.33478E-01 7.34638E-14 6.25316E-14
 -1      2056 2.23452E+01-1.64884E-01-1.58497E-03 6.46695E-01 1.73072E-13 5.54561E-14
 -1      2057 2.17475E+01-5.86220E-03-1.02949E-03 6.73087E-01 3.38198E-13-1.49938E-13
 -1      2058 2.20247E+01-3.14602E-02-2.54250E-03 6.43439E-01 4.55847E-13-5.90986E-14
 -1      2059 2.18902E+01-6.13302E-02-1.06374E-03 7.94611E-01 3.90288E-13-2.93602E-15
 -1      2060 2.12294E+01 3.90913E-02-7.36039E-04 6.42465E-01 7.10994E-14-3.99209E-13
 -1      2061 2.15120E+01 2.06635E-02 3.25474E-04 6.52092E-01 1.24586E-13-2.60778E-13
 -1      2062 2.14175E+01 1.84092E-02-7.11747E-04 8.16165E-01 2.52748E-13-9.62425E-15
 -1      2063 2.07659E+01 7.72995E-02-1.31965E-04 5.40545E-01-1.44108E-13-4.31014E-13
 -1      2064 2.10196E+01 6.23487E-02 2.24766E-03 5.82781E-01 5.26406E-14-3.68292E-13
 -1      2065 2.09712E+01 8.06921E-02-8.78888E-04 7.40375E-01 5.75555E-14-4.52786E-13
 -1      2066 2.03961E+01 1.14250E-01 1.57436E-03 3.78066E-01-5.68885E-14-3.42383E-13
 -1      2067 2.05924E+01 9.91812E-02 2.76146E-03 4.50543E-01-1.40108E-13-4.81285E-13
 -1      2068 2.05827E+01 1.34709E-01-1.37034E-03 5.87411E-01-1.46554E-13-2.27319E-13
 -1      2069 2.01753E+01 1.39344E-01 3.79716E-03 2.24424E-01-5.84478E-14 3.94009E-14
 -1      2070 2.03083E+01 1.30658E-01 2.43937E-03 3.16161E-01 6.68500E-14-1.16415E-13
 -1      2071 2.03176E+01 1.78341E-01-2.04507E-03 4.23358E-01-7.53848E-14 1.42138E-13
 -1      2072 2.01595E+01 2.11191E-01-8.25655E-05 2.81017E-01-1.18680E-13 2.95736E-13
 -1      2073 2.00120E+01 1.18111E+00-1.32979E-03 6.83074E-01-3.03481E-13-3.97468E-14
 -1      2074 2.00495E+01 9.63380E-01 2.94235E-03 6.65183E-01-3.97762E-13 7.59484E-16
 -1      2075 2.00854E+01 7.90107E-01 5.86427E-04 6.20335E-01-2.96969E-13 1.33378E-13
 -1      2076 2.01211E+01 5.95271E-01 3.98890E-03 5.59507E-01-3.00422E-13 2.77869E-13
 -1      2077 2.01004E+01 8.11514E-01-1.03803E-03 8.11453E-01-3.92128E-13 3.34889E-14
 -1      2078 2.01339E+01 4.76375E-01 1.61003E-03 4.75106E-01-2.65550E-13 3.64834E-15
 -1      2079 2.01589E+01 3.21255E-01 3.86309E-03 3.83102E-01-1.89390E-13 6.80909E-14
 -1      2080 2.02271E+01 3.08540E-01 2.57714E-03 4.63476E-01-1.42520E-13 2.92971E-14
 -1      2081 2.01789E+01 5.28448E-01-1.02448E-03 6.64907E-01-2.94124E-13 1.75713E-13
 -1      2082 1.99416E+01 1.56481E+00-3.94892E-03 6.55369E-01-5.69694E-13-6.48449E-13
 -1      2083 1.99773E+01 1.35435E+00 4.52473E-04 6.78179E-01-4.20072E-13-2.82954E-13
 -1      2084 1.99924E+01 1.15623E+00 4.81937E-04 8.55090E-01-5.22114E-13-2.32115E-13
 -1      2085 1.98766E+01 1.90962E+00-6.39726E-03 5.38658E-01-2.08056E-13 1.47107E-13
 -1      2086 1.99087E+01 1.72768E+00-2.11918E-03 6.00142E-01-3.10765E-13-1.20420E-13
 -1      2087 1.98890E+01 1.49296E+00 2.55583E-03 7.88297E-01-2.44004E-13-1.82418E-13
 -1      2088 1.98268E+01 2.16231E+00-7.95947E-03 3.45355E-01-1.83516E-13 1.25771E-13
 -1      2089 1.98502E+01 2.03771E+00-4.64333E-03 4.37986E-01-1.55437E-13 2.28142E-13
 -1      2090 1.97982E+01 1.78498E+00 4.86392E-03 6.13638E-01-9.82982E-14 2.06375E-13
 -1      2091 1.98004E+01 2.28602E+00-8.30204E-03 1.00039E-01-2.94858E-13-2.41883E-13
 -1      2092 1.98107E+01 2.23681E+00-6.71266E-03 2.11570E-01-2.56597E-13-9.82435E-14
 -1      2093 1.97329E+01 1.98855E+00 6.72077E-03 3.50390E-01-1.15340E-13-1.29601E-13
 -1      2094 1.98030E+01 2.26064E+00-7.39594E-03-1.62719E-01-1.08678E-13-1.41159E-13
 -1      2095 1.97980E+01 2.29458E+00-7.94170E-03-4.83065E-02-1.53625E-13-4.43738E-14
 -1      2096 1.97044E+01 2.07196E+00 7.57523E-03 3.31256E-02-1.24582E-13 1.96423E-14
 -1      2097 1.98346E+01 2.08823E+00-5.50072E-03-4.04099E-01-1.27038E-14-3.42393E-13
 -1      2098 1.98151E+01 2.20126E+00-7.96781E-03-3.03773E-01 6.16087E-15-2.37053E-13
 -1      2099 1.97187E+01 2.02070E+00 7.14514E-03-2.92388E-01 5.58977E-14-1.60822E-13
 -1      2100 1.98892E+01 1.79929E+00-2.83146E-03-5.86147E-01-7.37899E-14 5.01075E-15
 -1      2101 1.98586E+01 1.97221E+00-6.82286E-03-5.15392E-01-6.30644E-14-1.98158E-13
 -1      2102 1.97741E+01 1.84384E+00 5.70586E-03-5.75880E-01 9.23332E-14-2.48499E-13
 -1      2103 1.99610E+01 1.42477E+00 1.51494E-04-6.88947E-01-1.09990E-13 4.51575E-13
 -1      2104 1.99226E+01 1.63954E+00-4.69728E-03-6.55837E-01-1.21148E-13 3.40539E-13
 -1      2105 1.98610E+01 1.56704E+00 3.38431E-03-7.79014E-01 1.26437E-13 1.09304E-13
 -1      2106 2.00415E+01 1.01959E+00 3.02349E-03-6.93033E-01-8.20093E-14 6.02449E-13
 -1      2107 1.99992E+01 1.24393E+00-2.16609E-03-7.05019E-01-1.90706E-13 2.67707E-13
 -1      2108 1.99706E+01 1.22591E+00 1.00160E-03-8.75184E-01-1.60635E-15 3.75137E-13
 -1      2109 2.01244E+01 6.26790E-01 2.44476E-03-5.95722E-01-1.24775E-13 5.03711E-13
 -1      2110 2.00793E+01 8.37384E-01-5.55046E-04-6.52801E-01-1.08886E-13 6.09151E-13
 -1      2111 2.00910E+01 8.65634E-01-7.17206E-04-8.48450E-01-1.30812E-13 5.77824E-13
 -1      2112 9.99392E+00-5.50500E+00-1.72431E-01 6.37095E+00 8.99281E-15 1.05083E-12
 -1      2113 6.70081E+00-6.67008E+00-3.28448E-01 5.35111E+00-1.65257E-13 8.42520E-13
 -1      2114 1.48408E-01-7.48196E+00-4.14134E-01 7.16971E-01-2.74419E-13 5.13756E-13
 -1      2115 1.23340E-01-7.75075E+00-4.60335E-01-8.61198E-01-2.58515E-13 2.09999E-13
 -1      2116 3.49570E+00-6.14913E+00-2.31442E-01 4.25996E+00-6.55587E-14 6.66411E-13
 -1      2117 1.49218E+00-7.27238E+00-4.18492E-01 2.55933E+00-3.13055E-13 5.35294E-13
 -1      2118 1.85937E+01-3.71495E+00 6.91219E-03 6.90790E+00 3.04312E-13 5.35849E-13
 -1      2119 1.42447E+01-5.50167E+00-2.75149E-01 6.25933E+00-5.60663E-15 7.33968E-13
 -1      2120 2.68027E+01-1.35321E+00 9.73262E-02 5.79474E+00 4.23550E-13 6.57030E-13
 -1      2121 2.17549E+01-3.12624E+00-1.92310E-01 5.80656E+00 5.11202E-13 4.92606E-13
 -1      2122 2.26121E+01-4.98864E+00 5.24291E-02 5.66429E+00 1.60427E-13 5.53668E-13
 -1      2123 1.91819E+01 3.94815E+00-2.49978E-02-1.66383E+00-2.41055E-13-2.85508E-13
 -1      2124 1.92843E+01 3.87120E+00-2.38725E-02-1.91434E+00-2.78489E-13-2.18821E-13
 -1      2125 1.95883E+01 3.19448E+00-7.85120E-03-1.86556E+00-3.02760E-13-1.61215E-13
 -1      2126 1.93611E+01 3.52444E+00-9.12583E-03-1.47994E+00-2.38019E-13-2.76244E-13
 -1      2127 3.88318E+01 5.61368E+00 2.71901E-01 1.71456E+00 3.31124E-13 6.51479E-13
 -1      2128 3.64049E+01 4.57205E+00 1.87455E-01 2.90026E+00 5.68379E-13 5.60774E-13
 -1      2129 3.85084E+01 7.27975E+00 1.18817E-01-6.93543E-02 5.97078E-13 5.50435E-13
 -1      2130 3.87752E+01 6.93595E+00 2.64261E-01 9.19067E-01 4.89608E-13 7.21367E-13
 -1      2131 3.68174E+01 6.27312E+00 8.52758E-02-7.35241E-01 3.94074E-13 4.03844E-13
 -1      2132 3.83944E+01 7.07748E+00 2.00487E-01-1.30977E-01 5.63993E-13 5.79092E-13
 -1      2133 3.38410E+01 2.95722E+00 1.13489E-01-2.95968E+00 2.08944E-13 4.04121E-14
 -1      2134 3.65521E+01 4.37046E+00 1.59914E-01-1.82329E+00 2.26374E-13 1.75582E-13
 -1      2135 2.71226E+01-5.95628E-01-7.62568E-02-4.93309E+00 1.82410E-13 1.93179E-14
 -1      2136 3.16516E+01 1.05627E+00 1.76425E-01-4.53004E+00 1.75360E-13-2.99760E-14
 -1      2137 1.94003E+01-3.83657E+00-2.19654E-01-5.97734E+00 2.49412E-13-5.88418E-15
 -1      2138 2.41046E+01-2.01608E+00 8.46885E-02-6.27704E+00 1.50657E-13-3.28071E-14
 -1      2139 1.07713E+01-5.94149E+00-3.70376E-01-5.86810E+00 3.89799E-13 2.92204E-13
 -1      2140 1.51641E+01-4.20517E+00-7.01098E-02-6.85972E+00 3.21965E-13 2.25153E-13
 -1      2141 4.36800E+00-7.05868E+00-4.15521E-01-4.39444E+00 4.31877E-13-6.63081E-14
 -1      2142 7.30262E+00-5.71949E+00-2.06559E-01-5.67034E+00 3.73368E-13 1.31353E-13
 -1      2143 4.83497E-01-7.58130E+00-4.44329E-01-1.59587E+00 3.35676E-13-3.51719E-13
 -1      2144 1.73484E+00-6.94436E+00-3.58925E-01-2.98753E+00 4.94493E-13-1.50990E-13
 -1      2145 9.78055E-01-6.56919E+00-2.90335E-01 1.85044E+00 1.66617E-13-4.75064E-13
 -1      2146 3.39425E-01-7.08706E+00-3.73774E-01 1.91801E-01 2.62151E-13-4.42313E-13
 -1      2147 5.22239E+00-6.12847E+00-2.51635E-01 4.94123E+00-1.00697E-13-7.66998E-13
 -1      2148 2.60474E+00-7.22099E+00-4.24324E-01 3.47982E+00 9.48130E-14-7.13207E-13
 -1      2149 1.34302E+01-4.92537E+00-7.16714E-02 6.83176E+00-3.09530E-13-5.98410E-13
 -1      2150 9.09547E+00-6.36603E+00-3.29409E-01 5.68122E+00-1.54599E-13-6.55177E-13
 -1      2151 2.26670E+01-2.48014E+00 5.42521E-02 6.45486E+00-4.93217E-13-6.98108E-13
 -1      2152 1.77843E+01-4.49808E+00-2.27059E-01 6.00561E+00-3.97016E-13-5.84172E-13
 -1      2153 3.09506E+01 5.03589E-01 2.01303E-01 4.69200E+00-3.95878E-13-8.06466E-13
 -1      2154 2.62664E+01-1.45948E+00-1.21324E-01 4.77002E+00-3.85303E-13-7.26696E-13
 -1      2155 3.62665E+01 3.55210E+00 2.44426E-01 2.70436E+00-4.44533E-13-8.46212E-13
 -1      2156 3.26748E+01 2.05101E+00 1.36493E-02 3.54054E+00-4.12649E-13-8.46545E-13
 -1      2157 3.14950E+01-6.08350E-02 1.89177E-01 1.50708E+00-2.92552E-13-6.02851E-13
 -1      2158 3.98392E+01 6.38622E+00 3.10097E-01 8.59362E-01-2.01228E-13-9.64007E-13
 -1      2159 3.78448E+01 5.63050E+00 2.06527E-01 1.78342E+00-2.95874E-13-8.80074E-13
 -1      2160 3.96097E+01 7.28196E+00 2.63614E-01-5.11838E-01 6.53921E-14-8.00068E-13
 -1      2161 3.99431E+01 7.17698E+00 3.09649E-01 4.10905E-01-1.29063E-13-8.75480E-13
 -1      2162 3.85313E+01 5.60333E+00 3.05437E-01-2.25777E+00 1.19793E-13-1.08313E-12
 -1      2163 3.97479E+01 6.47804E+00 2.94401E-01-9.59243E-01 2.30149E-13-8.87512E-13
 -1      2164 3.35975E+01 2.86316E+00 1.06844E-01-3.75192E+00-2.92127E-14-1.12466E-12
 -1      2165 3.76143E+01 4.27253E+00 3.97679E-01-3.28348E+00-1.46966E-14-1.38972E-12
 -1      2166 3.55338E+01 5.00087E+00 3.31834E-01-4.37962E-01 3.49443E-14-9.14824E-13
 -1      2167 2.58806E+01-1.41367E+00-1.06345E-01-5.10847E+00-1.67533E-13-8.13349E-13
 -1      2168 3.10047E+01 7.34923E-01 2.50200E-01-5.11757E+00-8.00471E-14-9.49019E-13
 -1      2169 1.66213E+01-4.98524E+00-2.56995E-01-6.11057E+00-2.96985E-14-4.39010E-13
 -1      2170 2.20152E+01-3.07034E+00 4.05965E-02-6.64931E+00-9.43690E-16-8.02025E-13
 -1      2171 7.36385E+00-6.84302E+00-4.11175E-01-5.31008E+00-2.64899E-13-3.72813E-13
 -1      2172 1.16221E+01-5.08712E+00-1.51282E-01-6.63195E+00-7.82707E-14-2.67265E-13
 -1      2173 1.69399E+00-7.45905E+00-4.42127E-01-2.71730E+00-1.23290E-13-2.25597E-13
 -1      2174 3.97136E+00-6.28878E+00-2.52948E-01-4.45366E+00-1.91069E-13-4.91829E-13
 -1      2175 3.50677E+01 2.98757E+00 3.47535E-01 4.14433E+00 6.32935E-13 4.52860E-13
 -1      2176 3.02815E+01 1.12873E+00 4.28918E-03 4.24713E+00 5.17794E-13 5.63771E-13
 -1      2177 3.41354E+01 3.33766E+00 2.89376E-01 9.08590E-01 4.60854E-13 3.52052E-13
 -1      2178 2.02355E+01 1.08741E+00-2.00515E-02-1.58065E+00-2.86778E-13 3.31875E-13
 -1      2179 2.93741E+01-1.61887E+00 1.14234E-01 3.18392E+00 3.13388E-13 3.84304E-13
 -1      2180 2.01504E+01 1.30427E+00-1.83639E-02-1.63919E+00-3.11050E-13 1.43430E-13
 -1      2181 6.83712E+00-5.43507E+00-1.11909E-01 5.58115E+00-1.72140E-13 7.50677E-13
 -1      2182 2.04469E+00-5.01236E+00-1.79176E-01 2.06905E+00-1.06665E-13 5.70766E-13
 -1      2183 2.01648E+01 5.00736E-01 3.24413E-03-5.75201E-01-2.52602E-13 4.52065E-13
 -1      2184 1.47996E+01-5.78847E+00-5.21089E-02 6.99835E+00-1.36613E-13 8.23044E-13
 -1      2185 2.32679E+00-5.04187E+00-1.86196E-01-2.45025E+00 1.47271E-13-1.40610E-13
 -1      2186 7.73315E+00-5.55589E+00-1.20667E-01-5.85998E+00-6.55587E-14-4.61131E-13
 -1      2187 1.67514E+01-5.69487E+00 4.02461E-03-6.78600E+00 8.88178E-15-4.44297E-13
 -1      2188 3.21939E+01 6.57404E-01 1.85522E-01-2.13567E+00-1.88041E-13-1.04716E-12
 -1      2189 3.61717E+01 7.51106E+00 2.84430E-01-1.95242E-03 9.72555E-14-5.04458E-13
 -1      2190 3.47454E+01 4.31768E+00 2.64768E-01 6.36146E-02-2.64649E-13-5.61551E-13
 -1      2191 2.63054E+01-3.50836E+00 6.89929E-02 4.26756E+00-2.92544E-13-5.54501E-13
 -1      2192 1.78314E+01-5.55505E+00-5.02024E-02 6.46214E+00-1.75471E-13-5.81465E-13
 -1      2193 9.31650E+00-5.43848E+00-6.00812E-02 6.33178E+00-2.01505E-14-7.67442E-13
 -1      2194 3.24958E+00-4.85831E+00-1.64479E-01 3.32712E+00 1.35364E-13-7.36244E-13
 -1      2195 1.64546E+00-4.68445E+00-1.84824E-01-8.56980E-01 8.72705E-14-4.87388E-13
 -1      2196 4.71932E+00-5.28545E+00-1.75237E-01-4.72512E+00 2.59071E-13-3.65263E-14
 -1      2197 1.14446E+01-5.64788E+00-8.81937E-02-6.67731E+00 1.54876E-13 3.47167E-13
 -1      2198 1.96403E+01-5.17800E+00 4.86070E-03-6.29600E+00 1.62592E-13 2.16605E-13
 -1      2199 2.70345E+01-2.91495E+00 9.65316E-02-4.03903E+00 1.82993E-13-3.86913E-14
 -1      2200 3.21787E+01 1.05962E+00 1.97871E-01-1.60857E+00 2.33241E-13 1.75970E-14
 -1      2201 3.42423E+01 5.39483E+00 1.80681E-01 2.68490E-01 3.87357E-13 4.27214E-13
 -1      2202 3.51428E+01 6.80032E+00 2.82989E-01-1.18435E-01 4.25660E-13 5.93359E-13
 -1      2203 3.44467E+01 7.84604E+00 1.83305E-01 2.46709E-01 5.28633E-13 6.12385E-13
 -1      2204 3.58697E+01 7.61676E+00 3.08511E-01-2.79155E-01-1.20848E-13-5.91749E-13
 -1      2205 2.55927E+01-3.93353E+00 2.30567E-02-4.67426E+00-1.50324E-13-7.16593E-13
 -1      2206 2.02790E+01 5.05656E-01 3.67975E-03 6.94175E-01 2.20319E-13-3.19146E-15
 -1      2207 2.05514E+01 6.99958E-01 2.08161E-02 9.85749E-01 2.48079E-13 2.96022E-14
 -1      2208 1.93327E+01 3.47340E+00-1.09273E-02-5.62102E-01-1.08204E-13-3.67163E-13
 -1      2209 1.93454E+01 3.42427E+00-1.04280E-02-7.44782E-01-1.43401E-13-3.65236E-13
 -1      2210 1.93688E+01 3.33515E+00-1.25352E-02-9.07949E-01-1.68378E-13-3.56824E-13
 -1      2211 1.94059E+01 3.25216E+00-1.26785E-02-1.09487E+00-1.99192E-13-3.21573E-13
 -1      2212 1.95233E+01 2.99191E+00 1.01911E-04-7.58859E-01-1.37475E-13-3.31757E-13
 -1      2213 1.93722E+01 3.56878E+00-9.51599E-03 1.24924E-01-6.21546E-16-4.09676E-13
 -1      2214 1.93502E+01 3.56547E+00-9.60803E-03-5.36920E-02-3.17217E-14-4.03210E-13
 -1      2215 1.94403E+01 3.53678E+00-9.65388E-03 4.69836E-01 4.86980E-14-4.30525E-13
 -1      2216 1.94019E+01 3.55507E+00-1.01433E-02 2.89573E-01 1.75818E-14-4.25381E-13
 -1      2217 1.95482E+01 3.19497E+00-9.01115E-04 1.98025E-01-4.85080E-15-3.97488E-13
 -1      2218 1.95432E+01 3.44766E+00-1.05773E-02 8.13066E-01 1.22819E-13-4.31364E-13
 -1      2219 1.94863E+01 3.49046E+00-1.12388E-02 6.31948E-01 8.11581E-14-4.32420E-13
 -1      2220 1.96268E+01 3.13798E+00-4.88889E-04 5.15498E-01 5.67697E-14-4.08706E-13
 -1      2221 1.96959E+01 3.28115E+00-1.29664E-02 1.16593E+00 1.85614E-13-3.77637E-13
 -1      2222 1.96121E+01 3.36042E+00-1.29330E-02 9.76787E-01 1.43142E-13-4.14726E-13
 -1      2223 1.97454E+01 3.01089E+00 2.97003E-04 8.30379E-01 1.30858E-13-3.95861E-13
 -1      2224 1.99183E+01 3.00190E+00-1.82634E-02 1.51254E+00 2.46087E-13-3.12870E-13
 -1      2225 1.97970E+01 3.13968E+00-1.52808E-02 1.32215E+00 2.08034E-13-3.48754E-13
 -1      2226 1.99171E+01 2.79194E+00 2.00410E-03 1.13580E+00 1.89953E-13-3.39099E-13
 -1      2227 2.02418E+01 2.54695E+00-2.85920E-02 1.81622E+00 3.11755E-13-2.18039E-13
 -1      2228 2.00678E+01 2.78379E+00-1.72468E-02 1.64175E+00 2.64372E-13-2.72333E-13
 -1      2229 2.01554E+01 2.44638E+00 5.89379E-03 1.40032E+00 2.36590E-13-2.65199E-13
 -1      2230 1.99937E+01 2.66793E-01 4.69122E-03 3.02641E-01 1.97820E-13-2.68691E-14
 -1      2231 2.01590E+01 3.66774E-01 2.02079E-02 4.59276E-01 2.10569E-13-7.67008E-15
 -1      2232 2.03207E+01 6.33402E-01-2.19607E-03 7.24864E-01 2.39028E-13-8.61785E-14
 -1      2233 1.99477E+01 8.38805E-01 1.22900E-02-9.73666E-01-2.58387E-13 6.60934E-14
 -1      2234 1.97441E+01 6.17850E-01-3.76445E-03-6.69790E-01-2.23654E-13 5.19377E-14
 -1      2235 3.03241E+01-1.15204E+00-9.17440E-02 1.33578E+00 2.94886E-13 1.16462E-13
 -1      2236 2.73730E+01-3.39724E+00-2.53035E-02 2.65136E+00 2.24445E-13 1.76192E-13
 -1      2237 1.03875E+01-4.48262E+00 4.08249E-02 6.62772E+00-2.55851E-13 8.26866E-13
 -1      2238 7.17767E+00-3.69988E+00 1.15123E-01 5.17982E+00-2.58016E-13 7.15400E-13
 -1      2239 1.96798E+01 4.61006E-01 1.53230E-02-4.56228E-01-1.96632E-13 5.52798E-14
 -1      2240 1.95455E+01 3.38164E-01 1.28966E-04-2.88104E-01-1.82183E-13 4.03304E-14
 -1      2241 1.98187E+01 7.35019E-01-1.27486E-03-6.68469E-01-2.32153E-13-2.40490E-14
 -1      2242 1.94851E+01 2.54369E-01 1.05574E-02-1.53577E-01-1.71455E-13 5.40546E-14
 -1      2243 1.94102E+01 1.83882E-01 6.11572E-04-5.82528E-02-1.45544E-13 2.79519E-14
 -1      2244 1.96634E+01 4.07131E-01-3.99866E-03-2.93135E-01-1.72351E-13-2.39262E-14
 -1      2245 1.93694E+01 1.34682E-01 6.29383E-03 2.20987E-02-1.24150E-13 3.32186E-14
 -1      2246 1.93372E+01 9.24387E-02 6.47229E-04 7.38456E-02-1.00636E-13 3.00644E-14
 -1      2247 1.95495E+01 2.21803E-01-3.64214E-03-5.86965E-02-1.47674E-13-5.46915E-15
 -1      2248 1.93147E+01 6.24643E-02 3.55569E-03 1.18020E-01-7.91056E-14 6.22435E-15
 -1      2249 1.93098E+01 3.66972E-02 5.81913E-04 1.43124E-01-6.36468E-14-1.82806E-14
 -1      2250 1.94807E+01 1.09700E-01-2.94106E-03 7.84346E-02-1.14405E-13-1.30331E-14
 -1      2251 1.93017E+01 1.80760E-02 1.93121E-03 1.64039E-01-7.05725E-14-3.47114E-14
 -1      2252 1.93131E+01 2.25985E-03 5.51101E-04 1.72640E-01-7.00947E-14-2.46490E-14
 -1      2253 1.94478E+01 4.11361E-02-2.15324E-03 1.51700E-01-7.84123E-14-6.81463E-14
 -1      2254 1.93155E+01-9.34144E-03 1.04505E-03 1.78904E-01-7.74319E-14-4.40705E-14
 -1      2255 1.93365E+01-1.89482E-02 6.34628E-04 1.77458E-01-7.34140E-14-4.75773E-14
 -1      2256 1.94413E+01-1.13744E-03-1.48458E-03 1.83940E-01-9.10219E-14-1.24091E-13
 -1      2257 1.93466E+01-2.61085E-02 6.65034E-04 1.75145E-01-1.17075E-13-6.37657E-14
 -1      2258 1.93734E+01-3.17421E-02 6.73157E-04 1.68113E-01-1.48937E-13-7.94988E-14
 -1      2259 1.94534E+01-2.67851E-02-9.86347E-04 1.91011E-01-1.04260E-13-1.23273E-13
 -1      2260 1.93897E+01-3.60049E-02 1.75625E-04 1.61891E-01-1.39534E-13-5.53256E-14
 -1      2261 1.94217E+01-3.86922E-02-4.70623E-04 1.52986E-01-1.07812E-13-7.77518E-14
 -1      2262 1.94795E+01-4.13082E-02-8.54222E-04 1.84716E-01-1.37519E-13-1.17494E-13
 -1      2263 1.94430E+01-4.06440E-02-2.52894E-03 1.46955E-01-6.39538E-14-6.48810E-14
 -1      2264 1.94829E+01-3.92540E-02-5.15141E-03 1.40615E-01-4.46171E-15-3.63177E-14
 -1      2265 1.95174E+01-4.66248E-02-1.71219E-03 1.75073E-01-8.40207E-14-2.33810E-14
 -1      2266 1.95055E+01-3.67437E-02-1.00941E-02 1.38054E-01-2.02009E-15-3.84181E-14
 -1      2267 1.95583E+01-2.57858E-02-8.19149E-03 1.43125E-01-9.57220E-15 2.56861E-14
 -1      2268 1.95655E+01-3.83540E-02-2.91141E-03 1.71339E-01-1.63931E-14-3.79471E-16
 -1      2269 1.95859E+01 1.07818E-02 6.33443E-03 1.50057E-01-1.37199E-14-2.87548E-14
 -1      2270 1.96411E+01 7.58989E-02 4.41220E-02 1.48245E-01-2.18298E-14-6.25784E-14
 -1      2271 1.96190E+01 5.58528E-04 8.12676E-03 1.78957E-01-3.32963E-14-1.16244E-14
 -1      2272 1.96578E+01 1.20667E-01 6.64089E-02 1.29775E-01-3.25850E-14-8.07548E-14
 -1      2273 1.97875E+01 1.16784E-01 8.84775E-02 1.15187E-01-3.48888E-14-7.31602E-14
 -1      2274 1.96710E+01 8.10943E-02 5.05659E-02 1.73229E-01-6.15493E-14-2.62707E-14
 -1      2275 1.97877E+01 1.48796E-01 8.14796E-02 1.34540E-01-4.13411E-14-1.14880E-13
 -1      2276 1.99021E+01 1.63429E-01 5.29942E-02 2.29141E-01-2.64511E-14-9.42857E-14
 -1      2277 1.96681E+01 1.31357E-01 8.80964E-02 1.44599E-01-6.62873E-14-3.46945E-14
 -1      2278 1.99098E+01 3.95980E-02-2.84236E-02 1.87652E-01-2.38577E-14-1.27565E-13
 -1      2279 2.00263E+01 6.87065E-02 5.55064E-03 2.20864E-01-3.00836E-14-1.08122E-13
 -1      2280 1.99621E+01 5.16465E-02 4.58651E-02 2.39616E-01-5.70273E-14-4.11060E-14
 -1      2281 2.00565E+01 5.76473E-02-3.54228E-02 2.56117E-01 2.24404E-14-1.24272E-13
 -1      2282 2.01136E+01 5.91315E-02-4.27604E-02 2.77299E-01-1.65146E-15-6.41084E-14
 -1      2283 1.99892E+01 5.48407E-02-3.90403E-02 2.30803E-01-6.73246E-15-6.04516E-14
 -1      2284 2.01733E+01 6.92094E-02-3.19526E-02 3.06738E-01-8.85177E-14-2.99812E-14
 -1      2285 2.02549E+01 8.29292E-02-1.54591E-02 3.38940E-01-4.58314E-14-5.46004E-14
 -1      2286 2.01305E+01 1.16427E-01-3.33656E-02 3.44281E-01-1.07553E-14-5.24303E-14
 -1      2287 2.02941E+01 9.30604E-02-1.32866E-02 3.70361E-01-3.50622E-14-1.08062E-13
 -1      2288 2.03734E+01 1.08042E-01-5.51503E-03 4.08558E-01 2.08002E-14-1.38572E-13
 -1      2289 2.02332E+01 1.11998E-01-2.09186E-02 4.01475E-01-8.03801E-14-4.04468E-14
 -1      2290 2.04195E+01 1.19248E-01-5.34323E-03 4.55174E-01 5.55766E-14-2.00482E-13
 -1      2291 2.05107E+01 1.32534E-01 1.60325E-04 5.01882E-01-1.71458E-14-1.94940E-13
 -1      2292 2.03220E+01 1.50107E-01-1.08104E-02 4.87680E-01-3.09015E-14-1.31031E-13
 -1      2293 2.05632E+01 1.43624E-01-1.70538E-03 5.58671E-01-1.04192E-14-2.01771E-13
 -1      2294 2.06714E+01 1.55956E-01 3.11359E-03 6.14174E-01 3.69822E-14-1.75545E-13
 -1      2295 2.04245E+01 1.81825E-01-4.97409E-03 5.95962E-01 1.50466E-14-2.41391E-13
 -1      2296 2.07357E+01 1.63958E-01-1.82625E-04 6.80934E-01 2.70298E-14-2.07464E-13
 -1      2297 2.08635E+01 1.70955E-01 3.82444E-03 7.42463E-01 6.72432E-14-1.79874E-13
 -1      2298 2.05453E+01 2.10338E-01-2.29022E-03 7.26285E-01-6.71549E-15-5.79607E-14
 -1      2299 2.09435E+01 1.71531E-01 4.09813E-04 8.15040E-01 1.19361E-13-2.36764E-13
 -1      2300 2.10926E+01 1.67399E-01 3.39346E-03 8.76867E-01 1.44161E-13-2.05890E-13
 -1      2301 2.06928E+01 2.24539E-01-1.76947E-03 8.73222E-01 2.14489E-14-2.01600E-13
 -1      2302 2.11932E+01 1.54066E-01 1.04146E-03 9.47760E-01 1.07203E-13-2.89917E-13
 -1      2303 2.13631E+01 1.30300E-01 2.03114E-03 9.99605E-01 7.23778E-14-2.21600E-13
 -1      2304 2.08740E+01 2.09631E-01-2.16467E-03 1.02488E+00 9.63432E-14-2.98765E-13
 -1      2305 2.14920E+01 9.39197E-02 2.14917E-03 1.05629E+00 5.86292E-14-2.21123E-13
 -1      2306 2.16799E+01 3.90285E-02-5.23665E-04 1.08167E+00 7.43646E-14-1.94742E-13
 -1      2307 2.10994E+01 1.44496E-01-3.15929E-03 1.16134E+00 8.53726E-14-2.26325E-13
 -1      2308 2.18493E+01-3.16999E-02 3.97788E-03 1.10430E+00 9.84886E-14-1.77539E-13
 -1      2309 2.20488E+01-1.30373E-01-4.63988E-03 1.07930E+00 8.62095E-14-9.17829E-14
 -1      2310 2.13853E+01 1.11137E-03-4.89270E-03 1.25069E+00 1.08630E-13-2.48826E-13
 -1      2311 2.22747E+01-2.45401E-01 6.55087E-03 1.03867E+00 2.06963E-15-8.25462E-14
 -1      2312 2.24744E+01-3.95066E-01-1.04550E-02 9.33124E-01-3.02822E-14-4.74012E-14
 -1      2313 2.17564E+01-2.50380E-01-7.46826E-03 1.24464E+00 7.49600E-14-1.80506E-13
 -1      2314 2.27719E+01-5.53411E-01 9.28570E-03 7.90886E-01-1.56795E-14-3.34841E-14
 -1      2315 2.29516E+01-7.40635E-01-1.72021E-02 5.75486E-01 8.58645E-15-6.54055E-14
 -1      2316 2.22423E+01-6.24649E-01-1.03676E-02 1.07605E+00-5.10399E-15-1.49513E-13
 -1      2317 2.33184E+01-9.11876E-01 1.02408E-02 2.92496E-01-3.95725E-14-5.05867E-14
 -1      2318 2.34459E+01-1.07792E+00-2.20222E-02-4.25454E-02-6.25576E-14 7.65935E-15
 -1      2319 2.28619E+01-1.08310E+00-1.15666E-02 6.64650E-01-2.88380E-14 8.60490E-14
 -1      2320 2.38316E+01-1.17912E+00 5.22992E-03-4.76918E-01-4.94440E-14 4.02285E-14
 -1      2321 2.38650E+01-1.20267E+00-1.98309E-02-8.87372E-01 5.88197E-14 9.89072E-14
 -1      2322 2.35824E+01-1.47331E+00-7.57010E-03-5.15413E-02 3.15741E-15 1.72572E-13
 -1      2323 2.41490E+01-1.09895E+00-1.02731E-02-1.39739E+00 1.16924E-13 8.16273E-14
 -1      2324 2.40578E+01-8.28430E-01-5.22672E-03-1.74828E+00 1.86254E-13 1.89427E-13
 -1      2325 2.42626E+01-1.49542E+00 2.10071E-03-1.02925E+00 8.27015E-14 1.16126E-13
 -1      2326 2.40822E+01-4.07810E-01-3.45253E-02-2.10569E+00 1.65945E-13 1.47836E-13
 -1      2327 2.38881E+01 1.85483E-01 1.43906E-02-2.17661E+00 1.84861E-13 1.23968E-13
 -1      2328 2.46460E+01-7.94910E-01 9.45130E-03-1.99026E+00 1.27573E-13 8.84666E-14
 -1      2329 2.36323E+01 8.37090E-01-4.88828E-02-2.06129E+00 2.17935E-13 9.47601E-14
 -1      2330 2.34327E+01 1.47510E+00 1.68506E-02-1.67656E+00 1.52555E-13 1.06993E-13
 -1      2331 2.45244E+01 6.65697E-01-3.14282E-03-2.33776E+00 1.38561E-13 2.55802E-14
 -1      2332 2.31801E+01 1.94712E+00-3.13905E-02-9.88278E-01-1.85754E-14 5.48806E-14
 -1      2333 2.30979E+01 2.16802E+00-1.03919E-02-2.69845E-01-8.86027E-14-1.22220E-14
 -1      2334 2.40895E+01 2.16989E+00-4.06038E-02-1.51024E+00 4.44957E-14-1.65682E-13
 -1      2335 2.31489E+01 2.07124E+00-3.38528E-04 6.41627E-01-1.37928E-13-6.25962E-14
 -1      2336 2.32471E+01 1.67637E+00-4.48867E-02 1.28774E+00-1.24505E-13-2.50676E-14
 -1      2337 2.38970E+01 2.72125E+00-4.84986E-02 2.18167E-01-1.81098E-13-1.24396E-13
 -1      2338 2.35337E+01 1.09954E+00 1.93356E-02 1.82257E+00 1.00822E-14-2.94239E-14
 -1      2339 2.37219E+01 4.24180E-01-4.72467E-02 2.05957E+00-1.01455E-14 1.09427E-13
 -1      2340 2.41957E+01 1.79278E+00-2.43934E-02 1.76306E+00 3.89619E-15-1.42766E-13
 -1      2341 2.38968E+01-1.95512E-01 9.90980E-03 2.00454E+00-1.04867E-13 1.31799E-13
 -1      2342 2.40497E+01-7.12820E-01-2.58301E-02 1.81375E+00-8.53571E-14 1.73724E-13
 -1      2343 2.45559E+01 1.56124E-01 4.68846E-03 2.19747E+00-3.91041E-14-1.61334E-13
 -1      2344 2.39112E+01-1.03355E+00-1.09236E-02 1.36360E+00 5.14983E-14 8.53300E-15
 -1      2345 2.39364E+01-1.20220E+00-5.05974E-03 9.67181E-01 7.50962E-15 8.11133E-14
 -1      2346 2.44925E+01-1.14602E+00 3.22180E-03 1.57199E+00-4.66883E-14-1.40443E-14
 -1      2347 2.35951E+01-1.23219E+00-2.06703E-02 4.55674E-01-2.62117E-14 1.49078E-13
 -1      2348 2.34993E+01-1.15300E+00 7.02192E-03 4.72425E-02 5.28618E-14 2.30903E-13
 -1      2349 2.39616E+01-1.58170E+00 3.52411E-04 5.43740E-01 3.82073E-16 5.53447E-14
 -1      2350 2.30944E+01-1.01846E+00-2.08205E-02-3.56371E-01-6.32957E-14 5.85049E-14
 -1      2351 2.29151E+01-8.36527E-01 9.53587E-03-6.67668E-01-2.67288E-14-2.97228E-14
 -1      2352 2.32186E+01-1.41905E+00-9.24089E-03-3.96261E-01-1.45103E-14-1.15801E-13
 -1      2353 2.25512E+01-6.61826E-01-1.49621E-02-9.16386E-01 1.77749E-13-7.62996E-15
 -1      2354 2.23291E+01-4.79322E-01 8.21474E-03-1.10594E+00 2.87437E-13 5.61437E-14
 -1      2355 2.24868E+01-9.81480E-01-1.12577E-02-1.04125E+00 7.26009E-14-1.87123E-13
 -1      2356 2.20363E+01-3.26501E-01-8.43682E-03-1.22203E+00 4.40859E-13 1.45130E-13
 -1      2357 2.18010E+01-1.82996E-01 5.98213E-03-1.30464E+00 4.10939E-13 1.58887E-13
 -1      2358 2.18728E+01-5.30246E-01-9.49494E-03-1.39229E+00 4.27236E-13-7.66960E-14
 -1      2359 2.15751E+01-6.97858E-02-3.22908E-03-1.32415E+00 7.18914E-14 1.56767E-13
 -1      2360 2.13459E+01 3.15249E-02 4.35253E-03-1.32639E+00-1.38582E-13 1.57771E-13
 -1      2361 2.13885E+01-1.67907E-01-6.66863E-03-1.51378E+00 3.02668E-13-1.39239E-13
 -1      2362 2.11699E+01 1.11502E-01 1.20981E-04-1.28065E+00-1.53288E-13 2.73218E-13
 -1      2363 2.09591E+01 1.83668E-01 3.68729E-03-1.22542E+00-4.02280E-13 3.43454E-13
 -1      2364 2.10099E+01 9.23040E-02-4.34826E-03-1.47524E+00-1.21159E-13 1.52194E-13
 -1      2365 2.08164E+01 2.44554E-01 1.94022E-03-1.13445E+00-5.63056E-13 5.75272E-13
 -1      2366 2.06341E+01 3.00695E-01 3.74716E-03-1.03590E+00-3.93618E-13 6.91695E-13
 -1      2367 2.07072E+01 2.79294E-01-2.61682E-03-1.32724E+00-3.06101E-13 4.94753E-13
 -1      2368 1.97285E+01 7.14588E-02 2.03675E-03-4.62972E-02 9.71177E-14-1.22060E-13
 -1      2369 1.97608E+01 1.03005E-01 6.90706E-03-6.73889E-04 1.23742E-13-8.53315E-14
 -1      2370 1.96955E+01 3.01757E-02 1.31488E-03-1.11164E-01 8.18486E-14-1.61426E-13
 -1      2371 1.96976E+01 4.87772E-02 3.67193E-03-8.89686E-02 7.77440E-14-1.41270E-13
 -1      2372 1.98545E+01 8.85178E-02-3.15786E-03-4.73744E-02 1.12243E-13-1.71372E-13
 -1      2373 1.96978E+01 6.00755E-03 9.09086E-04-1.39412E-01 9.54639E-14-1.50161E-13
 -1      2374 1.96831E+01 1.67720E-02 1.81531E-03-1.31156E-01 9.28404E-14-1.58463E-13
 -1      2375 1.98117E+01 3.54129E-02-2.25900E-03-1.18920E-01 1.04010E-13-1.63178E-13
 -1      2376 1.97202E+01-7.28535E-03 9.58757E-04-1.45757E-01 7.36719E-14-1.44348E-13
 -1      2377 1.96970E+01-1.60614E-03 8.54559E-04-1.45592E-01 8.13834E-14-1.27951E-13
 -1      2378 1.97995E+01 4.60921E-03-1.35481E-03-1.50627E-01 7.29119E-14-1.83007E-13
 -1      2379 1.97526E+01-1.30838E-02 2.49199E-03-1.39819E-01 3.71406E-14-1.10861E-13
 -1      2380 1.97259E+01-1.10401E-02 1.01667E-03-1.43925E-01 8.78036E-14-1.10204E-13
 -1      2381 1.98057E+01-1.18988E-02 1.75389E-05-1.58206E-01 5.77084E-14-1.38329E-13
 -1      2382 1.97904E+01-1.28581E-02 8.81818E-03-1.28354E-01 6.85580E-14-1.48951E-13
 -1      2383 1.97610E+01-1.40543E-02 4.04584E-03-1.33852E-01 4.50365E-14-1.06834E-13
 -1      2384 1.98223E+01-1.81965E-02 3.90976E-03-1.52189E-01 6.87140E-14-8.34723E-14
 -1      2385 1.98535E+01-7.08910E-03 2.87495E-02-1.18528E-01 6.01429E-14-2.23464E-13
 -1      2386 1.97958E+01-9.02812E-03 1.45625E-02-1.22548E-01 7.03990E-14-2.02501E-13
 -1      2387 1.98436E+01-1.41767E-02 1.56840E-02-1.39865E-01 1.04964E-13-1.64452E-13
 -1      2388 1.99256E+01 2.87753E-02 2.51668E-02-1.53823E-01 1.27676E-13-2.80428E-13
 -1      2389 1.98433E+01-1.02554E-03 2.54441E-02-1.31366E-01 9.42961E-14-2.55393E-13
 -1      2390 1.98021E+01-7.08939E-03 2.08468E-02-1.19936E-01 8.32620E-14-2.43666E-13
 -1      2391 1.99706E+01-1.71183E-02-8.41668E-03-1.09236E-01 4.52333E-14-2.25247E-13
 -1      2392 1.99105E+01-2.82955E-02-2.94445E-02-1.13065E-01 1.04156E-13-2.41709E-13
 -1      2393 2.00322E+01-3.11808E-02 1.95812E-02-1.32653E-01 8.38843E-14-2.04822E-13
 -1      2394 2.00051E+01 4.21249E-03-1.27737E-03-1.08294E-01-3.33581E-14-2.59444E-13
 -1      2395 1.99760E+01-7.31887E-03-7.12124E-03-1.07134E-01 2.59805E-14-2.38465E-13
 -1      2396 1.99876E+01-1.70501E-02-1.19895E-02-1.21969E-01 2.82864E-14-2.27065E-13
 -1      2397 2.00548E+01 2.09780E-02 2.72452E-03-1.26436E-01 7.75538E-14-3.65898E-13
 -1      2398 2.00222E+01 1.37917E-02 2.43653E-04-1.17403E-01-2.72169E-14-2.88519E-13
 -1      2399 2.00207E+01 1.27112E-02-1.48587E-03-1.33168E-01 1.65696E-14-2.68422E-13
 -1      2400 2.01208E+01 2.97758E-02 3.15484E-03-1.52830E-01 2.17964E-13-3.11856E-13
 -1      2401 2.00812E+01 2.50057E-02 1.97648E-03-1.40417E-01 1.62311E-13-3.22118E-13
 -1      2402 2.00687E+01 3.44494E-02 3.43820E-03-1.60663E-01 9.99097E-14-2.63258E-13
 -1      2403 2.01976E+01 4.19177E-02 2.42013E-03-1.87811E-01 2.98808E-14-1.82593E-13
 -1      2404 2.01497E+01 3.48887E-02 8.92426E-04-1.70134E-01 1.47076E-13-2.23305E-13
 -1      2405 2.01246E+01 4.50998E-02 1.29769E-03-1.93036E-01 1.15905E-13-1.84595E-13
 -1      2406 2.02917E+01 5.76483E-02 2.52476E-03-2.37319E-01-5.50666E-14-1.52776E-13
 -1      2407 2.02323E+01 4.91132E-02 3.76322E-04-2.12721E-01-2.89184E-15-1.44405E-13
 -1      2408 2.01885E+01 6.35021E-02-4.64177E-04-2.38415E-01 3.21485E-15-2.23815E-14
 -1      2409 2.04095E+01 7.41474E-02 2.88333E-03-3.02756E-01-1.43131E-13-1.79619E-13
 -1      2410 2.03353E+01 6.54247E-02 4.66746E-04-2.70896E-01-1.05413E-13-1.99418E-13
 -1      2411 2.02678E+01 8.56662E-02-1.06753E-03-3.01801E-01-5.59714E-14-2.73735E-14
 -1      2412 2.05565E+01 8.95863E-02 3.24141E-03-3.83585E-01-9.72745E-14-2.22795E-13
 -1      2413 2.04643E+01 8.15980E-02 6.45824E-04-3.44789E-01-1.08935E-13-2.01524E-13
 -1      2414 2.03674E+01 1.08186E-01-1.31032E-03-3.83442E-01-1.22648E-13-1.48233E-13
 -1      2415 2.07372E+01 1.01705E-01 3.44432E-03-4.77616E-01 3.18501E-14-1.85504E-13
 -1      2416 2.06244E+01 9.57341E-02 8.09434E-04-4.33141E-01-6.75556E-14-2.42074E-13
 -1      2417 2.04913E+01 1.28384E-01-1.48493E-03-4.82116E-01-5.06029E-14-2.84219E-13
 -1      2418 2.09550E+01 1.06764E-01 3.31776E-03-5.80025E-01-6.56203E-15-2.60992E-14
 -1      2419 2.08201E+01 1.05002E-01 9.48404E-04-5.32614E-01 8.11658E-14-1.04270E-13
 -1      2420 2.06431E+01 1.42633E-01-1.68003E-03-5.94711E-01-1.92376E-14-1.63147E-13
 -1      2421 2.12120E+01 9.86042E-02 2.63637E-03-6.81600E-01-1.93961E-13-1.15278E-13
 -1      2422 2.10552E+01 1.04623E-01 1.08862E-03-6.36413E-01-5.90983E-14-8.20172E-14
 -1      2423 2.08266E+01 1.44961E-01-1.91290E-03-7.14877E-01-1.59700E-14-1.10747E-13
 -1      2424 2.15070E+01 6.79695E-02 1.10053E-03-7.66346E-01-6.67691E-14-2.12417E-13
 -1      2425 2.13318E+01 8.70095E-02 1.26758E-03-7.32176E-01-1.94910E-13-2.01681E-13
 -1      2426 2.10458E+01 1.25797E-01-2.22580E-03-8.30944E-01-1.21660E-13-2.89103E-13
 -1      2427 2.18356E+01 2.66895E-03-1.59972E-03-8.08894E-01-1.22738E-14-2.22129E-13
 -1      2428 2.16493E+01 4.13985E-02 1.53508E-03-7.99351E-01-5.28149E-14-2.65170E-13
 -1      2429 2.13050E+01 7.13611E-02-2.67698E-03-9.23281E-01-5.90751E-14-3.26734E-13
 -1      2430 2.21871E+01-1.10078E-01-5.65580E-03-7.72793E-01 1.01877E-13-7.51599E-14
 -1      2431 2.20035E+01-4.52022E-02 1.92686E-03-8.06719E-01 2.49544E-14-2.39666E-13
 -1      2432 2.16090E+01-3.54450E-02-3.30049E-03-9.61532E-01-2.63825E-14-2.85525E-13
 -1      2433 2.25429E+01-2.76554E-01-1.08584E-02-6.12246E-01 1.67463E-13-3.69323E-14
 -1      2434 2.23826E+01-1.83784E-01 2.38134E-03-7.11711E-01 1.54717E-13-1.12550E-13
 -1      2435 2.19618E+01-2.10333E-01-3.98210E-03-9.02916E-01 1.39374E-13-2.70381E-13
 -1      2436 2.28711E+01-4.81709E-01-1.60869E-02-2.82139E-01 3.17845E-14 5.63786E-14
 -1      2437 2.27627E+01-3.72875E-01 2.50540E-03-4.65369E-01 1.07660E-13 8.15186E-14
 -1      2438 2.23626E+01-4.55273E-01-4.20577E-03-6.94494E-01 4.65856E-14-2.05285E-13
 -1      2439 2.31209E+01-6.67433E-01-1.88082E-02 2.36369E-01-8.08685E-14 1.46774E-13
 -1      2440 2.30975E+01-5.79546E-01 1.40099E-03-2.97993E-02-8.93209E-15 8.68103E-14
 -1      2441 2.27945E+01-7.35332E-01-2.81499E-03-2.85514E-01-6.69983E-14-6.81305E-14
 -1      2442 2.32202E+01-7.18125E-01-1.53157E-02 8.90891E-01 6.85216E-14 8.72913E-15
 -1      2443 2.33101E+01-7.18042E-01-2.41671E-03 5.83960E-01-1.05445E-14 1.51517E-13
 -1      2444 2.32047E+01-9.49800E-01 1.58724E-03 3.40221E-01-5.23945E-14 3.48224E-15
 -1      2445 2.30922E+01-4.89107E-01-3.40561E-03 1.50673E+00 9.30484E-14 3.55002E-14
 -1      2446 2.32998E+01-6.49525E-01-9.81102E-03 1.26002E+00 1.25894E-13 7.19485E-14
 -1      2447 2.34878E+01-9.24761E-01 8.55995E-03 1.10656E+00 7.17998E-14 3.05819E-14
 -1      2448 2.27167E+01 7.82394E-02 1.30091E-02 1.78316E+00-7.49826E-14 2.81121E-13
 -1      2449 2.29968E+01-2.49443E-01-1.82715E-02 1.73844E+00 6.86958E-14 2.33902E-13
 -1      2450 2.35060E+01-4.84038E-01 1.21316E-02 1.77621E+00 5.01632E-14 1.99569E-13
 -1      2451 2.22127E+01 8.02767E-01 2.17383E-02 1.43202E+00 8.98179E-14 1.34860E-13
 -1      2452 2.24696E+01 4.40320E-01-1.91700E-02 1.68923E+00-5.08235E-14 2.01691E-13
 -1      2453 2.32056E+01 3.69917E-01 5.53067E-03 1.97330E+00 3.66890E-14 3.02233E-13
 -1      2454 2.18603E+01 1.26845E+00 1.23700E-02 4.49660E-01 3.32933E-13 6.79183E-14
 -1      2455 2.19830E+01 1.09753E+00-6.25906E-03 9.49691E-01 2.47651E-13 4.24331E-14
 -1      2456 2.27538E+01 1.29112E+00-1.09117E-02 1.38222E+00 2.21137E-13 1.84230E-13
 -1      2457 2.19111E+01 1.13997E+00-8.75553E-03-7.39200E-01 1.77146E-13 1.15250E-13
 -1      2458 2.18428E+01 1.28776E+00 1.20382E-02-2.26960E-01 2.52872E-13 1.19148E-13
 -1      2459 2.25064E+01 1.72523E+00-2.29229E-02 1.30938E-01 2.92008E-13 8.50437E-14
 -1      2460 2.23335E+01 5.11274E-01-2.06492E-02-1.54127E+00-1.47363E-13 1.38149E-13
 -1      2461 2.21170E+01 8.68764E-01 2.16227E-02-1.25609E+00 3.71248E-14 1.26862E-13
 -1      2462 2.26791E+01 1.36653E+00-1.47396E-02-1.15942E+00 1.03827E-13-1.21374E-14
 -1      2463 2.28328E+01-1.97432E-01-1.68135E-02-1.65224E+00-1.34173E-13 1.13949E-13
 -1      2464 2.25770E+01 1.41525E-01 1.59827E-02-1.67254E+00-2.14733E-13 1.99568E-13
 -1      2465 2.30940E+01 4.62129E-01 4.84346E-03-1.82970E+00-5.30188E-14 1.39779E-13
 -1      2466 2.31198E+01-6.38455E-01-8.55084E-03-1.20156E+00-1.56209E-13 1.16187E-13
 -1      2467 2.29274E+01-4.60483E-01-7.82363E-04-1.43653E+00 3.37373E-14 2.31761E-13
 -1      2468 2.33879E+01-4.31474E-01 1.40117E-02-1.69029E+00-1.56663E-13 3.27346E-13
 -1      2469 2.31057E+01-7.42436E-01-1.65694E-03-5.13155E-01-2.21877E-13-1.78739E-14
 -1      2470 2.30325E+01-7.29166E-01-1.39976E-02-8.21859E-01-2.62916E-13 7.12303E-14
 -1      2471 2.33656E+01-9.29012E-01 9.47623E-03-1.03274E+00-1.68790E-13 1.38809E-13
 -1      2472 2.28511E+01-6.21139E-01 1.87704E-03 1.36898E-01-2.63802E-13 2.47339E-14
 -1      2473 2.28986E+01-7.02800E-01-1.81160E-02-1.39715E-01-2.24360E-13-5.89675E-14
 -1      2474 2.30623E+01-9.95237E-01 2.07578E-03-2.39851E-01-1.56346E-13-1.38448E-13
 -1      2475 2.24591E+01-4.15180E-01 2.58184E-03 6.14798E-01-7.61804E-15-2.90053E-13
 -1      2476 2.26002E+01-5.24343E-01-1.57564E-02 4.17696E-01-1.62146E-13-1.74366E-13
 -1      2477 2.26135E+01-7.97031E-01-2.98306E-03 4.30245E-01-5.81852E-14-1.75626E-13
 -1      2478 2.20122E+01-2.13344E-01 2.46672E-03 8.95295E-01 2.89330E-13-1.01752E-13
 -1      2479 2.22112E+01-3.12356E-01-1.07968E-02 7.84295E-01 1.15810E-13-2.51493E-13
 -1      2480 2.21315E+01-5.10927E-01-4.72190E-03 8.83450E-01 5.24932E-14-5.78942E-13
 -1      2481 2.15632E+01-5.08932E-02 2.49845E-03 1.00592E+00 3.75603E-13 1.03908E-14
 -1      2482 2.17878E+01-1.27965E-01-5.66929E-03 9.68022E-01 3.41190E-13-8.19303E-14
 -1      2483 2.16755E+01-2.42740E-01-4.41884E-03 1.12260E+00 2.59085E-13-2.35266E-13
 -1      2484 2.11426E+01 7.22905E-02 3.00872E-03 9.86079E-01 2.42395E-13-5.94686E-14
 -1      2485 2.13667E+01 1.40212E-02-1.62257E-03 1.00502E+00 3.47903E-13 1.61232E-13
 -1      2486 2.12668E+01-2.97280E-02-3.57817E-03 1.18906E+00 3.21192E-13-2.72671E-14
 -1      2487 2.07675E+01 1.70072E-01 3.71523E-03 8.67445E-01 5.07309E-14-1.59105E-13
 -1      2488 2.09722E+01 1.22849E-01 1.03567E-03 9.30803E-01 2.05248E-13-3.28049E-14
 -1      2489 2.09084E+01 1.32314E-01-3.00500E-03 1.12648E+00 2.14178E-13-4.57606E-14
 -1      2490 2.04472E+01 2.53590E-01 4.11639E-03 6.71848E-01-2.19140E-13-8.81717E-15
 -1      2491 2.06209E+01 2.12552E-01 2.37071E-03 7.70304E-01-1.93254E-13-2.30858E-14
 -1      2492 2.05983E+01 2.63162E-01-2.86326E-03 9.66438E-01-3.52117E-14 1.34330E-13
 -1      2493 2.03193E+01 2.84972E-01 2.86719E-03 5.34008E-01-1.88306E-13-1.42250E-13
 -1      2494 1.97789E+01 1.42269E+00-6.63929E-03 8.83794E-01 1.96170E-14 1.65756E-13
 -1      2495 1.98617E+01 1.27479E+00 2.04417E-03 9.49030E-01-2.66676E-13-1.27363E-13
 -1      2496 1.96375E+01 1.67132E+00-7.82012E-03 6.55920E-01 1.06215E-14 1.80770E-13
 -1      2497 1.97058E+01 1.55671E+00 8.94948E-05 7.75239E-01 6.49704E-14 2.88686E-13
 -1      2498 1.96609E+01 1.35689E+00 2.65555E-03 9.47426E-01 1.13362E-13 2.38643E-13
 -1      2499 2.01086E+01 8.19124E-01-2.51260E-03 9.69336E-01-3.87065E-13-3.47107E-13
 -1      2500 2.01926E+01 6.58675E-01 4.91601E-03 9.21071E-01-1.87984E-13 1.04779E-14
 -1      2501 1.99427E+01 1.12651E+00-4.49603E-03 9.89451E-01-5.03108E-13-2.59075E-13
 -1      2502 2.00281E+01 9.66895E-01 3.61915E-03 9.96092E-01-4.86342E-13-1.97355E-13
 -1      2503 2.00949E+01 8.00443E-01 1.26260E-03 1.11921E+00-2.49926E-13-3.27262E-13
 -1      2504 1.98733E+01 1.08542E+00 1.70521E-03 1.10401E+00-2.20639E-13 7.00013E-14
 -1      2505 1.95420E+01 1.83454E+00-7.64312E-03 3.30925E-01-9.01348E-14 4.57794E-15
 -1      2506 1.95840E+01 1.76869E+00-2.49493E-03 4.90240E-01-3.40000E-14 2.67117E-14
 -1      2507 1.94897E+01 1.57980E+00 4.97883E-03 6.56840E-01-9.19517E-15 3.13871E-14
 -1      2508 1.95117E+01 1.88392E+00-6.10616E-03-4.75620E-02 1.57805E-13 1.73943E-13
 -1      2509 1.95184E+01 1.87688E+00-5.12231E-03 1.29395E-01 5.39145E-14 1.02111E-13
 -1      2510 1.93850E+01 1.71453E+00 6.59492E-03 2.65397E-01 1.59019E-13 2.63730E-13
 -1      2511 1.95543E+01 1.80887E+00-3.67638E-03-4.22860E-01 1.22258E-13-1.88016E-13
 -1      2512 1.95237E+01 1.86237E+00-7.03363E-03-2.54847E-01 9.93045E-14-2.19774E-14
 -1      2513 1.93687E+01 1.73444E+00 6.85770E-03-1.71145E-01 2.79383E-13 6.22897E-14
 -1      2514 1.96604E+01 1.62497E+00-7.83774E-04-7.33484E-01 2.55618E-13-3.03680E-13
 -1      2515 1.95989E+01 1.72891E+00-7.77758E-03-6.01206E-01 2.13421E-13-3.53984E-13
 -1      2516 1.94455E+01 1.63605E+00 5.84916E-03-5.82523E-01 2.19293E-13-1.94360E-13
 -1      2517 1.98153E+01 1.35438E+00 1.85988E-03-9.45351E-01 1.10035E-13 2.40126E-13
 -1      2518 1.97314E+01 1.49831E+00-7.19536E-03-8.63141E-01 1.89594E-13-1.93744E-13
 -1      2519 1.96010E+01 1.43716E+00 3.69279E-03-9.10494E-01 2.23671E-13-3.28745E-13
 -1      2520 1.99964E+01 1.03690E+00 3.67465E-03-1.02566E+00-6.29132E-14 3.57659E-13
 -1      2521 1.99020E+01 1.20210E+00-5.42373E-03-1.00678E+00-4.53983E-15 4.02229E-13
 -1      2522 1.98121E+01 1.16854E+00 1.02915E-03-1.11263E+00 8.88974E-14 1.13617E-13
 -1      2523 2.01825E+01 7.11933E-01 5.08412E-03-9.66532E-01-3.78749E-13 5.59558E-13
 -1      2524 2.00891E+01 8.80543E-01-2.52113E-03-1.01346E+00-2.89038E-13 5.82619E-13
 -1      2525 2.00484E+01 8.70683E-01-1.99704E-04-1.16250E+00-2.35273E-13 3.59965E-13
 -1      2526 4.16660E+00-2.95816E+00 5.40546E-02 3.01556E+00-3.02536E-14 6.03739E-13
 -1      2527 3.12048E+00-3.08915E+00 7.77616E-02 6.89439E-01 2.63938E-14 3.04923E-13
 -1      2528 1.74840E+01-5.42720E+00-2.12838E-02 6.80885E+00-1.88405E-13 8.50327E-13
 -1      2529 1.36670E+01-5.22105E+00 6.78718E-02 6.77416E+00-2.36700E-13 8.91467E-13
 -1      2530 1.36105E+01-4.17362E+00 1.42968E-01 6.47814E+00-2.93821E-13 8.63726E-13
 -1      2531 1.98186E+01 1.41912E-01 3.23335E-03 7.85995E-02 1.42581E-13-6.26726E-14
 -1      2532 1.99019E+01 1.96681E-01 1.23914E-02 1.64202E-01 1.72493E-13-2.63491E-14
 -1      2533 1.99437E+01 1.79089E-01-3.84507E-03 8.82586E-02 1.69337E-13-1.16169E-13
 -1      2534 2.02753E+01 4.75379E-01 2.13557E-03-7.16492E-01-1.89835E-13 4.70754E-13
 -1      2535 3.37349E+00-3.06124E+00 6.80387E-02-1.29055E+00 1.92360E-13-7.29972E-14
 -1      2536 4.85494E+00-2.96862E+00 7.40535E-02-3.63237E+00 2.34868E-13-3.34399E-13
 -1      2537 5.35197E+00-1.60334E+00 1.76703E-01-4.12925E-01 1.72350E-13-5.96745E-14
 -1      2538 2.46419E+01-5.06888E+00-7.24810E-02 4.66378E+00 1.02363E-13 2.56239E-13
 -1      2539 2.17748E+01-5.51171E+00 5.89264E-02 5.45085E+00-4.97657E-14 4.61131E-13
 -1      2540 3.20319E+01 3.08473E+00-1.55768E-01-6.88353E-01 2.74475E-13 3.43336E-13
 -1      2541 3.12169E+01 1.25830E+00-7.04821E-02-1.76191E-01 3.15220E-13 2.44305E-13
 -1      2542 7.97477E+00-3.91900E+00 1.03351E-01-5.50848E+00 2.71283E-13-4.28185E-13
 -1      2543 1.14714E+01-4.76400E+00 2.15663E-02-6.82731E+00 1.77358E-13-3.71259E-13
 -1      2544 3.30153E+01 6.43710E+00-8.70786E-02 7.07543E-01 8.43769E-15-3.13971E-13
 -1      2545 3.25984E+01 7.31714E+00-1.55646E-01 3.51484E-01 8.03246E-14-2.75772E-13
 -1      2546 2.76362E+01-3.63710E+00-1.14892E-01 2.84734E+00-2.11386E-13-4.41452E-13
 -1      2547 2.46671E+01-4.73617E+00 2.63077E-02 4.20823E+00-3.18218E-13-4.21524E-13
 -1      2548 1.93361E+01 3.54808E+00-9.95274E-03-2.18147E-01-5.13377E-14-3.95284E-13
 -1      2549 1.93302E+01 3.52359E+00-9.61788E-03-3.97635E-01-9.03862E-14-3.80979E-13
 -1      2550 1.94942E+01 3.12584E+00-6.18891E-04-4.41947E-01-9.23674E-14-3.43501E-13
 -1      2551 1.95039E+01 3.19097E+00-9.36033E-04-1.22278E-01-4.67671E-14-3.83233E-13
 -1      2552 3.08615E+01 6.90693E+00-1.91071E-01 6.32289E-01 4.61409E-13 5.29111E-13
 -1      2553 3.12642E+01 7.25236E+00-1.42342E-01-1.75068E-01 5.59552E-13 4.87457E-13
 -1      2554 3.18567E+01 7.01442E+00-1.77642E-01-5.63453E-01-1.03029E-13-3.16393E-13
 -1      2555 3.19719E+01 6.19135E+00-1.49913E-01-1.09423E+00-2.18492E-13-2.96596E-13
 -1      2556 3.15586E+01 6.38996E+00-2.05476E-01-9.54998E-01 4.04954E-13 5.06234E-13
 -1      2557 3.21325E+01 5.03161E+00-9.42539E-02-1.01620E+00 3.10918E-13 3.93241E-13
 -1      2558 3.02003E+01 3.50681E+00-3.60256E-02-1.68454E+00 1.56597E-13 2.26819E-13
 -1      2559 3.18965E+01 3.53687E+00-3.93806E-02 1.06086E+00 3.53217E-13 5.32130E-13
 -1      2560 3.15376E+01 5.41743E+00-1.79773E-01 1.38525E+00 4.49973E-13 6.75904E-13
 -1      2561 2.99857E+01-9.28641E-01-4.00967E-02-9.68020E-01 1.51094E-13 1.65645E-13
 -1      2562 3.14303E+01 1.04455E+00-1.42119E-01 4.64752E-02 2.28248E-13 3.02092E-13
 -1      2563 2.57447E+01-4.25278E+00 1.69861E-02-3.59852E+00 8.87346E-14 7.28584E-14
 -1      2564 2.83342E+01-2.91109E+00-8.10465E-02-2.53914E+00 1.33379E-13 8.29614E-14
 -1      2565 1.83717E+01-5.53620E+00 3.51501E-02-6.28593E+00 1.39277E-13 3.07601E-13
 -1      2566 2.22055E+01-5.22994E+00-6.76667E-02-5.61364E+00 7.55784E-14 2.18436E-14
 -1      2567 1.13013E+01-4.73792E+00 7.77724E-02-6.49837E+00 5.99520E-15 3.55244E-13
 -1      2568 1.47431E+01-5.15741E+00 6.71449E-03-6.99954E+00 7.37743E-14 4.24952E-13
 -1      2569 4.79488E+00-3.70510E+00 4.69873E-02-3.91972E+00 1.44412E-13-2.20934E-14
 -1      2570 7.35640E+00-3.98566E+00 2.50635E-02-5.70019E+00 1.03639E-13 2.16910E-13
 -1      2571 3.12626E+00-2.63354E+00 8.35329E-02-6.49462E-02 7.66626E-14-5.88585E-13
 -1      2572 3.37939E+00-3.16615E+00 5.35167E-02-2.28997E+00 1.06304E-13-3.58047E-13
 -1      2573 5.80582E+00-2.25425E+00 1.32327E-01-3.18941E+00 6.50036E-14-1.78413E-13
 -1      2574 6.01169E+00-3.49140E+00 5.48444E-02 4.70550E+00 1.79301E-14-8.95339E-13
 -1      2575 4.26347E+00-2.74367E+00 1.06163E-01 2.65756E+00 1.27495E-13-8.01359E-13
 -1      2576 1.22471E+01-4.59972E+00 2.42069E-02 6.64268E+00-1.83742E-14-6.58196E-13
 -1      2577 8.67234E+00-4.22098E+00 6.70414E-02 5.74186E+00-8.29892E-15-7.88147E-13
 -1      2578 9.18760E+00-2.81768E+00 1.62857E-01 5.16068E+00 1.40166E-15-8.99752E-13
 -1      2579 2.12194E+01-5.35721E+00-2.23961E-02 5.90053E+00-2.16216E-13-4.46809E-13
 -1      2580 1.69899E+01-5.46034E+00 5.22305E-02 6.49980E+00-1.04167E-13-6.01817E-13
 -1      2581 3.08703E+01-7.06213E-02-1.29035E-01-4.93882E-02-2.60202E-13-3.24379E-13
 -1      2582 2.95197E+01-1.69934E+00-3.46876E-02 6.96956E-01-1.74482E-13-3.98015E-13
 -1      2583 2.42874E+01-5.02829E+00 2.19189E-02-4.46665E+00-1.39333E-14-6.80289E-13
 -1      2584 2.77588E+01-3.58106E+00-4.60265E-02-3.19887E+00-1.97231E-13-8.77021E-13
 -1      2585 3.22902E+01 4.60617E+00-1.58922E-01-1.23764E+00-2.75890E-13-3.37286E-13
 -1      2586 3.14178E+01 2.43901E+00-1.13866E-01-9.80485E-01-3.00232E-13-3.01675E-13
 -1      2587 2.99162E+01 4.83738E+00-6.39223E-02-1.77734E+00-2.59293E-13-2.76695E-13
 -1      2588 3.24024E+01 3.14678E+00-6.37368E-02 6.24131E-01 4.15223E-14-6.53921E-13
 -1      2589 3.28074E+01 4.66800E+00-1.47664E-01 8.71173E-01 1.13687E-13-5.20695E-13
 -1      2590 2.97667E+01-1.39226E+00-4.24698E-02-1.27964E+00-2.58116E-13-8.84459E-13
 -1      2591 3.18897E+01 8.59511E-01-8.63269E-02-3.54464E-01-1.79898E-13-9.34419E-13
 -1      2592 3.07315E+01 1.30528E+00-2.53163E-02 1.11879E+00-9.15518E-14-6.04322E-13
 -1      2593 1.52544E+01-5.52312E+00 4.75779E-02-6.68666E+00 1.76664E-13-4.70457E-13
 -1      2594 1.96492E+01-5.56532E+00-3.47532E-02-6.27562E+00 1.88544E-13-6.60395E-13
 -1      2595 1.50947E+01-4.54844E+00 1.54726E-01-6.49105E+00 3.06088E-13-5.26273E-13
 -1      2596 2.00979E+01 1.91868E+00-1.34912E-02-1.85772E+00-3.18549E-13 2.09711E-14
 -1      2597 1.99622E+01 1.19538E+00-5.61085E-03-1.25461E+00-2.93473E-13 5.03768E-14
 -1      2598 1.99458E+01 1.34861E+00 3.09087E-03-1.19637E+00-2.75751E-13-2.13310E-14
 -1      2599 1.98683E+01 2.32312E+00-7.20253E-03-1.78409E+00-3.13882E-13-7.15122E-14
 -1      2600 2.06312E+01 8.76034E-01-7.44569E-03 1.24246E+00 2.94821E-13 3.52307E-14
 -1      2601 2.09861E+01 1.26014E+00-6.19780E-03 1.74428E+00 3.20854E-13 6.77253E-14
 -1      2602 2.07764E+01 1.72057E+00-1.59372E-02 1.94042E+00 3.42026E-13-2.32973E-14
 -1      2603 2.05681E+01 1.05887E+00-9.42142E-03 1.26058E+00 2.90378E-13-5.68866E-14
 -1      2604 2.94385E+01 6.24920E+00-9.51041E-02-7.41785E-01 4.42341E-13 2.31745E-13
 -1      2605 1.96007E+01 2.77142E+00 1.43019E-03-1.06301E+00-2.04933E-13-2.75863E-13
 -1      2606 1.94605E+01 3.11239E+00-1.42892E-02-1.25020E+00-2.20454E-13-2.88211E-13
 -1      2607 1.95317E+01 2.97467E+00-1.70461E-02-1.43702E+00-2.56341E-13-2.34224E-13
 -1      2608 2.00973E+01 3.38330E-01-3.50394E-03 3.25972E-01 2.02668E-13-9.49106E-14
 -1      2609 2.05275E+01 2.12009E+00-1.29686E-02 1.89440E+00 3.24548E-13-1.28567E-13
 -1      2610 1.96178E+01 2.79146E+00-1.44909E-02-1.54659E+00-2.77065E-13-1.94646E-13
 -1      2611 1.97364E+01 2.56542E+00-2.19944E-02-1.71005E+00-3.04939E-13-1.35600E-13
 -1      2612 1.98829E+01 2.01616E+00 3.81077E-03-1.44800E+00-2.93610E-13-9.91147E-14
 -1      2613 1.97275E+01 2.45317E+00 3.90147E-03-1.30525E+00-2.58927E-13-1.90775E-13
 -1      2614 2.66445E+01-4.38707E+00 4.92169E-03 2.62889E+00 4.28546E-14 2.00784E-13
 -1      2615 7.53171E+00-2.40296E+00 1.59224E-01 4.11125E+00-9.42857E-14 5.88557E-13
 -1      2616 8.42156E+00-2.59812E+00 1.66012E-01-4.60014E+00 3.41033E-13-3.51302E-13
 -1      2617 2.86205E+01-3.02882E+00-2.07243E-02-1.22922E+00-2.16615E-13-8.03108E-13
 -1      2618 2.03349E+01 3.69322E-01 1.30057E-03 7.20702E-01-2.31710E-13-1.26635E-13
 -1      2619 2.03869E+01-5.35393E+00 9.47006E-02 5.76207E+00-1.96038E-13 5.98693E-13
 -1      2620 2.02974E+01 4.81659E-01 1.08113E-04 8.11468E-01-1.46675E-13 2.61587E-13
 -1      2621 2.03368E+01 4.88856E-01 1.26653E-03 9.84544E-01-9.81650E-14 7.03976E-14
 -1      2622 2.26558E+01-5.51281E+00 4.10684E-02-5.09389E+00 1.73139E-13-6.83120E-13
 -1      2623 2.47114E+01-5.23928E+00-6.72300E-02-3.48157E+00 1.25698E-13-8.32841E-13
 -1      2624 2.10642E+01-5.24511E+00 1.22663E-01-5.41670E+00 3.90590E-13-6.52742E-13
 -1      2625 3.00645E+01 9.54110E-01-3.97029E-02-1.60516E+00-2.63040E-13-3.82083E-13
 -1      2626 2.85139E+01 4.47436E+00-1.36614E-01 1.81086E+00 2.75058E-13 6.75786E-13
 -1      2627 3.00044E+01 5.84660E+00-1.35319E-01 1.30290E+00 3.49692E-13 6.57197E-13
 -1      2628 2.78651E+01 5.81698E+00-1.50234E-01 1.07597E+00 3.02869E-13 4.87999E-13
 -1      2629 1.56777E+01-4.90018E+00 1.05242E-01 6.50958E+00-7.24976E-14-6.40432E-13
 -1      2630 1.46080E+01-3.81011E+00 1.60827E-01 6.22734E+00-5.93137E-14-7.44182E-13
 -1      2631 1.85543E+01-5.14175E+00-6.53792E-02 5.93839E+00-5.00711E-14-5.86697E-13
 -1      2632 2.98312E+01-6.12075E-01-5.96933E-03-4.10788E-01 1.76414E-13 1.59955E-13
 -1      2633 3.00686E+01 6.70800E+00-8.65635E-02-2.01051E-01-2.81164E-14-1.28618E-13
 -1      2634 4.87034E+00-1.92859E+00 1.56641E-01 1.40488E+00 2.13093E-14-7.31359E-13
 -1      2635 5.88415E+00-9.18455E-01 1.62761E-01 1.52911E-01-6.56905E-14-5.63105E-13
 -1      2636 6.78617E+00-1.24304E+00 8.85422E-02 2.66384E+00 3.95517E-16-7.70023E-13
 -1      2637 1.08340E+01-3.70429E+00 1.22917E-01-6.08151E+00 2.18991E-14 3.97959E-13
 -1      2638 2.36400E+01-5.28852E+00 6.45966E-02 4.43278E+00-2.03310E-13-3.80140E-13
 -1      2639 1.79477E+01-5.16772E+00 1.10505E-01-6.27851E+00 2.64511E-14 3.20115E-13
 -1      2640 2.45578E+01-5.00116E+00 3.34383E-02-4.03258E+00 4.90163E-14 1.69531E-13
 -1      2641 2.89268E+01-2.33670E+00 1.93628E-02-6.70366E-01 7.66661E-14 2.85993E-13
 -1      2642 2.82713E+01-3.10735E+00-2.55542E-02 1.13333E+00-1.50536E-13-3.22686E-13
 -1      2643 3.09289E+01 5.17581E+00-4.91240E-02 1.46502E+00 1.21292E-13-2.63511E-13
 -1      2644 2.05293E+01 1.80949E+00 1.25865E-02 1.58387E+00 2.94158E-13-1.37651E-13
 -1      2645 3.03525E+01 1.78514E+00-3.63188E-02 1.36092E+00 2.69756E-13 6.43818E-13
 -1      2646 2.04198E+01 3.71599E-01 5.61913E-03-8.31780E-01-6.82848E-14 6.63594E-13
 -1      2647 2.02746E+01 5.68511E-01-1.73325E-03-9.29266E-01-3.04056E-13 6.01980E-13
 -1      2648 2.03011E+01 5.82090E-01 6.02189E-04-1.10028E+00-4.69696E-13 7.62025E-13
 -1      2649 2.05584E+01 3.35007E-01 3.96309E-03-9.51254E-01-2.81008E-13 7.12782E-13
 -1      2650 2.04948E+01 4.03362E-01-2.42623E-03-1.13779E+00-3.44116E-13 1.24158E-12
 -1      2651 1.97663E+01 2.74776E+00-6.27355E-03 5.46013E-01 7.22600E-14-3.74152E-13
 -1      2652 1.97209E+01 2.79424E+00-5.70908E-03 3.95586E-01 3.41823E-14-3.67195E-13
 -1      2653 1.96829E+01 2.82933E+00-5.56515E-03 2.60458E-01 1.37527E-15-3.83818E-13
 -1      2654 1.96532E+01 2.84301E+00-5.42983E-03 1.06376E-01-2.07547E-14-3.71377E-13
 -1      2655 1.98393E+01 2.48066E+00 3.63831E-03 2.98167E-01 2.04777E-14-3.48928E-13
 -1      2656 2.00487E+01 2.31756E+00-1.07868E-02 1.07359E+00 1.92647E-13-3.06435E-13
 -1      2657 1.99634E+01 2.46371E+00-6.34339E-03 9.38563E-01 1.69059E-13-3.33824E-13
 -1      2658 2.02654E+01 1.90561E+00-1.21622E-02 1.25287E+00 2.43087E-13-2.37037E-13
 -1      2659 2.01511E+01 2.14180E+00-4.84102E-03 1.16036E+00 2.13428E-13-2.69155E-13
 -1      2660 2.02046E+01 1.88048E+00 6.50438E-03 9.55494E-01 1.95462E-13-2.65807E-13
 -1      2661 2.03017E+01 7.24562E-01-3.55270E-03 6.65755E-01 2.35312E-13-1.47335E-13
 -1      2662 2.04472E+01 9.50059E-01 9.10318E-03 9.29081E-01 2.46491E-13-1.28857E-13
 -1      2663 2.89373E+01 7.43810E-02-7.24896E-02 1.53668E+00 2.58044E-13 4.45352E-13
 -1      2664 2.86541E+01 2.13245E+00-1.87274E-01 2.10573E+00 3.64930E-13 7.42698E-13
 -1      2665 2.04254E+01 1.49997E+00-1.95327E-03 1.28913E+00 2.61882E-13-1.53007E-13
 -1      2666 1.98160E+01 6.14531E-01 7.04401E-03-4.17744E-01-1.74517E-13-5.17639E-14
 -1      2667 1.97366E+01 4.68322E-01-2.96991E-03-2.60206E-01-1.61229E-13-5.44271E-14
 -1      2668 1.97144E+01 3.55235E-01 6.62396E-03-1.41609E-01-1.48214E-13-5.29538E-14
 -1      2669 1.96588E+01 2.61059E-01-1.73764E-03-4.59437E-02-1.27959E-13-4.01492E-14
 -1      2670 1.98211E+01 5.19412E-01-1.66598E-03-2.40429E-01-1.64023E-13-3.80937E-14
 -1      2671 1.96361E+01 1.91243E-01 4.46296E-03 2.76333E-02-1.08804E-13-3.25778E-14
 -1      2672 1.96038E+01 1.32032E-01-8.04177E-04 8.27177E-02-9.17142E-14-2.21590E-14
 -1      2673 1.97598E+01 2.90456E-01-2.13673E-03-3.83338E-02-1.27106E-13-5.44881E-14
 -1      2674 1.95868E+01 8.79316E-02 2.91353E-03 1.25043E-01-9.16485E-14-3.22438E-14
 -1      2675 1.95725E+01 5.05704E-02-2.10981E-04 1.53367E-01-9.70499E-14-6.51552E-14
 -1      2676 1.97107E+01 1.45431E-01-1.94748E-03 8.63379E-02-1.06333E-13-4.28391E-14
 -1      2677 1.95621E+01 2.28648E-02 1.81152E-03 1.74344E-01-1.10336E-13-6.60575E-14
 -1      2678 1.95607E+01-1.41236E-04 2.22348E-04 1.85617E-01-1.10986E-13-9.89210E-14
 -1      2679 1.96781E+01 5.32373E-02-1.60374E-03 1.55951E-01-1.35026E-13-5.64817E-14
 -1      2680 1.95565E+01-1.69633E-02 1.10699E-03 1.93092E-01-1.10810E-13-9.14413E-14
 -1      2681 1.95646E+01-3.01815E-02 6.10096E-04 1.94352E-01-1.13785E-13-1.09658E-13
 -1      2682 1.96607E+01-3.70998E-03-1.25107E-03 1.88977E-01-1.03693E-13-7.10255E-14
 -1      2683 1.95657E+01-3.93689E-02 6.32424E-04 1.94410E-01-9.64000E-14-7.15696E-14
 -1      2684 1.95812E+01-4.52668E-02 8.12018E-04 1.91236E-01-8.36918E-14-3.23586E-14
 -1      2685 1.96565E+01-3.61795E-02-9.60799E-04 1.99970E-01-8.79413E-14-2.94430E-14
 -1      2686 1.95863E+01-4.82011E-02-1.09310E-04 1.88726E-01-9.48450E-14 4.35603E-15
 -1      2687 1.96083E+01-4.70695E-02 2.43278E-04 1.86190E-01-4.92788E-14 2.49236E-15
 -1      2688 1.96632E+01-4.98344E-02-8.39100E-04 2.00459E-01-6.38763E-14 7.67352E-14
 -1      2689 1.96149E+01-4.26053E-02-1.64247E-03 1.84588E-01-3.51605E-14 2.03139E-14
 -1      2690 1.96409E+01-3.23380E-02-3.85617E-04 1.87128E-01-3.57002E-14-3.44757E-14
 -1      2691 1.96773E+01-4.54503E-02-7.18092E-04 1.99217E-01-4.41197E-14 3.14392E-14
 -1      2692 1.96493E+01-1.20793E-02 3.01774E-03 1.88580E-01-7.75903E-14-9.61427E-15
 -1      2693 1.96705E+01 1.71940E-02 1.39544E-02 1.91400E-01-6.81438E-14-3.36502E-14
 -1      2694 1.96935E+01-1.94260E-02 2.58690E-03 2.00347E-01-7.77680E-14-1.12891E-14
 -1      2695 1.96772E+01 5.15249E-02 2.87081E-02 1.86556E-01-1.09296E-14-4.24660E-15
 -1      2696 1.96932E+01 8.50142E-02 5.18061E-02 1.76045E-01-4.09473E-14 1.27537E-14
 -1      2697 1.97059E+01 2.88797E-02 1.71835E-02 1.95756E-01-5.17451E-14 6.73957E-14
 -1      2698 1.97578E+01 1.23494E-01 1.05900E-01 1.75287E-01-1.06307E-13 5.44981E-14
 -1      2699 1.97739E+01 3.00198E-02 8.87418E-02 1.14353E-01-7.45515E-14 2.42167E-14
 -1      2700 1.97373E+01 6.73946E-02 5.58907E-02 1.78000E-01-6.77618E-14 8.69860E-14
 -1      2701 1.98087E+01 7.26148E-02 8.83006E-02 1.95341E-01-6.82822E-14 4.12170E-14
 -1      2702 1.99348E+01 1.32063E-01 1.08755E-01 2.25608E-01-7.21090E-14 1.59595E-14
 -1      2703 1.98111E+01 1.41817E-01 1.22492E-01 2.16148E-01-7.86975E-14 1.04999E-13
 -1      2704 1.99016E+01 9.94667E-02 6.88905E-02 3.23843E-01-6.81399E-14 1.27121E-14
 -1      2705 2.00497E+01 1.76863E-01 1.59949E-02 3.95477E-01-1.20390E-14 1.01585E-14
 -1      2706 1.96735E+01 1.97933E-01 1.36369E-01 2.39293E-01-7.99361E-14 4.35207E-14
 -1      2707 1.99886E+01 6.09850E-02-1.14853E-01 3.24367E-01 7.02563E-15-8.77076E-15
 -1      2708 2.01526E+01 1.12814E-01-2.51533E-02 3.65514E-01-2.37588E-14-1.58346E-14
 -1      2709 2.02124E+01 5.62401E-02 1.27998E-02 3.33665E-01-5.67671E-14 8.73746E-14
 -1      2710 2.01375E+01 1.29418E-01-4.09020E-02 4.02797E-01-5.95739E-14-4.11424E-14
 -1      2711 2.02021E+01 1.63116E-01-2.37277E-02 4.40731E-01-9.32657E-14-1.15064E-14
 -1      2712 2.00838E+01 1.68614E-01-2.31069E-02 3.66714E-01-2.56878E-14 1.24900E-15
 -1      2713 2.02161E+01 1.80899E-01-2.32325E-02 4.89188E-01-1.07679E-13-2.38785E-15
 -1      2714 2.02707E+01 2.03722E-01-1.23352E-02 5.37744E-01-3.72254E-14-1.02876E-13
 -1      2715 2.01449E+01 2.13260E-01-3.26112E-02 4.93381E-01-1.16029E-13-5.31762E-14
 -1      2716 2.02763E+01 2.26146E-01-9.76328E-03 5.93232E-01 2.83011E-14-1.45507E-13
 -1      2717 2.03365E+01 2.50929E-01-1.49589E-03 6.55070E-01 2.13653E-15-1.22875E-13
 -1      2718 2.01717E+01 2.61276E-01-1.76471E-02 5.90697E-01-5.40921E-14-2.32332E-14
 -1      2719 2.03480E+01 2.69878E-01-3.03983E-03 7.26592E-01-6.27048E-15-3.50166E-14
 -1      2720 2.04176E+01 2.87885E-01 2.30633E-03 7.98430E-01-2.46992E-15-4.44411E-14
 -1      2721 2.01958E+01 3.18352E-01-5.40658E-03 7.22915E-01 5.80716E-14-5.59453E-14
 -1      2722 2.04371E+01 2.98101E-01-1.15255E-03 8.81042E-01-2.66312E-14-3.79535E-14
 -1      2723 2.05209E+01 3.03429E-01 3.11575E-03 9.58802E-01-1.20639E-15-9.45758E-14
 -1      2724 2.02325E+01 3.58635E-01-1.54576E-03 8.80975E-01-1.24477E-15 4.72850E-15
 -1      2725 2.05526E+01 2.97164E-01-2.96505E-04 1.04811E+00 2.14276E-14-1.06785E-13
 -1      2726 2.06546E+01 2.79858E-01 2.99447E-03 1.12462E+00 7.60972E-14-1.29271E-13
 -1      2727 2.02866E+01 3.68144E-01-1.15739E-03 1.05697E+00-1.30538E-14 1.42383E-13
 -1      2728 2.07077E+01 2.45341E-01 9.76807E-04 1.21394E+00 8.06089E-14-1.19704E-13
 -1      2729 2.08340E+01 1.90580E-01 2.42022E-03 1.27753E+00 6.75925E-14-1.04382E-13
 -1      2730 2.03694E+01 3.24132E-01-2.17110E-03 1.24106E+00 7.70738E-14 8.11410E-14
 -1      2731 2.09254E+01 1.11529E-01 3.32801E-03 1.35557E+00 8.68164E-14-1.59552E-13
 -1      2732 2.10851E+01-3.73243E-06 1.23391E-03 1.38810E+00 1.48171E-13-1.44526E-13
 -1      2733 2.05034E+01 1.92663E-01-4.40636E-03 1.41733E+00 2.99535E-14 2.22706E-15
 -1      2734 2.12429E+01-1.42544E-01 7.26136E-03 1.43576E+00 1.42387E-13-2.17415E-13
 -1      2735 2.14486E+01-3.30628E-01-1.08090E-03 1.41071E+00 5.95014E-14-2.35965E-13
 -1      2736 2.07285E+01-7.04215E-02-8.31010E-03 1.55895E+00 1.65370E-13-1.34826E-13
 -1      2737 2.17129E+01-5.50832E-01 1.30434E-02 1.39610E+00 7.55374E-14-2.08427E-13
 -1      2738 2.19757E+01-8.23063E-01-5.35867E-03 1.27794E+00 4.56163E-14-1.07550E-13
 -1      2739 2.11075E+01-5.10385E-01-1.42439E-02 1.62032E+00 1.37101E-13-2.35933E-13
 -1      2740 2.23926E+01-1.11160E+00 2.00452E-02 1.15007E+00 2.64102E-14-1.91075E-14
 -1      2741 2.27093E+01-1.43469E+00-1.21752E-02 8.98858E-01 3.77411E-14 1.26644E-13
 -1      2742 2.17244E+01-1.14512E+00-2.15044E-02 1.52475E+00 1.04370E-13-5.07394E-14
 -1      2743 2.33021E+01-1.72163E+00 2.47274E-02 5.86337E-01 6.61737E-14 1.83590E-13
 -1      2744 2.36313E+01-1.97067E+00-1.98785E-02 1.78957E-01 1.06358E-13 2.43682E-13
 -1      2745 2.26607E+01-1.89789E+00-2.63764E-02 1.14961E+00 1.14368E-13 6.39679E-14
 -1      2746 2.43320E+01-2.07550E+00 1.66431E-02-3.68644E-01 1.02753E-13 2.07011E-13
 -1      2747 2.45916E+01-2.00494E+00-2.20988E-02-8.80414E-01 1.02129E-13 2.25334E-13
 -1      2748 2.39102E+01-2.47282E+00-2.28269E-02 3.47641E-01 1.29109E-13 3.29655E-13
 -1      2749 2.51706E+01-1.65556E+00-2.15148E-02-1.57220E+00 2.80513E-14 1.98815E-13
 -1      2750 2.52724E+01-9.73669E-01-8.77494E-03-1.97770E+00 1.24548E-13 1.04545E-13
 -1      2751 2.52054E+01-2.30504E+00-3.53688E-02-9.19891E-01 6.63358E-14 2.89928E-13
 -1      2752 2.54224E+01-5.12952E-03-7.87173E-02-2.45424E+00 1.37314E-13 2.62221E-14
 -1      2753 2.53065E+01 1.24334E+00-1.02459E-02-2.41829E+00 2.44457E-14-2.30614E-14
 -1      2754 2.61530E+01-7.87165E-01-2.59791E-02-2.12439E+00 1.95573E-14 4.01207E-14
 -1      2755 2.47833E+01 3.78518E+00-7.77460E-02-2.11202E-01-1.72695E-13-2.87102E-13
 -1      2756 2.47949E+01 3.58362E+00-1.05278E-01 7.16258E-01-1.08427E-13-2.55728E-13
 -1      2757 2.50200E+01 2.82868E+00-3.11583E-02 1.69049E+00 6.24154E-14-1.97609E-13
 -1      2758 2.51656E+01 1.67131E+00-1.11023E-01 2.18236E+00 1.41259E-13-1.23971E-13
 -1      2759 2.60402E+01 3.89880E+00-8.92199E-02 1.37492E+00 2.31898E-14-1.19051E-13
 -1      2760 2.53151E+01 4.91495E-01-1.08181E-03 2.27201E+00 3.79557E-15-1.09213E-13
 -1      2761 2.54424E+01-6.34696E-01-2.90873E-02 2.16792E+00-1.34512E-13-1.53246E-13
 -1      2762 2.62397E+01 1.24422E+00-4.93202E-02 2.36133E+00 6.09304E-14 7.41039E-14
 -1      2763 2.50125E+01-1.47599E+00-3.66402E-02 1.49997E+00-3.23630E-14-2.03085E-13
 -1      2764 2.48842E+01-1.90389E+00-4.01600E-03 1.04298E+00-8.33361E-15-2.27367E-13
 -1      2765 2.59076E+01-1.46060E+00-7.27424E-02 1.68347E+00-1.19339E-13-2.95434E-13
 -1      2766 2.42558E+01-2.10964E+00-1.79284E-02 3.68851E-01 7.40883E-14-8.31175E-14
 -1      2767 2.39454E+01-2.06646E+00 2.04704E-02-1.35036E-01 6.72548E-14-6.61684E-14
 -1      2768 2.48358E+01-2.42007E+00-7.07203E-04 4.02604E-01 1.32557E-13-3.11239E-13
 -1      2769 2.32617E+01-1.88546E+00-1.84703E-02-6.28715E-01-1.29224E-13-1.55802E-13
 -1      2770 2.29142E+01-1.59213E+00 2.33090E-02-1.00126E+00-1.70871E-13-2.44195E-13
 -1      2771 2.34739E+01-2.41102E+00-3.38197E-02-8.16284E-01-1.02387E-13-2.18901E-13
 -1      2772 2.23722E+01-1.29493E+00-9.93027E-03-1.26364E+00 3.20928E-14-4.00695E-14
 -1      2773 2.20551E+01-9.78348E-01 1.77899E-02-1.48282E+00 2.65723E-13 1.53627E-14
 -1      2774 2.23184E+01-1.72914E+00-2.67407E-02-1.50947E+00 4.55962E-14-6.03944E-14
 -1      2775 2.16838E+01-7.02076E-01-4.06875E-03-1.58411E+00 4.03217E-13-7.33925E-14
 -1      2776 2.14227E+01-4.42959E-01 1.13397E-02-1.67774E+00 4.80006E-13-6.29312E-14
 -1      2777 2.14789E+01-9.90281E-01-1.96861E-02-1.81779E+00 2.99678E-13 1.70842E-13
 -1      2778 2.11909E+01-2.33257E-01-4.37560E-04-1.67639E+00 4.76176E-13-1.78691E-13
 -1      2779 2.09843E+01-4.89310E-02 6.49128E-03-1.68104E+00 1.80394E-13-1.77835E-13
 -1      2780 2.09357E+01-3.86549E-01-1.22467E-02-1.87556E+00 3.86633E-13 4.62259E-14
 -1      2781 2.08435E+01 9.76688E-02 1.09546E-03-1.61975E+00 1.02070E-13-1.27521E-13
 -1      2782 2.06795E+01 2.24871E-01 3.59721E-03-1.56363E+00-6.19151E-14 3.35960E-14
 -1      2783 2.06033E+01 4.47470E-02-6.58167E-03-1.78816E+00 1.70462E-13-9.64672E-14
 -1      2784 2.05902E+01 3.30071E-01 1.49253E-03-1.46494E+00-1.68435E-14 1.97937E-13
 -1      2785 2.04597E+01 4.23085E-01 2.33214E-03-1.36447E+00-2.10554E-14 6.19167E-13
 -1      2786 2.03982E+01 3.44389E-01-3.44371E-03-1.61322E+00 9.20145E-14 1.60804E-13
 -1      2787 1.99147E+01 4.88689E-02 4.95597E-05-1.15313E-01 1.04657E-13-1.39457E-13
 -1      2788 1.99331E+01 8.00544E-02 3.15536E-03-8.72497E-02 1.06565E-13-1.30458E-13
 -1      2789 2.04201E+01 4.81646E-01 2.50690E-03-1.28082E+00-2.32080E-13 7.02366E-13
 -1      2790 2.03425E+01 5.32641E-01 2.04437E-03-1.19190E+00-2.75741E-13 7.95947E-13
 -1      2791 2.02119E+01 6.59306E-01 4.66382E-04-1.24015E+00-3.53068E-13 3.85518E-13
 -1      2792 2.02819E+01 5.32466E-01-2.46752E-03-1.42137E+00 7.47015E-14 1.96283E-13
 -1      2793 1.99595E+01 1.17064E-01-2.72351E-04-4.32608E-02 1.00800E-13-1.40169E-13
 -1      2794 1.99993E+01 1.68209E-01 5.20048E-03 1.16853E-02 1.25970E-13-1.25320E-13
 -1      2795 2.00416E+01 1.33692E-01-2.31891E-03-4.12657E-02 1.11876E-13-1.33489E-13
 -1      2796 1.98866E+01-1.42401E-02 1.23187E-03-1.56914E-01 3.43098E-14-9.85286E-14
 -1      2797 1.98829E+01-4.52182E-03 1.26357E-03-1.55710E-01 4.67299E-14-1.32261E-13
 -1      2798 1.98885E+01-2.38367E-02 4.69375E-03-1.51507E-01 9.42966E-14-1.02436E-13
 -1      2799 1.98813E+01-2.01213E-02 2.45472E-03-1.55688E-01 5.67547E-14-9.29285E-14
 -1      2800 1.99488E+01-1.93511E-02 3.67420E-04-1.56139E-01 4.16676E-14-1.42227E-13
 -1      2801 1.98915E+01-2.15934E-02 1.53571E-02-1.36850E-01 1.12103E-13-1.42636E-13
 -1      2802 1.98883E+01-2.41780E-02 8.79500E-03-1.45012E-01 1.24091E-13-1.20018E-13
 -1      2803 1.99411E+01-3.09265E-02 4.05276E-03-1.49065E-01 1.07969E-13-8.01052E-14
 -1      2804 1.99136E+01-6.37784E-02 1.66385E-02-8.93012E-02 6.29045E-14-1.33761E-13
 -1      2805 1.99263E+01-1.48236E-02 3.31783E-02-1.31128E-01 8.30638E-14-1.32373E-13
 -1      2806 1.99471E+01-4.17268E-02 1.04724E-02-1.32424E-01 9.10383E-14-5.78201E-14
 -1      2807 1.99620E+01-2.95991E-02-2.33816E-02-1.25215E-01 4.65600E-14-1.05835E-13
 -1      2808 1.99729E+01-3.21663E-02 1.44626E-02-1.08716E-01 4.78437E-14-1.26028E-13
 -1      2809 1.99738E+01-2.97214E-02 6.46548E-03-1.44154E-01 4.78437E-14-3.64244E-14
 -1      2810 2.00083E+01-3.24065E-03-4.20808E-03-1.30950E-01 1.51892E-14-1.76612E-13
 -1      2811 1.99982E+01-2.09823E-02-9.69619E-03-1.28463E-01 6.47850E-14-1.08479E-13
 -1      2812 1.99967E+01-1.39688E-02-4.75896E-03-1.34863E-01 5.43914E-14 1.38904E-14
 -1      2813 2.00348E+01 4.01986E-02 7.90627E-03-1.53213E-01 4.64316E-14-1.98998E-13
 -1      2814 2.00174E+01 2.15332E-02 3.42244E-03-1.38267E-01 2.28905E-14-2.04052E-13
 -1      2815 2.00191E+01 1.79844E-02 5.05315E-03-1.44804E-01 6.14057E-14-1.07063E-13
 -1      2816 2.00851E+01 5.01481E-02 8.68956E-03-1.87616E-01 1.42313E-13-2.06127E-13
 -1      2817 2.00577E+01 4.60659E-02 8.74438E-03-1.73937E-01 7.61396E-14-1.95135E-13
 -1      2818 2.00522E+01 6.94899E-02 1.93835E-02-1.85638E-01 6.32931E-14-1.22720E-13
 -1      2819 2.01267E+01 6.98099E-02 3.90644E-03-2.21362E-01 2.59814E-14-6.33350E-14
 -1      2820 2.00956E+01 5.76366E-02 3.09324E-03-2.02081E-01 9.15828E-14-1.47303E-13
 -1      2821 2.00822E+01 6.60820E-02 7.71957E-03-2.13235E-01 6.17050E-14-6.91721E-14
 -1      2822 2.01767E+01 9.94020E-02 2.57658E-03-2.75342E-01-6.58991E-14 6.83434E-14
 -1      2823 2.01389E+01 8.32830E-02 1.73056E-04-2.46734E-01 3.09807E-15 1.91609E-14
 -1      2824 2.01047E+01 9.69086E-02 1.46530E-03-2.54154E-01-3.79369E-14 2.73451E-14
 -1      2825 2.02406E+01 1.31210E-01 2.45434E-03-3.49683E-01-8.78853E-14 5.50063E-14
 -1      2826 2.01938E+01 1.14343E-01-4.09837E-04-3.11639E-01-5.16110E-14 6.51360E-14
 -1      2827 2.01374E+01 1.35643E-01-2.46512E-04-3.19115E-01-6.83665E-14 4.57590E-14
 -1      2828 2.03216E+01 1.62215E-01 2.64364E-03-4.43346E-01-4.16337E-14-1.40069E-13
 -1      2829 2.02636E+01 1.46062E-01-4.84058E-04-3.96174E-01-3.92078E-14-7.04011E-14
 -1      2830 2.01815E+01 1.75650E-01-6.23960E-04-4.05458E-01 1.56718E-14 1.93664E-14
 -1      2831 2.04219E+01 1.89232E-01 2.83431E-03-5.54708E-01-3.74305E-14-1.78745E-13
 -1      2832 2.03510E+01 1.75536E-01-4.43290E-04-4.99425E-01-5.01866E-14-1.78731E-13
 -1      2833 2.02379E+01 2.13497E-01-7.15039E-04-5.11964E-01-1.46116E-14-1.49143E-13
 -1      2834 2.05447E+01 2.07166E-01 2.87398E-03-6.80362E-01 1.02239E-14-1.32728E-13
 -1      2835 2.04593E+01 1.98883E-01-3.32447E-04-6.19182E-01-3.41602E-14-1.42689E-13
 -1      2836 2.03085E+01 2.44787E-01-8.64061E-04-6.36848E-01-4.32860E-14-1.35957E-13
 -1      2837 2.06940E+01 2.07422E-01 2.66903E-03-8.13605E-01 1.00755E-14-1.76881E-13
 -1      2838 2.05925E+01 2.09527E-01-4.74164E-05-7.50765E-01 1.23050E-14-1.30177E-13
 -1      2839 2.03965E+01 2.62352E-01-1.12566E-03-7.76556E-01 1.80366E-14-1.99731E-13
 -1      2840 2.08757E+01 1.76455E-01 2.03750E-03-9.42275E-01-5.29450E-14-1.82999E-13
 -1      2841 2.07568E+01 1.96627E-01 5.56174E-04-8.85204E-01-4.25165E-14-7.96450E-14
 -1      2842 2.05078E+01 2.54073E-01-1.62909E-03-9.24104E-01 2.66811E-15-6.22380E-15
 -1      2843 2.10990E+01 9.51470E-02 7.75883E-04-1.04618E+00-8.42128E-14-1.04838E-13
 -1      2844 2.09612E+01 1.43984E-01 1.67285E-03-1.00680E+00-6.51184E-14-1.52138E-13
 -1      2845 2.06528E+01 2.01602E-01-2.55837E-03-1.06695E+00-8.68258E-14 6.46714E-14
 -1      2846 2.13774E+01-5.99242E-02-1.38474E-03-1.09430E+00 1.06184E-14-3.18916E-14
 -1      2847 2.12195E+01 3.00816E-02 3.53349E-03-1.09022E+00 1.47821E-14-6.03009E-14
 -1      2848 2.08485E+01 7.98885E-02-4.14543E-03-1.18430E+00-2.68148E-14 1.51815E-13
 -1      2849 2.17282E+01-3.10236E-01-4.74839E-03-1.04249E+00 1.75153E-13-6.59853E-14
 -1      2850 2.15501E+01-1.68717E-01 6.28449E-03-1.09733E+00 1.03745E-13-6.67966E-14
 -1      2851 2.11212E+01-1.40175E-01-6.60448E-03-1.24373E+00 6.58413E-14 8.18585E-14
 -1      2852 2.21671E+01-6.58815E-01-9.49357E-03-8.34042E-01 2.67408E-15-5.05668E-14
 -1      2853 2.19740E+01-4.67741E-01 9.76510E-03-9.75074E-01 5.58364E-14-5.84937E-14
 -1      2854 2.15067E+01-4.81977E-01-9.84587E-03-1.19719E+00 1.11388E-13 1.26744E-14
 -1      2855 2.26937E+01-1.05735E+00-1.49344E-02-4.08907E-01-1.04873E-13-1.85403E-14
 -1      2856 2.25013E+01-8.50471E-01 1.27318E-02-6.58543E-01-5.15565E-14 1.25271E-14
 -1      2857 2.20428E+01-9.38456E-01-1.28487E-02-9.78226E-01-5.48590E-14 1.20868E-13
 -1      2858 2.32603E+01-1.36064E+00-1.84214E-02 2.64218E-01 2.90983E-14 1.43766E-13
 -1      2859 2.31034E+01-1.22722E+00 1.24005E-02-9.06999E-02-5.82346E-14 9.59170E-14
 -1      2860 2.27431E+01-1.42622E+00-1.31709E-02-5.08984E-01-1.02708E-13 2.78092E-13
 -1      2861 2.37423E+01-1.30909E+00-1.62523E-02 1.11765E+00-2.51460E-14 1.41661E-13
 -1      2862 2.36727E+01-1.39587E+00 3.51956E-03 7.21031E-01 2.81743E-14 1.65580E-13
 -1      2863 2.35453E+01-1.72787E+00-7.70633E-03 2.57831E-01-3.22176E-14 2.52517E-13
 -1      2864 2.39519E+01-6.04637E-01-2.44485E-03 1.88809E+00 2.72031E-14 1.45938E-13
 -1      2865 2.40106E+01-1.04943E+00-1.56174E-02 1.61216E+00 5.47814E-14 2.33712E-13
 -1      2866 2.42622E+01-1.49893E+00 5.24494E-04 1.24717E+00-3.44945E-14 2.15499E-13
 -1      2867 2.37750E+01 7.40754E-01 1.37896E-02 2.08205E+00 7.86038E-14 1.91648E-13
 -1      2868 2.39224E+01-3.73004E-03-4.57442E-02 2.13959E+00 5.83786E-14 1.99093E-13
 -1      2869 2.45631E+01-3.98742E-01-8.63956E-03 2.10543E+00-1.57062E-14 5.53706E-14
 -1      2870 2.33509E+01 2.09863E+00 3.83458E-03 1.31920E+00 3.61275E-13-1.68181E-15
 -1      2871 2.35146E+01 1.47149E+00-4.78806E-02 1.81052E+00 1.80830E-13 1.02480E-13
 -1      2872 2.43977E+01 1.28813E+00-1.28276E-02 2.13730E+00 1.88372E-13-3.84970E-14
 -1      2873 2.31573E+01 2.50125E+00-3.15261E-02-2.06595E-01 2.93265E-13-4.83144E-14
 -1      2874 2.32019E+01 2.47363E+00-2.17973E-02 5.06462E-01 4.52588E-13-1.56429E-15
 -1      2875 2.40158E+01 2.84500E+00-3.13705E-02 1.01622E+00 4.04569E-13-8.57136E-14
 -1      2876 2.34092E+01 1.59820E+00-6.34302E-02-1.57461E+00 8.30794E-14-6.99211E-14
 -1      2877 2.33173E+01 2.20005E+00 3.13961E-03-1.05454E+00 1.38452E-13-5.04241E-14
 -1      2878 2.39872E+01 2.93655E+00-3.15682E-02-7.46949E-01 2.63806E-13-1.21934E-14
 -1      2879 2.38215E+01 1.11345E-01-5.29887E-02-2.01964E+00-1.70498E-13 7.38931E-14
 -1      2880 2.37054E+01 8.94569E-01 1.79468E-02-1.92731E+00-3.92394E-15 7.57580E-14
 -1      2881 2.43517E+01 1.57564E+00 3.77844E-03-1.99542E+00-5.20799E-14-4.17999E-14
 -1      2882 2.39371E+01-1.00073E+00-1.92259E-02-1.54397E+00-1.90141E-13 2.23449E-13
 -1      2883 2.39001E+01-5.05973E-01 7.06088E-03-1.79871E+00-2.76559E-13 1.81468E-13
 -1      2884 2.45427E+01-2.39247E-01 8.33620E-03-2.05676E+00-2.88158E-13 3.94441E-14
 -1      2885 2.36140E+01-1.42701E+00 2.23763E-03-6.46208E-01-5.25101E-14 1.38759E-13
 -1      2886 2.36919E+01-1.30290E+00-1.35314E-02-1.04851E+00 2.28882E-14 2.33851E-13
 -1      2887 2.42567E+01-1.46565E+00-6.06500E-03-1.21094E+00-1.64924E-13-1.18586E-14
 -1      2888 2.30277E+01-1.30231E+00 1.25727E-02 2.12652E-01 1.68971E-14-3.11246E-13
 -1      2889 2.31993E+01-1.42028E+00-1.79653E-02-1.62895E-01-6.61259E-14-1.54871E-13
 -1      2890 2.35605E+01-1.79038E+00-7.43846E-03-1.68032E-01 1.41076E-13 5.31302E-14
 -1      2891 2.23887E+01-9.35148E-01 1.27040E-02 8.32263E-01 7.40713E-14-4.65355E-13
 -1      2892 2.26026E+01-1.14096E+00-1.49372E-02 5.58595E-01 3.92325E-14-3.77740E-13
 -1      2893 2.27351E+01-1.52770E+00-1.29628E-02 6.59392E-01 8.95701E-14-3.02001E-13
 -1      2894 2.18164E+01-5.34892E-01 9.95759E-03 1.19297E+00-4.06356E-14-3.88595E-13
 -1      2895 2.20351E+01-7.37688E-01-1.00666E-02 1.03278E+00-2.35333E-14-4.19167E-13
 -1      2896 2.19998E+01-1.04031E+00-1.36872E-02 1.18360E+00-2.57845E-15-3.65910E-13
 -1      2897 2.13475E+01-1.99844E-01 6.94899E-03 1.34110E+00 2.36947E-13-3.69954E-13
 -1      2898 2.15517E+01-3.62012E-01-5.28736E-03 1.27657E+00 9.41451E-14-4.07383E-13
 -1      2899 2.14272E+01-5.54636E-01-1.06107E-02 1.44268E+00-3.53669E-14-4.66878E-13
 -1      2900 2.09739E+01 5.42291E-02 5.00320E-03 1.33447E+00 2.44410E-13-2.05345E-13
 -1      2901 2.11564E+01-6.67436E-02-1.97903E-03 1.34274E+00 2.77448E-13-2.38788E-13
 -1      2902 2.10075E+01-1.62295E-01-7.22329E-03 1.50894E+00 1.55410E-13-3.70168E-13
 -1      2903 2.06775E+01 2.44883E-01 4.70626E-03 1.21562E+00 7.30870E-14-3.89230E-14
 -1      2904 2.08340E+01 1.54147E-01 1.43535E-04 1.27831E+00 1.88151E-13-1.18176E-13
 -1      2905 2.07009E+01 1.32694E-01-4.79127E-03 1.44183E+00 1.33499E-13-1.23704E-13
 -1      2906 2.04301E+01 4.03804E-01 4.39906E-03 1.05908E+00-2.26015E-13 2.32522E-14
 -1      2907 2.05631E+01 3.28307E-01 1.82690E-03 1.16502E+00-1.76122E-13-4.19895E-14
 -1      2908 2.04571E+01 3.55229E-01-5.09840E-03 1.31991E+00-1.34313E-13-2.31238E-14
 -1      2909 2.02701E+01 5.55450E-01-4.52066E-03 1.17559E+00-2.73735E-13-2.93079E-13
 -1      2910 2.22196E+01-5.32983E+00-4.37907E-02 4.79683E+00-3.26822E-13 1.62717E-13
 -1      2911 1.89296E+01-4.81747E+00 1.30864E-01 5.86718E+00-2.92155E-13 5.36418E-13
 -1      2912 1.91344E+01 1.60354E+00-5.79608E-03 1.90931E-01 2.39696E-13 2.73291E-13
 -1      2913 1.91807E+01 1.56984E+00-9.97499E-04 4.12543E-01 1.87689E-13 2.96525E-13
 -1      2914 1.94769E+01 1.28478E+00-7.60484E-03 9.98656E-01 8.08439E-14 1.90734E-13
 -1      2915 1.96132E+01 1.17179E+00 3.18778E-03 1.11422E+00-9.45281E-15 3.01783E-13
 -1      2916 1.91453E+01 1.60034E+00-2.62679E-03-3.02018E-01 2.39621E-13-4.04163E-14
 -1      2917 1.91229E+01 1.61830E+00-4.46494E-03-7.39263E-02 2.61730E-13 1.21010E-13
 -1      2918 1.89335E+01 1.52062E+00 7.06665E-03 6.87342E-02 1.95874E-13 1.29373E-13
 -1      2919 1.92542E+01 1.48938E+00-7.72653E-03 6.47378E-01 9.89855E-14 1.07344E-13
 -1      2920 1.93575E+01 1.41034E+00 2.19423E-03 8.28280E-01 1.77694E-13-1.81704E-14
 -1      2921 1.92849E+01 1.23802E+00 2.84939E-03 1.01232E+00 4.56379E-14 1.36109E-14
 -1      2922 1.90421E+01 1.43106E+00 5.67875E-03 5.91386E-01 2.90916E-13 2.66733E-13
 -1      2923 2.79871E+01 4.78719E+00-1.72180E-01-1.81311E+00-3.14165E-13-1.78031E-13
 -1      2924 2.85069E+01 3.46044E+00-1.10610E-01-2.27527E+00-2.80276E-13-2.98581E-13
 -1      2925 1.92833E+01 1.48196E+00 9.71497E-04-7.44478E-01 2.60779E-13-2.44594E-13
 -1      2926 1.91981E+01 1.54673E+00-7.05654E-03-5.48861E-01 2.53134E-13-8.99531E-14
 -1      2927 1.89859E+01 1.48392E+00 6.55692E-03-4.66799E-01 1.80364E-13-1.15745E-13
 -1      2928 1.95251E+01 1.26760E+00 3.77237E-03-1.08290E+00 1.45639E-13-3.92054E-13
 -1      2929 1.93914E+01 1.37172E+00-8.01437E-03-9.42207E-01 2.38160E-13-4.62421E-13
 -1      2930 1.91885E+01 1.33094E+00 4.36019E-03-9.30823E-01 1.55540E-13-2.91536E-13
 -1      2931 1.98225E+01 9.97309E-01 3.72289E-03-1.26344E+00-2.81750E-15 5.10460E-14
 -1      2932 1.96701E+01 1.12632E+00-6.69652E-03-1.20093E+00 1.58814E-13-1.42202E-13
 -1      2933 1.95033E+01 1.09600E+00 1.22262E-03-1.25693E+00 1.62707E-13-2.45899E-13
 -1      2934 2.00750E+01 8.03266E-01-4.22415E-04-1.25724E+00-2.74419E-14 1.02662E-13
 -1      2935 8.14767E+00-1.38144E+00 1.78867E-01-3.44395E+00 2.59348E-13-5.13922E-13
 -1      2936 1.06672E+01-2.52098E+00 4.40957E-02-5.38848E+00 3.64916E-13-3.16025E-13
 -1      2937 1.55928E+01-4.12213E+00-6.91904E-03 6.33695E+00-3.38118E-13 9.49268E-13
 -1      2938 1.31594E+01-3.05978E+00 1.91751E-01 5.90863E+00-4.30600E-13 9.16517E-13
 -1      2939 2.00362E+01 2.28750E-01-8.01359E-04 8.90322E-02 1.62585E-13-1.43260E-13
 -1      2940 2.01058E+01 3.12387E-01 7.81992E-03 1.86113E-01 1.79002E-13-1.26200E-13
 -1      2941 2.01129E+01 2.63055E-01-2.69142E-03 9.05372E-02 1.43223E-13-1.43065E-13
 -1      2942 6.37113E+00-8.92162E-01 1.26490E-01 7.83118E-01 8.66911E-14-6.37823E-14
 -1      2943 6.59423E+00-9.12272E-01 1.07017E-01-1.39374E+00 1.57707E-13-2.58349E-13
 -1      2944 9.72819E+00-2.19967E+00 4.95456E-02 4.97470E+00-1.43136E-13 6.32938E-13
 -1      2945 7.40312E+00-1.19740E+00 1.89047E-01 2.77086E+00 1.56528E-13 1.49325E-13
 -1      2946 1.99162E+01 1.55186E+00-8.75542E-03-1.20706E+00-2.77346E-13-8.23213E-14
 -1      2947 1.98973E+01 1.19346E+00 7.59037E-04-9.40334E-01-2.55884E-13-6.01614E-14
 -1      2948 1.98567E+01 1.81276E+00-3.85985E-04-1.18332E+00-2.58266E-13-1.19487E-13
 -1      2949 1.01975E+01-2.37393E+00 1.61270E-01-5.17998E+00-3.14332E-14 3.88217E-13
 -1      2950 1.33030E+01-3.44464E+00 2.46785E-02-6.15616E+00-9.87960E-14 5.14810E-13
 -1      2951 2.74178E+01-3.73133E+00-1.10228E-01 1.19228E+00-9.88098E-15 6.48648E-14
 -1      2952 2.53246E+01-4.79294E+00 1.97858E-02 2.82283E+00-1.20563E-13 1.32235E-13
 -1      2953 2.71570E+01-3.90900E+00-4.57298E-02-1.37907E+00-8.38132E-14-7.42503E-13
 -1      2954 2.86615E+01-2.21956E+00-1.39212E-01 1.33942E-01-1.82198E-13-6.70783E-13
 -1      2955 1.98931E+01 8.17690E-03 3.42926E-04-1.48268E-01 5.81888E-14-1.28369E-13
 -1      2956 1.98975E+01 2.64979E-02 1.81721E-03-1.37004E-01 9.54272E-14-1.27752E-13
 -1      2957 1.99941E+01 5.40165E-02-1.74672E-03-1.13887E-01 9.87743E-14-1.30316E-13
 -1      2958 1.99650E+01 6.57353E-03-1.03992E-03-1.47434E-01 4.08389E-14-9.41435E-14
 -1      2959 1.98996E+01 9.71975E-01 2.80097E-03-7.69809E-01-2.23868E-13-6.13876E-14
 -1      2960 1.98169E+01 7.47659E-01-3.64833E-03-5.37411E-01-1.91957E-13-6.55521E-14
 -1      2961 1.98722E+01 8.06514E-01-3.98417E-03-4.97838E-01-1.83933E-13-5.09339E-14
 -1      2962 1.98992E+01 1.19498E+00 3.21099E-03-7.99263E-01-2.22030E-13-7.31241E-14
 -1      2963 2.01524E+01 4.12698E-01-1.58166E-03 3.12659E-01 1.85364E-13-1.37371E-13
 -1      2964 2.02573E+01 5.51052E-01 1.04288E-02 4.74608E-01 1.99926E-13-1.38776E-13
 -1      2965 2.03226E+01 8.18351E-01 6.38859E-04 6.43596E-01 2.23900E-13-1.83959E-13
 -1      2966 2.02090E+01 4.73627E-01-2.13342E-03 3.08762E-01 1.88089E-13-1.55177E-13
 -1      2967 1.98865E+01 2.58436E+00-7.89473E-03 8.23324E-01 1.50327E-13-3.56839E-13
 -1      2968 1.98218E+01 2.67332E+00-6.14793E-03 6.74767E-01 1.11825E-13-3.72439E-13
 -1      2969 1.99298E+01 2.37313E+00 4.34701E-03 5.48842E-01 8.55392E-14-3.37656E-13
 -1      2970 2.00529E+01 2.18026E+00 5.63865E-03 7.76649E-01 1.52375E-13-3.22663E-13
 -1      2971 1.96232E+01 2.66073E+00-6.00640E-03-6.01520E-01-1.13295E-13-3.11731E-13
 -1      2972 1.96425E+01 2.57002E+00-7.65845E-03-7.50084E-01-1.42788E-13-3.03093E-13
 -1      2973 2.82654E+01 3.56789E+00-2.03728E-01-1.96827E+00 1.17517E-13 8.27255E-14
 -1      2974 2.87332E+01 1.97565E+00-7.99088E-02-2.08085E+00 4.51583E-14 6.34770E-14
 -1      2975 2.81568E+01-2.75261E+00-1.84465E-01-1.43175E-01-1.43739E-13-2.29913E-13
 -1      2976 2.70731E+01-4.09817E+00 4.11238E-02 1.57422E+00-1.00510E-14-3.38812E-13
 -1      2977 2.77254E+01-3.10714E+00 3.33292E-02-5.22480E-01 1.18601E-13 1.97523E-13
 -1      2978 2.86112E+01-1.71605E+00-1.55446E-01 5.72111E-01 1.61978E-13 3.29875E-13
 -1      2979 2.78567E+01-1.00098E+00-5.44335E-02 1.51193E+00 2.93675E-13 3.92270E-13
 -1      2980 2.31093E+01-5.17494E+00 1.01229E-01-4.31148E+00 8.38218E-14 2.17389E-13
 -1      2981 2.56370E+01-4.83208E+00-1.35011E-01-2.71548E+00 5.19307E-14 2.38316E-13
 -1      2982 2.50006E+01-5.09744E+00-9.33298E-02 3.24558E+00-9.01779E-14-2.78298E-13
 -1      2983 2.25851E+01-5.18543E+00 1.26678E-01 4.48263E+00-8.57370E-14-3.61201E-13
 -1      2984 6.94639E+00-1.06296E+00 1.51794E-01-2.49126E+00-1.03320E-14-1.81022E-13
 -1      2985 8.27219E+00-1.69908E+00 1.28548E-01-4.23576E+00-4.99600E-15 1.12022E-13
 -1      2986 1.11388E+01-1.47812E+00 1.63308E-01-4.42457E+00-9.35502E-14 3.20799E-13
 -1      2987 2.85994E+01-1.27156E-01-1.92968E-01-1.42659E+00 9.27591E-14 4.69069E-14
 -1      2988 2.83760E+01-1.98701E+00-1.62222E-02-4.32576E-01 8.71664E-14-7.55507E-14
 -1      2989 1.14414E+01-2.44171E+00 8.83105E-02 5.38435E+00-4.10366E-14-9.24399E-13
 -1      2990 9.36808E+00-1.55968E+00 2.09644E-01 4.23178E+00 6.39766E-15-9.10133E-13
 -1      2991 1.71750E+01-4.52692E+00 1.41363E-01-6.11644E+00-1.01891E-13 3.66193E-13
 -1      2992 2.01183E+01-5.30638E+00-4.22388E-02-5.71362E+00-4.49502E-14 3.41404E-13
 -1      2993 2.92586E+01 3.85674E+00-1.13709E-01 2.00682E+00 1.98258E-13-2.22683E-13
 -1      2994 2.89345E+01 5.29661E+00-2.01509E-01 1.44646E+00 2.20102E-13-4.96894E-14
 -1      2995 2.86846E+01 1.46561E+00-1.99995E-01-2.18014E+00-1.08968E-13-3.50303E-13
 -1      2996 2.88011E+01-3.28228E-01 8.99649E-03-1.78200E+00-1.10009E-13-2.08542E-13
 -1      2997 2.94156E+01-1.64283E-01-4.66904E-02 1.38156E+00-1.87433E-13-5.48339E-13
 -1      2998 2.94364E+01 1.69861E+00-1.93740E-01 1.87117E+00-6.56003E-14-3.53023E-13
 -1      2999 2.73225E+01 5.80259E+00-1.92145E-01-4.07131E-01 3.98181E-13 2.08040E-13
 -1      3000 2.79488E+01 5.09618E+00-1.28749E-01-1.51182E+00 2.44971E-13 1.28716E-13
 -1      3001 1.42517E+01-3.56810E+00 1.78784E-01-6.09632E+00 3.67165E-13-4.54123E-13
 -1      3002 1.72224E+01-4.59277E+00 1.50936E-02-6.20236E+00 2.60819E-13-6.47107E-13
 -1      3003 1.96725E+01 2.44969E+00-6.43219E-03-8.67361E-01-1.67462E-13-2.72522E-13
 -1      3004 1.97131E+01 2.30379E+00-9.92562E-03-9.99971E-01-2.04903E-13-2.31622E-13
 -1      3005 1.97868E+01 2.17086E+00 5.67334E-03-7.04084E-01-1.38362E-13-2.59069E-13
 -1      3006 1.97802E+01 2.51349E+00 3.40418E-03 3.82030E-02-2.44603E-14-3.57268E-13
 -1      3007 1.96312E+01 2.84172E+00-5.41386E-03-3.04123E-02-3.33131E-14-3.68643E-13
 -1      3008 1.96169E+01 2.82422E+00-5.53729E-03-1.84453E-01-6.05657E-14-3.62529E-13
 -1      3009 2.03573E+01 1.58636E+00-1.09889E-03 1.19069E+00 2.59620E-13-1.95247E-13
 -1      3010 2.83314E+01-1.31254E+00 8.80030E-03 1.26370E+00-1.64910E-13-4.72095E-13
 -1      3011 2.74204E+01 1.84555E+00-1.19456E-01-2.38093E+00-1.68809E-13-1.23776E-13
 -1      3012 2.47998E+01 3.43320E+00-3.08413E-02-1.21501E+00-1.37911E-13-2.96985E-13
 -1      3013 2.58098E+01 4.36514E+00-9.36340E-02-7.15700E-01-1.33393E-13-3.83877E-13
 -1      3014 2.49507E+01 2.54686E+00-9.61209E-02-1.91810E+00-5.16601E-14-2.41105E-13
 -1      3015 1.35117E+01-2.49571E+00 1.58666E-01-5.26748E+00 2.76681E-13-4.15445E-13
 -1      3016 2.83513E+01 2.37957E+00-6.05424E-02 2.15419E+00 7.40935E-14-1.45425E-13
 -1      3017 2.41797E+01-5.02705E+00 4.27367E-02 3.49294E+00-2.39524E-13 1.17586E-13
 -1      3018 2.26296E+01-4.67104E+00 4.07507E-02 3.94355E+00-3.39874E-13 1.18721E-13
 -1      3019 2.51065E+01-4.42952E+00-4.94876E-02 1.96356E+00-2.62625E-13 7.04506E-14
 -1      3020 2.01360E+01 6.85980E-01 3.47759E-03 1.21769E+00-9.00157E-14-3.54124E-13
 -1      3021 2.02105E+01 5.80778E-01 2.91978E-03 1.31086E+00-1.69836E-13-2.29371E-13
 -1      3022 1.99970E+01 8.15134E-01-5.10515E-03 1.24571E+00-1.03119E-13-1.52357E-13
 -1      3023 2.44663E+01-4.68979E+00 6.31896E-02-2.94675E+00 5.97231E-14-5.03925E-13
 -1      3024 2.61976E+01-4.74522E+00-3.32367E-03-2.14201E+00-4.66918E-14-6.45511E-13
 -1      3025 2.65744E+01-4.01573E+00-1.27079E-01-7.03596E-01-9.26932E-14-5.02903E-13
 -1      3026 1.38564E+01-2.84764E+00 1.47640E-01 5.55334E+00 6.55309E-14-7.85191E-13
 -1      3027 1.35821E+01-1.87740E+00 8.23917E-02 4.82185E+00 1.01225E-13-7.64569E-13
 -1      3028 1.61365E+01-3.41020E+00-3.14170E-02 5.47492E+00 6.28247E-14-5.70675E-13
 -1      3029 7.45447E+00-4.99127E-01 1.81039E-01-1.22626E+00-1.17132E-13-4.87499E-13
 -1      3030 9.34283E+00-2.18923E-01 7.55453E-02-2.20985E+00-2.06939E-13-2.68591E-13
 -1      3031 8.30014E+00-2.40706E-02 8.46391E-02 1.06774E-01-1.87224E-13-5.71321E-13
 -1      3032 2.01125E+01 6.57800E-01 1.16713E-03-1.41097E+00 4.33805E-14-9.92170E-15
 -1      3033 1.99386E+01 8.61202E-01-2.32273E-03-1.33189E+00 8.68809E-15 1.42131E-13
 -1      3034 1.98339E+01 8.31906E-01 9.06783E-04-1.43151E+00 9.02381E-14-1.33428E-14
 -1      3035 2.01577E+01 5.87077E-01 2.48435E-03-1.49664E+00 8.15830E-15 9.30396E-14
 -1      3036 1.82858E+01-4.02596E+00 1.25572E-01 5.50707E+00-4.53249E-13 4.62387E-13
 -1      3037 9.05925E+00-6.53437E-01 1.92916E-01-2.34950E+00 1.81067E-13-4.24938E-13
 -1      3038 1.97983E+01-4.71625E+00 1.11067E-01-5.46982E+00 2.18769E-13-5.26742E-13
 -1      3039 2.17739E+01-4.82853E+00-2.26031E-02-4.35103E+00 1.96586E-13-5.58120E-13
 -1      3040 1.87407E+01-3.98544E+00 7.05992E-02-5.33416E+00 1.95295E-13-5.89903E-13
 -1      3041 1.24307E+01-2.04626E+00 1.41322E-01 4.96412E+00-2.76820E-13 7.19008E-13
 -1      3042 8.65627E+00-5.04227E-01 1.96859E-01 1.80278E+00 1.48326E-13 8.85403E-14
 -1      3043 2.09499E+01-4.77499E+00 8.61603E-02 4.81129E+00-3.89827E-14-3.87101E-13
 -1      3044 2.72960E+01-2.96428E+00-1.92351E-02-3.31023E-02-2.58994E-14-8.21843E-14
 -1      3045 9.30652E+00-8.87006E-01 1.50322E-01 3.16714E+00-3.61933E-14-8.24396E-13
 -1      3046 2.73295E+01 4.80820E+00-1.65312E-01-1.43330E+00-2.34729E-13-3.08399E-13
 -1      3047 2.64717E+01 3.77432E+00-4.69209E-02-1.96488E+00-2.57655E-13-2.85855E-13
 -1      3048 1.96106E+01 2.78718E+00-5.60991E-03-3.19166E-01-6.66867E-14-3.27778E-13
 -1      3049 1.96124E+01 2.73657E+00-6.15615E-03-4.71964E-01-9.94301E-14-3.18266E-13
 -1      3050 1.97534E+01 2.36473E+00 4.29221E-03-4.72762E-01-9.47282E-14-3.03307E-13
 -1      3051 1.97514E+01 2.47567E+00 3.58581E-03-2.21539E-01-6.21365E-14-3.37444E-13
 -1      3052 2.03346E+01 1.36318E+00 2.36921E-03 9.46670E-01 2.31751E-13-2.09780E-13
 -1      3053 1.97338E+01 1.05712E+00-6.28014E-03 1.18757E+00-4.38831E-14 1.90844E-13
 -1      3054 1.98758E+01 9.29042E-01 2.80162E-03 1.23072E+00-8.50783E-14-2.54739E-14
 -1      3055 1.98968E+01 8.05514E-01 2.40123E-03 1.34390E+00-9.87181E-14-3.62718E-14
 -1      3056 1.95919E+01 1.01493E+00 1.70293E-03 1.25825E+00 1.01818E-14 2.68465E-13
 -1      3057 2.58682E+01-4.47609E+00 2.39448E-02 1.84797E+00-6.52256E-15-1.58505E-13
 -1      3058 2.63509E+01-3.90321E+00-1.31158E-02-1.20359E+00 1.56319E-13 1.73847E-13
 -1      3059 2.79198E+01 5.67361E+00-1.77205E-01 7.35298E-01 4.69069E-15-1.52614E-13
 -1      3060 2.73016E+01 5.60398E+00-1.64334E-01-5.03761E-01-1.75387E-13-2.66256E-13
 -1      3061 2.78055E+01-1.75374E+00-4.19251E-02-1.12615E+00-5.04666E-14-2.11567E-13
 -1      3062 2.69192E+01 3.66795E+00-6.44747E-02-1.82275E+00 5.51087E-14 6.12427E-14
 -1      3063 2.76951E+01 4.84606E-01-1.63250E-02-2.04481E+00-2.35784E-14 4.91135E-14
 -1      3064 2.21887E+01-4.89265E+00 7.89989E-02-4.37949E+00-2.53825E-14 2.11818E-13
 -1      3065 2.02642E+01 1.46956E+00-8.09974E-03 8.30901E-01 1.90864E-13-2.35235E-13
 -1      3066 2.02036E+01 1.66237E+00-4.62037E-04 7.77398E-01 1.72530E-13-2.61391E-13
 -1      3067 2.72346E+01 1.92282E+00-8.53368E-02 2.28621E+00 3.46695E-13 4.30427E-13
 -1      3068 2.82534E+01 3.62675E+00-9.45170E-02 2.15693E+00 3.03646E-13 5.75859E-13
 -1      3069 1.97574E+01 2.16632E+00-4.59374E-03-1.06731E+00-2.23739E-13-1.81456E-13
 -1      3070 1.98085E+01 1.97746E+00-1.00856E-02-1.14874E+00-2.51961E-13-1.45150E-13
 -1      3071 1.98801E+01 1.59062E+00 2.96533E-03-9.40947E-01-2.46868E-13-1.19620E-13
 -1      3072 1.98426E+01 1.90664E+00 6.88411E-03-8.67144E-01-1.93359E-13-1.77195E-13
 -1      3073 2.70841E+01 5.57633E+00-1.48731E-01 4.58538E-01 3.67206E-13 3.22895E-13
 -1      3074 2.59342E+01 4.83578E+00-1.01214E-01-1.89647E-01 2.61319E-13 1.98867E-13
 -1      3075 2.03453E+01 9.85715E-01-8.43997E-04 7.17779E-01 2.16196E-13-1.90720E-13
 -1      3076 2.03068E+01 1.30677E+00 4.62318E-03 8.02405E-01 2.06535E-13-2.05153E-13
 -1      3077 2.03095E+01 1.12521E+00 5.41397E-03 6.28594E-01 1.84131E-13-2.01942E-13
 -1      3078 2.02848E+01 7.71631E-01-3.86756E-03 5.11643E-01 2.05030E-13-1.73468E-13
 -1      3079 1.27973E+01-1.44699E+00 1.40505E-01-4.53350E+00 6.84314E-14-3.55382E-13
 -1      3080 1.54867E+01-2.74960E+00 2.22597E-02-5.31508E+00 1.64507E-13-3.95003E-13
 -1      3081 2.61028E+01 2.24402E+00-7.94854E-02-2.25166E+00-1.21438E-13-2.05377E-13
 -1      3082 1.98728E+01 4.13024E-01 4.15426E-03-9.94578E-02-1.26268E-13-3.95969E-14
 -1      3083 1.98367E+01 3.06469E-01-2.23680E-03-1.62076E-02-1.05217E-13-5.08022E-14
 -1      3084 1.98264E+01 2.23487E-01 3.18885E-03 4.44430E-02-1.06803E-13-4.63810E-14
 -1      3085 1.98002E+01 1.53363E-01-1.21687E-03 9.43632E-02-1.17342E-13-6.38218E-14
 -1      3086 1.99143E+01 3.22485E-01-8.63407E-04-4.23252E-03-1.07146E-13-4.38010E-14
 -1      3087 1.97876E+01 9.96554E-02 2.22956E-03 1.29799E-01-1.38008E-13-5.16543E-14
 -1      3088 1.97712E+01 5.48981E-02-4.68971E-04 1.56681E-01-1.38144E-13-5.68861E-14
 -1      3089 1.98818E+01 1.59343E-01-1.08272E-03 9.71992E-02-1.35287E-13-6.27308E-14
 -1      3090 1.97597E+01 2.13071E-02 1.46682E-03 1.74843E-01-9.11309E-14-4.22377E-14
 -1      3091 1.97519E+01-5.67609E-03 8.11441E-05 1.86909E-01-6.90308E-14-1.40175E-14
 -1      3092 1.98518E+01 5.44946E-02-1.05983E-03 1.55413E-01-1.05139E-13-1.52304E-14
 -1      3093 1.97426E+01-2.49577E-02 8.69821E-04 1.94237E-01-5.64901E-14-2.30148E-15
 -1      3094 1.97421E+01-3.88719E-02 4.62994E-04 1.98004E-01-6.06018E-14 3.15941E-14
 -1      3095 1.98279E+01-8.95438E-03-9.35750E-04 1.84709E-01-5.03746E-14 2.76983E-14
 -1      3096 1.97351E+01-4.71654E-02 3.24815E-04 1.99636E-01-8.73163E-14 4.41415E-14
 -1      3097 1.97401E+01-5.04153E-02 5.38574E-04 2.00264E-01-4.30813E-14 6.07855E-14
 -1      3098 1.98108E+01-4.16115E-02-7.85405E-04 1.96817E-01-4.42735E-14 1.48047E-14
 -1      3099 1.97345E+01-4.88764E-02-3.15682E-04 1.99894E-01-6.66321E-14 3.59190E-14
 -1      3100 1.97424E+01-4.20250E-02 3.83527E-04 2.00810E-01-7.15706E-14 1.18366E-14
 -1      3101 1.97993E+01-4.93597E-02-6.23277E-04 2.00652E-01-8.37635E-14 4.00734E-14
 -1      3102 1.97377E+01-2.93742E-02 5.27412E-04 2.00443E-01-6.02249E-14 2.91939E-14
 -1      3103 1.97440E+01-1.09928E-02 3.91821E-03 2.00731E-01-5.39460E-14 5.95535E-14
 -1      3104 1.97903E+01-3.50338E-02 1.76077E-04 2.01456E-01-4.74111E-14 2.22088E-14
 -1      3105 1.97408E+01 1.17895E-02 7.84501E-03 1.98760E-01-5.65160E-14 7.98762E-14
 -1      3106 1.97451E+01 3.53344E-02 1.76370E-02 1.92282E-01-3.45279E-14 1.09350E-13
 -1      3107 1.97811E+01-2.10265E-03 3.83574E-03 1.99170E-01-3.06187E-14 8.80324E-14
 -1      3108 1.97502E+01 5.95228E-02 3.12485E-02 1.90030E-01-5.55441E-14 8.24063E-14
 -1      3109 1.97706E+01 8.06455E-02 5.62129E-02 1.86659E-01-7.86177E-14 8.97754E-14
 -1      3110 1.97765E+01 3.78093E-02 1.54439E-02 1.93459E-01-5.82607E-14 1.66213E-14
 -1      3111 1.97816E+01 9.74272E-02 7.47028E-02 1.85804E-01-1.03556E-13 9.81437E-14
 -1      3112 1.97763E+01 1.19458E-01 9.06596E-02 2.09088E-01-8.28278E-14 4.61020E-14
 -1      3113 1.97802E+01 8.72548E-02 4.19140E-02 1.90290E-01-9.90631E-14 4.16351E-14
 -1      3114 1.99069E+01 1.83912E-01 1.81237E-01 2.31074E-01-7.01245E-14 4.92106E-14
 -1      3115 1.98480E+01 9.23328E-02 1.23581E-01 1.52059E-01-9.61731E-14 8.93730E-14
 -1      3116 1.98081E+01 1.08168E-01 7.91428E-02 1.99009E-01-9.74776E-14 3.83443E-14
 -1      3117 1.99360E+01 1.74047E-01 6.44942E-02 2.16417E-01-9.19924E-14 8.44325E-14
 -1      3118 1.99536E+01 1.75504E-01 5.07110E-04 3.04671E-01-4.48391E-14 6.41154E-14
 -1      3119 1.98700E+01 2.08806E-01 9.15146E-02 2.92140E-01-8.45678E-14 5.89528E-14
 -1      3120 2.00093E+01 1.79704E-01 2.21639E-02 4.12598E-01-6.38656E-14 5.54279E-14
 -1      3121 2.00860E+01 2.69155E-01 1.69128E-03 4.66845E-01-9.00530E-14 9.04832E-15
 -1      3122 1.97643E+01 2.71589E-01 3.09834E-02 2.93510E-01-7.37327E-14 1.33116E-13
 -1      3123 2.00040E+01 2.11468E-01-9.60597E-02 4.54349E-01-5.62606E-14-1.88322E-14
 -1      3124 2.00917E+01 2.45903E-01-5.05668E-02 4.90949E-01-1.01197E-13-2.77556E-16
 -1      3125 2.01425E+01 2.15700E-01-4.98387E-02 4.12760E-01-7.16649E-14-2.63123E-14
 -1      3126 2.00487E+01 2.92697E-01-3.43777E-02 5.46949E-01-1.17659E-13 4.66328E-14
 -1      3127 2.00689E+01 3.35180E-01-1.52471E-02 6.07573E-01 2.87444E-15 3.76331E-14
 -1      3128 1.99616E+01 3.10997E-01-5.89549E-02 5.04522E-01-2.22118E-14 2.66870E-14
 -1      3129 2.00375E+01 3.68436E-01-1.06388E-02 6.79176E-01 4.22908E-14 3.55427E-14
 -1      3130 2.00567E+01 4.01486E-01-1.71348E-03 7.53036E-01 2.98413E-14 1.65788E-14
 -1      3131 1.99208E+01 4.10071E-01-1.72015E-02 6.36413E-01 1.94261E-14 1.05603E-13
 -1      3132 2.00259E+01 4.25896E-01-3.68442E-03 8.35957E-01 3.90971E-15-4.67466E-14
 -1      3133 2.00512E+01 4.46630E-01 2.00614E-03 9.20005E-01-8.10533E-15-2.74023E-14
 -1      3134 1.98715E+01 4.83470E-01-3.30656E-03 7.90226E-01 8.73783E-15-8.59122E-15
 -1      3135 2.00211E+01 4.55620E-01-2.07730E-03 1.01454E+00 1.37681E-14 5.98324E-14
 -1      3136 2.00574E+01 4.55703E-01 3.04722E-03 1.10557E+00 5.29639E-14 1.48495E-13
 -1      3137 1.98176E+01 5.28947E-01-7.57946E-05 9.67032E-01 9.12644E-14 1.00947E-14
 -1      3138 2.00336E+01 4.37759E-01-1.32865E-03 1.21102E+00 7.74208E-16 1.27584E-13
 -1      3139 2.00892E+01 4.02674E-01 3.77838E-03 1.30397E+00-1.05693E-14 8.83713E-14
 -1      3140 1.97671E+01 5.28855E-01-1.20093E-04 1.16699E+00-7.94396E-15 1.14526E-13
 -1      3141 2.00844E+01 3.40313E-01 4.71356E-05 1.41851E+00-2.97874E-14-3.43079E-14
 -1      3142 2.01749E+01 2.48826E-01 4.77802E-03 1.50502E+00 1.28098E-14-4.86326E-14
 -1      3143 1.97365E+01 4.51964E-01-1.66761E-03 1.38947E+00-1.18870E-13 8.03853E-15
 -1      3144 2.02140E+01 1.18296E-01 2.90304E-03 1.62413E+00 8.29662E-14-9.23017E-14
 -1      3145 2.03646E+01-5.71043E-02 5.98329E-03 1.69008E+00 9.93205E-14-1.36820E-13
 -1      3146 1.97590E+01 2.52135E-01-4.95469E-03 1.63192E+00-2.57021E-15-1.82658E-13
 -1      3147 2.04909E+01-2.83257E-01 8.33963E-03 1.80213E+00 1.72741E-13-1.83391E-13
 -1      3148 2.07375E+01-5.71334E-01 6.61707E-03 1.82309E+00 1.94826E-13-1.66602E-13
 -1      3149 1.98956E+01-1.31653E-01-1.08556E-02 1.88518E+00 1.11596E-13-2.08717E-13
 -1      3150 2.10200E+01-9.13534E-01 1.77454E-02 1.89837E+00 1.62845E-13-9.63182E-14
 -1      3151 2.14038E+01-1.32552E+00 5.67629E-03 1.83174E+00 1.08280E-13-4.95676E-15
 -1      3152 2.02487E+01-7.66455E-01-2.01839E-02 2.11957E+00 2.11176E-13-2.01958E-13
 -1      3153 2.19347E+01-1.77422E+00 3.07225E-02 1.80583E+00 9.01722E-14-3.05723E-15
 -1      3154 2.24779E+01-2.25926E+00-6.37746E-04 1.58125E+00 1.50344E-13 1.04343E-13
 -1      3155 2.09684E+01-1.68685E+00-3.28742E-02 2.25403E+00 1.58000E-13-3.82342E-14
 -1      3156 2.33501E+01-2.69418E+00 4.69810E-02 1.31752E+00 1.37349E-13 1.48880E-13
 -1      3157 2.40301E+01-3.02396E+00 1.36976E-03 8.53400E-01 1.03213E-13 1.29915E-13
 -1      3158 2.22573E+01-2.81596E+00-4.47730E-02 2.11563E+00 1.38706E-13-1.27450E-14
 -1      3159 2.64623E+01-2.44829E+00-1.50578E-02 6.33727E-01-2.00184E-13-2.52451E-13
 -1      3160 2.57826E+01-3.23141E+00 9.17496E-03-9.34877E-02-1.65562E-14-3.09759E-13
 -1      3161 2.49090E+01-3.48614E+00 8.92554E-03-8.91338E-01 1.10644E-13-2.33442E-13
 -1      3162 2.35263E+01-2.93849E+00-5.06122E-03-1.29300E+00 7.57727E-15-2.77119E-13
 -1      3163 2.29327E+01-2.49550E+00 5.23714E-02-1.69719E+00-1.13700E-13-2.20285E-13
 -1      3164 2.21590E+01-2.03226E+00 8.86352E-03-1.91208E+00 8.88439E-14-6.39653E-14
 -1      3165 2.16488E+01-1.56138E+00 2.95025E-02-2.08305E+00 3.39205E-13 1.22010E-13
 -1      3166 2.19402E+01-2.58770E+00-5.48202E-02-2.38703E+00 8.75454E-14-3.05181E-13
 -1      3167 2.12110E+01-1.14531E+00 6.89576E-03-2.08292E+00 3.10847E-13 2.22623E-13
 -1      3168 2.08660E+01-7.57281E-01 1.48872E-02-2.12843E+00 3.35754E-13 1.62557E-13
 -1      3169 2.07816E+01-1.47120E+00-3.70061E-02-2.45234E+00 3.91691E-13-1.00486E-13
 -1      3170 2.06493E+01-4.38606E-01 6.76220E-03-2.04738E+00 3.43010E-13 1.11084E-14
 -1      3171 2.04335E+01-1.66876E-01 6.75237E-03-2.01575E+00 2.45004E-13-1.11109E-13
 -1      3172 2.02298E+01-6.05637E-01-1.70399E-02-2.30054E+00 2.08556E-13-9.81099E-14
 -1      3173 2.03454E+01 5.39180E-02 4.84817E-03-1.90489E+00 2.04137E-13-1.97999E-13
 -1      3174 2.02165E+01 2.37344E-01 2.73022E-03-1.82676E+00 1.62465E-13-1.05404E-13
 -1      3175 1.99757E+01-5.16937E-03-7.94827E-03-2.07020E+00 9.76105E-14-1.17667E-13
 -1      3176 2.02215E+01 3.63004E-01 3.25184E-03-1.71712E+00 3.52169E-14 3.41267E-14
 -1      3177 2.01422E+01 4.93572E-01 1.65222E-03-1.60885E+00 6.20647E-14 6.29515E-14
 -1      3178 1.99536E+01 6.06351E-01-2.35784E-03-1.60198E+00 8.46118E-14 1.21952E-14
 -1      3179 1.99235E+01 3.68644E-01-3.75989E-03-1.82988E+00 1.91932E-13-2.16122E-13
 -1      3180 1.99966E+01-4.17768E-02 1.04991E-02-1.33361E-01 5.94334E-14-5.21267E-14
 -1      3181 1.99877E+01-4.08061E-02 6.65107E-03-1.37382E-01 8.60102E-14-5.54023E-14
 -1      3182 1.99929E+01-3.72616E-02 4.80728E-03-1.40954E-01 6.73066E-14-9.32570E-14
 -1      3183 1.99955E+01-3.15652E-02 2.71127E-03-1.46592E-01 6.10072E-14-1.35021E-13
 -1      3184 2.00318E+01-4.50115E-02 1.99272E-03-1.37292E-01 5.22811E-14-1.17308E-13
 -1      3185 2.00061E+01-2.35199E-02 1.37972E-03-1.47563E-01 6.68944E-14-1.29503E-13
 -1      3186 2.00137E+01-1.08018E-02 1.38569E-03-1.46266E-01 4.06707E-14-1.05719E-13
 -1      3187 2.00499E+01-2.96486E-02 2.01596E-04-1.39831E-01 5.22171E-14-1.19490E-13
 -1      3188 1.99973E+01-3.46494E-02-3.31984E-03-1.35802E-01 5.56456E-15-1.42854E-14
 -1      3189 1.99921E+01-3.98702E-02 6.96180E-03-1.31272E-01 3.83565E-14-4.60463E-14
 -1      3190 2.00211E+01-4.12721E-02 2.08524E-03-1.35168E-01 4.06897E-14-9.58313E-14
 -1      3191 2.00030E+01-7.57145E-03-9.15173E-03-1.39041E-01 8.34066E-14-7.02823E-15
 -1      3192 1.99901E+01-2.02764E-02-9.44828E-03-1.37382E-01 3.41073E-14 1.16044E-14
 -1      3193 2.00079E+01-2.71902E-02-7.45816E-03-1.36580E-01 1.68412E-14-3.61759E-14
 -1      3194 1.99893E+01 5.54327E-02 1.00139E-02-1.58544E-01 5.39499E-14-3.43857E-14
 -1      3195 1.99928E+01 1.05133E-02-4.49813E-03-1.49742E-01 1.16646E-13 2.56357E-14
 -1      3196 1.99641E+01 1.34673E-04-2.19430E-02-1.34202E-01 9.49085E-14-1.55084E-14
 -1      3197 2.00859E+01 5.99035E-02 2.51335E-02-2.09024E-01 8.63198E-14-6.90836E-14
 -1      3198 2.00813E+01 8.47281E-02 3.99941E-02-2.06235E-01 5.51642E-14-4.46657E-14
 -1      3199 2.00299E+01 3.70015E-02 1.73841E-02-1.57959E-01 4.75869E-14 4.24383E-14
 -1      3200 2.00758E+01 8.89751E-02 8.85839E-03-2.20707E-01-1.54644E-14 4.77873E-14
 -1      3201 2.00654E+01 7.25608E-02 1.34653E-02-2.06241E-01 3.40353E-14 7.70217E-15
 -1      3202 2.00883E+01 7.51968E-02 2.59024E-02-1.95124E-01 2.87756E-14 8.38184E-14
 -1      3203 2.00813E+01 1.35326E-01 3.58700E-03-2.72113E-01-7.20520E-14 3.28062E-14
 -1      3204 2.00667E+01 1.11435E-01 2.96619E-03-2.44313E-01-1.19165E-14 2.54558E-14
 -1      3205 2.00433E+01 1.21211E-01 6.17295E-03-2.33002E-01-2.64866E-14 9.45520E-14
 -1      3206 2.00975E+01 1.84279E-01 2.22522E-03-3.46086E-01-6.61303E-14-2.94777E-14
 -1      3207 2.00764E+01 1.58737E-01-1.52057E-04-3.07345E-01-6.40261E-14 7.89614E-15
 -1      3208 2.00337E+01 1.76558E-01 1.34040E-03-2.95441E-01-5.27462E-14 1.16352E-14
 -1      3209 2.01220E+01 2.33309E-01 2.05952E-03-4.40785E-01 1.95511E-14-3.22930E-14
 -1      3210 2.00947E+01 2.08042E-01-9.32009E-04-3.91769E-01-4.61154E-14-4.64655E-14
 -1      3211 2.00311E+01 2.34693E-01 2.26087E-04-3.78152E-01-4.82771E-14-6.82626E-14
 -1      3212 2.01544E+01 2.79025E-01 2.19232E-03-5.55409E-01-3.54859E-14-7.67996E-14
 -1      3213 2.01204E+01 2.55825E-01-1.14878E-03-4.96749E-01 5.22922E-14-2.89175E-14
 -1      3214 2.00320E+01 2.91958E-01 1.50434E-04-4.81280E-01 1.03799E-14-8.44119E-14
 -1      3215 2.01956E+01 3.16305E-01 2.31579E-03-6.88526E-01-5.43978E-14-1.03793E-13
 -1      3216 2.01539E+01 2.98105E-01-1.24356E-03-6.21373E-01-7.29280E-14-7.52695E-14
 -1      3217 2.00350E+01 3.43869E-01 5.86454E-05-6.04440E-01-3.56051E-14 2.65264E-15
 -1      3218 2.02492E+01 3.36222E-01 2.49334E-03-8.37292E-01-1.76912E-14-6.29417E-15
 -1      3219 2.01977E+01 3.28206E-01-1.14877E-03-7.63890E-01-8.44801E-14-5.67502E-14
 -1      3220 2.00410E+01 3.84169E-01-5.72076E-05-7.47042E-01-1.08036E-13 2.91959E-14
 -1      3221 2.03227E+01 3.23747E-01 2.59063E-03-9.95715E-01-1.50733E-13 2.39048E-13
 -1      3222 2.02577E+01 3.34376E-01-7.56271E-04-9.20394E-01-1.99122E-14 1.28169E-13
 -1      3223 2.00544E+01 4.00819E-01-4.48604E-04-9.07301E-01-1.12905E-13 2.09216E-13
 -1      3224 2.04299E+01 2.56517E-01 2.60168E-03-1.15300E+00-5.32241E-14 1.88088E-13
 -1      3225 2.03450E+01 2.98197E-01 1.38472E-04-1.08311E+00-5.99070E-14 1.98749E-13
 -1      3226 2.00848E+01 3.74898E-01-1.35993E-03-1.08091E+00-6.20166E-14 3.50897E-13
 -1      3227 2.05947E+01 1.04136E-01 2.42911E-03-1.29107E+00-2.87868E-14 1.14214E-13
 -1      3228 2.04796E+01 1.93359E-01 1.86681E-03-1.23833E+00-7.71721E-15 1.33125E-13
 -1      3229 2.01506E+01 2.78620E-01-3.08479E-03-1.25967E+00 4.50458E-14 2.45232E-13
 -1      3230 2.08539E+01-1.69185E-01 1.76684E-03-1.38096E+00 1.09526E-13 2.23238E-14
 -1      3231 2.06939E+01-1.36630E-02 4.85887E-03-1.36316E+00-1.84012E-14 6.34619E-14
 -1      3232 2.02837E+01 7.50290E-02-6.06569E-03-1.42880E+00 8.18312E-14 1.34219E-15
 -1      3233 2.12585E+01-5.94415E-01-8.77789E-05-1.37715E+00 4.82005E-14 6.37334E-14
 -1      3234 2.10362E+01-3.58040E-01 9.53957E-03-1.42028E+00 1.61603E-13 6.02768E-14
 -1      3235 2.05349E+01-2.78295E-01-1.07921E-02-1.56207E+00 8.65924E-14 1.14710E-13
 -1      3236 2.18656E+01-1.17031E+00-4.24436E-03-1.20966E+00-1.84747E-13 2.43292E-13
 -1      3237 2.15688E+01-8.59469E-01 1.62381E-02-1.34911E+00-5.36918E-14 1.82614E-13
 -1      3238 2.09779E+01-8.16160E-01-1.73352E-02-1.61193E+00-4.87490E-14 2.51103E-13
 -1      3239 2.27058E+01-1.80386E+00-1.21891E-02-7.81192E-01-1.11470E-13 3.01198E-13
 -1      3240 2.23478E+01-1.48153E+00 2.31927E-02-1.05597E+00-1.92842E-13 2.90319E-13
 -1      3241 2.17035E+01-1.52574E+00-2.37894E-02-1.48964E+00-2.42941E-13 3.11801E-13
 -1      3242 2.37287E+01-2.22034E+00-2.02022E-02 2.08378E-04-5.39729E-14 3.47113E-13
 -1      3243 2.33694E+01-2.05093E+00 2.73342E-02-4.23590E-01-3.07037E-14 3.47009E-13
 -1      3244 2.27832E+01-2.27139E+00-2.54587E-02-1.06114E+00-1.06443E-13 3.47704E-13
 -1      3245 2.47214E+01-1.91600E+00-2.36389E-02 1.09140E+00-3.93570E-14 2.39124E-13
 -1      3246 2.44545E+01-2.17851E+00 1.36885E-02 5.92588E-01 5.39846E-15 3.14080E-13
 -1      3247 2.41260E+01-2.67295E+00-2.56740E-02-1.83328E-01 3.58880E-14 3.95106E-13
 -1      3248 2.52166E+01 2.79570E+00-4.86033E-02 2.01399E+00 2.74669E-13-4.68948E-14
 -1      3249 2.53055E+01 1.67079E+00-9.70695E-02 2.30440E+00 2.84127E-13 2.29400E-14
 -1      3250 2.46321E+01 3.96584E+00-8.90679E-02 4.67462E-01 4.91447E-13-3.38132E-14
 -1      3251 2.47503E+01 3.48379E+00-6.50970E-02 1.30554E+00 3.48790E-13-1.30333E-13
 -1      3252 2.56386E+01 1.21191E+00-1.44533E-01-2.22804E+00-6.56246E-14 1.00430E-13
 -1      3253 2.55239E+01 2.54409E+00-7.13984E-02-1.95815E+00-2.01783E-14 1.97481E-14
 -1      3254 2.59263E+01-1.31609E+00-4.67014E-02-1.62262E+00-2.34646E-13-9.91464E-14
 -1      3255 2.59757E+01-1.75674E-01-4.37462E-02-1.95799E+00-8.80754E-14-3.71439E-14
 -1      3256 2.34643E+01-2.16291E+00 2.98767E-02 5.43036E-01 1.34853E-13-2.05665E-13
 -1      3257 2.38433E+01-2.29912E+00-1.30637E-02 8.27793E-02 1.17900E-13-1.52328E-13
 -1      3258 2.24023E+01-1.60768E+00 2.45559E-02 1.23298E+00 1.06089E-13-2.12310E-13
 -1      3259 2.27831E+01-1.91963E+00-7.47757E-03 9.37441E-01 1.81362E-13-1.25105E-13
 -1      3260 2.29322E+01-2.41558E+00-3.87817E-02 1.15322E+00 7.76696E-14-1.42133E-13
 -1      3261 2.15925E+01-9.74622E-01 1.65163E-02 1.57861E+00-1.00692E-13-2.19761E-13
 -1      3262 2.19057E+01-1.30045E+00-5.72789E-03 1.41735E+00-3.77372E-14-2.28576E-13
 -1      3263 2.17999E+01-1.69431E+00-3.60889E-02 1.68578E+00 1.78106E-14-1.92568E-13
 -1      3264 2.10319E+01-4.31061E-01 1.01704E-02 1.68421E+00 6.19350E-15-3.44181E-13
 -1      3265 2.12698E+01-6.92567E-01-8.18114E-04 1.62717E+00 3.57997E-14-2.52446E-13
 -1      3266 2.10674E+01-9.41880E-01-1.97173E-02 1.86310E+00-1.65742E-14-1.11377E-13
 -1      3267 2.06667E+01-2.01027E-02 5.94886E-03 1.63898E+00 9.67012E-14-2.68803E-13
 -1      3268 2.08407E+01-2.12588E-01 1.31519E-03 1.65444E+00-5.65732E-14-3.56749E-13
 -1      3269 2.06070E+01-3.44650E-01-1.19772E-02 1.84119E+00-2.25896E-14-1.84839E-13
 -1      3270 2.04370E+01 2.81748E-01 4.67458E-03 1.49777E+00 8.49438E-14-1.32685E-13
 -1      3271 2.05604E+01 1.40261E-01 1.88096E-03 1.56404E+00 1.56663E-13-1.70882E-13
 -1      3272 2.03444E+01 9.41315E-02-6.80780E-03 1.71269E+00-2.64110E-14-1.39521E-13
 -1      3273 2.02603E+01 4.85079E-01 3.78972E-03 1.37882E+00-2.17232E-13-1.56839E-13
 -1      3274 2.03632E+01 3.75611E-01 2.07021E-03 1.44395E+00-5.32473E-14-8.92618E-14
 -1      3275 2.01824E+01 3.84113E-01-4.07968E-03 1.56525E+00-8.02070E-14-1.89847E-13
 -1      3276 2.00698E+01 5.95618E-01-4.51428E-03 1.42522E+00-7.31651E-14 1.02311E-13
 -1      3277 1.61050E+01-3.49257E+00 1.26396E-01-5.65217E+00-2.24432E-13 4.29580E-13
 -1      3278 2.61210E+01-3.86916E+00-8.21510E-02 6.86903E-01-1.90334E-14-2.79103E-13
 -1      3279 2.47414E+01-4.32943E+00 2.21329E-02 2.00500E+00-4.30246E-14-2.68822E-13
 -1      3280 1.86342E+01 1.43935E+00-3.69366E-03-5.85547E-02 2.46083E-13 6.33807E-14
 -1      3281 1.86549E+01 1.42853E+00-1.43315E-03 2.23941E-01 1.79582E-13 2.55142E-13
 -1      3282 1.94979E+01 9.34499E-01 4.34629E-03-1.42983E+00 9.90047E-14-2.47536E-13
 -1      3283 1.92751E+01 1.04589E+00-8.41675E-03-1.31350E+00 2.21578E-13-4.86105E-13
 -1      3284 1.87568E+01 1.37732E+00 1.37462E-03-6.41381E-01 1.09843E-13-1.43168E-13
 -1      3285 1.86684E+01 1.41668E+00-6.06987E-03-3.78912E-01 1.81910E-13-1.08856E-13
 -1      3286 1.84125E+01 1.36892E+00 7.72347E-03-2.33120E-01 1.48975E-13-8.40972E-14
 -1      3287 1.99449E+01 2.14286E+00-4.27635E-03 3.27289E-01 3.79235E-14-3.06504E-13
 -1      3288 1.99107E+01 2.17922E+00-3.30885E-03 2.05907E-01 7.71898E-16-3.25399E-13
 -1      3289 2.67465E+01 3.97581E+00-1.60311E-01 1.97950E+00 2.71144E-13 4.69125E-13
 -1      3290 2.22411E+01-4.52297E+00-2.45645E-02 3.74435E+00-3.70294E-14-3.80536E-13
 -1      3291 1.93339E+01-3.99146E+00 1.32987E-01 5.00667E+00 5.72598E-14-5.19629E-13
 -1      3292 1.10141E+01-5.66189E-01 6.24549E-02 3.26740E+00-7.94712E-14-8.33403E-13
 -1      3293 9.24071E+00 2.32191E-02 1.92321E-01 1.77491E+00-7.81302E-14-7.32595E-13
 -1      3294 2.60545E+01 4.54987E-01-4.67482E-02 2.39611E+00 2.78909E-13 1.24845E-13
 -1      3295 2.62691E+01 4.77878E+00-1.34321E-01 1.13915E+00 2.73434E-13 2.48896E-13
 -1      3296 2.49608E+01 3.52825E+00-1.43683E-01-1.31142E+00 6.30121E-14 1.04959E-13
 -1      3297 2.66566E+01-6.98346E-01-8.44903E-02 1.90757E+00 1.96343E-13 2.86368E-13
 -1      3298 2.52829E+01-6.18102E-01-1.21731E-02 2.00694E+00 4.11043E-14 1.12437E-13
 -1      3299 2.52392E+01-1.44652E+00-7.82734E-03 1.67807E+00-3.77454E-14 1.51601E-13
 -1      3300 2.68208E+01-2.01232E+00 1.23741E-02 1.25133E+00 1.70497E-13 3.30569E-13
 -1      3301 1.52193E+01-2.49625E+00 1.30659E-01-5.20251E+00-2.53304E-13 4.88665E-13
 -1      3302 1.82283E+01-3.92229E+00-2.44847E-02-5.33015E+00-2.28068E-13 1.77622E-13
 -1      3303 9.87229E+00-4.49261E-01 3.99388E-02 2.66253E+00 2.65905E-13 2.12969E-13
 -1      3304 9.10614E+00-1.44790E-04 9.98352E-02 6.79332E-01 1.59113E-13 8.55011E-14
 -1      3305 2.01625E+01 2.90094E-01-2.01992E-03 7.71133E-02 1.13257E-13-1.31052E-13
 -1      3306 2.02110E+01 3.90601E-01 4.35432E-03 1.66661E-01 1.43361E-13-1.43816E-13
 -1      3307 1.90689E+01 1.19416E+00 5.55102E-03-1.12769E+00 7.62071E-14-4.83730E-13
 -1      3308 1.88894E+01 1.27683E+00-8.85674E-03-9.19450E-01 1.00791E-13-2.55701E-13
 -1      3309 1.86144E+01 1.25558E+00 5.32347E-03-8.53834E-01 6.05875E-15-2.30393E-13
 -1      3310 1.90245E+01 1.02703E+00 1.57079E-03-1.33040E+00 4.30359E-14-3.26577E-13
 -1      3311 1.98818E+01-4.11342E+00-1.88513E-02 4.86907E+00-4.85174E-13 1.71540E-13
 -1      3312 1.74428E+01-3.12469E+00 1.17841E-01 5.19333E+00-5.76345E-13 5.80341E-13
 -1      3313 1.99225E+01 7.01917E-01 7.71792E-03-3.21782E-01-1.61154E-13-6.57223E-14
 -1      3314 1.98757E+01 5.39804E-01-3.30355E-03-1.92715E-01-1.43254E-13-7.68098E-14
 -1      3315 1.99411E+01 5.66965E-01-7.10512E-04-1.64626E-01-1.10608E-13-7.91960E-14
 -1      3316 2.68361E+01 4.66138E+00-7.76420E-02 1.14247E+00 6.73767E-14-8.03767E-14
 -1      3317 2.48790E+01-2.01554E+00-1.42415E-02-9.46781E-01-2.10907E-13-1.80130E-13
 -1      3318 2.62330E+01-2.32301E+00-6.15437E-02-7.91285E-01 1.01343E-14-1.98338E-13
 -1      3319 2.59596E+01-3.51196E+00 4.29504E-02 4.75682E-01-5.44460E-14-1.62193E-13
 -1      3320 2.46245E+01-2.32253E+00 1.22028E-02-4.47382E-01 2.55620E-14-2.57238E-13
 -1      3321 2.49333E+01 4.12264E+00-8.02377E-02-4.58360E-01 2.96721E-13 6.42485E-14
 -1      3322 2.01052E+01 1.48476E-01-1.14968E-03-4.22728E-02 1.13727E-13-1.26214E-13
 -1      3323 2.01412E+01 2.13036E-01 3.70187E-03 1.05465E-02 1.15865E-13-1.03289E-13
 -1      3324 2.02102E+01 3.11579E-01-1.71627E-03 7.19975E-02 1.15773E-13-1.12349E-13
 -1      3325 1.10734E+01-6.75951E-01 1.58780E-01-3.63800E+00-2.09794E-13 3.31957E-13
 -1      3326 1.24531E+01-1.54442E+00 1.06263E-02-4.63937E+00-2.56802E-13 5.59580E-13
 -1      3327 2.10482E+01-4.25624E+00 1.13990E-01-4.39696E+00-1.85428E-13 6.55994E-14
 -1      3328 2.29851E+01-4.67807E+00-8.81329E-02-3.38830E+00 2.66592E-14 2.54380E-14
 -1      3329 9.47271E+00 3.03818E-02 1.12524E-01-1.13331E+00 8.48913E-14-2.32842E-13
 -1      3330 1.05614E+01-5.93379E-01 2.55075E-02-3.14316E+00 1.76713E-13-5.38430E-13
 -1      3331 1.43760E+01-2.11580E+00-1.83051E-02 4.99977E+00-2.96735E-13 8.18026E-13
 -1      3332 1.20791E+01-8.90102E-01 1.59036E-01 3.90714E+00 6.74460E-14 2.82677E-13
 -1      3333 2.68437E+01 3.29260E+00-2.01525E-01 2.07811E+00 1.43968E-13-9.98160E-15
 -1      3334 2.73689E+01 1.81589E+00-6.87650E-02 2.20715E+00 9.23983E-14-4.24036E-14
 -1      3335 2.72652E+01-2.39071E-01-1.71457E-01 2.16365E+00-7.86732E-14-1.34538E-13
 -1      3336 1.98825E+01 2.19634E+00-3.64473E-03 1.01077E-01-1.78989E-14-3.42830E-13
 -1      3337 1.98609E+01 2.19512E+00-3.57811E-03-2.27136E-02-3.85150E-14-3.42682E-13
 -1      3338 2.00068E+01 1.90304E+00 4.90088E-03 1.38307E-01 2.83776E-16-3.08950E-13
 -1      3339 2.72952E+01-1.47603E+00 4.35627E-02 1.43653E+00-1.69212E-13-2.07133E-13
 -1      3340 1.83973E+01-3.12525E+00 1.09343E-01 4.68535E+00 1.19231E-13-4.80414E-13
 -1      3341 2.01414E+01 1.79188E+00-7.02201E-03 7.17918E-01 1.42991E-13-2.98732E-13
 -1      3342 2.00856E+01 1.91927E+00-2.50207E-03 6.23118E-01 1.11602E-13-3.02914E-13
 -1      3343 2.02431E+01 1.45396E+00 6.29238E-03 6.19832E-01 1.44231E-13-2.58633E-13
 -1      3344 1.98849E+01 1.50061E+00-2.98277E-03-7.80257E-01-2.05640E-13-1.21243E-13
 -1      3345 1.99083E+01 1.33196E+00-1.37643E-03-7.95920E-01-2.13817E-13-1.01833E-13
 -1      3346 1.99149E+01 1.13230E+00 5.67571E-03-6.36582E-01-1.82685E-13-8.86862E-14
 -1      3347 1.98423E+01 1.91350E+00-2.87162E-03-5.49258E-01-1.05801E-13-2.45406E-13
 -1      3348 1.98549E+01 1.78706E+00-7.12095E-03-6.44388E-01-1.42612E-13-2.14391E-13
 -1      3349 2.02219E+01 4.84677E-01-2.08581E-03 2.52081E-01 1.56362E-13-1.56153E-13
 -1      3350 2.02812E+01 6.30557E-01 4.12796E-03 3.92482E-01 1.76755E-13-1.55028E-13
 -1      3351 2.02917E+01 7.71756E-01-4.89199E-03 4.51173E-01 1.77844E-13-1.52927E-13
 -1      3352 2.02561E+01 5.19288E-01-1.38752E-03 2.33735E-01 1.42167E-13-1.51899E-13
 -1      3353 2.41416E+01-3.59768E+00-2.40741E-02 1.36317E+00 7.39860E-15-1.79501E-13
 -1      3354 2.51034E+01-3.16522E+00 3.71727E-02 2.89667E-01 1.05012E-13 2.54657E-14
 -1      3355 2.57792E+01-2.87062E+00-6.45934E-03-4.33821E-01 6.93889E-18 8.03680E-14
 -1      3356 2.66071E+01-1.04372E+00-1.20302E-01-1.97942E+00-9.58608E-15 2.12955E-14
 -1      3357 2.70461E+01 4.88783E-01-2.12773E-02-2.53952E+00-3.00732E-14-4.31738E-14
 -1      3358 2.00776E+01 2.80649E-03-7.52234E-04-1.31797E-01 5.85977E-14-5.39733E-14
 -1      3359 2.00285E+01 6.03737E-03 1.23556E-04-1.39726E-01 2.17087E-14-9.34826E-14
 -1      3360 2.00426E+01 2.99761E-02 1.63195E-03-1.28053E-01 4.41375E-14-9.26953E-14
 -1      3361 1.98932E+01 9.42592E-01-4.66600E-03-5.02562E-01-1.72388E-13-8.18029E-14
 -1      3362 2.38389E+01-3.77411E+00-2.94224E-02-2.01422E+00-5.97265E-15-3.72157E-13
 -1      3363 2.48495E+01-3.70582E+00 1.77678E-02 1.21074E+00-6.15931E-14-7.25843E-14
 -1      3364 2.54810E+01 3.39360E+00-1.07691E-01 1.74767E+00 2.77639E-13-2.35749E-15
 -1      3365 2.53498E+01-2.23753E+00-3.99106E-02 9.81355E-01 3.98986E-16 3.14462E-13
 -1      3366 1.50136E+01-1.76036E+00 1.13723E-01-4.53400E+00-2.62616E-13 5.27717E-13
 -1      3367 1.23182E+01-3.28719E-01 1.07518E-01 2.92661E+00 2.08812E-13 1.93755E-13
 -1      3368 2.42943E+01-2.84111E+00-4.60954E-02 3.14777E-01 1.12420E-13-3.53332E-13
 -1      3369 1.66210E+01-2.13818E+00 7.09845E-02 4.52028E+00-3.86899E-13 5.03295E-13
 -1      3370 2.66178E+01 1.90806E+00-1.44123E-01-2.44553E+00-2.03781E-13-4.14876E-14
 -1      3371 2.67224E+01-2.63056E+00 1.53934E-02-8.05357E-01-8.50500E-14-7.96932E-14
 -1      3372 1.98352E+01 2.00496E+00-5.19071E-03-4.62340E-01-9.15213E-14-2.93526E-13
 -1      3373 1.99382E+01 1.68385E+00 7.71920E-03-4.22809E-01-8.53153E-14-2.51426E-13
 -1      3374 1.98328E+01 2.08398E+00-3.06933E-03-3.48655E-01-7.48510E-14-3.00038E-13
 -1      3375 1.90143E+01 1.17524E+00-8.78421E-03 1.03077E+00 2.13613E-13 1.19265E-14
 -1      3376 1.92077E+01 1.07783E+00 5.02060E-03 1.20605E+00 6.28471E-14 3.42901E-13
 -1      3377 1.84603E+01 1.33102E+00 7.20156E-03 4.25466E-01 2.19232E-13 2.10691E-13
 -1      3378 1.87274E+01 1.36493E+00-7.60135E-03 5.37470E-01 2.01090E-13 2.82674E-13
 -1      3379 1.88530E+01 1.30481E+00 3.40381E-03 7.86186E-01 2.11605E-13 9.23950E-14
 -1      3380 1.02151E+01 3.26017E-01 1.12028E-01 5.81191E-01-1.61865E-13-5.69697E-13
 -1      3381 1.99859E+01 2.08930E+00-3.05991E-03 4.25534E-01 5.49399E-14-3.16959E-13
 -1      3382 2.00708E+01 1.83176E+00 5.20198E-03 3.27460E-01 3.79372E-14-2.91130E-13
 -1      3383 2.00318E+01 2.01151E+00-5.41509E-03 5.38365E-01 9.01861E-14-3.23059E-13
 -1      3384 1.76083E+01-3.08701E+00 1.19195E-01-5.13504E+00 1.58408E-13-4.44617E-13
 -1      3385 1.92743E+01-3.52914E+00-2.92341E-02-4.63592E+00 4.66120E-14-3.77906E-13
 -1      3386 1.65853E+01-2.18478E+00 4.29161E-02-4.65858E+00 4.47489E-14-4.18346E-13
 -1      3387 1.99355E+01 9.67624E-01-4.44801E-03-4.42079E-01-1.64277E-13-1.08480E-13
 -1      3388 2.37316E+01-4.19736E+00 2.68787E-02 2.49925E+00-8.85091E-14-2.06738E-13
 -1      3389 2.21105E+01-3.55956E+00 3.34965E-02 2.97981E+00 3.21713E-14-3.22646E-13
 -1      3390 1.43435E+01-1.37459E+00 6.89237E-02 4.20368E+00 1.07751E-13-6.16181E-13
 -1      3391 1.26110E+01-8.20501E-01 1.60741E-01 3.97774E+00 9.55486E-15-8.06286E-13
 -1      3392 1.19994E+01-1.75844E-01 3.27663E-02 2.82954E+00-4.47975E-14-7.59136E-13
 -1      3393 1.08234E+01 3.14673E-01 1.40506E-01-2.48953E-01 1.22662E-13-7.74172E-14
 -1      3394 1.91614E+01 9.14584E-01-2.41093E-04 1.37167E+00 1.43498E-13 2.19572E-13
 -1      3395 1.93924E+01 9.51244E-01-6.68071E-03 1.32682E+00-1.56375E-14 2.01294E-13
 -1      3396 1.95777E+01 8.59533E-01 3.64305E-03 1.39818E+00 9.09308E-14 1.67658E-13
 -1      3397 2.00609E+01 5.96294E-02-4.81615E-04-1.08857E-01 6.05880E-14-8.70192E-14
 -1      3398 2.00843E+01 1.00036E-01 2.50782E-03-8.08975E-02 9.27237E-14-9.72860E-14
 -1      3399 2.01586E+01 1.58633E-01-1.41737E-03-3.95891E-02 8.13268E-14-7.45182E-14
 -1      3400 2.01138E+01 6.14666E-02-1.16824E-03-1.02358E-01 5.49950E-14-6.16729E-14
 -1      3401 2.16165E+01-4.13867E+00 6.24828E-02 4.02599E+00-3.75089E-13 2.36912E-13
 -1      3402 2.06454E+01-3.42368E+00 2.42398E-02 3.94568E+00-3.19522E-13 3.85750E-13
 -1      3403 2.28530E+01-4.09254E+00-4.54624E-02 2.90831E+00-2.11535E-13 2.94431E-13
 -1      3404 1.29627E+01-6.62019E-01 1.26399E-01-3.43718E+00 5.26384E-14-3.69579E-13
 -1      3405 1.97915E+01 7.05766E-01 7.69359E-04-1.56641E+00 2.17102E-13 1.06602E-13
 -1      3406 1.96296E+01 8.25333E-01-4.17434E-03-1.50681E+00 9.54957E-14-7.81456E-14
 -1      3407 1.94304E+01 7.90875E-01-6.00676E-04-1.58008E+00 1.77392E-14-2.84207E-13
 -1      3408 1.97744E+01 6.00558E-01 2.45215E-03-1.68086E+00 1.16454E-13-9.40004E-14
 -1      3409 2.50945E+01-4.24812E+00 7.77618E-02-1.86048E+00 1.43593E-13 2.07598E-13
 -1      3410 2.62975E+01-3.30882E+00-9.91745E-02-1.00123E-01 1.65954E-13 4.13794E-13
 -1      3411 2.56671E+01-2.79668E+00-2.45778E-02 3.97562E-01 2.80444E-14 4.69827E-13
 -1      3412 2.38708E+01-3.98882E+00 3.76965E-02-2.15639E+00-2.26381E-15 2.55072E-13
 -1      3413 1.10654E+01-1.25379E-01 1.23751E-01-2.55273E+00-3.18415E-13-8.32667E-17
 -1      3414 1.98947E+01-3.53876E+00 5.80227E-02-4.31075E+00-2.39683E-13 6.78971E-15
 -1      3415 1.98722E+01 1.63946E+00-1.14563E-03-7.35073E-01-1.75699E-13-1.59533E-13
 -1      3416 1.87456E+01 1.15095E+00 3.80296E-03 1.00242E+00 3.20944E-13 8.02853E-14
 -1      3417 1.99946E+01 4.28883E-01 2.57180E-03-4.61526E-02-7.95263E-14-1.08913E-13
 -1      3418 1.99739E+01 3.16950E-01-2.07697E-03 1.96536E-02-9.54426E-14-9.13110E-14
 -1      3419 1.99690E+01 2.28321E-01 2.08108E-03 6.41626E-02-1.05186E-13-7.43570E-14
 -1      3420 1.99489E+01 1.54048E-01-1.16290E-03 1.04743E-01-1.25609E-13-6.66374E-14
 -1      3421 2.00353E+01 3.18514E-01-1.75614E-04 3.04138E-02-8.69666E-14-1.05593E-13
 -1      3422 1.99378E+01 9.62806E-02 1.55927E-03 1.31218E-01-1.15489E-13-3.46553E-14
 -1      3423 1.99214E+01 4.90593E-02-4.82126E-04 1.53884E-01-7.21838E-14-1.42140E-14
 -1      3424 2.00110E+01 1.52299E-01-5.04272E-04 1.04958E-01-9.31864E-14-4.33841E-14
 -1      3425 1.99078E+01 1.37293E-02 1.03528E-03 1.67675E-01-7.22971E-14 8.78777E-15
 -1      3426 1.98957E+01-1.34705E-02-3.20237E-06 1.78832E-01-5.00961E-14-1.05263E-14
 -1      3427 1.99813E+01 4.56956E-02-6.38854E-04 1.48547E-01-7.56338E-14-9.00377E-15
 -1      3428 1.98816E+01-3.19594E-02 5.61475E-04 1.84738E-01-3.36160E-14-4.08345E-14
 -1      3429 1.98735E+01-4.37446E-02 2.47851E-04 1.89520E-01-5.36266E-14-2.81413E-14
 -1      3430 1.99510E+01-1.61904E-02-6.46427E-04 1.71243E-01-6.08869E-14-6.68342E-14
 -1      3431 1.98595E+01-4.88179E-02 1.09762E-04 1.91240E-01-8.85397E-14-8.82726E-15
 -1      3432 1.98541E+01-4.79878E-02 2.53746E-04 1.93208E-01-7.63588E-14-1.51138E-16
 -1      3433 1.99223E+01-4.36700E-02-5.90466E-04 1.81427E-01-6.46129E-14-6.65039E-14
 -1      3434 1.98404E+01-4.14823E-02-3.66301E-05 1.93114E-01-5.80940E-14 8.99243E-15
 -1      3435 1.98355E+01-2.96990E-02 8.93817E-04 1.93538E-01-2.82360E-14 1.65523E-14
 -1      3436 1.98950E+01-4.37665E-02-4.28975E-04 1.84973E-01-7.44798E-14-2.33469E-14
 -1      3437 1.98223E+01-1.37498E-02 1.20948E-03 1.92343E-01-4.17708E-14-1.54597E-14
 -1      3438 1.98175E+01 5.63372E-03 4.22935E-03 1.90411E-01-3.70032E-14-1.45931E-14
 -1      3439 1.98684E+01-2.22655E-02 2.44537E-04 1.84870E-01-2.88279E-14-7.73323E-14
 -1      3440 1.98067E+01 2.68938E-02 6.85729E-03 1.89071E-01-4.35602E-14-9.60265E-14
 -1      3441 1.98064E+01 5.01229E-02 1.59692E-02 1.86562E-01-7.70235E-14-8.13984E-14
 -1      3442 1.98435E+01 1.35984E-02 2.84207E-03 1.82898E-01-6.22291E-14-1.65013E-13
 -1      3443 1.97977E+01 7.16854E-02 2.05639E-02 1.87009E-01-9.17010E-14-6.89396E-14
 -1      3444 1.98019E+01 9.11932E-02 3.39267E-02 1.86643E-01-1.02711E-13-3.08729E-14
 -1      3445 1.98233E+01 5.84495E-02 1.00357E-02 1.82486E-01-6.02764E-14-1.74646E-13
 -1      3446 1.98083E+01 1.17600E-01 4.99537E-02 1.98310E-01-9.47055E-14-6.36401E-14
 -1      3447 1.98291E+01 1.51815E-01 7.45126E-02 2.13218E-01-6.73003E-14-1.34198E-14
 -1      3448 1.98135E+01 1.05091E-01 2.48363E-02 1.93689E-01-1.08588E-13-1.49498E-13
 -1      3449 1.98263E+01 1.82025E-01 7.43393E-02 2.23120E-01-7.72160E-14 3.44204E-14
 -1      3450 1.98120E+01 2.05011E-01 4.04842E-02 2.54120E-01-7.20674E-14 5.18058E-14
 -1      3451 1.98055E+01 1.78165E-01 4.19833E-02 2.20078E-01-3.05936E-14-8.34892E-14
 -1      3452 1.98836E+01 2.38633E-01 5.30655E-02 2.71507E-01-1.03281E-13 1.58970E-13
 -1      3453 1.98212E+01 1.83822E-01-3.45218E-02 2.44089E-01-9.31061E-14 1.00281E-13
 -1      3454 1.97980E+01 2.19964E-01 1.95282E-02 2.49969E-01-5.60029E-14 7.50424E-14
 -1      3455 1.98975E+01 2.66832E-01-7.74098E-02 2.87102E-01-4.77673E-14 9.26481E-14
 -1      3456 1.98255E+01 2.70112E-01-1.33681E-01 4.01831E-01-2.58821E-14 6.10761E-14
 -1      3457 1.98058E+01 2.71577E-01-5.34429E-02 3.36893E-01-1.03480E-13 1.29735E-13
 -1      3458 1.98885E+01 3.46987E-01-5.86099E-02 4.41162E-01-2.39895E-14 1.17545E-13
 -1      3459 1.98517E+01 3.98467E-01-3.55746E-02 5.01638E-01 4.43473E-14 1.69434E-13
 -1      3460 1.97927E+01 4.01963E-01-4.84433E-02 3.79956E-01-8.24341E-15 1.85470E-13
 -1      3461 1.98083E+01 4.49136E-01-2.09373E-02 5.65469E-01 3.97054E-14 3.63615E-14
 -1      3462 1.97831E+01 4.94712E-01-8.35851E-03 6.34587E-01-1.06618E-14 1.54711E-14
 -1      3463 1.97267E+01 4.86008E-01-1.93209E-02 4.95041E-01-2.94747E-14 4.09568E-14
 -1      3464 1.97197E+01 5.35076E-01-7.01701E-03 7.08351E-01-1.42863E-14 1.27767E-14
 -1      3465 1.96950E+01 5.72070E-01-1.81173E-04 7.88607E-01 2.24681E-14-3.59501E-14
 -1      3466 1.96162E+01 5.82784E-01-4.04730E-03 6.31627E-01-3.28270E-14-7.47531E-14
 -1      3467 1.96183E+01 5.99770E-01-3.69048E-03 8.74719E-01 1.13713E-13-2.51773E-15
 -1      3468 1.95945E+01 6.21560E-01 2.06849E-03 9.66213E-01 1.33927E-13 5.16793E-14
 -1      3469 1.94817E+01 6.63045E-01 1.08410E-03 7.87304E-01 8.25014E-14-1.08672E-15
 -1      3470 1.95067E+01 6.28134E-01-3.36185E-03 1.06753E+00 3.79024E-14-6.99274E-15
 -1      3471 1.94892E+01 6.23000E-01 3.32414E-03 1.17068E+00-1.02687E-13-3.82529E-14
 -1      3472 1.93244E+01 7.12435E-01 2.19865E-03 9.69162E-01 1.14796E-14-1.30192E-13
 -1      3473 1.93953E+01 5.93579E-01-3.40359E-03 1.29141E+00-1.71302E-13-6.19180E-14
 -1      3474 1.93969E+01 5.43398E-01 5.16303E-03 1.40671E+00-1.00910E-13-6.20096E-14
 -1      3475 1.91492E+01 7.07158E-01 1.90013E-03 1.18565E+00-1.11036E-13-2.15534E-13
 -1      3476 1.93083E+01 4.55957E-01-2.91242E-03 1.55334E+00-1.00697E-13-8.26124E-14
 -1      3477 1.93531E+01 3.34522E-01 8.20920E-03 1.68083E+00-5.36762E-14-1.62746E-13
 -1      3478 1.89703E+01 6.10623E-01 5.37150E-04 1.44962E+00-1.58398E-13-3.56205E-14
 -1      3479 1.92951E+01 1.58573E-01-8.70800E-04 1.86171E+00 2.06367E-14-1.27565E-13
 -1      3480 1.94245E+01-6.93720E-02 1.29388E-02 1.99786E+00 9.27028E-14-2.03864E-13
 -1      3481 1.88197E+01 3.68617E-01-2.63505E-03 1.78074E+00-8.08693E-15-1.04482E-13
 -1      3482 1.94471E+01-3.72380E-01 4.74894E-03 2.21899E+00 1.56911E-13-3.38267E-13
 -1      3483 1.97264E+01-7.47569E-01 1.94402E-02 2.34697E+00 2.33980E-13-2.18095E-13
 -1      3484 1.87630E+01-9.45540E-02-8.53024E-03 2.20278E+00 8.69595E-14-2.62033E-13
 -1      3485 1.99263E+01-1.21941E+00 1.71388E-02 2.59621E+00 2.32353E-13-2.70315E-13
 -1      3486 2.04543E+01-1.75964E+00 3.09663E-02 2.66201E+00 1.61609E-13-1.57446E-13
 -1      3487 1.89283E+01-8.74593E-01-1.65230E-02 2.72919E+00 1.70550E-13-4.12756E-13
 -1      3488 2.07497E+01-2.29418E+00 3.68061E-02 2.90608E+00 1.17873E-13-2.60954E-13
 -1      3489 2.15993E+01-2.96050E+00 3.16965E-02 2.82362E+00 3.41741E-14-3.46931E-13
 -1      3490 2.01205E+01-3.26738E+00-4.73600E-02 3.88153E+00 7.36997E-14-5.55275E-13
 -1      3491 1.93385E+01-1.95489E+00-3.35865E-02 3.31443E+00 1.14628E-13-4.80725E-13
 -1      3492 2.40522E+01-3.51469E+00 5.27272E-02 1.60955E+00-9.39830E-15-3.67970E-14
 -1      3493 2.03946E+01-1.51812E+00 2.51732E-02-2.74779E+00 2.99041E-13-3.12530E-13
 -1      3494 1.99086E+01-1.01346E+00 1.50124E-02-2.69725E+00 3.31073E-13-3.84412E-13
 -1      3495 1.97822E+01-5.91697E-01 1.56684E-02-2.46917E+00 2.40893E-13-2.71387E-13
 -1      3496 1.95715E+01-2.47857E-01 2.26130E-03-2.34723E+00 1.88132E-13-1.65650E-13
 -1      3497 1.91017E+01-7.00647E-01-1.12565E-02-2.77710E+00 2.82139E-13-4.99763E-13
 -1      3498 1.95942E+01 3.60958E-02 8.77942E-03-2.14819E+00 1.00566E-13-1.09565E-13
 -1      3499 1.95145E+01 2.66064E-01-7.80559E-04-2.01667E+00 9.74654E-14-2.63553E-14
 -1      3500 1.90361E+01 1.48913E-02-8.36083E-03-2.29905E+00 1.55939E-13-2.34866E-13
 -1      3501 2.00651E+01-4.64283E-02 2.87697E-03-1.27179E-01 4.79985E-14-1.13800E-13
 -1      3502 2.00722E+01-4.27336E-02 1.71215E-03-1.27725E-01 5.18244E-14-1.26714E-13
 -1      3503 1.99426E+01 1.43520E+00 8.24042E-03-5.77315E-01-1.55397E-13-1.65273E-13
 -1      3504 2.00442E+01-4.15195E-02-1.98271E-04-1.26015E-01 3.12256E-14-7.47254E-14
 -1      3505 2.00492E+01-4.62465E-02 1.47140E-03-1.25610E-01 3.72844E-14-1.11658E-13
 -1      3506 2.00835E+01-4.68963E-02 7.58389E-05-1.17374E-01 3.34608E-14-9.77443E-14
 -1      3507 2.00880E+01-3.43202E-02 1.19538E-03-1.27771E-01 7.76559E-14-1.04253E-13
 -1      3508 2.01010E+01-2.06337E-02 1.17071E-03-1.25846E-01 1.02159E-13-6.73212E-14
 -1      3509 2.01139E+01-3.86705E-02-1.29034E-04-1.16383E-01 9.92584E-14-9.81669E-14
 -1      3510 1.99873E+01 3.96409E-03-1.70874E-02-1.05657E-01 3.66374E-15-1.76872E-14
 -1      3511 2.00034E+01-8.27586E-03-1.55745E-02-1.20670E-01 3.67796E-14-8.20177E-14
 -1      3512 2.00640E+01 1.78705E-02 6.50938E-03-1.48733E-01 4.32605E-14 1.12479E-14
 -1      3513 1.99700E+01-1.74179E-02-2.61215E-02-1.01175E-01 5.68781E-14 3.24463E-14
 -1      3514 2.00125E+01-9.61207E-03-1.67995E-02-1.16526E-01-9.71792E-15-1.04123E-13
 -1      3515 2.00266E+01 1.00227E-01 7.64193E-03-1.86324E-01-3.96592E-14 9.31893E-14
 -1      3516 2.00368E+01 6.79277E-02 7.45342E-03-1.61587E-01-2.26971E-14 5.31138E-14
 -1      3517 2.00065E+01 6.28614E-02-4.34389E-03-1.56031E-01 4.28910E-15-2.12415E-14
 -1      3518 2.00074E+01 1.60428E-01 4.07485E-03-2.36185E-01-5.18625E-14 8.52300E-14
 -1      3519 2.00109E+01 1.28338E-01 4.54275E-03-2.08581E-01-1.13676E-14 1.03933E-13
 -1      3520 1.99859E+01 1.35951E-01 2.08209E-03-1.88944E-01-3.64851E-14 3.92507E-14
 -1      3521 1.99866E+01 2.25424E-01 1.96926E-03-3.04357E-01-1.92170E-14 2.18384E-14
 -1      3522 1.99868E+01 1.91449E-01 3.56162E-04-2.67890E-01-4.01555E-14 5.28390E-14
 -1      3523 1.99561E+01 2.03580E-01 1.19412E-03-2.43036E-01-2.49638E-15 8.04969E-14
 -1      3524 1.99663E+01 2.92345E-01 1.36352E-03-3.91865E-01-1.29047E-14-3.44613E-14
 -1      3525 1.99646E+01 2.58040E-01-1.13927E-03-3.45573E-01-8.10293E-15-1.10447E-14
 -1      3526 1.99201E+01 2.78010E-01 4.35731E-04-3.15848E-01 2.14761E-14 4.06943E-14
 -1      3527 1.99447E+01 3.57342E-01 1.39853E-03-4.98762E-01 2.26739E-15 4.31559E-14
 -1      3528 1.99415E+01 3.24336E-01-1.64086E-03-4.42731E-01 1.21151E-14-3.23905E-16
 -1      3529 1.98792E+01 3.53693E-01 5.18944E-04-4.07616E-01-1.04164E-14 7.21863E-14
 -1      3530 1.99193E+01 4.16367E-01 1.49147E-03-6.24901E-01-8.82989E-14 8.67403E-14
 -1      3531 1.99149E+01 3.86808E-01-1.96694E-03-5.59342E-01-3.85698E-14 8.73663E-14
 -1      3532 1.98305E+01 4.25650E-01 4.23767E-04-5.17730E-01-4.91026E-14 5.40895E-14
 -1      3533 1.98913E+01 4.62454E-01 2.04804E-03-7.71143E-01-1.77446E-13 7.69795E-14
 -1      3534 1.98842E+01 4.40601E-01-2.01511E-03-6.96161E-01-1.16080E-13 1.04849E-14
 -1      3535 1.97715E+01 4.90940E-01 8.55387E-04-6.47612E-01-5.54086E-14 5.09200E-14
 -1      3536 1.98654E+01 4.81639E-01 2.53363E-03-9.37098E-01-1.35542E-13 1.21315E-13
 -1      3537 1.98524E+01 4.75234E-01-1.96399E-03-8.53908E-01-1.63892E-13 4.48931E-14
 -1      3538 1.97028E+01 5.39154E-01 1.02759E-03-7.99592E-01-1.61461E-13-3.82615E-15
 -1      3539 1.98530E+01 4.52775E-01 3.22562E-03-1.12110E+00-6.10132E-14 1.84695E-13
 -1      3540 1.98270E+01 4.73564E-01-1.74440E-03-1.03199E+00-9.34834E-14 1.70062E-13
 -1      3541 1.96293E+01 5.54373E-01 5.70247E-04-9.75637E-01-1.57508E-13 2.39357E-14
 -1      3542 1.98758E+01 3.44946E-01 4.30548E-03-1.31913E+00 1.13959E-13 1.66539E-13
 -1      3543 1.98243E+01 4.09772E-01-9.93984E-04-1.22835E+00 4.95496E-14 2.41557E-13
 -1      3544 1.95631E+01 5.11632E-01-5.83657E-04-1.17797E+00-3.14067E-14 1.09225E-13
 -1      3545 1.99715E+01 1.16831E-01 5.84634E-03-1.52278E+00 1.25318E-13 9.29530E-14
 -1      3546 1.98740E+01 2.47859E-01 7.13129E-04-1.43789E+00 1.64727E-13 1.75130E-13
 -1      3547 1.95278E+01 3.75099E-01-2.82738E-03-1.40845E+00 1.33283E-13 1.64031E-13
 -1      3548 2.02009E+01-2.80962E-01 7.54011E-03-1.71432E+00 2.69655E-14 2.16665E-13
 -1      3549 2.00267E+01-5.77553E-02 4.17451E-03-1.64905E+00 2.26574E-14 1.06695E-13
 -1      3550 1.95658E+01 9.67740E-02-6.80017E-03-1.66688E+00 4.01040E-14 2.55240E-13
 -1      3551 2.06552E+01-8.93035E-01 9.38223E-03-1.85352E+00-1.99459E-13 4.04678E-13
 -1      3552 2.03622E+01-5.56605E-01 1.03678E-02-1.83479E+00-3.65786E-14 2.80068E-13
 -1      3553 1.97497E+01-3.81055E-01-1.31242E-02-1.94374E+00-8.16655E-14 2.46833E-13
 -1      3554 2.14481E+01-1.73402E+00 6.26828E-03-1.85417E+00-2.20250E-13 3.27953E-13
 -1      3555 2.09969E+01-1.28869E+00 1.93280E-02-1.93623E+00-2.40650E-13 3.54297E-13
 -1      3556 2.01902E+01-1.11245E+00-2.26840E-02-2.20447E+00-1.76859E-13 2.85071E-13
 -1      3557 2.26656E+01-2.67064E+00-1.02904E-02-1.55138E+00-1.47702E-13 3.53040E-13
 -1      3558 2.20683E+01-2.19408E+00 3.43033E-02-1.80397E+00-1.80938E-13 3.05166E-13
 -1      3559 2.10776E+01-2.12660E+00-3.12510E-02-2.35200E+00-2.24562E-13 2.58456E-13
 -1      3560 2.52013E+01-3.06298E+00 5.31741E-02-1.32485E-01 6.76490E-14 4.61310E-13
 -1      3561 1.36098E+01-3.33369E-01 5.93722E-03 3.05473E+00 1.04435E-13 1.18447E-13
 -1      3562 1.20707E+01 3.05352E-01 7.95730E-02 1.88530E+00 1.54639E-13 5.75096E-14
 -1      3563 2.22893E+01-2.72066E+00 3.02899E-02 2.25628E+00-5.75590E-14 2.36364E-13
 -1      3564 2.30026E+01-3.15511E+00 1.41561E-02 1.97053E+00-4.30350E-14 1.17707E-13
 -1      3565 2.01710E+01-1.08199E-01 5.35883E-03 1.93263E+00 1.26164E-14 1.89142E-13
 -1      3566 2.03507E+01-3.71707E-01 7.57651E-03 1.99183E+00 1.22771E-14 1.98352E-13
 -1      3567 2.00215E+01 2.97358E-01 1.86173E-03 1.71825E+00-8.00178E-14 9.34629E-14
 -1      3568 2.01200E+01 1.09546E-01 4.95314E-03 1.80638E+00 9.61433E-15 1.16479E-13
 -1      3569 1.97821E+01 6.89473E-02-7.86096E-03 1.95112E+00 6.61485E-14 5.33210E-13
 -1      3570 2.05130E+01-6.80486E-01 1.10627E-02 2.10372E+00 3.06541E-14 2.45785E-13
 -1      3571 2.08139E+01-1.04722E+00 7.14683E-03 2.10572E+00 2.97592E-15 2.63780E-13
 -1      3572 1.99562E+01-4.96686E-01-1.47618E-02 2.22102E+00 8.22143E-14 4.49322E-13
 -1      3573 2.28599E+01-4.75098E+00 2.13393E-02-3.77669E+00 1.05249E-13-3.98533E-13
 -1      3574 2.39977E+01-4.38976E+00-4.32286E-03-2.57175E+00-3.85560E-14-2.24980E-13
 -1      3575 1.14902E+01 5.30472E-01 2.70097E-02 9.80352E-01-2.77241E-13-5.01404E-13
 -1      3576 1.10288E+01 6.39756E-01 7.78494E-02-5.23563E-01-3.24657E-13-3.35836E-13
 -1      3577 1.80848E+01 1.29768E+00-1.17838E-04-4.21752E-01-5.87109E-14-2.35769E-13
 -1      3578 1.80311E+01 1.31128E+00-4.76521E-03-8.43649E-02 3.98449E-14-1.27617E-13
 -1      3579 2.00202E+01-1.79900E-02-7.50550E-03-1.24355E-01 4.55217E-14-9.06948E-14
 -1      3580 2.00283E+01-3.23499E-02-3.64191E-03-1.24872E-01 1.18753E-14-8.88820E-14
 -1      3581 2.00261E+01-1.50498E-02-8.40818E-03-1.12361E-01 2.79516E-14-5.05663E-14
 -1      3582 1.99597E+01 1.12012E+00-1.57545E-03-3.92372E-01-1.28727E-13-1.52860E-13
 -1      3583 1.98453E+01 2.17641E+00-3.37096E-03-1.27919E-01-5.18344E-14-3.48361E-13
 -1      3584 1.98356E+01 2.13825E+00-4.24451E-03-2.49082E-01-6.74705E-14-3.16592E-13
 -1      3585 1.99415E+01 1.82830E+00 5.44155E-03-2.50193E-01-6.45863E-14-3.08645E-13
 -1      3586 2.00023E+01 7.13184E-01-1.11644E-03-2.15903E-01-1.08847E-13-1.20080E-13
 -1      3587 1.99867E+01 5.60178E-01-3.21748E-03-1.15269E-01-8.77886E-14-1.14771E-13
 -1      3588 2.00452E+01 5.66347E-01 8.67990E-04-8.57558E-02-7.82871E-14-1.45242E-13
 -1      3589 2.11869E+01-1.44700E+00 2.83393E-02 2.16666E+00-1.17015E-13 2.44115E-13
 -1      3590 2.16740E+01-1.91927E+00 1.04027E-02 2.04158E+00 3.13014E-14 2.17178E-13
 -1      3591 2.04132E+01-1.30816E+00-2.73530E-02 2.46332E+00-2.61523E-14 5.09890E-13
 -1      3592 1.82325E+01-2.38211E+00-3.07588E-03 4.23614E+00-3.18478E-13 6.15084E-13
 -1      3593 1.59474E+01-1.22687E+00 5.06660E-02 3.96736E+00-1.58836E-13 5.26981E-13
 -1      3594 1.44816E+01-8.86130E-01 6.84965E-02-3.83862E+00-2.67028E-13 5.74846E-13
 -1      3595 1.65755E+01-2.04436E+00-3.10547E-02-4.40704E+00-1.74898E-13 3.70440E-13
 -1      3596 2.16105E+01-4.10863E+00 6.35253E-02-3.99057E+00-2.86542E-14-2.95593E-13
 -1      3597 1.15952E+01 5.17375E-01 3.62514E-02 5.54812E-01 3.26001E-13 1.34698E-13
 -1      3598 1.18810E+01 4.38767E-01 5.37074E-03-1.15437E+00 2.56228E-13-2.90566E-13
 -1      3599 1.31669E+01 6.14484E-01 8.06092E-02 9.25450E-01 2.01560E-13-4.33750E-14
 -1      3600 2.08419E+01-3.01872E+00 2.81464E-02-3.47817E+00-3.45314E-14-3.53078E-13
 -1      3601 2.01387E+01-2.31497E+00 3.14009E-02-3.42053E+00 1.08586E-13-2.46540E-13
 -1      3602 1.15740E+01 4.20047E-01 5.86315E-02-1.69781E+00-3.77951E-13-1.64743E-13
 -1      3603 1.28596E+01-1.80644E-01-5.31455E-03-3.04242E+00-3.89107E-13 2.55379E-13
 -1      3604 1.28736E+01 6.95527E-01 6.43675E-02-1.13572E+00-4.03537E-13-1.38400E-13
 -1      3605 1.88384E+01-2.70962E+00 9.28666E-02-4.25129E+00-2.09732E-13 4.00045E-14
 -1      3606 2.07409E+01-3.50785E+00-7.89797E-02-3.63157E+00-2.59168E-13-7.41629E-14
 -1      3607 1.29831E+01 9.28385E-02 6.77214E-02-2.51335E+00 1.64872E-13-3.49151E-13
 -1      3608 1.46386E+01-8.71955E-01 1.59139E-02-3.77719E+00 5.19203E-14-4.10935E-13
 -1      3609 1.97457E+01 7.70445E-01-4.88261E-03 1.43096E+00-7.38225E-15 1.31165E-13
 -1      3610 1.99223E+01 6.71627E-01 1.97279E-03 1.44450E+00-1.14144E-13 9.01662E-14
 -1      3611 1.99586E+01 5.68653E-01 2.11832E-03 1.52469E+00-6.87187E-14 1.18508E-13
 -1      3612 1.95704E+01 7.21963E-01-2.11427E-03 1.51602E+00 1.04487E-13 2.85114E-13
 -1      3613 2.02376E+01 3.17322E-01-2.09972E-03 5.30567E-02 8.05707E-14-1.12043E-13
 -1      3614 2.02711E+01 4.26123E-01 3.31349E-03 1.28069E-01 1.04060E-13-1.29592E-13
 -1      3615 1.78254E+01-2.38935E+00 5.63357E-02 4.31184E+00 1.36278E-13-4.98820E-13
 -1      3616 1.99762E+01 1.35520E+00-6.09636E-03-3.86962E-01-1.03743E-13-2.14250E-13
 -1      3617 2.00101E+01 9.58037E-01 4.74644E-03-2.81335E-01-1.08696E-13-1.50682E-13
 -1      3618 2.00414E+01 9.38972E-01-6.24183E-04-2.21349E-01-9.36519E-14-1.65421E-13
 -1      3619 1.99824E+01 1.45672E+00-2.21025E-03-3.13389E-01-7.84610E-14-2.59716E-13
 -1      3620 2.02705E+01 5.28976E-01-2.42268E-03 1.93311E-01 1.10024E-13-1.59687E-13
 -1      3621 2.02932E+01 6.47281E-01-9.69439E-05 2.88369E-01 1.21385E-13-1.72354E-13
 -1      3622 2.02914E+01 5.35204E-01-2.32951E-03 1.71084E-01 8.13718E-14-1.47263E-13
 -1      3623 2.02788E+01 1.13367E+00-5.18118E-03 5.27627E-01 1.47414E-13-2.28848E-13
 -1      3624 2.02473E+01 1.27728E+00 1.02048E-05 4.89207E-01 1.06587E-13-2.37228E-13
 -1      3625 1.21856E+01 5.17634E-01 1.05030E-01 1.74090E+00-1.96184E-13-6.64538E-13
 -1      3626 1.27044E+01 7.57531E-01 2.74545E-02 8.23738E-01-3.68279E-13-4.28928E-13
 -1      3627 1.31589E+01 1.39031E-01 4.22437E-02 2.45014E+00-7.95437E-14-6.38802E-13
 -1      3628 2.12348E+01-2.59692E+00-1.57414E-02 2.87506E+00-1.00996E-13 4.33018E-13
 -1      3629 2.29813E+01-3.59170E+00 9.37709E-02-2.48528E+00-1.42828E-13 1.84159E-13
 -1      3630 2.41475E+01-3.67948E+00-8.06030E-02-1.30316E+00 2.22379E-14 4.25723E-13
 -1      3631 2.01187E+01-1.72677E-03 9.29447E-05-1.20866E-01 7.16991E-14-8.05538E-14
 -1      3632 2.01369E+01 2.50636E-02 1.34395E-03-1.10665E-01 6.08411E-14-4.97543E-14
 -1      3633 2.01489E+01-6.31196E-03-5.90168E-04-1.08767E-01 7.72882E-14-7.62365E-14
 -1      3634 1.68984E+01-8.05413E-01 2.38430E-02 3.32758E+00 3.87433E-14 6.14535E-13
 -1      3635 1.53222E+01-5.99322E-01 4.86571E-02 3.46889E+00 4.37810E-14 2.43293E-13
 -1      3636 1.47856E+01 1.82178E-02-6.74251E-03 2.58020E+00-7.89733E-15 9.04121E-14
 -1      3637 1.99639E+01 1.90162E+00 5.01687E-03-5.83762E-02-3.66189E-14-3.28073E-13
 -1      3638 1.88249E+01-1.87374E+00-1.56419E-03-3.70887E+00 9.75548E-14-2.69233E-13
 -1      3639 1.96539E+01 3.83213E-01 4.55020E-03-1.89108E+00 2.29720E-13-1.02895E-13
 -1      3640 1.96627E+01 5.15945E-01 2.05913E-04-1.77891E+00 1.93530E-13-8.32329E-14
 -1      3641 1.94854E+01 6.11050E-01 1.99629E-03-1.74277E+00 1.82601E-13-1.30096E-13
 -1      3642 1.92328E+01 4.20750E-01 3.86224E-03-1.96410E+00 1.19059E-13 4.35055E-14
 -1      3643 2.00550E+01-3.63640E-02-2.15021E-03-1.16498E-01 5.28528E-14-1.35797E-13
 -1      3644 2.42123E+01-3.07428E+00-1.10571E-02-6.24175E-01 6.55318E-14 4.23897E-13
 -1      3645 2.35837E+01-2.85110E+00 6.90168E-02-1.14021E+00-7.18078E-14 4.15497E-13
 -1      3646 2.24514E+01-3.11898E+00-6.94375E-02-2.04784E+00-1.67848E-13 2.45042E-13
 -1      3647 1.80924E+01-1.87938E+00 5.39034E-02-3.78691E+00-1.81665E-13 1.15586E-13
 -1      3648 2.27378E+01-3.50115E+00 8.56447E-02-2.80832E+00-9.66068E-14-3.74456E-13
 -1      3649 2.00214E+01 4.58752E-01 2.68592E-03 1.58881E+00-3.02500E-14 5.65590E-14
 -1      3650 2.02272E+01 2.30855E-01 2.98518E-03 3.03137E-03 7.35221E-14-1.17937E-13
 -1      3651 2.02667E+01 3.20132E-01-2.24731E-03 4.59893E-02 8.38846E-14-1.42331E-13
 -1      3652 2.01964E+01 1.59288E-01-1.29525E-03-4.18972E-02 6.12078E-14-9.08311E-14
 -1      3653 1.37415E+01 4.27376E-01 7.21847E-02-1.70067E+00 2.88548E-13-1.62054E-13
 -1      3654 1.97631E+01 4.76862E-01 5.94779E-04 1.68007E+00-2.64423E-15 1.65247E-13
 -1      3655 2.01529E+01 1.68396E+00 5.75537E-03 4.94855E-01 7.60600E-14-2.86243E-13
 -1      3656 1.77510E+01 1.25128E+00 7.33620E-03 1.41973E-01 1.77643E-13-1.46173E-13
 -1      3657 1.80630E+01 1.28232E+00-7.03459E-03 3.21848E-01 2.45620E-13-7.97810E-14
 -1      3658 1.81816E+01 1.23646E+00 3.13569E-03 6.51646E-01 3.73458E-13-4.96784E-15
 -1      3659 1.48380E+01-2.71512E-01 7.36495E-02-3.05230E+00-2.84937E-13 3.26808E-13
 -1      3660 1.59929E+01-1.19491E+00 8.31710E-02-3.98924E+00 1.64162E-13-4.75585E-13
 -1      3661 1.74673E+01-1.70330E+00 2.28294E-02-3.95194E+00 6.06919E-14-3.28841E-13
 -1      3662 1.57480E+01-5.16566E-01 5.39031E-03-3.25640E+00 1.71499E-13-4.84997E-13
 -1      3663 2.01422E+01 1.53416E+00-4.00782E-03 3.22895E-01 2.88787E-14-3.03212E-13
 -1      3664 2.01112E+01 1.59088E+00-1.97340E-03 2.39315E-01 1.47153E-14-2.66348E-13
 -1      3665 1.89024E+01 8.31084E-01-9.45526E-03 1.44968E+00 2.57455E-13 3.17165E-13
 -1      3666 1.91737E+01 7.36700E-01 8.17020E-03 1.57334E+00 1.64105E-13 3.60275E-13
 -1      3667 1.84284E+01 1.14812E+00 9.32392E-03-1.08388E+00 3.00800E-14-8.27719E-14
 -1      3668 1.82195E+01 1.20959E+00-9.52376E-03-7.98668E-01-6.81172E-15-2.22257E-13
 -1      3669 1.78814E+01 1.19694E+00 7.87352E-03-6.72720E-01-3.63995E-14-1.82536E-13
 -1      3670 2.00818E+01 1.62273E+00-3.26144E-03 1.68548E-01 2.27595E-14-2.84721E-13
 -1      3671 2.00569E+01 1.64095E+00-2.56128E-03 7.75473E-02 7.73011E-15-3.12851E-13
 -1      3672 2.01736E+01 1.37016E+00 4.21370E-03 1.71455E-01 2.02124E-14-2.78363E-13
 -1      3673 2.17689E+01-3.06835E+00 3.11820E-02-2.71104E+00-2.26210E-13 7.72702E-14
 -1      3674 2.03682E+01-3.49792E+00 1.03259E-02-4.06392E+00-6.24535E-14-2.59104E-13
 -1      3675 1.92956E+01 7.04287E-01-5.94318E-03-1.67469E+00 1.46713E-13-4.02904E-13
 -1      3676 1.83697E+01 1.10252E+00-1.08306E-02 9.87193E-01 4.36736E-13 1.10156E-13
 -1      3677 1.86202E+01 1.00981E+00 8.29424E-03 1.23771E+00 2.89990E-13 2.51800E-13
 -1      3678 1.85731E+01 8.07558E-01-2.02555E-03 1.46810E+00 2.37691E-13 3.60295E-13
 -1      3679 1.80268E+01 1.10091E+00 7.89461E-03 9.11953E-01 4.49100E-13-1.08016E-14
 -1      3680 1.89796E+01 8.70067E-01 7.11170E-03-1.54146E+00 3.40130E-14-4.51308E-13
 -1      3681 1.86713E+01 9.79344E-01-1.24215E-02-1.35959E+00-3.39501E-14-2.50918E-13
 -1      3682 1.83000E+01 9.76070E-01-5.05640E-03-1.33618E+00 8.68201E-14-1.81580E-13
 -1      3683 1.89856E+01 6.66993E-01-4.37818E-03-1.72981E+00 9.30531E-14-2.36330E-13
 -1      3684 1.83523E+01-1.74538E+00 5.74948E-02 3.62593E+00 6.65128E-14-4.99754E-13
 -1      3685 1.62446E+01-1.71731E+00 4.05706E-02 4.30253E+00 1.11848E-13-4.71883E-13
 -1      3686 1.50093E+01-8.45146E-01-1.59373E-03 3.61784E+00 4.03878E-14-5.70859E-13
 -1      3687 1.80044E+01-1.25035E+00 1.73022E-03 3.32098E+00 9.05083E-14-4.44565E-13
 -1      3688 2.02942E+01 9.50753E-01 2.07988E-03 4.95777E-01 1.58497E-13-1.90263E-13
 -1      3689 2.02964E+01 8.16512E-01 2.10470E-03 3.71567E-01 1.37544E-13-1.99353E-13
 -1      3690 2.02116E+01 1.37212E+00-4.84802E-03 4.50065E-01 7.40706E-14-2.59474E-13
 -1      3691 2.01774E+01 1.47020E+00-1.26093E-03 3.82070E-01 3.72223E-14-2.76495E-13
 -1      3692 2.02262E+01 1.27144E+00 4.14890E-03 2.88550E-01 3.01251E-14-2.69447E-13
 -1      3693 2.02755E+01 1.10603E+00 3.75399E-03 3.72897E-01 8.46329E-14-2.18131E-13
 -1      3694 2.00937E+01 6.94302E-01 4.40326E-03-1.15603E-01-7.97784E-14-1.52432E-13
 -1      3695 2.00854E+01 5.35088E-01-2.46668E-03-4.36494E-02-5.60499E-14-1.56036E-13
 -1      3696 2.00780E+01 2.09558E-01 1.29011E-03 7.87483E-02-7.60479E-14-1.11814E-13
 -1      3697 2.00613E+01 1.36849E-01-9.24960E-04 1.08665E-01-8.13429E-14-8.71858E-14
 -1      3698 2.00490E+01 8.01689E-02 9.78279E-04 1.25917E-01-6.67189E-14-8.18903E-14
 -1      3699 2.00318E+01 3.49810E-02-3.87645E-04 1.43063E-01-5.71113E-14-9.08073E-14
 -1      3700 2.01068E+01 1.28760E-01-1.45056E-04 1.04344E-01-6.55728E-14-1.46631E-13
 -1      3701 2.00151E+01 1.77984E-03 6.48839E-04 1.51914E-01-4.83158E-14-8.34389E-14
 -1      3702 1.99991E+01-2.23898E-02-3.71134E-05 1.60823E-01-5.35049E-14-9.66971E-14
 -1      3703 2.00740E+01 2.94209E-02-3.57110E-04 1.32874E-01-6.51817E-14-1.44013E-13
 -1      3704 1.99803E+01-3.75002E-02 3.27897E-04 1.64493E-01-5.09277E-14-6.71939E-14
 -1      3705 1.99656E+01-4.53087E-02 1.06451E-04 1.68663E-01-4.37357E-14-4.65970E-14
 -1      3706 2.00367E+01-2.45605E-02-4.48095E-04 1.47754E-01-3.69694E-14-1.07773E-13
 -1      3707 1.99459E+01-4.61268E-02 6.00251E-05 1.69490E-01-7.41913E-14-2.39356E-14
 -1      3708 1.99320E+01-4.09356E-02 2.15870E-04 1.71048E-01-6.40604E-14-3.57628E-14
 -1      3709 1.99977E+01-4.34117E-02-4.50256E-04 1.54315E-01-4.00656E-14-2.77496E-14
 -1      3710 1.99121E+01-3.05327E-02 1.29587E-05 1.70446E-01-8.42851E-14-6.05944E-14
 -1      3711 1.98988E+01-1.55251E-02 7.90008E-04 1.70377E-01-8.16099E-14-1.07631E-13
 -1      3712 1.99584E+01-3.51451E-02-3.83504E-04 1.56153E-01-9.68816E-14-1.57294E-14
 -1      3713 1.98793E+01 2.86208E-03 8.90204E-04 1.69574E-01-8.31741E-14-1.26497E-13
 -1      3714 1.98678E+01 2.45334E-02 3.50322E-03 1.69124E-01-9.08334E-14-1.62528E-13
 -1      3715 1.99192E+01-6.64260E-03 4.07619E-05 1.55902E-01-1.03609E-13-9.36228E-14
 -1      3716 1.98485E+01 4.72185E-02 3.98167E-03 1.69813E-01-6.20244E-14-1.32333E-13
 -1      3717 1.98409E+01 7.18377E-02 9.25691E-03 1.71889E-01-8.52248E-14-1.48839E-13
 -1      3718 1.98813E+01 3.64184E-02 1.76056E-03 1.56708E-01-7.48551E-14-1.26952E-13
 -1      3719 1.98236E+01 9.87069E-02 1.30894E-02 1.78487E-01-9.17226E-14-1.48592E-13
 -1      3720 1.98221E+01 1.30859E-01 2.44758E-02 1.88561E-01-1.08937E-13-1.45613E-13
 -1      3721 1.98456E+01 8.99265E-02 7.12567E-03 1.64386E-01-7.59787E-14-1.63404E-13
 -1      3722 1.98000E+01 1.61963E-01 2.85462E-02 2.00189E-01-2.42723E-14-3.37464E-14
 -1      3723 1.97995E+01 1.97126E-01 3.32015E-02 2.12365E-01 5.38606E-14-2.98372E-16
 -1      3724 1.98106E+01 1.57801E-01 1.93245E-02 1.84195E-01 4.57425E-15-1.02369E-13
 -1      3725 1.97872E+01 2.35848E-01 4.09557E-02 2.29516E-01-4.72712E-15-1.96180E-14
 -1      3726 1.97835E+01 2.65642E-01 2.56191E-02 2.55297E-01-5.60073E-14 4.59849E-14
 -1      3727 1.97818E+01 2.27766E-01 3.76135E-02 2.14232E-01 4.68375E-15 1.09374E-14
 -1      3728 1.97703E+01 2.99182E-01 5.03750E-03 2.74766E-01-5.25240E-14 7.64701E-14
 -1      3729 1.97629E+01 3.33675E-01-3.10126E-02 3.00095E-01-2.75058E-14 1.28376E-13
 -1      3730 1.97500E+01 3.28747E-01 4.29046E-02 2.56263E-01 1.79579E-14 4.51063E-14
 -1      3731 1.97096E+01 3.84907E-01-5.49433E-02 3.30182E-01-3.90035E-14 1.64077E-13
 -1      3732 1.96937E+01 4.50054E-01-3.48382E-02 3.72031E-01-3.65888E-14 1.21455E-13
 -1      3733 1.96931E+01 3.93016E-01-9.83273E-03 2.91007E-01-2.34812E-14 1.26356E-13
 -1      3734 1.96429E+01 5.06375E-01-2.62002E-02 4.13138E-01-1.12852E-13 3.53190E-14
 -1      3735 1.95960E+01 5.59624E-01-1.34226E-02 4.74225E-01-8.73256E-14-3.53185E-14
 -1      3736 1.95928E+01 5.27829E-01-1.88515E-02 3.51403E-01-1.00708E-13 2.12556E-14
 -1      3737 1.95161E+01 6.11508E-01-1.04243E-02 5.30364E-01-1.82757E-14-1.43375E-14
 -1      3738 1.94569E+01 6.62207E-01-3.01678E-03 5.99043E-01 9.50803E-15 5.76026E-15
 -1      3739 1.94591E+01 6.43238E-01-7.10567E-03 4.43173E-01-5.07355E-14 9.46201E-14
 -1      3740 1.93522E+01 7.06384E-01-4.98674E-03 6.66077E-01 6.83559E-14-1.10985E-14
 -1      3741 1.92814E+01 7.47776E-01 3.14368E-04 7.45004E-01 7.31730E-14-3.35261E-14
 -1      3742 1.92798E+01 7.50295E-01 6.87152E-04 5.58624E-01 3.48211E-14 6.93551E-14
 -1      3743 1.91521E+01 7.78492E-01-4.47872E-03 8.25617E-01 5.18798E-14-1.00015E-13
 -1      3744 1.90717E+01 8.02751E-01 1.57754E-03 9.18531E-01-1.32675E-14-1.45356E-13
 -1      3745 1.90549E+01 8.40702E-01 3.61954E-03 6.96149E-01 1.95068E-14-7.26367E-14
 -1      3746 1.89155E+01 8.09254E-01-5.46106E-03 1.01832E+00-6.95702E-14-1.12483E-13
 -1      3747 1.88309E+01 8.03611E-01 2.99031E-03 1.13052E+00-1.26981E-13-1.00861E-13
 -1      3748 1.87809E+01 8.99170E-01 4.71083E-03 8.64283E-01-5.22926E-14-4.05036E-15
 -1      3749 1.86458E+01 7.69610E-01-6.95711E-03 1.25898E+00-1.29649E-13-9.45465E-14
 -1      3750 1.85695E+01 7.15529E-01 5.65297E-03 1.39903E+00-7.99780E-14-1.96995E-14
 -1      3751 1.84539E+01 9.01894E-01 5.30943E-03 1.07837E+00-8.29816E-14-4.61350E-15
 -1      3752 1.83554E+01 6.17604E-01-8.69400E-03 1.57276E+00-7.38245E-14-1.73437E-14
 -1      3753 1.83131E+01 4.87407E-01 1.04981E-02 1.75392E+00-5.81441E-15-6.27682E-14
 -1      3754 1.80724E+01 8.15212E-01 5.76997E-03 1.36485E+00-1.04597E-13-6.22116E-14
 -1      3755 1.80788E+01 2.89782E-01-9.82661E-03 1.99895E+00-1.74139E-15-1.35796E-13
 -1      3756 1.81186E+01 4.37627E-02 1.92659E-02 2.23690E+00 1.10017E-14-2.17553E-13
 -1      3757 1.76420E+01 5.87090E-01 5.79312E-03 1.77123E+00-8.08939E-14-1.91327E-13
 -1      3758 1.79097E+01-2.93797E-01-8.65147E-03 2.57203E+00 3.15006E-14-2.42057E-13
 -1      3759 1.81143E+01-7.08938E-01 3.16350E-02 2.87416E+00 6.48780E-14-3.41588E-13
 -1      3760 1.69071E+01-6.13489E-01 1.63653E-02 3.16305E+00 2.99673E-15-3.32994E-13
 -1      3761 1.72157E+01 1.46986E-01 6.86915E-03 2.34782E+00-2.43056E-15-2.29926E-13
 -1      3762 2.02976E+01 8.32605E-01 1.80278E-03 3.25467E-01 1.00798E-13-1.83183E-13
 -1      3763 1.99520E+01 1.70605E-01 1.41730E-03-1.84419E-01-5.86680E-14 1.68509E-14
 -1      3764 1.99625E+01 1.33365E-01-1.01756E-03-1.64123E-01-7.31491E-14 1.80227E-15
 -1      3765 2.07408E+01-2.88385E+00 8.49693E-03 3.36027E+00-7.98389E-14 4.60422E-13
 -1      3766 1.95235E+01-2.64802E+00 6.51486E-02 4.01448E+00-2.14467E-13 5.24955E-13
 -1      3767 1.88398E+01 5.75990E-01 6.25532E-04-1.82926E+00 6.09968E-14-1.87766E-13
 -1      3768 1.84796E+01 1.25085E-01 1.18374E-02-2.29094E+00 1.67873E-13-2.99169E-13
 -1      3769 1.84973E+01 3.77080E-01-7.88914E-03-2.06716E+00 8.17950E-14-2.65413E-13
 -1      3770 2.00018E+01 1.58486E+00-2.29316E-03-1.67468E-01-4.18218E-14-2.96487E-13
 -1      3771 1.99895E+01 1.52482E+00-4.84117E-03-2.51395E-01-6.20539E-14-2.87127E-13
 -1      3772 2.00597E+01 1.25531E+00 6.20895E-03-2.24548E-01-6.71906E-14-2.41791E-13
 -1      3773 2.01339E+01-4.22411E-02 7.16348E-04-1.01307E-01 6.12486E-14-8.34051E-14
 -1      3774 2.01510E+01-3.09878E-02 7.62181E-04-9.84564E-02 7.69788E-14-8.16032E-14
 -1      3775 1.99871E+01 9.65747E-02-5.86596E-04-1.49978E-01-5.66792E-14-1.47772E-14
 -1      3776 1.99967E+01 5.35550E-02-6.28228E-03-1.36280E-01-2.38472E-14-9.37102E-14
 -1      3777 1.99552E+01 1.28984E-01-9.39577E-04-1.42332E-01-1.17555E-13-3.61733E-15
 -1      3778 2.00198E+01 2.07626E-02-5.94484E-03-1.20335E-01 7.54952E-15-1.08690E-13
 -1      3779 2.00164E+01 2.34094E-03-1.00690E-02-1.04550E-01 2.46799E-14-5.29785E-14
 -1      3780 1.99979E+01 5.49803E-02-3.50280E-03-1.15657E-01-4.13341E-14-5.55989E-14
 -1      3781 1.99085E+01 2.49452E-01 1.00166E-03-2.38432E-01-5.57177E-15 6.13599E-14
 -1      3782 1.99234E+01 2.08390E-01-7.37185E-04-2.07564E-01-1.42080E-14 7.47146E-14
 -1      3783 1.99064E+01 2.12256E-01 4.45252E-04-1.78003E-01-7.41378E-14-1.51051E-15
 -1      3784 1.98562E+01 3.33019E-01-1.53996E-04-3.12380E-01 8.19754E-15 7.19595E-14
 -1      3785 1.98741E+01 2.90501E-01-1.93755E-03-2.71961E-01 2.32620E-14 5.85451E-14
 -1      3786 1.98478E+01 3.01107E-01-2.01196E-04-2.33150E-01 2.56246E-14 2.34222E-14
 -1      3787 1.97966E+01 4.14908E-01-8.24797E-04-4.04205E-01-1.10854E-14 6.79968E-15
 -1      3788 1.98166E+01 3.73531E-01-3.19232E-03-3.55152E-01 6.45886E-15 6.35136E-14
 -1      3789 1.97787E+01 3.92974E-01-1.01853E-03-3.08580E-01 5.07829E-15 6.75371E-14
 -1      3790 1.97221E+01 4.93074E-01-1.01991E-03-5.11613E-01-1.74669E-14-8.15915E-14
 -1      3791 1.97477E+01 4.53322E-01-3.86196E-03-4.54260E-01 2.60866E-14-5.54126E-14
 -1      3792 1.96966E+01 4.79651E-01-2.77908E-03-3.98252E-01 5.84702E-14-5.65329E-14
 -1      3793 1.96315E+01 5.65787E-01 9.49035E-04-6.39025E-01-1.00802E-13-3.13359E-14
 -1      3794 1.96610E+01 5.29834E-01-3.17942E-03-5.71193E-01-6.13556E-14-7.11049E-14
 -1      3795 1.95927E+01 5.67625E-01-2.83959E-04-5.02950E-01-5.78574E-14-1.76013E-13
 -1      3796 1.95241E+01 6.20386E-01 1.86924E-03-7.89370E-01-1.73040E-13-4.87118E-14
 -1      3797 1.95572E+01 5.94774E-01-2.74612E-03-7.10442E-01-1.18399E-13-4.30537E-14
 -1      3798 1.94643E+01 6.45898E-01 1.99631E-03-6.28691E-01-1.14771E-13-4.11347E-14
 -1      3799 1.94051E+01 6.40452E-01 2.67922E-03-9.66992E-01-2.06424E-13 1.08812E-14
 -1      3800 1.94370E+01 6.34413E-01-3.09771E-03-8.75474E-01-2.13735E-13-3.50268E-14
 -1      3801 1.93103E+01 7.03868E-01 2.52279E-03-7.80080E-01-1.97658E-13-9.36212E-14
 -1      3802 1.92864E+01 6.00024E-01 4.02751E-03-1.17781E+00 5.25300E-14 2.68385E-14
 -1      3803 1.93080E+01 6.27674E-01-3.48005E-03-1.07192E+00-5.39734E-14 4.85421E-14
 -1      3804 1.91336E+01 7.23009E-01 2.27315E-03-9.64879E-01-1.64319E-13-1.23746E-13
 -1      3805 1.91922E+01 4.62231E-01 6.33672E-03-1.42971E+00 5.58767E-14 4.16170E-14
 -1      3806 1.91865E+01 5.43356E-01-3.56100E-03-1.30741E+00 6.44692E-14 1.49769E-14
 -1      3807 1.89431E+01 6.75014E-01 1.39979E-03-1.19442E+00 3.73510E-14-1.38889E-13
 -1      3808 1.91667E+01 1.78018E-01 1.03580E-02-1.73166E+00-8.22978E-14 1.94957E-13
 -1      3809 1.91042E+01 3.38376E-01-2.95435E-03-1.59206E+00 1.35315E-14 1.65462E-13
 -1      3810 1.87589E+01 5.20122E-01-4.42409E-04-1.48502E+00-6.11689E-14 2.31422E-14
 -1      3811 1.92892E+01-3.17905E-01 1.64802E-02-2.08898E+00-1.19451E-13 2.54482E-13
 -1      3812 1.91200E+01-4.57496E-02-8.53143E-04-1.93844E+00-6.23852E-14 2.49235E-13
 -1      3813 1.86199E+01 2.06870E-01-2.64863E-03-1.86396E+00-9.93070E-14 1.23401E-13
 -1      3814 1.96932E+01-1.09825E+00 2.55226E-02-2.48409E+00-1.46836E-13 6.13429E-14
 -1      3815 1.93395E+01-6.82315E-01 3.44549E-03-2.34373E+00-1.60007E-13 2.08997E-13
 -1      3816 1.86098E+01-3.41141E-01-2.74317E-03-2.36171E+00-9.41526E-14 1.89488E-13
 -1      3817 2.09877E+01-2.60001E+00 6.83930E-02-2.97574E+00-2.62993E-13-1.88757E-14
 -1      3818 1.94053E+01 3.45181E-01 4.39748E-03 1.86160E+00 1.51863E-13 4.56542E-13
 -1      3819 1.94399E+01 1.21462E-01 8.98584E-03 2.00125E+00 1.63976E-13 4.97881E-13
 -1      3820 1.93830E+01-1.46297E-01 1.09175E-03 2.20997E+00 8.80415E-14 4.18018E-13
 -1      3821 1.95438E+01-4.59739E-01 1.57914E-02 2.35268E+00 9.45004E-14 4.54158E-13
 -1      3822 1.89327E+01 1.33850E-01-1.85565E-03 2.12082E+00 5.01218E-14 4.78814E-13
 -1      3823 1.95450E+01 5.54287E-01-2.25359E-03 1.65206E+00 5.40293E-14 3.67885E-13
 -1      3824 2.00950E+01 4.06091E-01 1.48594E-03 1.40227E-03-5.75471E-14-1.50453E-13
 -1      3825 2.00821E+01 2.97331E-01-1.61540E-03 4.92315E-02-7.82927E-14-1.24437E-13
 -1      3826 2.01315E+01 5.21489E-01 2.12740E-04-2.06269E-02-6.10535E-14-1.47255E-13
 -1      3827 2.00351E+01 1.64076E+00-2.65628E-03 3.34676E-03-1.54210E-14-3.16595E-13
 -1      3828 2.00180E+01 1.62088E+00-3.26746E-03-8.76839E-02-3.02690E-14-3.21697E-13
 -1      3829 2.01274E+01 1.40391E+00 4.82542E-03 3.79431E-02 1.21329E-14-2.89665E-13
 -1      3830 1.74529E+01-1.17545E+00 4.28908E-02-3.47021E+00-1.94164E-13 8.66668E-14
 -1      3831 1.90185E+01-2.09149E+00-6.00991E-02-3.47988E+00-1.85352E-13-1.27507E-13
 -1      3832 1.80132E+01-1.01714E+00-1.86325E-02-3.29074E+00 2.33718E-13-2.83838E-13
 -1      3833 2.00641E+01-3.22774E-02-1.84261E-03-1.01679E-01 4.93007E-14-9.24881E-14
 -1      3834 2.00781E+01-4.18690E-02-5.87506E-04-1.01973E-01 3.94771E-14-8.81062E-14
 -1      3835 1.83151E+01-5.40250E-01 2.57741E-02-2.87177E+00 3.04735E-13-3.00167E-13
 -1      3836 1.81946E+01-1.77182E-01-1.05419E-02-2.57835E+00 2.70997E-13-3.54551E-13
 -1      3837 1.76337E+01 1.93069E-01-1.59152E-02-2.33967E+00 2.16744E-13-2.25132E-13
 -1      3838 1.70999E+01-4.17543E-01 1.92181E-02-3.03674E+00 2.57622E-13-3.18989E-13
 -1      3839 2.01554E+01 5.87924E-02-5.95123E-04-9.58767E-02 5.25849E-14-9.90979E-14
 -1      3840 2.01794E+01 1.04098E-01 1.92005E-03-7.19583E-02 5.21079E-14-8.50865E-14
 -1      3841 2.01883E+01 5.63157E-02-7.61788E-04-8.60699E-02 4.53180E-14-1.12257E-13
 -1      3842 1.95718E+01-8.39079E-01 5.56149E-03 2.60792E+00-2.92350E-14 4.86378E-13
 -1      3843 1.99046E+01-1.31129E+00 1.23383E-02 2.75069E+00-7.73192E-14 4.21566E-13
 -1      3844 1.88835E+01-4.94732E-01-2.21481E-03 2.62295E+00 6.04000E-14 5.02796E-13
 -1      3845 1.46944E+01 2.96620E-01 3.98686E-02-2.40715E+00-3.50709E-13 1.96586E-13
 -1      3846 1.59168E+01-5.23708E-01-2.15603E-02-3.19980E+00-2.17992E-13 2.73316E-13
 -1      3847 1.39902E+01 8.23913E-01 4.32924E-02-8.86056E-01 3.28810E-13-9.43134E-14
 -1      3848 1.47745E+01 3.48364E-01-8.75121E-03-2.08880E+00 3.11379E-13-3.63234E-13
 -1      3849 1.86393E+01-1.86141E+00 1.35600E-02 3.71140E+00-3.59495E-14 6.73465E-13
 -1      3850 1.38717E+01 5.88983E-01 1.35505E-02 1.49607E+00-1.16919E-14-2.84099E-13
 -1      3851 1.35213E+01 7.74062E-01-1.43064E-02 2.73751E-01 3.05656E-13-2.83874E-13
 -1      3852 2.00335E+01-8.95432E-03-6.90075E-03-1.00340E-01 1.17475E-14-4.22869E-14
 -1      3853 2.00448E+01-2.12549E-02-4.35038E-03-1.01305E-01 3.34422E-14-6.40315E-14
 -1      3854 2.00308E+01 1.13891E-03-5.32225E-03-9.43679E-02 3.61412E-14-3.41608E-14
 -1      3855 2.00983E+01-4.70829E-02 2.54947E-04-1.02412E-01 3.02233E-14-4.77873E-14
 -1      3856 2.01131E+01-4.73184E-02 5.70151E-04-1.01552E-01 5.96279E-14-2.19663E-14
 -1      3857 2.01026E+01-4.41563E-02-8.88947E-04-8.72137E-02 6.34254E-14-4.23529E-14
 -1      3858 1.33178E+01 9.29236E-01 3.18167E-02-3.90113E-01-4.46763E-13-1.93292E-13
 -1      3859 1.37098E+01 6.68678E-01-1.85046E-02-1.49148E+00-4.69664E-13-3.26163E-14
 -1      3860 2.02182E+01-1.99743E+00 3.35216E-02-2.86111E+00-2.00343E-13 5.03159E-14
 -1      3861 1.92069E+01-1.55112E+00-2.34521E-02 3.18852E+00-3.32377E-14 5.25391E-13
 -1      3862 1.83893E+01-1.13161E+00 4.32723E-02 3.29487E+00-2.56331E-14 6.92481E-13
 -1      3863 1.37570E+01 8.90650E-01 1.99347E-02 9.45127E-01-3.24927E-13-3.45821E-13
 -1      3864 1.34126E+01 9.76673E-01 3.02799E-02 1.77518E-01-4.46928E-13-1.73070E-13
 -1      3865 1.43538E+01 1.02423E+00 2.22617E-02-1.56046E-01-5.34261E-13-1.39577E-13
 -1      3866 2.01716E+01-1.32911E-02 8.13606E-05-9.51559E-02 9.99928E-14-8.96589E-14
 -1      3867 2.01921E+01 1.28272E-02 9.78174E-04-8.69422E-02 9.00478E-14-8.16338E-14
 -1      3868 2.01851E+01-1.77705E-02-4.69780E-04-7.96298E-02 8.11655E-14-1.08928E-13
 -1      3869 2.02916E+01 9.08433E-01-2.66965E-03 3.10899E-01 9.40452E-14-1.95248E-13
 -1      3870 2.02755E+01 1.01004E+00 5.98332E-04 2.87246E-01 7.45013E-14-2.31144E-13
 -1      3871 2.03066E+01 7.51717E-01 3.33696E-03 2.38538E-01 7.11194E-14-1.70699E-13
 -1      3872 1.75789E+01-6.13578E-01-1.74323E-02 2.95837E+00 8.31219E-14 5.55598E-13
 -1      3873 2.01294E+01 2.87152E-01 2.23876E-04 5.54504E-02-5.48814E-14-1.20759E-13
 -1      3874 2.00895E+01 1.36827E+00 5.95849E-03-1.02045E-01-2.31488E-14-2.90713E-13
 -1      3875 1.47398E+01 8.80964E-01 4.76953E-02-2.79355E-01 1.60738E-13-1.97125E-13
 -1      3876 1.83082E+01 6.67135E-01 9.24313E-03-1.79216E+00 1.01165E-13-2.89352E-13
 -1      3877 1.40199E+01 1.46571E-02 6.21770E-02 2.82398E+00-2.64615E-14-5.65128E-13
 -1      3878 1.37508E+01 5.00327E-01-2.05874E-02 1.87185E+00-1.74743E-13-4.62073E-13
 -1      3879 1.43638E+01 7.82052E-01 9.51782E-03 1.29342E+00-2.41044E-13-2.88439E-13
 -1      3880 1.56343E+01-2.93176E-01 3.88874E-02 2.98677E+00-4.31009E-14-5.17137E-13
 -1      3881 1.52335E+01 3.86431E-01 3.61421E-02 1.95443E+00-2.69047E-14-3.94832E-14
 -1      3882 2.01431E+01-4.35059E-02-4.03284E-04-8.55166E-02 1.92801E-14-2.65395E-14
 -1      3883 1.96350E+01-1.43942E+00 1.40314E-02-2.77224E+00-1.40681E-13 9.09212E-14
 -1      3884 1.86020E+01-1.04717E+00-1.26295E-02-2.91862E+00-1.24875E-13-2.85067E-15
 -1      3885 1.72288E+01-5.97290E-01 3.11535E-02-2.95250E+00-1.75030E-13 6.43630E-14
 -1      3886 2.02289E+01 1.60628E-01-1.02664E-03-3.79306E-02 6.26844E-14-1.75504E-13
 -1      3887 2.00765E+01 9.01781E-01-3.21812E-03-1.64898E-01-7.24755E-14-1.92930E-13
 -1      3888 2.02355E+01-1.92156E+00 1.23373E-02 3.00094E+00 2.09902E-16 4.71823E-13
 -1      3889 1.72882E+01 1.19897E+00-5.21021E-03-3.75222E-02 7.36588E-14-2.41305E-13
 -1      3890 1.73370E+01 1.17353E+00-2.06879E-03 3.77661E-01 3.70050E-13-2.56886E-13
 -1      3891 1.55083E+01 2.37698E-01 6.11038E-02-2.47078E+00 2.79661E-13-5.25503E-13
 -1      3892 1.63845E+01-2.04792E-01 8.16128E-03-2.78827E+00 3.07498E-13-4.55596E-13
 -1      3893 1.67341E+01 1.65089E-01 2.75881E-04-2.40278E+00 2.65760E-13-3.26433E-13
 -1      3894 1.55654E+01 5.82336E-01-4.02247E-03-1.77516E+00 3.59845E-13-4.07241E-13
 -1      3895 1.73522E+01 1.16884E+00-1.06071E-02-5.57623E-01-7.91392E-15-1.56923E-13
 -1      3896 1.69510E+01 1.14644E+00 9.43849E-03-3.22452E-01 1.46312E-13-2.54169E-13
 -1      3897 1.75515E+01 1.12427E+00 1.04893E-02-9.49133E-01 1.56121E-13-6.36567E-14
 -1      3898 2.02562E+01 1.06548E+00-3.01927E-03 2.53725E-01 5.17439E-14-2.52516E-13
 -1      3899 2.02339E+01 1.13418E+00-3.82495E-04 2.08778E-01 3.23526E-14-2.49684E-13
 -1      3900 2.02954E+01 8.97007E-01 4.74327E-03 2.05182E-01 7.34220E-14-2.37394E-13
 -1      3901 1.93472E+01 4.68504E-01 3.98516E-04 1.75672E+00 1.07856E-13 4.41170E-13
 -1      3902 2.00642E+01-2.67697E-02-2.67566E-03-8.80357E-02 3.68026E-14-8.96752E-14
 -1      3903 2.02992E+01 6.14397E-01-1.67257E-03 1.69474E-01 7.44576E-14-1.72872E-13
 -1      3904 2.02624E+01 9.91493E-01 4.83434E-03 1.40617E-01 2.86530E-14-2.61933E-13
 -1      3905 2.02111E+01 1.16471E+00-2.79718E-03 1.63429E-01 1.80695E-14-2.77124E-13
 -1      3906 2.01888E+01 1.19869E+00-1.11513E-03 1.06178E-01 1.20487E-14-2.86229E-13
 -1      3907 1.49370E+01 5.87882E-01 1.16942E-02-1.72857E+00-4.53307E-13 3.16622E-14
 -1      3908 2.03134E+01 4.74523E-01 4.87285E-03 1.05341E-01 9.00778E-14-1.78160E-13
 -1      3909 2.03066E+01 6.51566E-01-3.64227E-03 1.59867E-01 7.89848E-14-2.02945E-13
 -1      3910 2.02921E+01 3.55172E-01-9.25149E-04 4.78373E-02 7.42471E-14-1.74644E-13
 -1      3911 1.89490E+01 5.02599E-01-9.24789E-03 1.78944E+00 2.38129E-13 5.15679E-13
 -1      3912 1.86734E+01 5.94574E-01 1.09286E-02 1.73790E+00 2.24351E-13 2.86153E-13
 -1      3913 1.86653E+01 4.49336E-01-6.17565E-03 1.86474E+00 1.21955E-13 3.36409E-13
 -1      3914 1.85816E+01 2.11566E-01-3.88236E-03 2.08560E+00 2.78989E-14 3.01414E-13
 -1      3915 1.82584E+01 7.32278E-01-1.35392E-02 1.53608E+00 1.94098E-13 3.19447E-13
 -1      3916 1.99251E+01 1.60013E-01 6.38283E-05-1.25217E-01-1.08771E-13-2.07597E-14
 -1      3917 1.99472E+01 1.17854E-01-2.08490E-03-1.11227E-01-7.94040E-14-7.36938E-15
 -1      3918 2.01586E+01 1.73070E-01 6.29905E-04 8.23516E-02-6.50578E-14-1.63253E-13
 -1      3919 2.01428E+01 1.06684E-01-6.10319E-04 1.01952E-01-6.71366E-14-1.82847E-13
 -1      3920 1.79527E+01-2.40881E-01 1.29170E-02 2.55993E+00 1.28142E-13 5.61800E-13
 -1      3921 1.66263E+01 1.02679E-01 1.68033E-02 2.53222E+00 9.73158E-14 5.74673E-13
 -1      3922 1.79477E+01 9.07183E-02-1.01337E-02 2.26412E+00 1.19462E-13 5.22068E-13
 -1      3923 2.01273E+01 5.52897E-02 5.18640E-04 1.10927E-01-5.76479E-14-1.77846E-13
 -1      3924 2.01083E+01 1.56889E-02-2.30425E-04 1.22284E-01-5.83489E-14-1.56330E-13
 -1      3925 2.01731E+01 9.40694E-02-9.40333E-05 9.18449E-02-5.85982E-14-1.87078E-13
 -1      3926 2.00880E+01-1.23528E-02 3.62870E-04 1.26506E-01-1.73977E-14-1.49587E-13
 -1      3927 2.00680E+01-3.11810E-02-8.16595E-06 1.32570E-01 1.25481E-15-1.01780E-13
 -1      3928 2.01348E+01 8.81959E-03-3.00270E-04 1.06973E-01-1.84679E-14-1.32657E-13
 -1      3929 2.00453E+01-4.13347E-02 1.91099E-04 1.33951E-01-7.29720E-15-6.75027E-14
 -1      3930 2.00251E+01-4.41407E-02 7.97723E-05 1.36709E-01-2.19863E-14-4.12769E-14
 -1      3931 2.00905E+01-3.27138E-02-3.66199E-04 1.14563E-01 8.93865E-15-9.37892E-14
 -1      3932 2.00012E+01-4.03322E-02 5.02255E-06 1.36432E-01-8.46442E-14-3.87761E-14
 -1      3933 1.99812E+01-3.07818E-02 1.52458E-04 1.37347E-01-1.10214E-13-6.37977E-14
 -1      3934 2.00436E+01-4.09514E-02-4.29691E-04 1.17410E-01-6.98821E-14-8.37687E-14
 -1      3935 1.99566E+01-1.64047E-02-5.81976E-05 1.36462E-01-9.76950E-14-4.82078E-14
 -1      3936 1.99372E+01 2.46762E-03 6.59893E-04 1.36829E-01-7.03071E-14-2.77190E-14
 -1      3937 1.99955E+01-2.32945E-02-3.50641E-04 1.17635E-01-9.30991E-14-3.20453E-14
 -1      3938 1.99118E+01 2.44980E-02 4.56692E-04 1.36582E-01-1.00621E-13-1.08735E-13
 -1      3939 1.98936E+01 5.01332E-02 2.37158E-03 1.38435E-01-1.26894E-13-1.35860E-13
 -1      3940 1.99467E+01 1.42143E-02 2.15199E-04 1.17467E-01-1.23207E-13-9.99128E-14
 -1      3941 1.98669E+01 7.85850E-02 3.67726E-03 1.41165E-01-8.54277E-14-1.09219E-13
 -1      3942 1.98504E+01 1.11443E-01 9.06223E-03 1.47486E-01-4.63293E-14-1.33231E-13
 -1      3943 1.98965E+01 6.77030E-02 2.90015E-03 1.20148E-01-9.45708E-14-9.71755E-14
 -1      3944 1.98194E+01 1.46415E-01 1.43623E-02 1.55470E-01 4.31792E-14-1.16870E-13
 -1      3945 1.98061E+01 1.86735E-01 2.47196E-02 1.67474E-01 7.06618E-14-5.15759E-14
 -1      3946 1.98427E+01 1.37442E-01 1.27240E-02 1.29776E-01 2.14074E-14-5.03863E-14
 -1      3947 1.97714E+01 2.26123E-01 4.19214E-02 1.85222E-01 4.29674E-14-2.00326E-14
 -1      3948 1.97739E+01 2.79382E-01 6.91019E-02 1.98201E-01-1.57062E-14 1.64105E-15
 -1      3949 1.97832E+01 2.23452E-01 4.18944E-02 1.52657E-01 5.85816E-14-1.06852E-13
 -1      3950 1.97521E+01 3.38248E-01 1.02372E-01 2.19900E-01-3.93990E-14 2.05808E-14
 -1      3951 1.97125E+01 3.55292E-01 7.45732E-02 2.53674E-01 1.83187E-14-6.56419E-15
 -1      3952 1.97404E+01 3.06284E-01 1.07362E-01 1.86075E-01-3.62210E-15-1.37668E-14
 -1      3953 1.96645E+01 3.74744E-01 5.61442E-03 2.37299E-01 5.19411E-14-9.56873E-15
 -1      3954 1.96311E+01 4.46109E-01-1.53237E-02 2.51894E-01 7.89646E-15 4.04954E-14
 -1      3955 1.97017E+01 4.67235E-01 1.22169E-01 1.68725E-01 2.41474E-14-4.24487E-14
 -1      3956 1.95532E+01 5.13619E-01-3.62334E-02 2.76526E-01-8.65540E-14 2.23016E-14
 -1      3957 1.94982E+01 5.80385E-01-2.78946E-02 3.08661E-01-1.08764E-13-6.46965E-15
 -1      3958 1.95621E+01 5.10113E-01-2.51542E-02 2.00746E-01-2.29608E-14-2.32141E-14
 -1      3959 1.94088E+01 6.44311E-01-1.95386E-02 3.40747E-01-8.78412E-14 8.87658E-15
 -1      3960 1.93327E+01 7.05595E-01-1.06859E-02 3.88487E-01-3.77350E-14 3.21618E-15
 -1      3961 1.94007E+01 6.52013E-01-2.58478E-02 2.53738E-01-9.19265E-14-7.44734E-14
 -1      3962 1.92172E+01 7.62100E-01-7.95541E-03 4.30060E-01-3.14444E-14-1.68995E-14
 -1      3963 1.91175E+01 8.17480E-01-3.06535E-03 4.86764E-01-4.84438E-14-1.19405E-13
 -1      3964 1.92027E+01 7.81369E-01-5.95007E-03 3.19802E-01-5.66118E-14-1.33377E-13
 -1      3965 1.89712E+01 8.66475E-01-5.16610E-03 5.37316E-01 5.99855E-15-4.13132E-14
 -1      3966 1.88480E+01 9.12349E-01-9.15536E-04 6.05082E-01 3.61336E-14-9.13606E-14
 -1      3967 1.89498E+01 8.99044E-01 2.73601E-03 3.99969E-01 3.47140E-15-3.56774E-14
 -1      3968 1.86638E+01 9.47483E-01-5.91268E-03 6.68067E-01-3.98130E-15-1.16735E-13
 -1      3969 1.85160E+01 9.76288E-01-2.00205E-04 7.52185E-01-9.25343E-14-9.22876E-14
 -1      3970 1.86315E+01 9.99988E-01 5.99102E-03 4.97830E-01-4.55013E-15-1.06546E-13
 -1      3971 1.82839E+01 9.87358E-01-8.10296E-03 8.34619E-01-1.68448E-13 3.61500E-14
 -1      3972 1.81108E+01 9.87694E-01 7.25510E-04 9.44486E-01-1.01441E-13-2.46684E-14
 -1      3973 1.82325E+01 1.07175E+00 8.08823E-03 6.22990E-01-3.67909E-14-4.75661E-14
 -1      3974 1.78167E+01 9.59876E-01-1.14388E-02 1.05834E+00-1.22504E-13-1.34242E-13
 -1      3975 1.76181E+01 9.16929E-01 2.26678E-03 1.21000E+00-1.75269E-13-9.20254E-14
 -1      3976 1.77311E+01 1.09455E+00 1.04349E-02 7.93212E-01-1.92822E-13-1.23986E-14
 -1      3977 1.72411E+01 8.31621E-01-1.57652E-02 1.37562E+00-1.40152E-13-1.88618E-13
 -1      3978 1.70234E+01 7.18973E-01 5.97298E-03 1.59669E+00-5.30108E-14-2.17357E-13
 -1      3979 1.71022E+01 1.04665E+00 1.70071E-02 1.04293E+00-1.75230E-13-1.33519E-13
 -1      3980 1.97893E+01 3.51869E-01-2.00524E-03-2.16068E-01 2.64148E-14-2.17491E-15
 -1      3981 1.98208E+01 3.00659E-01-2.84618E-03-1.84226E-01 1.08455E-14 7.91142E-15
 -1      3982 2.02114E+01 4.71517E-02-4.66729E-04-7.70018E-02 2.75099E-14-9.49616E-14
 -1      3983 2.02356E+01 9.28669E-02 1.68019E-03-5.82270E-02 1.07215E-14-1.35442E-13
 -1      3984 2.02271E+01 4.14044E-02-5.28496E-04-6.41887E-02 5.76560E-14-1.17964E-13
 -1      3985 2.01018E+01 9.68849E-01-1.54376E-03-1.23955E-01-3.87239E-14-2.14000E-13
 -1      3986 1.72863E+01-3.63392E-01-1.32069E-02-2.70005E+00-1.02265E-13 4.05266E-14
 -1      3987 1.98641E+01 2.51573E-01 9.55028E-04-1.60556E-01-6.11390E-14-3.70547E-14
 -1      3988 1.98893E+01 2.03772E-01-1.24590E-03-1.39322E-01-1.18025E-13-3.38111E-14
 -1      3989 1.98113E+01 3.01373E-01 3.23643E-07-1.42744E-01-5.05427E-14-7.97127E-15
 -1      3990 1.99779E+01 7.98797E-02-1.51367E-03-1.01462E-01-5.90301E-14-2.79629E-14
 -1      3991 1.99969E+01 4.54849E-02-3.38242E-03-8.91085E-02-4.18947E-14-2.74926E-14
 -1      3992 1.99486E+01 1.10472E-01-4.60816E-04-8.41961E-02-7.50715E-14-6.47914E-15
 -1      3993 1.97064E+01 4.48675E-01-8.11233E-03-2.91629E-01 6.99033E-14-3.55974E-14
 -1      3994 1.97410E+01 4.01625E-01-8.12393E-03-2.50479E-01 4.70782E-14 1.50921E-16
 -1      3995 1.97231E+01 4.08851E-01-6.87508E-03-1.99486E-01 5.00815E-14-1.71026E-14
 -1      3996 1.96026E+01 5.35762E-01-1.15455E-02-3.71761E-01 7.63556E-14-1.66579E-13
 -1      3997 1.96505E+01 4.89937E-01-1.27870E-02-3.28488E-01 8.77701E-14-1.49045E-13
 -1      3998 1.96261E+01 4.99379E-01-1.85788E-02-2.69743E-01 1.38996E-13-1.04736E-13
 -1      3999 1.94728E+01 6.32127E-01-2.79110E-03-4.68525E-01-9.43313E-14-1.32736E-13
 -1      4000 1.95282E+01 5.84215E-01-8.22510E-03-4.14461E-01 2.00063E-14-1.32546E-13
 -1      4001 1.94999E+01 6.04290E-01-1.09211E-02-3.39478E-01 4.56423E-14-1.86523E-13
 -1      4002 1.93095E+01 7.17593E-01 5.53736E-04-5.84991E-01-1.65009E-13-1.81436E-13
 -1      4003 1.93779E+01 6.75282E-01-3.74827E-03-5.20638E-01-1.35990E-13-1.86256E-13
 -1      4004 1.93389E+01 7.06455E-01 1.16092E-04-4.27030E-01-9.67688E-14-1.85062E-13
 -1      4005 1.91120E+01 7.83146E-01 1.43402E-03-7.27981E-01-1.51117E-13-2.08860E-13
 -1      4006 1.91921E+01 7.52272E-01-3.56615E-03-6.49898E-01-1.55905E-13-1.65313E-13
 -1      4007 1.91354E+01 7.99373E-01 3.84588E-03-5.34377E-01-1.48222E-13-2.23746E-13
 -1      4008 1.88816E+01 8.10379E-01 2.26104E-03-9.06860E-01-1.01714E-13-2.48001E-13
 -1      4009 1.89697E+01 8.00800E-01-4.69734E-03-8.10459E-01-1.75831E-13-2.27267E-13
 -1      4010 1.88865E+01 8.71538E-01 4.78339E-03-6.70723E-01-8.90080E-14-2.84633E-13
 -1      4011 1.86235E+01 7.72468E-01 3.98071E-03-1.13647E+00-4.12068E-14-8.00637E-14
 -1      4012 1.87115E+01 7.98512E-01-6.24858E-03-1.01455E+00-3.70817E-14-1.33322E-13
 -1      4013 1.85879E+01 9.04840E-01 5.30609E-03-8.47853E-01-1.30303E-13-1.57323E-13
 -1      4014 1.83491E+01 6.29016E-01 5.66237E-03-1.44072E+00-1.45237E-13 3.88820E-14
 -1      4015 1.84242E+01 7.12329E-01-8.19115E-03-1.28216E+00-1.20177E-13-6.82585E-14
 -1      4016 1.82348E+01 8.72742E-01 5.62028E-03-1.08703E+00-1.27794E-13-2.59279E-14
 -1      4017 1.80789E+01 3.29480E-01 5.92328E-03-1.85059E+00-1.00922E-13 7.53846E-14
 -1      4018 1.81261E+01 4.99088E-01-9.83823E-03-1.63440E+00-9.90015E-14 7.72270E-14
 -1      4019 1.78413E+01 7.33870E-01 8.40658E-03-1.42090E+00-2.25250E-13-9.60970E-14
 -1      4020 1.77469E+01-1.12223E-01 1.06566E-02-2.36016E+00-6.86509E-14-2.17797E-14
 -1      4021 1.77153E+01 1.76550E-01-1.39274E-02-2.06817E+00-8.85253E-14 1.76407E-14
 -1      4022 1.73064E+01 5.40167E-01 2.28130E-02-1.80803E+00-1.19793E-13-1.30593E-13
 -1      4023 1.64470E+01 3.06279E-01 3.53942E-02-2.28200E+00-1.86170E-13 6.02240E-14
 -1      4024 2.01643E+01 6.19159E-01-8.79815E-04-3.55720E-02-4.18516E-14-1.73881E-13
 -1      4025 2.01687E+01 4.77119E-01-1.38773E-03 1.00895E-02-3.81985E-14-1.74323E-13
 -1      4026 2.02994E+01 7.11618E-01-2.21844E-03 1.41432E-01 4.83454E-14-2.16839E-13
 -1      4027 2.01664E+01 1.20121E+00-2.80602E-03 5.64251E-02 3.03324E-14-2.88552E-13
 -1      4028 2.01453E+01 1.19771E+00-2.97641E-03-6.90234E-03 1.01703E-14-2.98194E-13
 -1      4029 2.02216E+01 1.02909E+00 4.13699E-03 5.87639E-02 2.70724E-14-2.96820E-13
 -1      4030 2.02500E+01 1.49578E-01-1.19681E-03-3.97156E-02 4.16780E-14-1.49897E-13
 -1      4031 2.02746E+01 2.21205E-01 1.78537E-03-4.27980E-03 5.48947E-14-1.56936E-13
 -1      4032 2.02679E+01 1.39595E-01-1.42018E-03-3.25123E-02 2.40765E-14-1.23418E-13
 -1      4033 1.78977E+01 8.04283E-01-1.15708E-02-1.53239E+00 1.66659E-13-2.13097E-13
 -1      4034 1.70473E+01 1.06328E+00 7.48941E-04 6.97776E-01 2.08616E-13-2.25369E-13
 -1      4035 1.75028E+01 1.07502E+00-1.00048E-02 8.60887E-01 3.38678E-13-1.36181E-13
 -1      4036 1.78023E+01 9.70895E-01 1.14884E-02 1.21524E+00 2.14717E-13 3.27853E-13
 -1      4037 1.49969E+01 1.08684E+00 3.42762E-02-7.53007E-01-4.51573E-13-1.32732E-13
 -1      4038 1.55839E+01 6.33830E-01-1.41770E-02-1.63336E+00-3.59302E-13-4.47455E-14
 -1      4039 1.61207E+01 7.47750E-01-2.16800E-02-1.42617E+00-2.55763E-13-1.53098E-13
 -1      4040 2.01473E+01-4.59035E-02 1.95592E-04-6.71915E-02 3.22303E-14-5.42860E-14
 -1      4041 2.01685E+01-3.91812E-02 3.83974E-04-6.46213E-02 1.96781E-14-5.29379E-14
 -1      4042 1.51312E+01 1.00508E+00 2.15039E-02 4.06543E-01 1.30401E-14-4.09326E-13
 -1      4043 1.53991E+01 9.23222E-01-1.26985E-02-6.46727E-01 2.19593E-13-2.49999E-13
 -1      4044 1.56009E+01 6.12139E-01-2.24801E-02 1.59470E+00 1.74214E-14 3.22815E-14
 -1      4045 2.03037E+01 3.45179E-01-1.08661E-03 4.25257E-02 5.68440E-14-1.57018E-13
 -1      4046 2.01035E+01-4.12041E-02-1.50833E-04-6.87549E-02 9.11218E-14-5.88146E-14
 -1      4047 2.01234E+01-4.62714E-02 3.75292E-05-6.75056E-02 6.86389E-14-3.84697E-14
 -1      4048 2.01428E+01-4.47129E-02-5.55315E-04-4.79997E-02 5.61598E-14-9.57284E-14
 -1      4049 2.01746E+01 3.55828E-01 6.06810E-04 3.53044E-02-4.53658E-14-1.46834E-13
 -1      4050 2.01657E+01 2.54791E-01-1.09656E-03 6.65438E-02-5.48601E-14-1.69150E-13
 -1      4051 2.01998E+01 2.35659E-01 2.92468E-04 6.55495E-02-6.36978E-14-2.10929E-13
 -1      4052 2.02064E+01 4.49636E-01 9.67375E-04 2.39649E-02-2.95420E-14-2.00076E-13
 -1      4053 2.00616E+01-1.86378E-02-1.57419E-03-7.10488E-02 4.61575E-14-6.00484E-14
 -1      4054 2.00795E+01-3.19828E-02-1.09500E-03-6.91503E-02 6.10534E-14-5.23406E-14
 -1      4055 2.00955E+01-3.54955E-02-9.42631E-04-5.04734E-02 8.30725E-14-3.89892E-14
 -1      4056 2.00232E+01 1.86792E-02-2.33702E-03-8.13194E-02-1.54590E-14-4.58088E-14
 -1      4057 2.00377E+01-2.27438E-03-3.07969E-03-7.38390E-02 2.92617E-14-5.56716E-14
 -1      4058 2.00494E+01-6.99255E-03-1.58264E-03-5.53264E-02 2.25148E-14 6.01971E-15
 -1      4059 2.00023E+01 4.15470E-02-1.31947E-03-6.67263E-02-3.41929E-14-3.00458E-14
 -1      4060 1.74286E+01 8.10026E-01 2.71232E-03-1.47010E+00 2.29037E-13-2.01232E-13
 -1      4061 2.03253E+01 5.56699E-01 5.01277E-03 9.10217E-02 6.18026E-14-2.08077E-13
 -1      4062 2.02921E+01 7.53875E-01-3.60978E-03 1.28081E-01 5.78147E-14-2.12415E-13
 -1      4063 2.01919E+01-2.54904E-02 7.48427E-05-6.30727E-02 5.98264E-15-7.43552E-14
 -1      4064 2.02141E+01-3.31459E-03 5.52131E-04-5.70727E-02 4.94912E-14-1.32170E-13
 -1      4065 2.01905E+01-2.90791E-02-4.76444E-04-4.41793E-02 1.83432E-14-6.53743E-14
 -1      4066 2.02766E+01 7.89971E-01-2.20026E-03 9.67591E-02 3.64459E-14-2.46248E-13
 -1      4067 2.03050E+01 2.40409E-01 2.42996E-03 5.83443E-03 2.70561E-14-1.89999E-13
 -1      4068 2.03169E+01 3.70821E-01-2.16323E-03 5.08518E-02 3.23158E-14-2.25257E-13
 -1      4069 2.03150E+01 4.13793E-01-1.17548E-03 5.18013E-02 4.39587E-14-2.29165E-13
 -1      4070 1.57239E+01 7.48434E-02-2.62918E-02 2.51938E+00-9.47497E-14-4.28961E-13
 -1      4071 1.65374E+01 5.57971E-01-2.56092E-02 1.83504E+00-9.80336E-15-3.16242E-13
 -1      4072 1.63655E+01 3.53035E-01 1.53581E-02 2.15243E+00-2.58680E-14-2.96675E-13
 -1      4073 1.52590E+01 6.34822E-01 3.85214E-02 1.90365E+00-1.21175E-13-3.46323E-13
 -1      4074 1.62875E+01 9.20812E-01 2.72023E-02 1.39235E+00-1.20943E-13-1.40047E-13
 -1      4075 1.64271E+01 1.08478E+00-1.16565E-02-4.70570E-01 2.59929E-13-2.24037E-13
 -1      4076 1.63916E+01 1.11417E+00 5.95540E-03 1.12986E-01 1.95366E-13-2.87992E-13
 -1      4077 1.98861E+01 1.97963E-01 8.53254E-04-1.07006E-01-1.06630E-13 1.03591E-14
 -1      4078 1.77543E+01 4.59166E-01 1.14371E-02 1.94868E+00 1.25843E-13 4.09764E-13
 -1      4079 1.62962E+01 8.26106E-01 1.88973E-02 1.10912E+00 3.37291E-14-6.86120E-14
 -1      4080 1.49333E+01 1.10366E+00-2.16070E-03-3.17647E-01-3.70683E-13-1.13188E-13
 -1      4081 1.56663E+01 1.11281E+00-9.49857E-05-3.52805E-01-2.78670E-13-7.62463E-14
 -1      4082 1.50661E+01 1.15938E+00 2.72283E-02 2.21733E-01-3.25395E-13-8.30311E-14
 -1      4083 1.78330E+01 7.28342E-01 3.14285E-03 1.53669E+00 1.96458E-13 3.42087E-13
 -1      4084 1.61867E+01 9.57370E-01 2.59526E-02-1.03281E+00 2.87432E-13-3.33469E-13
 -1      4085 2.01204E+01 1.07196E+00-3.96556E-03-1.01018E-01-1.61266E-14-2.48976E-13
 -1      4086 2.01615E+01 7.69867E-01 3.69150E-03-5.72435E-02-2.18182E-14-2.03308E-13
 -1      4087 2.01416E+01 1.11392E+00-2.39240E-03-3.79613E-02 6.01767E-15-2.90087E-13
 -1      4088 2.01905E+01 7.24447E-01 1.32877E-03-2.35033E-02 2.05177E-15-2.15346E-13
 -1      4089 2.01944E+01 9.51491E-01 4.10675E-03-1.33149E-02 2.62313E-14-2.87799E-13
 -1      4090 1.70649E+01 4.57570E-01 7.77453E-03-2.07843E+00 2.86726E-13-3.12650E-13
 -1      4091 1.65245E+01 7.62757E-01-1.56677E-02-1.44895E+00 2.95177E-13-3.22144E-13
 -1      4092 2.01340E+01-4.43716E-02 1.97141E-04-2.75334E-02 5.84128E-14-1.08271E-13
 -1      4093 2.01586E+01-4.32812E-02 4.05604E-04-2.47154E-02 5.20437E-14-1.23592E-13
 -1      4094 2.02127E+01 1.26160E-01 1.27451E-04 7.14696E-02-6.52433E-14-1.52528E-13
 -1      4095 2.01963E+01 6.98815E-02 5.87155E-05 8.30791E-02-4.30257E-14-1.51808E-13
 -1      4096 2.01759E+01 2.62178E-02 1.15291E-04 8.43534E-02-5.61850E-15-1.34146E-13
 -1      4097 2.01546E+01-4.76764E-03 3.31112E-05 9.11222E-02 1.74536E-14-1.16737E-13
 -1      4098 2.02121E+01 5.45220E-02-4.67796E-04 6.63266E-02-1.36937E-14-1.40401E-13
 -1      4099 2.01310E+01-2.60545E-02 2.28961E-04 9.20556E-02 9.58185E-15-9.49634E-14
 -1      4100 2.01081E+01-3.83642E-02 2.09239E-04 9.56507E-02-8.87904E-15-1.05642E-13
 -1      4101 2.01664E+01-1.15480E-02-4.14397E-04 7.14979E-02 1.19538E-14-1.20155E-13
 -1      4102 2.00820E+01-4.26179E-02 1.14955E-04 9.44979E-02-4.67720E-14-8.45032E-14
 -1      4103 2.00583E+01-3.97174E-02 2.74798E-04 9.64165E-02-7.39682E-14-7.68983E-14
 -1      4104 2.01178E+01-3.93559E-02-7.22525E-04 7.28376E-02-1.73143E-14-9.86696E-14
 -1      4105 2.00312E+01-3.11726E-02 2.94197E-05 9.47455E-02-6.63507E-14-9.17467E-14
 -1      4106 2.00071E+01-1.66860E-02 3.83782E-04 9.55785E-02-8.63864E-14-6.53179E-14
 -1      4107 2.00652E+01-3.55771E-02-7.19095E-04 7.30986E-02-7.69821E-14-7.88577E-14
 -1      4108 1.99790E+01 1.95098E-03 1.34852E-04 9.38476E-02-1.52916E-13-9.36846E-14
 -1      4109 1.99548E+01 2.56561E-02 1.19003E-03 9.47764E-02-1.70299E-13-1.41132E-13
 -1      4110 2.00118E+01-7.36472E-03-1.15576E-04 7.19835E-02-1.26250E-13-1.10965E-13
 -1      4111 1.99249E+01 5.26420E-02 1.72454E-03 9.38882E-02-1.11268E-13-1.20543E-13
 -1      4112 1.99007E+01 8.50255E-02 5.40127E-03 9.65266E-02-3.45351E-14-8.13759E-14
 -1      4113 1.99567E+01 4.07542E-02 2.05853E-03 7.09670E-02-8.96086E-14-1.16283E-13
 -1      4114 1.98670E+01 1.19952E-01 9.44766E-03 9.73071E-02-9.52743E-15-9.37583E-14
 -1      4115 1.98434E+01 1.62560E-01 2.10359E-02 1.03182E-01 4.84968E-14-9.50785E-14
 -1      4116 1.98993E+01 1.07772E-01 1.03435E-02 7.20148E-02-2.31138E-14-1.49641E-13
 -1      4117 1.98035E+01 2.07159E-01 3.73097E-02 1.06176E-01 6.62829E-14-9.82547E-14
 -1      4118 1.97891E+01 2.67590E-01 7.40131E-02 1.17246E-01 3.09475E-14-8.27879E-14
 -1      4119 1.98411E+01 1.97738E-01 3.93516E-02 7.70811E-02 2.72239E-14-1.83978E-13
 -1      4120 1.97286E+01 3.20308E-01 1.13859E-01 1.21757E-01 4.63293E-14-1.98175E-14
 -1      4121 1.98244E+01 4.44894E-01 2.47512E-01 1.09874E-01 2.98789E-14 5.34572E-14
 -1      4122 1.97914E+01 3.27087E-01 1.22531E-01 8.73976E-02 8.59486E-14-1.02862E-13
 -1      4123 1.97237E+01 3.43752E-01 1.66027E-01 1.92212E-01-9.65894E-15 7.66609E-14
 -1      4124 1.95802E+01 3.61095E-01-1.59140E-02 9.09328E-02 4.04399E-14 4.99600E-14
 -1      4125 1.97259E+01 5.12158E-01 2.17641E-01 1.21226E-01 1.37668E-14 3.99680E-15
 -1      4126 1.94650E+01 4.88222E-01-1.22765E-01 1.28628E-01-1.62509E-14 2.66592E-14
 -1      4127 1.94737E+01 5.43098E-01-9.92532E-02 1.31349E-01-1.15574E-13-4.62408E-14
 -1      4128 1.95298E+01 4.40429E-01-1.63487E-01 4.09508E-02-4.26326E-14-3.01981E-14
 -1      4129 1.93733E+01 6.18295E-01-6.72260E-02 1.51478E-01-1.28828E-13-1.22333E-14
 -1      4130 1.93074E+01 6.95760E-01-3.98926E-02 1.78622E-01-7.00794E-14-7.64666E-14
 -1      4131 1.93896E+01 5.96351E-01-1.17507E-01 7.41621E-02-8.44949E-14-8.62088E-14
 -1      4132 1.91927E+01 7.60943E-01-2.27296E-02 1.98970E-01-2.99647E-14 1.08368E-14
 -1      4133 1.90851E+01 8.26656E-01-1.20110E-02 2.28940E-01-3.46984E-14-1.24727E-15
 -1      4134 1.92213E+01 7.59414E-01-3.16853E-02 1.01605E-01-2.46192E-14 5.66144E-14
 -1      4135 1.89414E+01 8.85495E-01-8.69267E-03 2.50445E-01 2.52899E-14 1.27702E-14
 -1      4136 1.88001E+01 9.44083E-01-4.56383E-03 2.84859E-01 4.79789E-14 3.03596E-14
 -1      4137 1.89827E+01 8.97034E-01 6.23021E-04 1.27427E-01 1.67344E-14 1.12381E-13
 -1      4138 1.86182E+01 9.95134E-01-6.37795E-03 3.10100E-01-1.01322E-14-3.67786E-14
 -1      4139 1.84395E+01 1.04395E+00-3.63665E-03 3.51689E-01-4.87776E-14-6.86030E-14
 -1      4140 1.86717E+01 1.02113E+00 1.16356E-02 1.55104E-01-4.96109E-15 1.04387E-15
 -1      4141 1.82074E+01 1.08187E+00-7.83842E-03 3.83303E-01 1.47319E-14-1.58185E-13
 -1      4142 1.79829E+01 1.11466E+00-4.30340E-03 4.37492E-01 4.47559E-16-1.18177E-13
 -1      4143 1.82754E+01 1.12917E+00 1.76546E-02 1.86743E-01-7.01458E-14-8.86284E-14
 -1      4144 1.76807E+01 1.13241E+00-1.09215E-02 4.81421E-01-1.34392E-13-8.36624E-14
 -1      4145 1.73952E+01 1.13686E+00-6.64247E-03 5.60528E-01-2.08844E-13-3.07988E-14
 -1      4146 1.77632E+01 1.21107E+00 2.25745E-02 2.24360E-01-5.53313E-14-1.84036E-13
 -1      4147 1.69982E+01 1.13249E+00-1.31993E-02 6.15712E-01-2.60185E-13 3.48035E-14
 -1      4148 1.66180E+01 1.09265E+00-1.05126E-02 7.51382E-01-2.24567E-13 1.48214E-14
 -1      4149 1.70834E+01 1.21189E+00 7.66750E-03 2.86636E-01-1.93478E-13 1.19355E-14
 -1      4150 1.95424E+01 5.28821E-01-5.39053E-02-2.27476E-01 1.49825E-13-8.22415E-14
 -1      4151 1.96171E+01 4.93458E-01-4.72832E-02-2.09504E-01 1.86330E-13-5.00351E-14
 -1      4152 1.97600E+01 3.47089E-01 3.16510E-03-1.15181E-01-1.44476E-14-1.77219E-14
 -1      4153 1.98007E+01 2.86015E-01 2.75422E-03-9.25593E-02-5.79120E-14-4.36370E-14
 -1      4154 1.99185E+01 1.35548E-01-1.82735E-04-6.15221E-02-7.07776E-14 5.95095E-14
 -1      4155 1.99482E+01 9.55649E-02-6.44524E-04-5.18316E-02-3.51321E-14 1.12097E-13
 -1      4156 1.94100E+01 6.52057E-01-1.74888E-02-2.89765E-01 1.32099E-14-3.29780E-14
 -1      4157 1.94738E+01 5.94087E-01-3.09357E-02-2.54243E-01 9.77100E-14-1.30278E-14
 -1      4158 1.94756E+01 6.20496E-01-5.25465E-02-1.76268E-01 1.09877E-13 4.96513E-14
 -1      4159 1.92190E+01 7.60800E-01-2.86719E-03-3.58975E-01-8.54664E-14-1.01119E-13
 -1      4160 1.93081E+01 7.05427E-01-8.47004E-03-3.17212E-01-2.72000E-14-9.45424E-14
 -1      4161 1.93238E+01 7.23728E-01-7.18380E-03-2.20198E-01 2.53478E-14 5.63542E-14
 -1      4162 1.89780E+01 8.60459E-01-6.41451E-05-4.49501E-01-8.94660E-14-1.92670E-13
 -1      4163 1.90896E+01 8.10908E-01-3.60811E-03-3.97423E-01-1.25714E-13-1.78422E-13
 -1      4164 1.90993E+01 8.39720E-01 7.71981E-03-2.75611E-01-3.49083E-14-7.51933E-14
 -1      4165 1.86827E+01 9.39057E-01-6.28165E-05-5.67665E-01-1.09667E-13-2.00883E-13
 -1      4166 1.88167E+01 9.00887E-01-4.78884E-03-5.01144E-01-5.59036E-14-2.00148E-13
 -1      4167 1.88199E+01 9.48712E-01 1.19434E-02-3.50110E-01-8.26500E-14-1.12059E-13
 -1      4168 1.83227E+01 9.80326E-01-1.04623E-04-7.24578E-01-1.05024E-13-1.78962E-13
 -1      4169 1.84812E+01 9.61958E-01-7.39555E-03-6.36767E-01-1.60003E-13-1.99817E-13
 -1      4170 1.84752E+01 1.03905E+00 1.48853E-02-4.49240E-01-1.48346E-13-1.61797E-13
 -1      4171 1.78844E+01 9.62789E-01 7.85018E-04-9.41620E-01-1.55765E-13-1.57219E-13
 -1      4172 1.80673E+01 9.75998E-01-1.09603E-02-8.19318E-01-7.85954E-14-1.99849E-13
 -1      4173 1.80461E+01 1.09676E+00 1.90280E-02-5.83399E-01-1.19690E-13-1.93574E-13
 -1      4174 1.73267E+01 8.29708E-01-8.67603E-03-1.27119E+00-1.90591E-13-2.40612E-13
 -1      4175 1.75470E+01 9.14389E-01-1.83498E-02-1.08203E+00-2.51874E-13-2.66584E-13
 -1      4176 1.74926E+01 1.10490E+00 2.19465E-02-7.71340E-01-1.06145E-13-2.80545E-13
 -1      4177 1.65706E+01 7.40183E-01-1.80234E-02-1.44514E+00-1.86478E-13-2.06149E-13
 -1      4178 1.69637E+01 8.33119E-01-1.68665E-02-1.27717E+00-1.70929E-13-2.49589E-13
 -1      4179 1.68785E+01 1.09658E+00 3.22943E-02-8.71870E-01-1.35200E-13-2.79379E-13
 -1      4180 1.61059E+01 1.11795E+00 2.78148E-02-7.98046E-01-2.25547E-13-1.75256E-13
 -1      4181 2.02158E+01 8.64473E-01-8.25129E-04 1.37469E-02 3.36506E-14-2.81391E-13
 -1      4182 2.02043E+01 7.84400E-01-2.55895E-03-1.15603E-02 1.45848E-14-2.62194E-13
 -1      4183 2.02182E+01 6.48591E-01 1.74164E-04 5.86373E-03 3.78696E-15-2.32261E-13
 -1      4184 2.03053E+01 6.26422E-01 4.42047E-03 6.91125E-02 5.68875E-14-2.61586E-13
 -1      4185 2.02590E+01 8.17016E-01-2.68099E-03 7.46235E-02 3.22559E-14-3.03890E-13
 -1      4186 1.98468E+01 2.29968E-01 2.46235E-03-8.14436E-02-1.05889E-13 5.65286E-14
 -1      4187 1.98812E+01 1.80255E-01 1.37392E-03-6.82123E-02-9.68592E-14 2.81463E-14
 -1      4188 1.98840E+01 1.67440E-01 4.31167E-03-3.43928E-02-4.77929E-14 6.53540E-14
 -1      4189 1.70864E+01 6.90173E-01-3.41309E-03 1.63916E+00 1.76747E-13 4.45454E-13
 -1      4190 2.02385E+01 8.26422E-01-1.61639E-03 3.82064E-02 4.39615E-14-3.04326E-13
 -1      4191 2.02862E+01 1.62630E-01-6.72109E-04-1.49009E-02 1.49112E-14-1.86701E-13
 -1      4192 1.49491E+01 9.03871E-01-2.78560E-02 1.03597E+00-2.40412E-13-2.38948E-13
 -1      4193 1.65223E+01 1.02570E+00 2.89253E-04 6.43047E-01 1.07851E-13-2.13637E-13
 -1      4194 2.00840E+01-2.90626E-02-1.62203E-04-3.00137E-02 3.63438E-14-5.47735E-14
 -1      4195 2.01077E+01-3.94484E-02-6.51518E-05-2.73075E-02 6.86932E-14-6.11398E-14
 -1      4196 2.01174E+01-4.11739E-02-1.06757E-03-6.04340E-03 1.16242E-14-1.49128E-13
 -1      4197 1.96632E+01 4.66268E-01-2.16724E-02-1.78823E-01 1.26354E-13-1.13069E-13
 -1      4198 1.96993E+01 4.08248E-01-1.52770E-02-1.42790E-01 1.61711E-14-7.39755E-14
 -1      4199 1.96912E+01 4.01299E-01-9.56185E-03-7.37668E-02 3.35634E-14-2.07438E-13
 -1      4200 1.95823E+01 4.31153E-01-1.19322E-01-1.14749E-01 1.07400E-13-1.47771E-13
 -1      4201 2.02358E+01 2.69805E-02-4.34907E-04-5.19898E-02 7.36909E-14-1.82535E-13
 -1      4202 2.02596E+01 6.81177E-02 1.10471E-03-3.92765E-02 4.13664E-14-1.89835E-13
 -1      4203 2.02372E+01 1.96956E-02-3.11077E-04-3.51561E-02 1.21391E-14-1.70588E-13
 -1      4204 2.01691E+01-3.91685E-02-8.29624E-04-3.65388E-03 1.85825E-14-2.23401E-13
 -1      4205 2.01832E+01-3.59433E-02-9.79825E-05-2.51178E-02 3.59107E-14-1.47594E-13
 -1      4206 2.02074E+01-1.96048E-02 2.22150E-04-2.09542E-02-1.04929E-14-1.56979E-13
 -1      4207 1.62117E+01 1.21458E+00 1.93882E-02 1.87653E-01-2.69287E-13 3.03152E-14
 -1      4208 1.60737E+01 1.07031E+00-1.95190E-02 6.60142E-01-1.94019E-13-4.91076E-14
 -1      4209 1.56033E+01 1.00432E+00-8.26384E-03 8.16302E-01-1.73420E-13-1.29592E-13
 -1      4210 1.98025E+01 2.72020E-01 1.05415E-02-4.80467E-02-7.76115E-15-6.10033E-14
 -1      4211 1.99518E+01 8.53187E-02 5.51167E-04-2.37156E-02-7.31100E-14 1.38437E-13
 -1      4212 1.99801E+01 6.05875E-02-8.18943E-04-4.67498E-02-5.04562E-14 6.47911E-14
 -1      4213 2.00053E+01 3.06538E-02-1.17122E-03-3.90502E-02-1.95835E-14 8.97010E-14
 -1      4214 2.02626E+01 6.85993E-01 2.54936E-03 3.43113E-02 2.11023E-14-2.71903E-13
 -1      4215 2.03086E+01 4.31142E-01-2.44657E-03 5.46903E-02 6.18662E-14-2.27549E-13
 -1      4216 2.02955E+01 4.60495E-01-4.77982E-04 4.69269E-02 3.30883E-14-2.64311E-13
 -1      4217 2.03131E+01 2.84976E-01 2.71036E-03 2.60650E-02 2.82194E-14-2.36496E-13
 -1      4218 2.02343E+01 2.86914E-01 2.75803E-05 4.98077E-02-3.86781E-14-1.90422E-13
 -1      4219 2.02256E+01 1.97992E-01-2.93318E-04 6.72693E-02-4.39475E-14-1.85217E-13
 -1      4220 2.02452E+01 1.73154E-01-1.95953E-04 5.74027E-02-1.88956E-14-1.55706E-13
 -1      4221 2.02877E+01 1.48183E-01-6.14737E-04-5.59904E-03 2.81403E-14-2.48804E-13
 -1      4222 1.60462E+01 1.17933E+00-6.80426E-03-1.08879E-01-2.27889E-13 2.30697E-15
 -1      4223 1.60465E+01 1.14103E+00-3.35127E-03-5.06364E-01-2.36674E-13-6.47746E-14
 -1      4224 1.64418E+01 1.11969E+00-8.38734E-03-5.57046E-01-1.42459E-13-1.36192E-13
 -1      4225 1.65938E+01 1.18909E+00 5.56830E-03 3.30912E-02-2.54552E-13-1.64273E-14
 -1      4226 2.00340E+01 5.96515E-03-6.04773E-04-3.58116E-02-1.25653E-14 2.21104E-14
 -1      4227 2.00570E+01-1.39770E-02-7.68589E-04-3.10664E-02 1.01358E-14-1.89015E-14
 -1      4228 2.00648E+01-1.96375E-02-1.05775E-03-9.28429E-03-3.52855E-14-8.52168E-14
 -1      4229 2.00108E+01 2.29564E-02-6.76186E-04-1.50527E-02-2.81716E-14 6.44397E-14
 -1      4230 2.02324E+01 5.10218E-01-2.28039E-04 1.84568E-02-1.02570E-14-2.19853E-13
 -1      4231 2.02352E+01 3.82395E-01-8.04395E-04 4.25364E-02-3.64971E-14-2.15080E-13
 -1      4232 2.02601E+01 3.47504E-01 6.77436E-04 4.40970E-02-2.34631E-14-1.95539E-13
 -1      4233 2.02501E+01 5.79897E-01 1.01919E-03 2.75043E-02-5.94949E-15-2.51873E-13
 -1      4234 1.97957E+01 2.94705E-01 5.01072E-02 2.25011E-02 6.94514E-14-1.72980E-13
 -1      4235 1.98187E+01 2.30578E-01 3.25527E-02 2.48819E-02 3.69999E-14-1.66655E-13
 -1      4236 2.01997E+01-1.35762E-03 2.08543E-04 4.97543E-02 9.71735E-15-1.44954E-13
 -1      4237 2.01759E+01-2.49182E-02 2.36400E-04 5.15149E-02 5.75103E-15-1.64184E-13
 -1      4238 2.01498E+01-3.90795E-02 3.96826E-04 3.43551E-02 1.05304E-14-1.93784E-13
 -1      4239 2.01243E+01-4.24258E-02 5.74793E-04 3.57671E-02-2.08522E-14-1.71638E-13
 -1      4240 2.00978E+01-3.83714E-02 3.98810E-04 3.36069E-02-5.57013E-14-1.10063E-13
 -1      4241 2.00704E+01-2.89358E-02 4.65637E-04 3.37361E-02-8.81195E-14-9.40136E-14
 -1      4242 2.00433E+01-1.37134E-02 2.63232E-04 3.11188E-02-9.89899E-14-3.48510E-14
 -1      4243 2.00149E+01 6.22426E-03 4.68332E-04 3.06811E-02-7.01411E-14-3.63894E-14
 -1      4244 1.99863E+01 3.13302E-02 5.62864E-04 2.71662E-02-7.48205E-14-1.58162E-14
 -1      4245 1.99561E+01 6.06967E-02 1.88941E-03 2.68952E-02-5.75272E-14-9.68886E-15
 -1      4246 1.99249E+01 9.55816E-02 3.36876E-03 2.29831E-02-8.37511E-14-2.35381E-14
 -1      4247 1.98913E+01 1.34310E-01 8.77299E-03 2.40714E-02-2.95961E-14-5.59336E-14
 -1      4248 1.98591E+01 1.80821E-01 1.55279E-02 2.07040E-02-5.57887E-15-1.25228E-13
 -1      4249 1.97397E+01 3.57585E-01 7.88238E-02 3.32272E-02 4.71810E-14-1.45939E-13
 -1      4250 1.97606E+01 4.07371E-01 9.22145E-02-1.94046E-03 4.99600E-14-1.55750E-13
 -1      4251 1.96649E+01 5.54669E-01 2.06127E-02 1.23885E-02 8.65974E-15-1.68671E-13
 -1      4252 1.94783E+01 5.03307E-01-1.66358E-01-8.15084E-02 1.32394E-14-7.61058E-14
 -1      4253 1.93809E+01 4.70293E-01-2.43055E-01-1.09490E-02-1.40096E-14-8.72358E-14
 -1      4254 1.94212E+01 5.82307E-01-1.14393E-01-6.38962E-02-1.95156E-15-6.76265E-14
 -1      4255 1.93210E+01 6.57918E-01-6.79766E-02-5.32391E-02 2.97609E-14-7.13318E-15
 -1      4256 1.92401E+01 7.27256E-01-3.62510E-02-7.12955E-02-1.35135E-14 1.04292E-14
 -1      4257 1.91215E+01 7.93383E-01-1.91139E-02-6.73477E-02 2.44596E-14 7.07004E-14
 -1      4258 1.89961E+01 8.52118E-01-1.29719E-02-9.25871E-02-1.83161E-14 4.52902E-14
 -1      4259 1.88483E+01 9.13696E-01-9.09790E-03-8.95712E-02-1.70503E-14 4.39980E-14
 -1      4260 1.86865E+01 9.63839E-01-9.43042E-03-1.22828E-01-7.16519E-14-3.39095E-15
 -1      4261 1.85003E+01 1.01867E+00-9.70731E-03-1.20647E-01-1.22379E-13-8.31991E-14
 -1      4262 1.82973E+01 1.05610E+00-1.13540E-02-1.65239E-01-1.06507E-13-5.07447E-14
 -1      4263 1.80608E+01 1.09899E+00-1.29955E-02-1.64735E-01-1.11256E-13-1.41783E-13
 -1      4264 1.78070E+01 1.11755E+00-1.41540E-02-2.25227E-01-9.97714E-14-1.22874E-13
 -1      4265 1.75051E+01 1.14273E+00-1.56732E-02-2.28975E-01-7.05807E-14-1.25484E-13
 -1      4266 1.72044E+01 1.14728E+00-7.31978E-03-3.06518E-01-7.47703E-14-2.29404E-13
 -1      4267 1.67486E+01 1.12126E+00-1.04254E-02-5.88910E-01-1.02051E-13-2.01596E-13
 -1      4268 2.02315E+01 5.17670E-03 2.84302E-06-1.92273E-02-3.80003E-14-1.62747E-13
 -1      4269 2.02557E+01 3.97978E-02 5.36360E-04-1.10061E-02-7.61942E-15-2.16792E-13
 -1      4270 2.02190E+01-2.43753E-03-1.51443E-04 9.31761E-04-2.53897E-14-2.40311E-13
 -1      4271 2.02445E+01 6.20369E-02-1.46169E-05 3.46403E-02-2.86456E-14-1.76510E-13
 -1      4272 2.02235E+01 2.08482E-02 4.96297E-04 3.76384E-02-1.26705E-15-1.69370E-13
 -1      4273 2.02734E+01 8.98055E-02-1.34981E-04-4.77969E-03 9.58029E-15-2.15816E-13
 -1      4274 2.03014E+01 1.89329E-01-3.41470E-04 1.81488E-02-3.91194E-16-2.46709E-13
 -1      4275 2.02925E+01 2.10565E-01-4.47295E-04 3.11197E-02 5.28285E-15-2.07414E-13
 -1      4276 2.02629E+01 7.48943E-02-5.66433E-04 1.18420E-02-1.25788E-14-2.10245E-13
 -1      4277 2.02719E+01 5.38976E-01-1.54806E-03 4.43319E-02-4.34791E-15-2.62045E-13
 -1      4278 2.02627E+01 1.16998E-01 7.24391E-04 4.39173E-02-9.31669E-15-1.58644E-13
 -1      4279 2.02867E+01 3.70186E-01 6.91793E-04 3.79814E-02-1.46248E-15-2.21480E-13
 -1      4280 1.69690E+01 1.22933E+00 1.31515E-02 1.29820E-02-1.36264E-13-1.43275E-13
 -1      4281 2.02758E+01 1.86892E-01 1.27076E-05 3.87571E-02-3.51130E-15-1.84329E-13
 -1      4282 2.01731E+01-3.28622E-02-3.78016E-04 1.31715E-02 1.71511E-14-2.36266E-13
 -1      4283 2.02822E+01 2.75498E-01 1.92388E-04 4.70870E-02-2.28865E-15-1.86291E-13
 -1      4284 2.02234E+01 3.56048E-03-5.48059E-04 1.55876E-02-8.35937E-15-2.17345E-13
 -1      4285 2.01987E+01-2.00475E-02 4.97991E-04 1.38861E-02 1.87580E-14-2.42948E-13
 -3
    1PSTEP                         3           1           1          
  100CL  101 1.000000000        4285                     0    1           1
 -4  TOSTRAIN    6    1
 -5  EXX         1    4    1    1
 -5  EYY         1    4    2    2
 -5  EZZ         1    4    3    3
 -5  EXY         1    4    1    2
 -5  EYZ         1    4    2    3
 -5  EZX         1    4    3    1
 -1         1 9.15032E-05 1.90496E-05-4.38608E-05-9.68493E-05 8.79644E-19-6.08593E-19
 -1         2 3.72038E-05-1.12961E-04 2.03703E-05-1.21503E-07-1.27897E-17 9.46850E-19
 -1         3 9.51150E-05-2.87020E-05-2.83170E-05-1.28772E-07-3.29069E-18-3.31977E-18
 -1         4 9.51074E-05-2.87052E-05-2.82955E-05 1.26498E-07 2.80769E-18-8.07110E-19
 -1         5 1.44705E-04-2.16779E-05-4.29297E-05 3.88261E-05-1.58766E-19 1.26205E-17
 -1         6 1.41733E-04 2.50681E-10-4.30612E-05-5.22573E-05-7.04520E-19 1.43627E-17
 -1         7 8.83529E-05-4.90587E-07-3.81072E-05-2.86419E-05-1.04609E-19 3.85567E-18
 -1         8 8.31877E-05 8.65549E-08-3.55154E-05-1.99101E-05-1.69962E-19 2.97413E-19
 -1         9 8.11226E-05 7.54928E-08-3.46297E-05-1.53969E-05-1.62405E-19-1.72884E-18
 -1        10 8.03002E-05 3.76329E-08-3.42522E-05-1.19092E-05-1.17255E-19-2.85014E-18
 -1        11 7.99779E-05 1.86832E-08-3.41082E-05-8.89617E-06-9.06292E-20-3.43402E-18
 -1        12 7.98954E-05 8.64152E-09-3.40737E-05-6.20457E-06-7.81689E-20-3.79880E-18
 -1        13 7.99382E-05 4.16700E-09-3.40945E-05-3.63356E-06-5.13026E-20-3.94855E-18
 -1        14 8.00585E-05 2.43590E-09-3.41475E-05-1.15137E-06-2.44283E-20-4.05897E-18
 -1        15 8.02370E-05 2.56431E-09-3.42236E-05 1.30767E-06 1.08890E-20-4.14096E-18
 -1        16 8.04752E-05 4.51520E-09-3.43235E-05 3.80623E-06 3.26405E-20-4.14728E-18
 -1        17 8.07967E-05 8.56611E-09-3.44575E-05 6.41331E-06 4.33376E-20-4.07761E-18
 -1        18 8.12451E-05 1.85433E-08-3.46476E-05 9.16333E-06 7.04361E-20-3.87059E-18
 -1        19 8.19528E-05 3.87640E-08-3.49568E-05 1.22728E-05 1.01207E-19-3.45400E-18
 -1        20 8.31802E-05 8.21982E-08-3.55107E-05 1.59027E-05 1.40899E-19-2.57630E-18
 -1        21 8.56369E-05 1.69519E-07-3.66097E-05 2.05505E-05 1.91085E-19-7.63283E-19
 -1        22 9.24273E-05-1.07067E-07-3.90637E-05 2.81510E-05 3.93870E-20 3.16118E-18
 -1        23 1.09943E-04-3.71036E-05-3.44594E-05-4.31559E-06-4.52236E-19 1.18729E-17
 -1        24 9.02078E-05-2.69208E-05-2.81965E-05 3.80149E-07-1.17192E-19 9.65365E-18
 -1        25 8.66019E-05-2.60944E-05-2.61710E-05 3.67936E-07-8.32623E-20 7.29739E-18
 -1        26 8.55376E-05-2.57433E-05-2.56489E-05 2.00460E-07 3.63761E-20 5.50362E-18
 -1        27 8.55857E-05-2.57287E-05-2.56475E-05 1.37610E-07-8.03242E-20 4.45390E-18
 -1        28 8.61316E-05-2.58692E-05-2.58203E-05 9.93369E-08-1.24271E-19 3.45728E-18
 -1        29 8.68914E-05-2.60836E-05-2.60539E-05 7.39347E-08 5.92765E-20 2.58780E-18
 -1        30 8.77119E-05-2.63223E-05-2.63019E-05 5.54890E-08 1.71264E-20 1.95267E-18
 -1        31 8.85041E-05-2.65558E-05-2.65396E-05 4.10545E-08 7.73196E-20 1.41823E-18
 -1        32 8.92127E-05-2.67651E-05-2.67534E-05 2.87763E-08-1.71524E-19 8.09565E-19
 -1        33 8.98001E-05-2.69316E-05-2.69469E-05 1.69432E-08 1.43677E-19 5.55445E-19
 -1        34 9.02315E-05-2.70189E-05-2.71723E-05 1.36937E-09-2.47018E-19 2.15881E-19
 -1        35 9.04585E-05-2.69422E-05-2.76028E-05-2.31983E-08 6.40436E-20-4.46916E-19
 -1        36 9.04547E-05-2.63295E-05-2.83486E-05 5.52434E-07 1.23945E-20-1.15249E-19
 -1        37 9.53805E-05-2.92123E-05-2.76539E-05 5.71371E-07-2.77642E-19-4.88314E-19
 -1        38 9.50843E-05-2.88036E-05-2.78297E-05-4.72531E-08-1.05759E-19-1.04381E-18
 -1        39 9.51109E-05-2.86166E-05-2.83555E-05-2.25064E-08 2.75632E-19-3.35279E-19
 -1        40 9.54930E-05-2.86554E-05-2.86617E-05-7.76941E-09-4.97442E-20-5.02727E-19
 -1        41 9.61077E-05-2.88300E-05-2.88635E-05 2.62511E-09 1.05063E-19-1.91023E-18
 -1        42 9.69439E-05-2.90834E-05-2.91125E-05 9.02156E-09-9.16766E-20-2.26960E-18
 -1        43 9.80333E-05-2.94162E-05-2.94277E-05 1.86650E-08-2.53839E-20-1.03668E-18
 -1        44 9.94281E-05-2.98379E-05-2.98455E-05 2.94573E-08 1.45735E-19-3.24045E-19
 -1        45 1.01185E-04-3.03654E-05-3.03769E-05 4.35705E-08-2.37392E-19-4.55600E-19
 -1        46 1.03363E-04-3.10175E-05-3.10348E-05 6.28196E-08 1.18128E-19-1.06876E-18
 -1        47 1.05997E-04-3.18044E-05-3.18268E-05 8.73037E-08-7.59840E-20-7.87281E-19
 -1        48 1.09059E-04-3.27176E-05-3.27409E-05 1.14915E-07 7.24069E-19 1.16810E-18
 -1        49 1.12407E-04-3.37138E-05-3.37286E-05 1.39377E-07-9.34619E-20 1.50205E-18
 -1        50 1.15706E-04-3.46941E-05-3.46821E-05 1.47131E-07 9.04485E-20-1.29914E-19
 -1        51 1.18353E-04-3.54804E-05-3.54153E-05 1.14402E-07-6.32942E-20-8.92730E-19
 -1        52 1.19449E-04-3.58074E-05-3.56636E-05 9.06847E-09 3.78397E-19-3.97392E-19
 -1        53 1.17928E-04-3.53587E-05-3.51362E-05-1.93702E-07-6.99719E-19-2.71973E-18
 -1        54 1.12979E-04-3.38893E-05-3.36488E-05-4.74437E-07 5.64612E-19-2.94638E-18
 -1        55 1.04784E-04-3.14443E-05-3.13179E-05-7.25795E-07-1.32314E-19-8.26863E-19
 -1        56 9.52010E-05-2.85709E-05-2.86960E-05-7.65088E-07 2.95550E-19 9.05240E-19
 -1        57 8.75775E-05-2.62754E-05-2.66661E-05-4.63718E-07 4.43706E-19 3.10313E-18
 -1        58 8.51783E-05-2.55513E-05-2.60314E-05 8.51415E-08-2.65499E-19 2.57937E-18
 -1        59 8.90658E-05-2.67242E-05-2.70452E-05 5.84999E-07 8.80914E-20 2.80873E-18
 -1        60 9.73242E-05-2.92080E-05-2.92466E-05 7.81279E-07-3.42277E-19 1.91271E-18
 -1        61 1.06410E-04-3.19280E-05-3.17472E-05 6.56231E-07 7.51915E-19 2.14088E-18
 -1        62 1.13292E-04-3.39771E-05-3.37266E-05 3.74847E-07-9.67123E-20 2.39458E-18
 -1        63 1.16638E-04-3.49672E-05-3.47607E-05 1.06488E-07-2.06605E-19 3.69402E-18
 -1        64 1.16641E-04-3.49642E-05-3.48394E-05-7.18671E-08-6.31473E-19 1.89371E-18
 -1        65 1.14250E-04-3.42522E-05-3.41981E-05-1.59501E-07 2.75843E-19 1.09485E-18
 -1        66 1.10521E-04-3.31443E-05-3.31342E-05-1.85584E-07 6.55529E-19 1.73213E-18
 -1        67 1.06315E-04-3.18939E-05-3.19068E-05-1.78892E-07 4.59697E-20 4.95246E-18
 -1        68 1.02243E-04-3.06816E-05-3.07100E-05-1.56184E-07-3.65826E-19 3.69588E-18
 -1        69 9.87519E-05-2.96389E-05-2.96882E-05-1.18846E-07-4.61423E-19-1.56394E-18
 -1        70 9.62419E-05-2.88803E-05-2.89559E-05-4.01763E-08 3.55656E-19-4.41247E-18
 -1        71 9.50915E-05-2.85024E-05-2.85628E-05 7.56990E-08-9.51835E-19-5.58566E-18
 -1        72 1.03293E-04-3.09255E-05-3.45052E-05-1.95714E-06 2.33463E-19 1.10458E-17
 -1        73 9.36297E-05-2.78327E-05-2.92331E-05-3.37241E-07 1.15230E-19 7.72489E-18
 -1        74 9.01354E-05-2.70101E-05-2.72811E-05-1.26984E-07 4.37959E-20 5.51187E-18
 -1        75 8.90309E-05-2.67350E-05-2.67305E-05-9.58373E-08 2.09314E-20 3.85437E-18
 -1        76 8.90121E-05-2.67274E-05-2.66904E-05-7.63451E-08 4.20253E-20 2.44068E-18
 -1        77 8.94885E-05-2.68612E-05-2.68337E-05-6.19056E-08 5.91041E-20 1.03785E-18
 -1        78 9.01788E-05-2.70621E-05-2.70432E-05-5.08020E-08-1.46183E-20 5.04713E-19
 -1        79 9.09345E-05-2.72854E-05-2.72710E-05-4.16110E-08 8.46642E-20-2.88216E-19
 -1        80 9.16743E-05-2.75054E-05-2.74937E-05-3.36951E-08-1.89103E-19-1.11323E-18
 -1        81 9.23561E-05-2.77095E-05-2.76977E-05-2.69753E-08 2.45958E-19-1.01931E-18
 -1        82 9.29617E-05-2.78926E-05-2.78737E-05-2.17444E-08-5.56466E-20-1.55790E-18
 -1        83 9.34777E-05-2.80528E-05-2.80196E-05-1.22930E-08 2.51282E-22-1.70993E-18
 -1        84 9.38881E-05-2.81681E-05-2.81614E-05-1.39658E-09-6.16216E-20-1.13027E-18
 -1        85 9.42785E-05-2.82675E-05-2.83254E-05-3.50905E-09 5.12281E-20-1.05470E-18
 -1        86 9.46607E-05-2.83898E-05-2.84202E-05-3.24687E-09 2.30553E-19-3.11085E-18
 -1        87 9.50239E-05-2.85060E-05-2.85149E-05 2.89842E-09-2.55507E-19-2.91226E-18
 -1        88 9.54108E-05-2.86247E-05-2.86278E-05 4.68396E-09-2.22551E-19-1.34111E-18
 -1        89 9.58763E-05-2.87657E-05-2.87681E-05 5.62433E-09 3.60120E-19-3.76090E-18
 -1        90 9.64610E-05-2.89416E-05-2.89467E-05 6.99111E-09-2.06778E-19-4.99631E-18
 -1        91 9.72142E-05-2.91676E-05-2.91765E-05 6.92218E-09-2.31161E-19-3.47298E-18
 -1        92 9.81967E-05-2.94622E-05-2.94756E-05 4.35897E-09 1.42165E-19-2.51816E-18
 -1        93 9.94719E-05-2.98441E-05-2.98625E-05-1.40327E-09 1.29923E-19-2.67908E-18
 -1        94 1.01097E-04-3.03301E-05-3.03539E-05-1.13836E-08-1.35052E-19-4.20795E-18
 -1        95 1.03113E-04-3.09322E-05-3.09611E-05-2.69374E-08 1.41133E-19-2.92413E-18
 -1        96 1.05524E-04-3.16515E-05-3.16832E-05-4.94062E-08 4.39491E-19-1.22754E-18
 -1        97 1.08265E-04-3.24688E-05-3.24973E-05-7.91775E-08-3.33014E-19 6.47577E-19
 -1        98 1.11158E-04-3.33314E-05-3.33443E-05-1.13764E-07 1.60955E-20-3.36795E-19
 -1        99 1.13848E-04-3.41358E-05-3.41122E-05-1.44553E-07 2.28136E-21-1.12398E-18
 -1       100 1.15757E-04-3.47131E-05-3.46253E-05-1.52849E-07-1.24922E-19-1.32337E-18
 -1       101 1.16096E-04-3.48304E-05-3.46551E-05-1.08716E-07-2.62696E-20-2.88905E-18
 -1       102 1.14017E-04-3.42339E-05-3.39773E-05 1.96274E-08 2.61341E-19-3.66049E-18
 -1       103 1.09003E-04-3.27581E-05-3.24869E-05 2.37549E-07-1.35998E-19-2.73033E-18
 -1       104 1.01444E-04-3.04971E-05-3.03450E-05 4.84057E-07 3.18811E-19-3.18135E-18
 -1       105 9.30644E-05-2.79501E-05-2.80552E-05 6.23548E-07-4.36818E-20-3.87931E-18
 -1       106 8.66462E-05-2.59614E-05-2.63481E-05 5.22953E-07 6.29418E-20-4.68982E-18
 -1       107 8.47500E-05-2.53411E-05-2.58540E-05 1.80810E-07 1.82559E-20-8.39493E-18
 -1       108 8.81468E-05-2.63567E-05-2.67521E-05-2.31988E-07 2.00065E-19-9.14576E-18
 -1       109 9.52812E-05-2.85367E-05-2.86586E-05-5.03903E-07 2.75891E-20-8.08075E-18
 -1       110 1.03296E-04-3.09886E-05-3.08559E-05-5.46775E-07-2.82234E-19-8.65686E-18
 -1       111 1.09656E-04-3.29248E-05-3.26653E-05-4.19204E-07 1.69615E-19-6.71477E-18
 -1       112 1.13102E-04-3.39640E-05-3.37036E-05-2.32962E-07-8.79736E-19-2.38208E-18
 -1       113 1.13623E-04-3.41130E-05-3.39190E-05-6.94538E-08 6.22449E-19-1.39630E-19
 -1       114 1.11912E-04-3.35903E-05-3.34758E-05 4.16867E-08-9.06164E-19 1.34003E-18
 -1       115 1.08846E-04-3.26638E-05-3.26136E-05 1.04162E-07 6.98469E-19-5.09609E-20
 -1       116 1.05196E-04-3.15658E-05-3.15598E-05 1.33396E-07 2.29964E-20-4.01462E-18
 -1       117 1.01554E-04-3.04714E-05-3.04990E-05 1.43020E-07-5.36658E-20-6.36301E-18
 -1       118 9.83792E-05-2.95152E-05-2.95780E-05 1.37609E-07-1.50763E-19-4.65429E-18
 -1       119 9.60944E-05-2.88221E-05-2.89156E-05 9.74789E-08 2.60574E-20-6.99291E-18
 -1       120 9.51026E-05-2.84867E-05-2.85614E-05-3.41247E-08 1.57484E-18-7.10233E-18
 -1       121 9.52577E-05-2.86278E-05-2.85709E-05-7.73997E-08-7.00430E-18 8.15312E-19
 -1       122 9.49452E-05-2.76233E-05-2.89317E-05 5.03766E-08-4.72347E-18-2.76965E-19
 -1       123 9.42766E-05-2.53886E-05-2.95764E-05 1.18929E-07-2.06472E-18-2.25082E-19
 -1       124 9.33992E-05-2.24505E-05-3.04236E-05 1.44868E-07-2.84177E-18 3.21854E-19
 -1       125 9.24617E-05-1.93019E-05-3.13389E-05 1.43938E-07-1.12193E-18-2.16480E-19
 -1       126 9.16117E-05-1.64385E-05-3.21741E-05 1.24417E-07-6.72202E-18-8.78693E-19
 -1       127 9.09378E-05-1.41722E-05-3.28348E-05 8.64504E-08-2.81556E-18 1.15334E-18
 -1       128 9.05545E-05-1.28817E-05-3.32102E-05 3.49981E-08-2.91994E-18-4.67944E-20
 -1       129 9.05199E-05-1.27650E-05-3.32432E-05-2.27735E-08-3.13208E-18-3.00688E-20
 -1       130 9.08435E-05-1.38534E-05-3.29250E-05-7.79858E-08-6.19851E-18-6.46404E-19
 -1       131 9.14808E-05-1.59994E-05-3.22987E-05-1.23678E-07-1.22090E-17-1.48962E-18
 -1       132 9.23288E-05-1.88520E-05-3.14674E-05-1.49112E-07-1.10088E-17 2.05313E-18
 -1       133 9.32929E-05-2.20911E-05-3.05277E-05-1.55010E-07-5.83081E-18 5.39793E-19
 -1       134 9.42114E-05-2.51843E-05-2.96402E-05-1.41464E-07-1.25506E-18 7.50586E-19
 -1       135 9.49191E-05-2.75267E-05-2.89561E-05-8.44486E-08 4.20614E-18-3.76159E-19
 -1       136 9.52008E-05-2.85773E-05-2.85664E-05 1.58453E-07 5.15974E-18-1.15199E-18
 -1       137 2.63767E-05-8.94400E-05 1.60394E-05-2.34927E-05-5.29374E-18-1.58985E-18
 -1       138 9.37038E-06-3.90914E-05 4.46996E-06-1.88447E-05 1.63816E-18 1.42302E-18
 -1       139 9.56247E-06 1.11300E-05-1.29889E-05 1.82470E-05 1.18174E-17 9.19920E-18
 -1       140 5.14892E-05 2.77871E-05-3.31026E-05 7.30056E-05 8.29965E-18 7.76263E-18
 -1       141 1.44133E-04-1.86288E-06-5.46885E-05 1.12696E-04 6.43046E-18 1.17073E-17
 -1       142 2.45489E-04-5.65658E-05-7.04983E-05 9.62152E-05 3.10607E-18 9.75528E-18
 -1       143 3.03715E-04-9.20024E-05-7.81863E-05 2.92823E-05 2.72692E-19 7.09994E-18
 -1       144 2.87872E-04-8.19293E-05-7.62666E-05-5.72061E-05-4.31762E-19 1.00246E-18
 -1       145 2.05565E-04-3.42784E-05-6.45912E-05-1.07106E-04 6.92026E-19-1.62164E-18
 -1       146 1.04115E-04 1.37116E-05-4.64419E-05-1.00927E-04 3.06372E-18-3.14292E-18
 -1       147 3.32560E-05 2.66956E-05-2.65904E-05-5.52010E-05 2.71432E-18-3.96284E-18
 -1       148 5.43931E-06-1.57546E-06-7.18348E-06-2.99658E-06 6.29261E-18-2.96610E-18
 -1       149 1.36807E-05-5.56431E-05 8.73431E-06 2.51916E-05 1.00035E-17-3.33996E-18
 -1       150 3.15660E-05-1.00075E-04 1.80106E-05 1.82079E-05 9.40715E-18-1.01857E-18
 -1       151 3.54747E-05-1.08987E-04 1.97176E-05-9.16854E-06 6.66864E-18-7.06478E-20
 -1       152 1.96545E-05-7.24857E-05 1.24916E-05-2.62778E-05-1.71969E-18-4.43739E-19
 -1       153 5.31254E-06-1.75837E-05-1.60196E-06-8.99605E-06-7.54833E-18-4.75651E-18
 -1       154 2.42149E-05 2.28527E-05-2.21676E-05 4.33546E-05-8.33523E-18-6.36757E-18
 -1       155 9.05989E-05 1.88215E-05-4.35522E-05 9.63914E-05-8.03241E-18-1.07031E-17
 -1       156 1.88459E-04-2.48251E-05-6.19459E-05 1.11925E-04-6.18292E-18-1.36961E-17
 -1       157 2.74332E-04-7.38044E-05-7.43769E-05 7.58057E-05-2.59753E-18-1.16903E-17
 -1       158 3.10156E-04-9.57177E-05-7.90456E-05 5.83144E-07 1.75786E-19-1.15270E-17
 -1       159 2.75998E-04-7.45835E-05-7.46670E-05-7.53210E-05 1.54655E-18-9.06389E-18
 -1       160 1.89388E-04-2.46764E-05-6.23106E-05-1.13508E-04 1.04058E-18-4.72941E-18
 -1       161 1.88712E-05 2.16603E-05-1.98539E-05-3.70153E-05-3.64648E-18 2.80537E-18
 -1       162 6.11462E-06-2.64457E-05 1.07017E-06 1.49620E-05-5.15589E-18 2.13579E-18
 -1       163 2.53858E-05-8.74867E-05 1.55639E-05 2.55133E-05-1.35180E-17 1.73388E-18
 -1       164 9.25847E-05-1.20193E-05-3.47265E-05-2.18840E-05-1.85606E-18 1.82506E-18
 -1       165 8.73033E-05-8.24693E-06-3.40400E-05-1.70401E-05-1.88018E-18-4.23847E-19
 -1       166 8.48846E-05-6.37374E-06-3.37559E-05-1.33307E-05-1.63802E-18-1.76499E-18
 -1       167 8.37528E-05-5.41807E-06-3.36534E-05-1.01638E-05-1.29451E-18-2.58848E-18
 -1       168 8.32174E-05-4.87438E-06-3.36435E-05-7.38662E-06-9.66060E-19-2.94666E-18
 -1       169 8.29903E-05-4.54857E-06-3.36788E-05-4.77550E-06-7.23061E-19-3.25102E-18
 -1       170 8.29636E-05-4.37892E-06-3.37367E-05-2.29040E-06-3.85848E-19-3.29500E-18
 -1       171 8.30846E-05-4.33462E-06-3.38067E-05 1.39542E-07-6.25624E-20-3.38615E-18
 -1       172 8.33406E-05-4.40833E-06-3.38861E-05 2.57709E-06 1.98471E-19-3.44891E-18
 -1       173 8.37511E-05-4.61227E-06-3.39786E-05 5.08602E-06 4.80881E-19-3.50034E-18
 -1       174 8.43625E-05-4.97459E-06-3.40932E-05 7.69386E-06 7.55945E-19-3.38945E-18
 -1       175 8.53248E-05-5.58899E-06-3.42578E-05 1.05866E-05 1.17523E-18-3.02250E-18
 -1       176 8.69172E-05-6.64115E-06-3.45211E-05 1.38679E-05 1.53844E-18-2.44897E-18
 -1       177 8.98772E-05-8.66397E-06-3.49741E-05 1.77274E-05 1.92449E-18-1.30702E-18
 -1       178 9.65206E-05-1.37449E-05-3.56882E-05 2.20285E-05 1.94738E-18 9.63976E-19
 -1       179 1.06589E-04-2.63712E-05-3.55779E-05 1.87773E-05 1.54830E-18 4.20150E-18
 -1       180 1.00776E-04-2.65908E-05-3.17915E-05-1.18741E-05-1.51431E-18 4.34343E-18
 -1       181 9.46292E-05-2.75587E-05-2.87788E-05-4.62583E-06-1.42996E-18 3.50703E-18
 -1       182 9.11184E-05-2.69264E-05-2.74637E-05-1.71529E-06-1.11849E-18 2.72825E-18
 -1       183 8.96327E-05-2.67070E-05-2.69335E-05-3.89728E-07-7.78173E-19 1.90427E-18
 -1       184 8.90886E-05-2.66404E-05-2.67456E-05 2.61904E-07-6.69637E-19 1.42762E-18
 -1       185 8.90676E-05-2.66855E-05-2.67268E-05 5.78591E-07-5.91759E-19 1.27623E-18
 -1       186 8.93238E-05-2.67928E-05-2.67951E-05 7.07685E-07-3.40842E-19 8.57082E-19
 -1       187 8.97126E-05-2.69282E-05-2.69057E-05 7.25738E-07-3.19850E-19 5.77797E-19
 -1       188 9.01469E-05-2.70707E-05-2.70314E-05 6.75655E-07-4.73098E-19 4.81582E-19
 -1       189 9.05758E-05-2.72081E-05-2.71583E-05 5.81094E-07-3.37686E-19 3.56433E-19
 -1       190 9.09746E-05-2.73310E-05-2.72915E-05 4.52188E-07-3.03820E-19-4.92156E-19
 -1       191 9.13391E-05-2.74222E-05-2.74800E-05 2.87587E-07-3.36654E-19-5.90491E-19
 -1       192 9.16261E-05-2.74038E-05-2.78284E-05 4.99700E-08 1.31827E-19-8.16196E-19
 -1       193 9.15650E-05-2.69521E-05-2.76867E-05-9.67545E-07-8.52989E-20-7.15743E-19
 -1       194 9.47678E-05-2.84062E-05-2.77591E-05-9.19386E-07-3.25975E-19-7.34536E-20
 -1       195 9.49002E-05-2.84432E-05-2.83086E-05 9.91390E-08 2.43125E-20-3.72979E-19
 -1       196 9.53203E-05-2.85410E-05-2.86238E-05 4.60277E-07-2.97057E-20-6.39276E-19
 -1       197 9.58830E-05-2.87022E-05-2.88161E-05 6.90129E-07-5.28666E-19-8.15231E-19
 -1       198 9.65592E-05-2.89001E-05-2.90207E-05 9.02714E-07-4.82427E-19-1.11472E-18
 -1       199 9.73902E-05-2.91401E-05-2.92550E-05 1.15646E-06 3.40602E-19-1.33289E-18
 -1       200 9.84175E-05-2.94365E-05-2.95615E-05 1.45898E-06 4.27713E-19-8.58498E-19
 -1       201 9.96816E-05-2.97996E-05-2.99455E-05 1.82034E-06-2.47365E-19-7.46880E-19
 -1       202 1.01223E-04-3.02478E-05-3.04141E-05 2.23712E-06-1.34082E-20-5.57170E-19
 -1       203 1.03070E-04-3.07975E-05-3.09708E-05 2.68316E-06 4.42104E-19 3.03215E-20
 -1       204 1.05216E-04-3.14591E-05-3.16092E-05 3.09725E-06 2.62296E-19-3.36428E-19
 -1       205 1.07602E-04-3.22319E-05-3.23041E-05 3.36807E-06 2.23222E-19-5.50155E-19
 -1       206 1.10081E-04-3.30933E-05-3.30021E-05 3.31871E-06-7.82832E-19-6.36684E-19
 -1       207 1.12384E-04-3.39820E-05-3.36132E-05 2.70546E-06-1.79933E-19-7.39028E-19
 -1       208 1.14093E-04-3.47695E-05-3.40113E-05 1.26276E-06-1.45762E-19-1.24659E-19
 -1       209 1.14658E-04-3.52284E-05-3.40558E-05-1.15761E-06-1.04761E-18-5.94193E-19
 -1       210 1.13514E-04-3.50309E-05-3.36435E-05-4.32717E-06-2.63814E-19 6.98395E-19
 -1       211 1.10361E-04-3.38557E-05-3.27870E-05-7.35549E-06 4.29532E-19-3.90492E-19
 -1       212 1.05609E-04-3.16891E-05-3.16742E-05-8.71247E-06 1.02377E-18 5.05837E-19
 -1       213 1.00693E-04-2.91833E-05-3.06436E-05-6.99087E-06 1.61108E-18 1.37411E-18
 -1       214 9.77000E-05-2.75777E-05-3.00541E-05-2.22420E-06-4.28016E-20 1.25395E-18
 -1       215 9.81050E-05-2.78402E-05-3.01143E-05 3.54238E-06-2.60238E-19 2.28483E-18
 -1       216 1.01609E-04-2.97722E-05-3.07827E-05 7.50807E-06-1.14090E-18 7.21202E-19
 -1       217 1.06388E-04-3.22096E-05-3.17849E-05 8.18099E-06-3.46751E-19 1.46762E-18
 -1       218 1.10430E-04-3.40182E-05-3.27493E-05 6.07950E-06-6.94656E-19-2.69707E-19
 -1       219 1.12601E-04-3.47645E-05-3.33693E-05 2.79271E-06 1.49008E-19 1.77984E-19
 -1       220 1.12750E-04-3.46003E-05-3.35085E-05-2.97186E-07-2.75315E-19 1.68503E-19
 -1       221 1.11294E-04-3.38668E-05-3.31984E-05-2.51311E-06 7.02045E-19 1.32733E-18
 -1       222 1.08824E-04-3.28645E-05-3.25647E-05-3.75440E-06 5.75767E-19 3.30947E-18
 -1       223 1.05882E-04-3.17921E-05-3.17573E-05-4.19515E-06 9.58475E-19 3.30738E-18
 -1       224 1.02888E-04-3.07628E-05-3.09098E-05-4.05637E-06-9.41097E-19 1.46041E-18
 -1       225 1.00146E-04-2.98372E-05-3.01281E-05-3.49420E-06-2.41113E-18-2.76555E-19
 -1       226 9.78767E-05-2.90501E-05-2.94912E-05-2.57692E-06-8.82295E-19-7.40594E-19
 -1       227 9.61812E-05-2.84314E-05-2.90311E-05-1.34874E-06-7.15735E-19-1.30859E-18
 -1       228 1.00432E-04-2.88306E-05-3.08688E-05 7.26547E-06 1.59863E-18 3.39397E-18
 -1       229 9.52946E-05-2.80544E-05-2.87877E-05 2.78587E-06 1.07706E-18 2.28978E-18
 -1       230 9.29288E-05-2.76519E-05-2.79306E-05 9.73770E-07 9.66120E-19 1.27583E-18
 -1       231 9.19331E-05-2.74753E-05-2.75977E-05 1.16405E-07 8.03087E-19 5.83885E-19
 -1       232 9.16711E-05-2.74529E-05-2.75085E-05-3.06667E-07 5.53111E-19 1.48522E-19
 -1       233 9.18010E-05-2.75224E-05-2.75413E-05-5.03543E-07 2.92641E-19-2.43420E-19
 -1       234 9.21284E-05-2.76381E-05-2.76353E-05-5.74300E-07 4.44169E-19-5.00721E-19
 -1       235 9.25401E-05-2.77711E-05-2.77562E-05-5.73933E-07 4.65747E-19-8.68038E-19
 -1       236 9.29700E-05-2.79046E-05-2.78833E-05-5.36091E-07 2.38879E-19-1.71820E-18
 -1       237 9.33828E-05-2.80312E-05-2.80024E-05-4.81648E-07-1.16394E-19-1.29965E-18
 -1       238 9.37712E-05-2.81582E-05-2.81051E-05-4.19020E-07 1.39921E-19-1.07191E-18
 -1       239 9.41262E-05-2.82492E-05-2.82205E-05-3.46795E-07 3.41725E-20-1.49978E-18
 -1       240 9.44861E-05-2.83387E-05-2.83699E-05-3.54305E-07 3.55009E-19-1.90358E-18
 -1       241 9.48402E-05-2.84539E-05-2.84647E-05-3.40124E-07 5.85412E-19-2.16768E-18
 -1       242 9.51572E-05-2.85431E-05-2.85522E-05-3.31399E-07-5.99112E-19-1.29427E-18
 -1       243 9.55075E-05-2.86383E-05-2.86573E-05-3.76647E-07-3.75035E-20-1.84159E-18
 -1       244 9.59307E-05-2.87585E-05-2.87863E-05-4.59692E-07 1.35444E-18-2.77283E-18
 -1       245 9.64520E-05-2.89054E-05-2.89471E-05-5.78616E-07 1.99895E-19-2.63016E-18
 -1       246 9.71096E-05-2.90908E-05-2.91496E-05-7.44452E-07-7.16707E-19-2.69138E-18
 -1       247 9.79482E-05-2.93299E-05-2.94065E-05-9.62901E-07-7.44095E-19-1.96826E-18
 -1       248 9.90117E-05-2.96371E-05-2.97307E-05-1.23267E-06-5.03914E-20-1.13235E-18
 -1       249 1.00338E-04-3.00255E-05-3.01329E-05-1.54532E-06 5.67313E-19-1.55912E-18
 -1       250 1.01950E-04-3.05054E-05-3.06189E-05-1.88114E-06-7.97654E-19-2.20238E-18
 -1       251 1.03844E-04-3.10812E-05-3.11852E-05-2.20135E-06-9.53903E-19-2.73516E-19
 -1       252 1.05970E-04-3.17462E-05-3.18127E-05-2.43735E-06-5.46591E-19 6.70799E-19
 -1       253 1.08202E-04-3.24744E-05-3.24585E-05-2.47958E-06 5.86582E-19 1.39654E-18
 -1       254 1.10310E-04-3.32088E-05-3.30472E-05-2.17308E-06 4.87549E-19 5.57525E-19
 -1       255 1.11934E-04-3.38458E-05-3.34680E-05-1.33577E-06 2.01351E-19-4.88142E-19
 -1       256 1.12595E-04-3.42215E-05-3.35853E-05 1.74441E-07 3.35858E-19-1.45554E-18
 -1       257 1.11783E-04-3.41167E-05-3.32749E-05 2.32017E-06-6.69454E-20-1.04324E-18
 -1       258 1.09154E-04-3.33132E-05-3.24893E-05 4.69626E-06-2.05005E-19-4.70934E-19
 -1       259 1.04864E-04-3.17413E-05-3.13306E-05 6.43060E-06 1.35723E-18-1.05081E-18
 -1       260 9.98531E-05-2.96913E-05-3.00789E-05 6.43133E-06-1.39028E-19-1.83342E-18
 -1       261 9.57790E-05-2.78925E-05-2.91222E-05 4.10067E-06 4.40417E-19-1.55376E-18
 -1       262 9.43049E-05-2.71985E-05-2.87920E-05 6.61748E-08 1.88912E-18-2.96196E-18
 -1       263 9.60597E-05-2.79758E-05-2.91952E-05-3.92598E-06-9.29817E-20-4.45048E-18
 -1       264 1.00172E-04-2.97847E-05-3.01588E-05-6.15438E-06-6.95717E-19-3.00920E-18
 -1       265 1.04879E-04-3.17417E-05-3.13238E-05-6.04165E-06 2.46803E-19-2.68773E-18
 -1       266 1.08583E-04-3.31415E-05-3.23136E-05-4.21779E-06-1.67408E-18-1.53276E-18
 -1       267 1.10474E-04-3.37325E-05-3.28810E-05-1.77330E-06-1.99398E-18-9.12786E-20
 -1       268 1.10512E-04-3.36138E-05-3.29575E-05 4.31191E-07-4.79847E-19-1.73468E-19
 -1       269 1.09101E-04-3.30170E-05-3.26132E-05 1.99452E-06-9.00484E-19 5.18634E-19
 -1       270 1.06778E-04-3.21658E-05-3.19828E-05 2.86698E-06 2.77769E-18 8.81162E-20
 -1       271 1.04042E-04-3.12274E-05-3.12103E-05 3.16218E-06 1.50754E-18-2.23108E-18
 -1       272 1.01293E-04-3.03136E-05-3.04218E-05 3.01597E-06 4.11700E-19-2.93942E-18
 -1       273 9.88388E-05-2.94986E-05-2.97202E-05 2.51754E-06-9.58295E-19-4.43589E-18
 -1       274 9.69188E-05-2.88342E-05-2.91813E-05 1.69604E-06 9.69664E-19-3.63511E-18
 -1       275 9.56762E-05-2.84277E-05-2.88151E-05 6.36775E-07-4.28163E-19-2.51101E-18
 -1       276 9.53323E-05-2.76388E-05-2.90058E-05 1.28053E-06-7.55792E-19 1.45299E-18
 -1       277 9.47739E-05-2.61426E-05-2.94103E-05 2.32090E-06-1.87156E-18 8.35871E-19
 -1       278 9.40424E-05-2.41799E-05-2.99395E-05 2.97827E-06-2.08612E-18 1.77843E-19
 -1       279 9.32532E-05-2.19827E-05-3.05451E-05 3.17506E-06-1.51211E-18-3.17195E-20
 -1       280 9.24966E-05-1.98565E-05-3.11355E-05 2.93295E-06-3.31630E-18-3.15223E-18
 -1       281 9.18373E-05-1.80088E-05-3.16478E-05 2.28121E-06-1.79313E-18 1.43437E-18
 -1       282 9.13803E-05-1.67385E-05-3.19986E-05 1.29959E-06-1.88897E-18 6.35986E-19
 -1       283 9.11951E-05-1.62326E-05-3.21368E-05 1.18591E-07-1.50192E-18-8.51445E-19
 -1       284 9.13138E-05-1.65738E-05-3.20409E-05-1.09299E-06-1.76871E-18-1.70176E-18
 -1       285 9.17221E-05-1.77198E-05-3.17228E-05-2.15720E-06-1.41921E-18-2.50848E-18
 -1       286 9.23486E-05-1.94744E-05-3.12362E-05-2.90847E-06-1.73077E-18 2.85801E-19
 -1       287 9.31301E-05-2.16528E-05-3.06342E-05-3.25879E-06-2.50970E-18 2.46819E-18
 -1       288 9.39552E-05-2.39253E-05-3.00112E-05-3.12330E-06-7.24494E-19 4.13314E-18
 -1       289 9.47444E-05-2.59868E-05-2.94615E-05-2.44712E-06-2.42227E-19 3.34729E-18
 -1       290 9.54806E-05-2.73119E-05-2.92075E-05-2.15258E-06-1.59785E-18 1.53016E-18
 -1       291 1.24950E-05-4.75203E-05 1.18279E-05 7.67958E-06-3.34319E-18 2.92417E-18
 -1       292 2.73774E-05-4.19175E-05 4.07741E-06 2.51876E-05-4.24152E-19 4.31839E-18
 -1       293 5.20094E-05-3.82179E-05-7.63748E-06 3.46164E-05 5.85300E-19 6.74259E-18
 -1       294 8.59702E-05-3.16949E-05-2.37934E-05 4.38310E-05 4.58245E-18 2.79648E-18
 -1       295 1.32735E-04-3.31547E-05-4.17919E-05 4.34395E-05 3.55510E-18 6.22802E-18
 -1       296 1.74987E-04-3.24696E-05-5.85091E-05 4.00285E-05 4.33014E-18 4.37408E-18
 -1       297 2.00602E-04-3.39776E-05-6.82456E-05 1.90948E-05 2.11155E-18 5.54457E-18
 -1       298 1.99730E-04-3.00308E-05-6.99832E-05-2.66237E-06 3.42530E-18 3.59603E-18
 -1       299 1.84229E-04-3.08504E-05-6.37156E-05-1.86350E-05 1.46272E-18 1.47257E-18
 -1       300 1.57339E-04-3.30261E-05-5.17154E-05-3.81101E-05 1.02586E-18-3.65706E-19
 -1       301 1.15746E-04-3.20432E-05-3.54774E-05-4.52023E-05 1.25340E-18 1.66654E-19
 -1       302 7.54743E-05-3.43084E-05-1.85441E-05-4.10559E-05 2.64444E-18-5.20925E-20
 -1       303 4.00685E-05-3.86077E-05-2.91873E-06-2.87606E-05 4.15999E-18 2.60436E-19
 -1       304 1.96980E-05-4.58637E-05 8.04674E-06-1.55016E-05 4.58414E-18-1.41147E-18
 -1       305 1.14073E-05-4.98442E-05 1.29266E-05-2.85591E-06 3.25427E-18-2.11854E-18
 -1       306 1.50312E-05-4.60895E-05 1.01978E-05 1.16439E-05 1.25234E-18-3.48988E-18
 -1       307 3.38689E-05-4.09862E-05 7.38584E-07 2.63721E-05-1.42958E-18-4.23016E-18
 -1       308 7.03301E-05-3.90091E-05-1.44860E-05 3.95940E-05-3.15562E-18-3.52059E-18
 -1       309 1.08849E-04-3.28997E-05-3.24000E-05 4.44864E-05-3.63271E-18-5.77973E-18
 -1       310 1.51560E-04-3.13857E-05-4.97955E-05 4.43791E-05-3.26425E-18-7.05176E-18
 -1       311 1.86597E-04-3.35602E-05-6.28478E-05 2.93927E-05-3.14551E-18-7.07484E-18
 -1       312 2.06383E-04-3.46597E-05-7.02405E-05 1.05390E-05-8.66091E-19-8.01801E-18
 -1       313 2.03044E-04-3.26394E-05-6.99358E-05-9.93717E-06 7.14896E-19-7.14255E-18
 -1       314 1.89720E-04-3.43973E-05-6.35476E-05-3.32823E-05 5.41254E-19-8.43285E-18
 -1       315 1.52451E-04-3.22490E-05-4.98841E-05-4.24767E-05 7.75406E-19-6.43851E-18
 -1       316 1.08347E-04-3.46161E-05-3.14915E-05-4.43455E-05-5.31090E-19-4.94731E-18
 -1       317 6.10958E-05-3.66208E-05-1.19429E-05-3.74240E-05-1.00268E-18-9.35336E-19
 -1       318 2.85916E-05-4.33565E-05 3.59263E-06-2.30253E-05-2.94958E-18-2.43681E-18
 -1       319 1.31027E-05-5.03467E-05 1.23283E-05-6.59896E-06-3.55389E-18 4.09858E-19
 -1       320 8.97502E-05-1.41249E-05-3.24867E-05-1.26930E-05-2.04911E-18-5.77068E-19
 -1       321 9.35153E-05-1.86435E-05-3.21487E-05-1.43185E-05-2.11650E-18 7.14241E-19
 -1       322 8.66216E-05-1.02086E-05-3.28026E-05-7.93852E-06-1.33021E-18-2.04461E-18
 -1       323 8.60258E-05-9.33206E-06-3.29166E-05-5.53223E-06-1.04983E-18-2.38616E-18
 -1       324 8.57719E-05-8.83633E-06-3.30169E-05-3.20372E-06-6.44023E-19-2.47263E-18
 -1       325 8.57630E-05-8.62274E-06-3.31033E-05-9.25645E-07-2.21422E-19-2.56524E-18
 -1       326 8.59612E-05-8.65378E-06-3.31751E-05 1.33870E-06 1.09561E-19-2.66325E-18
 -1       327 8.63713E-05-8.93378E-06-3.32325E-05 3.62755E-06 4.38884E-19-2.76938E-18
 -1       328 8.70261E-05-9.49642E-06-3.32757E-05 5.93816E-06 8.23523E-19-2.74452E-18
 -1       329 8.80541E-05-1.04693E-05-3.33062E-05 8.37592E-06 1.23022E-18-2.37052E-18
 -1       330 8.96663E-05-1.20806E-05-3.33180E-05 1.08856E-05 1.67118E-18-1.94385E-18
 -1       331 9.22983E-05-1.48112E-05-3.32906E-05 1.32926E-05 2.10219E-18-1.27756E-18
 -1       332 9.64367E-05-1.96131E-05-3.30332E-05 1.44932E-05 2.24505E-18 6.15555E-20
 -1       333 9.95783E-05-2.46615E-05-3.21962E-05 1.19912E-05 2.07759E-18 1.30575E-18
 -1       334 9.71418E-05-2.70365E-05-3.00157E-05 5.81967E-06 1.59941E-18 7.95208E-19
 -1       335 9.41865E-05-2.54043E-05-2.94344E-05-6.18412E-06-1.68250E-18 9.14296E-19
 -1       336 9.27169E-05-2.63913E-05-2.84003E-05-2.73491E-06-1.23914E-18 7.94437E-19
 -1       337 9.17821E-05-2.67915E-05-2.78388E-05-8.57348E-07-1.07438E-18 6.39114E-19
 -1       338 9.12959E-05-2.70103E-05-2.75445E-05 1.80941E-07-7.88268E-19 3.88959E-19
 -1       339 9.11309E-05-2.71717E-05-2.74084E-05 7.28399E-07-5.37758E-19 2.80794E-19
 -1       340 9.11713E-05-2.73108E-05-2.73679E-05 9.79099E-07-4.36747E-19 6.95753E-20
 -1       341 9.13336E-05-2.74376E-05-2.73836E-05 1.04787E-06-3.96241E-19 2.20295E-19
 -1       342 9.15645E-05-2.75565E-05-2.74314E-05 1.00605E-06-5.16802E-19 1.54768E-19
 -1       343 9.18366E-05-2.76713E-05-2.74996E-05 9.01260E-07-9.36866E-19-1.74782E-19
 -1       344 9.21488E-05-2.77860E-05-2.75946E-05 7.70094E-07-5.48980E-19-6.84080E-19
 -1       345 9.25269E-05-2.78979E-05-2.77472E-05 6.49936E-07-1.66564E-19-5.87845E-19
 -1       346 9.29943E-05-2.79571E-05-2.79466E-05 6.54141E-07-6.20716E-20-4.99696E-19
 -1       347 9.32124E-05-2.75109E-05-2.78969E-05 6.14608E-07 3.32460E-20-7.78896E-19
 -1       348 9.41671E-05-2.79710E-05-2.81527E-05 3.34109E-07-1.55371E-19-7.05896E-19
 -1       349 9.47386E-05-2.80919E-05-2.86210E-05 9.24848E-07-2.05141E-20-8.17513E-19
 -1       350 9.54780E-05-2.84225E-05-2.87928E-05 1.20232E-06-3.07331E-19-8.65580E-19
 -1       351 9.60375E-05-2.85691E-05-2.90110E-05 1.50094E-06-4.28930E-19-3.94817E-19
 -1       352 9.66593E-05-2.87229E-05-2.91480E-05 1.87560E-06-2.43003E-19-8.08066E-19
 -1       353 9.73442E-05-2.88763E-05-2.93526E-05 2.31848E-06 5.37122E-19-1.12727E-18
 -1       354 9.81571E-05-2.90574E-05-2.96143E-05 2.86651E-06-1.28794E-19-1.13719E-18
 -1       355 9.91378E-05-2.92916E-05-2.99306E-05 3.51410E-06 2.61898E-19-1.17251E-18
 -1       356 1.00324E-04-2.96147E-05-3.03002E-05 4.23429E-06 5.87110E-19-1.08501E-18
 -1       357 1.01746E-04-3.00713E-05-3.07148E-05 4.95871E-06 5.52066E-19-1.23727E-18
 -1       358 1.03423E-04-3.07184E-05-3.11585E-05 5.56154E-06 3.78427E-19-1.34659E-18
 -1       359 1.05363E-04-3.16254E-05-3.16050E-05 5.83806E-06 2.35239E-19-9.70134E-19
 -1       360 1.07545E-04-3.28579E-05-3.20177E-05 5.48854E-06-1.31640E-19 3.02252E-21
 -1       361 1.09888E-04-3.44241E-05-3.23576E-05 4.13348E-06-8.67886E-20 4.22532E-19
 -1       362 1.12175E-04-3.61580E-05-3.26000E-05 1.41093E-06-3.11829E-19-4.81618E-19
 -1       363 1.13940E-04-3.75514E-05-3.27608E-05-2.76898E-06-6.86037E-19-3.35724E-19
 -1       364 1.14432E-04-3.76762E-05-3.29129E-05-7.78499E-06 4.74224E-19 5.79280E-19
 -1       365 1.12875E-04-3.55249E-05-3.31593E-05-1.18727E-05 1.22971E-18 1.82040E-18
 -1       366 1.09328E-04-3.11038E-05-3.35323E-05-1.23890E-05 1.57607E-18 1.40127E-18
 -1       367 1.05550E-04-2.65070E-05-3.38854E-05-7.56553E-06 3.85737E-19 1.63945E-18
 -1       368 1.04195E-04-2.49310E-05-3.39841E-05 1.07044E-06-3.52260E-19 2.75282E-19
 -1       369 1.06312E-04-2.76537E-05-3.37224E-05 8.93218E-06-8.32839E-19-1.12904E-19
 -1       370 1.10091E-04-3.24893E-05-3.32630E-05 1.20958E-05-2.69297E-19 2.13770E-18
 -1       371 1.12938E-04-3.63257E-05-3.28433E-05 1.01392E-05-1.12139E-19 9.95823E-19
 -1       372 1.13568E-04-3.76470E-05-3.25578E-05 5.40560E-06-1.73361E-19 2.29690E-18
 -1       373 1.12337E-04-3.69572E-05-3.23289E-05 3.89939E-07 7.99205E-20 2.75549E-18
 -1       374 1.10049E-04-3.52940E-05-3.20588E-05-3.50702E-06 2.58041E-19 1.28278E-18
 -1       375 1.07384E-04-3.34612E-05-3.16952E-05-5.90741E-06 2.55446E-18 2.08867E-18
 -1       376 1.04724E-04-3.18337E-05-3.12455E-05-6.98183E-06 1.26474E-18 3.35063E-18
 -1       377 1.02253E-04-3.04998E-05-3.07518E-05-7.06013E-06-1.57910E-18 1.73761E-18
 -1       378 1.00043E-04-2.94096E-05-3.02672E-05-6.43020E-06-3.89394E-18 1.95092E-18
 -1       379 9.81308E-05-2.84804E-05-2.98414E-05-5.27615E-06-2.06789E-18 1.70610E-18
 -1       380 9.67135E-05-2.78317E-05-2.95109E-05-3.82221E-06 2.86781E-19 1.92139E-18
 -1       381 9.50808E-05-2.75573E-05-2.89004E-05 2.54785E-06 1.30941E-18 4.31988E-19
 -1       382 9.38312E-05-2.76650E-05-2.83351E-05 8.28918E-07 1.06285E-18 1.40328E-19
 -1       383 9.32316E-05-2.77285E-05-2.80628E-05-8.50696E-08 6.77216E-19-2.43333E-19
 -1       384 9.30416E-05-2.78057E-05-2.79541E-05-5.54629E-07 4.85469E-19-4.95684E-19
 -1       385 9.30936E-05-2.78983E-05-2.79393E-05-7.68690E-07 4.74104E-19-7.93549E-19
 -1       386 9.32769E-05-2.79966E-05-2.79768E-05-8.33494E-07 6.35815E-19-6.73795E-19
 -1       387 9.35201E-05-2.80916E-05-2.80397E-05-8.13997E-07 5.53126E-19-7.75810E-19
 -1       388 9.37792E-05-2.81788E-05-2.81079E-05-7.52923E-07-1.37763E-19-8.93579E-19
 -1       389 9.40328E-05-2.82623E-05-2.81631E-05-6.87139E-07 2.14278E-19-1.29352E-18
 -1       390 9.44107E-05-2.84296E-05-2.82320E-05-5.80273E-07 3.98324E-19-1.39138E-18
 -1       391 9.46039E-05-2.83308E-05-2.84503E-05-6.33657E-07 8.24097E-19-1.79949E-18
 -1       392 9.50097E-05-2.85272E-05-2.85157E-05-5.79953E-07 4.61132E-19-1.63321E-18
 -1       393 9.52364E-05-2.85568E-05-2.85821E-05-5.65256E-07-5.11807E-19-1.75956E-18
 -1       394 9.55199E-05-2.86052E-05-2.86746E-05-6.54081E-07 5.40395E-19-2.57456E-18
 -1       395 9.58794E-05-2.86893E-05-2.87920E-05-7.94424E-07 1.51637E-18-2.37408E-18
 -1       396 9.63127E-05-2.87875E-05-2.89371E-05-9.90197E-07 1.99659E-19-1.72482E-18
 -1       397 9.68500E-05-2.89091E-05-2.91151E-05-1.26226E-06-7.26523E-19-1.86030E-18
 -1       398 9.75286E-05-2.90717E-05-2.93358E-05-1.61770E-06-8.25945E-19-1.49071E-18
 -1       399 9.83820E-05-2.92898E-05-2.96076E-05-2.05310E-06-6.66925E-19-1.01527E-18
 -1       400 9.94390E-05-2.95786E-05-2.99367E-05-2.55429E-06 1.05158E-18-7.98893E-19
 -1       401 1.00721E-04-2.99548E-05-3.03252E-05-3.09011E-06-3.78259E-19-3.73836E-19
 -1       402 1.02235E-04-3.04383E-05-3.07680E-05-3.60133E-06-1.75270E-18-5.29323E-19
 -1       403 1.03965E-04-3.10506E-05-3.12491E-05-3.98596E-06-4.75556E-19-4.99534E-19
 -1       404 1.05856E-04-3.18094E-05-3.17378E-05-4.08440E-06 3.20215E-19-4.03268E-19
 -1       405 1.07796E-04-3.27145E-05-3.21863E-05-3.67370E-06 1.05185E-18 6.75268E-19
 -1       406 1.09593E-04-3.37162E-05-3.25317E-05-2.49091E-06 1.05433E-18 9.10291E-19
 -1       407 1.10941E-04-3.46613E-05-3.27079E-05-3.20075E-07 6.26437E-19 5.85377E-19
 -1       408 1.11421E-04-3.52322E-05-3.26692E-05 2.82167E-06-2.40190E-19 1.29305E-18
 -1       409 1.10571E-04-3.49521E-05-3.24208E-05 6.41421E-06 4.31285E-19 8.13102E-20
 -1       410 1.08135E-04-3.33915E-05-3.20379E-05 9.24278E-06 8.77647E-19-5.51954E-19
 -1       411 1.04495E-04-3.06513E-05-3.16443E-05 9.65517E-06-5.96170E-19 6.81153E-19
 -1       412 1.00972E-04-2.77826E-05-3.13569E-05 6.56049E-06 5.65017E-19 3.87799E-19
 -1       413 9.93338E-05-2.64092E-05-3.12393E-05 6.70304E-07 2.16053E-18 6.87957E-19
 -1       414 1.00504E-04-2.74393E-05-3.12982E-05-5.41979E-06 9.12853E-19 8.78376E-19
 -1       415 1.03716E-04-3.01648E-05-3.15071E-05-8.95068E-06-1.63257E-18 2.43998E-19
 -1       416 1.07196E-04-3.29527E-05-3.18125E-05-8.90157E-06 1.95529E-20 1.27811E-18
 -1       417 1.09515E-04-3.46223E-05-3.21056E-05-6.19646E-06-2.10589E-18 1.19699E-18
 -1       418 1.10183E-04-3.49539E-05-3.22598E-05-2.49898E-06-1.79422E-18-3.52294E-19
 -1       419 1.09425E-04-3.43426E-05-3.21985E-05 8.69320E-07-1.63502E-18-1.76227E-19
 -1       420 1.07713E-04-3.32800E-05-3.19166E-05 3.28579E-06-3.39109E-19 6.00814E-20
 -1       421 1.05497E-04-3.21080E-05-3.14624E-05 4.65595E-06 2.14648E-18 1.69761E-19
 -1       422 1.03114E-04-3.09976E-05-3.09108E-05 5.13776E-06 2.65906E-18 4.65670E-19
 -1       423 1.00802E-04-3.00043E-05-3.03403E-05 4.93535E-06 7.00083E-19-1.31619E-18
 -1       424 9.87205E-05-2.91316E-05-2.98191E-05 4.20243E-06-5.32971E-19-2.17524E-18
 -1       425 9.69763E-05-2.83827E-05-2.93915E-05 3.03461E-06-9.62165E-19-5.38303E-19
 -1       426 9.60564E-05-2.79372E-05-2.91882E-05 2.20999E-06-3.12291E-19 1.69500E-18
 -1       427 9.40550E-05-2.39491E-05-3.00433E-05 5.29478E-06-3.02487E-18-7.10158E-19
 -1       428 9.50630E-05-2.57123E-05-2.97150E-05 4.67340E-06-1.61346E-18 1.87618E-18
 -1       429 9.56600E-05-2.69059E-05-2.94575E-05 3.55719E-06-1.69223E-18-1.00213E-18
 -1       430 9.30484E-05-2.21755E-05-3.03762E-05 5.22808E-06-3.33908E-18-2.95596E-18
 -1       431 9.20980E-05-2.05100E-05-3.06863E-05 4.46684E-06-2.41899E-19 1.24249E-18
 -1       432 9.13382E-05-1.91976E-05-3.09259E-05 3.07720E-06-3.39789E-19 8.27731E-19
 -1       433 9.08859E-05-1.84329E-05-3.10614E-05 1.22813E-06-1.32744E-18-9.28831E-19
 -1       434 9.08245E-05-1.83435E-05-3.10736E-05-8.23042E-07 1.02099E-20 3.49328E-19
 -1       435 9.11721E-05-1.89519E-05-3.09606E-05-2.77251E-06 8.00887E-19-1.93799E-18
 -1       436 9.18585E-05-2.01410E-05-3.07425E-05-4.30991E-06 1.00581E-18-9.69906E-19
 -1       437 9.28063E-05-2.17790E-05-3.04432E-05-5.27000E-06 4.13434E-19 2.82741E-18
 -1       438 9.38895E-05-2.36353E-05-3.01074E-05-5.49352E-06-3.84482E-19 2.89256E-18
 -1       439 9.50021E-05-2.55024E-05-2.97781E-05-4.96284E-06-1.56351E-18 3.02826E-18
 -1       440 5.78578E-05-4.18937E-05-6.94935E-06 4.30043E-05-1.23815E-18 5.95012E-18
 -1       441 1.15534E-05-2.45634E-05 5.22031E-06-1.15604E-06 4.95316E-20 1.80598E-18
 -1       442 2.36842E-05-2.67495E-05 1.21169E-06 2.58752E-05-8.64874E-19 4.16973E-18
 -1       443 9.93393E-05-5.43839E-05-1.92027E-05 4.17432E-05-3.54907E-19 4.20221E-18
 -1       444 1.28307E-04-5.68786E-05-3.07428E-05 2.85571E-05 1.55145E-18 2.35825E-18
 -1       445 8.77456E-05-1.16686E-05-3.26691E-05-1.03961E-05-1.73067E-18-1.40488E-18
 -1       446 1.58227E-04-2.59180E-05-5.65805E-05 4.33374E-07 2.31981E-18 2.90913E-18
 -1       447 1.51165E-04-1.15144E-05-6.00343E-05-2.02717E-06 3.50301E-18 4.08235E-18
 -1       448 1.49649E-04-1.40050E-05-5.84212E-05 5.01116E-06 3.06065E-18 4.03309E-18
 -1       449 1.55403E-04-3.35144E-05-5.21865E-05-1.89524E-06 1.67109E-18 8.50315E-19
 -1       450 1.43867E-04-4.89700E-05-4.06387E-05-1.74287E-05 1.26271E-18-3.00061E-19
 -1       451 1.19712E-04-5.57485E-05-2.74386E-05-3.29990E-05 7.66882E-19-1.64907E-19
 -1       452 8.07228E-05-4.86285E-05-1.38591E-05-4.35214E-05 1.31216E-18 2.66094E-18
 -1       453 4.43532E-05-3.57075E-05-3.80437E-06-3.90208E-05 7.80329E-19 1.11210E-18
 -1       454 1.72248E-05-2.58619E-05 3.42050E-06-1.87481E-05 1.28474E-18-1.60100E-18
 -1       455 1.39631E-05-2.07406E-05 2.96984E-06 8.12199E-06 9.02805E-19-3.92293E-18
 -1       456 3.30734E-05-3.18451E-05-7.04434E-07 3.29904E-05-2.42463E-20-5.42938E-18
 -1       457 7.19116E-05-4.60626E-05-1.10450E-05 4.38982E-05-4.30081E-19-3.83857E-18
 -1       458 1.13915E-04-5.52534E-05-2.51571E-05 3.55808E-05-2.08105E-18-3.23365E-18
 -1       459 1.43396E-04-5.25645E-05-3.89361E-05 1.57016E-05-1.35433E-18-3.55203E-18
 -1       460 1.53708E-04-3.90793E-05-4.92073E-05 3.31679E-06-2.00667E-18-3.22592E-18
 -1       461 1.58821E-04-2.03032E-05-5.92810E-05-2.88403E-06-1.20660E-18-3.42699E-18
 -1       462 1.56103E-04-1.20031E-05-6.17088E-05-5.52467E-07 1.10220E-19-2.92472E-18
 -1       463 1.60809E-04-2.10712E-05-5.96476E-05 6.58460E-07 7.72706E-19-3.85178E-18
 -1       464 1.58873E-04-3.48328E-05-5.28255E-05-6.12356E-06-6.45916E-19-6.95912E-18
 -1       465 1.42266E-04-5.13207E-05-3.89321E-05-2.02081E-05-1.63144E-18-5.53165E-18
 -1       466 1.10977E-04-5.73700E-05-2.29783E-05-3.78329E-05 2.65545E-19-3.92430E-18
 -1       467 6.37907E-05-4.42959E-05-8.51631E-06-4.36449E-05-1.91112E-19-2.21716E-18
 -1       468 2.67282E-05-2.78534E-05 4.44557E-07-2.87054E-05 1.05223E-18-2.99966E-18
 -1       469 1.52802E-04-4.16441E-05-4.74261E-05 1.06709E-05 2.75546E-18 1.61286E-18
 -1       470 9.63628E-05-2.53138E-05-3.04355E-05 6.13842E-06 1.54321E-18-4.56360E-19
 -1       471 8.84548E-05-1.32486E-05-3.22501E-05-3.72382E-06-7.21238E-19-2.06698E-18
 -1       472 8.89389E-05-1.41539E-05-3.20717E-05-5.66926E-06-1.05973E-18-1.96250E-18
 -1       473 8.83615E-05-1.26450E-05-3.24676E-05 2.34150E-07-1.52052E-19-2.37266E-18
 -1       474 8.86891E-05-1.28584E-05-3.25169E-05 2.21785E-06 1.23399E-19-2.51615E-18
 -1       475 8.92705E-05-1.34234E-05-3.25251E-05 4.16468E-06 6.10615E-19-2.55023E-18
 -1       476 9.01855E-05-1.44395E-05-3.24836E-05 6.11336E-06 1.01860E-18-2.30565E-18
 -1       477 9.15287E-05-1.60519E-05-3.23704E-05 7.93481E-06 1.33403E-18-1.89588E-18
 -1       478 9.35230E-05-1.85665E-05-3.21446E-05 9.44150E-06 1.67148E-18-1.41711E-18
 -1       479 9.56234E-05-2.67390E-05-2.95039E-05 3.00062E-06 1.36066E-18-6.28029E-19
 -1       480 9.34473E-05-2.38911E-05-2.97997E-05-5.63649E-06-1.57179E-18-1.33726E-19
 -1       481 1.41737E-04-5.48735E-05-3.74135E-05 5.08221E-06 9.19152E-19 1.89153E-19
 -1       482 5.43625E-05-3.04926E-05-9.65005E-06 3.81975E-05-2.09545E-18 5.16537E-18
 -1       483 9.32744E-05-2.56601E-05-2.89696E-05-2.76904E-06-1.18081E-18-1.61323E-19
 -1       484 9.29568E-05-2.65991E-05-2.84357E-05-9.39419E-07-1.00075E-18-1.58708E-19
 -1       485 9.27140E-05-2.71361E-05-2.81034E-05 1.61247E-07-7.68824E-19-9.61230E-21
 -1       486 9.25904E-05-2.74722E-05-2.79073E-05 7.77291E-07-5.04358E-19-2.24858E-19
 -1       487 9.25710E-05-2.76976E-05-2.78027E-05 1.07995E-06-5.10297E-19-5.52435E-19
 -1       488 9.26301E-05-2.78578E-05-2.77592E-05 1.18454E-06-5.65562E-19-7.92405E-19
 -1       489 9.27482E-05-2.79778E-05-2.77579E-05 1.17351E-06-8.43722E-19-8.68390E-19
 -1       490 9.29154E-05-2.80708E-05-2.77903E-05 1.11162E-06-7.59594E-19-4.02174E-19
 -1       491 9.31262E-05-2.81335E-05-2.78593E-05 1.05858E-06-1.91827E-19 3.85919E-20
 -1       492 9.33532E-05-2.81276E-05-2.79632E-05 1.07650E-06-1.44302E-19 6.85554E-20
 -1       493 9.34545E-05-2.79136E-05-2.80036E-05 1.12965E-06-2.00829E-19-2.64420E-19
 -1       494 9.34803E-05-2.76360E-05-2.79121E-05 1.06083E-06-4.61792E-19-5.87100E-20
 -1       495 9.40780E-05-2.79450E-05-2.80056E-05 1.13237E-06-3.46476E-19-3.13720E-19
 -1       496 9.51995E-05-2.84950E-05-2.85428E-05 1.31251E-06-3.46251E-19-3.59671E-19
 -1       497 9.52435E-05-2.79616E-05-2.91124E-05 1.88711E-06 2.79680E-19-4.34621E-19
 -1       498 9.60263E-05-2.83240E-05-2.91163E-05 2.28101E-06-4.01106E-19-2.02414E-19
 -1       499 9.63745E-05-2.83049E-05-2.92249E-05 2.71395E-06-5.19456E-19-1.63885E-19
 -1       500 9.67841E-05-2.83008E-05-2.93709E-05 3.32430E-06 1.23990E-19-1.41986E-18
 -1       501 9.72569E-05-2.83078E-05-2.95534E-05 4.06538E-06-7.21318E-20-8.66340E-19
 -1       502 9.78531E-05-2.83829E-05-2.97718E-05 4.93515E-06-4.27929E-20-6.63868E-19
 -1       503 9.86225E-05-2.85961E-05-3.00095E-05 5.87887E-06 4.67428E-19-1.73530E-18
 -1       504 9.96285E-05-2.90428E-05-3.02498E-05 6.80256E-06 5.86789E-19-1.80365E-18
 -1       505 1.00969E-04-2.98594E-05-3.04757E-05 7.55150E-06 5.10110E-19-1.57127E-18
 -1       506 1.02788E-04-3.12227E-05-3.06733E-05 7.88262E-06 9.18545E-19-1.23765E-18
 -1       507 1.05264E-04-3.33085E-05-3.08440E-05 7.43884E-06 4.88424E-20-1.12768E-18
 -1       508 1.08537E-04-3.61627E-05-3.10268E-05 5.74595E-06-9.19835E-20-3.43061E-19
 -1       509 1.12499E-04-3.94245E-05-3.13295E-05 2.29483E-06-2.21705E-19 9.23862E-19
 -1       510 1.16439E-04-4.19245E-05-3.19494E-05-3.12299E-06 2.65100E-19 8.94506E-19
 -1       511 1.18851E-04-4.16105E-05-3.31277E-05-9.68970E-06 6.17250E-19 8.69470E-19
 -1       512 1.17834E-04-3.64104E-05-3.49518E-05-1.45825E-05 1.13541E-18 3.16529E-19
 -1       513 1.13475E-04-2.73371E-05-3.70192E-05-1.34760E-05 7.21169E-19-3.38168E-19
 -1       514 1.09625E-04-2.05235E-05-3.83134E-05-4.61092E-06-9.21949E-19-1.15410E-18
 -1       515 1.10318E-04-2.18356E-05-3.80615E-05 7.14215E-06-7.29825E-19-9.14716E-19
 -1       516 1.14799E-04-3.01969E-05-3.63446E-05 1.37905E-05 4.42912E-19-9.19027E-19
 -1       517 1.18325E-04-3.86287E-05-3.41997E-05 1.26713E-05-6.26267E-19-4.67365E-20
 -1       518 1.17947E-04-4.21311E-05-3.25119E-05 6.67495E-06-1.35099E-20-2.24044E-19
 -1       519 1.14788E-04-4.13761E-05-3.14744E-05 1.53096E-07 3.11516E-19 8.31052E-20
 -1       520 1.10559E-04-3.84161E-05-3.09304E-05-4.85078E-06-9.27306E-19-1.42580E-18
 -1       521 1.06609E-04-3.51421E-05-3.06373E-05-7.87028E-06 2.02305E-18-1.01682E-18
 -1       522 1.03391E-04-3.23789E-05-3.04382E-05-9.23916E-06 3.50612E-18-5.55172E-19
 -1       523 1.00916E-04-3.03183E-05-3.02572E-05-9.41717E-06-4.89157E-21-4.41152E-19
 -1       524 9.90064E-05-2.88230E-05-3.00774E-05-8.78998E-06-1.39999E-18 1.48651E-18
 -1       525 9.74826E-05-2.76741E-05-2.99145E-05-7.59291E-06-2.32019E-18 6.10658E-18
 -1       526 9.45780E-05-2.78240E-05-2.86054E-05 2.42335E-08 8.66890E-19-8.75142E-19
 -1       527 9.43609E-05-2.80554E-05-2.84154E-05-5.78746E-07 6.01126E-19-1.07163E-18
 -1       528 9.42880E-05-2.82093E-05-2.83191E-05-8.73703E-07 5.90810E-19-1.05128E-18
 -1       529 9.43066E-05-2.83153E-05-2.82811E-05-9.79038E-07 3.49402E-19-1.08871E-18
 -1       530 9.43745E-05-2.83874E-05-2.82743E-05-9.72767E-07 3.18241E-19-4.92624E-19
 -1       531 9.44586E-05-2.84323E-05-2.82691E-05-9.08562E-07 5.76764E-19-7.29100E-19
 -1       532 9.44851E-05-2.84064E-05-2.82174E-05-8.42533E-07 5.64716E-19-1.26491E-18
 -1       533 9.48164E-05-2.85903E-05-2.82336E-05-7.75358E-07 6.08649E-19-1.56905E-18
 -1       534 9.52438E-05-2.87020E-05-2.86003E-05-7.36617E-07 3.82007E-19-1.18128E-18
 -1       535 9.52662E-05-2.85732E-05-2.86013E-05-7.61344E-07-1.53727E-20-1.56257E-18
 -1       536 9.53977E-05-2.85028E-05-2.86581E-05-8.99985E-07 2.47598E-19-1.70328E-18
 -1       537 9.56415E-05-2.85303E-05-2.87499E-05-1.08483E-06 1.07414E-18-1.65436E-18
 -1       538 9.59042E-05-2.85384E-05-2.88672E-05-1.31394E-06 3.34478E-19-4.95620E-19
 -1       539 9.62126E-05-2.85362E-05-2.90024E-05-1.64835E-06-1.71186E-19 6.00593E-20
 -1       540 9.66040E-05-2.85526E-05-2.91631E-05-2.09780E-06-7.92474E-19-4.61453E-19
 -1       541 9.71026E-05-2.86056E-05-2.93538E-05-2.65839E-06-5.19189E-19-1.34285E-18
 -1       542 9.77305E-05-2.87135E-05-2.95765E-05-3.31788E-06-3.38670E-19-1.56179E-18
 -1       543 9.85112E-05-2.89028E-05-2.98299E-05-4.04917E-06 7.82799E-20-4.76441E-19
 -1       544 9.94735E-05-2.92148E-05-3.01090E-05-4.79959E-06-3.96797E-19-1.08412E-18
 -1       545 1.00654E-04-2.97107E-05-3.04034E-05-5.47584E-06-5.38205E-19-2.40626E-18
 -1       546 1.02097E-04-3.04728E-05-3.06970E-05-5.92648E-06-3.06331E-19-1.93642E-18
 -1       547 1.03853E-04-3.15948E-05-3.09713E-05-5.92580E-06 1.92361E-19-1.63291E-18
 -1       548 1.05954E-04-3.31440E-05-3.12116E-05-5.17015E-06 8.23557E-19-1.66766E-18
 -1       549 1.08359E-04-3.50698E-05-3.14209E-05-3.31273E-06-3.69791E-20-7.22540E-19
 -1       550 1.10831E-04-3.70442E-05-3.16372E-05-8.84672E-08-6.91827E-19-1.55872E-19
 -1       551 1.12799E-04-3.82940E-05-3.19454E-05 4.40392E-06 3.20834E-19 3.41516E-20
 -1       552 1.13334E-04-3.76400E-05-3.24548E-05 9.26776E-06 4.29842E-19 6.38038E-19
 -1       553 1.11662E-04-3.41995E-05-3.32144E-05 1.24545E-05 2.78184E-19 1.93875E-18
 -1       554 1.08109E-04-2.86270E-05-3.40775E-05 1.14267E-05 3.92825E-19 1.72886E-18
 -1       555 1.04947E-04-2.40310E-05-3.46907E-05 5.21561E-06 2.34849E-18 4.42550E-19
 -1       556 1.04671E-04-2.37312E-05-3.47126E-05-3.61790E-06 1.11277E-18 3.04282E-19
 -1       557 1.07471E-04-2.79792E-05-3.40895E-05-1.02741E-05 1.72050E-19 4.53194E-19
 -1       558 1.10990E-04-3.36539E-05-3.31502E-05-1.17872E-05-1.33068E-18 1.18580E-18
 -1       559 1.12744E-04-3.73708E-05-3.23120E-05-8.83908E-06-2.74749E-19 1.96601E-18
 -1       560 1.12235E-04-3.82641E-05-3.17161E-05-3.90461E-06-1.31463E-18-1.97961E-19
 -1       561 1.10164E-04-3.71033E-05-3.13259E-05 8.37742E-07-7.50060E-19-8.71957E-19
 -1       562 1.07481E-04-3.50809E-05-3.10414E-05 4.35654E-06 1.23882E-19-2.97709E-18
 -1       563 1.04797E-04-3.30016E-05-3.07780E-05 6.45948E-06 8.23219E-19-2.35421E-18
 -1       564 1.02385E-04-3.12273E-05-3.05002E-05 7.34594E-06 2.11634E-18-9.94815E-19
 -1       565 1.00303E-04-2.98076E-05-3.02119E-05 7.30728E-06 1.79708E-18-7.04971E-20
 -1       566 9.85246E-05-2.86593E-05-2.99373E-05 6.59011E-06 7.65187E-19 1.54661E-19
 -1       567 9.69801E-05-2.76833E-05-2.96918E-05 5.34891E-06-9.25430E-19 1.28268E-18
 -1       568 9.23493E-05-2.24102E-05-2.99764E-05 6.53282E-06-2.86418E-19 1.35140E-18
 -1       569 9.10252E-05-2.09185E-05-3.00490E-05 5.12049E-06 8.67574E-19 1.14830E-18
 -1       570 9.52584E-05-2.57207E-05-2.97998E-05 6.74404E-06-1.09981E-18-2.19215E-18
 -1       571 9.38095E-05-2.40651E-05-2.98908E-05 7.06424E-06-1.88483E-18-8.21050E-19
 -1       572 9.00595E-05-1.98383E-05-3.00990E-05 2.95146E-06-7.47884E-20 7.55072E-19
 -1       573 8.96346E-05-1.93684E-05-3.01187E-05 3.07342E-07 1.68873E-18 1.71152E-18
 -1       574 8.98485E-05-1.96091E-05-3.01071E-05-2.41276E-06 1.36609E-18-3.39552E-19
 -1       575 9.06462E-05-2.04976E-05-3.00672E-05-4.75097E-06 1.88521E-18-2.40038E-18
 -1       576 9.19136E-05-2.19084E-05-3.00045E-05-6.44482E-06 9.83231E-19-9.52588E-19
 -1       577 9.34322E-05-2.36106E-05-2.99242E-05-7.25196E-06-2.84082E-19 1.52385E-18
 -1       578 9.50520E-05-2.53992E-05-2.98501E-05-7.07490E-06-3.22256E-18 3.68680E-18
 -1       579 2.58851E-05-1.47669E-05-4.12970E-06 1.08385E-05 6.53380E-19 1.29056E-18
 -1       580 8.53801E-05-4.74069E-05-1.59517E-05 4.19832E-05-1.42164E-18 5.78254E-18
 -1       581 9.49944E-05-2.74443E-05-2.89414E-05 1.11975E-06 1.10195E-18-5.93915E-19
 -1       582 2.87812E-05-1.56227E-05-5.00932E-06-1.57211E-05 1.68231E-18-1.98216E-18
 -1       583 1.22700E-04-6.12366E-05-2.62720E-05 2.74103E-05-6.92714E-19 1.26057E-18
 -1       584 1.41416E-04-3.55354E-05-4.58245E-05-9.93440E-06 9.06908E-19 1.26774E-18
 -1       585 5.96227E-05-3.36095E-05-1.05947E-05-3.97538E-05 2.68504E-18-2.12854E-18
 -1       586 1.35854E-04-1.15379E-05-5.38832E-05 6.25912E-06 7.21990E-19-4.74550E-19
 -1       587 1.33080E-04-6.07055E-05-3.10822E-05 1.83846E-05-1.10390E-18-2.50473E-18
 -1       588 8.82787E-05-1.27687E-05-3.23794E-05-1.74788E-06-4.27010E-19-2.25300E-18
 -1       589 1.26879E-04-8.40962E-06-5.14835E-05 1.65692E-06 3.18908E-18 2.04614E-18
 -1       590 1.30140E-04-1.19223E-05-5.13691E-05-8.29096E-06-1.47511E-18-1.06022E-18
 -1       591 1.34026E-04-1.72680E-05-5.06332E-05-1.07720E-05 1.50327E-18 1.63144E-18
 -1       592 1.37386E-04-2.38268E-05-4.91615E-05 1.26295E-05 2.26730E-18 4.96435E-18
 -1       593 1.43984E-04-4.56534E-05-4.24724E-05 3.80954E-06 7.48671E-19 2.50754E-18
 -1       594 1.36412E-04-5.88087E-05-3.33388E-05-1.30568E-05 2.20943E-19 1.36219E-18
 -1       595 1.09140E-04-5.73603E-05-2.20700E-05-3.54420E-05 4.43898E-19 1.13418E-18
 -1       596 7.53174E-05-4.24527E-05-1.36775E-05-4.22254E-05-2.62104E-19 2.75140E-18
 -1       597 3.83676E-05-2.37071E-05-5.78554E-06-3.09957E-05 3.63748E-19 1.21560E-18
 -1       598 2.38220E-05-1.41021E-05-3.56391E-06-8.73918E-06 3.37384E-19-2.71548E-18
 -1       599 3.44642E-05-1.89697E-05-6.04652E-06 2.43653E-05 3.39396E-19-5.69301E-18
 -1       600 6.01348E-05-3.34302E-05-1.09252E-05 3.86866E-05-2.73433E-19-5.20078E-18
 -1       601 1.04751E-04-5.56016E-05-2.09296E-05 3.60269E-05-6.48404E-19-3.15956E-18
 -1       602 1.42655E-04-4.85605E-05-4.06400E-05-5.19212E-06-1.24019E-18-1.46838E-18
 -1       603 1.33609E-04-6.11925E-05-3.11941E-05-1.76225E-05-4.47128E-19-5.25820E-18
 -1       604 1.38766E-04-2.76615E-05-4.81646E-05-1.34141E-05-1.70471E-18-2.27529E-18
 -1       605 1.41633E-04-2.76156E-05-4.93800E-05 1.12810E-05 7.03567E-19-2.37995E-18
 -1       606 1.45124E-04-4.75270E-05-4.21132E-05 2.46774E-06-1.56902E-18-4.75514E-18
 -1       607 9.51304E-05-5.17688E-05-1.82405E-05-3.99264E-05 2.01229E-18-3.95374E-18
 -1       608 9.26214E-05-2.03068E-05-3.10101E-05-9.18460E-06-1.89543E-18-3.29355E-19
 -1       609 9.67517E-05-2.33583E-05-3.14581E-05 9.69838E-06 1.97537E-18-3.18309E-19
 -1       610 8.98280E-05-1.56282E-05-3.18225E-05-7.47378E-06-1.44889E-18-1.46978E-18
 -1       611 9.10304E-05-1.75903E-05-3.14943E-05-8.65252E-06-1.72436E-18-9.37833E-19
 -1       612 1.18193E-04-5.86052E-05-2.54508E-05-2.61222E-05 1.86112E-18-4.38474E-18
 -1       613 1.22129E-04-1.55535E-05-4.62488E-05 1.04739E-05 1.38019E-18 3.43653E-18
 -1       614 8.87743E-05-4.56298E-05-1.82281E-05 3.72506E-05-1.05323E-19-3.73720E-18
 -1       615 3.46996E-05-1.23795E-05-8.98372E-06 9.26736E-06-5.52583E-19-4.30674E-18
 -1       616 9.66055E-05-2.70238E-05-2.98158E-05-6.50917E-06-1.89423E-18 6.49301E-18
 -1       617 9.11517E-05-1.68063E-05-3.18679E-05 2.64147E-06 3.19867E-19-2.05393E-18
 -1       618 9.06998E-05-1.63677E-05-3.18620E-05 1.04650E-06-8.12133E-20-2.24262E-18
 -1       619 9.28730E-05-1.90285E-05-3.16532E-05 5.45062E-06 1.07562E-18-1.87686E-18
 -1       620 9.41681E-05-2.10054E-05-3.13633E-05 6.31154E-06 1.35201E-18-1.47500E-18
 -1       621 9.56190E-05-2.42103E-05-3.05936E-05 5.30473E-06 1.51274E-18-1.14519E-18
 -1       622 1.31531E-04-3.70697E-05-4.08424E-05 1.42176E-05 2.31158E-18 2.99977E-18
 -1       623 9.36507E-05-2.52471E-05-2.93181E-05-2.30847E-06-1.07336E-18-2.71658E-19
 -1       624 9.37269E-05-2.64599E-05-2.88279E-05-7.46913E-07-8.97425E-19-3.34748E-19
 -1       625 9.37014E-05-2.72224E-05-2.84908E-05 2.32353E-07-6.06534E-19-2.68095E-19
 -1       626 9.36627E-05-2.77039E-05-2.82680E-05 8.07609E-07-7.29882E-19-3.20340E-19
 -1       627 9.36424E-05-2.80086E-05-2.81287E-05 1.10432E-06-7.94236E-19-4.31046E-19
 -1       628 9.36505E-05-2.81978E-05-2.80509E-05 1.22413E-06-6.08139E-19-3.97178E-19
 -1       629 9.36877E-05-2.83063E-05-2.80201E-05 1.24655E-06-4.71171E-19 2.21571E-19
 -1       630 9.37465E-05-2.83462E-05-2.80291E-05 1.23510E-06-2.86590E-19 3.66958E-19
 -1       631 9.38035E-05-2.83056E-05-2.80716E-05 1.23540E-06-3.36457E-19 2.40956E-20
 -1       632 9.38064E-05-2.81495E-05-2.81149E-05 1.24468E-06-5.54862E-19 1.56573E-19
 -1       633 9.37503E-05-2.79363E-05-2.80963E-05 1.16687E-06-1.07462E-19 5.14599E-19
 -1       634 9.39690E-05-2.79952E-05-2.79267E-05 1.07924E-06-6.08103E-19 7.32075E-19
 -1       635 9.37372E-05-2.75421E-05-2.78214E-05 1.49740E-06-4.19281E-19 4.46969E-19
 -1       636 9.45978E-05-2.79864E-05-2.81370E-05 1.74475E-06-5.90236E-19 5.65924E-19
 -1       637 9.57594E-05-2.83822E-05-2.90467E-05 2.10540E-06-7.47242E-20 1.76818E-19
 -1       638 9.53760E-05-2.76051E-05-2.92082E-05 2.69669E-06-4.28473E-19-2.33457E-19
 -1       639 9.57161E-05-2.76634E-05-2.92638E-05 3.31282E-06-9.11189E-19-5.18278E-20
 -1       640 9.56987E-05-2.74245E-05-2.92907E-05 4.02422E-06 3.11711E-19-3.66396E-19
 -1       641 9.57584E-05-2.72319E-05-2.93740E-05 4.93555E-06 2.00071E-19-1.32930E-19
 -1       642 9.59238E-05-2.71570E-05-2.94713E-05 5.98020E-06-1.94140E-19 4.03601E-19
 -1       643 9.62516E-05-2.72983E-05-2.95506E-05 7.11025E-06 3.29125E-19 7.28673E-19
 -1       644 9.68589E-05-2.78127E-05-2.95907E-05 8.25149E-06 3.19451E-19 2.87149E-19
 -1       645 9.79495E-05-2.89314E-05-2.95792E-05 9.27930E-06 6.82223E-19-1.82916E-19
 -1       646 9.98394E-05-3.09558E-05-2.95224E-05 9.98228E-06 8.97642E-19-1.40101E-18
 -1       647 1.02950E-04-3.41910E-05-2.94704E-05 9.99962E-06 9.22565E-19-9.84303E-19
 -1       648 1.07707E-04-3.87392E-05-2.95599E-05 8.72892E-06 4.66499E-19 7.05542E-20
 -1       649 1.14156E-04-4.39788E-05-3.00749E-05 5.24902E-06 9.83680E-19 1.50247E-18
 -1       650 1.21233E-04-4.77334E-05-3.15047E-05-1.28860E-06 7.67873E-19 1.71255E-18
 -1       651 1.25952E-04-4.60246E-05-3.43649E-05-1.02188E-05-3.61577E-20 1.31944E-18
 -1       652 1.24605E-04-3.48677E-05-3.86852E-05-1.63568E-05-7.69212E-20 3.42387E-20
 -1       653 1.15864E-04-1.35590E-05-4.42567E-05 2.14417E-06-7.15505E-19-1.76075E-18
 -1       654 1.20530E-04-2.38945E-05-4.17874E-05 1.39694E-05 9.61912E-19-6.49370E-20
 -1       655 1.26348E-04-3.95013E-05-3.73726E-05 1.47755E-05-1.00170E-18-3.05726E-19
 -1       656 1.24277E-04-4.67677E-05-3.33197E-05 6.42653E-06 1.16467E-19-2.19131E-18
 -1       657 1.19185E-04-4.72412E-05-3.08380E-05-1.88462E-06 9.18154E-19-1.15932E-18
 -1       658 1.12022E-04-4.26216E-05-2.97475E-05-7.81096E-06-1.33255E-18-1.38375E-18
 -1       659 1.06070E-04-3.75130E-05-2.93839E-05-1.06887E-05 1.42201E-18 1.20084E-18
 -1       660 1.01769E-04-3.32499E-05-2.93666E-05-1.16712E-05 2.56441E-18 6.72343E-19
 -1       661 9.89929E-05-3.02329E-05-2.94689E-05-1.14797E-05 1.83527E-18-8.35576E-19
 -1       662 9.72526E-05-2.82047E-05-2.95913E-05-1.06161E-05 5.38534E-19 8.74547E-20
 -1       663 9.61287E-05-2.68064E-05-2.97084E-05-9.32366E-06 9.00707E-19 1.44317E-18
 -1       664 9.52076E-05-2.81865E-05-2.87231E-05-5.41515E-07 6.88554E-19-8.62021E-19
 -1       665 9.55591E-05-2.60647E-05-2.97807E-05-8.26891E-06-4.53160E-19 1.17363E-18
 -1       666 9.53527E-05-2.77967E-05-2.89519E-05 6.13321E-08 7.00881E-19-7.60038E-19
 -1       667 9.50495E-05-2.85568E-05-2.84955E-05-9.64480E-07 1.59341E-19-6.94044E-19
 -1       668 9.50148E-05-2.86258E-05-2.84447E-05-9.61654E-07 4.97657E-19-8.14666E-19
 -1       669 9.49976E-05-2.86609E-05-2.84019E-05-8.77157E-07 7.38205E-19-3.87536E-19
 -1       670 9.51555E-05-2.87889E-05-2.83776E-05-8.04661E-07 4.16456E-19-2.42336E-19
 -1       671 9.51242E-05-2.85916E-05-2.85459E-05-8.60946E-07 1.52416E-19-1.78247E-20
 -1       672 9.53041E-05-2.86207E-05-2.85954E-05-8.50916E-07 4.86065E-19-1.58753E-19
 -1       673 9.52568E-05-2.83580E-05-2.86144E-05-9.90639E-07 2.69128E-19-7.62047E-19
 -1       674 9.54782E-05-2.84111E-05-2.86905E-05-1.24287E-06 6.14357E-19-8.24850E-19
 -1       675 9.55671E-05-2.83331E-05-2.88002E-05-1.41650E-06-1.15251E-20-8.23818E-20
 -1       676 9.56456E-05-2.81906E-05-2.89059E-05-1.74622E-06-4.96980E-19 4.09645E-19
 -1       677 9.57706E-05-2.80524E-05-2.90209E-05-2.21602E-06-3.16395E-19 3.61844E-19
 -1       678 9.59520E-05-2.79342E-05-2.91496E-05-2.81448E-06 3.45369E-19-3.68557E-19
 -1       679 9.62013E-05-2.78532E-05-2.92910E-05-3.53373E-06-3.53219E-19-1.01380E-18
 -1       680 9.65368E-05-2.78375E-05-2.94416E-05-4.35889E-06-1.40190E-19-1.02588E-18
 -1       681 9.69929E-05-2.79371E-05-2.95944E-05-5.25988E-06 3.95421E-19-8.19059E-19
 -1       682 9.76287E-05-2.82339E-05-2.97399E-05-6.17919E-06-4.57144E-19 5.12825E-19
 -1       683 9.85397E-05-2.88501E-05-2.98668E-05-7.01758E-06-5.62601E-19 5.74353E-19
 -1       684 9.98704E-05-2.99500E-05-2.99664E-05-7.61513E-06-7.31023E-20 9.73106E-19
 -1       685 1.01815E-04-3.17202E-05-3.00426E-05-7.72787E-06 1.15419E-18 1.57404E-19
 -1       686 1.04586E-04-3.42960E-05-3.01279E-05-7.00172E-06 1.08654E-19 3.23777E-19
 -1       687 1.08292E-04-3.75818E-05-3.03102E-05-4.96690E-06-8.85069E-19 1.20397E-18
 -1       688 1.12657E-04-4.09129E-05-3.07556E-05-1.14744E-06-1.87747E-19 1.82004E-18
 -1       689 1.16688E-04-4.27488E-05-3.17056E-05 4.51698E-06-3.96786E-19 1.48403E-18
 -1       690 1.18531E-04-4.06603E-05-3.34008E-05 1.09388E-05-1.79944E-19 8.92343E-19
 -1       691 1.16269E-04-3.33412E-05-3.56218E-05 1.47706E-05 7.16348E-19 6.13106E-20
 -1       692 1.11459E-04-2.35624E-05-3.77915E-05 1.13550E-05 1.62277E-18-1.19318E-18
 -1       693 1.08839E-04-1.83108E-05-3.89614E-05 1.00392E-06 2.94746E-18-4.61323E-19
 -1       694 1.10882E-04-2.23829E-05-3.81129E-05-9.77042E-06 4.04875E-19-2.68102E-19
 -1       695 1.15510E-04-3.20837E-05-3.58905E-05-1.39391E-05-8.21999E-19 1.42254E-19
 -1       696 1.18416E-04-4.03642E-05-3.34627E-05-1.06898E-05-2.35670E-18 2.56390E-19
 -1       697 1.16856E-04-4.29266E-05-3.16985E-05-4.17700E-06 5.64545E-19 6.75208E-19
 -1       698 1.12835E-04-4.13640E-05-3.06326E-05 1.90767E-06 8.71933E-19-1.09543E-18
 -1       699 1.08346E-04-3.80745E-05-3.01224E-05 6.07336E-06 4.62010E-19-2.44830E-18
 -1       700 1.04431E-04-3.46467E-05-2.99126E-05 8.41979E-06-4.56291E-19-2.17166E-18
 -1       701 1.01436E-04-3.18314E-05-2.98329E-05 9.33871E-06 1.99588E-19-3.18830E-18
 -1       702 9.92470E-05-2.97217E-05-2.97970E-05 9.27435E-06 1.38371E-18-1.53153E-18
 -1       703 9.76398E-05-2.81569E-05-2.97766E-05 8.52313E-06 5.57645E-19-2.61074E-19
 -1       704 9.63196E-05-2.68994E-05-2.97497E-05 7.80158E-06-2.18543E-18-1.28668E-18
 -1       705 1.06815E-04-5.31406E-05-2.27990E-05 3.13400E-05-2.74744E-18 6.28012E-19
 -1       706 8.80648E-05-1.99565E-05-2.91908E-05 2.12367E-06 1.40013E-18 2.02519E-18
 -1       707 9.09583E-05-2.24506E-05-2.93617E-05 7.29532E-06-4.83690E-19 1.77828E-18
 -1       708 8.78829E-05-1.97859E-05-2.91860E-05-1.28288E-06 1.40780E-18-2.45823E-19
 -1       709 8.91780E-05-2.09241E-05-2.92530E-05 5.13590E-06 1.30287E-18-3.44388E-19
 -1       710 1.23657E-04-2.14445E-05-4.42243E-05-1.42413E-05-2.08608E-18-8.01637E-19
 -1       711 8.86651E-05-2.04411E-05-2.92402E-05-4.45447E-06 1.35023E-18-9.02113E-19
 -1       712 9.02664E-05-2.17889E-05-2.93485E-05-6.98342E-06 1.18034E-18-3.28830E-18
 -1       713 9.23756E-05-2.35432E-05-2.95010E-05-8.45443E-06 5.52443E-19-7.26910E-19
 -1       714 5.12213E-05-2.11787E-05-1.24061E-05-2.69432E-05 1.51316E-18-3.25329E-18
 -1       715 7.70355E-05-3.66963E-05-1.69426E-05 3.62297E-05-3.30981E-18 6.05660E-18
 -1       716 9.55239E-05-2.71427E-05-2.93040E-05 1.10380E-06 1.05983E-18-9.25502E-19
 -1       717 3.67992E-05-1.20777E-05-1.00725E-05-1.44830E-06 4.63883E-19-7.38242E-19
 -1       718 4.67680E-05-1.85561E-05-1.16132E-05 2.33767E-05 6.81689E-19 1.79195E-18
 -1       719 9.27662E-05-2.17523E-05-3.04340E-05-5.95131E-06-1.57005E-18-5.97481E-19
 -1       720 6.35995E-05-2.88945E-05-1.44983E-05-3.34975E-05-1.21335E-18 3.44332E-18
 -1       721 1.31711E-04-5.78917E-05-3.17718E-05 8.21125E-06-9.75140E-19-7.65374E-20
 -1       722 1.35710E-04-5.37395E-05-3.53398E-05 8.38373E-07-7.40108E-19-3.45309E-18
 -1       723 9.51093E-05-2.84216E-05-2.85803E-05-8.48502E-07 4.03349E-19-6.22060E-19
 -1       724 9.33359E-05-2.37791E-05-2.98087E-05-3.90542E-06-1.19179E-18-4.43824E-19
 -1       725 9.56600E-05-2.60553E-05-2.98272E-05 2.77131E-06 1.22749E-18-1.03206E-18
 -1       726 9.18673E-05-1.76687E-05-3.18052E-05 4.14398E-06 7.71461E-19-2.08829E-18
 -1       727 9.08303E-05-1.73992E-05-3.14761E-05-3.68062E-06-6.89930E-19-1.80178E-18
 -1       728 1.26794E-04-2.81327E-05-4.26497E-05-1.46467E-05-1.25520E-19 3.73330E-19
 -1       729 1.35683E-04-5.68427E-05-3.39527E-05 2.06317E-06-2.62483E-19-1.69962E-18
 -1       730 1.35705E-04-5.15283E-05-3.62645E-05 4.51595E-06 1.33383E-18 1.78713E-18
 -1       731 1.23928E-04-5.90924E-05-2.77764E-05-1.94089E-05 8.12040E-19 6.78910E-19
 -1       732 1.22364E-04-5.87628E-05-2.71428E-05 2.04882E-05-5.54979E-19-1.35528E-18
 -1       733 4.51501E-05-1.68915E-05-1.15860E-05-2.13240E-05-5.27490E-19 5.08537E-19
 -1       734 1.33604E-04-4.60435E-05-3.77617E-05-9.19699E-06 4.15708E-20-7.77087E-19
 -1       735 5.66998E-05-2.28848E-05-1.39907E-05 2.82792E-05-1.35314E-19-5.65593E-18
 -1       736 9.97016E-05-5.04965E-05-2.08388E-05-3.45255E-05-1.14757E-18 1.70065E-18
 -1       737 1.26489E-04-1.98403E-05-4.62559E-05 1.23160E-05 1.49316E-18-2.52508E-19
 -1       738 1.31971E-04-3.84969E-05-4.03525E-05-1.50209E-05 2.82565E-20-6.40900E-19
 -1       739 1.35663E-04-3.87775E-05-4.18158E-05 1.32689E-05-6.12961E-19-1.82602E-18
 -1       740 1.17991E-04-1.40786E-05-4.49868E-05-7.01858E-06 9.96905E-19 8.63259E-19
 -1       741 8.38467E-05-4.12366E-05-1.78978E-05-3.67542E-05 1.83372E-18-3.58750E-18
 -1       742 9.14100E-05-1.86293E-05-3.11955E-05-5.00405E-06-1.02876E-18-1.37808E-18
 -1       743 9.04951E-05-1.63179E-05-3.17955E-05-5.73805E-07-2.93454E-19-2.23079E-18
 -1       744 1.17502E-04-1.86234E-05-4.26672E-05-1.03547E-05-1.10660E-18-2.60601E-18
 -1       745 1.21364E-04-5.60373E-05-2.79571E-05 1.64228E-05-1.50876E-18 8.23792E-19
 -1       746 9.44348E-05-2.52983E-05-2.96296E-05 8.37836E-06-3.76825E-19-5.01589E-19
 -1       747 1.28725E-04-5.80247E-05-3.03519E-05-9.47295E-06-2.91393E-19-1.99065E-18
 -1       748 7.76436E-05-3.36226E-05-1.86222E-05 3.09934E-05 1.10996E-18-3.27963E-18
 -1       749 4.53569E-05-1.21765E-05-1.38449E-05-6.71887E-06-1.71270E-18-2.84373E-18
 -1       750 9.41077E-05-2.51638E-05-2.95468E-05-9.22642E-06 5.98788E-19 6.85980E-19
 -1       751 1.04479E-04-4.97392E-05-2.33462E-05-2.86138E-05 3.80682E-19-2.87846E-18
 -1       752 9.05331E-05-1.66500E-05-3.16696E-05-2.16529E-06-4.71514E-19-1.91359E-18
 -1       753 9.27145E-05-2.38812E-05-2.95012E-05 8.20605E-06 6.24113E-20 5.31406E-19
 -1       754 9.47417E-05-2.28145E-05-3.08230E-05 4.10396E-06 1.05752E-18-1.44600E-18
 -1       755 1.21562E-04-2.22091E-05-4.29575E-05 1.39575E-05 1.98185E-18 1.62473E-18
 -1       756 9.20463E-05-2.00214E-05-3.08678E-05-5.69026E-06-1.39049E-18-8.59041E-19
 -1       757 1.15020E-04-1.40865E-05-4.36544E-05 4.22648E-06 2.28487E-18 6.84123E-19
 -1       758 9.54010E-05-2.45523E-05-3.03636E-05 3.61075E-06 1.23601E-18-1.05771E-18
 -1       759 7.29535E-05-2.92083E-05-1.84776E-05-2.89956E-05 2.29857E-19-2.33388E-18
 -1       760 9.43226E-05-2.64645E-05-2.90821E-05-4.39919E-07-5.88862E-19-3.49983E-19
 -1       761 9.44522E-05-2.73581E-05-2.87546E-05 3.53313E-07-7.08354E-19-3.27203E-19
 -1       762 9.44800E-05-2.79256E-05-2.85233E-05 8.27476E-07-9.28578E-19-2.89911E-19
 -1       763 9.44630E-05-2.82718E-05-2.83676E-05 1.08168E-06-3.92132E-19 7.81310E-20
 -1       764 9.44292E-05-2.84622E-05-2.82715E-05 1.19650E-06-1.50079E-19 1.14864E-19
 -1       765 9.43883E-05-2.85342E-05-2.82233E-05 1.23647E-06-4.44237E-19 2.55620E-19
 -1       766 9.43351E-05-2.85035E-05-2.82142E-05 1.24716E-06-4.64688E-19 8.03532E-20
 -1       767 9.42534E-05-2.83740E-05-2.82300E-05 1.24601E-06-2.08925E-19 4.29198E-19
 -1       768 9.41458E-05-2.81780E-05-2.82462E-05 1.21822E-06-1.61761E-19 4.29757E-19
 -1       769 9.40589E-05-2.79906E-05-2.82166E-05 1.18446E-06-5.58168E-19 1.90030E-19
 -1       770 9.40064E-05-2.78648E-05-2.81412E-05 1.18886E-06-6.98266E-19 2.97553E-19
 -1       771 9.43471E-05-2.79695E-05-2.79902E-05 1.39113E-06-5.29501E-19 5.31315E-19
 -1       772 9.38917E-05-2.70722E-05-2.84439E-05 1.77415E-06-4.79712E-19 6.08090E-19
 -1       773 9.47122E-05-2.73990E-05-2.88613E-05 2.16587E-06-5.21084E-19 3.66448E-19
 -1       774 9.50186E-05-2.72879E-05-2.94049E-05 2.81018E-06-2.60909E-19-1.83647E-19
 -1       775 9.44869E-05-2.67011E-05-2.91628E-05 3.50445E-06 1.01981E-19 6.69619E-19
 -1       776 9.41087E-05-2.62634E-05-2.91025E-05 4.38613E-06 1.14259E-19 5.16617E-19
 -1       777 9.37571E-05-2.58999E-05-2.90857E-05 5.40895E-06 1.75533E-19-3.69336E-19
 -1       778 9.34551E-05-2.56866E-05-2.90436E-05 6.57533E-06 6.40072E-19 6.69474E-19
 -1       779 9.32856E-05-2.57588E-05-2.89396E-05 7.88441E-06-8.12347E-19 5.10284E-19
 -1       780 9.34163E-05-2.63317E-05-2.87501E-05 9.32926E-06-3.77546E-19-4.53698E-19
 -1       781 9.41448E-05-2.77248E-05-2.84651E-05 1.08837E-05 1.75192E-19-1.04761E-18
 -1       782 9.59556E-05-3.03727E-05-2.81056E-05 1.24548E-05 1.15109E-18-1.54013E-18
 -1       783 9.95640E-05-3.47668E-05-2.77655E-05 1.37470E-05 1.41507E-18-5.28410E-19
 -1       784 1.05861E-04-4.12214E-05-2.76896E-05 1.40335E-05 9.07276E-19 1.77472E-19
 -1       785 1.15690E-04-4.92720E-05-2.84243E-05 1.16822E-05 2.00327E-19-4.51997E-19
 -1       786 1.12703E-04-4.71851E-05-2.80321E-05-1.40399E-05-4.69026E-19-2.59241E-18
 -1       787 1.04385E-04-3.97007E-05-2.77439E-05-1.53253E-05 1.94369E-18-9.83163E-19
 -1       788 9.88376E-05-3.37258E-05-2.79014E-05-1.48971E-05 1.83743E-18-1.61709E-19
 -1       789 9.59436E-05-2.98169E-05-2.83393E-05-1.35814E-05 9.98654E-19-8.13839E-19
 -1       790 9.45316E-05-2.73311E-05-2.87996E-05-1.20346E-05 1.27340E-18-1.44341E-18
 -1       791 9.42401E-05-2.60754E-05-2.92121E-05-1.06220E-05 4.27275E-19-6.18478E-19
 -1       792 9.54332E-05-2.88397E-05-2.85245E-05-8.39002E-07 3.67789E-19-6.13883E-19
 -1       793 9.54886E-05-2.88218E-05-2.85653E-05-8.64306E-07 2.23470E-19-8.74877E-19
 -1       794 9.55712E-05-2.87484E-05-2.86369E-05-8.61541E-07 4.67997E-19-5.54958E-19
 -1       795 9.53756E-05-2.87759E-05-2.85475E-05-8.36454E-07 2.08280E-20-2.85687E-19
 -1       796 9.52571E-05-2.85985E-05-2.86177E-05-8.43495E-07 4.26948E-19-3.66663E-19
 -1       797 9.49542E-05-2.83945E-05-2.85920E-05-7.53923E-07 4.90823E-19 4.17071E-19
 -1       798 9.56651E-05-2.85247E-05-2.86363E-05-1.20893E-06 3.44425E-19 1.49726E-19
 -1       799 9.53475E-05-2.82214E-05-2.87266E-05-1.28875E-06-7.22352E-20 8.54974E-19
 -1       800 9.52018E-05-2.79242E-05-2.88225E-05-1.60966E-06-3.73672E-19 3.27448E-19
 -1       801 9.50965E-05-2.76387E-05-2.89080E-05-2.05850E-06-2.82878E-19-1.77111E-19
 -1       802 9.50092E-05-2.73586E-05-2.89922E-05-2.63398E-06-1.58526E-19-5.54516E-19
 -1       803 9.49380E-05-2.70961E-05-2.90744E-05-3.33492E-06 1.28520E-19-1.21449E-19
 -1       804 9.48875E-05-2.68719E-05-2.91491E-05-4.15856E-06-5.00950E-19-7.61328E-20
 -1       805 9.48816E-05-2.67303E-05-2.92072E-05-5.09963E-06-9.19755E-19 7.16146E-19
 -1       806 9.49739E-05-2.67515E-05-2.92377E-05-6.14053E-06-7.13262E-19 2.06866E-18
 -1       807 9.52624E-05-2.70635E-05-2.92277E-05-7.24502E-06-4.87840E-21 2.04403E-18
 -1       808 9.59119E-05-2.78550E-05-2.91670E-05-8.34645E-06 5.41718E-19 7.51084E-19
 -1       809 9.71778E-05-2.93790E-05-2.90565E-05-9.32657E-06 3.94419E-19-7.39339E-20
 -1       810 9.94224E-05-3.19299E-05-2.89257E-05-9.97394E-06 5.89114E-19 1.12020E-18
 -1       811 1.03097E-04-3.57533E-05-2.88606E-05-9.89868E-06-1.31567E-18 2.18770E-18
 -1       812 1.08532E-04-4.07294E-05-2.90578E-05-8.39284E-06-1.11145E-18 1.86597E-18
 -1       813 1.15563E-04-4.58244E-05-2.98654E-05-4.47350E-06-3.80575E-19 2.59875E-18
 -1       814 1.22425E-04-4.81866E-05-3.18364E-05 2.62897E-06 4.33097E-19 2.36508E-18
 -1       815 1.16677E-04-4.66991E-05-2.99950E-05 4.81722E-06 7.43749E-19-1.76524E-18
 -1       816 1.09504E-04-4.17446E-05-2.90645E-05 9.28714E-06 8.68824E-19-5.82588E-19
 -1       817 1.03790E-04-3.65822E-05-2.88079E-05 1.13312E-05-6.16255E-19-7.37976E-19
 -1       818 9.99600E-05-3.25259E-05-2.89022E-05 1.16463E-05 2.67140E-19-8.56020E-19
 -1       819 9.75469E-05-2.96190E-05-2.91120E-05 1.10979E-05-2.69721E-19-1.28475E-18
 -1       820 9.60912E-05-2.76091E-05-2.93497E-05 1.00670E-05-6.27677E-20-9.47544E-19
 -1       821 9.51227E-05-2.63851E-05-2.94623E-05 9.30330E-06-8.43835E-19-3.65522E-19
 -1       822 1.25712E-04-5.41300E-05-3.07438E-05 5.36926E-06 1.55546E-19-1.62506E-18
 -1       823 8.54776E-05-1.96870E-05-2.81968E-05 6.09994E-07 1.18653E-18 6.03552E-19
 -1       824 9.05027E-05-2.32834E-05-2.88110E-05-9.30513E-06 5.96740E-19-3.19732E-18
 -1       825 8.59278E-05-1.99914E-05-2.82591E-05-3.47518E-06 1.39501E-19-1.35226E-18
 -1       826 9.26987E-05-1.97006E-05-3.12861E-05 1.46030E-06 1.20231E-19-1.70141E-18
 -1       827 1.04559E-04-4.80532E-05-2.40619E-05 2.54848E-05 5.14804E-19-3.12353E-18
 -1       828 5.14009E-05-1.44893E-05-1.54899E-05 1.26516E-05-7.39246E-19-4.67020E-18
 -1       829 1.25792E-04-4.52249E-05-3.46196E-05 9.82401E-06 4.98194E-20 1.73701E-18
 -1       830 8.70767E-05-3.87946E-05-2.04699E-05-3.09987E-05-1.37511E-18 1.54263E-18
 -1       831 4.94359E-05-1.39680E-05-1.48966E-05 9.73728E-06 1.61478E-18 1.30022E-18
 -1       832 9.58093E-05-2.69676E-05-2.95043E-05 9.05728E-07 7.92181E-19-8.44009E-19
 -1       833 8.77502E-05-2.13154E-05-2.84731E-05-7.00277E-06-1.23930E-19-1.52447E-18
 -1       834 9.59350E-05-4.28705E-05-2.25859E-05 2.88407E-05-3.24089E-18 2.28893E-18
 -1       835 9.40540E-05-2.51422E-05-2.95321E-05-1.65893E-06-8.38927E-19-6.26796E-19
 -1       836 1.24099E-04-4.97403E-05-3.18804E-05-1.13304E-06 3.09915E-19-2.13986E-18
 -1       837 9.58228E-05-2.77902E-05-2.91570E-05 2.67305E-08 6.04370E-19-6.00679E-19
 -1       838 6.06847E-05-2.13936E-05-1.65462E-05-2.41525E-05-2.10669E-18 3.50609E-18
 -1       839 1.11179E-04-5.10918E-05-2.56674E-05-2.15584E-05-1.10785E-18-1.74800E-20
 -1       840 5.24809E-05-1.49427E-05-1.58057E-05-1.23907E-05 7.74946E-19-2.59637E-18
 -1       841 6.84733E-05-2.48754E-05-1.84590E-05 2.53831E-05-7.50881E-20 2.20271E-18
 -1       842 9.23934E-05-1.94578E-05-3.12592E-05 2.48433E-07-1.36247E-19-2.02923E-18
 -1       843 9.39010E-05-2.13575E-05-3.10910E-05 3.52100E-06 6.43772E-19-1.70237E-18
 -1       844 9.30872E-05-2.24675E-05-3.02647E-05-3.96128E-06-1.10446E-18-7.06182E-19
 -1       845 9.26871E-05-2.10201E-05-3.07143E-05-3.10022E-06-7.00488E-19-1.28870E-18
 -1       846 9.57027E-05-2.60000E-05-2.98743E-05 2.04026E-06 9.28536E-19-9.71229E-19
 -1       847 9.56652E-05-2.85881E-05-2.87472E-05-7.59074E-07 2.95195E-19-3.19074E-19
 -1       848 9.23838E-05-2.00969E-05-3.09811E-05-2.11092E-06-4.48735E-19-1.83493E-18
 -1       849 8.87293E-05-2.21630E-05-2.85291E-05 7.68085E-06 1.72780E-18 1.64807E-18
 -1       850 8.65054E-05-2.04900E-05-2.82928E-05 4.60377E-06 1.86013E-18 1.08668E-18
 -1       851 9.32053E-05-2.03265E-05-3.12350E-05 2.58342E-06 3.13623E-19-1.90721E-18
 -1       852 9.13737E-05-3.91962E-05-2.22736E-05-2.80975E-05-3.61842E-20-1.76372E-18
 -1       853 6.39701E-05-2.13018E-05-1.80556E-05 2.15289E-05 2.78886E-19-4.41620E-18
 -1       854 9.11400E-05-2.38574E-05-2.88334E-05 9.17651E-06 6.40871E-19 1.50670E-18
 -1       855 9.57567E-05-2.82919E-05-2.89135E-05-4.91314E-07 3.67291E-19-2.46811E-19
 -1       856 1.09694E-04-4.82922E-05-2.62817E-05 1.96276E-05-1.35562E-18 2.56112E-18
 -1       857 9.23156E-05-2.46867E-05-2.89820E-05-1.02108E-05 7.11058E-19-1.17953E-19
 -1       858 1.25872E-04-5.40738E-05-3.07742E-05-5.01139E-06 4.76387E-19 2.97174E-18
 -1       859 9.48643E-05-2.66416E-05-2.92383E-05-1.09032E-07-3.93675E-19-8.61219E-19
 -1       860 9.50582E-05-2.75670E-05-2.89249E-05 4.65374E-07-6.01446E-19-5.15194E-19
 -1       861 9.51114E-05-2.81547E-05-2.86958E-05 8.17616E-07-5.25236E-19-1.32023E-19
 -1       862 9.50801E-05-2.84972E-05-2.85355E-05 1.01071E-06-3.99057E-19-1.98672E-19
 -1       863 9.49979E-05-2.86577E-05-2.84316E-05 1.10319E-06-3.40246E-19-4.52956E-19
 -1       864 9.48811E-05-2.86771E-05-2.83736E-05 1.13997E-06-5.01924E-19-2.55867E-19
 -1       865 9.47340E-05-2.85814E-05-2.83512E-05 1.14840E-06-2.79271E-19-2.08441E-19
 -1       866 9.45626E-05-2.83992E-05-2.83522E-05 1.13933E-06-2.74792E-19-7.21947E-19
 -1       867 9.43856E-05-2.81717E-05-2.83574E-05 1.12620E-06-3.65201E-19-1.11272E-18
 -1       868 9.42309E-05-2.79450E-05-2.83554E-05 1.14378E-06-5.77767E-19-9.69887E-19
 -1       869 9.41048E-05-2.77036E-05-2.83195E-05 1.27271E-06-5.93836E-19-8.07954E-19
 -1       870 9.39477E-05-2.73757E-05-2.83928E-05 1.43717E-06-1.79597E-20-6.78520E-20
 -1       871 9.41357E-05-2.72637E-05-2.86516E-05 1.74979E-06-7.72386E-19 7.29421E-19
 -1       872 9.37391E-05-2.64560E-05-2.91703E-05 2.14145E-06-1.94023E-19 9.99539E-19
 -1       873 9.35518E-05-2.61182E-05-2.90254E-05 2.67699E-06-1.56354E-19 1.09707E-18
 -1       874 9.29239E-05-2.55413E-05-2.89160E-05 3.46907E-06-1.73562E-19-4.53103E-19
 -1       875 9.21967E-05-2.49435E-05-2.88302E-05 4.36270E-06 2.85435E-20-3.00159E-19
 -1       876 9.13946E-05-2.44076E-05-2.87092E-05 5.39807E-06 7.19249E-19-2.42889E-19
 -1       877 9.05499E-05-2.40281E-05-2.85089E-05 6.61810E-06-3.73544E-19-1.19487E-18
 -1       878 8.97457E-05-2.39589E-05-2.81940E-05 8.08483E-06-1.07576E-18-9.66036E-19
 -1       879 8.91490E-05-2.44384E-05-2.77328E-05 9.89780E-06-6.50250E-19-3.93415E-19
 -1       880 8.90772E-05-2.58359E-05-2.71023E-05 1.21996E-05 2.91022E-19-6.95336E-19
 -1       881 9.00936E-05-2.86973E-05-2.63072E-05 1.51389E-05 8.35394E-19-2.07960E-18
 -1       882 9.32043E-05-3.37987E-05-2.54455E-05 1.87007E-05 1.10994E-18-2.78062E-18
 -1       883 9.75220E-05-4.00400E-05-2.46016E-05 2.23292E-05 4.26422E-19-3.45120E-18
 -1       884 9.34082E-05-3.28381E-05-2.59277E-05-1.88747E-05 1.79122E-18-2.54407E-18
 -1       885 9.09963E-05-2.84456E-05-2.68113E-05-1.55809E-05 1.42074E-18-2.18680E-18
 -1       886 9.04380E-05-2.58215E-05-2.76965E-05-1.29219E-05 4.28803E-19-5.50860E-19
 -1       887 9.57805E-05-2.89403E-05-2.86425E-05-7.27971E-07 4.53757E-19-5.85210E-19
 -1       888 9.56388E-05-2.88892E-05-2.86076E-05-7.24935E-07 1.96014E-19-6.10559E-19
 -1       889 9.59099E-05-2.88942E-05-2.87200E-05-7.10353E-07 6.47685E-19-4.55274E-19
 -1       890 9.53377E-05-2.86089E-05-2.86490E-05-6.73063E-07-9.36335E-20-4.31661E-19
 -1       891 9.53317E-05-2.85329E-05-2.86679E-05-8.47290E-07 2.17641E-19-5.38513E-19
 -1       892 9.50734E-05-2.80766E-05-2.87102E-05-1.04711E-06-3.34431E-19 1.75917E-19
 -1       893 9.48675E-05-2.77374E-05-2.87638E-05-1.31205E-06-9.25958E-20 5.22965E-19
 -1       894 9.46023E-05-2.73421E-05-2.88241E-05-1.70519E-06 5.54809E-20 4.16853E-19
 -1       895 9.43094E-05-2.69246E-05-2.88796E-05-2.21536E-06 3.76601E-20 2.50786E-19
 -1       896 9.39916E-05-2.65076E-05-2.89224E-05-2.84013E-06-5.68680E-20 4.13415E-19
 -1       897 9.36329E-05-2.60971E-05-2.89453E-05-3.57952E-06-3.19447E-19 4.58479E-19
 -1       898 9.32385E-05-2.57209E-05-2.89357E-05-4.44959E-06-8.16709E-19 1.39178E-19
 -1       899 9.28396E-05-2.54422E-05-2.88840E-05-5.46212E-06-1.08933E-18-1.06447E-19
 -1       900 9.25029E-05-2.53665E-05-2.87723E-05-6.63052E-06-7.65146E-19 4.94848E-19
 -1       901 9.23535E-05-2.56599E-05-2.85826E-05-7.96840E-06 5.55126E-19 7.92605E-19
 -1       902 9.26052E-05-2.65649E-05-2.83025E-05-9.48518E-06 9.17792E-19 1.33672E-18
 -1       903 9.36060E-05-2.84174E-05-2.79366E-05-1.11669E-05-2.61718E-19 1.61152E-18
 -1       904 9.58865E-05-3.16378E-05-2.75319E-05-1.28988E-05-1.04114E-18 2.00568E-18
 -1       905 1.00225E-04-3.67124E-05-2.72138E-05-1.43682E-05-1.20609E-18 1.53844E-18
 -1       906 1.07499E-04-4.37601E-05-2.73089E-05-1.45722E-05-1.41809E-18 1.24951E-18
 -1       907 6.34018E-05-1.76689E-05-1.94977E-05 1.32665E-05 8.15253E-20-3.55946E-19
 -1       908 9.47372E-05-2.90951E-05-2.81307E-05 1.29246E-05 5.90454E-19 3.16794E-18
 -1       909 9.36606E-05-2.67749E-05-2.86591E-05 1.12564E-05-1.04996E-20 2.12900E-18
 -1       910 9.71005E-05-3.26651E-05-2.76183E-05 1.45813E-05 3.33150E-19 3.08107E-18
 -1       911 1.13492E-04-5.21065E-05-2.60872E-05-2.07968E-05-5.54251E-19-1.19369E-18
 -1       912 5.72946E-05-1.34628E-05-1.86411E-05-8.61000E-08-2.51948E-18-1.67492E-18
 -1       913 8.25152E-05-1.92807E-05-2.71055E-05-1.70938E-06-6.76717E-19-1.24429E-18
 -1       914 9.54763E-05-2.87511E-05-2.86116E-05-7.11055E-07 2.80090E-19-6.77071E-19
 -1       915 9.22939E-05-1.95920E-05-3.11588E-05-9.69954E-07-3.11151E-19-2.02537E-18
 -1       916 9.44474E-05-2.52557E-05-2.96530E-05-1.00094E-06-5.97786E-19-8.72366E-19
 -1       917 1.01594E-04-3.79439E-05-2.72607E-05 1.58737E-05-3.27133E-19 3.01532E-18
 -1       918 8.57952E-05-3.20931E-05-2.29451E-05 2.34468E-05-6.20754E-19 4.76127E-18
 -1       919 7.85756E-05-2.83352E-05-2.14319E-05-2.36111E-05-1.16211E-18 2.63464E-18
 -1       920 5.97156E-05-1.45398E-05-1.92400E-05-2.19078E-06 2.57160E-18-3.13521E-19
 -1       921 6.30802E-05-1.70478E-05-1.96366E-05-1.38039E-05-2.59149E-18 5.57632E-19
 -1       922 9.85257E-05-4.12856E-05-2.44709E-05-2.27651E-05-1.53660E-18-8.75792E-19
 -1       923 6.99709E-05-2.12822E-05-2.07427E-05-1.81277E-05 1.03816E-18-2.52712E-18
 -1       924 9.32673E-05-2.52110E-05-2.91672E-05 9.56883E-06 9.43810E-20 1.13241E-18
 -1       925 9.60135E-05-2.69692E-05-2.95911E-05 6.50749E-07 5.28657E-19-8.63909E-19
 -1       926 9.37220E-05-2.30344E-05-3.02974E-05-1.70729E-06-5.62623E-19-1.31101E-18
 -1       927 9.57270E-05-2.58541E-05-2.99443E-05 1.50883E-06 5.32890E-19-1.01442E-18
 -1       928 9.52111E-05-2.42490E-05-3.04132E-05 2.49053E-06 7.07994E-19-1.28913E-18
 -1       929 6.15402E-05-1.55609E-05-1.96184E-05 9.48168E-06-1.48737E-18-3.43663E-18
 -1       930 1.16472E-04-4.95503E-05-2.86631E-05-1.02763E-05-4.51270E-19 2.19738E-18
 -1       931 9.60269E-05-2.87329E-05-2.88401E-05-6.28933E-07 3.89712E-19-5.01879E-19
 -1       932 7.75655E-05-2.42225E-05-2.28079E-05 1.82738E-05 4.26973E-19 2.36160E-18
 -1       933 9.14683E-05-2.51701E-05-2.84102E-05-1.14390E-05 1.46578E-18-4.75304E-19
 -1       934 9.61326E-05-2.78679E-05-2.92576E-05-2.43145E-08 4.31460E-19-9.86422E-19
 -1       935 8.29686E-05-1.96466E-05-2.71391E-05 3.44897E-06 2.67294E-18-1.41221E-18
 -1       936 8.12302E-05-2.80544E-05-2.27275E-05-2.14792E-05 1.33778E-18-2.46049E-18
 -1       937 9.42695E-05-2.25374E-05-3.07425E-05 1.45828E-06 1.06509E-19-1.69659E-18
 -1       938 8.91989E-05-2.39681E-05-2.79592E-05 1.03419E-05 1.55567E-18 2.63781E-18
 -1       939 8.41988E-05-2.03979E-05-2.73403E-05-6.49222E-06 6.96434E-19-5.36056E-19
 -1       940 9.39331E-05-2.21526E-05-3.07633E-05 6.62887E-07 1.61519E-19-1.79703E-18
 -1       941 8.54921E-05-2.14357E-05-2.74521E-05 7.70244E-06 1.98237E-18 2.11785E-18
 -1       942 8.75262E-05-2.26705E-05-2.78024E-05-9.83860E-06 9.73844E-20-2.13996E-18
 -1       943 8.16632E-05-2.93214E-05-2.23436E-05 2.26684E-05 2.59523E-19-2.80322E-18
 -1       944 9.47166E-05-2.32434E-05-3.06313E-05 2.10492E-06 2.98178E-19-1.55090E-18
 -1       945 9.49227E-05-2.56325E-05-2.96954E-05-4.26148E-07-3.37536E-19-1.02562E-18
 -1       946 9.55506E-05-2.78339E-05-2.90215E-05 5.25409E-07-3.94706E-19-8.06122E-19
 -1       947 9.55905E-05-2.83866E-05-2.88017E-05 7.55794E-07-3.73700E-19-9.94789E-19
 -1       948 9.55243E-05-2.86860E-05-2.86450E-05 8.82247E-07-3.14497E-19-8.41127E-19
 -1       949 9.53885E-05-2.87938E-05-2.85408E-05 9.42947E-07-1.47067E-19-3.72209E-19
 -1       950 9.52051E-05-2.87546E-05-2.84792E-05 9.65213E-07-3.76033E-19-8.16684E-20
 -1       951 9.49873E-05-2.86032E-05-2.84507E-05 9.66830E-07-7.49316E-19-4.61528E-19
 -1       952 9.47475E-05-2.83718E-05-2.84444E-05 9.63586E-07-5.00548E-19-6.12009E-19
 -1       953 9.44976E-05-2.80907E-05-2.84492E-05 9.81083E-07-5.35295E-19-8.33790E-19
 -1       954 9.42340E-05-2.77669E-05-2.84440E-05 1.06239E-06-3.10328E-19-1.17691E-18
 -1       955 9.39495E-05-2.74021E-05-2.84290E-05 1.21605E-06 3.85769E-19 1.49146E-19
 -1       956 9.36784E-05-2.69971E-05-2.83812E-05 1.44329E-06-2.07880E-19 1.30800E-19
 -1       957 9.34242E-05-2.65588E-05-2.86080E-05 1.69626E-06 1.93838E-19 4.76946E-19
 -1       958 9.29020E-05-2.58252E-05-2.88509E-05 1.94721E-06-3.25869E-19 7.06784E-19
 -1       959 9.21788E-05-2.50973E-05-2.88060E-05 2.42424E-06-7.72596E-19 1.98659E-19
 -1       960 9.12547E-05-2.43525E-05-2.86890E-05 3.07462E-06 5.62961E-20 6.94277E-19
 -1       961 9.01381E-05-2.35874E-05-2.85247E-05 3.85099E-06 1.63119E-19-1.47204E-19
 -1       962 8.88315E-05-2.28576E-05-2.82747E-05 4.78256E-06 1.75184E-19-4.49734E-19
 -1       963 8.73395E-05-2.22512E-05-2.78952E-05 5.94035E-06-8.39936E-19 9.57948E-20
 -1       964 8.56882E-05-2.18994E-05-2.73385E-05 7.44584E-06-3.55845E-19-5.38699E-19
 -1       965 8.39308E-05-2.19875E-05-2.65479E-05 9.51592E-06-7.88118E-19-4.77784E-19
 -1       966 8.22445E-05-2.28649E-05-2.54475E-05 1.25088E-05-1.01269E-19-1.42085E-18
 -1       967 8.11784E-05-2.50038E-05-2.40599E-05 1.67266E-05-1.26146E-19-1.50911E-18
 -1       968 9.46716E-05-2.76710E-05-2.87162E-05-9.70632E-07-7.81622E-19-1.78695E-19
 -1       969 9.67269E-05-3.85064E-05-2.48892E-05 2.16888E-05-5.32340E-20 3.64738E-18
 -1       970 8.46004E-05-2.33010E-05-2.62840E-05-1.26420E-05 1.11548E-18-1.74310E-18
 -1       971 9.36831E-05-2.24275E-05-3.05381E-05-1.06179E-06-2.53528E-19-1.62894E-18
 -1       972 9.60808E-05-2.89845E-05-2.87550E-05-5.19582E-07 1.79772E-19-4.00190E-19
 -1       973 9.50097E-05-2.81161E-05-2.86775E-05-7.96368E-07-4.95761E-19-2.34612E-19
 -1       974 9.52967E-05-2.84890E-05-2.86498E-05-6.33260E-07 2.27566E-20-3.01169E-19
 -1       975 9.42941E-05-2.71856E-05-2.87613E-05-1.24600E-06-7.76826E-20 2.37225E-19
 -1       976 9.38546E-05-2.66510E-05-2.88063E-05-1.65414E-06 1.01787E-19 3.39112E-19
 -1       977 9.33769E-05-2.61193E-05-2.88357E-05-2.17256E-06 2.07879E-19-5.02818E-20
 -1       978 9.28084E-05-2.55721E-05-2.88295E-05-2.76421E-06 3.16258E-19-7.76378E-19
 -1       979 9.21273E-05-2.50045E-05-2.87692E-05-3.47295E-06-7.74284E-19-7.35854E-19
 -1       980 9.13464E-05-2.44625E-05-2.86636E-05-4.32290E-06-9.60734E-19-4.43028E-19
 -1       981 9.04876E-05-2.40141E-05-2.84879E-05-5.35187E-06-1.53004E-18-6.71441E-19
 -1       982 8.96091E-05-2.37765E-05-2.82137E-05-6.61683E-06 1.82607E-20-8.40761E-19
 -1       983 8.88254E-05-2.39283E-05-2.78130E-05-8.20225E-06-1.80864E-20-7.66056E-19
 -1       984 8.83279E-05-2.47202E-05-2.72609E-05-1.02291E-05-4.78096E-19 7.76374E-19
 -1       985 8.84681E-05-2.65450E-05-2.65399E-05-1.29203E-05-5.48722E-19 1.22440E-18
 -1       986 8.99622E-05-3.00376E-05-2.56787E-05-1.64237E-05-6.05054E-19 1.64846E-19
 -1       987 8.99384E-05-2.53251E-05-2.77011E-05 1.18133E-05 1.14578E-18 3.28733E-18
 -1       988 9.00591E-05-2.75669E-05-2.67850E-05 1.45463E-05 3.06660E-19 2.91533E-18
 -1       989 9.53462E-05-2.69424E-05-2.93160E-05 1.45452E-07-3.41101E-19-8.50210E-19
 -1       990 9.37355E-05-2.21031E-05-3.07008E-05-1.84610E-07-6.11092E-20-1.92728E-18
 -1       991 9.02664E-05-3.29177E-05-2.45517E-05-1.99849E-05-9.83402E-19-2.01167E-19
 -1       992 9.56958E-05-2.88741E-05-2.86413E-05-5.40727E-07 3.50385E-19-4.68788E-19
 -1       993 8.27750E-05-2.50395E-05-2.47339E-05-1.63602E-05 1.67315E-18-1.53122E-18
 -1       994 9.61096E-05-2.84101E-05-2.90142E-05-4.23178E-07 2.74596E-19-9.35570E-19
 -1       995 9.15229E-05-3.12989E-05-2.57990E-05 1.79617E-05-1.86940E-19 3.29970E-18
 -1       996 7.52369E-05-2.21053E-05-2.27473E-05-1.61879E-05-1.66965E-18 1.04551E-18
 -1       997 7.06208E-05-1.77596E-05-2.26043E-05-8.25024E-06 1.87778E-18-1.51367E-18
 -1       998 6.70581E-05-1.63598E-05-2.16909E-05 5.46532E-06 2.50002E-19-2.65064E-18
 -1       999 9.54910E-05-2.87042E-05-2.86366E-05-5.49836E-07 2.22579E-19-4.63607E-19
 -1      1000 9.58993E-05-2.89805E-05-2.86795E-05-5.37361E-07 2.90854E-19 1.26703E-20
 -1      1001 6.62775E-05-1.55584E-05-2.16878E-05-4.67244E-06-3.39599E-18-8.56200E-19
 -1      1002 6.68077E-05-1.53487E-05-2.20116E-05 2.46776E-06-2.65480E-18-8.83723E-19
 -1      1003 9.62278E-05-2.88540E-05-2.88744E-05-4.61520E-07 6.74671E-19-7.26958E-19
 -1      1004 9.55048E-05-2.50770E-05-3.01819E-05 1.41691E-06 4.99447E-19-1.27980E-18
 -1      1005 6.86751E-05-1.88329E-05-2.13139E-05 1.38602E-05-8.62362E-19-2.76967E-18
 -1      1006 7.87524E-05-1.86291E-05-2.57479E-05 1.28283E-06 1.36261E-18-2.33771E-18
 -1      1007 7.60542E-05-2.09652E-05-2.35732E-05-1.32081E-05 2.09408E-18-2.76376E-18
 -1      1008 7.95669E-05-1.90565E-05-2.59288E-05-5.19279E-06 1.22119E-18-1.04757E-18
 -1      1009 9.52064E-05-2.44694E-05-3.03148E-05 1.09932E-06 2.92207E-19-1.46845E-18
 -1      1010 9.49273E-05-2.40938E-05-3.03566E-05 6.27716E-07 6.48621E-20-1.80532E-18
 -1      1011 9.60682E-05-2.66685E-05-2.97431E-05 5.98081E-07 4.23224E-19-1.23790E-18
 -1      1012 8.66628E-05-2.37243E-05-2.69740E-05 1.13011E-05 7.74638E-19 1.10875E-18
 -1      1013 9.46366E-05-2.77416E-05-2.86716E-05-5.81235E-07-5.97206E-19-6.90465E-20
 -1      1014 9.59362E-05-2.81332E-05-2.90586E-05 5.04137E-07-4.56433E-19-1.17994E-18
 -1      1015 8.03001E-05-2.23580E-05-2.48147E-05 1.32744E-05 7.55340E-19 3.50168E-18
 -1      1016 9.59321E-05-2.86071E-05-2.88537E-05 6.27686E-07-2.77362E-19-1.03392E-18
 -1      1017 9.58172E-05-2.88347E-05-2.87068E-05 6.93305E-07 1.23442E-19-6.90000E-19
 -1      1018 9.56299E-05-2.88774E-05-2.86084E-05 7.22658E-07-8.66781E-20-5.78557E-19
 -1      1019 9.53923E-05-2.87785E-05-2.85492E-05 7.29628E-07-6.17497E-19-5.18553E-19
 -1      1020 9.51186E-05-2.85720E-05-2.85201E-05 7.26512E-07-6.18021E-19-9.94664E-20
 -1      1021 9.48156E-05-2.82835E-05-2.85111E-05 7.29255E-07-9.81499E-19-8.89721E-19
 -1      1022 9.44768E-05-2.79248E-05-2.85034E-05 7.61065E-07-2.39013E-19-4.12198E-19
 -1      1023 9.40779E-05-2.74966E-05-2.84607E-05 8.46628E-07 6.10507E-19-4.36270E-19
 -1      1024 9.36031E-05-2.70319E-05-2.82801E-05 1.02221E-06 1.20517E-19-3.75474E-19
 -1      1025 9.33073E-05-2.66790E-05-2.78982E-05 1.28765E-06-1.20861E-19 5.95041E-20
 -1      1026 9.26023E-05-2.57591E-05-2.86623E-05 1.01006E-06 4.18388E-19-9.79382E-20
 -1      1027 9.19606E-05-2.50084E-05-2.88523E-05 1.38465E-06-7.23307E-19-2.47344E-19
 -1      1028 9.09154E-05-2.41478E-05-2.86762E-05 1.75304E-06-3.81760E-19-6.65943E-19
 -1      1029 8.96527E-05-2.32572E-05-2.84705E-05 2.20781E-06-3.05928E-19-7.52389E-19
 -1      1030 8.81294E-05-2.23278E-05-2.82037E-05 2.75185E-06 2.32574E-19-1.71678E-19
 -1      1031 8.62919E-05-2.13939E-05-2.78147E-05 3.42554E-06-9.52829E-20-8.95851E-19
 -1      1032 8.40737E-05-2.05094E-05-2.72437E-05 4.31003E-06-7.59386E-19 1.97508E-20
 -1      1033 8.13788E-05-1.97429E-05-2.64180E-05 5.54623E-06-1.36777E-18-4.36560E-19
 -1      1034 7.80128E-05-1.91476E-05-2.52252E-05 7.43106E-06-9.03739E-19-7.28454E-19
 -1      1035 9.36256E-05-2.65485E-05-2.87576E-05-1.03393E-06-6.20849E-20 1.59083E-19
 -1      1036 9.63285E-05-2.85591E-05-2.90448E-05-3.20594E-07 4.32478E-20-7.71065E-19
 -1      1037 9.41718E-05-2.71907E-05-2.87055E-05-7.49023E-07-7.19860E-19 6.32333E-21
 -1      1038 9.50309E-05-2.82007E-05-2.86464E-05-4.61367E-07-3.29502E-19-4.14419E-20
 -1      1039 9.30576E-05-2.59041E-05-2.88293E-05-1.45961E-06 8.33849E-19-2.73436E-19
 -1      1040 9.24133E-05-2.53212E-05-2.88305E-05-1.86227E-06 7.03342E-19-1.24364E-18
 -1      1041 9.15579E-05-2.46263E-05-2.87061E-05-2.35013E-06-1.73929E-19-9.76079E-19
 -1      1042 9.05358E-05-2.39003E-05-2.85585E-05-2.94409E-06-9.68180E-19-1.47543E-18
 -1      1043 8.93292E-05-2.31693E-05-2.83523E-05-3.68726E-06-6.07550E-19-1.59556E-18
 -1      1044 8.79379E-05-2.25045E-05-2.80422E-05-4.63820E-06-9.14643E-19-1.62523E-18
 -1      1045 8.63654E-05-2.20006E-05-2.75857E-05-5.89148E-06-4.69521E-19-4.80137E-19
 -1      1046 8.46533E-05-2.18154E-05-2.69342E-05-7.62168E-06-1.49419E-18-4.90901E-19
 -1      1047 8.28799E-05-2.21741E-05-2.60243E-05-1.00693E-05-8.31597E-19-4.75020E-19
 -1      1048 7.97002E-05-2.21016E-05-2.46778E-05-1.25327E-05-7.70884E-19-7.63503E-19
 -1      1049 9.53750E-05-2.61104E-05-2.96841E-05-1.89199E-08-8.62092E-20-1.26803E-18
 -1      1050 9.47110E-05-2.39825E-05-3.03126E-05 9.66755E-08 2.53636E-19-1.84569E-18
 -1      1051 9.63071E-05-2.79833E-05-2.92798E-05-5.32638E-08 2.85211E-19-8.05917E-19
 -1      1052 8.08320E-05-2.01270E-05-2.60285E-05 7.39501E-06 1.11366E-18 9.23952E-19
 -1      1053 7.28044E-05-1.70806E-05-2.38643E-05-4.69125E-06-2.07732E-18-1.06502E-18
 -1      1054 9.61033E-05-2.90186E-05-2.87507E-05-2.88697E-07 2.88997E-19-4.66295E-19
 -1      1055 7.36775E-05-1.73302E-05-2.41456E-05-7.50702E-09 8.29649E-19-2.30162E-18
 -1      1056 9.58769E-05-2.89570E-05-2.86807E-05-3.04450E-07 5.74164E-19-3.77361E-19
 -1      1057 9.57744E-05-2.73334E-05-2.93318E-05 2.99056E-07-3.24230E-19-1.25167E-18
 -1      1058 9.56254E-05-2.87946E-05-2.86451E-05-3.21345E-07 3.05112E-19-1.01742E-19
 -1      1059 9.53533E-05-2.85492E-05-2.86358E-05-3.68215E-07-3.65047E-20-2.20536E-20
 -1      1060 9.59071E-05-2.62369E-05-2.98592E-05 5.15547E-07 4.37292E-19-1.30629E-18
 -1      1061 9.62872E-05-2.89429E-05-2.88618E-05-2.55442E-07-9.92767E-20-6.28119E-19
 -1      1062 9.63843E-05-2.78107E-05-2.93884E-05 1.11266E-07 6.54294E-20-1.58625E-18
 -1      1063 7.38892E-05-1.87466E-05-2.36267E-05 9.93294E-06-5.31988E-19-1.70272E-18
 -1      1064 7.27166E-05-1.66213E-05-2.40356E-05 3.68717E-07-1.35300E-18-1.99664E-19
 -1      1065 9.48728E-05-2.47328E-05-3.00603E-05-2.41308E-07 7.49898E-20-1.53598E-18
 -1      1066 9.60027E-05-2.89996E-05-2.87162E-05-2.54207E-08 1.41248E-19-1.22869E-18
 -1      1067 9.62116E-05-2.84269E-05-2.90502E-05 3.93455E-07-2.63080E-19-8.34102E-19
 -1      1068 9.61395E-05-2.87891E-05-2.88644E-05 4.31621E-07 1.25403E-19-7.73803E-19
 -1      1069 9.59798E-05-2.89394E-05-2.87317E-05 4.50767E-07 5.42473E-20-7.08276E-19
 -1      1070 9.57502E-05-2.89103E-05-2.86455E-05 4.56854E-07-3.71049E-19-4.82359E-19
 -1      1071 9.54703E-05-2.87525E-05-2.85930E-05 4.51969E-07-5.84363E-19-5.85460E-19
 -1      1072 9.51525E-05-2.84918E-05-2.85664E-05 4.42914E-07-9.00445E-19-7.78358E-19
 -1      1073 9.47932E-05-2.81435E-05-2.85501E-05 4.40317E-07-3.37711E-19-7.41911E-19
 -1      1074 9.43769E-05-2.77140E-05-2.85075E-05 4.56796E-07 5.87993E-20-9.84080E-19
 -1      1075 9.38733E-05-2.72028E-05-2.83389E-05 5.00538E-07 4.27705E-19-1.04336E-18
 -1      1076 9.32423E-05-2.65694E-05-2.78617E-05 4.31174E-07 4.55393E-19-2.28699E-19
 -1      1077 9.27154E-05-2.59266E-05-2.85352E-05 5.03744E-07-1.05667E-19-2.32934E-20
 -1      1078 9.21966E-05-2.51010E-05-2.94644E-05 5.19736E-07-6.12921E-19-5.81276E-19
 -1      1079 9.10635E-05-2.42557E-05-2.88766E-05 5.43820E-07-4.71203E-19-1.53472E-19
 -1      1080 8.97808E-05-2.33409E-05-2.85354E-05 7.01052E-07-4.82090E-20 7.68404E-19
 -1      1081 8.82420E-05-2.23533E-05-2.82499E-05 8.59650E-07 2.62488E-19 5.46678E-19
 -1      1082 8.63642E-05-2.13030E-05-2.78847E-05 1.03583E-06-4.07770E-19-7.59035E-20
 -1      1083 8.40465E-05-2.02076E-05-2.73594E-05 1.24040E-06-1.92087E-19-1.16148E-18
 -1      1084 8.11532E-05-1.90661E-05-2.66078E-05 1.54942E-06-6.62655E-19-7.30647E-19
 -1      1085 7.76861E-05-1.80870E-05-2.55297E-05 1.94970E-06-1.82485E-18 7.13143E-19
 -1      1086 9.22487E-05-2.52198E-05-2.92809E-05-9.13340E-07 7.67915E-19-2.77483E-19
 -1      1087 9.36111E-05-2.66605E-05-2.86447E-05-3.32633E-07 8.06534E-20-9.03122E-19
 -1      1088 9.46826E-05-2.78799E-05-2.86252E-05-1.74428E-07-3.71717E-19 8.29511E-19
 -1      1089 9.14538E-05-2.45355E-05-2.88076E-05-1.22815E-06 4.79672E-19 5.21491E-19
 -1      1090 9.03327E-05-2.37455E-05-2.85523E-05-1.51478E-06-2.26035E-20 7.79932E-20
 -1      1091 8.89563E-05-2.28498E-05-2.83273E-05-1.91639E-06-4.28642E-19-7.58099E-19
 -1      1092 8.73101E-05-2.19242E-05-2.80194E-05-2.44774E-06-7.46438E-19-8.47021E-19
 -1      1093 8.53374E-05-2.10139E-05-2.75665E-05-3.15803E-06-8.36950E-19-1.08055E-18
 -1      1094 8.29450E-05-2.01535E-05-2.69098E-05-4.12588E-06-5.99170E-19-1.09802E-18
 -1      1095 8.00713E-05-1.94242E-05-2.59740E-05-5.53408E-06-8.10434E-19-2.07662E-18
 -1      1096 7.68586E-05-1.83951E-05-2.50388E-05-5.30530E-06-1.01114E-18-1.65458E-18
 -1      1097 9.53395E-05-2.55032E-05-2.99294E-05 9.07500E-08 9.28969E-20-1.62281E-18
 -1      1098 9.56739E-05-2.59202E-05-2.98933E-05 3.31407E-07 2.23992E-19-1.87603E-18
 -1      1099 9.41948E-05-2.73420E-05-2.86253E-05-2.43117E-07-2.85136E-19 4.54949E-20
 -1      1100 9.57360E-05-2.88701E-05-2.86576E-05-4.22326E-08-4.80941E-20-6.94559E-19
 -1      1101 9.31156E-05-2.59509E-05-2.89001E-05-5.80387E-07 4.49811E-19-1.47021E-18
 -1      1102 9.64122E-05-2.86944E-05-2.90211E-05-1.74979E-07 2.51191E-19-1.38548E-18
 -1      1103 9.62087E-05-2.89808E-05-2.88120E-05-1.37042E-08 2.48622E-20-1.49165E-18
 -1      1104 9.50896E-05-2.83108E-05-2.86205E-05-1.14686E-07-3.07732E-19 7.15735E-19
 -1      1105 9.62707E-05-2.76051E-05-2.94276E-05 2.30467E-07 1.73081E-19-1.36629E-18
 -1      1106 9.61208E-05-2.77598E-05-2.92972E-05 3.26615E-07-8.64088E-20-1.04635E-18
 -1      1107 7.65437E-05-1.77666E-05-2.52125E-05-1.64775E-06-1.14561E-18-5.14459E-19
 -1      1108 9.54343E-05-2.86396E-05-2.86278E-05-6.91473E-08-2.45604E-19-3.84456E-20
 -1      1109 9.58594E-05-2.68415E-05-2.95801E-05 2.28932E-07-1.40068E-19-1.46357E-18
 -1      1110 9.62276E-05-2.89366E-05-2.88383E-05 1.83574E-07 6.83032E-20-1.31440E-18
 -1      1111 9.63802E-05-2.88109E-05-2.89585E-05 2.41080E-08-2.29215E-19-1.41424E-18
 -1      1112 9.64172E-05-2.83789E-05-2.91603E-05 1.32213E-07-3.05405E-20-1.23704E-18
 -1      1113 1.13920E-04 2.50681E-10-4.08063E-05-4.05190E-05-1.80418E-19 8.96860E-18
 -1      1114 8.65363E-05 6.99869E-11-3.63693E-05-2.36999E-05-1.24302E-19 2.42077E-18
 -1      1115 8.22600E-05 4.04197E-11-3.49962E-05-1.75790E-05-9.57677E-20-6.46008E-19
 -1      1116 8.07503E-05 3.13634E-11-3.43982E-05-1.36321E-05-6.43480E-20-2.22028E-18
 -1      1117 8.01572E-05 2.68627E-11-3.41517E-05-1.03904E-05-5.14506E-20-3.06274E-18
 -1      1118 7.99470E-05 2.42607E-11-3.40687E-05-7.54248E-06-3.66573E-20-3.56907E-18
 -1      1119 7.99240E-05 2.27011E-11-3.40646E-05-4.91429E-06-2.27855E-20-3.79678E-18
 -1      1120 8.00041E-05 2.18796E-11-3.41028E-05-2.39032E-06-1.25533E-20-3.93723E-18
 -1      1121 8.01532E-05 2.16654E-11-3.41678E-05 7.78015E-08-4.34766E-21-4.02180E-18
 -1      1122 8.03620E-05 2.20263E-11-3.42552E-05 2.55403E-06 8.03358E-21-4.06716E-18
 -1      1123 8.06431E-05 2.30189E-11-3.43706E-05 5.10379E-06 1.43268E-20-4.04986E-18
 -1      1124 8.10329E-05 2.47802E-11-3.45296E-05 7.77940E-06 2.91035E-20-3.89263E-18
 -1      1125 8.16188E-05 2.77111E-11-3.47726E-05 1.07042E-05 3.75341E-20-3.59341E-18
 -1      1126 8.26084E-05 3.26581E-11-3.51893E-05 1.40656E-05 6.43216E-20-2.94040E-18
 -1      1127 8.45204E-05 4.22412E-11-3.59759E-05 1.81780E-05 9.38618E-20-1.57894E-18
 -1      1128 8.90140E-05 6.74280E-11-3.75980E-05 2.41158E-05 1.17314E-19 1.22222E-18
 -1      1129 1.07604E-04 1.65679E-10-4.09995E-05 3.64340E-05 2.74227E-19 7.46098E-18
 -1      1130 1.26839E-04-2.50680E-05-3.92329E-05-2.54979E-05-8.23316E-19 1.32188E-17
 -1      1131 9.47688E-05-2.80638E-05-3.07207E-05-6.72772E-07-2.52336E-19 1.13375E-17
 -1      1132 8.76125E-05-2.62631E-05-2.71125E-05 3.77547E-07-9.35574E-20 8.51332E-18
 -1      1133 8.57491E-05-2.58205E-05-2.58911E-05 2.45800E-07-7.55481E-20 6.40275E-18
 -1      1134 8.54158E-05-2.57017E-05-2.56448E-05 1.62979E-07-4.05567E-20 5.04752E-18
 -1      1135 8.57887E-05-2.57830E-05-2.57339E-05 1.16099E-07-1.08824E-19 3.96504E-18
 -1      1136 8.64809E-05-2.59696E-05-2.59379E-05 8.59635E-08-2.11291E-20 3.13333E-18
 -1      1137 8.72934E-05-2.62010E-05-2.61792E-05 6.47630E-08-4.14934E-20 2.32935E-18
 -1      1138 8.81131E-05-2.64399E-05-2.64224E-05 4.85983E-08 8.49071E-20 1.63041E-18
 -1      1139 8.88720E-05-2.66632E-05-2.66483E-05 3.52592E-08 2.17841E-20 1.25884E-18
 -1      1140 8.95266E-05-2.68530E-05-2.68515E-05 2.30741E-08-8.73652E-20 5.35679E-19
 -1      1141 9.00440E-05-2.69827E-05-2.70582E-05 1.01770E-08-4.40734E-20 5.38250E-19
 -1      1142 9.03836E-05-2.69895E-05-2.73714E-05-4.24273E-09-1.01862E-19-1.73006E-19
 -1      1143 9.05356E-05-2.67432E-05-2.79676E-05 9.84175E-08-2.89116E-20-3.67612E-19
 -1      1144 9.19922E-05-2.74196E-05-2.81505E-05 1.04868E-06-3.90694E-20-1.87194E-19
 -1      1145 9.51120E-05-2.88840E-05-2.76970E-05 7.42228E-08-2.33344E-19-9.06325E-19
 -1      1146 9.50089E-05-2.86887E-05-2.81129E-05-1.48212E-08 1.24865E-19-7.45918E-19
 -1      1147 9.52589E-05-2.86291E-05-2.85184E-05-9.27740E-09 1.62081E-19-1.87988E-19
 -1      1148 9.57618E-05-2.87293E-05-2.87633E-05-2.21619E-09-1.02761E-19-1.24021E-18
 -1      1149 9.64891E-05-2.89512E-05-2.89866E-05 7.19453E-09 4.42273E-20-2.37685E-18
 -1      1150 9.74433E-05-2.92396E-05-2.92674E-05 1.50805E-08 1.65684E-20-1.49088E-18
 -1      1151 9.86771E-05-2.96173E-05-2.96326E-05 2.58733E-08 3.81678E-20-7.87787E-19
 -1      1152 1.00244E-04-3.00903E-05-3.01067E-05 3.83549E-08-5.84817E-20-1.68295E-19
 -1      1153 1.02204E-04-3.06793E-05-3.07006E-05 5.51170E-08-2.05801E-19-8.59752E-19
 -1      1154 1.04610E-04-3.13997E-05-3.14252E-05 7.68459E-08 8.82287E-20-1.19853E-18
 -1      1155 1.07471E-04-3.22536E-05-3.22789E-05 1.02364E-07 1.93226E-19 1.99119E-19
 -1      1156 1.10714E-04-3.32171E-05-3.32324E-05 1.27298E-07 3.04202E-19 2.04142E-18
 -1      1157 1.14110E-04-3.42206E-05-3.42087E-05 1.41650E-07-1.38235E-19 5.55574E-19
 -1      1158 1.17200E-04-3.51257E-05-3.50618E-05 1.26965E-07-2.47327E-20-5.13990E-19
 -1      1159 1.19223E-04-3.57067E-05-3.55662E-05 5.59637E-08 2.78207E-19-6.90722E-19
 -1      1160 1.19157E-04-3.56622E-05-3.54407E-05-9.88943E-08-3.08297E-19-1.47993E-18
 -1      1161 1.15972E-04-3.46961E-05-3.44394E-05-3.39939E-07-3.41460E-21-3.76506E-18
 -1      1162 1.09246E-04-3.26994E-05-3.25173E-05-6.04790E-07 2.00605E-19-1.43604E-18
 -1      1163 9.99568E-05-2.99789E-05-3.00041E-05-7.49773E-07 2.02461E-19 1.88782E-19
 -1      1164 9.08401E-05-2.73390E-05-2.76299E-05-6.18282E-07 3.54073E-19 2.26793E-18
 -1      1165 8.54917E-05-2.58019E-05-2.62659E-05-1.90786E-07 1.10180E-19 2.99556E-18
 -1      1166 8.63023E-05-2.60311E-05-2.64616E-05 3.37113E-07 1.04860E-19 2.33712E-18
 -1      1167 9.28006E-05-2.78976E-05-2.81093E-05 6.86879E-07 3.43247E-20 2.69791E-18
 -1      1168 1.01982E-04-3.05597E-05-3.05078E-05 7.22724E-07 1.17566E-19 1.54245E-18
 -1      1169 1.10300E-04-3.30022E-05-3.27781E-05 5.19969E-07 2.88041E-19 2.91538E-18
 -1      1170 1.15499E-04-3.45523E-05-3.42913E-05 2.46318E-07 1.33447E-19 2.89241E-18
 -1      1171 1.17083E-04-3.50441E-05-3.48383E-05 2.32616E-08-3.77949E-19 3.08372E-18
 -1      1172 1.15734E-04-3.46661E-05-3.45425E-05-1.10932E-07-2.39452E-19 1.87157E-18
 -1      1173 1.12525E-04-3.37306E-05-3.36770E-05-1.69819E-07 3.52162E-19 1.35361E-18
 -1      1174 1.08444E-04-3.25289E-05-3.25221E-05-1.81361E-07 3.54554E-19 2.97393E-18
 -1      1175 1.04222E-04-3.12798E-05-3.13037E-05-1.67785E-07-3.47473E-19 5.54028E-18
 -1      1176 1.00376E-04-3.01381E-05-3.01892E-05-1.38359E-07-2.62713E-19 1.15472E-18
 -1      1177 9.73162E-05-2.92283E-05-2.93066E-05-8.47245E-08-7.36786E-20-2.92384E-18
 -1      1178 9.54827E-05-2.87083E-05-2.87409E-05 2.36976E-08 2.96743E-19-6.08279E-18
 -1      1179 9.50314E-05-2.85011E-05-2.84361E-05 7.41225E-08-9.16847E-21-3.23091E-18
 -1      1180 1.32351E-04-3.81149E-05-3.90375E-05 1.22625E-05-1.24329E-19 1.27373E-17
 -1      1181 9.76473E-05-2.85115E-05-3.16692E-05 8.02919E-07 1.15408E-19 9.47364E-18
 -1      1182 9.14170E-05-2.72411E-05-2.81896E-05 1.19418E-07 7.28382E-20 6.71391E-18
 -1      1183 8.93356E-05-2.67995E-05-2.69796E-05 8.50651E-09 2.95105E-20 4.72464E-18
 -1      1184 8.88823E-05-2.66935E-05-2.66989E-05-2.54518E-08 1.21711E-20 3.21700E-18
 -1      1185 8.91674E-05-2.67736E-05-2.67560E-05-3.41447E-08 9.05912E-20 1.75156E-18
 -1      1186 8.97831E-05-2.69500E-05-2.69348E-05-3.50045E-08 1.81215E-20 8.54153E-19
 -1      1187 9.05261E-05-2.71673E-05-2.71548E-05-3.29525E-08 2.25498E-20 4.25647E-19
 -1      1188 9.12866E-05-2.73921E-05-2.73809E-05-2.95435E-08 5.05678E-20-9.61356E-19
 -1      1189 9.20053E-05-2.76060E-05-2.75948E-05-2.55753E-08-3.09132E-20-8.62928E-19
 -1      1190 9.26543E-05-2.78010E-05-2.77855E-05-2.19220E-08 1.00081E-19-1.39044E-18
 -1      1191 9.32216E-05-2.79714E-05-2.79476E-05-1.63996E-08-6.38294E-21-1.72213E-18
 -1      1192 9.36882E-05-2.81147E-05-2.80880E-05-5.80241E-09-1.79866E-20-1.64273E-18
 -1      1193 9.40815E-05-2.82198E-05-2.82443E-05-5.81070E-09-6.85733E-20-8.20815E-19
 -1      1194 9.44672E-05-2.83251E-05-2.83760E-05-1.06951E-09 1.50243E-19-1.97930E-18
 -1      1195 9.48403E-05-2.84498E-05-2.84673E-05-2.34260E-10 4.33374E-20-3.35737E-18
 -1      1196 9.52090E-05-2.85656E-05-2.85709E-05 4.92303E-09-2.85159E-19-1.99257E-18
 -1      1197 9.56296E-05-2.86941E-05-2.86971E-05 7.84224E-09 6.86488E-20-2.18533E-18
 -1      1198 9.61488E-05-2.88520E-05-2.88561E-05 1.04507E-08 2.32068E-19-4.72170E-18
 -1      1199 9.68095E-05-2.90520E-05-2.90597E-05 1.31102E-08-9.90536E-20-4.11599E-18
 -1      1200 9.76671E-05-2.93109E-05-2.93231E-05 1.44238E-08-8.64085E-20-3.07593E-18
 -1      1201 9.87846E-05-2.96474E-05-2.96650E-05 1.34591E-08-1.40327E-20-2.21402E-18
 -1      1202 1.00223E-04-3.00795E-05-3.01029E-05 9.15954E-09 4.44184E-20-3.52510E-18
 -1      1203 1.02034E-04-3.06216E-05-3.06509E-05 2.44143E-11 1.37024E-19-3.93009E-18
 -1      1204 1.04242E-04-3.12804E-05-3.13144E-05-1.59356E-08 1.78004E-19-2.41505E-18
 -1      1205 1.06825E-04-3.20473E-05-3.20822E-05-4.08240E-08-1.90115E-20-7.46448E-21
 -1      1206 1.09667E-04-3.28874E-05-3.29142E-05-7.57014E-08-3.27700E-20 8.58415E-20
 -1      1207 1.12515E-04-3.37240E-05-3.37262E-05-1.18133E-07-1.22982E-19-9.77198E-19
 -1      1208 1.14910E-04-3.44231E-05-3.43758E-05-1.58130E-07-2.61588E-20-1.18701E-18
 -1      1209 1.16168E-04-3.47865E-05-3.46614E-05-1.73773E-07-6.15489E-20-1.94670E-18
 -1      1210 1.15441E-04-3.45724E-05-3.43540E-05-1.31498E-07 1.40965E-19-4.05128E-18
 -1      1211 1.11984E-04-3.35678E-05-3.32820E-05 6.19895E-12 4.87474E-20-3.22164E-18
 -1      1212 1.05648E-04-3.17234E-05-3.14631E-05 2.16881E-07-7.53859E-20-2.94826E-18
 -1      1213 9.74357E-05-2.93120E-05-2.92230E-05 4.45905E-07-3.78931E-21-3.95681E-18
 -1      1214 8.96604E-05-2.69869E-05-2.71848E-05 5.56425E-07-2.13899E-19-3.71678E-18
 -1      1215 8.51703E-05-2.55905E-05-2.60481E-05 4.47346E-07 2.72301E-19-6.83542E-18
 -1      1216 8.58148E-05-2.57155E-05-2.62371E-05 1.45745E-07 2.65479E-19-9.07551E-18
 -1      1217 9.12385E-05-2.73074E-05-2.76535E-05-1.94785E-07-4.23351E-20-8.70623E-18
 -1      1218 9.91058E-05-2.96794E-05-2.97341E-05-4.14099E-07 3.54674E-21-8.30717E-18
 -1      1219 1.06554E-04-3.19462E-05-3.17646E-05-4.54082E-07 3.72496E-20-8.27128E-18
 -1      1220 1.11600E-04-3.34850E-05-3.32045E-05-3.60677E-07-2.19848E-19-4.90956E-18
 -1      1221 1.13614E-04-3.40982E-05-3.38358E-05-2.16158E-07-2.99380E-19-4.73994E-19
 -1      1222 1.12982E-04-3.39076E-05-3.37192E-05-8.20423E-08 1.44982E-19-6.48510E-20
 -1      1223 1.10533E-04-3.31690E-05-3.30611E-05 1.63654E-08 1.11570E-20 1.11517E-18
 -1      1224 1.07113E-04-3.21416E-05-3.20974E-05 7.86850E-08 1.87969E-20-1.73472E-18
 -1      1225 1.03410E-04-3.10326E-05-3.10347E-05 1.14724E-07 1.37717E-19-5.42567E-18
 -1      1226 9.99438E-05-2.99975E-05-3.00377E-05 1.33348E-07-2.42399E-19-5.93848E-18
 -1      1227 9.71433E-05-2.91627E-05-2.92375E-05 1.31072E-07-2.71133E-20-5.00301E-18
 -1      1228 9.54326E-05-2.86487E-05-2.87223E-05 7.32663E-08 7.40720E-19-7.41921E-18
 -1      1229 9.50644E-05-2.85172E-05-2.84450E-05-6.10109E-08-1.72974E-19-5.37464E-18
 -1      1230 9.52952E-05-2.87477E-05-2.84502E-05-5.66816E-08-5.74291E-18-5.86809E-19
 -1      1231 9.51336E-05-2.83374E-05-2.87330E-05-2.56620E-08-7.00315E-18-6.20966E-19
 -1      1232 9.46369E-05-2.66502E-05-2.92416E-05 8.59441E-08-3.34086E-18-1.26636E-19
 -1      1233 9.38509E-05-2.39908E-05-2.99939E-05 1.32013E-07-1.76543E-18-6.19855E-19
 -1      1234 9.29306E-05-2.08716E-05-3.08816E-05 1.44092E-07-9.76258E-19-7.64999E-20
 -1      1235 9.20244E-05-1.77963E-05-3.17615E-05 1.32786E-07-5.31638E-18-6.09676E-19
 -1      1236 9.12526E-05-1.51717E-05-3.25142E-05 1.05226E-07-4.78063E-18-3.48170E-19
 -1      1237 9.07174E-05-1.33498E-05-3.30355E-05 6.04793E-08-1.94113E-18 4.12224E-19
 -1      1238 9.05056E-05-1.26274E-05-3.32411E-05 6.01742E-09-3.75708E-18-1.53639E-19
 -1      1239 9.06516E-05-1.31227E-05-3.30978E-05-5.03860E-08-3.57791E-18-3.67468E-19
 -1      1240 9.11374E-05-1.47770E-05-3.26227E-05-1.00156E-07-1.06128E-17-1.24398E-18
 -1      1241 9.18920E-05-1.73369E-05-3.18895E-05-1.36147E-07-1.23433E-17 2.65592E-19
 -1      1242 9.28084E-05-2.04536E-05-3.09986E-05-1.51935E-07-7.76216E-18 6.19846E-19
 -1      1243 9.37666E-05-2.37034E-05-3.00784E-05-1.45135E-07-4.32405E-18 2.21084E-19
 -1      1244 9.46099E-05-2.65583E-05-2.92835E-05-1.16222E-07 1.50486E-18 2.02231E-19
 -1      1245 9.50762E-05-2.82563E-05-2.87444E-05 6.60457E-08 5.97337E-18-1.00057E-18
 -1      1246 9.53116E-05-2.87773E-05-2.84376E-05 6.54562E-08 4.69527E-18 7.95996E-20
 -1      1247 3.48208E-05-1.09025E-04 1.84590E-05-1.39349E-05-8.32972E-18-3.14117E-19
 -1      1248 1.80929E-05-6.85367E-05 1.04510E-05-2.49331E-05-3.37034E-18-8.52962E-19
 -1      1249 7.54519E-06-1.46693E-05-4.13626E-06-4.36181E-06 7.54876E-18 5.70646E-18
 -1      1250 2.74157E-05 2.25000E-05-2.29769E-05 4.48570E-05 1.18009E-17 9.67566E-18
 -1      1251 9.66063E-05 1.65092E-05-4.39856E-05 9.61256E-05 5.69121E-18 9.54437E-18
 -1      1252 1.99657E-04-2.93694E-05-6.28262E-05 1.10481E-04 5.21561E-18 1.11402E-17
 -1      1253 2.84372E-04-7.73719E-05-7.45799E-05 6.65187E-05 1.44684E-18 8.55588E-18
 -1      1254 3.08496E-04-9.18008E-05-7.76239E-05-1.50635E-05 3.94400E-20 4.06481E-18
 -1      1255 2.55033E-04-5.94234E-05-7.07099E-05-8.74211E-05-2.56227E-20-2.13452E-19
 -1      1256 1.57431E-04-8.21798E-06-5.56446E-05-1.09830E-04 1.68221E-18-2.77657E-18
 -1      1257 6.66792E-05 2.38729E-05-3.65249E-05-8.00571E-05 3.49147E-18-4.20467E-18
 -1      1258 1.65068E-05 1.48520E-05-1.68165E-05-2.75129E-05 4.14877E-18-2.84434E-18
 -1      1259 8.47760E-06-3.00541E-05 9.51043E-07 1.51015E-05 8.59569E-18-3.44997E-18
 -1      1260 2.41111E-05-8.31093E-05 1.35735E-05 2.50047E-05 9.81288E-18-2.75561E-18
 -1      1261 3.68349E-05-1.12297E-04 1.91084E-05 5.29932E-06 8.59929E-18-4.57927E-19
 -1      1262 3.00574E-05-9.75787E-05 1.64096E-05-2.06214E-05 3.12301E-18-9.63500E-20
 -1      1263 1.22241E-05-4.81063E-05 5.63164E-06-2.22233E-05-5.41508E-18-2.46190E-18
 -1      1264 1.17019E-05 4.15615E-06-1.17450E-05 1.43211E-05-8.67701E-18-5.89196E-18
 -1      1265 5.46248E-05 2.45090E-05-3.29181E-05 7.10534E-05-7.84268E-18-8.75832E-18
 -1      1266 1.40824E-04-9.01626E-07-5.28895E-05 1.09143E-04-7.29465E-18-1.26276E-17
 -1      1267 2.37685E-04-5.00782E-05-6.83666E-05 9.87011E-05-4.45031E-18-1.31900E-17
 -1      1268 3.03076E-04-8.86440E-05-7.69821E-05 4.05404E-05-1.16303E-18-1.20380E-17
 -1      1269 3.03003E-04-8.82823E-05-7.71588E-05-3.93874E-05 9.29751E-19-1.05417E-17
 -1      1270 2.39687E-04-5.10624E-05-6.86996E-05-9.98790E-05 1.70995E-18-6.87113E-18
 -1      1271 1.41949E-04-6.85755E-07-5.32645E-05-1.09941E-04 9.16490E-19-2.68171E-18
 -1      1272 5.21558E-05 2.45219E-05-3.18971E-05-6.85479E-05-2.27005E-18 1.58565E-18
 -1      1273 9.69280E-06-1.16374E-06-9.23180E-06-7.44560E-06-3.62361E-18 2.35729E-18
 -1      1274 1.62956E-05-6.10669E-05 8.60647E-06 2.49360E-05-9.05648E-18 2.20440E-18
 -1      1275 3.50549E-05-1.08508E-04 1.82743E-05 1.46276E-05-1.55638E-17 1.40594E-18
 -1      1276 1.01739E-04-2.14260E-05-3.69289E-05-1.69135E-05-2.92015E-19 7.73341E-18
 -1      1277 8.82020E-05-6.50169E-06-3.51824E-05-2.00767E-05-9.70912E-19 9.98599E-19
 -1      1278 9.03852E-05-6.55424E-06-3.63227E-05-2.52278E-05-1.20448E-18 2.60177E-18
 -1      1279 8.40878E-05-3.99318E-06-3.43937E-05-1.61403E-05-1.05871E-18-1.31370E-18
 -1      1280 8.52142E-05-3.98707E-06-3.48127E-05-1.85004E-05-1.18436E-18-2.96250E-19
 -1      1281 9.00180E-05-1.01964E-05-3.42998E-05-1.86469E-05-1.76037E-18 8.92190E-19
 -1      1282 8.25284E-05-3.12560E-06-3.40406E-05-1.26044E-05-8.96081E-19-2.56816E-18
 -1      1283 8.30239E-05-3.09465E-06-3.42194E-05-1.43823E-05-1.02618E-18-1.97883E-18
 -1      1284 8.60612E-05-7.22376E-06-3.38702E-05-1.51155E-05-1.67857E-18-1.06168E-18
 -1      1285 8.18295E-05-2.68053E-06-3.39081E-05-9.52661E-06-7.26708E-19-3.29604E-18
 -1      1286 8.20431E-05-2.66424E-06-3.39753E-05-1.10473E-05-8.03384E-19-2.97021E-18
 -1      1287 8.43134E-05-5.86991E-06-3.36862E-05-1.17244E-05-1.37182E-18-2.12272E-18
 -1      1288 8.15342E-05-2.42262E-06-3.38814E-05-6.79650E-06-5.40167E-19-3.66542E-18
 -1      1289 8.16083E-05-2.41431E-06-3.38959E-05-8.14819E-06-5.94898E-19-3.44884E-18
 -1      1290 8.34852E-05-5.13333E-06-3.36350E-05-8.76283E-06-1.07992E-18-2.73555E-18
 -1      1291 8.14508E-05-2.26679E-06-3.39067E-05-4.20632E-06-3.88384E-19-3.86430E-18
 -1      1292 8.14484E-05-2.26295E-06-3.38948E-05-5.49355E-06-4.50794E-19-3.78293E-18
 -1      1293 8.31038E-05-4.70085E-06-3.36500E-05-6.07366E-06-8.11120E-19-3.08781E-18
 -1      1294 8.15036E-05-2.18463E-06-3.39608E-05-1.72258E-06-1.94943E-19-3.97875E-18
 -1      1295 8.14518E-05-2.18317E-06-3.39336E-05-2.96373E-06-2.57061E-19-3.90047E-18
 -1      1296 8.29772E-05-4.45431E-06-3.36978E-05-3.52911E-06-5.32124E-19-3.23028E-18
 -1      1297 8.16583E-05-2.16269E-06-3.40332E-05 7.22647E-07-1.31654E-20-4.05439E-18
 -1      1298 8.15680E-05-2.16286E-06-3.39953E-05-5.06525E-07-8.08718E-20-4.01202E-18
 -1      1299 8.30243E-05-4.34775E-06-3.37623E-05-1.07443E-06-2.12731E-19-3.31617E-18
 -1      1300 8.19101E-05-2.19752E-06-3.41229E-05 3.19195E-06 1.48661E-19-4.07515E-18
 -1      1301 8.17802E-05-2.19930E-06-3.40738E-05 1.94241E-06 7.62925E-20-4.06639E-18
 -1      1302 8.32128E-05-4.36245E-06-3.38369E-05 1.35663E-06 4.58754E-20-3.39111E-18
 -1      1303 8.22807E-05-2.29475E-06-3.42368E-05 5.75162E-06 3.04899E-19-4.05857E-18
 -1      1304 8.20981E-05-2.29827E-06-3.41715E-05 4.44617E-06 2.38982E-19-4.08806E-18
 -1      1305 8.35457E-05-4.50055E-06-3.39223E-05 3.82690E-06 3.30951E-19-3.45993E-18
 -1      1306 8.28164E-05-2.46483E-06-3.43906E-05 8.43334E-06 4.67417E-19-3.90542E-18
 -1      1307 8.25560E-05-2.47371E-06-3.42986E-05 7.05284E-06 3.98747E-19-4.01351E-18
 -1      1308 8.40576E-05-4.78266E-06-3.40245E-05 6.38189E-06 6.23145E-19-3.41563E-18
 -1      1309 8.36583E-05-2.74785E-06-3.46304E-05 1.14392E-05 7.23393E-19-3.51668E-18
 -1      1310 8.32454E-05-2.76512E-06-3.44810E-05 9.87029E-06 6.20068E-19-3.73630E-18
 -1      1311 8.48428E-05-5.26635E-06-3.41615E-05 9.12612E-06 9.16020E-19-3.17150E-18
 -1      1312 8.50722E-05-3.21874E-06-3.50438E-05 1.49018E-05 9.79726E-19-2.76567E-18
 -1      1313 8.43637E-05-3.25556E-06-3.47769E-05 1.30526E-05 8.42798E-19-3.22772E-18
 -1      1314 8.61172E-05-6.08613E-06-3.43701E-05 1.22017E-05 1.28682E-18-2.71622E-18
 -1      1315 8.77720E-05-4.12178E-06-3.58279E-05 1.91770E-05 1.21856E-18-1.27987E-18
 -1      1316 8.63843E-05-4.18505E-06-3.53023E-05 1.67608E-05 1.06014E-18-2.19376E-18
 -1      1317 8.83674E-05-7.56419E-06-3.47174E-05 1.57444E-05 1.67395E-18-1.83258E-18
 -1      1318 9.42305E-05-6.86482E-06-3.74109E-05 2.52393E-05 1.10802E-18 1.74229E-18
 -1      1319 9.07749E-05-6.50261E-06-3.62882E-05 2.12505E-05 1.06874E-18-1.37113E-19
 -1      1320 9.29727E-05-1.07903E-05-3.53004E-05 1.97950E-05 1.86027E-18-1.25414E-19
 -1      1321 1.24800E-04-2.51747E-05-3.93759E-05 2.85690E-05 5.95358E-19 7.96719E-18
 -1      1322 1.00979E-04-1.45801E-05-3.76772E-05 2.41925E-05 5.89641E-19 3.59354E-18
 -1      1323 1.02550E-04-1.95341E-05-3.56920E-05 2.15311E-05 1.84713E-18 2.68065E-18
 -1      1324 1.03646E-04-2.81033E-05-3.50938E-05 7.36129E-06 1.04307E-18 7.50365E-18
 -1      1325 1.02393E-04-2.94282E-05-3.26575E-05-7.79676E-06-9.11302E-19 7.99673E-18
 -1      1326 9.56494E-05-2.70921E-05-2.99527E-05-4.88723E-06-8.76467E-19 6.91973E-18
 -1      1327 9.29545E-05-2.70995E-05-2.84784E-05-2.43641E-06-7.29295E-19 6.41090E-18
 -1      1328 9.07705E-05-2.68151E-05-2.74613E-05-1.99693E-06-7.31519E-19 5.38480E-18
 -1      1329 9.69525E-05-2.73260E-05-3.02007E-05-7.72107E-06-1.57405E-18 4.00141E-18
 -1      1330 8.91227E-05-2.64673E-05-2.68419E-05-8.12863E-07-6.25911E-19 4.91099E-18
 -1      1331 8.84283E-05-2.63764E-05-2.65479E-05-7.03968E-07-5.50141E-19 4.06758E-18
 -1      1332 9.22974E-05-2.70542E-05-2.80832E-05-3.04376E-06-1.29773E-18 3.21482E-18
 -1      1333 8.77025E-05-2.62005E-05-2.63122E-05-1.58924E-07-3.37893E-19 3.64187E-18
 -1      1334 8.76417E-05-2.62301E-05-2.62809E-05-1.01798E-07-4.26236E-19 3.10446E-18
 -1      1335 9.01597E-05-2.67958E-05-2.71856E-05-1.01140E-06-9.44898E-19 2.40920E-18
 -1      1336 8.73975E-05-2.61672E-05-2.62111E-05 1.63283E-07-3.43426E-19 2.83902E-18
 -1      1337 8.76184E-05-2.62589E-05-2.62746E-05 1.91299E-07-4.01068E-19 2.37217E-18
 -1      1338 8.92402E-05-2.66619E-05-2.68315E-05-4.51981E-08-7.27145E-19 1.64803E-18
 -1      1339 8.76321E-05-2.62653E-05-2.62838E-05 3.18558E-07-3.75408E-19 2.31842E-18
 -1      1340 8.79765E-05-2.63855E-05-2.63835E-05 3.29573E-07-2.21092E-19 1.86834E-18
 -1      1341 8.90127E-05-2.66572E-05-2.67314E-05 4.31228E-07-7.01213E-19 1.44456E-18
 -1      1342 8.81242E-05-2.64293E-05-2.64320E-05 3.80042E-07-1.36110E-19 1.69438E-18
 -1      1343 8.85092E-05-2.65569E-05-2.65431E-05 3.80749E-07-1.99524E-19 1.41079E-18
 -1      1344 8.91619E-05-2.67362E-05-2.67583E-05 6.49981E-07-4.06789E-19 1.06041E-18
 -1      1345 8.87189E-05-2.66183E-05-2.66094E-05 3.85842E-07-1.71960E-19 1.26991E-18
 -1      1346 8.90968E-05-2.67405E-05-2.67185E-05 3.80173E-07-1.44869E-19 9.24053E-19
 -1      1347 8.95032E-05-2.68588E-05-2.68491E-05 7.21142E-07-3.49563E-19 7.64449E-19
 -1      1348 8.93254E-05-2.68075E-05-2.67897E-05 3.57359E-07-1.69811E-19 9.30059E-19
 -1      1349 8.96671E-05-2.69161E-05-2.68895E-05 3.47599E-07-2.91523E-19 6.46177E-19
 -1      1350 8.99261E-05-2.69984E-05-2.69682E-05 7.03662E-07-3.35045E-19 4.54862E-19
 -1      1351 8.98891E-05-2.69809E-05-2.69590E-05 3.06241E-07-3.36845E-19 4.99018E-19
 -1      1352 9.01757E-05-2.70685E-05-2.70507E-05 2.93504E-07-1.02606E-19 3.62537E-19
 -1      1353 9.03645E-05-2.71387E-05-2.70951E-05 6.30536E-07-4.58791E-19 4.14464E-19
 -1      1354 9.03778E-05-2.71243E-05-2.71218E-05 2.37230E-07-2.43473E-20 4.41665E-20
 -1      1355 9.05948E-05-2.71757E-05-2.72287E-05 2.21366E-07-2.72419E-19-1.91886E-19
 -1      1356 9.07821E-05-2.72690E-05-2.72257E-05 5.18857E-07-2.78185E-19-2.14322E-21
 -1      1357 9.07711E-05-2.72093E-05-2.73270E-05 1.48011E-07-3.70218E-19-1.82747E-19
 -1      1358 9.08951E-05-2.71835E-05-2.75206E-05 1.33710E-07-2.04553E-19-5.86676E-19
 -1      1359 9.11662E-05-2.73774E-05-2.73852E-05 3.73597E-07-3.57961E-19-5.35603E-19
 -1      1360 9.09855E-05-2.71409E-05-2.76999E-05 1.69626E-08 1.63785E-19-6.38663E-19
 -1      1361 9.08666E-05-2.69361E-05-2.80324E-05 1.77725E-07 4.28810E-20-4.85562E-19
 -1      1362 9.14997E-05-2.74251E-05-2.76402E-05 1.76589E-07-4.02059E-20-7.95946E-19
 -1      1363 9.00462E-05-2.63402E-05-2.80250E-05-1.40873E-07-6.03511E-21-4.03399E-19
 -1      1364 9.28954E-05-2.77523E-05-2.75723E-05-6.08566E-07-2.42781E-19-6.66191E-19
 -1      1365 9.16220E-05-2.72375E-05-2.78843E-05-2.87430E-07 5.04249E-21-6.62909E-19
 -1      1366 9.59128E-05-2.90935E-05-2.76319E-05-4.26556E-07-2.91750E-19-3.46860E-19
 -1      1367 9.52429E-05-2.87688E-05-2.77768E-05-4.08967E-07-2.56386E-19-5.06737E-19
 -1      1368 9.36935E-05-2.75667E-05-2.76283E-05-1.35052E-06-1.98947E-19-5.09067E-19
 -1      1369 9.50226E-05-2.86457E-05-2.80927E-05 2.36189E-08 2.12817E-20-6.88214E-19
 -1      1370 9.50570E-05-2.85506E-05-2.83261E-05 5.12219E-08 2.12268E-19-4.93582E-19
 -1      1371 9.47656E-05-2.84656E-05-2.80702E-05-2.80177E-07-2.56757E-19-1.82430E-19
 -1      1372 9.52327E-05-2.85788E-05-2.84920E-05 2.15956E-07 1.43413E-19-4.69839E-19
 -1      1373 9.54310E-05-2.86064E-05-2.86355E-05 2.32345E-07-1.46179E-19-5.09638E-19
 -1      1374 9.50755E-05-2.84985E-05-2.84714E-05 2.99143E-07 1.75005E-19-4.88420E-19
 -1      1375 9.56973E-05-2.86749E-05-2.87368E-05 3.31958E-07-3.86234E-19-7.96317E-19
 -1      1376 9.60125E-05-2.87664E-05-2.88380E-05 3.54082E-07-3.05893E-19-1.29928E-18
 -1      1377 9.55722E-05-2.86102E-05-2.87165E-05 5.77117E-07-4.32086E-19-8.03435E-19
 -1      1378 9.63538E-05-2.88687E-05-2.89418E-05 4.46025E-07-1.14306E-19-1.53513E-18
 -1      1379 9.67694E-05-2.89934E-05-2.90637E-05 4.66182E-07-3.29622E-19-1.87284E-18
 -1      1380 9.62015E-05-2.88076E-05-2.89187E-05 7.95959E-07-4.41628E-19-9.26992E-19
 -1      1381 9.71889E-05-2.91157E-05-2.91856E-05 5.71857E-07 1.02463E-19-1.70515E-18
 -1      1382 9.77321E-05-2.92808E-05-2.93397E-05 5.99432E-07 1.82130E-19-1.24749E-18
 -1      1383 9.69451E-05-2.90152E-05-2.91358E-05 1.02848E-06-1.64847E-19-1.28410E-18
 -1      1384 9.82536E-05-2.94322E-05-2.94977E-05 7.25637E-07 2.42069E-19-9.97464E-19
 -1      1385 9.89453E-05-2.96407E-05-2.97007E-05 7.57906E-07 3.46115E-19-5.62964E-19
 -1      1386 9.78703E-05-2.92884E-05-2.94063E-05 1.30636E-06 4.13369E-19-1.26988E-18
 -1      1387 9.95892E-05-2.98252E-05-2.98999E-05 9.08458E-07 2.38063E-20-6.15760E-19
 -1      1388 1.00458E-04-3.00876E-05-3.01569E-05 9.47182E-07-1.84490E-19-5.73203E-19
 -1      1389 9.90089E-05-2.96180E-05-2.97510E-05 1.63795E-06 1.61360E-19-8.89246E-19
 -1      1390 1.01245E-04-3.03135E-05-3.04013E-05 1.12087E-06-1.85800E-19-7.66836E-19
 -1      1391 1.02318E-04-3.06401E-05-3.07183E-05 1.16547E-06-5.61838E-20-7.45389E-19
 -1      1392 1.00407E-04-3.00243E-05-3.01769E-05 2.02769E-06-2.04838E-19-5.85306E-19
 -1      1393 1.03261E-04-3.09135E-05-3.10104E-05 1.35139E-06 1.98424E-19-6.22073E-19
 -1      1394 1.04553E-04-3.13114E-05-3.13903E-05 1.39837E-06 6.61893E-20-3.51902E-19
 -1      1395 1.02100E-04-3.05241E-05-3.06895E-05 2.46117E-06 2.39499E-19-1.17422E-19
 -1      1396 1.05650E-04-3.16342E-05-3.17275E-05 1.57078E-06 1.39439E-19-6.90967E-19
 -1      1397 1.07144E-04-3.21019E-05-3.21640E-05 1.61244E-06 5.59424E-19 1.22198E-19
 -1      1398 1.04102E-04-3.11311E-05-3.12875E-05 2.89527E-06 2.79044E-19-1.49455E-19
 -1      1399 1.08363E-04-3.24693E-05-3.25338E-05 1.72436E-06 5.82013E-19 2.33305E-19
 -1      1400 1.09985E-04-3.29885E-05-3.30032E-05 1.74665E-06 3.29900E-21 4.77171E-19
 -1      1401 1.06386E-04-3.18501E-05-3.19553E-05 3.24446E-06 3.26107E-19-3.15129E-19
 -1      1402 1.11248E-04-3.33840E-05-3.33772E-05 1.72336E-06-4.53270E-19 1.65701E-20
 -1      1403 1.12832E-04-3.39081E-05-3.38288E-05 1.70379E-06-4.48095E-19-2.75775E-19
 -1      1404 1.08853E-04-3.26690E-05-3.26539E-05 3.36524E-06-3.05027E-19-6.89204E-19
 -1      1405 1.13996E-04-3.42970E-05-3.41577E-05 1.44240E-06 1.02564E-19-5.68187E-19
 -1      1406 1.15250E-04-3.47370E-05-3.45046E-05 1.35003E-06-1.12596E-20-8.62399E-19
 -1      1407 1.11299E-04-3.35451E-05-3.33118E-05 3.04675E-06-5.12984E-19-5.83195E-19
 -1      1408 1.16096E-04-3.50583E-05-3.47173E-05 7.38972E-07-1.73880E-19-7.73116E-19
 -1      1409 1.16592E-04-3.52732E-05-3.48383E-05 5.41713E-07 5.67247E-20-2.76910E-19
 -1      1410 1.13379E-04-3.43813E-05-3.38207E-05 2.03053E-06-1.26883E-19-5.06850E-19
 -1      1411 1.16833E-04-3.54327E-05-3.48514E-05-4.79594E-07-2.28897E-19-7.78231E-19
 -1      1412 1.16080E-04-3.52420E-05-3.46155E-05-7.92997E-07-8.13787E-19-1.34435E-18
 -1      1413 1.14594E-04-3.49969E-05-3.40465E-05 9.98205E-08-5.96708E-19-5.14953E-19
 -1      1414 1.15429E-04-3.51191E-05-3.43630E-05-2.12423E-06-3.49262E-19-1.03862E-18
 -1      1415 1.13069E-04-3.43637E-05-3.36902E-05-2.50512E-06 3.58070E-19-1.18918E-18
 -1      1416 1.14356E-04-3.51135E-05-3.38654E-05-2.72151E-06-7.42120E-19 2.30098E-19
 -1      1417 1.11387E-04-3.38560E-05-3.31695E-05-3.76696E-06 6.27314E-19-1.35409E-18
 -1      1418 1.07537E-04-3.25262E-05-3.21174E-05-4.07151E-06 2.53005E-19-6.66880E-19
 -1      1419 1.12183E-04-3.44110E-05-3.32294E-05-5.88745E-06 1.85772E-19 3.50936E-19
 -1      1420 1.05054E-04-3.16539E-05-3.14322E-05-4.62287E-06 3.99879E-19-2.26687E-19
 -1      1421 1.00596E-04-3.00355E-05-3.02528E-05-4.64255E-06 6.04380E-19 5.01814E-19
 -1      1422 1.08088E-04-3.27376E-05-3.22368E-05-8.17253E-06 7.69162E-19-9.76735E-21
 -1      1423 9.80561E-05-2.90596E-05-2.96089E-05-3.90640E-06 9.83200E-19 9.90923E-19
 -1      1424 9.45311E-05-2.77380E-05-2.86980E-05-3.51373E-06 1.09850E-18 2.05395E-18
 -1      1425 1.03015E-04-3.04314E-05-3.11521E-05-8.04390E-06 1.14675E-18 1.05223E-18
 -1      1426 9.29950E-05-2.71208E-05-2.83273E-05-1.51653E-06 8.82635E-20 2.14289E-18
 -1      1427 9.18849E-05-2.67024E-05-2.80416E-05-8.35954E-07-4.91597E-19 1.99699E-18
 -1      1428 9.88328E-05-2.84229E-05-3.03294E-05-4.73999E-06 9.25622E-19 1.27019E-18
 -1      1429 9.20928E-05-2.67968E-05-2.80852E-05 1.57275E-06 7.63653E-21 2.28635E-18
 -1      1430 9.38769E-05-2.74846E-05-2.85366E-05 2.19607E-06 1.66786E-19 2.26692E-18
 -1      1431 9.74655E-05-2.77708E-05-3.00606E-05 6.85467E-07-3.45444E-19 1.75171E-18
 -1      1432 9.56797E-05-2.82190E-05-2.89666E-05 3.86259E-06-2.69820E-19 2.04421E-18
 -1      1433 9.94915E-05-2.96499E-05-2.99509E-05 4.12864E-06-6.34448E-19 1.39665E-18
 -1      1434 9.95528E-05-2.88352E-05-3.04325E-05 5.68961E-06-5.98905E-19 1.62931E-18
 -1      1435 1.01970E-04-3.05959E-05-3.05847E-05 4.42769E-06-5.10913E-19 1.94013E-18
 -1      1436 1.06196E-04-3.21220E-05-3.17064E-05 4.29614E-06 2.32861E-19 1.55139E-18
 -1      1437 1.03943E-04-3.09737E-05-3.12815E-05 8.03124E-06-9.25744E-19 9.09938E-19
 -1      1438 1.08324E-04-3.28518E-05-3.23071E-05 3.43091E-06 3.09101E-20 6.89379E-19
 -1      1439 1.11559E-04-3.39563E-05-3.31971E-05 3.07505E-06-7.14360E-19 5.31751E-19
 -1      1440 1.08574E-04-3.30762E-05-3.22767E-05 7.24193E-06-3.73356E-19 3.78293E-19
 -1      1441 1.12740E-04-3.42862E-05-3.35830E-05 1.70107E-06 1.28339E-19 9.53759E-19
 -1      1442 1.14339E-04-3.47812E-05-3.40458E-05 1.32153E-06-8.33798E-22 1.51160E-18
 -1      1443 1.11787E-04-3.43639E-05-3.30750E-05 4.45776E-06-3.23633E-19-2.02229E-20
 -1      1444 1.14476E-04-3.47429E-05-3.41458E-05 2.17721E-08-2.93384E-19 1.71121E-18
 -1      1445 1.14499E-04-3.46985E-05-3.41723E-05-2.67782E-07-4.29995E-19 7.92892E-19
 -1      1446 1.12944E-04-3.46706E-05-3.34545E-05 1.21506E-06-9.45236E-20 1.63155E-19
 -1      1447 1.13796E-04-3.44067E-05-3.40134E-05-1.20374E-06-1.32911E-19 1.34921E-18
 -1      1448 1.12669E-04-3.39972E-05-3.37076E-05-1.37648E-06 4.48666E-19 1.13563E-18
 -1      1449 1.12226E-04-3.42342E-05-3.33656E-05-1.45478E-06 1.44657E-19 7.52582E-19
 -1      1450 1.11427E-04-3.35672E-05-3.33671E-05-1.90284E-06 3.55519E-19 2.20133E-18
 -1      1451 1.09646E-04-3.29663E-05-3.28642E-05-1.97732E-06 4.71877E-19 2.39655E-18
 -1      1452 1.10180E-04-3.33714E-05-3.28889E-05-3.17902E-06 8.42536E-19 2.61316E-18
 -1      1453 1.08148E-04-3.24850E-05-3.24285E-05-2.16622E-06 5.14847E-19 2.10813E-18
 -1      1454 1.06124E-04-3.18236E-05-3.18484E-05-2.17192E-06 3.00717E-19 3.41491E-18
 -1      1455 1.07399E-04-3.23345E-05-3.21638E-05-4.00911E-06 6.00177E-19 2.99337E-18
 -1      1456 1.04592E-04-3.13491E-05-3.13918E-05-2.11622E-06-1.46047E-20 2.98848E-18
 -1      1457 1.02625E-04-3.07151E-05-3.08253E-05-2.07583E-06-7.10264E-19 2.48095E-18
 -1      1458 1.04372E-04-3.12819E-05-3.13327E-05-4.15060E-06 3.09093E-19 2.26067E-18
 -1      1459 1.01223E-04-3.02849E-05-3.04051E-05-1.84121E-06-1.41897E-18 1.27545E-18
 -1      1460 9.95340E-05-2.97400E-05-2.99204E-05-1.76471E-06-1.39332E-18-9.60575E-19
 -1      1461 1.01460E-04-3.03028E-05-3.05153E-05-3.79519E-06-1.92963E-18 7.02915E-19
 -1      1462 9.83796E-05-2.93801E-05-2.95794E-05-1.38028E-06-9.32491E-19-1.21289E-18
 -1      1463 9.71570E-05-2.89815E-05-2.92290E-05-1.26425E-06-2.02739E-19-2.01917E-18
 -1      1464 9.89249E-05-2.94482E-05-2.98035E-05-3.05355E-06-1.99361E-18-6.49238E-19
 -1      1465 9.63134E-05-2.86961E-05-2.89898E-05-7.36436E-07-3.29789E-19-2.85387E-18
 -1      1466 9.57224E-05-2.85363E-05-2.87933E-05-5.86550E-07-3.57253E-19-3.53926E-18
 -1      1467 9.69385E-05-2.87500E-05-2.92553E-05-1.98125E-06-4.63178E-19-8.87058E-19
 -1      1468 9.52128E-05-2.85122E-05-2.85759E-05 3.28480E-08 1.92871E-18-2.58123E-18
 -1      1469 9.55273E-05-2.83570E-05-2.88006E-05-5.58757E-07 1.72785E-18-1.66232E-18
 -1      1470 9.75808E-05-2.86633E-05-3.00764E-05 3.01858E-06 9.20937E-19 5.48451E-18
 -1      1471 1.03577E-04-2.97047E-05-3.24743E-05 4.49126E-06 8.11458E-19 6.95488E-18
 -1      1472 1.03279E-04-2.69834E-05-3.30026E-05 1.28666E-05 1.58977E-18 4.24766E-18
 -1      1473 9.29846E-05-2.77158E-05-2.80477E-05 1.17245E-06 5.99157E-19 3.87671E-18
 -1      1474 9.49540E-05-2.78759E-05-2.89704E-05 1.49406E-06 5.98296E-19 4.80964E-18
 -1      1475 9.73900E-05-2.82996E-05-2.98063E-05 4.91500E-06 1.32796E-18 2.87922E-18
 -1      1476 9.11053E-05-2.72773E-05-2.73344E-05 3.54001E-07 4.86779E-19 2.52302E-18
 -1      1477 9.17432E-05-2.73016E-05-2.76143E-05 5.16116E-07 4.64928E-19 3.29173E-18
 -1      1478 9.38978E-05-2.78362E-05-2.83550E-05 1.89490E-06 1.00985E-18 1.92545E-18
 -1      1479 9.05381E-05-2.71441E-05-2.71439E-05-3.00881E-08 4.38508E-19 1.51227E-18
 -1      1480 9.06012E-05-2.70898E-05-2.71798E-05 5.81444E-08 3.97924E-19 2.14143E-18
 -1      1481 9.22979E-05-2.75515E-05-2.77569E-05 5.64284E-07 8.33249E-19 9.48875E-19
 -1      1482 9.06153E-05-2.71800E-05-2.71695E-05-2.14684E-07 3.08758E-19 5.19191E-19
 -1      1483 9.04156E-05-2.70815E-05-2.71130E-05-1.65316E-07 3.45034E-19 1.15920E-18
 -1      1484 9.17169E-05-2.74557E-05-2.75460E-05-8.07256E-08 7.60421E-19 3.49381E-19
 -1      1485 9.10087E-05-2.73044E-05-2.72902E-05-2.95712E-07 1.93258E-19 3.80635E-20
 -1      1486 9.06932E-05-2.71871E-05-2.71979E-05-2.68815E-07 1.71321E-19 3.48256E-19
 -1      1487 9.16814E-05-2.74825E-05-2.75194E-05-3.94983E-07 3.46814E-19 5.58049E-20
 -1      1488 9.15405E-05-2.74676E-05-2.74511E-05-3.19017E-07 2.09278E-19-3.68069E-19
 -1      1489 9.11861E-05-2.73477E-05-2.73473E-05-3.05883E-07 1.63574E-19-8.80054E-20
 -1      1490 9.19296E-05-2.75772E-05-2.75843E-05-5.31950E-07 3.38504E-19-3.61759E-19
 -1      1491 9.21105E-05-2.76404E-05-2.76230E-05-3.10131E-07 1.38524E-19-1.08991E-18
 -1      1492 9.17592E-05-2.75272E-05-2.75200E-05-3.05387E-07 3.37144E-19-7.63309E-19
 -1      1493 9.23118E-05-2.77029E-05-2.76930E-05-5.69332E-07 5.57438E-19-6.60699E-19
 -1      1494 9.26630E-05-2.78071E-05-2.77886E-05-2.84997E-07 1.96415E-19-1.30920E-18
 -1      1495 9.23369E-05-2.77048E-05-2.76934E-05-2.84963E-07-6.57985E-20-1.40986E-18
 -1      1496 9.27409E-05-2.78370E-05-2.78178E-05-5.51727E-07 2.24399E-19-1.33792E-18
 -1      1497 9.31699E-05-2.79611E-05-2.79364E-05-2.53659E-07-6.04797E-20-1.31426E-18
 -1      1498 9.28791E-05-2.78707E-05-2.78538E-05-2.55895E-07 9.91355E-20-1.25229E-18
 -1      1499 9.31672E-05-2.79676E-05-2.79414E-05-5.06907E-07 1.19972E-19-1.59737E-18
 -1      1500 9.36205E-05-2.81017E-05-2.80626E-05-2.16198E-07 1.29910E-19-1.40060E-18
 -1      1501 9.33708E-05-2.80242E-05-2.79934E-05-2.23210E-07 5.07475E-20-1.28512E-18
 -1      1502 9.35695E-05-2.80932E-05-2.80534E-05-4.50265E-07-6.81597E-22-9.95422E-19
 -1      1503 9.40054E-05-2.82054E-05-2.81922E-05-1.75801E-07-2.12354E-20-1.39292E-18
 -1      1504 9.38044E-05-2.81544E-05-2.81216E-05-1.81244E-07-2.75617E-20-1.57939E-18
 -1      1505 9.39482E-05-2.82062E-05-2.81604E-05-3.76507E-07 1.10061E-19-1.33859E-18
 -1      1506 9.43830E-05-2.83053E-05-2.83445E-05-1.78926E-07 1.33355E-19-1.46207E-18
 -1      1507 9.41898E-05-2.82527E-05-2.82657E-05-1.80916E-07-1.35658E-20-1.32951E-18
 -1      1508 9.43056E-05-2.82945E-05-2.82950E-05-3.52299E-07 1.32288E-19-1.66114E-18
 -1      1509 9.47491E-05-2.84186E-05-2.84412E-05-1.73834E-07 4.10933E-19-2.44357E-18
 -1      1510 9.45589E-05-2.83580E-05-2.83953E-05-1.71523E-07 3.97639E-19-1.69104E-18
 -1      1511 9.46616E-05-2.83933E-05-2.84189E-05-3.47485E-07 5.26848E-19-2.21298E-18
 -1      1512 9.50925E-05-2.85233E-05-2.85336E-05-1.68501E-07-3.99360E-19-2.19862E-18
 -1      1513 9.49114E-05-2.84675E-05-2.84856E-05-1.67942E-07-7.17079E-20-2.37201E-18
 -1      1514 9.49950E-05-2.85012E-05-2.85078E-05-3.33406E-07 2.99125E-20-1.65105E-18
 -1      1515 9.54644E-05-2.86328E-05-2.86429E-05-1.92099E-07-2.18563E-19-1.67208E-18
 -1      1516 9.52692E-05-2.85721E-05-2.85860E-05-1.84948E-07-3.36846E-19-2.22167E-18
 -1      1517 9.53246E-05-2.85903E-05-2.86041E-05-3.50930E-07-4.77011E-19-1.45792E-18
 -1      1518 9.59114E-05-2.87645E-05-2.87777E-05-2.35849E-07 8.15238E-19-2.97830E-18
 -1      1519 9.56763E-05-2.86906E-05-2.87072E-05-2.23869E-07 6.55199E-19-2.04089E-18
 -1      1520 9.57082E-05-2.86978E-05-2.87210E-05-4.14870E-07 7.44468E-19-2.49292E-18
 -1      1521 9.64679E-05-2.89274E-05-2.89474E-05-2.98046E-07-2.31057E-19-3.83861E-18
 -1      1522 9.61728E-05-2.88344E-05-2.88579E-05-2.81020E-07 2.80860E-19-3.55192E-18
 -1      1523 9.61762E-05-2.88316E-05-2.88656E-05-5.14449E-07 9.09567E-19-2.77708E-18
 -1      1524 9.71776E-05-2.91354E-05-2.91636E-05-3.84983E-07-3.13945E-19-3.05855E-18
 -1      1525 9.67978E-05-2.90147E-05-2.90487E-05-3.60784E-07-4.73321E-19-3.64730E-18
 -1      1526 9.67600E-05-2.89974E-05-2.90467E-05-6.55168E-07-4.56529E-19-2.42661E-18
 -1      1527 9.80928E-05-2.94051E-05-2.94413E-05-4.99850E-07-2.23908E-19-2.28774E-18
 -1      1528 9.75990E-05-2.92470E-05-2.92925E-05-4.67279E-07-4.78908E-19-2.59526E-18
 -1      1529 9.75015E-05-2.92091E-05-2.92758E-05-8.45718E-07-5.75786E-19-2.27815E-18
 -1      1530 9.92667E-05-2.97528E-05-2.97965E-05-6.41932E-07 1.21497E-19-1.95232E-18
 -1      1531 9.86285E-05-2.95477E-05-2.96049E-05-6.00541E-07 9.10064E-21-1.86055E-18
 -1      1532 9.84454E-05-2.94816E-05-2.95657E-05-1.08820E-06-4.68899E-19-1.54341E-18
 -1      1533 1.00746E-04-3.01934E-05-3.02426E-05-8.06780E-07 1.65932E-19-2.73368E-18
 -1      1534 9.99366E-05-2.99328E-05-3.00006E-05-7.57007E-07 3.50775E-19-2.17543E-18
 -1      1535 9.96331E-05-2.98288E-05-2.99282E-05-1.37799E-06 3.35806E-19-1.15863E-18
 -1      1536 1.02562E-04-3.07378E-05-3.07881E-05-9.83934E-07-3.59089E-19-2.48023E-18
 -1      1537 1.01563E-04-3.04160E-05-3.04909E-05-9.27827E-07-3.73634E-19-3.15475E-18
 -1      1538 1.01096E-04-3.02622E-05-3.03716E-05-1.70149E-06 8.11613E-20-1.95699E-18
 -1      1539 1.04713E-04-3.13877E-05-3.14307E-05-1.15259E-06-3.76974E-19-8.03345E-19
 -1      1540 1.03525E-04-3.10056E-05-3.10796E-05-1.09518E-06-4.71408E-19-1.62632E-18
 -1      1541 1.02847E-04-3.07891E-05-3.08974E-05-2.03025E-06-8.55781E-19-1.40153E-18
 -1      1542 1.07137E-04-3.21290E-05-3.21496E-05-1.27563E-06-4.99298E-19 8.26923E-19
 -1      1543 1.05797E-04-3.16987E-05-3.17567E-05-1.22693E-06-1.49084E-19-9.90234E-20
 -1      1544 1.04862E-04-3.14086E-05-3.14944E-05-2.31179E-06-8.67177E-19 2.00181E-19
 -1      1545 1.09680E-04-3.29196E-05-3.28939E-05-1.29332E-06 3.94343E-19 7.70032E-19
 -1      1546 1.08280E-04-3.24727E-05-3.24889E-05-1.27073E-06 1.57863E-19 9.54368E-19
 -1      1547 1.07057E-04-3.21046E-05-3.21321E-05-2.45854E-06 1.49664E-19 9.77589E-19
 -1      1548 1.12044E-04-3.36754E-05-3.35708E-05-1.12082E-06 1.74044E-19-3.08757E-19
 -1      1549 1.10762E-04-3.32723E-05-3.32083E-05-1.15068E-06 1.20280E-19 4.84397E-21
 -1      1550 1.09260E-04-3.28358E-05-3.27519E-05-2.33964E-06 4.14924E-19 1.23299E-18
 -1      1551 1.13760E-04-3.42556E-05-3.40384E-05-6.58320E-07 3.58070E-20-9.11924E-19
 -1      1552 1.12879E-04-3.39932E-05-3.38023E-05-7.73905E-07 2.08850E-19-7.71925E-19
 -1      1553 1.11181E-04-3.35228E-05-3.32613E-05-1.78660E-06 4.40530E-19 1.61323E-19
 -1      1554 1.14202E-04-3.44600E-05-3.41165E-05 1.71055E-07 2.65455E-19-1.71915E-18
 -1      1555 1.14099E-04-3.44688E-05-3.41133E-05-5.96808E-08 1.63424E-19-1.27502E-18
 -1      1556 1.12399E-04-3.40336E-05-3.35371E-05-6.33845E-07 1.46616E-19-1.21825E-18
 -1      1557 1.12709E-04-3.40584E-05-3.36318E-05 1.34288E-06 1.62266E-19-2.09122E-18
 -1      1558 1.13775E-04-3.44740E-05-3.39626E-05 9.95757E-07 7.08530E-20-2.06483E-18
 -1      1559 1.12405E-04-3.41788E-05-3.34481E-05 1.18013E-06 1.91383E-19-1.52824E-18
 -1      1560 1.08889E-04-3.28811E-05-3.25072E-05 2.62702E-06-2.03076E-19-1.38887E-18
 -1      1561 1.11338E-04-3.37757E-05-3.32129E-05 2.22464E-06-1.16249E-19-1.78573E-18
 -1      1562 1.10739E-04-3.37408E-05-3.29054E-05 3.44806E-06-1.72781E-19-8.32911E-19
 -1      1563 1.03043E-04-3.09772E-05-3.08691E-05 3.53740E-06 8.25460E-19-1.90106E-18
 -1      1564 1.06649E-04-3.22597E-05-3.18652E-05 3.22165E-06 4.43025E-19-1.49215E-18
 -1      1565 1.07266E-04-3.25713E-05-3.19324E-05 5.54120E-06 4.42098E-19-3.85546E-19
 -1      1566 9.65018E-05-2.87694E-05-2.91017E-05 3.47858E-06 1.69737E-20-2.90352E-18
 -1      1567 1.00420E-04-3.01152E-05-3.01486E-05 3.42872E-06 1.98044E-19-2.61770E-18
 -1      1568 1.02504E-04-3.07661E-05-3.07184E-05 6.46735E-06 8.94043E-19-1.87025E-18
 -1      1569 9.14251E-05-2.70226E-05-2.77598E-05 2.14515E-06 1.47112E-19-2.95043E-18
 -1      1570 9.43479E-05-2.79443E-05-2.85220E-05 2.45790E-06 4.16899E-21-2.63337E-18
 -1      1571 9.77758E-05-2.88189E-05-2.96003E-05 5.34584E-06-2.74386E-19-1.53767E-18
 -1      1572 8.98308E-05-2.64875E-05-2.73276E-05-8.82371E-08 8.64450E-19-5.59312E-18
 -1      1573 9.05980E-05-2.65853E-05-2.75253E-05 4.90319E-07 1.26334E-18-3.92039E-18
 -1      1574 9.48240E-05-2.75246E-05-2.89441E-05 2.15778E-06 1.74135E-18-1.90267E-18
 -1      1575 9.23654E-05-2.74024E-05-2.79577E-05-2.24941E-06 6.01989E-20-6.70937E-18
 -1      1576 9.06741E-05-2.66360E-05-2.75216E-05-1.66582E-06-4.89426E-20-6.58335E-18
 -1      1577 9.48832E-05-2.75254E-05-2.89744E-05-1.90293E-06 8.92508E-19-4.18248E-18
 -1      1578 9.78496E-05-2.93093E-05-2.93807E-05-3.40931E-06-5.16502E-19-5.47490E-18
 -1      1579 9.44636E-05-2.80339E-05-2.84948E-05-3.06524E-06-3.69512E-19-6.06857E-18
 -1      1580 9.78575E-05-2.88144E-05-2.96585E-05-5.05843E-06-5.45218E-19-3.60750E-18
 -1      1581 1.04058E-04-3.13889E-05-3.10600E-05-3.28546E-06-1.52863E-19-5.37273E-18
 -1      1582 1.00313E-04-3.01119E-05-3.00546E-05-3.25658E-06 1.60696E-19-5.45897E-18
 -1      1583 1.02382E-04-3.07266E-05-3.07281E-05-6.13060E-06-1.10197E-20-3.01910E-18
 -1      1584 1.08992E-04-3.29629E-05-3.24653E-05-2.25278E-06-8.30986E-19-4.36569E-18
 -1      1585 1.06051E-04-3.20592E-05-3.16483E-05-2.45217E-06-7.87013E-19-5.57369E-18
 -1      1586 1.06708E-04-3.24390E-05-3.18124E-05-5.15285E-06-6.48589E-19-2.69694E-18
 -1      1587 1.11631E-04-3.37394E-05-3.32770E-05-9.16969E-07-1.37217E-18-1.64314E-18
 -1      1588 1.10065E-04-3.33404E-05-3.28200E-05-1.20267E-06-1.01391E-18-3.17831E-18
 -1      1589 1.09590E-04-3.34549E-05-3.25970E-05-3.00488E-06-2.13999E-18-3.33367E-19
 -1      1590 1.11929E-04-3.37591E-05-3.34318E-05 2.61285E-07 9.84411E-20-8.00967E-20
 -1      1591 1.11738E-04-3.38077E-05-3.33552E-05-3.06697E-09-8.08301E-19-1.28599E-18
 -1      1592 1.10594E-04-3.36966E-05-3.29229E-05-6.73017E-07-1.35413E-18-4.81410E-19
 -1      1593 1.10408E-04-3.32245E-05-3.30449E-05 1.07963E-06-8.05492E-19 7.60424E-19
 -1      1594 1.11265E-04-3.35824E-05-3.32715E-05 8.85300E-07 3.74217E-20-2.94112E-20
 -1      1595 1.09912E-04-3.33360E-05-3.27909E-05 1.21226E-06-3.82184E-19 5.96126E-19
 -1      1596 1.07756E-04-3.23645E-05-3.23032E-05 1.52439E-06 2.07809E-18-1.22555E-20
 -1      1597 1.09250E-04-3.28899E-05-3.27217E-05 1.40675E-06 9.22123E-19 1.28806E-18
 -1      1598 1.08028E-04-3.26064E-05-3.23040E-05 2.42960E-06 6.57264E-19 6.78619E-19
 -1      1599 1.04600E-04-3.13711E-05-3.13929E-05 1.66412E-06 8.36433E-19-3.22795E-18
 -1      1600 1.06365E-04-3.19514E-05-3.18973E-05 1.61168E-06 1.12341E-18-1.15686E-18
 -1      1601 1.05472E-04-3.17063E-05-3.16018E-05 3.01390E-06 2.23780E-18-1.01980E-18
 -1      1602 1.01435E-04-3.03868E-05-3.04694E-05 1.57369E-06 3.06681E-19-4.28392E-18
 -1      1603 1.03189E-04-3.09407E-05-3.09736E-05 1.57414E-06 4.87234E-20-3.87180E-18
 -1      1604 1.02699E-04-3.07762E-05-3.08197E-05 3.09152E-06 6.60469E-19-3.38055E-18
 -1      1605 9.86507E-05-2.95198E-05-2.96574E-05 1.29870E-06-6.26874E-19-4.89210E-18
 -1      1606 1.00169E-04-2.99838E-05-3.00925E-05 1.34756E-06-5.24610E-19-5.24703E-18
 -1      1607 1.00065E-04-2.99089E-05-3.00720E-05 2.77559E-06-1.72159E-19-2.98320E-18
 -1      1608 9.65735E-05-2.88662E-05-2.90521E-05 8.47738E-07 3.87173E-19-5.41746E-18
 -1      1609 9.76564E-05-2.91767E-05-2.93644E-05 9.54331E-07 3.49705E-19-4.42225E-18
 -1      1610 9.78419E-05-2.91669E-05-2.94479E-05 2.12717E-06-5.66486E-20-4.50326E-18
 -1      1611 9.54670E-05-2.85300E-05-2.86869E-05 2.76630E-07-1.03927E-20-5.14463E-18
 -1      1612 9.59358E-05-2.86247E-05-2.88590E-05 4.21224E-07-7.69146E-20-5.47094E-18
 -1      1613 9.62244E-05-2.86162E-05-2.89956E-05 1.18166E-06 8.21423E-19-2.98875E-18
 -1      1614 9.52310E-05-2.85178E-05-2.85772E-05-5.68261E-09-2.56850E-18-2.65905E-18
 -1      1615 9.50934E-05-2.75498E-05-2.89645E-05 7.04176E-07-2.91073E-18 2.33263E-19
 -1      1616 9.52621E-05-2.80933E-05-2.87817E-05 5.51774E-07-3.56385E-18 5.90220E-19
 -1      1617 9.44866E-05-2.57154E-05-2.94831E-05 1.24300E-06-2.59306E-18 5.08832E-19
 -1      1618 9.48480E-05-2.67986E-05-2.91758E-05 1.14979E-06-2.87239E-18 1.86673E-19
 -1      1619 9.50578E-05-2.69719E-05-2.92034E-05 1.81020E-06-1.39173E-18 6.85877E-19
 -1      1620 9.36984E-05-2.33103E-05-3.01691E-05 1.56248E-06-2.45888E-18-4.65670E-19
 -1      1621 9.41643E-05-2.47219E-05-2.97689E-05 1.51824E-06-1.73601E-18 2.16522E-19
 -1      1622 9.44004E-05-2.52151E-05-2.96705E-05 2.67299E-06-2.08696E-18 1.43765E-18
 -1      1623 9.28447E-05-2.06746E-05-3.09291E-05 1.64283E-06-1.02671E-18 1.54344E-19
 -1      1624 9.33395E-05-2.21869E-05-3.04975E-05 1.64620E-06-2.21453E-18 6.97165E-19
 -1      1625 9.36474E-05-2.30992E-05-3.02413E-05 3.10049E-06-1.81146E-18-7.24689E-19
 -1      1626 9.20496E-05-1.82111E-05-3.16428E-05 1.49615E-06-4.77058E-18-1.50328E-18
 -1      1627 9.24984E-05-1.95861E-05-3.12492E-05 1.54185E-06-2.48995E-18-1.58070E-18
 -1      1628 9.28746E-05-2.08913E-05-3.08419E-05 3.07532E-06-2.63863E-18-2.45905E-18
 -1      1629 9.13914E-05-1.61753E-05-3.22323E-05 1.13911E-06-2.46454E-18 1.37416E-18
 -1      1630 9.17476E-05-1.72631E-05-3.19210E-05 1.22432E-06-4.06179E-18 5.21484E-19
 -1      1631 9.21685E-05-1.88612E-05-3.13962E-05 2.62706E-06-2.77170E-18-2.52002E-19
 -1      1632 9.09798E-05-1.49055E-05-3.25997E-05 6.16506E-07-2.12484E-18 2.95985E-19
 -1      1633 9.11832E-05-1.55244E-05-3.24229E-05 7.29876E-07-2.30250E-18 1.51561E-18
 -1      1634 9.16120E-05-1.72672E-05-3.18298E-05 1.80469E-06-1.56854E-18 1.33507E-18
 -1      1635 9.08770E-05-1.45912E-05-3.26904E-05-1.52663E-09-2.10821E-18-4.99683E-20
 -1      1636 9.08960E-05-1.46465E-05-3.26749E-05 1.24385E-07-2.30822E-18-2.47506E-19
 -1      1637 9.12920E-05-1.63579E-05-3.20756E-05 7.15322E-07-1.62749E-18-8.72424E-19
 -1      1638 9.11023E-05-1.52893E-05-3.24884E-05-6.26214E-07-3.74886E-18-1.27474E-18
 -1      1639 9.09319E-05-1.47665E-05-3.26383E-05-5.06382E-07-2.59509E-18-7.06412E-19
 -1      1640 9.12590E-05-1.62725E-05-3.20970E-05-4.90427E-07-1.56317E-18-6.73881E-19
 -1      1641 9.16255E-05-1.69074E-05-3.20205E-05-1.16570E-06-6.71689E-18-1.72151E-18
 -1      1642 9.12897E-05-1.58772E-05-3.23155E-05-1.06983E-06-4.21343E-18-1.61093E-18
 -1      1643 9.15211E-05-1.70316E-05-3.18890E-05-1.63735E-06-1.64646E-18-2.48941E-18
 -1      1644 9.23597E-05-1.91755E-05-3.13647E-05-1.53679E-06-6.32286E-18 1.41519E-18
 -1      1645 9.19123E-05-1.78076E-05-3.17557E-05-1.47948E-06-6.22739E-18-1.47996E-18
 -1      1646 9.20395E-05-1.85167E-05-3.14844E-05-2.55150E-06-1.77997E-18-1.84399E-18
 -1      1647 9.32273E-05-2.18466E-05-3.05946E-05-1.69527E-06-4.18649E-18 1.43612E-18
 -1      1648 9.27167E-05-2.02925E-05-3.10373E-05-1.68261E-06-6.47395E-18 2.67495E-18
 -1      1649 9.27399E-05-2.05249E-05-3.09377E-05-3.10744E-06-2.47816E-18 2.84317E-18
 -1      1650 9.40912E-05-2.44890E-05-2.98377E-05-1.60024E-06-1.19388E-18 2.46678E-18
 -1      1651 9.36002E-05-2.30079E-05-3.02563E-05-1.63731E-06-3.48983E-18 2.24841E-18
 -1      1652 9.35423E-05-2.28000E-05-3.03222E-05-3.21743E-06-2.05809E-18 2.17398E-18
 -1      1653 9.48190E-05-2.66604E-05-2.92136E-05-1.22959E-06 1.30942E-18 1.44998E-18
 -1      1654 9.44255E-05-2.55243E-05-2.95393E-05-1.32503E-06-4.32410E-19 2.13607E-18
 -1      1655 9.43392E-05-2.50098E-05-2.97312E-05-2.82141E-06-2.99082E-19 3.73797E-18
 -1      1656 9.53103E-05-2.78875E-05-2.88802E-05-8.95240E-07 1.28675E-18-4.35305E-19
 -1      1657 9.51177E-05-2.72886E-05-2.90780E-05-1.13299E-06 1.58936E-18 7.39451E-19
 -1      1658 9.50985E-05-2.67033E-05-2.93345E-05-2.29923E-06-6.17145E-19 2.80531E-18
 -1      1659 9.58524E-05-2.79042E-05-2.91208E-05-1.75934E-06-1.42779E-18-1.15536E-19
 -1      1660 2.04272E-05-6.67950E-05 1.40172E-05-5.89576E-06-4.05094E-18 5.17961E-19
 -1      1661 2.38305E-05-7.68359E-05 1.60839E-05 2.03437E-06-7.33742E-18 1.41497E-18
 -1      1662 2.11133E-05-4.09140E-05 4.46256E-06 4.62145E-06 4.10811E-19 2.84900E-18
 -1      1663 2.49148E-05-6.11650E-05 9.90159E-06 1.63618E-06-2.58006E-18 1.22428E-18
 -1      1664 3.28663E-05-1.41685E-05-1.00673E-05 2.55513E-05 5.68783E-18 7.60254E-18
 -1      1665 2.89373E-05-3.54513E-05-1.75720E-06 9.69784E-06 1.63816E-18 4.50198E-18
 -1      1666 6.79795E-05-1.15251E-06-2.82070E-05 5.59232E-05 7.24552E-18 5.28718E-18
 -1      1667 4.63410E-05-9.16728E-06-1.86020E-05 3.31983E-05 7.64363E-18 5.65733E-18
 -1      1668 1.35617E-04-1.61082E-05-4.79662E-05 7.50884E-05 4.64174E-18 8.90232E-18
 -1      1669 9.36769E-05-5.42814E-06-3.77527E-05 5.99698E-05 5.26685E-18 7.39460E-18
 -1      1670 2.05147E-04-4.17709E-05-6.43670E-05 6.81307E-05 3.86311E-18 7.33700E-18
 -1      1671 1.60010E-04-2.00266E-05-5.68043E-05 7.61258E-05 5.30793E-18 7.76475E-18
 -1      1672 2.46618E-04-6.14487E-05-7.31425E-05 2.65041E-05 1.19410E-18 6.76906E-18
 -1      1673 2.22014E-04-4.74811E-05-6.94987E-05 5.51575E-05 2.49531E-18 7.62330E-18
 -1      1674 2.40492E-04-5.69768E-05-7.32282E-05-2.63140E-05 1.34572E-18 2.57922E-18
 -1      1675 2.47588E-04-6.06611E-05-7.41416E-05 1.00376E-05 1.68750E-18 5.11079E-18
 -1      1676 1.94547E-04-3.57576E-05-6.43564E-05-6.02109E-05 1.04206E-18 9.74088E-20
 -1      1677 2.29134E-04-5.36527E-05-6.98388E-05-3.88143E-05 5.73124E-19 1.01305E-18
 -1      1678 1.31572E-04-1.27439E-05-4.93189E-05-6.96104E-05 1.90413E-18-1.58395E-18
 -1      1679 1.76082E-04-3.12755E-05-5.79269E-05-7.08143E-05 9.38513E-19-1.27902E-18
 -1      1680 7.47328E-05-3.89459E-06-3.12782E-05-5.21669E-05 2.12775E-18-2.08963E-18
 -1      1681 1.07882E-04-8.16699E-06-4.07122E-05-7.02342E-05 2.33951E-18-1.15196E-18
 -1      1682 3.95442E-05-1.68125E-05-1.30939E-05-2.45600E-05 4.33596E-18-1.34848E-18
 -1      1683 5.52237E-05-4.32511E-06-2.23106E-05-4.59599E-05 2.50891E-18-2.03966E-18
 -1      1684 2.46947E-05-4.38690E-05 2.76148E-06-2.62541E-06 7.06087E-18-1.87343E-18
 -1      1685 2.47771E-05-2.07039E-05-4.84377E-06-1.52326E-05 5.22958E-18-1.52974E-18
 -1      1686 2.40169E-05-6.93924E-05 1.29484E-05 2.05450E-06 6.62168E-18-1.54033E-18
 -1      1687 1.87849E-05-5.06602E-05 8.52623E-06 3.51047E-06 7.10830E-18-2.49266E-18
 -1      1688 2.33460E-05-7.68691E-05 1.63339E-05-3.81459E-06 4.71797E-18-1.20088E-18
 -1      1689 2.21090E-05-7.32551E-05 1.55233E-05 5.77288E-06 6.48128E-18-1.22820E-18
 -1      1690 1.91356E-05-5.87223E-05 1.14786E-05-5.60084E-06 2.79521E-20-2.21690E-18
 -1      1691 2.39050E-05-7.39819E-05 1.49207E-05-2.70656E-07 3.88216E-18-1.48083E-18
 -1      1692 2.18835E-05-2.97688E-05-2.29369E-07 8.80180E-06-4.41643E-18-4.09646E-18
 -1      1693 2.44582E-05-5.28433E-05 6.47658E-06 6.52934E-07-1.72117E-18-2.39964E-18
 -1      1694 4.94025E-05-9.53539E-06-1.80199E-05 3.94089E-05-5.84114E-18-4.45285E-18
 -1      1695 3.70069E-05-2.64392E-05-8.32065E-06 1.82793E-05-4.93990E-18-4.34951E-18
 -1      1696 9.83136E-05-5.85654E-06-3.77213E-05 6.78691E-05-5.65564E-18-8.16286E-18
 -1      1697 6.64219E-05-5.31917E-06-2.75441E-05 4.65612E-05-5.50995E-18-6.35021E-18
 -1      1698 1.65894E-04-2.55907E-05-5.57169E-05 7.69929E-05-4.85646E-18-1.03668E-17
 -1      1699 1.21553E-04-8.64862E-06-4.69285E-05 7.13434E-05-5.42059E-18-8.92265E-18
 -1      1700 2.25190E-04-5.15769E-05-6.84878E-05 5.30090E-05-3.09172E-18-9.33176E-18
 -1      1701 1.87986E-04-3.25933E-05-6.25914E-05 6.89080E-05-4.52972E-18-1.01983E-17
 -1      1702 2.53534E-04-6.42489E-05-7.46284E-05 8.15118E-06-2.02864E-19-9.73527E-18
 -1      1703 2.38214E-04-5.56167E-05-7.24135E-05 4.02486E-05-1.14985E-18-9.69429E-18
 -1      1704 2.37330E-04-5.49395E-05-7.24022E-05-3.94357E-05 6.93296E-19-8.22723E-18
 -1      1705 2.51719E-04-6.31342E-05-7.44704E-05-7.38474E-06 4.34104E-19-8.78638E-18
 -1      1706 1.89328E-04-3.20868E-05-6.30913E-05-7.20624E-05 7.56189E-19-6.14438E-18
 -1      1707 2.27389E-04-5.20632E-05-6.89937E-05-5.49309E-05 1.18436E-18-7.80456E-18
 -1      1708 1.23216E-04-9.69482E-06-4.71318E-05-7.03127E-05 1.31883E-18-3.73372E-18
 -1      1709 1.66967E-04-2.63702E-05-5.58858E-05-7.59331E-05 9.49100E-19-5.63616E-18
 -1      1710 6.38908E-05-7.20829E-06-2.60022E-05-4.34886E-05-2.06168E-18-8.25010E-19
 -1      1711 9.85586E-05-7.15761E-06-3.73947E-05-6.74547E-05-1.61783E-19-2.54449E-18
 -1      1712 3.14823E-05-2.87202E-05-5.65194E-06-1.33007E-05-2.93497E-18 7.90705E-19
 -1      1713 4.13098E-05-8.03042E-06-1.56160E-05-3.52476E-05-2.29969E-18 8.76679E-19
 -1      1714 2.46460E-05-6.13492E-05 9.44014E-06 1.44824E-06-7.34547E-18-6.93641E-20
 -1      1715 2.01267E-05-3.57771E-05 2.54173E-06-4.41078E-06-4.09371E-18-2.96462E-21
 -1      1716 2.45248E-05-7.87588E-05 1.63467E-05-1.60321E-06-8.28059E-18 1.11300E-18
 -1      1717 2.06249E-05-6.79047E-05 1.40467E-05 7.24378E-06-8.85404E-18 2.47016E-19
 -1      1718 1.10618E-04-3.20482E-05-3.29132E-05 4.51403E-05 4.77515E-18 5.19655E-18
 -1      1719 6.84777E-05-3.56169E-05-1.55878E-05 3.86375E-05 2.02949E-18 4.57313E-18
 -1      1720 9.53771E-05-2.84346E-05-2.86997E-05 2.62145E-07-3.47788E-18-6.50253E-19
 -1      1721 9.54988E-05-2.80502E-05-2.89145E-05 9.43665E-07-7.98253E-19 4.55478E-19
 -1      1722 1.90797E-05-4.67789E-05 8.06448E-06 1.62660E-05-1.97232E-18 3.09336E-18
 -1      1723 3.92606E-05-4.24775E-05-1.56761E-06 2.87996E-05 7.62330E-20 5.71559E-18
 -1      1724 1.24039E-05-5.23578E-05 1.23396E-05 5.76965E-07-3.68083E-18 2.64317E-18
 -1      1725 1.55369E-04-3.18178E-05-5.02017E-05 4.21854E-05 3.67104E-18 4.98225E-18
 -1      1726 1.92420E-04-3.28446E-05-6.36190E-05 3.08061E-05 3.20560E-18 5.17029E-18
 -1      1727 2.05389E-04-3.12777E-05-6.93876E-05 8.04775E-06 2.78928E-18 4.57313E-18
 -1      1728 1.96471E-04-2.93294E-05-6.70809E-05-1.09591E-05 2.67832E-18 2.56355E-18
 -1      1729 1.75130E-04-3.15831E-05-5.79418E-05-2.95742E-05 1.04773E-18 7.70800E-19
 -1      1730 1.38508E-04-3.18679E-05-4.37038E-05-4.29790E-05 1.23243E-18 5.59042E-20
 -1      1731 9.59082E-05-3.29581E-05-2.69888E-05-4.33386E-05 1.76013E-18-5.86570E-19
 -1      1732 5.72975E-05-3.69630E-05-1.06694E-05-3.49178E-05 3.39152E-18 5.75982E-19
 -1      1733 2.92294E-05-4.42411E-05 2.73278E-06-2.14709E-05 4.69172E-18-1.06938E-18
 -1      1734 1.51889E-05-5.09992E-05 1.06911E-05-8.77501E-06 4.25973E-18-1.39040E-18
 -1      1735 1.25378E-05-5.09210E-05 1.17902E-05 4.19732E-06 2.18926E-18-2.44030E-18
 -1      1736 2.38875E-05-4.60730E-05 5.68522E-06 1.83517E-05 1.40184E-19-4.42045E-18
 -1      1737 5.15482E-05-4.07359E-05-6.84190E-06 3.33312E-05-2.48519E-18-4.02669E-18
 -1      1738 8.94561E-05-3.64651E-05-2.33000E-05 4.13922E-05-3.64986E-18-4.55788E-18
 -1      1739 1.31260E-04-3.13861E-05-4.11496E-05 4.48949E-05-3.44488E-18-6.31209E-18
 -1      1740 1.72554E-04-3.17356E-05-5.65210E-05 3.85641E-05-3.36055E-18-7.33446E-18
 -1      1741 2.01125E-04-3.35926E-05-6.67522E-05 2.07286E-05-1.79931E-18-8.06757E-18
 -1      1742 2.09389E-04-3.28347E-05-7.03127E-05 2.04879E-07-2.99003E-19-7.53483E-18
 -1      1743 2.01270E-04-3.32671E-05-6.69954E-05-2.22539E-05 7.69106E-19-7.96211E-18
 -1      1744 1.73564E-04-3.24017E-05-5.68354E-05-3.87446E-05 5.47289E-19-7.55638E-18
 -1      1745 1.31630E-04-3.28274E-05-4.07378E-05-4.38800E-05-1.24514E-19-5.35155E-18
 -1      1746 8.52020E-05-3.59058E-05-2.17254E-05-4.15342E-05-5.67512E-19-2.96758E-18
 -1      1747 4.42660E-05-4.15013E-05-3.97619E-06-2.97379E-05-1.92615E-18-1.28897E-18
 -1      1748 1.99386E-05-4.91945E-05 8.19126E-06-1.44587E-05-3.68925E-18-1.84611E-18
 -1      1749 1.03347E-04-2.25529E-05-3.47103E-05-1.64967E-05-1.15895E-18 6.42242E-18
 -1      1750 8.73515E-05-1.03295E-05-3.31296E-05-1.30621E-05-1.82120E-18-9.52700E-19
 -1      1751 8.85446E-05-1.13613E-05-3.32270E-05-1.47984E-05-1.97396E-18-3.18458E-19
 -1      1752 9.04262E-05-1.35350E-05-3.31088E-05-1.56698E-05-1.94634E-18 4.34740E-19
 -1      1753 9.19929E-05-1.54234E-05-3.33087E-05-1.72912E-05-1.99366E-18 1.49724E-18
 -1      1754 9.14114E-05-1.59823E-05-3.23373E-05-1.34498E-05-2.07313E-18 1.22132E-19
 -1      1755 8.49050E-05-7.55447E-06-3.32200E-05-7.67584E-06-1.14955E-18-2.26164E-18
 -1      1756 8.52006E-05-7.83921E-06-3.32147E-05-9.04393E-06-1.33331E-18-2.05780E-18
 -1      1757 8.44980E-05-6.95002E-06-3.32932E-05-5.16362E-06-8.78051E-19-2.55650E-18
 -1      1758 8.46307E-05-7.11864E-06-3.32697E-05-6.45244E-06-1.03104E-18-2.39538E-18
 -1      1759 8.63199E-05-9.72422E-06-3.28592E-05-6.73017E-06-1.18154E-18-2.24390E-18
 -1      1760 8.43620E-05-6.61596E-06-3.33713E-05-2.75459E-06-5.31049E-19-2.60439E-18
 -1      1761 8.43859E-05-6.70313E-06-3.33394E-05-3.98299E-06-6.94376E-19-2.60749E-18
 -1      1762 8.58973E-05-9.05146E-06-3.29663E-05-4.36466E-06-8.06786E-19-2.42926E-18
 -1      1763 8.44220E-05-6.48678E-06-3.34486E-05-3.99110E-07-1.23446E-19-2.66601E-18
 -1      1764 8.43640E-05-6.50949E-06-3.34128E-05-1.60084E-06-3.16659E-19-2.63946E-18
 -1      1765 8.57666E-05-8.70253E-06-3.30596E-05-2.06311E-06-4.36738E-19-2.53363E-18
 -1      1766 8.46529E-05-6.53979E-06-3.35232E-05 1.95282E-06 1.58678E-19-2.77239E-18
 -1      1767 8.45198E-05-6.50206E-06-3.34847E-05 7.47344E-07 2.55686E-20-2.71823E-18
 -1      1768 8.58613E-05-8.61273E-06-3.31387E-05 2.06272E-07-5.56951E-20-2.61241E-18
 -1      1769 8.50672E-05-6.78393E-06-3.35969E-05 4.35233E-06 4.78102E-19-2.85741E-18
 -1      1770 8.48486E-05-6.67882E-06-3.35541E-05 3.11230E-06 3.34035E-19-2.83638E-18
 -1      1771 8.61650E-05-8.76597E-06-3.32034E-05 2.48114E-06 2.56836E-19-2.73962E-18
 -1      1772 8.57047E-05-7.25106E-06-3.36739E-05 6.81109E-06 8.00545E-19-2.78666E-18
 -1      1773 8.53769E-05-7.06419E-06-3.36228E-05 5.52442E-06 6.56955E-19-2.84055E-18
 -1      1774 8.66976E-05-9.18164E-06-3.32536E-05 4.77895E-06 6.45866E-19-2.74230E-18
 -1      1775 8.67057E-05-8.05759E-06-3.37680E-05 9.47399E-06 1.22210E-18-2.41894E-18
 -1      1776 8.61911E-05-7.73492E-06-3.36970E-05 8.05133E-06 9.74548E-19-2.61315E-18
 -1      1777 8.75356E-05-9.93402E-06-3.32905E-05 7.15161E-06 9.92716E-19-2.57012E-18
 -1      1778 8.83151E-05-9.42881E-06-3.38980E-05 1.23584E-05 1.62601E-18-1.93963E-18
 -1      1779 8.74761E-05-8.86160E-06-3.37879E-05 1.07605E-05 1.41551E-18-2.22029E-18
 -1      1780 8.88501E-05-1.11933E-05-3.33122E-05 9.62556E-06 1.42227E-18-2.16645E-18
 -1      1781 9.10725E-05-1.19184E-05-3.40842E-05 1.54168E-05 2.03936E-18-1.08696E-18
 -1      1782 8.95841E-05-1.08028E-05-3.39053E-05 1.36185E-05 1.78893E-18-1.60402E-18
 -1      1783 9.09524E-05-1.32902E-05-3.33024E-05 1.20988E-05 1.86778E-18-1.58213E-18
 -1      1784 9.65630E-05-1.71822E-05-3.42260E-05 1.78133E-05 2.10058E-18 6.93720E-19
 -1      1785 9.34170E-05-1.44563E-05-3.40207E-05 1.63073E-05 2.01514E-18-3.75818E-19
 -1      1786 9.44842E-05-1.70073E-05-3.31930E-05 1.40160E-05 2.13917E-18-5.98482E-19
 -1      1787 1.02805E-04-2.53329E-05-3.36373E-05 1.45191E-05 1.85357E-18 2.99924E-18
 -1      1788 9.88464E-05-1.97958E-05-3.38786E-05 1.70800E-05 1.96297E-18 1.44679E-18
 -1      1789 9.80384E-05-2.20393E-05-3.26527E-05 1.33548E-05 2.17857E-18 6.52321E-19
 -1      1790 9.96075E-05-2.63788E-05-3.16058E-05 9.50793E-06 1.89211E-18 2.36587E-18
 -1      1791 9.76811E-05-1.90508E-05-3.33843E-05-1.84713E-05-1.59703E-18 3.30809E-18
 -1      1792 9.61242E-05-2.75291E-05-2.94297E-05 4.12684E-06 1.33978E-18 1.52794E-18
 -1      1793 9.85801E-05-2.76390E-05-3.04480E-05 6.46648E-06 1.54192E-18 2.03849E-18
 -1      1794 9.83452E-05-2.58351E-05-3.10678E-05 8.84551E-06 1.85810E-18 1.07698E-18
 -1      1795 9.74022E-05-2.19694E-05-3.20535E-05-1.41595E-05-1.77602E-18 2.50849E-18
 -1      1796 9.45893E-05-2.63038E-05-2.91525E-05-5.56817E-06-1.50494E-18 2.17421E-18
 -1      1797 9.28278E-05-2.63625E-05-2.84584E-05-3.79430E-06-1.34231E-18 1.77234E-18
 -1      1798 9.20335E-05-2.65632E-05-2.79636E-05-2.34399E-06-1.17884E-18 1.77508E-18
 -1      1799 9.12870E-05-2.66462E-05-2.76671E-05-1.50481E-06-1.00687E-18 1.35895E-18
 -1      1800 9.32821E-05-2.59149E-05-2.88922E-05-4.34683E-06-1.48858E-18 8.97453E-19
 -1      1801 9.07832E-05-2.67008E-05-2.74061E-05-6.93466E-07-9.24722E-19 1.25758E-18
 -1      1802 9.04977E-05-2.67669E-05-2.72891E-05-2.63663E-07-8.25632E-19 1.02723E-18
 -1      1803 9.21169E-05-2.65859E-05-2.81047E-05-1.74949E-06-1.17411E-18 6.55617E-19
 -1      1804 9.02378E-05-2.67980E-05-2.71584E-05 1.81737E-07-7.68674E-19 9.57744E-19
 -1      1805 9.02163E-05-2.68766E-05-2.71316E-05 3.99518E-07-6.76475E-19 8.35750E-19
 -1      1806 9.14511E-05-2.68965E-05-2.76825E-05-3.11791E-07-9.70488E-19 5.99769E-19
 -1      1807 9.01258E-05-2.69120E-05-2.70769E-05 6.31211E-07-5.94800E-19 8.09107E-19
 -1      1808 9.02462E-05-2.69992E-05-2.70977E-05 7.28824E-07-4.32322E-19 5.04062E-19
 -1      1809 9.11578E-05-2.70874E-05-2.74708E-05 4.70436E-07-6.81287E-19 3.45852E-19
 -1      1810 9.02622E-05-2.70414E-05-2.70881E-05 8.31567E-07-4.45135E-19 4.85824E-19
 -1      1811 9.04514E-05-2.71298E-05-2.71330E-05 8.57509E-07-3.66938E-19 3.16584E-19
 -1      1812 9.11176E-05-2.72389E-05-2.73847E-05 8.63416E-07-4.78223E-19 1.60297E-19
 -1      1813 9.05304E-05-2.71762E-05-2.71493E-05 8.81376E-07-3.28785E-19 3.98083E-19
 -1      1814 9.07443E-05-2.72606E-05-2.72044E-05 8.63337E-07-3.78998E-19 3.34956E-19
 -1      1815 9.12331E-05-2.73725E-05-2.73737E-05 1.01948E-06-4.36865E-19 1.05344E-19
 -1      1816 9.08587E-05-2.73094E-05-2.72346E-05 8.39144E-07-5.45381E-19 4.54296E-19
 -1      1817 9.10721E-05-2.73866E-05-2.72926E-05 7.93312E-07-3.92163E-19 3.39520E-19
 -1      1818 9.14382E-05-2.74956E-05-2.74065E-05 1.03058E-06-4.46287E-19 1.86697E-19
 -1      1819 9.12079E-05-2.74372E-05-2.73313E-05 7.41004E-07-6.18596E-19 1.50130E-19
 -1      1820 9.14104E-05-2.75051E-05-2.73946E-05 6.76240E-07-6.02350E-19-2.57514E-19
 -1      1821 9.16936E-05-2.76125E-05-2.74651E-05 9.55707E-07-7.60170E-19-9.23460E-20
 -1      1822 9.15649E-05-2.75576E-05-2.74461E-05 6.09702E-07-4.68936E-19-5.20902E-19
 -1      1823 9.17632E-05-2.76103E-05-2.75364E-05 5.28544E-07-3.28659E-19-5.66639E-19
 -1      1824 9.19856E-05-2.77268E-05-2.75470E-05 8.37148E-07-7.76773E-19-3.75019E-19
 -1      1825 9.19394E-05-2.76605E-05-2.76217E-05 4.59016E-07-2.51268E-19-5.12720E-19
 -1      1826 9.21585E-05-2.76851E-05-2.77709E-05 3.38686E-07-1.26095E-19-7.30672E-19
 -1      1827 9.23258E-05-2.78383E-05-2.76695E-05 7.13565E-07-3.34300E-19-6.71786E-19
 -1      1828 9.23396E-05-2.76797E-05-2.79218E-05 2.96521E-07 2.96462E-21-8.32580E-19
 -1      1829 9.26114E-05-2.77834E-05-2.79033E-05 4.48837E-08-4.16899E-20-6.97743E-19
 -1      1830 9.27416E-05-2.79250E-05-2.78411E-05 6.32104E-07-1.47675E-19-6.14972E-19
 -1      1831 9.29684E-05-2.75260E-05-2.77898E-05 1.45521E-07 4.20340E-20-6.72756E-19
 -1      1832 9.37644E-05-2.76623E-05-2.78286E-05-2.00543E-07-6.78156E-20-3.15626E-19
 -1      1833 9.31250E-05-2.77768E-05-2.79189E-05 6.97936E-07-5.92063E-20-6.55058E-19
 -1      1834 9.41768E-05-2.80077E-05-2.79975E-05-1.52163E-07-2.72056E-19-2.08582E-19
 -1      1835 9.44630E-05-2.81306E-05-2.82301E-05 2.48620E-07-1.35876E-19-3.53583E-19
 -1      1836 9.36074E-05-2.76436E-05-2.80124E-05 4.49366E-07-5.33631E-20-7.92717E-19
 -1      1837 9.48180E-05-2.82709E-05-2.84444E-05 5.21546E-07-2.91168E-22-3.78935E-19
 -1      1838 9.50686E-05-2.83692E-05-2.86020E-05 6.90776E-07 8.87796E-20-6.37366E-19
 -1      1839 9.44360E-05-2.80748E-05-2.84025E-05 5.57358E-07-6.23099E-20-7.14975E-19
 -1      1840 9.53776E-05-2.84679E-05-2.87065E-05 8.27629E-07-2.79627E-19-7.01020E-19
 -1      1841 9.56894E-05-2.85560E-05-2.88055E-05 9.65754E-07-3.82806E-19-7.14039E-19
 -1      1842 9.51274E-05-2.82487E-05-2.86854E-05 1.06949E-06-2.46884E-19-8.72987E-19
 -1      1843 9.59825E-05-2.86459E-05-2.89099E-05 1.09769E-06-2.68165E-19-5.77289E-19
 -1      1844 9.63119E-05-2.87360E-05-2.90095E-05 1.21274E-06-4.00633E-19-7.48909E-19
 -1      1845 9.57722E-05-2.85360E-05-2.89024E-05 1.34509E-06-2.61932E-19-6.51588E-19
 -1      1846 9.66172E-05-2.88129E-05-2.90890E-05 1.37997E-06-4.95938E-19-9.08095E-19
 -1      1847 9.70385E-05-2.89263E-05-2.92005E-05 1.52958E-06-1.89160E-20-9.73411E-19
 -1      1848 9.63347E-05-2.86298E-05-2.90761E-05 1.68931E-06-4.58324E-19-5.76988E-19
 -1      1849 9.73817E-05-2.90140E-05-2.93081E-05 1.72743E-06 4.18360E-19-1.13515E-18
 -1      1850 9.78963E-05-2.91511E-05-2.94560E-05 1.90467E-06 3.65204E-19-9.10350E-19
 -1      1851 9.69857E-05-2.88026E-05-2.92480E-05 2.09405E-06 1.30514E-19-1.11154E-18
 -1      1852 9.83052E-05-2.92529E-05-2.95934E-05 2.15020E-06 1.89428E-19-8.43966E-19
 -1      1853 9.89371E-05-2.94240E-05-2.97781E-05 2.36191E-06-1.30297E-19-9.93257E-19
 -1      1854 9.77261E-05-2.89667E-05-2.94819E-05 2.58877E-06 2.08135E-19-1.01187E-18
 -1      1855 9.94299E-05-2.95505E-05-2.99449E-05 2.65217E-06-1.39170E-19-7.18921E-19
 -1      1856 1.00200E-04-2.97675E-05-3.01693E-05 2.89555E-06 1.93362E-19-8.12414E-19
 -1      1857 9.86184E-05-2.91751E-05-2.97705E-05 3.18654E-06 3.52230E-20-1.12871E-18
 -1      1858 1.00794E-04-2.99323E-05-3.03655E-05 3.21900E-06 2.40150E-19-6.42107E-19
 -1      1859 1.01716E-04-3.02089E-05-3.06304E-05 3.47788E-06 6.03216E-19-4.37923E-19
 -1      1860 9.96995E-05-2.94541E-05-3.01135E-05 3.87229E-06 4.20443E-19-1.03416E-18
 -1      1861 1.02426E-04-3.04277E-05-3.08527E-05 3.80382E-06 4.60161E-19-6.90066E-19
 -1      1862 1.03496E-04-3.07770E-05-3.11543E-05 4.04284E-06 1.74184E-19-5.28491E-19
 -1      1863 1.01004E-04-2.98442E-05-3.05059E-05 4.59871E-06 6.83207E-19-1.09745E-18
 -1      1864 1.04330E-04-3.10690E-05-3.13949E-05 4.31389E-06 3.48199E-19-8.68887E-19
 -1      1865 1.05521E-04-3.15014E-05-3.17205E-05 4.47012E-06 3.25833E-19-8.50130E-19
 -1      1866 1.02558E-04-3.03964E-05-3.09359E-05 5.26957E-06 4.77821E-19-1.45326E-18
 -1      1867 1.06479E-04-3.18894E-05-3.19656E-05 4.59211E-06 8.62203E-20-9.15476E-19
 -1      1868 1.07718E-04-3.24061E-05-3.22898E-05 4.56718E-06-2.01504E-19-8.18626E-19
 -1      1869 1.04376E-04-3.11736E-05-3.13822E-05 5.72067E-06 1.86548E-19-1.09230E-18
 -1      1870 1.08789E-04-3.29113E-05-3.25187E-05 4.40138E-06-4.37542E-19-3.73654E-19
 -1      1871 1.09943E-04-3.34910E-05-3.28003E-05 4.06145E-06-3.43899E-19-1.91022E-19
 -1      1872 1.06452E-04-3.22432E-05-3.18132E-05 5.70039E-06 1.55599E-19-5.78077E-19
 -1      1873 1.11084E-04-3.41141E-05-3.29881E-05 3.43164E-06-1.29497E-19 7.38275E-20
 -1      1874 1.11946E-04-3.46862E-05-3.31719E-05 2.63201E-06 2.42152E-19 1.07229E-19
 -1      1875 1.08736E-04-3.36423E-05-3.21905E-05 4.86754E-06-2.50115E-19 3.03481E-19
 -1      1876 1.13053E-04-3.53663E-05-3.32970E-05 1.37138E-06-2.05094E-19 7.96476E-20
 -1      1877 1.13345E-04-3.57740E-05-3.33254E-05 3.02826E-08-8.75660E-19-3.39046E-19
 -1      1878 1.11081E-04-3.52924E-05-3.24816E-05 2.84451E-06-1.14336E-19 4.52534E-20
 -1      1879 1.14198E-04-3.63267E-05-3.33824E-05-1.89666E-06-9.42172E-19-1.75864E-19
 -1      1880 1.13633E-04-3.63061E-05-3.32196E-05-3.65975E-06-5.77729E-19 8.65032E-20
 -1      1881 1.13144E-04-3.68550E-05-3.26816E-05-6.11472E-07-5.44847E-19-5.68313E-19
 -1      1882 1.13880E-04-3.63932E-05-3.32314E-05-5.95188E-06-1.66905E-19 4.24274E-19
 -1      1883 1.12298E-04-3.56418E-05-3.28952E-05-7.65976E-06 1.96154E-19 3.44769E-19
 -1      1884 1.14312E-04-3.76100E-05-3.28356E-05-5.26097E-06-1.09582E-19 1.51539E-21
 -1      1885 1.11576E-04-3.48915E-05-3.29086E-05-9.49005E-06 4.75751E-19 5.86822E-19
 -1      1886 1.09179E-04-3.33206E-05-3.24865E-05-1.02979E-05 1.27196E-18 1.29192E-18
 -1      1887 1.13791E-04-3.65840E-05-3.30341E-05-9.93341E-06 7.91393E-19 1.31313E-18
 -1      1888 1.07516E-04-3.17276E-05-3.25359E-05-1.04698E-05 1.19817E-18 1.08159E-18
 -1      1889 1.05030E-04-2.98054E-05-3.21601E-05-9.56326E-06 1.51452E-18 1.66820E-18
 -1      1890 1.11180E-04-3.32910E-05-3.33477E-05-1.23820E-05 1.34238E-18 1.67132E-18
 -1      1891 1.03256E-04-2.81337E-05-3.22220E-05-7.32918E-06 7.86047E-19 1.39754E-18
 -1      1892 1.01739E-04-2.68725E-05-3.20115E-05-4.68818E-06 3.95988E-19 1.11525E-18
 -1      1893 1.07385E-04-2.88129E-05-3.37170E-05-1.02612E-05 1.14604E-18 1.66708E-18
 -1      1894 1.01100E-04-2.62942E-05-3.20241E-05-7.62935E-07 2.44845E-20 7.95718E-19
 -1      1895 1.01307E-04-2.65172E-05-3.20391E-05 2.45868E-06-6.34507E-19 1.38002E-18
 -1      1896 1.04705E-04-2.57534E-05-3.39460E-05-3.34875E-06 1.44499E-19 1.32710E-18
 -1      1897 1.02298E-04-2.75037E-05-3.19716E-05 6.04292E-06-9.34198E-19 1.19407E-18
 -1      1898 1.04071E-04-2.90403E-05-3.21996E-05 8.22424E-06-1.32140E-18 4.43514E-19
 -1      1899 1.05112E-04-2.63225E-05-3.38647E-05 5.18046E-06-7.74956E-19-2.89478E-19
 -1      1900 1.05840E-04-3.07873E-05-3.20970E-05 9.71461E-06-6.54598E-19 1.61573E-18
 -1      1901 1.08258E-04-3.26591E-05-3.24554E-05 1.00327E-05-8.85001E-21 1.99024E-18
 -1      1902 1.08192E-04-3.00622E-05-3.34989E-05 1.08096E-05-4.96917E-19 1.16074E-18
 -1      1903 1.09581E-04-3.40226E-05-3.23770E-05 9.20167E-06-3.87177E-19 1.33568E-18
 -1      1904 1.11619E-04-3.53223E-05-3.27372E-05 7.98483E-06-3.95789E-19 8.50884E-19
 -1      1905 1.11626E-04-3.43810E-05-3.30538E-05 1.13336E-05-4.87204E-19 1.35989E-18
 -1      1906 1.11896E-04-3.57572E-05-3.26883E-05 5.84508E-06-1.80312E-19 1.78545E-18
 -1      1907 1.12983E-04-3.62079E-05-3.29242E-05 4.00265E-06 6.46988E-20 2.05281E-18
 -1      1908 1.13398E-04-3.69792E-05-3.26985E-05 7.83206E-06 2.37328E-19 1.13883E-18
 -1      1909 1.12377E-04-3.59026E-05-3.28576E-05 1.70390E-06 8.70856E-21 1.86170E-18
 -1      1910 1.12444E-04-3.56991E-05-3.29000E-05-1.27532E-08-6.07878E-20 1.69716E-18
 -1      1911 1.13072E-04-3.72978E-05-3.24431E-05 2.86130E-06-2.88335E-19 2.81041E-18
 -1      1912 1.11334E-04-3.50359E-05-3.27748E-05-1.81174E-06-1.88134E-19 1.18911E-18
 -1      1913 1.10597E-04-3.44810E-05-3.26261E-05-3.03938E-06 3.92170E-19 1.66159E-18
 -1      1914 1.11272E-04-3.61267E-05-3.21959E-05-1.63126E-06 3.44124E-19 2.05167E-18
 -1      1915 1.09301E-04-3.37524E-05-3.24301E-05-4.15169E-06 1.98072E-18 2.19613E-18
 -1      1916 1.08061E-04-3.30764E-05-3.21380E-05-4.83843E-06 2.14661E-18 3.13422E-18
 -1      1917 1.08757E-04-3.43781E-05-3.18798E-05-4.77712E-06 1.24685E-18 1.30171E-18
 -1      1918 1.06760E-04-3.24194E-05-3.18869E-05-5.34008E-06 8.46019E-19 3.39253E-18
 -1      1919 1.05289E-04-3.17485E-05-3.15153E-05-5.58003E-06 1.40708E-18 4.12409E-18
 -1      1920 1.06065E-04-3.26484E-05-3.14724E-05-6.49888E-06 1.99923E-18 2.46120E-18
 -1      1921 1.04074E-04-3.11974E-05-3.12383E-05-5.62378E-06-4.39331E-19 3.47292E-18
 -1      1922 1.02579E-04-3.05851E-05-3.08471E-05-5.53738E-06-1.74960E-18 2.08761E-18
 -1      1923 1.03475E-04-3.11680E-05-3.09990E-05-7.05916E-06-3.15668E-19 2.90068E-18
 -1      1924 1.01488E-04-3.01252E-05-3.05759E-05-5.25683E-06-2.56495E-18 2.35147E-18
 -1      1925 1.00117E-04-2.95875E-05-3.02140E-05-4.93150E-06-2.91066E-18 7.54165E-19
 -1      1926 1.01116E-04-2.99565E-05-3.05080E-05-6.77267E-06-2.25760E-18 1.54118E-18
 -1      1927 9.91649E-05-2.91907E-05-2.99745E-05-4.41273E-06-2.35610E-18 2.92177E-19
 -1      1928 9.80260E-05-2.87364E-05-2.96782E-05-3.89062E-06-1.26286E-18 4.32055E-19
 -1      1929 9.90410E-05-2.89504E-05-3.00497E-05-5.87512E-06-3.41886E-18 1.09686E-18
 -1      1930 9.73157E-05-2.84489E-05-2.94990E-05-3.21608E-06-2.07143E-20 5.59505E-20
 -1      1931 9.64676E-05-2.81029E-05-2.92766E-05-2.55030E-06-5.91070E-20 8.50536E-20
 -1      1932 9.61039E-05-2.76208E-05-2.93593E-05-2.99841E-06-9.16850E-19 1.71754E-18
 -1      1933 9.73598E-05-2.81457E-05-2.96766E-05-4.55320E-06-3.30819E-19 2.22121E-18
 -1      1934 9.39810E-05-2.75956E-05-2.84230E-05 1.66720E-06 1.23450E-18 8.28822E-19
 -1      1935 9.51990E-05-2.77073E-05-2.88668E-05 2.73702E-06 1.14958E-18 1.35433E-18
 -1      1936 9.59598E-05-2.72667E-05-2.94452E-05 4.13283E-06 1.40459E-18 6.62122E-19
 -1      1937 9.28832E-05-2.75689E-05-2.79673E-05 4.16325E-07 9.20093E-19 2.99922E-19
 -1      1938 9.34016E-05-2.76084E-05-2.81468E-05 9.61416E-07 9.90628E-19 6.70612E-19
 -1      1939 9.43131E-05-2.75778E-05-2.86076E-05 1.66785E-06 1.22818E-18 3.63218E-19
 -1      1940 9.24590E-05-2.75915E-05-2.77847E-05-2.30513E-07 6.30174E-19-5.39222E-20
 -1      1941 9.25998E-05-2.75728E-05-2.78392E-05 5.86709E-08 7.71389E-19 1.43589E-19
 -1      1942 9.34373E-05-2.76799E-05-2.81916E-05 3.62204E-07 9.05007E-19-7.43073E-20
 -1      1943 9.24305E-05-2.76658E-05-2.77463E-05-5.50619E-07 4.27419E-19-3.49787E-19
 -1      1944 9.23703E-05-2.76125E-05-2.77380E-05-4.00763E-07 4.76765E-19-2.97719E-20
 -1      1945 9.30759E-05-2.77580E-05-2.80034E-05-3.24003E-07 5.47989E-19-3.31395E-19
 -1      1946 9.26199E-05-2.77702E-05-2.77858E-05-6.84753E-07 4.61980E-19-5.99517E-19
 -1      1947 9.24582E-05-2.77008E-05-2.77456E-05-6.15576E-07 2.89330E-19-4.41994E-19
 -1      1948 9.30291E-05-2.78469E-05-2.79434E-05-6.63179E-07 4.66345E-19-6.51427E-19
 -1      1949 9.29165E-05-2.78859E-05-2.78651E-05-7.11654E-07 5.47373E-19-6.58025E-19
 -1      1950 9.27110E-05-2.78123E-05-2.78103E-05-6.89944E-07 5.73364E-19-5.63999E-19
 -1      1951 9.31613E-05-2.79445E-05-2.79559E-05-8.01241E-07 5.92281E-19-8.60327E-19
 -1      1952 9.32522E-05-2.80001E-05-2.79602E-05-6.79619E-07 4.33349E-19-1.27142E-18
 -1      1953 9.30364E-05-2.79291E-05-2.79015E-05-6.84704E-07 4.24233E-19-7.43353E-19
 -1      1954 9.33840E-05-2.80424E-05-2.80070E-05-8.23158E-07 5.52117E-19-5.88215E-19
 -1      1955 9.35882E-05-2.81074E-05-2.80540E-05-6.20208E-07-3.22366E-19-1.20982E-18
 -1      1956 9.33792E-05-2.80410E-05-2.79987E-05-6.38729E-07 8.93392E-20-1.35190E-18
 -1      1957 9.36409E-05-2.81340E-05-2.80732E-05-7.82513E-07 3.33269E-19-8.97570E-19
 -1      1958 9.39096E-05-2.82140E-05-2.81333E-05-5.59848E-07 1.19217E-19-1.15848E-18
 -1      1959 9.37116E-05-2.81463E-05-2.80871E-05-5.80215E-07 1.15772E-20-1.23309E-18
 -1      1960 9.38987E-05-2.82183E-05-2.81358E-05-7.17445E-07 3.71752E-20-9.88679E-19
 -1      1961 9.42410E-05-2.83003E-05-2.82277E-05-4.79125E-07 3.64045E-19-1.45692E-18
 -1      1962 9.40570E-05-2.82634E-05-2.81705E-05-5.14015E-07 2.38850E-19-1.23860E-18
 -1      1963 9.41769E-05-2.83294E-05-2.81914E-05-6.59172E-07 2.09005E-19-1.38731E-18
 -1      1964 9.45774E-05-2.83744E-05-2.83989E-05-4.93680E-07 7.30804E-19-1.89750E-18
 -1      1965 9.43839E-05-2.83115E-05-2.83192E-05-4.91590E-07 4.17842E-19-1.64572E-18
 -1      1966 9.44903E-05-2.83726E-05-2.83457E-05-5.41184E-07 6.22311E-19-1.63236E-18
 -1      1967 9.49274E-05-2.84863E-05-2.84894E-05-4.64047E-07 6.04815E-19-2.11288E-18
 -1      1968 9.47428E-05-2.84302E-05-2.84461E-05-4.70408E-07 5.87338E-19-1.79124E-18
 -1      1969 9.48452E-05-2.84511E-05-2.84776E-05-6.23131E-07 6.80366E-19-1.67101E-18
 -1      1970 9.52027E-05-2.85486E-05-2.85674E-05-4.53185E-07-6.24520E-19-1.48357E-18
 -1      1971 9.50420E-05-2.85115E-05-2.85238E-05-4.47881E-07-4.45536E-20-1.84931E-18
 -1      1972 9.51179E-05-2.85444E-05-2.85466E-05-5.65143E-07 1.85487E-20-1.79495E-18
 -1      1973 9.55191E-05-2.86218E-05-2.86663E-05-5.19841E-07 1.96472E-19-2.09129E-18
 -1      1974 9.53419E-05-2.85757E-05-2.86136E-05-4.86402E-07-3.80703E-19-1.81816E-18
 -1      1975 9.53696E-05-2.85808E-05-2.86272E-05-6.06642E-07-1.03500E-19-2.28228E-18
 -1      1976 9.59112E-05-2.87232E-05-2.87897E-05-6.33560E-07 1.22755E-18-2.70462E-18
 -1      1977 9.56970E-05-2.86641E-05-2.87248E-05-5.79652E-07 9.12409E-19-2.11336E-18
 -1      1978 9.56899E-05-2.86460E-05-2.87322E-05-7.21834E-07 1.23112E-18-2.40442E-18
 -1      1979 9.63904E-05-2.88455E-05-2.89427E-05-7.93614E-07 3.43590E-19-2.19506E-18
 -1      1980 9.61268E-05-2.87735E-05-2.88620E-05-7.16650E-07 7.74009E-19-2.40570E-18
 -1      1981 9.60832E-05-2.87383E-05-2.88633E-05-8.87760E-07 7.94151E-19-2.01288E-18
 -1      1982 9.69901E-05-2.89992E-05-2.91331E-05-1.01557E-06-8.54513E-19-2.35161E-18
 -1      1983 9.66579E-05-2.89076E-05-2.90319E-05-9.08814E-07-2.35193E-19-2.04670E-18
 -1      1984 9.65640E-05-2.88480E-05-2.90244E-05-1.12046E-06-3.37544E-19-1.74842E-18
 -1      1985 9.77513E-05-2.92006E-05-2.93719E-05-1.30576E-06-8.92519E-19-1.88749E-18
 -1      1986 9.73282E-05-2.90808E-05-2.92440E-05-1.16609E-06-7.51093E-19-2.27773E-18
 -1      1987 9.71676E-05-2.89901E-05-2.92233E-05-1.43353E-06-6.47213E-19-1.88371E-18
 -1      1988 9.87124E-05-2.94644E-05-2.96699E-05-1.66166E-06-4.26157E-19-1.16455E-18
 -1      1989 9.81769E-05-2.93085E-05-2.95093E-05-1.48935E-06-8.12977E-19-1.73153E-18
 -1      1990 9.79293E-05-2.91805E-05-2.94692E-05-1.82837E-06-8.39098E-19-1.20213E-18
 -1      1991 9.99064E-05-2.98046E-05-3.00353E-05-2.07150E-06 8.61097E-19-1.26830E-18
 -1      1992 9.92400E-05-2.96051E-05-2.98372E-05-1.87110E-06 5.07801E-19-9.24847E-19
 -1      1993 9.88810E-05-2.94342E-05-2.97693E-05-2.29649E-06 2.10824E-19-8.05527E-19
 -1      1994 1.01355E-04-3.02350E-05-3.04720E-05-2.50906E-06-6.66919E-19-1.45960E-18
 -1      1995 1.00547E-04-2.99854E-05-3.02343E-05-2.29212E-06 7.84597E-20-1.19780E-18
 -1      1996 1.00048E-04-2.97671E-05-3.01279E-05-2.81574E-06 4.34206E-19-7.68791E-19
 -1      1997 1.03058E-04-3.07679E-05-3.09756E-05-2.92406E-06-1.23869E-18-3.75894E-19
 -1      1998 1.02111E-04-3.04640E-05-3.07006E-05-2.71396E-06-1.45492E-18-1.55303E-18
 -1      1999 1.01447E-04-3.01977E-05-3.05437E-05-3.34172E-06-1.24027E-18-6.54878E-19
 -1      2000 1.04979E-04-3.14103E-05-3.15285E-05-3.22929E-06-5.96444E-19 3.84788E-20
 -1      2001 1.03921E-04-3.10532E-05-3.12264E-05-3.06789E-06-8.56041E-19-1.81482E-19
 -1      2002 1.03074E-04-3.07466E-05-3.10063E-05-3.79492E-06-9.67952E-19-1.83256E-19
 -1      2003 1.07028E-04-3.21574E-05-3.20938E-05-3.28767E-06 5.00787E-19 5.27480E-19
 -1      2004 1.05923E-04-3.17585E-05-3.17863E-05-3.24224E-06 7.73306E-20 2.33596E-19
 -1      2005 1.04896E-04-3.14332E-05-3.14926E-05-4.04581E-06-2.88177E-20-5.98344E-19
 -1      2006 1.09030E-04-3.29789E-05-3.26101E-05-2.90763E-06 9.49236E-19 7.20481E-19
 -1      2007 1.07996E-04-3.25676E-05-3.23337E-05-3.07384E-06 7.05557E-19 1.06742E-18
 -1      2008 1.06832E-04-3.22658E-05-3.19635E-05-3.90393E-06 6.06492E-19 1.85790E-19
 -1      2009 1.10710E-04-3.37947E-05-3.29914E-05-1.86540E-06 5.47097E-19 2.62701E-19
 -1      2010 1.09925E-04-3.34301E-05-3.27981E-05-2.35686E-06 6.64534E-19 5.26596E-19
 -1      2011 1.08730E-04-3.32189E-05-3.23635E-05-3.12533E-06 1.02287E-18 5.59732E-19
 -1      2012 1.11685E-04-3.44419E-05-3.31380E-05 1.48659E-08 3.97179E-19-6.96734E-19
 -1      2013 1.11382E-04-3.42247E-05-3.30890E-05-8.93173E-07 3.59738E-19-1.47046E-19
 -1      2014 1.10340E-04-3.41897E-05-3.26280E-05-1.46522E-06 8.13853E-19 7.58678E-19
 -1      2015 1.11502E-04-3.46491E-05-3.29668E-05 2.69434E-06-2.46030E-19-2.17056E-19
 -1      2016 1.11924E-04-3.47210E-05-3.31141E-05 1.38527E-06-6.66840E-20-5.97132E-19
 -1      2017 1.11294E-04-3.49416E-05-3.26998E-05 1.18808E-06 1.34374E-19 5.55577E-19
 -1      2018 1.09777E-04-3.40725E-05-3.24577E-05 5.68839E-06-4.23914E-20-6.12881E-19
 -1      2019 1.11081E-04-3.45780E-05-3.28148E-05 4.21733E-06-1.58951E-20-7.66181E-19
 -1      2020 1.11135E-04-3.50778E-05-3.25576E-05 4.58386E-06 1.88194E-19 7.83985E-19
 -1      2021 1.06462E-04-3.24789E-05-3.16983E-05 7.92965E-06 1.22373E-18-1.29752E-18
 -1      2022 1.08565E-04-3.34607E-05-3.22101E-05 6.82326E-06 4.69289E-19-9.08258E-19
 -1      2023 1.09483E-04-3.41503E-05-3.22402E-05 7.86517E-06 5.91656E-19-2.45772E-19
 -1      2024 1.02198E-04-3.00891E-05-3.08857E-05 8.04464E-06-1.81970E-19-8.13019E-19
 -1      2025 1.04648E-04-3.13437E-05-3.14242E-05 7.96523E-06 9.11843E-19-5.93744E-19
 -1      2026 1.06387E-04-3.20075E-05-3.18469E-05 9.57411E-06 3.03719E-19 1.99357E-19
 -1      2027 9.84305E-05-2.78053E-05-3.02662E-05 5.23226E-06 3.16909E-19-6.45916E-19
 -1      2028 1.00439E-04-2.88477E-05-3.06665E-05 6.53495E-06-2.69052E-19-3.53266E-19
 -1      2029 1.02713E-04-2.92342E-05-3.14991E-05 8.26883E-06-3.07850E-19 6.79387E-19
 -1      2030 9.68611E-05-2.68425E-05-3.00347E-05 2.22181E-07 1.91579E-18-6.86742E-19
 -1      2031 9.76208E-05-2.71458E-05-3.01642E-05 2.51856E-06 1.59360E-18-4.70037E-19
 -1      2032 1.00051E-04-2.71437E-05-3.12901E-05 3.70269E-06 1.61845E-18 2.78442E-19
 -1      2033 9.82940E-05-2.77938E-05-3.02511E-05-4.79616E-06 4.57782E-19-1.77649E-18
 -1      2034 9.74758E-05-2.71932E-05-3.00723E-05-2.53629E-06 1.31056E-18-1.18719E-18
 -1      2035 9.97960E-05-2.69670E-05-3.12586E-05-2.42850E-06 1.70541E-18 9.37427E-19
 -1      2036 1.01948E-04-3.00631E-05-3.08229E-05-7.61614E-06-1.35401E-18-1.73180E-18
 -1      2037 9.99475E-05-2.89063E-05-3.04095E-05-6.35653E-06-1.04752E-18-2.13242E-18
 -1      2038 1.02027E-04-2.88038E-05-3.13946E-05-7.32900E-06-4.74749E-19 5.01384E-19
 -1      2039 1.06060E-04-3.24082E-05-3.15489E-05-7.47952E-06 1.05856E-19-1.27214E-19
 -1      2040 1.03727E-04-3.12578E-05-3.10499E-05-7.50718E-06-3.70824E-19-5.65739E-19
 -1      2041 1.05432E-04-3.15216E-05-3.16557E-05-9.05244E-06-9.20196E-19 4.39028E-19
 -1      2042 1.09090E-04-3.39100E-05-3.21882E-05-5.17650E-06-2.15310E-18 4.29935E-19
 -1      2043 1.07223E-04-3.31543E-05-3.17651E-05-6.12866E-06-9.49332E-19-2.59741E-19
 -1      2044 1.08378E-04-3.37496E-05-3.19596E-05-7.60211E-06-8.08069E-19 1.24702E-18
 -1      2045 1.10374E-04-3.43477E-05-3.25526E-05-2.08694E-06-1.92375E-18-3.82612E-20
 -1      2046 1.09395E-04-3.40818E-05-3.23155E-05-3.37686E-06-1.96981E-18 3.88643E-20
 -1      2047 1.09895E-04-3.47672E-05-3.21865E-05-4.33676E-06-2.22579E-18 4.73399E-19
 -1      2048 1.10003E-04-3.39694E-05-3.25668E-05 7.02372E-07-9.56062E-19-3.75289E-19
 -1      2049 1.09948E-04-3.40961E-05-3.25486E-05-4.73167E-07-1.37512E-18-2.11064E-19
 -1      2050 1.09857E-04-3.46452E-05-3.22344E-05-7.75112E-07-1.40752E-18-7.86443E-19
 -1      2051 1.08423E-04-3.31337E-05-3.22601E-05 2.68460E-06-8.26989E-19 6.34567E-19
 -1      2052 1.09101E-04-3.35035E-05-3.24321E-05 1.83534E-06-5.28813E-19 4.40728E-19
 -1      2053 1.08619E-04-3.38186E-05-3.20628E-05 2.11933E-06-1.17252E-18-2.86618E-19
 -1      2054 1.06138E-04-3.21197E-05-3.17230E-05 3.79300E-06 2.30917E-18-2.25956E-19
 -1      2055 1.07282E-04-3.26055E-05-3.20252E-05 3.30248E-06 4.54781E-19 3.87094E-19
 -1      2056 1.06644E-04-3.27046E-05-3.16937E-05 4.00335E-06 1.07140E-18 3.43296E-19
 -1      2057 1.03569E-04-3.10943E-05-3.10644E-05 4.16673E-06 2.09360E-18-9.28193E-19
 -1      2058 1.04928E-04-3.16101E-05-3.14311E-05 3.98319E-06 2.82191E-18-3.65852E-19
 -1      2059 1.04328E-04-3.15622E-05-3.11891E-05 4.91902E-06 2.41607E-18-1.81781E-20
 -1      2060 1.01038E-04-3.01405E-05-3.03871E-05 3.97716E-06 4.40139E-19-2.47129E-18
 -1      2061 1.02408E-04-3.06334E-05-3.07593E-05 4.03676E-06 7.71245E-19-1.61435E-18
 -1      2062 1.01963E-04-3.05077E-05-3.06261E-05 5.05245E-06 1.56463E-18-5.95818E-20
 -1      2063 9.87752E-05-2.92973E-05-2.97767E-05 3.34623E-06-8.92094E-19-2.66818E-18
 -1      2064 1.00001E-04-2.97343E-05-3.01064E-05 3.60769E-06 3.25873E-19-2.27990E-18
 -1      2065 9.97488E-05-2.95733E-05-3.00783E-05 4.58327E-06 3.56296E-19-2.80296E-18
 -1      2066 9.69590E-05-2.85955E-05-2.92931E-05 2.34041E-06-3.52166E-19-2.11951E-18
 -1      2067 9.79133E-05-2.89493E-05-2.95462E-05 2.78907E-06-8.67332E-19-2.97938E-18
 -1      2068 9.78223E-05-2.87604E-05-2.96028E-05 3.63635E-06-9.07240E-19-1.40721E-18
 -1      2069 9.58682E-05-2.81637E-05-2.90028E-05 1.38929E-06-3.61822E-19 2.43912E-19
 -1      2070 9.65159E-05-2.83931E-05-2.91869E-05 1.95719E-06 4.13835E-19-7.20663E-19
 -1      2071 9.64987E-05-2.81730E-05-2.92897E-05 2.62079E-06-4.66669E-19 8.79902E-19
 -1      2072 9.56959E-05-2.77935E-05-2.91014E-05 1.73963E-06-7.34689E-19 1.83075E-18
 -1      2073 9.36099E-05-2.29624E-05-3.02822E-05 4.22855E-06-1.87869E-18-2.46051E-19
 -1      2074 9.40935E-05-2.40589E-05-3.00044E-05 4.11780E-06-2.46234E-18 4.70252E-21
 -1      2075 9.45150E-05-2.49318E-05-2.98193E-05 3.84017E-06-1.83838E-18 8.25675E-19
 -1      2076 9.49589E-05-2.59156E-05-2.95759E-05 3.46361E-06-1.85976E-18 1.72014E-18
 -1      2077 9.45584E-05-2.48490E-05-2.98791E-05 5.02328E-06-2.42746E-18 2.07313E-19
 -1      2078 9.51929E-05-2.64966E-05-2.94356E-05 2.94113E-06-1.64388E-18 2.25870E-20
 -1      2079 9.55303E-05-2.72742E-05-2.92390E-05 2.37159E-06-1.17242E-18 4.21515E-19
 -1      2080 9.58751E-05-2.74303E-05-2.93244E-05 2.86914E-06-8.82269E-19 1.81363E-19
 -1      2081 9.53364E-05-2.63091E-05-2.95868E-05 4.11609E-06-1.82077E-18 1.08775E-18
 -1      2082 9.27301E-05-2.10308E-05-3.07422E-05 4.05705E-06-3.52668E-18-4.01421E-18
 -1      2083 9.31946E-05-2.20904E-05-3.04717E-05 4.19825E-06-2.60045E-18-1.75162E-18
 -1      2084 9.35496E-05-2.30554E-05-3.02101E-05 5.29342E-06-3.23214E-18-1.43690E-18
 -1      2085 9.19317E-05-1.92926E-05-3.11537E-05 3.33455E-06-1.28796E-18 9.10660E-19
 -1      2086 9.23385E-05-2.02110E-05-3.09193E-05 3.71516E-06-1.92378E-18-7.45458E-19
 -1      2087 9.25731E-05-2.13072E-05-3.05335E-05 4.87994E-06-1.51050E-18-1.12925E-18
 -1      2088 9.13357E-05-1.80159E-05-3.14509E-05 2.13791E-06-1.13605E-18 7.78585E-19
 -1      2089 9.16202E-05-1.86473E-05-3.12905E-05 2.71135E-06-9.62228E-19 1.41231E-18
 -1      2090 9.17202E-05-1.97902E-05-3.08099E-05 3.79871E-06-6.08514E-19 1.27756E-18
 -1      2091 9.10339E-05-1.73886E-05-3.15916E-05 6.19289E-07-1.82531E-18-1.49738E-18
 -1      2092 9.11510E-05-1.76400E-05-3.15284E-05 1.30972E-06-1.58846E-18-6.08176E-19
 -1      2093 9.11159E-05-1.87302E-05-3.09987E-05 2.16908E-06-7.14007E-19-8.02294E-19
 -1      2094 9.10811E-05-1.75145E-05-3.15547E-05-1.00731E-06-6.72772E-19-8.73840E-19
 -1      2095 9.10094E-05-1.73449E-05-3.15986E-05-2.99040E-07-9.51013E-19-2.74703E-19
 -1      2096 9.08598E-05-1.82935E-05-3.10730E-05 2.05063E-07-7.71220E-19 1.21596E-19
 -1      2097 9.14751E-05-1.83833E-05-3.13445E-05-2.50156E-06-7.86434E-20-2.11958E-18
 -1      2098 9.12244E-05-1.78137E-05-3.14899E-05-1.88050E-06 3.81388E-20-1.46746E-18
 -1      2099 9.10018E-05-1.85574E-05-3.10223E-05-1.81002E-06 3.46034E-19-9.95565E-19
 -1      2100 9.21441E-05-1.98411E-05-3.09970E-05-3.62853E-06-4.56794E-19 3.10193E-20
 -1      2101 9.17570E-05-1.89682E-05-3.12193E-05-3.19052E-06-3.90399E-19-1.22669E-18
 -1      2102 9.15201E-05-1.94767E-05-3.08556E-05-3.56497E-06 5.71585E-19-1.53832E-18
 -1      2103 9.30168E-05-2.17313E-05-3.05504E-05-4.26491E-06-6.80892E-19 2.79546E-18
 -1      2104 9.25338E-05-2.06467E-05-3.08254E-05-4.05995E-06-7.49967E-19 2.10810E-18
 -1      2105 9.23327E-05-2.09156E-05-3.05953E-05-4.82247E-06 7.82706E-19 6.76647E-19
 -1      2106 9.39747E-05-2.37798E-05-3.00728E-05-4.29021E-06-5.07680E-19 3.72944E-18
 -1      2107 9.34604E-05-2.26437E-05-3.03577E-05-4.36440E-06-1.18056E-18 1.65724E-18
 -1      2108 9.33456E-05-2.26932E-05-3.02760E-05-5.41780E-06-9.94519E-21 2.32228E-18
 -1      2109 9.49316E-05-2.57679E-05-2.96329E-05-3.68780E-06-7.72420E-19 3.11820E-18
 -1      2110 9.44203E-05-2.46964E-05-2.98836E-05-4.04115E-06-6.74051E-19 3.77093E-18
 -1      2111 9.44358E-05-2.45783E-05-2.99414E-05-5.25231E-06-8.09788E-19 3.57700E-18
 -1      2112 5.57007E-05-4.02450E-05-7.23384E-06 3.94392E-05 5.59042E-20 6.50516E-18
 -1      2113 4.19065E-05-4.08657E-05-1.60793E-06 3.31259E-05-1.02237E-18 5.21592E-18
 -1      2114 1.19868E-05-3.52488E-05 8.50444E-06 4.43839E-06-1.69872E-18 3.18061E-18
 -1      2115 1.23175E-05-3.64269E-05 8.70423E-06-5.33123E-06-1.60005E-18 1.29977E-18
 -1      2116 2.57613E-05-3.39448E-05 2.68850E-06 2.63712E-05-4.05729E-19 4.12590E-18
 -1      2117 1.80926E-05-3.61642E-05 6.26461E-06 1.58435E-05-1.93801E-18 3.31317E-18
 -1      2118 9.38386E-05-4.42625E-05-2.12224E-05 4.27632E-05 1.88422E-18 3.31740E-18
 -1      2119 7.60844E-05-4.61549E-05-1.38003E-05 3.87482E-05-3.47284E-20 4.54391E-18
 -1      2120 1.29426E-04-4.48725E-05-3.58930E-05 3.58722E-05 2.62241E-18 4.06745E-18
 -1      2121 1.08335E-04-4.56905E-05-2.75281E-05 3.59454E-05 3.16452E-18 3.04974E-18
 -1      2122 1.14728E-04-5.61334E-05-2.49267E-05 3.50647E-05 9.92934E-19 3.42731E-18
 -1      2123 8.57379E-05-8.56627E-06-3.31620E-05-1.02999E-05-1.49224E-18-1.76744E-18
 -1      2124 8.63340E-05-9.08065E-06-3.31930E-05-1.18507E-05-1.72398E-18-1.35459E-18
 -1      2125 8.87251E-05-1.27602E-05-3.25842E-05-1.15487E-05-1.87423E-18-9.98017E-19
 -1      2126 8.71738E-05-1.08626E-05-3.27371E-05-9.16153E-06-1.47345E-18-1.71008E-18
 -1      2127 1.76505E-04-2.91306E-05-6.21988E-05 1.06139E-05 2.05024E-18 4.03272E-18
 -1      2128 1.66557E-04-3.05031E-05-5.76458E-05 1.79540E-05 3.51900E-18 3.47199E-18
 -1      2129 1.72804E-04-2.05162E-05-6.48458E-05-4.29336E-07 3.69645E-18 3.40742E-18
 -1      2130 1.74358E-04-2.27423E-05-6.40433E-05 5.68946E-06 3.03153E-18 4.46577E-18
 -1      2131 1.66238E-04-2.28462E-05-6.11519E-05-4.55149E-06 2.43945E-18 2.50044E-18
 -1      2132 1.72433E-04-2.14332E-05-6.40051E-05-8.10807E-07 3.49147E-18 3.58475E-18
 -1      2133 1.56761E-04-3.44244E-05-5.20284E-05-1.83218E-05 1.29342E-18 2.51145E-19
 -1      2134 1.67586E-04-3.16341E-05-5.76993E-05-1.12870E-05 1.40142E-18 1.08717E-18
 -1      2135 1.30115E-04-4.14740E-05-3.82588E-05-3.05382E-05 1.12909E-18 1.20279E-19
 -1      2136 1.48961E-04-4.04388E-05-4.58854E-05-2.80431E-05 1.08568E-18-1.85500E-19
 -1      2137 9.81771E-05-4.56703E-05-2.32799E-05-3.70026E-05 1.54414E-18-3.68459E-20
 -1      2138 1.17543E-04-4.41566E-05-3.11518E-05-3.88579E-05 9.32583E-19-2.02864E-19
 -1      2139 6.03090E-05-4.31513E-05-8.66346E-06-3.63263E-05 2.41362E-18 1.80889E-18
 -1      2140 7.83173E-05-4.15874E-05-1.59894E-05-4.24649E-05 1.99434E-18 1.39358E-18
 -1      2141 3.14775E-05-3.92592E-05 1.86516E-06-2.72037E-05 2.67239E-18-4.10387E-19
 -1      2142 4.32402E-05-3.73729E-05-3.24523E-06-3.51021E-05 2.31240E-18 8.13363E-19
 -1      2143 1.37675E-05-3.61574E-05 8.02386E-06-9.87918E-06 2.07798E-18-2.17687E-18
 -1      2144 1.86944E-05-3.50340E-05 5.73300E-06-1.84943E-05 3.06033E-18-9.34701E-19
 -1      2145 1.44567E-05-3.22643E-05 6.60479E-06 1.14551E-05 1.03126E-18-2.94047E-18
 -1      2146 1.22746E-05-3.36988E-05 7.85960E-06 1.18734E-06 1.62282E-18-2.73761E-18
 -1      2147 3.39829E-05-3.62843E-05 9.61425E-08 3.05886E-05-6.23416E-19-4.74783E-18
 -1      2148 2.33254E-05-3.75005E-05 4.57404E-06 2.15417E-05 5.86994E-19-4.41474E-18
 -1      2149 7.10921E-05-4.25378E-05-1.24911E-05 4.22919E-05-1.91641E-18-3.70445E-18
 -1      2150 5.28767E-05-4.28374E-05-5.46782E-06 3.51694E-05-9.57571E-19-4.05578E-18
 -1      2151 1.11404E-04-4.42691E-05-2.85800E-05 3.99586E-05-3.05440E-18-4.32156E-18
 -1      2152 9.14374E-05-4.65012E-05-2.00616E-05 3.71776E-05-2.45767E-18-3.61641E-18
 -1      2153 1.46377E-04-4.21047E-05-4.39760E-05 2.90457E-05-2.45068E-18-4.99326E-18
 -1      2154 1.27337E-04-4.43001E-05-3.60162E-05 2.95287E-05-2.38546E-18-4.49859E-18
 -1      2155 1.67274E-04-3.52437E-05-5.57198E-05 1.67412E-05-2.75201E-18-5.23805E-18
 -1      2156 1.52645E-04-3.69311E-05-4.95433E-05 2.19177E-05-2.55428E-18-5.23975E-18
 -1      2157 1.49793E-04-4.55528E-05-4.40051E-05 9.32955E-06-1.81096E-18-3.73287E-18
 -1      2158 1.80144E-04-2.69455E-05-6.45596E-05 5.31986E-06-1.24556E-18-5.96777E-18
 -1      2159 1.71875E-04-2.75471E-05-6.11240E-05 1.10402E-05-1.83171E-18-5.44769E-18
 -1      2160 1.77838E-04-2.22859E-05-6.57328E-05-3.16852E-06 4.04882E-19-4.95292E-18
 -1      2161 1.79510E-04-2.33278E-05-6.58398E-05 2.54370E-06-7.99599E-19-5.41974E-18
 -1      2162 1.75041E-04-2.87985E-05-6.15950E-05-1.39767E-05 7.41154E-19-6.70511E-18
 -1      2163 1.79601E-04-2.63556E-05-6.46352E-05-5.93817E-06 1.42471E-18-5.49407E-18
 -1      2164 1.55745E-04-3.45150E-05-5.15779E-05-2.32262E-05-1.80815E-19-6.96303E-18
 -1      2165 1.72444E-04-3.39575E-05-5.79447E-05-2.03263E-05-9.09502E-20-8.60204E-18
 -1      2166 1.61590E-04-2.74230E-05-5.63265E-05-2.71119E-06 2.16629E-19-5.66284E-18
 -1      2167 1.25412E-04-4.35521E-05-3.54591E-05-3.16239E-05-1.03783E-18-5.03603E-18
 -1      2168 1.46234E-04-4.11503E-05-4.41509E-05-3.16802E-05-4.95938E-19-5.87544E-18
 -1      2169 8.66380E-05-4.71168E-05-1.78468E-05-3.78273E-05-1.82959E-19-2.71792E-18
 -1      2170 1.09163E-04-4.61290E-05-2.68708E-05-4.11624E-05-6.77626E-21-4.96531E-18
 -1      2171 4.54291E-05-4.25182E-05-2.70203E-06-3.28719E-05-1.64028E-18-2.30785E-18
 -1      2172 6.28265E-05-4.06112E-05-1.00560E-05-4.10549E-05-4.83232E-19-1.65447E-18
 -1      2173 1.93540E-05-3.73077E-05 6.13044E-06-1.68214E-05-7.63388E-19-1.39676E-18
 -1      2174 2.82566E-05-3.52586E-05 2.10608E-06-2.75703E-05-1.18288E-18-3.04530E-18
 -1      2175 1.62225E-04-3.63666E-05-5.27097E-05 2.56554E-05 3.91814E-18 2.80453E-18
 -1      2176 1.42579E-04-3.78905E-05-4.48513E-05 2.62918E-05 3.20528E-18 3.49062E-18
 -1      2177 1.57368E-04-3.32846E-05-5.21549E-05 5.62460E-06 2.85323E-18 2.17942E-18
 -1      2178 9.48346E-05-2.37010E-05-3.05567E-05-9.78500E-06-1.77528E-18 2.05448E-18
 -1      2179 1.42026E-04-4.98351E-05-3.91063E-05 1.97100E-05 1.94013E-18 2.37932E-18
 -1      2180 9.41175E-05-2.25493E-05-3.07370E-05-1.01473E-05-1.92554E-18 8.87889E-19
 -1      2181 4.04820E-05-3.54887E-05-2.53583E-06 3.45500E-05-1.06578E-18 4.64725E-18
 -1      2182 1.71531E-05-2.65334E-05 3.38632E-06 1.28084E-05-6.60262E-19 3.53340E-18
 -1      2183 9.53029E-05-2.64270E-05-2.95067E-05-3.56077E-06-1.56373E-18 2.79849E-18
 -1      2184 7.88178E-05-4.86319E-05-1.31211E-05 4.33231E-05-8.45762E-19 5.09496E-18
 -1      2185 1.85486E-05-2.70669E-05 2.99204E-06-1.51682E-05 9.11725E-19-8.69903E-19
 -1      2186 4.49339E-05-3.73316E-05-3.68498E-06-3.62761E-05-4.05729E-19-2.85471E-18
 -1      2187 8.78982E-05-5.10547E-05-1.57758E-05-4.20085E-05 5.50571E-20-2.75042E-18
 -1      2188 1.52100E-04-4.31258E-05-4.60470E-05-1.32208E-05-1.16418E-18-6.48150E-18
 -1      2189 1.61110E-04-1.63132E-05-6.10495E-05-1.20864E-08 6.01393E-19-3.12301E-18
 -1      2190 1.58908E-04-2.94541E-05-5.45436E-05 3.93805E-07-1.63837E-18-3.47580E-18
 -1      2191 1.30177E-04-5.43841E-05-3.22386E-05 2.64182E-05-1.81117E-18-3.43239E-18
 -1      2192 9.29188E-05-5.18543E-05-1.77767E-05 4.00038E-05-1.08590E-18-3.59968E-18
 -1      2193 5.22194E-05-3.91210E-05-5.82613E-06 3.91968E-05-1.24937E-19-4.75080E-18
 -1      2194 2.26496E-05-2.75421E-05 1.51496E-06 2.05965E-05 8.38139E-19-4.55704E-18
 -1      2195 1.47916E-05-2.43935E-05 3.46131E-06-5.30511E-06 5.40036E-19-3.01713E-18
 -1      2196 3.02739E-05-3.16603E-05-2.57151E-08-2.92508E-05 1.60407E-18-2.25523E-19
 -1      2197 6.26926E-05-4.31182E-05-8.70103E-06-4.13357E-05 9.58841E-19 2.14924E-18
 -1      2198 1.00915E-04-5.27216E-05-2.06372E-05-3.89752E-05 1.00628E-18 1.34085E-18
 -1      2199 1.32762E-04-5.26393E-05-3.39968E-05-2.50035E-05 1.13291E-18-2.39710E-19
 -1      2200 1.51436E-04-4.12064E-05-4.65411E-05-9.95780E-06 1.44377E-18 1.08420E-19
 -1      2201 1.55093E-04-2.34860E-05-5.57640E-05 1.66208E-06 2.39795E-18 2.64444E-18
 -1      2202 1.57227E-04-1.82257E-05-5.85711E-05-7.33167E-07 2.63512E-18 3.67358E-18
 -1      2203 1.52562E-04-1.21094E-05-5.95454E-05 1.52725E-06 3.27251E-18 3.79098E-18
 -1      2204 1.59486E-04-1.54129E-05-6.06544E-05-1.72810E-06-7.48777E-19-3.66331E-18
 -1      2205 1.27457E-04-5.53251E-05-3.08319E-05-2.89359E-05-9.30677E-19-4.43570E-18
 -1      2206 9.58391E-05-2.65674E-05-2.96749E-05 4.29728E-06 1.36388E-18-1.97531E-20
 -1      2207 9.68343E-05-2.60558E-05-3.02600E-05 6.10226E-06 1.53574E-18 1.83244E-19
 -1      2208 8.71139E-05-1.10625E-05-3.26321E-05-3.47968E-06-6.69836E-19-2.27291E-18
 -1      2209 8.72440E-05-1.13153E-05-3.25778E-05-4.61055E-06-8.87721E-19-2.26098E-18
 -1      2210 8.74856E-05-1.17701E-05-3.24938E-05-5.62063E-06-1.04234E-18-2.20892E-18
 -1      2211 8.77811E-05-1.22181E-05-3.24290E-05-6.77776E-06-1.23309E-18-1.99069E-18
 -1      2212 8.86937E-05-1.36433E-05-3.21641E-05-4.69770E-06-8.51037E-19-2.05374E-18
 -1      2213 8.71638E-05-1.06668E-05-3.28181E-05 7.73338E-07-3.84758E-21-2.53609E-18
 -1      2214 8.70641E-05-1.06510E-05-3.27824E-05-3.32379E-07-1.96372E-19-2.49606E-18
 -1      2215 8.75339E-05-1.09162E-05-3.28703E-05 2.90851E-06 3.01463E-19-2.66516E-18
 -1      2216 8.73257E-05-1.07736E-05-3.28439E-05 1.79259E-06 1.08840E-19-2.63333E-18
 -1      2217 8.85236E-05-1.27105E-05-3.24945E-05 1.22587E-06-3.00286E-20-2.46064E-18
 -1      2218 8.81526E-05-1.14863E-05-3.28944E-05 5.03327E-06 7.60306E-19-2.67034E-18
 -1      2219 8.78216E-05-1.12003E-05-3.28775E-05 3.91206E-06 5.02408E-19-2.67688E-18
 -1      2220 8.89787E-05-1.30948E-05-3.25234E-05 3.19118E-06 3.51431E-19-2.53009E-18
 -1      2221 8.91214E-05-1.24940E-05-3.28862E-05 7.21768E-06 1.14904E-18-2.33776E-18
 -1      2222 8.86090E-05-1.19968E-05-3.28795E-05 6.04678E-06 8.86117E-19-2.56736E-18
 -1      2223 8.97242E-05-1.38706E-05-3.25076E-05 5.14044E-06 8.10072E-19-2.45057E-18
 -1      2224 9.05867E-05-1.41339E-05-3.28301E-05 9.36336E-06 1.52340E-18-1.93681E-18
 -1      2225 8.98079E-05-1.33087E-05-3.28394E-05 8.18475E-06 1.28783E-18-2.15895E-18
 -1      2226 9.08520E-05-1.51609E-05-3.24320E-05 7.03116E-06 1.17590E-18-2.09919E-18
 -1      2227 9.27920E-05-1.67477E-05-3.26916E-05 1.12433E-05 1.92991E-18-1.34975E-18
 -1      2228 9.16087E-05-1.53875E-05-3.27272E-05 1.01632E-05 1.63659E-18-1.68586E-18
 -1      2229 9.24748E-05-1.71524E-05-3.22602E-05 8.66864E-06 1.46460E-18-1.64171E-18
 -1      2230 9.48203E-05-2.72987E-05-2.89212E-05 1.87349E-06 1.22460E-18-1.66336E-19
 -1      2231 9.54426E-05-2.70810E-05-2.92264E-05 2.84314E-06 1.30352E-18-4.74735E-20
 -1      2232 9.58637E-05-2.60103E-05-2.99449E-05 4.48725E-06 1.47970E-18-5.33485E-19
 -1      2233 9.37731E-05-2.45199E-05-2.96365E-05-6.02745E-06-1.59954E-18 4.09152E-19
 -1      2234 9.31421E-05-2.52583E-05-2.91064E-05-4.14632E-06-1.38452E-18 3.21518E-19
 -1      2235 1.46177E-04-4.86750E-05-4.21112E-05 8.26911E-06 1.82547E-18 7.21249E-19
 -1      2236 1.35237E-04-5.52455E-05-3.43716E-05 1.64132E-05 1.38935E-18 1.09098E-18
 -1      2237 5.58097E-05-3.62434E-05-8.24112E-06 4.10287E-05-1.58374E-18 5.11904E-18
 -1      2238 3.93005E-05-2.80368E-05-4.42007E-06 3.20656E-05-1.59729E-18 4.42871E-18
 -1      2239 9.30329E-05-2.59406E-05-2.86996E-05-2.82427E-06-1.21725E-18 3.42206E-19
 -1      2240 9.25906E-05-2.63121E-05-2.84047E-05-1.78350E-06-1.12780E-18 2.49665E-19
 -1      2241 9.33266E-05-2.48105E-05-2.93685E-05-4.13814E-06-1.43714E-18-1.48875E-19
 -1      2242 9.24076E-05-2.66396E-05-2.81489E-05-9.50715E-07-1.06139E-18 3.34624E-19
 -1      2243 9.21659E-05-2.68541E-05-2.79886E-05-3.60613E-07-9.00985E-19 1.73035E-19
 -1      2244 9.30593E-05-2.61461E-05-2.86912E-05-1.81465E-06-1.06694E-18-1.48115E-19
 -1      2245 9.20339E-05-2.70382E-05-2.78330E-05 1.36802E-07-7.68545E-19 2.05640E-19
 -1      2246 9.19490E-05-2.71853E-05-2.77536E-05 4.57140E-07-6.22986E-19 1.86114E-19
 -1      2247 9.27811E-05-2.68664E-05-2.82620E-05-3.63359E-07-9.14173E-19-3.38565E-20
 -1      2248 9.18806E-05-2.73001E-05-2.76648E-05 7.30597E-07-4.89701E-19 3.85316E-20
 -1      2249 9.18980E-05-2.74115E-05-2.76350E-05 8.86005E-07-3.94004E-19-1.13165E-19
 -1      2250 9.26126E-05-2.73029E-05-2.80002E-05 4.85547E-07-7.08223E-19-8.06815E-20
 -1      2251 9.18843E-05-2.74905E-05-2.75905E-05 1.01548E-06-4.36878E-19-2.14880E-19
 -1      2252 9.19632E-05-2.75802E-05-2.75908E-05 1.06872E-06-4.33920E-19-1.52589E-19
 -1      2253 9.25529E-05-2.75836E-05-2.78516E-05 9.39095E-07-4.85409E-19-4.21858E-19
 -1      2254 9.19907E-05-2.76396E-05-2.75753E-05 1.10750E-06-4.79340E-19-2.72818E-19
 -1      2255 9.21046E-05-2.77147E-05-2.75934E-05 1.09855E-06-4.54467E-19-2.94526E-19
 -1      2256 9.25813E-05-2.77765E-05-2.77787E-05 1.13867E-06-5.63469E-19-7.68180E-19
 -1      2257 9.21631E-05-2.77633E-05-2.75975E-05 1.08423E-06-7.24747E-19-3.94740E-19
 -1      2258 9.22985E-05-2.78284E-05-2.76277E-05 1.04070E-06-9.21994E-19-4.92134E-19
 -1      2259 9.26751E-05-2.79168E-05-2.77571E-05 1.18245E-06-6.45421E-19-7.63118E-19
 -1      2260 9.23831E-05-2.78713E-05-2.76473E-05 1.00218E-06-8.63783E-19-3.42492E-19
 -1      2261 9.25401E-05-2.79288E-05-2.76922E-05 9.47054E-07-6.67409E-19-4.81321E-19
 -1      2262 9.28199E-05-2.80234E-05-2.77730E-05 1.14348E-06-8.51308E-19-7.27341E-19
 -1      2263 9.26475E-05-2.79657E-05-2.77297E-05 9.09720E-07-3.95904E-19-4.01645E-19
 -1      2264 9.28391E-05-2.80122E-05-2.78011E-05 8.70475E-07-2.76245E-20-2.24831E-19
 -1      2265 9.30092E-05-2.81016E-05-2.78236E-05 1.08378E-06-5.20129E-19-1.44740E-19
 -1      2266 9.29502E-05-2.80255E-05-2.78606E-05 8.54621E-07-1.25004E-20-2.37833E-19
 -1      2267 9.31832E-05-2.80515E-05-2.79426E-05 8.86012E-07-5.92658E-20 1.58997E-19
 -1      2268 9.32281E-05-2.81292E-05-2.79098E-05 1.06067E-06-1.01479E-19-2.35002E-21
 -1      2269 9.32415E-05-2.79375E-05-2.79650E-05 9.28925E-07-8.49283E-20-1.78049E-19
 -1      2270 9.33576E-05-2.77603E-05-2.79570E-05 9.17705E-07-1.35155E-19-3.87385E-19
 -1      2271 9.34115E-05-2.80361E-05-2.79893E-05 1.10783E-06-2.06117E-19-7.19978E-20
 -1      2272 9.33411E-05-2.76028E-05-2.79387E-05 8.03366E-07-2.01726E-19-4.99961E-19
 -1      2273 9.39329E-05-2.78381E-05-2.80133E-05 7.13063E-07-2.15980E-19-4.52898E-19
 -1      2274 9.34832E-05-2.77874E-05-2.79764E-05 1.07237E-06-3.81026E-19-1.62577E-19
 -1      2275 9.38982E-05-2.76760E-05-2.80927E-05 8.32866E-07-2.55940E-19-7.11084E-19
 -1      2276 9.44626E-05-2.77290E-05-2.84127E-05 1.41849E-06-1.63742E-19-5.83606E-19
 -1      2277 9.33443E-05-2.75977E-05-2.78655E-05 8.95134E-07-4.10348E-19-2.14829E-19
 -1      2278 9.47928E-05-2.82135E-05-2.86345E-05 1.16166E-06-1.47701E-19-7.89699E-19
 -1      2279 9.52572E-05-2.82898E-05-2.86807E-05 1.36726E-06-1.86241E-19-6.69288E-19
 -1      2280 9.49182E-05-2.83368E-05-2.83726E-05 1.48334E-06-3.53027E-19-2.54533E-19
 -1      2281 9.54753E-05-2.83270E-05-2.89031E-05 1.58549E-06 1.38887E-19-7.69304E-19
 -1      2282 9.57555E-05-2.83910E-05-2.90217E-05 1.71661E-06-1.01644E-20-3.96914E-19
 -1      2283 9.51640E-05-2.82391E-05-2.88202E-05 1.42878E-06-4.16899E-20-3.74336E-19
 -1      2284 9.60099E-05-2.84437E-05-2.90700E-05 1.89885E-06-5.47951E-19-1.85593E-19
 -1      2285 9.63556E-05-2.85186E-05-2.91277E-05 2.09820E-06-2.83716E-19-3.38006E-19
 -1      2286 9.57408E-05-2.81558E-05-2.90831E-05 2.13127E-06-6.65980E-20-3.24546E-19
 -1      2287 9.65247E-05-2.85295E-05-2.91878E-05 2.29271E-06-2.17046E-19-6.68954E-19
 -1      2288 9.68697E-05-2.85825E-05-2.92855E-05 2.52917E-06 1.28769E-19-8.57826E-19
 -1      2289 9.62186E-05-2.83414E-05-2.91642E-05 2.48532E-06-4.97586E-19-2.50391E-19
 -1      2290 9.70731E-05-2.85953E-05-2.93665E-05 2.81775E-06 3.44046E-19-1.24108E-18
 -1      2291 9.74802E-05-2.86700E-05-2.94895E-05 3.10689E-06-1.06139E-19-1.20677E-18
 -1      2292 9.65723E-05-2.83012E-05-2.92973E-05 3.01897E-06-1.91297E-19-8.11147E-19
 -1      2293 9.77173E-05-2.86897E-05-2.95893E-05 3.45844E-06-6.44994E-20-1.24906E-18
 -1      2294 9.82081E-05-2.87924E-05-2.97386E-05 3.80203E-06 2.28938E-19-1.08671E-18
 -1      2295 9.70070E-05-2.83050E-05-2.94613E-05 3.68929E-06 9.31438E-20-1.49432E-18
 -1      2296 9.85074E-05-2.88414E-05-2.98575E-05 4.21531E-06 1.67327E-19-1.28430E-18
 -1      2297 9.91004E-05-2.89964E-05-3.00310E-05 4.59620E-06 4.16267E-19-1.11350E-18
 -1      2298 9.75377E-05-2.83456E-05-2.96619E-05 4.49605E-06-4.15724E-20-3.58804E-19
 -1      2299 9.94853E-05-2.91030E-05-3.01624E-05 5.04548E-06 7.38903E-19-1.46568E-18
 -1      2300 1.00197E-04-2.93400E-05-3.03553E-05 5.42822E-06 8.92422E-19-1.27455E-18
 -1      2301 9.82187E-05-2.84893E-05-2.98903E-05 5.40566E-06 1.32778E-19-1.24800E-18
 -1      2302 1.00698E-04-2.95438E-05-3.04911E-05 5.86709E-06 6.63635E-19-1.79473E-18
 -1      2303 1.01540E-04-2.99011E-05-3.06952E-05 6.18803E-06 4.48053E-19-1.37181E-18
 -1      2304 9.91038E-05-2.88187E-05-3.01298E-05 6.34451E-06 5.96411E-19-1.84950E-18
 -1      2305 1.02206E-04-3.02587E-05-3.08268E-05 6.53896E-06 3.62943E-19-1.36885E-18
 -1      2306 1.03183E-04-3.07847E-05-3.10295E-05 6.69604E-06 4.60352E-19-1.20555E-18
 -1      2307 1.00272E-04-2.94494E-05-3.03635E-05 7.18927E-06 5.28497E-19-1.40106E-18
 -1      2308 1.04084E-04-3.13699E-05-3.11490E-05 6.83616E-06 6.09692E-19-1.09905E-18
 -1      2309 1.05187E-04-3.21125E-05-3.13341E-05 6.68141E-06 5.33679E-19-5.68182E-19
 -1      2310 1.01840E-04-3.05382E-05-3.05754E-05 7.74236E-06 6.72474E-19-1.54035E-18
 -1      2311 1.06411E-04-3.29990E-05-3.14393E-05 6.42985E-06 1.28122E-20-5.11001E-19
 -1      2312 1.07600E-04-3.39727E-05-3.15917E-05 5.77648E-06-1.87459E-19-2.93434E-19
 -1      2313 1.03970E-04-3.22622E-05-3.07584E-05 7.70490E-06 4.64038E-19-1.11742E-18
 -1      2314 1.09215E-04-3.51798E-05-3.16965E-05 4.89596E-06-9.70597E-20-2.07282E-19
 -1      2315 1.10376E-04-3.62903E-05-3.18119E-05 3.56253E-06 5.31513E-20-4.04892E-19
 -1      2316 1.06823E-04-3.47344E-05-3.09317E-05 6.66125E-06-3.15958E-20-9.25553E-19
 -1      2317 1.12328E-04-3.76688E-05-3.19605E-05 1.81069E-06-2.44978E-19-3.13156E-19
 -1      2318 1.13218E-04-3.85956E-05-3.20591E-05-2.63376E-07-3.87263E-19 4.74156E-20
 -1      2319 1.10430E-04-3.78010E-05-3.11677E-05 4.11450E-06-1.78519E-19 5.32683E-19
 -1      2320 1.15161E-04-3.96675E-05-3.23358E-05-2.95235E-06-3.06087E-19 2.49033E-19
 -1      2321 1.15389E-04-3.97915E-05-3.24691E-05-5.49326E-06 3.64122E-19 6.12282E-19
 -1      2322 1.14413E-04-4.06941E-05-3.16205E-05-3.19065E-07 1.95488E-20 1.06830E-18
 -1      2323 1.16580E-04-3.97170E-05-3.29775E-05-8.65050E-06 7.23816E-19 5.05312E-19
 -1      2324 1.15752E-04-3.83058E-05-3.32098E-05-1.08227E-05 1.15300E-18 1.17265E-18
 -1      2325 1.17670E-04-4.17850E-05-3.25146E-05-6.37157E-06 5.11964E-19 7.18875E-19
 -1      2326 1.15309E-04-3.62958E-05-3.39850E-05-1.30352E-05 1.02728E-18 9.15181E-19
 -1      2327 1.13467E-04-3.32631E-05-3.43223E-05-1.34742E-05 1.14437E-18 7.67423E-19
 -1      2328 1.18484E-04-3.90074E-05-3.40280E-05-1.23206E-05 7.89739E-19 5.47656E-19
 -1      2329 1.11409E-04-2.97045E-05-3.51890E-05-1.27604E-05 1.34912E-18 5.86617E-19
 -1      2330 1.09453E-04-2.64750E-05-3.55023E-05-1.03787E-05 9.44362E-19 6.62333E-19
 -1      2331 1.15836E-04-3.18604E-05-3.60009E-05-1.44719E-05 8.57780E-19 1.58355E-19
 -1      2332 1.07645E-04-2.37975E-05-3.60455E-05-6.11791E-06-1.14958E-19 3.39735E-19
 -1      2333 1.06908E-04-2.26583E-05-3.61437E-05-1.67047E-06-5.48507E-19-7.56556E-20
 -1      2334 1.11670E-04-2.40228E-05-3.77068E-05-9.34910E-06 2.75471E-19-1.02564E-18
 -1      2335 1.07275E-04-2.32064E-05-3.60304E-05 3.97197E-06-8.53836E-19-3.87497E-19
 -1      2336 1.08370E-04-2.51634E-05-3.58188E-05 7.97173E-06-7.70774E-19-1.55191E-19
 -1      2337 1.09977E-04-2.11110E-05-3.82571E-05 1.35056E-06-1.12105E-18-7.70070E-19
 -1      2338 1.10467E-04-2.84113E-05-3.50982E-05 1.12826E-05 6.24025E-20-1.82160E-19
 -1      2339 1.12423E-04-3.18010E-05-3.47194E-05 1.27497E-05-6.28062E-20 6.77401E-19
 -1      2340 1.12691E-04-2.59934E-05-3.72425E-05 1.09142E-05 2.40875E-20-8.83793E-19
 -1      2341 1.14060E-04-3.50835E-05-3.38118E-05 1.24091E-05-6.49178E-19 8.15901E-19
 -1      2342 1.15577E-04-3.77142E-05-3.34614E-05 1.12280E-05-5.28408E-19 1.07544E-18
 -1      2343 1.16703E-04-3.43431E-05-3.52806E-05 1.36034E-05-2.42079E-19-9.98731E-19
 -1      2344 1.15355E-04-3.90649E-05-3.27344E-05 8.44133E-06 3.18802E-19 5.28213E-20
 -1      2345 1.15708E-04-3.99124E-05-3.25016E-05 5.98731E-06 4.64942E-20 5.02130E-19
 -1      2346 1.18263E-04-4.04511E-05-3.33368E-05 9.73135E-06-2.89022E-19-8.69400E-20
 -1      2347 1.14147E-04-3.95453E-05-3.20454E-05 2.82084E-06-1.62256E-19 9.22862E-19
 -1      2348 1.13539E-04-3.90710E-05-3.18899E-05 2.92453E-07 3.27236E-19 1.42940E-18
 -1      2349 1.16362E-04-4.17633E-05-3.19697E-05 3.36601E-06 2.36574E-21 3.42610E-19
 -1      2350 1.11458E-04-3.78121E-05-3.16363E-05-2.20611E-06-3.91835E-19 3.62172E-19
 -1      2351 1.10301E-04-3.67330E-05-3.14955E-05-4.13319E-06-1.65464E-19-1.83995E-19
 -1      2352 1.12605E-04-3.99136E-05-3.11862E-05-2.45304E-06-8.98235E-20-7.16862E-19
 -1      2353 1.08353E-04-3.53462E-05-3.13418E-05-5.67286E-06 1.10035E-18-4.72320E-20
 -1      2354 1.07002E-04-3.41929E-05-3.11748E-05-6.84632E-06 1.77937E-18 3.47556E-19
 -1      2355 1.08498E-04-3.67817E-05-3.07755E-05-6.44580E-06 4.49434E-19-1.15838E-18
 -1      2356 1.05413E-04-3.30231E-05-3.10541E-05-7.56492E-06 2.72913E-18 8.98423E-19
 -1      2357 1.04067E-04-3.20243E-05-3.08544E-05-8.07632E-06 2.54391E-18 9.83589E-19
 -1      2358 1.04927E-04-3.37583E-05-3.05346E-05-8.61892E-06 2.64479E-18-4.74785E-19
 -1      2359 1.02843E-04-3.11492E-05-3.07372E-05-8.19710E-06 4.45043E-19 9.70464E-19
 -1      2360 1.01596E-04-3.03503E-05-3.05185E-05-8.21100E-06-8.57890E-19 9.76676E-19
 -1      2361 1.02099E-04-3.13450E-05-3.03469E-05-9.37102E-06 1.87366E-18-8.61953E-19
 -1      2362 1.00650E-04-2.97120E-05-3.04015E-05-7.92784E-06-9.48926E-19 1.69135E-18
 -1      2363 9.95375E-05-2.90722E-05-3.01864E-05-7.58591E-06-2.49030E-18 2.12614E-18
 -1      2364 9.99215E-05-2.95684E-05-3.01667E-05-9.13244E-06-7.50034E-19 9.42152E-19
 -1      2365 9.87738E-05-2.85760E-05-3.00779E-05-7.02280E-06-3.48558E-18 3.56121E-18
 -1      2366 9.78227E-05-2.80507E-05-2.98890E-05-6.41271E-06-2.43668E-18 4.28192E-18
 -1      2367 9.82103E-05-2.82480E-05-2.99931E-05-8.21624E-06-1.89491E-18 3.06276E-18
 -1      2368 9.38401E-05-2.78461E-05-2.82759E-05-2.86601E-07 6.01204E-19-7.55609E-19
 -1      2369 9.39423E-05-2.77491E-05-2.83440E-05-4.17169E-09 7.66020E-19-5.28243E-19
 -1      2370 9.37430E-05-2.79946E-05-2.81732E-05-6.88161E-07 5.06682E-19-9.99306E-19
 -1      2371 9.37231E-05-2.79124E-05-2.81916E-05-5.50758E-07 4.81272E-19-8.74525E-19
 -1      2372 9.44232E-05-2.79375E-05-2.85050E-05-2.93270E-07 6.94838E-19-1.06087E-18
 -1      2373 9.37893E-05-2.81125E-05-2.81440E-05-8.63026E-07 5.90967E-19-9.29567E-19
 -1      2374 9.37023E-05-2.80414E-05-2.81340E-05-8.11918E-07 5.74726E-19-9.80964E-19
 -1      2375 9.42942E-05-2.81306E-05-2.83638E-05-7.36172E-07 6.43868E-19-1.01015E-18
 -1      2376 9.39148E-05-2.82078E-05-2.81567E-05-9.02304E-07 4.56064E-19-8.93581E-19
 -1      2377 9.37965E-05-2.81475E-05-2.81323E-05-9.01287E-07 5.03802E-19-7.92075E-19
 -1      2378 9.42786E-05-2.82611E-05-2.82980E-05-9.32451E-07 4.51359E-19-1.13290E-18
 -1      2379 9.40751E-05-2.82839E-05-2.81874E-05-8.65545E-07 2.29918E-19-6.86285E-19
 -1      2380 9.39474E-05-2.82339E-05-2.81593E-05-8.90964E-07 5.43546E-19-6.82212E-19
 -1      2381 9.43300E-05-2.83506E-05-2.82768E-05-9.79371E-07 3.57242E-19-8.56323E-19
 -1      2382 9.42456E-05-2.83458E-05-2.82116E-05-7.94571E-07 4.24410E-19-9.22071E-19
 -1      2383 9.41144E-05-2.83027E-05-2.81907E-05-8.28606E-07 2.78798E-19-6.61351E-19
 -1      2384 9.44125E-05-2.84099E-05-2.82730E-05-9.42120E-07 4.25372E-19-5.16736E-19
 -1      2385 9.45096E-05-2.84370E-05-2.82151E-05-7.33743E-07 3.72311E-19-1.38335E-18
 -1      2386 9.42578E-05-2.83435E-05-2.81975E-05-7.58633E-07 4.35802E-19-1.25357E-18
 -1      2387 9.44912E-05-2.84379E-05-2.82531E-05-8.65831E-07 6.49776E-19-1.01801E-18
 -1      2388 9.48068E-05-2.83641E-05-2.83864E-05-9.52236E-07 7.90378E-19-1.73599E-18
 -1      2389 9.44569E-05-2.83888E-05-2.82249E-05-8.13216E-07 5.83738E-19-1.58099E-18
 -1      2390 9.42762E-05-2.83523E-05-2.81794E-05-7.42460E-07 5.15426E-19-1.50846E-18
 -1      2391 9.51344E-05-2.85989E-05-2.85450E-05-6.76225E-07 2.80017E-19-1.39440E-18
 -1      2392 9.48943E-05-2.85362E-05-2.85433E-05-6.99924E-07 6.44764E-19-1.49628E-18
 -1      2393 9.54078E-05-2.87938E-05-2.84796E-05-8.21183E-07 5.19284E-19-1.26790E-18
 -1      2394 9.52580E-05-2.85568E-05-2.85908E-05-6.70391E-07-2.06504E-19-1.60608E-18
 -1      2395 9.51443E-05-2.85618E-05-2.85606E-05-6.63212E-07 1.60829E-19-1.47622E-18
 -1      2396 9.52206E-05-2.86178E-05-2.85865E-05-7.55048E-07 1.75107E-19-1.40566E-18
 -1      2397 9.54650E-05-2.85537E-05-2.86667E-05-7.82702E-07 4.80094E-19-2.26508E-18
 -1      2398 9.53237E-05-2.85378E-05-2.86217E-05-7.26780E-07-1.68484E-19-1.78607E-18
 -1      2399 9.53207E-05-2.85384E-05-2.86263E-05-8.24371E-07 1.02577E-19-1.66165E-18
 -1      2400 9.57664E-05-2.86067E-05-2.87715E-05-9.46093E-07 1.34930E-18-1.93053E-18
 -1      2401 9.55862E-05-2.85712E-05-2.87137E-05-8.69248E-07 1.00478E-18-1.99407E-18
 -1      2402 9.55111E-05-2.85104E-05-2.87024E-05-9.94578E-07 6.18483E-19-1.62969E-18
 -1      2403 9.61156E-05-2.86575E-05-2.89020E-05-1.16264E-06 1.84976E-19-1.13034E-18
 -1      2404 9.59000E-05-2.86205E-05-2.88309E-05-1.05321E-06 9.10473E-19-1.38236E-18
 -1      2405 9.57652E-05-2.85365E-05-2.88077E-05-1.19499E-06 7.17508E-19-1.14273E-18
 -1      2406 9.65410E-05-2.87172E-05-2.90584E-05-1.46912E-06-3.40888E-19-9.45758E-19
 -1      2407 9.62737E-05-2.86700E-05-2.89717E-05-1.31685E-06-1.79010E-20-8.93934E-19
 -1      2408 9.60455E-05-2.85376E-05-2.89336E-05-1.47590E-06 1.99012E-20-1.38552E-19
 -1      2409 9.70779E-05-2.88074E-05-2.92486E-05-1.87421E-06-8.86047E-19-1.11193E-18
 -1      2410 9.67409E-05-2.87396E-05-2.91417E-05-1.67697E-06-6.52554E-19-1.23449E-18
 -1      2411 9.63923E-05-2.85445E-05-2.90814E-05-1.86829E-06-3.46490E-19-1.69455E-19
 -1      2412 9.77553E-05-2.89444E-05-2.94789E-05-2.37457E-06-6.02175E-19-1.37920E-18
 -1      2413 9.73317E-05-2.88471E-05-2.93482E-05-2.13441E-06-6.74363E-19-1.24753E-18
 -1      2414 9.68349E-05-2.85792E-05-2.92571E-05-2.37369E-06-7.59247E-19-9.17630E-19
 -1      2415 9.85981E-05-2.91451E-05-2.97534E-05-2.95667E-06 1.97166E-19-1.14836E-18
 -1      2416 9.80735E-05-2.90087E-05-2.95963E-05-2.68135E-06-4.18201E-19-1.49855E-18
 -1      2417 9.73962E-05-2.86598E-05-2.94637E-05-2.98453E-06-3.13257E-19-1.75945E-18
 -1      2418 9.96287E-05-2.94321E-05-3.00725E-05-3.59063E-06-4.06220E-20-1.61567E-19
 -1      2419 9.89922E-05-2.92444E-05-2.98886E-05-3.29713E-06 5.02455E-19-6.45478E-19
 -1      2420 9.80991E-05-2.88085E-05-2.97019E-05-3.68154E-06-1.19090E-19-1.00996E-18
 -1      2421 1.00865E-04-2.98370E-05-3.04311E-05-4.21943E-06-1.20071E-18-7.13625E-19
 -1      2422 1.00112E-04-2.95823E-05-3.02232E-05-3.93970E-06-3.65846E-19-5.07726E-19
 -1      2423 9.89700E-05-2.90593E-05-2.99685E-05-4.42543E-06-9.88613E-20-6.85579E-19
 -1      2424 1.02316E-04-3.04023E-05-3.08162E-05-4.74405E-06-4.13332E-19-1.31496E-18
 -1      2425 1.01454E-04-3.00614E-05-3.05922E-05-4.53252E-06-1.20659E-18-1.24850E-18
 -1      2426 1.00042E-04-2.94632E-05-3.02558E-05-5.14394E-06-7.53133E-19-1.78968E-18
 -1      2427 1.03977E-04-3.11787E-05-3.12051E-05-5.00744E-06-7.59809E-20-1.37508E-18
 -1      2428 1.03031E-04-3.07327E-05-3.09795E-05-4.94837E-06-3.26949E-19-1.64153E-18
 -1      2429 1.01354E-04-3.00921E-05-3.05504E-05-5.71555E-06-3.65703E-19-2.02264E-18
 -1      2430 1.05818E-04-3.22120E-05-3.15656E-05-4.78396E-06 6.30670E-19-4.65275E-19
 -1      2431 1.04840E-04-3.16515E-05-3.13598E-05-4.99397E-06 1.54478E-19-1.48365E-18
 -1      2432 1.02955E-04-3.10341E-05-3.08351E-05-5.95234E-06-1.63321E-19-1.76754E-18
 -1      2433 1.07758E-04-3.35056E-05-3.18608E-05-3.79010E-06 1.03667E-18-2.28629E-19
 -1      2434 1.06843E-04-3.28537E-05-3.17013E-05-4.40583E-06 9.57771E-19-6.96734E-19
 -1      2435 1.04886E-04-3.23699E-05-3.10925E-05-5.58948E-06 8.62789E-19-1.67379E-18
 -1      2436 1.09621E-04-3.49439E-05-3.20615E-05-1.74657E-06 1.96760E-19 3.49011E-19
 -1      2437 1.08923E-04-3.42972E-05-3.19735E-05-2.88086E-06 6.66463E-19 5.04638E-19
 -1      2438 1.07145E-04-3.41086E-05-3.13163E-05-4.29925E-06 2.88387E-19-1.27081E-18
 -1      2439 1.11080E-04-3.61812E-05-3.21659E-05 1.46323E-06-5.00616E-19 9.08600E-19
 -1      2440 1.10814E-04-3.57582E-05-3.21619E-05-1.84472E-07-5.52987E-20 5.37394E-19
 -1      2441 1.09600E-04-3.60611E-05-3.15265E-05-1.76747E-06-4.14750E-19-4.21760E-19
 -1      2442 1.11620E-04-3.65695E-05-3.22187E-05 5.51504E-06 4.24178E-19 5.40347E-20
 -1      2443 1.12030E-04-3.67160E-05-3.22859E-05 3.61499E-06-6.52679E-20 9.37963E-19
 -1      2444 1.11853E-04-3.76747E-05-3.17852E-05 2.10613E-06-3.24351E-19 2.15565E-20
 -1      2445 1.10667E-04-3.53131E-05-3.23064E-05 9.32737E-06 5.76012E-19 2.19759E-19
 -1      2446 1.11893E-04-3.63644E-05-3.24043E-05 7.80012E-06 7.79343E-19 4.45395E-19
 -1      2447 1.13155E-04-3.79698E-05-3.21921E-05 6.85016E-06 4.44474E-19 1.89318E-19
 -1      2448 1.08044E-04-3.20984E-05-3.25022E-05 1.10386E-05-4.64171E-19 1.74027E-18
 -1      2449 1.09891E-04-3.40144E-05-3.25833E-05 1.07618E-05 4.25254E-19 1.44798E-18
 -1      2450 1.12607E-04-3.59023E-05-3.28307E-05 1.09956E-05 3.10531E-19 1.23543E-18
 -1      2451 1.04597E-04-2.79407E-05-3.27757E-05 8.86489E-06 5.56018E-19 8.34844E-19
 -1      2452 1.06396E-04-2.99753E-05-3.28197E-05 1.04571E-05-3.14616E-19 1.24857E-18
 -1      2453 1.09966E-04-3.13972E-05-3.36530E-05 1.22157E-05 2.27131E-19 1.87097E-18
 -1      2454 1.02267E-04-2.52065E-05-3.29822E-05 2.78361E-06 2.06103E-18 4.20449E-19
 -1      2455 1.03122E-04-2.61691E-05-3.30020E-05 5.87904E-06 1.53306E-18 2.62673E-19
 -1      2456 1.06523E-04-2.63416E-05-3.44019E-05 8.55662E-06 1.36894E-18 1.14047E-18
 -1      2457 1.02723E-04-2.58607E-05-3.29718E-05-4.57600E-06 1.09662E-18 7.13447E-19
 -1      2458 1.02157E-04-2.50891E-05-3.29864E-05-1.40499E-06 1.56538E-18 7.37578E-19
 -1      2459 1.04741E-04-2.39039E-05-3.47258E-05 8.10568E-07 1.80768E-18 5.26459E-19
 -1      2460 1.05649E-04-2.94409E-05-3.27337E-05-9.54119E-06-9.12254E-19 8.55205E-19
 -1      2461 1.04047E-04-2.74897E-05-3.27339E-05-7.77579E-06 2.29837E-19 7.85339E-19
 -1      2462 1.06065E-04-2.58704E-05-3.44211E-05-7.17739E-06 6.42726E-19-7.51378E-20
 -1      2463 1.09034E-04-3.35345E-05-3.24164E-05-1.02281E-05-8.30592E-19 7.05387E-19
 -1      2464 1.07285E-04-3.16018E-05-3.23789E-05-1.03538E-05-1.32930E-18 1.23542E-18
 -1      2465 1.09304E-04-3.07977E-05-3.36285E-05-1.13267E-05-3.28212E-19 8.65304E-19
 -1      2466 1.11018E-04-3.60563E-05-3.21569E-05-7.43821E-06-9.67011E-19 7.19248E-19
 -1      2467 1.09837E-04-3.49451E-05-3.20993E-05-8.89281E-06 2.08853E-19 1.43471E-18
 -1      2468 1.11967E-04-3.54859E-05-3.27281E-05-1.04637E-05-9.69816E-19 2.02643E-18
 -1      2469 1.11090E-04-3.65411E-05-3.19554E-05-3.17668E-06-1.37353E-18-1.10647E-19
 -1      2470 1.10740E-04-3.63557E-05-3.19285E-05-5.08770E-06-1.62759E-18 4.40947E-19
 -1      2471 1.12578E-04-3.78168E-05-3.20071E-05-6.39318E-06-1.04489E-18 8.59292E-19
 -1      2472 1.09699E-04-3.56049E-05-3.17482E-05 8.47467E-07-1.63306E-18 1.53115E-19
 -1      2473 1.10071E-04-3.60330E-05-3.17945E-05-8.64905E-07-1.38890E-18-3.65036E-19
 -1      2474 1.11239E-04-3.76884E-05-3.15145E-05-1.48479E-06-9.67854E-19-8.57058E-19
 -1      2475 1.07537E-04-3.40651E-05-3.14790E-05 3.80589E-06-4.71625E-20-1.79556E-18
 -1      2476 1.08391E-04-3.47603E-05-3.16119E-05 2.58574E-06-1.00377E-18-1.07941E-18
 -1      2477 1.08826E-04-3.60962E-05-3.11806E-05 2.66342E-06-3.60192E-19-1.08721E-18
 -1      2478 1.05121E-04-3.24654E-05-3.11294E-05 5.54230E-06 1.79109E-18-6.29895E-19
 -1      2479 1.06229E-04-3.32023E-05-3.13355E-05 4.85516E-06 7.16914E-19-1.55686E-18
 -1      2480 1.06125E-04-3.40427E-05-3.09090E-05 5.46898E-06 3.24960E-19-3.58393E-18
 -1      2481 1.02751E-04-3.10505E-05-3.07200E-05 6.22713E-06 2.32516E-18 6.43216E-20
 -1      2482 1.03942E-04-3.17266E-05-3.09696E-05 5.99251E-06 2.11212E-18-5.07187E-19
 -1      2483 1.03570E-04-3.21145E-05-3.06392E-05 6.94944E-06 1.60386E-18-1.45641E-18
 -1      2484 1.00572E-04-2.98638E-05-3.02927E-05 6.10430E-06 1.50054E-18-3.68138E-19
 -1      2485 1.01729E-04-3.04548E-05-3.05516E-05 6.22152E-06 2.15368E-18 9.98099E-19
 -1      2486 1.01318E-04-3.05176E-05-3.03557E-05 7.36086E-06 1.98833E-18-1.68796E-19
 -1      2487 9.86448E-05-2.88634E-05-2.98932E-05 5.36989E-06 3.14051E-19-9.84936E-19
 -1      2488 9.96907E-05-2.93768E-05-3.01309E-05 5.76212E-06 1.27058E-18-2.03078E-19
 -1      2489 9.93793E-05-2.92349E-05-3.00725E-05 6.97347E-06 1.32586E-18-2.83281E-19
 -1      2490 9.69995E-05-2.80086E-05-2.95530E-05 4.15906E-06-1.35658E-18-5.45832E-20
 -1      2491 9.78878E-05-2.84497E-05-2.97508E-05 4.76855E-06-1.19633E-18-1.42912E-19
 -1      2492 9.77154E-05-2.81689E-05-2.98158E-05 5.98271E-06-2.17978E-19 8.31565E-19
 -1      2493 9.63475E-05-2.76747E-05-2.94210E-05 3.30576E-06-1.16570E-18-8.80598E-19
 -1      2494 9.21622E-05-2.14713E-05-3.03196E-05 5.47111E-06 1.21438E-19 1.02611E-18
 -1      2495 9.27554E-05-2.23064E-05-3.01852E-05 5.87495E-06-1.65085E-18-7.88440E-19
 -1      2496 9.11353E-05-2.00837E-05-3.04783E-05 4.06046E-06 6.57522E-20 1.11905E-18
 -1      2497 9.16133E-05-2.07384E-05-3.03747E-05 4.79910E-06 4.02197E-19 1.78710E-18
 -1      2498 9.16813E-05-2.16295E-05-3.00128E-05 5.86502E-06 7.01768E-19 1.47731E-18
 -1      2499 9.45884E-05-2.48223E-05-2.99086E-05 6.00065E-06-2.39612E-18-2.14876E-18
 -1      2500 9.52072E-05-2.57170E-05-2.97641E-05 5.70187E-06-1.16371E-18 6.48642E-20
 -1      2501 9.33626E-05-2.31189E-05-3.01203E-05 6.12517E-06-3.11448E-18-1.60380E-18
 -1      2502 9.39854E-05-2.40125E-05-2.99756E-05 6.16629E-06-3.01069E-18-1.22172E-18
 -1      2503 9.45447E-05-2.48972E-05-2.98445E-05 6.92846E-06-1.54716E-18-2.02591E-18
 -1      2504 9.30819E-05-2.32242E-05-2.99330E-05 6.83437E-06-1.36586E-18 4.33341E-19
 -1      2505 9.04471E-05-1.91703E-05-3.05742E-05 2.04858E-06-5.57977E-19 2.83409E-20
 -1      2506 9.07339E-05-1.95512E-05-3.05157E-05 3.03482E-06-2.10476E-19 1.65357E-19
 -1      2507 9.05443E-05-2.03267E-05-3.00756E-05 4.06615E-06-5.69225E-20 1.94300E-19
 -1      2508 9.02304E-05-1.88941E-05-3.05943E-05-2.94431E-07 9.76889E-19 1.07679E-18
 -1      2509 9.02706E-05-1.89385E-05-3.05890E-05 8.01015E-07 3.33756E-19 6.32117E-19
 -1      2510 8.98507E-05-1.95378E-05-3.01107E-05 1.64293E-06 9.84405E-19 1.63262E-18
 -1      2511 9.05370E-05-1.93158E-05-3.05364E-05-2.61770E-06 7.56833E-19-1.16391E-18
 -1      2512 9.03196E-05-1.90125E-05-3.05850E-05-1.57763E-06 6.14742E-19-1.36050E-19
 -1      2513 8.97445E-05-1.94202E-05-3.01147E-05-1.05947E-06 1.72951E-18 3.85603E-19
 -1      2514 9.13005E-05-2.03472E-05-3.04114E-05-4.54062E-06 1.58239E-18-1.87993E-18
 -1      2515 9.08693E-05-1.97544E-05-3.05053E-05-3.72175E-06 1.32118E-18-2.19133E-18
 -1      2516 9.02523E-05-1.99970E-05-3.00887E-05-3.60610E-06 1.35753E-18-1.20318E-18
 -1      2517 9.24212E-05-2.18608E-05-3.02336E-05-5.85218E-06 6.81171E-19 1.48649E-18
 -1      2518 9.18290E-05-2.10427E-05-3.03624E-05-5.34325E-06 1.17368E-18-1.19937E-18
 -1      2519 9.12795E-05-2.11630E-05-3.00369E-05-5.63639E-06 1.38463E-18-2.03509E-18
 -1      2520 9.37344E-05-2.36339E-05-3.00301E-05-6.34930E-06-3.89463E-19 2.21408E-18
 -1      2521 9.30620E-05-2.26994E-05-3.01746E-05-6.23243E-06-2.81035E-20 2.48999E-18
 -1      2522 9.26724E-05-2.27399E-05-2.99674E-05-6.88771E-06 5.50317E-19 7.03345E-19
 -1      2523 9.50828E-05-2.54492E-05-2.98250E-05-5.98329E-06-2.34463E-18 3.46393E-18
 -1      2524 9.44081E-05-2.45021E-05-2.99686E-05-6.27378E-06-1.78928E-18 3.60669E-18
 -1      2525 9.42251E-05-2.44942E-05-2.98854E-05-7.19641E-06-1.45645E-18 2.22835E-18
 -1      2526 2.39897E-05-2.01160E-05-1.46894E-06 1.86678E-05-1.87088E-19 3.73796E-18
 -1      2527 1.91614E-05-1.92792E-05 3.25547E-07 4.26795E-06 1.63378E-19 1.88804E-18
 -1      2528 9.10408E-05-5.07906E-05-1.73254E-05 4.21500E-05-1.16615E-18 5.26389E-18
 -1      2529 7.24426E-05-4.44834E-05-1.17424E-05 4.19352E-05-1.46516E-18 5.51874E-18
 -1      2530 7.05699E-05-3.95222E-05-1.28004E-05 4.01028E-05-1.81879E-18 5.34679E-18
 -1      2531 9.41669E-05-2.76411E-05-2.84996E-05 4.86569E-07 8.82641E-19-3.87973E-19
 -1      2532 9.44724E-05-2.75125E-05-2.86533E-05 1.01649E-06 1.06781E-18-1.63115E-19
 -1      2533 9.47197E-05-2.76327E-05-2.87652E-05 5.46363E-07 1.04827E-18-7.19140E-19
 -1      2534 9.58671E-05-2.67041E-05-2.96337E-05-4.43542E-06-1.17517E-18 2.91419E-18
 -1      2535 2.03403E-05-1.94938E-05-1.22081E-07-7.98909E-06 1.19085E-18-4.51045E-19
 -1      2536 2.72538E-05-2.11777E-05-2.34211E-06-2.24861E-05 1.45393E-18-2.07015E-18
 -1      2537 2.75236E-05-1.55331E-05-4.51374E-06-2.55620E-06 1.06694E-18-3.69306E-19
 -1      2538 1.24687E-04-5.92367E-05-2.83066E-05 2.88710E-05 6.33581E-19 1.58596E-18
 -1      2539 1.11479E-04-5.74373E-05-2.29524E-05 3.37434E-05-3.07896E-19 2.85461E-18
 -1      2540 1.48349E-04-3.08482E-05-5.09084E-05-4.26123E-06 1.69915E-18 2.12521E-18
 -1      2541 1.46955E-04-3.85030E-05-4.67288E-05-1.09070E-06 1.95135E-18 1.51195E-18
 -1      2542 4.34260E-05-3.02021E-05-5.30181E-06-3.41001E-05 1.67945E-18-2.65058E-18
 -1      2543 6.14008E-05-3.91043E-05-9.47936E-06-4.22643E-05 1.09797E-18-2.29864E-18
 -1      2544 1.48144E-04-1.63875E-05-5.67753E-05 4.38003E-06 5.14573E-20-1.94373E-18
 -1      2545 1.45000E-04-1.15033E-05-5.77634E-05 2.17585E-06 4.97208E-19-1.70709E-18
 -1      2546 1.36961E-04-5.66356E-05-3.48315E-05 1.76264E-05-1.30856E-18-2.73274E-18
 -1      2547 1.24191E-04-5.78295E-05-2.83474E-05 2.60509E-05-1.96978E-18-2.60971E-18
 -1      2548 8.70220E-05-1.07131E-05-3.27390E-05-1.35044E-06-3.17805E-19-2.44701E-18
 -1      2549 8.70287E-05-1.08219E-05-3.26941E-05-2.46155E-06-5.59534E-19-2.35845E-18
 -1      2550 8.83648E-05-1.29630E-05-3.23173E-05-2.73586E-06-5.71799E-19-2.12644E-18
 -1      2551 8.83186E-05-1.26663E-05-3.24257E-05-7.56956E-07-2.89511E-19-2.37239E-18
 -1      2552 1.37365E-04-1.09248E-05-5.48647E-05 3.91417E-06 2.85598E-18 3.27548E-18
 -1      2553 1.38720E-04-9.92472E-06-5.57014E-05-1.08375E-06 3.46394E-18 3.01761E-18
 -1      2554 1.41932E-04-1.18539E-05-5.63761E-05-3.48804E-06-6.37816E-19-1.95863E-18
 -1      2555 1.43616E-04-1.59773E-05-5.52328E-05-6.77379E-06-1.35271E-18-1.83594E-18
 -1      2556 1.41444E-04-1.43619E-05-5.51907E-05-5.91189E-06 2.50658E-18 3.13381E-18
 -1      2557 1.45959E-04-2.18089E-05-5.35405E-05-6.29077E-06 1.92404E-18 2.43458E-18
 -1      2558 1.38853E-04-2.63927E-05-4.83245E-05-1.04281E-05 9.69006E-19 1.40449E-18
 -1      2559 1.46892E-04-2.86679E-05-5.08066E-05 6.56720E-06 2.18619E-18 3.29411E-18
 -1      2560 1.42697E-04-1.89997E-05-5.36490E-05 8.57539E-06 2.78504E-18 4.18413E-18
 -1      2561 1.44173E-04-4.72016E-05-4.17011E-05-5.99250E-06 9.35376E-19 1.02555E-18
 -1      2562 1.48379E-04-3.97234E-05-4.70694E-05 2.87703E-07 1.41296E-18 1.86983E-18
 -1      2563 1.28645E-04-5.70537E-05-3.06218E-05-2.22765E-05 5.49301E-19 4.50622E-19
 -1      2564 1.39199E-04-5.42239E-05-3.67046E-05-1.57185E-05 8.25645E-19 5.13937E-19
 -1      2565 9.53432E-05-5.26584E-05-1.81691E-05-3.89129E-05 8.62491E-19 1.90413E-18
 -1      2566 1.13309E-04-5.65300E-05-2.45731E-05-3.47511E-05 4.67774E-19 1.35208E-19
 -1      2567 6.04730E-05-3.88173E-05-9.00589E-06-4.02280E-05 3.74812E-20 2.19911E-18
 -1      2568 7.75632E-05-4.56302E-05-1.36618E-05-4.33305E-05 4.56763E-19 2.63057E-18
 -1      2569 2.80586E-05-2.45603E-05-1.33307E-06-2.42649E-05 8.93937E-19-1.36584E-19
 -1      2570 4.06885E-05-2.95243E-05-4.69600E-06-3.52869E-05 6.41416E-19 1.34276E-18
 -1      2571 1.85298E-05-1.71261E-05-3.06116E-07-4.02048E-07 4.74570E-19-3.64351E-18
 -1      2572 2.05389E-05-1.99811E-05-4.97795E-08-1.41760E-05 6.58145E-19-2.21669E-18
 -1      2573 3.06781E-05-1.92176E-05-4.44355E-06-1.97440E-05 4.02341E-19-1.10432E-18
 -1      2574 3.35365E-05-2.52922E-05-3.33925E-06 2.91293E-05 1.10961E-19-5.54277E-18
 -1      2575 2.40701E-05-1.93074E-05-1.66560E-06 1.64516E-05 7.89329E-19-4.96065E-18
 -1      2576 6.48560E-05-3.94339E-05-1.08096E-05 4.11213E-05-1.13926E-19-4.07465E-18
 -1      2577 4.72310E-05-3.25847E-05-6.03985E-06 3.55448E-05-5.10337E-20-4.87891E-18
 -1      2578 4.75431E-05-2.67753E-05-8.32438E-06 3.19470E-05 8.68209E-21-5.57009E-18
 -1      2579 1.08730E-04-5.57920E-05-2.27670E-05 3.65271E-05-1.33852E-18-2.76614E-18
 -1      2580 8.86301E-05-5.03475E-05-1.62221E-05 4.02368E-05-6.44592E-19-3.72560E-18
 -1      2581 1.47287E-04-4.42524E-05-4.46140E-05-3.05737E-07-1.61074E-18-2.00810E-18
 -1      2582 1.43047E-04-5.02135E-05-3.99085E-05 4.31449E-06-1.08010E-18-2.46402E-18
 -1      2583 1.22806E-04-5.86719E-05-2.74087E-05-2.76507E-05-8.61856E-20-4.21102E-18
 -1      2584 1.37366E-04-5.66423E-05-3.47588E-05-1.98025E-05-1.22121E-18-5.42927E-18
 -1      2585 1.47410E-04-2.39676E-05-5.34658E-05-7.66159E-06-1.70804E-18-2.08794E-18
 -1      2586 1.46287E-04-3.31056E-05-4.89092E-05-6.06967E-06-1.85881E-18-1.86750E-18
 -1      2587 1.35639E-04-1.96110E-05-4.99524E-05-1.10026E-05-1.60492E-18-1.71291E-18
 -1      2588 1.49893E-04-3.12134E-05-5.10881E-05 3.86367E-06 2.56863E-19-4.04818E-18
 -1      2589 1.49768E-04-2.44283E-05-5.42395E-05 5.39297E-06 7.03461E-19-3.22360E-18
 -1      2590 1.43796E-04-4.90930E-05-4.07371E-05-7.92156E-06-1.59782E-18-5.47522E-18
 -1      2591 1.50751E-04-4.13405E-05-4.71957E-05-2.19430E-06-1.11353E-18-5.78418E-18
 -1      2592 1.44512E-04-3.76503E-05-4.58874E-05 6.92587E-06-5.66665E-19-3.74113E-18
 -1      2593 8.04623E-05-4.81606E-05-1.36753E-05-4.13936E-05 1.09352E-18-2.91234E-18
 -1      2594 1.01568E-04-5.45221E-05-2.02853E-05-3.88491E-05 1.16742E-18-4.08826E-18
 -1      2595 7.81565E-05-4.34442E-05-1.43294E-05-4.01827E-05 1.89481E-18-3.25801E-18
 -1      2596 9.29827E-05-1.95555E-05-3.15165E-05-1.15002E-05-1.97197E-18 1.29834E-19
 -1      2597 9.33582E-05-2.28171E-05-3.02518E-05-7.76664E-06-1.81674E-18 3.11857E-19
 -1      2598 9.30489E-05-2.20764E-05-3.04058E-05-7.40609E-06-1.70703E-18-1.32049E-19
 -1      2599 9.13025E-05-1.73105E-05-3.17363E-05-1.10444E-05-1.94307E-18-4.42681E-19
 -1      2600 9.70031E-05-2.52910E-05-3.07601E-05 7.69140E-06 1.82506E-18 2.18093E-19
 -1      2601 9.81425E-05-2.39706E-05-3.18099E-05 1.07979E-05 1.98624E-18 4.19228E-19
 -1      2602 9.64999E-05-2.14646E-05-3.22144E-05 1.20121E-05 2.11730E-18-1.44207E-19
 -1      2603 9.64440E-05-2.43272E-05-3.09405E-05 7.80359E-06 1.79758E-18-3.52156E-19
 -1      2604 1.31392E-04-1.21610E-05-5.14353E-05-4.59200E-06 2.73803E-18 1.43466E-18
 -1      2605 8.93754E-05-1.48058E-05-3.19533E-05-6.58051E-06-1.26863E-18-1.70772E-18
 -1      2606 8.82433E-05-1.29594E-05-3.23151E-05-7.73934E-06-1.36471E-18-1.78416E-18
 -1      2607 8.87830E-05-1.37130E-05-3.22331E-05-8.89585E-06-1.58687E-18-1.44996E-18
 -1      2608 9.52233E-05-2.70944E-05-2.92105E-05 2.01792E-06 1.25461E-18-5.87540E-19
 -1      2609 9.47397E-05-1.92108E-05-3.24154E-05 1.17272E-05 2.00911E-18-7.95867E-19
 -1      2610 8.94511E-05-1.47121E-05-3.20823E-05-9.57413E-06-1.71517E-18-1.20496E-18
 -1      2611 9.03493E-05-1.59471E-05-3.19644E-05-1.05860E-05-1.88772E-18-8.39416E-19
 -1      2612 9.17950E-05-1.88089E-05-3.12663E-05-8.96378E-06-1.81758E-18-6.13566E-19
 -1      2613 9.04305E-05-1.65060E-05-3.16681E-05-8.08012E-06-1.60288E-18-1.18100E-18
 -1      2614 1.33139E-04-5.89614E-05-3.17729E-05 1.62741E-05 2.65386E-19 1.24302E-18
 -1      2615 3.90706E-05-2.24297E-05-6.56858E-06 2.54506E-05-5.83606E-19 3.64309E-18
 -1      2616 4.35771E-05-2.46399E-05-7.52868E-06-2.84771E-05 2.11144E-18-2.17476E-18
 -1      2617 1.40644E-04-5.52797E-05-3.66582E-05-7.60947E-06-1.34109E-18-4.97145E-18
 -1      2618 9.63034E-05-2.72930E-05-2.95713E-05 4.46149E-06-1.43439E-18-7.83931E-19
 -1      2619 1.04594E-04-5.47544E-05-2.10248E-05 3.56700E-05-1.21337E-18 3.70615E-18
 -1      2620 9.59659E-05-2.67028E-05-2.96838E-05 5.02337E-06-9.07989E-19 1.61934E-18
 -1      2621 9.61419E-05-2.67265E-05-2.97449E-05 6.09479E-06-6.07688E-19 4.35795E-19
 -1      2622 1.15702E-04-5.86756E-05-2.42944E-05-3.15336E-05 1.07192E-18-4.22881E-18
 -1      2623 1.25254E-04-6.01549E-05-2.81375E-05-2.15526E-05 7.78106E-19-5.15568E-18
 -1      2624 1.07624E-04-5.52437E-05-2.20146E-05-3.35319E-05 2.41807E-18-4.04077E-18
 -1      2625 1.41858E-04-3.83492E-05-4.45014E-05-9.93668E-06-1.62842E-18-2.36534E-18
 -1      2626 1.29584E-04-1.92326E-05-4.77767E-05 1.12101E-05 1.70254E-18 4.18339E-18
 -1      2627 1.34719E-04-1.48292E-05-5.18601E-05 8.06560E-06 2.16459E-18 4.06825E-18
 -1      2628 1.24595E-04-1.18927E-05-4.88326E-05 6.66076E-06 1.87448E-18 3.02092E-18
 -1      2629 8.15055E-05-4.58812E-05-1.48953E-05 4.02974E-05-4.48716E-19-3.96464E-18
 -1      2630 7.47750E-05-3.92417E-05-1.46597E-05 3.85502E-05-3.67295E-19-4.60691E-18
 -1      2631 9.57923E-05-5.08972E-05-1.94720E-05 3.67614E-05-3.10120E-19-3.63197E-18
 -1      2632 1.42936E-04-4.55222E-05-4.17701E-05-2.54297E-06 1.09204E-18 9.90182E-19
 -1      2633 1.33724E-04-1.08886E-05-5.29502E-05-1.24460E-06-1.74277E-19-7.96211E-19
 -1      2634 2.57235E-05-1.63652E-05-3.45660E-06 8.69688E-06 1.31925E-19-4.52739E-18
 -1      2635 2.90993E-05-1.30120E-05-6.31879E-06 9.46592E-07-4.06708E-19-3.48596E-18
 -1      2636 3.39644E-05-1.57402E-05-7.49714E-06 1.64905E-05 2.48816E-21-4.76710E-18
 -1      2637 5.67069E-05-3.32922E-05-9.60003E-06-3.76474E-05 1.35949E-19 2.46381E-18
 -1      2638 1.20034E-04-5.90472E-05-2.59088E-05 2.74410E-05-1.25869E-18-2.35348E-18
 -1      2639 9.26901E-05-5.04057E-05-1.77310E-05-3.88670E-05 1.63266E-19 1.98166E-18
 -1      2640 1.24039E-04-5.89454E-05-2.77788E-05-2.49636E-05 3.03238E-19 1.04947E-18
 -1      2641 1.41057E-04-5.24788E-05-3.78936E-05-4.14989E-06 4.74656E-19 1.77072E-18
 -1      2642 1.39101E-04-5.51480E-05-3.60702E-05 7.01584E-06-9.31869E-19-1.99752E-18
 -1      2643 1.39957E-04-1.94673E-05-5.18122E-05 9.06915E-06 7.51106E-19-1.63139E-18
 -1      2644 9.51555E-05-2.07289E-05-3.18526E-05 9.80491E-06 1.82098E-18-8.52122E-19
 -1      2645 1.42038E-04-3.48082E-05-4.60839E-05 8.42477E-06 1.66982E-18 3.98571E-18
 -1      2646 9.66982E-05-2.74096E-05-2.96752E-05-5.14911E-06-4.22714E-19 4.10796E-18
 -1      2647 9.57359E-05-2.62540E-05-2.97841E-05-5.75260E-06-1.88225E-18 3.72654E-18
 -1      2648 9.58396E-05-2.62306E-05-2.98303E-05-6.81129E-06-2.90764E-18 4.71729E-18
 -1      2649 9.74131E-05-2.77796E-05-2.98289E-05-5.88871E-06-1.73957E-18 4.41246E-18
 -1      2650 9.70214E-05-2.73540E-05-2.98660E-05-7.04346E-06-2.13024E-18 7.68600E-18
 -1      2651 9.02087E-05-1.51440E-05-3.21928E-05 3.38008E-06 4.47324E-19-2.31618E-18
 -1      2652 8.99252E-05-1.48586E-05-3.21916E-05 2.44887E-06 2.11605E-19-2.27311E-18
 -1      2653 8.96944E-05-1.46376E-05-3.21869E-05 1.61236E-06 8.51365E-21-2.37602E-18
 -1      2654 8.95331E-05-1.45301E-05-3.21633E-05 6.58516E-07-1.28481E-19-2.29900E-18
 -1      2655 9.09238E-05-1.65344E-05-3.18683E-05 1.84579E-06 1.26766E-19-2.16003E-18
 -1      2656 9.21747E-05-1.75896E-05-3.20032E-05 6.64604E-06 1.19258E-18-1.89698E-18
 -1      2657 9.15532E-05-1.67781E-05-3.20689E-05 5.81015E-06 1.04655E-18-2.06653E-18
 -1      2658 9.37971E-05-1.98589E-05-3.17308E-05 7.75584E-06 1.50482E-18-1.46737E-18
 -1      2659 9.29048E-05-1.85813E-05-3.18700E-05 7.18320E-06 1.32122E-18-1.66620E-18
 -1      2660 9.35169E-05-1.99184E-05-3.15192E-05 5.91496E-06 1.21000E-18-1.64547E-18
 -1      2661 9.56446E-05-2.55470E-05-3.00544E-05 4.12134E-06 1.45670E-18-9.12071E-19
 -1      2662 9.59974E-05-2.46992E-05-3.05242E-05 5.75146E-06 1.52590E-18-7.97683E-19
 -1      2663 1.37794E-04-4.08813E-05-4.17905E-05 9.51279E-06 1.59761E-18 2.75709E-18
 -1      2664 1.33669E-04-3.05124E-05-4.48726E-05 1.30355E-05 2.25914E-18 4.59769E-18
 -1      2665 9.51236E-05-2.20336E-05-3.13312E-05 7.98031E-06 1.62117E-18-9.47178E-19
 -1      2666 9.34738E-05-2.53923E-05-2.91529E-05-2.58603E-06-1.08035E-18-3.20444E-19
 -1      2667 9.33191E-05-2.59608E-05-2.88783E-05-1.61080E-06-9.98084E-19-3.36930E-19
 -1      2668 9.33613E-05-2.64813E-05-2.86394E-05-8.76627E-07-9.17518E-19-3.27810E-19
 -1      2669 9.32428E-05-2.68384E-05-2.84652E-05-2.84414E-07-7.92126E-19-2.48542E-19
 -1      2670 9.36463E-05-2.58400E-05-2.90657E-05-1.48837E-06-1.01538E-18-2.35818E-19
 -1      2671 9.32255E-05-2.71472E-05-2.83035E-05 1.71063E-07-6.73548E-19-2.01672E-19
 -1      2672 9.31640E-05-2.73756E-05-2.81979E-05 5.12062E-07-5.67755E-19-1.37175E-19
 -1      2673 9.36825E-05-2.68421E-05-2.86534E-05-2.37304E-07-7.86846E-19-3.37307E-19
 -1      2674 9.31408E-05-2.75666E-05-2.80929E-05 7.74077E-07-5.67348E-19-1.99604E-19
 -1      2675 9.31303E-05-2.77196E-05-2.80339E-05 9.49416E-07-6.00785E-19-4.03342E-19
 -1      2676 9.36553E-05-2.74628E-05-2.83751E-05 5.34473E-07-6.58251E-19-2.65194E-19
 -1      2677 9.31176E-05-2.78395E-05-2.79699E-05 1.07927E-06-6.83031E-19-4.08928E-19
 -1      2678 9.31461E-05-2.79449E-05-2.79426E-05 1.14906E-06-6.87059E-19-6.12368E-19
 -1      2679 9.36313E-05-2.78557E-05-2.81952E-05 9.65414E-07-8.35876E-19-3.49649E-19
 -1      2680 9.31488E-05-2.80202E-05-2.79084E-05 1.19533E-06-6.85965E-19-5.66065E-19
 -1      2681 9.32069E-05-2.80940E-05-2.79034E-05 1.20313E-06-7.04385E-19-6.78838E-19
 -1      2682 9.36296E-05-2.81026E-05-2.80874E-05 1.16986E-06-6.41910E-19-4.39682E-19
 -1      2683 9.32252E-05-2.81393E-05-2.78917E-05 1.20349E-06-5.96762E-19-4.43050E-19
 -1      2684 9.33074E-05-2.81899E-05-2.79046E-05 1.18384E-06-5.18093E-19-2.00315E-19
 -1      2685 9.36556E-05-2.82517E-05-2.80337E-05 1.23791E-06-5.44399E-19-1.82266E-19
 -1      2686 9.33371E-05-2.82098E-05-2.79121E-05 1.16830E-06-5.87137E-19 2.69657E-20
 -1      2687 9.34400E-05-2.82364E-05-2.79435E-05 1.15260E-06-3.05060E-19 1.54282E-20
 -1      2688 9.37065E-05-2.83263E-05-2.80230E-05 1.24094E-06-3.95425E-19 4.75027E-19
 -1      2689 9.34677E-05-2.82219E-05-2.79683E-05 1.14269E-06-2.17660E-19 1.25752E-19
 -1      2690 9.35750E-05-2.82119E-05-2.80141E-05 1.15841E-06-2.20999E-19-2.13423E-19
 -1      2691 9.37674E-05-2.83258E-05-2.80489E-05 1.23325E-06-2.73122E-19 1.94623E-19
 -1      2692 9.35811E-05-2.81323E-05-2.80388E-05 1.16740E-06-4.80321E-19-5.95223E-20
 -1      2693 9.36246E-05-2.80388E-05-2.80588E-05 1.18486E-06-4.21841E-19-2.08344E-19
 -1      2694 9.38026E-05-2.82298E-05-2.80935E-05 1.24024E-06-4.81422E-19-6.98868E-20
 -1      2695 9.35865E-05-2.79060E-05-2.80472E-05 1.15487E-06-6.76634E-20-2.62713E-20
 -1      2696 9.35816E-05-2.78023E-05-2.80079E-05 1.08981E-06-2.53488E-19 7.89329E-20
 -1      2697 9.37720E-05-2.80384E-05-2.81108E-05 1.21182E-06-3.20331E-19 4.17203E-19
 -1      2698 9.37571E-05-2.77887E-05-2.78976E-05 1.08511E-06-6.58118E-19 3.37437E-19
 -1      2699 9.39917E-05-2.82322E-05-2.78687E-05 7.07901E-07-4.61527E-19 1.49925E-19
 -1      2700 9.38112E-05-2.79551E-05-2.80263E-05 1.10191E-06-4.19493E-19 5.38528E-19
 -1      2701 9.40974E-05-2.80785E-05-2.79814E-05 1.20925E-06-4.22709E-19 2.55169E-19
 -1      2702 9.45836E-05-2.80048E-05-2.81491E-05 1.39662E-06-4.46175E-19 9.88911E-20
 -1      2703 9.39610E-05-2.78013E-05-2.79209E-05 1.33806E-06-4.87190E-19 6.49886E-19
 -1      2704 9.45291E-05-2.80556E-05-2.82449E-05 2.00474E-06-4.21769E-19 7.85623E-20
 -1      2705 9.51992E-05-2.78230E-05-2.88189E-05 2.44819E-06-7.44860E-20 6.31040E-20
 -1      2706 9.32055E-05-2.73572E-05-2.77383E-05 1.48134E-06-4.94800E-19 2.69356E-19
 -1      2707 9.52609E-05-2.81007E-05-2.91892E-05 2.00799E-06 4.34634E-20-5.45277E-20
 -1      2708 9.58394E-05-2.82163E-05-2.90703E-05 2.26271E-06-1.47040E-19-9.80441E-20
 -1      2709 9.61509E-05-2.86253E-05-2.88943E-05 2.06554E-06-3.51413E-19 5.41254E-19
 -1      2710 9.57666E-05-2.80932E-05-2.91476E-05 2.49351E-06-3.68790E-19-2.54692E-19
 -1      2711 9.60011E-05-2.80494E-05-2.92061E-05 2.72834E-06-5.77346E-19-7.12169E-20
 -1      2712 9.54291E-05-2.78552E-05-2.90420E-05 2.27014E-06-1.59030E-19 7.72918E-21
 -1      2713 9.60417E-05-2.79855E-05-2.92491E-05 3.02831E-06-6.66602E-19-1.47768E-20
 -1      2714 9.62537E-05-2.79704E-05-2.93079E-05 3.32889E-06-2.30433E-19-6.36850E-19
 -1      2715 9.56700E-05-2.77163E-05-2.92384E-05 3.05426E-06-7.18310E-19-3.29152E-19
 -1      2716 9.62448E-05-2.78754E-05-2.93357E-05 3.67239E-06 1.75197E-19-9.00757E-19
 -1      2717 9.64843E-05-2.78551E-05-2.94178E-05 4.05519E-06 1.32250E-20-7.60652E-19
 -1      2718 9.57076E-05-2.75473E-05-2.92740E-05 3.65669E-06-3.34856E-19-1.43830E-19
 -1      2719 9.65142E-05-2.77791E-05-2.94686E-05 4.49795E-06-3.88179E-20-2.16769E-19
 -1      2720 9.68120E-05-2.78004E-05-2.95683E-05 4.94266E-06-1.52904E-20-2.75112E-19
 -1      2721 9.57232E-05-2.73274E-05-2.93316E-05 4.47519E-06 3.59489E-19-3.46327E-19
 -1      2722 9.68953E-05-2.77747E-05-2.96272E-05 5.45407E-06-1.64860E-19-2.34950E-19
 -1      2723 9.72806E-05-2.78751E-05-2.97342E-05 5.93544E-06-7.46841E-21-5.85469E-19
 -1      2724 9.58351E-05-2.71936E-05-2.94233E-05 5.45365E-06-7.70560E-21 2.92715E-20
 -1      2725 9.74455E-05-2.79454E-05-2.97868E-05 6.48829E-06 1.32647E-19-6.61050E-19
 -1      2726 9.79514E-05-2.81783E-05-2.98922E-05 6.96195E-06 4.71079E-19-8.00246E-19
 -1      2727 9.60786E-05-2.72261E-05-2.95123E-05 6.54316E-06-8.08089E-20 8.81418E-19
 -1      2728 9.82563E-05-2.84156E-05-2.99283E-05 7.51487E-06 4.99007E-19-7.41022E-19
 -1      2729 9.89336E-05-2.88587E-05-3.00235E-05 7.90852E-06 4.18430E-19-6.46177E-19
 -1      2730 9.65371E-05-2.75525E-05-2.95725E-05 7.68275E-06 4.77124E-19 5.02301E-19
 -1      2731 9.94805E-05-2.93670E-05-3.00369E-05 8.39163E-06 5.37435E-19-9.87703E-19
 -1      2732 1.00404E-04-3.01234E-05-3.01157E-05 8.59299E-06 9.17248E-19-8.94683E-19
 -1      2733 9.73662E-05-2.83668E-05-2.95867E-05 8.77392E-06 1.85427E-19 1.37864E-20
 -1      2734 1.01350E-04-3.10361E-05-3.01087E-05 8.88803E-06 8.81442E-19-1.34590E-18
 -1      2735 1.02610E-04-3.22137E-05-3.01736E-05 8.73297E-06 3.68344E-19-1.46074E-18
 -1      2736 9.88196E-05-2.99356E-05-2.95511E-05 9.65065E-06 1.02372E-18-8.34637E-19
 -1      2737 1.04163E-04-3.36601E-05-3.01694E-05 8.64252E-06 4.67614E-19-1.29026E-18
 -1      2738 1.05830E-04-3.53056E-05-3.02436E-05 7.91105E-06 2.82388E-19-6.65784E-19
 -1      2739 1.01261E-04-3.25636E-05-2.94922E-05 1.00306E-05 8.48723E-19-1.46054E-18
 -1      2740 1.08191E-04-3.73115E-05-3.03060E-05 7.11945E-06 1.63494E-19-1.18284E-19
 -1      2741 1.10206E-04-3.92563E-05-3.04503E-05 5.56436E-06 2.33636E-19 7.83983E-19
 -1      2742 1.05116E-04-3.64571E-05-2.95014E-05 9.43893E-06 6.46097E-19-3.14097E-19
 -1      2743 1.13387E-04-4.15223E-05-3.07115E-05 3.62971E-06 4.09648E-19 1.13651E-18
 -1      2744 1.15374E-04-4.31148E-05-3.10384E-05 1.10783E-06 6.58409E-19 1.50851E-18
 -1      2745 1.10657E-04-4.13723E-05-2.97868E-05 7.11661E-06 7.07995E-19 3.95995E-19
 -1      2746 1.18808E-04-4.46671E-05-3.17158E-05-2.28208E-06 6.36093E-19 1.28150E-18
 -1      2747 1.19999E-04-4.46466E-05-3.23719E-05-5.45018E-06 6.32229E-19 1.39493E-18
 -1      2748 1.17423E-04-4.59001E-05-3.07335E-05 2.15207E-06 7.99237E-19 2.04072E-18
 -1      2749 1.22256E-04-4.38109E-05-3.36954E-05-9.73266E-06 1.73642E-19 1.23076E-18
 -1      2750 1.21748E-04-4.07275E-05-3.47543E-05-1.22429E-05 7.70985E-19 6.47183E-19
 -1      2751 1.23369E-04-4.69335E-05-3.28832E-05-5.69456E-06 4.10639E-19 1.79481E-18
 -1      2752 1.21179E-04-3.62296E-05-3.66852E-05-1.51929E-05 8.50024E-19 1.62313E-19
 -1      2753 1.18745E-04-3.02168E-05-3.79771E-05-1.49703E-05 1.51407E-19-1.42778E-19
 -1      2754 1.25700E-04-4.10728E-05-3.63607E-05-1.31510E-05 1.21060E-19 2.48419E-19
 -1      2755 1.12719E-04-1.72690E-05-4.11823E-05-1.30744E-06-1.06901E-18-1.77730E-18
 -1      2756 1.13102E-04-1.82061E-05-4.10421E-05 4.43398E-06-6.71327E-19-1.58307E-18
 -1      2757 1.15146E-04-2.22284E-05-3.99322E-05 1.04650E-05 3.86406E-19-1.22331E-18
 -1      2758 1.17607E-04-2.78336E-05-3.88671E-05 1.35099E-05 8.74456E-19-7.67432E-19
 -1      2759 1.18559E-04-1.85071E-05-4.31949E-05 8.51140E-06 1.43572E-19-7.37025E-19
 -1      2760 1.19847E-04-3.38224E-05-3.68717E-05 1.40648E-05 2.35581E-20-6.76094E-19
 -1      2761 1.22103E-04-3.93271E-05-3.55781E-05 1.34204E-05-8.32686E-19-9.48657E-19
 -1      2762 1.23244E-04-3.14899E-05-3.94976E-05 1.46178E-05 3.77194E-19 4.58748E-19
 -1      2763 1.21268E-04-4.27083E-05-3.37980E-05 9.28553E-06-2.00350E-19-1.25719E-18
 -1      2764 1.21222E-04-4.46093E-05-3.28482E-05 6.45654E-06-5.15631E-20-1.40750E-18
 -1      2765 1.25560E-04-4.38622E-05-3.52707E-05 1.04215E-05-7.38745E-19-1.82888E-18
 -1      2766 1.18543E-04-4.46714E-05-3.17227E-05 2.28336E-06 4.58642E-19-5.14533E-19
 -1      2767 1.16948E-04-4.40772E-05-3.11581E-05-8.35938E-07 4.16333E-19-4.09607E-19
 -1      2768 1.21724E-04-4.70029E-05-3.20259E-05 2.49231E-06 8.20603E-19-1.92672E-18
 -1      2769 1.13490E-04-4.21831E-05-3.06255E-05-3.89205E-06-7.99956E-19-9.64486E-19
 -1      2770 1.11357E-04-4.03495E-05-3.03492E-05-6.19827E-06-1.05778E-18-1.51168E-18
 -1      2771 1.15273E-04-4.49669E-05-3.02509E-05-5.05318E-06-6.33832E-19-1.35510E-18
 -1      2772 1.08398E-04-3.81124E-05-3.01577E-05-7.82253E-06 1.98666E-19-2.48050E-19
 -1      2773 1.06397E-04-3.61915E-05-3.00250E-05-9.17936E-06 1.64495E-18 9.50993E-20
 -1      2774 1.08786E-04-4.00792E-05-2.95405E-05-9.34435E-06 2.82265E-19-3.73870E-19
 -1      2775 1.04265E-04-3.43143E-05-2.99933E-05-9.80640E-06 2.49610E-18-4.54334E-19
 -1      2776 1.02630E-04-3.27294E-05-2.99171E-05-1.03860E-05 2.97146E-18-3.89575E-19
 -1      2777 1.03723E-04-3.53716E-05-2.93632E-05-1.12530E-05 1.85515E-18 1.05760E-18
 -1      2778 1.01243E-04-3.13828E-05-2.99416E-05-1.03777E-05 2.94776E-18-1.10618E-18
 -1      2779 9.99859E-05-3.02199E-05-2.98768E-05-1.04065E-05 1.11673E-18-1.10088E-18
 -1      2780 1.00264E-04-3.17314E-05-2.94143E-05-1.16106E-05 2.39345E-18 2.86161E-19
 -1      2781 9.91138E-05-2.93129E-05-2.99108E-05-1.00270E-05 6.31860E-19-7.89413E-19
 -1      2782 9.81472E-05-2.84764E-05-2.98462E-05-9.67962E-06-3.83284E-19 2.07976E-19
 -1      2783 9.80563E-05-2.92108E-05-2.95285E-05-1.10695E-05 1.05524E-18-5.97177E-19
 -1      2784 9.75750E-05-2.78450E-05-2.98790E-05-9.06865E-06-1.04269E-19 1.22532E-18
 -1      2785 9.68193E-05-2.72168E-05-2.98214E-05-8.44674E-06-1.30344E-19 3.83294E-18
 -1      2786 9.66473E-05-2.74954E-05-2.96487E-05-9.98659E-06 5.69614E-19 9.95453E-19
 -1      2787 9.47622E-05-2.82170E-05-2.85192E-05-7.13841E-07 6.47878E-19-8.63307E-19
 -1      2788 9.48005E-05-2.80991E-05-2.85751E-05-5.40117E-07 6.59685E-19-8.07598E-19
 -1      2789 9.65467E-05-2.68815E-05-2.98476E-05-7.92886E-06-1.43668E-18 4.34798E-18
 -1      2790 9.61051E-05-2.65272E-05-2.98119E-05-7.37842E-06-1.70697E-18 4.92729E-18
 -1      2791 9.53047E-05-2.57353E-05-2.98138E-05-7.67713E-06-2.18566E-18 2.38654E-18
 -1      2792 9.58231E-05-2.64350E-05-2.97465E-05-8.79898E-06 4.62438E-19 1.21509E-18
 -1      2793 9.48782E-05-2.79557E-05-2.86820E-05-2.67805E-07 6.24004E-19-8.67714E-19
 -1      2794 9.49873E-05-2.77769E-05-2.87860E-05 7.23376E-08 7.79816E-19-7.75793E-19
 -1      2795 9.52486E-05-2.79909E-05-2.88329E-05-2.55454E-07 6.92562E-19-8.26359E-19
 -1      2796 9.47164E-05-2.84789E-05-2.83832E-05-9.71375E-07 2.12394E-19-6.09938E-19
 -1      2797 9.46850E-05-2.84274E-05-2.83916E-05-9.63918E-07 2.89280E-19-8.18760E-19
 -1      2798 9.47347E-05-2.85324E-05-2.83558E-05-9.37900E-07 5.83741E-19-6.34123E-19
 -1      2799 9.46982E-05-2.85012E-05-2.83614E-05-9.63780E-07 3.51339E-19-5.75269E-19
 -1      2800 9.50213E-05-2.85909E-05-2.84689E-05-9.66574E-07 2.57941E-19-8.80455E-19
 -1      2801 9.47305E-05-2.85412E-05-2.83125E-05-8.47165E-07 6.93971E-19-8.82979E-19
 -1      2802 9.47281E-05-2.85395E-05-2.83354E-05-8.97691E-07 7.68176E-19-7.42967E-19
 -1      2803 9.49960E-05-2.86403E-05-2.84238E-05-9.22784E-07 6.68382E-19-4.95891E-19
 -1      2804 9.48939E-05-2.87754E-05-2.82776E-05-5.52817E-07 3.89423E-19-8.28134E-19
 -1      2805 9.48608E-05-2.85841E-05-2.82869E-05-8.11743E-07 5.14215E-19-8.19425E-19
 -1      2806 9.50308E-05-2.87095E-05-2.83864E-05-8.19770E-07 5.63568E-19-3.57931E-19
 -1      2807 9.51327E-05-2.86247E-05-2.85862E-05-7.75142E-07 2.88243E-19-6.55180E-19
 -1      2808 9.51346E-05-2.87066E-05-2.84180E-05-6.73006E-07 2.96184E-19-7.80223E-19
 -1      2809 9.51464E-05-2.86847E-05-2.84607E-05-8.92383E-07 2.96170E-19-2.25489E-19
 -1      2810 9.52884E-05-2.85927E-05-2.85987E-05-8.10646E-07 9.40240E-20-1.09331E-18
 -1      2811 9.52731E-05-2.86549E-05-2.85850E-05-7.95248E-07 4.01054E-19-6.71552E-19
 -1      2812 9.52489E-05-2.86264E-05-2.85694E-05-8.34864E-07 3.36709E-19 8.59871E-20
 -1      2813 9.53350E-05-2.84410E-05-2.86409E-05-9.48461E-07 2.87429E-19-1.23189E-18
 -1      2814 9.52854E-05-2.84987E-05-2.86108E-05-8.55940E-07 1.41699E-19-1.26318E-18
 -1      2815 9.52960E-05-2.85202E-05-2.86003E-05-8.96405E-07 3.80113E-19-6.62769E-19
 -1      2816 9.55591E-05-2.84666E-05-2.87232E-05-1.16143E-06 8.80980E-19-1.27602E-18
 -1      2817 9.54345E-05-2.84470E-05-2.86780E-05-1.07675E-06 4.71347E-19-1.20798E-18
 -1      2818 9.53599E-05-2.83428E-05-2.86530E-05-1.14919E-06 3.91819E-19-7.59696E-19
 -1      2819 9.57363E-05-2.84256E-05-2.88336E-05-1.37034E-06 1.60837E-19-3.92075E-19
 -1      2820 9.56067E-05-2.84380E-05-2.87756E-05-1.25098E-06 5.66943E-19-9.11877E-19
 -1      2821 9.55243E-05-2.83853E-05-2.87466E-05-1.32003E-06 3.81979E-19-4.28208E-19
 -1      2822 9.59337E-05-2.83542E-05-2.89535E-05-1.70450E-06-4.07947E-19 4.23078E-19
 -1      2823 9.57801E-05-2.83735E-05-2.88880E-05-1.52740E-06 1.91786E-20 1.18615E-19
 -1      2824 9.55962E-05-2.82617E-05-2.88525E-05-1.57333E-06-2.34847E-19 1.69278E-19
 -1      2825 9.61930E-05-2.82939E-05-2.90910E-05-2.16471E-06-5.44052E-19 3.40515E-19
 -1      2826 9.59981E-05-2.83032E-05-2.90136E-05-1.92919E-06-3.19496E-19 4.03223E-19
 -1      2827 9.56988E-05-2.81214E-05-2.89626E-05-1.97547E-06-4.23221E-19 2.83270E-19
 -1      2828 9.65338E-05-2.82621E-05-2.92499E-05-2.74452E-06-2.57733E-19-8.67094E-19
 -1      2829 9.62851E-05-2.82517E-05-2.91589E-05-2.45251E-06-2.42715E-19-4.35816E-19
 -1      2830 9.58521E-05-2.79933E-05-2.90846E-05-2.50998E-06 9.70157E-20 1.19887E-19
 -1      2831 9.69730E-05-2.82771E-05-2.94310E-05-3.43391E-06-2.31713E-19-1.10651E-18
 -1      2832 9.66595E-05-2.82364E-05-2.93258E-05-3.09168E-06-3.10679E-19-1.10643E-18
 -1      2833 9.60671E-05-2.78937E-05-2.92197E-05-3.16930E-06-9.04527E-20-9.23267E-19
 -1      2834 9.75319E-05-2.83672E-05-2.96319E-05-4.21176E-06 6.32907E-20-8.21650E-19
 -1      2835 9.71417E-05-2.82801E-05-2.95133E-05-3.83303E-06-2.11468E-19-8.83310E-19
 -1      2836 9.63589E-05-2.78453E-05-2.93660E-05-3.94239E-06-2.67961E-19-8.41640E-19
 -1      2837 9.82425E-05-2.85789E-05-2.98464E-05-5.03661E-06 6.23719E-20-1.09498E-18
 -1      2838 9.77605E-05-2.84201E-05-2.97175E-05-4.64759E-06 7.61738E-20-8.05860E-19
 -1      2839 9.67531E-05-2.78870E-05-2.95180E-05-4.80725E-06 1.11655E-19-1.23643E-18
 -1      2840 9.91530E-05-2.89851E-05-3.00648E-05-5.83313E-06-3.27755E-19-1.13285E-18
 -1      2841 9.85602E-05-2.87170E-05-2.99308E-05-5.47984E-06-2.63198E-19-4.93041E-19
 -1      2842 9.72957E-05-2.80847E-05-2.96676E-05-5.72064E-06 1.65168E-20-3.85284E-20
 -1      2843 1.00335E-04-2.96895E-05-3.02737E-05-6.47638E-06-5.21317E-19-6.48998E-19
 -1      2844 9.96073E-05-2.92614E-05-3.01423E-05-6.23260E-06-4.03114E-19-9.41807E-19
 -1      2845 9.80622E-05-2.85403E-05-2.98041E-05-6.60491E-06-5.37493E-19 4.00347E-19
 -1      2846 1.01885E-04-3.08226E-05-3.04602E-05-6.77423E-06 6.57331E-20-1.97425E-19
 -1      2847 1.00997E-04-3.01753E-05-3.03397E-05-6.74901E-06 9.15079E-20-3.73291E-19
 -1      2848 9.91703E-05-2.93972E-05-2.99174E-05-7.33137E-06-1.65996E-19 9.39808E-19
 -1      2849 1.03917E-04-3.25107E-05-3.06196E-05-6.45349E-06 1.08428E-18-4.08480E-19
 -1      2850 1.02852E-04-3.15983E-05-3.05149E-05-6.79302E-06 6.42231E-19-4.13504E-19
 -1      2851 1.00787E-04-3.08312E-05-3.00044E-05-7.69930E-06 4.07589E-19 5.06743E-19
 -1      2852 1.06513E-04-3.47910E-05-3.07714E-05-5.16312E-06 1.65535E-20-3.13033E-19
 -1      2853 1.05292E-04-3.36326E-05-3.06767E-05-6.03617E-06 3.45654E-19-3.62104E-19
 -1      2854 1.03116E-04-3.30050E-05-3.00823E-05-7.41117E-06 6.89541E-19 7.84610E-20
 -1      2855 1.09597E-04-3.74332E-05-3.09801E-05-2.53133E-06-6.49211E-19-1.14773E-19
 -1      2856 1.08346E-04-3.62128E-05-3.08691E-05-4.07669E-06-3.19160E-19 7.75449E-20
 -1      2857 1.06325E-04-3.59402E-05-3.02102E-05-6.05569E-06-3.39604E-19 7.48230E-19
 -1      2858 1.12734E-04-3.96819E-05-3.13730E-05 1.63564E-06 1.80130E-19 8.89982E-19
 -1      2859 1.11751E-04-3.88664E-05-3.11926E-05-5.61475E-07-3.60500E-19 5.93773E-19
 -1      2860 1.10357E-04-3.92628E-05-3.05154E-05-3.15085E-06-6.35809E-19 1.72152E-18
 -1      2861 1.14952E-04-4.01282E-05-3.21249E-05 6.91878E-06-1.55668E-19 8.76951E-19
 -1      2862 1.14716E-04-4.04702E-05-3.18073E-05 4.46352E-06 1.74414E-19 1.02502E-18
 -1      2863 1.14600E-04-4.18532E-05-3.12045E-05 1.59610E-06-1.99443E-19 1.56320E-18
 -1      2864 1.14924E-04-3.70928E-05-3.33649E-05 1.16882E-05 1.68401E-19 9.03422E-19
 -1      2865 1.15858E-04-3.92758E-05-3.28760E-05 9.98007E-06 3.39121E-19 1.44679E-18
 -1      2866 1.17675E-04-4.17988E-05-3.25164E-05 7.72058E-06-2.13537E-19 1.33404E-18
 -1      2867 1.12137E-04-3.04566E-05-3.49569E-05 1.28889E-05 4.86620E-19 1.18639E-18
 -1      2868 1.13987E-04-3.41273E-05-3.43874E-05 1.32451E-05 3.61399E-19 1.23248E-18
 -1      2869 1.17549E-04-3.69766E-05-3.45617E-05 1.30336E-05-9.72367E-20 3.42770E-19
 -1      2870 1.08191E-04-2.33705E-05-3.63382E-05 8.16646E-06 2.23646E-18-1.04125E-20
 -1      2871 1.09941E-04-2.65168E-05-3.59225E-05 1.12080E-05 1.11943E-18 6.34406E-19
 -1      2872 1.14358E-04-2.87016E-05-3.67551E-05 1.32309E-05 1.16613E-18-2.38334E-19
 -1      2873 1.06745E-04-2.11262E-05-3.68053E-05-1.27892E-06 1.81542E-18-2.99091E-19
 -1      2874 1.06983E-04-2.13352E-05-3.67831E-05 3.13524E-06 2.80172E-18-9.68132E-21
 -1      2875 1.10342E-04-2.07159E-05-3.85220E-05 6.29090E-06 2.50444E-18-5.30620E-19
 -1      2876 1.09280E-04-2.57406E-05-3.60269E-05-9.74761E-06 5.14308E-19-4.32842E-19
 -1      2877 1.07887E-04-2.28385E-05-3.64384E-05-6.52809E-06 8.57091E-19-3.12148E-19
 -1      2878 1.10075E-04-2.02388E-05-3.86129E-05-4.62397E-06 1.63311E-18-7.54918E-20
 -1      2879 1.13353E-04-3.34248E-05-3.44422E-05-1.25026E-05-1.05546E-18 4.57439E-19
 -1      2880 1.11579E-04-2.96306E-05-3.50573E-05-1.19309E-05-2.42728E-20 4.68982E-19
 -1      2881 1.13704E-04-2.72905E-05-3.70211E-05-1.23526E-05-3.22402E-19-2.58755E-19
 -1      2882 1.15443E-04-3.89338E-05-3.28578E-05-9.55794E-06-1.17706E-18 1.38326E-18
 -1      2883 1.14523E-04-3.65625E-05-3.33866E-05-1.11348E-05-1.71202E-18 1.12337E-18
 -1      2884 1.17200E-04-3.62121E-05-3.46795E-05-1.27323E-05-1.78380E-18 2.44170E-19
 -1      2885 1.14483E-04-4.05328E-05-3.16851E-05-4.00033E-06-3.25057E-19 8.58984E-19
 -1      2886 1.14699E-04-4.00306E-05-3.20488E-05-6.49075E-06 1.41689E-19 1.44765E-18
 -1      2887 1.17611E-04-4.16231E-05-3.25875E-05-7.49629E-06-1.02096E-18-7.34139E-20
 -1      2888 1.11498E-04-3.91161E-05-3.09764E-05 1.31641E-06 1.04605E-19-1.92676E-18
 -1      2889 1.12528E-04-3.98794E-05-3.11985E-05-1.00840E-06-4.09345E-19-9.58727E-19
 -1      2890 1.14761E-04-4.21729E-05-3.11356E-05-1.04020E-06 8.73331E-19 3.28897E-19
 -1      2891 1.07930E-04-3.64550E-05-3.05874E-05 5.15211E-06 4.58537E-19-2.88077E-18
 -1      2892 1.09283E-04-3.77012E-05-3.07306E-05 3.45797E-06 2.42867E-19-2.33839E-18
 -1      2893 1.10464E-04-3.97350E-05-3.03581E-05 4.08195E-06 5.54482E-19-1.86953E-18
 -1      2894 1.04638E-04-3.37277E-05-3.03548E-05 7.38506E-06-2.51554E-19-2.40559E-18
 -1      2895 1.05997E-04-3.49771E-05-3.04728E-05 6.39342E-06-1.45683E-19-2.59484E-18
 -1      2896 1.06266E-04-3.63625E-05-3.00073E-05 7.32705E-06-1.59650E-20-2.26516E-18
 -1      2897 1.01930E-04-3.14580E-05-3.01779E-05 8.30208E-06 1.46681E-18-2.29019E-18
 -1      2898 1.03152E-04-3.25044E-05-3.02961E-05 7.90260E-06 5.82802E-19-2.52189E-18
 -1      2899 1.02842E-04-3.32362E-05-2.98684E-05 8.93087E-06-2.18937E-19-2.89020E-18
 -1      2900 9.97911E-05-2.97116E-05-3.00164E-05 8.26103E-06 1.51301E-18-1.27119E-18
 -1      2901 1.00843E-04-3.05384E-05-3.01375E-05 8.31218E-06 1.71753E-18-1.47821E-18
 -1      2902 1.00278E-04-3.07732E-05-2.98132E-05 9.34109E-06 9.62062E-19-2.29152E-18
 -1      2903 9.81080E-05-2.83800E-05-2.98668E-05 7.52526E-06 4.52443E-19-2.40952E-19
 -1      2904 9.89893E-05-2.90291E-05-2.99824E-05 7.91336E-06 1.16475E-18-7.31565E-19
 -1      2905 9.83929E-05-2.89340E-05-2.97851E-05 8.92563E-06 8.26420E-19-7.65787E-19
 -1      2906 9.67029E-05-2.72692E-05-2.97417E-05 6.55619E-06-1.39914E-18 1.43943E-19
 -1      2907 9.74479E-05-2.78151E-05-2.98362E-05 7.21206E-06-1.09028E-18-2.59935E-19
 -1      2908 9.69146E-05-2.75256E-05-2.97562E-05 8.17090E-06-8.31464E-19-1.43147E-19
 -1      2909 9.57371E-05-2.63058E-05-2.97723E-05 7.27745E-06-1.69455E-18-1.81430E-18
 -1      2910 1.13484E-04-5.70598E-05-2.43367E-05 2.96947E-05-2.02314E-18 1.00730E-18
 -1      2911 9.68361E-05-5.01696E-05-1.95370E-05 3.63206E-05-1.80852E-18 3.32066E-18
 -1      2912 8.88335E-05-1.96906E-05-2.96532E-05 1.18196E-06 1.48383E-18 1.69180E-18
 -1      2913 8.90954E-05-1.99242E-05-2.96484E-05 2.55384E-06 1.16188E-18 1.83563E-18
 -1      2914 9.09225E-05-2.16952E-05-2.96957E-05 6.18216E-06 5.00462E-19 1.18073E-18
 -1      2915 9.17178E-05-2.24435E-05-2.96777E-05 6.89756E-06-5.85181E-20 1.86818E-18
 -1      2916 8.88858E-05-1.97261E-05-2.96492E-05-1.86964E-06 1.48337E-18-2.50196E-19
 -1      2917 8.87561E-05-1.96059E-05-2.96516E-05-4.57639E-07 1.62023E-18 7.49108E-19
 -1      2918 8.79769E-05-1.98169E-05-2.91864E-05 4.25497E-07 1.21255E-18 8.00882E-19
 -1      2919 8.95701E-05-2.04027E-05-2.96705E-05 4.00758E-06 6.12767E-19 6.64510E-19
 -1      2920 9.01608E-05-2.09409E-05-2.96579E-05 5.12745E-06 1.10001E-18-1.12484E-19
 -1      2921 9.00600E-05-2.16585E-05-2.93048E-05 6.26675E-06 2.82520E-19 8.42582E-20
 -1      2922 8.86241E-05-2.03965E-05-2.92203E-05 3.66096E-06 1.80091E-18 1.65121E-18
 -1      2923 1.26679E-04-1.69394E-05-4.76403E-05-1.12240E-05-1.94500E-18-1.10210E-18
 -1      2924 1.30962E-04-2.40878E-05-4.61944E-05-1.40850E-05-1.73515E-18-1.84854E-18
 -1      2925 8.97069E-05-2.04920E-05-2.96601E-05-4.60868E-06 1.61435E-18-1.51415E-18
 -1      2926 8.92202E-05-2.00505E-05-2.96691E-05-3.39771E-06 1.56702E-18-5.56852E-19
 -1      2927 8.82799E-05-2.00658E-05-2.92114E-05-2.88971E-06 1.11654E-18-7.16517E-19
 -1      2928 9.11605E-05-2.18622E-05-2.96859E-05-6.70366E-06 9.01573E-19-2.42700E-18
 -1      2929 9.03920E-05-2.11586E-05-2.96998E-05-5.83271E-06 1.47432E-18-2.86261E-18
 -1      2930 8.94662E-05-2.10805E-05-2.92927E-05-5.76224E-06 9.62870E-19-1.80475E-18
 -1      2931 9.29630E-05-2.35741E-05-2.97249E-05-7.82127E-06-1.74420E-20 3.15999E-19
 -1      2932 9.20677E-05-2.27272E-05-2.97411E-05-7.43431E-06 9.83135E-19-8.80299E-19
 -1      2933 9.13056E-05-2.26446E-05-2.94218E-05-7.78099E-06 1.00724E-18-1.52223E-18
 -1      2934 9.44485E-05-2.48529E-05-2.98282E-05-7.78294E-06-1.69878E-19 6.35528E-19
 -1      2935 4.05164E-05-1.84733E-05-8.81429E-06-2.13197E-05 1.60545E-18-3.18124E-18
 -1      2936 5.43347E-05-2.73066E-05-1.14275E-05-3.33573E-05 2.25904E-18-1.95622E-18
 -1      2937 8.01501E-05-4.18947E-05-1.64196E-05 3.92287E-05-2.09302E-18 5.87640E-18
 -1      2938 6.67610E-05-3.36434E-05-1.35149E-05 3.65772E-05-2.66551E-18 5.67374E-18
 -1      2939 9.50850E-05-2.75328E-05-2.89538E-05 5.51151E-07 1.00648E-18-8.86846E-19
 -1      2940 9.52846E-05-2.72462E-05-2.91316E-05 1.15213E-06 1.10811E-18-7.81236E-19
 -1      2941 9.54039E-05-2.74763E-05-2.91214E-05 5.60468E-07 8.86621E-19-8.85639E-19
 -1      2942 3.14325E-05-1.35307E-05-7.22476E-06 4.84787E-06 5.36622E-19-3.94717E-19
 -1      2943 3.25515E-05-1.39174E-05-7.60747E-06-8.62791E-06 9.76258E-19-1.59920E-18
 -1      2944 4.93963E-05-2.44428E-05-1.05191E-05 3.07958E-05-8.86102E-19 3.91816E-18
 -1      2945 3.66935E-05-1.65479E-05-7.96509E-06 1.71529E-05 9.68953E-19 9.24113E-19
 -1      2946 9.26344E-05-2.10493E-05-3.07103E-05-7.47228E-06-1.71690E-18-5.09608E-19
 -1      2947 9.30431E-05-2.27427E-05-3.01261E-05-5.82111E-06-1.58405E-18-3.72426E-19
 -1      2948 9.19664E-05-1.97339E-05-3.09581E-05-7.32534E-06-1.59879E-18-7.39680E-19
 -1      2949 5.17206E-05-2.61027E-05-1.04086E-05-3.20665E-05-1.94712E-19 2.40314E-18
 -1      2950 6.82333E-05-3.54426E-05-1.39659E-05-3.81095E-05-6.11770E-19 3.18686E-18
 -1      2951 1.36049E-04-5.67791E-05-3.43627E-05 7.38076E-06-6.10923E-20 4.01599E-19
 -1      2952 1.27412E-04-5.90298E-05-2.92368E-05 1.74746E-05-7.46289E-19 8.18710E-19
 -1      2953 1.34969E-04-5.73447E-05-3.34292E-05-8.53711E-06-5.18900E-19-4.59642E-18
 -1      2954 1.39853E-04-5.13155E-05-3.84371E-05 8.29166E-07-1.12788E-18-4.15258E-18
 -1      2955 9.47170E-05-2.83803E-05-2.84288E-05-9.17847E-07 3.60216E-19-7.94666E-19
 -1      2956 9.47097E-05-2.83015E-05-2.84542E-05-8.48122E-07 5.90740E-19-7.90848E-19
 -1      2957 9.51355E-05-2.83033E-05-2.86485E-05-7.05014E-07 6.11460E-19-8.06716E-19
 -1      2958 9.50634E-05-2.84886E-05-2.85357E-05-9.12687E-07 2.52812E-19-5.82793E-19
 -1      2959 9.33677E-05-2.38036E-05-2.98033E-05-4.76548E-06-1.38585E-18-3.80018E-19
 -1      2960 9.33031E-05-2.47443E-05-2.93953E-05-3.32683E-06-1.18830E-18-4.05798E-19
 -1      2961 9.34829E-05-2.45426E-05-2.95600E-05-3.08185E-06-1.13863E-18-3.15306E-19
 -1      2962 9.30466E-05-2.27417E-05-3.01193E-05-4.94782E-06-1.37447E-18-4.52673E-19
 -1      2963 9.53763E-05-2.68216E-05-2.93862E-05 1.93551E-06 1.14749E-18-8.50394E-19
 -1      2964 9.56614E-05-2.63299E-05-2.96766E-05 2.93805E-06 1.23764E-18-8.59090E-19
 -1      2965 9.56045E-05-2.51363E-05-3.01984E-05 3.98416E-06 1.38605E-18-1.13879E-18
 -1      2966 9.55599E-05-2.66116E-05-2.95568E-05 1.91139E-06 1.16436E-18-9.60617E-19
 -1      2967 9.10170E-05-1.60915E-05-3.21389E-05 5.09677E-06 9.30595E-19-2.20900E-18
 -1      2968 9.05791E-05-1.55780E-05-3.21651E-05 4.17713E-06 6.92247E-19-2.30558E-18
 -1      2969 9.15073E-05-1.71767E-05-3.18406E-05 3.39760E-06 5.29528E-19-2.09025E-18
 -1      2970 9.23672E-05-1.82728E-05-3.17348E-05 4.80783E-06 9.43272E-19-1.99744E-18
 -1      2971 8.96514E-05-1.53544E-05-3.18628E-05-3.72370E-06-7.01347E-19-1.92977E-18
 -1      2972 8.98751E-05-1.58116E-05-3.17686E-05-4.64338E-06-8.83925E-19-1.87629E-18
 -1      2973 1.29791E-04-2.30982E-05-4.64463E-05-1.21845E-05 7.27601E-19 5.12190E-19
 -1      2974 1.34117E-04-3.15255E-05-4.42503E-05-1.28815E-05 2.79521E-19 3.92917E-19
 -1      2975 1.38276E-04-5.30681E-05-3.71701E-05-8.86323E-07-8.89808E-19-1.42312E-18
 -1      2976 1.34715E-04-5.82497E-05-3.26256E-05 9.74516E-06-6.22834E-20-2.09757E-18
 -1      2977 1.36417E-04-5.44512E-05-3.50102E-05-3.23440E-06 7.34186E-19 1.22280E-18
 -1      2978 1.38918E-04-4.88228E-05-3.91619E-05 3.54164E-06 1.00278E-18 2.04241E-18
 -1      2979 1.34159E-04-4.44841E-05-3.86245E-05 9.35959E-06 1.81797E-18 2.42844E-18
 -1      2980 1.17293E-04-5.78005E-05-2.51385E-05-2.66901E-05 5.18808E-19 1.34583E-18
 -1      2981 1.29177E-04-5.94413E-05-3.03642E-05-1.68101E-05 3.21396E-19 1.47532E-18
 -1      2982 1.26466E-04-5.98553E-05-2.88774E-05 2.00917E-05-5.58195E-19-1.72287E-18
 -1      2983 1.14775E-04-5.71379E-05-2.42534E-05 2.77496E-05-5.30878E-19-2.23601E-18
 -1      2984 3.43797E-05-1.52020E-05-7.68208E-06-1.54221E-05-6.41098E-20-1.12084E-18
 -1      2985 4.16350E-05-2.00919E-05-8.77802E-06-2.62213E-05-3.09167E-20 6.93508E-19
 -1      2986 5.49200E-05-2.31845E-05-1.30232E-05-2.73902E-05-5.79106E-19 1.98597E-18
 -1      2987 1.36645E-04-4.11861E-05-4.15935E-05-8.83127E-06 5.74288E-19 2.90321E-19
 -1      2988 1.37985E-04-4.99759E-05-3.77757E-05-2.67785E-06 5.39666E-19-4.67668E-19
 -1      2989 5.78448E-05-2.80982E-05-1.24362E-05 3.33317E-05-2.53898E-19-5.72245E-18
 -1      2990 4.65385E-05-2.11095E-05-1.01566E-05 2.61967E-05 3.94929E-20-5.63404E-18
 -1      2991 8.80509E-05-4.62945E-05-1.73956E-05-3.78636E-05-6.30828E-19 2.26687E-18
 -1      2992 1.03442E-04-5.39485E-05-2.13610E-05-3.53701E-05-2.78356E-19 2.11347E-18
 -1      2993 1.33979E-04-2.32701E-05-4.78490E-05 1.24232E-05 1.22714E-18-1.37844E-18
 -1      2994 1.30505E-04-1.58252E-05-4.98611E-05 8.95426E-06 1.36266E-18-3.07685E-19
 -1      2995 1.34785E-04-3.37132E-05-4.40241E-05-1.34961E-05-6.74662E-19-2.16867E-18
 -1      2996 1.37604E-04-4.27203E-05-4.06327E-05-1.10314E-05-6.81014E-19-1.29088E-18
 -1      2997 1.40375E-04-4.27378E-05-4.20099E-05 8.55253E-06-1.16001E-18-3.39427E-18
 -1      2998 1.38023E-04-3.36866E-05-4.54011E-05 1.15834E-05-4.06258E-19-2.18535E-18
 -1      2999 1.22092E-04-1.11263E-05-4.82365E-05-2.52034E-06 2.46508E-18 1.28785E-18
 -1      3000 1.25993E-04-1.54754E-05-4.78202E-05-9.35890E-06 1.51704E-18 7.96793E-19
 -1      3001 7.27072E-05-3.76060E-05-1.44109E-05-3.77391E-05 2.27301E-18-2.81120E-18
 -1      3002 8.85507E-05-4.64953E-05-1.79704E-05-3.83955E-05 1.61444E-18-4.00588E-18
 -1      3003 9.01882E-05-1.64292E-05-3.16337E-05-5.36938E-06-1.03667E-18-1.68704E-18
 -1      3004 9.05951E-05-1.71770E-05-3.15000E-05-6.19030E-06-1.26845E-18-1.43385E-18
 -1      3005 9.11134E-05-1.79375E-05-3.13410E-05-4.35861E-06-8.56523E-19-1.60376E-18
 -1      3006 9.05959E-05-1.62933E-05-3.18319E-05 2.36495E-07-1.51421E-19-2.21166E-18
 -1      3007 8.94301E-05-1.45049E-05-3.21299E-05-1.88267E-07-2.06224E-19-2.28208E-18
 -1      3008 8.93873E-05-1.45676E-05-3.20852E-05-1.14185E-06-3.74930E-19-2.24423E-18
 -1      3009 9.46746E-05-2.15261E-05-3.13532E-05 7.37093E-06 1.60717E-18-1.20867E-18
 -1      3010 1.36774E-04-4.67362E-05-3.85565E-05 7.82292E-06-1.02073E-18-2.92269E-18
 -1      3011 1.28107E-04-3.02130E-05-4.23773E-05-1.47391E-05-1.04508E-18-7.66247E-19
 -1      3012 1.13234E-04-1.90357E-05-4.04798E-05-7.52148E-06-8.53650E-19-1.83849E-18
 -1      3013 1.16802E-04-1.59511E-05-4.35530E-05-4.43053E-06-8.25645E-19-2.37636E-18
 -1      3014 1.15312E-04-2.33786E-05-3.97399E-05-1.18740E-05-3.19702E-19-1.49254E-18
 -1      3015 6.76799E-05-3.14134E-05-1.49815E-05-3.26082E-05 1.71291E-18-2.57170E-18
 -1      3016 1.31693E-04-2.90841E-05-4.41895E-05 1.33355E-05 4.58457E-19-9.00396E-19
 -1      3017 1.22262E-04-5.85418E-05-2.71574E-05 2.16230E-05-1.48273E-18 7.27840E-19
 -1      3018 1.14374E-04-5.46292E-05-2.54610E-05 2.44125E-05-2.10403E-18 7.34943E-19
 -1      3019 1.25954E-04-5.68888E-05-2.97742E-05 1.21554E-05-1.62578E-18 4.36169E-19
 -1      3020 9.49007E-05-2.55041E-05-2.97291E-05 7.53809E-06-5.57240E-19-2.19220E-18
 -1      3021 9.54066E-05-2.61107E-05-2.96879E-05 8.11487E-06-1.05137E-18-1.41992E-18
 -1      3022 9.40666E-05-2.46783E-05-2.97559E-05 7.71151E-06-6.38359E-19-9.43164E-19
 -1      3023 1.23116E-04-5.73745E-05-2.79512E-05-1.82418E-05 3.69730E-19-3.11954E-18
 -1      3024 1.31534E-04-6.00167E-05-3.06621E-05-1.32601E-05-2.89050E-19-3.99598E-18
 -1      3025 1.32463E-04-5.69044E-05-3.28318E-05-4.35559E-06-5.73838E-19-3.11327E-18
 -1      3026 6.98400E-05-3.35659E-05-1.50238E-05 3.43778E-05 4.05729E-19-4.86091E-18
 -1      3027 6.72411E-05-2.84608E-05-1.63287E-05 2.98496E-05 6.26751E-19-4.73317E-18
 -1      3028 8.17571E-05-3.92463E-05-1.83300E-05 3.38923E-05 3.88841E-19-3.53292E-18
 -1      3029 3.59519E-05-1.32847E-05-9.07411E-06-7.59112E-06-7.25153E-19-3.01798E-18
 -1      3030 4.46945E-05-1.44973E-05-1.26744E-05-1.36800E-05-1.28106E-18-1.66273E-18
 -1      3031 3.94379E-05-1.20929E-05-1.14199E-05 6.60985E-07-1.15902E-18-3.53668E-18
 -1      3032 9.48322E-05-2.56014E-05-2.96662E-05-8.73459E-06 2.68545E-19-6.14200E-20
 -1      3033 9.37187E-05-2.43794E-05-2.97251E-05-8.24501E-06 5.37825E-20 8.79858E-19
 -1      3034 9.32572E-05-2.43739E-05-2.95182E-05-8.86173E-06 5.58617E-19-8.25979E-20
 -1      3035 9.51468E-05-2.60047E-05-2.96236E-05-9.26490E-06 5.05035E-20 5.75959E-19
 -1      3036 9.26472E-05-4.54732E-05-1.97732E-05 3.40914E-05-2.80590E-18 2.86239E-18
 -1      3037 4.37972E-05-1.63290E-05-1.10897E-05-1.45445E-05 1.12089E-18-2.63067E-18
 -1      3038 1.00857E-04-5.09003E-05-2.10169E-05-3.38608E-05 1.35430E-18-3.26076E-18
 -1      3039 1.10615E-04-5.40663E-05-2.43153E-05-2.69349E-05 1.21697E-18-3.45502E-18
 -1      3040 9.48341E-05-4.58516E-05-2.07428E-05-3.30210E-05 1.20903E-18-3.65182E-18
 -1      3041 6.19150E-05-2.77041E-05-1.41619E-05 3.07303E-05-1.71371E-18 4.45084E-18
 -1      3042 4.16594E-05-1.50484E-05-1.07084E-05 1.11601E-05 9.18210E-19 5.47713E-19
 -1      3043 1.06460E-04-5.27896E-05-2.26967E-05 2.97842E-05-2.41404E-19-2.39632E-18
 -1      3044 1.34243E-04-5.30825E-05-3.48513E-05-2.04919E-07-1.60301E-19-5.08802E-19
 -1      3045 4.53692E-05-1.77336E-05-1.13121E-05 1.96061E-05-2.23987E-19-5.10337E-18
 -1      3046 1.23508E-04-1.59097E-05-4.66981E-05-8.87280E-06-1.45309E-18-1.90916E-18
 -1      3047 1.20731E-04-1.97767E-05-4.34321E-05-1.21636E-05-1.59496E-18-1.76953E-18
 -1      3048 8.94103E-05-1.47349E-05-3.20236E-05-1.97579E-06-4.12822E-19-2.02910E-18
 -1      3049 8.94919E-05-1.49777E-05-3.19564E-05-2.92168E-06-6.15520E-19-1.97022E-18
 -1      3050 9.06795E-05-1.69646E-05-3.15769E-05-2.92662E-06-5.86413E-19-1.87761E-18
 -1      3051 9.05124E-05-1.64325E-05-3.17359E-05-1.37143E-06-3.84655E-19-2.08894E-18
 -1      3052 9.48809E-05-2.25616E-05-3.09856E-05 5.86034E-06 1.43465E-18-1.29864E-18
 -1      3053 9.24694E-05-2.31483E-05-2.97313E-05 7.35164E-06-2.71657E-19 1.18141E-18
 -1      3054 9.33155E-05-2.39740E-05-2.97079E-05 7.61873E-06-5.26676E-19-1.57696E-19
 -1      3055 9.35927E-05-2.45917E-05-2.95634E-05 8.31937E-06-6.11112E-19-2.24540E-19
 -1      3056 9.18423E-05-2.31578E-05-2.94302E-05 7.78917E-06 6.30301E-20 1.66193E-18
 -1      3057 1.29542E-04-5.83035E-05-3.04462E-05 1.14398E-05-4.04458E-20-9.81341E-19
 -1      3058 1.31075E-04-5.62122E-05-3.21307E-05-7.45077E-06 9.67576E-19 1.07621E-18
 -1      3059 1.25099E-04-1.26150E-05-4.88344E-05 4.55185E-06 2.92226E-20-9.44759E-19
 -1      3060 1.22237E-04-1.20819E-05-4.77906E-05-3.11852E-06-1.08568E-18-1.64827E-18
 -1      3061 1.34972E-04-4.80134E-05-3.74165E-05-6.97138E-06-3.12423E-19-1.30978E-18
 -1      3062 1.23039E-04-2.08974E-05-4.40030E-05-1.12837E-05 3.41143E-19 3.79100E-19
 -1      3063 1.31213E-04-3.72335E-05-4.03345E-05-1.26584E-05-1.46007E-19 3.03979E-19
 -1      3064 1.12537E-04-5.51093E-05-2.43324E-05-2.71111E-05-1.57072E-19 1.31129E-18
 -1      3065 9.44082E-05-2.19393E-05-3.10867E-05 5.14367E-06 1.18154E-18-1.45622E-18
 -1      3066 9.38336E-05-2.09457E-05-3.12393E-05 4.81247E-06 1.06804E-18-1.61813E-18
 -1      3067 1.27064E-04-2.96284E-05-4.20599E-05 1.41527E-05 2.14601E-18 2.66466E-18
 -1      3068 1.29494E-04-2.29567E-05-4.59931E-05 1.33524E-05 1.87957E-18 3.56463E-18
 -1      3069 9.09946E-05-1.79025E-05-3.13415E-05-6.60715E-06-1.38505E-18-1.12330E-18
 -1      3070 9.15157E-05-1.88670E-05-3.11708E-05-7.11127E-06-1.55976E-18-8.98543E-19
 -1      3071 9.23908E-05-2.08301E-05-3.06584E-05-5.82491E-06-1.52823E-18-7.40506E-19
 -1      3072 9.17547E-05-1.92771E-05-3.10375E-05-5.36803E-06-1.19698E-18-1.09692E-18
 -1      3073 1.21218E-04-1.19252E-05-4.73661E-05 2.83857E-06 2.27322E-18 1.99891E-18
 -1      3074 1.16732E-04-1.38767E-05-4.44390E-05-1.17401E-06 1.61773E-18 1.23108E-18
 -1      3075 9.54752E-05-2.43696E-05-3.04768E-05 4.44339E-06 1.33836E-18-1.18065E-18
 -1      3076 9.48258E-05-2.27937E-05-3.08546E-05 4.96727E-06 1.27855E-18-1.26999E-18
 -1      3077 9.50969E-05-2.36632E-05-3.05953E-05 3.89130E-06 1.13986E-18-1.25012E-18
 -1      3078 9.54975E-05-2.52983E-05-3.00990E-05 3.16731E-06 1.26923E-18-1.07385E-18
 -1      3079 6.28058E-05-2.53729E-05-1.55456E-05-2.80645E-05 4.23569E-19-2.20006E-18
 -1      3080 7.76422E-05-3.52489E-05-1.80898E-05-3.29028E-05 1.01840E-18-2.44528E-18
 -1      3081 1.21207E-04-2.64904E-05-4.08740E-05-1.39388E-05-7.51742E-19-1.27140E-18
 -1      3082 9.40365E-05-2.64289E-05-2.89600E-05-6.15691E-07-7.81660E-19-2.45124E-19
 -1      3083 9.40258E-05-2.68756E-05-2.87866E-05-1.00333E-07-6.51343E-19-3.14490E-19
 -1      3084 9.40874E-05-2.72637E-05-2.86275E-05 2.75123E-07-6.61162E-19-2.87121E-19
 -1      3085 9.40692E-05-2.75539E-05-2.85108E-05 5.84153E-07-7.26403E-19-3.95088E-19
 -1      3086 9.43707E-05-2.69122E-05-2.89138E-05-2.62013E-08-6.63282E-19-2.71149E-19
 -1      3087 9.40811E-05-2.77966E-05-2.83997E-05 8.03517E-07-8.54334E-19-3.19765E-19
 -1      3088 9.40710E-05-2.79825E-05-2.83253E-05 9.69931E-07-8.55177E-19-3.52152E-19
 -1      3089 9.44489E-05-2.76422E-05-2.86353E-05 6.01709E-07-8.37492E-19-3.88334E-19
 -1      3090 9.40611E-05-2.81287E-05-2.82516E-05 1.08236E-06-5.64144E-19-2.61472E-19
 -1      3091 9.40647E-05-2.82442E-05-2.82085E-05 1.15706E-06-4.27333E-19-8.67749E-20
 -1      3092 9.44559E-05-2.80987E-05-2.84426E-05 9.62078E-07-6.50858E-19-9.42833E-20
 -1      3093 9.40470E-05-2.83239E-05-2.81640E-05 1.20242E-06-3.49701E-19-1.42473E-20
 -1      3094 9.40647E-05-2.83887E-05-2.81452E-05 1.22574E-06-3.75154E-19 1.95582E-19
 -1      3095 9.44327E-05-2.83669E-05-2.83172E-05 1.14344E-06-3.11843E-19 1.71466E-19
 -1      3096 9.40437E-05-2.84181E-05-2.81241E-05 1.23584E-06-5.40529E-19 2.73257E-19
 -1      3097 9.40718E-05-2.84410E-05-2.81256E-05 1.23973E-06-2.66694E-19 3.76291E-19
 -1      3098 9.43979E-05-2.84982E-05-2.82455E-05 1.21839E-06-2.74074E-19 9.16479E-20
 -1      3099 9.40442E-05-2.84245E-05-2.81239E-05 1.23744E-06-4.12484E-19 2.22356E-19
 -1      3100 9.40709E-05-2.84041E-05-2.81416E-05 1.24311E-06-4.43056E-19 7.32750E-20
 -1      3101 9.43538E-05-2.85189E-05-2.82172E-05 1.24213E-06-5.18536E-19 2.48073E-19
 -1      3102 9.40302E-05-2.83373E-05-2.81522E-05 1.24084E-06-3.72821E-19 1.80724E-19
 -1      3103 9.40290E-05-2.82636E-05-2.81713E-05 1.24262E-06-3.33951E-19 3.68664E-19
 -1      3104 9.42894E-05-2.84389E-05-2.82210E-05 1.24711E-06-2.93497E-19 1.37483E-19
 -1      3105 9.39760E-05-2.81563E-05-2.81807E-05 1.23042E-06-3.49861E-19 4.94472E-19
 -1      3106 9.39485E-05-2.80642E-05-2.81737E-05 1.19032E-06-2.13747E-19 6.76932E-19
 -1      3107 9.41935E-05-2.82743E-05-2.82375E-05 1.23296E-06-1.89547E-19 5.44962E-19
 -1      3108 9.39189E-05-2.79758E-05-2.81508E-05 1.17638E-06-3.43856E-19 5.10139E-19
 -1      3109 9.39501E-05-2.79400E-05-2.80912E-05 1.15551E-06-4.86726E-19 5.55733E-19
 -1      3110 9.40978E-05-2.80942E-05-2.82326E-05 1.19760E-06-3.60644E-19 1.02901E-19
 -1      3111 9.39520E-05-2.79022E-05-2.80428E-05 1.15022E-06-6.41098E-19 6.07640E-19
 -1      3112 9.38725E-05-2.78125E-05-2.79908E-05 1.29435E-06-5.12792E-19 2.85238E-19
 -1      3113 9.40068E-05-2.79018E-05-2.81825E-05 1.17799E-06-6.13265E-19 2.57736E-19
 -1      3114 9.42733E-05-2.78216E-05-2.78382E-05 1.43046E-06-4.34104E-19 3.04614E-19
 -1      3115 9.42058E-05-2.80911E-05-2.78977E-05 9.41315E-07-5.95358E-19 5.52901E-19
 -1      3116 9.40565E-05-2.78952E-05-2.80749E-05 1.23196E-06-6.03458E-19 2.37328E-19
 -1      3117 9.45924E-05-2.77433E-05-2.84215E-05 1.33972E-06-5.69444E-19 5.22408E-19
 -1      3118 9.47656E-05-2.76701E-05-2.87534E-05 1.88606E-06-2.77615E-19 3.97258E-19
 -1      3119 9.41901E-05-2.75222E-05-2.82483E-05 1.80849E-06-5.23493E-19 3.65018E-19
 -1      3120 9.49938E-05-2.77606E-05-2.87358E-05 2.55418E-06-3.95353E-19 3.43260E-19
 -1      3121 9.52609E-05-2.74151E-05-2.90708E-05 2.88999E-06-5.57348E-19 5.59042E-20
 -1      3122 9.36833E-05-2.69857E-05-2.84751E-05 1.81697E-06-4.56339E-19 8.23740E-19
 -1      3123 9.50924E-05-2.74330E-05-2.93367E-05 2.81264E-06-3.48316E-19-1.16679E-19
 -1      3124 9.53957E-05-2.74592E-05-2.92945E-05 3.03921E-06-6.26434E-19-1.79995E-21
 -1      3125 9.56795E-05-2.76766E-05-2.93204E-05 2.55518E-06-4.43845E-19-1.63054E-19
 -1      3126 9.51011E-05-2.71981E-05-2.92229E-05 3.38587E-06-7.28362E-19 2.88653E-19
 -1      3127 9.51091E-05-2.70520E-05-2.92213E-05 3.76117E-06 1.77910E-20 2.32987E-19
 -1      3128 9.46951E-05-2.69514E-05-2.92416E-05 3.12323E-06-1.37504E-19 1.65118E-19
 -1      3129 9.49056E-05-2.68554E-05-2.92020E-05 4.20443E-06 2.61796E-19 2.20030E-19
 -1      3130 9.49370E-05-2.67381E-05-2.92341E-05 4.66165E-06 1.84731E-19 1.02633E-19
 -1      3131 9.42996E-05-2.64809E-05-2.91260E-05 3.93970E-06 1.20256E-19 6.53737E-19
 -1      3132 9.47583E-05-2.65751E-05-2.92344E-05 5.17497E-06 2.42032E-20-2.89384E-19
 -1      3133 9.48410E-05-2.65206E-05-2.92730E-05 5.69527E-06-5.01755E-20-1.69633E-19
 -1      3134 9.39402E-05-2.60809E-05-2.90943E-05 4.89187E-06 5.40911E-20-5.31844E-20
 -1      3135 9.46908E-05-2.64290E-05-2.92624E-05 6.28046E-06 8.52310E-20 3.70391E-19
 -1      3136 9.48559E-05-2.64877E-05-2.92899E-05 6.84397E-06 3.27872E-19 9.19252E-19
 -1      3137 9.36141E-05-2.57920E-05-2.90669E-05 5.98639E-06 5.64970E-19 6.24910E-20
 -1      3138 9.47744E-05-2.65329E-05-2.92511E-05 7.49679E-06 4.79274E-21 7.89805E-19
 -1      3139 9.50821E-05-2.67867E-05-2.92561E-05 8.07223E-06-6.54290E-20 5.47060E-19
 -1      3140 9.33738E-05-2.57202E-05-2.89948E-05 7.22422E-06-4.91770E-20 7.08970E-19
 -1      3141 9.51540E-05-2.70716E-05-2.91780E-05 8.78127E-06-1.84398E-19-2.12382E-19
 -1      3142 9.57086E-05-2.76432E-05-2.91540E-05 9.31680E-06 7.92982E-20-3.01059E-19
 -1      3143 9.33399E-05-2.60404E-05-2.88486E-05 8.60148E-06-7.35864E-19 4.97622E-20
 -1      3144 9.60841E-05-2.83180E-05-2.90323E-05 1.00542E-05 5.13601E-19-5.71392E-19
 -1      3145 9.70473E-05-2.93728E-05-2.89822E-05 1.04624E-05 6.14840E-19-8.46982E-19
 -1      3146 9.37373E-05-2.70194E-05-2.86109E-05 1.01024E-05-1.59110E-20-1.13074E-18
 -1      3147 9.79687E-05-3.06335E-05-2.88284E-05 1.11560E-05 1.06935E-18-1.13528E-18
 -1      3148 9.95568E-05-3.23551E-05-2.87773E-05 1.12858E-05 1.20606E-18-1.03134E-18
 -1      3149 9.49443E-05-2.90336E-05-2.82858E-05 1.16702E-05 6.90832E-19-1.29206E-18
 -1      3150 1.01375E-04-3.44041E-05-2.86390E-05 1.17518E-05 1.00808E-18-5.96255E-19
 -1      3151 1.03808E-04-3.68970E-05-2.86562E-05 1.13394E-05 6.70304E-19-3.06909E-20
 -1      3152 9.75461E-05-3.25476E-05-2.79279E-05 1.31211E-05 1.30728E-18-1.25022E-18
 -1      3153 1.06942E-04-3.98278E-05-2.86544E-05 1.11789E-05 5.58206E-19-1.89300E-20
 -1      3154 1.10266E-04-4.28688E-05-2.88868E-05 9.78868E-06 9.30707E-19 6.45917E-19
 -1      3155 1.02306E-04-3.79405E-05-2.77016E-05 1.39535E-05 9.78091E-19-2.36686E-19
 -1      3156 1.14973E-04-4.62539E-05-2.92848E-05 8.15605E-06 8.50262E-19 9.21631E-19
 -1      3157 1.18747E-04-4.87304E-05-3.00022E-05 5.28295E-06 6.38928E-19 8.04258E-19
 -1      3158 1.10074E-04-4.51415E-05-2.79865E-05 1.30968E-05 8.58666E-19-7.89064E-20
 -1      3159 1.29530E-04-4.94403E-05-3.43774E-05 3.92307E-06-1.23925E-18-1.56283E-18
 -1      3160 1.27378E-04-5.22331E-05-3.21723E-05-5.78734E-07-1.02484E-19-1.91755E-18
 -1      3161 1.23582E-04-5.21978E-05-3.05616E-05-5.51780E-06 6.84945E-19-1.44514E-18
 -1      3162 1.16235E-04-4.75946E-05-2.94353E-05-8.00431E-06 4.69044E-20-1.71550E-18
 -1      3163 1.12694E-04-4.47191E-05-2.89466E-05-1.05064E-05-7.03861E-19-1.36367E-18
 -1      3164 1.08409E-04-4.13457E-05-2.87103E-05-1.18367E-05 5.49989E-19-3.95975E-19
 -1      3165 1.05278E-04-3.84041E-05-2.85558E-05-1.28951E-05 2.09984E-18 7.55305E-19
 -1      3166 1.08252E-04-4.35871E-05-2.79074E-05-1.47769E-05 5.41942E-19-1.88923E-18
 -1      3167 1.02631E-04-3.57652E-05-2.86325E-05-1.28942E-05 1.92429E-18 1.37814E-18
 -1      3168 1.00422E-04-3.34359E-05-2.86559E-05-1.31760E-05 2.07848E-18 1.00630E-18
 -1      3169 1.01115E-04-3.66409E-05-2.77625E-05-1.51812E-05 2.42475E-18-6.22066E-19
 -1      3170 9.89471E-05-3.15973E-05-2.88403E-05-1.26743E-05 2.12339E-18 6.87660E-20
 -1      3171 9.75311E-05-2.99950E-05-2.89201E-05-1.24784E-05 1.51669E-18-6.87820E-19
 -1      3172 9.72221E-05-3.17594E-05-2.81157E-05-1.42414E-05 1.29106E-18-6.07352E-19
 -1      3173 9.67991E-05-2.88151E-05-2.91188E-05-1.17922E-05 1.26371E-18-1.22571E-18
 -1      3174 9.59262E-05-2.77544E-05-2.92068E-05-1.13085E-05 1.00573E-18-6.52499E-19
 -1      3175 9.51412E-05-2.85500E-05-2.85672E-05-1.28155E-05 6.04255E-19-7.28417E-19
 -1      3176 9.57695E-05-2.71639E-05-2.93909E-05-1.06298E-05 2.18009E-19 2.11260E-19
 -1      3177 9.52077E-05-2.64266E-05-2.94718E-05-9.95954E-06 3.84210E-19 3.89700E-19
 -1      3178 9.41543E-05-2.56144E-05-2.93826E-05-9.91699E-06 5.23787E-19 7.54944E-20
 -1      3179 9.43524E-05-2.67013E-05-2.90066E-05-1.13278E-05 1.18815E-18-1.33790E-18
 -1      3180 9.52664E-05-2.87804E-05-2.84568E-05-8.25571E-07 3.67930E-19-3.22686E-19
 -1      3181 9.52281E-05-2.87576E-05-2.84638E-05-8.50460E-07 5.32446E-19-3.42966E-19
 -1      3182 9.52506E-05-2.87456E-05-2.84852E-05-8.72574E-07 4.16661E-19-5.77308E-19
 -1      3183 9.52580E-05-2.87192E-05-2.85070E-05-9.07472E-07 3.77664E-19-8.35848E-19
 -1      3184 9.54512E-05-2.88341E-05-2.85431E-05-8.49904E-07 3.23649E-19-7.26190E-19
 -1      3185 9.52989E-05-2.86942E-05-2.85400E-05-9.13485E-07 4.14109E-19-8.01685E-19
 -1      3186 9.53167E-05-2.86444E-05-2.85689E-05-9.05458E-07 2.51771E-19-6.54452E-19
 -1      3187 9.55178E-05-2.87842E-05-2.85994E-05-8.65620E-07 3.23249E-19-7.39698E-19
 -1      3188 9.52797E-05-2.87279E-05-2.85339E-05-8.40677E-07 3.44471E-20-8.84289E-20
 -1      3189 9.52477E-05-2.87600E-05-2.84701E-05-8.12637E-07 2.37441E-19-2.85046E-19
 -1      3190 9.53946E-05-2.88011E-05-2.85327E-05-8.36752E-07 2.51883E-19-5.93241E-19
 -1      3191 9.52760E-05-2.85986E-05-2.86084E-05-8.60728E-07 5.16329E-19-4.35229E-20
 -1      3192 9.52335E-05-2.86404E-05-2.85734E-05-8.50461E-07 2.11136E-19 7.18291E-20
 -1      3193 9.53253E-05-2.87016E-05-2.85794E-05-8.45494E-07 1.04255E-19-2.23934E-19
 -1      3194 9.50938E-05-2.83065E-05-2.85877E-05-9.81461E-07 3.33969E-19-2.12883E-19
 -1      3195 9.51953E-05-2.85047E-05-2.85976E-05-9.26975E-07 7.22082E-19 1.58686E-19
 -1      3196 9.50981E-05-2.84881E-05-2.86248E-05-8.30776E-07 5.87497E-19-9.60059E-20
 -1      3197 9.55257E-05-2.84448E-05-2.86601E-05-1.29396E-06 5.34359E-19-4.27699E-19
 -1      3198 9.54471E-05-2.83413E-05-2.86182E-05-1.27669E-06 3.41460E-19-2.76530E-19
 -1      3199 9.53029E-05-2.84628E-05-2.85842E-05-9.77842E-07 2.94609E-19 2.62686E-19
 -1      3200 9.54592E-05-2.82686E-05-2.87646E-05-1.36628E-06-9.57300E-20 2.95820E-19
 -1      3201 9.54268E-05-2.83386E-05-2.87045E-05-1.27673E-06 2.10686E-19 4.76588E-20
 -1      3202 9.55142E-05-2.83765E-05-2.86817E-05-1.20791E-06 1.78128E-19 5.18861E-19
 -1      3203 9.54268E-05-2.80483E-05-2.88638E-05-1.68451E-06-4.46037E-19 2.03088E-19
 -1      3204 9.53921E-05-2.81403E-05-2.88117E-05-1.51241E-06-7.37676E-20 1.57581E-19
 -1      3205 9.52621E-05-2.80648E-05-2.87770E-05-1.44239E-06-1.63965E-19 5.85313E-19
 -1      3206 9.54360E-05-2.78364E-05-2.89634E-05-2.14244E-06-4.09378E-19-1.82481E-19
 -1      3207 9.53753E-05-2.79245E-05-2.89080E-05-1.90261E-06-3.96352E-19 4.88812E-20
 -1      3208 9.51447E-05-2.77808E-05-2.88655E-05-1.82892E-06-3.26524E-19 7.20276E-20
 -1      3209 9.54827E-05-2.76376E-05-2.90692E-05-2.72867E-06 1.21031E-19-1.99909E-19
 -1      3210 9.53931E-05-2.77147E-05-2.90083E-05-2.42524E-06-2.85476E-19-2.87644E-19
 -1      3211 9.50508E-05-2.74987E-05-2.89501E-05-2.34094E-06-2.98858E-19-4.22578E-19
 -1      3212 9.55716E-05-2.74664E-05-2.91802E-05-3.43825E-06-2.19675E-19-4.75426E-19
 -1      3213 9.54476E-05-2.75236E-05-2.91143E-05-3.07511E-06 3.23713E-19-1.79013E-19
 -1      3214 9.49730E-05-2.72270E-05-2.90334E-05-2.97935E-06 6.42566E-20-5.22550E-19
 -1      3215 9.57145E-05-2.73480E-05-2.92917E-05-4.26230E-06-3.36748E-19-6.42528E-19
 -1      3216 9.55470E-05-2.73700E-05-2.92231E-05-3.84659E-06-4.51459E-19-4.65954E-19
 -1      3217 9.49133E-05-2.69840E-05-2.91123E-05-3.74177E-06-2.20412E-19 1.64210E-20
 -1      3218 9.59411E-05-2.73300E-05-2.93959E-05-5.18324E-06-1.09517E-19-3.89638E-20
 -1      3219 9.57124E-05-2.72894E-05-2.93282E-05-4.72884E-06-5.22972E-19-3.51310E-19
 -1      3220 9.48846E-05-2.68005E-05-2.91791E-05-4.62455E-06-6.68794E-19 1.80736E-19
 -1      3221 9.63085E-05-2.74945E-05-2.94826E-05-6.16395E-06-9.33112E-19 1.47982E-18
 -1      3222 9.59885E-05-2.73462E-05-2.94208E-05-5.69767E-06-1.23266E-19 7.93425E-19
 -1      3223 9.49250E-05-2.67398E-05-2.92238E-05-5.61663E-06-6.98939E-19 1.29514E-18
 -1      3224 9.69153E-05-2.79678E-05-2.95397E-05-7.13762E-06-3.29483E-19 1.16435E-18
 -1      3225 9.64548E-05-2.76445E-05-2.94896E-05-6.70494E-06-3.70853E-19 1.23035E-18
 -1      3226 9.51081E-05-2.69053E-05-2.92345E-05-6.69137E-06-3.83912E-19 2.17222E-18
 -1      3227 9.79179E-05-2.89286E-05-2.95582E-05-7.99234E-06-1.78204E-19 7.07037E-19
 -1      3228 9.72432E-05-2.83385E-05-2.95240E-05-7.66586E-06-4.77729E-20 8.24110E-19
 -1      3229 9.55616E-05-2.74554E-05-2.91993E-05-7.79793E-06 2.78855E-19 1.51810E-18
 -1      3230 9.95435E-05-3.05995E-05-2.95412E-05-8.54880E-06 6.78016E-19 1.38196E-19
 -1      3231 9.85552E-05-2.96348E-05-2.95201E-05-8.43864E-06-1.13912E-19 3.92859E-19
 -1      3232 9.64907E-05-2.86108E-05-2.91128E-05-8.84497E-06 5.06574E-19 8.30924E-21
 -1      3233 1.02080E-04-3.31996E-05-2.95205E-05-8.52520E-06 2.98385E-19 3.94537E-19
 -1      3234 1.00670E-04-3.17703E-05-2.94948E-05-8.79224E-06 1.00040E-18 3.73143E-19
 -1      3235 9.81982E-05-3.06454E-05-2.89894E-05-9.66998E-06 5.36049E-19 7.10110E-19
 -1      3236 1.05800E-04-3.68034E-05-2.95850E-05-7.48837E-06-1.14367E-18 1.50609E-18
 -1      3237 1.03913E-04-3.49285E-05-2.95075E-05-8.35165E-06-3.32377E-19 1.13046E-18
 -1      3238 1.01085E-04-3.38301E-05-2.88850E-05-9.97863E-06-3.01779E-19 1.55444E-18
 -1      3239 1.10717E-04-4.10093E-05-2.99180E-05-4.83595E-06-6.90051E-19 1.86455E-18
 -1      3240 1.08502E-04-3.90135E-05-2.96986E-05-6.53697E-06-1.19379E-18 1.79722E-18
 -1      3241 1.05563E-04-3.82364E-05-2.89386E-05-9.22160E-06-1.50392E-18 1.93021E-18
 -1      3242 1.16195E-04-4.44423E-05-3.08224E-05 1.28996E-09-3.34118E-19 2.14879E-18
 -1      3243 1.14174E-04-4.31902E-05-3.03248E-05-2.62222E-06-1.90070E-19 2.14815E-18
 -1      3244 1.11773E-04-4.33273E-05-2.94239E-05-6.56893E-06-6.58941E-19 2.15245E-18
 -1      3245 1.20492E-04-4.44063E-05-3.26917E-05 6.75629E-06-2.43644E-19 1.48029E-18
 -1      3246 1.19542E-04-4.53284E-05-3.17576E-05 3.66840E-06 3.34181E-20 1.94431E-18
 -1      3247 1.18741E-04-4.71573E-05-3.07694E-05-1.13489E-06 2.22166E-19 2.44589E-18
 -1      3248 1.16155E-04-2.26414E-05-4.02490E-05 1.24676E-05 1.70026E-18-2.90268E-19
 -1      3249 1.18254E-04-2.80559E-05-3.89998E-05 1.42653E-05 1.75894E-18 1.42010E-19
 -1      3250 1.11757E-04-1.61765E-05-4.12783E-05 2.89381E-06 3.04222E-18-2.09323E-19
 -1      3251 1.12975E-04-1.86751E-05-4.06443E-05 8.08194E-06 2.15914E-18-8.06812E-19
 -1      3252 1.20564E-04-3.06490E-05-3.90461E-05-1.37926E-05-4.06179E-19 6.21709E-19
 -1      3253 1.18010E-04-2.42460E-05-4.04371E-05-1.21219E-05-1.24937E-19 1.22264E-19
 -1      3254 1.25405E-04-4.32379E-05-3.53798E-05-1.00448E-05-1.45256E-18-6.13768E-19
 -1      3255 1.24007E-04-3.78822E-05-3.70655E-05-1.21209E-05-5.45172E-19-2.29969E-19
 -1      3256 1.14782E-04-4.38627E-05-3.02882E-05 3.36165E-06 8.34811E-19-1.27317E-18
 -1      3257 1.16843E-04-4.49914E-05-3.08396E-05 5.12443E-07 7.29864E-19-9.42966E-19
 -1      3258 1.08939E-04-3.96939E-05-2.95897E-05 7.63273E-06 6.56746E-19-1.31430E-18
 -1      3259 1.11244E-04-4.16777E-05-2.98406E-05 5.80320E-06 1.12272E-18-7.74459E-19
 -1      3260 1.12707E-04-4.42077E-05-2.94942E-05 7.13901E-06 4.80827E-19-8.79869E-19
 -1      3261 1.04190E-04-3.55111E-05-2.93755E-05 9.77233E-06-6.23336E-19-1.36043E-18
 -1      3262 1.06179E-04-3.74783E-05-2.94634E-05 8.77404E-06-2.33611E-19-1.41500E-18
 -1      3263 1.06281E-04-3.91593E-05-2.88941E-05 1.04358E-05 1.10258E-19-1.19209E-18
 -1      3264 1.00753E-04-3.21127E-05-2.93813E-05 1.04261E-05 3.83415E-20-2.13065E-18
 -1      3265 1.02275E-04-3.36822E-05-2.93999E-05 1.00730E-05 2.21618E-19-1.56276E-18
 -1      3266 1.01695E-04-3.45532E-05-2.88446E-05 1.15335E-05-1.02602E-19-6.89474E-19
 -1      3267 9.84333E-05-2.96281E-05-2.94669E-05 1.01460E-05 5.98627E-19-1.66402E-18
 -1      3268 9.95432E-05-3.07866E-05-2.94624E-05 1.02418E-05-3.50214E-19-2.20845E-18
 -1      3269 9.86379E-05-3.10626E-05-2.90032E-05 1.13979E-05-1.39840E-19-1.14424E-18
 -1      3270 9.69098E-05-2.78607E-05-2.95759E-05 9.27191E-06 5.25843E-19-8.21382E-19
 -1      3271 9.77035E-05-2.87067E-05-2.95634E-05 9.68213E-06 9.69819E-19-1.05784E-18
 -1      3272 9.67535E-05-2.86055E-05-2.92304E-05 1.06024E-05-1.63497E-19-8.63702E-19
 -1      3273 9.57793E-05-2.66388E-05-2.96182E-05 8.53553E-06-1.34477E-18-9.70906E-19
 -1      3274 9.64280E-05-2.73046E-05-2.96170E-05 8.93876E-06-3.29626E-19-5.52573E-19
 -1      3275 9.55638E-05-2.69971E-05-2.94002E-05 9.68967E-06-4.96519E-19-1.17525E-18
 -1      3276 9.47259E-05-2.58284E-05-2.95435E-05 8.82278E-06-4.52927E-19 6.33355E-19
 -1      3277 8.14992E-05-3.98190E-05-1.74158E-05-3.49896E-05-1.38935E-18 2.65937E-18
 -1      3278 1.30031E-04-5.56230E-05-3.21796E-05 4.25226E-06-1.17817E-19-1.72781E-18
 -1      3279 1.23969E-04-5.59928E-05-2.90545E-05 1.24119E-05-2.66379E-19-1.66413E-18
 -1      3280 8.66831E-05-1.97609E-05-2.86940E-05-3.62482E-07 1.52337E-18 3.92357E-19
 -1      3281 8.67942E-05-1.98453E-05-2.86975E-05 1.38630E-06 1.11170E-18 1.57945E-18
 -1      3282 9.15058E-05-2.34103E-05-2.91684E-05-8.85131E-06 6.12887E-19-1.53237E-18
 -1      3283 9.03039E-05-2.25433E-05-2.90700E-05-8.13120E-06 1.37167E-18-3.00922E-18
 -1      3284 8.73487E-05-2.02388E-05-2.87565E-05-3.97045E-06 6.79980E-19-8.86276E-19
 -1      3285 8.68817E-05-1.99143E-05-2.87218E-05-2.34564E-06 1.12611E-18-6.73869E-19
 -1      3286 8.57122E-05-1.97960E-05-2.82225E-05-1.44312E-06 9.22225E-19-5.20602E-19
 -1      3287 9.19204E-05-1.82824E-05-3.15742E-05 2.02607E-06 2.34765E-19-1.89741E-18
 -1      3288 9.17046E-05-1.80620E-05-3.15728E-05 1.27466E-06 4.77857E-21-2.01438E-18
 -1      3289 1.21914E-04-1.90479E-05-4.46524E-05 1.22540E-05 1.67840E-18 2.90416E-18
 -1      3290 1.12407E-04-5.32759E-05-2.54286E-05 2.31793E-05-2.29228E-19-2.35569E-18
 -1      3291 9.75781E-05-4.68167E-05-2.12845E-05 3.09936E-05 3.54483E-19-3.21677E-18
 -1      3292 5.31676E-05-1.85198E-05-1.46282E-05 2.02268E-05-4.91914E-19-5.15917E-18
 -1      3293 4.36955E-05-1.33652E-05-1.23184E-05 1.09876E-05-4.83656E-19-4.53491E-18
 -1      3294 1.23486E-04-3.49873E-05-3.80933E-05 1.48331E-05 1.72665E-18 7.72838E-19
 -1      3295 1.18456E-04-1.45793E-05-4.49938E-05 7.05188E-06 1.69258E-18 1.54078E-18
 -1      3296 1.14026E-04-1.86519E-05-4.13829E-05-8.11831E-06 3.90112E-19 6.49770E-19
 -1      3297 1.28054E-04-4.12856E-05-3.74855E-05 1.18087E-05 1.21539E-18 1.77271E-18
 -1      3298 1.21295E-04-3.90444E-05-3.52934E-05 1.24239E-05 2.54441E-19 6.96033E-19
 -1      3299 1.22264E-04-4.29330E-05-3.40268E-05 1.03880E-05-2.33665E-19 9.38479E-19
 -1      3300 1.30575E-04-4.79156E-05-3.53818E-05 7.74630E-06 1.05544E-18 2.04651E-18
 -1      3301 7.58521E-05-3.38154E-05-1.75535E-05-3.22060E-05-1.56807E-18 3.02513E-18
 -1      3302 9.24398E-05-4.46831E-05-2.05538E-05-3.29962E-05-1.41190E-18 1.09950E-18
 -1      3303 4.75956E-05-1.62997E-05-1.32713E-05 1.64823E-05 1.64605E-18 1.31820E-18
 -1      3304 4.32201E-05-1.31521E-05-1.25332E-05 4.20539E-06 9.84987E-19 5.29607E-19
 -1      3305 9.56003E-05-2.74193E-05-2.92276E-05 4.77368E-07 7.01118E-19-8.11275E-19
 -1      3306 9.56789E-05-2.70191E-05-2.94102E-05 1.03171E-06 8.87473E-19-8.90288E-19
 -1      3307 8.90905E-05-2.15628E-05-2.89208E-05-6.98092E-06 4.71758E-19-2.99452E-18
 -1      3308 8.81382E-05-2.08921E-05-2.88511E-05-5.69183E-06 6.23949E-19-1.58291E-18
 -1      3309 8.68388E-05-2.06207E-05-2.83603E-05-5.28564E-06 3.75066E-20-1.42625E-18
 -1      3310 8.91232E-05-2.22894E-05-2.86375E-05-8.23581E-06 2.66413E-19-2.02167E-18
 -1      3311 1.00578E-04-4.79633E-05-2.26160E-05 3.01418E-05-3.00339E-18 1.06197E-18
 -1      3312 8.73566E-05-3.99661E-05-1.98933E-05 3.21492E-05-3.56791E-18 3.59269E-18
 -1      3313 9.38552E-05-2.51293E-05-2.94267E-05-1.99198E-06-9.97619E-19-4.06853E-19
 -1      3314 9.38799E-05-2.58187E-05-2.91808E-05-1.19300E-06-8.86809E-19-4.75490E-19
 -1      3315 9.41485E-05-2.57864E-05-2.93006E-05-1.01912E-06-6.84716E-19-4.90261E-19
 -1      3316 1.21243E-04-1.60293E-05-4.53661E-05 7.07245E-06 4.17375E-19-4.97566E-19
 -1      3317 1.21371E-04-4.51189E-05-3.27299E-05-5.86102E-06-1.30562E-18-1.11509E-18
 -1      3318 1.28325E-04-4.84497E-05-3.44502E-05-4.89843E-06 6.27466E-20-1.22779E-18
 -1      3319 1.28573E-04-5.38701E-05-3.18635E-05 2.94470E-06-3.37060E-19-1.00397E-18
 -1      3320 1.20560E-04-4.62550E-05-3.18019E-05-2.76951E-06 1.58250E-19-1.59243E-18
 -1      3321 1.12955E-04-1.58728E-05-4.18906E-05-2.83746E-06 1.83690E-18 3.97718E-19
 -1      3322 9.55287E-05-2.80131E-05-2.89393E-05-2.61689E-07 7.04022E-19-7.81321E-19
 -1      3323 9.56006E-05-2.77639E-05-2.90598E-05 6.52878E-08 7.17258E-19-6.39407E-19
 -1      3324 9.57965E-05-2.73856E-05-2.93250E-05 4.45699E-07 7.16690E-19-6.95494E-19
 -1      3325 5.34693E-05-1.92648E-05-1.40974E-05-2.25209E-05-1.29871E-18 2.05511E-18
 -1      3326 6.14918E-05-2.51598E-05-1.55333E-05-2.87199E-05-1.58977E-18 3.46415E-18
 -1      3327 1.06147E-04-5.04995E-05-2.34457E-05-2.72193E-05-1.14786E-18 4.06106E-19
 -1      3328 1.16262E-04-5.49864E-05-2.65725E-05-2.09752E-05 1.64986E-19 1.57455E-19
 -1      3329 4.49040E-05-1.35485E-05-1.30400E-05-7.01573E-06 5.25509E-19-1.44133E-18
 -1      3330 5.11037E-05-1.79498E-05-1.41186E-05-1.94577E-05 1.09400E-18-3.33318E-18
 -1      3331 7.15057E-05-3.05862E-05-1.76017E-05 3.09510E-05-1.83695E-18 5.06393E-18
 -1      3332 5.85638E-05-2.17216E-05-1.52269E-05 2.41870E-05 4.17534E-19 1.74981E-18
 -1      3333 1.23411E-04-2.23812E-05-4.40115E-05 1.28645E-05 8.91290E-19-6.18069E-20
 -1      3334 1.27832E-04-3.03531E-05-4.20200E-05 1.36633E-05 5.71959E-19-2.62527E-19
 -1      3335 1.30421E-04-3.98438E-05-3.94252E-05 1.33940E-05-4.87017E-19-8.32925E-19
 -1      3336 9.15464E-05-1.79397E-05-3.15586E-05 6.25714E-07-1.10803E-19-2.12228E-18
 -1      3337 9.14449E-05-1.79146E-05-3.15256E-05-1.40608E-07-2.38426E-19-2.12136E-18
 -1      3338 9.25447E-05-1.95260E-05-3.12764E-05 8.56186E-07 1.75683E-21-1.91255E-18
 -1      3339 1.32023E-04-4.60840E-05-3.66770E-05 8.89280E-06-1.04746E-18-1.28225E-18
 -1      3340 9.19148E-05-4.13203E-05-2.12966E-05 2.90045E-05 7.38110E-19-2.97397E-18
 -1      3341 9.33617E-05-2.02306E-05-3.13667E-05 4.44426E-06 8.85186E-19-1.84929E-18
 -1      3342 9.29075E-05-1.95508E-05-3.14474E-05 3.85740E-06 6.90868E-19-1.87518E-18
 -1      3343 9.43099E-05-2.20042E-05-3.09659E-05 3.83706E-06 8.92861E-19-1.60106E-18
 -1      3344 9.25506E-05-2.12570E-05-3.05650E-05-4.83016E-06-1.27301E-18-7.50555E-19
 -1      3345 9.29007E-05-2.20958E-05-3.03498E-05-4.92713E-06-1.32363E-18-6.30397E-19
 -1      3346 9.32070E-05-2.30660E-05-3.00404E-05-3.94075E-06-1.13091E-18-5.49010E-19
 -1      3347 9.17577E-05-1.92301E-05-3.10934E-05-3.40017E-06-6.54956E-19-1.51918E-18
 -1      3348 9.20045E-05-1.98442E-05-3.09510E-05-3.98907E-06-8.82837E-19-1.32718E-18
 -1      3349 9.56053E-05-2.65774E-05-2.95907E-05 1.56050E-06 9.67955E-19-9.66664E-19
 -1      3350 9.56706E-05-2.59764E-05-2.98543E-05 2.42965E-06 1.09419E-18-9.59699E-19
 -1      3351 9.55315E-05-2.53061E-05-3.01139E-05 2.79298E-06 1.10094E-18-9.46694E-19
 -1      3352 9.57177E-05-2.64625E-05-2.96857E-05 1.44693E-06 8.80084E-19-9.40327E-19
 -1      3353 1.20134E-04-5.15855E-05-2.94631E-05 8.43867E-06 4.57894E-20-1.11117E-18
 -1      3354 1.24009E-04-5.09876E-05-3.11632E-05 1.79317E-06 6.50075E-19 1.57654E-19
 -1      3355 1.26868E-04-5.04878E-05-3.27573E-05-2.68556E-06 1.98523E-23 4.97513E-19
 -1      3356 1.28363E-04-4.28083E-05-3.70919E-05-1.22536E-05-5.93452E-20 1.31793E-19
 -1      3357 1.28123E-04-3.62793E-05-3.94368E-05-1.57208E-05-1.86188E-19-2.67292E-19
 -1      3358 9.56045E-05-2.86678E-05-2.86898E-05-8.15889E-07 3.62748E-19-3.34120E-19
 -1      3359 9.53652E-05-2.85836E-05-2.86202E-05-8.64973E-07 1.34387E-19-5.78701E-19
 -1      3360 9.53958E-05-2.84919E-05-2.86673E-05-7.92711E-07 2.73232E-19-5.73828E-19
 -1      3361 9.33897E-05-2.39237E-05-2.97877E-05-3.11110E-06-1.06716E-18-5.06400E-19
 -1      3362 1.18952E-04-5.19855E-05-2.88041E-05-1.24690E-05-3.69518E-20-2.30382E-18
 -1      3363 1.23599E-04-5.31713E-05-3.01206E-05 7.49509E-06-3.81277E-19-4.49318E-19
 -1      3364 1.16644E-04-2.00875E-05-4.17622E-05 1.08189E-05 1.71874E-18-1.45584E-20
 -1      3365 1.23967E-04-4.68119E-05-3.32076E-05 6.07506E-06 2.46169E-21 1.94668E-18
 -1      3366 7.38454E-05-2.99931E-05-1.83916E-05-2.80676E-05-1.62567E-18 3.26685E-18
 -1      3367 5.89739E-05-1.93163E-05-1.66158E-05 1.81171E-05 1.29265E-18 1.19929E-18
 -1      3368 1.19812E-04-4.81695E-05-3.08670E-05 1.94862E-06 6.95930E-19-2.18729E-18
 -1      3369 8.21007E-05-3.40275E-05-2.03517E-05 2.79827E-05-2.39504E-18 3.11568E-18
 -1      3370 1.24231E-04-2.87335E-05-4.14375E-05-1.51390E-05-1.26150E-18-2.56810E-19
 -1      3371 1.30986E-04-5.07234E-05-3.43437E-05-4.98554E-06-5.26510E-19-4.93397E-19
 -1      3372 9.15967E-05-1.87812E-05-3.12250E-05-2.86210E-06-5.66560E-19-1.81707E-18
 -1      3373 9.25273E-05-2.04759E-05-3.08519E-05-2.61739E-06-5.28142E-19-1.55644E-18
 -1      3374 9.14690E-05-1.84044E-05-3.13242E-05-2.15834E-06-4.63364E-19-1.85738E-18
 -1      3375 8.88779E-05-2.15544E-05-2.88840E-05 6.38098E-06 1.32236E-18 7.38317E-20
 -1      3376 8.99181E-05-2.23141E-05-2.89554E-05 7.46603E-06 3.89054E-19 2.12272E-18
 -1      3377 8.59944E-05-2.00439E-05-2.82390E-05 2.63383E-06 1.35715E-18 1.30428E-18
 -1      3378 8.72392E-05-2.02429E-05-2.87396E-05 3.32720E-06 1.24484E-18 1.74989E-18
 -1      3379 8.79072E-05-2.07243E-05-2.87806E-05 4.86687E-06 1.30993E-18 5.71969E-19
 -1      3380 4.80173E-05-1.32005E-05-1.45252E-05 3.59785E-06-1.00203E-18-3.52673E-18
 -1      3381 9.21907E-05-1.85979E-05-3.15506E-05 2.63426E-06 3.40104E-19-1.96213E-18
 -1      3382 9.29512E-05-1.99574E-05-3.12646E-05 2.02713E-06 2.34850E-19-1.80223E-18
 -1      3383 9.25237E-05-1.90305E-05-3.15162E-05 3.33274E-06 5.58295E-19-1.99989E-18
 -1      3384 8.80889E-05-4.00251E-05-2.01771E-05-3.17883E-05 9.80547E-19-2.75243E-18
 -1      3385 9.68655E-05-4.42983E-05-2.26322E-05-2.86986E-05 2.88547E-19-2.33943E-18
 -1      3386 8.20372E-05-3.41582E-05-2.03677E-05-2.88388E-05 2.77033E-19-2.58975E-18
 -1      3387 9.35550E-05-2.38652E-05-2.98828E-05-2.73668E-06-1.01695E-18-6.71544E-19
 -1      3388 1.18966E-04-5.39282E-05-2.77781E-05 1.54716E-05-5.47951E-19-1.27980E-18
 -1      3389 1.10325E-04-4.85846E-05-2.63418E-05 1.84465E-05 1.99165E-19-1.99736E-18
 -1      3390 7.01678E-05-2.71349E-05-1.81989E-05 2.60228E-05 6.67052E-19-3.81445E-18
 -1      3391 6.09950E-05-2.21525E-05-1.60782E-05 2.46241E-05 5.91335E-20-4.99141E-18
 -1      3392 5.73445E-05-1.80262E-05-1.67348E-05 1.75162E-05-2.77364E-19-4.69950E-18
 -1      3393 5.08898E-05-1.41643E-05-1.52425E-05-1.54114E-06 7.59334E-19-4.79209E-19
 -1      3394 8.99385E-05-2.30179E-05-2.86811E-05 8.49129E-06 8.88324E-19 1.35926E-18
 -1      3395 9.09955E-05-2.31642E-05-2.90942E-05 8.21366E-06-9.68034E-20 1.24611E-18
 -1      3396 9.19943E-05-2.38804E-05-2.91788E-05 8.65542E-06 5.62905E-19 1.03789E-18
 -1      3397 9.54435E-05-2.83738E-05-2.87459E-05-6.73875E-07 3.75069E-19-5.38691E-19
 -1      3398 9.54929E-05-2.82191E-05-2.88228E-05-5.00794E-07 5.74005E-19-6.02247E-19
 -1      3399 9.57687E-05-2.80406E-05-2.90314E-05-2.45075E-07 5.03452E-19-4.61303E-19
 -1      3400 9.56939E-05-2.84396E-05-2.88274E-05-6.33644E-07 3.40445E-19-3.81785E-19
 -1      3401 1.08759E-04-5.06780E-05-2.46709E-05 2.49228E-05-2.32198E-18 1.46661E-18
 -1      3402 1.03168E-04-4.58313E-05-2.44871E-05 2.44256E-05-1.97797E-18 2.38802E-18
 -1      3403 1.14735E-04-5.20704E-05-2.70171E-05 1.80038E-05-1.30950E-18 1.82267E-18
 -1      3404 6.24925E-05-2.18512E-05-1.69706E-05-2.12778E-05 3.25869E-19-2.28794E-18
 -1      3405 9.32359E-05-2.49139E-05-2.92781E-05-9.69681E-06 1.34397E-18 6.59916E-19
 -1      3406 9.23011E-05-2.41061E-05-2.92412E-05-9.32785E-06 5.91164E-19-4.83758E-19
 -1      3407 9.13966E-05-2.39907E-05-2.88903E-05-9.78143E-06 1.09814E-19-1.75938E-18
 -1      3408 9.33022E-05-2.53928E-05-2.90953E-05-1.04053E-05 7.20904E-19-5.81908E-19
 -1      3409 1.25455E-04-5.61895E-05-2.94102E-05-1.15172E-05 8.88908E-19 1.28513E-18
 -1      3410 1.30095E-04-5.31825E-05-3.33133E-05-6.19812E-07 1.02733E-18 2.56164E-18
 -1      3411 1.26255E-04-4.99497E-05-3.27891E-05 2.46110E-06 1.73610E-19 2.90846E-18
 -1      3412 1.19315E-04-5.31494E-05-2.82234E-05-1.33491E-05-1.40025E-20 1.57901E-18
 -1      3413 5.26947E-05-1.65815E-05-1.50393E-05-1.58026E-05-1.97115E-18-5.82335E-22
 -1      3414 9.97091E-05-4.53551E-05-2.30893E-05-2.66856E-05-1.48379E-18 4.20340E-20
 -1      3415 9.22889E-05-2.05802E-05-3.07363E-05-4.55045E-06-1.08766E-18-9.87583E-19
 -1      3416 8.76153E-05-2.13042E-05-2.84056E-05 6.20545E-06 1.98679E-18 4.97005E-19
 -1      3417 9.45959E-05-2.65250E-05-2.91641E-05-2.85706E-07-4.92305E-19-6.74223E-19
 -1      3418 9.46640E-05-2.70219E-05-2.89968E-05 1.21665E-07-5.90835E-19-5.65259E-19
 -1      3419 9.47613E-05-2.74429E-05-2.88434E-05 3.97197E-07-6.51153E-19-4.60305E-19
 -1      3420 9.47765E-05-2.77632E-05-2.87241E-05 6.48409E-07-7.77581E-19-4.12517E-19
 -1      3421 9.49513E-05-2.71048E-05-2.90777E-05 1.88276E-07-5.38364E-19-6.53671E-19
 -1      3422 9.48023E-05-2.80264E-05-2.86128E-05 8.12304E-07-7.14930E-19-2.14533E-19
 -1      3423 9.47942E-05-2.82248E-05-2.85315E-05 9.52618E-07-4.46852E-19-8.79911E-20
 -1      3424 9.50736E-05-2.78612E-05-2.88071E-05 6.49741E-07-5.76868E-19-2.68568E-19
 -1      3425 9.47778E-05-2.83758E-05-2.84543E-05 1.03799E-06-4.47554E-19 5.44005E-20
 -1      3426 9.47607E-05-2.84866E-05-2.84032E-05 1.10705E-06-3.10119E-19-6.51631E-20
 -1      3427 9.50845E-05-2.83261E-05-2.86130E-05 9.19578E-07-4.68209E-19-5.57377E-20
 -1      3428 9.47190E-05-2.85552E-05-2.83539E-05 1.14362E-06-2.08099E-19-2.52785E-19
 -1      3429 9.46980E-05-2.85994E-05-2.83271E-05 1.17322E-06-3.31974E-19-1.74208E-19
 -1      3430 9.50288E-05-2.85776E-05-2.84814E-05 1.06007E-06-3.76919E-19-4.13735E-19
 -1      3431 9.46388E-05-2.86034E-05-2.83005E-05 1.18387E-06-5.48103E-19-5.46449E-20
 -1      3432 9.46115E-05-2.85919E-05-2.82932E-05 1.19605E-06-4.72698E-19-9.35748E-22
 -1      3433 9.49311E-05-2.86675E-05-2.84008E-05 1.12312E-06-3.99984E-19-4.11691E-19
 -1      3434 9.45374E-05-2.85409E-05-2.82843E-05 1.19547E-06-3.59630E-19 5.56672E-20
 -1      3435 9.44961E-05-2.84792E-05-2.82898E-05 1.19810E-06-1.74795E-19 1.02467E-19
 -1      3436 9.48012E-05-2.86292E-05-2.83609E-05 1.14507E-06-4.61065E-19-1.44528E-19
 -1      3437 9.44099E-05-2.83848E-05-2.82922E-05 1.19069E-06-2.58582E-19-9.57034E-20
 -1      3438 9.43551E-05-2.82900E-05-2.82987E-05 1.17873E-06-2.29067E-19-9.03389E-20
 -1      3439 9.46429E-05-2.84898E-05-2.83505E-05 1.14443E-06-1.78458E-19-4.78724E-19
 -1      3440 9.42692E-05-2.81770E-05-2.83010E-05 1.17044E-06-2.69659E-19-5.94452E-19
 -1      3441 9.42220E-05-2.80791E-05-2.82905E-05 1.15491E-06-4.76813E-19-5.03905E-19
 -1      3442 9.44694E-05-2.82872E-05-2.83538E-05 1.13222E-06-3.85230E-19-1.02151E-18
 -1      3443 9.41432E-05-2.79705E-05-2.82870E-05 1.15767E-06-5.67678E-19-4.26766E-19
 -1      3444 9.41163E-05-2.79027E-05-2.82572E-05 1.15541E-06-6.35817E-19-1.91112E-19
 -1      3445 9.42988E-05-2.80550E-05-2.83547E-05 1.12967E-06-3.73144E-19-1.08114E-18
 -1      3446 9.40856E-05-2.78089E-05-2.82276E-05 1.22763E-06-5.86253E-19-3.93936E-19
 -1      3447 9.41010E-05-2.77108E-05-2.81894E-05 1.31992E-06-4.16687E-19-8.30622E-20
 -1      3448 9.41645E-05-2.78401E-05-2.83369E-05 1.19903E-06-6.72200E-19-9.25463E-19
 -1      3449 9.40447E-05-2.75627E-05-2.82293E-05 1.38122E-06-4.77991E-19 2.13082E-19
 -1      3450 9.39919E-05-2.73844E-05-2.84029E-05 1.57313E-06-4.46122E-19 3.20655E-19
 -1      3451 9.39972E-05-2.75051E-05-2.83481E-05 1.36239E-06-1.89365E-19-5.16839E-19
 -1      3452 9.42670E-05-2.73446E-05-2.84933E-05 1.68076E-06-6.39331E-19 9.84093E-19
 -1      3453 9.41733E-05-2.73913E-05-2.87430E-05 1.51103E-06-5.76406E-19 6.20240E-19
 -1      3454 9.39342E-05-2.72633E-05-2.85041E-05 1.54743E-06-3.46681E-19 4.64558E-19
 -1      3455 9.44794E-05-2.70438E-05-2.91748E-05 1.77730E-06-2.95932E-19 5.73230E-19
 -1      3456 9.42123E-05-2.68449E-05-2.93446E-05 2.48752E-06-1.60248E-19 3.78094E-19
 -1      3457 9.40016E-05-2.69244E-05-2.89364E-05 2.08553E-06-6.40675E-19 8.03133E-19
 -1      3458 9.42950E-05-2.66760E-05-2.91869E-05 2.73100E-06-1.48502E-19 7.27495E-19
 -1      3459 9.40133E-05-2.64112E-05-2.90982E-05 3.10538E-06 2.74538E-19 1.04884E-18
 -1      3460 9.37457E-05-2.62919E-05-2.90801E-05 2.35211E-06-5.11396E-20 1.14821E-18
 -1      3461 9.37133E-05-2.61289E-05-2.90388E-05 3.50052E-06 2.45797E-19 2.25073E-19
 -1      3462 9.35106E-05-2.58939E-05-2.90081E-05 3.92840E-06-6.60024E-20 9.57710E-20
 -1      3463 9.32702E-05-2.58391E-05-2.89674E-05 3.06454E-06-1.82443E-19 2.53541E-19
 -1      3464 9.31489E-05-2.56130E-05-2.89688E-05 4.38503E-06-8.84397E-20 7.90917E-20
 -1      3465 9.29688E-05-2.54113E-05-2.89538E-05 4.88185E-06 1.39088E-19-2.22548E-19
 -1      3466 9.25835E-05-2.52421E-05-2.88749E-05 3.91007E-06-2.03215E-19-4.62755E-19
 -1      3467 9.25688E-05-2.51648E-05-2.89005E-05 5.41493E-06 7.03934E-19-1.55849E-20
 -1      3468 9.24160E-05-2.50352E-05-2.88702E-05 5.98132E-06 8.29073E-19 3.19919E-19
 -1      3469 9.18214E-05-2.46752E-05-2.87731E-05 4.87379E-06 5.10723E-19-6.72720E-21
 -1      3470 9.19964E-05-2.48708E-05-2.87800E-05 6.60854E-06 2.34634E-19-4.32884E-20
 -1      3471 9.19112E-05-2.48799E-05-2.87159E-05 7.24707E-06-6.35683E-19-2.36804E-19
 -1      3472 9.10001E-05-2.42169E-05-2.86136E-05 5.99957E-06 7.10638E-20-8.05950E-19
 -1      3473 9.15153E-05-2.48761E-05-2.85717E-05 7.99447E-06-1.06044E-18-3.83302E-19
 -1      3474 9.15826E-05-2.51296E-05-2.84616E-05 8.70820E-06-6.24681E-19-3.83868E-19
 -1      3475 9.01737E-05-2.39913E-05-2.83572E-05 7.33972E-06-6.87365E-19-1.33426E-18
 -1      3476 9.12972E-05-2.54079E-05-2.82486E-05 9.61590E-06-6.23363E-19-5.11409E-19
 -1      3477 9.16681E-05-2.60661E-05-2.80861E-05 1.04051E-05-3.32281E-19-1.00748E-18
 -1      3478 8.94615E-05-2.41934E-05-2.79701E-05 8.97382E-06-9.80561E-19-2.20508E-19
 -1      3479 9.16559E-05-2.68080E-05-2.77950E-05 1.15249E-05 1.27751E-19-7.89687E-19
 -1      3480 9.25784E-05-2.80982E-05-2.75886E-05 1.23677E-05 5.73875E-19-1.26202E-18
 -1      3481 8.90946E-05-2.51262E-05-2.74244E-05 1.10236E-05-5.00618E-20-6.46792E-19
 -1      3482 9.31305E-05-2.95616E-05-2.72270E-05 1.37366E-05 9.71356E-19-2.09403E-18
 -1      3483 9.49756E-05-3.17683E-05-2.70201E-05 1.45289E-05 1.44845E-18-1.35011E-18
 -1      3484 8.94947E-05-2.72423E-05-2.67098E-05 1.36363E-05 5.38322E-19-1.62211E-18
 -1      3485 9.66048E-05-3.42974E-05-2.66425E-05 1.60718E-05 1.43837E-18-1.67338E-18
 -1      3486 9.98708E-05-3.76439E-05-2.65592E-05 1.64791E-05 1.00045E-18-9.74666E-19
 -1      3487 9.14076E-05-3.11815E-05-2.58696E-05 1.68950E-05 1.05578E-18-2.55515E-18
 -1      3488 1.02033E-04-4.06197E-05-2.61898E-05 1.79900E-05 7.29694E-19-1.61543E-18
 -1      3489 1.07038E-04-4.49990E-05-2.64759E-05 1.74795E-05 2.11533E-19-2.14767E-18
 -1      3490 1.00547E-04-4.42349E-05-2.43014E-05 2.40285E-05 4.56246E-19-3.43742E-18
 -1      3491 9.49290E-05-3.68875E-05-2.49937E-05 2.05179E-05 7.09612E-19-2.97593E-18
 -1      3492 1.19480E-04-5.11722E-05-2.90882E-05 9.96386E-06-5.81806E-20-2.27792E-19
 -1      3493 9.92499E-05-3.64002E-05-2.68465E-05-1.70101E-05 1.85121E-18-1.93470E-18
 -1      3494 9.62292E-05-3.32883E-05-2.69216E-05-1.66973E-05 2.04950E-18-2.37970E-18
 -1      3495 9.50238E-05-3.11003E-05-2.73404E-05-1.52853E-05 1.49124E-18-1.68001E-18
 -1      3496 9.35485E-05-2.91428E-05-2.75944E-05-1.45305E-05 1.16463E-18-1.02545E-18
 -1      3497 9.19775E-05-3.06085E-05-2.63408E-05-1.71916E-05 1.74657E-18-3.09377E-18
 -1      3498 9.32418E-05-2.78324E-05-2.80015E-05-1.32983E-05 6.22552E-19-6.78262E-19
 -1      3499 9.25474E-05-2.66098E-05-2.82617E-05-1.24841E-05 6.03357E-19-1.63152E-19
 -1      3500 9.06388E-05-2.71116E-05-2.72555E-05-1.42322E-05 9.65337E-19-1.45393E-18
 -1      3501 9.56104E-05-2.88896E-05-2.85844E-05-7.87300E-07 2.97133E-19-7.04478E-19
 -1      3502 9.56403E-05-2.88804E-05-2.86053E-05-7.90679E-07 3.20818E-19-7.84421E-19
 -1      3503 9.29025E-05-2.16669E-05-3.05004E-05-3.57386E-06-9.61980E-19-1.02312E-18
 -1      3504 9.55081E-05-2.88320E-05-2.85762E-05-7.80090E-07 1.93302E-19-4.62583E-19
 -1      3505 9.55362E-05-2.88640E-05-2.85686E-05-7.77585E-07 2.30805E-19-6.91215E-19
 -1      3506 9.57025E-05-2.89141E-05-2.86233E-05-7.26602E-07 2.07138E-19-6.05084E-19
 -1      3507 9.57047E-05-2.88623E-05-2.86425E-05-7.90966E-07 4.80727E-19-6.45373E-19
 -1      3508 9.57467E-05-2.88156E-05-2.86806E-05-7.79047E-07 6.32413E-19-4.16750E-19
 -1      3509 9.58357E-05-2.89180E-05-2.86795E-05-7.20466E-07 6.14456E-19-6.07700E-19
 -1      3510 9.51965E-05-2.85100E-05-2.86404E-05-6.54065E-07 2.26581E-20-1.09505E-19
 -1      3511 9.52881E-05-2.85934E-05-2.86386E-05-7.47006E-07 2.27686E-19-5.07717E-19
 -1      3512 9.55082E-05-2.85871E-05-2.86574E-05-9.20730E-07 2.67808E-19 6.96155E-20
 -1      3513 9.51576E-05-2.85742E-05-2.86281E-05-6.26320E-07 3.52127E-19 2.00826E-19
 -1      3514 9.53356E-05-2.86111E-05-2.86556E-05-7.21354E-07-6.01658E-20-6.44572E-19
 -1      3515 9.52106E-05-2.81431E-05-2.87162E-05-1.15344E-06-2.45511E-19 5.76892E-19
 -1      3516 9.53057E-05-2.83112E-05-2.86855E-05-1.00030E-06-1.40515E-19 3.28821E-19
 -1      3517 9.51855E-05-2.82752E-05-2.86912E-05-9.65909E-07 2.65492E-20-1.31493E-19
 -1      3518 9.50384E-05-2.78239E-05-2.87918E-05-1.46210E-06-3.21053E-19 5.27613E-19
 -1      3519 9.51000E-05-2.79823E-05-2.87487E-05-1.29122E-06-7.03699E-20 6.43394E-19
 -1      3520 9.49738E-05-2.79069E-05-2.87356E-05-1.16965E-06-2.25858E-19 2.42981E-19
 -1      3521 9.48496E-05-2.74817E-05-2.88650E-05-1.88411E-06-1.18963E-19 1.35190E-19
 -1      3522 9.49014E-05-2.76415E-05-2.88244E-05-1.65836E-06-2.48582E-19 3.27097E-19
 -1      3523 9.47366E-05-2.75410E-05-2.87939E-05-1.50451E-06-1.54534E-20 4.98314E-19
 -1      3524 9.46581E-05-2.71331E-05-2.89344E-05-2.42583E-06-7.98858E-20-2.13332E-19
 -1      3525 9.47028E-05-2.72905E-05-2.88950E-05-2.13926E-06-5.01611E-20-6.83720E-20
 -1      3526 9.44596E-05-2.71340E-05-2.88523E-05-1.95525E-06 1.32948E-19 2.51917E-19
 -1      3527 9.44622E-05-2.67928E-05-2.89962E-05-3.08757E-06 1.40360E-20 2.67156E-19
 -1      3528 9.44984E-05-2.69410E-05-2.89590E-05-2.74071E-06 7.49982E-20-2.00529E-21
 -1      3529 9.41567E-05-2.67153E-05-2.89016E-05-2.52334E-06-6.44829E-20 4.46868E-19
 -1      3530 9.42569E-05-2.64756E-05-2.90439E-05-3.86843E-06-5.46613E-19 5.36964E-19
 -1      3531 9.42833E-05-2.66052E-05-2.90119E-05-3.46259E-06-2.38765E-19 5.40838E-19
 -1      3532 9.38225E-05-2.63030E-05-2.89354E-05-3.20499E-06-3.03969E-19 3.34840E-19
 -1      3533 9.40571E-05-2.62170E-05-2.90671E-05-4.77374E-06-1.09848E-18 4.76540E-19
 -1      3534 9.40603E-05-2.63051E-05-2.90451E-05-4.30957E-06-7.18590E-19 6.49067E-20
 -1      3535 9.34472E-05-2.59084E-05-2.89422E-05-4.00902E-06-3.43006E-19 3.15219E-19
 -1      3536 9.39057E-05-2.60893E-05-2.90552E-05-5.80108E-06-8.39072E-19 7.50999E-19
 -1      3537 9.38590E-05-2.60947E-05-2.90488E-05-5.28609E-06-1.01457E-18 2.77910E-19
 -1      3538 9.30510E-05-2.55809E-05-2.89121E-05-4.94986E-06-9.99520E-19-2.36858E-20
 -1      3539 9.38868E-05-2.62100E-05-2.89929E-05-6.94015E-06-3.77700E-19 1.14335E-18
 -1      3540 9.37402E-05-2.60667E-05-2.90091E-05-6.38854E-06-5.78706E-19 1.05276E-18
 -1      3541 9.26801E-05-2.54028E-05-2.88311E-05-6.03966E-06-9.75048E-19 1.48173E-19
 -1      3542 9.41478E-05-2.67576E-05-2.88663E-05-8.16603E-06 7.05463E-19 1.03096E-18
 -1      3543 9.38174E-05-2.63677E-05-2.89105E-05-7.60408E-06 3.06735E-19 1.49535E-18
 -1      3544 9.24275E-05-2.55101E-05-2.86810E-05-7.29219E-06-1.94423E-19 6.76155E-19
 -1      3545 9.49273E-05-2.79828E-05-2.86698E-05-9.42673E-06 7.75777E-19 5.75423E-19
 -1      3546 9.42829E-05-2.72122E-05-2.87421E-05-8.90124E-06 1.01974E-18 1.08414E-18
 -1      3547 9.24576E-05-2.61066E-05-2.84461E-05-8.71899E-06 8.25083E-19 1.01543E-18
 -1      3548 9.65851E-05-3.02070E-05-2.84211E-05-1.06125E-05 1.66928E-19 1.34126E-18
 -1      3549 9.54417E-05-2.88905E-05-2.85071E-05-1.02084E-05 1.40260E-19 6.60492E-19
 -1      3550 9.30419E-05-2.74806E-05-2.81218E-05-1.03188E-05 2.48262E-19 1.58006E-18
 -1      3551 9.96204E-05-3.37734E-05-2.81870E-05-1.14742E-05-1.23475E-18 2.50515E-18
 -1      3552 9.77434E-05-3.17542E-05-2.82444E-05-1.13582E-05-2.26438E-19 1.73375E-18
 -1      3553 9.46094E-05-3.00097E-05-2.77320E-05-1.20327E-05-5.05550E-19 1.52802E-18
 -1      3554 1.04602E-04-3.89064E-05-2.81332E-05-1.14782E-05-1.36346E-18 2.03018E-18
 -1      3555 1.01799E-04-3.61598E-05-2.80625E-05-1.19862E-05-1.48974E-18 2.19327E-18
 -1      3556 9.77652E-05-3.41080E-05-2.73619E-05-1.36467E-05-1.09484E-18 1.76473E-18
 -1      3557 1.11762E-04-4.50821E-05-2.86133E-05-9.60376E-06-9.14349E-19 2.18548E-18
 -1      3558 1.08173E-04-4.20231E-05-2.82284E-05-1.11674E-05-1.12010E-18 1.88912E-18
 -1      3559 1.03452E-04-4.01929E-05-2.72217E-05-1.45600E-05-1.39014E-18 1.59996E-18
 -1      3560 1.24306E-04-5.06635E-05-3.13730E-05-8.20143E-07 4.18792E-19 2.85575E-18
 -1      3561 6.52765E-05-2.10386E-05-1.89381E-05 1.89102E-05 6.46492E-19 7.33319E-19
 -1      3562 5.69294E-05-1.59034E-05-1.73011E-05 1.16709E-05 9.57280E-19 3.56071E-19
 -1      3563 1.09983E-04-4.48407E-05-2.78110E-05 1.39674E-05-3.56310E-19 1.46320E-18
 -1      3564 1.14023E-04-4.79054E-05-2.82862E-05 1.21985E-05-2.66405E-19 7.28669E-19
 -1      3565 9.61992E-05-2.93386E-05-2.86356E-05 1.19639E-05 7.81013E-20 1.17088E-18
 -1      3566 9.74284E-05-3.08533E-05-2.85054E-05 1.23304E-05 7.60018E-20 1.22789E-18
 -1      3567 9.49129E-05-2.71888E-05-2.90180E-05 1.06368E-05-4.95348E-19 5.78581E-19
 -1      3568 9.56459E-05-2.82283E-05-2.88757E-05 1.11823E-05 5.95173E-20 7.21063E-19
 -1      3569 9.41133E-05-2.79206E-05-2.83961E-05 1.20783E-05 4.09491E-19 3.30082E-18
 -1      3570 9.86374E-05-3.25605E-05-2.82795E-05 1.30230E-05 1.89764E-19 1.52152E-18
 -1      3571 1.00599E-04-3.47310E-05-2.82040E-05 1.30354E-05 1.84230E-20 1.63293E-18
 -1      3572 9.57601E-05-3.08529E-05-2.78696E-05 1.37491E-05 5.08946E-19 2.78152E-18
 -1      3573 1.15613E-04-5.53112E-05-2.57682E-05-2.33795E-05 6.51633E-19-2.46710E-18
 -1      3574 1.20552E-04-5.51799E-05-2.80320E-05-1.59204E-05-2.38652E-19-1.39276E-18
 -1      3575 5.39186E-05-1.39270E-05-1.70437E-05 6.06884E-06-1.71625E-18-3.10395E-18
 -1      3576 5.14932E-05-1.28203E-05-1.62987E-05-3.24110E-06-2.00978E-18-2.07899E-18
 -1      3577 8.42645E-05-1.96559E-05-2.76898E-05-2.61084E-06-3.63448E-19-1.45952E-18
 -1      3578 8.39957E-05-1.95077E-05-2.76546E-05-5.22259E-07 2.46659E-19-7.90008E-19
 -1      3579 9.53706E-05-2.86752E-05-2.86103E-05-7.69816E-07 2.81804E-19-5.61450E-19
 -1      3580 9.54243E-05-2.87607E-05-2.85830E-05-7.73019E-07 7.35140E-20-5.50214E-19
 -1      3581 9.53958E-05-2.86683E-05-2.86272E-05-6.95570E-07 1.73040E-19-3.13025E-19
 -1      3582 9.34481E-05-2.31777E-05-3.01215E-05-2.42897E-06-7.96879E-19-9.46278E-19
 -1      3583 9.13971E-05-1.79818E-05-3.14756E-05-7.91881E-07-3.20880E-19-2.15652E-18
 -1      3584 9.14069E-05-1.81484E-05-3.14115E-05-1.54194E-06-4.17675E-19-1.95986E-18
 -1      3585 9.23397E-05-1.97894E-05-3.10737E-05-1.54882E-06-3.99820E-19-1.91066E-18
 -1      3586 9.42318E-05-2.51770E-05-2.95989E-05-1.33654E-06-6.73814E-19-7.43354E-19
 -1      3587 9.43790E-05-2.58803E-05-2.93680E-05-7.13572E-07-5.43453E-19-7.10488E-19
 -1      3588 9.46432E-05-2.59404E-05-2.94410E-05-5.30870E-07-4.84635E-19-8.99117E-19
 -1      3589 1.02917E-04-3.71980E-05-2.80649E-05 1.34126E-05-7.24376E-19 1.51119E-18
 -1      3590 1.05937E-04-4.01172E-05-2.81715E-05 1.26384E-05 1.93785E-19 1.34443E-18
 -1      3591 9.91136E-05-3.53520E-05-2.74232E-05 1.52491E-05-1.61896E-19 3.15646E-18
 -1      3592 9.02290E-05-3.73854E-05-2.26581E-05 2.62237E-05-1.97155E-18 3.80762E-18
 -1      3593 7.76205E-05-2.86967E-05-2.07881E-05 2.45599E-05-9.83280E-19 3.26227E-18
 -1      3594 7.01280E-05-2.50055E-05-1.90959E-05-2.37629E-05-1.65304E-18 3.55862E-18
 -1      3595 8.18959E-05-3.33700E-05-2.09067E-05-2.72817E-05-1.08269E-18 2.29321E-18
 -1      3596 1.08686E-04-5.05277E-05-2.47001E-05-2.47035E-05-1.77400E-19-1.82986E-18
 -1      3597 5.44242E-05-1.41526E-05-1.71310E-05 3.43455E-06 2.01811E-18 8.33798E-19
 -1      3598 5.59419E-05-1.48912E-05-1.75741E-05-7.14613E-06 1.58618E-18-1.79878E-18
 -1      3599 6.17064E-05-1.59989E-05-1.93038E-05 5.72898E-06 1.24775E-18-2.68457E-19
 -1      3600 1.03519E-04-4.41891E-05-2.53276E-05-2.15315E-05-2.13770E-19-2.18572E-18
 -1      3601 9.91610E-05-3.98381E-05-2.53130E-05-2.11747E-05 6.72197E-19-1.52620E-18
 -1      3602 5.44307E-05-1.46179E-05-1.68552E-05-1.05103E-05-2.33969E-18-1.01988E-18
 -1      3603 6.15018E-05-1.92235E-05-1.81381E-05-1.88340E-05-2.40875E-18 1.58093E-18
 -1      3604 6.02173E-05-1.51708E-05-1.90780E-05-7.03065E-06-2.49808E-18-8.56761E-19
 -1      3605 9.34449E-05-3.99476E-05-2.25989E-05-2.63175E-05-1.29833E-18 2.47651E-19
 -1      3606 1.03890E-04-4.62211E-05-2.49948E-05-2.24811E-05-1.60440E-18-4.59065E-19
 -1      3607 6.15950E-05-1.82020E-05-1.83574E-05-1.55588E-05 1.02067E-18-2.16147E-18
 -1      3608 7.09307E-05-2.50872E-05-1.95909E-05-2.33826E-05 3.21409E-19-2.54388E-18
 -1      3609 9.29337E-05-2.45324E-05-2.93321E-05 8.85834E-06-4.57002E-20 8.11975E-19
 -1      3610 9.39056E-05-2.52650E-05-2.94104E-05 8.94216E-06-7.06605E-19 5.58172E-19
 -1      3611 9.42255E-05-2.58074E-05-2.93145E-05 9.43857E-06-4.25402E-19 7.33618E-19
 -1      3612 9.21642E-05-2.45168E-05-2.89992E-05 9.38486E-06 6.46821E-19 1.76499E-18
 -1      3613 9.59191E-05-2.73968E-05-2.93741E-05 3.28446E-07 4.98771E-19-6.93599E-19
 -1      3614 9.59155E-05-2.69343E-05-2.95516E-05 7.92805E-07 6.44179E-19-8.02237E-19
 -1      3615 8.82157E-05-3.69232E-05-2.17832E-05 2.66924E-05 8.43632E-19-3.08795E-18
 -1      3616 9.31977E-05-2.20755E-05-3.05025E-05-2.39548E-06-6.42221E-19-1.32631E-18
 -1      3617 9.39106E-05-2.40305E-05-2.99318E-05-1.74160E-06-6.72880E-19-9.32792E-19
 -1      3618 9.40946E-05-2.41583E-05-2.99749E-05-1.37026E-06-5.79750E-19-1.02404E-18
 -1      3619 9.30765E-05-2.16064E-05-3.06379E-05-1.94003E-06-4.85711E-19-1.60776E-18
 -1      3620 9.57741E-05-2.64355E-05-2.97251E-05 1.19669E-06 6.81100E-19-9.88537E-19
 -1      3621 9.57099E-05-2.59079E-05-2.99155E-05 1.78514E-06 7.51431E-19-1.06695E-18
 -1      3622 9.58642E-05-2.64357E-05-2.97633E-05 1.05909E-06 5.03730E-19-9.11626E-19
 -1      3623 9.49535E-05-2.35639E-05-3.06139E-05 3.26626E-06 9.12562E-19-1.41668E-18
 -1      3624 9.45909E-05-2.28424E-05-3.07493E-05 3.02842E-06 6.59823E-19-1.46856E-18
 -1      3625 5.71372E-05-1.50931E-05-1.76474E-05 1.07770E-05-1.21448E-18-4.11383E-18
 -1      3626 5.93756E-05-1.45810E-05-1.91005E-05 5.09933E-06-2.27982E-18-2.65526E-18
 -1      3627 6.24022E-05-1.81967E-05-1.87958E-05 1.51675E-05-4.92421E-19-3.95448E-18
 -1      3628 1.04851E-04-4.26793E-05-2.67006E-05 1.77980E-05-6.25206E-19 2.68059E-18
 -1      3629 1.14432E-04-5.00678E-05-2.72529E-05-1.53851E-05-8.84172E-19 1.14003E-18
 -1      3630 1.20360E-04-5.19027E-05-2.96239E-05-8.06719E-06 1.37663E-19 2.63542E-18
 -1      3631 9.58055E-05-2.87493E-05-2.87380E-05-7.48216E-07 4.43851E-19-4.98666E-19
 -1      3632 9.58525E-05-2.86496E-05-2.87965E-05-6.85067E-07 3.76635E-19-3.08003E-19
 -1      3633 9.59568E-05-2.88133E-05-2.87779E-05-6.73321E-07 4.78450E-19-4.71940E-19
 -1      3634 8.15852E-05-2.80100E-05-2.28765E-05 2.05993E-05 2.39856E-19 3.80426E-18
 -1      3635 7.37497E-05-2.48123E-05-2.08010E-05 2.14741E-05 2.71037E-19 1.50610E-18
 -1      3636 7.03910E-05-2.10258E-05-2.11804E-05 1.59727E-05-4.88831E-20 5.59677E-19
 -1      3637 9.23426E-05-1.94717E-05-3.12126E-05-3.61376E-07-2.26688E-19-2.03093E-18
 -1      3638 9.23214E-05-3.58131E-05-2.42234E-05-2.29596E-05 6.03921E-19-1.66668E-18
 -1      3639 9.30361E-05-2.62587E-05-2.86028E-05-1.17067E-05 1.42208E-18-6.36967E-19
 -1      3640 9.28947E-05-2.56330E-05-2.88257E-05-1.10123E-05 1.19805E-18-5.15251E-19
 -1      3641 9.19120E-05-2.49294E-05-2.86997E-05-1.07886E-05 1.13039E-18-8.05358E-19
 -1      3642 9.09784E-05-2.54774E-05-2.80582E-05-1.21587E-05 7.37033E-19 2.69320E-19
 -1      3643 9.55550E-05-2.88201E-05-2.86083E-05-7.21180E-07 3.27184E-19-8.40647E-19
 -1      3644 1.19704E-04-4.92127E-05-3.02499E-05-3.86394E-06 4.05676E-19 2.62412E-18
 -1      3645 1.16278E-04-4.73663E-05-2.92893E-05-7.05845E-06-4.44522E-19 2.57211E-18
 -1      3646 1.11466E-04-4.68265E-05-2.79483E-05-1.26771E-05-1.03906E-18 1.51691E-18
 -1      3647 8.87619E-05-3.48727E-05-2.29047E-05-2.34428E-05-1.12460E-18 7.15531E-19
 -1      3648 1.13154E-04-4.92770E-05-2.70731E-05-1.73848E-05-5.98045E-19-2.31806E-18
 -1      3649 9.46808E-05-2.64213E-05-2.92446E-05 9.83547E-06-1.87262E-19 3.50128E-19
 -1      3650 9.59859E-05-2.78009E-05-2.92116E-05 1.87656E-08 4.55136E-19-7.30089E-19
 -1      3651 9.60541E-05-2.74248E-05-2.94205E-05 2.84695E-07 5.19285E-19-8.81099E-19
 -1      3652 9.59474E-05-2.80916E-05-2.90857E-05-2.59363E-07 3.78906E-19-5.62288E-19
 -1      3653 6.47222E-05-1.76988E-05-1.98976E-05-1.05279E-05 1.78625E-18-1.00319E-18
 -1      3654 9.34277E-05-2.59630E-05-2.89113E-05 1.04005E-05-1.63695E-20 1.02296E-18
 -1      3655 9.35525E-05-2.07793E-05-3.11681E-05 3.06339E-06 4.70848E-19-1.77198E-18
 -1      3656 8.27304E-05-1.94105E-05-2.71111E-05 8.78880E-07 1.09970E-18-9.04880E-19
 -1      3657 8.41925E-05-1.96880E-05-2.76697E-05 1.99239E-06 1.52050E-18-4.93883E-19
 -1      3658 8.48084E-05-2.00903E-05-2.77252E-05 4.03400E-06 2.31188E-18-3.07531E-20
 -1      3659 7.09398E-05-2.25953E-05-2.04586E-05-1.88952E-05-1.76390E-18 2.02309E-18
 -1      3660 7.77450E-05-2.86559E-05-2.07440E-05-2.46953E-05 1.01622E-18-2.94411E-18
 -1      3661 8.55781E-05-3.30968E-05-2.24112E-05-2.44644E-05 3.75740E-19-2.03565E-18
 -1      3662 7.57205E-05-2.49646E-05-2.17335E-05-2.01587E-05 1.06166E-18-3.00237E-18
 -1      3663 9.37294E-05-2.14634E-05-3.09853E-05 1.99887E-06 1.78773E-19-1.87703E-18
 -1      3664 9.34977E-05-2.11518E-05-3.10124E-05 1.48147E-06 9.10945E-20-1.64882E-18
 -1      3665 8.88375E-05-2.30323E-05-2.82357E-05 8.97424E-06 1.59377E-18 1.96340E-18
 -1      3666 9.02392E-05-2.38946E-05-2.84045E-05 9.73972E-06 1.01589E-18 2.23027E-18
 -1      3667 8.61008E-05-2.08724E-05-2.79221E-05-6.70973E-06 1.86210E-19-5.12397E-19
 -1      3668 8.50449E-05-2.02542E-05-2.78011E-05-4.94414E-06-4.21676E-20-1.37587E-18
 -1      3669 8.34282E-05-1.98563E-05-2.72172E-05-4.16445E-06-2.25331E-19-1.12998E-18
 -1      3670 9.33140E-05-2.09563E-05-3.10220E-05 1.04339E-06 1.40892E-19-1.76256E-18
 -1      3671 9.31687E-05-2.08351E-05-3.10092E-05 4.80055E-07 4.78534E-20-1.93670E-18
 -1      3672 9.41012E-05-2.23008E-05-3.07567E-05 1.06139E-06 1.25124E-19-1.72320E-18
 -1      3673 1.08000E-04-4.57541E-05-2.65665E-05-1.67826E-05-1.40036E-18 4.78368E-19
 -1      3674 1.01974E-04-4.57690E-05-2.40513E-05-2.51576E-05-3.86671E-19-1.60395E-18
 -1      3675 9.08864E-05-2.42030E-05-2.85996E-05-1.03671E-05 9.08223E-19-2.49417E-18
 -1      3676 8.59151E-05-2.09768E-05-2.78690E-05 6.11119E-06 2.70360E-18 6.81918E-19
 -1      3677 8.72133E-05-2.18035E-05-2.80034E-05 7.66204E-06 1.79517E-18 1.55876E-18
 -1      3678 8.72928E-05-2.26846E-05-2.76964E-05 9.08822E-06 1.47142E-18 2.23040E-18
 -1      3679 8.42577E-05-2.05214E-05-2.72876E-05 5.64542E-06 2.78015E-18-6.68676E-20
 -1      3680 8.91260E-05-2.29807E-05-2.83228E-05-9.54234E-06 2.10557E-19-2.79381E-18
 -1      3681 8.75298E-05-2.19920E-05-2.81315E-05-8.41650E-06-2.10167E-19-1.55330E-18
 -1      3682 8.57559E-05-2.14877E-05-2.75614E-05-8.27160E-06 5.37458E-19-1.12407E-18
 -1      3683 8.94611E-05-2.39399E-05-2.80960E-05-1.07084E-05 5.76042E-19-1.46299E-18
 -1      3684 8.98033E-05-3.46111E-05-2.34504E-05 2.24462E-05 4.11751E-19-3.09372E-18
 -1      3685 7.97507E-05-3.14422E-05-2.05601E-05 2.66347E-05 6.92423E-19-2.92120E-18
 -1      3686 7.26823E-05-2.54640E-05-2.02421E-05 2.23961E-05 2.50034E-19-3.53387E-18
 -1      3687 8.75191E-05-3.16771E-05-2.39262E-05 2.05584E-05 5.60292E-19-2.75207E-18
 -1      3688 9.52779E-05-2.44673E-05-3.03400E-05 3.06910E-06 9.81174E-19-1.17782E-18
 -1      3689 9.54801E-05-2.51097E-05-3.01513E-05 2.30018E-06 8.51464E-19-1.23409E-18
 -1      3690 9.42923E-05-2.23328E-05-3.08569E-05 2.78611E-06 4.58532E-19-1.60627E-18
 -1      3691 9.39843E-05-2.18221E-05-3.09311E-05 2.36519E-06 2.30424E-19-1.71163E-18
 -1      3692 9.44929E-05-2.28460E-05-3.06911E-05 1.78626E-06 1.86489E-19-1.66801E-18
 -1      3693 9.49647E-05-2.37036E-05-3.05272E-05 2.30841E-06 5.23918E-19-1.35034E-18
 -1      3694 9.46860E-05-2.54053E-05-2.96761E-05-7.15636E-07-4.93866E-19-9.43624E-19
 -1      3695 9.48837E-05-2.61418E-05-2.94695E-05-2.70211E-07-3.46976E-19-9.65937E-19
 -1      3696 9.53082E-05-2.76868E-05-2.89760E-05 4.87490E-07-4.70773E-19-6.92181E-19
 -1      3697 9.53358E-05-2.80060E-05-2.88589E-05 6.72686E-07-5.03551E-19-5.39722E-19
 -1      3698 9.53555E-05-2.82611E-05-2.87513E-05 7.79487E-07-4.13022E-19-5.06940E-19
 -1      3699 9.53402E-05-2.84498E-05-2.86687E-05 8.85631E-07-3.53546E-19-5.62140E-19
 -1      3700 9.55631E-05-2.81107E-05-2.89087E-05 6.45941E-07-4.05926E-19-9.07717E-19
 -1      3701 9.53067E-05-2.85855E-05-2.85925E-05 9.40422E-07-2.99097E-19-5.16527E-19
 -1      3702 9.52657E-05-2.86767E-05-2.85383E-05 9.95571E-07-3.31221E-19-5.98601E-19
 -1      3703 9.55491E-05-2.85366E-05-2.87209E-05 8.22556E-07-4.03506E-19-8.91508E-19
 -1      3704 9.51973E-05-2.87223E-05-2.84881E-05 1.01829E-06-3.15267E-19-4.15962E-19
 -1      3705 9.51387E-05-2.87381E-05-2.84570E-05 1.04411E-06-2.70745E-19-2.88458E-19
 -1      3706 9.54484E-05-2.87401E-05-2.85909E-05 9.14667E-07-2.28858E-19-6.67168E-19
 -1      3707 9.50465E-05-2.87139E-05-2.84280E-05 1.04923E-06-4.59279E-19-1.48172E-19
 -1      3708 9.49727E-05-2.86696E-05-2.84148E-05 1.05887E-06-3.96564E-19-2.21388E-19
 -1      3709 9.52900E-05-2.87743E-05-2.85083E-05 9.55282E-07-2.48025E-19-1.71783E-19
 -1      3710 9.48633E-05-2.85913E-05-2.84022E-05 1.05514E-06-5.21765E-19-3.75108E-19
 -1      3711 9.47773E-05-2.85019E-05-2.84009E-05 1.05472E-06-5.05204E-19-6.66289E-19
 -1      3712 9.50906E-05-2.86788E-05-2.84636E-05 9.66664E-07-5.99743E-19-9.73728E-20
 -1      3713 9.46578E-05-2.83866E-05-2.83988E-05 1.04975E-06-5.14887E-19-7.83075E-19
 -1      3714 9.45686E-05-2.82708E-05-2.84010E-05 1.04696E-06-5.62302E-19-1.00613E-18
 -1      3715 9.48629E-05-2.84877E-05-2.84464E-05 9.65110E-07-6.41386E-19-5.79570E-19
 -1      3716 9.44434E-05-2.81358E-05-2.84035E-05 1.05122E-06-3.83961E-19-8.19202E-19
 -1      3717 9.43646E-05-2.80153E-05-2.84027E-05 1.06408E-06-5.27586E-19-9.21383E-19
 -1      3718 9.46181E-05-2.82309E-05-2.84454E-05 9.70100E-07-4.63389E-19-7.85895E-19
 -1      3719 9.42382E-05-2.78680E-05-2.83981E-05 1.10492E-06-5.67810E-19-9.19858E-19
 -1      3720 9.41689E-05-2.77291E-05-2.83876E-05 1.16728E-06-6.74371E-19-9.01415E-19
 -1      3721 9.43643E-05-2.79328E-05-2.84454E-05 1.01763E-06-4.70343E-19-1.01155E-18
 -1      3722 9.40135E-05-2.75552E-05-2.83811E-05 1.23926E-06-1.50256E-19-2.08933E-19
 -1      3723 9.39542E-05-2.73937E-05-2.84085E-05 1.31464E-06 3.33430E-19-1.84792E-21
 -1      3724 9.40830E-05-2.75770E-05-2.84342E-05 1.14025E-06 2.83127E-20-6.33720E-19
 -1      3725 9.38294E-05-2.72029E-05-2.84094E-05 1.42082E-06-2.92756E-20-1.21433E-19
 -1      3726 9.37912E-05-2.70338E-05-2.85197E-05 1.58041E-06-3.46728E-19 2.84679E-19
 -1      3727 9.38200E-05-2.72289E-05-2.84060E-05 1.32620E-06 2.90109E-20 6.77097E-20
 -1      3728 9.37096E-05-2.68258E-05-2.86467E-05 1.70093E-06-3.25155E-19 4.73386E-19
 -1      3729 9.36766E-05-2.65995E-05-2.88570E-05 1.85773E-06-1.70307E-19 7.94715E-19
 -1      3730 9.35167E-05-2.67101E-05-2.84796E-05 1.58639E-06 1.11173E-19 2.79177E-19
 -1      3731 9.33838E-05-2.62452E-05-2.89681E-05 2.04399E-06-2.41510E-19 1.01572E-18
 -1      3732 9.31861E-05-2.59409E-05-2.89426E-05 2.30305E-06-2.26515E-19 7.51861E-19
 -1      3733 9.32292E-05-2.62474E-05-2.87413E-05 1.80147E-06-1.45451E-19 7.82195E-19
 -1      3734 9.28514E-05-2.56125E-05-2.89094E-05 2.55752E-06-6.98604E-19 2.18654E-19
 -1      3735 9.25340E-05-2.53102E-05-2.88577E-05 2.93568E-06-5.40589E-19-2.18637E-19
 -1      3736 9.25717E-05-2.54492E-05-2.88335E-05 2.17535E-06-6.23436E-19 1.31588E-19
 -1      3737 9.20750E-05-2.49533E-05-2.88033E-05 3.28320E-06-1.13138E-19-8.87532E-20
 -1      3738 9.17100E-05-2.46378E-05-2.87559E-05 3.70836E-06 5.88589E-20 3.56573E-20
 -1      3739 9.17537E-05-2.47256E-05-2.87515E-05 2.74345E-06-3.14077E-19 5.85746E-19
 -1      3740 9.11514E-05-2.42752E-05-2.86789E-05 4.12334E-06 4.23156E-19-6.87056E-20
 -1      3741 9.07477E-05-2.39845E-05-2.86117E-05 4.61193E-06 4.52976E-19-2.07542E-19
 -1      3742 9.07358E-05-2.39707E-05-2.86112E-05 3.45815E-06 2.15559E-19 4.29341E-19
 -1      3743 9.00948E-05-2.36467E-05-2.84936E-05 5.11096E-06 3.21161E-19-6.19138E-19
 -1      3744 8.96688E-05-2.34250E-05-2.83846E-05 5.68614E-06-8.21322E-20-8.99826E-19
 -1      3745 8.95314E-05-2.32231E-05-2.84050E-05 4.30949E-06 1.20756E-19-4.49656E-19
 -1      3746 8.89254E-05-2.31607E-05-2.82042E-05 6.30392E-06-4.30673E-19-6.96324E-19
 -1      3747 8.85187E-05-2.30789E-05-2.80351E-05 6.99847E-06-7.86073E-19-6.24375E-19
 -1      3748 8.81414E-05-2.25548E-05-2.80919E-05 5.35032E-06-3.23716E-19-2.50735E-20
 -1      3749 8.76999E-05-2.29621E-05-2.77694E-05 7.79371E-06-8.02587E-19-5.85287E-19
 -1      3750 8.73958E-05-2.31286E-05-2.75231E-05 8.66067E-06-4.95102E-19-1.21950E-19
 -1      3751 8.65797E-05-2.20756E-05-2.76258E-05 6.67565E-06-5.13696E-19-2.85592E-20
 -1      3752 8.65368E-05-2.32686E-05-2.71457E-05 9.73612E-06-4.57009E-19-1.07367E-19
 -1      3753 8.64941E-05-2.38556E-05-2.68079E-05 1.08576E-05-3.59935E-20-3.88565E-19
 -1      3754 8.48863E-05-2.19440E-05-2.69549E-05 8.44906E-06-6.47504E-19-3.85120E-19
 -1      3755 8.56897E-05-2.44330E-05-2.62877E-05 1.23744E-05-1.07806E-20-8.40640E-19
 -1      3756 8.61888E-05-2.57028E-05-2.58544E-05 1.38475E-05 6.81055E-20-1.34675E-18
 -1      3757 8.31627E-05-2.24155E-05-2.60140E-05 1.09647E-05-5.00772E-19-1.18441E-18
 -1      3758 8.57162E-05-2.69719E-05-2.52067E-05 1.59221E-05 1.95003E-19-1.49845E-18
 -1      3759 8.72261E-05-2.92986E-05-2.47141E-05 1.77924E-05 4.01626E-19-2.11459E-18
 -1      3760 8.13630E-05-2.70977E-05-2.31986E-05 1.95808E-05 1.85421E-20-2.06139E-18
 -1      3761 8.17598E-05-2.39038E-05-2.47712E-05 1.45341E-05-1.50464E-20-1.42335E-18
 -1      3762 9.54631E-05-2.50343E-05-3.01774E-05 2.01480E-06 6.23985E-19-1.13399E-18
 -1      3763 9.47638E-05-2.76925E-05-2.87398E-05-1.14164E-06-3.63183E-19 1.04316E-19
 -1      3764 9.48703E-05-2.78813E-05-2.87132E-05-1.01600E-06-4.52828E-19 1.11570E-20
 -1      3765 1.02873E-04-4.33744E-05-2.54694E-05 2.08016E-05-4.94240E-19 2.85024E-18
 -1      3766 9.66591E-05-4.05935E-05-2.37977E-05 2.48515E-05-1.32768E-18 3.24974E-18
 -1      3767 8.88896E-05-2.41721E-05-2.77339E-05-1.13240E-05 3.77602E-19-1.16236E-18
 -1      3768 8.78027E-05-2.58207E-05-2.65218E-05-1.41820E-05 1.03921E-18-1.85200E-18
 -1      3769 8.75550E-05-2.46178E-05-2.70010E-05-1.27967E-05 5.06349E-19-1.64303E-18
 -1      3770 9.29858E-05-2.10238E-05-3.08490E-05-1.03671E-06-2.58897E-19-1.83540E-18
 -1      3771 9.30168E-05-2.12885E-05-3.07578E-05-1.55626E-06-3.84143E-19-1.77745E-18
 -1      3772 9.37200E-05-2.26879E-05-3.04204E-05-1.39006E-06-4.15942E-19-1.49680E-18
 -1      3773 9.59351E-05-2.89649E-05-2.86990E-05-6.27139E-07 3.79158E-19-5.16317E-19
 -1      3774 9.60002E-05-2.89358E-05-2.87392E-05-6.09492E-07 4.76535E-19-5.05162E-19
 -1      3775 9.50393E-05-2.80922E-05-2.86937E-05-9.28436E-07-3.50872E-19-9.14796E-20
 -1      3776 9.51551E-05-2.83028E-05-2.86732E-05-8.43638E-07-1.47622E-19-5.80113E-19
 -1      3777 9.48421E-05-2.78919E-05-2.86962E-05-8.81104E-07-7.27720E-19-2.23943E-20
 -1      3778 9.53113E-05-2.84924E-05-2.86577E-05-7.44931E-07 4.67258E-20-6.72844E-19
 -1      3779 9.53272E-05-2.85693E-05-2.86461E-05-6.47216E-07 1.52777E-19-3.27961E-19
 -1      3780 9.51545E-05-2.83016E-05-2.86636E-05-7.15973E-07-2.55882E-19-3.44183E-19
 -1      3781 9.44445E-05-2.72543E-05-2.87923E-05-1.47601E-06-3.44910E-20 3.79847E-19
 -1      3782 9.45767E-05-2.74686E-05-2.87632E-05-1.28492E-06-8.79549E-20 4.62519E-19
 -1      3783 9.44887E-05-2.74277E-05-2.87389E-05-1.10192E-06-4.58948E-19-9.35086E-21
 -1      3784 9.40777E-05-2.67799E-05-2.88424E-05-1.93378E-06 5.07467E-20 4.45464E-19
 -1      3785 9.42265E-05-2.70055E-05-2.88159E-05-1.68357E-06 1.44003E-19 3.62422E-19
 -1      3786 9.40835E-05-2.69199E-05-2.87851E-05-1.44331E-06 1.58628E-19 1.44995E-19
 -1      3787 9.36779E-05-2.63039E-05-2.88775E-05-2.50222E-06-6.86245E-20 4.20944E-20
 -1      3788 9.38359E-05-2.65262E-05-2.88583E-05-2.19856E-06 3.99833E-20 3.93178E-19
 -1      3789 9.36245E-05-2.63826E-05-2.88216E-05-1.91025E-06 3.14362E-20 4.18086E-19
 -1      3790 9.32120E-05-2.58251E-05-2.88837E-05-3.16713E-06-1.08129E-19-5.05090E-19
 -1      3791 9.33946E-05-2.60468E-05-2.88770E-05-2.81208E-06 1.61487E-19-3.43030E-19
 -1      3792 9.31121E-05-2.58500E-05-2.88364E-05-2.46537E-06 3.61959E-19-3.49965E-19
 -1      3793 9.26736E-05-2.53521E-05-2.88487E-05-3.95587E-06-6.24010E-19-1.93984E-19
 -1      3794 9.28715E-05-2.55596E-05-2.88592E-05-3.53595E-06-3.79820E-19-4.40172E-19
 -1      3795 9.24880E-05-2.52862E-05-2.88018E-05-3.11350E-06-3.58165E-19-1.08960E-18
 -1      3796 9.20829E-05-2.49400E-05-2.87689E-05-4.88658E-06-1.07120E-18-3.01549E-19
 -1      3797 9.22836E-05-2.51026E-05-2.88015E-05-4.39797E-06-7.32949E-19-2.66523E-19
 -1      3798 9.17617E-05-2.47333E-05-2.87194E-05-3.89190E-06-7.10488E-19-2.54643E-19
 -1      3799 9.14862E-05-2.46756E-05-2.86237E-05-5.98614E-06-1.27786E-18 6.73602E-20
 -1      3800 9.16555E-05-2.47418E-05-2.86883E-05-5.41960E-06-1.32312E-18-2.16832E-19
 -1      3801 9.09445E-05-2.42379E-05-2.85796E-05-4.82907E-06-1.22360E-18-5.79559E-19
 -1      3802 9.09769E-05-2.47005E-05-2.83900E-05-7.29118E-06 3.25185E-19 1.66143E-19
 -1      3803 9.10514E-05-2.45890E-05-2.84962E-05-6.63570E-06-3.34121E-19 3.00499E-19
 -1      3804 9.00760E-05-2.38940E-05-2.83557E-05-5.97306E-06-1.01721E-18-7.66049E-19
 -1      3805 9.07218E-05-2.52253E-05-2.80475E-05-8.85058E-06 3.45903E-19 2.57630E-19
 -1      3806 9.05933E-05-2.48168E-05-2.82025E-05-8.09348E-06 3.99095E-19 9.27139E-20
 -1      3807 8.92391E-05-2.38493E-05-2.80193E-05-7.39403E-06 2.31221E-19-8.59790E-19
 -1      3808 9.10009E-05-2.65481E-05-2.75860E-05-1.07198E-05-5.09463E-19 1.20688E-18
 -1      3809 9.04930E-05-2.56761E-05-2.77891E-05-9.85562E-06 8.37670E-20 1.02429E-18
 -1      3810 8.85856E-05-2.43210E-05-2.75435E-05-9.19301E-06-3.78665E-19 1.43261E-19
 -1      3811 9.22841E-05-2.90934E-05-2.70234E-05-1.29318E-05-7.39459E-19 1.57536E-18
 -1      3812 9.11142E-05-2.75309E-05-2.72530E-05-1.19999E-05-3.86195E-19 1.54288E-18
 -1      3813 8.83742E-05-2.56109E-05-2.69079E-05-1.15388E-05-6.14758E-19 7.63912E-19
 -1      3814 9.53098E-05-3.33994E-05-2.64427E-05-1.53777E-05-9.08981E-19 3.79741E-19
 -1      3815 9.30625E-05-3.08818E-05-2.66367E-05-1.45088E-05-9.90516E-19 1.29379E-18
 -1      3816 8.91096E-05-2.82061E-05-2.61112E-05-1.46201E-05-5.82849E-19 1.17302E-18
 -1      3817 1.03558E-04-4.24612E-05-2.59425E-05-1.84213E-05-1.62805E-18-1.16848E-19
 -1      3818 9.19070E-05-2.60845E-05-2.81941E-05 1.15242E-05 9.40106E-19 2.82621E-18
 -1      3819 9.23847E-05-2.72058E-05-2.79021E-05 1.23887E-05 1.01509E-18 3.08212E-18
 -1      3820 9.25076E-05-2.83883E-05-2.74758E-05 1.36808E-05 5.45019E-19 2.58773E-18
 -1      3821 9.37000E-05-3.01315E-05-2.71878E-05 1.45642E-05 5.85003E-19 2.81146E-18
 -1      3822 8.99669E-05-2.64066E-05-2.72467E-05 1.31289E-05 3.10277E-19 2.96409E-18
 -1      3823 9.22829E-05-2.52788E-05-2.87240E-05 1.02270E-05 3.34466E-19 2.27738E-18
 -1      3824 9.51081E-05-2.67755E-05-2.92802E-05 8.68074E-09-3.56244E-19-9.31376E-19
 -1      3825 9.52064E-05-2.72705E-05-2.91211E-05 3.04766E-07-4.84669E-19-7.70326E-19
 -1      3826 9.51192E-05-2.62764E-05-2.95033E-05-1.27690E-07-3.77950E-19-9.11576E-19
 -1      3827 9.30653E-05-2.08047E-05-3.09782E-05 2.07180E-08-9.54635E-20-1.95987E-18
 -1      3828 9.30127E-05-2.08739E-05-3.09282E-05-5.42805E-07-1.87380E-19-1.99146E-18
 -1      3829 9.38325E-05-2.20751E-05-3.07361E-05 2.34886E-07 7.51086E-20-1.79317E-18
 -1      3830 8.47270E-05-3.05914E-05-2.30493E-05-2.14823E-05-1.20196E-18 5.36509E-19
 -1      3831 9.36381E-05-3.70429E-05-2.44677E-05-2.15421E-05-1.14741E-18-7.89342E-19
 -1      3832 8.72570E-05-3.05501E-05-2.43689E-05-2.03712E-05 1.44683E-18-1.75710E-18
 -1      3833 9.55920E-05-2.88141E-05-2.86257E-05-6.29439E-07 3.05193E-19-5.72545E-19
 -1      3834 9.56709E-05-2.88816E-05-2.86261E-05-6.31260E-07 2.44382E-19-5.45419E-19
 -1      3835 8.79499E-05-2.87739E-05-2.52700E-05-1.77776E-05 1.88644E-18-1.85818E-18
 -1      3836 8.69090E-05-2.68209E-05-2.57893E-05-1.59612E-05 1.67760E-18-2.19484E-18
 -1      3837 8.37169E-05-2.42489E-05-2.55426E-05-1.44836E-05 1.34176E-18-1.39367E-18
 -1      3838 8.19971E-05-2.64442E-05-2.37404E-05-1.87989E-05 1.59480E-18-1.97469E-18
 -1      3839 9.58951E-05-2.85126E-05-2.88803E-05-5.93522E-07 3.25525E-19-6.13463E-19
 -1      3840 9.59409E-05-2.83347E-05-2.89673E-05-4.45456E-07 3.22573E-19-5.26726E-19
 -1      3841 9.60555E-05-2.85712E-05-2.89245E-05-5.32814E-07 2.80540E-19-6.94922E-19
 -1      3842 9.43900E-05-3.19633E-05-2.67346E-05 1.61442E-05-1.80979E-19 3.01091E-18
 -1      3843 9.66395E-05-3.46970E-05-2.65031E-05 1.70281E-05-4.78646E-19 2.60969E-18
 -1      3844 9.06312E-05-2.93291E-05-2.62802E-05 1.62373E-05 3.73905E-19 3.11254E-18
 -1      3845 6.94924E-05-1.96364E-05-2.12258E-05-1.49014E-05-2.17106E-18 1.21697E-18
 -1      3846 7.65732E-05-2.52013E-05-2.20928E-05-1.98083E-05-1.34948E-18 1.69196E-18
 -1      3847 6.53813E-05-1.61245E-05-2.09569E-05-5.48511E-06 2.03550E-18-5.83844E-19
 -1      3848 6.98694E-05-1.94350E-05-2.16457E-05-1.29307E-05 1.92759E-18-2.24858E-18
 -1      3849 9.13982E-05-3.55108E-05-2.39038E-05 2.29753E-05-2.22545E-19 4.16908E-18
 -1      3850 6.51949E-05-1.70314E-05-2.05936E-05 9.26139E-06-7.23816E-20-1.75873E-18
 -1      3851 6.33020E-05-1.56098E-05-2.04901E-05 1.69465E-06 1.89215E-18-1.75733E-18
 -1      3852 9.54205E-05-2.86521E-05-2.86394E-05-6.21152E-07 7.27257E-20-2.61776E-19
 -1      3853 9.54878E-05-2.87304E-05-2.86257E-05-6.27125E-07 2.07022E-19-3.96383E-19
 -1      3854 9.53906E-05-2.86024E-05-2.86424E-05-5.84182E-07 2.23726E-19-2.11472E-19
 -1      3855 9.57732E-05-2.89364E-05-2.86434E-05-6.33976E-07 1.87097E-19-2.95827E-19
 -1      3856 9.58434E-05-2.89591E-05-2.86627E-05-6.28652E-07 3.69125E-19-1.35982E-19
 -1      3857 9.57910E-05-2.89270E-05-2.86592E-05-5.39894E-07 3.92633E-19-2.62185E-19
 -1      3858 6.20452E-05-1.46460E-05-2.02014E-05-2.41498E-06-2.76567E-18-1.19658E-18
 -1      3859 6.43559E-05-1.63748E-05-2.06288E-05-9.23299E-06-2.90744E-18-2.01898E-19
 -1      3860 9.90826E-05-3.84426E-05-2.58700E-05-1.77116E-05-1.24022E-18 3.11472E-19
 -1      3861 9.37107E-05-3.47912E-05-2.53342E-05 1.97385E-05-2.05761E-19 3.25242E-18
 -1      3862 8.91227E-05-3.17208E-05-2.44477E-05 2.03968E-05-1.58686E-19 4.28678E-18
 -1      3863 6.42087E-05-1.54401E-05-2.08303E-05 5.85078E-06-2.01145E-18-2.14078E-18
 -1      3864 6.24310E-05-1.45533E-05-2.04119E-05 1.09892E-06-2.76670E-18-1.07140E-18
 -1      3865 6.68562E-05-1.56599E-05-2.18625E-05-9.65998E-07-3.30733E-18-8.64051E-19
 -1      3866 9.60741E-05-2.88800E-05-2.87972E-05-5.89061E-07 6.19003E-19-5.55031E-19
 -1      3867 9.61330E-05-2.87861E-05-2.88595E-05-5.38214E-07 5.57439E-19-5.05352E-19
 -1      3868 9.61454E-05-2.89198E-05-2.88127E-05-4.92946E-07 5.02453E-19-6.74314E-19
 -1      3869 9.53326E-05-2.46583E-05-3.02984E-05 1.92461E-06 5.82185E-19-1.20868E-18
 -1      3870 9.51061E-05-2.41561E-05-3.04050E-05 1.77819E-06 4.61199E-19-1.43089E-18
 -1      3871 9.56192E-05-2.54345E-05-3.00674E-05 1.47667E-06 4.40263E-19-1.05671E-18
 -1      3872 8.46106E-05-2.80096E-05-2.43192E-05 1.83137E-05 5.14566E-19 3.43942E-18
 -1      3873 9.54437E-05-2.73892E-05-2.91654E-05 3.43264E-07-3.39742E-19-7.47557E-19
 -1      3874 9.37011E-05-2.21922E-05-3.06256E-05-6.31708E-07-1.43302E-19-1.79965E-18
 -1      3875 6.88628E-05-1.69299E-05-2.20882E-05-1.72934E-06 9.95039E-19-1.22030E-18
 -1      3876 8.62159E-05-2.29910E-05-2.70637E-05-1.10943E-05 6.26260E-19-1.79123E-18
 -1      3877 6.66515E-05-2.00474E-05-1.97532E-05 1.74818E-05-1.63808E-19-3.49843E-18
 -1      3878 6.47948E-05-1.72321E-05-2.04568E-05 1.15877E-05-1.08175E-18-2.86043E-18
 -1      3879 6.72683E-05-1.68093E-05-2.15916E-05 8.00686E-06-1.49218E-18-1.78557E-18
 -1      3880 7.48125E-05-2.37864E-05-2.17308E-05 1.84895E-05-2.66815E-19-3.20133E-18
 -1      3881 7.19368E-05-1.99736E-05-2.21421E-05 1.20989E-05-1.66551E-19-2.44409E-19
 -1      3882 9.59820E-05-2.89824E-05-2.87156E-05-5.29388E-07 1.19353E-19-1.64293E-19
 -1      3883 9.55363E-05-3.49245E-05-2.59269E-05-1.71615E-05-8.70887E-19 5.62847E-19
 -1      3884 9.00948E-05-3.15427E-05-2.51384E-05-1.80677E-05-7.73040E-19-1.76471E-20
 -1      3885 8.28506E-05-2.75013E-05-2.36109E-05-1.82774E-05-1.08352E-18 3.98440E-19
 -1      3886 9.60999E-05-2.81320E-05-2.91327E-05-2.34809E-07 3.88046E-19-1.08646E-18
 -1      3887 9.43185E-05-2.43819E-05-2.99842E-05-1.02080E-06-4.48658E-19-1.19433E-18
 -1      3888 9.90868E-05-3.80757E-05-2.61040E-05 1.85773E-05 1.31025E-21 2.92082E-18
 -1      3889 8.06196E-05-1.89807E-05-2.64351E-05-2.32280E-07 4.55984E-19-1.49380E-18
 -1      3890 8.08837E-05-1.91759E-05-2.64535E-05 2.33790E-06 2.29079E-18-1.59024E-18
 -1      3891 7.34224E-05-2.11102E-05-2.22034E-05-1.52953E-05 1.73123E-18-3.25312E-18
 -1      3892 7.83026E-05-2.43934E-05-2.30751E-05-1.72607E-05 1.90356E-18-2.82034E-18
 -1      3893 7.94500E-05-2.31201E-05-2.41404E-05-1.48744E-05 1.64518E-18-2.02078E-18
 -1      3894 7.32949E-05-1.94576E-05-2.30874E-05-1.09891E-05 2.22761E-18-2.52102E-18
 -1      3895 8.09748E-05-1.92077E-05-2.65091E-05-3.45195E-06-4.89910E-20-9.71429E-19
 -1      3896 7.90677E-05-1.87699E-05-2.58085E-05-1.99613E-06 9.05742E-19-1.57342E-18
 -1      3897 8.19574E-05-1.97349E-05-2.66297E-05-5.87559E-06 9.66463E-19-3.94064E-19
 -1      3898 9.49403E-05-2.38594E-05-3.04739E-05 1.57068E-06 3.20319E-19-1.56319E-18
 -1      3899 9.47323E-05-2.35042E-05-3.05277E-05 1.29243E-06 2.00278E-19-1.54566E-18
 -1      3900 9.53566E-05-2.47288E-05-3.02523E-05 1.27017E-06 4.54517E-19-1.46958E-18
 -1      3901 9.14594E-05-2.54084E-05-2.83062E-05 1.08750E-05 6.67681E-19 2.73105E-18
 -1      3902 9.55857E-05-2.87867E-05-2.86376E-05-5.44983E-07 2.27827E-19-5.55134E-19
 -1      3903 9.57875E-05-2.60708E-05-2.98845E-05 1.04912E-06 4.60928E-19-1.07016E-18
 -1      3904 9.50644E-05-2.42318E-05-3.03397E-05 8.70484E-07 1.77375E-19-1.62149E-18
 -1      3905 9.45836E-05-2.33228E-05-3.05502E-05 1.01171E-06 1.11859E-19-1.71553E-18
 -1      3906 9.44262E-05-2.31315E-05-3.05588E-05 6.57289E-07 7.45875E-20-1.77189E-18
 -1      3907 7.02722E-05-1.85559E-05-2.21228E-05-1.07006E-05-2.80618E-18 1.95995E-19
 -1      3908 9.60455E-05-2.67664E-05-2.96738E-05 6.52108E-07 5.57624E-19-1.10290E-18
 -1      3909 9.57726E-05-2.59016E-05-2.99576E-05 9.89654E-07 4.88953E-19-1.25633E-18
 -1      3910 9.61231E-05-2.72961E-05-2.95005E-05 2.96136E-07 4.59625E-19-1.08113E-18
 -1      3911 8.95286E-05-2.46635E-05-2.78320E-05 1.10775E-05 1.47413E-18 3.19229E-18
 -1      3912 8.80559E-05-2.38606E-05-2.74736E-05 1.07584E-05 1.38884E-18 1.77142E-18
 -1      3913 8.82494E-05-2.45162E-05-2.73361E-05 1.15437E-05 7.54959E-19 2.08253E-18
 -1      3914 8.81872E-05-2.55322E-05-2.68659E-05 1.29109E-05 1.72705E-19 1.86589E-18
 -1      3915 8.59182E-05-2.25771E-05-2.71941E-05 9.50904E-06 1.20156E-18 1.97753E-18
 -1      3916 9.46529E-05-2.77026E-05-2.86928E-05-7.75154E-07-6.73343E-19-1.28512E-19
 -1      3917 9.48212E-05-2.79318E-05-2.86743E-05-6.88551E-07-4.91549E-19-4.56207E-20
 -1      3918 9.57454E-05-2.79748E-05-2.90423E-05 5.09795E-07-4.02739E-19-1.01061E-18
 -1      3919 9.57664E-05-2.82665E-05-2.89307E-05 6.31133E-07-4.15607E-19-1.13191E-18
 -1      3920 8.58147E-05-2.68122E-05-2.52411E-05 1.58472E-05 7.93260E-19 3.47781E-18
 -1      3921 7.90021E-05-2.32869E-05-2.38185E-05 1.56756E-05 6.02426E-19 3.55750E-18
 -1      3922 8.53503E-05-2.51931E-05-2.58175E-05 1.40160E-05 7.39527E-19 3.23185E-18
 -1      3923 9.57644E-05-2.84907E-05-2.88297E-05 6.86690E-07-3.56868E-19-1.10095E-18
 -1      3924 9.57319E-05-2.86512E-05-2.87497E-05 7.56993E-07-3.61207E-19-9.67757E-19
 -1      3925 9.59280E-05-2.83706E-05-2.89535E-05 5.68564E-07-3.62751E-19-1.15810E-18
 -1      3926 9.56741E-05-2.87564E-05-2.86777E-05 7.83131E-07-1.07700E-19-9.26013E-19
 -1      3927 9.56064E-05-2.88170E-05-2.86240E-05 8.20674E-07 7.76779E-21-6.30067E-19
 -1      3928 9.58677E-05-2.87215E-05-2.87780E-05 6.62213E-07-1.14325E-19-8.21212E-19
 -1      3929 9.55125E-05-2.88332E-05-2.85762E-05 8.29223E-07-4.51731E-20-4.17874E-19
 -1      3930 9.54207E-05-2.88176E-05-2.85439E-05 8.46296E-07-1.36105E-19-2.55524E-19
 -1      3931 9.57165E-05-2.88560E-05-2.86558E-05 7.09199E-07 5.53345E-20-5.80600E-19
 -1      3932 9.53013E-05-2.87652E-05-2.85155E-05 8.44579E-07-5.23988E-19-2.40042E-19
 -1      3933 9.51923E-05-2.86913E-05-2.84999E-05 8.50243E-07-6.82280E-19-3.94938E-19
 -1      3934 9.55049E-05-2.88281E-05-2.85773E-05 7.26824E-07-4.32603E-19-5.18568E-19
 -1      3935 9.50551E-05-2.85875E-05-2.84863E-05 8.44766E-07-6.04779E-19-2.98429E-19
 -1      3936 9.49346E-05-2.84709E-05-2.84821E-05 8.47035E-07-4.35235E-19-1.71594E-19
 -1      3937 9.52504E-05-2.86754E-05-2.85334E-05 7.28214E-07-5.76328E-19-1.98375E-19
 -1      3938 9.47825E-05-2.83295E-05-2.84783E-05 8.45510E-07-6.22893E-19-6.73121E-19
 -1      3939 9.46565E-05-2.81841E-05-2.84798E-05 8.56979E-07-7.85535E-19-8.41036E-19
 -1      3940 9.49634E-05-2.84278E-05-2.85145E-05 7.27180E-07-7.62712E-19-6.18507E-19
 -1      3941 9.44870E-05-2.80124E-05-2.84761E-05 8.73876E-07-5.28838E-19-6.76122E-19
 -1      3942 9.43538E-05-2.78400E-05-2.84738E-05 9.13009E-07-2.86802E-19-8.24760E-19
 -1      3943 9.46445E-05-2.81054E-05-2.85065E-05 7.43774E-07-5.85438E-19-6.01562E-19
 -1      3944 9.41483E-05-2.76367E-05-2.84542E-05 9.62434E-07 2.67297E-19-7.23492E-19
 -1      3945 9.40126E-05-2.74405E-05-2.84435E-05 1.03675E-06 4.37425E-19-3.19285E-19
 -1      3946 9.42748E-05-2.77105E-05-2.84825E-05 8.03374E-07 1.32528E-19-3.11913E-19
 -1      3947 9.37664E-05-2.72279E-05-2.83682E-05 1.14661E-06 2.66001E-19-1.24011E-19
 -1      3948 9.36638E-05-2.70168E-05-2.83186E-05 1.22696E-06-9.71970E-20 1.01379E-20
 -1      3949 9.38265E-05-2.72575E-05-2.83814E-05 9.45021E-07 3.62636E-19-6.61453E-19
 -1      3950 9.34279E-05-2.67528E-05-2.82129E-05 1.36129E-06-2.44051E-19 1.27320E-19
 -1      3951 9.32550E-05-2.65754E-05-2.83132E-05 1.57037E-06 1.13608E-19-4.06841E-20
 -1      3952 9.34112E-05-2.68955E-05-2.81269E-05 1.15189E-06-2.24464E-20-8.51268E-20
 -1      3953 9.30973E-05-2.63157E-05-2.86008E-05 1.46899E-06 3.21568E-19-5.92394E-20
 -1      3954 9.28659E-05-2.58982E-05-2.87546E-05 1.55935E-06 4.88897E-20 2.50709E-19
 -1      3955 9.29754E-05-2.60948E-05-2.82310E-05 1.04449E-06 1.49501E-19-2.62792E-19
 -1      3956 9.24286E-05-2.54356E-05-2.88395E-05 1.71183E-06-5.35801E-19 1.38053E-19
 -1      3957 9.20594E-05-2.50510E-05-2.88166E-05 1.91076E-06-6.73312E-19-4.00488E-20
 -1      3958 9.24600E-05-2.54808E-05-2.87943E-05 1.24271E-06-1.42116E-19-1.43704E-19
 -1      3959 9.15305E-05-2.46308E-05-2.87404E-05 2.10938E-06-5.43785E-19 5.49513E-20
 -1      3960 9.10677E-05-2.42429E-05-2.86770E-05 2.40492E-06-2.33592E-19 1.99119E-20
 -1      3961 9.14899E-05-2.45736E-05-2.87699E-05 1.57076E-06-5.69100E-19-4.61024E-19
 -1      3962 9.04333E-05-2.38128E-05-2.85798E-05 2.66228E-06-1.94656E-19-1.04616E-19
 -1      3963 8.98721E-05-2.34135E-05-2.84931E-05 3.01330E-06-2.99890E-19-7.39176E-19
 -1      3964 9.03338E-05-2.37032E-05-2.85770E-05 1.97973E-06-3.50457E-19-8.25665E-19
 -1      3965 8.91084E-05-2.29682E-05-2.83641E-05 3.32624E-06 3.71339E-20-2.55749E-19
 -1      3966 8.84502E-05-2.25798E-05-2.82334E-05 3.74575E-06 2.23685E-19-5.65565E-19
 -1      3967 8.89489E-05-2.27939E-05-2.83425E-05 2.47600E-06 2.14893E-20-2.20860E-19
 -1      3968 8.75303E-05-2.21423E-05-2.80443E-05 4.13565E-06-2.46463E-20-7.22643E-19
 -1      3969 8.67768E-05-2.18021E-05-2.78470E-05 4.65638E-06-5.72832E-19-5.71304E-19
 -1      3970 8.72842E-05-2.18631E-05-2.80164E-05 3.08180E-06-2.81667E-20-6.59569E-19
 -1      3971 8.56673E-05-2.14066E-05-2.75690E-05 5.16669E-06-1.04278E-18 2.23786E-19
 -1      3972 8.48300E-05-2.11703E-05-2.72801E-05 5.84682E-06-6.27968E-19-1.52709E-19
 -1      3973 8.52787E-05-2.09544E-05-2.75389E-05 3.85660E-06-2.27752E-19-2.94456E-19
 -1      3974 8.34867E-05-2.08653E-05-2.68782E-05 6.55160E-06-7.58356E-19-8.31020E-19
 -1      3975 8.25828E-05-2.08057E-05-2.64679E-05 7.49046E-06-1.08500E-18-5.69678E-19
 -1      3976 8.28551E-05-2.01329E-05-2.68440E-05 4.91036E-06-1.19366E-18-7.67541E-20
 -1      3977 8.09350E-05-2.06475E-05-2.58932E-05 8.51575E-06-8.67612E-19-1.16763E-18
 -1      3978 8.00283E-05-2.09040E-05-2.53178E-05 9.88430E-06-3.28163E-19-1.34554E-18
 -1      3979 7.99197E-05-1.94720E-05-2.58460E-05 6.45620E-06-1.08475E-18-8.26544E-19
 -1      3980 9.37348E-05-2.65920E-05-2.87826E-05-1.33756E-06 1.63520E-19-1.34624E-20
 -1      3981 9.39595E-05-2.68797E-05-2.87585E-05-1.14045E-06 6.71384E-20 4.89757E-20
 -1      3982 9.61779E-05-2.86482E-05-2.89430E-05-4.76678E-07 1.70299E-19-5.87857E-19
 -1      3983 9.62247E-05-2.84681E-05-2.90326E-05-3.60453E-07 6.63713E-20-8.38451E-19
 -1      3984 9.62612E-05-2.86980E-05-2.89575E-05-3.97358E-07 3.56918E-19-7.30256E-19
 -1      3985 9.43408E-05-2.41010E-05-3.01082E-05-7.67339E-07-2.39719E-19-1.32476E-18
 -1      3986 8.28536E-05-2.64062E-05-2.42384E-05-1.67146E-05-6.33068E-19 2.50881E-19
 -1      3987 9.42300E-05-2.71806E-05-2.87321E-05-9.93920E-07-3.78480E-19-2.29386E-19
 -1      3988 9.44216E-05-2.74412E-05-2.87103E-05-8.62467E-07-7.30629E-19-2.09307E-19
 -1      3989 9.39090E-05-2.68668E-05-2.87324E-05-8.83651E-07-3.12884E-19-4.93430E-20
 -1      3990 9.50208E-05-2.81573E-05-2.86612E-05-6.28099E-07-3.65426E-19-1.73104E-19
 -1      3991 9.51632E-05-2.83456E-05-2.86481E-05-5.51624E-07-2.59348E-19-1.70192E-19
 -1      3992 9.48364E-05-2.79713E-05-2.86581E-05-5.21214E-07-4.64729E-19-4.01092E-20
 -1      3993 9.32105E-05-2.60038E-05-2.88316E-05-1.80532E-06 4.32728E-19-2.20374E-19
 -1      3994 9.34425E-05-2.62773E-05-2.88138E-05-1.55058E-06 2.91435E-19 9.26442E-22
 -1      3995 9.33453E-05-2.62191E-05-2.87927E-05-1.23491E-06 3.10029E-19-1.05866E-19
 -1      3996 9.25969E-05-2.54360E-05-2.88241E-05-2.30137E-06 4.72677E-19-1.03120E-18
 -1      3997 9.28919E-05-2.57208E-05-2.88329E-05-2.03349E-06 5.43345E-19-9.22657E-19
 -1      3998 9.27708E-05-2.56328E-05-2.88392E-05-1.66984E-06 8.60466E-19-6.48371E-19
 -1      3999 9.18287E-05-2.48042E-05-2.87347E-05-2.90039E-06-5.83956E-19-8.21698E-19
 -1      4000 9.21685E-05-2.51037E-05-2.87712E-05-2.56571E-06 1.23842E-19-8.20522E-19
 -1      4001 9.20088E-05-2.49638E-05-2.87722E-05-2.10153E-06 2.82538E-19-1.15467E-18
 -1      4002 9.09239E-05-2.41686E-05-2.86074E-05-3.62137E-06-1.02148E-18-1.12318E-18
 -1      4003 9.13165E-05-2.44618E-05-2.86653E-05-3.22300E-06-8.41845E-19-1.15301E-18
 -1      4004 9.10807E-05-2.42631E-05-2.86357E-05-2.64352E-06-5.99045E-19-1.14562E-18
 -1      4005 8.98887E-05-2.35756E-05-2.84148E-05-4.50655E-06-9.35488E-19-1.29294E-18
 -1      4006 9.03212E-05-2.38299E-05-2.85089E-05-4.02318E-06-9.65130E-19-1.02336E-18
 -1      4007 8.99733E-05-2.35352E-05-2.84599E-05-3.30805E-06-9.17566E-19-1.38509E-18
 -1      4008 8.87516E-05-2.31180E-05-2.81207E-05-5.61389E-06-6.29660E-19-1.53524E-18
 -1      4009 8.91948E-05-2.32796E-05-2.82660E-05-5.01712E-06-1.08848E-18-1.40689E-18
 -1      4010 8.86840E-05-2.28374E-05-2.82030E-05-4.15209E-06-5.51002E-19-1.76201E-18
 -1      4011 8.75743E-05-2.29323E-05-2.76896E-05-7.03530E-06-2.55090E-19-4.95633E-19
 -1      4012 8.79707E-05-2.29194E-05-2.79012E-05-6.28052E-06-2.29553E-19-8.25328E-19
 -1      4013 8.72137E-05-2.22530E-05-2.78215E-05-5.24861E-06-8.06634E-19-9.73902E-19
 -1      4014 8.64702E-05-2.32258E-05-2.70847E-05-8.91874E-06-8.99085E-19 2.40697E-19
 -1      4015 8.67285E-05-2.29166E-05-2.73769E-05-7.93718E-06-7.43953E-19-4.22553E-19
 -1      4016 8.55778E-05-2.19019E-05-2.72698E-05-6.72923E-06-7.91106E-19-1.60506E-19
 -1      4017 8.56111E-05-2.42666E-05-2.62695E-05-1.14561E-05-6.24754E-19 4.66666E-19
 -1      4018 8.56160E-05-2.35038E-05-2.66543E-05-1.01177E-05-6.12867E-19 4.78072E-19
 -1      4019 8.38982E-05-2.20050E-05-2.64959E-05-8.79605E-06-1.39440E-18-5.94888E-19
 -1      4020 8.46544E-05-2.59024E-05-2.51417E-05-1.46105E-05-4.24984E-19-1.34825E-19
 -1      4021 8.41261E-05-2.44469E-05-2.56261E-05-1.28030E-05-5.48014E-19 1.09205E-19
 -1      4022 8.16072E-05-2.21838E-05-2.53865E-05-1.11926E-05-7.41571E-19-8.08433E-19
 -1      4023 7.78311E-05-2.20879E-05-2.37648E-05-1.41266E-05-1.15248E-18 3.72814E-19
 -1      4024 9.51371E-05-2.58565E-05-2.96948E-05-2.20208E-07-2.59081E-19-1.07641E-18
 -1      4025 9.53619E-05-2.65385E-05-2.95006E-05 6.24588E-08-2.36467E-19-1.07914E-18
 -1      4026 9.56503E-05-2.56073E-05-3.00263E-05 8.75533E-07 2.99281E-19-1.34233E-18
 -1      4027 9.43187E-05-2.30852E-05-3.05386E-05 3.49298E-07 1.87772E-19-1.78627E-18
 -1      4028 9.42235E-05-2.30714E-05-3.05042E-05-4.27288E-08 6.29588E-20-1.84596E-18
 -1      4029 9.48175E-05-2.39935E-05-3.03385E-05 3.63777E-07 1.67592E-19-1.83746E-18
 -1      4030 9.62165E-05-2.82146E-05-2.91479E-05-2.45858E-07 2.58007E-19-9.27935E-19
 -1      4031 9.62272E-05-2.79129E-05-2.92712E-05-2.64940E-08 3.39824E-19-9.71511E-19
 -1      4032 9.63165E-05-2.82874E-05-2.91604E-05-2.01267E-07 1.49045E-19-7.64018E-19
 -1      4033 8.40947E-05-2.17217E-05-2.67722E-05-9.48623E-06 1.03170E-18-1.31917E-18
 -1      4034 7.96577E-05-1.92911E-05-2.58687E-05 4.31957E-06 1.29143E-18-1.39514E-18
 -1      4035 8.18252E-05-1.98706E-05-2.65874E-05 5.32930E-06 2.09658E-18-8.43029E-19
 -1      4036 8.33696E-05-2.08250E-05-2.67642E-05 7.52294E-06 1.32920E-18 2.02957E-18
 -1      4037 6.98120E-05-1.62976E-05-2.28135E-05-4.66147E-06-2.79545E-18-8.21676E-19
 -1      4038 7.33240E-05-1.92243E-05-2.32357E-05-1.01113E-05-2.22425E-18-2.77006E-19
 -1      4039 7.57281E-05-1.94379E-05-2.42011E-05-8.82866E-06-1.58329E-18-9.47754E-19
 -1      4040 9.60050E-05-2.90008E-05-2.87154E-05-4.15947E-07 1.99521E-19-3.36056E-19
 -1      4041 9.60959E-05-2.89993E-05-2.87543E-05-4.00037E-07 1.21817E-19-3.27711E-19
 -1      4042 7.05869E-05-1.68606E-05-2.29495E-05 2.51670E-06 8.07229E-20-2.53393E-18
 -1      4043 7.20282E-05-1.75843E-05-2.33781E-05-4.00355E-06 1.35938E-18-1.54761E-18
 -1      4044 7.34478E-05-1.93400E-05-2.32686E-05 9.87196E-06 1.07846E-19 1.99840E-19
 -1      4045 9.61925E-05-2.73600E-05-2.95035E-05 2.63254E-07 3.51891E-19-9.72016E-19
 -1      4046 9.57900E-05-2.89153E-05-2.86611E-05-4.25626E-07 5.64087E-19-3.64091E-19
 -1      4047 9.58916E-05-2.89681E-05-2.86814E-05-4.17892E-07 4.24908E-19-2.38146E-19
 -1      4048 9.59827E-05-2.89875E-05-2.87142E-05-2.97141E-07 3.47656E-19-5.92605E-19
 -1      4049 9.55603E-05-2.71273E-05-2.93263E-05 2.18551E-07-2.80836E-19-9.08971E-19
 -1      4050 9.56647E-05-2.75933E-05-2.91773E-05 4.11938E-07-3.39610E-19-1.04712E-18
 -1      4051 9.58524E-05-2.77351E-05-2.91921E-05 4.05783E-07-3.94320E-19-1.30575E-18
 -1      4052 9.55772E-05-2.67265E-05-2.95040E-05 1.48354E-07-1.82879E-19-1.23857E-18
 -1      4053 9.55605E-05-2.87460E-05-2.86404E-05-4.39826E-07 2.85738E-19-3.71728E-19
 -1      4054 9.56637E-05-2.88357E-05-2.86445E-05-4.28073E-07 3.77950E-19-3.24014E-19
 -1      4055 9.57447E-05-2.88755E-05-2.86616E-05-3.12454E-07 5.14259E-19-2.41362E-19
 -1      4056 9.53250E-05-2.85122E-05-2.86423E-05-5.03406E-07-9.56998E-20-2.83578E-19
 -1      4057 9.54253E-05-2.86317E-05-2.86367E-05-4.57099E-07 1.81141E-19-3.44633E-19
 -1      4058 9.54854E-05-2.86730E-05-2.86395E-05-3.42497E-07 1.39378E-19 3.72645E-20
 -1      4059 9.51917E-05-2.83750E-05-2.86404E-05-4.13068E-07-2.11670E-19-1.85998E-19
 -1      4060 8.18323E-05-2.10446E-05-2.60423E-05-9.10062E-06 1.41785E-18-1.24572E-18
 -1      4061 9.59846E-05-2.63923E-05-2.98075E-05 5.63467E-07 3.82588E-19-1.28810E-18
 -1      4062 9.55574E-05-2.53937E-05-3.00829E-05 7.92885E-07 3.57900E-19-1.31495E-18
 -1      4063 9.61881E-05-2.89670E-05-2.88088E-05-3.90450E-07 3.70356E-20-4.60294E-19
 -1      4064 9.62613E-05-2.88938E-05-2.88699E-05-3.53307E-07 3.06374E-19-8.18196E-19
 -1      4065 9.61876E-05-2.89814E-05-2.88044E-05-2.73491E-07 1.13553E-19-4.04698E-19
 -1      4066 9.54296E-05-2.52016E-05-3.01055E-05 5.98985E-07 2.25618E-19-1.52440E-18
 -1      4067 9.63434E-05-2.78658E-05-2.93390E-05 3.61179E-08 1.67490E-19-1.17619E-18
 -1      4068 9.62203E-05-2.72552E-05-2.95641E-05 3.14797E-07 2.00050E-19-1.39445E-18
 -1      4069 9.61484E-05-2.70492E-05-2.96181E-05 3.20675E-07 2.72125E-19-1.41864E-18
 -1      4070 7.48065E-05-2.20688E-05-2.26949E-05 1.55961E-05-5.86547E-19-2.65547E-18
 -1      4071 7.79891E-05-2.09313E-05-2.45439E-05 1.13598E-05-6.06869E-20-1.95769E-18
 -1      4072 7.74048E-05-2.17201E-05-2.38105E-05 1.33246E-05-1.60136E-19-1.83655E-18
 -1      4073 7.16999E-05-1.88306E-05-2.25220E-05 1.17845E-05-7.50134E-19-2.14390E-18
 -1      4074 7.62050E-05-1.89218E-05-2.44537E-05 8.61929E-06-7.48698E-19-8.66955E-19
 -1      4075 7.66915E-05-1.82851E-05-2.50725E-05-2.91306E-06 1.60908E-18-1.38690E-18
 -1      4076 7.64550E-05-1.81195E-05-2.49799E-05 6.99434E-07 1.20941E-18-1.78281E-18
 -1      4077 9.44116E-05-2.74672E-05-2.86874E-05-6.62421E-07-6.60088E-19 6.41274E-20
 -1      4078 8.38719E-05-2.31931E-05-2.59647E-05 1.20633E-05 7.79025E-19 2.53663E-18
 -1      4079 7.63936E-05-1.93734E-05-2.43704E-05 6.86597E-06 2.08800E-19-4.24743E-19
 -1      4080 6.95374E-05-1.60747E-05-2.29203E-05-1.96639E-06-2.29470E-18-7.00689E-19
 -1      4081 7.30117E-05-1.70811E-05-2.39706E-05-2.18403E-06-1.72510E-18-4.72001E-19
 -1      4082 7.00483E-05-1.60411E-05-2.30496E-05 1.37263E-06-2.01435E-18-5.14003E-19
 -1      4083 8.38742E-05-2.20120E-05-2.65013E-05 9.51282E-06 1.21617E-18 2.11768E-18
 -1      4084 7.56746E-05-1.86020E-05-2.43679E-05-6.39362E-06 1.77933E-18-2.06433E-18
 -1      4085 9.42859E-05-2.36332E-05-3.02937E-05-6.25349E-07-9.98314E-20-1.54128E-18
 -1      4086 9.49020E-05-2.51414E-05-2.98844E-05-3.54364E-07-1.35065E-19-1.25857E-18
 -1      4087 9.43247E-05-2.34660E-05-3.03765E-05-2.34998E-07 3.72524E-20-1.79578E-18
 -1      4088 9.51084E-05-2.53957E-05-2.98722E-05-1.45496E-07 1.27014E-20-1.33309E-18
 -1      4089 9.47987E-05-2.43241E-05-3.01889E-05-8.24256E-08 1.62384E-19-1.78161E-18
 -1      4090 8.05969E-05-2.22107E-05-2.49951E-05-1.28665E-05 1.77497E-18-1.93545E-18
 -1      4091 7.76207E-05-1.99518E-05-2.47706E-05-8.96967E-06 1.82728E-18-1.99422E-18
 -1      4092 9.59391E-05-2.89744E-05-2.86985E-05-1.70445E-07 3.61603E-19-6.70251E-19
 -1      4093 9.60544E-05-2.90046E-05-2.87342E-05-1.53000E-07 3.22175E-19-7.65096E-19
 -1      4094 9.60704E-05-2.82747E-05-2.90549E-05 4.42431E-07-4.03887E-19-9.44223E-19
 -1      4095 9.60730E-05-2.85192E-05-2.89514E-05 5.14299E-07-2.66349E-19-9.39761E-19
 -1      4096 9.60382E-05-2.86981E-05-2.88596E-05 5.22188E-07-3.47813E-20-8.30428E-19
 -1      4097 9.59809E-05-2.88150E-05-2.87853E-05 5.64090E-07 1.08046E-19-7.22660E-19
 -1      4098 9.61710E-05-2.86142E-05-2.89546E-05 4.10593E-07-8.47705E-20-8.69147E-19
 -1      4099 9.58988E-05-2.88830E-05-2.87203E-05 5.69868E-07 5.93162E-20-5.87868E-19
 -1      4100 9.58076E-05-2.89089E-05-2.86701E-05 5.92123E-07-5.49655E-20-6.53972E-19
 -1      4101 9.60477E-05-2.88636E-05-2.87947E-05 4.42606E-07 7.40000E-20-7.43814E-19
 -1      4102 9.56892E-05-2.88917E-05-2.86271E-05 5.84987E-07-2.89541E-19-5.23115E-19
 -1      4103 9.55718E-05-2.88442E-05-2.85966E-05 5.96864E-07-4.57899E-19-4.76037E-19
 -1      4104 9.58561E-05-2.89260E-05-2.86869E-05 4.50899E-07-1.07184E-19-6.10812E-19
 -1      4105 9.54309E-05-2.87644E-05-2.85713E-05 5.86520E-07-4.10743E-19-5.67956E-19
 -1      4106 9.52950E-05-2.86615E-05-2.85558E-05 5.91676E-07-5.34773E-19-4.04349E-19
 -1      4107 9.56005E-05-2.88330E-05-2.86172E-05 4.52515E-07-4.76556E-19-4.88167E-19
 -1      4108 9.51349E-05-2.85323E-05-2.85435E-05 5.80962E-07-9.46624E-19-5.79953E-19
 -1      4109 9.49846E-05-2.83864E-05-2.85379E-05 5.86711E-07-1.05423E-18-8.73677E-19
 -1      4110 9.53048E-05-2.86231E-05-2.85783E-05 4.45612E-07-7.81549E-19-6.86928E-19
 -1      4111 9.48027E-05-2.82159E-05-2.85311E-05 5.81212E-07-6.88799E-19-7.46223E-19
 -1      4112 9.46361E-05-2.80324E-05-2.85253E-05 5.97545E-07-2.13789E-19-5.03753E-19
 -1      4113 9.49709E-05-2.83185E-05-2.85580E-05 4.39320E-07-5.54720E-19-7.19847E-19
 -1      4114 9.44200E-05-2.78237E-05-2.85078E-05 6.02378E-07-5.89780E-20-5.80416E-19
 -1      4115 9.42300E-05-2.76036E-05-2.84797E-05 6.38747E-07 3.00224E-19-5.88582E-19
 -1      4116 9.45898E-05-2.79291E-05-2.85323E-05 4.45806E-07-1.43085E-19-9.26350E-19
 -1      4117 9.39531E-05-2.73575E-05-2.84090E-05 6.57277E-07 4.10325E-19-6.08249E-19
 -1      4118 9.37458E-05-2.71016E-05-2.83000E-05 7.25806E-07 1.91588E-19-5.12455E-19
 -1      4119 9.41428E-05-2.74590E-05-2.84395E-05 4.77169E-07 1.68523E-19-1.13892E-18
 -1      4120 9.33256E-05-2.68211E-05-2.80992E-05 7.53737E-07 2.86787E-19-1.22608E-19
 -1      4121 9.34127E-05-2.65556E-05-2.77775E-05 6.80172E-07 1.84971E-19 3.30978E-19
 -1      4122 9.36023E-05-2.68909E-05-2.81572E-05 5.41033E-07 5.32069E-19-6.36545E-19
 -1      4123 9.31941E-05-2.67770E-05-2.78772E-05 1.18988E-06-5.92923E-20 4.73915E-19
 -1      4124 9.27457E-05-2.62294E-05-2.85633E-05 5.62917E-07 2.50510E-19 3.09167E-19
 -1      4125 9.28905E-05-2.60520E-05-2.78752E-05 7.50445E-07 8.55503E-20 2.58345E-20
 -1      4126 9.21684E-05-2.53069E-05-2.90892E-05 7.96268E-07-1.00532E-19 1.65171E-19
 -1      4127 9.20977E-05-2.50915E-05-2.90680E-05 8.13110E-07-7.15505E-19-2.86403E-19
 -1      4128 9.26036E-05-2.55689E-05-2.93075E-05 2.53505E-07-2.63851E-19-1.86347E-19
 -1      4129 9.14666E-05-2.46358E-05-2.88795E-05 9.37722E-07-7.97508E-19-7.57565E-20
 -1      4130 9.10028E-05-2.42118E-05-2.87658E-05 1.10575E-06-4.33826E-19-4.73333E-19
 -1      4131 9.16473E-05-2.46918E-05-2.91109E-05 4.59099E-07-5.23056E-19-5.33737E-19
 -1      4132 9.03391E-05-2.37621E-05-2.86134E-05 1.23172E-06-1.85500E-19 6.70877E-20
 -1      4133 8.97175E-05-2.33108E-05-2.85025E-05 1.41725E-06-2.14802E-19-7.72918E-21
 -1      4134 9.04903E-05-2.37975E-05-2.86947E-05 6.28983E-07-1.52410E-19 3.50486E-19
 -1      4135 8.89444E-05-2.28300E-05-2.83655E-05 1.55037E-06 1.56556E-19 7.90553E-20
 -1      4136 8.81821E-05-2.23551E-05-2.82277E-05 1.76341E-06 2.97013E-19 1.87940E-19
 -1      4137 8.91114E-05-2.28474E-05-2.83967E-05 7.88831E-07 1.03597E-19 6.95699E-19
 -1      4138 8.72457E-05-2.18496E-05-2.80495E-05 1.91967E-06-6.27237E-20-2.27678E-19
 -1      4139 8.63211E-05-2.13658E-05-2.78509E-05 2.17712E-06-3.01956E-19-4.24685E-19
 -1      4140 8.74377E-05-2.18280E-05-2.80773E-05 9.60170E-07-3.07124E-20 6.46193E-21
 -1      4141 8.51674E-05-2.08476E-05-2.75934E-05 2.37283E-06 9.11973E-20-9.79238E-19
 -1      4142 8.40467E-05-2.03758E-05-2.73028E-05 2.70828E-06 2.77023E-21-7.31574E-19
 -1      4143 8.53875E-05-2.07559E-05-2.76368E-05 1.15603E-06-4.34238E-19-5.48652E-19
 -1      4144 8.25916E-05-1.98501E-05-2.69278E-05 2.98022E-06-8.31950E-19-5.17911E-19
 -1      4145 8.12195E-05-1.94271E-05-2.65059E-05 3.46994E-06-1.29284E-18-1.90660E-19
 -1      4146 8.28245E-05-1.96413E-05-2.69987E-05 1.38890E-06-3.42528E-19-1.13927E-18
 -1      4147 7.93449E-05-1.88715E-05-2.59639E-05 3.81155E-06-1.61067E-18 2.15451E-19
 -1      4148 7.75875E-05-1.85219E-05-2.53510E-05 4.65141E-06-1.39018E-18 9.17513E-20
 -1      4149 7.96074E-05-1.86449E-05-2.60997E-05 1.77442E-06-1.19772E-18 7.38871E-20
 -1      4150 9.23807E-05-2.53226E-05-2.89299E-05-1.40818E-06 9.27501E-19-5.09126E-19
 -1      4151 9.27775E-05-2.56071E-05-2.89546E-05-1.29693E-06 1.15350E-18-3.09716E-19
 -1      4152 9.35950E-05-2.65803E-05-2.87094E-05-7.13023E-07-8.94348E-20-1.09678E-19
 -1      4153 9.38763E-05-2.69286E-05-2.86821E-05-5.72986E-07-3.58493E-19-2.70124E-19
 -1      4154 9.46564E-05-2.78092E-05-2.86494E-05-3.80851E-07-4.38146E-19 3.68390E-19
 -1      4155 9.48558E-05-2.80414E-05-2.86370E-05-3.20862E-07-2.17484E-19 6.93935E-19
 -1      4156 9.15221E-05-2.45986E-05-2.87434E-05-1.79379E-06 8.17519E-20-2.04155E-19
 -1      4157 9.19279E-05-2.49465E-05-2.88157E-05-1.57388E-06 6.04834E-19-8.06534E-20
 -1      4158 9.19295E-05-2.47924E-05-2.89589E-05-1.09118E-06 6.80379E-19 3.07380E-19
 -1      4159 9.04364E-05-2.38288E-05-2.85562E-05-2.22223E-06-5.29078E-19-6.25971E-19
 -1      4160 9.09478E-05-2.42117E-05-2.86311E-05-1.96369E-06-1.68383E-19-5.85273E-19
 -1      4161 9.09944E-05-2.41488E-05-2.86735E-05-1.36313E-06 1.56886E-19 3.48865E-19
 -1      4162 8.91421E-05-2.30139E-05-2.83409E-05-2.78263E-06-5.53838E-19-1.19272E-18
 -1      4163 8.97494E-05-2.34042E-05-2.84464E-05-2.46023E-06-7.78230E-19-1.10452E-18
 -1      4164 8.97382E-05-2.32970E-05-2.84475E-05-1.70616E-06-2.16096E-19-4.65484E-19
 -1      4165 8.76237E-05-2.22177E-05-2.80313E-05-3.51411E-06-6.78892E-19-1.24356E-18
 -1      4166 8.83231E-05-2.25842E-05-2.81908E-05-3.10232E-06-3.46071E-19-1.23901E-18
 -1      4167 8.82464E-05-2.23850E-05-2.81840E-05-2.16735E-06-5.11643E-19-6.93707E-19
 -1      4168 8.58505E-05-2.15069E-05-2.75762E-05-4.48548E-06-6.50146E-19-1.10786E-18
 -1      4169 8.66420E-05-2.18104E-05-2.78111E-05-3.94189E-06-9.90492E-19-1.23697E-18
 -1      4170 8.64715E-05-2.14665E-05-2.78066E-05-2.78101E-06-9.18330E-19-1.00160E-18
 -1      4171 8.37871E-05-2.09655E-05-2.69208E-05-5.82908E-06-9.64259E-19-9.73260E-19
 -1      4172 8.46560E-05-2.11471E-05-2.72569E-05-5.07197E-06-4.86544E-19-1.23716E-18
 -1      4173 8.43399E-05-2.05847E-05-2.72564E-05-3.61152E-06-7.40935E-19-1.19831E-18
 -1      4174 8.13352E-05-2.07890E-05-2.59790E-05-7.86926E-06-1.17985E-18-1.48951E-18
 -1      4175 8.22772E-05-2.06867E-05-2.64608E-05-6.69828E-06-1.55922E-18-1.65028E-18
 -1      4176 8.16881E-05-1.97593E-05-2.64633E-05-4.77496E-06-6.57091E-19-1.73670E-18
 -1      4177 7.78757E-05-2.01218E-05-2.48154E-05-8.94608E-06-1.15439E-18-1.27616E-18
 -1      4178 7.96136E-05-2.02426E-05-2.55044E-05-7.90630E-06-1.05813E-18-1.54507E-18
 -1      4179 7.87611E-05-1.89365E-05-2.55249E-05-5.39729E-06-8.36951E-19-1.72949E-18
 -1      4180 7.50580E-05-1.77246E-05-2.44731E-05-4.94028E-06-1.39624E-18-1.08492E-18
 -1      4181 9.50321E-05-2.47620E-05-3.01186E-05 8.50996E-08 2.08313E-19-1.74195E-18
 -1      4182 9.50943E-05-2.51245E-05-2.99961E-05-7.15640E-08 9.02868E-20-1.62311E-18
 -1      4183 9.53504E-05-2.57949E-05-2.98089E-05 3.62993E-08 2.34430E-20-1.43781E-18
 -1      4184 9.57908E-05-2.60309E-05-2.98814E-05 4.27839E-07 3.52161E-19-1.61934E-18
 -1      4185 9.53080E-05-2.50470E-05-3.01213E-05 4.61955E-07 1.99679E-19-1.88122E-18
 -1      4186 9.41767E-05-2.72611E-05-2.86694E-05-5.04175E-07-6.55504E-19 3.49944E-19
 -1      4187 9.44131E-05-2.75454E-05-2.86527E-05-4.22267E-07-5.99598E-19 1.74241E-19
 -1      4188 9.44404E-05-2.76145E-05-2.86244E-05-2.12908E-07-2.95853E-19 4.04571E-19
 -1      4189 8.03827E-05-2.11177E-05-2.54113E-05 1.01472E-05 1.09415E-18 2.75758E-18
 -1      4190 9.51955E-05-2.49745E-05-3.01004E-05 2.36516E-07 2.72143E-19-1.88392E-18
 -1      4191 9.63694E-05-2.82048E-05-2.92158E-05-9.22439E-08 9.23072E-20-1.15577E-18
 -1      4192 6.99347E-05-1.70119E-05-2.27797E-05 6.41317E-06-1.48826E-18-1.47920E-18
 -1      4193 7.72122E-05-1.87195E-05-2.50673E-05 3.98077E-06 6.67647E-19-1.32251E-18
 -1      4194 9.56800E-05-2.88296E-05-2.86507E-05-1.85799E-07 2.24985E-19-3.39074E-19
 -1      4195 9.58072E-05-2.89130E-05-2.86692E-05-1.69046E-07 4.25244E-19-3.78484E-19
 -1      4196 9.58576E-05-2.89337E-05-2.86854E-05-3.74115E-08 7.19593E-20-9.23171E-19
 -1      4197 9.29989E-05-2.58389E-05-2.88595E-05-1.10700E-06 7.82195E-19-6.99914E-19
 -1      4198 9.32446E-05-2.61759E-05-2.87978E-05-8.83937E-07 1.00105E-19-4.57927E-19
 -1      4199 9.32078E-05-2.62056E-05-2.87490E-05-4.56652E-07 2.07788E-19-1.28421E-18
 -1      4200 9.28038E-05-2.57512E-05-2.91589E-05-7.10350E-07 6.65027E-19-9.14796E-19
 -1      4201 9.63230E-05-2.87792E-05-2.89489E-05-3.21842E-07 4.56182E-19-1.12998E-18
 -1      4202 9.63755E-05-2.86195E-05-2.90344E-05-2.43140E-07 2.56077E-19-1.17517E-18
 -1      4203 9.63400E-05-2.88161E-05-2.89399E-05-2.17633E-07 7.51469E-20-1.05602E-18
 -1      4204 9.61005E-05-2.89984E-05-2.87610E-05-2.26193E-08 1.15035E-19-1.38296E-18
 -1      4205 9.61620E-05-2.90042E-05-2.87823E-05-1.55491E-07 2.22304E-19-9.13675E-19
 -1      4206 9.62533E-05-2.89614E-05-2.88386E-05-1.29717E-07-6.49562E-20-9.71777E-19
 -1      4207 7.54357E-05-1.74036E-05-2.48023E-05 1.16166E-06-1.66701E-18 1.87667E-19
 -1      4208 7.50405E-05-1.78379E-05-2.45845E-05 4.08659E-06-1.20107E-18-3.03993E-19
 -1      4209 7.28784E-05-1.74961E-05-2.37645E-05 5.05330E-06-1.07355E-18-8.02243E-19
 -1      4210 9.38941E-05-2.70091E-05-2.86277E-05-2.97432E-07-4.80426E-20-3.77658E-19
 -1      4211 9.48861E-05-2.80971E-05-2.86219E-05-1.46811E-07-4.52585E-19 8.56992E-19
 -1      4212 9.50581E-05-2.82534E-05-2.86335E-05-2.89404E-07-3.12348E-19 4.01087E-19
 -1      4213 9.52214E-05-2.84314E-05-2.86284E-05-2.41739E-07-1.21232E-19 5.55294E-19
 -1      4214 9.55052E-05-2.56837E-05-2.99145E-05 2.12403E-07 1.30634E-19-1.68321E-18
 -1      4215 9.60950E-05-2.69557E-05-2.96398E-05 3.38559E-07 3.82981E-19-1.40864E-18
 -1      4216 9.59882E-05-2.68001E-05-2.96537E-05 2.90500E-07 2.04832E-19-1.63621E-18
 -1      4217 9.63180E-05-2.76655E-05-2.94129E-05 1.61355E-07 1.74692E-19-1.46402E-18
 -1      4218 9.59437E-05-2.75399E-05-2.93158E-05 3.08333E-07-2.39436E-19-1.17881E-18
 -1      4219 9.60300E-05-2.79505E-05-2.91780E-05 4.16429E-07-2.72056E-19-1.14658E-18
 -1      4220 9.61585E-05-2.80968E-05-2.91700E-05 3.55350E-07-1.16973E-19-9.63892E-19
 -1      4221 9.63973E-05-2.82759E-05-2.91971E-05-3.46607E-08 1.74202E-19-1.54022E-18
 -1      4222 7.47355E-05-1.72976E-05-2.46403E-05-6.74015E-07-1.41074E-18 1.42804E-20
 -1      4223 7.47869E-05-1.74854E-05-2.45697E-05-3.13463E-06-1.46513E-18-4.00987E-19
 -1      4224 7.67066E-05-1.81444E-05-2.51278E-05-3.44838E-06-8.81887E-19-8.43097E-19
 -1      4225 7.73116E-05-1.80511E-05-2.53777E-05 2.04850E-07-1.57580E-18-1.01692E-19
 -1      4226 9.53924E-05-2.85907E-05-2.86314E-05-2.21691E-07-7.77854E-20 1.36873E-19
 -1      4227 9.55306E-05-2.87183E-05-2.86366E-05-1.92316E-07 6.27458E-20-1.17010E-19
 -1      4228 9.55764E-05-2.87561E-05-2.86410E-05-5.74742E-08-2.18434E-19-5.27533E-19
 -1      4229 9.52577E-05-2.84766E-05-2.86229E-05-9.31834E-08-1.74396E-19 3.98913E-19
 -1      4230 9.56162E-05-2.64735E-05-2.96334E-05 1.14256E-07-6.34959E-20-1.36099E-18
 -1      4231 9.58127E-05-2.70853E-05-2.94575E-05 2.63321E-07-2.25935E-19-1.33145E-18
 -1      4232 9.59795E-05-2.72893E-05-2.94363E-05 2.72982E-07-1.45248E-19-1.21048E-18
 -1      4233 9.55990E-05-2.61687E-05-2.97522E-05 1.70265E-07-3.68302E-20-1.55921E-18
 -1      4234 9.37728E-05-2.69478E-05-2.84620E-05 1.39293E-07 4.29975E-19-1.07089E-18
 -1      4235 9.39988E-05-2.72609E-05-2.84868E-05 1.54031E-07 2.29043E-19-1.03171E-18
 -1      4236 9.61907E-05-2.88635E-05-2.88538E-05 3.08003E-07 6.01550E-20-8.97333E-19
 -1      4237 9.61108E-05-2.89417E-05-2.87860E-05 3.18902E-07 3.56015E-20-1.01638E-18
 -1      4238 9.60069E-05-2.89721E-05-2.87278E-05 2.12674E-07 6.51879E-20-1.19961E-18
 -1      4239 9.58897E-05-2.89518E-05-2.86856E-05 2.21416E-07-1.29085E-19-1.06252E-18
 -1      4240 9.57582E-05-2.88945E-05-2.86545E-05 2.08043E-07-3.44818E-19-6.81342E-19
 -1      4241 9.56142E-05-2.88105E-05-2.86285E-05 2.08842E-07-5.45502E-19-5.81989E-19
 -1      4242 9.54635E-05-2.86989E-05-2.86124E-05 1.92640E-07-6.12794E-19-2.15744E-19
 -1      4243 9.52994E-05-2.85637E-05-2.85993E-05 1.89931E-07-4.34207E-19-2.25268E-19
 -1      4244 9.51272E-05-2.84034E-05-2.85939E-05 1.68172E-07-4.63174E-19-9.79090E-20
 -1      4245 9.49398E-05-2.82224E-05-2.85865E-05 1.66494E-07-3.56121E-19-5.99756E-20
 -1      4246 9.47393E-05-2.80139E-05-2.85847E-05 1.42277E-07-5.18457E-19-1.45710E-19
 -1      4247 9.45161E-05-2.77891E-05-2.85663E-05 1.49013E-07-1.83211E-19-3.46258E-19
 -1      4248 9.42868E-05-2.75313E-05-2.85546E-05 1.28167E-07-3.45364E-20-7.75227E-19
 -1      4249 9.33753E-05-2.66094E-05-2.83351E-05 2.05692E-07 2.92068E-19-9.03361E-19
 -1      4250 9.33843E-05-2.64213E-05-2.83722E-05-1.20124E-08 3.09326E-19-9.64082E-19
 -1      4251 9.28207E-05-2.54809E-05-2.87870E-05 7.66908E-08 5.33631E-20-1.04397E-18
 -1      4252 9.22723E-05-2.51917E-05-2.93373E-05-5.04576E-07 8.21622E-20-4.70950E-19
 -1      4253 9.19654E-05-2.51003E-05-2.95162E-05-6.77792E-08-8.66621E-20-5.39984E-19
 -1      4254 9.18134E-05-2.48082E-05-2.91211E-05-3.95548E-07-1.20967E-20-4.18858E-19
 -1      4255 9.11621E-05-2.43714E-05-2.88651E-05-3.29576E-07 1.84230E-19-4.41516E-20
 -1      4256 9.06325E-05-2.39710E-05-2.86974E-05-4.41353E-07-8.36544E-20 6.45863E-20
 -1      4257 8.99485E-05-2.35111E-05-2.85408E-05-4.16914E-07 1.51410E-19 4.37665E-19
 -1      4258 8.92587E-05-2.30610E-05-2.84163E-05-5.73158E-07-1.13385E-19 2.80361E-19
 -1      4259 8.84614E-05-2.25622E-05-2.82747E-05-5.54488E-07-1.05547E-19 2.72372E-19
 -1      4260 8.76198E-05-2.20918E-05-2.81168E-05-7.60361E-07-4.43560E-19-2.09905E-20
 -1      4261 8.66555E-05-2.15644E-05-2.79305E-05-7.46863E-07-7.57583E-19-5.15041E-19
 -1      4262 8.56375E-05-2.10937E-05-2.77018E-05-1.02291E-06-6.59328E-19-3.14133E-19
 -1      4263 8.44526E-05-2.05494E-05-2.74331E-05-1.01979E-06-6.88725E-19-8.77706E-19
 -1      4264 8.32187E-05-2.00966E-05-2.71024E-05-1.39426E-06-6.17634E-19-7.60648E-19
 -1      4265 8.17476E-05-1.95434E-05-2.67144E-05-1.41747E-06-4.36930E-19-7.76805E-19
 -1      4266 8.02970E-05-1.91040E-05-2.62515E-05-1.89749E-06-4.62864E-19-1.42012E-18
 -1      4267 7.81685E-05-1.85724E-05-2.55781E-05-3.64564E-06-6.31743E-19-1.24798E-18
 -1      4268 9.63332E-05-2.88775E-05-2.89095E-05-1.19026E-07-2.35240E-19-1.00748E-18
 -1      4269 9.63983E-05-2.87480E-05-2.89911E-05-6.81328E-08-4.71679E-20-1.34205E-18
 -1      4270 9.62846E-05-2.88957E-05-2.88815E-05 5.76805E-09-1.57174E-19-1.48764E-18
 -1      4271 9.63138E-05-2.86253E-05-2.90094E-05 2.14440E-07-1.77330E-19-1.09268E-18
 -1      4272 9.62721E-05-2.87922E-05-2.89182E-05 2.33000E-07-7.84359E-21-1.04848E-18
 -1      4273 9.64121E-05-2.85342E-05-2.90910E-05-2.95886E-08 5.93066E-20-1.33600E-18
 -1      4274 9.64032E-05-2.80999E-05-2.92740E-05 1.12349E-07-2.42160E-21-1.52725E-18
 -1      4275 9.63308E-05-2.79860E-05-2.92922E-05 1.92646E-07 3.27034E-20-1.28399E-18
 -1      4276 9.63837E-05-2.85895E-05-2.90566E-05 7.33075E-08-7.78690E-20-1.30152E-18
 -1      4277 9.57653E-05-2.63911E-05-2.97372E-05 2.74435E-07-2.69157E-20-1.62219E-18
 -1      4278 9.63209E-05-2.83906E-05-2.91104E-05 2.71869E-07-5.76748E-20-9.82080E-19
 -1      4279 9.60733E-05-2.72191E-05-2.95065E-05 2.35123E-07-9.05339E-21-1.37106E-18
 -1      4280 7.90297E-05-1.84062E-05-2.59350E-05 8.03651E-08-8.43536E-19-8.86939E-19
 -1      4281 9.62846E-05-2.80755E-05-2.92324E-05 2.39925E-07-2.17367E-20-1.14108E-18
 -1      4282 9.61097E-05-2.89746E-05-2.87735E-05 8.15378E-08 1.06173E-19-1.46260E-18
 -1      4283 9.61881E-05-2.76630E-05-2.93672E-05 2.91491E-07-1.41678E-20-1.15323E-18
 -1      4284 9.62978E-05-2.88729E-05-2.88983E-05 9.64948E-08-5.17485E-20-1.34547E-18
 -1      4285 9.62122E-05-2.89515E-05-2.88243E-05 8.59617E-08 1.16121E-19-1.50396E-18
 -3
    1PSTEP                         4           1           1          
  100CL  101 1.000000000        4285                     0    1           1
 -4  ERROR       1    1
 -5  STR(%)      1    1    0    0
 -1         1 1.72739E+01
 -1         2 2.46062E+01
 -1         3 9.14930E-02
 -1         4 1.15811E-01
 -1         5 1.40114E+01
 -1         6 1.31791E+01
 -1         7 1.31791E+01
 -1         8 3.61473E+00
 -1         9 1.76857E+00
 -1        10 1.25363E+00
 -1        11 1.00967E+00
 -1        12 8.68637E-01
 -1        13 7.80239E-01
 -1        14 7.57282E-01
 -1        15 7.83305E-01
 -1        16 8.42724E-01
 -1        17 9.31005E-01
 -1        18 1.08528E+00
 -1        19 1.34216E+00
 -1        20 1.89104E+00
 -1        21 3.55472E+00
 -1        22 8.65093E+00
 -1        23 1.31791E+01
 -1        24 4.38383E+00
 -1        25 3.41301E+00
 -1        26 2.17912E+00
 -1        27 1.42528E+00
 -1        28 1.07879E+00
 -1        29 8.36775E-01
 -1        30 6.54281E-01
 -1        31 5.12616E-01
 -1        32 4.05487E-01
 -1        33 3.27818E-01
 -1        34 4.00914E-01
 -1        35 1.02322E+00
 -1        36 3.94798E+00
 -1        37 3.94798E+00
 -1        38 3.30440E+00
 -1        39 6.62032E-01
 -1        40 2.07779E-01
 -1        41 2.16130E-01
 -1        42 2.76827E-01
 -1        43 3.48155E-01
 -1        44 4.26140E-01
 -1        45 5.10175E-01
 -1        46 5.93973E-01
 -1        47 7.72287E-01
 -1        48 9.61748E-01
 -1        49 1.20293E+00
 -1        50 1.39903E+00
 -1        51 1.45688E+00
 -1        52 1.46582E+00
 -1        53 1.46582E+00
 -1        54 1.69711E+00
 -1        55 2.42015E+00
 -1        56 3.87787E+00
 -1        57 4.30085E+00
 -1        58 4.30085E+00
 -1        59 4.29101E+00
 -1        60 3.50155E+00
 -1        61 1.91003E+00
 -1        62 1.46100E+00
 -1        63 1.40456E+00
 -1        64 1.44137E+00
 -1        65 1.44137E+00
 -1        66 1.28465E+00
 -1        67 9.93464E-01
 -1        68 8.90546E-01
 -1        69 8.32022E-01
 -1        70 6.57849E-01
 -1        71 5.24396E-01
 -1        72 1.40114E+01
 -1        73 3.34212E+00
 -1        74 2.35795E+00
 -1        75 1.61362E+00
 -1        76 1.09696E+00
 -1        77 8.47412E-01
 -1        78 6.75937E-01
 -1        79 5.36450E-01
 -1        80 4.21451E-01
 -1        81 3.27123E-01
 -1        82 2.56465E-01
 -1        83 1.96029E-01
 -1        84 1.61773E-01
 -1        85 1.61264E-01
 -1        86 1.44320E-01
 -1        87 1.32916E-01
 -1        88 1.50710E-01
 -1        89 1.73972E-01
 -1        90 2.03080E-01
 -1        91 2.50409E-01
 -1        92 3.17320E-01
 -1        93 3.92340E-01
 -1        94 4.69103E-01
 -1        95 5.37021E-01
 -1        96 5.79724E-01
 -1        97 5.93569E-01
 -1        98 7.81134E-01
 -1        99 9.59996E-01
 -1       100 1.05385E+00
 -1       101 1.30824E+00
 -1       102 1.45236E+00
 -1       103 1.57883E+00
 -1       104 1.87712E+00
 -1       105 2.69286E+00
 -1       106 3.23713E+00
 -1       107 3.63285E+00
 -1       108 3.63285E+00
 -1       109 3.34986E+00
 -1       110 2.22697E+00
 -1       111 1.35300E+00
 -1       112 9.86362E-01
 -1       113 1.21340E+00
 -1       114 1.24787E+00
 -1       115 1.24787E+00
 -1       116 1.10261E+00
 -1       117 8.71307E-01
 -1       118 7.50758E-01
 -1       119 5.97230E-01
 -1       120 3.47704E-01
 -1       121 1.70278E-01
 -1       122 1.70278E-01
 -1       123 1.37769E-01
 -1       124 8.01883E-02
 -1       125 5.56309E-02
 -1       126 1.12592E-01
 -1       127 1.54422E-01
 -1       128 1.71656E-01
 -1       129 1.71656E-01
 -1       130 1.63210E-01
 -1       131 1.26517E-01
 -1       132 7.23469E-02
 -1       133 7.74631E-02
 -1       134 1.43661E-01
 -1       135 2.45837E-01
 -1       136 2.86687E-01
 -1       137 2.51767E+01
 -1       138 4.85519E+01
 -1       139 4.85519E+01
 -1       140 2.24585E+01
 -1       141 1.22710E+01
 -1       142 1.25741E+01
 -1       143 1.29004E+01
 -1       144 1.36744E+01
 -1       145 1.36744E+01
 -1       146 1.29089E+01
 -1       147 3.08298E+01
 -1       148 3.18516E+01
 -1       149 2.80341E+01
 -1       150 2.44117E+01
 -1       151 2.48475E+01
 -1       152 2.48475E+01
 -1       153 4.09976E+01
 -1       154 4.09976E+01
 -1       155 1.50458E+01
 -1       156 1.23801E+01
 -1       157 1.23946E+01
 -1       158 1.26552E+01
 -1       159 1.26552E+01
 -1       160 1.21615E+01
 -1       161 4.52910E+01
 -1       162 4.52910E+01
 -1       163 2.46980E+01
 -1       164 6.02220E+00
 -1       165 2.24645E+00
 -1       166 1.46888E+00
 -1       167 1.12367E+00
 -1       168 9.40238E-01
 -1       169 8.35174E-01
 -1       170 7.69257E-01
 -1       171 7.83305E-01
 -1       172 8.28049E-01
 -1       173 8.96191E-01
 -1       174 1.01210E+00
 -1       175 1.20516E+00
 -1       176 1.56181E+00
 -1       177 2.29550E+00
 -1       178 3.96647E+00
 -1       179 1.40114E+01
 -1       180 4.38383E+00
 -1       181 3.41301E+00
 -1       182 2.17912E+00
 -1       183 1.50871E+00
 -1       184 1.08461E+00
 -1       185 8.36775E-01
 -1       186 6.54281E-01
 -1       187 5.28933E-01
 -1       188 4.31759E-01
 -1       189 3.58856E-01
 -1       190 3.29339E-01
 -1       191 6.40987E-01
 -1       192 2.07943E+00
 -1       193 3.94798E+00
 -1       194 3.30440E+00
 -1       195 7.99905E-01
 -1       196 3.70398E-01
 -1       197 1.89896E-01
 -1       198 2.21765E-01
 -1       199 2.76827E-01
 -1       200 3.48155E-01
 -1       201 4.43599E-01
 -1       202 5.77985E-01
 -1       203 7.21844E-01
 -1       204 8.58297E-01
 -1       205 9.99784E-01
 -1       206 1.20293E+00
 -1       207 1.39903E+00
 -1       208 1.45688E+00
 -1       209 1.46582E+00
 -1       210 1.42612E+00
 -1       211 1.69711E+00
 -1       212 2.45223E+00
 -1       213 3.87787E+00
 -1       214 4.30085E+00
 -1       215 4.29101E+00
 -1       216 3.50155E+00
 -1       217 2.16420E+00
 -1       218 1.46100E+00
 -1       219 1.40456E+00
 -1       220 1.34346E+00
 -1       221 1.44137E+00
 -1       222 1.28465E+00
 -1       223 9.93464E-01
 -1       224 8.90546E-01
 -1       225 8.32022E-01
 -1       226 6.57849E-01
 -1       227 5.24396E-01
 -1       228 3.34212E+00
 -1       229 2.35795E+00
 -1       230 1.61362E+00
 -1       231 1.09696E+00
 -1       232 8.47412E-01
 -1       233 6.75937E-01
 -1       234 5.36450E-01
 -1       235 4.21451E-01
 -1       236 3.27123E-01
 -1       237 2.56465E-01
 -1       238 1.96557E-01
 -1       239 1.63270E-01
 -1       240 2.07852E-01
 -1       241 1.61264E-01
 -1       242 1.26174E-01
 -1       243 1.32916E-01
 -1       244 1.50710E-01
 -1       245 1.76785E-01
 -1       246 2.23374E-01
 -1       247 2.78629E-01
 -1       248 3.39318E-01
 -1       249 4.00202E-01
 -1       250 4.69103E-01
 -1       251 5.37021E-01
 -1       252 5.79724E-01
 -1       253 6.72052E-01
 -1       254 7.83127E-01
 -1       255 9.59996E-01
 -1       256 1.05385E+00
 -1       257 1.30824E+00
 -1       258 1.45236E+00
 -1       259 1.57883E+00
 -1       260 1.88940E+00
 -1       261 2.69286E+00
 -1       262 3.23713E+00
 -1       263 3.63285E+00
 -1       264 3.34986E+00
 -1       265 2.22697E+00
 -1       266 1.35300E+00
 -1       267 8.60512E-01
 -1       268 9.86362E-01
 -1       269 1.21340E+00
 -1       270 1.24787E+00
 -1       271 1.10261E+00
 -1       272 8.71307E-01
 -1       273 7.50758E-01
 -1       274 5.97230E-01
 -1       275 3.62785E-01
 -1       276 2.16282E-01
 -1       277 2.17262E-01
 -1       278 2.17262E-01
 -1       279 1.18239E-01
 -1       280 1.88642E-01
 -1       281 2.73024E-01
 -1       282 3.21345E-01
 -1       283 3.25070E-01
 -1       284 3.25070E-01
 -1       285 2.93248E-01
 -1       286 2.19081E-01
 -1       287 1.13866E-01
 -1       288 2.21983E-01
 -1       289 2.21983E-01
 -1       290 2.91826E-01
 -1       291 2.87399E+01
 -1       292 2.83519E+01
 -1       293 4.85519E+01
 -1       294 2.36971E+01
 -1       295 1.22710E+01
 -1       296 1.19393E+01
 -1       297 1.25741E+01
 -1       298 1.29004E+01
 -1       299 1.36744E+01
 -1       300 1.22091E+01
 -1       301 1.29089E+01
 -1       302 3.18516E+01
 -1       303 3.18516E+01
 -1       304 2.50614E+01
 -1       305 3.06154E+01
 -1       306 3.06154E+01
 -1       307 3.65287E+01
 -1       308 4.09976E+01
 -1       309 1.50458E+01
 -1       310 1.11509E+01
 -1       311 1.23801E+01
 -1       312 1.23946E+01
 -1       313 1.26552E+01
 -1       314 1.21615E+01
 -1       315 1.12941E+01
 -1       316 1.79025E+01
 -1       317 4.52910E+01
 -1       318 3.89162E+01
 -1       319 2.87399E+01
 -1       320 1.01694E+00
 -1       321 2.42688E+00
 -1       322 7.60025E-01
 -1       323 6.67893E-01
 -1       324 6.05864E-01
 -1       325 5.85346E-01
 -1       326 6.17924E-01
 -1       327 6.60845E-01
 -1       328 7.28501E-01
 -1       329 8.23780E-01
 -1       330 9.59113E-01
 -1       331 1.20964E+00
 -1       332 1.37855E+00
 -1       333 2.19417E+00
 -1       334 1.91224E+00
 -1       335 1.78537E+00
 -1       336 1.32309E+00
 -1       337 9.61987E-01
 -1       338 7.10160E-01
 -1       339 5.97197E-01
 -1       340 5.00707E-01
 -1       341 4.18488E-01
 -1       342 3.61675E-01
 -1       343 3.21265E-01
 -1       344 3.29339E-01
 -1       345 6.40987E-01
 -1       346 1.98546E+00
 -1       347 2.12632E+00
 -1       348 1.70181E+00
 -1       349 1.49998E+00
 -1       350 3.70398E-01
 -1       351 6.34950E-01
 -1       352 2.21765E-01
 -1       353 2.94981E-01
 -1       354 4.04762E-01
 -1       355 5.26251E-01
 -1       356 6.55863E-01
 -1       357 7.82329E-01
 -1       358 8.85138E-01
 -1       359 9.85841E-01
 -1       360 1.09658E+00
 -1       361 1.10020E+00
 -1       362 9.36718E-01
 -1       363 9.41798E-01
 -1       364 1.03389E+00
 -1       365 1.66250E+00
 -1       366 2.21689E+00
 -1       367 2.58910E+00
 -1       368 2.44418E+00
 -1       369 2.52397E+00
 -1       370 1.98320E+00
 -1       371 1.48784E+00
 -1       372 9.39583E-01
 -1       373 9.35371E-01
 -1       374 9.32657E-01
 -1       375 1.01347E+00
 -1       376 9.17417E-01
 -1       377 7.56735E-01
 -1       378 6.66595E-01
 -1       379 5.95547E-01
 -1       380 4.57934E-01
 -1       381 1.09357E+00
 -1       382 8.49777E-01
 -1       383 6.64595E-01
 -1       384 5.08625E-01
 -1       385 3.91985E-01
 -1       386 3.27921E-01
 -1       387 2.66242E-01
 -1       388 2.13655E-01
 -1       389 2.58900E-01
 -1       390 8.08408E-01
 -1       391 9.78456E-01
 -1       392 2.07852E-01
 -1       393 1.11604E-01
 -1       394 1.06176E-01
 -1       395 1.19002E-01
 -1       396 1.47499E-01
 -1       397 1.96342E-01
 -1       398 2.72256E-01
 -1       399 3.63121E-01
 -1       400 4.67289E-01
 -1       401 5.79105E-01
 -1       402 6.86857E-01
 -1       403 7.74889E-01
 -1       404 8.55546E-01
 -1       405 8.62856E-01
 -1       406 8.62856E-01
 -1       407 7.47228E-01
 -1       408 6.31483E-01
 -1       409 7.59577E-01
 -1       410 1.40968E+00
 -1       411 1.85702E+00
 -1       412 1.86685E+00
 -1       413 1.86630E+00
 -1       414 2.01088E+00
 -1       415 2.10222E+00
 -1       416 1.61917E+00
 -1       417 9.92048E-01
 -1       418 5.83133E-01
 -1       419 6.67528E-01
 -1       420 7.92292E-01
 -1       421 8.78970E-01
 -1       422 8.36876E-01
 -1       423 7.22760E-01
 -1       424 6.20760E-01
 -1       425 5.28854E-01
 -1       426 3.62785E-01
 -1       427 2.38571E-01
 -1       428 3.94249E-01
 -1       429 3.94249E-01
 -1       430 2.31633E-01
 -1       431 3.59786E-01
 -1       432 4.49429E-01
 -1       433 4.59687E-01
 -1       434 4.63409E-01
 -1       435 4.63409E-01
 -1       436 4.00711E-01
 -1       437 2.78761E-01
 -1       438 2.47131E-01
 -1       439 3.69846E-01
 -1       440 2.83519E+01
 -1       441 3.28065E+01
 -1       442 3.28065E+01
 -1       443 1.76320E+01
 -1       444 9.86605E+00
 -1       445 8.83743E-01
 -1       446 9.84824E+00
 -1       447 1.10977E+01
 -1       448 1.09617E+01
 -1       449 8.06380E+00
 -1       450 6.83400E+00
 -1       451 1.18877E+01
 -1       452 2.09568E+01
 -1       453 2.47669E+01
 -1       454 3.39540E+01
 -1       455 3.39540E+01
 -1       456 2.80079E+01
 -1       457 2.37157E+01
 -1       458 1.36853E+01
 -1       459 7.50549E+00
 -1       460 8.77477E+00
 -1       461 1.03129E+01
 -1       462 1.07969E+01
 -1       463 9.66516E+00
 -1       464 8.01588E+00
 -1       465 7.97084E+00
 -1       466 1.53457E+01
 -1       467 2.77752E+01
 -1       468 3.05099E+01
 -1       469 7.80616E+00
 -1       470 1.00485E+00
 -1       471 4.60586E-01
 -1       472 4.85038E-01
 -1       473 4.57929E-01
 -1       474 4.82472E-01
 -1       475 5.12350E-01
 -1       476 5.35768E-01
 -1       477 5.35768E-01
 -1       478 6.76258E-01
 -1       479 8.49777E-01
 -1       480 8.00900E-01
 -1       481 5.52380E+00
 -1       482 2.11924E+01
 -1       483 7.52641E-01
 -1       484 6.39720E-01
 -1       485 5.28152E-01
 -1       486 4.30938E-01
 -1       487 3.84612E-01
 -1       488 3.41386E-01
 -1       489 3.07640E-01
 -1       490 2.85471E-01
 -1       491 2.56840E-01
 -1       492 3.25613E-01
 -1       493 4.19914E-01
 -1       494 1.86655E+00
 -1       495 1.86655E+00
 -1       496 4.26063E+00
 -1       497 3.84206E+00
 -1       498 1.09206E+00
 -1       499 3.49384E-01
 -1       500 3.38890E-01
 -1       501 4.57323E-01
 -1       502 5.81049E-01
 -1       503 7.11198E-01
 -1       504 8.38965E-01
 -1       505 9.46724E-01
 -1       506 1.05227E+00
 -1       507 1.21434E+00
 -1       508 1.34110E+00
 -1       509 1.37191E+00
 -1       510 1.71612E+00
 -1       511 1.71903E+00
 -1       512 1.92198E+00
 -1       513 2.53709E+00
 -1       514 3.15837E+00
 -1       515 3.38725E+00
 -1       516 2.25911E+00
 -1       517 2.22563E+00
 -1       518 1.75010E+00
 -1       519 1.59765E+00
 -1       520 1.21727E+00
 -1       521 1.14332E+00
 -1       522 9.79533E-01
 -1       523 8.18848E-01
 -1       524 6.96752E-01
 -1       525 5.61568E-01
 -1       526 5.08625E-01
 -1       527 3.98149E-01
 -1       528 3.27921E-01
 -1       529 2.66242E-01
 -1       530 2.16910E-01
 -1       531 2.65728E-01
 -1       532 1.03080E+00
 -1       533 1.03080E+00
 -1       534 9.78456E-01
 -1       535 1.92461E-01
 -1       536 8.12416E-02
 -1       537 1.00507E-01
 -1       538 1.22906E-01
 -1       539 1.79849E-01
 -1       540 2.48474E-01
 -1       541 3.29667E-01
 -1       542 4.23142E-01
 -1       543 5.26055E-01
 -1       544 6.31065E-01
 -1       545 7.25153E-01
 -1       546 8.03172E-01
 -1       547 8.72163E-01
 -1       548 9.39543E-01
 -1       549 9.37410E-01
 -1       550 9.42206E-01
 -1       551 1.07640E+00
 -1       552 1.30356E+00
 -1       553 1.59230E+00
 -1       554 1.93689E+00
 -1       555 2.18793E+00
 -1       556 2.34597E+00
 -1       557 2.13061E+00
 -1       558 1.62768E+00
 -1       559 1.38064E+00
 -1       560 1.06641E+00
 -1       561 9.73014E-01
 -1       562 7.96806E-01
 -1       563 7.79626E-01
 -1       564 6.91855E-01
 -1       565 6.05563E-01
 -1       566 5.04378E-01
 -1       567 4.46434E-01
 -1       568 4.11859E-01
 -1       569 5.72230E-01
 -1       570 3.51860E-01
 -1       571 3.41355E-01
 -1       572 6.32733E-01
 -1       573 6.32733E-01
 -1       574 6.24619E-01
 -1       575 6.14070E-01
 -1       576 4.88061E-01
 -1       577 4.22958E-01
 -1       578 4.22958E-01
 -1       579 3.28065E+01
 -1       580 1.24518E+01
 -1       581 6.64595E-01
 -1       582 3.05099E+01
 -1       583 9.63450E+00
 -1       584 5.41456E+00
 -1       585 2.03427E+01
 -1       586 7.67406E+00
 -1       587 7.30583E+00
 -1       588 4.32111E-01
 -1       589 7.85869E+00
 -1       590 8.31374E+00
 -1       591 7.33846E+00
 -1       592 5.71960E+00
 -1       593 3.66059E+00
 -1       594 7.50664E+00
 -1       595 9.81715E+00
 -1       596 1.57699E+01
 -1       597 2.47669E+01
 -1       598 3.39540E+01
 -1       599 2.80079E+01
 -1       600 1.72622E+01
 -1       601 1.17261E+01
 -1       602 4.39928E+00
 -1       603 7.22871E+00
 -1       604 6.27025E+00
 -1       605 6.17449E+00
 -1       606 4.16863E+00
 -1       607 1.20966E+01
 -1       608 8.89264E-01
 -1       609 1.32964E+00
 -1       610 4.85038E-01
 -1       611 4.46388E-01
 -1       612 7.68046E+00
 -1       613 6.20003E+00
 -1       614 1.10500E+01
 -1       615 2.05681E+01
 -1       616 3.75306E-01
 -1       617 3.83438E-01
 -1       618 3.68282E-01
 -1       619 3.85520E-01
 -1       620 3.60277E-01
 -1       621 5.50822E-01
 -1       622 3.80282E+00
 -1       623 4.44795E-01
 -1       624 4.32518E-01
 -1       625 3.92593E-01
 -1       626 3.44149E-01
 -1       627 2.97079E-01
 -1       628 2.73792E-01
 -1       629 2.51012E-01
 -1       630 2.24523E-01
 -1       631 1.81773E-01
 -1       632 2.28136E-01
 -1       633 4.16452E-01
 -1       634 1.86655E+00
 -1       635 4.36530E+00
 -1       636 4.36530E+00
 -1       637 4.03115E+00
 -1       638 2.51282E+00
 -1       639 8.01332E-01
 -1       640 4.43319E-01
 -1       641 4.86840E-01
 -1       642 6.15828E-01
 -1       643 7.63775E-01
 -1       644 9.29155E-01
 -1       645 1.10353E+00
 -1       646 1.26664E+00
 -1       647 1.58437E+00
 -1       648 1.95669E+00
 -1       649 2.25735E+00
 -1       650 2.56311E+00
 -1       651 2.20128E+00
 -1       652 2.53709E+00
 -1       653 6.56498E+00
 -1       654 3.38725E+00
 -1       655 2.69676E+00
 -1       656 2.22563E+00
 -1       657 3.05878E+00
 -1       658 2.01024E+00
 -1       659 1.74082E+00
 -1       660 1.31715E+00
 -1       661 1.03980E+00
 -1       662 8.51576E-01
 -1       663 6.07425E-01
 -1       664 2.96369E-01
 -1       665 4.22958E-01
 -1       666 3.62727E-01
 -1       667 2.03721E-01
 -1       668 1.86381E-01
 -1       669 2.65728E-01
 -1       670 1.03080E+00
 -1       671 8.03667E-01
 -1       672 3.17751E-01
 -1       673 4.40301E-01
 -1       674 3.71941E-01
 -1       675 1.32359E-01
 -1       676 1.49567E-01
 -1       677 2.08899E-01
 -1       678 2.79463E-01
 -1       679 3.62366E-01
 -1       680 4.58661E-01
 -1       681 5.66183E-01
 -1       682 6.79972E-01
 -1       683 7.90417E-01
 -1       684 8.81816E-01
 -1       685 1.03718E+00
 -1       686 1.20814E+00
 -1       687 1.33616E+00
 -1       688 1.56076E+00
 -1       689 1.85105E+00
 -1       690 1.74442E+00
 -1       691 3.80282E+00
 -1       692 3.65980E+00
 -1       693 3.83694E+00
 -1       694 4.50988E+00
 -1       695 3.63294E+00
 -1       696 2.90418E+00
 -1       697 1.95813E+00
 -1       698 1.62110E+00
 -1       699 1.21299E+00
 -1       700 1.06174E+00
 -1       701 8.75009E-01
 -1       702 6.96858E-01
 -1       703 5.82084E-01
 -1       704 4.78885E-01
 -1       705 7.83235E+00
 -1       706 8.22662E-01
 -1       707 6.52483E-01
 -1       708 8.47670E-01
 -1       709 8.22662E-01
 -1       710 4.53894E+00
 -1       711 8.47670E-01
 -1       712 7.54171E-01
 -1       713 5.74611E-01
 -1       714 1.55842E+01
 -1       715 1.18729E+01
 -1       716 4.28234E-01
 -1       717 1.44455E+01
 -1       718 1.65028E+01
 -1       719 3.08904E-01
 -1       720 1.30682E+01
 -1       721 4.43849E+00
 -1       722 2.99159E+00
 -1       723 2.42138E-01
 -1       724 3.88132E-01
 -1       725 4.77632E-01
 -1       726 3.85520E-01
 -1       727 3.35667E-01
 -1       728 4.50988E+00
 -1       729 4.32624E+00
 -1       730 4.65628E+00
 -1       731 6.34884E+00
 -1       732 8.83624E+00
 -1       733 1.73007E+01
 -1       734 3.63294E+00
 -1       735 1.42080E+01
 -1       736 9.90863E+00
 -1       737 4.75693E+00
 -1       738 2.87404E+00
 -1       739 3.01021E+00
 -1       740 5.43347E+00
 -1       741 1.11713E+01
 -1       742 3.35667E-01
 -1       743 3.48771E-01
 -1       744 3.60650E+00
 -1       745 4.72725E+00
 -1       746 4.29329E-01
 -1       747 4.30679E+00
 -1       748 8.05918E+00
 -1       749 1.38076E+01
 -1       750 4.42463E-01
 -1       751 6.59528E+00
 -1       752 3.33681E-01
 -1       753 4.59326E-01
 -1       754 2.62104E-01
 -1       755 4.13415E+00
 -1       756 2.90184E-01
 -1       757 4.33561E+00
 -1       758 2.88670E-01
 -1       759 8.96098E+00
 -1       760 3.01135E-01
 -1       761 2.94857E-01
 -1       762 2.73121E-01
 -1       763 2.44103E-01
 -1       764 2.14123E-01
 -1       765 1.90650E-01
 -1       766 1.59880E-01
 -1       767 1.35860E-01
 -1       768 1.41848E-01
 -1       769 4.16452E-01
 -1       770 7.30992E-01
 -1       771 4.36530E+00
 -1       772 4.03115E+00
 -1       773 3.39456E+00
 -1       774 3.39456E+00
 -1       775 8.14579E-01
 -1       776 4.44961E-01
 -1       777 5.42363E-01
 -1       778 6.68635E-01
 -1       779 8.37321E-01
 -1       780 1.06736E+00
 -1       781 1.39286E+00
 -1       782 1.78989E+00
 -1       783 2.19078E+00
 -1       784 2.94491E+00
 -1       785 4.23212E+00
 -1       786 4.89391E+00
 -1       787 3.21110E+00
 -1       788 1.88592E+00
 -1       789 1.49460E+00
 -1       790 1.10992E+00
 -1       791 6.51389E-01
 -1       792 1.86683E-01
 -1       793 1.43729E-01
 -1       794 1.61225E-01
 -1       795 1.06977E-01
 -1       796 4.00297E-01
 -1       797 4.40301E-01
 -1       798 4.40301E-01
 -1       799 3.71941E-01
 -1       800 1.39188E-01
 -1       801 1.63443E-01
 -1       802 2.18796E-01
 -1       803 2.86484E-01
 -1       804 3.71704E-01
 -1       805 4.78622E-01
 -1       806 6.05260E-01
 -1       807 7.49738E-01
 -1       808 9.15069E-01
 -1       809 1.09926E+00
 -1       810 1.30312E+00
 -1       811 1.67822E+00
 -1       812 2.01039E+00
 -1       813 2.42578E+00
 -1       814 2.36610E+00
 -1       815 2.76672E+00
 -1       816 2.07951E+00
 -1       817 1.55247E+00
 -1       818 1.17123E+00
 -1       819 9.39948E-01
 -1       820 7.33293E-01
 -1       821 5.64643E-01
 -1       822 3.11295E+00
 -1       823 1.12132E+00
 -1       824 8.60521E-01
 -1       825 1.10365E+00
 -1       826 3.12891E-01
 -1       827 7.44657E+00
 -1       828 1.05523E+01
 -1       829 3.00544E+00
 -1       830 8.33797E+00
 -1       831 1.02499E+01
 -1       832 2.71440E-01
 -1       833 1.06071E+00
 -1       834 7.64093E+00
 -1       835 2.81521E-01
 -1       836 3.10387E+00
 -1       837 2.54158E-01
 -1       838 8.69755E+00
 -1       839 6.05698E+00
 -1       840 1.02499E+01
 -1       841 8.96958E+00
 -1       842 3.07744E-01
 -1       843 3.03085E-01
 -1       844 2.21615E-01
 -1       845 2.57749E-01
 -1       846 2.39997E-01
 -1       847 1.88661E-01
 -1       848 2.65776E-01
 -1       849 9.74356E-01
 -1       850 1.12132E+00
 -1       851 3.12891E-01
 -1       852 5.58571E+00
 -1       853 6.46454E+00
 -1       854 8.77823E-01
 -1       855 2.23404E-01
 -1       856 3.95457E+00
 -1       857 6.42923E-01
 -1       858 4.25589E+00
 -1       859 2.18670E-01
 -1       860 2.25684E-01
 -1       861 2.16970E-01
 -1       862 1.98785E-01
 -1       863 1.74977E-01
 -1       864 1.56577E-01
 -1       865 1.34587E-01
 -1       866 1.12647E-01
 -1       867 1.13488E-01
 -1       868 1.07478E-01
 -1       869 5.66087E-01
 -1       870 5.27442E-01
 -1       871 2.33497E+00
 -1       872 3.39456E+00
 -1       873 8.14579E-01
 -1       874 4.29848E-01
 -1       875 5.20806E-01
 -1       876 6.63501E-01
 -1       877 8.37321E-01
 -1       878 1.04200E+00
 -1       879 1.33386E+00
 -1       880 1.80234E+00
 -1       881 2.65605E+00
 -1       882 3.44366E+00
 -1       883 5.40259E+00
 -1       884 3.27989E+00
 -1       885 2.37299E+00
 -1       886 1.44063E+00
 -1       887 1.10374E-01
 -1       888 9.20506E-02
 -1       889 1.27391E-01
 -1       890 4.00297E-01
 -1       891 3.99286E-01
 -1       892 3.62094E-01
 -1       893 1.39188E-01
 -1       894 1.56841E-01
 -1       895 2.09095E-01
 -1       896 2.67681E-01
 -1       897 3.52237E-01
 -1       898 4.47501E-01
 -1       899 5.59258E-01
 -1       900 6.81616E-01
 -1       901 8.59442E-01
 -1       902 1.10862E+00
 -1       903 1.47734E+00
 -1       904 1.91197E+00
 -1       905 3.07287E+00
 -1       906 3.97878E+00
 -1       907 6.90174E+00
 -1       908 1.35569E+00
 -1       909 1.14362E+00
 -1       910 1.84344E+00
 -1       911 5.07418E+00
 -1       912 8.43488E+00
 -1       913 1.58912E+00
 -1       914 8.53535E-02
 -1       915 2.91520E-01
 -1       916 1.86996E-01
 -1       917 2.67930E+00
 -1       918 5.98003E+00
 -1       919 6.46391E+00
 -1       920 7.50344E+00
 -1       921 8.43488E+00
 -1       922 5.10733E+00
 -1       923 7.50344E+00
 -1       924 6.00527E-01
 -1       925 1.75363E-01
 -1       926 1.96018E-01
 -1       927 1.35124E-01
 -1       928 1.86647E-01
 -1       929 4.37502E+00
 -1       930 4.50148E+00
 -1       931 1.47706E-01
 -1       932 4.86799E+00
 -1       933 1.03464E+00
 -1       934 1.78212E-01
 -1       935 1.46379E+00
 -1       936 3.68998E+00
 -1       937 2.41718E-01
 -1       938 1.14693E+00
 -1       939 1.58912E+00
 -1       940 2.41718E-01
 -1       941 1.46379E+00
 -1       942 1.39344E+00
 -1       943 5.68398E+00
 -1       944 2.27138E-01
 -1       945 1.81222E-01
 -1       946 1.75902E-01
 -1       947 1.73144E-01
 -1       948 1.61480E-01
 -1       949 1.44316E-01
 -1       950 1.29854E-01
 -1       951 1.13990E-01
 -1       952 9.63029E-02
 -1       953 7.93870E-02
 -1       954 1.07478E-01
 -1       955 2.22644E-01
 -1       956 7.99330E-01
 -1       957 4.93334E-01
 -1       958 6.26695E-01
 -1       959 3.87543E-01
 -1       960 4.54836E-01
 -1       961 5.86851E-01
 -1       962 7.66569E-01
 -1       963 1.00625E+00
 -1       964 1.33386E+00
 -1       965 1.78165E+00
 -1       966 2.41407E+00
 -1       967 3.90176E+00
 -1       968 1.08848E-01
 -1       969 3.08137E+00
 -1       970 2.62275E+00
 -1       971 2.23163E-01
 -1       972 9.76033E-02
 -1       973 7.61593E-02
 -1       974 6.08708E-02
 -1       975 1.44098E-01
 -1       976 2.09090E-01
 -1       977 2.50251E-01
 -1       978 3.26699E-01
 -1       979 4.14012E-01
 -1       980 5.33798E-01
 -1       981 6.81616E-01
 -1       982 8.59442E-01
 -1       983 1.06786E+00
 -1       984 1.38627E+00
 -1       985 2.49569E+00
 -1       986 3.54521E+00
 -1       987 1.14362E+00
 -1       988 2.66251E+00
 -1       989 1.64905E-01
 -1       990 2.39561E-01
 -1       991 3.97878E+00
 -1       992 6.45478E-02
 -1       993 2.83002E+00
 -1       994 1.66344E-01
 -1       995 4.02045E+00
 -1       996 4.57743E+00
 -1       997 4.89093E+00
 -1       998 4.89093E+00
 -1       999 8.23286E-02
 -1      1000 8.04199E-02
 -1      1001 4.57743E+00
 -1      1002 4.18380E+00
 -1      1003 1.11197E-01
 -1      1004 1.09848E-01
 -1      1005 4.67193E+00
 -1      1006 1.97473E+00
 -1      1007 2.63600E+00
 -1      1008 2.78291E+00
 -1      1009 1.37678E-01
 -1      1010 1.50511E-01
 -1      1011 1.33878E-01
 -1      1012 2.04452E+00
 -1      1013 1.19354E-01
 -1      1014 1.39198E-01
 -1      1015 4.27494E+00
 -1      1016 1.38657E-01
 -1      1017 1.31043E-01
 -1      1018 1.19371E-01
 -1      1019 1.07194E-01
 -1      1020 9.54837E-02
 -1      1021 8.65962E-02
 -1      1022 1.34809E-01
 -1      1023 3.46975E-01
 -1      1024 1.21008E+00
 -1      1025 5.19224E+00
 -1      1026 3.93607E+00
 -1      1027 1.39024E+00
 -1      1028 5.66074E-01
 -1      1029 4.50613E-01
 -1      1030 5.99357E-01
 -1      1031 8.10443E-01
 -1      1032 1.11844E+00
 -1      1033 1.57091E+00
 -1      1034 2.32615E+00
 -1      1035 3.49853E-01
 -1      1036 1.22419E-01
 -1      1037 1.77870E-01
 -1      1038 8.44697E-02
 -1      1039 3.46670E-01
 -1      1040 4.18018E-01
 -1      1041 3.41995E-01
 -1      1042 4.50220E-01
 -1      1043 5.97314E-01
 -1      1044 7.92270E-01
 -1      1045 1.06097E+00
 -1      1046 1.40418E+00
 -1      1047 2.16801E+00
 -1      1048 3.35257E+00
 -1      1049 1.12756E-01
 -1      1050 1.55170E-01
 -1      1051 1.24496E-01
 -1      1052 2.39626E+00
 -1      1053 2.77155E+00
 -1      1054 6.86413E-02
 -1      1055 4.27494E+00
 -1      1056 6.91683E-02
 -1      1057 1.29112E-01
 -1      1058 6.62169E-02
 -1      1059 6.48574E-02
 -1      1060 1.39178E-01
 -1      1061 7.98711E-02
 -1      1062 1.10421E-01
 -1      1063 3.50172E+00
 -1      1064 2.65075E+00
 -1      1065 1.81222E-01
 -1      1066 8.81877E-02
 -1      1067 1.10678E-01
 -1      1068 1.10477E-01
 -1      1069 1.05398E-01
 -1      1070 9.77932E-02
 -1      1071 8.81379E-02
 -1      1072 8.65962E-02
 -1      1073 1.34809E-01
 -1      1074 3.56587E-01
 -1      1075 1.21008E+00
 -1      1076 5.19224E+00
 -1      1077 5.19224E+00
 -1      1078 5.01396E+00
 -1      1079 1.39024E+00
 -1      1080 5.66074E-01
 -1      1081 4.96025E-01
 -1      1082 6.35366E-01
 -1      1083 8.51989E-01
 -1      1084 1.52369E+00
 -1      1085 1.79321E+00
 -1      1086 5.01396E+00
 -1      1087 1.20162E+00
 -1      1088 1.34406E-01
 -1      1089 1.38356E+00
 -1      1090 5.58848E-01
 -1      1091 4.26381E-01
 -1      1092 5.98587E-01
 -1      1093 8.28717E-01
 -1      1094 1.20621E+00
 -1      1095 1.52369E+00
 -1      1096 2.16801E+00
 -1      1097 1.48096E-01
 -1      1098 1.48096E-01
 -1      1099 3.56587E-01
 -1      1100 8.49913E-02
 -1      1101 3.94720E+00
 -1      1102 8.61360E-02
 -1      1103 8.00466E-02
 -1      1104 8.44697E-02
 -1      1105 8.25756E-02
 -1      1106 1.02772E-01
 -1      1107 1.79321E+00
 -1      1108 8.11872E-02
 -1      1109 1.02849E-01
 -1      1110 8.86511E-02
 -1      1111 9.25562E-02
 -1      1112 9.12662E-02
 -1      1113 1.31791E+01
 -1      1114 8.39693E+00
 -1      1115 2.69165E+00
 -1      1116 1.51110E+00
 -1      1117 1.13165E+00
 -1      1118 9.39154E-01
 -1      1119 8.24438E-01
 -1      1120 7.68761E-01
 -1      1121 7.70294E-01
 -1      1122 8.13014E-01
 -1      1123 8.86864E-01
 -1      1124 1.00814E+00
 -1      1125 1.21372E+00
 -1      1126 1.61660E+00
 -1      1127 2.72288E+00
 -1      1128 6.10283E+00
 -1      1129 1.13312E+01
 -1      1130 1.31791E+01
 -1      1131 8.78148E+00
 -1      1132 3.89842E+00
 -1      1133 2.79607E+00
 -1      1134 1.80220E+00
 -1      1135 1.25203E+00
 -1      1136 9.57780E-01
 -1      1137 7.45528E-01
 -1      1138 5.83448E-01
 -1      1139 4.59051E-01
 -1      1140 3.66653E-01
 -1      1141 3.64366E-01
 -1      1142 7.12069E-01
 -1      1143 2.48560E+00
 -1      1144 3.94798E+00
 -1      1145 3.62619E+00
 -1      1146 1.98322E+00
 -1      1147 4.34905E-01
 -1      1148 2.11954E-01
 -1      1149 2.46478E-01
 -1      1150 3.12491E-01
 -1      1151 3.87147E-01
 -1      1152 4.68157E-01
 -1      1153 5.52074E-01
 -1      1154 6.83130E-01
 -1      1155 8.67018E-01
 -1      1156 1.08234E+00
 -1      1157 1.30098E+00
 -1      1158 1.42795E+00
 -1      1159 1.46135E+00
 -1      1160 1.46582E+00
 -1      1161 1.58146E+00
 -1      1162 2.05863E+00
 -1      1163 3.14901E+00
 -1      1164 4.08936E+00
 -1      1165 4.30085E+00
 -1      1166 4.29593E+00
 -1      1167 3.89628E+00
 -1      1168 2.70579E+00
 -1      1169 1.68552E+00
 -1      1170 1.43278E+00
 -1      1171 1.42296E+00
 -1      1172 1.44137E+00
 -1      1173 1.36301E+00
 -1      1174 1.13906E+00
 -1      1175 9.42005E-01
 -1      1176 8.61284E-01
 -1      1177 7.44935E-01
 -1      1178 5.91123E-01
 -1      1179 3.20104E-01
 -1      1180 1.40114E+01
 -1      1181 8.67675E+00
 -1      1182 2.85003E+00
 -1      1183 1.98578E+00
 -1      1184 1.35529E+00
 -1      1185 9.72189E-01
 -1      1186 7.61675E-01
 -1      1187 6.06193E-01
 -1      1188 4.78950E-01
 -1      1189 3.74287E-01
 -1      1190 2.91794E-01
 -1      1191 2.26247E-01
 -1      1192 1.78901E-01
 -1      1193 1.61519E-01
 -1      1194 1.52792E-01
 -1      1195 1.38618E-01
 -1      1196 1.41813E-01
 -1      1197 1.62341E-01
 -1      1198 1.88526E-01
 -1      1199 2.26744E-01
 -1      1200 2.83864E-01
 -1      1201 3.54830E-01
 -1      1202 4.30722E-01
 -1      1203 5.03062E-01
 -1      1204 5.58373E-01
 -1      1205 5.86647E-01
 -1      1206 6.87352E-01
 -1      1207 8.70565E-01
 -1      1208 1.00692E+00
 -1      1209 1.18104E+00
 -1      1210 1.38030E+00
 -1      1211 1.51560E+00
 -1      1212 1.72798E+00
 -1      1213 2.28499E+00
 -1      1214 2.96499E+00
 -1      1215 3.43499E+00
 -1      1216 3.63285E+00
 -1      1217 3.49136E+00
 -1      1218 2.78842E+00
 -1      1219 1.78999E+00
 -1      1220 1.16968E+00
 -1      1221 1.09988E+00
 -1      1222 1.23063E+00
 -1      1223 1.24787E+00
 -1      1224 1.17524E+00
 -1      1225 9.86959E-01
 -1      1226 8.11033E-01
 -1      1227 6.73994E-01
 -1      1228 4.72467E-01
 -1      1229 2.19598E-01
 -1      1230 1.30885E-01
 -1      1231 1.70278E-01
 -1      1232 1.54023E-01
 -1      1233 1.08979E-01
 -1      1234 6.79096E-02
 -1      1235 8.41115E-02
 -1      1236 1.33507E-01
 -1      1237 1.63039E-01
 -1      1238 1.71656E-01
 -1      1239 1.67433E-01
 -1      1240 1.44864E-01
 -1      1241 9.94317E-02
 -1      1242 7.49050E-02
 -1      1243 1.10562E-01
 -1      1244 1.94749E-01
 -1      1245 2.66262E-01
 -1      1246 2.01249E-01
 -1      1247 2.48914E+01
 -1      1248 3.68643E+01
 -1      1249 4.85519E+01
 -1      1250 3.55052E+01
 -1      1251 1.73647E+01
 -1      1252 1.24225E+01
 -1      1253 1.27373E+01
 -1      1254 1.32874E+01
 -1      1255 1.36744E+01
 -1      1256 1.32917E+01
 -1      1257 2.18693E+01
 -1      1258 3.13407E+01
 -1      1259 2.99428E+01
 -1      1260 2.62229E+01
 -1      1261 2.46296E+01
 -1      1262 2.48475E+01
 -1      1263 3.29226E+01
 -1      1264 4.09976E+01
 -1      1265 2.80217E+01
 -1      1266 1.37129E+01
 -1      1267 1.23873E+01
 -1      1268 1.25249E+01
 -1      1269 1.26552E+01
 -1      1270 1.24083E+01
 -1      1271 1.47177E+01
 -1      1272 3.12825E+01
 -1      1273 4.52910E+01
 -1      1274 3.49945E+01
 -1      1275 2.46521E+01
 -1      1276 1.31791E+01
 -1      1277 4.81847E+00
 -1      1278 9.60067E+00
 -1      1279 2.00751E+00
 -1      1280 2.93059E+00
 -1      1281 4.13433E+00
 -1      1282 1.36125E+00
 -1      1283 1.61873E+00
 -1      1284 1.85766E+00
 -1      1285 1.06667E+00
 -1      1286 1.18865E+00
 -1      1287 1.29627E+00
 -1      1288 9.04438E-01
 -1      1289 9.74955E-01
 -1      1290 1.03195E+00
 -1      1291 8.07706E-01
 -1      1292 8.51905E-01
 -1      1293 8.87706E-01
 -1      1294 7.63270E-01
 -1      1295 7.74748E-01
 -1      1296 8.02216E-01
 -1      1297 7.83305E-01
 -1      1298 7.70294E-01
 -1      1299 7.76281E-01
 -1      1300 8.35387E-01
 -1      1301 8.05677E-01
 -1      1302 8.05677E-01
 -1      1303 9.13598E-01
 -1      1304 8.69457E-01
 -1      1305 8.62120E-01
 -1      1306 1.04869E+00
 -1      1307 9.71551E-01
 -1      1308 9.54144E-01
 -1      1309 1.27366E+00
 -1      1310 1.14522E+00
 -1      1311 1.10863E+00
 -1      1312 1.72642E+00
 -1      1313 1.45199E+00
 -1      1314 1.38348E+00
 -1      1315 2.92511E+00
 -1      1316 2.09327E+00
 -1      1317 1.92866E+00
 -1      1318 6.30870E+00
 -1      1319 3.76060E+00
 -1      1320 3.13099E+00
 -1      1321 1.40114E+01
 -1      1322 1.13312E+01
 -1      1323 8.98893E+00
 -1      1324 1.40114E+01
 -1      1325 8.78148E+00
 -1      1326 4.38383E+00
 -1      1327 3.89842E+00
 -1      1328 3.41301E+00
 -1      1329 3.89842E+00
 -1      1330 2.79607E+00
 -1      1331 2.17912E+00
 -1      1332 2.79607E+00
 -1      1333 1.84391E+00
 -1      1334 1.46699E+00
 -1      1335 1.84391E+00
 -1      1336 1.25494E+00
 -1      1337 1.08170E+00
 -1      1338 1.29666E+00
 -1      1339 9.57780E-01
 -1      1340 8.36775E-01
 -1      1341 9.60692E-01
 -1      1342 7.45528E-01
 -1      1343 6.54281E-01
 -1      1344 7.45528E-01
 -1      1345 5.91607E-01
 -1      1346 5.20774E-01
 -1      1347 5.91607E-01
 -1      1348 4.72187E-01
 -1      1349 4.18623E-01
 -1      1350 4.80346E-01
 -1      1351 3.82172E-01
 -1      1352 3.43337E-01
 -1      1353 3.95308E-01
 -1      1354 3.28579E-01
 -1      1355 3.65126E-01
 -1      1356 3.44097E-01
 -1      1357 5.20950E-01
 -1      1358 8.32105E-01
 -1      1359 4.85163E-01
 -1      1360 1.55133E+00
 -1      1361 3.01371E+00
 -1      1362 1.36021E+00
 -1      1363 3.94798E+00
 -1      1364 3.94798E+00
 -1      1365 3.01371E+00
 -1      1366 3.62619E+00
 -1      1367 3.30440E+00
 -1      1368 3.62619E+00
 -1      1369 2.05215E+00
 -1      1370 7.30968E-01
 -1      1371 2.05215E+00
 -1      1372 5.16215E-01
 -1      1373 2.89088E-01
 -1      1374 5.85151E-01
 -1      1375 1.98837E-01
 -1      1376 2.03013E-01
 -1      1377 2.80147E-01
 -1      1378 2.18947E-01
 -1      1379 2.49296E-01
 -1      1380 2.05830E-01
 -1      1381 2.76827E-01
 -1      1382 3.12491E-01
 -1      1383 2.49296E-01
 -1      1384 3.48155E-01
 -1      1385 3.87147E-01
 -1      1386 3.12491E-01
 -1      1387 4.34870E-01
 -1      1388 4.76887E-01
 -1      1389 3.95877E-01
 -1      1390 5.44080E-01
 -1      1391 5.85979E-01
 -1      1392 5.10792E-01
 -1      1393 6.57909E-01
 -1      1394 7.47065E-01
 -1      1395 6.49914E-01
 -1      1396 8.15292E-01
 -1      1397 9.10022E-01
 -1      1398 7.90070E-01
 -1      1399 9.80766E-01
 -1      1400 1.10136E+00
 -1      1401 9.29040E-01
 -1      1402 1.20293E+00
 -1      1403 1.30098E+00
 -1      1404 1.10136E+00
 -1      1405 1.39903E+00
 -1      1406 1.42795E+00
 -1      1407 1.30098E+00
 -1      1408 1.45688E+00
 -1      1409 1.46135E+00
 -1      1410 1.42795E+00
 -1      1411 1.46582E+00
 -1      1412 1.46582E+00
 -1      1413 1.46135E+00
 -1      1414 1.44597E+00
 -1      1415 1.56162E+00
 -1      1416 1.44597E+00
 -1      1417 1.69711E+00
 -1      1418 2.05863E+00
 -1      1419 1.56162E+00
 -1      1420 2.43619E+00
 -1      1421 3.16505E+00
 -1      1422 2.07467E+00
 -1      1423 3.87787E+00
 -1      1424 4.08936E+00
 -1      1425 3.16505E+00
 -1      1426 4.30085E+00
 -1      1427 4.30085E+00
 -1      1428 4.08936E+00
 -1      1429 4.29593E+00
 -1      1430 4.29101E+00
 -1      1431 4.29593E+00
 -1      1432 3.89628E+00
 -1      1433 3.50155E+00
 -1      1434 3.89628E+00
 -1      1435 2.83287E+00
 -1      1436 2.03712E+00
 -1      1437 2.83287E+00
 -1      1438 1.68552E+00
 -1      1439 1.46100E+00
 -1      1440 1.81260E+00
 -1      1441 1.43278E+00
 -1      1442 1.40456E+00
 -1      1443 1.43278E+00
 -1      1444 1.37401E+00
 -1      1445 1.39241E+00
 -1      1446 1.37401E+00
 -1      1447 1.44137E+00
 -1      1448 1.44137E+00
 -1      1449 1.39241E+00
 -1      1450 1.36301E+00
 -1      1451 1.28465E+00
 -1      1452 1.36301E+00
 -1      1453 1.13906E+00
 -1      1454 9.93464E-01
 -1      1455 1.13906E+00
 -1      1456 9.42005E-01
 -1      1457 8.90546E-01
 -1      1458 9.42005E-01
 -1      1459 8.61284E-01
 -1      1460 8.32022E-01
 -1      1461 8.61284E-01
 -1      1462 7.44935E-01
 -1      1463 6.57849E-01
 -1      1464 7.44935E-01
 -1      1465 5.91123E-01
 -1      1466 5.24396E-01
 -1      1467 5.91123E-01
 -1      1468 4.05542E-01
 -1      1469 4.05542E-01
 -1      1470 3.34212E+00
 -1      1471 8.67675E+00
 -1      1472 8.67675E+00
 -1      1473 2.35795E+00
 -1      1474 2.85003E+00
 -1      1475 2.85003E+00
 -1      1476 1.61362E+00
 -1      1477 1.98578E+00
 -1      1478 1.98578E+00
 -1      1479 1.09696E+00
 -1      1480 1.35529E+00
 -1      1481 1.35529E+00
 -1      1482 8.47412E-01
 -1      1483 9.72189E-01
 -1      1484 9.72189E-01
 -1      1485 6.75937E-01
 -1      1486 7.61675E-01
 -1      1487 7.61675E-01
 -1      1488 5.36450E-01
 -1      1489 6.06193E-01
 -1      1490 6.06193E-01
 -1      1491 4.21451E-01
 -1      1492 4.78950E-01
 -1      1493 4.78950E-01
 -1      1494 3.27123E-01
 -1      1495 3.74287E-01
 -1      1496 3.74287E-01
 -1      1497 2.56465E-01
 -1      1498 2.91794E-01
 -1      1499 2.91794E-01
 -1      1500 1.96293E-01
 -1      1501 2.26511E-01
 -1      1502 2.26511E-01
 -1      1503 1.62522E-01
 -1      1504 1.79650E-01
 -1      1505 1.79914E-01
 -1      1506 1.84558E-01
 -1      1507 1.84813E-01
 -1      1508 1.85561E-01
 -1      1509 1.52792E-01
 -1      1510 1.61264E-01
 -1      1511 1.84558E-01
 -1      1512 1.29545E-01
 -1      1513 1.35247E-01
 -1      1514 1.43719E-01
 -1      1515 1.41813E-01
 -1      1516 1.32916E-01
 -1      1517 1.29545E-01
 -1      1518 1.62341E-01
 -1      1519 1.50710E-01
 -1      1520 1.41813E-01
 -1      1521 1.89932E-01
 -1      1522 1.75378E-01
 -1      1523 1.63747E-01
 -1      1524 2.36891E-01
 -1      1525 2.13227E-01
 -1      1526 2.00079E-01
 -1      1527 2.97974E-01
 -1      1528 2.64519E-01
 -1      1529 2.51001E-01
 -1      1530 3.65829E-01
 -1      1531 3.28319E-01
 -1      1532 3.08973E-01
 -1      1533 4.34653E-01
 -1      1534 3.96271E-01
 -1      1535 3.69760E-01
 -1      1536 5.03062E-01
 -1      1537 4.69103E-01
 -1      1538 4.34653E-01
 -1      1539 5.58373E-01
 -1      1540 5.37021E-01
 -1      1541 5.03062E-01
 -1      1542 5.86647E-01
 -1      1543 5.79724E-01
 -1      1544 5.58373E-01
 -1      1545 7.26593E-01
 -1      1546 6.32811E-01
 -1      1547 6.25888E-01
 -1      1548 8.71562E-01
 -1      1549 7.82130E-01
 -1      1550 7.27589E-01
 -1      1551 1.00692E+00
 -1      1552 9.59996E-01
 -1      1553 8.71562E-01
 -1      1554 1.18104E+00
 -1      1555 1.05385E+00
 -1      1556 1.00692E+00
 -1      1557 1.38030E+00
 -1      1558 1.30824E+00
 -1      1559 1.18104E+00
 -1      1560 1.51560E+00
 -1      1561 1.45236E+00
 -1      1562 1.38030E+00
 -1      1563 1.72798E+00
 -1      1564 1.57883E+00
 -1      1565 1.51560E+00
 -1      1566 2.29113E+00
 -1      1567 1.88326E+00
 -1      1568 1.73412E+00
 -1      1569 2.96499E+00
 -1      1570 2.69286E+00
 -1      1571 2.29113E+00
 -1      1572 3.43499E+00
 -1      1573 3.23713E+00
 -1      1574 2.96499E+00
 -1      1575 3.63285E+00
 -1      1576 3.63285E+00
 -1      1577 3.43499E+00
 -1      1578 3.34986E+00
 -1      1579 3.49136E+00
 -1      1580 3.49136E+00
 -1      1581 2.22697E+00
 -1      1582 2.78842E+00
 -1      1583 2.78842E+00
 -1      1584 1.35300E+00
 -1      1585 1.78999E+00
 -1      1586 1.78999E+00
 -1      1587 9.23437E-01
 -1      1588 1.10676E+00
 -1      1589 1.10676E+00
 -1      1590 1.09988E+00
 -1      1591 9.86362E-01
 -1      1592 9.23437E-01
 -1      1593 1.23063E+00
 -1      1594 1.21340E+00
 -1      1595 1.09988E+00
 -1      1596 1.24787E+00
 -1      1597 1.24787E+00
 -1      1598 1.23063E+00
 -1      1599 1.10261E+00
 -1      1600 1.17524E+00
 -1      1601 1.17524E+00
 -1      1602 8.71307E-01
 -1      1603 9.86959E-01
 -1      1604 9.86959E-01
 -1      1605 7.50758E-01
 -1      1606 8.11033E-01
 -1      1607 8.11033E-01
 -1      1608 5.97230E-01
 -1      1609 6.73994E-01
 -1      1610 6.73994E-01
 -1      1611 3.55245E-01
 -1      1612 4.80007E-01
 -1      1613 4.80007E-01
 -1      1614 2.58991E-01
 -1      1615 1.93280E-01
 -1      1616 1.93280E-01
 -1      1617 1.77515E-01
 -1      1618 1.93770E-01
 -1      1619 2.16772E-01
 -1      1620 1.48725E-01
 -1      1621 1.77515E-01
 -1      1622 2.17262E-01
 -1      1623 8.69351E-02
 -1      1624 9.92139E-02
 -1      1625 1.67751E-01
 -1      1626 1.50617E-01
 -1      1627 1.22136E-01
 -1      1628 1.53441E-01
 -1      1629 2.13723E-01
 -1      1630 1.92808E-01
 -1      1631 2.30833E-01
 -1      1632 2.46500E-01
 -1      1633 2.37883E-01
 -1      1634 2.97185E-01
 -1      1635 2.48363E-01
 -1      1636 2.48363E-01
 -1      1637 3.23207E-01
 -1      1638 2.44140E-01
 -1      1639 2.48363E-01
 -1      1640 3.25070E-01
 -1      1641 2.09882E-01
 -1      1642 2.28229E-01
 -1      1643 3.09159E-01
 -1      1644 1.45714E-01
 -1      1645 1.72799E-01
 -1      1646 2.56164E-01
 -1      1647 9.56647E-02
 -1      1648 9.31066E-02
 -1      1649 1.66474E-01
 -1      1650 1.82822E-01
 -1      1651 1.49723E-01
 -1      1652 1.67925E-01
 -1      1653 2.33910E-01
 -1      1654 1.82822E-01
 -1      1655 2.21983E-01
 -1      1656 2.89256E-01
 -1      1657 2.68831E-01
 -1      1658 2.56905E-01
 -1      1659 4.08111E-01
 -1      1660 2.69583E+01
 -1      1661 2.66731E+01
 -1      1662 3.84519E+01
 -1      1663 2.67643E+01
 -1      1664 4.85519E+01
 -1      1665 4.85519E+01
 -1      1666 2.30778E+01
 -1      1667 3.61245E+01
 -1      1668 1.22710E+01
 -1      1669 1.73647E+01
 -1      1670 1.22567E+01
 -1      1671 1.21052E+01
 -1      1672 1.27373E+01
 -1      1673 1.25741E+01
 -1      1674 1.32874E+01
 -1      1675 1.29004E+01
 -1      1676 1.36744E+01
 -1      1677 1.36744E+01
 -1      1678 1.25590E+01
 -1      1679 1.29418E+01
 -1      1680 2.18693E+01
 -1      1681 1.29089E+01
 -1      1682 3.18516E+01
 -1      1683 3.13407E+01
 -1      1684 2.99428E+01
 -1      1685 3.18516E+01
 -1      1686 2.47366E+01
 -1      1687 2.65477E+01
 -1      1688 2.77315E+01
 -1      1689 2.75136E+01
 -1      1690 2.77315E+01
 -1      1691 2.77315E+01
 -1      1692 3.87632E+01
 -1      1693 3.06881E+01
 -1      1694 4.09976E+01
 -1      1695 4.09976E+01
 -1      1696 1.50458E+01
 -1      1697 2.80217E+01
 -1      1698 1.17655E+01
 -1      1699 1.30983E+01
 -1      1700 1.23873E+01
 -1      1701 1.23801E+01
 -1      1702 1.25249E+01
 -1      1703 1.23946E+01
 -1      1704 1.26552E+01
 -1      1705 1.26552E+01
 -1      1706 1.21615E+01
 -1      1707 1.24083E+01
 -1      1708 1.42840E+01
 -1      1709 1.17278E+01
 -1      1710 3.15967E+01
 -1      1711 1.75882E+01
 -1      1712 4.52910E+01
 -1      1713 4.52910E+01
 -1      1714 3.18071E+01
 -1      1715 4.21036E+01
 -1      1716 2.66731E+01
 -1      1717 2.67190E+01
 -1      1718 1.79841E+01
 -1      1719 3.61245E+01
 -1      1720 2.66531E-01
 -1      1721 2.89534E-01
 -1      1722 2.85459E+01
 -1      1723 3.84519E+01
 -1      1724 2.87399E+01
 -1      1725 1.21052E+01
 -1      1726 1.22567E+01
 -1      1727 1.27373E+01
 -1      1728 1.32874E+01
 -1      1729 1.29418E+01
 -1      1730 1.25590E+01
 -1      1731 2.23803E+01
 -1      1732 3.18516E+01
 -1      1733 2.84565E+01
 -1      1734 2.78384E+01
 -1      1735 3.06154E+01
 -1      1736 3.35721E+01
 -1      1737 3.87632E+01
 -1      1738 2.80217E+01
 -1      1739 1.30983E+01
 -1      1740 1.17655E+01
 -1      1741 1.23873E+01
 -1      1742 1.25249E+01
 -1      1743 1.24083E+01
 -1      1744 1.17278E+01
 -1      1745 1.45983E+01
 -1      1746 3.15967E+01
 -1      1747 4.21036E+01
 -1      1748 3.38281E+01
 -1      1749 9.60067E+00
 -1      1750 1.24291E+00
 -1      1751 1.63169E+00
 -1      1752 2.33666E+00
 -1      1753 4.22454E+00
 -1      1754 1.72191E+00
 -1      1755 8.50132E-01
 -1      1756 9.41845E-01
 -1      1757 7.51533E-01
 -1      1758 8.04066E-01
 -1      1759 7.13959E-01
 -1      1760 6.87561E-01
 -1      1761 7.20519E-01
 -1      1762 6.36879E-01
 -1      1763 6.84325E-01
 -1      1764 6.77302E-01
 -1      1765 5.95605E-01
 -1      1766 7.22987E-01
 -1      1767 7.00615E-01
 -1      1768 6.01635E-01
 -1      1769 7.78518E-01
 -1      1770 7.44447E-01
 -1      1771 6.39385E-01
 -1      1772 8.70300E-01
 -1      1773 8.12346E-01
 -1      1774 6.94673E-01
 -1      1775 1.01447E+00
 -1      1776 9.17939E-01
 -1      1777 7.76141E-01
 -1      1778 1.26046E+00
 -1      1779 1.08213E+00
 -1      1780 8.91447E-01
 -1      1781 1.75257E+00
 -1      1782 1.38572E+00
 -1      1783 1.08438E+00
 -1      1784 2.67251E+00
 -1      1785 1.83703E+00
 -1      1786 1.29410E+00
 -1      1787 8.10278E+00
 -1      1788 3.08032E+00
 -1      1789 1.78636E+00
 -1      1790 2.76815E+00
 -1      1791 5.20302E+00
 -1      1792 2.13509E+00
 -1      1793 2.62718E+00
 -1      1794 2.05321E+00
 -1      1795 3.40535E+00
 -1      1796 2.59919E+00
 -1      1797 1.98225E+00
 -1      1798 1.75110E+00
 -1      1799 1.41590E+00
 -1      1800 1.55423E+00
 -1      1801 1.23535E+00
 -1      1802 1.02330E+00
 -1      1803 1.14254E+00
 -1      1804 8.97385E-01
 -1      1805 7.73467E-01
 -1      1806 8.36074E-01
 -1      1807 7.16986E-01
 -1      1808 6.25739E-01
 -1      1809 6.53678E-01
 -1      1810 5.77494E-01
 -1      1811 5.14820E-01
 -1      1812 5.48952E-01
 -1      1813 4.73711E-01
 -1      1814 4.25123E-01
 -1      1815 4.59597E-01
 -1      1816 3.96717E-01
 -1      1817 3.60266E-01
 -1      1818 3.90081E-01
 -1      1819 3.40061E-01
 -1      1820 3.25302E-01
 -1      1821 3.41470E-01
 -1      1822 3.29339E-01
 -1      1823 4.85163E-01
 -1      1824 3.25302E-01
 -1      1825 6.40987E-01
 -1      1826 1.36021E+00
 -1      1827 4.85163E-01
 -1      1828 2.03245E+00
 -1      1829 2.96672E+00
 -1      1830 1.31322E+00
 -1      1831 3.03715E+00
 -1      1832 2.71536E+00
 -1      1833 2.05589E+00
 -1      1834 2.50310E+00
 -1      1835 1.25086E+00
 -1      1836 1.91406E+00
 -1      1837 1.14994E+00
 -1      1838 9.35188E-01
 -1      1839 1.60089E+00
 -1      1840 3.70398E-01
 -1      1841 2.80147E-01
 -1      1842 9.35188E-01
 -1      1843 4.12423E-01
 -1      1844 4.28357E-01
 -1      1845 5.02674E-01
 -1      1846 2.21765E-01
 -1      1847 2.49296E-01
 -1      1848 4.28357E-01
 -1      1849 2.85904E-01
 -1      1850 3.21568E-01
 -1      1851 2.58373E-01
 -1      1852 3.76458E-01
 -1      1853 4.24181E-01
 -1      1854 3.49871E-01
 -1      1855 4.84925E-01
 -1      1856 5.52118E-01
 -1      1857 4.65506E-01
 -1      1858 6.16924E-01
 -1      1859 6.88854E-01
 -1      1860 5.91057E-01
 -1      1861 7.52087E-01
 -1      1862 8.20313E-01
 -1      1863 7.19096E-01
 -1      1864 8.71717E-01
 -1      1865 9.42461E-01
 -1      1866 8.33734E-01
 -1      1867 9.92813E-01
 -1      1868 1.09439E+00
 -1      1869 9.35490E-01
 -1      1870 1.14976E+00
 -1      1871 1.24780E+00
 -1      1872 1.04121E+00
 -1      1873 1.24961E+00
 -1      1874 1.27854E+00
 -1      1875 1.09839E+00
 -1      1876 1.19680E+00
 -1      1877 1.20127E+00
 -1      1878 1.01846E+00
 -1      1879 1.20381E+00
 -1      1880 1.18396E+00
 -1      1881 9.39258E-01
 -1      1882 1.23001E+00
 -1      1883 1.36550E+00
 -1      1884 9.87844E-01
 -1      1885 1.67980E+00
 -1      1886 2.05736E+00
 -1      1887 1.34819E+00
 -1      1888 2.33456E+00
 -1      1889 3.04738E+00
 -1      1890 1.93969E+00
 -1      1891 3.23348E+00
 -1      1892 3.44498E+00
 -1      1893 2.40299E+00
 -1      1894 3.37252E+00
 -1      1895 3.36760E+00
 -1      1896 2.51664E+00
 -1      1897 3.40749E+00
 -1      1898 3.01276E+00
 -1      1899 2.48408E+00
 -1      1900 2.74238E+00
 -1      1901 2.07370E+00
 -1      1902 2.25359E+00
 -1      1903 1.82602E+00
 -1      1904 1.47442E+00
 -1      1905 1.73552E+00
 -1      1906 1.20029E+00
 -1      1907 1.17207E+00
 -1      1908 1.21371E+00
 -1      1909 1.16996E+00
 -1      1910 1.13941E+00
 -1      1911 9.37477E-01
 -1      1912 1.13806E+00
 -1      1913 1.18701E+00
 -1      1914 9.34014E-01
 -1      1915 1.22742E+00
 -1      1916 1.14906E+00
 -1      1917 9.73064E-01
 -1      1918 1.10103E+00
 -1      1919 9.55440E-01
 -1      1920 9.65444E-01
 -1      1921 8.75099E-01
 -1      1922 8.23641E-01
 -1      1923 8.37076E-01
 -1      1924 7.78571E-01
 -1      1925 7.49309E-01
 -1      1926 7.11665E-01
 -1      1927 7.13784E-01
 -1      1928 6.26698E-01
 -1      1929 6.31071E-01
 -1      1930 5.57891E-01
 -1      1931 4.91165E-01
 -1      1932 3.74880E-01
 -1      1933 5.26740E-01
 -1      1934 1.35360E+00
 -1      1935 1.72576E+00
 -1      1936 1.50291E+00
 -1      1937 9.73371E-01
 -1      1938 1.23170E+00
 -1      1939 9.71676E-01
 -1      1940 7.56004E-01
 -1      1941 8.80780E-01
 -1      1942 7.57186E-01
 -1      1943 5.92281E-01
 -1      1944 6.78019E-01
 -1      1945 5.86610E-01
 -1      1946 4.64217E-01
 -1      1947 5.33961E-01
 -1      1948 4.50305E-01
 -1      1949 3.74686E-01
 -1      1950 4.32185E-01
 -1      1951 3.59953E-01
 -1      1952 2.96683E-01
 -1      1953 3.43847E-01
 -1      1954 2.97082E-01
 -1      1955 2.35060E-01
 -1      1956 2.70389E-01
 -1      1957 2.39949E-01
 -1      1958 2.27729E-01
 -1      1959 2.57683E-01
 -1      1960 2.36277E-01
 -1      1961 4.85839E-01
 -1      1962 5.02482E-01
 -1      1963 5.33654E-01
 -1      1964 5.93154E-01
 -1      1965 5.70863E-01
 -1      1966 8.93432E-01
 -1      1967 1.84558E-01
 -1      1968 2.07852E-01
 -1      1969 5.93154E-01
 -1      1970 1.18889E-01
 -1      1971 1.36434E-01
 -1      1972 1.59728E-01
 -1      1973 1.19546E-01
 -1      1974 1.16175E-01
 -1      1975 1.08890E-01
 -1      1976 1.34856E-01
 -1      1977 1.25959E-01
 -1      1978 1.12589E-01
 -1      1979 1.62142E-01
 -1      1980 1.49105E-01
 -1      1981 1.33250E-01
 -1      1982 2.09858E-01
 -1      1983 1.86563E-01
 -1      1984 1.71920E-01
 -1      1985 2.75442E-01
 -1      1986 2.47815E-01
 -1      1987 2.34299E-01
 -1      1988 3.51219E-01
 -1      1989 3.20875E-01
 -1      1990 3.17688E-01
 -1      1991 4.33746E-01
 -1      1992 4.03303E-01
 -1      1993 4.15205E-01
 -1      1994 5.24104E-01
 -1      1995 4.89654E-01
 -1      1996 5.23197E-01
 -1      1997 6.11939E-01
 -1      1998 5.77980E-01
 -1      1999 6.32981E-01
 -1      2000 6.77307E-01
 -1      2001 6.55955E-01
 -1      2002 7.30873E-01
 -1      2003 7.63799E-01
 -1      2004 7.17635E-01
 -1      2005 8.15217E-01
 -1      2006 8.22991E-01
 -1      2007 7.67454E-01
 -1      2008 8.59201E-01
 -1      2009 9.11426E-01
 -1      2010 8.22991E-01
 -1      2011 8.62856E-01
 -1      2012 9.00537E-01
 -1      2013 8.53612E-01
 -1      2014 8.05042E-01
 -1      2015 9.69863E-01
 -1      2016 8.42665E-01
 -1      2017 6.89355E-01
 -1      2018 1.10597E+00
 -1      2019 1.03391E+00
 -1      2020 6.95530E-01
 -1      2021 1.49426E+00
 -1      2022 1.43102E+00
 -1      2023 1.08463E+00
 -1      2024 1.87321E+00
 -1      2025 1.71793E+00
 -1      2026 1.63335E+00
 -1      2027 2.27986E+00
 -1      2028 1.87813E+00
 -1      2029 1.86193E+00
 -1      2030 2.55172E+00
 -1      2031 2.27958E+00
 -1      2032 1.86658E+00
 -1      2033 2.82187E+00
 -1      2034 2.62400E+00
 -1      2035 1.93859E+00
 -1      2036 2.72604E+00
 -1      2037 2.86754E+00
 -1      2038 2.05655E+00
 -1      2039 1.92307E+00
 -1      2040 2.48451E+00
 -1      2041 1.86070E+00
 -1      2042 1.17252E+00
 -1      2043 1.60951E+00
 -1      2044 1.30561E+00
 -1      2045 7.21823E-01
 -1      2046 9.68067E-01
 -1      2047 7.87591E-01
 -1      2048 8.26945E-01
 -1      2049 7.64020E-01
 -1      2050 6.25331E-01
 -1      2051 1.00284E+00
 -1      2052 8.89327E-01
 -1      2053 7.29910E-01
 -1      2054 1.06342E+00
 -1      2055 1.04618E+00
 -1      2056 8.35631E-01
 -1      2057 9.69743E-01
 -1      2058 1.04237E+00
 -1      2059 8.57923E-01
 -1      2060 7.97033E-01
 -1      2061 9.12685E-01
 -1      2062 7.79818E-01
 -1      2063 6.85759E-01
 -1      2064 7.46033E-01
 -1      2065 6.71760E-01
 -1      2066 5.63042E-01
 -1      2067 6.39806E-01
 -1      2068 5.74807E-01
 -1      2069 3.62785E-01
 -1      2070 4.80007E-01
 -1      2071 4.45820E-01
 -1      2072 2.89534E-01
 -1      2073 1.78405E-01
 -1      2074 2.27916E-01
 -1      2075 3.05755E-01
 -1      2076 3.05755E-01
 -1      2077 3.16410E-01
 -1      2078 3.05755E-01
 -1      2079 3.05265E-01
 -1      2080 3.78517E-01
 -1      2081 3.94249E-01
 -1      2082 2.10137E-01
 -1      2083 1.74936E-01
 -1      2084 2.35102E-01
 -1      2085 3.16405E-01
 -1      2086 2.74214E-01
 -1      2087 2.95709E-01
 -1      2088 3.85387E-01
 -1      2089 3.61227E-01
 -1      2090 4.04608E-01
 -1      2091 3.92378E-01
 -1      2092 3.90516E-01
 -1      2093 4.54558E-01
 -1      2094 3.94240E-01
 -1      2095 3.94240E-01
 -1      2096 4.61548E-01
 -1      2097 3.78329E-01
 -1      2098 3.94240E-01
 -1      2099 4.63409E-01
 -1      2100 3.09896E-01
 -1      2101 3.46979E-01
 -1      2102 4.32060E-01
 -1      2103 1.96314E-01
 -1      2104 2.48921E-01
 -1      2105 3.39736E-01
 -1      2106 2.34557E-01
 -1      2107 1.80499E-01
 -1      2108 2.62946E-01
 -1      2109 2.95914E-01
 -1      2110 2.95914E-01
 -1      2111 3.08488E-01
 -1      2112 3.84519E+01
 -1      2113 2.83519E+01
 -1      2114 3.07732E+01
 -1      2115 3.07732E+01
 -1      2116 3.05792E+01
 -1      2117 3.07732E+01
 -1      2118 2.06646E+01
 -1      2119 3.30919E+01
 -1      2120 1.10685E+01
 -1      2121 1.67816E+01
 -1      2122 1.37490E+01
 -1      2123 1.00370E+00
 -1      2124 1.17631E+00
 -1      2125 9.50341E-01
 -1      2126 8.21884E-01
 -1      2127 1.12112E+01
 -1      2128 1.08938E+01
 -1      2129 1.19991E+01
 -1      2130 1.18359E+01
 -1      2131 1.23181E+01
 -1      2132 1.19311E+01
 -1      2133 1.01365E+01
 -1      2134 1.08691E+01
 -1      2135 9.87147E+00
 -1      2136 9.52155E+00
 -1      2137 2.18697E+01
 -1      2138 1.23983E+01
 -1      2139 2.64042E+01
 -1      2140 2.64042E+01
 -1      2141 2.49142E+01
 -1      2142 2.83093E+01
 -1      2143 3.22847E+01
 -1      2144 2.95077E+01
 -1      2145 3.22847E+01
 -1      2146 3.22847E+01
 -1      2147 3.22683E+01
 -1      2148 2.93116E+01
 -1      2149 3.23566E+01
 -1      2150 3.01222E+01
 -1      2151 1.43656E+01
 -1      2152 2.73415E+01
 -1      2153 9.32817E+00
 -1      2154 1.12756E+01
 -1      2155 1.05774E+01
 -1      2156 9.96281E+00
 -1      2157 8.14013E+00
 -1      2158 1.13537E+01
 -1      2159 1.13465E+01
 -1      2160 1.17261E+01
 -1      2161 1.15958E+01
 -1      2162 1.09133E+01
 -1      2163 1.11602E+01
 -1      2164 9.65501E+00
 -1      2165 1.00887E+01
 -1      2166 8.84052E+00
 -1      2167 1.29367E+01
 -1      2168 9.63249E+00
 -1      2169 3.03183E+01
 -1      2170 1.66241E+01
 -1      2171 3.33457E+01
 -1      2172 3.65331E+01
 -1      2173 2.96249E+01
 -1      2174 3.47130E+01
 -1      2175 9.87274E+00
 -1      2176 1.00386E+01
 -1      2177 8.82720E+00
 -1      2178 2.91994E+00
 -1      2179 8.83611E+00
 -1      2180 2.10612E+00
 -1      2181 3.05792E+01
 -1      2182 3.28065E+01
 -1      2183 3.30836E-01
 -1      2184 2.29920E+01
 -1      2185 3.16582E+01
 -1      2186 2.91425E+01
 -1      2187 2.15604E+01
 -1      2188 7.99336E+00
 -1      2189 1.02311E+01
 -1      2190 9.54385E+00
 -1      2191 1.05954E+01
 -1      2192 1.87005E+01
 -1      2193 2.58618E+01
 -1      2194 3.09809E+01
 -1      2195 3.39540E+01
 -1      2196 2.93605E+01
 -1      2197 2.28619E+01
 -1      2198 1.64223E+01
 -1      2199 9.36087E+00
 -1      2200 7.44890E+00
 -1      2201 9.51275E+00
 -1      2202 1.04730E+01
 -1      2203 1.10297E+01
 -1      2204 1.05549E+01
 -1      2205 1.16583E+01
 -1      2206 1.04921E+00
 -1      2207 1.45855E+00
 -1      2208 5.33225E-01
 -1      2209 5.64239E-01
 -1      2210 5.76466E-01
 -1      2211 6.22532E-01
 -1      2212 4.72812E-01
 -1      2213 5.37927E-01
 -1      2214 5.21637E-01
 -1      2215 5.71658E-01
 -1      2216 5.50198E-01
 -1      2217 4.70200E-01
 -1      2218 6.20426E-01
 -1      2219 5.86597E-01
 -1      2220 4.97411E-01
 -1      2221 6.79774E-01
 -1      2222 6.32135E-01
 -1      2223 5.24059E-01
 -1      2224 7.47441E-01
 -1      2225 6.79774E-01
 -1      2226 5.35768E-01
 -1      2227 9.42950E-01
 -1      2228 8.17686E-01
 -1      2229 6.06013E-01
 -1      2230 8.49777E-01
 -1      2231 9.71676E-01
 -1      2232 9.27315E-01
 -1      2233 1.29314E+00
 -1      2234 1.06199E+00
 -1      2235 6.66498E+00
 -1      2236 7.69493E+00
 -1      2237 2.47722E+01
 -1      2238 2.69995E+01
 -1      2239 1.03787E+00
 -1      2240 8.57314E-01
 -1      2241 7.76771E-01
 -1      2242 8.00854E-01
 -1      2243 6.74940E-01
 -1      2244 6.96180E-01
 -1      2245 6.19156E-01
 -1      2246 5.62675E-01
 -1      2247 5.83936E-01
 -1      2248 5.14067E-01
 -1      2249 4.65823E-01
 -1      2250 4.79545E-01
 -1      2251 4.42659E-01
 -1      2252 4.01550E-01
 -1      2253 4.07775E-01
 -1      2254 3.79937E-01
 -1      2255 3.51531E-01
 -1      2256 3.62999E-01
 -1      2257 3.34657E-01
 -1      2258 3.14452E-01
 -1      2259 3.24513E-01
 -1      2260 3.03368E-01
 -1      2261 3.07405E-01
 -1      2262 2.96556E-01
 -1      2263 2.93089E-01
 -1      2264 4.48913E-01
 -1      2265 2.71156E-01
 -1      2266 4.83300E-01
 -1      2267 1.15554E+00
 -1      2268 2.91227E-01
 -1      2269 1.20269E+00
 -1      2270 1.27312E+00
 -1      2271 3.72764E-01
 -1      2272 1.99643E+00
 -1      2273 1.78418E+00
 -1      2274 1.14323E+00
 -1      2275 1.78418E+00
 -1      2276 1.68326E+00
 -1      2277 1.86655E+00
 -1      2278 2.88030E+00
 -1      2279 2.31551E+00
 -1      2280 3.06359E+00
 -1      2281 2.10623E+00
 -1      2282 2.23851E+00
 -1      2283 4.05135E+00
 -1      2284 8.63505E-01
 -1      2285 6.56912E-01
 -1      2286 2.46706E+00
 -1      2287 2.85574E-01
 -1      2288 3.22182E-01
 -1      2289 7.20722E-01
 -1      2290 3.16936E-01
 -1      2291 3.71826E-01
 -1      2292 3.44137E-01
 -1      2293 4.31042E-01
 -1      2294 4.91787E-01
 -1      2295 3.98107E-01
 -1      2296 5.53650E-01
 -1      2297 6.18456E-01
 -1      2298 5.19186E-01
 -1      2299 6.83531E-01
 -1      2300 7.46764E-01
 -1      2301 6.46123E-01
 -1      2302 8.10647E-01
 -1      2303 8.62052E-01
 -1      2304 7.75082E-01
 -1      2305 9.15931E-01
 -1      2306 9.66282E-01
 -1      2307 8.92845E-01
 -1      2308 1.01906E+00
 -1      2309 1.07443E+00
 -1      2310 9.99499E-01
 -1      2311 1.15546E+00
 -1      2312 1.15727E+00
 -1      2313 1.13331E+00
 -1      2314 1.22065E+00
 -1      2315 1.13891E+00
 -1      2316 1.27772E+00
 -1      2317 1.15431E+00
 -1      2318 1.15685E+00
 -1      2319 1.35650E+00
 -1      2320 1.32896E+00
 -1      2321 1.37501E+00
 -1      2322 1.54402E+00
 -1      2323 1.37646E+00
 -1      2324 1.69077E+00
 -1      2325 1.71758E+00
 -1      2326 1.79224E+00
 -1      2327 2.06943E+00
 -1      2328 1.82051E+00
 -1      2329 2.37699E+00
 -1      2330 2.56310E+00
 -1      2331 2.22954E+00
 -1      2332 2.87373E+00
 -1      2333 2.80128E+00
 -1      2334 2.84773E+00
 -1      2335 2.91572E+00
 -1      2336 2.95561E+00
 -1      2337 3.27281E+00
 -1      2338 2.39154E+00
 -1      2339 2.12116E+00
 -1      2340 2.82318E+00
 -1      2341 2.10442E+00
 -1      2342 1.85674E+00
 -1      2343 2.24237E+00
 -1      2344 1.61897E+00
 -1      2345 1.34484E+00
 -1      2346 1.98786E+00
 -1      2347 1.26862E+00
 -1      2348 1.26651E+00
 -1      2349 1.67388E+00
 -1      2350 1.07632E+00
 -1      2351 1.07496E+00
 -1      2352 1.40746E+00
 -1      2353 1.03799E+00
 -1      2354 1.07840E+00
 -1      2355 1.18029E+00
 -1      2356 9.96502E-01
 -1      2357 9.48475E-01
 -1      2358 1.06143E+00
 -1      2359 8.68133E-01
 -1      2360 7.87792E-01
 -1      2361 8.99191E-01
 -1      2362 7.26743E-01
 -1      2363 6.81674E-01
 -1      2364 7.57800E-01
 -1      2365 6.14081E-01
 -1      2366 5.78557E-01
 -1      2367 6.29160E-01
 -1      2368 5.08625E-01
 -1      2369 5.86610E-01
 -1      2370 3.95067E-01
 -1      2371 4.53387E-01
 -1      2372 4.53387E-01
 -1      2373 3.27921E-01
 -1      2374 3.59953E-01
 -1      2375 3.63035E-01
 -1      2376 2.66242E-01
 -1      2377 2.97082E-01
 -1      2378 2.97082E-01
 -1      2379 2.15282E-01
 -1      2380 2.41576E-01
 -1      2381 2.41576E-01
 -1      2382 2.62314E-01
 -1      2383 2.39692E-01
 -1      2384 2.41319E-01
 -1      2385 9.19606E-01
 -1      2386 6.44852E-01
 -1      2387 6.48266E-01
 -1      2388 1.00463E+00
 -1      2389 9.19606E-01
 -1      2390 1.03080E+00
 -1      2391 5.93154E-01
 -1      2392 9.78456E-01
 -1      2393 1.00463E+00
 -1      2394 1.52032E-01
 -1      2395 2.00156E-01
 -1      2396 5.85459E-01
 -1      2397 9.37087E-02
 -1      2398 9.64226E-02
 -1      2399 1.36851E-01
 -1      2400 1.09755E-01
 -1      2401 1.03342E-01
 -1      2402 9.08745E-02
 -1      2403 1.35202E-01
 -1      2404 1.20954E-01
 -1      2405 1.11707E-01
 -1      2406 1.88095E-01
 -1      2407 1.63674E-01
 -1      2408 1.51377E-01
 -1      2409 2.60365E-01
 -1      2410 2.22408E-01
 -1      2411 2.14161E-01
 -1      2412 3.46394E-01
 -1      2413 3.00962E-01
 -1      2414 2.89070E-01
 -1      2415 4.45215E-01
 -1      2416 3.93131E-01
 -1      2417 3.76404E-01
 -1      2418 5.52580E-01
 -1      2419 4.96672E-01
 -1      2420 4.74599E-01
 -1      2421 6.58961E-01
 -1      2422 6.05085E-01
 -1      2423 5.78560E-01
 -1      2424 7.50021E-01
 -1      2425 7.06005E-01
 -1      2426 6.78109E-01
 -1      2427 8.29359E-01
 -1      2428 7.89031E-01
 -1      2429 7.64162E-01
 -1      2430 8.67509E-01
 -1      2431 8.63854E-01
 -1      2432 8.37667E-01
 -1      2433 9.01200E-01
 -1      2434 9.01200E-01
 -1      2435 9.05853E-01
 -1      2436 8.42319E-01
 -1      2437 9.00133E-01
 -1      2438 9.38477E-01
 -1      2439 7.86845E-01
 -1      2440 8.44717E-01
 -1      2441 9.39808E-01
 -1      2442 9.17986E-01
 -1      2443 8.53939E-01
 -1      2444 1.00930E+00
 -1      2445 1.35662E+00
 -1      2446 1.03157E+00
 -1      2447 1.18998E+00
 -1      2448 1.72466E+00
 -1      2449 1.50099E+00
 -1      2450 1.44793E+00
 -1      2451 1.90187E+00
 -1      2452 1.89695E+00
 -1      2453 1.76459E+00
 -1      2454 2.02712E+00
 -1      2455 2.02739E+00
 -1      2456 2.06241E+00
 -1      2457 2.17842E+00
 -1      2458 2.10614E+00
 -1      2459 2.26695E+00
 -1      2460 2.11642E+00
 -1      2461 2.07074E+00
 -1      2462 2.23829E+00
 -1      2463 1.62342E+00
 -1      2464 1.86495E+00
 -1      2465 1.87914E+00
 -1      2466 1.18634E+00
 -1      2467 1.49990E+00
 -1      2468 1.50416E+00
 -1      2469 8.24772E-01
 -1      2470 1.02923E+00
 -1      2471 1.22353E+00
 -1      2472 8.20271E-01
 -1      2473 7.78074E-01
 -1      2474 1.01971E+00
 -1      2475 7.94549E-01
 -1      2476 7.32167E-01
 -1      2477 8.84910E-01
 -1      2478 8.29298E-01
 -1      2479 7.85959E-01
 -1      2480 7.88216E-01
 -1      2481 7.64365E-01
 -1      2482 7.85412E-01
 -1      2483 7.35741E-01
 -1      2484 6.64161E-01
 -1      2485 7.21219E-01
 -1      2486 6.48709E-01
 -1      2487 5.62569E-01
 -1      2488 6.13569E-01
 -1      2489 5.54970E-01
 -1      2490 4.87644E-01
 -1      2491 5.33597E-01
 -1      2492 4.75406E-01
 -1      2493 4.61552E-01
 -1      2494 3.85823E-01
 -1      2495 3.21746E-01
 -1      2496 5.10830E-01
 -1      2497 4.66008E-01
 -1      2498 4.92045E-01
 -1      2499 2.95215E-01
 -1      2500 3.73054E-01
 -1      2501 2.86494E-01
 -1      2502 2.89963E-01
 -1      2503 3.46607E-01
 -1      2504 3.76607E-01
 -1      2505 5.46210E-01
 -1      2506 5.41081E-01
 -1      2507 6.02481E-01
 -1      2508 5.48071E-01
 -1      2509 5.46210E-01
 -1      2510 6.32733E-01
 -1      2511 5.44014E-01
 -1      2512 5.44014E-01
 -1      2513 6.28676E-01
 -1      2514 5.07390E-01
 -1      2515 5.38740E-01
 -1      2516 6.19345E-01
 -1      2517 3.83411E-01
 -1      2518 4.44386E-01
 -1      2519 5.51065E-01
 -1      2520 3.35044E-01
 -1      2521 3.50860E-01
 -1      2522 4.55509E-01
 -1      2523 3.96402E-01
 -1      2524 3.35044E-01
 -1      2525 4.22958E-01
 -1      2526 3.28065E+01
 -1      2527 3.28065E+01
 -1      2528 1.50419E+01
 -1      2529 2.04019E+01
 -1      2530 1.68221E+01
 -1      2531 6.64595E-01
 -1      2532 7.57186E-01
 -1      2533 5.86610E-01
 -1      2534 4.13890E-01
 -1      2535 3.16582E+01
 -1      2536 3.05099E+01
 -1      2537 3.16582E+01
 -1      2538 9.75027E+00
 -1      2539 1.36332E+01
 -1      2540 7.63140E+00
 -1      2541 6.61036E+00
 -1      2542 2.54263E+01
 -1      2543 2.40589E+01
 -1      2544 8.66961E+00
 -1      2545 9.23550E+00
 -1      2546 7.40566E+00
 -1      2547 1.04956E+01
 -1      2548 5.08728E-01
 -1      2549 5.18988E-01
 -1      2550 4.46348E-01
 -1      2551 4.45020E-01
 -1      2552 9.41019E+00
 -1      2553 9.47819E+00
 -1      2554 9.55534E+00
 -1      2555 9.31333E+00
 -1      2556 9.21808E+00
 -1      2557 8.59335E+00
 -1      2558 6.37651E+00
 -1      2559 6.89170E+00
 -1      2560 8.34065E+00
 -1      2561 5.24729E+00
 -1      2562 5.86219E+00
 -1      2563 9.69719E+00
 -1      2564 7.17032E+00
 -1      2565 1.53870E+01
 -1      2566 1.08524E+01
 -1      2567 2.02684E+01
 -1      2568 1.83633E+01
 -1      2569 2.93605E+01
 -1      2570 2.47669E+01
 -1      2571 3.39540E+01
 -1      2572 3.39540E+01
 -1      2573 2.93605E+01
 -1      2574 2.80079E+01
 -1      2575 3.09809E+01
 -1      2576 2.04889E+01
 -1      2577 2.26350E+01
 -1      2578 2.26350E+01
 -1      2579 1.27057E+01
 -1      2580 1.77209E+01
 -1      2581 6.58702E+00
 -1      2582 5.95238E+00
 -1      2583 1.12872E+01
 -1      2584 7.59978E+00
 -1      2585 8.29159E+00
 -1      2586 7.52251E+00
 -1      2587 7.29199E+00
 -1      2588 7.09518E+00
 -1      2589 7.91982E+00
 -1      2590 6.06974E+00
 -1      2591 6.09226E+00
 -1      2592 5.17156E+00
 -1      2593 1.99359E+01
 -1      2594 1.37211E+01
 -1      2595 1.62196E+01
 -1      2596 1.65807E+00
 -1      2597 1.33732E+00
 -1      2598 8.45082E-01
 -1      2599 9.53102E-01
 -1      2600 1.62094E+00
 -1      2601 1.76191E+00
 -1      2602 1.35410E+00
 -1      2603 1.16725E+00
 -1      2604 7.59858E+00
 -1      2605 4.85038E-01
 -1      2606 6.22532E-01
 -1      2607 6.84391E-01
 -1      2608 7.57186E-01
 -1      2609 1.26964E+00
 -1      2610 6.65066E-01
 -1      2611 7.31664E-01
 -1      2612 6.67826E-01
 -1      2613 4.65713E-01
 -1      2614 7.57915E+00
 -1      2615 2.69995E+01
 -1      2616 2.54263E+01
 -1      2617 5.69867E+00
 -1      2618 4.20341E-01
 -1      2619 1.10431E+01
 -1      2620 4.20341E-01
 -1      2621 3.99147E-01
 -1      2622 1.15131E+01
 -1      2623 7.45459E+00
 -1      2624 9.88852E+00
 -1      2625 5.33477E+00
 -1      2626 5.95981E+00
 -1      2627 8.58086E+00
 -1      2628 7.02936E+00
 -1      2629 1.73828E+01
 -1      2630 1.41561E+01
 -1      2631 1.13881E+01
 -1      2632 5.46918E+00
 -1      2633 7.99390E+00
 -1      2634 2.72611E+01
 -1      2635 2.72611E+01
 -1      2636 2.42880E+01
 -1      2637 2.02684E+01
 -1      2638 9.51597E+00
 -1      2639 1.27935E+01
 -1      2640 8.66190E+00
 -1      2641 5.58361E+00
 -1      2642 5.85255E+00
 -1      2643 6.92427E+00
 -1      2644 1.00295E+00
 -1      2645 4.69009E+00
 -1      2646 4.16620E-01
 -1      2647 3.72576E-01
 -1      2648 3.99132E-01
 -1      2649 4.85427E-01
 -1      2650 4.68437E-01
 -1      2651 4.47894E-01
 -1      2652 4.32955E-01
 -1      2653 4.25377E-01
 -1      2654 4.13105E-01
 -1      2655 3.75860E-01
 -1      2656 4.60644E-01
 -1      2657 4.60644E-01
 -1      2658 5.18268E-01
 -1      2659 4.48023E-01
 -1      2660 3.72899E-01
 -1      2661 7.00299E-01
 -1      2662 7.77838E-01
 -1      2663 3.73170E+00
 -1      2664 4.76121E+00
 -1      2665 8.40556E-01
 -1      2666 5.98718E-01
 -1      2667 5.42257E-01
 -1      2668 5.36119E-01
 -1      2669 4.80335E-01
 -1      2670 4.38657E-01
 -1      2671 4.60373E-01
 -1      2672 4.11766E-01
 -1      2673 4.12556E-01
 -1      2674 3.87543E-01
 -1      2675 3.64380E-01
 -1      2676 3.68371E-01
 -1      2677 3.40845E-01
 -1      2678 3.19233E-01
 -1      2679 3.20614E-01
 -1      2680 3.07589E-01
 -1      2681 2.90716E-01
 -1      2682 2.85436E-01
 -1      2683 2.79326E-01
 -1      2684 2.68242E-01
 -1      2685 2.62402E-01
 -1      2686 2.54997E-01
 -1      2687 2.40682E-01
 -1      2688 2.37767E-01
 -1      2689 2.19307E-01
 -1      2690 2.53693E-01
 -1      2691 2.03148E-01
 -1      2692 2.76875E-01
 -1      2693 3.24025E-01
 -1      2694 2.04955E-01
 -1      2695 4.18183E-01
 -1      2696 1.14150E+00
 -1      2697 3.22294E-01
 -1      2698 1.86655E+00
 -1      2699 1.86655E+00
 -1      2700 1.14150E+00
 -1      2701 3.11592E+00
 -1      2702 4.31297E+00
 -1      2703 3.11592E+00
 -1      2704 4.31297E+00
 -1      2705 4.10368E+00
 -1      2706 4.36530E+00
 -1      2707 3.93661E+00
 -1      2708 2.56160E+00
 -1      2709 4.19823E+00
 -1      2710 1.80244E+00
 -1      2711 1.43110E+00
 -1      2712 3.27198E+00
 -1      2713 5.75358E-01
 -1      2714 5.70111E-01
 -1      2715 1.65708E+00
 -1      2716 3.91105E-01
 -1      2717 4.50321E-01
 -1      2718 6.22326E-01
 -1      2719 4.72081E-01
 -1      2720 5.33944E-01
 -1      2721 4.65080E-01
 -1      2722 5.98438E-01
 -1      2723 6.63513E-01
 -1      2724 5.51334E-01
 -1      2725 7.37487E-01
 -1      2726 8.01370E-01
 -1      2727 6.89801E-01
 -1      2728 8.84060E-01
 -1      2729 9.37939E-01
 -1      2730 8.46465E-01
 -1      2731 1.02513E+00
 -1      2732 1.07790E+00
 -1      2733 1.01634E+00
 -1      2734 1.15945E+00
 -1      2735 1.24049E+00
 -1      2736 1.18508E+00
 -1      2737 1.39936E+00
 -1      2738 1.46273E+00
 -1      2739 1.42550E+00
 -1      2740 1.64889E+00
 -1      2741 1.66430E+00
 -1      2742 1.77053E+00
 -1      2743 1.81463E+00
 -1      2744 1.98674E+00
 -1      2745 2.10702E+00
 -1      2746 2.13961E+00
 -1      2747 2.14107E+00
 -1      2748 2.41023E+00
 -1      2749 1.96016E+00
 -1      2750 2.06163E+00
 -1      2751 2.38219E+00
 -1      2752 2.22954E+00
 -1      2753 2.53709E+00
 -1      2754 2.36919E+00
 -1      2755 4.86168E+00
 -1      2756 4.97612E+00
 -1      2757 3.38725E+00
 -1      2758 2.82318E+00
 -1      2759 4.97612E+00
 -1      2760 2.47793E+00
 -1      2761 2.46119E+00
 -1      2762 3.04200E+00
 -1      2763 2.22563E+00
 -1      2764 1.98786E+00
 -1      2765 2.46119E+00
 -1      2766 2.40444E+00
 -1      2767 2.32822E+00
 -1      2768 2.64221E+00
 -1      2769 1.80395E+00
 -1      2770 1.61376E+00
 -1      2771 2.53451E+00
 -1      2772 1.47904E+00
 -1      2773 1.44207E+00
 -1      2774 1.87553E+00
 -1      2775 1.23024E+00
 -1      2776 1.14834E+00
 -1      2777 1.52899E+00
 -1      2778 1.00967E+00
 -1      2779 9.29325E-01
 -1      2780 1.17848E+00
 -1      2781 8.35212E-01
 -1      2782 7.74164E-01
 -1      2783 9.45689E-01
 -1      2784 6.52088E-01
 -1      2785 5.84496E-01
 -1      2786 7.29501E-01
 -1      2787 3.12145E-01
 -1      2788 3.47259E-01
 -1      2789 4.92263E-01
 -1      2790 3.99132E-01
 -1      2791 4.22958E-01
 -1      2792 5.15191E-01
 -1      2793 3.80438E-01
 -1      2794 4.35676E-01
 -1      2795 3.29548E-01
 -1      2796 2.10316E-01
 -1      2797 2.34982E-01
 -1      2798 2.26055E-01
 -1      2799 2.01646E-01
 -1      2800 1.95051E-01
 -1      2801 6.48266E-01
 -1      2802 2.65728E-01
 -1      2803 2.26055E-01
 -1      2804 1.03080E+00
 -1      2805 1.03080E+00
 -1      2806 6.48266E-01
 -1      2807 8.91061E-01
 -1      2808 9.17236E-01
 -1      2809 9.17236E-01
 -1      2810 2.55106E-01
 -1      2811 6.48104E-01
 -1      2812 5.60709E-01
 -1      2813 2.60771E-01
 -1      2814 3.16381E-01
 -1      2815 3.79026E-01
 -1      2816 2.36224E-01
 -1      2817 2.26591E-01
 -1      2818 4.06121E-01
 -1      2819 1.27632E-01
 -1      2820 1.16433E-01
 -1      2821 2.52150E-01
 -1      2822 1.64708E-01
 -1      2823 1.36237E-01
 -1      2824 1.40963E-01
 -1      2825 2.28686E-01
 -1      2826 1.94374E-01
 -1      2827 1.79233E-01
 -1      2828 3.04565E-01
 -1      2829 2.63968E-01
 -1      2830 2.44181E-01
 -1      2831 3.92754E-01
 -1      2832 3.46017E-01
 -1      2833 3.20915E-01
 -1      2834 4.92358E-01
 -1      2835 4.40901E-01
 -1      2836 4.10514E-01
 -1      2837 5.98624E-01
 -1      2838 5.46119E-01
 -1      2839 5.12422E-01
 -1      2840 7.02562E-01
 -1      2841 6.55518E-01
 -1      2842 6.23077E-01
 -1      2843 7.96795E-01
 -1      2844 7.57785E-01
 -1      2845 7.35194E-01
 -1      2846 8.76989E-01
 -1      2847 8.42494E-01
 -1      2848 8.36117E-01
 -1      2849 9.88362E-01
 -1      2850 9.54672E-01
 -1      2851 9.59498E-01
 -1      2852 1.07277E+00
 -1      2853 1.07384E+00
 -1      2854 1.12266E+00
 -1      2855 1.13918E+00
 -1      2856 1.13678E+00
 -1      2857 1.27215E+00
 -1      2858 1.31858E+00
 -1      2859 1.25148E+00
 -1      2860 1.44846E+00
 -1      2861 1.57730E+00
 -1      2862 1.46372E+00
 -1      2863 1.70590E+00
 -1      2864 1.66836E+00
 -1      2865 1.52399E+00
 -1      2866 1.79773E+00
 -1      2867 2.86986E+00
 -1      2868 2.69756E+00
 -1      2869 2.77362E+00
 -1      2870 2.92387E+00
 -1      2871 2.79834E+00
 -1      2872 3.73131E+00
 -1      2873 3.09146E+00
 -1      2874 3.01244E+00
 -1      2875 3.74837E+00
 -1      2876 3.32024E+00
 -1      2877 3.42792E+00
 -1      2878 4.17341E+00
 -1      2879 2.63031E+00
 -1      2880 2.88178E+00
 -1      2881 4.07141E+00
 -1      2882 2.14241E+00
 -1      2883 2.26593E+00
 -1      2884 3.26856E+00
 -1      2885 1.51227E+00
 -1      2886 1.66939E+00
 -1      2887 2.43116E+00
 -1      2888 1.29706E+00
 -1      2889 1.34375E+00
 -1      2890 1.78961E+00
 -1      2891 1.00490E+00
 -1      2892 1.09300E+00
 -1      2893 1.41705E+00
 -1      2894 9.20685E-01
 -1      2895 9.29275E-01
 -1      2896 1.13737E+00
 -1      2897 7.83432E-01
 -1      2898 8.27318E-01
 -1      2899 9.68376E-01
 -1      2900 6.51210E-01
 -1      2901 6.94356E-01
 -1      2902 7.85933E-01
 -1      2903 5.43231E-01
 -1      2904 5.93823E-01
 -1      2905 6.39471E-01
 -1      2906 4.62660E-01
 -1      2907 4.91632E-01
 -1      2908 5.30484E-01
 -1      2909 4.15372E-01
 -1      2910 8.73342E+00
 -1      2911 1.01421E+01
 -1      2912 7.27698E-01
 -1      2913 7.27698E-01
 -1      2914 6.12356E-01
 -1      2915 5.32171E-01
 -1      2916 7.36144E-01
 -1      2917 7.40201E-01
 -1      2918 8.35166E-01
 -1      2919 7.27698E-01
 -1      2920 6.97446E-01
 -1      2921 7.37573E-01
 -1      2922 8.22662E-01
 -1      2923 6.42634E+00
 -1      2924 5.40459E+00
 -1      2925 7.30870E-01
 -1      2926 7.36144E-01
 -1      2927 8.47670E-01
 -1      2928 6.21116E-01
 -1      2929 6.84120E-01
 -1      2930 8.00920E-01
 -1      2931 4.98784E-01
 -1      2932 5.31336E-01
 -1      2933 6.64391E-01
 -1      2934 4.22958E-01
 -1      2935 2.30470E+01
 -1      2936 1.79634E+01
 -1      2937 1.21623E+01
 -1      2938 1.65326E+01
 -1      2939 4.68430E-01
 -1      2940 5.46415E-01
 -1      2941 3.95481E-01
 -1      2942 2.36260E+01
 -1      2943 2.24777E+01
 -1      2944 1.88476E+01
 -1      2945 2.46547E+01
 -1      2946 5.99084E-01
 -1      2947 5.54902E-01
 -1      2948 3.77646E-01
 -1      2949 1.89176E+01
 -1      2950 1.44191E+01
 -1      2951 4.98114E+00
 -1      2952 7.03649E+00
 -1      2953 5.11015E+00
 -1      2954 3.58011E+00
 -1      2955 2.54190E-01
 -1      2956 2.85030E-01
 -1      2957 2.69254E-01
 -1      2958 2.22930E-01
 -1      2959 5.94516E-01
 -1      2960 5.70386E-01
 -1      2961 4.16463E-01
 -1      2962 3.48518E-01
 -1      2963 5.71114E-01
 -1      2964 6.63704E-01
 -1      2965 5.14227E-01
 -1      2966 4.52933E-01
 -1      2967 4.60644E-01
 -1      2968 4.48935E-01
 -1      2969 3.84479E-01
 -1      2970 3.85520E-01
 -1      2971 3.98126E-01
 -1      2972 4.10353E-01
 -1      2973 5.92417E+00
 -1      2974 4.96222E+00
 -1      2975 4.36276E+00
 -1      2976 5.81603E+00
 -1      2977 6.08146E+00
 -1      2978 4.15843E+00
 -1      2979 4.22955E+00
 -1      2980 8.08300E+00
 -1      2981 6.92774E+00
 -1      2982 8.07104E+00
 -1      2983 1.02812E+01
 -1      2984 2.56273E+01
 -1      2985 2.10338E+01
 -1      2986 1.51845E+01
 -1      2987 4.52375E+00
 -1      2988 4.57837E+00
 -1      2989 1.57351E+01
 -1      2990 2.11079E+01
 -1      2991 1.28393E+01
 -1      2992 9.86289E+00
 -1      2993 5.46571E+00
 -1      2994 6.21549E+00
 -1      2995 4.57214E+00
 -1      2996 3.63666E+00
 -1      2997 3.58942E+00
 -1      2998 4.59235E+00
 -1      2999 6.64608E+00
 -1      3000 6.38597E+00
 -1      3001 1.57570E+01
 -1      3002 1.16339E+01
 -1      3003 4.10353E-01
 -1      3004 4.10353E-01
 -1      3005 3.35667E-01
 -1      3006 3.58527E-01
 -1      3007 4.03350E-01
 -1      3008 3.90441E-01
 -1      3009 6.13540E-01
 -1      3010 3.00090E+00
 -1      3011 3.70649E+00
 -1      3012 3.38244E+00
 -1      3013 5.08574E+00
 -1      3014 3.07180E+00
 -1      3015 1.33777E+01
 -1      3016 3.88357E+00
 -1      3017 7.18087E+00
 -1      3018 6.27980E+00
 -1      3019 4.58287E+00
 -1      3020 3.90595E-01
 -1      3021 4.54107E-01
 -1      3022 3.85342E-01
 -1      3023 5.99363E+00
 -1      3024 5.76775E+00
 -1      3025 3.64919E+00
 -1      3026 1.26607E+01
 -1      3027 1.11336E+01
 -1      3028 9.55459E+00
 -1      3029 2.38808E+01
 -1      3030 1.55542E+01
 -1      3031 1.71879E+01
 -1      3032 4.32710E-01
 -1      3033 4.32710E-01
 -1      3034 5.08537E-01
 -1      3035 5.24944E-01
 -1      3036 9.85260E+00
 -1      3037 1.50148E+01
 -1      3038 9.34593E+00
 -1      3039 7.13787E+00
 -1      3040 8.88329E+00
 -1      3041 1.41878E+01
 -1      3042 1.54742E+01
 -1      3043 9.94312E+00
 -1      3044 4.03571E+00
 -1      3045 1.73881E+01
 -1      3046 5.96012E+00
 -1      3047 4.07272E+00
 -1      3048 3.82896E-01
 -1      3049 3.97133E-01
 -1      3050 3.34674E-01
 -1      3051 3.41226E-01
 -1      3052 4.55549E-01
 -1      3053 4.35593E-01
 -1      3054 4.00340E-01
 -1      3055 4.44328E-01
 -1      3056 5.55905E-01
 -1      3057 6.58124E+00
 -1      3058 5.50256E+00
 -1      3059 7.11952E+00
 -1      3060 7.43936E+00
 -1      3061 3.60014E+00
 -1      3062 4.97167E+00
 -1      3063 4.07141E+00
 -1      3064 8.12873E+00
 -1      3065 3.11191E-01
 -1      3066 3.23812E-01
 -1      3067 3.96849E+00
 -1      3068 4.92688E+00
 -1      3069 3.87611E-01
 -1      3070 3.68286E-01
 -1      3071 2.99544E-01
 -1      3072 3.12925E-01
 -1      3073 6.09715E+00
 -1      3074 4.88454E+00
 -1      3075 4.19746E-01
 -1      3076 3.24474E-01
 -1      3077 2.75387E-01
 -1      3078 3.83151E-01
 -1      3079 1.22726E+01
 -1      3080 1.00661E+01
 -1      3081 3.07180E+00
 -1      3082 3.66827E-01
 -1      3083 3.46864E-01
 -1      3084 3.43725E-01
 -1      3085 3.19503E-01
 -1      3086 2.97996E-01
 -1      3087 3.08635E-01
 -1      3088 2.85100E-01
 -1      3089 2.83989E-01
 -1      3090 2.70591E-01
 -1      3091 2.58948E-01
 -1      3092 2.58612E-01
 -1      3093 2.43958E-01
 -1      3094 2.32567E-01
 -1      3095 2.29113E-01
 -1      3096 2.20831E-01
 -1      3097 2.07587E-01
 -1      3098 2.02387E-01
 -1      3099 1.92202E-01
 -1      3100 1.70827E-01
 -1      3101 1.75265E-01
 -1      3102 1.58817E-01
 -1      3103 1.81998E-01
 -1      3104 1.47870E-01
 -1      3105 1.84992E-01
 -1      3106 2.79150E-01
 -1      3107 1.38854E-01
 -1      3108 4.16452E-01
 -1      3109 1.14150E+00
 -1      3110 2.79150E-01
 -1      3111 1.29877E+00
 -1      3112 2.54815E+00
 -1      3113 5.73722E-01
 -1      3114 4.36530E+00
 -1      3115 4.36530E+00
 -1      3116 2.54815E+00
 -1      3117 4.19823E+00
 -1      3118 4.03115E+00
 -1      3119 4.19823E+00
 -1      3120 3.71285E+00
 -1      3121 2.95369E+00
 -1      3122 3.71285E+00
 -1      3123 2.95369E+00
 -1      3124 2.09794E+00
 -1      3125 3.39456E+00
 -1      3126 8.07956E-01
 -1      3127 6.28949E-01
 -1      3128 2.10457E+00
 -1      3129 4.44140E-01
 -1      3130 4.65901E-01
 -1      3131 6.29770E-01
 -1      3132 5.14602E-01
 -1      3133 5.79095E-01
 -1      3134 4.93662E-01
 -1      3135 6.42231E-01
 -1      3136 7.16205E-01
 -1      3137 6.05499E-01
 -1      3138 8.00548E-01
 -1      3139 8.83238E-01
 -1      3140 7.52978E-01
 -1      3141 9.98259E-01
 -1      3142 1.08545E+00
 -1      3143 9.52342E-01
 -1      3144 1.24820E+00
 -1      3145 1.32975E+00
 -1      3146 1.23011E+00
 -1      3147 1.52826E+00
 -1      3148 1.68713E+00
 -1      3149 1.59138E+00
 -1      3150 1.88757E+00
 -1      3151 2.07373E+00
 -1      3152 1.99033E+00
 -1      3153 2.45080E+00
 -1      3154 2.60113E+00
 -1      3155 2.56784E+00
 -1      3156 3.24474E+00
 -1      3157 3.39761E+00
 -1      3158 3.58852E+00
 -1      3159 3.50177E+00
 -1      3160 3.26621E+00
 -1      3161 3.68279E+00
 -1      3162 3.97635E+00
 -1      3163 3.45208E+00
 -1      3164 2.61067E+00
 -1      3165 2.47596E+00
 -1      3166 4.05250E+00
 -1      3167 1.81337E+00
 -1      3168 1.60154E+00
 -1      3169 2.54851E+00
 -1      3170 1.40588E+00
 -1      3171 1.26720E+00
 -1      3172 1.69026E+00
 -1      3173 1.07486E+00
 -1      3174 9.80749E-01
 -1      3175 1.30226E+00
 -1      3176 7.51483E-01
 -1      3177 6.29407E-01
 -1      3178 5.46926E-01
 -1      3179 8.80656E-01
 -1      3180 6.08743E-01
 -1      3181 2.26206E-01
 -1      3182 2.04729E-01
 -1      3183 1.65055E-01
 -1      3184 1.65206E-01
 -1      3185 1.73803E-01
 -1      3186 1.82473E-01
 -1      3187 1.52477E-01
 -1      3188 4.55322E-01
 -1      3189 5.68891E-01
 -1      3190 1.46830E-01
 -1      3191 3.59024E-01
 -1      3192 6.01982E-01
 -1      3193 2.53637E-01
 -1      3194 4.40301E-01
 -1      3195 3.79026E-01
 -1      3196 4.20299E-01
 -1      3197 4.06121E-01
 -1      3198 4.40301E-01
 -1      3199 4.40301E-01
 -1      3200 2.52150E-01
 -1      3201 3.71941E-01
 -1      3202 4.06121E-01
 -1      3203 1.44377E-01
 -1      3204 1.35773E-01
 -1      3205 2.55564E-01
 -1      3206 1.86171E-01
 -1      3207 1.56505E-01
 -1      3208 1.51315E-01
 -1      3209 2.49129E-01
 -1      3210 2.13847E-01
 -1      3211 1.91119E-01
 -1      3212 3.24425E-01
 -1      3213 2.82973E-01
 -1      3214 2.52640E-01
 -1      3215 4.15182E-01
 -1      3216 3.67035E-01
 -1      3217 3.29094E-01
 -1      3218 5.22402E-01
 -1      3219 4.68641E-01
 -1      3220 4.25163E-01
 -1      3221 6.42616E-01
 -1      3222 5.85721E-01
 -1      3223 5.41941E-01
 -1      3224 7.70078E-01
 -1      3225 7.14855E-01
 -1      3226 6.77499E-01
 -1      3227 8.98443E-01
 -1      3228 8.52743E-01
 -1      3229 8.32403E-01
 -1      3230 1.06822E+00
 -1      3231 9.90540E-01
 -1      3232 1.00717E+00
 -1      3233 1.25563E+00
 -1      3234 1.17015E+00
 -1      3235 1.20119E+00
 -1      3236 1.50719E+00
 -1      3237 1.44318E+00
 -1      3238 1.49067E+00
 -1      3239 1.78557E+00
 -1      3240 1.67327E+00
 -1      3241 1.84430E+00
 -1      3242 2.13841E+00
 -1      3243 1.99327E+00
 -1      3244 2.21808E+00
 -1      3245 2.05526E+00
 -1      3246 2.10857E+00
 -1      3247 2.39594E+00
 -1      3248 3.89698E+00
 -1      3249 3.96849E+00
 -1      3250 4.08628E+00
 -1      3251 3.99770E+00
 -1      3252 4.07141E+00
 -1      3253 4.50988E+00
 -1      3254 3.26856E+00
 -1      3255 3.63294E+00
 -1      3256 2.19391E+00
 -1      3257 2.36242E+00
 -1      3258 1.64625E+00
 -1      3259 1.85031E+00
 -1      3260 2.42311E+00
 -1      3261 1.30710E+00
 -1      3262 1.38273E+00
 -1      3263 1.81599E+00
 -1      3264 1.02312E+00
 -1      3265 1.11649E+00
 -1      3266 1.36185E+00
 -1      3267 8.18403E-01
 -1      3268 9.07479E-01
 -1      3269 1.05559E+00
 -1      3270 6.57688E-01
 -1      3271 7.15075E-01
 -1      3272 8.36620E-01
 -1      3273 5.21764E-01
 -1      3274 5.73363E-01
 -1      3275 6.48968E-01
 -1      3276 4.96986E-01
 -1      3277 1.14884E+01
 -1      3278 3.71960E+00
 -1      3279 5.97460E+00
 -1      3280 9.84497E-01
 -1      3281 9.71994E-01
 -1      3282 7.17566E-01
 -1      3283 8.07346E-01
 -1      3284 9.75661E-01
 -1      3285 9.75661E-01
 -1      3286 1.11249E+00
 -1      3287 3.48165E-01
 -1      3288 3.40587E-01
 -1      3289 5.16709E+00
 -1      3290 8.14141E+00
 -1      3291 9.24829E+00
 -1      3292 1.23801E+01
 -1      3293 1.55602E+01
 -1      3294 3.80282E+00
 -1      3295 5.26782E+00
 -1      3296 4.97167E+00
 -1      3297 3.40413E+00
 -1      3298 3.40413E+00
 -1      3299 2.37493E+00
 -1      3300 3.83086E+00
 -1      3301 1.07031E+01
 -1      3302 9.12330E+00
 -1      3303 1.33763E+01
 -1      3304 1.23477E+01
 -1      3305 3.17083E-01
 -1      3306 3.49837E-01
 -1      3307 9.07439E-01
 -1      3308 9.54189E-01
 -1      3309 1.08218E+00
 -1      3310 9.60614E-01
 -1      3311 7.73664E+00
 -1      3312 9.75690E+00
 -1      3313 3.63158E-01
 -1      3314 3.57020E-01
 -1      3315 2.91328E-01
 -1      3316 5.66095E+00
 -1      3317 3.00402E+00
 -1      3318 3.36840E+00
 -1      3319 3.77118E+00
 -1      3320 2.53100E+00
 -1      3321 4.63521E+00
 -1      3322 2.75264E-01
 -1      3323 3.08442E-01
 -1      3324 2.62799E-01
 -1      3325 1.29991E+01
 -1      3326 1.08829E+01
 -1      3327 7.98280E+00
 -1      3328 6.20291E+00
 -1      3329 1.23477E+01
 -1      3330 1.29170E+01
 -1      3331 1.04212E+01
 -1      3332 1.27362E+01
 -1      3333 4.07209E+00
 -1      3334 3.19873E+00
 -1      3335 2.85349E+00
 -1      3336 3.38013E-01
 -1      3337 3.28257E-01
 -1      3338 3.10317E-01
 -1      3339 2.84417E+00
 -1      3340 7.75288E+00
 -1      3341 3.44302E-01
 -1      3342 3.44302E-01
 -1      3343 2.82594E-01
 -1      3344 2.55899E-01
 -1      3345 2.65259E-01
 -1      3346 3.04873E-01
 -1      3347 2.96708E-01
 -1      3348 2.96708E-01
 -1      3349 3.34116E-01
 -1      3350 3.58815E-01
 -1      3351 2.64334E-01
 -1      3352 2.55718E-01
 -1      3353 3.67254E+00
 -1      3354 2.83803E+00
 -1      3355 2.65712E+00
 -1      3356 2.53766E+00
 -1      3357 2.70557E+00
 -1      3358 1.74943E-01
 -1      3359 1.96191E-01
 -1      3360 2.15400E-01
 -1      3361 3.33205E-01
 -1      3362 4.60035E+00
 -1      3363 3.91556E+00
 -1      3364 4.92991E+00
 -1      3365 2.68577E+00
 -1      3366 8.51776E+00
 -1      3367 9.60972E+00
 -1      3368 2.93529E+00
 -1      3369 8.30526E+00
 -1      3370 3.53802E+00
 -1      3371 3.26376E+00
 -1      3372 3.00722E-01
 -1      3373 2.61762E-01
 -1      3374 2.99728E-01
 -1      3375 8.98509E-01
 -1      3376 8.13419E-01
 -1      3377 1.12132E+00
 -1      3378 9.71994E-01
 -1      3379 9.71994E-01
 -1      3380 1.21799E+01
 -1      3381 3.48165E-01
 -1      3382 3.12891E-01
 -1      3383 3.49206E-01
 -1      3384 8.37850E+00
 -1      3385 6.09049E+00
 -1      3386 7.27334E+00
 -1      3387 2.51568E-01
 -1      3388 6.53418E+00
 -1      3389 5.83935E+00
 -1      3390 7.26186E+00
 -1      3391 1.03363E+01
 -1      3392 8.50842E+00
 -1      3393 1.02499E+01
 -1      3394 9.26090E-01
 -1      3395 7.65153E-01
 -1      3396 6.68575E-01
 -1      3397 2.32771E-01
 -1      3398 2.59887E-01
 -1      3399 2.38781E-01
 -1      3400 2.06032E-01
 -1      3401 5.89346E+00
 -1      3402 5.79775E+00
 -1      3403 4.34091E+00
 -1      3404 9.60542E+00
 -1      3405 5.42693E-01
 -1      3406 6.08767E-01
 -1      3407 7.51722E-01
 -1      3408 6.47156E-01
 -1      3409 5.30237E+00
 -1      3410 4.45609E+00
 -1      3411 3.63067E+00
 -1      3412 5.15644E+00
 -1      3413 1.12526E+01
 -1      3414 7.19747E+00
 -1      3415 2.78641E-01
 -1      3416 1.04784E+00
 -1      3417 2.59903E-01
 -1      3418 2.56764E-01
 -1      3419 2.60270E-01
 -1      3420 2.49403E-01
 -1      3421 2.22177E-01
 -1      3422 2.45045E-01
 -1      3423 2.30536E-01
 -1      3424 2.21327E-01
 -1      3425 2.21444E-01
 -1      3426 2.06454E-01
 -1      3427 2.07878E-01
 -1      3428 1.94550E-01
 -1      3429 1.82814E-01
 -1      3430 1.86881E-01
 -1      3431 1.73614E-01
 -1      3432 1.58228E-01
 -1      3433 1.65777E-01
 -1      3434 1.47233E-01
 -1      3435 1.35223E-01
 -1      3436 1.45582E-01
 -1      3437 1.24253E-01
 -1      3438 1.27248E-01
 -1      3439 1.23617E-01
 -1      3440 1.27668E-01
 -1      3441 2.64970E-01
 -1      3442 1.13067E-01
 -1      3443 2.61965E-01
 -1      3444 4.19235E-01
 -1      3445 1.10483E-01
 -1      3446 6.48539E-01
 -1      3447 2.46569E+00
 -1      3448 3.36783E-01
 -1      3449 2.44637E+00
 -1      3450 2.27929E+00
 -1      3451 5.46764E-01
 -1      3452 3.18306E+00
 -1      3453 2.86476E+00
 -1      3454 1.43120E+00
 -1      3455 3.39456E+00
 -1      3456 3.39456E+00
 -1      3457 2.86476E+00
 -1      3458 2.10457E+00
 -1      3459 8.14579E-01
 -1      3460 2.10457E+00
 -1      3461 6.22213E-01
 -1      3462 4.37404E-01
 -1      3463 6.22213E-01
 -1      3464 4.82884E-01
 -1      3465 5.31585E-01
 -1      3466 4.75327E-01
 -1      3467 6.02932E-01
 -1      3468 6.66068E-01
 -1      3469 5.92154E-01
 -1      3470 7.52978E-01
 -1      3471 8.37321E-01
 -1      3472 7.50411E-01
 -1      3473 9.39660E-01
 -1      3474 1.05468E+00
 -1      3475 9.39660E-01
 -1      3476 1.20061E+00
 -1      3477 1.36336E+00
 -1      3478 1.18793E+00
 -1      3479 1.59760E+00
 -1      3480 1.79611E+00
 -1      3481 1.56810E+00
 -1      3482 2.22297E+00
 -1      3483 2.42341E+00
 -1      3484 2.22919E+00
 -1      3485 2.81722E+00
 -1      3486 3.19429E+00
 -1      3487 3.04986E+00
 -1      3488 4.17375E+00
 -1      3489 4.81736E+00
 -1      3490 6.42458E+00
 -1      3491 4.42313E+00
 -1      3492 3.74698E+00
 -1      3493 3.24549E+00
 -1      3494 2.58290E+00
 -1      3495 2.12946E+00
 -1      3496 1.93380E+00
 -1      3497 2.82644E+00
 -1      3498 1.46761E+00
 -1      3499 1.27527E+00
 -1      3500 1.90681E+00
 -1      3501 1.48528E-01
 -1      3502 1.27052E-01
 -1      3503 2.39682E-01
 -1      3504 9.95139E-02
 -1      3505 1.39367E-01
 -1      3506 1.01212E-01
 -1      3507 1.35560E-01
 -1      3508 1.44308E-01
 -1      3509 1.18882E-01
 -1      3510 4.20299E-01
 -1      3511 4.00297E-01
 -1      3512 4.19793E-01
 -1      3513 4.19793E-01
 -1      3514 3.99791E-01
 -1      3515 3.67017E-01
 -1      3516 4.01198E-01
 -1      3517 3.80690E-01
 -1      3518 1.39188E-01
 -1      3519 2.55564E-01
 -1      3520 2.50641E-01
 -1      3521 1.60142E-01
 -1      3522 1.48014E-01
 -1      3523 1.48014E-01
 -1      3524 2.13945E-01
 -1      3525 1.86269E-01
 -1      3526 1.82968E-01
 -1      3527 2.77082E-01
 -1      3528 2.43238E-01
 -1      3529 2.38388E-01
 -1      3530 3.61970E-01
 -1      3531 3.19360E-01
 -1      3532 3.09959E-01
 -1      3533 4.63061E-01
 -1      3534 4.09602E-01
 -1      3535 3.99869E-01
 -1      3536 5.82259E-01
 -1      3537 5.18940E-01
 -1      3538 5.03379E-01
 -1      3539 7.15677E-01
 -1      3540 6.43438E-01
 -1      3541 6.20437E-01
 -1      3542 8.87255E-01
 -1      3543 8.04590E-01
 -1      3544 7.70529E-01
 -1      3545 1.10394E+00
 -1      3546 1.01184E+00
 -1      3547 9.84031E-01
 -1      3548 1.39023E+00
 -1      3549 1.28830E+00
 -1      3550 1.29298E+00
 -1      3551 1.79509E+00
 -1      3552 1.60754E+00
 -1      3553 1.69465E+00
 -1      3554 2.54163E+00
 -1      3555 2.37555E+00
 -1      3556 2.49242E+00
 -1      3557 3.20228E+00
 -1      3558 2.99458E+00
 -1      3559 3.52583E+00
 -1      3560 3.31100E+00
 -1      3561 7.93566E+00
 -1      3562 8.57580E+00
 -1      3563 3.01704E+00
 -1      3564 3.36064E+00
 -1      3565 1.14782E+00
 -1      3566 1.26346E+00
 -1      3567 9.38457E-01
 -1      3568 1.04179E+00
 -1      3569 1.24966E+00
 -1      3570 1.50733E+00
 -1      3571 1.69795E+00
 -1      3572 1.59957E+00
 -1      3573 6.37732E+00
 -1      3574 4.69049E+00
 -1      3575 9.49359E+00
 -1      3576 1.11212E+01
 -1      3577 1.34639E+00
 -1      3578 1.35522E+00
 -1      3579 2.42825E-01
 -1      3580 9.61654E-02
 -1      3581 2.42825E-01
 -1      3582 2.69635E-01
 -1      3583 3.20145E-01
 -1      3584 3.12600E-01
 -1      3585 2.78648E-01
 -1      3586 2.34259E-01
 -1      3587 2.44065E-01
 -1      3588 2.02833E-01
 -1      3589 2.11588E+00
 -1      3590 2.37940E+00
 -1      3591 2.26137E+00
 -1      3592 6.81048E+00
 -1      3593 7.47481E+00
 -1      3594 7.58073E+00
 -1      3595 7.40094E+00
 -1      3596 5.83473E+00
 -1      3597 8.87665E+00
 -1      3598 8.87665E+00
 -1      3599 7.20259E+00
 -1      3600 5.23981E+00
 -1      3601 4.39840E+00
 -1      3602 1.11212E+01
 -1      3603 8.56622E+00
 -1      3604 8.43488E+00
 -1      3605 6.72265E+00
 -1      3606 5.58215E+00
 -1      3607 8.87665E+00
 -1      3608 8.23221E+00
 -1      3609 5.29926E-01
 -1      3610 5.14928E-01
 -1      3611 5.82585E-01
 -1      3612 7.39175E-01
 -1      3613 2.14760E-01
 -1      3614 2.23402E-01
 -1      3615 6.73089E+00
 -1      3616 2.26884E-01
 -1      3617 2.38770E-01
 -1      3618 1.91507E-01
 -1      3619 2.30897E-01
 -1      3620 2.03282E-01
 -1      3621 1.87561E-01
 -1      3622 1.55244E-01
 -1      3623 2.24375E-01
 -1      3624 2.44866E-01
 -1      3625 7.46366E+00
 -1      3626 6.40495E+00
 -1      3627 5.41978E+00
 -1      3628 3.31693E+00
 -1      3629 5.27923E+00
 -1      3630 4.37869E+00
 -1      3631 1.54466E-01
 -1      3632 1.68184E-01
 -1      3633 1.37548E-01
 -1      3634 5.42401E+00
 -1      3635 6.91879E+00
 -1      3636 5.88486E+00
 -1      3637 2.99632E-01
 -1      3638 4.43280E+00
 -1      3639 1.07228E+00
 -1      3640 8.43015E-01
 -1      3641 8.38782E-01
 -1      3642 1.23763E+00
 -1      3643 8.87020E-02
 -1      3644 3.43379E+00
 -1      3645 3.46363E+00
 -1      3646 4.24013E+00
 -1      3647 5.78562E+00
 -1      3648 4.98405E+00
 -1      3649 6.66910E-01
 -1      3650 2.16185E-01
 -1      3651 1.76788E-01
 -1      3652 2.00808E-01
 -1      3653 7.50344E+00
 -1      3654 8.72074E-01
 -1      3655 3.07988E-01
 -1      3656 1.52646E+00
 -1      3657 1.29256E+00
 -1      3658 1.29256E+00
 -1      3659 7.44940E+00
 -1      3660 6.32548E+00
 -1      3661 4.63784E+00
 -1      3662 5.59671E+00
 -1      3663 2.77305E-01
 -1      3664 2.77305E-01
 -1      3665 1.06064E+00
 -1      3666 1.01238E+00
 -1      3667 1.32491E+00
 -1      3668 1.34639E+00
 -1      3669 1.58912E+00
 -1      3670 2.77305E-01
 -1      3671 2.74731E-01
 -1      3672 2.41718E-01
 -1      3673 4.80440E+00
 -1      3674 5.32995E+00
 -1      3675 9.47580E-01
 -1      3676 1.29256E+00
 -1      3677 1.21907E+00
 -1      3678 1.30536E+00
 -1      3679 1.46379E+00
 -1      3680 1.12698E+00
 -1      3681 1.22707E+00
 -1      3682 1.49128E+00
 -1      3683 1.21404E+00
 -1      3684 5.54329E+00
 -1      3685 6.87158E+00
 -1      3686 6.07426E+00
 -1      3687 4.56382E+00
 -1      3688 2.51051E-01
 -1      3689 2.13322E-01
 -1      3690 2.65111E-01
 -1      3691 2.70015E-01
 -1      3692 2.34428E-01
 -1      3693 2.06892E-01
 -1      3694 1.84109E-01
 -1      3695 1.99946E-01
 -1      3696 2.00793E-01
 -1      3697 1.96436E-01
 -1      3698 1.95057E-01
 -1      3699 1.85965E-01
 -1      3700 1.74523E-01
 -1      3701 1.80133E-01
 -1      3702 1.68229E-01
 -1      3703 1.67312E-01
 -1      3704 1.59647E-01
 -1      3705 1.50446E-01
 -1      3706 1.52898E-01
 -1      3707 1.43216E-01
 -1      3708 1.32220E-01
 -1      3709 1.37085E-01
 -1      3710 1.24288E-01
 -1      3711 1.13319E-01
 -1      3712 1.21922E-01
 -1      3713 1.04475E-01
 -1      3714 1.04895E-01
 -1      3715 1.05147E-01
 -1      3716 9.64374E-02
 -1      3717 9.34325E-02
 -1      3718 8.78450E-02
 -1      3719 1.07478E-01
 -1      3720 3.36783E-01
 -1      3721 9.34325E-02
 -1      3722 3.94365E-01
 -1      3723 3.75043E-01
 -1      3724 1.65061E-01
 -1      3725 6.63386E-01
 -1      3726 1.56715E+00
 -1      3727 5.10987E-01
 -1      3728 1.41415E+00
 -1      3729 1.94394E+00
 -1      3730 6.46332E-01
 -1      3731 2.01063E+00
 -1      3732 7.20637E-01
 -1      3733 5.60014E-01
 -1      3734 6.01061E-01
 -1      3735 4.08695E-01
 -1      3736 5.07119E-01
 -1      3737 4.42342E-01
 -1      3738 4.87821E-01
 -1      3739 4.21189E-01
 -1      3740 5.53828E-01
 -1      3741 6.25176E-01
 -1      3742 5.20843E-01
 -1      3743 7.15035E-01
 -1      3744 8.01945E-01
 -1      3745 6.76710E-01
 -1      3746 9.21786E-01
 -1      3747 1.02413E+00
 -1      3748 8.86411E-01
 -1      3749 1.18793E+00
 -1      3750 1.33386E+00
 -1      3751 1.17006E+00
 -1      3752 1.55775E+00
 -1      3753 1.79199E+00
 -1      3754 1.55775E+00
 -1      3755 2.10820E+00
 -1      3756 2.53506E+00
 -1      3757 2.09786E+00
 -1      3758 3.27891E+00
 -1      3759 3.67271E+00
 -1      3760 4.79287E+00
 -1      3761 3.15792E+00
 -1      3762 1.60886E-01
 -1      3763 1.24018E-01
 -1      3764 2.35471E-01
 -1      3765 3.51797E+00
 -1      3766 5.36115E+00
 -1      3767 1.41703E+00
 -1      3768 2.49787E+00
 -1      3769 2.03169E+00
 -1      3770 2.57341E-01
 -1      3771 2.44470E-01
 -1      3772 2.09591E-01
 -1      3773 1.03989E-01
 -1      3774 1.12497E-01
 -1      3775 2.19127E-01
 -1      3776 2.37723E-01
 -1      3777 9.25036E-02
 -1      3778 2.30078E-01
 -1      3779 2.30584E-01
 -1      3780 6.85151E-02
 -1      3781 1.50469E-01
 -1      3782 1.41643E-01
 -1      3783 1.26473E-01
 -1      3784 2.09093E-01
 -1      3785 1.82966E-01
 -1      3786 1.76594E-01
 -1      3787 2.58966E-01
 -1      3788 2.29673E-01
 -1      3789 2.29671E-01
 -1      3790 3.39468E-01
 -1      3791 2.97190E-01
 -1      3792 2.88475E-01
 -1      3793 4.30756E-01
 -1      3794 3.83124E-01
 -1      3795 3.70356E-01
 -1      3796 5.46528E-01
 -1      3797 4.90649E-01
 -1      3798 4.73905E-01
 -1      3799 6.81616E-01
 -1      3800 6.20437E-01
 -1      3801 6.07707E-01
 -1      3802 8.59442E-01
 -1      3803 7.70529E-01
 -1      3804 7.70529E-01
 -1      3805 1.08824E+00
 -1      3806 9.63653E-01
 -1      3807 9.63653E-01
 -1      3808 1.43180E+00
 -1      3809 1.24744E+00
 -1      3810 1.22707E+00
 -1      3811 2.20383E+00
 -1      3812 1.98651E+00
 -1      3813 1.94098E+00
 -1      3814 3.30904E+00
 -1      3815 2.72859E+00
 -1      3816 3.02045E+00
 -1      3817 4.54305E+00
 -1      3818 1.14362E+00
 -1      3819 1.24966E+00
 -1      3820 2.00910E+00
 -1      3821 2.25298E+00
 -1      3822 1.90307E+00
 -1      3823 1.01072E+00
 -1      3824 1.91788E-01
 -1      3825 1.95295E-01
 -1      3826 1.73064E-01
 -1      3827 2.73652E-01
 -1      3828 2.65540E-01
 -1      3829 2.40639E-01
 -1      3830 5.22135E+00
 -1      3831 4.54305E+00
 -1      3832 3.48493E+00
 -1      3833 7.49506E-02
 -1      3834 7.82992E-02
 -1      3835 3.05495E+00
 -1      3836 2.60151E+00
 -1      3837 2.72639E+00
 -1      3838 3.26000E+00
 -1      3839 1.77502E-01
 -1      3840 1.94874E-01
 -1      3841 1.57025E-01
 -1      3842 2.93194E+00
 -1      3843 3.34987E+00
 -1      3844 3.34148E+00
 -1      3845 6.50616E+00
 -1      3846 5.52067E+00
 -1      3847 6.19718E+00
 -1      3848 6.19718E+00
 -1      3849 4.53070E+00
 -1      3850 5.89634E+00
 -1      3851 6.19718E+00
 -1      3852 2.41313E-01
 -1      3853 8.38411E-02
 -1      3854 7.15997E-02
 -1      3855 8.62352E-02
 -1      3856 9.53970E-02
 -1      3857 7.24838E-02
 -1      3858 6.50616E+00
 -1      3859 6.50616E+00
 -1      3860 3.97878E+00
 -1      3861 3.55091E+00
 -1      3862 5.00024E+00
 -1      3863 4.27941E+00
 -1      3864 6.30934E+00
 -1      3865 4.38061E+00
 -1      3866 1.19294E-01
 -1      3867 1.29451E-01
 -1      3868 1.04400E-01
 -1      3869 1.48247E-01
 -1      3870 1.68493E-01
 -1      3871 1.22486E-01
 -1      3872 4.44422E+00
 -1      3873 1.70403E-01
 -1      3874 2.31362E-01
 -1      3875 4.89093E+00
 -1      3876 2.00810E+00
 -1      3877 5.56824E+00
 -1      3878 4.52348E+00
 -1      3879 4.42787E+00
 -1      3880 5.17796E+00
 -1      3881 4.87946E+00
 -1      3882 8.90116E-02
 -1      3883 3.52583E+00
 -1      3884 3.76200E+00
 -1      3885 4.27811E+00
 -1      3886 1.72278E-01
 -1      3887 1.88620E-01
 -1      3888 2.88033E+00
 -1      3889 1.78193E+00
 -1      3890 1.71926E+00
 -1      3891 5.06972E+00
 -1      3892 3.16299E+00
 -1      3893 2.73301E+00
 -1      3894 3.76346E+00
 -1      3895 2.18602E+00
 -1      3896 2.37882E+00
 -1      3897 2.18602E+00
 -1      3898 1.82408E-01
 -1      3899 1.89698E-01
 -1      3900 1.23763E-01
 -1      3901 1.14528E+00
 -1      3902 7.34382E-02
 -1      3903 1.42606E-01
 -1      3904 1.44094E-01
 -1      3905 1.96114E-01
 -1      3906 1.96114E-01
 -1      3907 4.57743E+00
 -1      3908 1.54621E-01
 -1      3909 1.21863E-01
 -1      3910 1.56045E-01
 -1      3911 1.14528E+00
 -1      3912 1.59572E+00
 -1      3913 1.59407E+00
 -1      3914 2.35351E+00
 -1      3915 1.75415E+00
 -1      3916 1.14101E-01
 -1      3917 9.77566E-02
 -1      3918 1.57550E-01
 -1      3919 1.56171E-01
 -1      3920 4.14769E+00
 -1      3921 4.57147E+00
 -1      3922 3.46873E+00
 -1      3923 1.55901E-01
 -1      3924 1.50069E-01
 -1      3925 1.38928E-01
 -1      3926 1.46261E-01
 -1      3927 1.37679E-01
 -1      3928 1.34850E-01
 -1      3929 1.31844E-01
 -1      3930 1.24613E-01
 -1      3931 1.25207E-01
 -1      3932 1.18524E-01
 -1      3933 1.10592E-01
 -1      3934 1.13282E-01
 -1      3935 1.04737E-01
 -1      3936 9.58933E-02
 -1      3937 1.01339E-01
 -1      3938 9.14496E-02
 -1      3939 8.29916E-02
 -1      3940 9.10400E-02
 -1      3941 1.07098E-01
 -1      3942 1.21144E-01
 -1      3943 1.10703E-01
 -1      3944 2.27227E-01
 -1      3945 2.84810E-01
 -1      3946 2.40892E-01
 -1      3947 7.16362E-01
 -1      3948 1.00471E+00
 -1      3949 7.78528E-01
 -1      3950 2.99578E+00
 -1      3951 2.84279E+00
 -1      3952 3.20116E+00
 -1      3953 2.21470E+00
 -1      3954 2.28138E+00
 -1      3955 4.56415E+00
 -1      3956 1.00847E+00
 -1      3957 8.88890E-01
 -1      3958 2.66315E+00
 -1      3959 4.76808E-01
 -1      3960 5.10455E-01
 -1      3961 9.78155E-01
 -1      3962 4.52725E-01
 -1      3963 5.18732E-01
 -1      3964 5.08343E-01
 -1      3965 5.93104E-01
 -1      3966 6.82963E-01
 -1      3967 5.24985E-01
 -1      3968 7.88506E-01
 -1      3969 9.08347E-01
 -1      3970 7.04900E-01
 -1      3971 1.06234E+00
 -1      3972 1.22615E+00
 -1      3973 9.64440E-01
 -1      3974 1.45238E+00
 -1      3975 1.67628E+00
 -1      3976 1.34467E+00
 -1      3977 2.05390E+00
 -1      3978 2.37011E+00
 -1      3979 1.94853E+00
 -1      3980 2.79472E-01
 -1      3981 2.46975E-01
 -1      3982 1.35063E-01
 -1      3983 1.44381E-01
 -1      3984 1.16808E-01
 -1      3985 2.02193E-01
 -1      3986 4.06132E+00
 -1      3987 1.60984E-01
 -1      3988 1.43359E-01
 -1      3989 2.63862E-01
 -1      3990 8.03145E-02
 -1      3991 7.26703E-02
 -1      3992 1.01912E-01
 -1      3993 2.98460E-01
 -1      3994 2.77880E-01
 -1      3995 3.48261E-01
 -1      3996 3.72359E-01
 -1      3997 3.34134E-01
 -1      3998 3.82344E-01
 -1      3999 3.78004E-01
 -1      4000 3.34347E-01
 -1      4001 3.80007E-01
 -1      4002 4.92009E-01
 -1      4003 4.32116E-01
 -1      4004 3.96108E-01
 -1      4005 6.39465E-01
 -1      4006 5.65556E-01
 -1      4007 5.23767E-01
 -1      4008 8.25856E-01
 -1      4009 7.36943E-01
 -1      4010 6.94792E-01
 -1      4011 1.06442E+00
 -1      4012 9.60205E-01
 -1      4013 9.26619E-01
 -1      4014 1.39522E+00
 -1      4015 1.23602E+00
 -1      4016 1.23257E+00
 -1      4017 2.33185E+00
 -1      4018 1.77714E+00
 -1      4019 1.78609E+00
 -1      4020 3.44889E+00
 -1      4021 2.92413E+00
 -1      4022 2.76029E+00
 -1      4023 3.96500E+00
 -1      4024 1.46989E-01
 -1      4025 1.38830E-01
 -1      4026 1.35778E-01
 -1      4027 1.98444E-01
 -1      4028 1.97366E-01
 -1      4029 1.52841E-01
 -1      4030 1.45420E-01
 -1      4031 1.51354E-01
 -1      4032 1.23457E-01
 -1      4033 2.10594E+00
 -1      4034 2.18550E+00
 -1      4035 1.93002E+00
 -1      4036 1.93002E+00
 -1      4037 3.67449E+00
 -1      4038 3.67449E+00
 -1      4039 3.06206E+00
 -1      4040 7.45306E-02
 -1      4041 8.31223E-02
 -1      4042 4.58294E+00
 -1      4043 4.58294E+00
 -1      4044 4.58294E+00
 -1      4045 1.29187E-01
 -1      4046 6.68581E-02
 -1      4047 7.47941E-02
 -1      4048 6.89048E-02
 -1      4049 1.47009E-01
 -1      4050 1.52507E-01
 -1      4051 1.34155E-01
 -1      4052 1.20934E-01
 -1      4053 7.42728E-02
 -1      4054 6.53824E-02
 -1      4055 6.76926E-02
 -1      4056 6.28641E-02
 -1      4057 7.35930E-02
 -1      4058 6.55372E-02
 -1      4059 7.46635E-02
 -1      4060 2.70283E+00
 -1      4061 1.36528E-01
 -1      4062 1.38428E-01
 -1      4063 8.87372E-02
 -1      4064 9.55339E-02
 -1      4065 7.42562E-02
 -1      4066 1.44845E-01
 -1      4067 1.17458E-01
 -1      4068 1.22150E-01
 -1      4069 1.24800E-01
 -1      4070 4.28685E+00
 -1      4071 2.95790E+00
 -1      4072 3.70174E+00
 -1      4073 4.08683E+00
 -1      4074 2.91394E+00
 -1      4075 3.52893E+00
 -1      4076 3.12484E+00
 -1      4077 1.48612E-01
 -1      4078 3.15973E+00
 -1      4079 4.27494E+00
 -1      4080 3.61409E+00
 -1      4081 2.71115E+00
 -1      4082 3.41728E+00
 -1      4083 2.22039E+00
 -1      4084 3.83692E+00
 -1      4085 2.02193E-01
 -1      4086 1.81222E-01
 -1      4087 2.10392E-01
 -1      4088 1.46989E-01
 -1      4089 1.68196E-01
 -1      4090 2.62937E+00
 -1      4091 2.70945E+00
 -1      4092 7.86780E-02
 -1      4093 7.84145E-02
 -1      4094 1.24938E-01
 -1      4095 1.24668E-01
 -1      4096 1.24567E-01
 -1      4097 1.20760E-01
 -1      4098 1.10578E-01
 -1      4099 1.18220E-01
 -1      4100 1.12385E-01
 -1      4101 1.07937E-01
 -1      4102 1.08582E-01
 -1      4103 1.02493E-01
 -1      4104 1.01596E-01
 -1      4105 9.76657E-02
 -1      4106 9.18108E-02
 -1      4107 9.29656E-02
 -1      4108 9.10400E-02
 -1      4109 8.65962E-02
 -1      4110 8.73671E-02
 -1      4111 1.10703E-01
 -1      4112 1.34809E-01
 -1      4113 1.10703E-01
 -1      4114 2.45698E-01
 -1      4115 3.51781E-01
 -1      4116 2.45698E-01
 -1      4117 7.78528E-01
 -1      4118 1.21008E+00
 -1      4119 7.83334E-01
 -1      4120 3.20116E+00
 -1      4121 5.19224E+00
 -1      4122 3.20116E+00
 -1      4123 5.19224E+00
 -1      4124 4.56415E+00
 -1      4125 5.19224E+00
 -1      4126 4.47501E+00
 -1      4127 3.20210E+00
 -1      4128 5.10310E+00
 -1      4129 1.39024E+00
 -1      4130 9.78155E-01
 -1      4131 3.20210E+00
 -1      4132 5.66074E-01
 -1      4133 5.08343E-01
 -1      4134 9.78155E-01
 -1      4135 4.73319E-01
 -1      4136 5.47691E-01
 -1      4137 5.31049E-01
 -1      4138 6.17361E-01
 -1      4139 7.22904E-01
 -1      4140 5.65696E-01
 -1      4141 8.31216E-01
 -1      4142 9.85213E-01
 -1      4143 7.43678E-01
 -1      4144 1.32106E+00
 -1      4145 1.54730E+00
 -1      4146 1.18784E+00
 -1      4147 1.68206E+00
 -1      4148 2.05968E+00
 -1      4149 1.65845E+00
 -1      4150 2.71599E+00
 -1      4151 2.68031E+00
 -1      4152 7.75734E-01
 -1      4153 6.89743E-01
 -1      4154 1.26880E-01
 -1      4155 1.09438E-01
 -1      4156 8.62776E-01
 -1      4157 9.00787E-01
 -1      4158 3.19876E+00
 -1      4159 5.04534E-01
 -1      4160 4.50422E-01
 -1      4161 9.71202E-01
 -1      4162 5.11848E-01
 -1      4163 4.38300E-01
 -1      4164 4.92615E-01
 -1      4165 6.95428E-01
 -1      4166 5.97951E-01
 -1      4167 5.12484E-01
 -1      4168 9.44843E-01
 -1      4169 8.10493E-01
 -1      4170 7.13652E-01
 -1      4171 1.30519E+00
 -1      4172 1.13359E+00
 -1      4173 1.01746E+00
 -1      4174 1.84585E+00
 -1      4175 1.46394E+00
 -1      4176 1.36495E+00
 -1      4177 2.76029E+00
 -1      4178 2.16801E+00
 -1      4179 1.84585E+00
 -1      4180 2.46978E+00
 -1      4181 1.51633E-01
 -1      4182 1.64659E-01
 -1      4183 1.30426E-01
 -1      4184 1.43637E-01
 -1      4185 1.49303E-01
 -1      4186 2.67229E-01
 -1      4187 2.37971E-01
 -1      4188 2.45497E-01
 -1      4189 3.33560E+00
 -1      4190 1.51633E-01
 -1      4191 1.16420E-01
 -1      4192 3.84276E+00
 -1      4193 3.33560E+00
 -1      4194 7.56041E-02
 -1      4195 7.70798E-02
 -1      4196 8.65895E-02
 -1      4197 2.14694E+00
 -1      4198 2.14853E+00
 -1      4199 2.57441E+00
 -1      4200 4.48058E+00
 -1      4201 9.86663E-02
 -1      4202 1.04277E-01
 -1      4203 8.30036E-02
 -1      4204 8.41171E-02
 -1      4205 7.43439E-02
 -1      4206 7.99588E-02
 -1      4207 2.22198E+00
 -1      4208 2.48845E+00
 -1      4209 3.07624E+00
 -1      4210 7.79101E-01
 -1      4211 1.09438E-01
 -1      4212 8.44697E-02
 -1      4213 7.46635E-02
 -1      4214 1.48096E-01
 -1      4215 1.10877E-01
 -1      4216 1.15336E-01
 -1      4217 9.64983E-02
 -1      4218 1.15942E-01
 -1      4219 1.20985E-01
 -1      4220 1.06725E-01
 -1      4221 9.82785E-02
 -1      4222 2.22198E+00
 -1      4223 2.28238E+00
 -1      4224 1.98061E+00
 -1      4225 1.79321E+00
 -1      4226 7.30223E-02
 -1      4227 7.37021E-02
 -1      4228 8.30892E-02
 -1      4229 8.28285E-02
 -1      4230 1.07802E-01
 -1      4231 1.15980E-01
 -1      4232 1.02810E-01
 -1      4233 1.25472E-01
 -1      4234 1.20585E+00
 -1      4235 7.83334E-01
 -1      4236 9.95639E-02
 -1      4237 9.70246E-02
 -1      4238 9.67929E-02
 -1      4239 9.29905E-02
 -1      4240 9.13923E-02
 -1      4241 8.65646E-02
 -1      4242 8.46625E-02
 -1      4243 8.38917E-02
 -1      4244 8.55330E-02
 -1      4245 1.09640E-01
 -1      4246 1.34608E-01
 -1      4247 2.45497E-01
 -1      4248 3.56587E-01
 -1      4249 3.19693E+00
 -1      4250 4.56972E+00
 -1      4251 4.56972E+00
 -1      4252 5.10310E+00
 -1      4253 5.01396E+00
 -1      4254 3.19876E+00
 -1      4255 1.38690E+00
 -1      4256 9.74542E-01
 -1      4257 5.62461E-01
 -1      4258 4.96227E-01
 -1      4259 4.61203E-01
 -1      4260 5.47306E-01
 -1      4261 6.16976E-01
 -1      4262 7.32042E-01
 -1      4263 8.40353E-01
 -1      4264 1.02910E+00
 -1      4265 1.36495E+00
 -1      4266 1.52369E+00
 -1      4267 1.65845E+00
 -1      4268 8.62136E-02
 -1      4269 8.93461E-02
 -1      4270 8.63014E-02
 -1      4271 1.01617E-01
 -1      4272 1.01516E-01
 -1      4273 8.87011E-02
 -1      4274 1.00844E-01
 -1      4275 8.69209E-02
 -1      4276 9.19112E-02
 -1      4277 1.25472E-01
 -1      4278 1.00972E-01
 -1      4279 9.27121E-02
 -1      4280 1.65845E+00
 -1      4281 9.70193E-02
 -1      4282 8.84194E-02
 -1      4283 9.26740E-02
 -1      4284 9.06036E-02
 -1      4285 8.43488E-02
 -3
 9999
