    1C
    1UUSER                                                              
    1UDATE              27.october.2022                                 
    1UTIME              00:44:47                                        
    1UHOST                                                              
    1UPGM               CalculiX                                        
    1UVERSION           Version 2.17                             
    1UCOMPILETIME       Thu Jul 23 21:43:50 CEST 2020                    
    1UDIR                                                               
    1UDBN                                                               
    1UMAT    1SOLIDMATERIAL                                             
    2C                          4313                                     1
 -1         1 1.11562E+02 2.63636E+01 0.00000E+00
 -1         2 1.24398E+02 2.24980E+01 0.00000E+00
 -1         3 1.50000E+02 0.00000E+00 0.00000E+00
 -1         4 1.50000E+02 5.00000E+01 0.00000E+00
 -1         5 0.00000E+00 0.00000E+00 0.00000E+00
 -1         6 0.00000E+00 5.00000E+01 0.00000E+00
 -1         7 0.00000E+00 4.70500E+01 0.00000E+00
 -1         8 0.00000E+00 4.41000E+01 0.00000E+00
 -1         9 0.00000E+00 4.11500E+01 0.00000E+00
 -1        10 0.00000E+00 3.82000E+01 0.00000E+00
 -1        11 0.00000E+00 3.52500E+01 0.00000E+00
 -1        12 0.00000E+00 3.23500E+01 0.00000E+00
 -1        13 0.00000E+00 2.94000E+01 0.00000E+00
 -1        14 0.00000E+00 2.64500E+01 0.00000E+00
 -1        15 0.00000E+00 2.35000E+01 0.00000E+00
 -1        16 0.00000E+00 2.05500E+01 0.00000E+00
 -1        17 0.00000E+00 1.76000E+01 0.00000E+00
 -1        18 0.00000E+00 1.47000E+01 0.00000E+00
 -1        19 0.00000E+00 1.17500E+01 0.00000E+00
 -1        20 0.00000E+00 8.80000E+00 0.00000E+00
 -1        21 0.00000E+00 5.85000E+00 0.00000E+00
 -1        22 0.00000E+00 2.90000E+00 0.00000E+00
 -1        23 3.15000E+00 5.00000E+01 0.00000E+00
 -1        24 6.15000E+00 5.00000E+01 0.00000E+00
 -1        25 9.15000E+00 5.00000E+01 0.00000E+00
 -1        26 1.21500E+01 5.00000E+01 0.00000E+00
 -1        27 1.51500E+01 5.00000E+01 0.00000E+00
 -1        28 1.81500E+01 5.00000E+01 0.00000E+00
 -1        29 2.11500E+01 5.00000E+01 0.00000E+00
 -1        30 2.41500E+01 5.00000E+01 0.00000E+00
 -1        31 2.71500E+01 5.00000E+01 0.00000E+00
 -1        32 3.01500E+01 5.00000E+01 0.00000E+00
 -1        33 3.31500E+01 5.00000E+01 0.00000E+00
 -1        34 3.61500E+01 5.00000E+01 0.00000E+00
 -1        35 3.91500E+01 5.00000E+01 0.00000E+00
 -1        36 4.21500E+01 5.00000E+01 0.00000E+00
 -1        37 4.51500E+01 5.00000E+01 0.00000E+00
 -1        38 4.81500E+01 5.00000E+01 0.00000E+00
 -1        39 5.11500E+01 5.00000E+01 0.00000E+00
 -1        40 5.41500E+01 5.00000E+01 0.00000E+00
 -1        41 5.71500E+01 5.00000E+01 0.00000E+00
 -1        42 6.01500E+01 5.00000E+01 0.00000E+00
 -1        43 6.31500E+01 5.00000E+01 0.00000E+00
 -1        44 6.61500E+01 5.00000E+01 0.00000E+00
 -1        45 6.91500E+01 5.00000E+01 0.00000E+00
 -1        46 7.21500E+01 5.00000E+01 0.00000E+00
 -1        47 7.51500E+01 5.00000E+01 0.00000E+00
 -1        48 7.81500E+01 5.00000E+01 0.00000E+00
 -1        49 8.11500E+01 5.00000E+01 0.00000E+00
 -1        50 8.41500E+01 5.00000E+01 0.00000E+00
 -1        51 8.71500E+01 5.00000E+01 0.00000E+00
 -1        52 9.01500E+01 5.00000E+01 0.00000E+00
 -1        53 9.31500E+01 5.00000E+01 0.00000E+00
 -1        54 9.61500E+01 5.00000E+01 0.00000E+00
 -1        55 9.91500E+01 5.00000E+01 0.00000E+00
 -1        56 1.02150E+02 5.00000E+01 0.00000E+00
 -1        57 1.05150E+02 5.00000E+01 0.00000E+00
 -1        58 1.08150E+02 5.00000E+01 0.00000E+00
 -1        59 1.11150E+02 5.00000E+01 0.00000E+00
 -1        60 1.14150E+02 5.00000E+01 0.00000E+00
 -1        61 1.17150E+02 5.00000E+01 0.00000E+00
 -1        62 1.20150E+02 5.00000E+01 0.00000E+00
 -1        63 1.23150E+02 5.00000E+01 0.00000E+00
 -1        64 1.26150E+02 5.00000E+01 0.00000E+00
 -1        65 1.29150E+02 5.00000E+01 0.00000E+00
 -1        66 1.32150E+02 5.00000E+01 0.00000E+00
 -1        67 1.35150E+02 5.00000E+01 0.00000E+00
 -1        68 1.38150E+02 5.00000E+01 0.00000E+00
 -1        69 1.41150E+02 5.00000E+01 0.00000E+00
 -1        70 1.44150E+02 5.00000E+01 0.00000E+00
 -1        71 1.47150E+02 5.00000E+01 0.00000E+00
 -1        72 3.15000E+00 0.00000E+00 0.00000E+00
 -1        73 6.15000E+00 0.00000E+00 0.00000E+00
 -1        74 9.15000E+00 0.00000E+00 0.00000E+00
 -1        75 1.21500E+01 0.00000E+00 0.00000E+00
 -1        76 1.51500E+01 0.00000E+00 0.00000E+00
 -1        77 1.81500E+01 0.00000E+00 0.00000E+00
 -1        78 2.11500E+01 0.00000E+00 0.00000E+00
 -1        79 2.41500E+01 0.00000E+00 0.00000E+00
 -1        80 2.71500E+01 0.00000E+00 0.00000E+00
 -1        81 3.01500E+01 0.00000E+00 0.00000E+00
 -1        82 3.31500E+01 0.00000E+00 0.00000E+00
 -1        83 3.61500E+01 0.00000E+00 0.00000E+00
 -1        84 3.91500E+01 0.00000E+00 0.00000E+00
 -1        85 4.21500E+01 0.00000E+00 0.00000E+00
 -1        86 4.51500E+01 0.00000E+00 0.00000E+00
 -1        87 4.81500E+01 0.00000E+00 0.00000E+00
 -1        88 5.11500E+01 0.00000E+00 0.00000E+00
 -1        89 5.41500E+01 0.00000E+00 0.00000E+00
 -1        90 5.71500E+01 0.00000E+00 0.00000E+00
 -1        91 6.01500E+01 0.00000E+00 0.00000E+00
 -1        92 6.31500E+01 0.00000E+00 0.00000E+00
 -1        93 6.61500E+01 0.00000E+00 0.00000E+00
 -1        94 6.91500E+01 0.00000E+00 0.00000E+00
 -1        95 7.21500E+01 0.00000E+00 0.00000E+00
 -1        96 7.51500E+01 0.00000E+00 0.00000E+00
 -1        97 7.81500E+01 0.00000E+00 0.00000E+00
 -1        98 8.11500E+01 0.00000E+00 0.00000E+00
 -1        99 8.41500E+01 0.00000E+00 0.00000E+00
 -1       100 8.71500E+01 0.00000E+00 0.00000E+00
 -1       101 9.01500E+01 0.00000E+00 0.00000E+00
 -1       102 9.31500E+01 0.00000E+00 0.00000E+00
 -1       103 9.61500E+01 0.00000E+00 0.00000E+00
 -1       104 9.91500E+01 0.00000E+00 0.00000E+00
 -1       105 1.02150E+02 0.00000E+00 0.00000E+00
 -1       106 1.05150E+02 0.00000E+00 0.00000E+00
 -1       107 1.08150E+02 0.00000E+00 0.00000E+00
 -1       108 1.11150E+02 0.00000E+00 0.00000E+00
 -1       109 1.14150E+02 0.00000E+00 0.00000E+00
 -1       110 1.17150E+02 0.00000E+00 0.00000E+00
 -1       111 1.20150E+02 0.00000E+00 0.00000E+00
 -1       112 1.23150E+02 0.00000E+00 0.00000E+00
 -1       113 1.26150E+02 0.00000E+00 0.00000E+00
 -1       114 1.29150E+02 0.00000E+00 0.00000E+00
 -1       115 1.32150E+02 0.00000E+00 0.00000E+00
 -1       116 1.35150E+02 0.00000E+00 0.00000E+00
 -1       117 1.38150E+02 0.00000E+00 0.00000E+00
 -1       118 1.41150E+02 0.00000E+00 0.00000E+00
 -1       119 1.44150E+02 0.00000E+00 0.00000E+00
 -1       120 1.47150E+02 0.00000E+00 0.00000E+00
 -1       121 1.50000E+02 2.95000E+00 0.00000E+00
 -1       122 1.50000E+02 5.90000E+00 0.00000E+00
 -1       123 1.50000E+02 8.85000E+00 0.00000E+00
 -1       124 1.50000E+02 1.18000E+01 0.00000E+00
 -1       125 1.50000E+02 1.47500E+01 0.00000E+00
 -1       126 1.50000E+02 1.76500E+01 0.00000E+00
 -1       127 1.50000E+02 2.06000E+01 0.00000E+00
 -1       128 1.50000E+02 2.35500E+01 0.00000E+00
 -1       129 1.50000E+02 2.65000E+01 0.00000E+00
 -1       130 1.50000E+02 2.94500E+01 0.00000E+00
 -1       131 1.50000E+02 3.24000E+01 0.00000E+00
 -1       132 1.50000E+02 3.53000E+01 0.00000E+00
 -1       133 1.50000E+02 3.82500E+01 0.00000E+00
 -1       134 1.50000E+02 4.12000E+01 0.00000E+00
 -1       135 1.50000E+02 4.41500E+01 0.00000E+00
 -1       136 1.50000E+02 4.71000E+01 0.00000E+00
 -1       137 1.24234E+02 2.09909E+01 0.00000E+00
 -1       138 1.23692E+02 1.94353E+01 0.00000E+00
 -1       139 1.22938E+02 1.82202E+01 0.00000E+00
 -1       140 1.21946E+02 1.71772E+01 0.00000E+00
 -1       141 1.20744E+02 1.63495E+01 0.00000E+00
 -1       142 1.19322E+02 1.57677E+01 0.00000E+00
 -1       143 1.17821E+02 1.55108E+01 0.00000E+00
 -1       144 1.16155E+02 1.56091E+01 0.00000E+00
 -1       145 1.14756E+02 1.60157E+01 0.00000E+00
 -1       146 1.13424E+02 1.67355E+01 0.00000E+00
 -1       147 1.12189E+02 1.78210E+01 0.00000E+00
 -1       148 1.11309E+02 1.90440E+01 0.00000E+00
 -1       149 1.10719E+02 2.04007E+01 0.00000E+00
 -1       150 1.10423E+02 2.18976E+01 0.00000E+00
 -1       151 1.10463E+02 2.34547E+01 0.00000E+00
 -1       152 1.10855E+02 2.49869E+01 0.00000E+00
 -1       153 1.12497E+02 2.74964E+01 0.00000E+00
 -1       154 1.13614E+02 2.83874E+01 0.00000E+00
 -1       155 1.14935E+02 2.90504E+01 0.00000E+00
 -1       156 1.16375E+02 2.94229E+01 0.00000E+00
 -1       157 1.17946E+02 2.94765E+01 0.00000E+00
 -1       158 1.19389E+02 2.92089E+01 0.00000E+00
 -1       159 1.20732E+02 2.86531E+01 0.00000E+00
 -1       160 1.21954E+02 2.78121E+01 0.00000E+00
 -1       161 1.23001E+02 2.66930E+01 0.00000E+00
 -1       162 1.23736E+02 2.54699E+01 0.00000E+00
 -1       163 1.24224E+02 2.40472E+01 0.00000E+00
 -1       164 2.59800E+00 4.55750E+01 0.00000E+00
 -1       165 2.59800E+00 4.26250E+01 0.00000E+00
 -1       166 2.59800E+00 3.96750E+01 0.00000E+00
 -1       167 2.59800E+00 3.67250E+01 0.00000E+00
 -1       168 2.59800E+00 3.38250E+01 0.00000E+00
 -1       169 2.59800E+00 3.08750E+01 0.00000E+00
 -1       170 2.59800E+00 2.79250E+01 0.00000E+00
 -1       171 2.59800E+00 2.49750E+01 0.00000E+00
 -1       172 2.59800E+00 2.20250E+01 0.00000E+00
 -1       173 2.59800E+00 1.90750E+01 0.00000E+00
 -1       174 2.59800E+00 1.61750E+01 0.00000E+00
 -1       175 2.59800E+00 1.32250E+01 0.00000E+00
 -1       176 2.59800E+00 1.02750E+01 0.00000E+00
 -1       177 2.59800E+00 7.32500E+00 0.00000E+00
 -1       178 2.59800E+00 4.37500E+00 0.00000E+00
 -1       179 2.87400E+00 2.18750E+00 0.00000E+00
 -1       180 4.65000E+00 4.74020E+01 0.00000E+00
 -1       181 7.65000E+00 4.74020E+01 0.00000E+00
 -1       182 1.06500E+01 4.74020E+01 0.00000E+00
 -1       183 1.36500E+01 4.74020E+01 0.00000E+00
 -1       184 1.66500E+01 4.74020E+01 0.00000E+00
 -1       185 1.96500E+01 4.74020E+01 0.00000E+00
 -1       186 2.26500E+01 4.74020E+01 0.00000E+00
 -1       187 2.56500E+01 4.74020E+01 0.00000E+00
 -1       188 2.86500E+01 4.74020E+01 0.00000E+00
 -1       189 3.16500E+01 4.74020E+01 0.00000E+00
 -1       190 3.46500E+01 4.74020E+01 0.00000E+00
 -1       191 3.76500E+01 4.74020E+01 0.00000E+00
 -1       192 4.06500E+01 4.74020E+01 0.00000E+00
 -1       193 4.36500E+01 4.74020E+01 0.00000E+00
 -1       194 4.66500E+01 4.74020E+01 0.00000E+00
 -1       195 4.96500E+01 4.74020E+01 0.00000E+00
 -1       196 5.26500E+01 4.74020E+01 0.00000E+00
 -1       197 5.56500E+01 4.74020E+01 0.00000E+00
 -1       198 5.86500E+01 4.74020E+01 0.00000E+00
 -1       199 6.16500E+01 4.74020E+01 0.00000E+00
 -1       200 6.46500E+01 4.74020E+01 0.00000E+00
 -1       201 6.76500E+01 4.74020E+01 0.00000E+00
 -1       202 7.06500E+01 4.74020E+01 0.00000E+00
 -1       203 7.36500E+01 4.74020E+01 0.00000E+00
 -1       204 7.66500E+01 4.74020E+01 0.00000E+00
 -1       205 7.96500E+01 4.74020E+01 0.00000E+00
 -1       206 8.26500E+01 4.74020E+01 0.00000E+00
 -1       207 8.56500E+01 4.74020E+01 0.00000E+00
 -1       208 8.86500E+01 4.74020E+01 0.00000E+00
 -1       209 9.16500E+01 4.74020E+01 0.00000E+00
 -1       210 9.46500E+01 4.74020E+01 0.00000E+00
 -1       211 9.76500E+01 4.74020E+01 0.00000E+00
 -1       212 1.00650E+02 4.74020E+01 0.00000E+00
 -1       213 1.03650E+02 4.74020E+01 0.00000E+00
 -1       214 1.06650E+02 4.74020E+01 0.00000E+00
 -1       215 1.09650E+02 4.74020E+01 0.00000E+00
 -1       216 1.12650E+02 4.74020E+01 0.00000E+00
 -1       217 1.15650E+02 4.74020E+01 0.00000E+00
 -1       218 1.18650E+02 4.74020E+01 0.00000E+00
 -1       219 1.21650E+02 4.74020E+01 0.00000E+00
 -1       220 1.24650E+02 4.74020E+01 0.00000E+00
 -1       221 1.27650E+02 4.74020E+01 0.00000E+00
 -1       222 1.30650E+02 4.74020E+01 0.00000E+00
 -1       223 1.33650E+02 4.74020E+01 0.00000E+00
 -1       224 1.36650E+02 4.74020E+01 0.00000E+00
 -1       225 1.39650E+02 4.74020E+01 0.00000E+00
 -1       226 1.42650E+02 4.74020E+01 0.00000E+00
 -1       227 1.45650E+02 4.74020E+01 0.00000E+00
 -1       228 5.87400E+00 2.18750E+00 0.00000E+00
 -1       229 8.87400E+00 2.18750E+00 0.00000E+00
 -1       230 1.18740E+01 2.18750E+00 0.00000E+00
 -1       231 1.48740E+01 2.18750E+00 0.00000E+00
 -1       232 1.78740E+01 2.18750E+00 0.00000E+00
 -1       233 2.08740E+01 2.18750E+00 0.00000E+00
 -1       234 2.38740E+01 2.18750E+00 0.00000E+00
 -1       235 2.68740E+01 2.18750E+00 0.00000E+00
 -1       236 2.98740E+01 2.18750E+00 0.00000E+00
 -1       237 3.28740E+01 2.18750E+00 0.00000E+00
 -1       238 3.58740E+01 2.18750E+00 0.00000E+00
 -1       239 3.88740E+01 2.18750E+00 0.00000E+00
 -1       240 4.18740E+01 2.18750E+00 0.00000E+00
 -1       241 4.48740E+01 2.18750E+00 0.00000E+00
 -1       242 4.78740E+01 2.18750E+00 0.00000E+00
 -1       243 5.08740E+01 2.18750E+00 0.00000E+00
 -1       244 5.38740E+01 2.18750E+00 0.00000E+00
 -1       245 5.68740E+01 2.18750E+00 0.00000E+00
 -1       246 5.98740E+01 2.18750E+00 0.00000E+00
 -1       247 6.28740E+01 2.18750E+00 0.00000E+00
 -1       248 6.58740E+01 2.18750E+00 0.00000E+00
 -1       249 6.88740E+01 2.18750E+00 0.00000E+00
 -1       250 7.18740E+01 2.18750E+00 0.00000E+00
 -1       251 7.48740E+01 2.18750E+00 0.00000E+00
 -1       252 7.78740E+01 2.18750E+00 0.00000E+00
 -1       253 8.08740E+01 2.18750E+00 0.00000E+00
 -1       254 8.38740E+01 2.18750E+00 0.00000E+00
 -1       255 8.68740E+01 2.18750E+00 0.00000E+00
 -1       256 8.98740E+01 2.18750E+00 0.00000E+00
 -1       257 9.28740E+01 2.18750E+00 0.00000E+00
 -1       258 9.58740E+01 2.18750E+00 0.00000E+00
 -1       259 9.88740E+01 2.18750E+00 0.00000E+00
 -1       260 1.01874E+02 2.18750E+00 0.00000E+00
 -1       261 1.04874E+02 2.18750E+00 0.00000E+00
 -1       262 1.07874E+02 2.18750E+00 0.00000E+00
 -1       263 1.10874E+02 2.18750E+00 0.00000E+00
 -1       264 1.13874E+02 2.18750E+00 0.00000E+00
 -1       265 1.16874E+02 2.18750E+00 0.00000E+00
 -1       266 1.19874E+02 2.18750E+00 0.00000E+00
 -1       267 1.22874E+02 2.18750E+00 0.00000E+00
 -1       268 1.25874E+02 2.18750E+00 0.00000E+00
 -1       269 1.28874E+02 2.18750E+00 0.00000E+00
 -1       270 1.31874E+02 2.18750E+00 0.00000E+00
 -1       271 1.34874E+02 2.18750E+00 0.00000E+00
 -1       272 1.37874E+02 2.18750E+00 0.00000E+00
 -1       273 1.40874E+02 2.18750E+00 0.00000E+00
 -1       274 1.43874E+02 2.18750E+00 0.00000E+00
 -1       275 1.46874E+02 2.18750E+00 0.00000E+00
 -1       276 1.47402E+02 4.42500E+00 0.00000E+00
 -1       277 1.47402E+02 7.37500E+00 0.00000E+00
 -1       278 1.47402E+02 1.03250E+01 0.00000E+00
 -1       279 1.47402E+02 1.32750E+01 0.00000E+00
 -1       280 1.47402E+02 1.61750E+01 0.00000E+00
 -1       281 1.47402E+02 1.91250E+01 0.00000E+00
 -1       282 1.47402E+02 2.20750E+01 0.00000E+00
 -1       283 1.47402E+02 2.50250E+01 0.00000E+00
 -1       284 1.47402E+02 2.79750E+01 0.00000E+00
 -1       285 1.47402E+02 3.09250E+01 0.00000E+00
 -1       286 1.47402E+02 3.38250E+01 0.00000E+00
 -1       287 1.47402E+02 3.67750E+01 0.00000E+00
 -1       288 1.47402E+02 3.97250E+01 0.00000E+00
 -1       289 1.47402E+02 4.26750E+01 0.00000E+00
 -1       290 1.46526E+02 4.50385E+01 0.00000E+00
 -1       291 1.25521E+02 2.16132E+01 0.00000E+00
 -1       292 1.25187E+02 1.97870E+01 0.00000E+00
 -1       293 1.24346E+02 1.81887E+01 0.00000E+00
 -1       294 1.23321E+02 1.68630E+01 0.00000E+00
 -1       295 1.22032E+02 1.57647E+01 0.00000E+00
 -1       296 1.20492E+02 1.49365E+01 0.00000E+00
 -1       297 1.18790E+02 1.43616E+01 0.00000E+00
 -1       298 1.16902E+02 1.40988E+01 0.00000E+00
 -1       299 1.15117E+02 1.46482E+01 0.00000E+00
 -1       300 1.13434E+02 1.51615E+01 0.00000E+00
 -1       301 1.11784E+02 1.61162E+01 0.00000E+00
 -1       302 1.10765E+02 1.77242E+01 0.00000E+00
 -1       303 1.09902E+02 1.92389E+01 0.00000E+00
 -1       304 1.09300E+02 2.08979E+01 0.00000E+00
 -1       305 1.09148E+02 2.27094E+01 0.00000E+00
 -1       306 1.09485E+02 2.45211E+01 0.00000E+00
 -1       307 1.09981E+02 2.63055E+01 0.00000E+00
 -1       308 1.11094E+02 2.77019E+01 0.00000E+00
 -1       309 1.12300E+02 2.88897E+01 0.00000E+00
 -1       310 1.13730E+02 2.98024E+01 0.00000E+00
 -1       311 1.15351E+02 3.04104E+01 0.00000E+00
 -1       312 1.17116E+02 3.07451E+01 0.00000E+00
 -1       313 1.18889E+02 3.05347E+01 0.00000E+00
 -1       314 1.20524E+02 3.00512E+01 0.00000E+00
 -1       315 1.22078E+02 2.93004E+01 0.00000E+00
 -1       316 1.23424E+02 2.81383E+01 0.00000E+00
 -1       317 1.24408E+02 2.67053E+01 0.00000E+00
 -1       318 1.25443E+02 2.52612E+01 0.00000E+00
 -1       319 1.25599E+02 2.34170E+01 0.00000E+00
 -1       320 5.19600E+00 4.11500E+01 0.00000E+00
 -1       321 5.19600E+00 4.41000E+01 0.00000E+00
 -1       322 5.19600E+00 3.52750E+01 0.00000E+00
 -1       323 5.19600E+00 3.23250E+01 0.00000E+00
 -1       324 5.19600E+00 2.93750E+01 0.00000E+00
 -1       325 5.19600E+00 2.64250E+01 0.00000E+00
 -1       326 5.19600E+00 2.34750E+01 0.00000E+00
 -1       327 5.19600E+00 2.05250E+01 0.00000E+00
 -1       328 5.19600E+00 1.76250E+01 0.00000E+00
 -1       329 5.19600E+00 1.46750E+01 0.00000E+00
 -1       330 5.19600E+00 1.17250E+01 0.00000E+00
 -1       331 5.19600E+00 8.77500E+00 0.00000E+00
 -1       332 5.19600E+00 5.82500E+00 0.00000E+00
 -1       333 5.53500E+00 4.00625E+00 0.00000E+00
 -1       334 8.53500E+00 4.00625E+00 0.00000E+00
 -1       335 9.15000E+00 4.48040E+01 0.00000E+00
 -1       336 1.21500E+01 4.48040E+01 0.00000E+00
 -1       337 1.51500E+01 4.48040E+01 0.00000E+00
 -1       338 1.81500E+01 4.48040E+01 0.00000E+00
 -1       339 2.11500E+01 4.48040E+01 0.00000E+00
 -1       340 2.41500E+01 4.48040E+01 0.00000E+00
 -1       341 2.71500E+01 4.48040E+01 0.00000E+00
 -1       342 3.01500E+01 4.48040E+01 0.00000E+00
 -1       343 3.31500E+01 4.48040E+01 0.00000E+00
 -1       344 3.61500E+01 4.48040E+01 0.00000E+00
 -1       345 3.91500E+01 4.48040E+01 0.00000E+00
 -1       346 4.21500E+01 4.48040E+01 0.00000E+00
 -1       347 4.51500E+01 4.48040E+01 0.00000E+00
 -1       348 4.81500E+01 4.48040E+01 0.00000E+00
 -1       349 5.11500E+01 4.48040E+01 0.00000E+00
 -1       350 5.41500E+01 4.48040E+01 0.00000E+00
 -1       351 5.71500E+01 4.48040E+01 0.00000E+00
 -1       352 6.01500E+01 4.48040E+01 0.00000E+00
 -1       353 6.31500E+01 4.48040E+01 0.00000E+00
 -1       354 6.61500E+01 4.48040E+01 0.00000E+00
 -1       355 6.91500E+01 4.48040E+01 0.00000E+00
 -1       356 7.21500E+01 4.48040E+01 0.00000E+00
 -1       357 7.51500E+01 4.48040E+01 0.00000E+00
 -1       358 7.81500E+01 4.48040E+01 0.00000E+00
 -1       359 8.11500E+01 4.48040E+01 0.00000E+00
 -1       360 8.41500E+01 4.48040E+01 0.00000E+00
 -1       361 8.71500E+01 4.48040E+01 0.00000E+00
 -1       362 9.01500E+01 4.48040E+01 0.00000E+00
 -1       363 9.31500E+01 4.48040E+01 0.00000E+00
 -1       364 9.61500E+01 4.48040E+01 0.00000E+00
 -1       365 9.91500E+01 4.48040E+01 0.00000E+00
 -1       366 1.02150E+02 4.48040E+01 0.00000E+00
 -1       367 1.05150E+02 4.48040E+01 0.00000E+00
 -1       368 1.08150E+02 4.48040E+01 0.00000E+00
 -1       369 1.11150E+02 4.48040E+01 0.00000E+00
 -1       370 1.14150E+02 4.48040E+01 0.00000E+00
 -1       371 1.17150E+02 4.48040E+01 0.00000E+00
 -1       372 1.20150E+02 4.48040E+01 0.00000E+00
 -1       373 1.23150E+02 4.48040E+01 0.00000E+00
 -1       374 1.26150E+02 4.48040E+01 0.00000E+00
 -1       375 1.29150E+02 4.48040E+01 0.00000E+00
 -1       376 1.32150E+02 4.48040E+01 0.00000E+00
 -1       377 1.35150E+02 4.48040E+01 0.00000E+00
 -1       378 1.38150E+02 4.48040E+01 0.00000E+00
 -1       379 1.41150E+02 4.48040E+01 0.00000E+00
 -1       380 1.43838E+02 4.49212E+01 0.00000E+00
 -1       381 1.15350E+01 4.00625E+00 0.00000E+00
 -1       382 1.45350E+01 4.00625E+00 0.00000E+00
 -1       383 1.75350E+01 4.00625E+00 0.00000E+00
 -1       384 2.05350E+01 4.00625E+00 0.00000E+00
 -1       385 2.35350E+01 4.00625E+00 0.00000E+00
 -1       386 2.65350E+01 4.00625E+00 0.00000E+00
 -1       387 2.95350E+01 4.00625E+00 0.00000E+00
 -1       388 3.25350E+01 4.00625E+00 0.00000E+00
 -1       389 3.55350E+01 4.00625E+00 0.00000E+00
 -1       390 3.85350E+01 4.00625E+00 0.00000E+00
 -1       391 4.15350E+01 4.00625E+00 0.00000E+00
 -1       392 4.45350E+01 4.00625E+00 0.00000E+00
 -1       393 4.75350E+01 4.00625E+00 0.00000E+00
 -1       394 5.05350E+01 4.00625E+00 0.00000E+00
 -1       395 5.35350E+01 4.00625E+00 0.00000E+00
 -1       396 5.65350E+01 4.00625E+00 0.00000E+00
 -1       397 5.95350E+01 4.00625E+00 0.00000E+00
 -1       398 6.25350E+01 4.00625E+00 0.00000E+00
 -1       399 6.55350E+01 4.00625E+00 0.00000E+00
 -1       400 6.85350E+01 4.00625E+00 0.00000E+00
 -1       401 7.15350E+01 4.00625E+00 0.00000E+00
 -1       402 7.45350E+01 4.00625E+00 0.00000E+00
 -1       403 7.75350E+01 4.00625E+00 0.00000E+00
 -1       404 8.05350E+01 4.00625E+00 0.00000E+00
 -1       405 8.35350E+01 4.00625E+00 0.00000E+00
 -1       406 8.65350E+01 4.00625E+00 0.00000E+00
 -1       407 8.95350E+01 4.00625E+00 0.00000E+00
 -1       408 9.25350E+01 4.00625E+00 0.00000E+00
 -1       409 9.55350E+01 4.00625E+00 0.00000E+00
 -1       410 9.85350E+01 4.00625E+00 0.00000E+00
 -1       411 1.01535E+02 4.00625E+00 0.00000E+00
 -1       412 1.04535E+02 4.00625E+00 0.00000E+00
 -1       413 1.07535E+02 4.00625E+00 0.00000E+00
 -1       414 1.10535E+02 4.00625E+00 0.00000E+00
 -1       415 1.13535E+02 4.00625E+00 0.00000E+00
 -1       416 1.16535E+02 4.00625E+00 0.00000E+00
 -1       417 1.19535E+02 4.00625E+00 0.00000E+00
 -1       418 1.22535E+02 4.00625E+00 0.00000E+00
 -1       419 1.25535E+02 4.00625E+00 0.00000E+00
 -1       420 1.28535E+02 4.00625E+00 0.00000E+00
 -1       421 1.31535E+02 4.00625E+00 0.00000E+00
 -1       422 1.34535E+02 4.00625E+00 0.00000E+00
 -1       423 1.37535E+02 4.00625E+00 0.00000E+00
 -1       424 1.40535E+02 4.00625E+00 0.00000E+00
 -1       425 1.43535E+02 4.00625E+00 0.00000E+00
 -1       426 1.45469E+02 4.21562E+00 0.00000E+00
 -1       427 1.44804E+02 1.18000E+01 0.00000E+00
 -1       428 1.44804E+02 8.85000E+00 0.00000E+00
 -1       429 1.45136E+02 6.53281E+00 0.00000E+00
 -1       430 1.44804E+02 1.47000E+01 0.00000E+00
 -1       431 1.44804E+02 1.76500E+01 0.00000E+00
 -1       432 1.44804E+02 2.06000E+01 0.00000E+00
 -1       433 1.44804E+02 2.35500E+01 0.00000E+00
 -1       434 1.44804E+02 2.65000E+01 0.00000E+00
 -1       435 1.44804E+02 2.94500E+01 0.00000E+00
 -1       436 1.44804E+02 3.23500E+01 0.00000E+00
 -1       437 1.44804E+02 3.53000E+01 0.00000E+00
 -1       438 1.44804E+02 3.82500E+01 0.00000E+00
 -1       439 1.44804E+02 4.12000E+01 0.00000E+00
 -1       440 1.26062E+02 1.83060E+01 0.00000E+00
 -1       441 1.27022E+02 2.24517E+01 0.00000E+00
 -1       442 1.26959E+02 2.04067E+01 0.00000E+00
 -1       443 1.24859E+02 1.67331E+01 0.00000E+00
 -1       444 1.23681E+02 1.51362E+01 0.00000E+00
 -1       445 5.19600E+00 3.82125E+01 0.00000E+00
 -1       446 1.20056E+02 1.34211E+01 0.00000E+00
 -1       447 1.18059E+02 1.26975E+01 0.00000E+00
 -1       448 1.15554E+02 1.28944E+01 0.00000E+00
 -1       449 1.13871E+02 1.34078E+01 0.00000E+00
 -1       450 1.11876E+02 1.43721E+01 0.00000E+00
 -1       451 1.09826E+02 1.60021E+01 0.00000E+00
 -1       452 1.08963E+02 1.75167E+01 0.00000E+00
 -1       453 1.08383E+02 1.96258E+01 0.00000E+00
 -1       454 1.07682E+02 2.16741E+01 0.00000E+00
 -1       455 1.07630E+02 2.39288E+01 0.00000E+00
 -1       456 1.08126E+02 2.57132E+01 0.00000E+00
 -1       457 1.09524E+02 2.78119E+01 0.00000E+00
 -1       458 1.10728E+02 2.92786E+01 0.00000E+00
 -1       459 1.12273E+02 3.05095E+01 0.00000E+00
 -1       460 1.13968E+02 3.16338E+01 0.00000E+00
 -1       461 1.15992E+02 3.18513E+01 0.00000E+00
 -1       462 1.18175E+02 3.20935E+01 0.00000E+00
 -1       463 1.20169E+02 3.18573E+01 0.00000E+00
 -1       464 1.21938E+02 3.09938E+01 0.00000E+00
 -1       465 1.23817E+02 2.99543E+01 0.00000E+00
 -1       466 1.25054E+02 2.82029E+01 0.00000E+00
 -1       467 1.26089E+02 2.67588E+01 0.00000E+00
 -1       468 1.26813E+02 2.44480E+01 0.00000E+00
 -1       469 1.21995E+02 1.39876E+01 0.00000E+00
 -1       470 1.27458E+02 2.59456E+01 0.00000E+00
 -1       471 1.07670E+02 2.72196E+01 0.00000E+00
 -1       472 1.00350E+01 6.60425E+00 0.00000E+00
 -1       473 7.79400E+00 3.08500E+01 0.00000E+00
 -1       474 7.79400E+00 3.38000E+01 0.00000E+00
 -1       475 7.79400E+00 2.49500E+01 0.00000E+00
 -1       476 7.79400E+00 2.20000E+01 0.00000E+00
 -1       477 7.79400E+00 1.91000E+01 0.00000E+00
 -1       478 7.79400E+00 1.61500E+01 0.00000E+00
 -1       479 7.79400E+00 1.32000E+01 0.00000E+00
 -1       480 7.79400E+00 1.02500E+01 0.00000E+00
 -1       481 1.30350E+01 6.60425E+00 0.00000E+00
 -1       482 1.06500E+01 4.22060E+01 0.00000E+00
 -1       483 1.23898E+02 1.30061E+01 0.00000E+00
 -1       484 1.36500E+01 4.22060E+01 0.00000E+00
 -1       485 1.66500E+01 4.22060E+01 0.00000E+00
 -1       486 1.96500E+01 4.22060E+01 0.00000E+00
 -1       487 2.26500E+01 4.22060E+01 0.00000E+00
 -1       488 2.56500E+01 4.22060E+01 0.00000E+00
 -1       489 2.86500E+01 4.22060E+01 0.00000E+00
 -1       490 3.16500E+01 4.22060E+01 0.00000E+00
 -1       491 3.46500E+01 4.22060E+01 0.00000E+00
 -1       492 3.76500E+01 4.22060E+01 0.00000E+00
 -1       493 4.06500E+01 4.22060E+01 0.00000E+00
 -1       494 4.36500E+01 4.22060E+01 0.00000E+00
 -1       495 4.66500E+01 4.22060E+01 0.00000E+00
 -1       496 4.96500E+01 4.22060E+01 0.00000E+00
 -1       497 5.26500E+01 4.22060E+01 0.00000E+00
 -1       498 5.56500E+01 4.22060E+01 0.00000E+00
 -1       499 5.86500E+01 4.22060E+01 0.00000E+00
 -1       500 6.16500E+01 4.22060E+01 0.00000E+00
 -1       501 6.46500E+01 4.22060E+01 0.00000E+00
 -1       502 6.76500E+01 4.22060E+01 0.00000E+00
 -1       503 7.06500E+01 4.22060E+01 0.00000E+00
 -1       504 7.36500E+01 4.22060E+01 0.00000E+00
 -1       505 7.66500E+01 4.22060E+01 0.00000E+00
 -1       506 7.96500E+01 4.22060E+01 0.00000E+00
 -1       507 8.26500E+01 4.22060E+01 0.00000E+00
 -1       508 8.56500E+01 4.22060E+01 0.00000E+00
 -1       509 8.86500E+01 4.22060E+01 0.00000E+00
 -1       510 9.16500E+01 4.22060E+01 0.00000E+00
 -1       511 9.46500E+01 4.22060E+01 0.00000E+00
 -1       512 9.76500E+01 4.22060E+01 0.00000E+00
 -1       513 1.00650E+02 4.22060E+01 0.00000E+00
 -1       514 1.03650E+02 4.22060E+01 0.00000E+00
 -1       515 1.06650E+02 4.22060E+01 0.00000E+00
 -1       516 1.09650E+02 4.22060E+01 0.00000E+00
 -1       517 1.12650E+02 4.22060E+01 0.00000E+00
 -1       518 1.15650E+02 4.22060E+01 0.00000E+00
 -1       519 1.18650E+02 4.22060E+01 0.00000E+00
 -1       520 1.21650E+02 4.22060E+01 0.00000E+00
 -1       521 1.24650E+02 4.22060E+01 0.00000E+00
 -1       522 1.27650E+02 4.22060E+01 0.00000E+00
 -1       523 1.30650E+02 4.22060E+01 0.00000E+00
 -1       524 1.33650E+02 4.22060E+01 0.00000E+00
 -1       525 1.36650E+02 4.22060E+01 0.00000E+00
 -1       526 1.39650E+02 4.22060E+01 0.00000E+00
 -1       527 1.90350E+01 6.60425E+00 0.00000E+00
 -1       528 2.20350E+01 6.60425E+00 0.00000E+00
 -1       529 2.50350E+01 6.60425E+00 0.00000E+00
 -1       530 2.80350E+01 6.60425E+00 0.00000E+00
 -1       531 3.10350E+01 6.60425E+00 0.00000E+00
 -1       532 3.40350E+01 6.60425E+00 0.00000E+00
 -1       533 3.70350E+01 6.60425E+00 0.00000E+00
 -1       534 4.00350E+01 6.60425E+00 0.00000E+00
 -1       535 4.30350E+01 6.60425E+00 0.00000E+00
 -1       536 4.60350E+01 6.60425E+00 0.00000E+00
 -1       537 4.90350E+01 6.60425E+00 0.00000E+00
 -1       538 5.20350E+01 6.60425E+00 0.00000E+00
 -1       539 5.50350E+01 6.60425E+00 0.00000E+00
 -1       540 5.80350E+01 6.60425E+00 0.00000E+00
 -1       541 6.10350E+01 6.60425E+00 0.00000E+00
 -1       542 6.40350E+01 6.60425E+00 0.00000E+00
 -1       543 6.70350E+01 6.60425E+00 0.00000E+00
 -1       544 7.00350E+01 6.60425E+00 0.00000E+00
 -1       545 7.30350E+01 6.60425E+00 0.00000E+00
 -1       546 7.60350E+01 6.60425E+00 0.00000E+00
 -1       547 7.90350E+01 6.60425E+00 0.00000E+00
 -1       548 8.20350E+01 6.60425E+00 0.00000E+00
 -1       549 8.50350E+01 6.60425E+00 0.00000E+00
 -1       550 8.80350E+01 6.60425E+00 0.00000E+00
 -1       551 9.10350E+01 6.60425E+00 0.00000E+00
 -1       552 9.40350E+01 6.60425E+00 0.00000E+00
 -1       553 9.70350E+01 6.60425E+00 0.00000E+00
 -1       554 1.00035E+02 6.60425E+00 0.00000E+00
 -1       555 1.03035E+02 6.60425E+00 0.00000E+00
 -1       556 1.06035E+02 6.60425E+00 0.00000E+00
 -1       557 1.09035E+02 6.60425E+00 0.00000E+00
 -1       558 1.12035E+02 6.60425E+00 0.00000E+00
 -1       559 1.15035E+02 6.60425E+00 0.00000E+00
 -1       560 1.18035E+02 6.60425E+00 0.00000E+00
 -1       561 1.21035E+02 6.60425E+00 0.00000E+00
 -1       562 1.24035E+02 6.60425E+00 0.00000E+00
 -1       563 1.27035E+02 6.60425E+00 0.00000E+00
 -1       564 1.30035E+02 6.60425E+00 0.00000E+00
 -1       565 1.33035E+02 6.60425E+00 0.00000E+00
 -1       566 1.36035E+02 6.60425E+00 0.00000E+00
 -1       567 1.39035E+02 6.60425E+00 0.00000E+00
 -1       568 1.42035E+02 6.60425E+00 0.00000E+00
 -1       569 1.42206E+02 1.61750E+01 0.00000E+00
 -1       570 1.42206E+02 1.91250E+01 0.00000E+00
 -1       571 1.42206E+02 1.03250E+01 0.00000E+00
 -1       572 1.42206E+02 1.32500E+01 0.00000E+00
 -1       573 1.42206E+02 2.20750E+01 0.00000E+00
 -1       574 1.42206E+02 2.50250E+01 0.00000E+00
 -1       575 1.42206E+02 2.79750E+01 0.00000E+00
 -1       576 1.42206E+02 3.08750E+01 0.00000E+00
 -1       577 1.42206E+02 3.38250E+01 0.00000E+00
 -1       578 1.42206E+02 3.67750E+01 0.00000E+00
 -1       579 1.42206E+02 3.97250E+01 0.00000E+00
 -1       580 1.28621E+02 2.13784E+01 0.00000E+00
 -1       581 1.26623E+02 1.66304E+01 0.00000E+00
 -1       582 1.60350E+01 6.60425E+00 0.00000E+00
 -1       583 1.28457E+02 2.36114E+01 0.00000E+00
 -1       584 1.27779E+02 1.88144E+01 0.00000E+00
 -1       585 7.92300E+00 4.16780E+01 0.00000E+00
 -1       586 1.25836E+02 3.00681E+01 0.00000E+00
 -1       587 1.05941E+02 2.27622E+01 0.00000E+00
 -1       588 1.12054E+02 1.21949E+01 0.00000E+00
 -1       589 1.19756E+02 1.11317E+01 0.00000E+00
 -1       590 7.79400E+00 2.79000E+01 0.00000E+00
 -1       591 1.16646E+02 1.07520E+01 0.00000E+00
 -1       592 1.09783E+02 1.38448E+01 0.00000E+00
 -1       593 1.14261E+02 1.16709E+01 0.00000E+00
 -1       594 1.06568E+02 2.01488E+01 0.00000E+00
 -1       595 1.07905E+02 1.59104E+01 0.00000E+00
 -1       596 1.08801E+02 2.96335E+01 0.00000E+00
 -1       597 1.07100E+02 1.81383E+01 0.00000E+00
 -1       598 1.06306E+02 2.52581E+01 0.00000E+00
 -1       599 1.10432E+02 3.12353E+01 0.00000E+00
 -1       600 1.12127E+02 3.23597E+01 0.00000E+00
 -1       601 1.14824E+02 3.31979E+01 0.00000E+00
 -1       602 1.16913E+02 3.35105E+01 0.00000E+00
 -1       603 1.19433E+02 3.41778E+01 0.00000E+00
 -1       604 1.21806E+02 3.29668E+01 0.00000E+00
 -1       605 1.23685E+02 3.19273E+01 0.00000E+00
 -1       606 1.26872E+02 2.86240E+01 0.00000E+00
 -1       607 1.21827E+02 1.20689E+01 0.00000E+00
 -1       608 7.61550E+00 6.21462E+00 0.00000E+00
 -1       609 1.25445E+02 1.50335E+01 0.00000E+00
 -1       610 7.79400E+00 3.67375E+01 0.00000E+00
 -1       611 1.25704E+02 3.20411E+01 0.00000E+00
 -1       612 1.29102E+02 2.51090E+01 0.00000E+00
 -1       613 1.12983E+02 3.39238E+01 0.00000E+00
 -1       614 1.29442E+02 1.97861E+01 0.00000E+00
 -1       615 1.41678E+02 4.22645E+01 0.00000E+00
 -1       616 1.28241E+02 2.78108E+01 0.00000E+00
 -1       617 1.18740E+02 1.07167E+01 0.00000E+00
 -1       618 1.03920E+01 2.05500E+01 0.00000E+00
 -1       619 1.03920E+01 2.35000E+01 0.00000E+00
 -1       620 1.03920E+01 1.46750E+01 0.00000E+00
 -1       621 1.03920E+01 1.17250E+01 0.00000E+00
 -1       622 1.15350E+01 9.20225E+00 0.00000E+00
 -1       623 1.04261E+02 2.42827E+01 0.00000E+00
 -1       624 1.27884E+02 3.04430E+01 0.00000E+00
 -1       625 1.51500E+01 3.96080E+01 0.00000E+00
 -1       626 1.81500E+01 3.96080E+01 0.00000E+00
 -1       627 2.11500E+01 3.96080E+01 0.00000E+00
 -1       628 2.41500E+01 3.96080E+01 0.00000E+00
 -1       629 2.71500E+01 3.96080E+01 0.00000E+00
 -1       630 3.01500E+01 3.96080E+01 0.00000E+00
 -1       631 3.31500E+01 3.96080E+01 0.00000E+00
 -1       632 3.61500E+01 3.96080E+01 0.00000E+00
 -1       633 3.91500E+01 3.96080E+01 0.00000E+00
 -1       634 4.21500E+01 3.96080E+01 0.00000E+00
 -1       635 4.51500E+01 3.96080E+01 0.00000E+00
 -1       636 4.81500E+01 3.96080E+01 0.00000E+00
 -1       637 5.11500E+01 3.96080E+01 0.00000E+00
 -1       638 5.41500E+01 3.96080E+01 0.00000E+00
 -1       639 5.71500E+01 3.96080E+01 0.00000E+00
 -1       640 6.01500E+01 3.96080E+01 0.00000E+00
 -1       641 6.31500E+01 3.96080E+01 0.00000E+00
 -1       642 6.61500E+01 3.96080E+01 0.00000E+00
 -1       643 6.91500E+01 3.96080E+01 0.00000E+00
 -1       644 7.21500E+01 3.96080E+01 0.00000E+00
 -1       645 7.51500E+01 3.96080E+01 0.00000E+00
 -1       646 7.81500E+01 3.96080E+01 0.00000E+00
 -1       647 8.11500E+01 3.96080E+01 0.00000E+00
 -1       648 8.41500E+01 3.96080E+01 0.00000E+00
 -1       649 8.71500E+01 3.96080E+01 0.00000E+00
 -1       650 9.01500E+01 3.96080E+01 0.00000E+00
 -1       651 9.31500E+01 3.96080E+01 0.00000E+00
 -1       652 9.61500E+01 3.96080E+01 0.00000E+00
 -1       653 9.91500E+01 3.96080E+01 0.00000E+00
 -1       654 1.02150E+02 3.96080E+01 0.00000E+00
 -1       655 1.05150E+02 3.96080E+01 0.00000E+00
 -1       656 1.08150E+02 3.96080E+01 0.00000E+00
 -1       657 1.11150E+02 3.96080E+01 0.00000E+00
 -1       658 1.14150E+02 3.96080E+01 0.00000E+00
 -1       659 1.17150E+02 3.96080E+01 0.00000E+00
 -1       660 1.20150E+02 3.96080E+01 0.00000E+00
 -1       661 1.23150E+02 3.96080E+01 0.00000E+00
 -1       662 1.26150E+02 3.96080E+01 0.00000E+00
 -1       663 1.29150E+02 3.96080E+01 0.00000E+00
 -1       664 1.32150E+02 3.96080E+01 0.00000E+00
 -1       665 1.35150E+02 3.96080E+01 0.00000E+00
 -1       666 1.38150E+02 3.96080E+01 0.00000E+00
 -1       667 2.35350E+01 9.20225E+00 0.00000E+00
 -1       668 1.15639E+02 3.48847E+01 0.00000E+00
 -1       669 2.05350E+01 9.20225E+00 0.00000E+00
 -1       670 2.95350E+01 9.20225E+00 0.00000E+00
 -1       671 3.25350E+01 9.20225E+00 0.00000E+00
 -1       672 3.55350E+01 9.20225E+00 0.00000E+00
 -1       673 3.85350E+01 9.20225E+00 0.00000E+00
 -1       674 4.15350E+01 9.20225E+00 0.00000E+00
 -1       675 4.45350E+01 9.20225E+00 0.00000E+00
 -1       676 4.75350E+01 9.20225E+00 0.00000E+00
 -1       677 5.05350E+01 9.20225E+00 0.00000E+00
 -1       678 5.35350E+01 9.20225E+00 0.00000E+00
 -1       679 5.65350E+01 9.20225E+00 0.00000E+00
 -1       680 5.95350E+01 9.20225E+00 0.00000E+00
 -1       681 6.25350E+01 9.20225E+00 0.00000E+00
 -1       682 6.55350E+01 9.20225E+00 0.00000E+00
 -1       683 6.85350E+01 9.20225E+00 0.00000E+00
 -1       684 7.15350E+01 9.20225E+00 0.00000E+00
 -1       685 7.45350E+01 9.20225E+00 0.00000E+00
 -1       686 7.75350E+01 9.20225E+00 0.00000E+00
 -1       687 8.05350E+01 9.20225E+00 0.00000E+00
 -1       688 8.35350E+01 9.20225E+00 0.00000E+00
 -1       689 8.65350E+01 9.20225E+00 0.00000E+00
 -1       690 8.95350E+01 9.20225E+00 0.00000E+00
 -1       691 9.25350E+01 9.20225E+00 0.00000E+00
 -1       692 9.55350E+01 9.20225E+00 0.00000E+00
 -1       693 9.85350E+01 9.20225E+00 0.00000E+00
 -1       694 1.01535E+02 9.20225E+00 0.00000E+00
 -1       695 1.04535E+02 9.20225E+00 0.00000E+00
 -1       696 1.07535E+02 9.20225E+00 0.00000E+00
 -1       697 1.10535E+02 9.20225E+00 0.00000E+00
 -1       698 1.25535E+02 9.20225E+00 0.00000E+00
 -1       699 1.28535E+02 9.20225E+00 0.00000E+00
 -1       700 1.31535E+02 9.20225E+00 0.00000E+00
 -1       701 1.34535E+02 9.20225E+00 0.00000E+00
 -1       702 1.37535E+02 9.20225E+00 0.00000E+00
 -1       703 1.39870E+02 9.76363E+00 0.00000E+00
 -1       704 1.39608E+02 2.35500E+01 0.00000E+00
 -1       705 1.40178E+02 3.96665E+01 0.00000E+00
 -1       706 1.39608E+02 1.76500E+01 0.00000E+00
 -1       707 1.39608E+02 2.65000E+01 0.00000E+00
 -1       708 1.39608E+02 2.06000E+01 0.00000E+00
 -1       709 1.30416E+02 2.26331E+01 0.00000E+00
 -1       710 1.39608E+02 2.94000E+01 0.00000E+00
 -1       711 1.39608E+02 3.23500E+01 0.00000E+00
 -1       712 1.39608E+02 3.53000E+01 0.00000E+00
 -1       713 1.05648E+02 2.71698E+01 0.00000E+00
 -1       714 1.28643E+02 1.69590E+01 0.00000E+00
 -1       715 9.78035E+00 3.93914E+01 0.00000E+00
 -1       716 1.22931E+02 9.33658E+00 0.00000E+00
 -1       717 1.05732E+02 1.63851E+01 0.00000E+00
 -1       718 1.75350E+01 9.20225E+00 0.00000E+00
 -1       719 1.09615E+02 1.12257E+01 0.00000E+00
 -1       720 2.65350E+01 9.20225E+00 0.00000E+00
 -1       721 1.26435E+02 1.26746E+01 0.00000E+00
 -1       722 1.24652E+01 3.94997E+01 0.00000E+00
 -1       723 1.45350E+01 9.20225E+00 0.00000E+00
 -1       724 1.21628E+02 3.55477E+01 0.00000E+00
 -1       725 1.06779E+02 2.95837E+01 0.00000E+00
 -1       726 1.03920E+01 1.76125E+01 0.00000E+00
 -1       727 1.03920E+01 3.23250E+01 0.00000E+00
 -1       728 1.07451E+02 1.36108E+01 0.00000E+00
 -1       729 1.12684E+02 9.93809E+00 0.00000E+00
 -1       730 1.08180E+02 3.18972E+01 0.00000E+00
 -1       731 1.04587E+02 2.10554E+01 0.00000E+00
 -1       732 1.27539E+02 1.48168E+01 0.00000E+00
 -1       733 1.05176E+02 1.87047E+01 0.00000E+00
 -1       734 1.10146E+02 3.35060E+01 0.00000E+00
 -1       735 1.18159E+02 3.55521E+01 0.00000E+00
 -1       736 1.23507E+02 3.45083E+01 0.00000E+00
 -1       737 1.03920E+01 2.64500E+01 0.00000E+00
 -1       738 1.02907E+02 2.25759E+01 0.00000E+00
 -1       739 1.24683E+02 1.10056E+01 0.00000E+00
 -1       740 1.25526E+02 3.46220E+01 0.00000E+00
 -1       741 1.31062E+02 2.41307E+01 0.00000E+00
 -1       742 1.13798E+02 3.56105E+01 0.00000E+00
 -1       743 1.39608E+02 1.47250E+01 0.00000E+00
 -1       744 1.05278E+02 1.40855E+01 0.00000E+00
 -1       745 1.31237E+02 2.10408E+01 0.00000E+00
 -1       746 1.39739E+02 1.22443E+01 0.00000E+00
 -1       747 1.03603E+02 2.61945E+01 0.00000E+00
 -1       748 1.30305E+02 1.79308E+01 0.00000E+00
 -1       749 1.03920E+01 3.52625E+01 0.00000E+00
 -1       750 1.03920E+01 2.93875E+01 0.00000E+00
 -1       751 1.29253E+02 2.96299E+01 0.00000E+00
 -1       752 1.29885E+02 2.69741E+01 0.00000E+00
 -1       753 1.38879E+02 3.74540E+01 0.00000E+00
 -1       754 1.29900E+01 1.32000E+01 0.00000E+00
 -1       755 1.96500E+01 3.70100E+01 0.00000E+00
 -1       756 2.26500E+01 3.70100E+01 0.00000E+00
 -1       757 2.56500E+01 3.70100E+01 0.00000E+00
 -1       758 2.86500E+01 3.70100E+01 0.00000E+00
 -1       759 3.16500E+01 3.70100E+01 0.00000E+00
 -1       760 3.46500E+01 3.70100E+01 0.00000E+00
 -1       761 3.76500E+01 3.70100E+01 0.00000E+00
 -1       762 4.06500E+01 3.70100E+01 0.00000E+00
 -1       763 4.36500E+01 3.70100E+01 0.00000E+00
 -1       764 4.66500E+01 3.70100E+01 0.00000E+00
 -1       765 4.96500E+01 3.70100E+01 0.00000E+00
 -1       766 5.26500E+01 3.70100E+01 0.00000E+00
 -1       767 5.56500E+01 3.70100E+01 0.00000E+00
 -1       768 5.86500E+01 3.70100E+01 0.00000E+00
 -1       769 6.16500E+01 3.70100E+01 0.00000E+00
 -1       770 6.46500E+01 3.70100E+01 0.00000E+00
 -1       771 6.76500E+01 3.70100E+01 0.00000E+00
 -1       772 7.06500E+01 3.70100E+01 0.00000E+00
 -1       773 7.36500E+01 3.70100E+01 0.00000E+00
 -1       774 7.66500E+01 3.70100E+01 0.00000E+00
 -1       775 7.96500E+01 3.70100E+01 0.00000E+00
 -1       776 8.26500E+01 3.70100E+01 0.00000E+00
 -1       777 8.56500E+01 3.70100E+01 0.00000E+00
 -1       778 8.86500E+01 3.70100E+01 0.00000E+00
 -1       779 9.16500E+01 3.70100E+01 0.00000E+00
 -1       780 9.46500E+01 3.70100E+01 0.00000E+00
 -1       781 9.76500E+01 3.70100E+01 0.00000E+00
 -1       782 1.00650E+02 3.70100E+01 0.00000E+00
 -1       783 1.03650E+02 3.70100E+01 0.00000E+00
 -1       784 1.06650E+02 3.70100E+01 0.00000E+00
 -1       785 1.09650E+02 3.70100E+01 0.00000E+00
 -1       786 1.18650E+02 3.70550E+01 0.00000E+00
 -1       787 1.30650E+02 3.70100E+01 0.00000E+00
 -1       788 1.33650E+02 3.70100E+01 0.00000E+00
 -1       789 1.36264E+02 3.72320E+01 0.00000E+00
 -1       790 3.40350E+01 1.18003E+01 0.00000E+00
 -1       791 3.10350E+01 1.18003E+01 0.00000E+00
 -1       792 4.00350E+01 1.18003E+01 0.00000E+00
 -1       793 4.30350E+01 1.18003E+01 0.00000E+00
 -1       794 4.60350E+01 1.18003E+01 0.00000E+00
 -1       795 4.90350E+01 1.18003E+01 0.00000E+00
 -1       796 5.20350E+01 1.18003E+01 0.00000E+00
 -1       797 5.50350E+01 1.18003E+01 0.00000E+00
 -1       798 5.80350E+01 1.18003E+01 0.00000E+00
 -1       799 6.10350E+01 1.18003E+01 0.00000E+00
 -1       800 6.40350E+01 1.18003E+01 0.00000E+00
 -1       801 6.70350E+01 1.18003E+01 0.00000E+00
 -1       802 7.00350E+01 1.18003E+01 0.00000E+00
 -1       803 7.30350E+01 1.18003E+01 0.00000E+00
 -1       804 7.60350E+01 1.18003E+01 0.00000E+00
 -1       805 7.90350E+01 1.18003E+01 0.00000E+00
 -1       806 8.20350E+01 1.18003E+01 0.00000E+00
 -1       807 8.50350E+01 1.18003E+01 0.00000E+00
 -1       808 8.80350E+01 1.18003E+01 0.00000E+00
 -1       809 9.10350E+01 1.18003E+01 0.00000E+00
 -1       810 9.40350E+01 1.18003E+01 0.00000E+00
 -1       811 9.70350E+01 1.18003E+01 0.00000E+00
 -1       812 1.00035E+02 1.18003E+01 0.00000E+00
 -1       813 1.03035E+02 1.18003E+01 0.00000E+00
 -1       814 1.36035E+02 1.18003E+01 0.00000E+00
 -1       815 1.37887E+02 1.20223E+01 0.00000E+00
 -1       816 1.37010E+02 2.50250E+01 0.00000E+00
 -1       817 1.37010E+02 3.38250E+01 0.00000E+00
 -1       818 1.05439E+02 3.19756E+01 0.00000E+00
 -1       819 1.37010E+02 2.79250E+01 0.00000E+00
 -1       820 1.20177E+02 3.61447E+01 0.00000E+00
 -1       821 1.37625E+01 1.12011E+01 0.00000E+00
 -1       822 1.37010E+02 3.08750E+01 0.00000E+00
 -1       823 1.33035E+02 1.18003E+01 0.00000E+00
 -1       824 1.30035E+02 1.18003E+01 0.00000E+00
 -1       825 1.90350E+01 1.18003E+01 0.00000E+00
 -1       826 3.70350E+01 1.18003E+01 0.00000E+00
 -1       827 2.20350E+01 1.18003E+01 0.00000E+00
 -1       828 1.66500E+01 3.70100E+01 0.00000E+00
 -1       829 1.04206E+02 2.93178E+01 0.00000E+00
 -1       830 1.28105E+02 3.30306E+01 0.00000E+00
 -1       831 1.11265E+02 3.57433E+01 0.00000E+00
 -1       832 1.03460E+02 1.70674E+01 0.00000E+00
 -1       833 1.16318E+02 3.62779E+01 0.00000E+00
 -1       834 1.07758E+02 3.44181E+01 0.00000E+00
 -1       835 1.29900E+01 2.20250E+01 0.00000E+00
 -1       836 1.02871E+02 1.94181E+01 0.00000E+00
 -1       837 1.29900E+01 2.49750E+01 0.00000E+00
 -1       838 1.02249E+02 2.44877E+01 0.00000E+00
 -1       839 1.31883E+02 2.25384E+01 0.00000E+00
 -1       840 1.63988E+01 1.15007E+01 0.00000E+00
 -1       841 1.37010E+02 1.61875E+01 0.00000E+00
 -1       842 1.27650E+02 3.70100E+01 0.00000E+00
 -1       843 2.80350E+01 1.18003E+01 0.00000E+00
 -1       844 1.03007E+02 1.47678E+01 0.00000E+00
 -1       845 1.32100E+02 1.91855E+01 0.00000E+00
 -1       846 1.27035E+02 1.18003E+01 0.00000E+00
 -1       847 1.37010E+02 1.91375E+01 0.00000E+00
 -1       848 1.29900E+01 1.61375E+01 0.00000E+00
 -1       849 1.37010E+02 2.20812E+01 0.00000E+00
 -1       850 1.30424E+02 1.58195E+01 0.00000E+00
 -1       851 1.29900E+01 3.37938E+01 0.00000E+00
 -1       852 1.29900E+01 1.90875E+01 0.00000E+00
 -1       853 1.39652E+01 3.69017E+01 0.00000E+00
 -1       854 1.23641E+02 3.69687E+01 0.00000E+00
 -1       855 1.29475E+02 3.22175E+01 0.00000E+00
 -1       856 2.50350E+01 1.18003E+01 0.00000E+00
 -1       857 1.31845E+02 2.59959E+01 0.00000E+00
 -1       858 1.29900E+01 3.08563E+01 0.00000E+00
 -1       859 1.36637E+02 3.55285E+01 0.00000E+00
 -1       860 2.11500E+01 3.44120E+01 0.00000E+00
 -1       861 2.41500E+01 3.44120E+01 0.00000E+00
 -1       862 2.71500E+01 3.44120E+01 0.00000E+00
 -1       863 3.01500E+01 3.44120E+01 0.00000E+00
 -1       864 3.31500E+01 3.44120E+01 0.00000E+00
 -1       865 3.61500E+01 3.44120E+01 0.00000E+00
 -1       866 3.91500E+01 3.44120E+01 0.00000E+00
 -1       867 4.21500E+01 3.44120E+01 0.00000E+00
 -1       868 4.51500E+01 3.44120E+01 0.00000E+00
 -1       869 4.81500E+01 3.44120E+01 0.00000E+00
 -1       870 5.11500E+01 3.44120E+01 0.00000E+00
 -1       871 5.41500E+01 3.44120E+01 0.00000E+00
 -1       872 5.71500E+01 3.44120E+01 0.00000E+00
 -1       873 6.01500E+01 3.44120E+01 0.00000E+00
 -1       874 6.31500E+01 3.44120E+01 0.00000E+00
 -1       875 6.61500E+01 3.44120E+01 0.00000E+00
 -1       876 6.91500E+01 3.44120E+01 0.00000E+00
 -1       877 7.21500E+01 3.44120E+01 0.00000E+00
 -1       878 7.51500E+01 3.44120E+01 0.00000E+00
 -1       879 7.81500E+01 3.44120E+01 0.00000E+00
 -1       880 8.11500E+01 3.44120E+01 0.00000E+00
 -1       881 8.41500E+01 3.44120E+01 0.00000E+00
 -1       882 8.71500E+01 3.44120E+01 0.00000E+00
 -1       883 9.01500E+01 3.44120E+01 0.00000E+00
 -1       884 9.31500E+01 3.44120E+01 0.00000E+00
 -1       885 9.61500E+01 3.44120E+01 0.00000E+00
 -1       886 9.91500E+01 3.44120E+01 0.00000E+00
 -1       887 1.02150E+02 3.44120E+01 0.00000E+00
 -1       888 2.05350E+01 1.43982E+01 0.00000E+00
 -1       889 3.25350E+01 1.43982E+01 0.00000E+00
 -1       890 4.45350E+01 1.43982E+01 0.00000E+00
 -1       891 4.15350E+01 1.43982E+01 0.00000E+00
 -1       892 5.05350E+01 1.43982E+01 0.00000E+00
 -1       893 5.35350E+01 1.43982E+01 0.00000E+00
 -1       894 5.65350E+01 1.43982E+01 0.00000E+00
 -1       895 5.95350E+01 1.43982E+01 0.00000E+00
 -1       896 6.25350E+01 1.43982E+01 0.00000E+00
 -1       897 6.55350E+01 1.43982E+01 0.00000E+00
 -1       898 6.85350E+01 1.43982E+01 0.00000E+00
 -1       899 7.15350E+01 1.43982E+01 0.00000E+00
 -1       900 7.45350E+01 1.43982E+01 0.00000E+00
 -1       901 7.75350E+01 1.43982E+01 0.00000E+00
 -1       902 8.05350E+01 1.43982E+01 0.00000E+00
 -1       903 8.35350E+01 1.43982E+01 0.00000E+00
 -1       904 8.65350E+01 1.43982E+01 0.00000E+00
 -1       905 8.95350E+01 1.43982E+01 0.00000E+00
 -1       906 9.25350E+01 1.43982E+01 0.00000E+00
 -1       907 9.55350E+01 1.43982E+01 0.00000E+00
 -1       908 9.85350E+01 1.43982E+01 0.00000E+00
 -1       909 1.37449E+02 1.41049E+01 0.00000E+00
 -1       910 1.04869E+02 3.48394E+01 0.00000E+00
 -1       911 1.34625E+02 2.64750E+01 0.00000E+00
 -1       912 1.01727E+02 2.81764E+01 0.00000E+00
 -1       913 4.75350E+01 1.43982E+01 0.00000E+00
 -1       914 1.32150E+02 3.44120E+01 0.00000E+00
 -1       915 1.02658E+02 3.16506E+01 0.00000E+00
 -1       916 1.81500E+01 3.44120E+01 0.00000E+00
 -1       917 1.32219E+02 1.70742E+01 0.00000E+00
 -1       918 1.29900E+01 2.79188E+01 0.00000E+00
 -1       919 1.00503E+02 2.10242E+01 0.00000E+00
 -1       920 1.31727E+02 2.88151E+01 0.00000E+00
 -1       921 1.01014E+02 1.77034E+01 0.00000E+00
 -1       922 1.34127E+02 1.44372E+01 0.00000E+00
 -1       923 1.00372E+02 2.64695E+01 0.00000E+00
 -1       924 1.32746E+02 2.06831E+01 0.00000E+00
 -1       925 1.78988E+01 1.40987E+01 0.00000E+00
 -1       926 1.55700E+01 3.41029E+01 0.00000E+00
 -1       927 1.31948E+02 3.14027E+01 0.00000E+00
 -1       928 3.55350E+01 1.43982E+01 0.00000E+00
 -1       929 2.35350E+01 1.43982E+01 0.00000E+00
 -1       930 2.95350E+01 1.43982E+01 0.00000E+00
 -1       931 1.34394E+02 3.49702E+01 0.00000E+00
 -1       932 3.85350E+01 1.43982E+01 0.00000E+00
 -1       933 1.34457E+02 1.76625E+01 0.00000E+00
 -1       934 1.55880E+01 1.46687E+01 0.00000E+00
 -1       935 1.34625E+02 2.35313E+01 0.00000E+00
 -1       936 1.34625E+02 2.94250E+01 0.00000E+00
 -1       937 1.55880E+01 2.05562E+01 0.00000E+00
 -1       938 1.55880E+01 2.35063E+01 0.00000E+00
 -1       939 9.98454E+01 2.29359E+01 0.00000E+00
 -1       940 1.32665E+02 2.44036E+01 0.00000E+00
 -1       941 1.55700E+01 3.11654E+01 0.00000E+00
 -1       942 1.34580E+02 3.26435E+01 0.00000E+00
 -1       943 2.26500E+01 3.18140E+01 0.00000E+00
 -1       944 2.56500E+01 3.18140E+01 0.00000E+00
 -1       945 2.86500E+01 3.18140E+01 0.00000E+00
 -1       946 3.16500E+01 3.18140E+01 0.00000E+00
 -1       947 3.46500E+01 3.18140E+01 0.00000E+00
 -1       948 3.76500E+01 3.18140E+01 0.00000E+00
 -1       949 4.06500E+01 3.18140E+01 0.00000E+00
 -1       950 4.36500E+01 3.18140E+01 0.00000E+00
 -1       951 4.66500E+01 3.18140E+01 0.00000E+00
 -1       952 4.96500E+01 3.18140E+01 0.00000E+00
 -1       953 5.26500E+01 3.18140E+01 0.00000E+00
 -1       954 5.56500E+01 3.18140E+01 0.00000E+00
 -1       955 5.86500E+01 3.18140E+01 0.00000E+00
 -1       956 6.16500E+01 3.18140E+01 0.00000E+00
 -1       957 6.46500E+01 3.18140E+01 0.00000E+00
 -1       958 6.76500E+01 3.18140E+01 0.00000E+00
 -1       959 7.06500E+01 3.18140E+01 0.00000E+00
 -1       960 7.36500E+01 3.18140E+01 0.00000E+00
 -1       961 7.66500E+01 3.18140E+01 0.00000E+00
 -1       962 7.96500E+01 3.18140E+01 0.00000E+00
 -1       963 8.26500E+01 3.18140E+01 0.00000E+00
 -1       964 8.56500E+01 3.18140E+01 0.00000E+00
 -1       965 8.86500E+01 3.18140E+01 0.00000E+00
 -1       966 9.16500E+01 3.18140E+01 0.00000E+00
 -1       967 9.46500E+01 3.18140E+01 0.00000E+00
 -1       968 9.76500E+01 3.18140E+01 0.00000E+00
 -1       969 5.80350E+01 1.69963E+01 0.00000E+00
 -1       970 4.30350E+01 1.69963E+01 0.00000E+00
 -1       971 5.50350E+01 1.69963E+01 0.00000E+00
 -1       972 5.20350E+01 1.69963E+01 0.00000E+00
 -1       973 6.10350E+01 1.69963E+01 0.00000E+00
 -1       974 6.40350E+01 1.69963E+01 0.00000E+00
 -1       975 6.70350E+01 1.69963E+01 0.00000E+00
 -1       976 7.00350E+01 1.69963E+01 0.00000E+00
 -1       977 7.30350E+01 1.69963E+01 0.00000E+00
 -1       978 7.60350E+01 1.69963E+01 0.00000E+00
 -1       979 7.90350E+01 1.69963E+01 0.00000E+00
 -1       980 8.20350E+01 1.69963E+01 0.00000E+00
 -1       981 8.50350E+01 1.69963E+01 0.00000E+00
 -1       982 8.80350E+01 1.69963E+01 0.00000E+00
 -1       983 9.10350E+01 1.69963E+01 0.00000E+00
 -1       984 9.40350E+01 1.69963E+01 0.00000E+00
 -1       985 9.70350E+01 1.69963E+01 0.00000E+00
 -1       986 1.96500E+01 3.18140E+01 0.00000E+00
 -1       987 1.76100E+01 3.14897E+01 0.00000E+00
 -1       988 1.55700E+01 2.82279E+01 0.00000E+00
 -1       989 1.00438E+02 3.12942E+01 0.00000E+00
 -1       990 2.65350E+01 1.43982E+01 0.00000E+00
 -1       991 1.34541E+02 2.05969E+01 0.00000E+00
 -1       992 1.55880E+01 1.76125E+01 0.00000E+00
 -1       993 1.55790E+01 2.58671E+01 0.00000E+00
 -1       994 4.60350E+01 1.69963E+01 0.00000E+00
 -1       995 3.10350E+01 1.69963E+01 0.00000E+00
 -1       996 4.90350E+01 1.69963E+01 0.00000E+00
 -1       997 1.89235E+01 1.68299E+01 0.00000E+00
 -1       998 1.81860E+01 1.90844E+01 0.00000E+00
 -1       999 9.80773E+01 2.12583E+01 0.00000E+00
 -1      1000 9.90111E+01 2.91418E+01 0.00000E+00
 -1      1001 2.19235E+01 1.68299E+01 0.00000E+00
 -1      1002 1.81860E+01 2.20344E+01 0.00000E+00
 -1      1003 3.40350E+01 1.69963E+01 0.00000E+00
 -1      1004 4.00350E+01 1.69963E+01 0.00000E+00
 -1      1005 2.41500E+01 2.92160E+01 0.00000E+00
 -1      1006 2.71500E+01 2.92160E+01 0.00000E+00
 -1      1007 3.01500E+01 2.92160E+01 0.00000E+00
 -1      1008 3.31500E+01 2.92160E+01 0.00000E+00
 -1      1009 3.61500E+01 2.92160E+01 0.00000E+00
 -1      1010 3.91500E+01 2.92160E+01 0.00000E+00
 -1      1011 4.21500E+01 2.92160E+01 0.00000E+00
 -1      1012 4.51500E+01 2.92160E+01 0.00000E+00
 -1      1013 4.81500E+01 2.92160E+01 0.00000E+00
 -1      1014 5.11500E+01 2.92160E+01 0.00000E+00
 -1      1015 5.41500E+01 2.92160E+01 0.00000E+00
 -1      1016 5.71500E+01 2.92160E+01 0.00000E+00
 -1      1017 6.01500E+01 2.92160E+01 0.00000E+00
 -1      1018 6.31500E+01 2.92160E+01 0.00000E+00
 -1      1019 6.61500E+01 2.92160E+01 0.00000E+00
 -1      1020 6.91500E+01 2.92160E+01 0.00000E+00
 -1      1021 7.21500E+01 2.92160E+01 0.00000E+00
 -1      1022 7.51500E+01 2.92160E+01 0.00000E+00
 -1      1023 7.81500E+01 2.92160E+01 0.00000E+00
 -1      1024 8.11500E+01 2.92160E+01 0.00000E+00
 -1      1025 8.41500E+01 2.92160E+01 0.00000E+00
 -1      1026 8.71500E+01 2.92160E+01 0.00000E+00
 -1      1027 9.01500E+01 2.92160E+01 0.00000E+00
 -1      1028 9.31500E+01 2.92160E+01 0.00000E+00
 -1      1029 9.60806E+01 2.91789E+01 0.00000E+00
 -1      1030 6.25350E+01 1.95942E+01 0.00000E+00
 -1      1031 9.73195E+01 2.38276E+01 0.00000E+00
 -1      1032 5.65350E+01 1.95942E+01 0.00000E+00
 -1      1033 5.35350E+01 1.95942E+01 0.00000E+00
 -1      1034 6.55350E+01 1.95942E+01 0.00000E+00
 -1      1035 6.85350E+01 1.95942E+01 0.00000E+00
 -1      1036 7.15350E+01 1.95942E+01 0.00000E+00
 -1      1037 7.45350E+01 1.95942E+01 0.00000E+00
 -1      1038 7.75350E+01 1.95942E+01 0.00000E+00
 -1      1039 8.05350E+01 1.95942E+01 0.00000E+00
 -1      1040 8.35350E+01 1.95942E+01 0.00000E+00
 -1      1041 8.65350E+01 1.95942E+01 0.00000E+00
 -1      1042 8.95350E+01 1.95942E+01 0.00000E+00
 -1      1043 9.25350E+01 1.95942E+01 0.00000E+00
 -1      1044 9.55350E+01 1.95942E+01 0.00000E+00
 -1      1045 2.49235E+01 1.68299E+01 0.00000E+00
 -1      1046 2.11500E+01 2.92160E+01 0.00000E+00
 -1      1047 3.70350E+01 1.69963E+01 0.00000E+00
 -1      1048 2.80350E+01 1.69963E+01 0.00000E+00
 -1      1049 5.95350E+01 1.95942E+01 0.00000E+00
 -1      1050 2.11860E+01 1.90844E+01 0.00000E+00
 -1      1051 1.76100E+01 2.85522E+01 0.00000E+00
 -1      1052 5.05350E+01 1.95942E+01 0.00000E+00
 -1      1053 9.40350E+01 2.21472E+01 0.00000E+00
 -1      1054 4.75350E+01 1.95942E+01 0.00000E+00
 -1      1055 1.81770E+01 2.43952E+01 0.00000E+00
 -1      1056 3.25350E+01 1.95942E+01 0.00000E+00
 -1      1057 2.95350E+01 1.95942E+01 0.00000E+00
 -1      1058 1.93800E+01 2.88841E+01 0.00000E+00
 -1      1059 4.15350E+01 1.95942E+01 0.00000E+00
 -1      1060 9.67000E+01 2.65032E+01 0.00000E+00
 -1      1061 1.78935E+01 2.64737E+01 0.00000E+00
 -1      1062 4.45350E+01 1.95942E+01 0.00000E+00
 -1      1063 2.86500E+01 2.66180E+01 0.00000E+00
 -1      1064 3.16500E+01 2.66180E+01 0.00000E+00
 -1      1065 3.46500E+01 2.66180E+01 0.00000E+00
 -1      1066 3.76500E+01 2.66180E+01 0.00000E+00
 -1      1067 4.06500E+01 2.66180E+01 0.00000E+00
 -1      1068 4.36500E+01 2.66180E+01 0.00000E+00
 -1      1069 4.66500E+01 2.66180E+01 0.00000E+00
 -1      1070 4.96500E+01 2.66180E+01 0.00000E+00
 -1      1071 5.26500E+01 2.66180E+01 0.00000E+00
 -1      1072 5.56500E+01 2.66180E+01 0.00000E+00
 -1      1073 5.86500E+01 2.66180E+01 0.00000E+00
 -1      1074 6.16500E+01 2.66180E+01 0.00000E+00
 -1      1075 6.46500E+01 2.66180E+01 0.00000E+00
 -1      1076 6.76500E+01 2.66180E+01 0.00000E+00
 -1      1077 7.06500E+01 2.66180E+01 0.00000E+00
 -1      1078 7.36500E+01 2.66180E+01 0.00000E+00
 -1      1079 7.66500E+01 2.66180E+01 0.00000E+00
 -1      1080 7.96500E+01 2.66180E+01 0.00000E+00
 -1      1081 8.26500E+01 2.66180E+01 0.00000E+00
 -1      1082 8.56500E+01 2.66180E+01 0.00000E+00
 -1      1083 8.86500E+01 2.66180E+01 0.00000E+00
 -1      1084 9.16500E+01 2.66180E+01 0.00000E+00
 -1      1085 5.80350E+01 2.21922E+01 0.00000E+00
 -1      1086 6.40350E+01 2.21922E+01 0.00000E+00
 -1      1087 7.00350E+01 2.21922E+01 0.00000E+00
 -1      1088 7.30350E+01 2.21922E+01 0.00000E+00
 -1      1089 7.60350E+01 2.21922E+01 0.00000E+00
 -1      1090 7.90350E+01 2.21922E+01 0.00000E+00
 -1      1091 8.20350E+01 2.21922E+01 0.00000E+00
 -1      1092 8.50350E+01 2.21922E+01 0.00000E+00
 -1      1093 8.80350E+01 2.21922E+01 0.00000E+00
 -1      1094 9.10350E+01 2.21922E+01 0.00000E+00
 -1      1095 2.15076E+01 2.24118E+01 0.00000E+00
 -1      1096 2.41860E+01 1.90844E+01 0.00000E+00
 -1      1097 9.38675E+01 2.43477E+01 0.00000E+00
 -1      1098 3.55350E+01 1.95942E+01 0.00000E+00
 -1      1099 6.70350E+01 2.21922E+01 0.00000E+00
 -1      1100 2.26500E+01 2.66180E+01 0.00000E+00
 -1      1101 2.68605E+01 1.93393E+01 0.00000E+00
 -1      1102 6.10350E+01 2.21922E+01 0.00000E+00
 -1      1103 3.85350E+01 1.95942E+01 0.00000E+00
 -1      1104 4.30350E+01 2.21922E+01 0.00000E+00
 -1      1105 2.56500E+01 2.66180E+01 0.00000E+00
 -1      1106 5.50350E+01 2.21922E+01 0.00000E+00
 -1      1107 5.20350E+01 2.21922E+01 0.00000E+00
 -1      1108 1.96635E+01 2.68056E+01 0.00000E+00
 -1      1109 3.10350E+01 2.21922E+01 0.00000E+00
 -1      1110 4.90350E+01 2.21922E+01 0.00000E+00
 -1      1111 4.00350E+01 2.21922E+01 0.00000E+00
 -1      1112 4.60350E+01 2.21922E+01 0.00000E+00
 -1      1113 3.40350E+01 2.21922E+01 0.00000E+00
 -1      1114 9.46499E+01 2.66180E+01 0.00000E+00
 -1      1115 3.91500E+01 2.40200E+01 0.00000E+00
 -1      1116 2.83605E+01 2.19373E+01 0.00000E+00
 -1      1117 2.48706E+01 2.23772E+01 0.00000E+00
 -1      1118 3.70350E+01 2.21922E+01 0.00000E+00
 -1      1119 3.61500E+01 2.40200E+01 0.00000E+00
 -1      1120 0.00000E+00 4.85250E+01 0.00000E+00
 -1      1121 0.00000E+00 4.55750E+01 0.00000E+00
 -1      1122 0.00000E+00 4.26250E+01 0.00000E+00
 -1      1123 0.00000E+00 3.96750E+01 0.00000E+00
 -1      1124 0.00000E+00 3.67250E+01 0.00000E+00
 -1      1125 0.00000E+00 3.38000E+01 0.00000E+00
 -1      1126 0.00000E+00 3.08750E+01 0.00000E+00
 -1      1127 0.00000E+00 2.79250E+01 0.00000E+00
 -1      1128 0.00000E+00 2.49750E+01 0.00000E+00
 -1      1129 0.00000E+00 2.20250E+01 0.00000E+00
 -1      1130 0.00000E+00 1.90750E+01 0.00000E+00
 -1      1131 0.00000E+00 1.61500E+01 0.00000E+00
 -1      1132 0.00000E+00 1.32250E+01 0.00000E+00
 -1      1133 0.00000E+00 1.02750E+01 0.00000E+00
 -1      1134 0.00000E+00 7.32500E+00 0.00000E+00
 -1      1135 0.00000E+00 4.37500E+00 0.00000E+00
 -1      1136 0.00000E+00 1.45000E+00 0.00000E+00
 -1      1137 1.57500E+00 5.00000E+01 0.00000E+00
 -1      1138 4.65000E+00 5.00000E+01 0.00000E+00
 -1      1139 7.65000E+00 5.00000E+01 0.00000E+00
 -1      1140 1.06500E+01 5.00000E+01 0.00000E+00
 -1      1141 1.36500E+01 5.00000E+01 0.00000E+00
 -1      1142 1.66500E+01 5.00000E+01 0.00000E+00
 -1      1143 1.96500E+01 5.00000E+01 0.00000E+00
 -1      1144 2.26500E+01 5.00000E+01 0.00000E+00
 -1      1145 2.56500E+01 5.00000E+01 0.00000E+00
 -1      1146 2.86500E+01 5.00000E+01 0.00000E+00
 -1      1147 3.16500E+01 5.00000E+01 0.00000E+00
 -1      1148 3.46500E+01 5.00000E+01 0.00000E+00
 -1      1149 3.76500E+01 5.00000E+01 0.00000E+00
 -1      1150 4.06500E+01 5.00000E+01 0.00000E+00
 -1      1151 4.36500E+01 5.00000E+01 0.00000E+00
 -1      1152 4.66500E+01 5.00000E+01 0.00000E+00
 -1      1153 4.96500E+01 5.00000E+01 0.00000E+00
 -1      1154 5.26500E+01 5.00000E+01 0.00000E+00
 -1      1155 5.56500E+01 5.00000E+01 0.00000E+00
 -1      1156 5.86500E+01 5.00000E+01 0.00000E+00
 -1      1157 6.16500E+01 5.00000E+01 0.00000E+00
 -1      1158 6.46500E+01 5.00000E+01 0.00000E+00
 -1      1159 6.76500E+01 5.00000E+01 0.00000E+00
 -1      1160 7.06500E+01 5.00000E+01 0.00000E+00
 -1      1161 7.36500E+01 5.00000E+01 0.00000E+00
 -1      1162 7.66500E+01 5.00000E+01 0.00000E+00
 -1      1163 7.96500E+01 5.00000E+01 0.00000E+00
 -1      1164 8.26500E+01 5.00000E+01 0.00000E+00
 -1      1165 8.56500E+01 5.00000E+01 0.00000E+00
 -1      1166 8.86500E+01 5.00000E+01 0.00000E+00
 -1      1167 9.16500E+01 5.00000E+01 0.00000E+00
 -1      1168 9.46500E+01 5.00000E+01 0.00000E+00
 -1      1169 9.76500E+01 5.00000E+01 0.00000E+00
 -1      1170 1.00650E+02 5.00000E+01 0.00000E+00
 -1      1171 1.03650E+02 5.00000E+01 0.00000E+00
 -1      1172 1.06650E+02 5.00000E+01 0.00000E+00
 -1      1173 1.09650E+02 5.00000E+01 0.00000E+00
 -1      1174 1.12650E+02 5.00000E+01 0.00000E+00
 -1      1175 1.15650E+02 5.00000E+01 0.00000E+00
 -1      1176 1.18650E+02 5.00000E+01 0.00000E+00
 -1      1177 1.21650E+02 5.00000E+01 0.00000E+00
 -1      1178 1.24650E+02 5.00000E+01 0.00000E+00
 -1      1179 1.27650E+02 5.00000E+01 0.00000E+00
 -1      1180 1.30650E+02 5.00000E+01 0.00000E+00
 -1      1181 1.33650E+02 5.00000E+01 0.00000E+00
 -1      1182 1.36650E+02 5.00000E+01 0.00000E+00
 -1      1183 1.39650E+02 5.00000E+01 0.00000E+00
 -1      1184 1.42650E+02 5.00000E+01 0.00000E+00
 -1      1185 1.45650E+02 5.00000E+01 0.00000E+00
 -1      1186 1.48575E+02 5.00000E+01 0.00000E+00
 -1      1187 1.57500E+00 0.00000E+00 0.00000E+00
 -1      1188 4.65000E+00 0.00000E+00 0.00000E+00
 -1      1189 7.65000E+00 0.00000E+00 0.00000E+00
 -1      1190 1.06500E+01 0.00000E+00 0.00000E+00
 -1      1191 1.36500E+01 0.00000E+00 0.00000E+00
 -1      1192 1.66500E+01 0.00000E+00 0.00000E+00
 -1      1193 1.96500E+01 0.00000E+00 0.00000E+00
 -1      1194 2.26500E+01 0.00000E+00 0.00000E+00
 -1      1195 2.56500E+01 0.00000E+00 0.00000E+00
 -1      1196 2.86500E+01 0.00000E+00 0.00000E+00
 -1      1197 3.16500E+01 0.00000E+00 0.00000E+00
 -1      1198 3.46500E+01 0.00000E+00 0.00000E+00
 -1      1199 3.76500E+01 0.00000E+00 0.00000E+00
 -1      1200 4.06500E+01 0.00000E+00 0.00000E+00
 -1      1201 4.36500E+01 0.00000E+00 0.00000E+00
 -1      1202 4.66500E+01 0.00000E+00 0.00000E+00
 -1      1203 4.96500E+01 0.00000E+00 0.00000E+00
 -1      1204 5.26500E+01 0.00000E+00 0.00000E+00
 -1      1205 5.56500E+01 0.00000E+00 0.00000E+00
 -1      1206 5.86500E+01 0.00000E+00 0.00000E+00
 -1      1207 6.16500E+01 0.00000E+00 0.00000E+00
 -1      1208 6.46500E+01 0.00000E+00 0.00000E+00
 -1      1209 6.76500E+01 0.00000E+00 0.00000E+00
 -1      1210 7.06500E+01 0.00000E+00 0.00000E+00
 -1      1211 7.36500E+01 0.00000E+00 0.00000E+00
 -1      1212 7.66500E+01 0.00000E+00 0.00000E+00
 -1      1213 7.96500E+01 0.00000E+00 0.00000E+00
 -1      1214 8.26500E+01 0.00000E+00 0.00000E+00
 -1      1215 8.56500E+01 0.00000E+00 0.00000E+00
 -1      1216 8.86500E+01 0.00000E+00 0.00000E+00
 -1      1217 9.16500E+01 0.00000E+00 0.00000E+00
 -1      1218 9.46500E+01 0.00000E+00 0.00000E+00
 -1      1219 9.76500E+01 0.00000E+00 0.00000E+00
 -1      1220 1.00650E+02 0.00000E+00 0.00000E+00
 -1      1221 1.03650E+02 0.00000E+00 0.00000E+00
 -1      1222 1.06650E+02 0.00000E+00 0.00000E+00
 -1      1223 1.09650E+02 0.00000E+00 0.00000E+00
 -1      1224 1.12650E+02 0.00000E+00 0.00000E+00
 -1      1225 1.15650E+02 0.00000E+00 0.00000E+00
 -1      1226 1.18650E+02 0.00000E+00 0.00000E+00
 -1      1227 1.21650E+02 0.00000E+00 0.00000E+00
 -1      1228 1.24650E+02 0.00000E+00 0.00000E+00
 -1      1229 1.27650E+02 0.00000E+00 0.00000E+00
 -1      1230 1.30650E+02 0.00000E+00 0.00000E+00
 -1      1231 1.33650E+02 0.00000E+00 0.00000E+00
 -1      1232 1.36650E+02 0.00000E+00 0.00000E+00
 -1      1233 1.39650E+02 0.00000E+00 0.00000E+00
 -1      1234 1.42650E+02 0.00000E+00 0.00000E+00
 -1      1235 1.45650E+02 0.00000E+00 0.00000E+00
 -1      1236 1.48575E+02 0.00000E+00 0.00000E+00
 -1      1237 1.50000E+02 1.47500E+00 0.00000E+00
 -1      1238 1.50000E+02 4.42500E+00 0.00000E+00
 -1      1239 1.50000E+02 7.37500E+00 0.00000E+00
 -1      1240 1.50000E+02 1.03250E+01 0.00000E+00
 -1      1241 1.50000E+02 1.32750E+01 0.00000E+00
 -1      1242 1.50000E+02 1.62000E+01 0.00000E+00
 -1      1243 1.50000E+02 1.91250E+01 0.00000E+00
 -1      1244 1.50000E+02 2.20750E+01 0.00000E+00
 -1      1245 1.50000E+02 2.50250E+01 0.00000E+00
 -1      1246 1.50000E+02 2.79750E+01 0.00000E+00
 -1      1247 1.50000E+02 3.09250E+01 0.00000E+00
 -1      1248 1.50000E+02 3.38500E+01 0.00000E+00
 -1      1249 1.50000E+02 3.67750E+01 0.00000E+00
 -1      1250 1.50000E+02 3.97250E+01 0.00000E+00
 -1      1251 1.50000E+02 4.26750E+01 0.00000E+00
 -1      1252 1.50000E+02 4.56250E+01 0.00000E+00
 -1      1253 1.50000E+02 4.85500E+01 0.00000E+00
 -1      1254 1.24357E+02 2.17400E+01 0.00000E+00
 -1      1255 1.24009E+02 2.01971E+01 0.00000E+00
 -1      1256 1.23346E+02 1.88084E+01 0.00000E+00
 -1      1257 1.22469E+02 1.76731E+01 0.00000E+00
 -1      1258 1.21367E+02 1.67319E+01 0.00000E+00
 -1      1259 1.20049E+02 1.60195E+01 0.00000E+00
 -1      1260 1.18578E+02 1.55983E+01 0.00000E+00
 -1      1261 1.16985E+02 1.55102E+01 0.00000E+00
 -1      1262 1.15445E+02 1.57759E+01 0.00000E+00
 -1      1263 1.14070E+02 1.63395E+01 0.00000E+00
 -1      1264 1.12775E+02 1.72419E+01 0.00000E+00
 -1      1265 1.11716E+02 1.84087E+01 0.00000E+00
 -1      1266 1.10978E+02 1.97067E+01 0.00000E+00
 -1      1267 1.10530E+02 2.11410E+01 0.00000E+00
 -1      1268 1.10400E+02 2.26773E+01 0.00000E+00
 -1      1269 1.10616E+02 2.42319E+01 0.00000E+00
 -1      1270 1.11170E+02 2.56949E+01 0.00000E+00
 -1      1271 1.12000E+02 2.69546E+01 0.00000E+00
 -1      1272 1.13033E+02 2.79704E+01 0.00000E+00
 -1      1273 1.14257E+02 2.87539E+01 0.00000E+00
 -1      1274 1.15645E+02 2.92750E+01 0.00000E+00
 -1      1275 1.17159E+02 2.94939E+01 0.00000E+00
 -1      1276 1.18675E+02 2.93806E+01 0.00000E+00
 -1      1277 1.20075E+02 2.89659E+01 0.00000E+00
 -1      1278 1.21365E+02 2.82650E+01 0.00000E+00
 -1      1279 1.22508E+02 2.72813E+01 0.00000E+00
 -1      1280 1.23400E+02 2.61002E+01 0.00000E+00
 -1      1281 1.24018E+02 2.47717E+01 0.00000E+00
 -1      1282 1.24354E+02 2.32775E+01 0.00000E+00
 -1      1283 1.57500E+00 4.85250E+01 0.00000E+00
 -1      1284 1.29900E+00 4.48375E+01 0.00000E+00
 -1      1285 1.29900E+00 4.63125E+01 0.00000E+00
 -1      1286 1.29900E+00 4.18875E+01 0.00000E+00
 -1      1287 1.29900E+00 4.33625E+01 0.00000E+00
 -1      1288 2.59800E+00 4.41000E+01 0.00000E+00
 -1      1289 1.29900E+00 3.89375E+01 0.00000E+00
 -1      1290 1.29900E+00 4.04125E+01 0.00000E+00
 -1      1291 2.59800E+00 4.11500E+01 0.00000E+00
 -1      1292 1.29900E+00 3.59875E+01 0.00000E+00
 -1      1293 1.29900E+00 3.74625E+01 0.00000E+00
 -1      1294 2.59800E+00 3.82000E+01 0.00000E+00
 -1      1295 1.29900E+00 3.30875E+01 0.00000E+00
 -1      1296 1.29900E+00 3.45375E+01 0.00000E+00
 -1      1297 2.59800E+00 3.52750E+01 0.00000E+00
 -1      1298 1.29900E+00 3.01375E+01 0.00000E+00
 -1      1299 1.29900E+00 3.16125E+01 0.00000E+00
 -1      1300 2.59800E+00 3.23500E+01 0.00000E+00
 -1      1301 1.29900E+00 2.71875E+01 0.00000E+00
 -1      1302 1.29900E+00 2.86625E+01 0.00000E+00
 -1      1303 2.59800E+00 2.94000E+01 0.00000E+00
 -1      1304 1.29900E+00 2.42375E+01 0.00000E+00
 -1      1305 1.29900E+00 2.57125E+01 0.00000E+00
 -1      1306 2.59800E+00 2.64500E+01 0.00000E+00
 -1      1307 1.29900E+00 2.12875E+01 0.00000E+00
 -1      1308 1.29900E+00 2.27625E+01 0.00000E+00
 -1      1309 2.59800E+00 2.35000E+01 0.00000E+00
 -1      1310 1.29900E+00 1.83375E+01 0.00000E+00
 -1      1311 1.29900E+00 1.98125E+01 0.00000E+00
 -1      1312 2.59800E+00 2.05500E+01 0.00000E+00
 -1      1313 1.29900E+00 1.54375E+01 0.00000E+00
 -1      1314 1.29900E+00 1.68875E+01 0.00000E+00
 -1      1315 2.59800E+00 1.76250E+01 0.00000E+00
 -1      1316 1.29900E+00 1.24875E+01 0.00000E+00
 -1      1317 1.29900E+00 1.39625E+01 0.00000E+00
 -1      1318 2.59800E+00 1.47000E+01 0.00000E+00
 -1      1319 1.29900E+00 9.53750E+00 0.00000E+00
 -1      1320 1.29900E+00 1.10125E+01 0.00000E+00
 -1      1321 2.59800E+00 1.17500E+01 0.00000E+00
 -1      1322 1.29900E+00 6.58750E+00 0.00000E+00
 -1      1323 1.29900E+00 8.06250E+00 0.00000E+00
 -1      1324 2.59800E+00 8.80000E+00 0.00000E+00
 -1      1325 1.29900E+00 3.63750E+00 0.00000E+00
 -1      1326 1.29900E+00 5.11250E+00 0.00000E+00
 -1      1327 2.59800E+00 5.85000E+00 0.00000E+00
 -1      1328 1.43700E+00 1.09375E+00 0.00000E+00
 -1      1329 1.43700E+00 2.54375E+00 0.00000E+00
 -1      1330 2.73600E+00 3.28125E+00 0.00000E+00
 -1      1331 3.01200E+00 1.09375E+00 0.00000E+00
 -1      1332 3.90000E+00 4.87010E+01 0.00000E+00
 -1      1333 5.40000E+00 4.87010E+01 0.00000E+00
 -1      1334 6.90000E+00 4.87010E+01 0.00000E+00
 -1      1335 8.40000E+00 4.87010E+01 0.00000E+00
 -1      1336 6.15000E+00 4.74020E+01 0.00000E+00
 -1      1337 9.90000E+00 4.87010E+01 0.00000E+00
 -1      1338 1.14000E+01 4.87010E+01 0.00000E+00
 -1      1339 9.15000E+00 4.74020E+01 0.00000E+00
 -1      1340 1.29000E+01 4.87010E+01 0.00000E+00
 -1      1341 1.44000E+01 4.87010E+01 0.00000E+00
 -1      1342 1.21500E+01 4.74020E+01 0.00000E+00
 -1      1343 1.59000E+01 4.87010E+01 0.00000E+00
 -1      1344 1.74000E+01 4.87010E+01 0.00000E+00
 -1      1345 1.51500E+01 4.74020E+01 0.00000E+00
 -1      1346 1.89000E+01 4.87010E+01 0.00000E+00
 -1      1347 2.04000E+01 4.87010E+01 0.00000E+00
 -1      1348 1.81500E+01 4.74020E+01 0.00000E+00
 -1      1349 2.19000E+01 4.87010E+01 0.00000E+00
 -1      1350 2.34000E+01 4.87010E+01 0.00000E+00
 -1      1351 2.11500E+01 4.74020E+01 0.00000E+00
 -1      1352 2.49000E+01 4.87010E+01 0.00000E+00
 -1      1353 2.64000E+01 4.87010E+01 0.00000E+00
 -1      1354 2.41500E+01 4.74020E+01 0.00000E+00
 -1      1355 2.79000E+01 4.87010E+01 0.00000E+00
 -1      1356 2.94000E+01 4.87010E+01 0.00000E+00
 -1      1357 2.71500E+01 4.74020E+01 0.00000E+00
 -1      1358 3.09000E+01 4.87010E+01 0.00000E+00
 -1      1359 3.24000E+01 4.87010E+01 0.00000E+00
 -1      1360 3.01500E+01 4.74020E+01 0.00000E+00
 -1      1361 3.39000E+01 4.87010E+01 0.00000E+00
 -1      1362 3.54000E+01 4.87010E+01 0.00000E+00
 -1      1363 3.31500E+01 4.74020E+01 0.00000E+00
 -1      1364 3.69000E+01 4.87010E+01 0.00000E+00
 -1      1365 3.84000E+01 4.87010E+01 0.00000E+00
 -1      1366 3.61500E+01 4.74020E+01 0.00000E+00
 -1      1367 3.99000E+01 4.87010E+01 0.00000E+00
 -1      1368 4.14000E+01 4.87010E+01 0.00000E+00
 -1      1369 3.91500E+01 4.74020E+01 0.00000E+00
 -1      1370 4.29000E+01 4.87010E+01 0.00000E+00
 -1      1371 4.44000E+01 4.87010E+01 0.00000E+00
 -1      1372 4.21500E+01 4.74020E+01 0.00000E+00
 -1      1373 4.59000E+01 4.87010E+01 0.00000E+00
 -1      1374 4.74000E+01 4.87010E+01 0.00000E+00
 -1      1375 4.51500E+01 4.74020E+01 0.00000E+00
 -1      1376 4.89000E+01 4.87010E+01 0.00000E+00
 -1      1377 5.04000E+01 4.87010E+01 0.00000E+00
 -1      1378 4.81500E+01 4.74020E+01 0.00000E+00
 -1      1379 5.19000E+01 4.87010E+01 0.00000E+00
 -1      1380 5.34000E+01 4.87010E+01 0.00000E+00
 -1      1381 5.11500E+01 4.74020E+01 0.00000E+00
 -1      1382 5.49000E+01 4.87010E+01 0.00000E+00
 -1      1383 5.64000E+01 4.87010E+01 0.00000E+00
 -1      1384 5.41500E+01 4.74020E+01 0.00000E+00
 -1      1385 5.79000E+01 4.87010E+01 0.00000E+00
 -1      1386 5.94000E+01 4.87010E+01 0.00000E+00
 -1      1387 5.71500E+01 4.74020E+01 0.00000E+00
 -1      1388 6.09000E+01 4.87010E+01 0.00000E+00
 -1      1389 6.24000E+01 4.87010E+01 0.00000E+00
 -1      1390 6.01500E+01 4.74020E+01 0.00000E+00
 -1      1391 6.39000E+01 4.87010E+01 0.00000E+00
 -1      1392 6.54000E+01 4.87010E+01 0.00000E+00
 -1      1393 6.31500E+01 4.74020E+01 0.00000E+00
 -1      1394 6.69000E+01 4.87010E+01 0.00000E+00
 -1      1395 6.84000E+01 4.87010E+01 0.00000E+00
 -1      1396 6.61500E+01 4.74020E+01 0.00000E+00
 -1      1397 6.99000E+01 4.87010E+01 0.00000E+00
 -1      1398 7.14000E+01 4.87010E+01 0.00000E+00
 -1      1399 6.91500E+01 4.74020E+01 0.00000E+00
 -1      1400 7.29000E+01 4.87010E+01 0.00000E+00
 -1      1401 7.44000E+01 4.87010E+01 0.00000E+00
 -1      1402 7.21500E+01 4.74020E+01 0.00000E+00
 -1      1403 7.59000E+01 4.87010E+01 0.00000E+00
 -1      1404 7.74000E+01 4.87010E+01 0.00000E+00
 -1      1405 7.51500E+01 4.74020E+01 0.00000E+00
 -1      1406 7.89000E+01 4.87010E+01 0.00000E+00
 -1      1407 8.04000E+01 4.87010E+01 0.00000E+00
 -1      1408 7.81500E+01 4.74020E+01 0.00000E+00
 -1      1409 8.19000E+01 4.87010E+01 0.00000E+00
 -1      1410 8.34000E+01 4.87010E+01 0.00000E+00
 -1      1411 8.11500E+01 4.74020E+01 0.00000E+00
 -1      1412 8.49000E+01 4.87010E+01 0.00000E+00
 -1      1413 8.64000E+01 4.87010E+01 0.00000E+00
 -1      1414 8.41500E+01 4.74020E+01 0.00000E+00
 -1      1415 8.79000E+01 4.87010E+01 0.00000E+00
 -1      1416 8.94000E+01 4.87010E+01 0.00000E+00
 -1      1417 8.71500E+01 4.74020E+01 0.00000E+00
 -1      1418 9.09000E+01 4.87010E+01 0.00000E+00
 -1      1419 9.24000E+01 4.87010E+01 0.00000E+00
 -1      1420 9.01500E+01 4.74020E+01 0.00000E+00
 -1      1421 9.39000E+01 4.87010E+01 0.00000E+00
 -1      1422 9.54000E+01 4.87010E+01 0.00000E+00
 -1      1423 9.31500E+01 4.74020E+01 0.00000E+00
 -1      1424 9.69000E+01 4.87010E+01 0.00000E+00
 -1      1425 9.84000E+01 4.87010E+01 0.00000E+00
 -1      1426 9.61500E+01 4.74020E+01 0.00000E+00
 -1      1427 9.99000E+01 4.87010E+01 0.00000E+00
 -1      1428 1.01400E+02 4.87010E+01 0.00000E+00
 -1      1429 9.91500E+01 4.74020E+01 0.00000E+00
 -1      1430 1.02900E+02 4.87010E+01 0.00000E+00
 -1      1431 1.04400E+02 4.87010E+01 0.00000E+00
 -1      1432 1.02150E+02 4.74020E+01 0.00000E+00
 -1      1433 1.05900E+02 4.87010E+01 0.00000E+00
 -1      1434 1.07400E+02 4.87010E+01 0.00000E+00
 -1      1435 1.05150E+02 4.74020E+01 0.00000E+00
 -1      1436 1.08900E+02 4.87010E+01 0.00000E+00
 -1      1437 1.10400E+02 4.87010E+01 0.00000E+00
 -1      1438 1.08150E+02 4.74020E+01 0.00000E+00
 -1      1439 1.11900E+02 4.87010E+01 0.00000E+00
 -1      1440 1.13400E+02 4.87010E+01 0.00000E+00
 -1      1441 1.11150E+02 4.74020E+01 0.00000E+00
 -1      1442 1.14900E+02 4.87010E+01 0.00000E+00
 -1      1443 1.16400E+02 4.87010E+01 0.00000E+00
 -1      1444 1.14150E+02 4.74020E+01 0.00000E+00
 -1      1445 1.17900E+02 4.87010E+01 0.00000E+00
 -1      1446 1.19400E+02 4.87010E+01 0.00000E+00
 -1      1447 1.17150E+02 4.74020E+01 0.00000E+00
 -1      1448 1.20900E+02 4.87010E+01 0.00000E+00
 -1      1449 1.22400E+02 4.87010E+01 0.00000E+00
 -1      1450 1.20150E+02 4.74020E+01 0.00000E+00
 -1      1451 1.23900E+02 4.87010E+01 0.00000E+00
 -1      1452 1.25400E+02 4.87010E+01 0.00000E+00
 -1      1453 1.23150E+02 4.74020E+01 0.00000E+00
 -1      1454 1.26900E+02 4.87010E+01 0.00000E+00
 -1      1455 1.28400E+02 4.87010E+01 0.00000E+00
 -1      1456 1.26150E+02 4.74020E+01 0.00000E+00
 -1      1457 1.29900E+02 4.87010E+01 0.00000E+00
 -1      1458 1.31400E+02 4.87010E+01 0.00000E+00
 -1      1459 1.29150E+02 4.74020E+01 0.00000E+00
 -1      1460 1.32900E+02 4.87010E+01 0.00000E+00
 -1      1461 1.34400E+02 4.87010E+01 0.00000E+00
 -1      1462 1.32150E+02 4.74020E+01 0.00000E+00
 -1      1463 1.35900E+02 4.87010E+01 0.00000E+00
 -1      1464 1.37400E+02 4.87010E+01 0.00000E+00
 -1      1465 1.35150E+02 4.74020E+01 0.00000E+00
 -1      1466 1.38900E+02 4.87010E+01 0.00000E+00
 -1      1467 1.40400E+02 4.87010E+01 0.00000E+00
 -1      1468 1.38150E+02 4.74020E+01 0.00000E+00
 -1      1469 1.41900E+02 4.87010E+01 0.00000E+00
 -1      1470 1.43400E+02 4.87010E+01 0.00000E+00
 -1      1471 1.41150E+02 4.74020E+01 0.00000E+00
 -1      1472 1.44900E+02 4.87010E+01 0.00000E+00
 -1      1473 1.46400E+02 4.87010E+01 0.00000E+00
 -1      1474 1.44150E+02 4.74020E+01 0.00000E+00
 -1      1475 1.48575E+02 4.85500E+01 0.00000E+00
 -1      1476 1.47825E+02 4.72510E+01 0.00000E+00
 -1      1477 6.01200E+00 1.09375E+00 0.00000E+00
 -1      1478 4.51200E+00 1.09375E+00 0.00000E+00
 -1      1479 4.37400E+00 2.18750E+00 0.00000E+00
 -1      1480 9.01200E+00 1.09375E+00 0.00000E+00
 -1      1481 7.51200E+00 1.09375E+00 0.00000E+00
 -1      1482 7.37400E+00 2.18750E+00 0.00000E+00
 -1      1483 1.20120E+01 1.09375E+00 0.00000E+00
 -1      1484 1.05120E+01 1.09375E+00 0.00000E+00
 -1      1485 1.03740E+01 2.18750E+00 0.00000E+00
 -1      1486 1.50120E+01 1.09375E+00 0.00000E+00
 -1      1487 1.35120E+01 1.09375E+00 0.00000E+00
 -1      1488 1.33740E+01 2.18750E+00 0.00000E+00
 -1      1489 1.80120E+01 1.09375E+00 0.00000E+00
 -1      1490 1.65120E+01 1.09375E+00 0.00000E+00
 -1      1491 1.63740E+01 2.18750E+00 0.00000E+00
 -1      1492 2.10120E+01 1.09375E+00 0.00000E+00
 -1      1493 1.95120E+01 1.09375E+00 0.00000E+00
 -1      1494 1.93740E+01 2.18750E+00 0.00000E+00
 -1      1495 2.40120E+01 1.09375E+00 0.00000E+00
 -1      1496 2.25120E+01 1.09375E+00 0.00000E+00
 -1      1497 2.23740E+01 2.18750E+00 0.00000E+00
 -1      1498 2.70120E+01 1.09375E+00 0.00000E+00
 -1      1499 2.55120E+01 1.09375E+00 0.00000E+00
 -1      1500 2.53740E+01 2.18750E+00 0.00000E+00
 -1      1501 3.00120E+01 1.09375E+00 0.00000E+00
 -1      1502 2.85120E+01 1.09375E+00 0.00000E+00
 -1      1503 2.83740E+01 2.18750E+00 0.00000E+00
 -1      1504 3.30120E+01 1.09375E+00 0.00000E+00
 -1      1505 3.15120E+01 1.09375E+00 0.00000E+00
 -1      1506 3.13740E+01 2.18750E+00 0.00000E+00
 -1      1507 3.60120E+01 1.09375E+00 0.00000E+00
 -1      1508 3.45120E+01 1.09375E+00 0.00000E+00
 -1      1509 3.43740E+01 2.18750E+00 0.00000E+00
 -1      1510 3.90120E+01 1.09375E+00 0.00000E+00
 -1      1511 3.75120E+01 1.09375E+00 0.00000E+00
 -1      1512 3.73740E+01 2.18750E+00 0.00000E+00
 -1      1513 4.20120E+01 1.09375E+00 0.00000E+00
 -1      1514 4.05120E+01 1.09375E+00 0.00000E+00
 -1      1515 4.03740E+01 2.18750E+00 0.00000E+00
 -1      1516 4.50120E+01 1.09375E+00 0.00000E+00
 -1      1517 4.35120E+01 1.09375E+00 0.00000E+00
 -1      1518 4.33740E+01 2.18750E+00 0.00000E+00
 -1      1519 4.80120E+01 1.09375E+00 0.00000E+00
 -1      1520 4.65120E+01 1.09375E+00 0.00000E+00
 -1      1521 4.63740E+01 2.18750E+00 0.00000E+00
 -1      1522 5.10120E+01 1.09375E+00 0.00000E+00
 -1      1523 4.95120E+01 1.09375E+00 0.00000E+00
 -1      1524 4.93740E+01 2.18750E+00 0.00000E+00
 -1      1525 5.40120E+01 1.09375E+00 0.00000E+00
 -1      1526 5.25120E+01 1.09375E+00 0.00000E+00
 -1      1527 5.23740E+01 2.18750E+00 0.00000E+00
 -1      1528 5.70120E+01 1.09375E+00 0.00000E+00
 -1      1529 5.55120E+01 1.09375E+00 0.00000E+00
 -1      1530 5.53740E+01 2.18750E+00 0.00000E+00
 -1      1531 6.00120E+01 1.09375E+00 0.00000E+00
 -1      1532 5.85120E+01 1.09375E+00 0.00000E+00
 -1      1533 5.83740E+01 2.18750E+00 0.00000E+00
 -1      1534 6.30120E+01 1.09375E+00 0.00000E+00
 -1      1535 6.15120E+01 1.09375E+00 0.00000E+00
 -1      1536 6.13740E+01 2.18750E+00 0.00000E+00
 -1      1537 6.60120E+01 1.09375E+00 0.00000E+00
 -1      1538 6.45120E+01 1.09375E+00 0.00000E+00
 -1      1539 6.43740E+01 2.18750E+00 0.00000E+00
 -1      1540 6.90120E+01 1.09375E+00 0.00000E+00
 -1      1541 6.75120E+01 1.09375E+00 0.00000E+00
 -1      1542 6.73740E+01 2.18750E+00 0.00000E+00
 -1      1543 7.20120E+01 1.09375E+00 0.00000E+00
 -1      1544 7.05120E+01 1.09375E+00 0.00000E+00
 -1      1545 7.03740E+01 2.18750E+00 0.00000E+00
 -1      1546 7.50120E+01 1.09375E+00 0.00000E+00
 -1      1547 7.35120E+01 1.09375E+00 0.00000E+00
 -1      1548 7.33740E+01 2.18750E+00 0.00000E+00
 -1      1549 7.80120E+01 1.09375E+00 0.00000E+00
 -1      1550 7.65120E+01 1.09375E+00 0.00000E+00
 -1      1551 7.63740E+01 2.18750E+00 0.00000E+00
 -1      1552 8.10120E+01 1.09375E+00 0.00000E+00
 -1      1553 7.95120E+01 1.09375E+00 0.00000E+00
 -1      1554 7.93740E+01 2.18750E+00 0.00000E+00
 -1      1555 8.40120E+01 1.09375E+00 0.00000E+00
 -1      1556 8.25120E+01 1.09375E+00 0.00000E+00
 -1      1557 8.23740E+01 2.18750E+00 0.00000E+00
 -1      1558 8.70120E+01 1.09375E+00 0.00000E+00
 -1      1559 8.55120E+01 1.09375E+00 0.00000E+00
 -1      1560 8.53740E+01 2.18750E+00 0.00000E+00
 -1      1561 9.00120E+01 1.09375E+00 0.00000E+00
 -1      1562 8.85120E+01 1.09375E+00 0.00000E+00
 -1      1563 8.83740E+01 2.18750E+00 0.00000E+00
 -1      1564 9.30120E+01 1.09375E+00 0.00000E+00
 -1      1565 9.15120E+01 1.09375E+00 0.00000E+00
 -1      1566 9.13740E+01 2.18750E+00 0.00000E+00
 -1      1567 9.60120E+01 1.09375E+00 0.00000E+00
 -1      1568 9.45120E+01 1.09375E+00 0.00000E+00
 -1      1569 9.43740E+01 2.18750E+00 0.00000E+00
 -1      1570 9.90120E+01 1.09375E+00 0.00000E+00
 -1      1571 9.75120E+01 1.09375E+00 0.00000E+00
 -1      1572 9.73740E+01 2.18750E+00 0.00000E+00
 -1      1573 1.02012E+02 1.09375E+00 0.00000E+00
 -1      1574 1.00512E+02 1.09375E+00 0.00000E+00
 -1      1575 1.00374E+02 2.18750E+00 0.00000E+00
 -1      1576 1.05012E+02 1.09375E+00 0.00000E+00
 -1      1577 1.03512E+02 1.09375E+00 0.00000E+00
 -1      1578 1.03374E+02 2.18750E+00 0.00000E+00
 -1      1579 1.08012E+02 1.09375E+00 0.00000E+00
 -1      1580 1.06512E+02 1.09375E+00 0.00000E+00
 -1      1581 1.06374E+02 2.18750E+00 0.00000E+00
 -1      1582 1.11012E+02 1.09375E+00 0.00000E+00
 -1      1583 1.09512E+02 1.09375E+00 0.00000E+00
 -1      1584 1.09374E+02 2.18750E+00 0.00000E+00
 -1      1585 1.14012E+02 1.09375E+00 0.00000E+00
 -1      1586 1.12512E+02 1.09375E+00 0.00000E+00
 -1      1587 1.12374E+02 2.18750E+00 0.00000E+00
 -1      1588 1.17012E+02 1.09375E+00 0.00000E+00
 -1      1589 1.15512E+02 1.09375E+00 0.00000E+00
 -1      1590 1.15374E+02 2.18750E+00 0.00000E+00
 -1      1591 1.20012E+02 1.09375E+00 0.00000E+00
 -1      1592 1.18512E+02 1.09375E+00 0.00000E+00
 -1      1593 1.18374E+02 2.18750E+00 0.00000E+00
 -1      1594 1.23012E+02 1.09375E+00 0.00000E+00
 -1      1595 1.21512E+02 1.09375E+00 0.00000E+00
 -1      1596 1.21374E+02 2.18750E+00 0.00000E+00
 -1      1597 1.26012E+02 1.09375E+00 0.00000E+00
 -1      1598 1.24512E+02 1.09375E+00 0.00000E+00
 -1      1599 1.24374E+02 2.18750E+00 0.00000E+00
 -1      1600 1.29012E+02 1.09375E+00 0.00000E+00
 -1      1601 1.27512E+02 1.09375E+00 0.00000E+00
 -1      1602 1.27374E+02 2.18750E+00 0.00000E+00
 -1      1603 1.32012E+02 1.09375E+00 0.00000E+00
 -1      1604 1.30512E+02 1.09375E+00 0.00000E+00
 -1      1605 1.30374E+02 2.18750E+00 0.00000E+00
 -1      1606 1.35012E+02 1.09375E+00 0.00000E+00
 -1      1607 1.33512E+02 1.09375E+00 0.00000E+00
 -1      1608 1.33374E+02 2.18750E+00 0.00000E+00
 -1      1609 1.38012E+02 1.09375E+00 0.00000E+00
 -1      1610 1.36512E+02 1.09375E+00 0.00000E+00
 -1      1611 1.36374E+02 2.18750E+00 0.00000E+00
 -1      1612 1.41012E+02 1.09375E+00 0.00000E+00
 -1      1613 1.39512E+02 1.09375E+00 0.00000E+00
 -1      1614 1.39374E+02 2.18750E+00 0.00000E+00
 -1      1615 1.44012E+02 1.09375E+00 0.00000E+00
 -1      1616 1.42512E+02 1.09375E+00 0.00000E+00
 -1      1617 1.42374E+02 2.18750E+00 0.00000E+00
 -1      1618 1.47012E+02 1.09375E+00 0.00000E+00
 -1      1619 1.45512E+02 1.09375E+00 0.00000E+00
 -1      1620 1.45374E+02 2.18750E+00 0.00000E+00
 -1      1621 1.48575E+02 1.47500E+00 0.00000E+00
 -1      1622 1.48701E+02 5.16250E+00 0.00000E+00
 -1      1623 1.48701E+02 3.68750E+00 0.00000E+00
 -1      1624 1.48701E+02 8.11250E+00 0.00000E+00
 -1      1625 1.48701E+02 6.63750E+00 0.00000E+00
 -1      1626 1.47402E+02 5.90000E+00 0.00000E+00
 -1      1627 1.48701E+02 1.10625E+01 0.00000E+00
 -1      1628 1.48701E+02 9.58750E+00 0.00000E+00
 -1      1629 1.47402E+02 8.85000E+00 0.00000E+00
 -1      1630 1.48701E+02 1.40125E+01 0.00000E+00
 -1      1631 1.48701E+02 1.25375E+01 0.00000E+00
 -1      1632 1.47402E+02 1.18000E+01 0.00000E+00
 -1      1633 1.48701E+02 1.69125E+01 0.00000E+00
 -1      1634 1.48701E+02 1.54625E+01 0.00000E+00
 -1      1635 1.47402E+02 1.47250E+01 0.00000E+00
 -1      1636 1.48701E+02 1.98625E+01 0.00000E+00
 -1      1637 1.48701E+02 1.83875E+01 0.00000E+00
 -1      1638 1.47402E+02 1.76500E+01 0.00000E+00
 -1      1639 1.48701E+02 2.28125E+01 0.00000E+00
 -1      1640 1.48701E+02 2.13375E+01 0.00000E+00
 -1      1641 1.47402E+02 2.06000E+01 0.00000E+00
 -1      1642 1.48701E+02 2.57625E+01 0.00000E+00
 -1      1643 1.48701E+02 2.42875E+01 0.00000E+00
 -1      1644 1.47402E+02 2.35500E+01 0.00000E+00
 -1      1645 1.48701E+02 2.87125E+01 0.00000E+00
 -1      1646 1.48701E+02 2.72375E+01 0.00000E+00
 -1      1647 1.47402E+02 2.65000E+01 0.00000E+00
 -1      1648 1.48701E+02 3.16625E+01 0.00000E+00
 -1      1649 1.48701E+02 3.01875E+01 0.00000E+00
 -1      1650 1.47402E+02 2.94500E+01 0.00000E+00
 -1      1651 1.48701E+02 3.45625E+01 0.00000E+00
 -1      1652 1.48701E+02 3.31125E+01 0.00000E+00
 -1      1653 1.47402E+02 3.23750E+01 0.00000E+00
 -1      1654 1.48701E+02 3.75125E+01 0.00000E+00
 -1      1655 1.48701E+02 3.60375E+01 0.00000E+00
 -1      1656 1.47402E+02 3.53000E+01 0.00000E+00
 -1      1657 1.48701E+02 4.04625E+01 0.00000E+00
 -1      1658 1.48701E+02 3.89875E+01 0.00000E+00
 -1      1659 1.47402E+02 3.82500E+01 0.00000E+00
 -1      1660 1.48701E+02 4.34125E+01 0.00000E+00
 -1      1661 1.48701E+02 4.19375E+01 0.00000E+00
 -1      1662 1.47402E+02 4.12000E+01 0.00000E+00
 -1      1663 1.48263E+02 4.60692E+01 0.00000E+00
 -1      1664 1.48263E+02 4.45942E+01 0.00000E+00
 -1      1665 1.46964E+02 4.38568E+01 0.00000E+00
 -1      1666 1.46088E+02 4.62202E+01 0.00000E+00
 -1      1667 1.24877E+02 2.13020E+01 0.00000E+00
 -1      1668 1.24959E+02 2.20556E+01 0.00000E+00
 -1      1669 1.24440E+02 1.96112E+01 0.00000E+00
 -1      1670 1.24710E+02 2.03890E+01 0.00000E+00
 -1      1671 1.23642E+02 1.82044E+01 0.00000E+00
 -1      1672 1.24019E+02 1.88120E+01 0.00000E+00
 -1      1673 1.22633E+02 1.70201E+01 0.00000E+00
 -1      1674 1.23130E+02 1.75416E+01 0.00000E+00
 -1      1675 1.21388E+02 1.60571E+01 0.00000E+00
 -1      1676 1.21989E+02 1.64710E+01 0.00000E+00
 -1      1677 1.19907E+02 1.53521E+01 0.00000E+00
 -1      1678 1.20618E+02 1.56430E+01 0.00000E+00
 -1      1679 1.18306E+02 1.49362E+01 0.00000E+00
 -1      1680 1.19056E+02 1.50647E+01 0.00000E+00
 -1      1681 1.16529E+02 1.48539E+01 0.00000E+00
 -1      1682 1.17361E+02 1.48048E+01 0.00000E+00
 -1      1683 1.14937E+02 1.53319E+01 0.00000E+00
 -1      1684 1.15636E+02 1.51286E+01 0.00000E+00
 -1      1685 1.13429E+02 1.59485E+01 0.00000E+00
 -1      1686 1.14095E+02 1.55886E+01 0.00000E+00
 -1      1687 1.11987E+02 1.69686E+01 0.00000E+00
 -1      1688 1.12604E+02 1.64259E+01 0.00000E+00
 -1      1689 1.11037E+02 1.83841E+01 0.00000E+00
 -1      1690 1.11477E+02 1.77726E+01 0.00000E+00
 -1      1691 1.10311E+02 1.98198E+01 0.00000E+00
 -1      1692 1.10606E+02 1.91414E+01 0.00000E+00
 -1      1693 1.09862E+02 2.13977E+01 0.00000E+00
 -1      1694 1.10010E+02 2.06493E+01 0.00000E+00
 -1      1695 1.09806E+02 2.30821E+01 0.00000E+00
 -1      1696 1.09786E+02 2.23035E+01 0.00000E+00
 -1      1697 1.10170E+02 2.47540E+01 0.00000E+00
 -1      1698 1.09974E+02 2.39879E+01 0.00000E+00
 -1      1699 1.10771E+02 2.63346E+01 0.00000E+00
 -1      1700 1.10418E+02 2.56462E+01 0.00000E+00
 -1      1701 1.11796E+02 2.75991E+01 0.00000E+00
 -1      1702 1.11328E+02 2.70328E+01 0.00000E+00
 -1      1703 1.12957E+02 2.86385E+01 0.00000E+00
 -1      1704 1.12398E+02 2.81930E+01 0.00000E+00
 -1      1705 1.14333E+02 2.94264E+01 0.00000E+00
 -1      1706 1.13672E+02 2.90949E+01 0.00000E+00
 -1      1707 1.15863E+02 2.99166E+01 0.00000E+00
 -1      1708 1.15143E+02 2.97304E+01 0.00000E+00
 -1      1709 1.17531E+02 3.01108E+01 0.00000E+00
 -1      1710 1.16746E+02 3.00840E+01 0.00000E+00
 -1      1711 1.19139E+02 2.98718E+01 0.00000E+00
 -1      1712 1.18418E+02 3.00056E+01 0.00000E+00
 -1      1713 1.20628E+02 2.93521E+01 0.00000E+00
 -1      1714 1.19956E+02 2.96300E+01 0.00000E+00
 -1      1715 1.22016E+02 2.85563E+01 0.00000E+00
 -1      1716 1.21405E+02 2.89767E+01 0.00000E+00
 -1      1717 1.23213E+02 2.74156E+01 0.00000E+00
 -1      1718 1.22689E+02 2.79752E+01 0.00000E+00
 -1      1719 1.24072E+02 2.60876E+01 0.00000E+00
 -1      1720 1.23705E+02 2.66992E+01 0.00000E+00
 -1      1721 1.24834E+02 2.46542E+01 0.00000E+00
 -1      1722 1.24589E+02 2.53655E+01 0.00000E+00
 -1      1723 1.24998E+02 2.29575E+01 0.00000E+00
 -1      1724 1.24912E+02 2.37321E+01 0.00000E+00
 -1      1725 1.22677E+02 1.63139E+01 0.00000E+00
 -1      1726 1.23833E+02 1.75259E+01 0.00000E+00
 -1      1727 1.48437E+02 2.56875E+00 0.00000E+00
 -1      1728 1.47138E+02 3.30625E+00 0.00000E+00
 -1      1729 1.25354E+02 2.07001E+01 0.00000E+00
 -1      1730 1.24766E+02 1.89879E+01 0.00000E+00
 -1      1731 1.25560E+02 2.25151E+01 0.00000E+00
 -1      1732 1.21262E+02 1.53506E+01 0.00000E+00
 -1      1733 1.19641E+02 1.46491E+01 0.00000E+00
 -1      1734 1.17846E+02 1.42302E+01 0.00000E+00
 -1      1735 1.16010E+02 1.43735E+01 0.00000E+00
 -1      1736 1.14275E+02 1.49049E+01 0.00000E+00
 -1      1737 1.12609E+02 1.56389E+01 0.00000E+00
 -1      1738 1.11275E+02 1.69202E+01 0.00000E+00
 -1      1739 1.10334E+02 1.84815E+01 0.00000E+00
 -1      1740 1.09601E+02 2.00684E+01 0.00000E+00
 -1      1741 1.09224E+02 2.18036E+01 0.00000E+00
 -1      1742 1.09316E+02 2.36152E+01 0.00000E+00
 -1      1743 1.09733E+02 2.54133E+01 0.00000E+00
 -1      1744 1.10538E+02 2.70037E+01 0.00000E+00
 -1      1745 1.11697E+02 2.82958E+01 0.00000E+00
 -1      1746 1.13015E+02 2.93461E+01 0.00000E+00
 -1      1747 1.14541E+02 3.01064E+01 0.00000E+00
 -1      1748 1.16234E+02 3.05778E+01 0.00000E+00
 -1      1749 1.18003E+02 3.06399E+01 0.00000E+00
 -1      1750 1.19706E+02 3.02930E+01 0.00000E+00
 -1      1751 1.21301E+02 2.96758E+01 0.00000E+00
 -1      1752 1.22751E+02 2.87194E+01 0.00000E+00
 -1      1753 1.23916E+02 2.74218E+01 0.00000E+00
 -1      1754 1.24926E+02 2.59833E+01 0.00000E+00
 -1      1755 1.25521E+02 2.43391E+01 0.00000E+00
 -1      1756 2.87400E+00 4.77875E+01 0.00000E+00
 -1      1757 3.89700E+00 4.04125E+01 0.00000E+00
 -1      1758 3.89700E+00 4.18875E+01 0.00000E+00
 -1      1759 3.89700E+00 4.33625E+01 0.00000E+00
 -1      1760 3.89700E+00 4.48375E+01 0.00000E+00
 -1      1761 5.19600E+00 4.26250E+01 0.00000E+00
 -1      1762 3.89700E+00 3.45500E+01 0.00000E+00
 -1      1763 3.89700E+00 3.60000E+01 0.00000E+00
 -1      1764 3.89700E+00 3.16000E+01 0.00000E+00
 -1      1765 3.89700E+00 3.30750E+01 0.00000E+00
 -1      1766 5.19600E+00 3.38000E+01 0.00000E+00
 -1      1767 3.89700E+00 2.86500E+01 0.00000E+00
 -1      1768 3.89700E+00 3.01250E+01 0.00000E+00
 -1      1769 5.19600E+00 3.08500E+01 0.00000E+00
 -1      1770 3.89700E+00 2.57000E+01 0.00000E+00
 -1      1771 3.89700E+00 2.71750E+01 0.00000E+00
 -1      1772 5.19600E+00 2.79000E+01 0.00000E+00
 -1      1773 3.89700E+00 2.27500E+01 0.00000E+00
 -1      1774 3.89700E+00 2.42250E+01 0.00000E+00
 -1      1775 5.19600E+00 2.49500E+01 0.00000E+00
 -1      1776 3.89700E+00 1.98000E+01 0.00000E+00
 -1      1777 3.89700E+00 2.12750E+01 0.00000E+00
 -1      1778 5.19600E+00 2.20000E+01 0.00000E+00
 -1      1779 3.89700E+00 1.69000E+01 0.00000E+00
 -1      1780 3.89700E+00 1.83500E+01 0.00000E+00
 -1      1781 5.19600E+00 1.90750E+01 0.00000E+00
 -1      1782 3.89700E+00 1.39500E+01 0.00000E+00
 -1      1783 3.89700E+00 1.54250E+01 0.00000E+00
 -1      1784 5.19600E+00 1.61500E+01 0.00000E+00
 -1      1785 3.89700E+00 1.10000E+01 0.00000E+00
 -1      1786 3.89700E+00 1.24750E+01 0.00000E+00
 -1      1787 5.19600E+00 1.32000E+01 0.00000E+00
 -1      1788 3.89700E+00 8.05000E+00 0.00000E+00
 -1      1789 3.89700E+00 9.52500E+00 0.00000E+00
 -1      1790 5.19600E+00 1.02500E+01 0.00000E+00
 -1      1791 3.89700E+00 5.10000E+00 0.00000E+00
 -1      1792 3.89700E+00 6.57500E+00 0.00000E+00
 -1      1793 5.19600E+00 7.30000E+00 0.00000E+00
 -1      1794 4.20450E+00 3.09687E+00 0.00000E+00
 -1      1795 4.06650E+00 4.19063E+00 0.00000E+00
 -1      1796 5.36550E+00 4.91563E+00 0.00000E+00
 -1      1797 5.70450E+00 3.09687E+00 0.00000E+00
 -1      1798 3.62400E+00 4.64885E+01 0.00000E+00
 -1      1799 8.70450E+00 3.09687E+00 0.00000E+00
 -1      1800 7.20450E+00 3.09687E+00 0.00000E+00
 -1      1801 7.03500E+00 4.00625E+00 0.00000E+00
 -1      1802 4.92300E+00 4.57510E+01 0.00000E+00
 -1      1803 8.40000E+00 4.61030E+01 0.00000E+00
 -1      1804 9.90000E+00 4.61030E+01 0.00000E+00
 -1      1805 1.14000E+01 4.61030E+01 0.00000E+00
 -1      1806 1.29000E+01 4.61030E+01 0.00000E+00
 -1      1807 1.06500E+01 4.48040E+01 0.00000E+00
 -1      1808 1.44000E+01 4.61030E+01 0.00000E+00
 -1      1809 1.59000E+01 4.61030E+01 0.00000E+00
 -1      1810 1.36500E+01 4.48040E+01 0.00000E+00
 -1      1811 1.74000E+01 4.61030E+01 0.00000E+00
 -1      1812 1.89000E+01 4.61030E+01 0.00000E+00
 -1      1813 1.66500E+01 4.48040E+01 0.00000E+00
 -1      1814 2.04000E+01 4.61030E+01 0.00000E+00
 -1      1815 2.19000E+01 4.61030E+01 0.00000E+00
 -1      1816 1.96500E+01 4.48040E+01 0.00000E+00
 -1      1817 2.34000E+01 4.61030E+01 0.00000E+00
 -1      1818 2.49000E+01 4.61030E+01 0.00000E+00
 -1      1819 2.26500E+01 4.48040E+01 0.00000E+00
 -1      1820 2.64000E+01 4.61030E+01 0.00000E+00
 -1      1821 2.79000E+01 4.61030E+01 0.00000E+00
 -1      1822 2.56500E+01 4.48040E+01 0.00000E+00
 -1      1823 2.94000E+01 4.61030E+01 0.00000E+00
 -1      1824 3.09000E+01 4.61030E+01 0.00000E+00
 -1      1825 2.86500E+01 4.48040E+01 0.00000E+00
 -1      1826 3.24000E+01 4.61030E+01 0.00000E+00
 -1      1827 3.39000E+01 4.61030E+01 0.00000E+00
 -1      1828 3.16500E+01 4.48040E+01 0.00000E+00
 -1      1829 3.54000E+01 4.61030E+01 0.00000E+00
 -1      1830 3.69000E+01 4.61030E+01 0.00000E+00
 -1      1831 3.46500E+01 4.48040E+01 0.00000E+00
 -1      1832 3.84000E+01 4.61030E+01 0.00000E+00
 -1      1833 3.99000E+01 4.61030E+01 0.00000E+00
 -1      1834 3.76500E+01 4.48040E+01 0.00000E+00
 -1      1835 4.14000E+01 4.61030E+01 0.00000E+00
 -1      1836 4.29000E+01 4.61030E+01 0.00000E+00
 -1      1837 4.06500E+01 4.48040E+01 0.00000E+00
 -1      1838 4.44000E+01 4.61030E+01 0.00000E+00
 -1      1839 4.59000E+01 4.61030E+01 0.00000E+00
 -1      1840 4.36500E+01 4.48040E+01 0.00000E+00
 -1      1841 4.74000E+01 4.61030E+01 0.00000E+00
 -1      1842 4.89000E+01 4.61030E+01 0.00000E+00
 -1      1843 4.66500E+01 4.48040E+01 0.00000E+00
 -1      1844 5.04000E+01 4.61030E+01 0.00000E+00
 -1      1845 5.19000E+01 4.61030E+01 0.00000E+00
 -1      1846 4.96500E+01 4.48040E+01 0.00000E+00
 -1      1847 5.34000E+01 4.61030E+01 0.00000E+00
 -1      1848 5.49000E+01 4.61030E+01 0.00000E+00
 -1      1849 5.26500E+01 4.48040E+01 0.00000E+00
 -1      1850 5.64000E+01 4.61030E+01 0.00000E+00
 -1      1851 5.79000E+01 4.61030E+01 0.00000E+00
 -1      1852 5.56500E+01 4.48040E+01 0.00000E+00
 -1      1853 5.94000E+01 4.61030E+01 0.00000E+00
 -1      1854 6.09000E+01 4.61030E+01 0.00000E+00
 -1      1855 5.86500E+01 4.48040E+01 0.00000E+00
 -1      1856 6.24000E+01 4.61030E+01 0.00000E+00
 -1      1857 6.39000E+01 4.61030E+01 0.00000E+00
 -1      1858 6.16500E+01 4.48040E+01 0.00000E+00
 -1      1859 6.54000E+01 4.61030E+01 0.00000E+00
 -1      1860 6.69000E+01 4.61030E+01 0.00000E+00
 -1      1861 6.46500E+01 4.48040E+01 0.00000E+00
 -1      1862 6.84000E+01 4.61030E+01 0.00000E+00
 -1      1863 6.99000E+01 4.61030E+01 0.00000E+00
 -1      1864 6.76500E+01 4.48040E+01 0.00000E+00
 -1      1865 7.14000E+01 4.61030E+01 0.00000E+00
 -1      1866 7.29000E+01 4.61030E+01 0.00000E+00
 -1      1867 7.06500E+01 4.48040E+01 0.00000E+00
 -1      1868 7.44000E+01 4.61030E+01 0.00000E+00
 -1      1869 7.59000E+01 4.61030E+01 0.00000E+00
 -1      1870 7.36500E+01 4.48040E+01 0.00000E+00
 -1      1871 7.74000E+01 4.61030E+01 0.00000E+00
 -1      1872 7.89000E+01 4.61030E+01 0.00000E+00
 -1      1873 7.66500E+01 4.48040E+01 0.00000E+00
 -1      1874 8.04000E+01 4.61030E+01 0.00000E+00
 -1      1875 8.19000E+01 4.61030E+01 0.00000E+00
 -1      1876 7.96500E+01 4.48040E+01 0.00000E+00
 -1      1877 8.34000E+01 4.61030E+01 0.00000E+00
 -1      1878 8.49000E+01 4.61030E+01 0.00000E+00
 -1      1879 8.26500E+01 4.48040E+01 0.00000E+00
 -1      1880 8.64000E+01 4.61030E+01 0.00000E+00
 -1      1881 8.79000E+01 4.61030E+01 0.00000E+00
 -1      1882 8.56500E+01 4.48040E+01 0.00000E+00
 -1      1883 8.94000E+01 4.61030E+01 0.00000E+00
 -1      1884 9.09000E+01 4.61030E+01 0.00000E+00
 -1      1885 8.86500E+01 4.48040E+01 0.00000E+00
 -1      1886 9.24000E+01 4.61030E+01 0.00000E+00
 -1      1887 9.39000E+01 4.61030E+01 0.00000E+00
 -1      1888 9.16500E+01 4.48040E+01 0.00000E+00
 -1      1889 9.54000E+01 4.61030E+01 0.00000E+00
 -1      1890 9.69000E+01 4.61030E+01 0.00000E+00
 -1      1891 9.46500E+01 4.48040E+01 0.00000E+00
 -1      1892 9.84000E+01 4.61030E+01 0.00000E+00
 -1      1893 9.99000E+01 4.61030E+01 0.00000E+00
 -1      1894 9.76500E+01 4.48040E+01 0.00000E+00
 -1      1895 1.01400E+02 4.61030E+01 0.00000E+00
 -1      1896 1.02900E+02 4.61030E+01 0.00000E+00
 -1      1897 1.00650E+02 4.48040E+01 0.00000E+00
 -1      1898 1.04400E+02 4.61030E+01 0.00000E+00
 -1      1899 1.05900E+02 4.61030E+01 0.00000E+00
 -1      1900 1.03650E+02 4.48040E+01 0.00000E+00
 -1      1901 1.07400E+02 4.61030E+01 0.00000E+00
 -1      1902 1.08900E+02 4.61030E+01 0.00000E+00
 -1      1903 1.06650E+02 4.48040E+01 0.00000E+00
 -1      1904 1.10400E+02 4.61030E+01 0.00000E+00
 -1      1905 1.11900E+02 4.61030E+01 0.00000E+00
 -1      1906 1.09650E+02 4.48040E+01 0.00000E+00
 -1      1907 1.13400E+02 4.61030E+01 0.00000E+00
 -1      1908 1.14900E+02 4.61030E+01 0.00000E+00
 -1      1909 1.12650E+02 4.48040E+01 0.00000E+00
 -1      1910 1.16400E+02 4.61030E+01 0.00000E+00
 -1      1911 1.17900E+02 4.61030E+01 0.00000E+00
 -1      1912 1.15650E+02 4.48040E+01 0.00000E+00
 -1      1913 1.19400E+02 4.61030E+01 0.00000E+00
 -1      1914 1.20900E+02 4.61030E+01 0.00000E+00
 -1      1915 1.18650E+02 4.48040E+01 0.00000E+00
 -1      1916 1.22400E+02 4.61030E+01 0.00000E+00
 -1      1917 1.23900E+02 4.61030E+01 0.00000E+00
 -1      1918 1.21650E+02 4.48040E+01 0.00000E+00
 -1      1919 1.25400E+02 4.61030E+01 0.00000E+00
 -1      1920 1.26900E+02 4.61030E+01 0.00000E+00
 -1      1921 1.24650E+02 4.48040E+01 0.00000E+00
 -1      1922 1.28400E+02 4.61030E+01 0.00000E+00
 -1      1923 1.29900E+02 4.61030E+01 0.00000E+00
 -1      1924 1.27650E+02 4.48040E+01 0.00000E+00
 -1      1925 1.31400E+02 4.61030E+01 0.00000E+00
 -1      1926 1.32900E+02 4.61030E+01 0.00000E+00
 -1      1927 1.30650E+02 4.48040E+01 0.00000E+00
 -1      1928 1.34400E+02 4.61030E+01 0.00000E+00
 -1      1929 1.35900E+02 4.61030E+01 0.00000E+00
 -1      1930 1.33650E+02 4.48040E+01 0.00000E+00
 -1      1931 1.37400E+02 4.61030E+01 0.00000E+00
 -1      1932 1.38900E+02 4.61030E+01 0.00000E+00
 -1      1933 1.36650E+02 4.48040E+01 0.00000E+00
 -1      1934 1.40400E+02 4.61030E+01 0.00000E+00
 -1      1935 1.41900E+02 4.61030E+01 0.00000E+00
 -1      1936 1.39650E+02 4.48040E+01 0.00000E+00
 -1      1937 1.43244E+02 4.61616E+01 0.00000E+00
 -1      1938 1.44744E+02 4.61616E+01 0.00000E+00
 -1      1939 1.45182E+02 4.49799E+01 0.00000E+00
 -1      1940 1.42494E+02 4.48626E+01 0.00000E+00
 -1      1941 1.17045E+01 3.09687E+00 0.00000E+00
 -1      1942 1.02045E+01 3.09687E+00 0.00000E+00
 -1      1943 1.00350E+01 4.00625E+00 0.00000E+00
 -1      1944 1.47045E+01 3.09687E+00 0.00000E+00
 -1      1945 1.32045E+01 3.09687E+00 0.00000E+00
 -1      1946 1.30350E+01 4.00625E+00 0.00000E+00
 -1      1947 1.77045E+01 3.09687E+00 0.00000E+00
 -1      1948 1.62045E+01 3.09687E+00 0.00000E+00
 -1      1949 1.60350E+01 4.00625E+00 0.00000E+00
 -1      1950 2.07045E+01 3.09687E+00 0.00000E+00
 -1      1951 1.92045E+01 3.09687E+00 0.00000E+00
 -1      1952 1.90350E+01 4.00625E+00 0.00000E+00
 -1      1953 2.37045E+01 3.09687E+00 0.00000E+00
 -1      1954 2.22045E+01 3.09687E+00 0.00000E+00
 -1      1955 2.20350E+01 4.00625E+00 0.00000E+00
 -1      1956 2.67045E+01 3.09687E+00 0.00000E+00
 -1      1957 2.52045E+01 3.09687E+00 0.00000E+00
 -1      1958 2.50350E+01 4.00625E+00 0.00000E+00
 -1      1959 2.97045E+01 3.09687E+00 0.00000E+00
 -1      1960 2.82045E+01 3.09687E+00 0.00000E+00
 -1      1961 2.80350E+01 4.00625E+00 0.00000E+00
 -1      1962 3.27045E+01 3.09687E+00 0.00000E+00
 -1      1963 3.12045E+01 3.09687E+00 0.00000E+00
 -1      1964 3.10350E+01 4.00625E+00 0.00000E+00
 -1      1965 3.57045E+01 3.09687E+00 0.00000E+00
 -1      1966 3.42045E+01 3.09687E+00 0.00000E+00
 -1      1967 3.40350E+01 4.00625E+00 0.00000E+00
 -1      1968 3.87045E+01 3.09687E+00 0.00000E+00
 -1      1969 3.72045E+01 3.09687E+00 0.00000E+00
 -1      1970 3.70350E+01 4.00625E+00 0.00000E+00
 -1      1971 4.17045E+01 3.09687E+00 0.00000E+00
 -1      1972 4.02045E+01 3.09687E+00 0.00000E+00
 -1      1973 4.00350E+01 4.00625E+00 0.00000E+00
 -1      1974 4.47045E+01 3.09687E+00 0.00000E+00
 -1      1975 4.32045E+01 3.09687E+00 0.00000E+00
 -1      1976 4.30350E+01 4.00625E+00 0.00000E+00
 -1      1977 4.77045E+01 3.09687E+00 0.00000E+00
 -1      1978 4.62045E+01 3.09687E+00 0.00000E+00
 -1      1979 4.60350E+01 4.00625E+00 0.00000E+00
 -1      1980 5.07045E+01 3.09687E+00 0.00000E+00
 -1      1981 4.92045E+01 3.09687E+00 0.00000E+00
 -1      1982 4.90350E+01 4.00625E+00 0.00000E+00
 -1      1983 5.37045E+01 3.09687E+00 0.00000E+00
 -1      1984 5.22045E+01 3.09687E+00 0.00000E+00
 -1      1985 5.20350E+01 4.00625E+00 0.00000E+00
 -1      1986 5.67045E+01 3.09687E+00 0.00000E+00
 -1      1987 5.52045E+01 3.09687E+00 0.00000E+00
 -1      1988 5.50350E+01 4.00625E+00 0.00000E+00
 -1      1989 5.97045E+01 3.09687E+00 0.00000E+00
 -1      1990 5.82045E+01 3.09687E+00 0.00000E+00
 -1      1991 5.80350E+01 4.00625E+00 0.00000E+00
 -1      1992 6.27045E+01 3.09687E+00 0.00000E+00
 -1      1993 6.12045E+01 3.09687E+00 0.00000E+00
 -1      1994 6.10350E+01 4.00625E+00 0.00000E+00
 -1      1995 6.57045E+01 3.09687E+00 0.00000E+00
 -1      1996 6.42045E+01 3.09687E+00 0.00000E+00
 -1      1997 6.40350E+01 4.00625E+00 0.00000E+00
 -1      1998 6.87045E+01 3.09687E+00 0.00000E+00
 -1      1999 6.72045E+01 3.09687E+00 0.00000E+00
 -1      2000 6.70350E+01 4.00625E+00 0.00000E+00
 -1      2001 7.17045E+01 3.09687E+00 0.00000E+00
 -1      2002 7.02045E+01 3.09687E+00 0.00000E+00
 -1      2003 7.00350E+01 4.00625E+00 0.00000E+00
 -1      2004 7.47045E+01 3.09687E+00 0.00000E+00
 -1      2005 7.32045E+01 3.09687E+00 0.00000E+00
 -1      2006 7.30350E+01 4.00625E+00 0.00000E+00
 -1      2007 7.77045E+01 3.09687E+00 0.00000E+00
 -1      2008 7.62045E+01 3.09687E+00 0.00000E+00
 -1      2009 7.60350E+01 4.00625E+00 0.00000E+00
 -1      2010 8.07045E+01 3.09687E+00 0.00000E+00
 -1      2011 7.92045E+01 3.09687E+00 0.00000E+00
 -1      2012 7.90350E+01 4.00625E+00 0.00000E+00
 -1      2013 8.37045E+01 3.09687E+00 0.00000E+00
 -1      2014 8.22045E+01 3.09687E+00 0.00000E+00
 -1      2015 8.20350E+01 4.00625E+00 0.00000E+00
 -1      2016 8.67045E+01 3.09687E+00 0.00000E+00
 -1      2017 8.52045E+01 3.09687E+00 0.00000E+00
 -1      2018 8.50350E+01 4.00625E+00 0.00000E+00
 -1      2019 8.97045E+01 3.09687E+00 0.00000E+00
 -1      2020 8.82045E+01 3.09687E+00 0.00000E+00
 -1      2021 8.80350E+01 4.00625E+00 0.00000E+00
 -1      2022 9.27045E+01 3.09687E+00 0.00000E+00
 -1      2023 9.12045E+01 3.09687E+00 0.00000E+00
 -1      2024 9.10350E+01 4.00625E+00 0.00000E+00
 -1      2025 9.57045E+01 3.09687E+00 0.00000E+00
 -1      2026 9.42045E+01 3.09687E+00 0.00000E+00
 -1      2027 9.40350E+01 4.00625E+00 0.00000E+00
 -1      2028 9.87045E+01 3.09687E+00 0.00000E+00
 -1      2029 9.72045E+01 3.09687E+00 0.00000E+00
 -1      2030 9.70350E+01 4.00625E+00 0.00000E+00
 -1      2031 1.01704E+02 3.09687E+00 0.00000E+00
 -1      2032 1.00204E+02 3.09687E+00 0.00000E+00
 -1      2033 1.00035E+02 4.00625E+00 0.00000E+00
 -1      2034 1.04704E+02 3.09687E+00 0.00000E+00
 -1      2035 1.03204E+02 3.09687E+00 0.00000E+00
 -1      2036 1.03035E+02 4.00625E+00 0.00000E+00
 -1      2037 1.07704E+02 3.09687E+00 0.00000E+00
 -1      2038 1.06204E+02 3.09687E+00 0.00000E+00
 -1      2039 1.06035E+02 4.00625E+00 0.00000E+00
 -1      2040 1.10704E+02 3.09687E+00 0.00000E+00
 -1      2041 1.09204E+02 3.09687E+00 0.00000E+00
 -1      2042 1.09035E+02 4.00625E+00 0.00000E+00
 -1      2043 1.13704E+02 3.09687E+00 0.00000E+00
 -1      2044 1.12204E+02 3.09687E+00 0.00000E+00
 -1      2045 1.12035E+02 4.00625E+00 0.00000E+00
 -1      2046 1.16704E+02 3.09687E+00 0.00000E+00
 -1      2047 1.15204E+02 3.09687E+00 0.00000E+00
 -1      2048 1.15035E+02 4.00625E+00 0.00000E+00
 -1      2049 1.19704E+02 3.09687E+00 0.00000E+00
 -1      2050 1.18204E+02 3.09687E+00 0.00000E+00
 -1      2051 1.18035E+02 4.00625E+00 0.00000E+00
 -1      2052 1.22704E+02 3.09687E+00 0.00000E+00
 -1      2053 1.21204E+02 3.09687E+00 0.00000E+00
 -1      2054 1.21035E+02 4.00625E+00 0.00000E+00
 -1      2055 1.25704E+02 3.09687E+00 0.00000E+00
 -1      2056 1.24204E+02 3.09687E+00 0.00000E+00
 -1      2057 1.24035E+02 4.00625E+00 0.00000E+00
 -1      2058 1.28704E+02 3.09687E+00 0.00000E+00
 -1      2059 1.27204E+02 3.09687E+00 0.00000E+00
 -1      2060 1.27035E+02 4.00625E+00 0.00000E+00
 -1      2061 1.31704E+02 3.09687E+00 0.00000E+00
 -1      2062 1.30204E+02 3.09687E+00 0.00000E+00
 -1      2063 1.30035E+02 4.00625E+00 0.00000E+00
 -1      2064 1.34704E+02 3.09687E+00 0.00000E+00
 -1      2065 1.33204E+02 3.09687E+00 0.00000E+00
 -1      2066 1.33035E+02 4.00625E+00 0.00000E+00
 -1      2067 1.37704E+02 3.09687E+00 0.00000E+00
 -1      2068 1.36204E+02 3.09687E+00 0.00000E+00
 -1      2069 1.36035E+02 4.00625E+00 0.00000E+00
 -1      2070 1.40704E+02 3.09687E+00 0.00000E+00
 -1      2071 1.39204E+02 3.09687E+00 0.00000E+00
 -1      2072 1.39035E+02 4.00625E+00 0.00000E+00
 -1      2073 1.43704E+02 3.09687E+00 0.00000E+00
 -1      2074 1.42204E+02 3.09687E+00 0.00000E+00
 -1      2075 1.42035E+02 4.00625E+00 0.00000E+00
 -1      2076 1.46171E+02 3.20156E+00 0.00000E+00
 -1      2077 1.44671E+02 3.20156E+00 0.00000E+00
 -1      2078 1.44502E+02 4.11094E+00 0.00000E+00
 -1      2079 1.46435E+02 4.32031E+00 0.00000E+00
 -1      2080 1.46103E+02 1.25375E+01 0.00000E+00
 -1      2081 1.46103E+02 1.10625E+01 0.00000E+00
 -1      2082 1.46103E+02 9.58750E+00 0.00000E+00
 -1      2083 1.46103E+02 8.11250E+00 0.00000E+00
 -1      2084 1.44804E+02 1.03250E+01 0.00000E+00
 -1      2085 1.46269E+02 6.95391E+00 0.00000E+00
 -1      2086 1.46269E+02 5.47891E+00 0.00000E+00
 -1      2087 1.45302E+02 5.37422E+00 0.00000E+00
 -1      2088 1.44970E+02 7.69141E+00 0.00000E+00
 -1      2089 1.46103E+02 1.54375E+01 0.00000E+00
 -1      2090 1.46103E+02 1.39875E+01 0.00000E+00
 -1      2091 1.44804E+02 1.32500E+01 0.00000E+00
 -1      2092 1.46103E+02 1.83875E+01 0.00000E+00
 -1      2093 1.46103E+02 1.69125E+01 0.00000E+00
 -1      2094 1.44804E+02 1.61750E+01 0.00000E+00
 -1      2095 1.46103E+02 2.13375E+01 0.00000E+00
 -1      2096 1.46103E+02 1.98625E+01 0.00000E+00
 -1      2097 1.44804E+02 1.91250E+01 0.00000E+00
 -1      2098 1.46103E+02 2.42875E+01 0.00000E+00
 -1      2099 1.46103E+02 2.28125E+01 0.00000E+00
 -1      2100 1.44804E+02 2.20750E+01 0.00000E+00
 -1      2101 1.46103E+02 2.72375E+01 0.00000E+00
 -1      2102 1.46103E+02 2.57625E+01 0.00000E+00
 -1      2103 1.44804E+02 2.50250E+01 0.00000E+00
 -1      2104 1.46103E+02 3.01875E+01 0.00000E+00
 -1      2105 1.46103E+02 2.87125E+01 0.00000E+00
 -1      2106 1.44804E+02 2.79750E+01 0.00000E+00
 -1      2107 1.46103E+02 3.30875E+01 0.00000E+00
 -1      2108 1.46103E+02 3.16375E+01 0.00000E+00
 -1      2109 1.44804E+02 3.09000E+01 0.00000E+00
 -1      2110 1.46103E+02 3.60375E+01 0.00000E+00
 -1      2111 1.46103E+02 3.45625E+01 0.00000E+00
 -1      2112 1.44804E+02 3.38250E+01 0.00000E+00
 -1      2113 1.46103E+02 3.89875E+01 0.00000E+00
 -1      2114 1.46103E+02 3.75125E+01 0.00000E+00
 -1      2115 1.44804E+02 3.67750E+01 0.00000E+00
 -1      2116 1.46103E+02 4.19375E+01 0.00000E+00
 -1      2117 1.46103E+02 4.04625E+01 0.00000E+00
 -1      2118 1.44804E+02 3.97250E+01 0.00000E+00
 -1      2119 1.25204E+02 1.82474E+01 0.00000E+00
 -1      2120 1.25624E+02 1.90465E+01 0.00000E+00
 -1      2121 1.26272E+02 2.20324E+01 0.00000E+00
 -1      2122 1.26311E+02 2.29343E+01 0.00000E+00
 -1      2123 1.26073E+02 2.00969E+01 0.00000E+00
 -1      2124 1.26240E+02 2.10099E+01 0.00000E+00
 -1      2125 1.24090E+02 1.67981E+01 0.00000E+00
 -1      2126 1.24602E+02 1.74609E+01 0.00000E+00
 -1      2127 1.22856E+02 1.54504E+01 0.00000E+00
 -1      2128 1.23501E+02 1.59996E+01 0.00000E+00
 -1      2129 3.89700E+00 3.74688E+01 0.00000E+00
 -1      2130 3.89700E+00 3.89437E+01 0.00000E+00
 -1      2131 5.19600E+00 3.96813E+01 0.00000E+00
 -1      2132 5.19600E+00 3.67438E+01 0.00000E+00
 -1      2133 1.19423E+02 1.38914E+01 0.00000E+00
 -1      2134 1.20274E+02 1.41788E+01 0.00000E+00
 -1      2135 1.17481E+02 1.33981E+01 0.00000E+00
 -1      2136 1.18425E+02 1.35295E+01 0.00000E+00
 -1      2137 1.15336E+02 1.37713E+01 0.00000E+00
 -1      2138 1.16228E+02 1.34966E+01 0.00000E+00
 -1      2139 1.13652E+02 1.42847E+01 0.00000E+00
 -1      2140 1.14494E+02 1.40280E+01 0.00000E+00
 -1      2141 1.14712E+02 1.31511E+01 0.00000E+00
 -1      2142 1.11830E+02 1.52442E+01 0.00000E+00
 -1      2143 1.12655E+02 1.47668E+01 0.00000E+00
 -1      2144 1.10296E+02 1.68631E+01 0.00000E+00
 -1      2145 1.10805E+02 1.60592E+01 0.00000E+00
 -1      2146 1.09433E+02 1.83778E+01 0.00000E+00
 -1      2147 1.09864E+02 1.76205E+01 0.00000E+00
 -1      2148 1.09395E+02 1.67594E+01 0.00000E+00
 -1      2149 1.08841E+02 2.02618E+01 0.00000E+00
 -1      2150 1.09143E+02 1.94323E+01 0.00000E+00
 -1      2151 1.08415E+02 2.21917E+01 0.00000E+00
 -1      2152 1.08491E+02 2.12860E+01 0.00000E+00
 -1      2153 1.08557E+02 2.42250E+01 0.00000E+00
 -1      2154 1.08389E+02 2.33191E+01 0.00000E+00
 -1      2155 1.09053E+02 2.60093E+01 0.00000E+00
 -1      2156 1.08805E+02 2.51172E+01 0.00000E+00
 -1      2157 1.07878E+02 2.48210E+01 0.00000E+00
 -1      2158 1.10309E+02 2.77569E+01 0.00000E+00
 -1      2159 1.09753E+02 2.70587E+01 0.00000E+00
 -1      2160 1.11514E+02 2.90841E+01 0.00000E+00
 -1      2161 1.10911E+02 2.84902E+01 0.00000E+00
 -1      2162 1.13002E+02 3.01560E+01 0.00000E+00
 -1      2163 1.12286E+02 2.96996E+01 0.00000E+00
 -1      2164 1.14660E+02 3.10221E+01 0.00000E+00
 -1      2165 1.13849E+02 3.07181E+01 0.00000E+00
 -1      2166 1.16554E+02 3.12982E+01 0.00000E+00
 -1      2167 1.15672E+02 3.11308E+01 0.00000E+00
 -1      2168 1.18532E+02 3.13141E+01 0.00000E+00
 -1      2169 1.17646E+02 3.14193E+01 0.00000E+00
 -1      2170 1.20346E+02 3.09543E+01 0.00000E+00
 -1      2171 1.19529E+02 3.11960E+01 0.00000E+00
 -1      2172 1.22008E+02 3.01471E+01 0.00000E+00
 -1      2173 1.21231E+02 3.05225E+01 0.00000E+00
 -1      2174 1.23620E+02 2.90463E+01 0.00000E+00
 -1      2175 1.22947E+02 2.96274E+01 0.00000E+00
 -1      2176 1.24731E+02 2.74541E+01 0.00000E+00
 -1      2177 1.24239E+02 2.81706E+01 0.00000E+00
 -1      2178 1.25766E+02 2.60100E+01 0.00000E+00
 -1      2179 1.25249E+02 2.67321E+01 0.00000E+00
 -1      2180 1.25571E+02 2.74809E+01 0.00000E+00
 -1      2181 1.26206E+02 2.39325E+01 0.00000E+00
 -1      2182 1.26128E+02 2.48546E+01 0.00000E+00
 -1      2183 1.21243E+02 1.44620E+01 0.00000E+00
 -1      2184 1.22014E+02 1.48761E+01 0.00000E+00
 -1      2185 1.24270E+02 1.59346E+01 0.00000E+00
 -1      2186 6.42300E+00 4.57510E+01 0.00000E+00
 -1      2187 1.22838E+02 1.45619E+01 0.00000E+00
 -1      2188 1.21025E+02 1.37043E+01 0.00000E+00
 -1      2189 7.17300E+00 4.44520E+01 0.00000E+00
 -1      2190 1.26510E+02 1.93564E+01 0.00000E+00
 -1      2191 1.26990E+02 2.14292E+01 0.00000E+00
 -1      2192 1.45665E+02 4.31193E+01 0.00000E+00
 -1      2193 1.25460E+02 1.75196E+01 0.00000E+00
 -1      2194 1.26918E+02 2.34499E+01 0.00000E+00
 -1      2195 1.26451E+02 2.56034E+01 0.00000E+00
 -1      2196 1.26774E+02 2.63522E+01 0.00000E+00
 -1      2197 1.27136E+02 2.51968E+01 0.00000E+00
 -1      2198 1.24435E+02 2.90786E+01 0.00000E+00
 -1      2199 1.22877E+02 3.04740E+01 0.00000E+00
 -1      2200 1.21053E+02 3.14255E+01 0.00000E+00
 -1      2201 1.19172E+02 3.19754E+01 0.00000E+00
 -1      2202 1.17084E+02 3.19724E+01 0.00000E+00
 -1      2203 1.14980E+02 3.17425E+01 0.00000E+00
 -1      2204 1.13120E+02 3.10717E+01 0.00000E+00
 -1      2205 1.11501E+02 2.98940E+01 0.00000E+00
 -1      2206 1.08825E+02 2.67625E+01 0.00000E+00
 -1      2207 1.07898E+02 2.64664E+01 0.00000E+00
 -1      2208 1.08597E+02 2.75157E+01 0.00000E+00
 -1      2209 1.07656E+02 2.28015E+01 0.00000E+00
 -1      2210 1.08673E+02 1.85713E+01 0.00000E+00
 -1      2211 1.12873E+02 1.38900E+01 0.00000E+00
 -1      2212 1.19058E+02 1.30593E+01 0.00000E+00
 -1      2213 1.16807E+02 1.27959E+01 0.00000E+00
 -1      2214 1.10851E+02 1.51871E+01 0.00000E+00
 -1      2215 1.08032E+02 2.06500E+01 0.00000E+00
 -1      2216 1.10126E+02 2.85452E+01 0.00000E+00
 -1      2217 1.07850E+01 5.30525E+00 0.00000E+00
 -1      2218 9.28500E+00 5.30525E+00 0.00000E+00
 -1      2219 6.49500E+00 3.01125E+01 0.00000E+00
 -1      2220 6.49500E+00 3.15875E+01 0.00000E+00
 -1      2221 6.49500E+00 3.30625E+01 0.00000E+00
 -1      2222 6.49500E+00 3.45375E+01 0.00000E+00
 -1      2223 7.79400E+00 3.23250E+01 0.00000E+00
 -1      2224 6.49500E+00 2.42125E+01 0.00000E+00
 -1      2225 6.49500E+00 2.56875E+01 0.00000E+00
 -1      2226 6.49500E+00 2.12625E+01 0.00000E+00
 -1      2227 6.49500E+00 2.27375E+01 0.00000E+00
 -1      2228 7.79400E+00 2.34750E+01 0.00000E+00
 -1      2229 6.49500E+00 1.83625E+01 0.00000E+00
 -1      2230 6.49500E+00 1.98125E+01 0.00000E+00
 -1      2231 7.79400E+00 2.05500E+01 0.00000E+00
 -1      2232 6.49500E+00 1.54125E+01 0.00000E+00
 -1      2233 6.49500E+00 1.68875E+01 0.00000E+00
 -1      2234 7.79400E+00 1.76250E+01 0.00000E+00
 -1      2235 6.49500E+00 1.24625E+01 0.00000E+00
 -1      2236 6.49500E+00 1.39375E+01 0.00000E+00
 -1      2237 7.79400E+00 1.46750E+01 0.00000E+00
 -1      2238 6.49500E+00 9.51250E+00 0.00000E+00
 -1      2239 6.49500E+00 1.09875E+01 0.00000E+00
 -1      2240 7.79400E+00 1.17250E+01 0.00000E+00
 -1      2241 1.37850E+01 5.30525E+00 0.00000E+00
 -1      2242 1.22850E+01 5.30525E+00 0.00000E+00
 -1      2243 1.15350E+01 6.60425E+00 0.00000E+00
 -1      2244 9.90000E+00 4.35050E+01 0.00000E+00
 -1      2245 1.14000E+01 4.35050E+01 0.00000E+00
 -1      2246 1.22946E+02 1.34968E+01 0.00000E+00
 -1      2247 1.23789E+02 1.40711E+01 0.00000E+00
 -1      2248 1.29000E+01 4.35050E+01 0.00000E+00
 -1      2249 1.44000E+01 4.35050E+01 0.00000E+00
 -1      2250 1.21500E+01 4.22060E+01 0.00000E+00
 -1      2251 1.59000E+01 4.35050E+01 0.00000E+00
 -1      2252 1.74000E+01 4.35050E+01 0.00000E+00
 -1      2253 1.51500E+01 4.22060E+01 0.00000E+00
 -1      2254 1.89000E+01 4.35050E+01 0.00000E+00
 -1      2255 2.04000E+01 4.35050E+01 0.00000E+00
 -1      2256 1.81500E+01 4.22060E+01 0.00000E+00
 -1      2257 2.19000E+01 4.35050E+01 0.00000E+00
 -1      2258 2.34000E+01 4.35050E+01 0.00000E+00
 -1      2259 2.11500E+01 4.22060E+01 0.00000E+00
 -1      2260 2.49000E+01 4.35050E+01 0.00000E+00
 -1      2261 2.64000E+01 4.35050E+01 0.00000E+00
 -1      2262 2.41500E+01 4.22060E+01 0.00000E+00
 -1      2263 2.79000E+01 4.35050E+01 0.00000E+00
 -1      2264 2.94000E+01 4.35050E+01 0.00000E+00
 -1      2265 2.71500E+01 4.22060E+01 0.00000E+00
 -1      2266 3.09000E+01 4.35050E+01 0.00000E+00
 -1      2267 3.24000E+01 4.35050E+01 0.00000E+00
 -1      2268 3.01500E+01 4.22060E+01 0.00000E+00
 -1      2269 3.39000E+01 4.35050E+01 0.00000E+00
 -1      2270 3.54000E+01 4.35050E+01 0.00000E+00
 -1      2271 3.31500E+01 4.22060E+01 0.00000E+00
 -1      2272 3.69000E+01 4.35050E+01 0.00000E+00
 -1      2273 3.84000E+01 4.35050E+01 0.00000E+00
 -1      2274 3.61500E+01 4.22060E+01 0.00000E+00
 -1      2275 3.99000E+01 4.35050E+01 0.00000E+00
 -1      2276 4.14000E+01 4.35050E+01 0.00000E+00
 -1      2277 3.91500E+01 4.22060E+01 0.00000E+00
 -1      2278 4.29000E+01 4.35050E+01 0.00000E+00
 -1      2279 4.44000E+01 4.35050E+01 0.00000E+00
 -1      2280 4.21500E+01 4.22060E+01 0.00000E+00
 -1      2281 4.59000E+01 4.35050E+01 0.00000E+00
 -1      2282 4.74000E+01 4.35050E+01 0.00000E+00
 -1      2283 4.51500E+01 4.22060E+01 0.00000E+00
 -1      2284 4.89000E+01 4.35050E+01 0.00000E+00
 -1      2285 5.04000E+01 4.35050E+01 0.00000E+00
 -1      2286 4.81500E+01 4.22060E+01 0.00000E+00
 -1      2287 5.19000E+01 4.35050E+01 0.00000E+00
 -1      2288 5.34000E+01 4.35050E+01 0.00000E+00
 -1      2289 5.11500E+01 4.22060E+01 0.00000E+00
 -1      2290 5.49000E+01 4.35050E+01 0.00000E+00
 -1      2291 5.64000E+01 4.35050E+01 0.00000E+00
 -1      2292 5.41500E+01 4.22060E+01 0.00000E+00
 -1      2293 5.79000E+01 4.35050E+01 0.00000E+00
 -1      2294 5.94000E+01 4.35050E+01 0.00000E+00
 -1      2295 5.71500E+01 4.22060E+01 0.00000E+00
 -1      2296 6.09000E+01 4.35050E+01 0.00000E+00
 -1      2297 6.24000E+01 4.35050E+01 0.00000E+00
 -1      2298 6.01500E+01 4.22060E+01 0.00000E+00
 -1      2299 6.39000E+01 4.35050E+01 0.00000E+00
 -1      2300 6.54000E+01 4.35050E+01 0.00000E+00
 -1      2301 6.31500E+01 4.22060E+01 0.00000E+00
 -1      2302 6.69000E+01 4.35050E+01 0.00000E+00
 -1      2303 6.84000E+01 4.35050E+01 0.00000E+00
 -1      2304 6.61500E+01 4.22060E+01 0.00000E+00
 -1      2305 6.99000E+01 4.35050E+01 0.00000E+00
 -1      2306 7.14000E+01 4.35050E+01 0.00000E+00
 -1      2307 6.91500E+01 4.22060E+01 0.00000E+00
 -1      2308 7.29000E+01 4.35050E+01 0.00000E+00
 -1      2309 7.44000E+01 4.35050E+01 0.00000E+00
 -1      2310 7.21500E+01 4.22060E+01 0.00000E+00
 -1      2311 7.59000E+01 4.35050E+01 0.00000E+00
 -1      2312 7.74000E+01 4.35050E+01 0.00000E+00
 -1      2313 7.51500E+01 4.22060E+01 0.00000E+00
 -1      2314 7.89000E+01 4.35050E+01 0.00000E+00
 -1      2315 8.04000E+01 4.35050E+01 0.00000E+00
 -1      2316 7.81500E+01 4.22060E+01 0.00000E+00
 -1      2317 8.19000E+01 4.35050E+01 0.00000E+00
 -1      2318 8.34000E+01 4.35050E+01 0.00000E+00
 -1      2319 8.11500E+01 4.22060E+01 0.00000E+00
 -1      2320 8.49000E+01 4.35050E+01 0.00000E+00
 -1      2321 8.64000E+01 4.35050E+01 0.00000E+00
 -1      2322 8.41500E+01 4.22060E+01 0.00000E+00
 -1      2323 8.79000E+01 4.35050E+01 0.00000E+00
 -1      2324 8.94000E+01 4.35050E+01 0.00000E+00
 -1      2325 8.71500E+01 4.22060E+01 0.00000E+00
 -1      2326 9.09000E+01 4.35050E+01 0.00000E+00
 -1      2327 9.24000E+01 4.35050E+01 0.00000E+00
 -1      2328 9.01500E+01 4.22060E+01 0.00000E+00
 -1      2329 9.39000E+01 4.35050E+01 0.00000E+00
 -1      2330 9.54000E+01 4.35050E+01 0.00000E+00
 -1      2331 9.31500E+01 4.22060E+01 0.00000E+00
 -1      2332 9.69000E+01 4.35050E+01 0.00000E+00
 -1      2333 9.84000E+01 4.35050E+01 0.00000E+00
 -1      2334 9.61500E+01 4.22060E+01 0.00000E+00
 -1      2335 9.99000E+01 4.35050E+01 0.00000E+00
 -1      2336 1.01400E+02 4.35050E+01 0.00000E+00
 -1      2337 9.91500E+01 4.22060E+01 0.00000E+00
 -1      2338 1.02900E+02 4.35050E+01 0.00000E+00
 -1      2339 1.04400E+02 4.35050E+01 0.00000E+00
 -1      2340 1.02150E+02 4.22060E+01 0.00000E+00
 -1      2341 1.05900E+02 4.35050E+01 0.00000E+00
 -1      2342 1.07400E+02 4.35050E+01 0.00000E+00
 -1      2343 1.05150E+02 4.22060E+01 0.00000E+00
 -1      2344 1.08900E+02 4.35050E+01 0.00000E+00
 -1      2345 1.10400E+02 4.35050E+01 0.00000E+00
 -1      2346 1.08150E+02 4.22060E+01 0.00000E+00
 -1      2347 1.11900E+02 4.35050E+01 0.00000E+00
 -1      2348 1.13400E+02 4.35050E+01 0.00000E+00
 -1      2349 1.11150E+02 4.22060E+01 0.00000E+00
 -1      2350 1.14900E+02 4.35050E+01 0.00000E+00
 -1      2351 1.16400E+02 4.35050E+01 0.00000E+00
 -1      2352 1.14150E+02 4.22060E+01 0.00000E+00
 -1      2353 1.17900E+02 4.35050E+01 0.00000E+00
 -1      2354 1.19400E+02 4.35050E+01 0.00000E+00
 -1      2355 1.17150E+02 4.22060E+01 0.00000E+00
 -1      2356 1.20900E+02 4.35050E+01 0.00000E+00
 -1      2357 1.22400E+02 4.35050E+01 0.00000E+00
 -1      2358 1.20150E+02 4.22060E+01 0.00000E+00
 -1      2359 1.23900E+02 4.35050E+01 0.00000E+00
 -1      2360 1.25400E+02 4.35050E+01 0.00000E+00
 -1      2361 1.23150E+02 4.22060E+01 0.00000E+00
 -1      2362 1.26900E+02 4.35050E+01 0.00000E+00
 -1      2363 1.28400E+02 4.35050E+01 0.00000E+00
 -1      2364 1.26150E+02 4.22060E+01 0.00000E+00
 -1      2365 1.29900E+02 4.35050E+01 0.00000E+00
 -1      2366 1.31400E+02 4.35050E+01 0.00000E+00
 -1      2367 1.29150E+02 4.22060E+01 0.00000E+00
 -1      2368 1.32900E+02 4.35050E+01 0.00000E+00
 -1      2369 1.34400E+02 4.35050E+01 0.00000E+00
 -1      2370 1.32150E+02 4.22060E+01 0.00000E+00
 -1      2371 1.35900E+02 4.35050E+01 0.00000E+00
 -1      2372 1.37400E+02 4.35050E+01 0.00000E+00
 -1      2373 1.35150E+02 4.22060E+01 0.00000E+00
 -1      2374 1.38900E+02 4.35050E+01 0.00000E+00
 -1      2375 1.40400E+02 4.35050E+01 0.00000E+00
 -1      2376 1.38150E+02 4.22060E+01 0.00000E+00
 -1      2377 1.97850E+01 5.30525E+00 0.00000E+00
 -1      2378 1.82850E+01 5.30525E+00 0.00000E+00
 -1      2379 2.27850E+01 5.30525E+00 0.00000E+00
 -1      2380 2.12850E+01 5.30525E+00 0.00000E+00
 -1      2381 2.05350E+01 6.60425E+00 0.00000E+00
 -1      2382 2.57850E+01 5.30525E+00 0.00000E+00
 -1      2383 2.42850E+01 5.30525E+00 0.00000E+00
 -1      2384 2.35350E+01 6.60425E+00 0.00000E+00
 -1      2385 2.87850E+01 5.30525E+00 0.00000E+00
 -1      2386 2.72850E+01 5.30525E+00 0.00000E+00
 -1      2387 2.65350E+01 6.60425E+00 0.00000E+00
 -1      2388 3.17850E+01 5.30525E+00 0.00000E+00
 -1      2389 3.02850E+01 5.30525E+00 0.00000E+00
 -1      2390 2.95350E+01 6.60425E+00 0.00000E+00
 -1      2391 3.47850E+01 5.30525E+00 0.00000E+00
 -1      2392 3.32850E+01 5.30525E+00 0.00000E+00
 -1      2393 3.25350E+01 6.60425E+00 0.00000E+00
 -1      2394 3.77850E+01 5.30525E+00 0.00000E+00
 -1      2395 3.62850E+01 5.30525E+00 0.00000E+00
 -1      2396 3.55350E+01 6.60425E+00 0.00000E+00
 -1      2397 4.07850E+01 5.30525E+00 0.00000E+00
 -1      2398 3.92850E+01 5.30525E+00 0.00000E+00
 -1      2399 3.85350E+01 6.60425E+00 0.00000E+00
 -1      2400 4.37850E+01 5.30525E+00 0.00000E+00
 -1      2401 4.22850E+01 5.30525E+00 0.00000E+00
 -1      2402 4.15350E+01 6.60425E+00 0.00000E+00
 -1      2403 4.67850E+01 5.30525E+00 0.00000E+00
 -1      2404 4.52850E+01 5.30525E+00 0.00000E+00
 -1      2405 4.45350E+01 6.60425E+00 0.00000E+00
 -1      2406 4.97850E+01 5.30525E+00 0.00000E+00
 -1      2407 4.82850E+01 5.30525E+00 0.00000E+00
 -1      2408 4.75350E+01 6.60425E+00 0.00000E+00
 -1      2409 5.27850E+01 5.30525E+00 0.00000E+00
 -1      2410 5.12850E+01 5.30525E+00 0.00000E+00
 -1      2411 5.05350E+01 6.60425E+00 0.00000E+00
 -1      2412 5.57850E+01 5.30525E+00 0.00000E+00
 -1      2413 5.42850E+01 5.30525E+00 0.00000E+00
 -1      2414 5.35350E+01 6.60425E+00 0.00000E+00
 -1      2415 5.87850E+01 5.30525E+00 0.00000E+00
 -1      2416 5.72850E+01 5.30525E+00 0.00000E+00
 -1      2417 5.65350E+01 6.60425E+00 0.00000E+00
 -1      2418 6.17850E+01 5.30525E+00 0.00000E+00
 -1      2419 6.02850E+01 5.30525E+00 0.00000E+00
 -1      2420 5.95350E+01 6.60425E+00 0.00000E+00
 -1      2421 6.47850E+01 5.30525E+00 0.00000E+00
 -1      2422 6.32850E+01 5.30525E+00 0.00000E+00
 -1      2423 6.25350E+01 6.60425E+00 0.00000E+00
 -1      2424 6.77850E+01 5.30525E+00 0.00000E+00
 -1      2425 6.62850E+01 5.30525E+00 0.00000E+00
 -1      2426 6.55350E+01 6.60425E+00 0.00000E+00
 -1      2427 7.07850E+01 5.30525E+00 0.00000E+00
 -1      2428 6.92850E+01 5.30525E+00 0.00000E+00
 -1      2429 6.85350E+01 6.60425E+00 0.00000E+00
 -1      2430 7.37850E+01 5.30525E+00 0.00000E+00
 -1      2431 7.22850E+01 5.30525E+00 0.00000E+00
 -1      2432 7.15350E+01 6.60425E+00 0.00000E+00
 -1      2433 7.67850E+01 5.30525E+00 0.00000E+00
 -1      2434 7.52850E+01 5.30525E+00 0.00000E+00
 -1      2435 7.45350E+01 6.60425E+00 0.00000E+00
 -1      2436 7.97850E+01 5.30525E+00 0.00000E+00
 -1      2437 7.82850E+01 5.30525E+00 0.00000E+00
 -1      2438 7.75350E+01 6.60425E+00 0.00000E+00
 -1      2439 8.27850E+01 5.30525E+00 0.00000E+00
 -1      2440 8.12850E+01 5.30525E+00 0.00000E+00
 -1      2441 8.05350E+01 6.60425E+00 0.00000E+00
 -1      2442 8.57850E+01 5.30525E+00 0.00000E+00
 -1      2443 8.42850E+01 5.30525E+00 0.00000E+00
 -1      2444 8.35350E+01 6.60425E+00 0.00000E+00
 -1      2445 8.87850E+01 5.30525E+00 0.00000E+00
 -1      2446 8.72850E+01 5.30525E+00 0.00000E+00
 -1      2447 8.65350E+01 6.60425E+00 0.00000E+00
 -1      2448 9.17850E+01 5.30525E+00 0.00000E+00
 -1      2449 9.02850E+01 5.30525E+00 0.00000E+00
 -1      2450 8.95350E+01 6.60425E+00 0.00000E+00
 -1      2451 9.47850E+01 5.30525E+00 0.00000E+00
 -1      2452 9.32850E+01 5.30525E+00 0.00000E+00
 -1      2453 9.25350E+01 6.60425E+00 0.00000E+00
 -1      2454 9.77850E+01 5.30525E+00 0.00000E+00
 -1      2455 9.62850E+01 5.30525E+00 0.00000E+00
 -1      2456 9.55350E+01 6.60425E+00 0.00000E+00
 -1      2457 1.00785E+02 5.30525E+00 0.00000E+00
 -1      2458 9.92850E+01 5.30525E+00 0.00000E+00
 -1      2459 9.85350E+01 6.60425E+00 0.00000E+00
 -1      2460 1.03785E+02 5.30525E+00 0.00000E+00
 -1      2461 1.02285E+02 5.30525E+00 0.00000E+00
 -1      2462 1.01535E+02 6.60425E+00 0.00000E+00
 -1      2463 1.06785E+02 5.30525E+00 0.00000E+00
 -1      2464 1.05285E+02 5.30525E+00 0.00000E+00
 -1      2465 1.04535E+02 6.60425E+00 0.00000E+00
 -1      2466 1.09785E+02 5.30525E+00 0.00000E+00
 -1      2467 1.08285E+02 5.30525E+00 0.00000E+00
 -1      2468 1.07535E+02 6.60425E+00 0.00000E+00
 -1      2469 1.12785E+02 5.30525E+00 0.00000E+00
 -1      2470 1.11285E+02 5.30525E+00 0.00000E+00
 -1      2471 1.10535E+02 6.60425E+00 0.00000E+00
 -1      2472 1.15785E+02 5.30525E+00 0.00000E+00
 -1      2473 1.14285E+02 5.30525E+00 0.00000E+00
 -1      2474 1.13535E+02 6.60425E+00 0.00000E+00
 -1      2475 1.18785E+02 5.30525E+00 0.00000E+00
 -1      2476 1.17285E+02 5.30525E+00 0.00000E+00
 -1      2477 1.16535E+02 6.60425E+00 0.00000E+00
 -1      2478 1.21785E+02 5.30525E+00 0.00000E+00
 -1      2479 1.20285E+02 5.30525E+00 0.00000E+00
 -1      2480 1.19535E+02 6.60425E+00 0.00000E+00
 -1      2481 1.24785E+02 5.30525E+00 0.00000E+00
 -1      2482 1.23285E+02 5.30525E+00 0.00000E+00
 -1      2483 1.22535E+02 6.60425E+00 0.00000E+00
 -1      2484 1.27785E+02 5.30525E+00 0.00000E+00
 -1      2485 1.26285E+02 5.30525E+00 0.00000E+00
 -1      2486 1.25535E+02 6.60425E+00 0.00000E+00
 -1      2487 1.30785E+02 5.30525E+00 0.00000E+00
 -1      2488 1.29285E+02 5.30525E+00 0.00000E+00
 -1      2489 1.28535E+02 6.60425E+00 0.00000E+00
 -1      2490 1.33785E+02 5.30525E+00 0.00000E+00
 -1      2491 1.32285E+02 5.30525E+00 0.00000E+00
 -1      2492 1.31535E+02 6.60425E+00 0.00000E+00
 -1      2493 1.36785E+02 5.30525E+00 0.00000E+00
 -1      2494 1.35285E+02 5.30525E+00 0.00000E+00
 -1      2495 1.34535E+02 6.60425E+00 0.00000E+00
 -1      2496 1.39785E+02 5.30525E+00 0.00000E+00
 -1      2497 1.38285E+02 5.30525E+00 0.00000E+00
 -1      2498 1.37535E+02 6.60425E+00 0.00000E+00
 -1      2499 1.42785E+02 5.30525E+00 0.00000E+00
 -1      2500 1.41285E+02 5.30525E+00 0.00000E+00
 -1      2501 1.40535E+02 6.60425E+00 0.00000E+00
 -1      2502 1.44336E+02 5.26953E+00 0.00000E+00
 -1      2503 1.43505E+02 1.69125E+01 0.00000E+00
 -1      2504 1.43505E+02 1.54375E+01 0.00000E+00
 -1      2505 1.43505E+02 1.98625E+01 0.00000E+00
 -1      2506 1.43505E+02 1.83875E+01 0.00000E+00
 -1      2507 1.42206E+02 1.76500E+01 0.00000E+00
 -1      2508 1.43505E+02 1.10625E+01 0.00000E+00
 -1      2509 1.43505E+02 9.58750E+00 0.00000E+00
 -1      2510 1.43505E+02 1.39750E+01 0.00000E+00
 -1      2511 1.43505E+02 1.25250E+01 0.00000E+00
 -1      2512 1.42206E+02 1.17875E+01 0.00000E+00
 -1      2513 1.42206E+02 1.47125E+01 0.00000E+00
 -1      2514 1.43505E+02 2.28125E+01 0.00000E+00
 -1      2515 1.43505E+02 2.13375E+01 0.00000E+00
 -1      2516 1.42206E+02 2.06000E+01 0.00000E+00
 -1      2517 1.43505E+02 2.57625E+01 0.00000E+00
 -1      2518 1.43505E+02 2.42875E+01 0.00000E+00
 -1      2519 1.42206E+02 2.35500E+01 0.00000E+00
 -1      2520 1.43505E+02 2.87125E+01 0.00000E+00
 -1      2521 1.43505E+02 2.72375E+01 0.00000E+00
 -1      2522 1.42206E+02 2.65000E+01 0.00000E+00
 -1      2523 1.43505E+02 3.16125E+01 0.00000E+00
 -1      2524 1.43505E+02 3.01625E+01 0.00000E+00
 -1      2525 1.42206E+02 2.94250E+01 0.00000E+00
 -1      2526 1.43505E+02 3.45625E+01 0.00000E+00
 -1      2527 1.43505E+02 3.30875E+01 0.00000E+00
 -1      2528 1.42206E+02 3.23500E+01 0.00000E+00
 -1      2529 1.43505E+02 3.75125E+01 0.00000E+00
 -1      2530 1.43505E+02 3.60375E+01 0.00000E+00
 -1      2531 1.42206E+02 3.53000E+01 0.00000E+00
 -1      2532 1.43505E+02 4.04625E+01 0.00000E+00
 -1      2533 1.43505E+02 3.89875E+01 0.00000E+00
 -1      2534 1.42206E+02 3.82500E+01 0.00000E+00
 -1      2535 1.27790E+02 2.08926E+01 0.00000E+00
 -1      2536 1.27822E+02 2.19151E+01 0.00000E+00
 -1      2537 1.25741E+02 1.66817E+01 0.00000E+00
 -1      2538 1.26342E+02 1.74682E+01 0.00000E+00
 -1      2539 1.67850E+01 5.30525E+00 0.00000E+00
 -1      2540 1.52850E+01 5.30525E+00 0.00000E+00
 -1      2541 1.75350E+01 6.60425E+00 0.00000E+00
 -1      2542 1.44321E+02 4.30606E+01 0.00000E+00
 -1      2543 1.27739E+02 2.30316E+01 0.00000E+00
 -1      2544 1.27635E+02 2.40297E+01 0.00000E+00
 -1      2545 1.26920E+02 1.85602E+01 0.00000E+00
 -1      2546 1.27369E+02 1.96105E+01 0.00000E+00
 -1      2547 6.55950E+00 4.28890E+01 0.00000E+00
 -1      2548 8.53650E+00 4.32410E+01 0.00000E+00
 -1      2549 9.28650E+00 4.19420E+01 0.00000E+00
 -1      2550 6.55950E+00 4.14140E+01 0.00000E+00
 -1      2551 1.25445E+02 2.91355E+01 0.00000E+00
 -1      2552 1.24826E+02 3.00112E+01 0.00000E+00
 -1      2553 1.06786E+02 2.33455E+01 0.00000E+00
 -1      2554 1.06811E+02 2.22182E+01 0.00000E+00
 -1      2555 1.11965E+02 1.32835E+01 0.00000E+00
 -1      2556 1.12962E+02 1.28014E+01 0.00000E+00
 -1      2557 1.18908E+02 1.19146E+01 0.00000E+00
 -1      2558 1.19906E+02 1.22764E+01 0.00000E+00
 -1      2559 6.49500E+00 2.71625E+01 0.00000E+00
 -1      2560 6.49500E+00 2.86375E+01 0.00000E+00
 -1      2561 7.79400E+00 2.93750E+01 0.00000E+00
 -1      2562 7.79400E+00 2.64250E+01 0.00000E+00
 -1      2563 1.16100E+02 1.18232E+01 0.00000E+00
 -1      2564 1.17353E+02 1.17247E+01 0.00000E+00
 -1      2565 1.09805E+02 1.49234E+01 0.00000E+00
 -1      2566 1.10830E+02 1.41084E+01 0.00000E+00
 -1      2567 1.14066E+02 1.25393E+01 0.00000E+00
 -1      2568 1.14908E+02 1.22826E+01 0.00000E+00
 -1      2569 1.07125E+02 2.09114E+01 0.00000E+00
 -1      2570 1.07475E+02 1.98873E+01 0.00000E+00
 -1      2571 1.08434E+02 1.67136E+01 0.00000E+00
 -1      2572 1.08865E+02 1.59562E+01 0.00000E+00
 -1      2573 1.09764E+02 2.94560E+01 0.00000E+00
 -1      2574 1.09162E+02 2.87227E+01 0.00000E+00
 -1      2575 1.07741E+02 1.88821E+01 0.00000E+00
 -1      2576 1.08032E+02 1.78275E+01 0.00000E+00
 -1      2577 1.07216E+02 2.54856E+01 0.00000E+00
 -1      2578 1.06968E+02 2.45935E+01 0.00000E+00
 -1      2579 1.11352E+02 3.08724E+01 0.00000E+00
 -1      2580 1.10580E+02 3.02570E+01 0.00000E+00
 -1      2581 1.13047E+02 3.19967E+01 0.00000E+00
 -1      2582 1.12200E+02 3.14346E+01 0.00000E+00
 -1      2583 1.11279E+02 3.17975E+01 0.00000E+00
 -1      2584 1.15408E+02 3.25246E+01 0.00000E+00
 -1      2585 1.14396E+02 3.24159E+01 0.00000E+00
 -1      2586 1.17544E+02 3.28020E+01 0.00000E+00
 -1      2587 1.16453E+02 3.26809E+01 0.00000E+00
 -1      2588 1.19801E+02 3.30176E+01 0.00000E+00
 -1      2589 1.18804E+02 3.31356E+01 0.00000E+00
 -1      2590 1.21872E+02 3.19803E+01 0.00000E+00
 -1      2591 1.20987E+02 3.24120E+01 0.00000E+00
 -1      2592 1.23751E+02 3.09408E+01 0.00000E+00
 -1      2593 1.22811E+02 3.14605E+01 0.00000E+00
 -1      2594 1.22745E+02 3.24470E+01 0.00000E+00
 -1      2595 1.26480E+02 2.76914E+01 0.00000E+00
 -1      2596 1.25963E+02 2.84135E+01 0.00000E+00
 -1      2597 1.26354E+02 2.93460E+01 0.00000E+00
 -1      2598 1.20941E+02 1.27450E+01 0.00000E+00
 -1      2599 1.21911E+02 1.30282E+01 0.00000E+00
 -1      2600 1.22863E+02 1.25375E+01 0.00000E+00
 -1      2601 1.20792E+02 1.16003E+01 0.00000E+00
 -1      2602 8.07525E+00 5.11044E+00 0.00000E+00
 -1      2603 6.57525E+00 5.11044E+00 0.00000E+00
 -1      2604 6.40575E+00 6.01981E+00 0.00000E+00
 -1      2605 8.82525E+00 6.40944E+00 0.00000E+00
 -1      2606 1.24563E+02 1.50848E+01 0.00000E+00
 -1      2607 1.25152E+02 1.58833E+01 0.00000E+00
 -1      2608 1.26034E+02 1.58319E+01 0.00000E+00
 -1      2609 7.79400E+00 3.52687E+01 0.00000E+00
 -1      2610 6.49500E+00 3.60062E+01 0.00000E+00
 -1      2611 6.49500E+00 3.74750E+01 0.00000E+00
 -1      2612 1.45350E+01 6.60425E+00 0.00000E+00
 -1      2613 6.40575E+00 7.49481E+00 0.00000E+00
 -1      2614 1.24671E+02 1.40198E+01 0.00000E+00
 -1      2615 1.24760E+02 3.09977E+01 0.00000E+00
 -1      2616 1.24695E+02 3.19842E+01 0.00000E+00
 -1      2617 1.25770E+02 3.10546E+01 0.00000E+00
 -1      2618 1.20619E+02 3.35723E+01 0.00000E+00
 -1      2619 1.18173E+02 3.38441E+01 0.00000E+00
 -1      2620 1.28779E+02 2.43602E+01 0.00000E+00
 -1      2621 1.27958E+02 2.47785E+01 0.00000E+00
 -1      2622 1.28280E+02 2.55273E+01 0.00000E+00
 -1      2623 1.13475E+02 3.27788E+01 0.00000E+00
 -1      2624 1.12555E+02 3.31417E+01 0.00000E+00
 -1      2625 1.13903E+02 3.35608E+01 0.00000E+00
 -1      2626 1.43586E+02 6.56853E+00 0.00000E+00
 -1      2627 1.43419E+02 7.72713E+00 0.00000E+00
 -1      2628 1.28539E+02 2.24949E+01 0.00000E+00
 -1      2629 1.28200E+02 2.00964E+01 0.00000E+00
 -1      2630 1.29031E+02 2.05823E+01 0.00000E+00
 -1      2631 1.28610E+02 1.93003E+01 0.00000E+00
 -1      2632 1.27201E+02 1.77224E+01 0.00000E+00
 -1      2633 1.06988E+02 2.62388E+01 0.00000E+00
 -1      2634 1.06834E+02 1.91436E+01 0.00000E+00
 -1      2635 7.70475E+00 8.23231E+00 0.00000E+00
 -1      2636 1.06124E+02 2.40101E+01 0.00000E+00
 -1      2637 1.09616E+02 3.04344E+01 0.00000E+00
 -1      2638 1.06255E+02 2.14555E+01 0.00000E+00
 -1      2639 1.07502E+02 1.70244E+01 0.00000E+00
 -1      2640 1.13157E+02 1.19329E+01 0.00000E+00
 -1      2641 1.10919E+02 1.30198E+01 0.00000E+00
 -1      2642 6.55950E+00 3.99453E+01 0.00000E+00
 -1      2643 1.08235E+02 2.84265E+01 0.00000E+00
 -1      2644 1.08844E+02 1.48776E+01 0.00000E+00
 -1      2645 1.15454E+02 1.12114E+01 0.00000E+00
 -1      2646 1.42758E+02 4.35929E+01 0.00000E+00
 -1      2647 1.43241E+02 4.17323E+01 0.00000E+00
 -1      2648 1.41942E+02 4.09948E+01 0.00000E+00
 -1      2649 1.41414E+02 4.35342E+01 0.00000E+00
 -1      2650 1.15868E+02 3.33542E+01 0.00000E+00
 -1      2651 1.27165E+02 2.72848E+01 0.00000E+00
 -1      2652 1.27556E+02 2.82174E+01 0.00000E+00
 -1      2653 1.27850E+02 2.68782E+01 0.00000E+00
 -1      2654 1.42120E+02 8.46463E+00 0.00000E+00
 -1      2655 1.40664E+02 4.22352E+01 0.00000E+00
 -1      2656 1.17693E+02 1.07344E+01 0.00000E+00
 -1      2657 1.18400E+02 1.17071E+01 0.00000E+00
 -1      2658 9.09300E+00 1.98250E+01 0.00000E+00
 -1      2659 9.09300E+00 2.12750E+01 0.00000E+00
 -1      2660 9.09300E+00 2.27500E+01 0.00000E+00
 -1      2661 9.09300E+00 2.42250E+01 0.00000E+00
 -1      2662 1.03920E+01 2.20250E+01 0.00000E+00
 -1      2663 9.09300E+00 1.39375E+01 0.00000E+00
 -1      2664 9.09300E+00 1.54125E+01 0.00000E+00
 -1      2665 9.09300E+00 1.09875E+01 0.00000E+00
 -1      2666 9.09300E+00 1.24625E+01 0.00000E+00
 -1      2667 1.03920E+01 1.32000E+01 0.00000E+00
 -1      2668 1.22850E+01 7.90325E+00 0.00000E+00
 -1      2669 1.07850E+01 7.90325E+00 0.00000E+00
 -1      2670 1.05284E+02 2.47704E+01 0.00000E+00
 -1      2671 1.05101E+02 2.35225E+01 0.00000E+00
 -1      2672 1.27378E+02 2.95335E+01 0.00000E+00
 -1      2673 1.26860E+02 3.02556E+01 0.00000E+00
 -1      2674 1.19248E+02 1.09242E+01 0.00000E+00
 -1      2675 1.44000E+01 4.09070E+01 0.00000E+00
 -1      2676 1.59000E+01 4.09070E+01 0.00000E+00
 -1      2677 1.74000E+01 4.09070E+01 0.00000E+00
 -1      2678 1.89000E+01 4.09070E+01 0.00000E+00
 -1      2679 1.66500E+01 3.96080E+01 0.00000E+00
 -1      2680 2.04000E+01 4.09070E+01 0.00000E+00
 -1      2681 2.19000E+01 4.09070E+01 0.00000E+00
 -1      2682 1.96500E+01 3.96080E+01 0.00000E+00
 -1      2683 2.34000E+01 4.09070E+01 0.00000E+00
 -1      2684 2.49000E+01 4.09070E+01 0.00000E+00
 -1      2685 2.26500E+01 3.96080E+01 0.00000E+00
 -1      2686 2.64000E+01 4.09070E+01 0.00000E+00
 -1      2687 2.79000E+01 4.09070E+01 0.00000E+00
 -1      2688 2.56500E+01 3.96080E+01 0.00000E+00
 -1      2689 2.94000E+01 4.09070E+01 0.00000E+00
 -1      2690 3.09000E+01 4.09070E+01 0.00000E+00
 -1      2691 2.86500E+01 3.96080E+01 0.00000E+00
 -1      2692 3.24000E+01 4.09070E+01 0.00000E+00
 -1      2693 3.39000E+01 4.09070E+01 0.00000E+00
 -1      2694 3.16500E+01 3.96080E+01 0.00000E+00
 -1      2695 3.54000E+01 4.09070E+01 0.00000E+00
 -1      2696 3.69000E+01 4.09070E+01 0.00000E+00
 -1      2697 3.46500E+01 3.96080E+01 0.00000E+00
 -1      2698 3.84000E+01 4.09070E+01 0.00000E+00
 -1      2699 3.99000E+01 4.09070E+01 0.00000E+00
 -1      2700 3.76500E+01 3.96080E+01 0.00000E+00
 -1      2701 4.14000E+01 4.09070E+01 0.00000E+00
 -1      2702 4.29000E+01 4.09070E+01 0.00000E+00
 -1      2703 4.06500E+01 3.96080E+01 0.00000E+00
 -1      2704 4.44000E+01 4.09070E+01 0.00000E+00
 -1      2705 4.59000E+01 4.09070E+01 0.00000E+00
 -1      2706 4.36500E+01 3.96080E+01 0.00000E+00
 -1      2707 4.74000E+01 4.09070E+01 0.00000E+00
 -1      2708 4.89000E+01 4.09070E+01 0.00000E+00
 -1      2709 4.66500E+01 3.96080E+01 0.00000E+00
 -1      2710 5.04000E+01 4.09070E+01 0.00000E+00
 -1      2711 5.19000E+01 4.09070E+01 0.00000E+00
 -1      2712 4.96500E+01 3.96080E+01 0.00000E+00
 -1      2713 5.34000E+01 4.09070E+01 0.00000E+00
 -1      2714 5.49000E+01 4.09070E+01 0.00000E+00
 -1      2715 5.26500E+01 3.96080E+01 0.00000E+00
 -1      2716 5.64000E+01 4.09070E+01 0.00000E+00
 -1      2717 5.79000E+01 4.09070E+01 0.00000E+00
 -1      2718 5.56500E+01 3.96080E+01 0.00000E+00
 -1      2719 5.94000E+01 4.09070E+01 0.00000E+00
 -1      2720 6.09000E+01 4.09070E+01 0.00000E+00
 -1      2721 5.86500E+01 3.96080E+01 0.00000E+00
 -1      2722 6.24000E+01 4.09070E+01 0.00000E+00
 -1      2723 6.39000E+01 4.09070E+01 0.00000E+00
 -1      2724 6.16500E+01 3.96080E+01 0.00000E+00
 -1      2725 6.54000E+01 4.09070E+01 0.00000E+00
 -1      2726 6.69000E+01 4.09070E+01 0.00000E+00
 -1      2727 6.46500E+01 3.96080E+01 0.00000E+00
 -1      2728 6.84000E+01 4.09070E+01 0.00000E+00
 -1      2729 6.99000E+01 4.09070E+01 0.00000E+00
 -1      2730 6.76500E+01 3.96080E+01 0.00000E+00
 -1      2731 7.14000E+01 4.09070E+01 0.00000E+00
 -1      2732 7.29000E+01 4.09070E+01 0.00000E+00
 -1      2733 7.06500E+01 3.96080E+01 0.00000E+00
 -1      2734 7.44000E+01 4.09070E+01 0.00000E+00
 -1      2735 7.59000E+01 4.09070E+01 0.00000E+00
 -1      2736 7.36500E+01 3.96080E+01 0.00000E+00
 -1      2737 7.74000E+01 4.09070E+01 0.00000E+00
 -1      2738 7.89000E+01 4.09070E+01 0.00000E+00
 -1      2739 7.66500E+01 3.96080E+01 0.00000E+00
 -1      2740 8.04000E+01 4.09070E+01 0.00000E+00
 -1      2741 8.19000E+01 4.09070E+01 0.00000E+00
 -1      2742 7.96500E+01 3.96080E+01 0.00000E+00
 -1      2743 8.34000E+01 4.09070E+01 0.00000E+00
 -1      2744 8.49000E+01 4.09070E+01 0.00000E+00
 -1      2745 8.26500E+01 3.96080E+01 0.00000E+00
 -1      2746 8.64000E+01 4.09070E+01 0.00000E+00
 -1      2747 8.79000E+01 4.09070E+01 0.00000E+00
 -1      2748 8.56500E+01 3.96080E+01 0.00000E+00
 -1      2749 8.94000E+01 4.09070E+01 0.00000E+00
 -1      2750 9.09000E+01 4.09070E+01 0.00000E+00
 -1      2751 8.86500E+01 3.96080E+01 0.00000E+00
 -1      2752 9.24000E+01 4.09070E+01 0.00000E+00
 -1      2753 9.39000E+01 4.09070E+01 0.00000E+00
 -1      2754 9.16500E+01 3.96080E+01 0.00000E+00
 -1      2755 9.54000E+01 4.09070E+01 0.00000E+00
 -1      2756 9.69000E+01 4.09070E+01 0.00000E+00
 -1      2757 9.46500E+01 3.96080E+01 0.00000E+00
 -1      2758 9.84000E+01 4.09070E+01 0.00000E+00
 -1      2759 9.99000E+01 4.09070E+01 0.00000E+00
 -1      2760 9.76500E+01 3.96080E+01 0.00000E+00
 -1      2761 1.01400E+02 4.09070E+01 0.00000E+00
 -1      2762 1.02900E+02 4.09070E+01 0.00000E+00
 -1      2763 1.00650E+02 3.96080E+01 0.00000E+00
 -1      2764 1.04400E+02 4.09070E+01 0.00000E+00
 -1      2765 1.05900E+02 4.09070E+01 0.00000E+00
 -1      2766 1.03650E+02 3.96080E+01 0.00000E+00
 -1      2767 1.07400E+02 4.09070E+01 0.00000E+00
 -1      2768 1.08900E+02 4.09070E+01 0.00000E+00
 -1      2769 1.06650E+02 3.96080E+01 0.00000E+00
 -1      2770 1.10400E+02 4.09070E+01 0.00000E+00
 -1      2771 1.11900E+02 4.09070E+01 0.00000E+00
 -1      2772 1.09650E+02 3.96080E+01 0.00000E+00
 -1      2773 1.13400E+02 4.09070E+01 0.00000E+00
 -1      2774 1.14900E+02 4.09070E+01 0.00000E+00
 -1      2775 1.12650E+02 3.96080E+01 0.00000E+00
 -1      2776 1.16400E+02 4.09070E+01 0.00000E+00
 -1      2777 1.17900E+02 4.09070E+01 0.00000E+00
 -1      2778 1.15650E+02 3.96080E+01 0.00000E+00
 -1      2779 1.19400E+02 4.09070E+01 0.00000E+00
 -1      2780 1.20900E+02 4.09070E+01 0.00000E+00
 -1      2781 1.18650E+02 3.96080E+01 0.00000E+00
 -1      2782 1.22400E+02 4.09070E+01 0.00000E+00
 -1      2783 1.23900E+02 4.09070E+01 0.00000E+00
 -1      2784 1.21650E+02 3.96080E+01 0.00000E+00
 -1      2785 1.25400E+02 4.09070E+01 0.00000E+00
 -1      2786 1.26900E+02 4.09070E+01 0.00000E+00
 -1      2787 1.24650E+02 3.96080E+01 0.00000E+00
 -1      2788 1.28400E+02 4.09070E+01 0.00000E+00
 -1      2789 1.29900E+02 4.09070E+01 0.00000E+00
 -1      2790 1.27650E+02 3.96080E+01 0.00000E+00
 -1      2791 1.31400E+02 4.09070E+01 0.00000E+00
 -1      2792 1.32900E+02 4.09070E+01 0.00000E+00
 -1      2793 1.30650E+02 3.96080E+01 0.00000E+00
 -1      2794 1.34400E+02 4.09070E+01 0.00000E+00
 -1      2795 1.35900E+02 4.09070E+01 0.00000E+00
 -1      2796 1.33650E+02 3.96080E+01 0.00000E+00
 -1      2797 1.37400E+02 4.09070E+01 0.00000E+00
 -1      2798 1.38900E+02 4.09070E+01 0.00000E+00
 -1      2799 1.36650E+02 3.96080E+01 0.00000E+00
 -1      2800 2.42850E+01 7.90325E+00 0.00000E+00
 -1      2801 2.27850E+01 7.90325E+00 0.00000E+00
 -1      2802 1.16276E+02 3.41976E+01 0.00000E+00
 -1      2803 1.15232E+02 3.40413E+01 0.00000E+00
 -1      2804 2.12850E+01 7.90325E+00 0.00000E+00
 -1      2805 1.97850E+01 7.90325E+00 0.00000E+00
 -1      2806 2.20350E+01 9.20225E+00 0.00000E+00
 -1      2807 3.02850E+01 7.90325E+00 0.00000E+00
 -1      2808 2.87850E+01 7.90325E+00 0.00000E+00
 -1      2809 3.32850E+01 7.90325E+00 0.00000E+00
 -1      2810 3.17850E+01 7.90325E+00 0.00000E+00
 -1      2811 3.10350E+01 9.20225E+00 0.00000E+00
 -1      2812 3.62850E+01 7.90325E+00 0.00000E+00
 -1      2813 3.47850E+01 7.90325E+00 0.00000E+00
 -1      2814 3.40350E+01 9.20225E+00 0.00000E+00
 -1      2815 3.92850E+01 7.90325E+00 0.00000E+00
 -1      2816 3.77850E+01 7.90325E+00 0.00000E+00
 -1      2817 3.70350E+01 9.20225E+00 0.00000E+00
 -1      2818 4.22850E+01 7.90325E+00 0.00000E+00
 -1      2819 4.07850E+01 7.90325E+00 0.00000E+00
 -1      2820 4.00350E+01 9.20225E+00 0.00000E+00
 -1      2821 4.52850E+01 7.90325E+00 0.00000E+00
 -1      2822 4.37850E+01 7.90325E+00 0.00000E+00
 -1      2823 4.30350E+01 9.20225E+00 0.00000E+00
 -1      2824 4.82850E+01 7.90325E+00 0.00000E+00
 -1      2825 4.67850E+01 7.90325E+00 0.00000E+00
 -1      2826 4.60350E+01 9.20225E+00 0.00000E+00
 -1      2827 5.12850E+01 7.90325E+00 0.00000E+00
 -1      2828 4.97850E+01 7.90325E+00 0.00000E+00
 -1      2829 4.90350E+01 9.20225E+00 0.00000E+00
 -1      2830 5.42850E+01 7.90325E+00 0.00000E+00
 -1      2831 5.27850E+01 7.90325E+00 0.00000E+00
 -1      2832 5.20350E+01 9.20225E+00 0.00000E+00
 -1      2833 5.72850E+01 7.90325E+00 0.00000E+00
 -1      2834 5.57850E+01 7.90325E+00 0.00000E+00
 -1      2835 5.50350E+01 9.20225E+00 0.00000E+00
 -1      2836 6.02850E+01 7.90325E+00 0.00000E+00
 -1      2837 5.87850E+01 7.90325E+00 0.00000E+00
 -1      2838 5.80350E+01 9.20225E+00 0.00000E+00
 -1      2839 6.32850E+01 7.90325E+00 0.00000E+00
 -1      2840 6.17850E+01 7.90325E+00 0.00000E+00
 -1      2841 6.10350E+01 9.20225E+00 0.00000E+00
 -1      2842 6.62850E+01 7.90325E+00 0.00000E+00
 -1      2843 6.47850E+01 7.90325E+00 0.00000E+00
 -1      2844 6.40350E+01 9.20225E+00 0.00000E+00
 -1      2845 6.92850E+01 7.90325E+00 0.00000E+00
 -1      2846 6.77850E+01 7.90325E+00 0.00000E+00
 -1      2847 6.70350E+01 9.20225E+00 0.00000E+00
 -1      2848 7.22850E+01 7.90325E+00 0.00000E+00
 -1      2849 7.07850E+01 7.90325E+00 0.00000E+00
 -1      2850 7.00350E+01 9.20225E+00 0.00000E+00
 -1      2851 7.52850E+01 7.90325E+00 0.00000E+00
 -1      2852 7.37850E+01 7.90325E+00 0.00000E+00
 -1      2853 7.30350E+01 9.20225E+00 0.00000E+00
 -1      2854 7.82850E+01 7.90325E+00 0.00000E+00
 -1      2855 7.67850E+01 7.90325E+00 0.00000E+00
 -1      2856 7.60350E+01 9.20225E+00 0.00000E+00
 -1      2857 8.12850E+01 7.90325E+00 0.00000E+00
 -1      2858 7.97850E+01 7.90325E+00 0.00000E+00
 -1      2859 7.90350E+01 9.20225E+00 0.00000E+00
 -1      2860 8.42850E+01 7.90325E+00 0.00000E+00
 -1      2861 8.27850E+01 7.90325E+00 0.00000E+00
 -1      2862 8.20350E+01 9.20225E+00 0.00000E+00
 -1      2863 8.72850E+01 7.90325E+00 0.00000E+00
 -1      2864 8.57850E+01 7.90325E+00 0.00000E+00
 -1      2865 8.50350E+01 9.20225E+00 0.00000E+00
 -1      2866 9.02850E+01 7.90325E+00 0.00000E+00
 -1      2867 8.87850E+01 7.90325E+00 0.00000E+00
 -1      2868 8.80350E+01 9.20225E+00 0.00000E+00
 -1      2869 9.32850E+01 7.90325E+00 0.00000E+00
 -1      2870 9.17850E+01 7.90325E+00 0.00000E+00
 -1      2871 9.10350E+01 9.20225E+00 0.00000E+00
 -1      2872 9.62850E+01 7.90325E+00 0.00000E+00
 -1      2873 9.47850E+01 7.90325E+00 0.00000E+00
 -1      2874 9.40350E+01 9.20225E+00 0.00000E+00
 -1      2875 9.92850E+01 7.90325E+00 0.00000E+00
 -1      2876 9.77850E+01 7.90325E+00 0.00000E+00
 -1      2877 9.70350E+01 9.20225E+00 0.00000E+00
 -1      2878 1.02285E+02 7.90325E+00 0.00000E+00
 -1      2879 1.00785E+02 7.90325E+00 0.00000E+00
 -1      2880 1.00035E+02 9.20225E+00 0.00000E+00
 -1      2881 1.05285E+02 7.90325E+00 0.00000E+00
 -1      2882 1.03785E+02 7.90325E+00 0.00000E+00
 -1      2883 1.03035E+02 9.20225E+00 0.00000E+00
 -1      2884 1.08285E+02 7.90325E+00 0.00000E+00
 -1      2885 1.06785E+02 7.90325E+00 0.00000E+00
 -1      2886 1.06035E+02 9.20225E+00 0.00000E+00
 -1      2887 1.11285E+02 7.90325E+00 0.00000E+00
 -1      2888 1.09785E+02 7.90325E+00 0.00000E+00
 -1      2889 1.09035E+02 9.20225E+00 0.00000E+00
 -1      2890 1.17341E+02 8.67813E+00 0.00000E+00
 -1      2891 1.15841E+02 8.67813E+00 0.00000E+00
 -1      2892 1.20396E+02 8.86798E+00 0.00000E+00
 -1      2893 1.18896E+02 8.86798E+00 0.00000E+00
 -1      2894 1.26285E+02 7.90325E+00 0.00000E+00
 -1      2895 1.24785E+02 7.90325E+00 0.00000E+00
 -1      2896 1.29285E+02 7.90325E+00 0.00000E+00
 -1      2897 1.27785E+02 7.90325E+00 0.00000E+00
 -1      2898 1.27035E+02 9.20225E+00 0.00000E+00
 -1      2899 1.32285E+02 7.90325E+00 0.00000E+00
 -1      2900 1.30785E+02 7.90325E+00 0.00000E+00
 -1      2901 1.30035E+02 9.20225E+00 0.00000E+00
 -1      2902 1.35285E+02 7.90325E+00 0.00000E+00
 -1      2903 1.33785E+02 7.90325E+00 0.00000E+00
 -1      2904 1.33035E+02 9.20225E+00 0.00000E+00
 -1      2905 1.38285E+02 7.90325E+00 0.00000E+00
 -1      2906 1.36785E+02 7.90325E+00 0.00000E+00
 -1      2907 1.36035E+02 9.20225E+00 0.00000E+00
 -1      2908 1.40953E+02 8.18394E+00 0.00000E+00
 -1      2909 1.39453E+02 8.18394E+00 0.00000E+00
 -1      2910 1.38703E+02 9.48294E+00 0.00000E+00
 -1      2911 1.41038E+02 1.00443E+01 0.00000E+00
 -1      2912 1.40907E+02 2.42875E+01 0.00000E+00
 -1      2913 1.40907E+02 2.28125E+01 0.00000E+00
 -1      2914 1.39914E+02 4.09362E+01 0.00000E+00
 -1      2915 1.40928E+02 4.09655E+01 0.00000E+00
 -1      2916 1.39164E+02 3.96372E+01 0.00000E+00
 -1      2917 1.40907E+02 1.83875E+01 0.00000E+00
 -1      2918 1.40907E+02 1.69125E+01 0.00000E+00
 -1      2919 1.40907E+02 2.72375E+01 0.00000E+00
 -1      2920 1.40907E+02 2.57625E+01 0.00000E+00
 -1      2921 1.39608E+02 2.50250E+01 0.00000E+00
 -1      2922 1.40907E+02 2.13375E+01 0.00000E+00
 -1      2923 1.40907E+02 1.98625E+01 0.00000E+00
 -1      2924 1.39608E+02 1.91250E+01 0.00000E+00
 -1      2925 1.39608E+02 2.20750E+01 0.00000E+00
 -1      2926 1.29519E+02 2.20058E+01 0.00000E+00
 -1      2927 1.29437E+02 2.31223E+01 0.00000E+00
 -1      2928 1.40907E+02 3.01375E+01 0.00000E+00
 -1      2929 1.40907E+02 2.86875E+01 0.00000E+00
 -1      2930 1.39608E+02 2.79500E+01 0.00000E+00
 -1      2931 1.40907E+02 3.30875E+01 0.00000E+00
 -1      2932 1.40907E+02 3.16125E+01 0.00000E+00
 -1      2933 1.39608E+02 3.08750E+01 0.00000E+00
 -1      2934 1.40907E+02 3.60375E+01 0.00000E+00
 -1      2935 1.40907E+02 3.45625E+01 0.00000E+00
 -1      2936 1.39608E+02 3.38250E+01 0.00000E+00
 -1      2937 1.06659E+02 2.71947E+01 0.00000E+00
 -1      2938 1.05977E+02 2.62140E+01 0.00000E+00
 -1      2939 1.27633E+02 1.67947E+01 0.00000E+00
 -1      2940 1.28211E+02 1.78867E+01 0.00000E+00
 -1      2941 8.85168E+00 4.05347E+01 0.00000E+00
 -1      2942 1.02152E+01 4.07987E+01 0.00000E+00
 -1      2943 1.21983E+02 7.97041E+00 0.00000E+00
 -1      2944 1.21344E+02 1.02341E+01 0.00000E+00
 -1      2945 1.22379E+02 1.07027E+01 0.00000E+00
 -1      2946 1.23483E+02 7.97041E+00 0.00000E+00
 -1      2947 1.06416E+02 1.72617E+01 0.00000E+00
 -1      2948 1.06818E+02 1.61477E+01 0.00000E+00
 -1      2949 1.82850E+01 7.90325E+00 0.00000E+00
 -1      2950 1.67850E+01 7.90325E+00 0.00000E+00
 -1      2951 1.90350E+01 9.20225E+00 0.00000E+00
 -1      2952 1.09699E+02 1.25352E+01 0.00000E+00
 -1      2953 1.10834E+02 1.17103E+01 0.00000E+00
 -1      2954 2.72850E+01 7.90325E+00 0.00000E+00
 -1      2955 2.57850E+01 7.90325E+00 0.00000E+00
 -1      2956 2.50350E+01 9.20225E+00 0.00000E+00
 -1      2957 2.80350E+01 9.20225E+00 0.00000E+00
 -1      2958 1.25166E+02 1.28403E+01 0.00000E+00
 -1      2959 1.25940E+02 1.38540E+01 0.00000E+00
 -1      2960 1.15576E+01 4.08528E+01 0.00000E+00
 -1      2961 1.30576E+01 4.08528E+01 0.00000E+00
 -1      2962 1.38076E+01 3.95538E+01 0.00000E+00
 -1      2963 1.11228E+01 3.94455E+01 0.00000E+00
 -1      2964 1.52850E+01 7.90325E+00 0.00000E+00
 -1      2965 1.37850E+01 7.90325E+00 0.00000E+00
 -1      2966 1.30350E+01 9.20225E+00 0.00000E+00
 -1      2967 1.60350E+01 9.20225E+00 0.00000E+00
 -1      2968 1.21717E+02 3.42572E+01 0.00000E+00
 -1      2969 1.20530E+02 3.48628E+01 0.00000E+00
 -1      2970 1.07790E+02 2.96086E+01 0.00000E+00
 -1      2971 1.07225E+02 2.84017E+01 0.00000E+00
 -1      2972 1.06214E+02 2.83768E+01 0.00000E+00
 -1      2973 8.91450E+00 8.42712E+00 0.00000E+00
 -1      2974 9.09300E+00 1.68813E+01 0.00000E+00
 -1      2975 9.09300E+00 1.83563E+01 0.00000E+00
 -1      2976 1.03920E+01 1.90812E+01 0.00000E+00
 -1      2977 1.03920E+01 1.61437E+01 0.00000E+00
 -1      2978 7.48818E+00 3.88019E+01 0.00000E+00
 -1      2979 9.09300E+00 3.15875E+01 0.00000E+00
 -1      2980 9.09300E+00 3.30625E+01 0.00000E+00
 -1      2981 1.07678E+02 1.47606E+01 0.00000E+00
 -1      2982 1.08617E+02 1.37278E+01 0.00000E+00
 -1      2983 1.41192E+02 3.96958E+01 0.00000E+00
 -1      2984 1.12369E+02 1.10665E+01 0.00000E+00
 -1      2985 1.13472E+02 1.08045E+01 0.00000E+00
 -1      2986 1.09306E+02 3.15663E+01 0.00000E+00
 -1      2987 1.08490E+02 3.07653E+01 0.00000E+00
 -1      2988 1.05264E+02 2.19088E+01 0.00000E+00
 -1      2989 1.05577E+02 2.06021E+01 0.00000E+00
 -1      2990 1.26492E+02 1.49251E+01 0.00000E+00
 -1      2991 1.27081E+02 1.57236E+01 0.00000E+00
 -1      2992 1.28091E+02 1.58879E+01 0.00000E+00
 -1      2993 1.26987E+02 1.37457E+01 0.00000E+00
 -1      2994 1.05872E+02 1.94267E+01 0.00000E+00
 -1      2995 1.06138E+02 1.84215E+01 0.00000E+00
 -1      2996 1.11136E+02 3.29328E+01 0.00000E+00
 -1      2997 1.10289E+02 3.23707E+01 0.00000E+00
 -1      2998 1.18796E+02 3.48649E+01 0.00000E+00
 -1      2999 1.17536E+02 3.45313E+01 0.00000E+00
 -1      3000 1.16899E+02 3.52184E+01 0.00000E+00
 -1      3001 1.23596E+02 3.32178E+01 0.00000E+00
 -1      3002 1.22656E+02 3.37375E+01 0.00000E+00
 -1      3003 1.22567E+02 3.50280E+01 0.00000E+00
 -1      3004 8.78718E+00 3.80644E+01 0.00000E+00
 -1      3005 1.03920E+01 2.49750E+01 0.00000E+00
 -1      3006 9.09300E+00 2.57000E+01 0.00000E+00
 -1      3007 9.09300E+00 2.71750E+01 0.00000E+00
 -1      3008 1.03584E+02 2.34293E+01 0.00000E+00
 -1      3009 1.04424E+02 2.26691E+01 0.00000E+00
 -1      3010 1.03747E+02 2.18157E+01 0.00000E+00
 -1      3011 1.26794E+02 3.12421E+01 0.00000E+00
 -1      3012 1.23255E+02 1.15372E+01 0.00000E+00
 -1      3013 1.24290E+02 1.20058E+01 0.00000E+00
 -1      3014 1.25559E+02 1.18401E+01 0.00000E+00
 -1      3015 1.23807E+02 1.01711E+01 0.00000E+00
 -1      3016 1.25615E+02 3.33316E+01 0.00000E+00
 -1      3017 1.24605E+02 3.32747E+01 0.00000E+00
 -1      3018 1.24516E+02 3.45652E+01 0.00000E+00
 -1      3019 1.29759E+02 2.38711E+01 0.00000E+00
 -1      3020 1.30082E+02 2.46199E+01 0.00000E+00
 -1      3021 1.30739E+02 2.33819E+01 0.00000E+00
 -1      3022 1.14311E+02 3.44042E+01 0.00000E+00
 -1      3023 1.13390E+02 3.47672E+01 0.00000E+00
 -1      3024 1.14719E+02 3.52476E+01 0.00000E+00
 -1      3025 1.39608E+02 1.61875E+01 0.00000E+00
 -1      3026 1.40907E+02 1.54500E+01 0.00000E+00
 -1      3027 1.40907E+02 1.39875E+01 0.00000E+00
 -1      3028 1.11149E+02 1.05819E+01 0.00000E+00
 -1      3029 1.14665E+02 1.03450E+01 0.00000E+00
 -1      3030 1.13859E+02 8.27117E+00 0.00000E+00
 -1      3031 1.12359E+02 8.27117E+00 0.00000E+00
 -1      3032 1.24233E+02 9.26941E+00 0.00000E+00
 -1      3033 1.05505E+02 1.52353E+01 0.00000E+00
 -1      3034 1.06591E+02 1.49979E+01 0.00000E+00
 -1      3035 1.06365E+02 1.38481E+01 0.00000E+00
 -1      3036 1.29929E+02 2.12096E+01 0.00000E+00
 -1      3037 1.30827E+02 2.18370E+01 0.00000E+00
 -1      3038 1.30339E+02 2.04135E+01 0.00000E+00
 -1      3039 1.40973E+02 1.27472E+01 0.00000E+00
 -1      3040 1.40973E+02 1.12847E+01 0.00000E+00
 -1      3041 1.39805E+02 1.10040E+01 0.00000E+00
 -1      3042 1.39674E+02 1.34847E+01 0.00000E+00
 -1      3043 1.04626E+02 2.66822E+01 0.00000E+00
 -1      3044 1.04955E+02 2.57263E+01 0.00000E+00
 -1      3045 1.03932E+02 2.52386E+01 0.00000E+00
 -1      3046 9.66450E+00 9.72612E+00 0.00000E+00
 -1      3047 1.41192E+02 3.82207E+01 0.00000E+00
 -1      3048 1.29042E+02 1.83726E+01 0.00000E+00
 -1      3049 1.29873E+02 1.88584E+01 0.00000E+00
 -1      3050 1.29474E+02 1.74449E+01 0.00000E+00
 -1      3051 1.09635E+01 1.04636E+01 0.00000E+00
 -1      3052 1.03920E+01 3.37938E+01 0.00000E+00
 -1      3053 9.09300E+00 3.45313E+01 0.00000E+00
 -1      3054 9.09300E+00 3.60000E+01 0.00000E+00
 -1      3055 1.04881E+02 1.98800E+01 0.00000E+00
 -1      3056 1.11564E+02 3.37149E+01 0.00000E+00
 -1      3057 1.05454E+02 1.75449E+01 0.00000E+00
 -1      3058 1.08533E+02 1.24182E+01 0.00000E+00
 -1      3059 9.09300E+00 2.86437E+01 0.00000E+00
 -1      3060 9.09300E+00 3.01187E+01 0.00000E+00
 -1      3061 1.03920E+01 3.08563E+01 0.00000E+00
 -1      3062 1.03920E+01 2.79188E+01 0.00000E+00
 -1      3063 1.07480E+02 3.07405E+01 0.00000E+00
 -1      3064 1.28062E+02 2.91269E+01 0.00000E+00
 -1      3065 1.28569E+02 3.00365E+01 0.00000E+00
 -1      3066 1.28747E+02 2.87203E+01 0.00000E+00
 -1      3067 1.09163E+02 3.27016E+01 0.00000E+00
 -1      3068 1.28672E+02 2.64599E+01 0.00000E+00
 -1      3069 1.29063E+02 2.73925E+01 0.00000E+00
 -1      3070 1.29494E+02 2.60416E+01 0.00000E+00
 -1      3071 1.39529E+02 3.85602E+01 0.00000E+00
 -1      3072 1.40542E+02 3.71145E+01 0.00000E+00
 -1      3073 1.39243E+02 3.63770E+01 0.00000E+00
 -1      3074 1.38514E+02 3.85310E+01 0.00000E+00
 -1      3075 1.16910E+01 1.24625E+01 0.00000E+00
 -1      3076 1.16910E+01 1.39375E+01 0.00000E+00
 -1      3077 1.00862E+01 3.73269E+01 0.00000E+00
 -1      3078 1.89000E+01 3.83090E+01 0.00000E+00
 -1      3079 2.04000E+01 3.83090E+01 0.00000E+00
 -1      3080 2.19000E+01 3.83090E+01 0.00000E+00
 -1      3081 2.34000E+01 3.83090E+01 0.00000E+00
 -1      3082 2.11500E+01 3.70100E+01 0.00000E+00
 -1      3083 2.49000E+01 3.83090E+01 0.00000E+00
 -1      3084 2.64000E+01 3.83090E+01 0.00000E+00
 -1      3085 2.41500E+01 3.70100E+01 0.00000E+00
 -1      3086 2.79000E+01 3.83090E+01 0.00000E+00
 -1      3087 2.94000E+01 3.83090E+01 0.00000E+00
 -1      3088 2.71500E+01 3.70100E+01 0.00000E+00
 -1      3089 3.09000E+01 3.83090E+01 0.00000E+00
 -1      3090 3.24000E+01 3.83090E+01 0.00000E+00
 -1      3091 3.01500E+01 3.70100E+01 0.00000E+00
 -1      3092 3.39000E+01 3.83090E+01 0.00000E+00
 -1      3093 3.54000E+01 3.83090E+01 0.00000E+00
 -1      3094 3.31500E+01 3.70100E+01 0.00000E+00
 -1      3095 3.69000E+01 3.83090E+01 0.00000E+00
 -1      3096 3.84000E+01 3.83090E+01 0.00000E+00
 -1      3097 3.61500E+01 3.70100E+01 0.00000E+00
 -1      3098 3.99000E+01 3.83090E+01 0.00000E+00
 -1      3099 4.14000E+01 3.83090E+01 0.00000E+00
 -1      3100 3.91500E+01 3.70100E+01 0.00000E+00
 -1      3101 4.29000E+01 3.83090E+01 0.00000E+00
 -1      3102 4.44000E+01 3.83090E+01 0.00000E+00
 -1      3103 4.21500E+01 3.70100E+01 0.00000E+00
 -1      3104 4.59000E+01 3.83090E+01 0.00000E+00
 -1      3105 4.74000E+01 3.83090E+01 0.00000E+00
 -1      3106 4.51500E+01 3.70100E+01 0.00000E+00
 -1      3107 4.89000E+01 3.83090E+01 0.00000E+00
 -1      3108 5.04000E+01 3.83090E+01 0.00000E+00
 -1      3109 4.81500E+01 3.70100E+01 0.00000E+00
 -1      3110 5.19000E+01 3.83090E+01 0.00000E+00
 -1      3111 5.34000E+01 3.83090E+01 0.00000E+00
 -1      3112 5.11500E+01 3.70100E+01 0.00000E+00
 -1      3113 5.49000E+01 3.83090E+01 0.00000E+00
 -1      3114 5.64000E+01 3.83090E+01 0.00000E+00
 -1      3115 5.41500E+01 3.70100E+01 0.00000E+00
 -1      3116 5.79000E+01 3.83090E+01 0.00000E+00
 -1      3117 5.94000E+01 3.83090E+01 0.00000E+00
 -1      3118 5.71500E+01 3.70100E+01 0.00000E+00
 -1      3119 6.09000E+01 3.83090E+01 0.00000E+00
 -1      3120 6.24000E+01 3.83090E+01 0.00000E+00
 -1      3121 6.01500E+01 3.70100E+01 0.00000E+00
 -1      3122 6.39000E+01 3.83090E+01 0.00000E+00
 -1      3123 6.54000E+01 3.83090E+01 0.00000E+00
 -1      3124 6.31500E+01 3.70100E+01 0.00000E+00
 -1      3125 6.69000E+01 3.83090E+01 0.00000E+00
 -1      3126 6.84000E+01 3.83090E+01 0.00000E+00
 -1      3127 6.61500E+01 3.70100E+01 0.00000E+00
 -1      3128 6.99000E+01 3.83090E+01 0.00000E+00
 -1      3129 7.14000E+01 3.83090E+01 0.00000E+00
 -1      3130 6.91500E+01 3.70100E+01 0.00000E+00
 -1      3131 7.29000E+01 3.83090E+01 0.00000E+00
 -1      3132 7.44000E+01 3.83090E+01 0.00000E+00
 -1      3133 7.21500E+01 3.70100E+01 0.00000E+00
 -1      3134 7.59000E+01 3.83090E+01 0.00000E+00
 -1      3135 7.74000E+01 3.83090E+01 0.00000E+00
 -1      3136 7.51500E+01 3.70100E+01 0.00000E+00
 -1      3137 7.89000E+01 3.83090E+01 0.00000E+00
 -1      3138 8.04000E+01 3.83090E+01 0.00000E+00
 -1      3139 7.81500E+01 3.70100E+01 0.00000E+00
 -1      3140 8.19000E+01 3.83090E+01 0.00000E+00
 -1      3141 8.34000E+01 3.83090E+01 0.00000E+00
 -1      3142 8.11500E+01 3.70100E+01 0.00000E+00
 -1      3143 8.49000E+01 3.83090E+01 0.00000E+00
 -1      3144 8.64000E+01 3.83090E+01 0.00000E+00
 -1      3145 8.41500E+01 3.70100E+01 0.00000E+00
 -1      3146 8.79000E+01 3.83090E+01 0.00000E+00
 -1      3147 8.94000E+01 3.83090E+01 0.00000E+00
 -1      3148 8.71500E+01 3.70100E+01 0.00000E+00
 -1      3149 9.09000E+01 3.83090E+01 0.00000E+00
 -1      3150 9.24000E+01 3.83090E+01 0.00000E+00
 -1      3151 9.01500E+01 3.70100E+01 0.00000E+00
 -1      3152 9.39000E+01 3.83090E+01 0.00000E+00
 -1      3153 9.54000E+01 3.83090E+01 0.00000E+00
 -1      3154 9.31500E+01 3.70100E+01 0.00000E+00
 -1      3155 9.69000E+01 3.83090E+01 0.00000E+00
 -1      3156 9.84000E+01 3.83090E+01 0.00000E+00
 -1      3157 9.61500E+01 3.70100E+01 0.00000E+00
 -1      3158 9.99000E+01 3.83090E+01 0.00000E+00
 -1      3159 1.01400E+02 3.83090E+01 0.00000E+00
 -1      3160 9.91500E+01 3.70100E+01 0.00000E+00
 -1      3161 1.02900E+02 3.83090E+01 0.00000E+00
 -1      3162 1.04400E+02 3.83090E+01 0.00000E+00
 -1      3163 1.02150E+02 3.70100E+01 0.00000E+00
 -1      3164 1.05900E+02 3.83090E+01 0.00000E+00
 -1      3165 1.07400E+02 3.83090E+01 0.00000E+00
 -1      3166 1.05150E+02 3.70100E+01 0.00000E+00
 -1      3167 1.08900E+02 3.83090E+01 0.00000E+00
 -1      3168 1.10400E+02 3.83090E+01 0.00000E+00
 -1      3169 1.08150E+02 3.70100E+01 0.00000E+00
 -1      3170 1.12474E+02 3.76093E+01 0.00000E+00
 -1      3171 1.13974E+02 3.76093E+01 0.00000E+00
 -1      3172 1.17900E+02 3.83315E+01 0.00000E+00
 -1      3173 1.19400E+02 3.83315E+01 0.00000E+00
 -1      3174 1.20889E+02 3.75779E+01 0.00000E+00
 -1      3175 1.22389E+02 3.75779E+01 0.00000E+00
 -1      3176 1.24338E+02 3.71150E+01 0.00000E+00
 -1      3177 1.25838E+02 3.71150E+01 0.00000E+00
 -1      3178 1.29900E+02 3.83090E+01 0.00000E+00
 -1      3179 1.31400E+02 3.83090E+01 0.00000E+00
 -1      3180 1.32900E+02 3.83090E+01 0.00000E+00
 -1      3181 1.34400E+02 3.83090E+01 0.00000E+00
 -1      3182 1.32150E+02 3.70100E+01 0.00000E+00
 -1      3183 1.35707E+02 3.84200E+01 0.00000E+00
 -1      3184 1.37207E+02 3.84200E+01 0.00000E+00
 -1      3185 1.37572E+02 3.73430E+01 0.00000E+00
 -1      3186 1.34957E+02 3.71210E+01 0.00000E+00
 -1      3187 3.47850E+01 1.05013E+01 0.00000E+00
 -1      3188 3.32850E+01 1.05013E+01 0.00000E+00
 -1      3189 3.17850E+01 1.05013E+01 0.00000E+00
 -1      3190 3.02850E+01 1.05013E+01 0.00000E+00
 -1      3191 3.25350E+01 1.18003E+01 0.00000E+00
 -1      3192 4.07850E+01 1.05013E+01 0.00000E+00
 -1      3193 3.92850E+01 1.05013E+01 0.00000E+00
 -1      3194 4.37850E+01 1.05013E+01 0.00000E+00
 -1      3195 4.22850E+01 1.05013E+01 0.00000E+00
 -1      3196 4.15350E+01 1.18003E+01 0.00000E+00
 -1      3197 4.67850E+01 1.05013E+01 0.00000E+00
 -1      3198 4.52850E+01 1.05013E+01 0.00000E+00
 -1      3199 4.45350E+01 1.18003E+01 0.00000E+00
 -1      3200 4.97850E+01 1.05013E+01 0.00000E+00
 -1      3201 4.82850E+01 1.05013E+01 0.00000E+00
 -1      3202 4.75350E+01 1.18003E+01 0.00000E+00
 -1      3203 5.27850E+01 1.05013E+01 0.00000E+00
 -1      3204 5.12850E+01 1.05013E+01 0.00000E+00
 -1      3205 5.05350E+01 1.18003E+01 0.00000E+00
 -1      3206 5.57850E+01 1.05013E+01 0.00000E+00
 -1      3207 5.42850E+01 1.05013E+01 0.00000E+00
 -1      3208 5.35350E+01 1.18003E+01 0.00000E+00
 -1      3209 5.87850E+01 1.05013E+01 0.00000E+00
 -1      3210 5.72850E+01 1.05013E+01 0.00000E+00
 -1      3211 5.65350E+01 1.18003E+01 0.00000E+00
 -1      3212 6.17850E+01 1.05013E+01 0.00000E+00
 -1      3213 6.02850E+01 1.05013E+01 0.00000E+00
 -1      3214 5.95350E+01 1.18003E+01 0.00000E+00
 -1      3215 6.47850E+01 1.05013E+01 0.00000E+00
 -1      3216 6.32850E+01 1.05013E+01 0.00000E+00
 -1      3217 6.25350E+01 1.18003E+01 0.00000E+00
 -1      3218 6.77850E+01 1.05013E+01 0.00000E+00
 -1      3219 6.62850E+01 1.05013E+01 0.00000E+00
 -1      3220 6.55350E+01 1.18003E+01 0.00000E+00
 -1      3221 7.07850E+01 1.05013E+01 0.00000E+00
 -1      3222 6.92850E+01 1.05013E+01 0.00000E+00
 -1      3223 6.85350E+01 1.18003E+01 0.00000E+00
 -1      3224 7.37850E+01 1.05013E+01 0.00000E+00
 -1      3225 7.22850E+01 1.05013E+01 0.00000E+00
 -1      3226 7.15350E+01 1.18003E+01 0.00000E+00
 -1      3227 7.67850E+01 1.05013E+01 0.00000E+00
 -1      3228 7.52850E+01 1.05013E+01 0.00000E+00
 -1      3229 7.45350E+01 1.18003E+01 0.00000E+00
 -1      3230 7.97850E+01 1.05013E+01 0.00000E+00
 -1      3231 7.82850E+01 1.05013E+01 0.00000E+00
 -1      3232 7.75350E+01 1.18003E+01 0.00000E+00
 -1      3233 8.27850E+01 1.05013E+01 0.00000E+00
 -1      3234 8.12850E+01 1.05013E+01 0.00000E+00
 -1      3235 8.05350E+01 1.18003E+01 0.00000E+00
 -1      3236 8.57850E+01 1.05013E+01 0.00000E+00
 -1      3237 8.42850E+01 1.05013E+01 0.00000E+00
 -1      3238 8.35350E+01 1.18003E+01 0.00000E+00
 -1      3239 8.87850E+01 1.05013E+01 0.00000E+00
 -1      3240 8.72850E+01 1.05013E+01 0.00000E+00
 -1      3241 8.65350E+01 1.18003E+01 0.00000E+00
 -1      3242 9.17850E+01 1.05013E+01 0.00000E+00
 -1      3243 9.02850E+01 1.05013E+01 0.00000E+00
 -1      3244 8.95350E+01 1.18003E+01 0.00000E+00
 -1      3245 9.47850E+01 1.05013E+01 0.00000E+00
 -1      3246 9.32850E+01 1.05013E+01 0.00000E+00
 -1      3247 9.25350E+01 1.18003E+01 0.00000E+00
 -1      3248 9.77850E+01 1.05013E+01 0.00000E+00
 -1      3249 9.62850E+01 1.05013E+01 0.00000E+00
 -1      3250 9.55350E+01 1.18003E+01 0.00000E+00
 -1      3251 1.00785E+02 1.05013E+01 0.00000E+00
 -1      3252 9.92850E+01 1.05013E+01 0.00000E+00
 -1      3253 9.85350E+01 1.18003E+01 0.00000E+00
 -1      3254 1.03785E+02 1.05013E+01 0.00000E+00
 -1      3255 1.02285E+02 1.05013E+01 0.00000E+00
 -1      3256 1.01535E+02 1.18003E+01 0.00000E+00
 -1      3257 1.06407E+02 1.16439E+01 0.00000E+00
 -1      3258 1.04907E+02 1.16439E+01 0.00000E+00
 -1      3259 1.11609E+02 9.57017E+00 0.00000E+00
 -1      3260 1.18388E+02 8.66048E+00 0.00000E+00
 -1      3261 1.36785E+02 1.05013E+01 0.00000E+00
 -1      3262 1.35285E+02 1.05013E+01 0.00000E+00
 -1      3263 1.38879E+02 1.08930E+01 0.00000E+00
 -1      3264 1.37711E+02 1.06123E+01 0.00000E+00
 -1      3265 1.36961E+02 1.19113E+01 0.00000E+00
 -1      3266 1.38813E+02 1.21333E+01 0.00000E+00
 -1      3267 1.38309E+02 2.57625E+01 0.00000E+00
 -1      3268 1.38309E+02 2.42875E+01 0.00000E+00
 -1      3269 1.38309E+02 3.45625E+01 0.00000E+00
 -1      3270 1.38309E+02 3.30875E+01 0.00000E+00
 -1      3271 1.06809E+02 3.19364E+01 0.00000E+00
 -1      3272 1.06109E+02 3.07796E+01 0.00000E+00
 -1      3273 1.38309E+02 2.86625E+01 0.00000E+00
 -1      3274 1.38309E+02 2.72125E+01 0.00000E+00
 -1      3275 1.37010E+02 2.64750E+01 0.00000E+00
 -1      3276 1.19805E+02 3.51612E+01 0.00000E+00
 -1      3277 1.19168E+02 3.58484E+01 0.00000E+00
 -1      3278 1.26488E+01 1.02017E+01 0.00000E+00
 -1      3279 1.20772E+01 1.14631E+01 0.00000E+00
 -1      3280 1.33763E+01 1.22006E+01 0.00000E+00
 -1      3281 1.41488E+01 1.02017E+01 0.00000E+00
 -1      3282 1.38309E+02 3.16125E+01 0.00000E+00
 -1      3283 1.38309E+02 3.01375E+01 0.00000E+00
 -1      3284 1.37010E+02 2.94000E+01 0.00000E+00
 -1      3285 1.37010E+02 3.23500E+01 0.00000E+00
 -1      3286 1.33785E+02 1.05013E+01 0.00000E+00
 -1      3287 1.32285E+02 1.05013E+01 0.00000E+00
 -1      3288 1.34535E+02 1.18003E+01 0.00000E+00
 -1      3289 1.30785E+02 1.05013E+01 0.00000E+00
 -1      3290 1.29285E+02 1.05013E+01 0.00000E+00
 -1      3291 1.31535E+02 1.18003E+01 0.00000E+00
 -1      3292 1.97850E+01 1.05013E+01 0.00000E+00
 -1      3293 1.82850E+01 1.05013E+01 0.00000E+00
 -1      3294 1.20902E+02 3.58462E+01 0.00000E+00
 -1      3295 3.77850E+01 1.05013E+01 0.00000E+00
 -1      3296 3.62850E+01 1.05013E+01 0.00000E+00
 -1      3297 3.55350E+01 1.18003E+01 0.00000E+00
 -1      3298 3.85350E+01 1.18003E+01 0.00000E+00
 -1      3299 2.27850E+01 1.05013E+01 0.00000E+00
 -1      3300 2.12850E+01 1.05013E+01 0.00000E+00
 -1      3301 2.05350E+01 1.18003E+01 0.00000E+00
 -1      3302 1.59000E+01 3.83090E+01 0.00000E+00
 -1      3303 1.74000E+01 3.83090E+01 0.00000E+00
 -1      3304 1.81500E+01 3.70100E+01 0.00000E+00
 -1      3305 1.10075E+02 1.02140E+01 0.00000E+00
 -1      3306 1.05493E+02 2.94508E+01 0.00000E+00
 -1      3307 1.04927E+02 2.82438E+01 0.00000E+00
 -1      3308 1.27995E+02 3.17368E+01 0.00000E+00
 -1      3309 1.26905E+02 3.25359E+01 0.00000E+00
 -1      3310 1.25109E+02 1.01039E+01 0.00000E+00
 -1      3311 1.12124E+02 3.48335E+01 0.00000E+00
 -1      3312 1.10706E+02 3.46247E+01 0.00000E+00
 -1      3313 1.04318E+02 1.78860E+01 0.00000E+00
 -1      3314 1.04596E+02 1.67262E+01 0.00000E+00
 -1      3315 1.17239E+02 3.59150E+01 0.00000E+00
 -1      3316 1.15979E+02 3.55813E+01 0.00000E+00
 -1      3317 1.15058E+02 3.59442E+01 0.00000E+00
 -1      3318 1.08952E+02 3.39621E+01 0.00000E+00
 -1      3319 1.07969E+02 3.31576E+01 0.00000E+00
 -1      3320 1.16910E+01 2.12875E+01 0.00000E+00
 -1      3321 1.16910E+01 2.27625E+01 0.00000E+00
 -1      3322 1.03729E+02 2.02368E+01 0.00000E+00
 -1      3323 1.04023E+02 1.90614E+01 0.00000E+00
 -1      3324 1.03165E+02 1.82428E+01 0.00000E+00
 -1      3325 1.08575E+02 1.02140E+01 0.00000E+00
 -1      3326 1.19413E+02 3.65999E+01 0.00000E+00
 -1      3327 1.18405E+02 3.63035E+01 0.00000E+00
 -1      3328 1.16910E+01 2.42375E+01 0.00000E+00
 -1      3329 1.16910E+01 2.57125E+01 0.00000E+00
 -1      3330 1.29900E+01 2.35000E+01 0.00000E+00
 -1      3331 1.03255E+02 2.43852E+01 0.00000E+00
 -1      3332 1.02578E+02 2.35318E+01 0.00000E+00
 -1      3333 1.02926E+02 2.53411E+01 0.00000E+00
 -1      3334 1.14286E+01 3.73811E+01 0.00000E+00
 -1      3335 1.09512E+02 3.50807E+01 0.00000E+00
 -1      3336 1.31150E+02 2.25858E+01 0.00000E+00
 -1      3337 1.31472E+02 2.33346E+01 0.00000E+00
 -1      3338 1.31560E+02 2.17896E+01 0.00000E+00
 -1      3339 1.69669E+01 1.03515E+01 0.00000E+00
 -1      3340 1.54669E+01 1.03515E+01 0.00000E+00
 -1      3341 1.50806E+01 1.13509E+01 0.00000E+00
 -1      3342 1.77169E+01 1.16505E+01 0.00000E+00
 -1      3343 1.06599E+02 3.31968E+01 0.00000E+00
 -1      3344 1.38309E+02 1.69188E+01 0.00000E+00
 -1      3345 1.38309E+02 1.54563E+01 0.00000E+00
 -1      3346 1.15234E+02 3.79430E+01 0.00000E+00
 -1      3347 1.16734E+02 3.79430E+01 0.00000E+00
 -1      3348 1.26900E+02 3.83090E+01 0.00000E+00
 -1      3349 1.28400E+02 3.83090E+01 0.00000E+00
 -1      3350 1.26816E+02 3.38263E+01 0.00000E+00
 -1      3351 2.95350E+01 1.18003E+01 0.00000E+00
 -1      3352 2.87850E+01 1.05013E+01 0.00000E+00
 -1      3353 2.72850E+01 1.05013E+01 0.00000E+00
 -1      3354 1.03904E+02 2.77561E+01 0.00000E+00
 -1      3355 1.17484E+02 3.66665E+01 0.00000E+00
 -1      3356 1.04369E+02 1.55764E+01 0.00000E+00
 -1      3357 1.04142E+02 1.44266E+01 0.00000E+00
 -1      3358 1.03233E+02 1.59176E+01 0.00000E+00
 -1      3359 1.30771E+02 1.94858E+01 0.00000E+00
 -1      3360 1.31669E+02 2.01131E+01 0.00000E+00
 -1      3361 1.31203E+02 1.85581E+01 0.00000E+00
 -1      3362 1.27785E+02 1.05013E+01 0.00000E+00
 -1      3363 1.26285E+02 1.05013E+01 0.00000E+00
 -1      3364 1.38309E+02 1.98687E+01 0.00000E+00
 -1      3365 1.38309E+02 1.83937E+01 0.00000E+00
 -1      3366 1.37010E+02 1.76625E+01 0.00000E+00
 -1      3367 1.29900E+01 1.46687E+01 0.00000E+00
 -1      3368 1.16910E+01 1.54063E+01 0.00000E+00
 -1      3369 1.16910E+01 1.68750E+01 0.00000E+00
 -1      3370 1.38309E+02 2.28156E+01 0.00000E+00
 -1      3371 1.38309E+02 2.13406E+01 0.00000E+00
 -1      3372 1.37010E+02 2.06094E+01 0.00000E+00
 -1      3373 1.37010E+02 2.35531E+01 0.00000E+00
 -1      3374 1.04822E+02 3.06467E+01 0.00000E+00
 -1      3375 1.02889E+02 2.09970E+01 0.00000E+00
 -1      3376 1.29533E+02 1.63893E+01 0.00000E+00
 -1      3377 1.30365E+02 1.68752E+01 0.00000E+00
 -1      3378 1.16910E+01 3.30594E+01 0.00000E+00
 -1      3379 1.16910E+01 3.45281E+01 0.00000E+00
 -1      3380 1.16910E+01 1.98188E+01 0.00000E+00
 -1      3381 1.29900E+01 2.05562E+01 0.00000E+00
 -1      3382 1.16910E+01 1.83500E+01 0.00000E+00
 -1      3383 1.07493E+02 1.14065E+01 0.00000E+00
 -1      3384 1.29150E+02 3.70100E+01 0.00000E+00
 -1      3385 1.45576E+01 3.82548E+01 0.00000E+00
 -1      3386 1.53076E+01 3.69558E+01 0.00000E+00
 -1      3387 1.32152E+01 3.82007E+01 0.00000E+00
 -1      3388 1.23574E+02 3.57385E+01 0.00000E+00
 -1      3389 1.22634E+02 3.62582E+01 0.00000E+00
 -1      3390 1.28679E+02 3.13303E+01 0.00000E+00
 -1      3391 1.28790E+02 3.26241E+01 0.00000E+00
 -1      3392 1.29364E+02 3.09237E+01 0.00000E+00
 -1      3393 2.57850E+01 1.05013E+01 0.00000E+00
 -1      3394 2.42850E+01 1.05013E+01 0.00000E+00
 -1      3395 2.35350E+01 1.18003E+01 0.00000E+00
 -1      3396 2.65350E+01 1.18003E+01 0.00000E+00
 -1      3397 1.28235E+02 1.22374E+01 0.00000E+00
 -1      3398 1.28787E+02 1.33085E+01 0.00000E+00
 -1      3399 1.29569E+02 2.83020E+01 0.00000E+00
 -1      3400 1.30473E+02 2.55524E+01 0.00000E+00
 -1      3401 1.30865E+02 2.64850E+01 0.00000E+00
 -1      3402 1.31453E+02 2.50633E+01 0.00000E+00
 -1      3403 1.16910E+01 3.15906E+01 0.00000E+00
 -1      3404 1.29900E+01 3.23250E+01 0.00000E+00
 -1      3405 1.16910E+01 3.01219E+01 0.00000E+00
 -1      3406 1.28981E+02 1.53182E+01 0.00000E+00
 -1      3407 1.12532E+02 3.56769E+01 0.00000E+00
 -1      3408 1.37758E+02 3.64912E+01 0.00000E+00
 -1      3409 1.38123E+02 3.54142E+01 0.00000E+00
 -1      3410 1.36824E+02 3.46768E+01 0.00000E+00
 -1      3411 1.36451E+02 3.63802E+01 0.00000E+00
 -1      3412 2.04000E+01 3.57110E+01 0.00000E+00
 -1      3413 2.19000E+01 3.57110E+01 0.00000E+00
 -1      3414 1.20163E+02 3.78763E+01 0.00000E+00
 -1      3415 1.25985E+02 1.09384E+01 0.00000E+00
 -1      3416 2.34000E+01 3.57110E+01 0.00000E+00
 -1      3417 2.49000E+01 3.57110E+01 0.00000E+00
 -1      3418 2.26500E+01 3.44120E+01 0.00000E+00
 -1      3419 2.64000E+01 3.57110E+01 0.00000E+00
 -1      3420 2.79000E+01 3.57110E+01 0.00000E+00
 -1      3421 2.56500E+01 3.44120E+01 0.00000E+00
 -1      3422 2.94000E+01 3.57110E+01 0.00000E+00
 -1      3423 3.09000E+01 3.57110E+01 0.00000E+00
 -1      3424 2.86500E+01 3.44120E+01 0.00000E+00
 -1      3425 3.24000E+01 3.57110E+01 0.00000E+00
 -1      3426 3.39000E+01 3.57110E+01 0.00000E+00
 -1      3427 3.16500E+01 3.44120E+01 0.00000E+00
 -1      3428 3.54000E+01 3.57110E+01 0.00000E+00
 -1      3429 3.69000E+01 3.57110E+01 0.00000E+00
 -1      3430 3.46500E+01 3.44120E+01 0.00000E+00
 -1      3431 3.84000E+01 3.57110E+01 0.00000E+00
 -1      3432 3.99000E+01 3.57110E+01 0.00000E+00
 -1      3433 3.76500E+01 3.44120E+01 0.00000E+00
 -1      3434 4.14000E+01 3.57110E+01 0.00000E+00
 -1      3435 4.29000E+01 3.57110E+01 0.00000E+00
 -1      3436 4.06500E+01 3.44120E+01 0.00000E+00
 -1      3437 4.44000E+01 3.57110E+01 0.00000E+00
 -1      3438 4.59000E+01 3.57110E+01 0.00000E+00
 -1      3439 4.36500E+01 3.44120E+01 0.00000E+00
 -1      3440 4.74000E+01 3.57110E+01 0.00000E+00
 -1      3441 4.89000E+01 3.57110E+01 0.00000E+00
 -1      3442 4.66500E+01 3.44120E+01 0.00000E+00
 -1      3443 5.04000E+01 3.57110E+01 0.00000E+00
 -1      3444 5.19000E+01 3.57110E+01 0.00000E+00
 -1      3445 4.96500E+01 3.44120E+01 0.00000E+00
 -1      3446 5.34000E+01 3.57110E+01 0.00000E+00
 -1      3447 5.49000E+01 3.57110E+01 0.00000E+00
 -1      3448 5.26500E+01 3.44120E+01 0.00000E+00
 -1      3449 5.64000E+01 3.57110E+01 0.00000E+00
 -1      3450 5.79000E+01 3.57110E+01 0.00000E+00
 -1      3451 5.56500E+01 3.44120E+01 0.00000E+00
 -1      3452 5.94000E+01 3.57110E+01 0.00000E+00
 -1      3453 6.09000E+01 3.57110E+01 0.00000E+00
 -1      3454 5.86500E+01 3.44120E+01 0.00000E+00
 -1      3455 6.24000E+01 3.57110E+01 0.00000E+00
 -1      3456 6.39000E+01 3.57110E+01 0.00000E+00
 -1      3457 6.16500E+01 3.44120E+01 0.00000E+00
 -1      3458 6.54000E+01 3.57110E+01 0.00000E+00
 -1      3459 6.69000E+01 3.57110E+01 0.00000E+00
 -1      3460 6.46500E+01 3.44120E+01 0.00000E+00
 -1      3461 6.84000E+01 3.57110E+01 0.00000E+00
 -1      3462 6.99000E+01 3.57110E+01 0.00000E+00
 -1      3463 6.76500E+01 3.44120E+01 0.00000E+00
 -1      3464 7.14000E+01 3.57110E+01 0.00000E+00
 -1      3465 7.29000E+01 3.57110E+01 0.00000E+00
 -1      3466 7.06500E+01 3.44120E+01 0.00000E+00
 -1      3467 7.44000E+01 3.57110E+01 0.00000E+00
 -1      3468 7.59000E+01 3.57110E+01 0.00000E+00
 -1      3469 7.36500E+01 3.44120E+01 0.00000E+00
 -1      3470 7.74000E+01 3.57110E+01 0.00000E+00
 -1      3471 7.89000E+01 3.57110E+01 0.00000E+00
 -1      3472 7.66500E+01 3.44120E+01 0.00000E+00
 -1      3473 8.04000E+01 3.57110E+01 0.00000E+00
 -1      3474 8.19000E+01 3.57110E+01 0.00000E+00
 -1      3475 7.96500E+01 3.44120E+01 0.00000E+00
 -1      3476 8.34000E+01 3.57110E+01 0.00000E+00
 -1      3477 8.49000E+01 3.57110E+01 0.00000E+00
 -1      3478 8.26500E+01 3.44120E+01 0.00000E+00
 -1      3479 8.64000E+01 3.57110E+01 0.00000E+00
 -1      3480 8.79000E+01 3.57110E+01 0.00000E+00
 -1      3481 8.56500E+01 3.44120E+01 0.00000E+00
 -1      3482 8.94000E+01 3.57110E+01 0.00000E+00
 -1      3483 9.09000E+01 3.57110E+01 0.00000E+00
 -1      3484 8.86500E+01 3.44120E+01 0.00000E+00
 -1      3485 9.24000E+01 3.57110E+01 0.00000E+00
 -1      3486 9.39000E+01 3.57110E+01 0.00000E+00
 -1      3487 9.16500E+01 3.44120E+01 0.00000E+00
 -1      3488 9.54000E+01 3.57110E+01 0.00000E+00
 -1      3489 9.69000E+01 3.57110E+01 0.00000E+00
 -1      3490 9.46500E+01 3.44120E+01 0.00000E+00
 -1      3491 9.84000E+01 3.57110E+01 0.00000E+00
 -1      3492 9.99000E+01 3.57110E+01 0.00000E+00
 -1      3493 9.76500E+01 3.44120E+01 0.00000E+00
 -1      3494 1.01400E+02 3.57110E+01 0.00000E+00
 -1      3495 1.02900E+02 3.57110E+01 0.00000E+00
 -1      3496 1.00650E+02 3.44120E+01 0.00000E+00
 -1      3497 1.11208E+02 3.76756E+01 0.00000E+00
 -1      3498 1.26588E+02 3.58160E+01 0.00000E+00
 -1      3499 1.10458E+02 3.63766E+01 0.00000E+00
 -1      3500 1.27878E+02 3.50203E+01 0.00000E+00
 -1      3501 2.12850E+01 1.30992E+01 0.00000E+00
 -1      3502 1.97850E+01 1.30992E+01 0.00000E+00
 -1      3503 3.32850E+01 1.30992E+01 0.00000E+00
 -1      3504 3.17850E+01 1.30992E+01 0.00000E+00
 -1      3505 1.21786E+01 3.60821E+01 0.00000E+00
 -1      3506 4.52850E+01 1.30992E+01 0.00000E+00
 -1      3507 4.37850E+01 1.30992E+01 0.00000E+00
 -1      3508 4.22850E+01 1.30992E+01 0.00000E+00
 -1      3509 4.07850E+01 1.30992E+01 0.00000E+00
 -1      3510 4.30350E+01 1.43982E+01 0.00000E+00
 -1      3511 5.12850E+01 1.30992E+01 0.00000E+00
 -1      3512 4.97850E+01 1.30992E+01 0.00000E+00
 -1      3513 5.42850E+01 1.30992E+01 0.00000E+00
 -1      3514 5.27850E+01 1.30992E+01 0.00000E+00
 -1      3515 5.20350E+01 1.43982E+01 0.00000E+00
 -1      3516 5.72850E+01 1.30992E+01 0.00000E+00
 -1      3517 5.57850E+01 1.30992E+01 0.00000E+00
 -1      3518 5.50350E+01 1.43982E+01 0.00000E+00
 -1      3519 6.02850E+01 1.30992E+01 0.00000E+00
 -1      3520 5.87850E+01 1.30992E+01 0.00000E+00
 -1      3521 5.80350E+01 1.43982E+01 0.00000E+00
 -1      3522 6.32850E+01 1.30992E+01 0.00000E+00
 -1      3523 6.17850E+01 1.30992E+01 0.00000E+00
 -1      3524 6.10350E+01 1.43982E+01 0.00000E+00
 -1      3525 6.62850E+01 1.30992E+01 0.00000E+00
 -1      3526 6.47850E+01 1.30992E+01 0.00000E+00
 -1      3527 6.40350E+01 1.43982E+01 0.00000E+00
 -1      3528 6.92850E+01 1.30992E+01 0.00000E+00
 -1      3529 6.77850E+01 1.30992E+01 0.00000E+00
 -1      3530 6.70350E+01 1.43982E+01 0.00000E+00
 -1      3531 7.22850E+01 1.30992E+01 0.00000E+00
 -1      3532 7.07850E+01 1.30992E+01 0.00000E+00
 -1      3533 7.00350E+01 1.43982E+01 0.00000E+00
 -1      3534 7.52850E+01 1.30992E+01 0.00000E+00
 -1      3535 7.37850E+01 1.30992E+01 0.00000E+00
 -1      3536 7.30350E+01 1.43982E+01 0.00000E+00
 -1      3537 7.82850E+01 1.30992E+01 0.00000E+00
 -1      3538 7.67850E+01 1.30992E+01 0.00000E+00
 -1      3539 7.60350E+01 1.43982E+01 0.00000E+00
 -1      3540 8.12850E+01 1.30992E+01 0.00000E+00
 -1      3541 7.97850E+01 1.30992E+01 0.00000E+00
 -1      3542 7.90350E+01 1.43982E+01 0.00000E+00
 -1      3543 8.42850E+01 1.30992E+01 0.00000E+00
 -1      3544 8.27850E+01 1.30992E+01 0.00000E+00
 -1      3545 8.20350E+01 1.43982E+01 0.00000E+00
 -1      3546 8.72850E+01 1.30992E+01 0.00000E+00
 -1      3547 8.57850E+01 1.30992E+01 0.00000E+00
 -1      3548 8.50350E+01 1.43982E+01 0.00000E+00
 -1      3549 9.02850E+01 1.30992E+01 0.00000E+00
 -1      3550 8.87850E+01 1.30992E+01 0.00000E+00
 -1      3551 8.80350E+01 1.43982E+01 0.00000E+00
 -1      3552 9.32850E+01 1.30992E+01 0.00000E+00
 -1      3553 9.17850E+01 1.30992E+01 0.00000E+00
 -1      3554 9.10350E+01 1.43982E+01 0.00000E+00
 -1      3555 9.62850E+01 1.30992E+01 0.00000E+00
 -1      3556 9.47850E+01 1.30992E+01 0.00000E+00
 -1      3557 9.40350E+01 1.43982E+01 0.00000E+00
 -1      3558 9.92850E+01 1.30992E+01 0.00000E+00
 -1      3559 9.77850E+01 1.30992E+01 0.00000E+00
 -1      3560 9.70350E+01 1.43982E+01 0.00000E+00
 -1      3561 1.03021E+02 1.32840E+01 0.00000E+00
 -1      3562 1.01521E+02 1.32840E+01 0.00000E+00
 -1      3563 1.04157E+02 1.29429E+01 0.00000E+00
 -1      3564 1.30229E+02 1.38099E+01 0.00000E+00
 -1      3565 1.38528E+02 1.44149E+01 0.00000E+00
 -1      3566 1.38594E+02 1.31746E+01 0.00000E+00
 -1      3567 1.37668E+02 1.30636E+01 0.00000E+00
 -1      3568 1.37229E+02 1.51462E+01 0.00000E+00
 -1      3569 1.06314E+02 3.46287E+01 0.00000E+00
 -1      3570 1.05154E+02 3.34075E+01 0.00000E+00
 -1      3571 1.35817E+02 2.72000E+01 0.00000E+00
 -1      3572 1.35817E+02 2.57500E+01 0.00000E+00
 -1      3573 1.34776E+01 3.53477E+01 0.00000E+00
 -1      3574 1.02966E+02 2.87471E+01 0.00000E+00
 -1      3575 1.02665E+02 2.71854E+01 0.00000E+00
 -1      3576 4.82850E+01 1.30992E+01 0.00000E+00
 -1      3577 4.67850E+01 1.30992E+01 0.00000E+00
 -1      3578 4.60350E+01 1.43982E+01 0.00000E+00
 -1      3579 4.90350E+01 1.43982E+01 0.00000E+00
 -1      3580 1.31400E+02 3.57110E+01 0.00000E+00
 -1      3581 1.32900E+02 3.57110E+01 0.00000E+00
 -1      3582 1.04049E+02 3.18131E+01 0.00000E+00
 -1      3583 1.03432E+02 3.04842E+01 0.00000E+00
 -1      3584 1.31729E+02 1.38099E+01 0.00000E+00
 -1      3585 1.74000E+01 3.57110E+01 0.00000E+00
 -1      3586 1.89000E+01 3.57110E+01 0.00000E+00
 -1      3587 1.96500E+01 3.44120E+01 0.00000E+00
 -1      3588 1.31322E+02 1.64469E+01 0.00000E+00
 -1      3589 1.31262E+02 1.75025E+01 0.00000E+00
 -1      3590 1.32160E+02 1.81298E+01 0.00000E+00
 -1      3591 1.16910E+01 2.71844E+01 0.00000E+00
 -1      3592 1.16910E+01 2.86531E+01 0.00000E+00
 -1      3593 1.29900E+01 2.93875E+01 0.00000E+00
 -1      3594 1.01705E+02 2.18001E+01 0.00000E+00
 -1      3595 1.01687E+02 2.02211E+01 0.00000E+00
 -1      3596 1.08704E+02 3.57140E+01 0.00000E+00
 -1      3597 1.30806E+02 2.78946E+01 0.00000E+00
 -1      3598 1.30490E+02 2.92225E+01 0.00000E+00
 -1      3599 1.29378E+02 3.50203E+01 0.00000E+00
 -1      3600 1.01942E+02 1.85608E+01 0.00000E+00
 -1      3601 1.02237E+02 1.73854E+01 0.00000E+00
 -1      3602 1.33581E+02 1.31187E+01 0.00000E+00
 -1      3603 1.32276E+02 1.51284E+01 0.00000E+00
 -1      3604 1.33173E+02 1.57557E+01 0.00000E+00
 -1      3605 1.35081E+02 1.31187E+01 0.00000E+00
 -1      3606 1.07204E+02 3.57140E+01 0.00000E+00
 -1      3607 1.30128E+02 3.37213E+01 0.00000E+00
 -1      3608 1.05759E+02 3.59247E+01 0.00000E+00
 -1      3609 1.01988E+02 2.63320E+01 0.00000E+00
 -1      3610 1.01310E+02 2.54786E+01 0.00000E+00
 -1      3611 1.01049E+02 2.73229E+01 0.00000E+00
 -1      3612 1.31992E+02 2.08619E+01 0.00000E+00
 -1      3613 1.32314E+02 2.16107E+01 0.00000E+00
 -1      3614 1.32423E+02 1.99343E+01 0.00000E+00
 -1      3615 1.84669E+01 1.29495E+01 0.00000E+00
 -1      3616 1.71488E+01 1.27997E+01 0.00000E+00
 -1      3617 1.92169E+01 1.42485E+01 0.00000E+00
 -1      3618 1.29900E+01 1.76125E+01 0.00000E+00
 -1      3619 1.47676E+01 3.55023E+01 0.00000E+00
 -1      3620 1.61100E+01 3.55564E+01 0.00000E+00
 -1      3621 1.68600E+01 3.42574E+01 0.00000E+00
 -1      3622 1.42800E+01 3.39483E+01 0.00000E+00
 -1      3623 1.04259E+02 3.59247E+01 0.00000E+00
 -1      3624 1.31837E+02 3.01089E+01 0.00000E+00
 -1      3625 1.30601E+02 3.05163E+01 0.00000E+00
 -1      3626 1.30712E+02 3.18101E+01 0.00000E+00
 -1      3627 3.47850E+01 1.30992E+01 0.00000E+00
 -1      3628 3.40350E+01 1.43982E+01 0.00000E+00
 -1      3629 3.62850E+01 1.30992E+01 0.00000E+00
 -1      3630 2.27850E+01 1.30992E+01 0.00000E+00
 -1      3631 2.20350E+01 1.43982E+01 0.00000E+00
 -1      3632 2.42850E+01 1.30992E+01 0.00000E+00
 -1      3633 3.10350E+01 1.43982E+01 0.00000E+00
 -1      3634 3.02850E+01 1.30992E+01 0.00000E+00
 -1      3635 2.87850E+01 1.30992E+01 0.00000E+00
 -1      3636 1.34022E+02 3.59901E+01 0.00000E+00
 -1      3637 1.35329E+02 3.61011E+01 0.00000E+00
 -1      3638 1.35515E+02 3.52494E+01 0.00000E+00
 -1      3639 1.33272E+02 3.46911E+01 0.00000E+00
 -1      3640 4.00350E+01 1.43982E+01 0.00000E+00
 -1      3641 3.92850E+01 1.30992E+01 0.00000E+00
 -1      3642 3.77850E+01 1.30992E+01 0.00000E+00
 -1      3643 1.00771E+02 1.45830E+01 0.00000E+00
 -1      3644 1.02010E+02 1.62356E+01 0.00000E+00
 -1      3645 1.29900E+01 2.64469E+01 0.00000E+00
 -1      3646 1.35734E+02 1.84000E+01 0.00000E+00
 -1      3647 1.35734E+02 1.69250E+01 0.00000E+00
 -1      3648 1.36742E+02 1.29526E+01 0.00000E+00
 -1      3649 1.42890E+01 1.39344E+01 0.00000E+00
 -1      3650 1.42890E+01 1.54031E+01 0.00000E+00
 -1      3651 1.31786E+02 2.74055E+01 0.00000E+00
 -1      3652 1.35817E+02 2.42781E+01 0.00000E+00
 -1      3653 1.35817E+02 2.28062E+01 0.00000E+00
 -1      3654 1.34625E+02 2.50031E+01 0.00000E+00
 -1      3655 1.35817E+02 2.86750E+01 0.00000E+00
 -1      3656 1.34625E+02 2.79500E+01 0.00000E+00
 -1      3657 1.35817E+02 3.01500E+01 0.00000E+00
 -1      3658 1.03509E+02 3.46257E+01 0.00000E+00
 -1      3659 1.02192E+02 2.99135E+01 0.00000E+00
 -1      3660 1.42890E+01 1.98219E+01 0.00000E+00
 -1      3661 1.42890E+01 2.12906E+01 0.00000E+00
 -1      3662 1.03764E+02 3.32450E+01 0.00000E+00
 -1      3663 1.55880E+01 2.20313E+01 0.00000E+00
 -1      3664 1.42890E+01 2.27656E+01 0.00000E+00
 -1      3665 1.42890E+01 2.42406E+01 0.00000E+00
 -1      3666 1.24583E+02 3.57954E+01 0.00000E+00
 -1      3667 1.35788E+02 1.42711E+01 0.00000E+00
 -1      3668 1.01376E+02 2.27559E+01 0.00000E+00
 -1      3669 1.00174E+02 2.19801E+01 0.00000E+00
 -1      3670 1.01047E+02 2.37118E+01 0.00000E+00
 -1      3671 1.00759E+02 1.93638E+01 0.00000E+00
 -1      3672 1.31864E+02 2.42671E+01 0.00000E+00
 -1      3673 1.32255E+02 2.51997E+01 0.00000E+00
 -1      3674 1.32274E+02 2.34710E+01 0.00000E+00
 -1      3675 1.42800E+01 3.10108E+01 0.00000E+00
 -1      3676 1.42800E+01 3.24796E+01 0.00000E+00
 -1      3677 1.55700E+01 3.26341E+01 0.00000E+00
 -1      3678 1.35702E+02 3.43976E+01 0.00000E+00
 -1      3679 1.34487E+02 3.38069E+01 0.00000E+00
 -1      3680 1.35795E+02 3.32342E+01 0.00000E+00
 -1      3681 1.35795E+02 3.17593E+01 0.00000E+00
 -1      3682 1.33365E+02 3.35277E+01 0.00000E+00
 -1      3683 2.19000E+01 3.31130E+01 0.00000E+00
 -1      3684 2.34000E+01 3.31130E+01 0.00000E+00
 -1      3685 2.49000E+01 3.31130E+01 0.00000E+00
 -1      3686 2.64000E+01 3.31130E+01 0.00000E+00
 -1      3687 2.41500E+01 3.18140E+01 0.00000E+00
 -1      3688 2.79000E+01 3.31130E+01 0.00000E+00
 -1      3689 2.94000E+01 3.31130E+01 0.00000E+00
 -1      3690 2.71500E+01 3.18140E+01 0.00000E+00
 -1      3691 3.09000E+01 3.31130E+01 0.00000E+00
 -1      3692 3.24000E+01 3.31130E+01 0.00000E+00
 -1      3693 3.01500E+01 3.18140E+01 0.00000E+00
 -1      3694 3.39000E+01 3.31130E+01 0.00000E+00
 -1      3695 3.54000E+01 3.31130E+01 0.00000E+00
 -1      3696 3.31500E+01 3.18140E+01 0.00000E+00
 -1      3697 3.69000E+01 3.31130E+01 0.00000E+00
 -1      3698 3.84000E+01 3.31130E+01 0.00000E+00
 -1      3699 3.61500E+01 3.18140E+01 0.00000E+00
 -1      3700 3.99000E+01 3.31130E+01 0.00000E+00
 -1      3701 4.14000E+01 3.31130E+01 0.00000E+00
 -1      3702 3.91500E+01 3.18140E+01 0.00000E+00
 -1      3703 4.29000E+01 3.31130E+01 0.00000E+00
 -1      3704 4.44000E+01 3.31130E+01 0.00000E+00
 -1      3705 4.21500E+01 3.18140E+01 0.00000E+00
 -1      3706 4.59000E+01 3.31130E+01 0.00000E+00
 -1      3707 4.74000E+01 3.31130E+01 0.00000E+00
 -1      3708 4.51500E+01 3.18140E+01 0.00000E+00
 -1      3709 4.89000E+01 3.31130E+01 0.00000E+00
 -1      3710 5.04000E+01 3.31130E+01 0.00000E+00
 -1      3711 4.81500E+01 3.18140E+01 0.00000E+00
 -1      3712 5.19000E+01 3.31130E+01 0.00000E+00
 -1      3713 5.34000E+01 3.31130E+01 0.00000E+00
 -1      3714 5.11500E+01 3.18140E+01 0.00000E+00
 -1      3715 5.49000E+01 3.31130E+01 0.00000E+00
 -1      3716 5.64000E+01 3.31130E+01 0.00000E+00
 -1      3717 5.41500E+01 3.18140E+01 0.00000E+00
 -1      3718 5.79000E+01 3.31130E+01 0.00000E+00
 -1      3719 5.94000E+01 3.31130E+01 0.00000E+00
 -1      3720 5.71500E+01 3.18140E+01 0.00000E+00
 -1      3721 6.09000E+01 3.31130E+01 0.00000E+00
 -1      3722 6.24000E+01 3.31130E+01 0.00000E+00
 -1      3723 6.01500E+01 3.18140E+01 0.00000E+00
 -1      3724 6.39000E+01 3.31130E+01 0.00000E+00
 -1      3725 6.54000E+01 3.31130E+01 0.00000E+00
 -1      3726 6.31500E+01 3.18140E+01 0.00000E+00
 -1      3727 6.69000E+01 3.31130E+01 0.00000E+00
 -1      3728 6.84000E+01 3.31130E+01 0.00000E+00
 -1      3729 6.61500E+01 3.18140E+01 0.00000E+00
 -1      3730 6.99000E+01 3.31130E+01 0.00000E+00
 -1      3731 7.14000E+01 3.31130E+01 0.00000E+00
 -1      3732 6.91500E+01 3.18140E+01 0.00000E+00
 -1      3733 7.29000E+01 3.31130E+01 0.00000E+00
 -1      3734 7.44000E+01 3.31130E+01 0.00000E+00
 -1      3735 7.21500E+01 3.18140E+01 0.00000E+00
 -1      3736 7.59000E+01 3.31130E+01 0.00000E+00
 -1      3737 7.74000E+01 3.31130E+01 0.00000E+00
 -1      3738 7.51500E+01 3.18140E+01 0.00000E+00
 -1      3739 7.89000E+01 3.31130E+01 0.00000E+00
 -1      3740 8.04000E+01 3.31130E+01 0.00000E+00
 -1      3741 7.81500E+01 3.18140E+01 0.00000E+00
 -1      3742 8.19000E+01 3.31130E+01 0.00000E+00
 -1      3743 8.34000E+01 3.31130E+01 0.00000E+00
 -1      3744 8.11500E+01 3.18140E+01 0.00000E+00
 -1      3745 8.49000E+01 3.31130E+01 0.00000E+00
 -1      3746 8.64000E+01 3.31130E+01 0.00000E+00
 -1      3747 8.41500E+01 3.18140E+01 0.00000E+00
 -1      3748 8.79000E+01 3.31130E+01 0.00000E+00
 -1      3749 8.94000E+01 3.31130E+01 0.00000E+00
 -1      3750 8.71500E+01 3.18140E+01 0.00000E+00
 -1      3751 9.09000E+01 3.31130E+01 0.00000E+00
 -1      3752 9.24000E+01 3.31130E+01 0.00000E+00
 -1      3753 9.01500E+01 3.18140E+01 0.00000E+00
 -1      3754 9.39000E+01 3.31130E+01 0.00000E+00
 -1      3755 9.54000E+01 3.31130E+01 0.00000E+00
 -1      3756 9.31500E+01 3.18140E+01 0.00000E+00
 -1      3757 9.69000E+01 3.31130E+01 0.00000E+00
 -1      3758 9.84000E+01 3.31130E+01 0.00000E+00
 -1      3759 9.61500E+01 3.18140E+01 0.00000E+00
 -1      3760 5.87850E+01 1.56973E+01 0.00000E+00
 -1      3761 5.72850E+01 1.56973E+01 0.00000E+00
 -1      3762 1.26735E+02 1.22374E+01 0.00000E+00
 -1      3763 4.37850E+01 1.56973E+01 0.00000E+00
 -1      3764 4.22850E+01 1.56973E+01 0.00000E+00
 -1      3765 1.23395E+02 3.82883E+01 0.00000E+00
 -1      3766 5.57850E+01 1.56973E+01 0.00000E+00
 -1      3767 5.42850E+01 1.56973E+01 0.00000E+00
 -1      3768 5.65350E+01 1.69963E+01 0.00000E+00
 -1      3769 5.27850E+01 1.56973E+01 0.00000E+00
 -1      3770 5.12850E+01 1.56973E+01 0.00000E+00
 -1      3771 5.35350E+01 1.69963E+01 0.00000E+00
 -1      3772 6.17850E+01 1.56973E+01 0.00000E+00
 -1      3773 6.02850E+01 1.56973E+01 0.00000E+00
 -1      3774 5.95350E+01 1.69963E+01 0.00000E+00
 -1      3775 6.47850E+01 1.56973E+01 0.00000E+00
 -1      3776 6.32850E+01 1.56973E+01 0.00000E+00
 -1      3777 6.25350E+01 1.69963E+01 0.00000E+00
 -1      3778 6.77850E+01 1.56973E+01 0.00000E+00
 -1      3779 6.62850E+01 1.56973E+01 0.00000E+00
 -1      3780 6.55350E+01 1.69963E+01 0.00000E+00
 -1      3781 7.07850E+01 1.56973E+01 0.00000E+00
 -1      3782 6.92850E+01 1.56973E+01 0.00000E+00
 -1      3783 6.85350E+01 1.69963E+01 0.00000E+00
 -1      3784 7.37850E+01 1.56973E+01 0.00000E+00
 -1      3785 7.22850E+01 1.56973E+01 0.00000E+00
 -1      3786 7.15350E+01 1.69963E+01 0.00000E+00
 -1      3787 7.67850E+01 1.56973E+01 0.00000E+00
 -1      3788 7.52850E+01 1.56973E+01 0.00000E+00
 -1      3789 7.45350E+01 1.69963E+01 0.00000E+00
 -1      3790 7.97850E+01 1.56973E+01 0.00000E+00
 -1      3791 7.82850E+01 1.56973E+01 0.00000E+00
 -1      3792 7.75350E+01 1.69963E+01 0.00000E+00
 -1      3793 8.27850E+01 1.56973E+01 0.00000E+00
 -1      3794 8.12850E+01 1.56973E+01 0.00000E+00
 -1      3795 8.05350E+01 1.69963E+01 0.00000E+00
 -1      3796 8.57850E+01 1.56973E+01 0.00000E+00
 -1      3797 8.42850E+01 1.56973E+01 0.00000E+00
 -1      3798 8.35350E+01 1.69963E+01 0.00000E+00
 -1      3799 8.87850E+01 1.56973E+01 0.00000E+00
 -1      3800 8.72850E+01 1.56973E+01 0.00000E+00
 -1      3801 8.65350E+01 1.69963E+01 0.00000E+00
 -1      3802 9.17850E+01 1.56973E+01 0.00000E+00
 -1      3803 9.02850E+01 1.56973E+01 0.00000E+00
 -1      3804 8.95350E+01 1.69963E+01 0.00000E+00
 -1      3805 9.47850E+01 1.56973E+01 0.00000E+00
 -1      3806 9.32850E+01 1.56973E+01 0.00000E+00
 -1      3807 9.25350E+01 1.69963E+01 0.00000E+00
 -1      3808 9.77850E+01 1.56973E+01 0.00000E+00
 -1      3809 9.62850E+01 1.56973E+01 0.00000E+00
 -1      3810 9.55350E+01 1.69963E+01 0.00000E+00
 -1      3811 1.34292E+02 1.60499E+01 0.00000E+00
 -1      3812 1.33338E+02 1.73684E+01 0.00000E+00
 -1      3813 1.89000E+01 3.31130E+01 0.00000E+00
 -1      3814 2.04000E+01 3.31130E+01 0.00000E+00
 -1      3815 2.11500E+01 3.18140E+01 0.00000E+00
 -1      3816 1.65900E+01 3.27963E+01 0.00000E+00
 -1      3817 1.78800E+01 3.29508E+01 0.00000E+00
 -1      3818 1.86300E+01 3.16518E+01 0.00000E+00
 -1      3819 1.65900E+01 3.13275E+01 0.00000E+00
 -1      3820 1.42800E+01 2.80733E+01 0.00000E+00
 -1      3821 1.42800E+01 2.95421E+01 0.00000E+00
 -1      3822 1.55700E+01 2.96966E+01 0.00000E+00
 -1      3823 1.28535E+02 1.18003E+01 0.00000E+00
 -1      3824 1.46944E+01 1.23503E+01 0.00000E+00
 -1      3825 1.59934E+01 1.30847E+01 0.00000E+00
 -1      3826 1.33279E+02 1.84240E+01 0.00000E+00
 -1      3827 1.33235E+02 2.62354E+01 0.00000E+00
 -1      3828 1.33176E+02 2.76450E+01 0.00000E+00
 -1      3829 1.35569E+02 1.53124E+01 0.00000E+00
 -1      3830 1.02404E+02 3.30313E+01 0.00000E+00
 -1      3831 9.97745E+01 1.60508E+01 0.00000E+00
 -1      3832 1.01294E+02 3.28531E+01 0.00000E+00
 -1      3833 1.01548E+02 3.14724E+01 0.00000E+00
 -1      3834 1.01082E+02 2.97353E+01 0.00000E+00
 -1      3835 9.97942E+01 3.28531E+01 0.00000E+00
 -1      3836 2.72850E+01 1.30992E+01 0.00000E+00
 -1      3837 2.57850E+01 1.30992E+01 0.00000E+00
 -1      3838 2.80350E+01 1.43982E+01 0.00000E+00
 -1      3839 1.35775E+02 2.13391E+01 0.00000E+00
 -1      3840 1.35775E+02 1.98672E+01 0.00000E+00
 -1      3841 1.34499E+02 1.91297E+01 0.00000E+00
 -1      3842 1.34583E+02 2.20641E+01 0.00000E+00
 -1      3843 1.67434E+01 1.43837E+01 0.00000E+00
 -1      3844 1.42890E+01 1.68750E+01 0.00000E+00
 -1      3845 1.42890E+01 1.83500E+01 0.00000E+00
 -1      3846 1.55880E+01 1.90844E+01 0.00000E+00
 -1      3847 1.55880E+01 1.61406E+01 0.00000E+00
 -1      3848 1.33176E+02 2.91200E+01 0.00000E+00
 -1      3849 9.90245E+01 1.73498E+01 0.00000E+00
 -1      3850 1.33645E+02 2.54393E+01 0.00000E+00
 -1      3851 1.42845E+01 2.54210E+01 0.00000E+00
 -1      3852 1.42845E+01 2.68929E+01 0.00000E+00
 -1      3853 1.55745E+01 2.70475E+01 0.00000E+00
 -1      3854 1.55835E+01 2.46867E+01 0.00000E+00
 -1      3855 9.90442E+01 3.15541E+01 0.00000E+00
 -1      3856 2.50350E+01 1.43982E+01 0.00000E+00
 -1      3857 1.33286E+02 3.04138E+01 0.00000E+00
 -1      3858 4.52850E+01 1.56973E+01 0.00000E+00
 -1      3859 4.45350E+01 1.69963E+01 0.00000E+00
 -1      3860 4.67850E+01 1.56973E+01 0.00000E+00
 -1      3861 3.70350E+01 1.43982E+01 0.00000E+00
 -1      3862 3.17850E+01 1.56973E+01 0.00000E+00
 -1      3863 3.02850E+01 1.56973E+01 0.00000E+00
 -1      3864 1.33645E+02 2.39674E+01 0.00000E+00
 -1      3865 4.97850E+01 1.56973E+01 0.00000E+00
 -1      3866 4.82850E+01 1.56973E+01 0.00000E+00
 -1      3867 4.75350E+01 1.69963E+01 0.00000E+00
 -1      3868 1.00109E+02 2.47027E+01 0.00000E+00
 -1      3869 1.97293E+01 1.56141E+01 0.00000E+00
 -1      3870 1.84111E+01 1.54643E+01 0.00000E+00
 -1      3871 1.68870E+01 1.83484E+01 0.00000E+00
 -1      3872 1.68870E+01 1.98203E+01 0.00000E+00
 -1      3873 9.89613E+01 2.20971E+01 0.00000E+00
 -1      3874 9.92903E+01 2.11412E+01 0.00000E+00
 -1      3875 1.33321E+02 1.98912E+01 0.00000E+00
 -1      3876 9.97247E+01 3.02180E+01 0.00000E+00
 -1      3877 1.00369E+02 2.86591E+01 0.00000E+00
 -1      3878 9.96917E+01 2.78057E+01 0.00000E+00
 -1      3879 9.83306E+01 3.04779E+01 0.00000E+00
 -1      3880 1.34602E+02 3.10343E+01 0.00000E+00
 -1      3881 9.87692E+01 1.90102E+01 0.00000E+00
 -1      3882 2.27293E+01 1.56141E+01 0.00000E+00
 -1      3883 2.12293E+01 1.56141E+01 0.00000E+00
 -1      3884 2.04235E+01 1.68299E+01 0.00000E+00
 -1      3885 1.68870E+01 2.12953E+01 0.00000E+00
 -1      3886 1.68870E+01 2.27703E+01 0.00000E+00
 -1      3887 1.81860E+01 2.05594E+01 0.00000E+00
 -1      3888 3.47850E+01 1.56973E+01 0.00000E+00
 -1      3889 3.32850E+01 1.56973E+01 0.00000E+00
 -1      3890 3.25350E+01 1.69963E+01 0.00000E+00
 -1      3891 1.72558E+01 1.57493E+01 0.00000E+00
 -1      3892 1.33254E+02 2.30348E+01 0.00000E+00
 -1      3893 1.72558E+01 1.72212E+01 0.00000E+00
 -1      3894 4.15350E+01 1.69963E+01 0.00000E+00
 -1      3895 4.07850E+01 1.56973E+01 0.00000E+00
 -1      3896 3.92850E+01 1.56973E+01 0.00000E+00
 -1      3897 1.32049E+02 3.29073E+01 0.00000E+00
 -1      3898 1.33264E+02 3.20231E+01 0.00000E+00
 -1      3899 5.05350E+01 1.69963E+01 0.00000E+00
 -1      3900 2.34000E+01 3.05150E+01 0.00000E+00
 -1      3901 2.49000E+01 3.05150E+01 0.00000E+00
 -1      3902 2.64000E+01 3.05150E+01 0.00000E+00
 -1      3903 2.79000E+01 3.05150E+01 0.00000E+00
 -1      3904 2.56500E+01 2.92160E+01 0.00000E+00
 -1      3905 2.94000E+01 3.05150E+01 0.00000E+00
 -1      3906 3.09000E+01 3.05150E+01 0.00000E+00
 -1      3907 2.86500E+01 2.92160E+01 0.00000E+00
 -1      3908 3.24000E+01 3.05150E+01 0.00000E+00
 -1      3909 3.39000E+01 3.05150E+01 0.00000E+00
 -1      3910 3.16500E+01 2.92160E+01 0.00000E+00
 -1      3911 3.54000E+01 3.05150E+01 0.00000E+00
 -1      3912 3.69000E+01 3.05150E+01 0.00000E+00
 -1      3913 3.46500E+01 2.92160E+01 0.00000E+00
 -1      3914 3.84000E+01 3.05150E+01 0.00000E+00
 -1      3915 3.99000E+01 3.05150E+01 0.00000E+00
 -1      3916 3.76500E+01 2.92160E+01 0.00000E+00
 -1      3917 4.14000E+01 3.05150E+01 0.00000E+00
 -1      3918 4.29000E+01 3.05150E+01 0.00000E+00
 -1      3919 4.06500E+01 2.92160E+01 0.00000E+00
 -1      3920 4.44000E+01 3.05150E+01 0.00000E+00
 -1      3921 4.59000E+01 3.05150E+01 0.00000E+00
 -1      3922 4.36500E+01 2.92160E+01 0.00000E+00
 -1      3923 4.74000E+01 3.05150E+01 0.00000E+00
 -1      3924 4.89000E+01 3.05150E+01 0.00000E+00
 -1      3925 4.66500E+01 2.92160E+01 0.00000E+00
 -1      3926 5.04000E+01 3.05150E+01 0.00000E+00
 -1      3927 5.19000E+01 3.05150E+01 0.00000E+00
 -1      3928 4.96500E+01 2.92160E+01 0.00000E+00
 -1      3929 5.34000E+01 3.05150E+01 0.00000E+00
 -1      3930 5.49000E+01 3.05150E+01 0.00000E+00
 -1      3931 5.26500E+01 2.92160E+01 0.00000E+00
 -1      3932 5.64000E+01 3.05150E+01 0.00000E+00
 -1      3933 5.79000E+01 3.05150E+01 0.00000E+00
 -1      3934 5.56500E+01 2.92160E+01 0.00000E+00
 -1      3935 5.94000E+01 3.05150E+01 0.00000E+00
 -1      3936 6.09000E+01 3.05150E+01 0.00000E+00
 -1      3937 5.86500E+01 2.92160E+01 0.00000E+00
 -1      3938 6.24000E+01 3.05150E+01 0.00000E+00
 -1      3939 6.39000E+01 3.05150E+01 0.00000E+00
 -1      3940 6.16500E+01 2.92160E+01 0.00000E+00
 -1      3941 6.54000E+01 3.05150E+01 0.00000E+00
 -1      3942 6.69000E+01 3.05150E+01 0.00000E+00
 -1      3943 6.46500E+01 2.92160E+01 0.00000E+00
 -1      3944 6.84000E+01 3.05150E+01 0.00000E+00
 -1      3945 6.99000E+01 3.05150E+01 0.00000E+00
 -1      3946 6.76500E+01 2.92160E+01 0.00000E+00
 -1      3947 7.14000E+01 3.05150E+01 0.00000E+00
 -1      3948 7.29000E+01 3.05150E+01 0.00000E+00
 -1      3949 7.06500E+01 2.92160E+01 0.00000E+00
 -1      3950 7.44000E+01 3.05150E+01 0.00000E+00
 -1      3951 7.59000E+01 3.05150E+01 0.00000E+00
 -1      3952 7.36500E+01 2.92160E+01 0.00000E+00
 -1      3953 7.74000E+01 3.05150E+01 0.00000E+00
 -1      3954 7.89000E+01 3.05150E+01 0.00000E+00
 -1      3955 7.66500E+01 2.92160E+01 0.00000E+00
 -1      3956 8.04000E+01 3.05150E+01 0.00000E+00
 -1      3957 8.19000E+01 3.05150E+01 0.00000E+00
 -1      3958 7.96500E+01 2.92160E+01 0.00000E+00
 -1      3959 8.34000E+01 3.05150E+01 0.00000E+00
 -1      3960 8.49000E+01 3.05150E+01 0.00000E+00
 -1      3961 8.26500E+01 2.92160E+01 0.00000E+00
 -1      3962 8.64000E+01 3.05150E+01 0.00000E+00
 -1      3963 8.79000E+01 3.05150E+01 0.00000E+00
 -1      3964 8.56500E+01 2.92160E+01 0.00000E+00
 -1      3965 8.94000E+01 3.05150E+01 0.00000E+00
 -1      3966 9.09000E+01 3.05150E+01 0.00000E+00
 -1      3967 8.86500E+01 2.92160E+01 0.00000E+00
 -1      3968 9.24000E+01 3.05150E+01 0.00000E+00
 -1      3969 9.39000E+01 3.05150E+01 0.00000E+00
 -1      3970 9.16500E+01 2.92160E+01 0.00000E+00
 -1      3971 9.53653E+01 3.04964E+01 0.00000E+00
 -1      3972 9.68653E+01 3.04964E+01 0.00000E+00
 -1      3973 9.75459E+01 2.91603E+01 0.00000E+00
 -1      3974 9.46153E+01 2.91974E+01 0.00000E+00
 -1      3975 6.32850E+01 1.82952E+01 0.00000E+00
 -1      3976 6.17850E+01 1.82952E+01 0.00000E+00
 -1      3977 1.30812E+02 3.33147E+01 0.00000E+00
 -1      3978 9.85824E+01 2.33818E+01 0.00000E+00
 -1      3979 9.76984E+01 2.25430E+01 0.00000E+00
 -1      3980 5.72850E+01 1.82952E+01 0.00000E+00
 -1      3981 5.57850E+01 1.82952E+01 0.00000E+00
 -1      3982 1.85548E+01 1.79571E+01 0.00000E+00
 -1      3983 5.42850E+01 1.82952E+01 0.00000E+00
 -1      3984 5.27850E+01 1.82952E+01 0.00000E+00
 -1      3985 5.50350E+01 1.95942E+01 0.00000E+00
 -1      3986 6.62850E+01 1.82952E+01 0.00000E+00
 -1      3987 6.47850E+01 1.82952E+01 0.00000E+00
 -1      3988 6.40350E+01 1.95942E+01 0.00000E+00
 -1      3989 6.92850E+01 1.82952E+01 0.00000E+00
 -1      3990 6.77850E+01 1.82952E+01 0.00000E+00
 -1      3991 6.70350E+01 1.95942E+01 0.00000E+00
 -1      3992 7.22850E+01 1.82952E+01 0.00000E+00
 -1      3993 7.07850E+01 1.82952E+01 0.00000E+00
 -1      3994 7.00350E+01 1.95942E+01 0.00000E+00
 -1      3995 7.52850E+01 1.82952E+01 0.00000E+00
 -1      3996 7.37850E+01 1.82952E+01 0.00000E+00
 -1      3997 7.30350E+01 1.95942E+01 0.00000E+00
 -1      3998 7.82850E+01 1.82952E+01 0.00000E+00
 -1      3999 7.67850E+01 1.82952E+01 0.00000E+00
 -1      4000 7.60350E+01 1.95942E+01 0.00000E+00
 -1      4001 8.12850E+01 1.82952E+01 0.00000E+00
 -1      4002 7.97850E+01 1.82952E+01 0.00000E+00
 -1      4003 7.90350E+01 1.95942E+01 0.00000E+00
 -1      4004 8.42850E+01 1.82952E+01 0.00000E+00
 -1      4005 8.27850E+01 1.82952E+01 0.00000E+00
 -1      4006 8.20350E+01 1.95942E+01 0.00000E+00
 -1      4007 8.72850E+01 1.82952E+01 0.00000E+00
 -1      4008 8.57850E+01 1.82952E+01 0.00000E+00
 -1      4009 8.50350E+01 1.95942E+01 0.00000E+00
 -1      4010 9.02850E+01 1.82952E+01 0.00000E+00
 -1      4011 8.87850E+01 1.82952E+01 0.00000E+00
 -1      4012 8.80350E+01 1.95942E+01 0.00000E+00
 -1      4013 9.32850E+01 1.82952E+01 0.00000E+00
 -1      4014 9.17850E+01 1.82952E+01 0.00000E+00
 -1      4015 9.10350E+01 1.95942E+01 0.00000E+00
 -1      4016 9.62850E+01 1.82952E+01 0.00000E+00
 -1      4017 9.47850E+01 1.82952E+01 0.00000E+00
 -1      4018 9.40350E+01 1.95942E+01 0.00000E+00
 -1      4019 2.57293E+01 1.56141E+01 0.00000E+00
 -1      4020 2.42293E+01 1.56141E+01 0.00000E+00
 -1      4021 2.34235E+01 1.68299E+01 0.00000E+00
 -1      4022 2.04000E+01 3.05150E+01 0.00000E+00
 -1      4023 2.19000E+01 3.05150E+01 0.00000E+00
 -1      4024 2.26500E+01 2.92160E+01 0.00000E+00
 -1      4025 1.33643E+02 2.06400E+01 0.00000E+00
 -1      4026 3.77850E+01 1.56973E+01 0.00000E+00
 -1      4027 3.62850E+01 1.56973E+01 0.00000E+00
 -1      4028 3.55350E+01 1.69963E+01 0.00000E+00
 -1      4029 3.85350E+01 1.69963E+01 0.00000E+00
 -1      4030 1.33212E+02 2.15676E+01 0.00000E+00
 -1      4031 2.95350E+01 1.69963E+01 0.00000E+00
 -1      4032 2.87850E+01 1.56973E+01 0.00000E+00
 -1      4033 2.72850E+01 1.56973E+01 0.00000E+00
 -1      4034 6.02850E+01 1.82952E+01 0.00000E+00
 -1      4035 5.87850E+01 1.82952E+01 0.00000E+00
 -1      4036 6.10350E+01 1.95942E+01 0.00000E+00
 -1      4037 9.80192E+01 2.03092E+01 0.00000E+00
 -1      4038 2.00548E+01 1.79571E+01 0.00000E+00
 -1      4039 1.96860E+01 1.90844E+01 0.00000E+00
 -1      4040 2.15548E+01 1.79571E+01 0.00000E+00
 -1      4041 9.88459E+01 2.51486E+01 0.00000E+00
 -1      4042 1.65900E+01 2.83900E+01 0.00000E+00
 -1      4043 1.65900E+01 2.98588E+01 0.00000E+00
 -1      4044 1.76100E+01 3.00209E+01 0.00000E+00
 -1      4045 5.12850E+01 1.82952E+01 0.00000E+00
 -1      4046 4.97850E+01 1.82952E+01 0.00000E+00
 -1      4047 5.20350E+01 1.95942E+01 0.00000E+00
 -1      4048 5.80350E+01 1.95942E+01 0.00000E+00
 -1      4049 9.47850E+01 2.08707E+01 0.00000E+00
 -1      4050 9.32850E+01 2.08707E+01 0.00000E+00
 -1      4051 1.96860E+01 2.05594E+01 0.00000E+00
 -1      4052 2.64793E+01 1.69131E+01 0.00000E+00
 -1      4053 4.90350E+01 1.95942E+01 0.00000E+00
 -1      4054 4.82850E+01 1.82952E+01 0.00000E+00
 -1      4055 4.67850E+01 1.82952E+01 0.00000E+00
 -1      4056 1.81815E+01 2.32148E+01 0.00000E+00
 -1      4057 1.68825E+01 2.39507E+01 0.00000E+00
 -1      4058 1.68780E+01 2.51311E+01 0.00000E+00
 -1      4059 3.32850E+01 1.82952E+01 0.00000E+00
 -1      4060 3.17850E+01 1.82952E+01 0.00000E+00
 -1      4061 3.10350E+01 1.95942E+01 0.00000E+00
 -1      4062 3.02850E+01 1.82952E+01 0.00000E+00
 -1      4063 2.87850E+01 1.82952E+01 0.00000E+00
 -1      4064 1.84950E+01 3.01869E+01 0.00000E+00
 -1      4065 1.95150E+01 3.03490E+01 0.00000E+00
 -1      4066 2.02650E+01 2.90500E+01 0.00000E+00
 -1      4067 1.84950E+01 2.87181E+01 0.00000E+00
 -1      4068 9.56772E+01 2.29874E+01 0.00000E+00
 -1      4069 9.60561E+01 2.17028E+01 0.00000E+00
 -1      4070 4.22850E+01 1.82952E+01 0.00000E+00
 -1      4071 4.07850E+01 1.82952E+01 0.00000E+00
 -1      4072 9.78556E+01 2.78225E+01 0.00000E+00
 -1      4073 9.85362E+01 2.64864E+01 0.00000E+00
 -1      4074 9.70098E+01 2.51654E+01 0.00000E+00
 -1      4075 9.63903E+01 2.78411E+01 0.00000E+00
 -1      4076 1.67362E+01 2.61704E+01 0.00000E+00
 -1      4077 1.67318E+01 2.73508E+01 0.00000E+00
 -1      4078 1.77518E+01 2.75129E+01 0.00000E+00
 -1      4079 1.80352E+01 2.54344E+01 0.00000E+00
 -1      4080 4.52850E+01 1.82952E+01 0.00000E+00
 -1      4081 4.37850E+01 1.82952E+01 0.00000E+00
 -1      4082 4.60350E+01 1.95942E+01 0.00000E+00
 -1      4083 4.30350E+01 1.95942E+01 0.00000E+00
 -1      4084 2.79000E+01 2.79170E+01 0.00000E+00
 -1      4085 2.94000E+01 2.79170E+01 0.00000E+00
 -1      4086 3.09000E+01 2.79170E+01 0.00000E+00
 -1      4087 3.24000E+01 2.79170E+01 0.00000E+00
 -1      4088 3.01500E+01 2.66180E+01 0.00000E+00
 -1      4089 3.39000E+01 2.79170E+01 0.00000E+00
 -1      4090 3.54000E+01 2.79170E+01 0.00000E+00
 -1      4091 3.31500E+01 2.66180E+01 0.00000E+00
 -1      4092 3.69000E+01 2.79170E+01 0.00000E+00
 -1      4093 3.84000E+01 2.79170E+01 0.00000E+00
 -1      4094 3.61500E+01 2.66180E+01 0.00000E+00
 -1      4095 3.99000E+01 2.79170E+01 0.00000E+00
 -1      4096 4.14000E+01 2.79170E+01 0.00000E+00
 -1      4097 3.91500E+01 2.66180E+01 0.00000E+00
 -1      4098 4.29000E+01 2.79170E+01 0.00000E+00
 -1      4099 4.44000E+01 2.79170E+01 0.00000E+00
 -1      4100 4.21500E+01 2.66180E+01 0.00000E+00
 -1      4101 4.59000E+01 2.79170E+01 0.00000E+00
 -1      4102 4.74000E+01 2.79170E+01 0.00000E+00
 -1      4103 4.51500E+01 2.66180E+01 0.00000E+00
 -1      4104 4.89000E+01 2.79170E+01 0.00000E+00
 -1      4105 5.04000E+01 2.79170E+01 0.00000E+00
 -1      4106 4.81500E+01 2.66180E+01 0.00000E+00
 -1      4107 5.19000E+01 2.79170E+01 0.00000E+00
 -1      4108 5.34000E+01 2.79170E+01 0.00000E+00
 -1      4109 5.11500E+01 2.66180E+01 0.00000E+00
 -1      4110 5.49000E+01 2.79170E+01 0.00000E+00
 -1      4111 5.64000E+01 2.79170E+01 0.00000E+00
 -1      4112 5.41500E+01 2.66180E+01 0.00000E+00
 -1      4113 5.79000E+01 2.79170E+01 0.00000E+00
 -1      4114 5.94000E+01 2.79170E+01 0.00000E+00
 -1      4115 5.71500E+01 2.66180E+01 0.00000E+00
 -1      4116 6.09000E+01 2.79170E+01 0.00000E+00
 -1      4117 6.24000E+01 2.79170E+01 0.00000E+00
 -1      4118 6.01500E+01 2.66180E+01 0.00000E+00
 -1      4119 6.39000E+01 2.79170E+01 0.00000E+00
 -1      4120 6.54000E+01 2.79170E+01 0.00000E+00
 -1      4121 6.31500E+01 2.66180E+01 0.00000E+00
 -1      4122 6.69000E+01 2.79170E+01 0.00000E+00
 -1      4123 6.84000E+01 2.79170E+01 0.00000E+00
 -1      4124 6.61500E+01 2.66180E+01 0.00000E+00
 -1      4125 6.99000E+01 2.79170E+01 0.00000E+00
 -1      4126 7.14000E+01 2.79170E+01 0.00000E+00
 -1      4127 6.91500E+01 2.66180E+01 0.00000E+00
 -1      4128 7.29000E+01 2.79170E+01 0.00000E+00
 -1      4129 7.44000E+01 2.79170E+01 0.00000E+00
 -1      4130 7.21500E+01 2.66180E+01 0.00000E+00
 -1      4131 7.59000E+01 2.79170E+01 0.00000E+00
 -1      4132 7.74000E+01 2.79170E+01 0.00000E+00
 -1      4133 7.51500E+01 2.66180E+01 0.00000E+00
 -1      4134 7.89000E+01 2.79170E+01 0.00000E+00
 -1      4135 8.04000E+01 2.79170E+01 0.00000E+00
 -1      4136 7.81500E+01 2.66180E+01 0.00000E+00
 -1      4137 8.19000E+01 2.79170E+01 0.00000E+00
 -1      4138 8.34000E+01 2.79170E+01 0.00000E+00
 -1      4139 8.11500E+01 2.66180E+01 0.00000E+00
 -1      4140 8.49000E+01 2.79170E+01 0.00000E+00
 -1      4141 8.64000E+01 2.79170E+01 0.00000E+00
 -1      4142 8.41500E+01 2.66180E+01 0.00000E+00
 -1      4143 8.79000E+01 2.79170E+01 0.00000E+00
 -1      4144 8.94000E+01 2.79170E+01 0.00000E+00
 -1      4145 8.71500E+01 2.66180E+01 0.00000E+00
 -1      4146 9.09000E+01 2.79170E+01 0.00000E+00
 -1      4147 9.24000E+01 2.79170E+01 0.00000E+00
 -1      4148 9.01500E+01 2.66180E+01 0.00000E+00
 -1      4149 5.87850E+01 2.08932E+01 0.00000E+00
 -1      4150 5.72850E+01 2.08932E+01 0.00000E+00
 -1      4151 6.47850E+01 2.08932E+01 0.00000E+00
 -1      4152 6.32850E+01 2.08932E+01 0.00000E+00
 -1      4153 7.07850E+01 2.08932E+01 0.00000E+00
 -1      4154 6.92850E+01 2.08932E+01 0.00000E+00
 -1      4155 7.37850E+01 2.08932E+01 0.00000E+00
 -1      4156 7.22850E+01 2.08932E+01 0.00000E+00
 -1      4157 7.15350E+01 2.21922E+01 0.00000E+00
 -1      4158 7.67850E+01 2.08932E+01 0.00000E+00
 -1      4159 7.52850E+01 2.08932E+01 0.00000E+00
 -1      4160 7.45350E+01 2.21922E+01 0.00000E+00
 -1      4161 7.97850E+01 2.08932E+01 0.00000E+00
 -1      4162 7.82850E+01 2.08932E+01 0.00000E+00
 -1      4163 7.75350E+01 2.21922E+01 0.00000E+00
 -1      4164 8.27850E+01 2.08932E+01 0.00000E+00
 -1      4165 8.12850E+01 2.08932E+01 0.00000E+00
 -1      4166 8.05350E+01 2.21922E+01 0.00000E+00
 -1      4167 8.57850E+01 2.08932E+01 0.00000E+00
 -1      4168 8.42850E+01 2.08932E+01 0.00000E+00
 -1      4169 8.35350E+01 2.21922E+01 0.00000E+00
 -1      4170 8.87850E+01 2.08932E+01 0.00000E+00
 -1      4171 8.72850E+01 2.08932E+01 0.00000E+00
 -1      4172 8.65350E+01 2.21922E+01 0.00000E+00
 -1      4173 9.17850E+01 2.08932E+01 0.00000E+00
 -1      4174 9.02850E+01 2.08932E+01 0.00000E+00
 -1      4175 8.95350E+01 2.21922E+01 0.00000E+00
 -1      4176 2.13468E+01 2.07481E+01 0.00000E+00
 -1      4177 1.98468E+01 2.22231E+01 0.00000E+00
 -1      4178 2.45548E+01 1.79571E+01 0.00000E+00
 -1      4179 2.30548E+01 1.79571E+01 0.00000E+00
 -1      4180 2.26860E+01 1.90844E+01 0.00000E+00
 -1      4181 9.25350E+01 2.21697E+01 0.00000E+00
 -1      4182 9.55935E+01 2.40877E+01 0.00000E+00
 -1      4183 9.39513E+01 2.32475E+01 0.00000E+00
 -1      4184 9.24513E+01 2.32700E+01 0.00000E+00
 -1      4185 9.52838E+01 2.54255E+01 0.00000E+00
 -1      4186 3.47850E+01 1.82952E+01 0.00000E+00
 -1      4187 3.40350E+01 1.95942E+01 0.00000E+00
 -1      4188 3.62850E+01 1.82952E+01 0.00000E+00
 -1      4189 6.77850E+01 2.08932E+01 0.00000E+00
 -1      4190 6.62850E+01 2.08932E+01 0.00000E+00
 -1      4191 6.55350E+01 2.21922E+01 0.00000E+00
 -1      4192 6.85350E+01 2.21922E+01 0.00000E+00
 -1      4193 2.19000E+01 2.79170E+01 0.00000E+00
 -1      4194 2.34000E+01 2.79170E+01 0.00000E+00
 -1      4195 2.74478E+01 1.81678E+01 0.00000E+00
 -1      4196 2.58920E+01 1.80846E+01 0.00000E+00
 -1      4197 2.55233E+01 1.92118E+01 0.00000E+00
 -1      4198 2.81978E+01 1.94668E+01 0.00000E+00
 -1      4199 6.17850E+01 2.08932E+01 0.00000E+00
 -1      4200 6.02850E+01 2.08932E+01 0.00000E+00
 -1      4201 6.25350E+01 2.21922E+01 0.00000E+00
 -1      4202 4.00350E+01 1.95942E+01 0.00000E+00
 -1      4203 3.92850E+01 1.82952E+01 0.00000E+00
 -1      4204 3.77850E+01 1.82952E+01 0.00000E+00
 -1      4205 4.37850E+01 2.08932E+01 0.00000E+00
 -1      4206 4.22850E+01 2.08932E+01 0.00000E+00
 -1      4207 2.49000E+01 2.79170E+01 0.00000E+00
 -1      4208 2.64000E+01 2.79170E+01 0.00000E+00
 -1      4209 2.41500E+01 2.66180E+01 0.00000E+00
 -1      4210 5.57850E+01 2.08932E+01 0.00000E+00
 -1      4211 5.42850E+01 2.08932E+01 0.00000E+00
 -1      4212 5.65350E+01 2.21922E+01 0.00000E+00
 -1      4213 5.27850E+01 2.08932E+01 0.00000E+00
 -1      4214 5.12850E+01 2.08932E+01 0.00000E+00
 -1      4215 5.35350E+01 2.21922E+01 0.00000E+00
 -1      4216 9.68061E+01 2.04263E+01 0.00000E+00
 -1      4217 5.95350E+01 2.21922E+01 0.00000E+00
 -1      4218 1.87785E+01 2.66396E+01 0.00000E+00
 -1      4219 1.86367E+01 2.76789E+01 0.00000E+00
 -1      4220 1.95217E+01 2.78448E+01 0.00000E+00
 -1      4221 1.98423E+01 2.34035E+01 0.00000E+00
 -1      4222 2.28468E+01 2.07481E+01 0.00000E+00
 -1      4223 3.17850E+01 2.08932E+01 0.00000E+00
 -1      4224 3.02850E+01 2.08932E+01 0.00000E+00
 -1      4225 4.97850E+01 2.08932E+01 0.00000E+00
 -1      4226 4.82850E+01 2.08932E+01 0.00000E+00
 -1      4227 5.05350E+01 2.21922E+01 0.00000E+00
 -1      4228 4.15350E+01 2.21922E+01 0.00000E+00
 -1      4229 4.07850E+01 2.08932E+01 0.00000E+00
 -1      4230 3.92850E+01 2.08932E+01 0.00000E+00
 -1      4231 2.71500E+01 2.66180E+01 0.00000E+00
 -1      4232 2.04067E+01 2.80108E+01 0.00000E+00
 -1      4233 4.52850E+01 2.08932E+01 0.00000E+00
 -1      4234 4.45350E+01 2.21922E+01 0.00000E+00
 -1      4235 4.67850E+01 2.08932E+01 0.00000E+00
 -1      4236 2.11567E+01 2.67118E+01 0.00000E+00
 -1      4237 3.47850E+01 2.08932E+01 0.00000E+00
 -1      4238 3.32850E+01 2.08932E+01 0.00000E+00
 -1      4239 3.25350E+01 2.21922E+01 0.00000E+00
 -1      4240 9.31500E+01 2.66180E+01 0.00000E+00
 -1      4241 9.39000E+01 2.79170E+01 0.00000E+00
 -1      4242 3.28425E+01 2.44051E+01 0.00000E+00
 -1      4243 3.43425E+01 2.44051E+01 0.00000E+00
 -1      4244 3.84000E+01 2.53190E+01 0.00000E+00
 -1      4245 3.99000E+01 2.53190E+01 0.00000E+00
 -1      4246 4.18425E+01 2.44051E+01 0.00000E+00
 -1      4247 4.33425E+01 2.44051E+01 0.00000E+00
 -1      4248 4.48425E+01 2.44051E+01 0.00000E+00
 -1      4249 4.63425E+01 2.44051E+01 0.00000E+00
 -1      4250 4.78425E+01 2.44051E+01 0.00000E+00
 -1      4251 4.93425E+01 2.44051E+01 0.00000E+00
 -1      4252 5.08425E+01 2.44051E+01 0.00000E+00
 -1      4253 5.23425E+01 2.44051E+01 0.00000E+00
 -1      4254 5.38425E+01 2.44051E+01 0.00000E+00
 -1      4255 5.53425E+01 2.44051E+01 0.00000E+00
 -1      4256 5.68425E+01 2.44051E+01 0.00000E+00
 -1      4257 5.83425E+01 2.44051E+01 0.00000E+00
 -1      4258 5.98425E+01 2.44051E+01 0.00000E+00
 -1      4259 6.13425E+01 2.44051E+01 0.00000E+00
 -1      4260 6.28425E+01 2.44051E+01 0.00000E+00
 -1      4261 6.43425E+01 2.44051E+01 0.00000E+00
 -1      4262 6.58425E+01 2.44051E+01 0.00000E+00
 -1      4263 6.73425E+01 2.44051E+01 0.00000E+00
 -1      4264 6.88425E+01 2.44051E+01 0.00000E+00
 -1      4265 7.03425E+01 2.44051E+01 0.00000E+00
 -1      4266 7.18425E+01 2.44051E+01 0.00000E+00
 -1      4267 7.33425E+01 2.44051E+01 0.00000E+00
 -1      4268 7.48425E+01 2.44051E+01 0.00000E+00
 -1      4269 7.63425E+01 2.44051E+01 0.00000E+00
 -1      4270 7.78425E+01 2.44051E+01 0.00000E+00
 -1      4271 7.93425E+01 2.44051E+01 0.00000E+00
 -1      4272 8.08425E+01 2.44051E+01 0.00000E+00
 -1      4273 8.23425E+01 2.44051E+01 0.00000E+00
 -1      4274 8.38425E+01 2.44051E+01 0.00000E+00
 -1      4275 8.53425E+01 2.44051E+01 0.00000E+00
 -1      4276 8.68425E+01 2.44051E+01 0.00000E+00
 -1      4277 8.83425E+01 2.44051E+01 0.00000E+00
 -1      4278 9.53652E+01 2.78984E+01 0.00000E+00
 -1      4279 3.70350E+01 1.95942E+01 0.00000E+00
 -1      4280 8.98425E+01 2.44051E+01 0.00000E+00
 -1      4281 2.96978E+01 2.20648E+01 0.00000E+00
 -1      4282 2.89478E+01 2.07658E+01 0.00000E+00
 -1      4283 2.76105E+01 2.06383E+01 0.00000E+00
 -1      4284 2.45283E+01 2.07308E+01 0.00000E+00
 -1      4285 2.31891E+01 2.23945E+01 0.00000E+00
 -1      4286 2.37603E+01 2.44976E+01 0.00000E+00
 -1      4287 2.52603E+01 2.44976E+01 0.00000E+00
 -1      4288 2.70053E+01 2.42777E+01 0.00000E+00
 -1      4289 2.85053E+01 2.42777E+01 0.00000E+00
 -1      4290 1.89202E+01 2.56004E+01 0.00000E+00
 -1      4291 3.77850E+01 2.08932E+01 0.00000E+00
 -1      4292 3.62850E+01 2.08932E+01 0.00000E+00
 -1      4293 3.85350E+01 2.21922E+01 0.00000E+00
 -1      4294 2.98425E+01 2.44051E+01 0.00000E+00
 -1      4295 3.13425E+01 2.44051E+01 0.00000E+00
 -1      4296 2.05855E+01 2.46087E+01 0.00000E+00
 -1      4297 2.20788E+01 2.45149E+01 0.00000E+00
 -1      4298 3.54000E+01 2.53190E+01 0.00000E+00
 -1      4299 3.69000E+01 2.53190E+01 0.00000E+00
 -1      4300 2.58655E+01 2.08582E+01 0.00000E+00
 -1      4301 9.13425E+01 2.44051E+01 0.00000E+00
 -1      4302 9.56750E+01 2.65606E+01 0.00000E+00
 -1      4303 3.76500E+01 2.40200E+01 0.00000E+00
 -1      4304 4.75350E+01 2.21922E+01 0.00000E+00
 -1      4305 2.66155E+01 2.21572E+01 0.00000E+00
 -1      4306 4.10925E+01 2.31061E+01 0.00000E+00
 -1      4307 9.42587E+01 2.54829E+01 0.00000E+00
 -1      4308 9.27588E+01 2.54829E+01 0.00000E+00
 -1      4309 3.50925E+01 2.31061E+01 0.00000E+00
 -1      4310 3.55350E+01 2.21922E+01 0.00000E+00
 -1      4311 3.65925E+01 2.31061E+01 0.00000E+00
 -1      4312 3.80925E+01 2.31061E+01 0.00000E+00
 -1      4313 3.95925E+01 2.31061E+01 0.00000E+00
 -3
    3C                          2075                                     1
 -1       164    8    0    1
 -2         6         7        23      1120      1283      1137
 -1       165    8    0    1
 -2         7         8       164      1121      1284      1285
 -1       166    8    0    1
 -2         8         9       165      1122      1286      1287
 -1       167    8    0    1
 -2         8       165       164      1287      1288      1284
 -1       168    8    0    1
 -2         9        10       166      1123      1289      1290
 -1       169    8    0    1
 -2         9       166       165      1290      1291      1286
 -1       170    8    0    1
 -2        10        11       167      1124      1292      1293
 -1       171    8    0    1
 -2        10       167       166      1293      1294      1289
 -1       172    8    0    1
 -2        11        12       168      1125      1295      1296
 -1       173    8    0    1
 -2        11       168       167      1296      1297      1292
 -1       174    8    0    1
 -2        12        13       169      1126      1298      1299
 -1       175    8    0    1
 -2        12       169       168      1299      1300      1295
 -1       176    8    0    1
 -2        13        14       170      1127      1301      1302
 -1       177    8    0    1
 -2        13       170       169      1302      1303      1298
 -1       178    8    0    1
 -2        14        15       171      1128      1304      1305
 -1       179    8    0    1
 -2        14       171       170      1305      1306      1301
 -1       180    8    0    1
 -2        15        16       172      1129      1307      1308
 -1       181    8    0    1
 -2        15       172       171      1308      1309      1304
 -1       182    8    0    1
 -2        16        17       173      1130      1310      1311
 -1       183    8    0    1
 -2        16       173       172      1311      1312      1307
 -1       184    8    0    1
 -2        17        18       174      1131      1313      1314
 -1       185    8    0    1
 -2        17       174       173      1314      1315      1310
 -1       186    8    0    1
 -2        18        19       175      1132      1316      1317
 -1       187    8    0    1
 -2        18       175       174      1317      1318      1313
 -1       188    8    0    1
 -2        19        20       176      1133      1319      1320
 -1       189    8    0    1
 -2        19       176       175      1320      1321      1316
 -1       190    8    0    1
 -2        20        21       177      1134      1322      1323
 -1       191    8    0    1
 -2        20       177       176      1323      1324      1319
 -1       192    8    0    1
 -2        21        22       178      1135      1325      1326
 -1       193    8    0    1
 -2        21       178       177      1326      1327      1322
 -1       194    8    0    1
 -2        22         5       179      1136      1328      1329
 -1       195    8    0    1
 -2       178        22       179      1325      1329      1330
 -1       196    8    0    1
 -2         5        72       179      1187      1331      1328
 -1       197    8    0    1
 -2        24        23       180      1138      1332      1333
 -1       198    8    0    1
 -2        25        24       181      1139      1334      1335
 -1       199    8    0    1
 -2        24       180       181      1333      1336      1334
 -1       200    8    0    1
 -2        26        25       182      1140      1337      1338
 -1       201    8    0    1
 -2        25       181       182      1335      1339      1337
 -1       202    8    0    1
 -2        27        26       183      1141      1340      1341
 -1       203    8    0    1
 -2        26       182       183      1338      1342      1340
 -1       204    8    0    1
 -2        28        27       184      1142      1343      1344
 -1       205    8    0    1
 -2        27       183       184      1341      1345      1343
 -1       206    8    0    1
 -2        29        28       185      1143      1346      1347
 -1       207    8    0    1
 -2        28       184       185      1344      1348      1346
 -1       208    8    0    1
 -2        30        29       186      1144      1349      1350
 -1       209    8    0    1
 -2        29       185       186      1347      1351      1349
 -1       210    8    0    1
 -2        31        30       187      1145      1352      1353
 -1       211    8    0    1
 -2        30       186       187      1350      1354      1352
 -1       212    8    0    1
 -2        32        31       188      1146      1355      1356
 -1       213    8    0    1
 -2        31       187       188      1353      1357      1355
 -1       214    8    0    1
 -2        33        32       189      1147      1358      1359
 -1       215    8    0    1
 -2        32       188       189      1356      1360      1358
 -1       216    8    0    1
 -2        34        33       190      1148      1361      1362
 -1       217    8    0    1
 -2        33       189       190      1359      1363      1361
 -1       218    8    0    1
 -2        35        34       191      1149      1364      1365
 -1       219    8    0    1
 -2        34       190       191      1362      1366      1364
 -1       220    8    0    1
 -2        36        35       192      1150      1367      1368
 -1       221    8    0    1
 -2        35       191       192      1365      1369      1367
 -1       222    8    0    1
 -2        37        36       193      1151      1370      1371
 -1       223    8    0    1
 -2        36       192       193      1368      1372      1370
 -1       224    8    0    1
 -2        38        37       194      1152      1373      1374
 -1       225    8    0    1
 -2        37       193       194      1371      1375      1373
 -1       226    8    0    1
 -2        39        38       195      1153      1376      1377
 -1       227    8    0    1
 -2        38       194       195      1374      1378      1376
 -1       228    8    0    1
 -2        40        39       196      1154      1379      1380
 -1       229    8    0    1
 -2        39       195       196      1377      1381      1379
 -1       230    8    0    1
 -2        41        40       197      1155      1382      1383
 -1       231    8    0    1
 -2        40       196       197      1380      1384      1382
 -1       232    8    0    1
 -2        42        41       198      1156      1385      1386
 -1       233    8    0    1
 -2        41       197       198      1383      1387      1385
 -1       234    8    0    1
 -2        43        42       199      1157      1388      1389
 -1       235    8    0    1
 -2        42       198       199      1386      1390      1388
 -1       236    8    0    1
 -2        44        43       200      1158      1391      1392
 -1       237    8    0    1
 -2        43       199       200      1389      1393      1391
 -1       238    8    0    1
 -2        45        44       201      1159      1394      1395
 -1       239    8    0    1
 -2        44       200       201      1392      1396      1394
 -1       240    8    0    1
 -2        46        45       202      1160      1397      1398
 -1       241    8    0    1
 -2        45       201       202      1395      1399      1397
 -1       242    8    0    1
 -2        47        46       203      1161      1400      1401
 -1       243    8    0    1
 -2        46       202       203      1398      1402      1400
 -1       244    8    0    1
 -2        48        47       204      1162      1403      1404
 -1       245    8    0    1
 -2        47       203       204      1401      1405      1403
 -1       246    8    0    1
 -2        49        48       205      1163      1406      1407
 -1       247    8    0    1
 -2        48       204       205      1404      1408      1406
 -1       248    8    0    1
 -2        50        49       206      1164      1409      1410
 -1       249    8    0    1
 -2        49       205       206      1407      1411      1409
 -1       250    8    0    1
 -2        51        50       207      1165      1412      1413
 -1       251    8    0    1
 -2        50       206       207      1410      1414      1412
 -1       252    8    0    1
 -2        52        51       208      1166      1415      1416
 -1       253    8    0    1
 -2        51       207       208      1413      1417      1415
 -1       254    8    0    1
 -2        53        52       209      1167      1418      1419
 -1       255    8    0    1
 -2        52       208       209      1416      1420      1418
 -1       256    8    0    1
 -2        54        53       210      1168      1421      1422
 -1       257    8    0    1
 -2        53       209       210      1419      1423      1421
 -1       258    8    0    1
 -2        55        54       211      1169      1424      1425
 -1       259    8    0    1
 -2        54       210       211      1422      1426      1424
 -1       260    8    0    1
 -2        56        55       212      1170      1427      1428
 -1       261    8    0    1
 -2        55       211       212      1425      1429      1427
 -1       262    8    0    1
 -2        57        56       213      1171      1430      1431
 -1       263    8    0    1
 -2        56       212       213      1428      1432      1430
 -1       264    8    0    1
 -2        58        57       214      1172      1433      1434
 -1       265    8    0    1
 -2        57       213       214      1431      1435      1433
 -1       266    8    0    1
 -2        59        58       215      1173      1436      1437
 -1       267    8    0    1
 -2        58       214       215      1434      1438      1436
 -1       268    8    0    1
 -2        60        59       216      1174      1439      1440
 -1       269    8    0    1
 -2        59       215       216      1437      1441      1439
 -1       270    8    0    1
 -2        61        60       217      1175      1442      1443
 -1       271    8    0    1
 -2        60       216       217      1440      1444      1442
 -1       272    8    0    1
 -2        62        61       218      1176      1445      1446
 -1       273    8    0    1
 -2        61       217       218      1443      1447      1445
 -1       274    8    0    1
 -2        63        62       219      1177      1448      1449
 -1       275    8    0    1
 -2        62       218       219      1446      1450      1448
 -1       276    8    0    1
 -2        64        63       220      1178      1451      1452
 -1       277    8    0    1
 -2        63       219       220      1449      1453      1451
 -1       278    8    0    1
 -2        65        64       221      1179      1454      1455
 -1       279    8    0    1
 -2        64       220       221      1452      1456      1454
 -1       280    8    0    1
 -2        66        65       222      1180      1457      1458
 -1       281    8    0    1
 -2        65       221       222      1455      1459      1457
 -1       282    8    0    1
 -2        67        66       223      1181      1460      1461
 -1       283    8    0    1
 -2        66       222       223      1458      1462      1460
 -1       284    8    0    1
 -2        68        67       224      1182      1463      1464
 -1       285    8    0    1
 -2        67       223       224      1461      1465      1463
 -1       286    8    0    1
 -2        69        68       225      1183      1466      1467
 -1       287    8    0    1
 -2        68       224       225      1464      1468      1466
 -1       288    8    0    1
 -2        70        69       226      1184      1469      1470
 -1       289    8    0    1
 -2        69       225       226      1467      1471      1469
 -1       290    8    0    1
 -2        71        70       227      1185      1472      1473
 -1       291    8    0    1
 -2        70       226       227      1470      1474      1472
 -1       292    8    0    1
 -2         4        71       136      1186      1475      1253
 -1       293    8    0    1
 -2       136        71       227      1475      1473      1476
 -1       294    8    0    1
 -2        72        73       228      1188      1477      1478
 -1       295    8    0    1
 -2        72       228       179      1478      1479      1331
 -1       296    8    0    1
 -2        73        74       229      1189      1480      1481
 -1       297    8    0    1
 -2        73       229       228      1481      1482      1477
 -1       298    8    0    1
 -2        74        75       230      1190      1483      1484
 -1       299    8    0    1
 -2        74       230       229      1484      1485      1480
 -1       300    8    0    1
 -2        75        76       231      1191      1486      1487
 -1       301    8    0    1
 -2        75       231       230      1487      1488      1483
 -1       302    8    0    1
 -2        76        77       232      1192      1489      1490
 -1       303    8    0    1
 -2        76       232       231      1490      1491      1486
 -1       304    8    0    1
 -2        77        78       233      1193      1492      1493
 -1       305    8    0    1
 -2        77       233       232      1493      1494      1489
 -1       306    8    0    1
 -2        78        79       234      1194      1495      1496
 -1       307    8    0    1
 -2        78       234       233      1496      1497      1492
 -1       308    8    0    1
 -2        79        80       235      1195      1498      1499
 -1       309    8    0    1
 -2        79       235       234      1499      1500      1495
 -1       310    8    0    1
 -2        80        81       236      1196      1501      1502
 -1       311    8    0    1
 -2        80       236       235      1502      1503      1498
 -1       312    8    0    1
 -2        81        82       237      1197      1504      1505
 -1       313    8    0    1
 -2        81       237       236      1505      1506      1501
 -1       314    8    0    1
 -2        82        83       238      1198      1507      1508
 -1       315    8    0    1
 -2        82       238       237      1508      1509      1504
 -1       316    8    0    1
 -2        83        84       239      1199      1510      1511
 -1       317    8    0    1
 -2        83       239       238      1511      1512      1507
 -1       318    8    0    1
 -2        84        85       240      1200      1513      1514
 -1       319    8    0    1
 -2        84       240       239      1514      1515      1510
 -1       320    8    0    1
 -2        85        86       241      1201      1516      1517
 -1       321    8    0    1
 -2        85       241       240      1517      1518      1513
 -1       322    8    0    1
 -2        86        87       242      1202      1519      1520
 -1       323    8    0    1
 -2        86       242       241      1520      1521      1516
 -1       324    8    0    1
 -2        87        88       243      1203      1522      1523
 -1       325    8    0    1
 -2        87       243       242      1523      1524      1519
 -1       326    8    0    1
 -2        88        89       244      1204      1525      1526
 -1       327    8    0    1
 -2        88       244       243      1526      1527      1522
 -1       328    8    0    1
 -2        89        90       245      1205      1528      1529
 -1       329    8    0    1
 -2        89       245       244      1529      1530      1525
 -1       330    8    0    1
 -2        90        91       246      1206      1531      1532
 -1       331    8    0    1
 -2        90       246       245      1532      1533      1528
 -1       332    8    0    1
 -2        91        92       247      1207      1534      1535
 -1       333    8    0    1
 -2        91       247       246      1535      1536      1531
 -1       334    8    0    1
 -2        92        93       248      1208      1537      1538
 -1       335    8    0    1
 -2        92       248       247      1538      1539      1534
 -1       336    8    0    1
 -2        93        94       249      1209      1540      1541
 -1       337    8    0    1
 -2        93       249       248      1541      1542      1537
 -1       338    8    0    1
 -2        94        95       250      1210      1543      1544
 -1       339    8    0    1
 -2        94       250       249      1544      1545      1540
 -1       340    8    0    1
 -2        95        96       251      1211      1546      1547
 -1       341    8    0    1
 -2        95       251       250      1547      1548      1543
 -1       342    8    0    1
 -2        96        97       252      1212      1549      1550
 -1       343    8    0    1
 -2        96       252       251      1550      1551      1546
 -1       344    8    0    1
 -2        97        98       253      1213      1552      1553
 -1       345    8    0    1
 -2        97       253       252      1553      1554      1549
 -1       346    8    0    1
 -2        98        99       254      1214      1555      1556
 -1       347    8    0    1
 -2        98       254       253      1556      1557      1552
 -1       348    8    0    1
 -2        99       100       255      1215      1558      1559
 -1       349    8    0    1
 -2        99       255       254      1559      1560      1555
 -1       350    8    0    1
 -2       100       101       256      1216      1561      1562
 -1       351    8    0    1
 -2       100       256       255      1562      1563      1558
 -1       352    8    0    1
 -2       101       102       257      1217      1564      1565
 -1       353    8    0    1
 -2       101       257       256      1565      1566      1561
 -1       354    8    0    1
 -2       102       103       258      1218      1567      1568
 -1       355    8    0    1
 -2       102       258       257      1568      1569      1564
 -1       356    8    0    1
 -2       103       104       259      1219      1570      1571
 -1       357    8    0    1
 -2       103       259       258      1571      1572      1567
 -1       358    8    0    1
 -2       104       105       260      1220      1573      1574
 -1       359    8    0    1
 -2       104       260       259      1574      1575      1570
 -1       360    8    0    1
 -2       105       106       261      1221      1576      1577
 -1       361    8    0    1
 -2       105       261       260      1577      1578      1573
 -1       362    8    0    1
 -2       106       107       262      1222      1579      1580
 -1       363    8    0    1
 -2       106       262       261      1580      1581      1576
 -1       364    8    0    1
 -2       107       108       263      1223      1582      1583
 -1       365    8    0    1
 -2       107       263       262      1583      1584      1579
 -1       366    8    0    1
 -2       108       109       264      1224      1585      1586
 -1       367    8    0    1
 -2       108       264       263      1586      1587      1582
 -1       368    8    0    1
 -2       109       110       265      1225      1588      1589
 -1       369    8    0    1
 -2       109       265       264      1589      1590      1585
 -1       370    8    0    1
 -2       110       111       266      1226      1591      1592
 -1       371    8    0    1
 -2       110       266       265      1592      1593      1588
 -1       372    8    0    1
 -2       111       112       267      1227      1594      1595
 -1       373    8    0    1
 -2       111       267       266      1595      1596      1591
 -1       374    8    0    1
 -2       112       113       268      1228      1597      1598
 -1       375    8    0    1
 -2       112       268       267      1598      1599      1594
 -1       376    8    0    1
 -2       113       114       269      1229      1600      1601
 -1       377    8    0    1
 -2       113       269       268      1601      1602      1597
 -1       378    8    0    1
 -2       114       115       270      1230      1603      1604
 -1       379    8    0    1
 -2       114       270       269      1604      1605      1600
 -1       380    8    0    1
 -2       115       116       271      1231      1606      1607
 -1       381    8    0    1
 -2       115       271       270      1607      1608      1603
 -1       382    8    0    1
 -2       116       117       272      1232      1609      1610
 -1       383    8    0    1
 -2       116       272       271      1610      1611      1606
 -1       384    8    0    1
 -2       117       118       273      1233      1612      1613
 -1       385    8    0    1
 -2       117       273       272      1613      1614      1609
 -1       386    8    0    1
 -2       118       119       274      1234      1615      1616
 -1       387    8    0    1
 -2       118       274       273      1616      1617      1612
 -1       388    8    0    1
 -2       119       120       275      1235      1618      1619
 -1       389    8    0    1
 -2       119       275       274      1619      1620      1615
 -1       390    8    0    1
 -2       120         3       121      1236      1237      1621
 -1       391    8    0    1
 -2       121       122       276      1238      1622      1623
 -1       392    8    0    1
 -2       122       123       277      1239      1624      1625
 -1       393    8    0    1
 -2       122       277       276      1625      1626      1622
 -1       394    8    0    1
 -2       123       124       278      1240      1627      1628
 -1       395    8    0    1
 -2       123       278       277      1628      1629      1624
 -1       396    8    0    1
 -2       124       125       279      1241      1630      1631
 -1       397    8    0    1
 -2       124       279       278      1631      1632      1627
 -1       398    8    0    1
 -2       125       126       280      1242      1633      1634
 -1       399    8    0    1
 -2       125       280       279      1634      1635      1630
 -1       400    8    0    1
 -2       126       127       281      1243      1636      1637
 -1       401    8    0    1
 -2       126       281       280      1637      1638      1633
 -1       402    8    0    1
 -2       127       128       282      1244      1639      1640
 -1       403    8    0    1
 -2       127       282       281      1640      1641      1636
 -1       404    8    0    1
 -2       128       129       283      1245      1642      1643
 -1       405    8    0    1
 -2       128       283       282      1643      1644      1639
 -1       406    8    0    1
 -2       129       130       284      1246      1645      1646
 -1       407    8    0    1
 -2       129       284       283      1646      1647      1642
 -1       408    8    0    1
 -2       130       131       285      1247      1648      1649
 -1       409    8    0    1
 -2       130       285       284      1649      1650      1645
 -1       410    8    0    1
 -2       131       132       286      1248      1651      1652
 -1       411    8    0    1
 -2       131       286       285      1652      1653      1648
 -1       412    8    0    1
 -2       132       133       287      1249      1654      1655
 -1       413    8    0    1
 -2       132       287       286      1655      1656      1651
 -1       414    8    0    1
 -2       133       134       288      1250      1657      1658
 -1       415    8    0    1
 -2       133       288       287      1658      1659      1654
 -1       416    8    0    1
 -2       134       135       289      1251      1660      1661
 -1       417    8    0    1
 -2       134       289       288      1661      1662      1657
 -1       418    8    0    1
 -2       135       136       290      1252      1663      1664
 -1       419    8    0    1
 -2       289       135       290      1660      1664      1665
 -1       420    8    0    1
 -2       136       227       290      1476      1666      1663
 -1       421    8    0    1
 -2         2       137       291      1254      1667      1668
 -1       422    8    0    1
 -2       137       138       292      1255      1669      1670
 -1       423    8    0    1
 -2       138       139       293      1256      1671      1672
 -1       424    8    0    1
 -2       139       140       294      1257      1673      1674
 -1       425    8    0    1
 -2       140       141       295      1258      1675      1676
 -1       426    8    0    1
 -2       141       142       296      1259      1677      1678
 -1       427    8    0    1
 -2       142       143       297      1260      1679      1680
 -1       428    8    0    1
 -2       143       144       298      1261      1681      1682
 -1       429    8    0    1
 -2       144       145       299      1262      1683      1684
 -1       430    8    0    1
 -2       145       146       300      1263      1685      1686
 -1       431    8    0    1
 -2       146       147       301      1264      1687      1688
 -1       432    8    0    1
 -2       147       148       302      1265      1689      1690
 -1       433    8    0    1
 -2       148       149       303      1266      1691      1692
 -1       434    8    0    1
 -2       149       150       304      1267      1693      1694
 -1       435    8    0    1
 -2       150       151       305      1268      1695      1696
 -1       436    8    0    1
 -2       151       152       306      1269      1697      1698
 -1       437    8    0    1
 -2       152         1       307      1270      1699      1700
 -1       438    8    0    1
 -2         1       153       308      1271      1701      1702
 -1       439    8    0    1
 -2       153       154       309      1272      1703      1704
 -1       440    8    0    1
 -2       154       155       310      1273      1705      1706
 -1       441    8    0    1
 -2       155       156       311      1274      1707      1708
 -1       442    8    0    1
 -2       156       157       312      1275      1709      1710
 -1       443    8    0    1
 -2       157       158       313      1276      1711      1712
 -1       444    8    0    1
 -2       158       159       314      1277      1713      1714
 -1       445    8    0    1
 -2       159       160       315      1278      1715      1716
 -1       446    8    0    1
 -2       160       161       316      1279      1717      1718
 -1       447    8    0    1
 -2       161       162       317      1280      1719      1720
 -1       448    8    0    1
 -2       162       163       318      1281      1721      1722
 -1       449    8    0    1
 -2       163         2       319      1282      1723      1724
 -1       450    8    0    1
 -2       294       140       295      1673      1676      1725
 -1       451    8    0    1
 -2       293       139       294      1671      1674      1726
 -1       452    8    0    1
 -2       120       121       275      1621      1727      1618
 -1       453    8    0    1
 -2       121       276       275      1623      1728      1727
 -1       454    8    0    1
 -2       291       137       292      1667      1670      1729
 -1       455    8    0    1
 -2       292       138       293      1669      1672      1730
 -1       456    8    0    1
 -2         2       291       319      1668      1731      1723
 -1       457    8    0    1
 -2       141       296       295      1678      1732      1675
 -1       458    8    0    1
 -2       142       297       296      1680      1733      1677
 -1       459    8    0    1
 -2       143       298       297      1682      1734      1679
 -1       460    8    0    1
 -2       144       299       298      1684      1735      1681
 -1       461    8    0    1
 -2       145       300       299      1686      1736      1683
 -1       462    8    0    1
 -2       146       301       300      1688      1737      1685
 -1       463    8    0    1
 -2       147       302       301      1690      1738      1687
 -1       464    8    0    1
 -2       148       303       302      1692      1739      1689
 -1       465    8    0    1
 -2       149       304       303      1694      1740      1691
 -1       466    8    0    1
 -2       150       305       304      1696      1741      1693
 -1       467    8    0    1
 -2       151       306       305      1698      1742      1695
 -1       468    8    0    1
 -2       152       307       306      1700      1743      1697
 -1       469    8    0    1
 -2         1       308       307      1702      1744      1699
 -1       470    8    0    1
 -2       153       309       308      1704      1745      1701
 -1       471    8    0    1
 -2       154       310       309      1706      1746      1703
 -1       472    8    0    1
 -2       155       311       310      1708      1747      1705
 -1       473    8    0    1
 -2       156       312       311      1710      1748      1707
 -1       474    8    0    1
 -2       157       313       312      1712      1749      1709
 -1       475    8    0    1
 -2       158       314       313      1714      1750      1711
 -1       476    8    0    1
 -2       159       315       314      1716      1751      1713
 -1       477    8    0    1
 -2       160       316       315      1718      1752      1715
 -1       478    8    0    1
 -2       161       317       316      1720      1753      1717
 -1       479    8    0    1
 -2       162       318       317      1722      1754      1719
 -1       480    8    0    1
 -2       163       319       318      1724      1755      1721
 -1       481    8    0    1
 -2        23         7       164      1283      1285      1756
 -1       482    8    0    1
 -2       165       166       320      1291      1757      1758
 -1       483    8    0    1
 -2       164       165       321      1288      1759      1760
 -1       484    8    0    1
 -2       165       320       321      1758      1761      1759
 -1       485    8    0    1
 -2       167       168       322      1297      1762      1763
 -1       486    8    0    1
 -2       168       169       323      1300      1764      1765
 -1       487    8    0    1
 -2       168       323       322      1765      1766      1762
 -1       488    8    0    1
 -2       169       170       324      1303      1767      1768
 -1       489    8    0    1
 -2       169       324       323      1768      1769      1764
 -1       490    8    0    1
 -2       170       171       325      1306      1770      1771
 -1       491    8    0    1
 -2       170       325       324      1771      1772      1767
 -1       492    8    0    1
 -2       171       172       326      1309      1773      1774
 -1       493    8    0    1
 -2       171       326       325      1774      1775      1770
 -1       494    8    0    1
 -2       172       173       327      1312      1776      1777
 -1       495    8    0    1
 -2       172       327       326      1777      1778      1773
 -1       496    8    0    1
 -2       173       174       328      1315      1779      1780
 -1       497    8    0    1
 -2       173       328       327      1780      1781      1776
 -1       498    8    0    1
 -2       174       175       329      1318      1782      1783
 -1       499    8    0    1
 -2       174       329       328      1783      1784      1779
 -1       500    8    0    1
 -2       175       176       330      1321      1785      1786
 -1       501    8    0    1
 -2       175       330       329      1786      1787      1782
 -1       502    8    0    1
 -2       176       177       331      1324      1788      1789
 -1       503    8    0    1
 -2       176       331       330      1789      1790      1785
 -1       504    8    0    1
 -2       177       178       332      1327      1791      1792
 -1       505    8    0    1
 -2       177       332       331      1792      1793      1788
 -1       506    8    0    1
 -2       178       179       333      1330      1794      1795
 -1       507    8    0    1
 -2       332       178       333      1791      1795      1796
 -1       508    8    0    1
 -2       179       228       333      1479      1797      1794
 -1       509    8    0    1
 -2       180        23       164      1332      1756      1798
 -1       510    8    0    1
 -2       228       229       334      1482      1799      1800
 -1       511    8    0    1
 -2       228       334       333      1800      1801      1797
 -1       512    8    0    1
 -2       180       164       321      1798      1760      1802
 -1       513    8    0    1
 -2       182       181       335      1339      1803      1804
 -1       514    8    0    1
 -2       183       182       336      1342      1805      1806
 -1       515    8    0    1
 -2       182       335       336      1804      1807      1805
 -1       516    8    0    1
 -2       184       183       337      1345      1808      1809
 -1       517    8    0    1
 -2       183       336       337      1806      1810      1808
 -1       518    8    0    1
 -2       185       184       338      1348      1811      1812
 -1       519    8    0    1
 -2       184       337       338      1809      1813      1811
 -1       520    8    0    1
 -2       186       185       339      1351      1814      1815
 -1       521    8    0    1
 -2       185       338       339      1812      1816      1814
 -1       522    8    0    1
 -2       187       186       340      1354      1817      1818
 -1       523    8    0    1
 -2       186       339       340      1815      1819      1817
 -1       524    8    0    1
 -2       188       187       341      1357      1820      1821
 -1       525    8    0    1
 -2       187       340       341      1818      1822      1820
 -1       526    8    0    1
 -2       189       188       342      1360      1823      1824
 -1       527    8    0    1
 -2       188       341       342      1821      1825      1823
 -1       528    8    0    1
 -2       190       189       343      1363      1826      1827
 -1       529    8    0    1
 -2       189       342       343      1824      1828      1826
 -1       530    8    0    1
 -2       191       190       344      1366      1829      1830
 -1       531    8    0    1
 -2       190       343       344      1827      1831      1829
 -1       532    8    0    1
 -2       192       191       345      1369      1832      1833
 -1       533    8    0    1
 -2       191       344       345      1830      1834      1832
 -1       534    8    0    1
 -2       193       192       346      1372      1835      1836
 -1       535    8    0    1
 -2       192       345       346      1833      1837      1835
 -1       536    8    0    1
 -2       194       193       347      1375      1838      1839
 -1       537    8    0    1
 -2       193       346       347      1836      1840      1838
 -1       538    8    0    1
 -2       195       194       348      1378      1841      1842
 -1       539    8    0    1
 -2       194       347       348      1839      1843      1841
 -1       540    8    0    1
 -2       196       195       349      1381      1844      1845
 -1       541    8    0    1
 -2       195       348       349      1842      1846      1844
 -1       542    8    0    1
 -2       197       196       350      1384      1847      1848
 -1       543    8    0    1
 -2       196       349       350      1845      1849      1847
 -1       544    8    0    1
 -2       198       197       351      1387      1850      1851
 -1       545    8    0    1
 -2       197       350       351      1848      1852      1850
 -1       546    8    0    1
 -2       199       198       352      1390      1853      1854
 -1       547    8    0    1
 -2       198       351       352      1851      1855      1853
 -1       548    8    0    1
 -2       200       199       353      1393      1856      1857
 -1       549    8    0    1
 -2       199       352       353      1854      1858      1856
 -1       550    8    0    1
 -2       201       200       354      1396      1859      1860
 -1       551    8    0    1
 -2       200       353       354      1857      1861      1859
 -1       552    8    0    1
 -2       202       201       355      1399      1862      1863
 -1       553    8    0    1
 -2       201       354       355      1860      1864      1862
 -1       554    8    0    1
 -2       203       202       356      1402      1865      1866
 -1       555    8    0    1
 -2       202       355       356      1863      1867      1865
 -1       556    8    0    1
 -2       204       203       357      1405      1868      1869
 -1       557    8    0    1
 -2       203       356       357      1866      1870      1868
 -1       558    8    0    1
 -2       205       204       358      1408      1871      1872
 -1       559    8    0    1
 -2       204       357       358      1869      1873      1871
 -1       560    8    0    1
 -2       206       205       359      1411      1874      1875
 -1       561    8    0    1
 -2       205       358       359      1872      1876      1874
 -1       562    8    0    1
 -2       207       206       360      1414      1877      1878
 -1       563    8    0    1
 -2       206       359       360      1875      1879      1877
 -1       564    8    0    1
 -2       208       207       361      1417      1880      1881
 -1       565    8    0    1
 -2       207       360       361      1878      1882      1880
 -1       566    8    0    1
 -2       209       208       362      1420      1883      1884
 -1       567    8    0    1
 -2       208       361       362      1881      1885      1883
 -1       568    8    0    1
 -2       210       209       363      1423      1886      1887
 -1       569    8    0    1
 -2       209       362       363      1884      1888      1886
 -1       570    8    0    1
 -2       211       210       364      1426      1889      1890
 -1       571    8    0    1
 -2       210       363       364      1887      1891      1889
 -1       572    8    0    1
 -2       212       211       365      1429      1892      1893
 -1       573    8    0    1
 -2       211       364       365      1890      1894      1892
 -1       574    8    0    1
 -2       213       212       366      1432      1895      1896
 -1       575    8    0    1
 -2       212       365       366      1893      1897      1895
 -1       576    8    0    1
 -2       214       213       367      1435      1898      1899
 -1       577    8    0    1
 -2       213       366       367      1896      1900      1898
 -1       578    8    0    1
 -2       215       214       368      1438      1901      1902
 -1       579    8    0    1
 -2       214       367       368      1899      1903      1901
 -1       580    8    0    1
 -2       216       215       369      1441      1904      1905
 -1       581    8    0    1
 -2       215       368       369      1902      1906      1904
 -1       582    8    0    1
 -2       217       216       370      1444      1907      1908
 -1       583    8    0    1
 -2       216       369       370      1905      1909      1907
 -1       584    8    0    1
 -2       218       217       371      1447      1910      1911
 -1       585    8    0    1
 -2       217       370       371      1908      1912      1910
 -1       586    8    0    1
 -2       219       218       372      1450      1913      1914
 -1       587    8    0    1
 -2       218       371       372      1911      1915      1913
 -1       588    8    0    1
 -2       220       219       373      1453      1916      1917
 -1       589    8    0    1
 -2       219       372       373      1914      1918      1916
 -1       590    8    0    1
 -2       221       220       374      1456      1919      1920
 -1       591    8    0    1
 -2       220       373       374      1917      1921      1919
 -1       592    8    0    1
 -2       222       221       375      1459      1922      1923
 -1       593    8    0    1
 -2       221       374       375      1920      1924      1922
 -1       594    8    0    1
 -2       223       222       376      1462      1925      1926
 -1       595    8    0    1
 -2       222       375       376      1923      1927      1925
 -1       596    8    0    1
 -2       224       223       377      1465      1928      1929
 -1       597    8    0    1
 -2       223       376       377      1926      1930      1928
 -1       598    8    0    1
 -2       225       224       378      1468      1931      1932
 -1       599    8    0    1
 -2       224       377       378      1929      1933      1931
 -1       600    8    0    1
 -2       226       225       379      1471      1934      1935
 -1       601    8    0    1
 -2       225       378       379      1932      1936      1934
 -1       602    8    0    1
 -2       227       226       380      1474      1937      1938
 -1       603    8    0    1
 -2       290       227       380      1666      1938      1939
 -1       604    8    0    1
 -2       226       379       380      1935      1940      1937
 -1       605    8    0    1
 -2       229       230       381      1485      1941      1942
 -1       606    8    0    1
 -2       229       381       334      1942      1943      1799
 -1       607    8    0    1
 -2       230       231       382      1488      1944      1945
 -1       608    8    0    1
 -2       230       382       381      1945      1946      1941
 -1       609    8    0    1
 -2       231       232       383      1491      1947      1948
 -1       610    8    0    1
 -2       231       383       382      1948      1949      1944
 -1       611    8    0    1
 -2       232       233       384      1494      1950      1951
 -1       612    8    0    1
 -2       232       384       383      1951      1952      1947
 -1       613    8    0    1
 -2       233       234       385      1497      1953      1954
 -1       614    8    0    1
 -2       233       385       384      1954      1955      1950
 -1       615    8    0    1
 -2       234       235       386      1500      1956      1957
 -1       616    8    0    1
 -2       234       386       385      1957      1958      1953
 -1       617    8    0    1
 -2       235       236       387      1503      1959      1960
 -1       618    8    0    1
 -2       235       387       386      1960      1961      1956
 -1       619    8    0    1
 -2       236       237       388      1506      1962      1963
 -1       620    8    0    1
 -2       236       388       387      1963      1964      1959
 -1       621    8    0    1
 -2       237       238       389      1509      1965      1966
 -1       622    8    0    1
 -2       237       389       388      1966      1967      1962
 -1       623    8    0    1
 -2       238       239       390      1512      1968      1969
 -1       624    8    0    1
 -2       238       390       389      1969      1970      1965
 -1       625    8    0    1
 -2       239       240       391      1515      1971      1972
 -1       626    8    0    1
 -2       239       391       390      1972      1973      1968
 -1       627    8    0    1
 -2       240       241       392      1518      1974      1975
 -1       628    8    0    1
 -2       240       392       391      1975      1976      1971
 -1       629    8    0    1
 -2       241       242       393      1521      1977      1978
 -1       630    8    0    1
 -2       241       393       392      1978      1979      1974
 -1       631    8    0    1
 -2       242       243       394      1524      1980      1981
 -1       632    8    0    1
 -2       242       394       393      1981      1982      1977
 -1       633    8    0    1
 -2       243       244       395      1527      1983      1984
 -1       634    8    0    1
 -2       243       395       394      1984      1985      1980
 -1       635    8    0    1
 -2       244       245       396      1530      1986      1987
 -1       636    8    0    1
 -2       244       396       395      1987      1988      1983
 -1       637    8    0    1
 -2       245       246       397      1533      1989      1990
 -1       638    8    0    1
 -2       245       397       396      1990      1991      1986
 -1       639    8    0    1
 -2       246       247       398      1536      1992      1993
 -1       640    8    0    1
 -2       246       398       397      1993      1994      1989
 -1       641    8    0    1
 -2       247       248       399      1539      1995      1996
 -1       642    8    0    1
 -2       247       399       398      1996      1997      1992
 -1       643    8    0    1
 -2       248       249       400      1542      1998      1999
 -1       644    8    0    1
 -2       248       400       399      1999      2000      1995
 -1       645    8    0    1
 -2       249       250       401      1545      2001      2002
 -1       646    8    0    1
 -2       249       401       400      2002      2003      1998
 -1       647    8    0    1
 -2       250       251       402      1548      2004      2005
 -1       648    8    0    1
 -2       250       402       401      2005      2006      2001
 -1       649    8    0    1
 -2       251       252       403      1551      2007      2008
 -1       650    8    0    1
 -2       251       403       402      2008      2009      2004
 -1       651    8    0    1
 -2       252       253       404      1554      2010      2011
 -1       652    8    0    1
 -2       252       404       403      2011      2012      2007
 -1       653    8    0    1
 -2       253       254       405      1557      2013      2014
 -1       654    8    0    1
 -2       253       405       404      2014      2015      2010
 -1       655    8    0    1
 -2       254       255       406      1560      2016      2017
 -1       656    8    0    1
 -2       254       406       405      2017      2018      2013
 -1       657    8    0    1
 -2       255       256       407      1563      2019      2020
 -1       658    8    0    1
 -2       255       407       406      2020      2021      2016
 -1       659    8    0    1
 -2       256       257       408      1566      2022      2023
 -1       660    8    0    1
 -2       256       408       407      2023      2024      2019
 -1       661    8    0    1
 -2       257       258       409      1569      2025      2026
 -1       662    8    0    1
 -2       257       409       408      2026      2027      2022
 -1       663    8    0    1
 -2       258       259       410      1572      2028      2029
 -1       664    8    0    1
 -2       258       410       409      2029      2030      2025
 -1       665    8    0    1
 -2       259       260       411      1575      2031      2032
 -1       666    8    0    1
 -2       259       411       410      2032      2033      2028
 -1       667    8    0    1
 -2       260       261       412      1578      2034      2035
 -1       668    8    0    1
 -2       260       412       411      2035      2036      2031
 -1       669    8    0    1
 -2       261       262       413      1581      2037      2038
 -1       670    8    0    1
 -2       261       413       412      2038      2039      2034
 -1       671    8    0    1
 -2       262       263       414      1584      2040      2041
 -1       672    8    0    1
 -2       262       414       413      2041      2042      2037
 -1       673    8    0    1
 -2       263       264       415      1587      2043      2044
 -1       674    8    0    1
 -2       263       415       414      2044      2045      2040
 -1       675    8    0    1
 -2       264       265       416      1590      2046      2047
 -1       676    8    0    1
 -2       264       416       415      2047      2048      2043
 -1       677    8    0    1
 -2       265       266       417      1593      2049      2050
 -1       678    8    0    1
 -2       265       417       416      2050      2051      2046
 -1       679    8    0    1
 -2       266       267       418      1596      2052      2053
 -1       680    8    0    1
 -2       266       418       417      2053      2054      2049
 -1       681    8    0    1
 -2       267       268       419      1599      2055      2056
 -1       682    8    0    1
 -2       267       419       418      2056      2057      2052
 -1       683    8    0    1
 -2       268       269       420      1602      2058      2059
 -1       684    8    0    1
 -2       268       420       419      2059      2060      2055
 -1       685    8    0    1
 -2       269       270       421      1605      2061      2062
 -1       686    8    0    1
 -2       269       421       420      2062      2063      2058
 -1       687    8    0    1
 -2       270       271       422      1608      2064      2065
 -1       688    8    0    1
 -2       270       422       421      2065      2066      2061
 -1       689    8    0    1
 -2       271       272       423      1611      2067      2068
 -1       690    8    0    1
 -2       271       423       422      2068      2069      2064
 -1       691    8    0    1
 -2       272       273       424      1614      2070      2071
 -1       692    8    0    1
 -2       272       424       423      2071      2072      2067
 -1       693    8    0    1
 -2       273       274       425      1617      2073      2074
 -1       694    8    0    1
 -2       273       425       424      2074      2075      2070
 -1       695    8    0    1
 -2       274       275       426      1620      2076      2077
 -1       696    8    0    1
 -2       425       274       426      2073      2077      2078
 -1       697    8    0    1
 -2       275       276       426      1728      2079      2076
 -1       698    8    0    1
 -2       278       279       427      1632      2080      2081
 -1       699    8    0    1
 -2       277       278       428      1629      2082      2083
 -1       700    8    0    1
 -2       278       427       428      2081      2084      2082
 -1       701    8    0    1
 -2       276       277       429      1626      2085      2086
 -1       702    8    0    1
 -2       426       276       429      2079      2086      2087
 -1       703    8    0    1
 -2       277       428       429      2083      2088      2085
 -1       704    8    0    1
 -2       279       280       430      1635      2089      2090
 -1       705    8    0    1
 -2       279       430       427      2090      2091      2080
 -1       706    8    0    1
 -2       280       281       431      1638      2092      2093
 -1       707    8    0    1
 -2       280       431       430      2093      2094      2089
 -1       708    8    0    1
 -2       281       282       432      1641      2095      2096
 -1       709    8    0    1
 -2       281       432       431      2096      2097      2092
 -1       710    8    0    1
 -2       282       283       433      1644      2098      2099
 -1       711    8    0    1
 -2       282       433       432      2099      2100      2095
 -1       712    8    0    1
 -2       283       284       434      1647      2101      2102
 -1       713    8    0    1
 -2       283       434       433      2102      2103      2098
 -1       714    8    0    1
 -2       284       285       435      1650      2104      2105
 -1       715    8    0    1
 -2       284       435       434      2105      2106      2101
 -1       716    8    0    1
 -2       285       286       436      1653      2107      2108
 -1       717    8    0    1
 -2       285       436       435      2108      2109      2104
 -1       718    8    0    1
 -2       286       287       437      1656      2110      2111
 -1       719    8    0    1
 -2       286       437       436      2111      2112      2107
 -1       720    8    0    1
 -2       287       288       438      1659      2113      2114
 -1       721    8    0    1
 -2       287       438       437      2114      2115      2110
 -1       722    8    0    1
 -2       288       289       439      1662      2116      2117
 -1       723    8    0    1
 -2       288       439       438      2117      2118      2113
 -1       724    8    0    1
 -2       292       293       440      1730      2119      2120
 -1       725    8    0    1
 -2       319       291       441      1731      2121      2122
 -1       726    8    0    1
 -2       291       292       442      1729      2123      2124
 -1       727    8    0    1
 -2       293       294       443      1726      2125      2126
 -1       728    8    0    1
 -2       294       295       444      1725      2127      2128
 -1       729    8    0    1
 -2       166       167       445      1294      2129      2130
 -1       730    8    0    1
 -2       320       166       445      1757      2130      2131
 -1       731    8    0    1
 -2       167       322       445      1763      2132      2129
 -1       732    8    0    1
 -2       296       297       446      1733      2133      2134
 -1       733    8    0    1
 -2       297       298       447      1734      2135      2136
 -1       734    8    0    1
 -2       298       299       448      1735      2137      2138
 -1       735    8    0    1
 -2       299       300       449      1736      2139      2140
 -1       736    8    0    1
 -2       299       449       448      2140      2141      2137
 -1       737    8    0    1
 -2       300       301       450      1737      2142      2143
 -1       738    8    0    1
 -2       301       302       451      1738      2144      2145
 -1       739    8    0    1
 -2       302       303       452      1739      2146      2147
 -1       740    8    0    1
 -2       302       452       451      2147      2148      2144
 -1       741    8    0    1
 -2       303       304       453      1740      2149      2150
 -1       742    8    0    1
 -2       304       305       454      1741      2151      2152
 -1       743    8    0    1
 -2       305       306       455      1742      2153      2154
 -1       744    8    0    1
 -2       306       307       456      1743      2155      2156
 -1       745    8    0    1
 -2       306       456       455      2156      2157      2153
 -1       746    8    0    1
 -2       307       308       457      1744      2158      2159
 -1       747    8    0    1
 -2       308       309       458      1745      2160      2161
 -1       748    8    0    1
 -2       309       310       459      1746      2162      2163
 -1       749    8    0    1
 -2       310       311       460      1747      2164      2165
 -1       750    8    0    1
 -2       311       312       461      1748      2166      2167
 -1       751    8    0    1
 -2       312       313       462      1749      2168      2169
 -1       752    8    0    1
 -2       313       314       463      1750      2170      2171
 -1       753    8    0    1
 -2       314       315       464      1751      2172      2173
 -1       754    8    0    1
 -2       315       316       465      1752      2174      2175
 -1       755    8    0    1
 -2       316       317       466      1753      2176      2177
 -1       756    8    0    1
 -2       317       318       467      1754      2178      2179
 -1       757    8    0    1
 -2       317       467       466      2179      2180      2176
 -1       758    8    0    1
 -2       318       319       468      1755      2181      2182
 -1       759    8    0    1
 -2       295       296       469      1732      2183      2184
 -1       760    8    0    1
 -2       443       294       444      2125      2128      2185
 -1       761    8    0    1
 -2       180       321       181      1802      2186      1336
 -1       762    8    0    1
 -2       444       295       469      2127      2184      2187
 -1       763    8    0    1
 -2       296       446       469      2134      2188      2183
 -1       764    8    0    1
 -2       335       181       321      1803      2186      2189
 -1       765    8    0    1
 -2       442       292       440      2123      2120      2190
 -1       766    8    0    1
 -2       441       291       442      2121      2124      2191
 -1       767    8    0    1
 -2       439       289       290      2116      1665      2192
 -1       768    8    0    1
 -2       440       293       443      2119      2126      2193
 -1       769    8    0    1
 -2       319       441       468      2122      2194      2181
 -1       770    8    0    1
 -2       467       318       470      2178      2195      2196
 -1       771    8    0    1
 -2       318       468       470      2182      2197      2195
 -1       772    8    0    1
 -2       465       316       466      2174      2177      2198
 -1       773    8    0    1
 -2       464       315       465      2172      2175      2199
 -1       774    8    0    1
 -2       463       314       464      2170      2173      2200
 -1       775    8    0    1
 -2       462       313       463      2168      2171      2201
 -1       776    8    0    1
 -2       461       312       462      2166      2169      2202
 -1       777    8    0    1
 -2       460       311       461      2164      2167      2203
 -1       778    8    0    1
 -2       459       310       460      2162      2165      2204
 -1       779    8    0    1
 -2       458       309       459      2160      2163      2205
 -1       780    8    0    1
 -2       456       307       471      2155      2206      2207
 -1       781    8    0    1
 -2       307       457       471      2159      2208      2206
 -1       782    8    0    1
 -2       454       305       455      2151      2154      2209
 -1       783    8    0    1
 -2       452       303       453      2146      2150      2210
 -1       784    8    0    1
 -2       449       300       450      2139      2143      2211
 -1       785    8    0    1
 -2       446       297       447      2133      2136      2212
 -1       786    8    0    1
 -2       447       298       448      2135      2138      2213
 -1       787    8    0    1
 -2       450       301       451      2142      2145      2214
 -1       788    8    0    1
 -2       453       304       454      2149      2152      2215
 -1       789    8    0    1
 -2       457       308       458      2158      2161      2216
 -1       790    8    0    1
 -2       334       381       472      1943      2217      2218
 -1       791    8    0    1
 -2       323       324       473      1769      2219      2220
 -1       792    8    0    1
 -2       322       323       474      1766      2221      2222
 -1       793    8    0    1
 -2       323       473       474      2220      2223      2221
 -1       794    8    0    1
 -2       325       326       475      1775      2224      2225
 -1       795    8    0    1
 -2       326       327       476      1778      2226      2227
 -1       796    8    0    1
 -2       326       476       475      2227      2228      2224
 -1       797    8    0    1
 -2       327       328       477      1781      2229      2230
 -1       798    8    0    1
 -2       327       477       476      2230      2231      2226
 -1       799    8    0    1
 -2       328       329       478      1784      2232      2233
 -1       800    8    0    1
 -2       328       478       477      2233      2234      2229
 -1       801    8    0    1
 -2       329       330       479      1787      2235      2236
 -1       802    8    0    1
 -2       329       479       478      2236      2237      2232
 -1       803    8    0    1
 -2       330       331       480      1790      2238      2239
 -1       804    8    0    1
 -2       330       480       479      2239      2240      2235
 -1       805    8    0    1
 -2       381       382       481      1946      2241      2242
 -1       806    8    0    1
 -2       381       481       472      2242      2243      2217
 -1       807    8    0    1
 -2       336       335       482      1807      2244      2245
 -1       808    8    0    1
 -2       444       469       483      2187      2246      2247
 -1       809    8    0    1
 -2       337       336       484      1810      2248      2249
 -1       810    8    0    1
 -2       336       482       484      2245      2250      2248
 -1       811    8    0    1
 -2       338       337       485      1813      2251      2252
 -1       812    8    0    1
 -2       337       484       485      2249      2253      2251
 -1       813    8    0    1
 -2       339       338       486      1816      2254      2255
 -1       814    8    0    1
 -2       338       485       486      2252      2256      2254
 -1       815    8    0    1
 -2       340       339       487      1819      2257      2258
 -1       816    8    0    1
 -2       339       486       487      2255      2259      2257
 -1       817    8    0    1
 -2       341       340       488      1822      2260      2261
 -1       818    8    0    1
 -2       340       487       488      2258      2262      2260
 -1       819    8    0    1
 -2       342       341       489      1825      2263      2264
 -1       820    8    0    1
 -2       341       488       489      2261      2265      2263
 -1       821    8    0    1
 -2       343       342       490      1828      2266      2267
 -1       822    8    0    1
 -2       342       489       490      2264      2268      2266
 -1       823    8    0    1
 -2       344       343       491      1831      2269      2270
 -1       824    8    0    1
 -2       343       490       491      2267      2271      2269
 -1       825    8    0    1
 -2       345       344       492      1834      2272      2273
 -1       826    8    0    1
 -2       344       491       492      2270      2274      2272
 -1       827    8    0    1
 -2       346       345       493      1837      2275      2276
 -1       828    8    0    1
 -2       345       492       493      2273      2277      2275
 -1       829    8    0    1
 -2       347       346       494      1840      2278      2279
 -1       830    8    0    1
 -2       346       493       494      2276      2280      2278
 -1       831    8    0    1
 -2       348       347       495      1843      2281      2282
 -1       832    8    0    1
 -2       347       494       495      2279      2283      2281
 -1       833    8    0    1
 -2       349       348       496      1846      2284      2285
 -1       834    8    0    1
 -2       348       495       496      2282      2286      2284
 -1       835    8    0    1
 -2       350       349       497      1849      2287      2288
 -1       836    8    0    1
 -2       349       496       497      2285      2289      2287
 -1       837    8    0    1
 -2       351       350       498      1852      2290      2291
 -1       838    8    0    1
 -2       350       497       498      2288      2292      2290
 -1       839    8    0    1
 -2       352       351       499      1855      2293      2294
 -1       840    8    0    1
 -2       351       498       499      2291      2295      2293
 -1       841    8    0    1
 -2       353       352       500      1858      2296      2297
 -1       842    8    0    1
 -2       352       499       500      2294      2298      2296
 -1       843    8    0    1
 -2       354       353       501      1861      2299      2300
 -1       844    8    0    1
 -2       353       500       501      2297      2301      2299
 -1       845    8    0    1
 -2       355       354       502      1864      2302      2303
 -1       846    8    0    1
 -2       354       501       502      2300      2304      2302
 -1       847    8    0    1
 -2       356       355       503      1867      2305      2306
 -1       848    8    0    1
 -2       355       502       503      2303      2307      2305
 -1       849    8    0    1
 -2       357       356       504      1870      2308      2309
 -1       850    8    0    1
 -2       356       503       504      2306      2310      2308
 -1       851    8    0    1
 -2       358       357       505      1873      2311      2312
 -1       852    8    0    1
 -2       357       504       505      2309      2313      2311
 -1       853    8    0    1
 -2       359       358       506      1876      2314      2315
 -1       854    8    0    1
 -2       358       505       506      2312      2316      2314
 -1       855    8    0    1
 -2       360       359       507      1879      2317      2318
 -1       856    8    0    1
 -2       359       506       507      2315      2319      2317
 -1       857    8    0    1
 -2       361       360       508      1882      2320      2321
 -1       858    8    0    1
 -2       360       507       508      2318      2322      2320
 -1       859    8    0    1
 -2       362       361       509      1885      2323      2324
 -1       860    8    0    1
 -2       361       508       509      2321      2325      2323
 -1       861    8    0    1
 -2       363       362       510      1888      2326      2327
 -1       862    8    0    1
 -2       362       509       510      2324      2328      2326
 -1       863    8    0    1
 -2       364       363       511      1891      2329      2330
 -1       864    8    0    1
 -2       363       510       511      2327      2331      2329
 -1       865    8    0    1
 -2       365       364       512      1894      2332      2333
 -1       866    8    0    1
 -2       364       511       512      2330      2334      2332
 -1       867    8    0    1
 -2       366       365       513      1897      2335      2336
 -1       868    8    0    1
 -2       365       512       513      2333      2337      2335
 -1       869    8    0    1
 -2       367       366       514      1900      2338      2339
 -1       870    8    0    1
 -2       366       513       514      2336      2340      2338
 -1       871    8    0    1
 -2       368       367       515      1903      2341      2342
 -1       872    8    0    1
 -2       367       514       515      2339      2343      2341
 -1       873    8    0    1
 -2       369       368       516      1906      2344      2345
 -1       874    8    0    1
 -2       368       515       516      2342      2346      2344
 -1       875    8    0    1
 -2       370       369       517      1909      2347      2348
 -1       876    8    0    1
 -2       369       516       517      2345      2349      2347
 -1       877    8    0    1
 -2       371       370       518      1912      2350      2351
 -1       878    8    0    1
 -2       370       517       518      2348      2352      2350
 -1       879    8    0    1
 -2       372       371       519      1915      2353      2354
 -1       880    8    0    1
 -2       371       518       519      2351      2355      2353
 -1       881    8    0    1
 -2       373       372       520      1918      2356      2357
 -1       882    8    0    1
 -2       372       519       520      2354      2358      2356
 -1       883    8    0    1
 -2       374       373       521      1921      2359      2360
 -1       884    8    0    1
 -2       373       520       521      2357      2361      2359
 -1       885    8    0    1
 -2       375       374       522      1924      2362      2363
 -1       886    8    0    1
 -2       374       521       522      2360      2364      2362
 -1       887    8    0    1
 -2       376       375       523      1927      2365      2366
 -1       888    8    0    1
 -2       375       522       523      2363      2367      2365
 -1       889    8    0    1
 -2       377       376       524      1930      2368      2369
 -1       890    8    0    1
 -2       376       523       524      2366      2370      2368
 -1       891    8    0    1
 -2       378       377       525      1933      2371      2372
 -1       892    8    0    1
 -2       377       524       525      2369      2373      2371
 -1       893    8    0    1
 -2       379       378       526      1936      2374      2375
 -1       894    8    0    1
 -2       378       525       526      2372      2376      2374
 -1       895    8    0    1
 -2       383       384       527      1952      2377      2378
 -1       896    8    0    1
 -2       384       385       528      1955      2379      2380
 -1       897    8    0    1
 -2       384       528       527      2380      2381      2377
 -1       898    8    0    1
 -2       385       386       529      1958      2382      2383
 -1       899    8    0    1
 -2       385       529       528      2383      2384      2379
 -1       900    8    0    1
 -2       386       387       530      1961      2385      2386
 -1       901    8    0    1
 -2       386       530       529      2386      2387      2382
 -1       902    8    0    1
 -2       387       388       531      1964      2388      2389
 -1       903    8    0    1
 -2       387       531       530      2389      2390      2385
 -1       904    8    0    1
 -2       388       389       532      1967      2391      2392
 -1       905    8    0    1
 -2       388       532       531      2392      2393      2388
 -1       906    8    0    1
 -2       389       390       533      1970      2394      2395
 -1       907    8    0    1
 -2       389       533       532      2395      2396      2391
 -1       908    8    0    1
 -2       390       391       534      1973      2397      2398
 -1       909    8    0    1
 -2       390       534       533      2398      2399      2394
 -1       910    8    0    1
 -2       391       392       535      1976      2400      2401
 -1       911    8    0    1
 -2       391       535       534      2401      2402      2397
 -1       912    8    0    1
 -2       392       393       536      1979      2403      2404
 -1       913    8    0    1
 -2       392       536       535      2404      2405      2400
 -1       914    8    0    1
 -2       393       394       537      1982      2406      2407
 -1       915    8    0    1
 -2       393       537       536      2407      2408      2403
 -1       916    8    0    1
 -2       394       395       538      1985      2409      2410
 -1       917    8    0    1
 -2       394       538       537      2410      2411      2406
 -1       918    8    0    1
 -2       395       396       539      1988      2412      2413
 -1       919    8    0    1
 -2       395       539       538      2413      2414      2409
 -1       920    8    0    1
 -2       396       397       540      1991      2415      2416
 -1       921    8    0    1
 -2       396       540       539      2416      2417      2412
 -1       922    8    0    1
 -2       397       398       541      1994      2418      2419
 -1       923    8    0    1
 -2       397       541       540      2419      2420      2415
 -1       924    8    0    1
 -2       398       399       542      1997      2421      2422
 -1       925    8    0    1
 -2       398       542       541      2422      2423      2418
 -1       926    8    0    1
 -2       399       400       543      2000      2424      2425
 -1       927    8    0    1
 -2       399       543       542      2425      2426      2421
 -1       928    8    0    1
 -2       400       401       544      2003      2427      2428
 -1       929    8    0    1
 -2       400       544       543      2428      2429      2424
 -1       930    8    0    1
 -2       401       402       545      2006      2430      2431
 -1       931    8    0    1
 -2       401       545       544      2431      2432      2427
 -1       932    8    0    1
 -2       402       403       546      2009      2433      2434
 -1       933    8    0    1
 -2       402       546       545      2434      2435      2430
 -1       934    8    0    1
 -2       403       404       547      2012      2436      2437
 -1       935    8    0    1
 -2       403       547       546      2437      2438      2433
 -1       936    8    0    1
 -2       404       405       548      2015      2439      2440
 -1       937    8    0    1
 -2       404       548       547      2440      2441      2436
 -1       938    8    0    1
 -2       405       406       549      2018      2442      2443
 -1       939    8    0    1
 -2       405       549       548      2443      2444      2439
 -1       940    8    0    1
 -2       406       407       550      2021      2445      2446
 -1       941    8    0    1
 -2       406       550       549      2446      2447      2442
 -1       942    8    0    1
 -2       407       408       551      2024      2448      2449
 -1       943    8    0    1
 -2       407       551       550      2449      2450      2445
 -1       944    8    0    1
 -2       408       409       552      2027      2451      2452
 -1       945    8    0    1
 -2       408       552       551      2452      2453      2448
 -1       946    8    0    1
 -2       409       410       553      2030      2454      2455
 -1       947    8    0    1
 -2       409       553       552      2455      2456      2451
 -1       948    8    0    1
 -2       410       411       554      2033      2457      2458
 -1       949    8    0    1
 -2       410       554       553      2458      2459      2454
 -1       950    8    0    1
 -2       411       412       555      2036      2460      2461
 -1       951    8    0    1
 -2       411       555       554      2461      2462      2457
 -1       952    8    0    1
 -2       412       413       556      2039      2463      2464
 -1       953    8    0    1
 -2       412       556       555      2464      2465      2460
 -1       954    8    0    1
 -2       413       414       557      2042      2466      2467
 -1       955    8    0    1
 -2       413       557       556      2467      2468      2463
 -1       956    8    0    1
 -2       414       415       558      2045      2469      2470
 -1       957    8    0    1
 -2       414       558       557      2470      2471      2466
 -1       958    8    0    1
 -2       415       416       559      2048      2472      2473
 -1       959    8    0    1
 -2       415       559       558      2473      2474      2469
 -1       960    8    0    1
 -2       416       417       560      2051      2475      2476
 -1       961    8    0    1
 -2       416       560       559      2476      2477      2472
 -1       962    8    0    1
 -2       417       418       561      2054      2478      2479
 -1       963    8    0    1
 -2       417       561       560      2479      2480      2475
 -1       964    8    0    1
 -2       418       419       562      2057      2481      2482
 -1       965    8    0    1
 -2       418       562       561      2482      2483      2478
 -1       966    8    0    1
 -2       419       420       563      2060      2484      2485
 -1       967    8    0    1
 -2       419       563       562      2485      2486      2481
 -1       968    8    0    1
 -2       420       421       564      2063      2487      2488
 -1       969    8    0    1
 -2       420       564       563      2488      2489      2484
 -1       970    8    0    1
 -2       421       422       565      2066      2490      2491
 -1       971    8    0    1
 -2       421       565       564      2491      2492      2487
 -1       972    8    0    1
 -2       422       423       566      2069      2493      2494
 -1       973    8    0    1
 -2       422       566       565      2494      2495      2490
 -1       974    8    0    1
 -2       423       424       567      2072      2496      2497
 -1       975    8    0    1
 -2       423       567       566      2497      2498      2493
 -1       976    8    0    1
 -2       424       425       568      2075      2499      2500
 -1       977    8    0    1
 -2       424       568       567      2500      2501      2496
 -1       978    8    0    1
 -2       425       426       429      2078      2087      2502
 -1       979    8    0    1
 -2       430       431       569      2094      2503      2504
 -1       980    8    0    1
 -2       431       432       570      2097      2505      2506
 -1       981    8    0    1
 -2       431       570       569      2506      2507      2503
 -1       982    8    0    1
 -2       428       427       571      2084      2508      2509
 -1       983    8    0    1
 -2       427       430       572      2091      2510      2511
 -1       984    8    0    1
 -2       571       427       572      2508      2511      2512
 -1       985    8    0    1
 -2       430       569       572      2504      2513      2510
 -1       986    8    0    1
 -2       432       433       573      2100      2514      2515
 -1       987    8    0    1
 -2       432       573       570      2515      2516      2505
 -1       988    8    0    1
 -2       433       434       574      2103      2517      2518
 -1       989    8    0    1
 -2       433       574       573      2518      2519      2514
 -1       990    8    0    1
 -2       434       435       575      2106      2520      2521
 -1       991    8    0    1
 -2       434       575       574      2521      2522      2517
 -1       992    8    0    1
 -2       435       436       576      2109      2523      2524
 -1       993    8    0    1
 -2       435       576       575      2524      2525      2520
 -1       994    8    0    1
 -2       436       437       577      2112      2526      2527
 -1       995    8    0    1
 -2       436       577       576      2527      2528      2523
 -1       996    8    0    1
 -2       437       438       578      2115      2529      2530
 -1       997    8    0    1
 -2       437       578       577      2530      2531      2526
 -1       998    8    0    1
 -2       438       439       579      2118      2532      2533
 -1       999    8    0    1
 -2       438       579       578      2533      2534      2529
 -1      1000    8    0    1
 -2       441       442       580      2191      2535      2536
 -1      1001    8    0    1
 -2       440       443       581      2193      2537      2538
 -1      1002    8    0    1
 -2       382       383       582      1949      2539      2540
 -1      1003    8    0    1
 -2       383       527       582      2378      2541      2539
 -1      1004    8    0    1
 -2       439       290       380      2192      1939      2542
 -1      1005    8    0    1
 -2       468       441       583      2194      2543      2544
 -1      1006    8    0    1
 -2       442       440       584      2190      2545      2546
 -1      1007    8    0    1
 -2       335       321       585      2189      2547      2548
 -1      1008    8    0    1
 -2       482       335       585      2244      2548      2549
 -1      1009    8    0    1
 -2       321       320       585      1761      2550      2547
 -1      1010    8    0    1
 -2       465       466       586      2198      2551      2552
 -1      1011    8    0    1
 -2       454       455       587      2209      2553      2554
 -1      1012    8    0    1
 -2       449       450       588      2211      2555      2556
 -1      1013    8    0    1
 -2       446       447       589      2212      2557      2558
 -1      1014    8    0    1
 -2       324       325       590      1772      2559      2560
 -1      1015    8    0    1
 -2       473       324       590      2219      2560      2561
 -1      1016    8    0    1
 -2       325       475       590      2225      2562      2559
 -1      1017    8    0    1
 -2       447       448       591      2213      2563      2564
 -1      1018    8    0    1
 -2       450       451       592      2214      2565      2566
 -1      1019    8    0    1
 -2       448       449       593      2141      2567      2568
 -1      1020    8    0    1
 -2       453       454       594      2215      2569      2570
 -1      1021    8    0    1
 -2       451       452       595      2148      2571      2572
 -1      1022    8    0    1
 -2       457       458       596      2216      2573      2574
 -1      1023    8    0    1
 -2       452       453       597      2210      2575      2576
 -1      1024    8    0    1
 -2       455       456       598      2157      2577      2578
 -1      1025    8    0    1
 -2       458       459       599      2205      2579      2580
 -1      1026    8    0    1
 -2       459       460       600      2204      2581      2582
 -1      1027    8    0    1
 -2       459       600       599      2582      2583      2579
 -1      1028    8    0    1
 -2       460       461       601      2203      2584      2585
 -1      1029    8    0    1
 -2       461       462       602      2202      2586      2587
 -1      1030    8    0    1
 -2       462       463       603      2201      2588      2589
 -1      1031    8    0    1
 -2       463       464       604      2200      2590      2591
 -1      1032    8    0    1
 -2       464       465       605      2199      2592      2593
 -1      1033    8    0    1
 -2       464       605       604      2593      2594      2590
 -1      1034    8    0    1
 -2       466       467       606      2180      2595      2596
 -1      1035    8    0    1
 -2       466       606       586      2596      2597      2551
 -1      1036    8    0    1
 -2       469       446       607      2188      2598      2599
 -1      1037    8    0    1
 -2       483       469       607      2246      2599      2600
 -1      1038    8    0    1
 -2       446       589       607      2558      2601      2598
 -1      1039    8    0    1
 -2       333       334       608      1801      2602      2603
 -1      1040    8    0    1
 -2       332       333       608      1796      2603      2604
 -1      1041    8    0    1
 -2       334       472       608      2218      2605      2602
 -1      1042    8    0    1
 -2       443       444       609      2185      2606      2607
 -1      1043    8    0    1
 -2       443       609       581      2607      2608      2537
 -1      1044    8    0    1
 -2       322       474       610      2222      2609      2610
 -1      1045    8    0    1
 -2       322       610       445      2610      2611      2132
 -1      1046    8    0    1
 -2       481       382       582      2241      2540      2612
 -1      1047    8    0    1
 -2       331       332       608      1793      2604      2613
 -1      1048    8    0    1
 -2       609       444       483      2606      2247      2614
 -1      1049    8    0    1
 -2       605       465       611      2592      2615      2616
 -1      1050    8    0    1
 -2       465       586       611      2552      2617      2615
 -1      1051    8    0    1
 -2       603       463       604      2588      2591      2618
 -1      1052    8    0    1
 -2       602       462       603      2586      2589      2619
 -1      1053    8    0    1
 -2       468       583       612      2544      2620      2621
 -1      1054    8    0    1
 -2       468       612       470      2621      2622      2197
 -1      1055    8    0    1
 -2       600       460       613      2581      2623      2624
 -1      1056    8    0    1
 -2       460       601       613      2585      2625      2623
 -1      1057    8    0    1
 -2       425       429       568      2502      2626      2499
 -1      1058    8    0    1
 -2       429       428       568      2088      2627      2626
 -1      1059    8    0    1
 -2       441       580       583      2536      2628      2543
 -1      1060    8    0    1
 -2       580       442       614      2535      2629      2630
 -1      1061    8    0    1
 -2       442       584       614      2546      2631      2629
 -1      1062    8    0    1
 -2       440       581       584      2538      2632      2545
 -1      1063    8    0    1
 -2       598       456       471      2577      2207      2633
 -1      1064    8    0    1
 -2       597       453       594      2575      2570      2634
 -1      1065    8    0    1
 -2       331       608       480      2613      2635      2238
 -1      1066    8    0    1
 -2       587       455       598      2553      2578      2636
 -1      1067    8    0    1
 -2       596       458       599      2573      2580      2637
 -1      1068    8    0    1
 -2       454       587       594      2554      2638      2569
 -1      1069    8    0    1
 -2       595       452       597      2571      2576      2639
 -1      1070    8    0    1
 -2       593       449       588      2567      2556      2640
 -1      1071    8    0    1
 -2       588       450       592      2555      2566      2641
 -1      1072    8    0    1
 -2       585       320       445      2550      2131      2642
 -1      1073    8    0    1
 -2       471       457       596      2208      2574      2643
 -1      1074    8    0    1
 -2       592       451       595      2565      2572      2644
 -1      1075    8    0    1
 -2       448       593       591      2568      2645      2563
 -1      1076    8    0    1
 -2       439       380       615      2542      2646      2647
 -1      1077    8    0    1
 -2       579       439       615      2532      2647      2648
 -1      1078    8    0    1
 -2       380       379       615      1940      2649      2646
 -1      1079    8    0    1
 -2       601       461       602      2584      2587      2650
 -1      1080    8    0    1
 -2       606       467       616      2595      2651      2652
 -1      1081    8    0    1
 -2       467       470       616      2196      2653      2651
 -1      1082    8    0    1
 -2       568       428       571      2627      2509      2654
 -1      1083    8    0    1
 -2       615       379       526      2649      2375      2655
 -1      1084    8    0    1
 -2       447       591       617      2564      2656      2657
 -1      1085    8    0    1
 -2       476       477       618      2231      2658      2659
 -1      1086    8    0    1
 -2       475       476       619      2228      2660      2661
 -1      1087    8    0    1
 -2       476       618       619      2659      2662      2660
 -1      1088    8    0    1
 -2       478       479       620      2237      2663      2664
 -1      1089    8    0    1
 -2       479       480       621      2240      2665      2666
 -1      1090    8    0    1
 -2       479       621       620      2666      2667      2663
 -1      1091    8    0    1
 -2       472       481       622      2243      2668      2669
 -1      1092    8    0    1
 -2       587       598       623      2636      2670      2671
 -1      1093    8    0    1
 -2       586       606       624      2597      2672      2673
 -1      1094    8    0    1
 -2       447       617       589      2657      2674      2557
 -1      1095    8    0    1
 -2       485       484       625      2253      2675      2676
 -1      1096    8    0    1
 -2       486       485       626      2256      2677      2678
 -1      1097    8    0    1
 -2       485       625       626      2676      2679      2677
 -1      1098    8    0    1
 -2       487       486       627      2259      2680      2681
 -1      1099    8    0    1
 -2       486       626       627      2678      2682      2680
 -1      1100    8    0    1
 -2       488       487       628      2262      2683      2684
 -1      1101    8    0    1
 -2       487       627       628      2681      2685      2683
 -1      1102    8    0    1
 -2       489       488       629      2265      2686      2687
 -1      1103    8    0    1
 -2       488       628       629      2684      2688      2686
 -1      1104    8    0    1
 -2       490       489       630      2268      2689      2690
 -1      1105    8    0    1
 -2       489       629       630      2687      2691      2689
 -1      1106    8    0    1
 -2       491       490       631      2271      2692      2693
 -1      1107    8    0    1
 -2       490       630       631      2690      2694      2692
 -1      1108    8    0    1
 -2       492       491       632      2274      2695      2696
 -1      1109    8    0    1
 -2       491       631       632      2693      2697      2695
 -1      1110    8    0    1
 -2       493       492       633      2277      2698      2699
 -1      1111    8    0    1
 -2       492       632       633      2696      2700      2698
 -1      1112    8    0    1
 -2       494       493       634      2280      2701      2702
 -1      1113    8    0    1
 -2       493       633       634      2699      2703      2701
 -1      1114    8    0    1
 -2       495       494       635      2283      2704      2705
 -1      1115    8    0    1
 -2       494       634       635      2702      2706      2704
 -1      1116    8    0    1
 -2       496       495       636      2286      2707      2708
 -1      1117    8    0    1
 -2       495       635       636      2705      2709      2707
 -1      1118    8    0    1
 -2       497       496       637      2289      2710      2711
 -1      1119    8    0    1
 -2       496       636       637      2708      2712      2710
 -1      1120    8    0    1
 -2       498       497       638      2292      2713      2714
 -1      1121    8    0    1
 -2       497       637       638      2711      2715      2713
 -1      1122    8    0    1
 -2       499       498       639      2295      2716      2717
 -1      1123    8    0    1
 -2       498       638       639      2714      2718      2716
 -1      1124    8    0    1
 -2       500       499       640      2298      2719      2720
 -1      1125    8    0    1
 -2       499       639       640      2717      2721      2719
 -1      1126    8    0    1
 -2       501       500       641      2301      2722      2723
 -1      1127    8    0    1
 -2       500       640       641      2720      2724      2722
 -1      1128    8    0    1
 -2       502       501       642      2304      2725      2726
 -1      1129    8    0    1
 -2       501       641       642      2723      2727      2725
 -1      1130    8    0    1
 -2       503       502       643      2307      2728      2729
 -1      1131    8    0    1
 -2       502       642       643      2726      2730      2728
 -1      1132    8    0    1
 -2       504       503       644      2310      2731      2732
 -1      1133    8    0    1
 -2       503       643       644      2729      2733      2731
 -1      1134    8    0    1
 -2       505       504       645      2313      2734      2735
 -1      1135    8    0    1
 -2       504       644       645      2732      2736      2734
 -1      1136    8    0    1
 -2       506       505       646      2316      2737      2738
 -1      1137    8    0    1
 -2       505       645       646      2735      2739      2737
 -1      1138    8    0    1
 -2       507       506       647      2319      2740      2741
 -1      1139    8    0    1
 -2       506       646       647      2738      2742      2740
 -1      1140    8    0    1
 -2       508       507       648      2322      2743      2744
 -1      1141    8    0    1
 -2       507       647       648      2741      2745      2743
 -1      1142    8    0    1
 -2       509       508       649      2325      2746      2747
 -1      1143    8    0    1
 -2       508       648       649      2744      2748      2746
 -1      1144    8    0    1
 -2       510       509       650      2328      2749      2750
 -1      1145    8    0    1
 -2       509       649       650      2747      2751      2749
 -1      1146    8    0    1
 -2       511       510       651      2331      2752      2753
 -1      1147    8    0    1
 -2       510       650       651      2750      2754      2752
 -1      1148    8    0    1
 -2       512       511       652      2334      2755      2756
 -1      1149    8    0    1
 -2       511       651       652      2753      2757      2755
 -1      1150    8    0    1
 -2       513       512       653      2337      2758      2759
 -1      1151    8    0    1
 -2       512       652       653      2756      2760      2758
 -1      1152    8    0    1
 -2       514       513       654      2340      2761      2762
 -1      1153    8    0    1
 -2       513       653       654      2759      2763      2761
 -1      1154    8    0    1
 -2       515       514       655      2343      2764      2765
 -1      1155    8    0    1
 -2       514       654       655      2762      2766      2764
 -1      1156    8    0    1
 -2       516       515       656      2346      2767      2768
 -1      1157    8    0    1
 -2       515       655       656      2765      2769      2767
 -1      1158    8    0    1
 -2       517       516       657      2349      2770      2771
 -1      1159    8    0    1
 -2       516       656       657      2768      2772      2770
 -1      1160    8    0    1
 -2       518       517       658      2352      2773      2774
 -1      1161    8    0    1
 -2       517       657       658      2771      2775      2773
 -1      1162    8    0    1
 -2       519       518       659      2355      2776      2777
 -1      1163    8    0    1
 -2       518       658       659      2774      2778      2776
 -1      1164    8    0    1
 -2       520       519       660      2358      2779      2780
 -1      1165    8    0    1
 -2       519       659       660      2777      2781      2779
 -1      1166    8    0    1
 -2       521       520       661      2361      2782      2783
 -1      1167    8    0    1
 -2       520       660       661      2780      2784      2782
 -1      1168    8    0    1
 -2       522       521       662      2364      2785      2786
 -1      1169    8    0    1
 -2       521       661       662      2783      2787      2785
 -1      1170    8    0    1
 -2       523       522       663      2367      2788      2789
 -1      1171    8    0    1
 -2       522       662       663      2786      2790      2788
 -1      1172    8    0    1
 -2       524       523       664      2370      2791      2792
 -1      1173    8    0    1
 -2       523       663       664      2789      2793      2791
 -1      1174    8    0    1
 -2       525       524       665      2373      2794      2795
 -1      1175    8    0    1
 -2       524       664       665      2792      2796      2794
 -1      1176    8    0    1
 -2       526       525       666      2376      2797      2798
 -1      1177    8    0    1
 -2       525       665       666      2795      2799      2797
 -1      1178    8    0    1
 -2       528       529       667      2384      2800      2801
 -1      1179    8    0    1
 -2       601       602       668      2650      2802      2803
 -1      1180    8    0    1
 -2       527       528       669      2381      2804      2805
 -1      1181    8    0    1
 -2       528       667       669      2801      2806      2804
 -1      1182    8    0    1
 -2       530       531       670      2390      2807      2808
 -1      1183    8    0    1
 -2       531       532       671      2393      2809      2810
 -1      1184    8    0    1
 -2       531       671       670      2810      2811      2807
 -1      1185    8    0    1
 -2       532       533       672      2396      2812      2813
 -1      1186    8    0    1
 -2       532       672       671      2813      2814      2809
 -1      1187    8    0    1
 -2       533       534       673      2399      2815      2816
 -1      1188    8    0    1
 -2       533       673       672      2816      2817      2812
 -1      1189    8    0    1
 -2       534       535       674      2402      2818      2819
 -1      1190    8    0    1
 -2       534       674       673      2819      2820      2815
 -1      1191    8    0    1
 -2       535       536       675      2405      2821      2822
 -1      1192    8    0    1
 -2       535       675       674      2822      2823      2818
 -1      1193    8    0    1
 -2       536       537       676      2408      2824      2825
 -1      1194    8    0    1
 -2       536       676       675      2825      2826      2821
 -1      1195    8    0    1
 -2       537       538       677      2411      2827      2828
 -1      1196    8    0    1
 -2       537       677       676      2828      2829      2824
 -1      1197    8    0    1
 -2       538       539       678      2414      2830      2831
 -1      1198    8    0    1
 -2       538       678       677      2831      2832      2827
 -1      1199    8    0    1
 -2       539       540       679      2417      2833      2834
 -1      1200    8    0    1
 -2       539       679       678      2834      2835      2830
 -1      1201    8    0    1
 -2       540       541       680      2420      2836      2837
 -1      1202    8    0    1
 -2       540       680       679      2837      2838      2833
 -1      1203    8    0    1
 -2       541       542       681      2423      2839      2840
 -1      1204    8    0    1
 -2       541       681       680      2840      2841      2836
 -1      1205    8    0    1
 -2       542       543       682      2426      2842      2843
 -1      1206    8    0    1
 -2       542       682       681      2843      2844      2839
 -1      1207    8    0    1
 -2       543       544       683      2429      2845      2846
 -1      1208    8    0    1
 -2       543       683       682      2846      2847      2842
 -1      1209    8    0    1
 -2       544       545       684      2432      2848      2849
 -1      1210    8    0    1
 -2       544       684       683      2849      2850      2845
 -1      1211    8    0    1
 -2       545       546       685      2435      2851      2852
 -1      1212    8    0    1
 -2       545       685       684      2852      2853      2848
 -1      1213    8    0    1
 -2       546       547       686      2438      2854      2855
 -1      1214    8    0    1
 -2       546       686       685      2855      2856      2851
 -1      1215    8    0    1
 -2       547       548       687      2441      2857      2858
 -1      1216    8    0    1
 -2       547       687       686      2858      2859      2854
 -1      1217    8    0    1
 -2       548       549       688      2444      2860      2861
 -1      1218    8    0    1
 -2       548       688       687      2861      2862      2857
 -1      1219    8    0    1
 -2       549       550       689      2447      2863      2864
 -1      1220    8    0    1
 -2       549       689       688      2864      2865      2860
 -1      1221    8    0    1
 -2       550       551       690      2450      2866      2867
 -1      1222    8    0    1
 -2       550       690       689      2867      2868      2863
 -1      1223    8    0    1
 -2       551       552       691      2453      2869      2870
 -1      1224    8    0    1
 -2       551       691       690      2870      2871      2866
 -1      1225    8    0    1
 -2       552       553       692      2456      2872      2873
 -1      1226    8    0    1
 -2       552       692       691      2873      2874      2869
 -1      1227    8    0    1
 -2       553       554       693      2459      2875      2876
 -1      1228    8    0    1
 -2       553       693       692      2876      2877      2872
 -1      1229    8    0    1
 -2       554       555       694      2462      2878      2879
 -1      1230    8    0    1
 -2       554       694       693      2879      2880      2875
 -1      1231    8    0    1
 -2       555       556       695      2465      2881      2882
 -1      1232    8    0    1
 -2       555       695       694      2882      2883      2878
 -1      1233    8    0    1
 -2       556       557       696      2468      2884      2885
 -1      1234    8    0    1
 -2       556       696       695      2885      2886      2881
 -1      1235    8    0    1
 -2       557       558       697      2471      2887      2888
 -1      1236    8    0    1
 -2       557       697       696      2888      2889      2884
 -1      1237    8    0    1
 -2       559       560       591      2477      2890      2891
 -1      1238    8    0    1
 -2       560       561       589      2480      2892      2893
 -1      1239    8    0    1
 -2       562       563       698      2486      2894      2895
 -1      1240    8    0    1
 -2       563       564       699      2489      2896      2897
 -1      1241    8    0    1
 -2       563       699       698      2897      2898      2894
 -1      1242    8    0    1
 -2       564       565       700      2492      2899      2900
 -1      1243    8    0    1
 -2       564       700       699      2900      2901      2896
 -1      1244    8    0    1
 -2       565       566       701      2495      2902      2903
 -1      1245    8    0    1
 -2       565       701       700      2903      2904      2899
 -1      1246    8    0    1
 -2       566       567       702      2498      2905      2906
 -1      1247    8    0    1
 -2       566       702       701      2906      2907      2902
 -1      1248    8    0    1
 -2       567       568       703      2501      2908      2909
 -1      1249    8    0    1
 -2       702       567       703      2905      2909      2910
 -1      1250    8    0    1
 -2       568       571       703      2654      2911      2908
 -1      1251    8    0    1
 -2       573       574       704      2519      2912      2913
 -1      1252    8    0    1
 -2       615       526       705      2655      2914      2915
 -1      1253    8    0    1
 -2       526       666       705      2798      2916      2914
 -1      1254    8    0    1
 -2       569       570       706      2507      2917      2918
 -1      1255    8    0    1
 -2       574       575       707      2522      2919      2920
 -1      1256    8    0    1
 -2       574       707       704      2920      2921      2912
 -1      1257    8    0    1
 -2       570       573       708      2516      2922      2923
 -1      1258    8    0    1
 -2       706       570       708      2917      2923      2924
 -1      1259    8    0    1
 -2       573       704       708      2913      2925      2922
 -1      1260    8    0    1
 -2       583       580       709      2628      2926      2927
 -1      1261    8    0    1
 -2       575       576       710      2525      2928      2929
 -1      1262    8    0    1
 -2       575       710       707      2929      2930      2919
 -1      1263    8    0    1
 -2       576       577       711      2528      2931      2932
 -1      1264    8    0    1
 -2       576       711       710      2932      2933      2928
 -1      1265    8    0    1
 -2       577       578       712      2531      2934      2935
 -1      1266    8    0    1
 -2       577       712       711      2935      2936      2931
 -1      1267    8    0    1
 -2       598       471       713      2633      2937      2938
 -1      1268    8    0    1
 -2       584       581       714      2632      2939      2940
 -1      1269    8    0    1
 -2       482       585       715      2549      2941      2942
 -1      1270    8    0    1
 -2       589       561       716      2892      2943      2944
 -1      1271    8    0    1
 -2       607       589       716      2601      2944      2945
 -1      1272    8    0    1
 -2       561       562       716      2483      2946      2943
 -1      1273    8    0    1
 -2       595       597       717      2639      2947      2948
 -1      1274    8    0    1
 -2       582       527       718      2541      2949      2950
 -1      1275    8    0    1
 -2       527       669       718      2805      2951      2949
 -1      1276    8    0    1
 -2       588       592       719      2641      2952      2953
 -1      1277    8    0    1
 -2       529       530       720      2387      2954      2955
 -1      1278    8    0    1
 -2       667       529       720      2800      2955      2956
 -1      1279    8    0    1
 -2       530       670       720      2808      2957      2954
 -1      1280    8    0    1
 -2       609       483       721      2614      2958      2959
 -1      1281    8    0    1
 -2       484       482       722      2250      2960      2961
 -1      1282    8    0    1
 -2       625       484       722      2675      2961      2962
 -1      1283    8    0    1
 -2       482       715       722      2942      2963      2960
 -1      1284    8    0    1
 -2       481       582       723      2612      2964      2965
 -1      1285    8    0    1
 -2       622       481       723      2668      2965      2966
 -1      1286    8    0    1
 -2       582       718       723      2950      2967      2964
 -1      1287    8    0    1
 -2       603       604       724      2618      2968      2969
 -1      1288    8    0    1
 -2       471       596       725      2643      2970      2971
 -1      1289    8    0    1
 -2       471       725       713      2971      2972      2937
 -1      1290    8    0    1
 -2       608       472       480      2605      2973      2635
 -1      1291    8    0    1
 -2       477       478       726      2234      2974      2975
 -1      1292    8    0    1
 -2       618       477       726      2658      2975      2976
 -1      1293    8    0    1
 -2       478       620       726      2664      2977      2974
 -1      1294    8    0    1
 -2       585       445       715      2642      2978      2941
 -1      1295    8    0    1
 -2       474       473       727      2223      2979      2980
 -1      1296    8    0    1
 -2       592       595       728      2644      2981      2982
 -1      1297    8    0    1
 -2       579       615       705      2648      2915      2983
 -1      1298    8    0    1
 -2       593       588       729      2640      2984      2985
 -1      1299    8    0    1
 -2       596       599       730      2637      2986      2987
 -1      1300    8    0    1
 -2       594       587       731      2638      2988      2989
 -1      1301    8    0    1
 -2       581       609       732      2608      2990      2991
 -1      1302    8    0    1
 -2       714       581       732      2939      2991      2992
 -1      1303    8    0    1
 -2       609       721       732      2959      2993      2990
 -1      1304    8    0    1
 -2       597       594       733      2634      2994      2995
 -1      1305    8    0    1
 -2       599       600       734      2583      2996      2997
 -1      1306    8    0    1
 -2       602       603       735      2619      2998      2999
 -1      1307    8    0    1
 -2       602       735       668      2999      3000      2802
 -1      1308    8    0    1
 -2       604       605       736      2594      3001      3002
 -1      1309    8    0    1
 -2       604       736       724      3002      3003      2968
 -1      1310    8    0    1
 -2       715       445       610      2978      2611      3004
 -1      1311    8    0    1
 -2       475       619       737      2661      3005      3006
 -1      1312    8    0    1
 -2       475       737       590      3006      3007      2562
 -1      1313    8    0    1
 -2       587       623       738      2671      3008      3009
 -1      1314    8    0    1
 -2       587       738       731      3009      3010      2988
 -1      1315    8    0    1
 -2       586       624       611      2673      3011      2617
 -1      1316    8    0    1
 -2       483       607       739      2600      3012      3013
 -1      1317    8    0    1
 -2       721       483       739      2958      3013      3014
 -1      1318    8    0    1
 -2       607       716       739      2945      3015      3012
 -1      1319    8    0    1
 -2       605       611       740      2616      3016      3017
 -1      1320    8    0    1
 -2       605       740       736      3017      3018      3001
 -1      1321    8    0    1
 -2       612       583       741      2620      3019      3020
 -1      1322    8    0    1
 -2       583       709       741      2927      3021      3019
 -1      1323    8    0    1
 -2       613       601       742      2625      3022      3023
 -1      1324    8    0    1
 -2       601       668       742      2803      3024      3022
 -1      1325    8    0    1
 -2       569       706       743      2918      3025      3026
 -1      1326    8    0    1
 -2       569       743       572      3026      3027      2513
 -1      1327    8    0    1
 -2       588       719       729      2953      3028      2984
 -1      1328    8    0    1
 -2       559       591       729      2891      3029      3030
 -1      1329    8    0    1
 -2       558       559       729      2474      3030      3031
 -1      1330    8    0    1
 -2       562       698       716      2895      3032      2946
 -1      1331    8    0    1
 -2       595       717       744      2948      3033      3034
 -1      1332    8    0    1
 -2       595       744       728      3034      3035      2981
 -1      1333    8    0    1
 -2       709       580       745      2926      3036      3037
 -1      1334    8    0    1
 -2       580       614       745      2630      3038      3036
 -1      1335    8    0    1
 -2       571       572       746      2512      3039      3040
 -1      1336    8    0    1
 -2       703       571       746      2911      3040      3041
 -1      1337    8    0    1
 -2       572       743       746      3027      3042      3039
 -1      1338    8    0    1
 -2       598       713       747      2938      3043      3044
 -1      1339    8    0    1
 -2       598       747       623      3044      3045      2670
 -1      1340    8    0    1
 -2       480       472       622      2973      2669      3046
 -1      1341    8    0    1
 -2       578       579       705      2534      2983      3047
 -1      1342    8    0    1
 -2       614       584       748      2631      3048      3049
 -1      1343    8    0    1
 -2       584       714       748      2940      3050      3048
 -1      1344    8    0    1
 -2       621       480       622      2665      3046      3051
 -1      1345    8    0    1
 -2       474       727       749      2980      3052      3053
 -1      1346    8    0    1
 -2       474       749       610      3053      3054      2609
 -1      1347    8    0    1
 -2       733       594       731      2994      2989      3055
 -1      1348    8    0    1
 -2       600       613       734      2624      3056      2996
 -1      1349    8    0    1
 -2       597       733       717      2995      3057      2947
 -1      1350    8    0    1
 -2       719       592       728      2952      2982      3058
 -1      1351    8    0    1
 -2       473       590       750      2561      3059      3060
 -1      1352    8    0    1
 -2       727       473       750      2979      3060      3061
 -1      1353    8    0    1
 -2       590       737       750      3007      3062      3059
 -1      1354    8    0    1
 -2       725       596       730      2970      2987      3063
 -1      1355    8    0    1
 -2       624       606       751      2672      3064      3065
 -1      1356    8    0    1
 -2       606       616       751      2652      3066      3064
 -1      1357    8    0    1
 -2       730       599       734      2986      2997      3067
 -1      1358    8    0    1
 -2       616       470       752      2653      3068      3069
 -1      1359    8    0    1
 -2       470       612       752      2622      3070      3068
 -1      1360    8    0    1
 -2       578       705       753      3047      3071      3072
 -1      1361    8    0    1
 -2       712       578       753      2934      3072      3073
 -1      1362    8    0    1
 -2       705       666       753      2916      3074      3071
 -1      1363    8    0    1
 -2       620       621       754      2667      3075      3076
 -1      1364    8    0    1
 -2       715       610       749      3004      3054      3077
 -1      1365    8    0    1
 -2       627       626       755      2682      3078      3079
 -1      1366    8    0    1
 -2       628       627       756      2685      3080      3081
 -1      1367    8    0    1
 -2       627       755       756      3079      3082      3080
 -1      1368    8    0    1
 -2       629       628       757      2688      3083      3084
 -1      1369    8    0    1
 -2       628       756       757      3081      3085      3083
 -1      1370    8    0    1
 -2       630       629       758      2691      3086      3087
 -1      1371    8    0    1
 -2       629       757       758      3084      3088      3086
 -1      1372    8    0    1
 -2       631       630       759      2694      3089      3090
 -1      1373    8    0    1
 -2       630       758       759      3087      3091      3089
 -1      1374    8    0    1
 -2       632       631       760      2697      3092      3093
 -1      1375    8    0    1
 -2       631       759       760      3090      3094      3092
 -1      1376    8    0    1
 -2       633       632       761      2700      3095      3096
 -1      1377    8    0    1
 -2       632       760       761      3093      3097      3095
 -1      1378    8    0    1
 -2       634       633       762      2703      3098      3099
 -1      1379    8    0    1
 -2       633       761       762      3096      3100      3098
 -1      1380    8    0    1
 -2       635       634       763      2706      3101      3102
 -1      1381    8    0    1
 -2       634       762       763      3099      3103      3101
 -1      1382    8    0    1
 -2       636       635       764      2709      3104      3105
 -1      1383    8    0    1
 -2       635       763       764      3102      3106      3104
 -1      1384    8    0    1
 -2       637       636       765      2712      3107      3108
 -1      1385    8    0    1
 -2       636       764       765      3105      3109      3107
 -1      1386    8    0    1
 -2       638       637       766      2715      3110      3111
 -1      1387    8    0    1
 -2       637       765       766      3108      3112      3110
 -1      1388    8    0    1
 -2       639       638       767      2718      3113      3114
 -1      1389    8    0    1
 -2       638       766       767      3111      3115      3113
 -1      1390    8    0    1
 -2       640       639       768      2721      3116      3117
 -1      1391    8    0    1
 -2       639       767       768      3114      3118      3116
 -1      1392    8    0    1
 -2       641       640       769      2724      3119      3120
 -1      1393    8    0    1
 -2       640       768       769      3117      3121      3119
 -1      1394    8    0    1
 -2       642       641       770      2727      3122      3123
 -1      1395    8    0    1
 -2       641       769       770      3120      3124      3122
 -1      1396    8    0    1
 -2       643       642       771      2730      3125      3126
 -1      1397    8    0    1
 -2       642       770       771      3123      3127      3125
 -1      1398    8    0    1
 -2       644       643       772      2733      3128      3129
 -1      1399    8    0    1
 -2       643       771       772      3126      3130      3128
 -1      1400    8    0    1
 -2       645       644       773      2736      3131      3132
 -1      1401    8    0    1
 -2       644       772       773      3129      3133      3131
 -1      1402    8    0    1
 -2       646       645       774      2739      3134      3135
 -1      1403    8    0    1
 -2       645       773       774      3132      3136      3134
 -1      1404    8    0    1
 -2       647       646       775      2742      3137      3138
 -1      1405    8    0    1
 -2       646       774       775      3135      3139      3137
 -1      1406    8    0    1
 -2       648       647       776      2745      3140      3141
 -1      1407    8    0    1
 -2       647       775       776      3138      3142      3140
 -1      1408    8    0    1
 -2       649       648       777      2748      3143      3144
 -1      1409    8    0    1
 -2       648       776       777      3141      3145      3143
 -1      1410    8    0    1
 -2       650       649       778      2751      3146      3147
 -1      1411    8    0    1
 -2       649       777       778      3144      3148      3146
 -1      1412    8    0    1
 -2       651       650       779      2754      3149      3150
 -1      1413    8    0    1
 -2       650       778       779      3147      3151      3149
 -1      1414    8    0    1
 -2       652       651       780      2757      3152      3153
 -1      1415    8    0    1
 -2       651       779       780      3150      3154      3152
 -1      1416    8    0    1
 -2       653       652       781      2760      3155      3156
 -1      1417    8    0    1
 -2       652       780       781      3153      3157      3155
 -1      1418    8    0    1
 -2       654       653       782      2763      3158      3159
 -1      1419    8    0    1
 -2       653       781       782      3156      3160      3158
 -1      1420    8    0    1
 -2       655       654       783      2766      3161      3162
 -1      1421    8    0    1
 -2       654       782       783      3159      3163      3161
 -1      1422    8    0    1
 -2       656       655       784      2769      3164      3165
 -1      1423    8    0    1
 -2       655       783       784      3162      3166      3164
 -1      1424    8    0    1
 -2       657       656       785      2772      3167      3168
 -1      1425    8    0    1
 -2       656       784       785      3165      3169      3167
 -1      1426    8    0    1
 -2       658       657       742      2775      3170      3171
 -1      1427    8    0    1
 -2       660       659       786      2781      3172      3173
 -1      1428    8    0    1
 -2       661       660       724      2784      3174      3175
 -1      1429    8    0    1
 -2       662       661       740      2787      3176      3177
 -1      1430    8    0    1
 -2       664       663       787      2793      3178      3179
 -1      1431    8    0    1
 -2       665       664       788      2796      3180      3181
 -1      1432    8    0    1
 -2       664       787       788      3179      3182      3180
 -1      1433    8    0    1
 -2       666       665       789      2799      3183      3184
 -1      1434    8    0    1
 -2       753       666       789      3074      3184      3185
 -1      1435    8    0    1
 -2       665       788       789      3181      3186      3183
 -1      1436    8    0    1
 -2       671       672       790      2814      3187      3188
 -1      1437    8    0    1
 -2       670       671       791      2811      3189      3190
 -1      1438    8    0    1
 -2       671       790       791      3188      3191      3189
 -1      1439    8    0    1
 -2       673       674       792      2820      3192      3193
 -1      1440    8    0    1
 -2       674       675       793      2823      3194      3195
 -1      1441    8    0    1
 -2       674       793       792      3195      3196      3192
 -1      1442    8    0    1
 -2       675       676       794      2826      3197      3198
 -1      1443    8    0    1
 -2       675       794       793      3198      3199      3194
 -1      1444    8    0    1
 -2       676       677       795      2829      3200      3201
 -1      1445    8    0    1
 -2       676       795       794      3201      3202      3197
 -1      1446    8    0    1
 -2       677       678       796      2832      3203      3204
 -1      1447    8    0    1
 -2       677       796       795      3204      3205      3200
 -1      1448    8    0    1
 -2       678       679       797      2835      3206      3207
 -1      1449    8    0    1
 -2       678       797       796      3207      3208      3203
 -1      1450    8    0    1
 -2       679       680       798      2838      3209      3210
 -1      1451    8    0    1
 -2       679       798       797      3210      3211      3206
 -1      1452    8    0    1
 -2       680       681       799      2841      3212      3213
 -1      1453    8    0    1
 -2       680       799       798      3213      3214      3209
 -1      1454    8    0    1
 -2       681       682       800      2844      3215      3216
 -1      1455    8    0    1
 -2       681       800       799      3216      3217      3212
 -1      1456    8    0    1
 -2       682       683       801      2847      3218      3219
 -1      1457    8    0    1
 -2       682       801       800      3219      3220      3215
 -1      1458    8    0    1
 -2       683       684       802      2850      3221      3222
 -1      1459    8    0    1
 -2       683       802       801      3222      3223      3218
 -1      1460    8    0    1
 -2       684       685       803      2853      3224      3225
 -1      1461    8    0    1
 -2       684       803       802      3225      3226      3221
 -1      1462    8    0    1
 -2       685       686       804      2856      3227      3228
 -1      1463    8    0    1
 -2       685       804       803      3228      3229      3224
 -1      1464    8    0    1
 -2       686       687       805      2859      3230      3231
 -1      1465    8    0    1
 -2       686       805       804      3231      3232      3227
 -1      1466    8    0    1
 -2       687       688       806      2862      3233      3234
 -1      1467    8    0    1
 -2       687       806       805      3234      3235      3230
 -1      1468    8    0    1
 -2       688       689       807      2865      3236      3237
 -1      1469    8    0    1
 -2       688       807       806      3237      3238      3233
 -1      1470    8    0    1
 -2       689       690       808      2868      3239      3240
 -1      1471    8    0    1
 -2       689       808       807      3240      3241      3236
 -1      1472    8    0    1
 -2       690       691       809      2871      3242      3243
 -1      1473    8    0    1
 -2       690       809       808      3243      3244      3239
 -1      1474    8    0    1
 -2       691       692       810      2874      3245      3246
 -1      1475    8    0    1
 -2       691       810       809      3246      3247      3242
 -1      1476    8    0    1
 -2       692       693       811      2877      3248      3249
 -1      1477    8    0    1
 -2       692       811       810      3249      3250      3245
 -1      1478    8    0    1
 -2       693       694       812      2880      3251      3252
 -1      1479    8    0    1
 -2       693       812       811      3252      3253      3248
 -1      1480    8    0    1
 -2       694       695       813      2883      3254      3255
 -1      1481    8    0    1
 -2       694       813       812      3255      3256      3251
 -1      1482    8    0    1
 -2       695       696       744      2886      3257      3258
 -1      1483    8    0    1
 -2       558       729       697      3031      3259      2887
 -1      1484    8    0    1
 -2       591       560       617      2890      3260      2656
 -1      1485    8    0    1
 -2       701       702       814      2907      3261      3262
 -1      1486    8    0    1
 -2       702       703       815      2910      3263      3264
 -1      1487    8    0    1
 -2       814       702       815      3261      3264      3265
 -1      1488    8    0    1
 -2       703       746       815      3041      3266      3263
 -1      1489    8    0    1
 -2       704       707       816      2921      3267      3268
 -1      1490    8    0    1
 -2       711       712       817      2936      3269      3270
 -1      1491    8    0    1
 -2       725       730       818      3063      3271      3272
 -1      1492    8    0    1
 -2       707       710       819      2930      3273      3274
 -1      1493    8    0    1
 -2       707       819       816      3274      3275      3267
 -1      1494    8    0    1
 -2       735       603       820      2998      3276      3277
 -1      1495    8    0    1
 -2       621       622       821      3051      3278      3279
 -1      1496    8    0    1
 -2       754       621       821      3075      3279      3280
 -1      1497    8    0    1
 -2       622       723       821      2966      3281      3278
 -1      1498    8    0    1
 -2       710       711       822      2933      3282      3283
 -1      1499    8    0    1
 -2       819       710       822      3273      3283      3284
 -1      1500    8    0    1
 -2       711       817       822      3270      3285      3282
 -1      1501    8    0    1
 -2       700       701       823      2904      3286      3287
 -1      1502    8    0    1
 -2       701       814       823      3262      3288      3286
 -1      1503    8    0    1
 -2       699       700       824      2901      3289      3290
 -1      1504    8    0    1
 -2       700       823       824      3287      3291      3289
 -1      1505    8    0    1
 -2       718       669       825      2951      3292      3293
 -1      1506    8    0    1
 -2       603       724       820      2969      3294      3276
 -1      1507    8    0    1
 -2       672       673       826      2817      3295      3296
 -1      1508    8    0    1
 -2       790       672       826      3187      3296      3297
 -1      1509    8    0    1
 -2       673       792       826      3193      3298      3295
 -1      1510    8    0    1
 -2       669       667       827      2806      3299      3300
 -1      1511    8    0    1
 -2       669       827       825      3300      3301      3292
 -1      1512    8    0    1
 -2       626       625       828      2679      3302      3303
 -1      1513    8    0    1
 -2       626       828       755      3303      3304      3078
 -1      1514    8    0    1
 -2       729       719       697      3028      3305      3259
 -1      1515    8    0    1
 -2       713       725       829      2972      3306      3307
 -1      1516    8    0    1
 -2       611       624       830      3011      3308      3309
 -1      1517    8    0    1
 -2       716       698       739      3032      3310      3015
 -1      1518    8    0    1
 -2       734       613       831      3056      3311      3312
 -1      1519    8    0    1
 -2       717       733       832      3057      3313      3314
 -1      1520    8    0    1
 -2       668       735       833      3000      3315      3316
 -1      1521    8    0    1
 -2       668       833       742      3316      3317      3024
 -1      1522    8    0    1
 -2       730       734       834      3067      3318      3319
 -1      1523    8    0    1
 -2       619       618       835      2662      3320      3321
 -1      1524    8    0    1
 -2       733       731       836      3055      3322      3323
 -1      1525    8    0    1
 -2       733       836       832      3323      3324      3313
 -1      1526    8    0    1
 -2       697       719       696      3305      3325      2889
 -1      1527    8    0    1
 -2       735       820       786      3277      3326      3327
 -1      1528    8    0    1
 -2       737       619       837      3005      3328      3329
 -1      1529    8    0    1
 -2       619       835       837      3321      3330      3328
 -1      1530    8    0    1
 -2       738       623       838      3008      3331      3332
 -1      1531    8    0    1
 -2       623       747       838      3045      3333      3331
 -1      1532    8    0    1
 -2       715       749       722      3077      3334      2963
 -1      1533    8    0    1
 -2       734       831       834      3312      3335      3318
 -1      1534    8    0    1
 -2       741       709       839      3021      3336      3337
 -1      1535    8    0    1
 -2       709       745       839      3037      3338      3336
 -1      1536    8    0    1
 -2       723       718       840      2967      3339      3340
 -1      1537    8    0    1
 -2       821       723       840      3281      3340      3341
 -1      1538    8    0    1
 -2       718       825       840      3293      3342      3339
 -1      1539    8    0    1
 -2       730       834       818      3319      3343      3271
 -1      1540    8    0    1
 -2       743       706       841      3025      3344      3345
 -1      1541    8    0    1
 -2       658       742       833      3171      3317      3346
 -1      1542    8    0    1
 -2       659       658       833      2778      3346      3347
 -1      1543    8    0    1
 -2       663       662       842      2790      3348      3349
 -1      1544    8    0    1
 -2       740       611       830      3016      3309      3350
 -1      1545    8    0    1
 -2       729       591       593      3029      2645      2985
 -1      1546    8    0    1
 -2       670       791       843      3190      3351      3352
 -1      1547    8    0    1
 -2       670       843       720      3352      3353      2957
 -1      1548    8    0    1
 -2       713       829       747      3307      3354      3043
 -1      1549    8    0    1
 -2       735       786       833      3327      3355      3315
 -1      1550    8    0    1
 -2       744       717       844      3033      3356      3357
 -1      1551    8    0    1
 -2       717       832       844      3314      3358      3356
 -1      1552    8    0    1
 -2       745       614       845      3038      3359      3360
 -1      1553    8    0    1
 -2       614       748       845      3049      3361      3359
 -1      1554    8    0    1
 -2       698       699       846      2898      3362      3363
 -1      1555    8    0    1
 -2       706       708       847      2924      3364      3365
 -1      1556    8    0    1
 -2       706       847       841      3365      3366      3344
 -1      1557    8    0    1
 -2       620       754       848      3076      3367      3368
 -1      1558    8    0    1
 -2       620       848       726      3368      3369      2977
 -1      1559    8    0    1
 -2       708       704       849      2925      3370      3371
 -1      1560    8    0    1
 -2       847       708       849      3364      3371      3372
 -1      1561    8    0    1
 -2       704       816       849      3268      3373      3370
 -1      1562    8    0    1
 -2       725       818       829      3272      3374      3306
 -1      1563    8    0    1
 -2       836       731       738      3322      3010      3375
 -1      1564    8    0    1
 -2       748       714       850      3050      3376      3377
 -1      1565    8    0    1
 -2       749       727       851      3052      3378      3379
 -1      1566    8    0    1
 -2       835       618       852      3320      3380      3381
 -1      1567    8    0    1
 -2       618       726       852      2976      3382      3380
 -1      1568    8    0    1
 -2       696       719       728      3325      3058      3383
 -1      1569    8    0    1
 -2       787       663       842      3178      3349      3384
 -1      1570    8    0    1
 -2       828       625       853      3302      3385      3386
 -1      1571    8    0    1
 -2       625       722       853      2962      3387      3385
 -1      1572    8    0    1
 -2       724       736       854      3003      3388      3389
 -1      1573    8    0    1
 -2       830       624       855      3308      3390      3391
 -1      1574    8    0    1
 -2       624       751       855      3065      3392      3390
 -1      1575    8    0    1
 -2       667       720       856      2956      3393      3394
 -1      1576    8    0    1
 -2       827       667       856      3299      3394      3395
 -1      1577    8    0    1
 -2       720       843       856      3353      3396      3393
 -1      1578    8    0    1
 -2       732       721       824      2993      3397      3398
 -1      1579    8    0    1
 -2       751       616       752      3066      3069      3399
 -1      1580    8    0    1
 -2       786       659       833      3172      3347      3355
 -1      1581    8    0    1
 -2       752       612       857      3070      3400      3401
 -1      1582    8    0    1
 -2       612       741       857      3020      3402      3400
 -1      1583    8    0    1
 -2       851       727       858      3378      3403      3404
 -1      1584    8    0    1
 -2       727       750       858      3061      3405      3403
 -1      1585    8    0    1
 -2       850       714       732      3376      2992      3406
 -1      1586    8    0    1
 -2       831       613       742      3311      3023      3407
 -1      1587    8    0    1
 -2       712       753       859      3073      3408      3409
 -1      1588    8    0    1
 -2       817       712       859      3269      3409      3410
 -1      1589    8    0    1
 -2       753       789       859      3185      3411      3408
 -1      1590    8    0    1
 -2       756       755       860      3082      3412      3413
 -1      1591    8    0    1
 -2       786       820       660      3326      3414      3173
 -1      1592    8    0    1
 -2       721       739       698      3014      3310      3415
 -1      1593    8    0    1
 -2       757       756       861      3085      3416      3417
 -1      1594    8    0    1
 -2       756       860       861      3413      3418      3416
 -1      1595    8    0    1
 -2       758       757       862      3088      3419      3420
 -1      1596    8    0    1
 -2       757       861       862      3417      3421      3419
 -1      1597    8    0    1
 -2       759       758       863      3091      3422      3423
 -1      1598    8    0    1
 -2       758       862       863      3420      3424      3422
 -1      1599    8    0    1
 -2       760       759       864      3094      3425      3426
 -1      1600    8    0    1
 -2       759       863       864      3423      3427      3425
 -1      1601    8    0    1
 -2       761       760       865      3097      3428      3429
 -1      1602    8    0    1
 -2       760       864       865      3426      3430      3428
 -1      1603    8    0    1
 -2       762       761       866      3100      3431      3432
 -1      1604    8    0    1
 -2       761       865       866      3429      3433      3431
 -1      1605    8    0    1
 -2       763       762       867      3103      3434      3435
 -1      1606    8    0    1
 -2       762       866       867      3432      3436      3434
 -1      1607    8    0    1
 -2       764       763       868      3106      3437      3438
 -1      1608    8    0    1
 -2       763       867       868      3435      3439      3437
 -1      1609    8    0    1
 -2       765       764       869      3109      3440      3441
 -1      1610    8    0    1
 -2       764       868       869      3438      3442      3440
 -1      1611    8    0    1
 -2       766       765       870      3112      3443      3444
 -1      1612    8    0    1
 -2       765       869       870      3441      3445      3443
 -1      1613    8    0    1
 -2       767       766       871      3115      3446      3447
 -1      1614    8    0    1
 -2       766       870       871      3444      3448      3446
 -1      1615    8    0    1
 -2       768       767       872      3118      3449      3450
 -1      1616    8    0    1
 -2       767       871       872      3447      3451      3449
 -1      1617    8    0    1
 -2       769       768       873      3121      3452      3453
 -1      1618    8    0    1
 -2       768       872       873      3450      3454      3452
 -1      1619    8    0    1
 -2       770       769       874      3124      3455      3456
 -1      1620    8    0    1
 -2       769       873       874      3453      3457      3455
 -1      1621    8    0    1
 -2       771       770       875      3127      3458      3459
 -1      1622    8    0    1
 -2       770       874       875      3456      3460      3458
 -1      1623    8    0    1
 -2       772       771       876      3130      3461      3462
 -1      1624    8    0    1
 -2       771       875       876      3459      3463      3461
 -1      1625    8    0    1
 -2       773       772       877      3133      3464      3465
 -1      1626    8    0    1
 -2       772       876       877      3462      3466      3464
 -1      1627    8    0    1
 -2       774       773       878      3136      3467      3468
 -1      1628    8    0    1
 -2       773       877       878      3465      3469      3467
 -1      1629    8    0    1
 -2       775       774       879      3139      3470      3471
 -1      1630    8    0    1
 -2       774       878       879      3468      3472      3470
 -1      1631    8    0    1
 -2       776       775       880      3142      3473      3474
 -1      1632    8    0    1
 -2       775       879       880      3471      3475      3473
 -1      1633    8    0    1
 -2       777       776       881      3145      3476      3477
 -1      1634    8    0    1
 -2       776       880       881      3474      3478      3476
 -1      1635    8    0    1
 -2       778       777       882      3148      3479      3480
 -1      1636    8    0    1
 -2       777       881       882      3477      3481      3479
 -1      1637    8    0    1
 -2       779       778       883      3151      3482      3483
 -1      1638    8    0    1
 -2       778       882       883      3480      3484      3482
 -1      1639    8    0    1
 -2       780       779       884      3154      3485      3486
 -1      1640    8    0    1
 -2       779       883       884      3483      3487      3485
 -1      1641    8    0    1
 -2       781       780       885      3157      3488      3489
 -1      1642    8    0    1
 -2       780       884       885      3486      3490      3488
 -1      1643    8    0    1
 -2       782       781       886      3160      3491      3492
 -1      1644    8    0    1
 -2       781       885       886      3489      3493      3491
 -1      1645    8    0    1
 -2       783       782       887      3163      3494      3495
 -1      1646    8    0    1
 -2       782       886       887      3492      3496      3494
 -1      1647    8    0    1
 -2       742       657       831      3170      3497      3407
 -1      1648    8    0    1
 -2       842       662       740      3348      3177      3498
 -1      1649    8    0    1
 -2       831       657       785      3497      3168      3499
 -1      1650    8    0    1
 -2       740       830       842      3350      3500      3498
 -1      1651    8    0    1
 -2       825       827       888      3301      3501      3502
 -1      1652    8    0    1
 -2       791       790       889      3191      3503      3504
 -1      1653    8    0    1
 -2       722       749       853      3334      3505      3387
 -1      1654    8    0    1
 -2       793       794       890      3199      3506      3507
 -1      1655    8    0    1
 -2       792       793       891      3196      3508      3509
 -1      1656    8    0    1
 -2       793       890       891      3507      3510      3508
 -1      1657    8    0    1
 -2       795       796       892      3205      3511      3512
 -1      1658    8    0    1
 -2       796       797       893      3208      3513      3514
 -1      1659    8    0    1
 -2       796       893       892      3514      3515      3511
 -1      1660    8    0    1
 -2       797       798       894      3211      3516      3517
 -1      1661    8    0    1
 -2       797       894       893      3517      3518      3513
 -1      1662    8    0    1
 -2       798       799       895      3214      3519      3520
 -1      1663    8    0    1
 -2       798       895       894      3520      3521      3516
 -1      1664    8    0    1
 -2       799       800       896      3217      3522      3523
 -1      1665    8    0    1
 -2       799       896       895      3523      3524      3519
 -1      1666    8    0    1
 -2       800       801       897      3220      3525      3526
 -1      1667    8    0    1
 -2       800       897       896      3526      3527      3522
 -1      1668    8    0    1
 -2       801       802       898      3223      3528      3529
 -1      1669    8    0    1
 -2       801       898       897      3529      3530      3525
 -1      1670    8    0    1
 -2       802       803       899      3226      3531      3532
 -1      1671    8    0    1
 -2       802       899       898      3532      3533      3528
 -1      1672    8    0    1
 -2       803       804       900      3229      3534      3535
 -1      1673    8    0    1
 -2       803       900       899      3535      3536      3531
 -1      1674    8    0    1
 -2       804       805       901      3232      3537      3538
 -1      1675    8    0    1
 -2       804       901       900      3538      3539      3534
 -1      1676    8    0    1
 -2       805       806       902      3235      3540      3541
 -1      1677    8    0    1
 -2       805       902       901      3541      3542      3537
 -1      1678    8    0    1
 -2       806       807       903      3238      3543      3544
 -1      1679    8    0    1
 -2       806       903       902      3544      3545      3540
 -1      1680    8    0    1
 -2       807       808       904      3241      3546      3547
 -1      1681    8    0    1
 -2       807       904       903      3547      3548      3543
 -1      1682    8    0    1
 -2       808       809       905      3244      3549      3550
 -1      1683    8    0    1
 -2       808       905       904      3550      3551      3546
 -1      1684    8    0    1
 -2       809       810       906      3247      3552      3553
 -1      1685    8    0    1
 -2       809       906       905      3553      3554      3549
 -1      1686    8    0    1
 -2       810       811       907      3250      3555      3556
 -1      1687    8    0    1
 -2       810       907       906      3556      3557      3552
 -1      1688    8    0    1
 -2       811       812       908      3253      3558      3559
 -1      1689    8    0    1
 -2       811       908       907      3559      3560      3555
 -1      1690    8    0    1
 -2       812       813       844      3256      3561      3562
 -1      1691    8    0    1
 -2       695       744       813      3258      3563      3254
 -1      1692    8    0    1
 -2       732       824       850      3398      3564      3406
 -1      1693    8    0    1
 -2       746       743       909      3042      3565      3566
 -1      1694    8    0    1
 -2       815       746       909      3266      3566      3567
 -1      1695    8    0    1
 -2       743       841       909      3345      3568      3565
 -1      1696    8    0    1
 -2       818       834       910      3343      3569      3570
 -1      1697    8    0    1
 -2       816       819       911      3275      3571      3572
 -1      1698    8    0    1
 -2       749       851       853      3379      3573      3505
 -1      1699    8    0    1
 -2       747       829       912      3354      3574      3575
 -1      1700    8    0    1
 -2       794       795       913      3202      3576      3577
 -1      1701    8    0    1
 -2       890       794       913      3506      3577      3578
 -1      1702    8    0    1
 -2       795       892       913      3512      3579      3576
 -1      1703    8    0    1
 -2       788       787       914      3182      3580      3581
 -1      1704    8    0    1
 -2       829       818       915      3374      3582      3583
 -1      1705    8    0    1
 -2       824       823       850      3291      3584      3564
 -1      1706    8    0    1
 -2       755       828       916      3304      3585      3586
 -1      1707    8    0    1
 -2       755       916       860      3586      3587      3412
 -1      1708    8    0    1
 -2       748       850       917      3377      3588      3589
 -1      1709    8    0    1
 -2       748       917       845      3589      3590      3361
 -1      1710    8    0    1
 -2       750       737       918      3062      3591      3592
 -1      1711    8    0    1
 -2       750       918       858      3592      3593      3405
 -1      1712    8    0    1
 -2       836       738       919      3375      3594      3595
 -1      1713    8    0    1
 -2       834       831       785      3335      3499      3596
 -1      1714    8    0    1
 -2       751       752       920      3399      3597      3598
 -1      1715    8    0    1
 -2       842       830       787      3500      3599      3384
 -1      1716    8    0    1
 -2       832       836       921      3324      3600      3601
 -1      1717    8    0    1
 -2       813       744       844      3563      3357      3561
 -1      1718    8    0    1
 -2       850       823       922      3584      3602      3603
 -1      1719    8    0    1
 -2       917       850       922      3588      3603      3604
 -1      1720    8    0    1
 -2       823       814       922      3288      3605      3602
 -1      1721    8    0    1
 -2       834       785       784      3596      3169      3606
 -1      1722    8    0    1
 -2       787       830       914      3599      3607      3580
 -1      1723    8    0    1
 -2       834       784       910      3606      3608      3569
 -1      1724    8    0    1
 -2       838       747       923      3333      3609      3610
 -1      1725    8    0    1
 -2       747       912       923      3575      3611      3609
 -1      1726    8    0    1
 -2       660       820       724      3414      3294      3174
 -1      1727    8    0    1
 -2       839       745       924      3338      3612      3613
 -1      1728    8    0    1
 -2       745       845       924      3360      3614      3612
 -1      1729    8    0    1
 -2       589       617       560      2674      3260      2893
 -1      1730    8    0    1
 -2       840       825       925      3342      3615      3616
 -1      1731    8    0    1
 -2       825       888       925      3502      3617      3615
 -1      1732    8    0    1
 -2       726       848       852      3369      3618      3382
 -1      1733    8    0    1
 -2       828       853       926      3386      3619      3620
 -1      1734    8    0    1
 -2       916       828       926      3585      3620      3621
 -1      1735    8    0    1
 -2       853       851       926      3573      3622      3619
 -1      1736    8    0    1
 -2       784       783       910      3166      3623      3608
 -1      1737    8    0    1
 -2       751       920       927      3598      3624      3625
 -1      1738    8    0    1
 -2       751       927       855      3625      3626      3392
 -1      1739    8    0    1
 -2       889       790       928      3503      3627      3628
 -1      1740    8    0    1
 -2       790       826       928      3297      3629      3627
 -1      1741    8    0    1
 -2       888       827       929      3501      3630      3631
 -1      1742    8    0    1
 -2       827       856       929      3395      3632      3630
 -1      1743    8    0    1
 -2       791       889       930      3504      3633      3634
 -1      1744    8    0    1
 -2       791       930       843      3634      3635      3351
 -1      1745    8    0    1
 -2       789       788       931      3186      3636      3637
 -1      1746    8    0    1
 -2       859       789       931      3411      3637      3638
 -1      1747    8    0    1
 -2       788       914       931      3581      3639      3636
 -1      1748    8    0    1
 -2       792       891       932      3509      3640      3641
 -1      1749    8    0    1
 -2       792       932       826      3641      3642      3298
 -1      1750    8    0    1
 -2       812       844       908      3562      3643      3558
 -1      1751    8    0    1
 -2       744       696       728      3257      3383      3035
 -1      1752    8    0    1
 -2       844       832       921      3358      3601      3644
 -1      1753    8    0    1
 -2       737       837       918      3329      3645      3591
 -1      1754    8    0    1
 -2       841       847       933      3366      3646      3647
 -1      1755    8    0    1
 -2       814       815       909      3265      3567      3648
 -1      1756    8    0    1
 -2       848       754       934      3367      3649      3650
 -1      1757    8    0    1
 -2       752       857       920      3401      3651      3597
 -1      1758    8    0    1
 -2       849       816       935      3373      3652      3653
 -1      1759    8    0    1
 -2       816       911       935      3572      3654      3652
 -1      1760    8    0    1
 -2       911       819       936      3571      3655      3656
 -1      1761    8    0    1
 -2       819       822       936      3284      3657      3655
 -1      1762    8    0    1
 -2       910       783       887      3623      3495      3658
 -1      1763    8    0    1
 -2       912       829       915      3574      3583      3659
 -1      1764    8    0    1
 -2       835       852       937      3381      3660      3661
 -1      1765    8    0    1
 -2       818       910       915      3570      3662      3582
 -1      1766    8    0    1
 -2       835       937       938      3661      3663      3664
 -1      1767    8    0    1
 -2       835       938       837      3664      3665      3330
 -1      1768    8    0    1
 -2       736       740       854      3018      3666      3388
 -1      1769    8    0    1
 -2       922       814       909      3605      3648      3667
 -1      1770    8    0    1
 -2       919       738       939      3594      3668      3669
 -1      1771    8    0    1
 -2       738       838       939      3332      3670      3668
 -1      1772    8    0    1
 -2       836       919       921      3595      3671      3600
 -1      1773    8    0    1
 -2       857       741       940      3402      3672      3673
 -1      1774    8    0    1
 -2       741       839       940      3337      3674      3672
 -1      1775    8    0    1
 -2       851       858       941      3404      3675      3676
 -1      1776    8    0    1
 -2       851       941       926      3676      3677      3622
 -1      1777    8    0    1
 -2       817       859       931      3410      3638      3678
 -1      1778    8    0    1
 -2       817       931       942      3678      3679      3680
 -1      1779    8    0    1
 -2       822       817       942      3285      3680      3681
 -1      1780    8    0    1
 -2       931       914       942      3639      3682      3679
 -1      1781    8    0    1
 -2       861       860       943      3418      3683      3684
 -1      1782    8    0    1
 -2       862       861       944      3421      3685      3686
 -1      1783    8    0    1
 -2       861       943       944      3684      3687      3685
 -1      1784    8    0    1
 -2       863       862       945      3424      3688      3689
 -1      1785    8    0    1
 -2       862       944       945      3686      3690      3688
 -1      1786    8    0    1
 -2       864       863       946      3427      3691      3692
 -1      1787    8    0    1
 -2       863       945       946      3689      3693      3691
 -1      1788    8    0    1
 -2       865       864       947      3430      3694      3695
 -1      1789    8    0    1
 -2       864       946       947      3692      3696      3694
 -1      1790    8    0    1
 -2       866       865       948      3433      3697      3698
 -1      1791    8    0    1
 -2       865       947       948      3695      3699      3697
 -1      1792    8    0    1
 -2       867       866       949      3436      3700      3701
 -1      1793    8    0    1
 -2       866       948       949      3698      3702      3700
 -1      1794    8    0    1
 -2       868       867       950      3439      3703      3704
 -1      1795    8    0    1
 -2       867       949       950      3701      3705      3703
 -1      1796    8    0    1
 -2       869       868       951      3442      3706      3707
 -1      1797    8    0    1
 -2       868       950       951      3704      3708      3706
 -1      1798    8    0    1
 -2       870       869       952      3445      3709      3710
 -1      1799    8    0    1
 -2       869       951       952      3707      3711      3709
 -1      1800    8    0    1
 -2       871       870       953      3448      3712      3713
 -1      1801    8    0    1
 -2       870       952       953      3710      3714      3712
 -1      1802    8    0    1
 -2       872       871       954      3451      3715      3716
 -1      1803    8    0    1
 -2       871       953       954      3713      3717      3715
 -1      1804    8    0    1
 -2       873       872       955      3454      3718      3719
 -1      1805    8    0    1
 -2       872       954       955      3716      3720      3718
 -1      1806    8    0    1
 -2       874       873       956      3457      3721      3722
 -1      1807    8    0    1
 -2       873       955       956      3719      3723      3721
 -1      1808    8    0    1
 -2       875       874       957      3460      3724      3725
 -1      1809    8    0    1
 -2       874       956       957      3722      3726      3724
 -1      1810    8    0    1
 -2       876       875       958      3463      3727      3728
 -1      1811    8    0    1
 -2       875       957       958      3725      3729      3727
 -1      1812    8    0    1
 -2       877       876       959      3466      3730      3731
 -1      1813    8    0    1
 -2       876       958       959      3728      3732      3730
 -1      1814    8    0    1
 -2       878       877       960      3469      3733      3734
 -1      1815    8    0    1
 -2       877       959       960      3731      3735      3733
 -1      1816    8    0    1
 -2       879       878       961      3472      3736      3737
 -1      1817    8    0    1
 -2       878       960       961      3734      3738      3736
 -1      1818    8    0    1
 -2       880       879       962      3475      3739      3740
 -1      1819    8    0    1
 -2       879       961       962      3737      3741      3739
 -1      1820    8    0    1
 -2       881       880       963      3478      3742      3743
 -1      1821    8    0    1
 -2       880       962       963      3740      3744      3742
 -1      1822    8    0    1
 -2       882       881       964      3481      3745      3746
 -1      1823    8    0    1
 -2       881       963       964      3743      3747      3745
 -1      1824    8    0    1
 -2       883       882       965      3484      3748      3749
 -1      1825    8    0    1
 -2       882       964       965      3746      3750      3748
 -1      1826    8    0    1
 -2       884       883       966      3487      3751      3752
 -1      1827    8    0    1
 -2       883       965       966      3749      3753      3751
 -1      1828    8    0    1
 -2       885       884       967      3490      3754      3755
 -1      1829    8    0    1
 -2       884       966       967      3752      3756      3754
 -1      1830    8    0    1
 -2       886       885       968      3493      3757      3758
 -1      1831    8    0    1
 -2       885       967       968      3755      3759      3757
 -1      1832    8    0    1
 -2       894       895       969      3521      3760      3761
 -1      1833    8    0    1
 -2       721       698       846      3415      3363      3762
 -1      1834    8    0    1
 -2       891       890       970      3510      3763      3764
 -1      1835    8    0    1
 -2       661       724       854      3175      3389      3765
 -1      1836    8    0    1
 -2       893       894       971      3518      3766      3767
 -1      1837    8    0    1
 -2       894       969       971      3761      3768      3766
 -1      1838    8    0    1
 -2       892       893       972      3515      3769      3770
 -1      1839    8    0    1
 -2       893       971       972      3767      3771      3769
 -1      1840    8    0    1
 -2       895       896       973      3524      3772      3773
 -1      1841    8    0    1
 -2       895       973       969      3773      3774      3760
 -1      1842    8    0    1
 -2       896       897       974      3527      3775      3776
 -1      1843    8    0    1
 -2       896       974       973      3776      3777      3772
 -1      1844    8    0    1
 -2       897       898       975      3530      3778      3779
 -1      1845    8    0    1
 -2       897       975       974      3779      3780      3775
 -1      1846    8    0    1
 -2       898       899       976      3533      3781      3782
 -1      1847    8    0    1
 -2       898       976       975      3782      3783      3778
 -1      1848    8    0    1
 -2       899       900       977      3536      3784      3785
 -1      1849    8    0    1
 -2       899       977       976      3785      3786      3781
 -1      1850    8    0    1
 -2       900       901       978      3539      3787      3788
 -1      1851    8    0    1
 -2       900       978       977      3788      3789      3784
 -1      1852    8    0    1
 -2       901       902       979      3542      3790      3791
 -1      1853    8    0    1
 -2       901       979       978      3791      3792      3787
 -1      1854    8    0    1
 -2       902       903       980      3545      3793      3794
 -1      1855    8    0    1
 -2       902       980       979      3794      3795      3790
 -1      1856    8    0    1
 -2       903       904       981      3548      3796      3797
 -1      1857    8    0    1
 -2       903       981       980      3797      3798      3793
 -1      1858    8    0    1
 -2       904       905       982      3551      3799      3800
 -1      1859    8    0    1
 -2       904       982       981      3800      3801      3796
 -1      1860    8    0    1
 -2       905       906       983      3554      3802      3803
 -1      1861    8    0    1
 -2       905       983       982      3803      3804      3799
 -1      1862    8    0    1
 -2       906       907       984      3557      3805      3806
 -1      1863    8    0    1
 -2       906       984       983      3806      3807      3802
 -1      1864    8    0    1
 -2       907       908       985      3560      3808      3809
 -1      1865    8    0    1
 -2       907       985       984      3809      3810      3805
 -1      1866    8    0    1
 -2       917       922       933      3604      3811      3812
 -1      1867    8    0    1
 -2       860       916       986      3587      3813      3814
 -1      1868    8    0    1
 -2       860       986       943      3814      3815      3683
 -1      1869    8    0    1
 -2       916       926       987      3621      3816      3817
 -1      1870    8    0    1
 -2       986       916       987      3813      3817      3818
 -1      1871    8    0    1
 -2       926       941       987      3677      3819      3816
 -1      1872    8    0    1
 -2       858       918       988      3593      3820      3821
 -1      1873    8    0    1
 -2       858       988       941      3821      3822      3675
 -1      1874    8    0    1
 -2       846       699       824      3362      3290      3823
 -1      1875    8    0    1
 -2       934       754       840      3649      3824      3825
 -1      1876    8    0    1
 -2       845       917       933      3590      3812      3826
 -1      1877    8    0    1
 -2       920       857       911      3651      3827      3828
 -1      1878    8    0    1
 -2       909       841       922      3568      3829      3667
 -1      1879    8    0    1
 -2       915       910       887      3662      3658      3830
 -1      1880    8    0    1
 -2       754       821       840      3280      3341      3824
 -1      1881    8    0    1
 -2       844       921       908      3644      3831      3643
 -1      1882    8    0    1
 -2       841       933       922      3647      3811      3829
 -1      1883    8    0    1
 -2       915       887       989      3830      3832      3833
 -1      1884    8    0    1
 -2       912       915       989      3659      3833      3834
 -1      1885    8    0    1
 -2       887       886       989      3496      3835      3832
 -1      1886    8    0    1
 -2       856       843       990      3396      3836      3837
 -1      1887    8    0    1
 -2       843       930       990      3635      3838      3836
 -1      1888    8    0    1
 -2       847       849       991      3372      3839      3840
 -1      1889    8    0    1
 -2       933       847       991      3646      3840      3841
 -1      1890    8    0    1
 -2       849       935       991      3653      3842      3839
 -1      1891    8    0    1
 -2       934       840       925      3825      3616      3843
 -1      1892    8    0    1
 -2       852       848       992      3618      3844      3845
 -1      1893    8    0    1
 -2       937       852       992      3660      3845      3846
 -1      1894    8    0    1
 -2       848       934       992      3650      3847      3844
 -1      1895    8    0    1
 -2       920       911       936      3828      3656      3848
 -1      1896    8    0    1
 -2       908       921       985      3831      3849      3808
 -1      1897    8    0    1
 -2       911       857       940      3827      3673      3850
 -1      1898    8    0    1
 -2       918       837       993      3645      3851      3852
 -1      1899    8    0    1
 -2       988       918       993      3820      3852      3853
 -1      1900    8    0    1
 -2       837       938       993      3665      3854      3851
 -1      1901    8    0    1
 -2       886       968       989      3758      3855      3835
 -1      1902    8    0    1
 -2       856       990       929      3837      3856      3632
 -1      1903    8    0    1
 -2       927       920       936      3624      3848      3857
 -1      1904    8    0    1
 -2       721       846       824      3762      3823      3397
 -1      1905    8    0    1
 -2       970       890       994      3763      3858      3859
 -1      1906    8    0    1
 -2       890       913       994      3578      3860      3858
 -1      1907    8    0    1
 -2       928       826       932      3629      3642      3861
 -1      1908    8    0    1
 -2       930       889       995      3633      3862      3863
 -1      1909    8    0    1
 -2       911       940       935      3850      3864      3654
 -1      1910    8    0    1
 -2       913       892       996      3579      3865      3866
 -1      1911    8    0    1
 -2       913       996       994      3866      3867      3860
 -1      1912    8    0    1
 -2       838       923       939      3610      3868      3670
 -1      1913    8    0    1
 -2       925       888       997      3617      3869      3870
 -1      1914    8    0    1
 -2       937       992       998      3846      3871      3872
 -1      1915    8    0    1
 -2       919       939       999      3669      3873      3874
 -1      1916    8    0    1
 -2       845       933       991      3826      3841      3875
 -1      1917    8    0    1
 -2       912       989      1000      3834      3876      3877
 -1      1918    8    0    1
 -2       923       912      1000      3611      3877      3878
 -1      1919    8    0    1
 -2       989       968      1000      3855      3879      3876
 -1      1920    8    0    1
 -2       936       822       942      3657      3681      3880
 -1      1921    8    0    1
 -2       985       921       919      3849      3671      3881
 -1      1922    8    0    1
 -2       888       929      1001      3631      3882      3883
 -1      1923    8    0    1
 -2       888      1001       997      3883      3884      3869
 -1      1924    8    0    1
 -2       938       937      1002      3663      3885      3886
 -1      1925    8    0    1
 -2       937       998      1002      3872      3887      3885
 -1      1926    8    0    1
 -2       889       928      1003      3628      3888      3889
 -1      1927    8    0    1
 -2       889      1003       995      3889      3890      3862
 -1      1928    8    0    1
 -2       934       925       997      3843      3870      3891
 -1      1929    8    0    1
 -2       940       839       935      3674      3892      3864
 -1      1930    8    0    1
 -2       992       934       997      3847      3891      3893
 -1      1931    8    0    1
 -2       891       970      1004      3764      3894      3895
 -1      1932    8    0    1
 -2       891      1004       932      3895      3896      3640
 -1      1933    8    0    1
 -2       942       914       927      3682      3897      3898
 -1      1934    8    0    1
 -2       996       892       972      3865      3770      3899
 -1      1935    8    0    1
 -2       944       943      1005      3687      3900      3901
 -1      1936    8    0    1
 -2       945       944      1006      3690      3902      3903
 -1      1937    8    0    1
 -2       944      1005      1006      3901      3904      3902
 -1      1938    8    0    1
 -2       946       945      1007      3693      3905      3906
 -1      1939    8    0    1
 -2       945      1006      1007      3903      3907      3905
 -1      1940    8    0    1
 -2       947       946      1008      3696      3908      3909
 -1      1941    8    0    1
 -2       946      1007      1008      3906      3910      3908
 -1      1942    8    0    1
 -2       948       947      1009      3699      3911      3912
 -1      1943    8    0    1
 -2       947      1008      1009      3909      3913      3911
 -1      1944    8    0    1
 -2       949       948      1010      3702      3914      3915
 -1      1945    8    0    1
 -2       948      1009      1010      3912      3916      3914
 -1      1946    8    0    1
 -2       950       949      1011      3705      3917      3918
 -1      1947    8    0    1
 -2       949      1010      1011      3915      3919      3917
 -1      1948    8    0    1
 -2       951       950      1012      3708      3920      3921
 -1      1949    8    0    1
 -2       950      1011      1012      3918      3922      3920
 -1      1950    8    0    1
 -2       952       951      1013      3711      3923      3924
 -1      1951    8    0    1
 -2       951      1012      1013      3921      3925      3923
 -1      1952    8    0    1
 -2       953       952      1014      3714      3926      3927
 -1      1953    8    0    1
 -2       952      1013      1014      3924      3928      3926
 -1      1954    8    0    1
 -2       954       953      1015      3717      3929      3930
 -1      1955    8    0    1
 -2       953      1014      1015      3927      3931      3929
 -1      1956    8    0    1
 -2       955       954      1016      3720      3932      3933
 -1      1957    8    0    1
 -2       954      1015      1016      3930      3934      3932
 -1      1958    8    0    1
 -2       956       955      1017      3723      3935      3936
 -1      1959    8    0    1
 -2       955      1016      1017      3933      3937      3935
 -1      1960    8    0    1
 -2       957       956      1018      3726      3938      3939
 -1      1961    8    0    1
 -2       956      1017      1018      3936      3940      3938
 -1      1962    8    0    1
 -2       958       957      1019      3729      3941      3942
 -1      1963    8    0    1
 -2       957      1018      1019      3939      3943      3941
 -1      1964    8    0    1
 -2       959       958      1020      3732      3944      3945
 -1      1965    8    0    1
 -2       958      1019      1020      3942      3946      3944
 -1      1966    8    0    1
 -2       960       959      1021      3735      3947      3948
 -1      1967    8    0    1
 -2       959      1020      1021      3945      3949      3947
 -1      1968    8    0    1
 -2       961       960      1022      3738      3950      3951
 -1      1969    8    0    1
 -2       960      1021      1022      3948      3952      3950
 -1      1970    8    0    1
 -2       962       961      1023      3741      3953      3954
 -1      1971    8    0    1
 -2       961      1022      1023      3951      3955      3953
 -1      1972    8    0    1
 -2       963       962      1024      3744      3956      3957
 -1      1973    8    0    1
 -2       962      1023      1024      3954      3958      3956
 -1      1974    8    0    1
 -2       964       963      1025      3747      3959      3960
 -1      1975    8    0    1
 -2       963      1024      1025      3957      3961      3959
 -1      1976    8    0    1
 -2       965       964      1026      3750      3962      3963
 -1      1977    8    0    1
 -2       964      1025      1026      3960      3964      3962
 -1      1978    8    0    1
 -2       966       965      1027      3753      3965      3966
 -1      1979    8    0    1
 -2       965      1026      1027      3963      3967      3965
 -1      1980    8    0    1
 -2       967       966      1028      3756      3968      3969
 -1      1981    8    0    1
 -2       966      1027      1028      3966      3970      3968
 -1      1982    8    0    1
 -2       968       967      1029      3759      3971      3972
 -1      1983    8    0    1
 -2      1000       968      1029      3879      3972      3973
 -1      1984    8    0    1
 -2       967      1028      1029      3969      3974      3971
 -1      1985    8    0    1
 -2       973       974      1030      3777      3975      3976
 -1      1986    8    0    1
 -2       914       830       855      3607      3391      3977
 -1      1987    8    0    1
 -2       999       939      1031      3873      3978      3979
 -1      1988    8    0    1
 -2       971       969      1032      3768      3980      3981
 -1      1989    8    0    1
 -2       927       936       942      3857      3880      3898
 -1      1990    8    0    1
 -2       992       997       998      3893      3982      3871
 -1      1991    8    0    1
 -2       855       927       914      3626      3897      3977
 -1      1992    8    0    1
 -2       972       971      1033      3771      3983      3984
 -1      1993    8    0    1
 -2       971      1032      1033      3981      3985      3983
 -1      1994    8    0    1
 -2       974       975      1034      3780      3986      3987
 -1      1995    8    0    1
 -2       974      1034      1030      3987      3988      3975
 -1      1996    8    0    1
 -2       975       976      1035      3783      3989      3990
 -1      1997    8    0    1
 -2       975      1035      1034      3990      3991      3986
 -1      1998    8    0    1
 -2       976       977      1036      3786      3992      3993
 -1      1999    8    0    1
 -2       976      1036      1035      3993      3994      3989
 -1      2000    8    0    1
 -2       977       978      1037      3789      3995      3996
 -1      2001    8    0    1
 -2       977      1037      1036      3996      3997      3992
 -1      2002    8    0    1
 -2       978       979      1038      3792      3998      3999
 -1      2003    8    0    1
 -2       978      1038      1037      3999      4000      3995
 -1      2004    8    0    1
 -2       979       980      1039      3795      4001      4002
 -1      2005    8    0    1
 -2       979      1039      1038      4002      4003      3998
 -1      2006    8    0    1
 -2       980       981      1040      3798      4004      4005
 -1      2007    8    0    1
 -2       980      1040      1039      4005      4006      4001
 -1      2008    8    0    1
 -2       981       982      1041      3801      4007      4008
 -1      2009    8    0    1
 -2       981      1041      1040      4008      4009      4004
 -1      2010    8    0    1
 -2       982       983      1042      3804      4010      4011
 -1      2011    8    0    1
 -2       982      1042      1041      4011      4012      4007
 -1      2012    8    0    1
 -2       983       984      1043      3807      4013      4014
 -1      2013    8    0    1
 -2       983      1043      1042      4014      4015      4010
 -1      2014    8    0    1
 -2       984       985      1044      3810      4016      4017
 -1      2015    8    0    1
 -2       984      1044      1043      4017      4018      4013
 -1      2016    8    0    1
 -2       929       990      1045      3856      4019      4020
 -1      2017    8    0    1
 -2       929      1045      1001      4020      4021      3882
 -1      2018    8    0    1
 -2       943       986      1046      3815      4022      4023
 -1      2019    8    0    1
 -2       943      1046      1005      4023      4024      3900
 -1      2020    8    0    1
 -2       845       991       924      3875      4025      3614
 -1      2021    8    0    1
 -2       928       932      1047      3861      4026      4027
 -1      2022    8    0    1
 -2      1003       928      1047      3888      4027      4028
 -1      2023    8    0    1
 -2       932      1004      1047      3896      4029      4026
 -1      2024    8    0    1
 -2       935       839       991      3892      4030      3842
 -1      2025    8    0    1
 -2       930       995      1048      3863      4031      4032
 -1      2026    8    0    1
 -2       930      1048       990      4032      4033      3838
 -1      2027    8    0    1
 -2       969       973      1049      3774      4034      4035
 -1      2028    8    0    1
 -2       973      1030      1049      3976      4036      4034
 -1      2029    8    0    1
 -2       985       919      1044      3881      4037      4016
 -1      2030    8    0    1
 -2       998       997      1050      3982      4038      4039
 -1      2031    8    0    1
 -2       997      1001      1050      3884      4040      4038
 -1      2032    8    0    1
 -2       939       923      1031      3868      4041      3978
 -1      2033    8    0    1
 -2       941       988      1051      3822      4042      4043
 -1      2034    8    0    1
 -2       941      1051       987      4043      4044      3819
 -1      2035    8    0    1
 -2       996       972      1052      3899      4045      4046
 -1      2036    8    0    1
 -2       972      1033      1052      3984      4047      4045
 -1      2037    8    0    1
 -2      1032       969      1049      3980      4035      4048
 -1      2038    8    0    1
 -2       661       854       740      3765      3666      3176
 -1      2039    8    0    1
 -2       991       839       924      4030      3613      4025
 -1      2040    8    0    1
 -2      1043      1044      1053      4018      4049      4050
 -1      2041    8    0    1
 -2       998      1050      1002      4039      4051      3887
 -1      2042    8    0    1
 -2      1045       990      1048      4019      4033      4052
 -1      2043    8    0    1
 -2       996      1052      1054      4046      4053      4054
 -1      2044    8    0    1
 -2       996      1054       994      4054      4055      3867
 -1      2045    8    0    1
 -2       938      1002      1055      3886      4056      4057
 -1      2046    8    0    1
 -2       938      1055       993      4057      4058      3854
 -1      2047    8    0    1
 -2       995      1003      1056      3890      4059      4060
 -1      2048    8    0    1
 -2       995      1056      1057      4060      4061      4062
 -1      2049    8    0    1
 -2       995      1057      1048      4062      4063      4031
 -1      2050    8    0    1
 -2       986       987      1058      3818      4064      4065
 -1      2051    8    0    1
 -2      1046       986      1058      4022      4065      4066
 -1      2052    8    0    1
 -2       987      1051      1058      4044      4067      4064
 -1      2053    8    0    1
 -2       999      1031      1053      3979      4068      4069
 -1      2054    8    0    1
 -2      1004       970      1059      3894      4070      4071
 -1      2055    8    0    1
 -2       923      1000      1060      3878      4072      4073
 -1      2056    8    0    1
 -2      1031       923      1060      4041      4073      4074
 -1      2057    8    0    1
 -2      1000      1029      1060      3973      4075      4072
 -1      2058    8    0    1
 -2       988       993      1061      3853      4076      4077
 -1      2059    8    0    1
 -2      1051       988      1061      4042      4077      4078
 -1      2060    8    0    1
 -2       993      1055      1061      4058      4079      4076
 -1      2061    8    0    1
 -2       970       994      1062      3859      4080      4081
 -1      2062    8    0    1
 -2       994      1054      1062      4055      4082      4080
 -1      2063    8    0    1
 -2       970      1062      1059      4081      4083      4070
 -1      2064    8    0    1
 -2      1007      1006      1063      3907      4084      4085
 -1      2065    8    0    1
 -2      1008      1007      1064      3910      4086      4087
 -1      2066    8    0    1
 -2      1007      1063      1064      4085      4088      4086
 -1      2067    8    0    1
 -2      1009      1008      1065      3913      4089      4090
 -1      2068    8    0    1
 -2      1008      1064      1065      4087      4091      4089
 -1      2069    8    0    1
 -2      1010      1009      1066      3916      4092      4093
 -1      2070    8    0    1
 -2      1009      1065      1066      4090      4094      4092
 -1      2071    8    0    1
 -2      1011      1010      1067      3919      4095      4096
 -1      2072    8    0    1
 -2      1010      1066      1067      4093      4097      4095
 -1      2073    8    0    1
 -2      1012      1011      1068      3922      4098      4099
 -1      2074    8    0    1
 -2      1011      1067      1068      4096      4100      4098
 -1      2075    8    0    1
 -2      1013      1012      1069      3925      4101      4102
 -1      2076    8    0    1
 -2      1012      1068      1069      4099      4103      4101
 -1      2077    8    0    1
 -2      1014      1013      1070      3928      4104      4105
 -1      2078    8    0    1
 -2      1013      1069      1070      4102      4106      4104
 -1      2079    8    0    1
 -2      1015      1014      1071      3931      4107      4108
 -1      2080    8    0    1
 -2      1014      1070      1071      4105      4109      4107
 -1      2081    8    0    1
 -2      1016      1015      1072      3934      4110      4111
 -1      2082    8    0    1
 -2      1015      1071      1072      4108      4112      4110
 -1      2083    8    0    1
 -2      1017      1016      1073      3937      4113      4114
 -1      2084    8    0    1
 -2      1016      1072      1073      4111      4115      4113
 -1      2085    8    0    1
 -2      1018      1017      1074      3940      4116      4117
 -1      2086    8    0    1
 -2      1017      1073      1074      4114      4118      4116
 -1      2087    8    0    1
 -2      1019      1018      1075      3943      4119      4120
 -1      2088    8    0    1
 -2      1018      1074      1075      4117      4121      4119
 -1      2089    8    0    1
 -2      1020      1019      1076      3946      4122      4123
 -1      2090    8    0    1
 -2      1019      1075      1076      4120      4124      4122
 -1      2091    8    0    1
 -2      1021      1020      1077      3949      4125      4126
 -1      2092    8    0    1
 -2      1020      1076      1077      4123      4127      4125
 -1      2093    8    0    1
 -2      1022      1021      1078      3952      4128      4129
 -1      2094    8    0    1
 -2      1021      1077      1078      4126      4130      4128
 -1      2095    8    0    1
 -2      1023      1022      1079      3955      4131      4132
 -1      2096    8    0    1
 -2      1022      1078      1079      4129      4133      4131
 -1      2097    8    0    1
 -2      1024      1023      1080      3958      4134      4135
 -1      2098    8    0    1
 -2      1023      1079      1080      4132      4136      4134
 -1      2099    8    0    1
 -2      1025      1024      1081      3961      4137      4138
 -1      2100    8    0    1
 -2      1024      1080      1081      4135      4139      4137
 -1      2101    8    0    1
 -2      1026      1025      1082      3964      4140      4141
 -1      2102    8    0    1
 -2      1025      1081      1082      4138      4142      4140
 -1      2103    8    0    1
 -2      1027      1026      1083      3967      4143      4144
 -1      2104    8    0    1
 -2      1026      1082      1083      4141      4145      4143
 -1      2105    8    0    1
 -2      1028      1027      1084      3970      4146      4147
 -1      2106    8    0    1
 -2      1027      1083      1084      4144      4148      4146
 -1      2107    8    0    1
 -2      1032      1049      1085      4048      4149      4150
 -1      2108    8    0    1
 -2      1030      1034      1086      3988      4151      4152
 -1      2109    8    0    1
 -2      1035      1036      1087      3994      4153      4154
 -1      2110    8    0    1
 -2      1036      1037      1088      3997      4155      4156
 -1      2111    8    0    1
 -2      1036      1088      1087      4156      4157      4153
 -1      2112    8    0    1
 -2      1037      1038      1089      4000      4158      4159
 -1      2113    8    0    1
 -2      1037      1089      1088      4159      4160      4155
 -1      2114    8    0    1
 -2      1038      1039      1090      4003      4161      4162
 -1      2115    8    0    1
 -2      1038      1090      1089      4162      4163      4158
 -1      2116    8    0    1
 -2      1039      1040      1091      4006      4164      4165
 -1      2117    8    0    1
 -2      1039      1091      1090      4165      4166      4161
 -1      2118    8    0    1
 -2      1040      1041      1092      4009      4167      4168
 -1      2119    8    0    1
 -2      1040      1092      1091      4168      4169      4164
 -1      2120    8    0    1
 -2      1041      1042      1093      4012      4170      4171
 -1      2121    8    0    1
 -2      1041      1093      1092      4171      4172      4167
 -1      2122    8    0    1
 -2      1042      1043      1094      4015      4173      4174
 -1      2123    8    0    1
 -2      1042      1094      1093      4174      4175      4170
 -1      2124    8    0    1
 -2      1002      1050      1095      4051      4176      4177
 -1      2125    8    0    1
 -2      1001      1045      1096      4021      4178      4179
 -1      2126    8    0    1
 -2      1001      1096      1050      4179      4180      4040
 -1      2127    8    0    1
 -2      1043      1053      1094      4050      4181      4173
 -1      2128    8    0    1
 -2      1053      1031      1097      4068      4182      4183
 -1      2129    8    0    1
 -2      1094      1053      1097      4181      4183      4184
 -1      2130    8    0    1
 -2      1031      1060      1097      4074      4185      4182
 -1      2131    8    0    1
 -2      1056      1003      1098      4059      4186      4187
 -1      2132    8    0    1
 -2      1003      1047      1098      4028      4188      4186
 -1      2133    8    0    1
 -2      1034      1035      1099      3991      4189      4190
 -1      2134    8    0    1
 -2      1086      1034      1099      4151      4190      4191
 -1      2135    8    0    1
 -2      1035      1087      1099      4154      4192      4189
 -1      2136    8    0    1
 -2      1005      1046      1100      4024      4193      4194
 -1      2137    8    0    1
 -2      1045      1048      1101      4052      4195      4196
 -1      2138    8    0    1
 -2      1096      1045      1101      4178      4196      4197
 -1      2139    8    0    1
 -2      1048      1057      1101      4063      4198      4195
 -1      2140    8    0    1
 -2      1049      1030      1102      4036      4199      4200
 -1      2141    8    0    1
 -2      1030      1086      1102      4152      4201      4199
 -1      2142    8    0    1
 -2      1004      1059      1103      4071      4202      4203
 -1      2143    8    0    1
 -2      1004      1103      1047      4203      4204      4029
 -1      2144    8    0    1
 -2      1059      1062      1104      4083      4205      4206
 -1      2145    8    0    1
 -2      1006      1005      1105      3904      4207      4208
 -1      2146    8    0    1
 -2      1005      1100      1105      4194      4209      4207
 -1      2147    8    0    1
 -2      1033      1032      1106      3985      4210      4211
 -1      2148    8    0    1
 -2      1032      1085      1106      4150      4212      4210
 -1      2149    8    0    1
 -2      1052      1033      1107      4047      4213      4214
 -1      2150    8    0    1
 -2      1033      1106      1107      4211      4215      4213
 -1      2151    8    0    1
 -2      1044       919       999      4037      3874      4216
 -1      2152    8    0    1
 -2      1085      1049      1102      4149      4200      4217
 -1      2153    8    0    1
 -2       999      1053      1044      4069      4049      4216
 -1      2154    8    0    1
 -2      1051      1061      1108      4078      4218      4219
 -1      2155    8    0    1
 -2      1051      1108      1058      4219      4220      4067
 -1      2156    8    0    1
 -2      1002      1095      1055      4177      4221      4056
 -1      2157    8    0    1
 -2      1095      1050      1096      4176      4180      4222
 -1      2158    8    0    1
 -2      1057      1056      1109      4061      4223      4224
 -1      2159    8    0    1
 -2      1054      1052      1110      4053      4225      4226
 -1      2160    8    0    1
 -2      1052      1107      1110      4214      4227      4225
 -1      2161    8    0    1
 -2      1059      1104      1111      4206      4228      4229
 -1      2162    8    0    1
 -2      1059      1111      1103      4229      4230      4202
 -1      2163    8    0    1
 -2      1063      1006      1105      4084      4208      4231
 -1      2164    8    0    1
 -2      1046      1058      1108      4066      4220      4232
 -1      2165    8    0    1
 -2      1104      1062      1112      4205      4233      4234
 -1      2166    8    0    1
 -2      1062      1054      1112      4082      4235      4233
 -1      2167    8    0    1
 -2      1046      1108      1100      4232      4236      4193
 -1      2168    8    0    1
 -2      1056      1098      1113      4187      4237      4238
 -1      2169    8    0    1
 -2      1056      1113      1109      4238      4239      4223
 -1      2170    8    0    1
 -2      1028      1084      1114      4147      4240      4241
 -1      2171    8    0    1
 -2      1065      1064      1113      4091      4242      4243
 -1      2172    8    0    1
 -2      1067      1066      1115      4097      4244      4245
 -1      2173    8    0    1
 -2      1068      1067      1104      4100      4246      4247
 -1      2174    8    0    1
 -2      1069      1068      1112      4103      4248      4249
 -1      2175    8    0    1
 -2      1070      1069      1110      4106      4250      4251
 -1      2176    8    0    1
 -2      1071      1070      1107      4109      4252      4253
 -1      2177    8    0    1
 -2      1072      1071      1106      4112      4254      4255
 -1      2178    8    0    1
 -2      1073      1072      1085      4115      4256      4257
 -1      2179    8    0    1
 -2      1074      1073      1102      4118      4258      4259
 -1      2180    8    0    1
 -2      1075      1074      1086      4121      4260      4261
 -1      2181    8    0    1
 -2      1076      1075      1099      4124      4262      4263
 -1      2182    8    0    1
 -2      1077      1076      1087      4127      4264      4265
 -1      2183    8    0    1
 -2      1078      1077      1088      4130      4266      4267
 -1      2184    8    0    1
 -2      1079      1078      1089      4133      4268      4269
 -1      2185    8    0    1
 -2      1080      1079      1090      4136      4270      4271
 -1      2186    8    0    1
 -2      1081      1080      1091      4139      4272      4273
 -1      2187    8    0    1
 -2      1082      1081      1092      4142      4274      4275
 -1      2188    8    0    1
 -2      1083      1082      1093      4145      4276      4277
 -1      2189    8    0    1
 -2      1106      1071      1107      4254      4253      4215
 -1      2190    8    0    1
 -2      1029      1028      1114      3974      4241      4278
 -1      2191    8    0    1
 -2      1089      1078      1088      4268      4267      4160
 -1      2192    8    0    1
 -2      1047      1103      1098      4204      4279      4188
 -1      2193    8    0    1
 -2      1087      1076      1099      4264      4263      4192
 -1      2194    8    0    1
 -2      1087      1088      1077      4157      4266      4265
 -1      2195    8    0    1
 -2      1090      1091      1080      4166      4272      4271
 -1      2196    8    0    1
 -2      1091      1092      1081      4169      4274      4273
 -1      2197    8    0    1
 -2      1092      1093      1082      4172      4276      4275
 -1      2198    8    0    1
 -2      1093      1094      1083      4175      4280      4277
 -1      2199    8    0    1
 -2      1057      1109      1116      4224      4281      4282
 -1      2200    8    0    1
 -2      1057      1116      1101      4282      4283      4198
 -1      2201    8    0    1
 -2      1086      1074      1102      4260      4259      4201
 -1      2202    8    0    1
 -2      1095      1096      1117      4222      4284      4285
 -1      2203    8    0    1
 -2      1107      1070      1110      4252      4251      4227
 -1      2204    8    0    1
 -2      1085      1102      1073      4217      4258      4257
 -1      2205    8    0    1
 -2      1105      1100      1117      4209      4286      4287
 -1      2206    8    0    1
 -2      1063      1105      1116      4231      4288      4289
 -1      2207    8    0    1
 -2      1089      1090      1079      4163      4270      4269
 -1      2208    8    0    1
 -2      1106      1085      1072      4212      4256      4255
 -1      2209    8    0    1
 -2      1108      1061      1055      4218      4079      4290
 -1      2210    8    0    1
 -2      1098      1103      1118      4279      4291      4292
 -1      2211    8    0    1
 -2      1103      1111      1118      4230      4293      4291
 -1      2212    8    0    1
 -2      1064      1063      1109      4088      4294      4295
 -1      2213    8    0    1
 -2      1068      1104      1112      4247      4234      4248
 -1      2214    8    0    1
 -2      1108      1055      1095      4290      4221      4296
 -1      2215    8    0    1
 -2      1075      1086      1099      4261      4191      4262
 -1      2216    8    0    1
 -2      1108      1095      1100      4296      4297      4236
 -1      2217    8    0    1
 -2      1100      1095      1117      4297      4285      4286
 -1      2218    8    0    1
 -2      1064      1109      1113      4295      4239      4242
 -1      2219    8    0    1
 -2      1109      1063      1116      4294      4289      4281
 -1      2220    8    0    1
 -2      1066      1065      1119      4094      4298      4299
 -1      2221    8    0    1
 -2      1117      1096      1101      4284      4197      4300
 -1      2222    8    0    1
 -2      1083      1094      1084      4280      4301      4148
 -1      2223    8    0    1
 -2      1060      1029      1114      4075      4278      4302
 -1      2224    8    0    1
 -2      1066      1119      1115      4299      4303      4244
 -1      2225    8    0    1
 -2      1054      1110      1112      4226      4304      4235
 -1      2226    8    0    1
 -2      1116      1105      1117      4288      4287      4305
 -1      2227    8    0    1
 -2      1104      1067      1115      4246      4245      4306
 -1      2228    8    0    1
 -2      1060      1114      1097      4302      4307      4185
 -1      2229    8    0    1
 -2      1084      1094      1097      4301      4184      4308
 -1      2230    8    0    1
 -2      1119      1065      1113      4298      4243      4309
 -1      2231    8    0    1
 -2      1114      1084      1097      4240      4308      4307
 -1      2232    8    0    1
 -2      1117      1101      1116      4300      4283      4305
 -1      2233    8    0    1
 -2      1069      1112      1110      4249      4304      4250
 -1      2234    8    0    1
 -2      1119      1113      1118      4309      4310      4311
 -1      2235    8    0    1
 -2      1118      1113      1098      4310      4237      4292
 -1      2236    8    0    1
 -2      1115      1119      1118      4303      4311      4312
 -1      2237    8    0    1
 -2      1104      1115      1111      4306      4313      4228
 -1      2238    8    0    1
 -2      1111      1115      1118      4313      4312      4293
 -3
    1PSTEP                         1           1           1          
  100CL  101 1.000000000        4313                     0    1           1
 -4  DISP        4    1
 -5  D1          1    2    1    0
 -5  D2          1    2    2    0
 -5  D3          1    2    3    0
 -5  ALL         1    2    0    0    1ALL
 -1         1 9.77405E-03-2.99719E-04-7.16968E-14
 -1         2 1.39221E-02 2.67133E-04-8.52045E-14
 -1         3 1.50782E-02 7.39728E-04-1.13141E-13
 -1         4 1.45349E-02 1.68002E-05-1.11018E-13
 -1         5 0.00000E+00 0.00000E+00 0.00000E+00
 -1         6 0.00000E+00 0.00000E+00 0.00000E+00
 -1         7 0.00000E+00 0.00000E+00 0.00000E+00
 -1         8 0.00000E+00 0.00000E+00 0.00000E+00
 -1         9 0.00000E+00 0.00000E+00 0.00000E+00
 -1        10 0.00000E+00 0.00000E+00 0.00000E+00
 -1        11 0.00000E+00 0.00000E+00 0.00000E+00
 -1        12 0.00000E+00 0.00000E+00 0.00000E+00
 -1        13 0.00000E+00 0.00000E+00 0.00000E+00
 -1        14 0.00000E+00 0.00000E+00 0.00000E+00
 -1        15 0.00000E+00 0.00000E+00 0.00000E+00
 -1        16 0.00000E+00 0.00000E+00 0.00000E+00
 -1        17 0.00000E+00 0.00000E+00 0.00000E+00
 -1        18 0.00000E+00 0.00000E+00 0.00000E+00
 -1        19 0.00000E+00 0.00000E+00 0.00000E+00
 -1        20 0.00000E+00 0.00000E+00 0.00000E+00
 -1        21 0.00000E+00 0.00000E+00 0.00000E+00
 -1        22 0.00000E+00 0.00000E+00 0.00000E+00
 -1        23 4.11402E-04-2.60755E-04 5.40068E-17
 -1        24 7.03401E-04-4.01019E-04-3.62022E-17
 -1        25 9.73482E-04-4.98418E-04-2.68167E-16
 -1        26 1.23798E-03-5.67187E-04-6.41502E-16
 -1        27 1.50151E-03-6.16468E-04-1.15275E-15
 -1        28 1.76617E-03-6.51642E-04-1.79882E-15
 -1        29 2.03291E-03-6.76419E-04-2.57594E-15
 -1        30 2.30210E-03-6.93493E-04-3.47840E-15
 -1        31 2.57377E-03-7.04878E-04-4.50591E-15
 -1        32 2.84780E-03-7.12094E-04-5.65701E-15
 -1        33 3.12394E-03-7.16285E-04-6.92598E-15
 -1        34 3.40192E-03-7.18299E-04-8.30406E-15
 -1        35 3.68147E-03-7.18751E-04-9.79304E-15
 -1        36 3.96232E-03-7.18074E-04-1.13875E-14
 -1        37 4.24424E-03-7.16555E-04-1.30815E-14
 -1        38 4.52707E-03-7.14371E-04-1.48771E-14
 -1        39 4.81067E-03-7.11610E-04-1.67681E-14
 -1        40 5.09500E-03-7.08300E-04-1.87465E-14
 -1        41 5.38007E-03-7.04428E-04-2.08127E-14
 -1        42 5.66598E-03-6.99959E-04-2.29698E-14
 -1        43 5.95292E-03-6.94867E-04-2.52125E-14
 -1        44 6.24119E-03-6.89158E-04-2.75324E-14
 -1        45 6.53122E-03-6.82907E-04-2.99414E-14
 -1        46 6.82355E-03-6.76309E-04-3.24414E-14
 -1        47 7.11888E-03-6.69734E-04-3.50176E-14
 -1        48 7.41803E-03-6.63803E-04-3.76574E-14
 -1        49 7.72190E-03-6.59473E-04-4.03592E-14
 -1        50 8.03143E-03-6.58130E-04-4.31263E-14
 -1        51 8.34739E-03-6.61662E-04-4.59531E-14
 -1        52 8.67021E-03-6.72476E-04-4.88309E-14
 -1        53 8.99956E-03-6.93383E-04-5.17506E-14
 -1        54 9.33391E-03-7.27238E-04-5.47008E-14
 -1        55 9.67006E-03-7.76191E-04-5.76833E-14
 -1        56 1.00028E-02-8.40477E-04-6.06945E-14
 -1        57 1.03255E-02-9.16847E-04-6.37333E-14
 -1        58 1.06312E-02-9.97223E-04-6.67965E-14
 -1        59 1.09151E-02-1.06862E-03-6.98799E-14
 -1        60 1.11776E-02-1.11545E-03-7.29655E-14
 -1        61 1.14255E-02-1.12420E-03-7.60553E-14
 -1        62 1.16701E-02-1.08867E-03-7.91645E-14
 -1        63 1.19231E-02-1.01244E-03-8.23010E-14
 -1        64 1.21923E-02-9.07013E-04-8.54670E-14
 -1        65 1.24786E-02-7.86745E-04-8.86591E-14
 -1        66 1.27777E-02-6.63739E-04-9.18844E-14
 -1        67 1.30828E-02-5.44978E-04-9.51232E-14
 -1        68 1.33870E-02-4.32053E-04-9.83422E-14
 -1        69 1.36858E-02-3.22542E-04-1.01545E-13
 -1        70 1.39775E-02-2.12093E-04-1.04738E-13
 -1        71 1.42640E-02-9.69879E-05-1.07944E-13
 -1        72 4.13848E-04 2.61459E-04 3.89771E-17
 -1        73 7.03225E-04 4.03726E-04-8.17184E-17
 -1        74 9.74018E-04 5.00192E-04-3.54131E-16
 -1        75 1.23881E-03 5.68900E-04-7.75394E-16
 -1        76 1.50247E-03 6.18228E-04-1.34209E-15
 -1        77 1.76720E-03 6.53493E-04-2.05148E-15
 -1        78 2.03397E-03 6.78382E-04-2.89778E-15
 -1        79 2.30318E-03 6.95578E-04-3.87763E-15
 -1        80 2.57487E-03 7.07092E-04-4.98974E-15
 -1        81 2.84890E-03 7.14440E-04-6.22986E-15
 -1        82 3.12505E-03 7.18764E-04-7.59245E-15
 -1        83 3.40304E-03 7.20911E-04-9.07037E-15
 -1        84 3.68258E-03 7.21497E-04-1.06607E-14
 -1        85 3.96342E-03 7.20951E-04-1.23612E-14
 -1        86 4.24533E-03 7.19560E-04-1.41704E-14
 -1        87 4.52814E-03 7.17495E-04-1.60841E-14
 -1        88 4.81171E-03 7.14841E-04-1.81036E-14
 -1        89 5.09600E-03 7.11616E-04-2.02197E-14
 -1        90 5.38102E-03 7.07791E-04-2.24303E-14
 -1        91 5.66688E-03 7.03314E-04-2.47352E-14
 -1        92 5.95377E-03 6.98125E-04-2.71232E-14
 -1        93 6.24202E-03 6.92186E-04-2.95868E-14
 -1        94 6.53211E-03 6.85513E-04-3.21242E-14
 -1        95 6.82468E-03 6.78226E-04-3.47185E-14
 -1        96 7.12058E-03 6.70607E-04-3.73691E-14
 -1        97 7.42093E-03 6.63195E-04-4.00745E-14
 -1        98 7.72709E-03 6.56909E-04-4.28340E-14
 -1        99 8.04070E-03 6.53218E-04-4.56434E-14
 -1       100 8.36361E-03 6.54352E-04-4.84950E-14
 -1       101 8.69770E-03 6.63546E-04-5.13962E-14
 -1       102 9.04448E-03 6.85259E-04-5.43354E-14
 -1       103 9.40437E-03 7.25177E-04-5.72954E-14
 -1       104 9.77557E-03 7.89707E-04-6.02645E-14
 -1       105 1.01526E-02 8.84384E-04-6.32412E-14
 -1       106 1.05251E-02 1.01065E-03-6.62479E-14
 -1       107 1.08786E-02 1.16106E-03-6.92885E-14
 -1       108 1.11993E-02 1.31541E-03-7.23599E-14
 -1       109 1.14812E-02 1.44226E-03-7.54497E-14
 -1       110 1.17342E-02 1.50989E-03-7.85676E-14
 -1       111 1.19815E-02 1.50254E-03-8.16943E-14
 -1       112 1.22480E-02 1.42941E-03-8.48249E-14
 -1       113 1.25469E-02 1.31859E-03-8.79701E-14
 -1       114 1.28753E-02 1.20128E-03-9.11402E-14
 -1       115 1.32198E-02 1.09868E-03-9.43282E-14
 -1       116 1.35651E-02 1.01848E-03-9.75002E-14
 -1       117 1.38997E-02 9.57821E-04-1.00656E-13
 -1       118 1.42178E-02 9.08112E-04-1.03819E-13
 -1       119 1.45189E-02 8.59061E-04-1.06992E-13
 -1       120 1.48075E-02 8.02180E-04-1.10148E-13
 -1       121 1.51458E-02 6.54624E-04-1.13015E-13
 -1       122 1.52224E-02 5.73481E-04-1.12904E-13
 -1       123 1.53073E-02 5.04769E-04-1.12807E-13
 -1       124 1.53926E-02 4.54340E-04-1.12701E-13
 -1       125 1.54680E-02 4.24577E-04-1.12575E-13
 -1       126 1.55219E-02 4.14278E-04-1.12466E-13
 -1       127 1.55466E-02 4.18282E-04-1.12369E-13
 -1       128 1.55349E-02 4.29130E-04-1.12257E-13
 -1       129 1.54856E-02 4.37728E-04-1.12142E-13
 -1       130 1.54028E-02 4.35834E-04-1.11999E-13
 -1       131 1.52942E-02 4.17862E-04-1.11847E-13
 -1       132 1.51712E-02 3.82414E-04-1.11727E-13
 -1       133 1.50385E-02 3.29179E-04-1.11609E-13
 -1       134 1.49050E-02 2.61597E-04-1.11464E-13
 -1       135 1.47754E-02 1.83595E-04-1.11312E-13
 -1       136 1.46517E-02 1.00255E-04-1.11167E-13
 -1       137 1.38777E-02 4.58365E-04-8.51329E-14
 -1       138 1.37092E-02 6.54698E-04-8.46357E-14
 -1       139 1.34690E-02 8.09156E-04-8.38907E-14
 -1       140 1.31494E-02 9.42048E-04-8.28951E-14
 -1       141 1.27597E-02 1.04679E-03-8.16749E-14
 -1       142 1.22965E-02 1.11673E-03-8.02226E-14
 -1       143 1.18066E-02 1.13899E-03-7.86756E-14
 -1       144 1.12665E-02 1.10678E-03-7.69440E-14
 -1       145 1.08109E-02 1.03323E-03-7.54728E-14
 -1       146 1.03822E-02 9.18248E-04-7.40590E-14
 -1       147 9.98855E-03 7.60215E-04-7.27389E-14
 -1       148 9.70857E-03 5.93858E-04-7.17781E-14
 -1       149 9.52179E-03 4.18394E-04-7.11123E-14
 -1       150 9.42747E-03 2.33092E-04-7.07489E-14
 -1       151 9.43753E-03 4.55932E-05-7.07280E-14
 -1       152 9.55656E-03-1.37158E-04-7.10535E-14
 -1       153 1.00635E-02-4.34721E-04-7.25855E-14
 -1       154 1.04120E-02-5.41076E-04-7.36776E-14
 -1       155 1.08269E-02-6.19706E-04-7.49976E-14
 -1       156 1.12835E-02-6.61423E-04-7.64649E-14
 -1       157 1.17848E-02-6.60944E-04-7.80895E-14
 -1       158 1.22500E-02-6.18562E-04-7.96021E-14
 -1       159 1.26868E-02-5.38868E-04-8.10252E-14
 -1       160 1.30881E-02-4.23000E-04-8.23446E-14
 -1       161 1.34367E-02-2.73316E-04-8.35069E-14
 -1       162 1.36847E-02-1.11997E-04-8.43409E-14
 -1       163 1.38548E-02 6.94128E-05-8.49245E-14
 -1       164 2.40412E-04-1.25531E-04-1.96613E-17
 -1       165 2.25277E-04-9.46291E-05-4.26905E-17
 -1       166 2.19514E-04-7.27879E-05-5.59618E-17
 -1       167 2.16713E-04-5.51124E-05-6.36054E-17
 -1       168 2.15218E-04-3.99734E-05-6.78948E-17
 -1       169 2.14382E-04-2.59217E-05-7.07273E-17
 -1       170 2.13964E-04-1.26477E-05-7.24891E-17
 -1       171 2.13842E-04 2.72549E-07-7.37630E-17
 -1       172 2.13983E-04 1.32051E-05-7.41798E-17
 -1       173 2.14424E-04 2.65190E-05-7.40307E-17
 -1       174 2.15267E-04 4.04013E-05-7.26958E-17
 -1       175 2.16816E-04 5.59233E-05-6.96735E-17
 -1       176 2.19673E-04 7.38270E-05-6.37206E-17
 -1       177 2.25447E-04 9.60291E-05-5.22653E-17
 -1       178 2.39341E-04 1.27608E-04-3.08218E-17
 -1       179 2.97720E-04 1.85515E-04-9.09375E-18
 -1       180 4.68640E-04-2.63577E-04-5.49250E-17
 -1       181 7.66791E-04-3.82187E-04-2.48814E-16
 -1       182 1.05064E-03-4.65092E-04-5.75762E-16
 -1       183 1.32804E-03-5.23890E-04-1.03798E-15
 -1       184 1.60263E-03-5.65600E-04-1.63317E-15
 -1       185 1.87651E-03-5.94909E-04-2.35831E-15
 -1       186 2.15080E-03-6.15119E-04-3.20966E-15
 -1       187 2.42609E-03-6.28650E-04-4.18399E-15
 -1       188 2.70264E-03-6.37306E-04-5.28094E-15
 -1       189 2.98053E-03-6.42440E-04-6.49644E-15
 -1       190 3.25969E-03-6.45053E-04-7.82498E-15
 -1       191 3.54003E-03-6.45876E-04-9.26241E-15
 -1       192 3.82140E-03-6.45426E-04-1.08075E-14
 -1       193 4.10369E-03-6.44053E-04-1.24556E-14
 -1       194 4.38676E-03-6.41975E-04-1.42034E-14
 -1       195 4.67055E-03-6.39309E-04-1.60477E-14
 -1       196 4.95500E-03-6.36097E-04-1.79841E-14
 -1       197 5.24013E-03-6.32326E-04-2.00103E-14
 -1       198 5.52599E-03-6.27953E-04-2.21258E-14
 -1       199 5.81273E-03-6.22921E-04-2.43279E-14
 -1       200 6.10053E-03-6.17193E-04-2.66117E-14
 -1       201 6.38971E-03-6.10776E-04-2.89775E-14
 -1       202 6.68063E-03-6.03771E-04-3.14317E-14
 -1       203 6.97376E-03-5.96420E-04-3.39688E-14
 -1       204 7.26967E-03-5.89180E-04-3.65738E-14
 -1       205 7.56898E-03-5.82810E-04-3.92425E-14
 -1       206 7.87234E-03-5.78466E-04-4.19735E-14
 -1       207 8.18034E-03-5.77804E-04-4.47648E-14
 -1       208 8.49338E-03-5.83053E-04-4.76068E-14
 -1       209 8.81151E-03-5.96999E-04-5.04996E-14
 -1       210 9.13415E-03-6.22788E-04-5.34292E-14
 -1       211 9.45988E-03-6.63401E-04-5.63896E-14
 -1       212 9.78615E-03-7.20642E-04-5.93811E-14
 -1       213 1.01093E-02-7.93601E-04-6.24007E-14
 -1       214 1.04251E-02-8.76866E-04-6.54483E-14
 -1       215 1.07297E-02-9.59375E-04-6.85147E-14
 -1       216 1.10214E-02-1.02527E-03-7.15919E-14
 -1       217 1.13018E-02-1.05779E-03-7.46767E-14
 -1       218 1.15764E-02-1.04534E-03-7.77751E-14
 -1       219 1.18522E-02-9.86437E-04-8.08965E-14
 -1       220 1.21350E-02-8.90215E-04-8.40448E-14
 -1       221 1.24271E-02-7.71866E-04-8.72188E-14
 -1       222 1.27272E-02-6.46371E-04-9.04165E-14
 -1       223 1.30315E-02-5.23966E-04-9.36399E-14
 -1       224 1.33359E-02-4.08705E-04-9.68642E-14
 -1       225 1.36370E-02-2.99434E-04-1.00073E-13
 -1       226 1.39331E-02-1.91832E-04-1.03276E-13
 -1       227 1.42239E-02-8.07875E-05-1.06477E-13
 -1       228 6.04586E-04 3.31071E-04-1.46384E-16
 -1       229 8.93686E-04 4.32707E-04-4.25380E-16
 -1       230 1.17258E-03 5.04474E-04-8.47616E-16
 -1       231 1.44692E-03 5.55581E-04-1.41120E-15
 -1       232 1.71973E-03 5.91848E-04-2.11409E-15
 -1       233 1.99261E-03 6.17252E-04-2.95253E-15
 -1       234 2.26641E-03 6.34663E-04-3.92310E-15
 -1       235 2.54153E-03 6.46208E-04-5.02327E-15
 -1       236 2.81811E-03 6.53481E-04-6.24847E-15
 -1       237 3.09612E-03 6.57674E-04-7.59496E-15
 -1       238 3.37547E-03 6.59669E-04-9.05767E-15
 -1       239 3.65601E-03 6.60101E-04-1.06326E-14
 -1       240 3.93759E-03 6.59412E-04-1.23172E-14
 -1       241 4.22006E-03 6.57893E-04-1.41080E-14
 -1       242 4.50331E-03 6.55717E-04-1.60029E-14
 -1       243 4.78727E-03 6.52964E-04-1.80011E-14
 -1       244 5.07190E-03 6.49643E-04-2.00989E-14
 -1       245 5.35724E-03 6.45715E-04-2.22892E-14
 -1       246 5.64339E-03 6.41110E-04-2.45717E-14
 -1       247 5.93053E-03 6.35746E-04-2.69412E-14
 -1       248 6.21892E-03 6.29557E-04-2.93876E-14
 -1       249 6.50897E-03 6.22523E-04-3.19063E-14
 -1       250 6.80118E-03 6.14712E-04-3.44832E-14
 -1       251 7.09625E-03 6.06348E-04-3.71185E-14
 -1       252 7.39501E-03 5.97893E-04-3.98138E-14
 -1       253 7.69849E-03 5.90174E-04-4.25634E-14
 -1       254 8.00789E-03 5.84553E-04-4.53625E-14
 -1       255 8.32451E-03 5.83150E-04-4.82039E-14
 -1       256 8.64962E-03 5.89115E-04-5.10947E-14
 -1       257 8.98423E-03 6.06887E-04-5.40231E-14
 -1       258 9.32865E-03 6.42307E-04-5.69741E-14
 -1       259 9.68185E-03 7.02250E-04-5.99385E-14
 -1       260 1.00407E-02 7.93212E-04-6.29204E-14
 -1       261 1.03994E-02 9.18163E-04-6.59263E-14
 -1       262 1.07496E-02 1.07139E-03-6.89622E-14
 -1       263 1.10827E-02 1.23348E-03-7.20208E-14
 -1       264 1.13942E-02 1.37145E-03-7.50982E-14
 -1       265 1.16882E-02 1.44951E-03-7.82014E-14
 -1       266 1.19769E-02 1.44778E-03-8.13214E-14
 -1       267 1.22747E-02 1.37427E-03-8.44516E-14
 -1       268 1.25891E-02 1.25930E-03-8.75957E-14
 -1       269 1.29187E-02 1.13728E-03-9.07614E-14
 -1       270 1.32557E-02 1.03165E-03-9.39379E-14
 -1       271 1.35911E-02 9.50814E-04-9.71086E-14
 -1       272 1.39183E-02 8.91646E-04-1.00266E-13
 -1       273 1.42335E-02 8.44886E-04-1.03431E-13
 -1       274 1.45363E-02 7.99356E-04-1.06599E-13
 -1       275 1.48290E-02 7.45410E-04-1.09760E-13
 -1       276 1.49361E-02 6.73324E-04-1.10221E-13
 -1       277 1.50206E-02 5.99610E-04-1.10104E-13
 -1       278 1.51111E-02 5.37065E-04-1.09987E-13
 -1       279 1.51976E-02 4.87794E-04-1.09864E-13
 -1       280 1.52675E-02 4.52611E-04-1.09743E-13
 -1       281 1.53118E-02 4.28305E-04-1.09632E-13
 -1       282 1.53203E-02 4.11320E-04-1.09518E-13
 -1       283 1.52891E-02 3.95857E-04-1.09400E-13
 -1       284 1.52198E-02 3.75933E-04-1.09273E-13
 -1       285 1.51191E-02 3.46775E-04-1.09142E-13
 -1       286 1.49990E-02 3.06512E-04-1.09015E-13
 -1       287 1.48652E-02 2.53318E-04-1.08883E-13
 -1       288 1.47280E-02 1.89059E-04-1.08745E-13
 -1       289 1.45937E-02 1.16017E-04-1.08598E-13
 -1       290 1.44068E-02 1.88535E-05-1.07541E-13
 -1       291 1.39377E-02 3.27276E-04-8.64259E-14
 -1       292 1.37889E-02 4.44253E-04-8.61725E-14
 -1       293 1.35140E-02 5.95938E-04-8.53654E-14
 -1       294 1.31772E-02 7.60960E-04-8.43483E-14
 -1       295 1.27972E-02 9.37238E-04-8.30461E-14
 -1       296 1.23944E-02 1.09723E-03-8.14723E-14
 -1       297 1.19855E-02 1.20080E-03-7.97250E-14
 -1       298 1.15773E-02 1.21349E-03-7.77787E-14
 -1       299 1.11608E-02 1.10821E-03-7.59125E-14
 -1       300 1.07753E-02 9.41917E-04-7.41575E-14
 -1       301 1.03632E-02 7.19364E-04-7.24290E-14
 -1       302 9.94637E-03 5.35890E-04-7.13139E-14
 -1       303 9.64624E-03 3.76376E-04-7.03669E-14
 -1       304 9.45129E-03 2.46919E-04-6.96808E-14
 -1       305 9.39027E-03 1.44894E-04-6.94423E-14
 -1       306 9.48334E-03 3.70701E-05-6.96925E-14
 -1       307 9.71704E-03-8.11657E-05-7.01042E-14
 -1       308 1.00286E-02-2.46512E-04-7.11585E-14
 -1       309 1.03852E-02-4.11842E-04-7.23194E-14
 -1       310 1.07627E-02-5.70282E-04-7.37309E-14
 -1       311 1.11478E-02-6.91530E-04-7.53606E-14
 -1       312 1.15416E-02-7.45555E-04-7.71614E-14
 -1       313 1.19340E-02-7.02892E-04-7.90066E-14
 -1       314 1.23209E-02-5.86590E-04-8.07297E-14
 -1       315 1.27130E-02-4.14201E-04-8.23921E-14
 -1       316 1.31183E-02-2.18445E-04-8.38665E-14
 -1       317 1.34827E-02-4.66590E-05-8.49765E-14
 -1       318 1.37553E-02 1.19651E-04-8.61402E-14
 -1       319 1.39255E-02 2.22449E-04-8.64069E-14
 -1       320 4.55392E-04-1.64835E-04-1.90427E-16
 -1       321 4.74268E-04-2.13011E-04-1.51422E-16
 -1       322 4.40439E-04-9.40389E-05-2.30976E-16
 -1       323 4.37480E-04-6.49295E-05-2.41238E-16
 -1       324 4.35860E-04-3.79163E-05-2.48245E-16
 -1       325 4.35151E-04-1.20212E-05-2.52724E-16
 -1       326 4.35182E-04 1.35390E-05-2.55031E-16
 -1       327 4.35958E-04 3.94912E-05-2.55265E-16
 -1       328 4.37624E-04 6.61534E-05-2.52792E-16
 -1       329 4.40679E-04 9.54330E-05-2.46426E-16
 -1       330 4.46067E-04 1.28348E-04-2.34723E-16
 -1       331 4.55902E-04 1.67330E-04-2.14282E-16
 -1       332 4.75898E-04 2.17072E-04-1.79686E-16
 -1       333 5.32029E-04 2.70002E-04-1.70501E-16
 -1       334 8.24513E-04 3.73556E-04-4.50998E-16
 -1       335 8.63286E-04-3.57451E-04-4.90327E-16
 -1       336 1.14964E-03-4.26231E-04-9.06969E-16
 -1       337 1.43242E-03-4.75422E-04-1.45424E-15
 -1       338 1.71314E-03-5.10172E-04-2.13023E-15
 -1       339 1.99290E-03-5.34280E-04-2.93251E-15
 -1       340 2.27249E-03-5.50565E-04-3.85676E-15
 -1       341 2.55235E-03-5.61136E-04-4.90120E-15
 -1       342 2.83276E-03-5.67575E-04-6.06448E-15
 -1       343 3.11383E-03-5.71060E-04-7.34287E-15
 -1       344 3.39560E-03-5.72455E-04-8.73129E-15
 -1       345 3.67803E-03-5.72380E-04-1.02260E-14
 -1       346 3.96109E-03-5.71258E-04-1.18274E-14
 -1       347 4.24472E-03-5.69365E-04-1.35290E-14
 -1       348 4.52888E-03-5.66857E-04-1.53290E-14
 -1       349 4.81355E-03-5.63803E-04-1.72215E-14
 -1       350 5.09873E-03-5.60205E-04-1.92056E-14
 -1       351 5.38446E-03-5.56020E-04-2.12813E-14
 -1       352 5.67082E-03-5.51180E-04-2.34433E-14
 -1       353 5.95793E-03-5.45620E-04-2.56904E-14
 -1       354 6.24598E-03-5.39301E-04-2.80184E-14
 -1       355 6.53520E-03-5.32248E-04-3.04287E-14
 -1       356 6.82590E-03-5.24599E-04-3.29247E-14
 -1       357 7.11844E-03-5.16663E-04-3.54960E-14
 -1       358 7.41325E-03-5.09001E-04-3.81309E-14
 -1       359 7.71082E-03-5.02520E-04-4.08285E-14
 -1       360 8.01168E-03-4.98575E-04-4.35853E-14
 -1       361 8.31632E-03-4.99076E-04-4.63987E-14
 -1       362 8.62522E-03-5.06543E-04-4.92580E-14
 -1       363 8.93868E-03-5.24056E-04-5.21637E-14
 -1       364 9.25667E-03-5.54979E-04-5.51029E-14
 -1       365 9.57862E-03-6.02302E-04-5.80748E-14
 -1       366 9.90303E-03-6.67396E-04-6.10763E-14
 -1       367 1.02272E-02-7.48163E-04-6.41045E-14
 -1       368 1.05473E-02-8.36937E-04-6.71560E-14
 -1       369 1.08596E-02-9.19401E-04-7.02221E-14
 -1       370 1.11622E-02-9.76459E-04-7.32983E-14
 -1       371 1.14573E-02-9.90343E-04-7.63861E-14
 -1       372 1.17506E-02-9.52604E-04-7.94962E-14
 -1       373 1.20483E-02-8.68480E-04-8.26285E-14
 -1       374 1.23531E-02-7.53667E-04-8.57867E-14
 -1       375 1.26638E-02-6.26368E-04-8.89670E-14
 -1       376 1.29766E-02-5.00443E-04-9.21705E-14
 -1       377 1.32876E-02-3.82659E-04-9.53867E-14
 -1       378 1.35940E-02-2.73377E-04-9.85981E-14
 -1       379 1.38942E-02-1.68736E-04-1.01804E-13
 -1       380 1.41527E-02-7.75176E-05-1.04669E-13
 -1       381 1.10999E-03 4.47895E-04-8.69964E-16
 -1       382 1.39074E-03 5.00976E-04-1.42735E-15
 -1       383 1.66905E-03 5.38605E-04-2.12140E-15
 -1       384 1.94644E-03 5.64901E-04-2.94909E-15
 -1       385 2.22385E-03 5.82869E-04-3.90702E-15
 -1       386 2.50181E-03 5.94740E-04-4.99343E-15
 -1       387 2.78060E-03 6.02184E-04-6.20362E-15
 -1       388 3.06032E-03 6.06449E-04-7.53384E-15
 -1       389 3.34097E-03 6.08454E-04-8.97929E-15
 -1       390 3.62250E-03 6.08862E-04-1.05378E-14
 -1       391 3.90483E-03 6.08134E-04-1.22053E-14
 -1       392 4.18787E-03 6.06572E-04-1.39774E-14
 -1       393 4.47156E-03 6.04356E-04-1.58541E-14
 -1       394 4.75586E-03 6.01568E-04-1.78324E-14
 -1       395 5.04074E-03 5.98217E-04-1.99099E-14
 -1       396 5.32624E-03 5.94259E-04-2.20806E-14
 -1       397 5.61245E-03 5.89614E-04-2.43440E-14
 -1       398 5.89950E-03 5.84189E-04-2.66958E-14
 -1       399 6.18763E-03 5.77899E-04-2.91254E-14
 -1       400 6.47713E-03 5.70698E-04-3.16269E-14
 -1       401 6.76840E-03 5.62621E-04-3.41890E-14
 -1       402 7.06195E-03 5.53842E-04-3.68116E-14
 -1       403 7.35842E-03 5.44762E-04-3.94934E-14
 -1       404 7.65858E-03 5.36123E-04-4.22312E-14
 -1       405 7.96329E-03 5.29173E-04-4.50207E-14
 -1       406 8.27355E-03 5.25889E-04-4.78537E-14
 -1       407 8.59038E-03 5.29243E-04-5.07340E-14
 -1       408 8.91476E-03 5.43485E-04-5.36531E-14
 -1       409 9.24744E-03 5.74324E-04-5.65969E-14
 -1       410 9.58861E-03 6.28722E-04-5.95570E-14
 -1       411 9.93745E-03 7.13793E-04-6.25368E-14
 -1       412 1.02913E-02 8.34098E-04-6.55426E-14
 -1       413 1.06449E-02 9.86648E-04-6.85733E-14
 -1       414 1.09906E-02 1.15449E-03-7.16263E-14
 -1       415 1.13218E-02 1.30460E-03-7.46950E-14
 -1       416 1.16384E-02 1.39619E-03-7.77864E-14
 -1       417 1.19493E-02 1.40290E-03-8.08995E-14
 -1       418 1.22666E-02 1.33033E-03-8.40290E-14
 -1       419 1.25962E-02 1.21168E-03-8.71696E-14
 -1       420 1.29348E-02 1.08548E-03-9.03303E-14
 -1       421 1.32747E-02 9.77338E-04-9.35000E-14
 -1       422 1.36091E-02 8.96016E-04-9.66669E-14
 -1       423 1.39337E-02 8.38099E-04-9.98251E-14
 -1       424 1.42470E-02 7.93947E-04-1.02988E-13
 -1       425 1.45492E-02 7.52009E-04-1.06156E-13
 -1       426 1.47444E-02 7.15296E-04-1.08190E-13
 -1       427 1.49158E-02 5.43332E-04-1.07154E-13
 -1       428 1.48209E-02 6.07405E-04-1.07283E-13
 -1       429 1.47794E-02 6.59439E-04-1.07737E-13
 -1       430 1.50000E-02 4.90689E-04-1.07025E-13
 -1       431 1.50639E-02 4.47468E-04-1.06898E-13
 -1       432 1.50943E-02 4.12370E-04-1.06777E-13
 -1       433 1.50836E-02 3.80992E-04-1.06656E-13
 -1       434 1.50305E-02 3.47897E-04-1.06540E-13
 -1       435 1.49402E-02 3.08265E-04-1.06422E-13
 -1       436 1.48247E-02 2.60117E-04-1.06298E-13
 -1       437 1.46912E-02 2.01201E-04-1.06167E-13
 -1       438 1.45514E-02 1.33389E-04-1.06028E-13
 -1       439 1.44128E-02 5.86437E-05-1.05888E-13
 -1       440 1.36388E-02 4.58241E-04-8.71516E-14
 -1       441 1.39721E-02 2.83842E-04-8.79455E-14
 -1       442 1.39004E-02 3.45207E-04-8.79855E-14
 -1       443 1.33049E-02 6.15276E-04-8.59627E-14
 -1       444 1.29169E-02 8.02696E-04-8.47963E-14
 -1       445 4.45679E-04-1.26442E-04-2.15089E-16
 -1       446 1.21550E-02 1.17345E-03-8.10792E-14
 -1       447 1.17964E-02 1.25563E-03-7.90346E-14
 -1       448 1.13837E-02 1.18785E-03-7.64410E-14
 -1       449 1.10757E-02 1.04903E-03-7.46897E-14
 -1       450 1.06605E-02 8.11196E-04-7.26093E-14
 -1       451 1.01584E-02 5.24453E-04-7.04616E-14
 -1       452 9.84924E-03 3.78359E-04-6.95194E-14
 -1       453 9.54344E-03 2.55033E-04-6.88328E-14
 -1       454 9.38450E-03 1.70458E-04-6.80278E-14
 -1       455 9.40358E-03 1.11646E-04-6.78597E-14
 -1       456 9.55604E-03 4.64161E-05-6.82660E-14
 -1       457 9.91706E-03-1.13229E-04-6.95673E-14
 -1       458 1.02633E-02-2.78592E-04-7.07073E-14
 -1       459 1.06412E-02-4.71450E-04-7.22081E-14
 -1       460 1.10136E-02-6.47862E-04-7.38777E-14
 -1       461 1.13551E-02-7.55886E-04-7.59440E-14
 -1       462 1.17200E-02-7.66694E-04-7.81805E-14
 -1       463 1.20553E-02-6.67449E-04-8.02576E-14
 -1       464 1.24199E-02-4.92145E-04-8.21500E-14
 -1       465 1.28355E-02-2.59357E-04-8.41744E-14
 -1       466 1.32649E-02-5.14481E-05-8.55680E-14
 -1       467 1.35782E-02 9.53040E-05-8.67321E-14
 -1       468 1.38812E-02 2.19751E-04-8.76175E-14
 -1       469 1.25218E-02 1.01028E-03-8.30810E-14
 -1       470 1.37625E-02 1.86945E-04-8.82102E-14
 -1       471 9.69238E-03-2.27522E-06-6.77283E-14
 -1       472 9.31263E-04 3.46089E-04-7.20452E-16
 -1       473 6.65845E-04-7.51574E-05-5.20573E-16
 -1       474 6.69806E-04-1.15927E-04-5.04154E-16
 -1       475 6.63178E-04 1.10438E-06-5.38215E-16
 -1       476 6.63897E-04 3.87782E-05-5.40390E-16
 -1       477 6.66033E-04 7.68428E-05-5.38167E-16
 -1       478 6.70119E-04 1.17764E-04-5.30168E-16
 -1       479 6.77120E-04 1.62389E-04-5.14332E-16
 -1       480 6.89029E-04 2.12757E-04-4.87718E-16
 -1       481 1.21715E-03 4.06596E-04-1.22447E-15
 -1       482 9.76306E-04-3.28685E-04-7.63234E-16
 -1       483 1.27147E-02 9.05203E-04-8.51103E-14
 -1       484 1.26221E-03-3.83589E-04-1.26428E-15
 -1       485 1.54724E-03-4.23354E-04-1.89284E-15
 -1       486 1.83136E-03-4.51424E-04-2.64704E-15
 -1       487 2.11490E-03-4.70696E-04-3.52299E-15
 -1       488 2.39816E-03-4.83456E-04-4.51785E-15
 -1       489 2.68140E-03-4.91465E-04-5.63041E-15
 -1       490 2.96478E-03-4.96057E-04-6.85811E-15
 -1       491 3.24839E-03-4.98225E-04-8.19810E-15
 -1       492 3.53229E-03-4.98690E-04-9.64513E-15
 -1       493 3.81648E-03-4.97958E-04-1.11974E-14
 -1       494 4.10096E-03-4.96366E-04-1.28523E-14
 -1       495 4.38573E-03-4.94119E-04-1.46070E-14
 -1       496 4.67079E-03-4.91321E-04-1.64580E-14
 -1       497 4.95613E-03-4.87997E-04-1.84001E-14
 -1       498 5.24179E-03-4.84120E-04-2.04357E-14
 -1       499 5.52780E-03-4.79623E-04-2.25582E-14
 -1       500 5.81421E-03-4.74429E-04-2.47669E-14
 -1       501 6.10114E-03-4.68470E-04-2.70597E-14
 -1       502 6.38868E-03-4.61716E-04-2.94309E-14
 -1       503 6.67703E-03-4.54217E-04-3.18858E-14
 -1       504 6.96637E-03-4.46153E-04-3.44201E-14
 -1       505 7.25699E-03-4.37894E-04-3.70233E-14
 -1       506 7.54923E-03-4.30088E-04-3.96901E-14
 -1       507 7.84352E-03-4.23749E-04-4.24150E-14
 -1       508 8.14044E-03-4.20367E-04-4.51964E-14
 -1       509 8.44070E-03-4.22006E-04-4.80287E-14
 -1       510 8.74522E-03-4.31361E-04-5.09073E-14
 -1       511 9.05506E-03-4.51718E-04-5.38232E-14
 -1       512 9.37125E-03-4.86695E-04-5.67748E-14
 -1       513 9.69439E-03-5.39564E-04-5.97585E-14
 -1       514 1.00238E-02-6.11842E-04-6.27675E-14
 -1       515 1.03566E-02-7.00837E-04-6.58009E-14
 -1       516 1.06874E-02-7.96510E-04-6.88548E-14
 -1       517 1.10105E-02-8.79725E-04-7.19196E-14
 -1       518 1.13237E-02-9.25692E-04-7.49971E-14
 -1       519 1.16314E-02-9.14936E-04-7.80946E-14
 -1       520 1.19420E-02-8.45249E-04-8.12132E-14
 -1       521 1.22608E-02-7.32780E-04-8.43584E-14
 -1       522 1.25868E-02-6.01465E-04-8.75240E-14
 -1       523 1.29144E-02-4.70560E-04-9.07128E-14
 -1       524 1.32377E-02-3.50024E-04-9.39146E-14
 -1       525 1.35533E-02-2.41341E-04-9.71233E-14
 -1       526 1.38598E-02-1.40726E-04-1.00326E-13
 -1       527 1.78399E-03 4.81188E-04-2.63199E-15
 -1       528 2.06598E-03 5.02545E-04-3.52999E-15
 -1       529 2.34771E-03 5.16854E-04-4.55438E-15
 -1       530 2.62954E-03 5.26018E-04-5.70253E-15
 -1       531 2.91166E-03 5.31474E-04-6.97117E-15
 -1       532 3.19420E-03 5.34291E-04-8.35642E-15
 -1       533 3.47718E-03 5.35249E-04-9.85419E-15
 -1       534 3.76063E-03 5.34898E-04-1.14609E-14
 -1       535 4.04450E-03 5.33611E-04-1.31738E-14
 -1       536 4.32880E-03 5.31620E-04-1.49902E-14
 -1       537 4.61349E-03 5.29044E-04-1.69077E-14
 -1       538 4.89857E-03 5.25921E-04-1.89236E-14
 -1       539 5.18407E-03 5.22223E-04-2.10368E-14
 -1       540 5.47002E-03 5.17879E-04-2.32420E-14
 -1       541 5.75650E-03 5.12789E-04-2.55400E-14
 -1       542 6.04364E-03 5.06851E-04-2.79195E-14
 -1       543 6.33159E-03 4.99980E-04-3.03730E-14
 -1       544 6.62055E-03 4.92149E-04-3.28946E-14
 -1       545 6.91080E-03 4.83430E-04-3.54769E-14
 -1       546 7.20266E-03 4.74065E-04-3.81218E-14
 -1       547 7.49652E-03 4.64559E-04-4.08238E-14
 -1       548 7.79288E-03 4.55807E-04-4.35820E-14
 -1       549 8.09230E-03 4.49270E-04-4.63865E-14
 -1       550 8.39554E-03 4.47195E-04-4.92382E-14
 -1       551 8.70358E-03 4.52886E-04-5.21345E-14
 -1       552 9.01775E-03 4.70969E-04-5.50603E-14
 -1       553 9.33989E-03 5.07570E-04-5.80065E-14
 -1       554 9.67223E-03 5.70117E-04-6.09754E-14
 -1       555 1.00168E-02 6.66234E-04-6.39670E-14
 -1       556 1.03740E-02 8.00945E-04-6.69858E-14
 -1       557 1.07388E-02 9.69808E-04-7.00259E-14
 -1       558 1.11011E-02 1.14925E-03-7.30805E-14
 -1       559 1.14494E-02 1.29231E-03-7.61514E-14
 -1       560 1.17866E-02 1.34859E-03-7.92504E-14
 -1       561 1.21247E-02 1.30219E-03-8.23648E-14
 -1       562 1.24756E-02 1.18379E-03-8.54999E-14
 -1       563 1.28346E-02 1.04583E-03-8.86463E-14
 -1       564 1.31900E-02 9.25474E-04-9.18053E-14
 -1       565 1.35333E-02 8.36085E-04-9.49655E-14
 -1       566 1.38616E-02 7.75218E-04-9.81237E-14
 -1       567 1.41761E-02 7.33269E-04-1.01282E-13
 -1       568 1.44788E-02 6.98471E-04-1.04451E-13
 -1       569 1.48044E-02 4.71059E-04-1.04184E-13
 -1       570 1.48595E-02 4.22302E-04-1.04048E-13
 -1       571 1.46223E-02 5.97732E-04-1.04459E-13
 -1       572 1.47207E-02 5.29338E-04-1.04320E-13
 -1       573 1.48730E-02 3.80307E-04-1.03923E-13
 -1       574 1.48390E-02 3.39130E-04-1.03805E-13
 -1       575 1.47604E-02 2.92455E-04-1.03690E-13
 -1       576 1.46495E-02 2.37177E-04-1.03572E-13
 -1       577 1.45156E-02 1.70558E-04-1.03442E-13
 -1       578 1.43728E-02 9.52190E-05-1.03309E-13
 -1       579 1.42300E-02 1.40981E-05-1.03173E-13
 -1       580 1.39952E-02 3.11660E-04-8.96660E-14
 -1       581 1.34662E-02 5.18639E-04-8.78122E-14
 -1       582 1.50125E-03 4.50285E-04-1.86205E-15
 -1       583 1.39763E-02 2.69246E-04-8.93781E-14
 -1       584 1.38012E-02 3.85514E-04-8.89170E-14
 -1       585 7.12653E-04-2.51776E-04-4.28673E-16
 -1       586 1.30820E-02-1.03759E-04-8.62836E-14
 -1       587 9.33459E-03 1.34598E-04-6.62294E-14
 -1       588 1.08950E-02 9.35910E-04-7.28881E-14
 -1       589 1.20190E-02 1.23996E-03-8.08559E-14
 -1       590 6.63786E-04-3.65339E-05-5.31700E-16
 -1       591 1.15981E-02 1.26702E-03-7.76554E-14
 -1       592 1.04275E-02 6.50640E-04-7.05161E-14
 -1       593 1.12442E-02 1.13358E-03-7.51644E-14
 -1       594 9.43375E-03 1.89260E-04-6.69919E-14
 -1       595 9.96371E-03 4.03646E-04-6.85335E-14
 -1       596 1.00812E-02-1.71989E-04-6.87374E-14
 -1       597 9.63796E-03 2.64547E-04-6.76232E-14
 -1       598 9.43858E-03 8.58156E-05-6.64635E-14
 -1       599 1.04576E-02-3.64902E-04-7.02971E-14
 -1       600 1.07876E-02-5.43097E-04-7.19580E-14
 -1       601 1.12158E-02-7.35775E-04-7.46713E-14
 -1       602 1.15128E-02-7.94390E-04-7.68001E-14
 -1       603 1.18425E-02-7.52016E-04-7.93634E-14
 -1       604 1.22255E-02-5.78697E-04-8.18979E-14
 -1       605 1.25795E-02-3.78740E-04-8.39241E-14
 -1       606 1.33849E-02 4.08068E-05-8.74465E-14
 -1       607 1.23479E-02 1.10071E-03-8.29818E-14
 -1       608 7.03822E-04 2.90938E-04-4.04390E-16
 -1       609 1.31358E-02 6.74883E-04-8.66469E-14
 -1       610 6.76595E-04-1.60164E-04-4.80908E-16
 -1       611 1.28504E-02-2.33435E-04-8.60380E-14
 -1       612 1.39171E-02 2.43265E-04-8.99718E-14
 -1       613 1.09817E-02-6.57871E-04-7.27439E-14
 -1       614 1.39606E-02 3.46263E-04-9.05997E-14
 -1       615 1.40593E-02-7.58074E-05-1.02490E-13
 -1       616 1.36085E-02 1.32803E-04-8.89243E-14
 -1       617 1.18773E-02 1.27353E-03-7.98189E-14
 -1       618 8.99803E-04 7.41391E-05-9.24303E-16
 -1       619 8.97718E-04 2.51877E-05-9.24038E-16
 -1       620 9.11851E-04 1.78285E-04-8.99234E-16
 -1       621 9.24212E-04 2.36857E-04-8.69235E-16
 -1       622 1.04889E-03 3.13996E-04-1.01812E-15
 -1       623 9.30402E-03 1.02552E-04-6.44705E-14
 -1       624 1.32842E-02-1.75066E-05-8.84090E-14
 -1       625 1.38330E-03-3.37149E-04-1.64925E-15
 -1       626 1.66950E-03-3.68077E-04-2.35529E-15
 -1       627 1.95571E-03-3.89863E-04-3.18358E-15
 -1       628 2.24176E-03-4.04656E-04-4.13050E-15
 -1       629 2.52761E-03-4.14238E-04-5.19414E-15
 -1       630 2.81333E-03-4.20018E-04-6.37259E-15
 -1       631 3.09895E-03-4.23072E-04-7.66379E-15
 -1       632 3.38453E-03-4.24203E-04-9.06306E-15
 -1       633 3.67009E-03-4.23983E-04-1.05682E-14
 -1       634 3.95566E-03-4.22810E-04-1.21767E-14
 -1       635 4.24125E-03-4.20936E-04-1.38854E-14
 -1       636 4.52688E-03-4.18503E-04-1.56934E-14
 -1       637 4.81256E-03-4.15567E-04-1.75945E-14
 -1       638 5.09829E-03-4.12122E-04-1.95884E-14
 -1       639 5.38408E-03-4.08117E-04-2.16737E-14
 -1       640 5.66996E-03-4.03475E-04-2.38425E-14
 -1       641 5.95594E-03-3.98114E-04-2.60990E-14
 -1       642 6.24205E-03-3.91970E-04-2.84348E-14
 -1       643 6.52835E-03-3.85028E-04-3.08492E-14
 -1       644 6.81491E-03-3.77359E-04-3.33470E-14
 -1       645 7.10185E-03-3.69169E-04-3.59171E-14
 -1       646 7.38937E-03-3.60859E-04-3.85523E-14
 -1       647 7.67776E-03-3.53105E-04-4.12503E-14
 -1       648 7.96751E-03-3.46943E-04-4.40020E-14
 -1       649 8.25937E-03-3.43872E-04-4.68072E-14
 -1       650 8.55449E-03-3.45961E-04-4.96586E-14
 -1       651 8.85450E-03-3.55959E-04-5.25537E-14
 -1       652 9.16157E-03-3.77365E-04-5.54824E-14
 -1       653 9.47816E-03-4.14371E-04-5.84449E-14
 -1       654 9.80631E-03-4.71376E-04-6.14376E-14
 -1       655 1.01460E-02-5.51370E-04-6.44543E-14
 -1       656 1.04931E-02-6.52061E-04-6.74916E-14
 -1       657 1.08390E-02-7.59896E-04-7.05414E-14
 -1       658 1.11749E-02-8.45729E-04-7.36096E-14
 -1       659 1.14995E-02-8.74318E-04-7.66922E-14
 -1       660 1.18230E-02-8.26232E-04-7.98031E-14
 -1       661 1.21560E-02-7.14765E-04-8.29332E-14
 -1       662 1.24999E-02-5.73835E-04-8.60868E-14
 -1       663 1.28467E-02-4.32672E-04-8.92609E-14
 -1       664 1.31866E-02-3.07464E-04-9.24483E-14
 -1       665 1.35144E-02-1.99710E-04-9.56450E-14
 -1       666 1.38288E-02-1.04545E-04-9.88455E-14
 -1       667 2.19067E-03 4.37557E-04-4.12012E-15
 -1       668 1.13473E-02-7.90514E-04-7.54120E-14
 -1       669 1.90568E-03 4.20806E-04-3.15519E-15
 -1       670 2.76010E-03 4.55364E-04-6.41585E-15
 -1       671 3.04478E-03 4.59160E-04-7.73996E-15
 -1       672 3.32953E-03 4.60824E-04-9.17828E-15
 -1       673 3.61439E-03 4.60994E-04-1.07269E-14
 -1       674 3.89938E-03 4.60110E-04-1.23804E-14
 -1       675 4.18451E-03 4.58457E-04-1.41390E-14
 -1       676 4.46980E-03 4.56201E-04-1.59980E-14
 -1       677 4.75524E-03 4.53412E-04-1.79541E-14
 -1       678 5.04085E-03 4.50091E-04-2.00086E-14
 -1       679 5.32664E-03 4.46184E-04-2.21579E-14
 -1       680 5.61264E-03 4.41603E-04-2.43980E-14
 -1       681 5.89889E-03 4.36246E-04-2.67275E-14
 -1       682 6.18542E-03 4.30013E-04-2.91333E-14
 -1       683 6.47230E-03 4.22842E-04-3.16101E-14
 -1       684 6.75960E-03 4.14738E-04-3.41532E-14
 -1       685 7.04740E-03 4.05830E-04-3.67593E-14
 -1       686 7.33580E-03 3.96436E-04-3.94262E-14
 -1       687 7.62494E-03 3.87157E-04-4.21508E-14
 -1       688 7.91504E-03 3.78998E-04-4.49247E-14
 -1       689 8.20646E-03 3.73523E-04-4.77484E-14
 -1       690 8.49988E-03 3.73046E-04-5.06178E-14
 -1       691 8.79657E-03 3.80861E-04-5.35255E-14
 -1       692 9.09873E-03 4.01530E-04-5.64587E-14
 -1       693 9.41004E-03 4.41249E-04-5.94157E-14
 -1       694 9.73574E-03 5.08147E-04-6.23933E-14
 -1       695 1.00807E-02 6.11859E-04-6.53968E-14
 -1       696 1.04517E-02 7.61956E-04-6.84247E-14
 -1       697 1.08378E-02 9.54783E-04-7.14640E-14
 -1       698 1.27320E-02 1.00114E-03-8.69711E-14
 -1       699 1.31116E-02 8.62347E-04-9.01193E-14
 -1       700 1.34697E-02 7.65156E-04-9.32706E-14
 -1       701 1.38040E-02 7.04095E-04-9.64220E-14
 -1       702 1.41190E-02 6.66743E-04-9.95791E-14
 -1       703 1.43752E-02 6.29772E-04-1.02014E-13
 -1       704 1.46493E-02 3.40754E-04-1.01086E-13
 -1       705 1.40318E-02-4.54715E-05-1.01010E-13
 -1       706 1.46140E-02 4.37610E-04-1.01350E-13
 -1       707 1.45850E-02 2.91275E-04-1.00966E-13
 -1       708 1.46583E-02 3.86463E-04-1.01213E-13
 -1       709 1.40676E-02 2.98998E-04-9.14700E-14
 -1       710 1.44777E-02 2.31743E-04-1.00850E-13
 -1       711 1.43405E-02 1.57846E-04-1.00725E-13
 -1       712 1.41919E-02 7.29930E-05-1.00594E-13
 -1       713 9.54419E-03 3.08748E-05-6.57019E-14
 -1       714 1.36866E-02 4.48083E-04-8.99048E-14
 -1       715 8.72356E-04-2.47215E-04-7.00889E-16
 -1       716 1.23988E-02 1.13596E-03-8.42407E-14
 -1       717 9.70710E-03 3.00154E-04-6.63318E-14
 -1       718 1.62033E-03 3.96319E-04-2.31471E-15
 -1       719 1.06153E-02 7.90235E-04-7.04539E-14
 -1       720 2.47543E-03 4.48558E-04-5.20784E-15
 -1       721 1.30402E-02 7.65555E-04-8.77781E-14
 -1       722 1.12693E-03-2.97190E-04-1.12536E-15
 -1       723 1.33462E-03 3.61640E-04-1.60123E-15
 -1       724 1.20830E-02-6.70470E-04-8.15688E-14
 -1       725 9.85503E-03-9.48626E-05-6.67051E-14
 -1       726 9.04244E-04 1.24660E-04-9.16574E-16
 -1       727 9.03868E-04-1.22248E-04-8.82347E-16
 -1       728 1.01515E-02 5.13569E-04-6.81740E-14
 -1       729 1.10937E-02 1.07573E-03-7.36224E-14
 -1       730 1.02149E-02-2.76464E-04-6.79836E-14
 -1       731 9.31603E-03 1.50832E-04-6.49634E-14
 -1       732 1.33655E-02 5.87504E-04-8.88470E-14
 -1       733 9.46973E-03 2.06116E-04-6.56685E-14
 -1       734 1.05777E-02-4.69704E-04-6.98781E-14
 -1       735 1.16545E-02-8.05877E-04-7.79686E-14
 -1       736 1.23725E-02-5.14457E-04-8.35914E-14
 -1       737 8.97655E-04-2.31669E-05-9.16859E-16
 -1       738 9.22040E-03 1.19567E-04-6.32092E-14
 -1       739 1.26966E-02 9.59771E-04-8.60092E-14
 -1       740 1.26344E-02-3.88210E-04-8.57105E-14
 -1       741 1.40620E-02 2.78986E-04-9.20694E-14
 -1       742 1.11225E-02-7.43837E-04-7.34806E-14
 -1       743 1.45307E-02 4.99748E-04-1.01493E-13
 -1       744 9.86036E-03 3.95722E-04-6.59730E-14
 -1       745 1.40946E-02 3.27911E-04-9.24048E-14
 -1       746 1.44551E-02 5.61744E-04-1.01754E-13
 -1       747 9.34800E-03 6.06457E-05-6.37099E-14
 -1       748 1.38956E-02 3.98020E-04-9.15881E-14
 -1       749 9.11250E-04-1.75646E-04-8.52393E-16
 -1       750 8.99595E-04-7.18535E-05-9.03161E-16
 -1       751 1.35138E-02 7.35404E-05-8.98886E-14
 -1       752 1.38167E-02 1.98964E-04-9.06920E-14
 -1       753 1.40096E-02-1.25040E-05-9.97212E-14
 -1       754 1.16155E-03 2.43701E-04-1.35442E-15
 -1       755 1.79734E-03-3.09588E-04-2.84065E-15
 -1       756 2.08501E-03-3.25667E-04-3.74000E-15
 -1       757 2.37281E-03-3.36427E-04-4.75600E-15
 -1       758 2.66052E-03-3.43211E-04-5.88635E-15
 -1       759 2.94804E-03-3.47095E-04-7.12903E-15
 -1       760 3.23531E-03-3.48907E-04-8.48162E-15
 -1       761 3.52233E-03-3.49260E-04-9.94006E-15
 -1       762 3.80912E-03-3.48585E-04-1.15022E-14
 -1       763 4.09569E-03-3.47174E-04-1.31658E-14
 -1       764 4.38205E-03-3.45202E-04-1.49301E-14
 -1       765 4.66823E-03-3.42755E-04-1.67895E-14
 -1       766 4.95421E-03-3.39854E-04-1.87406E-14
 -1       767 5.23999E-03-3.36466E-04-2.07869E-14
 -1       768 5.52556E-03-3.32530E-04-2.29197E-14
 -1       769 5.81088E-03-3.27963E-04-2.51364E-14
 -1       770 6.09592E-03-3.22686E-04-2.74368E-14
 -1       771 6.38064E-03-3.16642E-04-2.98170E-14
 -1       772 6.66499E-03-3.09824E-04-3.22764E-14
 -1       773 6.94896E-03-3.02306E-04-3.48128E-14
 -1       774 7.23257E-03-2.94290E-04-3.74177E-14
 -1       775 7.51595E-03-2.86152E-04-4.00875E-14
 -1       776 7.79937E-03-2.78508E-04-4.28134E-14
 -1       777 8.08341E-03-2.72293E-04-4.55903E-14
 -1       778 8.36904E-03-2.68855E-04-4.84155E-14
 -1       779 8.65788E-03-2.70106E-04-5.12869E-14
 -1       780 8.95240E-03-2.78738E-04-5.41957E-14
 -1       781 9.25612E-03-2.98574E-04-5.71382E-14
 -1       782 9.57336E-03-3.34996E-04-6.01113E-14
 -1       783 9.90838E-03-3.95037E-04-6.31125E-14
 -1       784 1.02623E-02-4.85551E-04-6.61338E-14
 -1       785 1.06290E-02-6.05572E-04-6.91697E-14
 -1       786 1.16919E-02-8.16435E-04-7.83900E-14
 -1       787 1.31401E-02-2.53080E-04-9.09923E-14
 -1       788 1.34809E-02-1.45696E-04-9.41739E-14
 -1       789 1.37510E-02-7.62219E-05-9.69454E-14
 -1       790 3.18007E-03 3.85542E-04-8.51183E-15
 -1       791 2.89349E-03 3.83111E-04-7.13325E-15
 -1       792 3.75277E-03 3.85936E-04-1.15986E-14
 -1       793 4.03893E-03 3.84724E-04-1.32991E-14
 -1       794 4.32499E-03 3.82890E-04-1.51008E-14
 -1       795 4.61097E-03 3.80541E-04-1.70009E-14
 -1       796 4.89686E-03 3.77706E-04-1.89982E-14
 -1       797 5.18266E-03 3.74360E-04-2.10887E-14
 -1       798 5.46837E-03 3.70437E-04-2.32739E-14
 -1       799 5.75397E-03 3.65846E-04-2.55481E-14
 -1       800 6.03941E-03 3.60494E-04-2.79060E-14
 -1       801 6.32465E-03 3.54304E-04-3.03389E-14
 -1       802 6.60961E-03 3.47248E-04-3.28388E-14
 -1       803 6.89419E-03 3.39381E-04-3.54053E-14
 -1       804 7.17826E-03 3.30890E-04-3.80357E-14
 -1       805 7.46170E-03 3.22159E-04-4.07259E-14
 -1       806 7.74436E-03 3.13841E-04-4.34702E-14
 -1       807 8.02621E-03 3.06955E-04-4.62630E-14
 -1       808 8.30740E-03 3.02985E-04-4.91062E-14
 -1       809 8.58856E-03 3.04011E-04-5.19913E-14
 -1       810 8.87117E-03 3.12886E-04-5.49099E-14
 -1       811 9.15823E-03 3.33594E-04-5.78529E-14
 -1       812 9.45529E-03 3.72230E-04-6.08206E-14
 -1       813 9.77154E-03 4.37627E-04-6.38093E-14
 -1       814 1.40761E-02 5.92384E-04-9.78728E-14
 -1       815 1.42685E-02 5.75121E-04-9.98087E-14
 -1       816 1.44199E-02 2.98168E-04-9.82676E-14
 -1       817 1.40107E-02 6.43823E-05-9.78919E-14
 -1       818 9.89120E-03-1.89485E-04-6.52240E-14
 -1       819 1.43164E-02 2.38565E-04-9.81455E-14
 -1       820 1.18881E-02-7.54533E-04-8.00251E-14
 -1       821 1.24622E-03 3.00932E-04-1.48020E-15
 -1       822 1.41711E-02 1.59484E-04-9.80209E-14
 -1       823 1.37663E-02 6.21535E-04-9.47240E-14
 -1       824 1.34296E-02 6.79451E-04-9.15830E-14
 -1       825 1.74571E-03 3.39185E-04-2.78480E-15
 -1       826 3.46649E-03 3.86319E-04-1.00019E-14
 -1       827 2.03276E-03 3.57742E-04-3.69158E-15
 -1       828 1.51024E-03-2.86621E-04-2.06110E-15
 -1       829 9.58607E-03-4.35261E-05-6.41412E-14
 -1       830 1.30785E-02-1.56729E-04-8.85070E-14
 -1       831 1.08049E-02-6.30592E-04-7.08855E-14
 -1       832 9.46812E-03 2.34048E-04-6.40274E-14
 -1       833 1.14293E-02-8.20314E-04-7.60293E-14
 -1       834 1.03081E-02-3.99117E-04-6.74112E-14
 -1       835 1.13832E-03 5.90770E-05-1.40560E-15
 -1       836 9.29533E-03 1.68210E-04-6.33323E-14
 -1       837 1.13696E-03 1.19606E-06-1.40001E-15
 -1       838 9.20942E-03 8.77951E-05-6.24526E-14
 -1       839 1.41363E-02 3.08643E-04-9.30021E-14
 -1       840 1.49561E-03 3.24234E-04-2.08341E-15
 -1       841 1.43505E-02 4.60370E-04-9.86803E-14
 -1       842 1.27808E-02-3.87263E-04-8.78182E-14
 -1       843 2.60674E-03 3.78336E-04-5.86855E-15
 -1       844 9.58303E-03 3.10058E-04-6.36726E-14
 -1       845 1.40855E-02 3.67923E-04-9.33957E-14
 -1       846 1.30588E-02 7.87599E-04-8.84415E-14
 -1       847 1.44353E-02 3.96563E-04-9.85371E-14
 -1       848 1.14984E-03 1.79176E-04-1.38485E-15
 -1       849 1.44627E-02 3.46631E-04-9.83963E-14
 -1       850 1.37516E-02 4.77287E-04-9.18124E-14
 -1       851 1.14928E-03-1.76191E-04-1.32760E-15
 -1       852 1.14242E-03 1.17853E-04-1.40142E-15
 -1       853 1.25391E-03-2.56307E-04-1.46889E-15
 -1       854 1.22874E-02-6.02791E-04-8.35954E-14
 -1       855 1.33086E-02-5.53516E-05-8.99898E-14
 -1       856 2.31982E-03 3.70285E-04-4.72023E-15
 -1       857 1.40185E-02 2.45699E-04-9.27944E-14
 -1       858 1.14209E-03-1.15239E-04-1.36193E-15
 -1       859 1.38800E-02-3.91940E-06-9.74196E-14
 -1       860 1.92962E-03-2.47847E-04-3.34987E-15
 -1       861 2.21844E-03-2.58931E-04-4.31755E-15
 -1       862 2.50753E-03-2.66200E-04-5.40014E-15
 -1       863 2.79656E-03-2.70619E-04-6.59567E-15
 -1       864 3.08533E-03-2.72966E-04-7.90112E-15
 -1       865 3.37375E-03-2.73836E-04-9.31348E-15
 -1       866 3.66176E-03-2.73666E-04-1.08289E-14
 -1       867 3.94937E-03-2.72757E-04-1.24479E-14
 -1       868 4.23656E-03-2.71305E-04-1.41679E-14
 -1       869 4.52336E-03-2.69419E-04-1.59858E-14
 -1       870 4.80975E-03-2.67141E-04-1.78960E-14
 -1       871 5.09573E-03-2.64464E-04-1.98996E-14
 -1       872 5.38124E-03-2.61342E-04-2.19941E-14
 -1       873 5.66624E-03-2.57709E-04-2.41752E-14
 -1       874 5.95062E-03-2.53483E-04-2.64389E-14
 -1       875 6.23429E-03-2.48592E-04-2.87850E-14
 -1       876 6.51711E-03-2.42979E-04-3.12099E-14
 -1       877 6.79893E-03-2.36634E-04-3.37119E-14
 -1       878 7.07964E-03-2.29609E-04-3.62847E-14
 -1       879 7.35915E-03-2.22055E-04-3.89235E-14
 -1       880 7.63749E-03-2.14254E-04-4.16248E-14
 -1       881 7.91489E-03-2.06664E-04-4.43787E-14
 -1       882 8.19191E-03-1.99979E-04-4.71782E-14
 -1       883 8.46965E-03-1.95236E-04-5.00261E-14
 -1       884 8.75006E-03-1.94006E-04-5.29137E-14
 -1       885 9.03631E-03-1.98806E-04-5.58376E-14
 -1       886 9.33324E-03-2.13870E-04-5.87934E-14
 -1       887 9.64791E-03-2.46641E-04-6.17774E-14
 -1       888 1.87596E-03 2.78833E-04-3.27137E-15
 -1       889 3.02955E-03 3.09537E-04-7.85655E-15
 -1       890 4.17934E-03 3.08991E-04-1.42161E-14
 -1       891 3.89238E-03 3.10330E-04-1.24712E-14
 -1       892 4.75231E-03 3.04901E-04-1.80005E-14
 -1       893 5.03832E-03 3.02212E-04-2.00363E-14
 -1       894 5.32398E-03 2.99053E-04-2.21648E-14
 -1       895 5.60923E-03 2.95358E-04-2.43854E-14
 -1       896 5.89398E-03 2.91050E-04-2.66925E-14
 -1       897 6.17812E-03 2.86059E-04-2.90782E-14
 -1       898 6.46146E-03 2.80344E-04-3.15361E-14
 -1       899 6.74378E-03 2.73922E-04-3.40616E-14
 -1       900 7.02481E-03 2.66900E-04-3.66539E-14
 -1       901 7.30421E-03 2.59519E-04-3.93068E-14
 -1       902 7.58157E-03 2.52198E-04-4.20200E-14
 -1       903 7.85650E-03 2.45582E-04-4.47839E-14
 -1       904 8.12863E-03 2.40586E-04-4.75982E-14
 -1       905 8.39777E-03 2.38427E-04-5.04574E-14
 -1       906 8.66416E-03 2.40666E-04-5.33563E-14
 -1       907 8.92891E-03 2.49316E-04-5.62865E-14
 -1       908 9.19484E-03 2.67381E-04-5.92424E-14
 -1       909 1.43107E-02 5.15563E-04-9.92429E-14
 -1       910 9.97307E-03-3.23038E-04-6.44772E-14
 -1       911 1.41902E-02 2.53432E-04-9.56861E-14
 -1       912 9.31258E-03 6.71830E-07-6.17309E-14
 -1       913 4.46598E-03 3.07162E-04-1.60604E-14
 -1       914 1.34620E-02-7.76808E-05-9.27070E-14
 -1       915 9.57526E-03-1.30687E-04-6.24606E-14
 -1       916 1.64166E-03-2.31834E-04-2.49997E-15
 -1       917 1.39891E-02 4.24837E-04-9.36232E-14
 -1       918 1.13817E-03-5.65370E-05-1.38559E-15
 -1       919 9.10871E-03 1.29217E-04-6.09008E-14
 -1       920 1.38173E-02 1.58240E-04-9.25306E-14
 -1       921 9.25027E-03 1.95010E-04-6.15639E-14
 -1       922 1.40148E-02 5.10273E-04-9.57438E-14
 -1       923 9.14682E-03 3.88281E-05-6.04802E-14
 -1       924 1.41706E-02 3.42533E-04-9.39946E-14
 -1       925 1.62457E-03 2.70171E-04-2.51404E-15
 -1       926 1.39423E-03-2.05851E-04-1.86995E-15
 -1       927 1.36443E-02 5.53889E-05-9.26390E-14
 -1       928 3.31749E-03 3.10898E-04-9.28863E-15
 -1       929 2.16429E-03 2.92110E-04-4.24172E-15
 -1       930 2.74131E-03 3.06449E-04-6.53652E-15
 -1       931 1.36748E-02-3.89054E-05-9.50608E-14
 -1       932 3.60510E-03 3.11044E-04-1.08277E-14
 -1       933 1.41946E-02 4.14684E-04-9.59312E-14
 -1       934 1.40133E-03 2.37148E-04-1.93896E-15
 -1       935 1.42842E-02 3.08921E-04-9.58218E-14
 -1       936 1.40337E-02 1.73771E-04-9.55571E-14
 -1       937 1.38428E-03 1.00020E-04-1.97865E-15
 -1       938 1.38112E-03 3.39847E-05-1.97727E-15
 -1       939 9.05432E-03 9.78951E-05-6.01511E-14
 -1       940 1.41404E-02 2.83457E-04-9.37294E-14
 -1       941 1.38566E-03-1.37436E-04-1.91459E-15
 -1       942 1.38327E-02 5.85443E-05-9.53650E-14
 -1       943 2.06570E-03-1.82894E-04-3.88227E-15
 -1       944 2.35543E-03-1.89784E-04-4.91639E-15
 -1       945 2.64545E-03-1.94175E-04-6.06352E-15
 -1       946 2.93537E-03-1.96708E-04-7.32136E-15
 -1       947 3.22496E-03-1.97897E-04-8.68711E-15
 -1       948 3.51408E-03-1.98132E-04-1.01578E-14
 -1       949 3.80268E-03-1.97691E-04-1.17318E-14
 -1       950 4.09072E-03-1.96763E-04-1.34073E-14
 -1       951 4.37821E-03-1.95463E-04-1.51829E-14
 -1       952 4.66513E-03-1.93847E-04-1.70520E-14
 -1       953 4.95146E-03-1.91927E-04-1.90145E-14
 -1       954 5.23715E-03-1.89678E-04-2.10687E-14
 -1       955 5.52212E-03-1.87052E-04-2.32110E-14
 -1       956 5.80626E-03-1.83983E-04-2.54398E-14
 -1       957 6.08941E-03-1.80397E-04-2.77514E-14
 -1       958 6.37137E-03-1.76224E-04-3.01435E-14
 -1       959 6.65193E-03-1.71404E-04-3.26125E-14
 -1       960 6.93082E-03-1.65902E-04-3.51537E-14
 -1       961 7.20779E-03-1.59721E-04-3.77618E-14
 -1       962 7.48262E-03-1.52914E-04-4.04342E-14
 -1       963 7.75518E-03-1.45604E-04-4.31643E-14
 -1       964 8.02550E-03-1.38002E-04-4.59432E-14
 -1       965 8.29396E-03-1.30452E-04-4.87688E-14
 -1       966 8.56145E-03-1.23524E-04-5.16377E-14
 -1       967 8.82975E-03-1.18256E-04-5.45419E-14
 -1       968 9.10218E-03-1.16754E-04-5.74796E-14
 -1       969 5.46484E-03 2.24496E-04-2.32383E-14
 -1       970 4.03314E-03 2.34443E-04-1.33434E-14
 -1       971 5.17964E-03 2.27225E-04-2.10719E-14
 -1       972 4.89381E-03 2.29558E-04-1.89985E-14
 -1       973 5.74931E-03 2.21317E-04-2.54932E-14
 -1       974 6.03287E-03 2.17636E-04-2.78306E-14
 -1       975 6.31532E-03 2.13417E-04-3.02439E-14
 -1       976 6.59634E-03 2.08665E-04-3.27275E-14
 -1       977 6.87558E-03 2.03446E-04-3.52797E-14
 -1       978 7.15258E-03 1.97916E-04-3.78961E-14
 -1       979 7.42678E-03 1.92354E-04-4.05754E-14
 -1       980 7.69755E-03 1.87186E-04-4.33093E-14
 -1       981 7.96413E-03 1.82994E-04-4.60952E-14
 -1       982 8.22573E-03 1.80513E-04-4.89279E-14
 -1       983 8.48152E-03 1.80594E-04-5.18047E-14
 -1       984 8.73072E-03 1.84135E-04-5.47162E-14
 -1       985 8.97315E-03 1.92063E-04-5.76575E-14
 -1       986 1.77687E-03-1.72765E-04-2.96420E-15
 -1       987 1.58059E-03-1.55631E-04-2.41271E-15
 -1       988 1.38074E-03-7.10175E-05-1.94654E-15
 -1       989 9.34183E-03-1.03445E-04-6.02715E-14
 -1       990 2.45283E-03 3.00941E-04-5.33054E-15
 -1       991 1.42825E-02 3.55101E-04-9.58708E-14
 -1       992 1.39080E-03 1.67374E-04-1.96662E-15
 -1       993 1.37996E-03-1.84495E-05-1.96556E-15
 -1       994 4.32053E-03 2.33173E-04-1.51316E-14
 -1       995 2.87880E-03 2.33136E-04-7.21304E-15
 -1       996 4.60743E-03 2.31536E-04-1.70175E-14
 -1       997 1.71167E-03 2.06239E-04-2.82889E-15
 -1       998 1.63456E-03 1.45810E-04-2.63899E-15
 -1       999 8.95186E-03 1.15554E-04-5.84914E-14
 -1      1000 9.13235E-03-3.41740E-05-5.89847E-14
 -1      1001 2.00006E-03 2.19369E-04-3.73609E-15
 -1      1002 1.62939E-03 7.31451E-05-2.64438E-15
 -1      1003 3.16805E-03 2.34906E-04-8.58622E-15
 -1      1004 3.74526E-03 2.35268E-04-1.16553E-14
 -1      1005 2.20513E-03-1.14897E-04-4.43725E-15
 -1      1006 2.49557E-03-1.18440E-04-5.53486E-15
 -1      1007 2.78619E-03-1.20606E-04-6.74459E-15
 -1      1008 3.07662E-03-1.21755E-04-8.06304E-15
 -1      1009 3.36662E-03-1.22174E-04-9.48846E-15
 -1      1010 3.65606E-03-1.22073E-04-1.10168E-14
 -1      1011 3.94488E-03-1.21602E-04-1.26482E-14
 -1      1012 4.23304E-03-1.20857E-04-1.43805E-14
 -1      1013 4.52052E-03-1.19892E-04-1.62099E-14
 -1      1014 4.80731E-03-1.18727E-04-1.81314E-14
 -1      1015 5.09334E-03-1.17354E-04-2.01442E-14
 -1      1016 5.37854E-03-1.15745E-04-2.22486E-14
 -1      1017 5.66278E-03-1.13855E-04-2.44395E-14
 -1      1018 5.94589E-03-1.11627E-04-2.67156E-14
 -1      1019 6.22764E-03-1.08996E-04-2.90751E-14
 -1      1020 6.50775E-03-1.05889E-04-3.15111E-14
 -1      1021 6.78588E-03-1.02235E-04-3.40204E-14
 -1      1022 7.06166E-03-9.79569E-05-3.65995E-14
 -1      1023 7.33467E-03-9.29819E-05-3.92432E-14
 -1      1024 7.60449E-03-8.72353E-05-4.19473E-14
 -1      1025 7.87073E-03-8.06403E-05-4.47050E-14
 -1      1026 8.13306E-03-7.31186E-05-4.75101E-14
 -1      1027 8.39131E-03-6.46125E-05-5.03602E-14
 -1      1028 8.64561E-03-5.51433E-05-5.32471E-14
 -1      1029 8.88998E-03-4.43805E-05-5.61011E-14
 -1      1030 5.88887E-03 1.48626E-04-2.65953E-14
 -1      1031 8.89363E-03 7.10231E-05-5.76138E-14
 -1      1032 5.32087E-03 1.53020E-04-2.21048E-14
 -1      1033 5.03547E-03 1.54773E-04-1.99934E-14
 -1      1034 6.17104E-03 1.45937E-04-2.89624E-14
 -1      1035 6.45161E-03 1.42920E-04-3.14045E-14
 -1      1036 6.73017E-03 1.39626E-04-3.39158E-14
 -1      1037 7.00623E-03 1.36167E-04-3.64943E-14
 -1      1038 7.27917E-03 1.32742E-04-3.91383E-14
 -1      1039 7.54827E-03 1.29652E-04-4.18413E-14
 -1      1040 7.81263E-03 1.27310E-04-4.46003E-14
 -1      1041 8.07116E-03 1.26227E-04-4.74053E-14
 -1      1042 8.32250E-03 1.26970E-04-5.02569E-14
 -1      1043 8.56492E-03 1.30119E-04-5.31489E-14
 -1      1044 8.79594E-03 1.36150E-04-5.60721E-14
 -1      1045 2.28935E-03 2.28412E-04-4.76256E-15
 -1      1046 1.91549E-03-1.09544E-04-3.45414E-15
 -1      1047 3.45689E-03 2.35502E-04-1.00686E-14
 -1      1048 2.58924E-03 2.29715E-04-5.95141E-15
 -1      1049 5.60540E-03 1.50980E-04-2.43077E-14
 -1      1050 1.92263E-03 1.56492E-04-3.51795E-15
 -1      1051 1.57496E-03-8.42454E-05-2.45158E-15
 -1      1052 4.74929E-03 1.56270E-04-1.79739E-14
 -1      1053 8.65781E-03 8.72895E-05-5.44899E-14
 -1      1054 4.46243E-03 1.57526E-04-1.60472E-14
 -1      1055 1.62687E-03 1.55674E-05-2.63541E-15
 -1      1056 3.01887E-03 1.58660E-04-7.89747E-15
 -1      1057 2.72863E-03 1.56837E-04-6.58122E-15
 -1      1058 1.74480E-03-9.69386E-05-2.93281E-15
 -1      1059 3.88679E-03 1.59263E-04-1.24826E-14
 -1      1060 8.88146E-03 1.92530E-05-5.68627E-14
 -1      1061 1.60010E-03-3.46730E-05-2.54624E-15
 -1      1062 4.17492E-03 1.58536E-04-1.42160E-14
 -1      1063 2.63847E-03-4.52286E-05-6.17143E-15
 -1      1064 2.92936E-03-4.58218E-05-7.44190E-15
 -1      1065 3.21995E-03-4.60736E-05-8.82084E-15
 -1      1066 3.50999E-03-4.60882E-05-1.03040E-14
 -1      1067 3.79940E-03-4.59331E-05-1.18906E-14
 -1      1068 4.08814E-03-4.56513E-05-1.35781E-14
 -1      1069 4.37614E-03-4.52732E-05-1.53659E-14
 -1      1070 4.66340E-03-4.48108E-05-1.72485E-14
 -1      1071 4.94985E-03-4.42633E-05-1.92217E-14
 -1      1072 5.23544E-03-4.36190E-05-2.12857E-14
 -1      1073 5.52004E-03-4.28554E-05-2.34400E-14
 -1      1074 5.80347E-03-4.19395E-05-2.56802E-14
 -1      1075 6.08552E-03-4.08268E-05-2.80049E-14
 -1      1076 6.36588E-03-3.94592E-05-3.04089E-14
 -1      1077 6.64419E-03-3.77616E-05-3.28867E-14
 -1      1078 6.92000E-03-3.56365E-05-3.54356E-14
 -1      1079 7.19279E-03-3.29578E-05-3.80523E-14
 -1      1080 7.46197E-03-2.95618E-05-4.07275E-14
 -1      1081 7.72688E-03-2.52376E-05-4.34606E-14
 -1      1082 7.98674E-03-1.97172E-05-4.62472E-14
 -1      1083 8.24066E-03-1.26697E-05-4.90803E-14
 -1      1084 8.48749E-03-3.76046E-06-5.19496E-14
 -1      1085 5.46215E-03 7.98125E-05-2.31342E-14
 -1      1086 6.02829E-03 7.74942E-05-2.76916E-14
 -1      1087 6.58785E-03 7.47309E-05-3.25600E-14
 -1      1088 6.86414E-03 7.33332E-05-3.51002E-14
 -1      1089 7.13735E-03 7.21049E-05-3.77094E-14
 -1      1090 7.40679E-03 7.12700E-05-4.03793E-14
 -1      1091 7.67159E-03 7.11403E-05-4.31064E-14
 -1      1092 7.93071E-03 7.21184E-05-4.58875E-14
 -1      1093 8.18279E-03 7.46852E-05-4.87154E-14
 -1      1094 8.42585E-03 7.92610E-05-5.15849E-14
 -1      1095 1.94795E-03 6.91774E-05-3.62370E-15
 -1      1096 2.21213E-03 1.63981E-04-4.51511E-15
 -1      1097 8.64566E-03 4.78186E-05-5.42174E-14
 -1      1098 3.30872E-03 1.59496E-04-9.32141E-15
 -1      1099 6.30908E-03 7.61481E-05-3.00886E-14
 -1      1100 2.05729E-03-4.24984E-05-3.96590E-15
 -1      1101 2.47025E-03 1.61296E-04-5.50313E-15
 -1      1102 5.74588E-03 7.87218E-05-2.53717E-14
 -1      1103 3.59804E-03 1.59629E-04-1.08511E-14
 -1      1104 4.02947E-03 8.32925E-05-1.33106E-14
 -1      1105 2.34759E-03-4.41743E-05-5.01157E-15
 -1      1106 5.17731E-03 8.07654E-05-2.09854E-14
 -1      1107 4.89154E-03 8.15871E-05-1.89280E-14
 -1      1108 1.76976E-03-4.47873E-05-3.03762E-15
 -1      1109 2.87063E-03 8.26000E-05-7.21999E-15
 -1      1110 4.60493E-03 8.22844E-05-1.69615E-14
 -1      1111 3.74068E-03 8.35556E-05-1.16339E-14
 -1      1112 4.31756E-03 8.28571E-05-1.50882E-14
 -1      1113 3.16118E-03 8.33222E-05-8.58722E-15
 -1      1114 8.72621E-03 7.55056E-06-5.48546E-14
 -1      1115 3.65470E-03 3.00739E-05-1.11344E-14
 -1      1116 2.61163E-03 8.87261E-05-6.09561E-15
 -1      1117 2.27300E-03 7.37634E-05-4.76127E-15
 -1      1118 3.45123E-03 8.35948E-05-1.00589E-14
 -1      1119 3.36492E-03 3.00153E-05-9.59396E-15
 -1      1120 0.00000E+00 0.00000E+00 0.00000E+00
 -1      1121 0.00000E+00 0.00000E+00 0.00000E+00
 -1      1122 0.00000E+00 0.00000E+00 0.00000E+00
 -1      1123 0.00000E+00 0.00000E+00 0.00000E+00
 -1      1124 0.00000E+00 0.00000E+00 0.00000E+00
 -1      1125 0.00000E+00 0.00000E+00 0.00000E+00
 -1      1126 0.00000E+00 0.00000E+00 0.00000E+00
 -1      1127 0.00000E+00 0.00000E+00 0.00000E+00
 -1      1128 0.00000E+00 0.00000E+00 0.00000E+00
 -1      1129 0.00000E+00 0.00000E+00 0.00000E+00
 -1      1130 0.00000E+00 0.00000E+00 0.00000E+00
 -1      1131 0.00000E+00 0.00000E+00 0.00000E+00
 -1      1132 0.00000E+00 0.00000E+00 0.00000E+00
 -1      1133 0.00000E+00 0.00000E+00 0.00000E+00
 -1      1134 0.00000E+00 0.00000E+00 0.00000E+00
 -1      1135 0.00000E+00 0.00000E+00 0.00000E+00
 -1      1136 0.00000E+00 0.00000E+00 0.00000E+00
 -1      1137 2.11674E-04-1.48338E-04 2.43945E-17
 -1      1138 5.51654E-04-3.37532E-04-9.81203E-18
 -1      1139 8.33482E-04-4.59037E-04-1.68458E-16
 -1      1140 1.10306E-03-5.40735E-04-4.72170E-16
 -1      1141 1.36848E-03-5.98001E-04-9.15270E-16
 -1      1142 1.63329E-03-6.38727E-04-1.49415E-15
 -1      1143 1.89934E-03-6.67559E-04-2.20601E-15
 -1      1144 2.16748E-03-6.87617E-04-3.04542E-15
 -1      1145 2.43801E-03-7.01182E-04-4.00985E-15
 -1      1146 2.71090E-03-7.09973E-04-5.09830E-15
 -1      1147 2.98601E-03-7.15288E-04-6.30817E-15
 -1      1148 3.26307E-03-7.18099E-04-7.63146E-15
 -1      1149 3.54183E-03-7.19119E-04-9.06510E-15
 -1      1150 3.82202E-03-7.18854E-04-1.06057E-14
 -1      1151 4.10340E-03-7.17654E-04-1.22486E-14
 -1      1152 4.38577E-03-7.15738E-04-1.39926E-14
 -1      1153 4.66898E-03-7.13228E-04-1.58366E-14
 -1      1154 4.95295E-03-7.10174E-04-1.77715E-14
 -1      1155 5.23767E-03-7.06574E-04-1.97924E-14
 -1      1156 5.52318E-03-7.02395E-04-2.19035E-14
 -1      1157 5.80963E-03-6.97596E-04-2.41043E-14
 -1      1158 6.09728E-03-6.92153E-04-2.63853E-14
 -1      1159 6.38648E-03-6.86090E-04-2.87495E-14
 -1      1160 6.67772E-03-6.79524E-04-3.12024E-14
 -1      1161 6.97162E-03-6.72713E-04-3.37392E-14
 -1      1162 7.26892E-03-6.66125E-04-3.63479E-14
 -1      1163 7.57049E-03-6.60525E-04-3.90201E-14
 -1      1164 7.87722E-03-6.57064E-04-4.17507E-14
 -1      1165 8.18995E-03-6.57380E-04-4.45487E-14
 -1      1166 8.50926E-03-6.63663E-04-4.74011E-14
 -1      1167 8.83519E-03-6.78636E-04-5.02965E-14
 -1      1168 9.16682E-03-7.05349E-04-5.32315E-14
 -1      1169 9.50181E-03-7.46646E-04-5.61975E-14
 -1      1170 9.83606E-03-8.04153E-04-5.91913E-14
 -1      1171 1.01637E-02-8.76755E-04-6.22154E-14
 -1      1172 1.04779E-02-9.58891E-04-6.52648E-14
 -1      1173 1.07729E-02-1.03957E-03-6.83387E-14
 -1      1174 1.10462E-02-1.10336E-03-7.14251E-14
 -1      1175 1.13014E-02-1.13427E-03-7.45123E-14
 -1      1176 1.15475E-02-1.12135E-03-7.76094E-14
 -1      1177 1.17963E-02-1.06320E-03-8.07334E-14
 -1      1178 1.20575E-02-9.68338E-04-8.38863E-14
 -1      1179 1.23353E-02-8.51197E-04-8.70719E-14
 -1      1180 1.26282E-02-7.26253E-04-9.02812E-14
 -1      1181 1.29304E-02-6.03635E-04-9.35075E-14
 -1      1182 1.32349E-02-4.87561E-04-9.67312E-14
 -1      1183 1.35363E-02-3.77115E-04-9.99409E-14
 -1      1184 1.38314E-02-2.68216E-04-1.03143E-13
 -1      1185 1.41202E-02-1.56016E-04-1.06345E-13
 -1      1186 1.43985E-02-4.13150E-05-1.09485E-13
 -1      1187 2.28434E-04 1.60716E-04 2.07489E-17
 -1      1188 5.53827E-04 3.42164E-04-3.92210E-17
 -1      1189 8.34412E-04 4.61207E-04-2.35462E-16
 -1      1190 1.10396E-03 5.42424E-04-5.83491E-16
 -1      1191 1.36938E-03 5.99683E-04-1.07809E-15
 -1      1192 1.63424E-03 6.40497E-04-1.71632E-15
 -1      1193 1.90035E-03 6.69435E-04-2.49459E-15
 -1      1194 2.16853E-03 6.89612E-04-3.40643E-15
 -1      1195 2.43908E-03 7.03306E-04-4.45159E-15
 -1      1196 2.71199E-03 7.12230E-04-5.62747E-15
 -1      1197 2.98711E-03 7.17682E-04-6.92859E-15
 -1      1198 3.26418E-03 7.20630E-04-8.34815E-15
 -1      1199 3.54294E-03 7.21786E-04-9.88200E-15
 -1      1200 3.82312E-03 7.21657E-04-1.15272E-14
 -1      1201 4.10449E-03 7.20590E-04-1.32816E-14
 -1      1202 4.38684E-03 7.18801E-04-1.51436E-14
 -1      1203 4.67003E-03 7.16410E-04-1.71089E-14
 -1      1204 4.95397E-03 7.13458E-04-1.91759E-14
 -1      1205 5.23864E-03 7.09933E-04-2.13382E-14
 -1      1206 5.52411E-03 7.05784E-04-2.35970E-14
 -1      1207 5.81051E-03 7.00946E-04-2.59430E-14
 -1      1208 6.09813E-03 6.95356E-04-2.83668E-14
 -1      1209 6.38737E-03 6.88986E-04-3.08637E-14
 -1      1210 6.67878E-03 6.81882E-04-3.34301E-14
 -1      1211 6.97311E-03 6.74212E-04-3.60537E-14
 -1      1212 7.27135E-03 6.66346E-04-3.87329E-14
 -1      1213 7.57473E-03 6.58961E-04-4.14610E-14
 -1      1214 7.88472E-03 6.53186E-04-4.42441E-14
 -1      1215 8.20307E-03 6.50802E-04-4.70748E-14
 -1      1216 8.53158E-03 6.54496E-04-4.99500E-14
 -1      1217 8.87192E-03 6.68133E-04-5.28697E-14
 -1      1218 9.22501E-03 6.96964E-04-5.58193E-14
 -1      1219 9.59019E-03 7.47499E-04-5.87835E-14
 -1      1220 9.96394E-03 8.26574E-04-6.17544E-14
 -1      1221 1.03386E-02 9.38905E-04-6.47445E-14
 -1      1222 1.07020E-02 1.08262E-03-6.77666E-14
 -1      1223 1.10396E-02 1.24391E-03-7.08207E-14
 -1      1224 1.13412E-02 1.39483E-03-7.39072E-14
 -1      1225 1.16081E-02 1.49963E-03-7.70129E-14
 -1      1226 1.18572E-02 1.53081E-03-8.01388E-14
 -1      1227 1.21134E-02 1.48466E-03-8.32630E-14
 -1      1228 1.23961E-02 1.38301E-03-8.64013E-14
 -1      1229 1.27103E-02 1.26006E-03-8.95587E-14
 -1      1230 1.30471E-02 1.14483E-03-9.27357E-14
 -1      1231 1.33921E-02 1.05208E-03-9.59099E-14
 -1      1232 1.37320E-02 9.83119E-04-9.90722E-14
 -1      1233 1.40582E-02 9.30785E-04-1.02235E-13
 -1      1234 1.43677E-02 8.84347E-04-1.05407E-13
 -1      1235 1.46622E-02 8.33257E-04-1.08572E-13
 -1      1236 1.49411E-02 7.73330E-04-1.11648E-13
 -1      1237 1.51096E-02 6.99075E-04-1.13078E-13
 -1      1238 1.51816E-02 6.15262E-04-1.12956E-13
 -1      1239 1.52642E-02 5.40142E-04-1.12852E-13
 -1      1240 1.53524E-02 4.80591E-04-1.12754E-13
 -1      1241 1.54364E-02 4.40442E-04-1.12642E-13
 -1      1242 1.55044E-02 4.20289E-04-1.12518E-13
 -1      1243 1.55464E-02 4.16773E-04-1.12420E-13
 -1      1244 1.55541E-02 4.23850E-04-1.12320E-13
 -1      1245 1.55232E-02 4.33210E-04-1.12204E-13
 -1      1246 1.54553E-02 4.36212E-04-1.12074E-13
 -1      1247 1.53567E-02 4.25981E-04-1.11918E-13
 -1      1248 1.52378E-02 3.98999E-04-1.11783E-13
 -1      1249 1.51073E-02 3.54674E-04-1.11669E-13
 -1      1250 1.49720E-02 2.94340E-04-1.11539E-13
 -1      1251 1.48390E-02 2.21709E-04-1.11384E-13
 -1      1252 1.47120E-02 1.41058E-04-1.11238E-13
 -1      1253 1.45921E-02 5.74123E-05-1.11101E-13
 -1      1254 1.39552E-02 3.49413E-04-8.52167E-14
 -1      1255 1.38320E-02 5.21465E-04-8.49395E-14
 -1      1256 1.35959E-02 6.90199E-04-8.42929E-14
 -1      1257 1.32899E-02 8.45209E-04-8.34174E-14
 -1      1258 1.29194E-02 9.88310E-04-8.23072E-14
 -1      1259 1.24938E-02 1.10508E-03-8.09719E-14
 -1      1260 1.20336E-02 1.17191E-03-7.94707E-14
 -1      1261 1.15441E-02 1.17106E-03-7.78212E-14
 -1      1262 1.10686E-02 1.10282E-03-7.62092E-14
 -1      1263 1.06337E-02 9.81388E-04-7.47536E-14
 -1      1264 1.02103E-02 8.15984E-04-7.33718E-14
 -1      1265 9.84957E-03 6.36627E-04-7.22252E-14
 -1      1266 9.58852E-03 4.66483E-04-7.14019E-14
 -1      1267 9.42655E-03 3.02871E-04-7.08810E-14
 -1      1268 9.37789E-03 1.42525E-04-7.06958E-14
 -1      1269 9.45356E-03-1.76974E-05-7.08523E-14
 -1      1270 9.64776E-03-1.78037E-04-7.13371E-14
 -1      1271 9.92988E-03-3.32180E-04-7.21073E-14
 -1      1272 1.02692E-02-4.72221E-04-7.31028E-14
 -1      1273 1.06561E-02-5.91600E-04-7.43157E-14
 -1      1274 1.10816E-02-6.76066E-04-7.57192E-14
 -1      1275 1.15380E-02-7.08575E-04-7.72771E-14
 -1      1276 1.19970E-02-6.80917E-04-7.88608E-14
 -1      1277 1.24326E-02-5.99395E-04-8.03389E-14
 -1      1278 1.28520E-02-4.74189E-04-8.17119E-14
 -1      1279 1.32444E-02-3.17482E-04-8.29559E-14
 -1      1280 1.35691E-02-1.51076E-04-8.39548E-14
 -1      1281 1.38061E-02 1.44393E-05-8.46642E-14
 -1      1282 1.39441E-02 1.82844E-04-8.50993E-14
 -1      1283 1.66704E-04-1.10347E-04 2.91379E-18
 -1      1284 1.12543E-04-5.69793E-05-2.45030E-17
 -1      1285 1.17625E-04-6.75871E-05-1.70220E-17
 -1      1286 1.08422E-04-4.34959E-05-3.70526E-17
 -1      1287 1.10286E-04-4.96106E-05-3.31766E-17
 -1      1288 2.26333E-04-1.07635E-04-7.75340E-17
 -1      1289 1.06841E-04-3.36184E-05-4.43303E-17
 -1      1290 1.07686E-04-3.83401E-05-4.21213E-17
 -1      1291 2.19104E-04-8.24692E-05-1.00424E-16
 -1      1292 1.06062E-04-2.53572E-05-4.89788E-17
 -1      1293 1.06493E-04-2.93904E-05-4.77998E-17
 -1      1294 2.15868E-04-6.32899E-05-1.14695E-16
 -1      1295 1.05659E-04-1.80965E-05-5.16758E-17
 -1      1296 1.05889E-04-2.16645E-05-5.10253E-17
 -1      1297 2.14208E-04-4.71983E-05-1.23545E-16
 -1      1298 1.05438E-04-1.12431E-05-5.38306E-17
 -1      1299 1.05562E-04-1.46290E-05-5.34241E-17
 -1      1300 2.13292E-04-3.27629E-05-1.29643E-16
 -1      1301 1.05339E-04-4.69107E-06-5.50504E-17
 -1      1302 1.05391E-04-7.94542E-06-5.47658E-17
 -1      1303 2.12797E-04-1.91968E-05-1.33709E-16
 -1      1304 1.05328E-04 1.74338E-06-5.58906E-17
 -1      1305 1.05326E-04-1.47117E-06-5.57280E-17
 -1      1306 2.12583E-04-6.16287E-06-1.36284E-16
 -1      1307 1.05400E-04 8.22741E-06-5.59990E-17
 -1      1308 1.05343E-04 4.96653E-06-5.59042E-17
 -1      1309 2.12591E-04 6.71045E-06-1.37504E-16
 -1      1310 1.05578E-04 1.49366E-05-5.55789E-17
 -1      1311 1.05450E-04 1.15358E-05-5.57280E-17
 -1      1312 2.12822E-04 1.97704E-05-1.37328E-16
 -1      1313 1.05911E-04 2.19570E-05-5.43456E-17
 -1      1314 1.05676E-04 1.83651E-05-5.46980E-17
 -1      1315 2.13333E-04 3.32762E-05-1.35661E-16
 -1      1316 1.06535E-04 2.98246E-05-5.18249E-17
 -1      1317 1.06096E-04 2.57473E-05-5.26380E-17
 -1      1318 2.14274E-04 4.78066E-05-1.31839E-16
 -1      1319 1.07726E-04 3.89238E-05-4.74067E-17
 -1      1320 1.06874E-04 3.41301E-05-4.91008E-17
 -1      1321 2.15979E-04 6.42210E-05-1.24995E-16
 -1      1322 1.10266E-04 5.03504E-05-3.93159E-17
 -1      1323 1.08427E-04 4.41668E-05-4.28260E-17
 -1      1324 2.19206E-04 8.37193E-05-1.13109E-16
 -1      1325 1.16940E-04 6.76226E-05-2.48824E-17
 -1      1326 1.12189E-04 5.77784E-05-3.20246E-17
 -1      1327 2.26320E-04 1.09454E-04-9.30652E-17
 -1      1328 1.57584E-04 1.09863E-04-1.36881E-18
 -1      1329 1.35665E-04 8.60944E-05-1.68729E-17
 -1      1330 2.56044E-04 1.52101E-04-6.84132E-17
 -1      1331 3.35094E-04 2.20747E-04-3.03712E-17
 -1      1332 4.21550E-04-2.61751E-04-3.31224E-17
 -1      1333 5.74651E-04-3.36816E-04-8.46355E-17
 -1      1334 7.21842E-04-3.97425E-04-1.73730E-16
 -1      1335 8.65013E-04-4.46727E-04-2.97613E-16
 -1      1336 6.12083E-04-3.30913E-04-1.71548E-16
 -1      1337 1.00504E-03-4.87808E-04-4.55026E-16
 -1      1338 1.14288E-03-5.21805E-04-6.47147E-16
 -1      1339 9.05321E-04-4.31626E-04-4.31851E-16
 -1      1340 1.27938E-03-5.50587E-04-8.73162E-16
 -1      1341 1.41502E-03-5.74632E-04-1.13318E-15
 -1      1342 1.18775E-03-5.01064E-04-8.26555E-16
 -1      1343 1.55026E-03-5.95005E-04-1.42632E-15
 -1      1344 1.68535E-03-6.12038E-04-1.75305E-15
 -1      1345 1.46468E-03-5.49854E-04-1.35513E-15
 -1      1346 1.82053E-03-6.26361E-04-2.11175E-15
 -1      1347 1.95591E-03-6.38266E-04-2.50250E-15
 -1      1348 1.73936E-03-5.84171E-04-2.01480E-15
 -1      1349 2.09162E-03-6.48154E-04-2.92503E-15
 -1      1350 2.22769E-03-6.56275E-04-3.37889E-15
 -1      1351 2.01365E-03-6.07997E-04-2.80273E-15
 -1      1352 2.36418E-03-6.62904E-04-3.86336E-15
 -1      1353 2.50110E-03-6.68243E-04-4.37915E-15
 -1      1354 2.28855E-03-6.24141E-04-3.71517E-15
 -1      1355 2.63847E-03-6.72489E-04-4.92609E-15
 -1      1356 2.77628E-03-6.75803E-04-5.50207E-15
 -1      1357 2.56452E-03-6.34672E-04-4.75100E-15
 -1      1358 2.91451E-03-6.78323E-04-6.10688E-15
 -1      1359 3.05316E-03-6.80178E-04-6.74202E-15
 -1      1360 2.84176E-03-6.41134E-04-5.90633E-15
 -1      1361 3.19219E-03-6.81463E-04-7.40452E-15
 -1      1362 3.33159E-03-6.82276E-04-8.09473E-15
 -1      1363 3.12028E-03-6.44678E-04-7.17717E-15
 -1      1364 3.47134E-03-6.82682E-04-8.81287E-15
 -1      1365 3.61141E-03-6.82756E-04-9.55751E-15
 -1      1366 3.40002E-03-6.46150E-04-8.55971E-15
 -1      1367 3.75178E-03-6.82538E-04-1.03289E-14
 -1      1368 3.89242E-03-6.82081E-04-1.11258E-14
 -1      1369 3.68086E-03-6.46159E-04-1.00511E-14
 -1      1370 4.03331E-03-6.81409E-04-1.19484E-14
 -1      1371 4.17444E-03-6.80558E-04-1.27956E-14
 -1      1372 3.96268E-03-6.45123E-04-1.16470E-14
 -1      1373 4.31579E-03-6.79540E-04-1.36682E-14
 -1      1374 4.45733E-03-6.78378E-04-1.45664E-14
 -1      1375 4.24535E-03-6.43315E-04-1.33440E-14
 -1      1376 4.59908E-03-6.77070E-04-1.54876E-14
 -1      1377 4.74100E-03-6.75633E-04-1.64330E-14
 -1      1378 4.52877E-03-6.40892E-04-1.51394E-14
 -1      1379 4.88311E-03-6.74057E-04-1.74009E-14
 -1      1380 5.02540E-03-6.72352E-04-1.83898E-14
 -1      1381 4.81289E-03-6.37926E-04-1.70298E-14
 -1      1382 5.16787E-03-6.70502E-04-1.94023E-14
 -1      1383 5.31053E-03-6.68513E-04-2.04367E-14
 -1      1384 5.09769E-03-6.34420E-04-1.90109E-14
 -1      1385 5.45339E-03-6.66367E-04-2.14924E-14
 -1      1386 5.59648E-03-6.64069E-04-2.25711E-14
 -1      1387 5.38320E-03-6.30339E-04-2.10812E-14
 -1      1388 5.73982E-03-6.61600E-04-2.36713E-14
 -1      1389 5.88342E-03-6.58969E-04-2.47928E-14
 -1      1390 5.66953E-03-6.25623E-04-2.32393E-14
 -1      1391 6.02734E-03-6.56158E-04-2.59346E-14
 -1      1392 6.17160E-03-6.53185E-04-2.70955E-14
 -1      1393 5.95684E-03-6.20212E-04-2.54826E-14
 -1      1394 6.31626E-03-6.50037E-04-2.82792E-14
 -1      1395 6.46137E-03-6.46745E-04-2.94848E-14
 -1      1396 6.24538E-03-6.14078E-04-2.78091E-14
 -1      1397 6.60699E-03-6.43309E-04-3.07107E-14
 -1      1398 6.75319E-03-6.39779E-04-3.19574E-14
 -1      1399 6.53549E-03-6.07257E-04-3.02188E-14
 -1      1400 6.90005E-03-6.36175E-04-3.32241E-14
 -1      1401 7.04764E-03-6.32576E-04-3.45102E-14
 -1      1402 6.82759E-03-5.99899E-04-3.27119E-14
 -1      1403 7.19605E-03-6.29030E-04-3.58141E-14
 -1      1404 7.34537E-03-6.25655E-04-3.71340E-14
 -1      1405 7.12219E-03-5.92330E-04-3.52816E-14
 -1      1406 7.49570E-03-6.22544E-04-3.84687E-14
 -1      1407 7.64713E-03-6.19859E-04-3.98183E-14
 -1      1408 7.41988E-03-5.85132E-04-3.79187E-14
 -1      1409 7.79975E-03-6.17759E-04-4.11844E-14
 -1      1410 7.95364E-03-6.16456E-04-4.25658E-14
 -1      1411 7.72128E-03-5.79238E-04-4.06181E-14
 -1      1412 8.10888E-03-6.16193E-04-4.39616E-14
 -1      1413 8.26552E-03-6.17238E-04-4.53733E-14
 -1      1414 8.02698E-03-5.76044E-04-4.33788E-14
 -1      1415 8.42360E-03-6.19930E-04-4.67978E-14
 -1      1416 8.58310E-03-6.24584E-04-4.82325E-14
 -1      1417 8.33747E-03-5.77508E-04-4.61955E-14
 -1      1418 8.74398E-03-6.31640E-04-4.96778E-14
 -1      1419 8.90615E-03-6.41424E-04-5.11342E-14
 -1      1420 8.65293E-03-5.86205E-04-4.90615E-14
 -1      1421 9.06943E-03-6.54443E-04-5.26003E-14
 -1      1422 9.23358E-03-6.70972E-04-5.40744E-14
 -1      1423 8.97310E-03-6.05252E-04-5.19711E-14
 -1      1424 9.39829E-03-6.91485E-04-5.55555E-14
 -1      1425 9.56313E-03-7.16091E-04-5.70438E-14
 -1      1426 9.29697E-03-6.37983E-04-5.49149E-14
 -1      1427 9.72763E-03-7.45044E-04-5.85413E-14
 -1      1428 9.89119E-03-7.78119E-04-6.00447E-14
 -1      1429 9.62260E-03-6.87182E-04-5.78908E-14
 -1      1430 1.00532E-02-8.15081E-04-6.15554E-14
 -1      1431 1.02130E-02-8.55174E-04-6.30734E-14
 -1      1432 9.94701E-03-7.53751E-04-6.08969E-14
 -1      1433 1.03699E-02-8.97407E-04-6.45968E-14
 -1      1434 1.05235E-02-9.40379E-04-6.61238E-14
 -1      1435 1.02663E-02-8.34860E-04-6.39283E-14
 -1      1436 1.06732E-02-9.82258E-04-6.76580E-14
 -1      1437 1.08188E-02-1.02110E-03-6.91986E-14
 -1      1438 1.05766E-02-9.22181E-04-6.69828E-14
 -1      1439 1.09604E-02-1.05456E-03-7.07392E-14
 -1      1440 1.10983E-02-1.08062E-03-7.22819E-14
 -1      1441 1.08749E-02-1.00147E-03-7.00544E-14
 -1      1442 1.12330E-02-1.09716E-03-7.38256E-14
 -1      1443 1.13655E-02-1.10280E-03-7.53683E-14
 -1      1444 1.11612E-02-1.05497E-03-7.31363E-14
 -1      1445 1.14968E-02-1.09657E-03-7.69178E-14
 -1      1446 1.16279E-02-1.07827E-03-7.84751E-14
 -1      1447 1.14388E-02-1.06699E-03-7.62276E-14
 -1      1448 1.17599E-02-1.04853E-03-8.00369E-14
 -1      1449 1.18939E-02-1.00840E-03-8.16037E-14
 -1      1450 1.17142E-02-1.03026E-03-7.93386E-14
 -1      1451 1.20303E-02-9.59763E-04-8.31791E-14
 -1      1452 1.21696E-02-9.04406E-04-8.47626E-14
 -1      1453 1.19937E-02-9.49168E-04-8.24736E-14
 -1      1454 1.23120E-02-8.44583E-04-8.63519E-14
 -1      1455 1.24572E-02-7.82093E-04-8.79500E-14
 -1      1456 1.22813E-02-8.37338E-04-8.56373E-14
 -1      1457 1.26050E-02-7.18715E-04-8.95522E-14
 -1      1458 1.27546E-02-6.55733E-04-9.11563E-14
 -1      1459 1.25775E-02-7.11405E-04-8.88235E-14
 -1      1460 1.29056E-02-5.94038E-04-9.27666E-14
 -1      1461 1.30572E-02-5.34205E-04-9.43797E-14
 -1      1462 1.28796E-02-5.84920E-04-9.20327E-14
 -1      1463 1.32089E-02-4.76251E-04-9.59901E-14
 -1      1464 1.33601E-02-4.20157E-04-9.75955E-14
 -1      1465 1.31838E-02-4.65214E-04-9.52498E-14
 -1      1466 1.35104E-02-3.65332E-04-9.92031E-14
 -1      1467 1.36595E-02-3.11379E-04-1.00807E-13
 -1      1468 1.34864E-02-3.53372E-04-9.84664E-14
 -1      1469 1.38072E-02-2.57448E-04-1.02408E-13
 -1      1470 1.39536E-02-2.03000E-04-1.04009E-13
 -1      1471 1.37848E-02-2.46044E-04-1.01673E-13
 -1      1472 1.40987E-02-1.47319E-04-1.05612E-13
 -1      1473 1.42427E-02-9.00393E-05-1.07217E-13
 -1      1474 1.40781E-02-1.37824E-04-1.04877E-13
 -1      1475 1.44564E-02 2.88988E-08-1.09561E-13
 -1      1476 1.44375E-02 6.94637E-06-1.08821E-13
 -1      1477 6.43095E-04 3.72035E-04-1.54783E-16
 -1      1478 4.92966E-04 3.03705E-04-7.30075E-17
 -1      1479 4.44893E-04 2.65908E-04-1.01427E-16
 -1      1480 9.28685E-04 4.72013E-04-4.31065E-16
 -1      1481 7.87820E-04 4.26515E-04-2.74506E-16
 -1      1482 7.44758E-04 3.90743E-04-3.06057E-16
 -1      1483 1.20358E-03 5.41448E-04-8.52522E-16
 -1      1484 1.06691E-03 5.09761E-04-6.23498E-16
 -1      1485 1.03081E-03 4.76198E-04-6.56796E-16
 -1      1486 1.47412E-03 5.90660E-04-1.41742E-15
 -1      1487 1.33907E-03 5.68194E-04-1.11737E-15
 -1      1488 1.30872E-03 5.36038E-04-1.15000E-15
 -1      1489 1.74364E-03 6.25568E-04-2.12288E-15
 -1      1490 1.60884E-03 6.09661E-04-1.75248E-15
 -1      1491 1.58294E-03 5.78340E-04-1.78311E-15
 -1      1492 2.01383E-03 6.50038E-04-2.96384E-15
 -1      1493 1.87857E-03 6.38936E-04-2.52654E-15
 -1      1494 1.85609E-03 6.08079E-04-2.55323E-15
 -1      1495 2.28548E-03 6.66813E-04-3.93796E-15
 -1      1496 2.14943E-03 6.59256E-04-3.43466E-15
 -1      1497 2.12958E-03 6.28636E-04-3.45688E-15
 -1      1498 2.55892E-03 6.77929E-04-5.04277E-15
 -1      1499 2.42197E-03 6.72978E-04-4.47415E-15
 -1      1500 2.40412E-03 6.42453E-04-4.49181E-15
 -1      1501 2.83420E-03 6.84920E-04-6.27441E-15
 -1      1502 2.69633E-03 6.81864E-04-5.64314E-15
 -1      1503 2.68000E-03 6.51352E-04-5.65391E-15
 -1      1504 3.11122E-03 6.88934E-04-7.62763E-15
 -1      1505 2.97250E-03 6.87242E-04-6.93635E-15
 -1      1506 2.95730E-03 6.56695E-04-6.93937E-15
 -1      1507 3.38981E-03 6.90821E-04-9.09686E-15
 -1      1508 3.25033E-03 6.90101E-04-8.34775E-15
 -1      1509 3.23597E-03 6.59495E-04-8.34338E-15
 -1      1510 3.66978E-03 6.91194E-04-1.06790E-14
 -1      1511 3.52964E-03 6.91167E-04-9.87383E-15
 -1      1512 3.51590E-03 6.60492E-04-9.86167E-15
 -1      1513 3.95092E-03 6.90482E-04-1.23704E-14
 -1      1514 3.81021E-03 6.90954E-04-1.15111E-14
 -1      1515 3.79694E-03 6.60208E-04-1.14910E-14
 -1      1516 4.23305E-03 6.88962E-04-1.41692E-14
 -1      1517 4.09187E-03 6.89810E-04-1.32566E-14
 -1      1518 4.07895E-03 6.59000E-04-1.32277E-14
 -1      1519 4.51605E-03 6.86801E-04-1.60747E-14
 -1      1520 4.37445E-03 6.87955E-04-1.51091E-14
 -1      1521 4.36180E-03 6.57086E-04-1.50711E-14
 -1      1522 4.79980E-03 6.84074E-04-1.80812E-14
 -1      1523 4.65784E-03 6.85505E-04-1.70654E-14
 -1      1524 4.64540E-03 6.54584E-04-1.70176E-14
 -1      1525 5.08428E-03 6.80787E-04-2.01860E-14
 -1      1526 4.94195E-03 6.82500E-04-1.91215E-14
 -1      1527 4.92970E-03 6.51529E-04-1.90644E-14
 -1      1528 5.36951E-03 6.76902E-04-2.23881E-14
 -1      1529 5.22680E-03 6.78920E-04-2.12754E-14
 -1      1530 5.21470E-03 6.47900E-04-2.12081E-14
 -1      1531 5.65559E-03 6.72349E-04-2.46795E-14
 -1      1532 5.51244E-03 6.74709E-04-2.35225E-14
 -1      1533 5.50047E-03 6.43632E-04-2.34454E-14
 -1      1534 5.94273E-03 6.67048E-04-2.70554E-14
 -1      1535 5.79902E-03 6.69790E-04-2.58571E-14
 -1      1536 5.78715E-03 6.38639E-04-2.57700E-14
 -1      1537 6.23123E-03 6.60936E-04-2.95084E-14
 -1      1538 6.08679E-03 6.64087E-04-2.82726E-14
 -1      1539 6.07497E-03 6.32835E-04-2.81762E-14
 -1      1540 6.52153E-03 6.53997E-04-3.20296E-14
 -1      1541 6.37613E-03 6.57555E-04-3.07610E-14
 -1      1542 6.36426E-03 6.26160E-04-3.06559E-14
 -1      1543 6.81422E-03 6.46305E-04-3.46180E-14
 -1      1544 6.66754E-03 6.50218E-04-3.33169E-14
 -1      1545 6.65548E-03 6.18617E-04-3.32029E-14
 -1      1546 7.11008E-03 6.38088E-04-3.72623E-14
 -1      1547 6.96170E-03 6.42216E-04-3.59331E-14
 -1      1548 6.94924E-03 6.10322E-04-3.58102E-14
 -1      1549 7.41008E-03 6.29813E-04-3.99614E-14
 -1      1550 7.25950E-03 6.33886E-04-3.86045E-14
 -1      1551 7.24628E-03 6.01579E-04-3.84762E-14
 -1      1552 7.71540E-03 6.22317E-04-4.27115E-14
 -1      1553 7.56199E-03 6.25860E-04-4.13301E-14
 -1      1554 7.54755E-03 5.92984E-04-4.11959E-14
 -1      1555 8.02742E-03 6.16971E-04-4.55146E-14
 -1      1556 7.87048E-03 6.19220E-04-4.41070E-14
 -1      1557 7.85415E-03 5.85572E-04-4.39693E-14
 -1      1558 8.34765E-03 6.15919E-04-4.83634E-14
 -1      1559 8.18641E-03 6.15694E-04-4.69341E-14
 -1      1560 8.16728E-03 5.81019E-04-4.67903E-14
 -1      1561 8.67752E-03 6.22356E-04-5.12557E-14
 -1      1562 8.51129E-03 6.17919E-04-4.98035E-14
 -1      1563 8.48821E-03 5.81912E-04-4.96561E-14
 -1      1564 9.01809E-03 6.40812E-04-5.41840E-14
 -1      1565 8.84641E-03 6.29734E-04-5.27148E-14
 -1      1566 8.81802E-03 5.92050E-04-5.25619E-14
 -1      1567 9.36945E-03 6.77286E-04-5.71385E-14
 -1      1568 9.19244E-03 6.56417E-04-5.56599E-14
 -1      1569 9.15730E-03 6.16713E-04-5.54993E-14
 -1      1570 9.72995E-03 7.38877E-04-6.01061E-14
 -1      1571 9.54872E-03 7.04618E-04-5.86216E-14
 -1      1572 9.50566E-03 6.62643E-04-5.84586E-14
 -1      1573 1.00952E-02 8.32303E-04-6.30856E-14
 -1      1574 9.91238E-03 7.81521E-04-6.15933E-14
 -1      1575 9.86109E-03 7.37290E-04-6.14307E-14
 -1      1576 1.04577E-02 9.60523E-04-6.60930E-14
 -1      1577 1.02775E-02 8.92484E-04-6.45860E-14
 -1      1578 1.02193E-02 8.46565E-04-6.44241E-14
 -1      1579 1.08071E-02 1.11728E-03-6.91276E-14
 -1      1580 1.06348E-02 1.03654E-03-6.76071E-14
 -1      1581 1.05736E-02 9.90372E-04-6.74445E-14
 -1      1582 1.11334E-02 1.28202E-03-7.21923E-14
 -1      1583 1.09737E-02 1.20067E-03-7.06566E-14
 -1      1584 1.09155E-02 1.15655E-03-7.04917E-14
 -1      1585 1.14325E-02 1.42052E-03-7.52833E-14
 -1      1586 1.12863E-02 1.35681E-03-7.37353E-14
 -1      1587 1.12382E-02 1.31722E-03-7.35636E-14
 -1      1588 1.17105E-02 1.49638E-03-7.83940E-14
 -1      1589 1.15732E-02 1.46767E-03-7.68352E-14
 -1      1590 1.15410E-02 1.43379E-03-7.66561E-14
 -1      1591 1.19831E-02 1.49057E-03-8.15122E-14
 -1      1592 1.18462E-02 1.50337E-03-7.99520E-14
 -1      1593 1.18321E-02 1.47404E-03-7.97681E-14
 -1      1594 1.22677E-02 1.41231E-03-8.46439E-14
 -1      1595 1.21229E-02 1.45862E-03-8.30770E-14
 -1      1596 1.21253E-02 1.43103E-03-8.28904E-14
 -1      1597 1.25738E-02 1.29314E-03-8.77912E-14
 -1      1598 1.24179E-02 1.35548E-03-8.62156E-14
 -1      1599 1.24317E-02 1.32697E-03-8.60289E-14
 -1      1600 1.29000E-02 1.16843E-03-9.09561E-14
 -1      1601 1.27349E-02 1.22979E-03-8.93690E-14
 -1      1602 1.27541E-02 1.19915E-03-8.91825E-14
 -1      1603 1.32373E-02 1.06169E-03-9.41282E-14
 -1      1604 1.30680E-02 1.11216E-03-9.25419E-14
 -1      1605 1.30874E-02 1.07962E-03-9.23485E-14
 -1      1606 1.35749E-02 9.80864E-04-9.72990E-14
 -1      1607 1.34067E-02 1.01821E-03-9.57174E-14
 -1      1608 1.34232E-02 9.84689E-04-9.55205E-14
 -1      1609 1.39043E-02 9.22174E-04-1.00461E-13
 -1      1610 1.37410E-02 9.49345E-04-9.88805E-14
 -1      1611 1.37541E-02 9.15920E-04-9.86870E-14
 -1      1612 1.42208E-02 8.75781E-04-1.03625E-13
 -1      1613 1.40643E-02 8.98155E-04-1.02041E-13
 -1      1614 1.40750E-02 8.65703E-04-1.01848E-13
 -1      1615 1.45237E-02 8.30121E-04-1.06795E-13
 -1      1616 1.43739E-02 8.53496E-04-1.05210E-13
 -1      1617 1.43840E-02 8.22605E-04-1.05015E-13
 -1      1618 1.48157E-02 7.75490E-04-1.09956E-13
 -1      1619 1.46708E-02 8.04259E-04-1.08376E-13
 -1      1620 1.46817E-02 7.75144E-04-1.08181E-13
 -1      1621 1.49737E-02 7.31379E-04-1.11581E-13
 -1      1622 1.50782E-02 6.27855E-04-1.11559E-13
 -1      1623 1.50390E-02 6.66867E-04-1.11619E-13
 -1      1624 1.51648E-02 5.57698E-04-1.11449E-13
 -1      1625 1.51205E-02 5.91278E-04-1.11504E-13
 -1      1626 1.49763E-02 6.37628E-04-1.10160E-13
 -1      1627 1.52554E-02 5.01262E-04-1.11341E-13
 -1      1628 1.52102E-02 5.27577E-04-1.11394E-13
 -1      1629 1.50665E-02 5.69677E-04-1.10041E-13
 -1      1630 1.53391E-02 4.60679E-04-1.11220E-13
 -1      1631 1.52988E-02 4.78946E-04-1.11284E-13
 -1      1632 1.51585E-02 5.13828E-04-1.09924E-13
 -1      1633 1.54033E-02 4.35890E-04-1.11103E-13
 -1      1634 1.53741E-02 4.46535E-04-1.11160E-13
 -1      1635 1.52403E-02 4.71505E-04-1.09803E-13
 -1      1636 1.54394E-02 4.22974E-04-1.11000E-13
 -1      1637 1.54256E-02 4.28170E-04-1.11049E-13
 -1      1638 1.53006E-02 4.41360E-04-1.09685E-13
 -1      1639 1.54381E-02 4.16981E-04-1.10886E-13
 -1      1640 1.54437E-02 4.19518E-04-1.10944E-13
 -1      1641 1.53290E-02 4.20250E-04-1.09570E-13
 -1      1642 1.53970E-02 4.11072E-04-1.10769E-13
 -1      1643 1.54225E-02 4.14447E-04-1.10830E-13
 -1      1644 1.53181E-02 4.03516E-04-1.09454E-13
 -1      1645 1.53191E-02 3.98614E-04-1.10635E-13
 -1      1646 1.53623E-02 4.06019E-04-1.10707E-13
 -1      1647 1.52666E-02 3.85325E-04-1.09336E-13
 -1      1648 1.52122E-02 3.74625E-04-1.10496E-13
 -1      1649 1.52687E-02 3.88277E-04-1.10566E-13
 -1      1650 1.51791E-02 3.60359E-04-1.09207E-13
 -1      1651 1.50884E-02 3.37348E-04-1.10367E-13
 -1      1652 1.51520E-02 3.57738E-04-1.10430E-13
 -1      1653 1.50656E-02 3.25304E-04-1.09076E-13
 -1      1654 1.49532E-02 2.85418E-04-1.10243E-13
 -1      1655 1.50214E-02 3.13075E-04-1.10305E-13
 -1      1656 1.49357E-02 2.78517E-04-1.08946E-13
 -1      1657 1.48164E-02 2.21111E-04-1.10103E-13
 -1      1658 1.48846E-02 2.54655E-04-1.10177E-13
 -1      1659 1.47978E-02 2.19860E-04-1.08814E-13
 -1      1660 1.46835E-02 1.47268E-04-1.09954E-13
 -1      1661 1.47492E-02 1.85175E-04-1.10030E-13
 -1      1662 1.46603E-02 1.51418E-04-1.08672E-13
 -1      1663 1.45281E-02 5.74669E-05-1.09350E-13
 -1      1664 1.45905E-02 9.79420E-05-1.09424E-13
 -1      1665 1.44992E-02 6.62700E-05-1.08069E-13
 -1      1666 1.43139E-02-3.18386E-05-1.07011E-13
 -1      1667 1.39509E-02 3.52915E-04-8.57835E-14
 -1      1668 1.39819E-02 3.00883E-04-8.58174E-14
 -1      1669 1.37622E-02 4.85491E-04-8.54053E-14
 -1      1670 1.38705E-02 4.19002E-04-8.56587E-14
 -1      1671 1.34711E-02 6.42771E-04-8.46273E-14
 -1      1672 1.36129E-02 5.70691E-04-8.49972E-14
 -1      1673 1.31181E-02 8.14334E-04-8.36198E-14
 -1      1674 1.32882E-02 7.32708E-04-8.41169E-14
 -1      1675 1.27268E-02 9.90395E-04-8.23592E-14
 -1      1676 1.29108E-02 9.09899E-04-8.29683E-14
 -1      1677 1.23116E-02 1.14177E-03-8.08533E-14
 -1      1678 1.25059E-02 1.07692E-03-8.15758E-14
 -1      1679 1.18983E-02 1.22452E-03-7.92130E-14
 -1      1680 1.20848E-02 1.19764E-03-7.99859E-14
 -1      1681 1.14697E-02 1.20907E-03-7.73730E-14
 -1      1682 1.16685E-02 1.23222E-03-7.82381E-14
 -1      1683 1.10525E-02 1.09206E-03-7.57018E-14
 -1      1684 1.12354E-02 1.15237E-03-7.64369E-14
 -1      1685 1.06523E-02 9.13123E-04-7.41178E-14
 -1      1686 1.08425E-02 1.00240E-03-7.48215E-14
 -1      1687 1.02288E-02 6.88304E-04-7.25899E-14
 -1      1688 1.04280E-02 7.91908E-04-7.32481E-14
 -1      1689 9.83598E-03 5.10221E-04-7.15442E-14
 -1      1690 9.99583E-03 5.94179E-04-7.20250E-14
 -1      1691 9.55833E-03 3.55997E-04-7.07317E-14
 -1      1692 9.67436E-03 4.22366E-04-7.10662E-14
 -1      1693 9.39266E-03 2.30146E-04-7.02078E-14
 -1      1694 9.45375E-03 2.83090E-04-7.03885E-14
 -1      1695 9.36789E-03 1.23189E-04-7.00857E-14
 -1      1696 9.36031E-03 1.71487E-04-7.00951E-14
 -1      1697 9.49529E-03 4.81458E-06-7.03761E-14
 -1      1698 9.41799E-03 6.09545E-05-7.02162E-14
 -1      1699 9.75598E-03-1.26118E-04-7.08993E-14
 -1      1700 9.62319E-03-5.89786E-05-7.05795E-14
 -1      1701 1.00837E-02-2.95533E-04-7.18696E-14
 -1      1702 9.92386E-03-2.19465E-04-7.14265E-14
 -1      1703 1.04498E-02-4.61698E-04-7.29958E-14
 -1      1704 1.02783E-02-3.85043E-04-7.24501E-14
 -1      1705 1.08381E-02-6.15535E-04-7.43643E-14
 -1      1706 1.06562E-02-5.47340E-04-7.37043E-14
 -1      1707 1.12318E-02-7.23070E-04-7.59136E-14
 -1      1708 1.10503E-02-6.80994E-04-7.51804E-14
 -1      1709 1.16385E-02-7.55915E-04-7.76302E-14
 -1      1710 1.14500E-02-7.52678E-04-7.68177E-14
 -1      1711 1.20370E-02-6.95989E-04-7.93152E-14
 -1      1712 1.18562E-02-7.32916E-04-7.85573E-14
 -1      1713 1.24343E-02-5.67038E-04-8.08916E-14
 -1      1714 1.22502E-02-6.34290E-04-8.01785E-14
 -1      1715 1.28363E-02-3.87958E-04-8.23735E-14
 -1      1716 1.26476E-02-4.74592E-04-8.17177E-14
 -1      1717 1.32430E-02-1.92240E-04-8.36845E-14
 -1      1718 1.30579E-02-2.82823E-04-8.31057E-14
 -1      1719 1.35878E-02-2.61470E-05-8.46576E-14
 -1      1720 1.34414E-02-1.00118E-04-8.42403E-14
 -1      1721 1.38406E-02 1.31389E-04-8.55250E-14
 -1      1722 1.37326E-02 7.18400E-05-8.52357E-14
 -1      1723 1.39760E-02 2.40717E-04-8.57963E-14
 -1      1724 1.39330E-02 1.88119E-04-8.56553E-14
 -1      1725 1.29528E-02 8.24499E-04-8.36954E-14
 -1      1726 1.33345E-02 6.34894E-04-8.48565E-14
 -1      1727 1.49860E-02 7.03579E-04-1.11390E-13
 -1      1728 1.48800E-02 7.10837E-04-1.09990E-13
 -1      1729 1.39122E-02 3.57515E-04-8.63055E-14
 -1      1730 1.36723E-02 4.73706E-04-8.57734E-14
 -1      1731 1.39900E-02 2.73255E-04-8.64128E-14
 -1      1732 1.25532E-02 1.02258E-03-8.22594E-14
 -1      1733 1.21560E-02 1.18335E-03-8.06054E-14
 -1      1734 1.17710E-02 1.25670E-03-7.87624E-14
 -1      1735 1.13972E-02 1.20343E-03-7.68552E-14
 -1      1736 1.10056E-02 1.04420E-03-7.50422E-14
 -1      1737 1.06064E-02 8.17363E-04-7.32977E-14
 -1      1738 1.01756E-02 5.88484E-04-7.18715E-14
 -1      1739 9.78595E-03 4.09120E-04-7.08334E-14
 -1      1740 9.51110E-03 2.74647E-04-7.00143E-14
 -1      1741 9.36726E-03 1.85206E-04-6.95562E-14
 -1      1742 9.38570E-03 1.10916E-04-6.95693E-14
 -1      1743 9.56961E-03 1.68565E-05-6.99001E-14
 -1      1744 9.87328E-03-1.17878E-04-7.06295E-14
 -1      1745 1.02345E-02-2.97247E-04-7.17363E-14
 -1      1746 1.06150E-02-4.84521E-04-7.30225E-14
 -1      1747 1.09933E-02-6.52946E-04-7.45451E-14
 -1      1748 1.13651E-02-7.61433E-04-7.62628E-14
 -1      1749 1.17262E-02-7.70273E-04-7.80910E-14
 -1      1750 1.20946E-02-6.75502E-04-7.98805E-14
 -1      1751 1.24758E-02-5.05013E-04-8.15715E-14
 -1      1752 1.28819E-02-2.91747E-04-8.31321E-14
 -1      1753 1.32908E-02-8.92062E-05-8.44200E-14
 -1      1754 1.36393E-02 8.52762E-05-8.55549E-14
 -1      1755 1.38883E-02 1.96874E-04-8.62645E-14
 -1      1756 2.85247E-04-1.76239E-04-3.54399E-17
 -1      1757 3.32170E-04-1.16785E-04-1.61614E-16
 -1      1758 3.36322E-04-1.33032E-04-1.48576E-16
 -1      1759 3.42214E-04-1.52019E-04-1.33126E-16
 -1      1760 3.51768E-04-1.74021E-04-1.11957E-16
 -1      1761 4.58331E-04-1.88103E-04-2.14713E-16
 -1      1762 3.24555E-04-6.53912E-05-1.91850E-16
 -1      1763 3.25701E-04-7.66813E-05-1.86537E-16
 -1      1764 3.23072E-04-4.38961E-05-2.00008E-16
 -1      1765 3.23722E-04-5.43862E-05-1.96105E-16
 -1      1766 4.36501E-04-7.93055E-05-2.86677E-16
 -1      1767 3.22292E-04-2.37754E-05-2.05239E-16
 -1      1768 3.22622E-04-3.36900E-05-2.02881E-16
 -1      1769 4.34515E-04-5.13258E-05-2.96895E-16
 -1      1770 3.22000E-04-4.33823E-06-2.08479E-16
 -1      1771 3.22096E-04-1.39919E-05-2.06947E-16
 -1      1772 4.33499E-04-2.49278E-05-3.03617E-16
 -1      1773 3.22122E-04 1.49823E-05-2.09685E-16
 -1      1774 3.22008E-04 5.31864E-06-2.09346E-16
 -1      1775 4.33203E-04 7.56874E-07-3.07466E-16
 -1      1776 3.22685E-04 3.47335E-05-2.09156E-16
 -1      1777 3.22335E-04 2.47866E-05-2.09685E-16
 -1      1778 4.33557E-04 2.64700E-05-3.08645E-16
 -1      1779 3.23811E-04 5.51722E-05-2.06039E-16
 -1      1780 3.23150E-04 4.48091E-05-2.08004E-16
 -1      1781 4.34630E-04 5.27280E-05-3.07073E-16
 -1      1782 3.25864E-04 7.78238E-05-1.99561E-16
 -1      1783 3.24668E-04 6.62428E-05-2.03464E-16
 -1      1784 4.36679E-04 8.06091E-05-3.01842E-16
 -1      1785 3.29549E-04 1.03661E-04-1.87987E-16
 -1      1786 3.27403E-04 9.03113E-05-1.94614E-16
 -1      1787 4.40322E-04 1.11579E-04-2.91312E-16
 -1      1788 3.36580E-04 1.35118E-04-1.68200E-16
 -1      1789 3.32399E-04 1.18620E-04-1.79612E-16
 -1      1790 4.46787E-04 1.47347E-04-2.73192E-16
 -1      1791 3.52305E-04 1.77611E-04-1.35214E-16
 -1      1792 3.42810E-04 1.54766E-04-1.54052E-16
 -1      1793 4.59318E-04 1.91468E-04-2.43349E-16
 -1      1794 4.07706E-04 2.33695E-04-1.15156E-16
 -1      1795 3.78094E-04 2.02670E-04-1.29427E-16
 -1      1796 4.95860E-04 2.44007E-04-2.17667E-16
 -1      1797 5.58555E-04 3.02517E-04-1.99290E-16
 -1      1798 3.40028E-04-1.90918E-04-7.42678E-17
 -1      1799 8.53580E-04 4.07140E-04-4.79502E-16
 -1      1800 7.07174E-04 3.59394E-04-3.21778E-16
 -1      1801 6.73408E-04 3.28826E-04-3.33392E-16
 -1      1802 4.58960E-04-2.36729E-04-1.43264E-16
 -1      1803 8.07241E-04-3.74134E-04-4.03133E-16
 -1      1804 9.52509E-04-4.15323E-04-5.72947E-16
 -1      1805 1.09535E-03-4.50017E-04-7.75692E-16
 -1      1806 1.23702E-03-4.78918E-04-1.01156E-15
 -1      1807 1.00394E-03-3.97942E-04-7.20750E-16
 -1      1808 1.37742E-03-5.03406E-04-1.28017E-15
 -1      1809 1.51711E-03-5.23780E-04-1.58166E-15
 -1      1810 1.28962E-03-4.55917E-04-1.20204E-15
 -1      1811 1.65627E-03-5.40960E-04-1.91543E-15
 -1      1812 1.79511E-03-5.55184E-04-2.28101E-15
 -1      1813 1.57202E-03-4.96867E-04-1.81315E-15
 -1      1814 1.93382E-03-5.67060E-04-2.67793E-15
 -1      1815 2.07248E-03-5.76791E-04-3.10617E-15
 -1      1816 1.85264E-03-5.25410E-04-2.55117E-15
 -1      1817 2.21122E-03-5.84793E-04-3.56566E-15
 -1      1818 2.35005E-03-5.91238E-04-4.05493E-15
 -1      1819 2.13253E-03-5.44881E-04-3.41384E-15
 -1      1820 2.48908E-03-5.96420E-04-4.57475E-15
 -1      1821 2.62828E-03-6.00478E-04-5.12551E-15
 -1      1822 2.41238E-03-5.57728E-04-4.39819E-15
 -1      1823 2.76774E-03-6.03623E-04-5.70517E-15
 -1      1824 2.90739E-03-6.05967E-04-6.31260E-15
 -1      1825 2.69259E-03-5.65775E-04-5.50177E-15
 -1      1826 3.04731E-03-6.07658E-04-6.94960E-15
 -1      1827 3.18744E-03-6.08783E-04-7.61461E-15
 -1      1828 2.97337E-03-5.70381E-04-6.72186E-15
 -1      1829 3.32783E-03-6.09447E-04-8.30660E-15
 -1      1830 3.46842E-03-6.09715E-04-9.02666E-15
 -1      1831 3.25481E-03-5.72550E-04-8.05398E-15
 -1      1832 3.60923E-03-6.09656E-04-9.77336E-15
 -1      1833 3.75024E-03-6.09319E-04-1.05463E-14
 -1      1834 3.53692E-03-5.73007E-04-9.49517E-15
 -1      1835 3.89146E-03-6.08747E-04-1.13450E-14
 -1      1836 4.03285E-03-6.07974E-04-1.21695E-14
 -1      1837 3.81966E-03-5.72262E-04-1.10428E-14
 -1      1838 4.17442E-03-6.07024E-04-1.30195E-14
 -1      1839 4.31615E-03-6.05918E-04-1.38936E-14
 -1      1840 4.10301E-03-5.70652E-04-1.26936E-14
 -1      1841 4.45804E-03-6.04667E-04-1.47914E-14
 -1      1842 4.60009E-03-6.03282E-04-1.57134E-14
 -1      1843 4.38690E-03-5.68384E-04-1.44438E-14
 -1      1844 4.74229E-03-6.01761E-04-1.66596E-14
 -1      1845 4.88464E-03-6.00112E-04-1.76283E-14
 -1      1846 4.67132E-03-5.65561E-04-1.62889E-14
 -1      1847 5.02714E-03-5.98323E-04-1.86193E-14
 -1      1848 5.16980E-03-5.96396E-04-1.96335E-14
 -1      1849 4.95626E-03-5.62209E-04-1.82277E-14
 -1      1850 5.31263E-03-5.94315E-04-2.06698E-14
 -1      1851 5.45563E-03-5.92083E-04-2.17274E-14
 -1      1852 5.24173E-03-5.58300E-04-2.02572E-14
 -1      1853 5.59882E-03-5.89677E-04-2.28079E-14
 -1      1854 5.74223E-03-5.87101E-04-2.39091E-14
 -1      1855 5.52779E-03-5.53770E-04-2.23758E-14
 -1      1856 5.88587E-03-5.84336E-04-2.50310E-14
 -1      1857 6.02978E-03-5.81390E-04-2.61743E-14
 -1      1858 5.81456E-03-5.48540E-04-2.45800E-14
 -1      1859 6.17396E-03-5.78246E-04-2.73380E-14
 -1      1860 6.31849E-03-5.74920E-04-2.85231E-14
 -1      1861 6.10217E-03-5.42548E-04-2.68676E-14
 -1      1862 6.46337E-03-5.71410E-04-2.97289E-14
 -1      1863 6.60868E-03-5.67742E-04-3.09543E-14
 -1      1864 6.39085E-03-5.35771E-04-2.92375E-14
 -1      1865 6.75443E-03-5.63933E-04-3.22010E-14
 -1      1866 6.90072E-03-5.60030E-04-3.34664E-14
 -1      1867 6.68086E-03-5.28273E-04-3.16905E-14
 -1      1868 7.04756E-03-5.56078E-04-3.47494E-14
 -1      1869 7.19507E-03-5.52151E-04-3.60523E-14
 -1      1870 6.97252E-03-5.20257E-04-3.42206E-14
 -1      1871 7.34325E-03-5.48340E-04-3.73710E-14
 -1      1872 7.49224E-03-5.44753E-04-3.87039E-14
 -1      1873 7.26624E-03-5.12134E-04-3.68231E-14
 -1      1874 7.64203E-03-5.41542E-04-4.00534E-14
 -1      1875 7.79276E-03-5.38861E-04-4.14178E-14
 -1      1876 7.56247E-03-5.04616E-04-3.94899E-14
 -1      1877 7.94443E-03-5.36943E-04-4.27965E-14
 -1      1878 8.09715E-03-5.35996E-04-4.41895E-14
 -1      1879 7.86167E-03-4.98818E-04-4.22160E-14
 -1      1880 8.25094E-03-5.36349E-04-4.55972E-14
 -1      1881 8.40584E-03-5.38270E-04-4.70173E-14
 -1      1882 8.16437E-03-4.96375E-04-4.50009E-14
 -1      1883 8.56190E-03-5.42189E-04-4.84485E-14
 -1      1884 8.71905E-03-5.48430E-04-4.98898E-14
 -1      1885 8.47103E-03-4.99535E-04-4.78370E-14
 -1      1886 8.87738E-03-5.57500E-04-5.13432E-14
 -1      1887 9.03665E-03-5.69752E-04-5.28056E-14
 -1      1888 8.78204E-03-5.11192E-04-5.07183E-14
 -1      1889 9.19701E-03-5.85696E-04-5.42771E-14
 -1      1890 9.35795E-03-6.05646E-04-5.57556E-14
 -1      1891 9.09757E-03-5.34749E-04-5.36403E-14
 -1      1892 9.51971E-03-6.29966E-04-5.72411E-14
 -1      1893 9.68149E-03-6.58794E-04-5.87360E-14
 -1      1894 9.41739E-03-5.73682E-04-5.65948E-14
 -1      1895 9.84358E-03-6.92111E-04-6.02378E-14
 -1      1896 1.00049E-02-7.29663E-04-6.17454E-14
 -1      1897 9.74058E-03-6.30590E-04-5.95801E-14
 -1      1898 1.01657E-02-7.70769E-04-6.32614E-14
 -1      1899 1.03248E-02-8.14512E-04-6.47821E-14
 -1      1900 1.00651E-02-7.05569E-04-6.25943E-14
 -1      1901 1.04824E-02-8.59352E-04-6.63067E-14
 -1      1902 1.06375E-02-9.03573E-04-6.78370E-14
 -1      1903 1.03878E-02-7.94001E-04-6.56335E-14
 -1      1904 1.07902E-02-9.44866E-04-6.93707E-14
 -1      1905 1.09403E-02-9.80927E-04-7.09079E-14
 -1      1906 1.07045E-02-8.84612E-04-6.86894E-14
 -1      1907 1.10875E-02-1.00925E-03-7.24490E-14
 -1      1908 1.12329E-02-1.02769E-03-7.39905E-14
 -1      1909 1.10120E-02-9.59556E-04-7.17604E-14
 -1      1910 1.13760E-02-1.03449E-03-7.55363E-14
 -1      1911 1.15189E-02-1.02862E-03-7.70851E-14
 -1      1912 1.13102E-02-9.98634E-04-7.48443E-14
 -1      1913 1.16610E-02-1.00988E-03-7.86403E-14
 -1      1914 1.18044E-02-9.78890E-04-8.02019E-14
 -1      1915 1.16033E-02-9.87234E-04-7.79432E-14
 -1      1916 1.19486E-02-9.37069E-04-8.17694E-14
 -1      1917 1.20950E-02-8.86315E-04-8.33428E-14
 -1      1918 1.18980E-02-9.23597E-04-8.10652E-14
 -1      1919 1.22431E-02-8.28938E-04-8.49232E-14
 -1      1920 1.23931E-02-7.67140E-04-8.65104E-14
 -1      1921 1.21991E-02-8.19551E-04-8.42121E-14
 -1      1922 1.25448E-02-7.03111E-04-8.81031E-14
 -1      1923 1.26975E-02-6.38568E-04-8.97000E-14
 -1      1924 1.25074E-02-6.93888E-04-8.73831E-14
 -1      1925 1.28512E-02-5.74946E-04-9.13031E-14
 -1      1926 1.30048E-02-5.13055E-04-9.29077E-14
 -1      1927 1.28198E-02-5.63975E-04-9.05745E-14
 -1      1928 1.31586E-02-4.53387E-04-9.45124E-14
 -1      1929 1.33114E-02-3.96017E-04-9.61190E-14
 -1      1930 1.31322E-02-4.40567E-04-9.37788E-14
 -1      1931 1.34636E-02-3.40652E-04-9.77280E-14
 -1      1932 1.36144E-02-2.86866E-04-9.93330E-14
 -1      1933 1.34411E-02-3.26969E-04-9.69908E-14
 -1      1934 1.37640E-02-2.33924E-04-1.00938E-13
 -1      1935 1.39122E-02-1.81165E-04-1.02540E-13
 -1      1936 1.37444E-02-2.20892E-04-1.00200E-13
 -1      1937 1.40414E-02-1.35085E-04-1.03973E-13
 -1      1938 1.41870E-02-8.05196E-05-1.05577E-13
 -1      1939 1.42796E-02-3.12153E-05-1.06104E-13
 -1      1940 1.40235E-02-1.24135E-04-1.03237E-13
 -1      1941 1.13863E-03 4.80113E-04-8.99495E-16
 -1      1942 9.96863E-04 4.46857E-04-6.71758E-16
 -1      1943 9.64479E-04 4.17402E-04-6.82695E-16
 -1      1944 1.41775E-03 5.31602E-04-1.45953E-15
 -1      1945 1.27859E-03 5.08149E-04-1.16190E-15
 -1      1946 1.24895E-03 4.80012E-04-1.17033E-15
 -1      1947 1.69412E-03 5.67901E-04-2.15710E-15
 -1      1948 1.55609E-03 5.51405E-04-1.79126E-15
 -1      1949 1.52922E-03 5.24234E-04-1.79555E-15
 -1      1950 1.96967E-03 5.93186E-04-2.98877E-15
 -1      1951 1.83190E-03 5.81750E-04-2.55644E-15
 -1      1952 1.80745E-03 5.55217E-04-2.55598E-15
 -1      1953 2.24549E-03 6.10409E-04-3.95215E-15
 -1      1954 2.10750E-03 6.02680E-04-3.45402E-15
 -1      1955 2.08506E-03 5.76554E-04-3.44790E-15
 -1      1956 2.52212E-03 6.21740E-04-5.04386E-15
 -1      1957 2.38369E-03 6.16717E-04-4.48217E-15
 -1      1958 2.36286E-03 5.90840E-04-4.46933E-15
 -1      1959 2.79983E-03 6.28799E-04-6.26056E-15
 -1      1960 2.66084E-03 6.25734E-04-5.63689E-15
 -1      1961 2.64129E-03 5.99999E-04-5.61684E-15
 -1      1962 3.07868E-03 6.32794E-04-7.59767E-15
 -1      1963 2.93912E-03 6.31128E-04-6.91408E-15
 -1      1964 2.92058E-03 6.05467E-04-6.88616E-15
 -1      1965 3.35864E-03 6.34614E-04-9.05091E-15
 -1      1966 3.21853E-03 6.33939E-04-8.31022E-15
 -1      1967 3.20077E-03 6.08307E-04-8.27401E-15
 -1      1968 3.63963E-03 6.34898E-04-1.06167E-14
 -1      1969 3.49902E-03 6.34922E-04-9.81973E-15
 -1      1970 3.48186E-03 6.09293E-04-9.77563E-15
 -1      1971 3.92154E-03 6.34091E-04-1.22912E-14
 -1      1972 3.78048E-03 6.34614E-04-1.14403E-14
 -1      1973 3.76379E-03 6.08974E-04-1.13876E-14
 -1      1974 4.20426E-03 6.32481E-04-1.40723E-14
 -1      1975 4.06281E-03 6.33376E-04-1.31690E-14
 -1      1976 4.04647E-03 6.07718E-04-1.31069E-14
 -1      1977 4.48771E-03 6.30237E-04-1.59582E-14
 -1      1978 4.34591E-03 6.31433E-04-1.50022E-14
 -1      1979 4.32983E-03 6.05756E-04-1.49320E-14
 -1      1980 4.77183E-03 6.27435E-04-1.79462E-14
 -1      1981 4.62969E-03 6.28904E-04-1.69397E-14
 -1      1982 4.61382E-03 6.03210E-04-1.68591E-14
 -1      1983 5.05660E-03 6.24077E-04-2.00308E-14
 -1      1984 4.91414E-03 6.25826E-04-1.89768E-14
 -1      1985 4.89842E-03 6.00117E-04-1.88870E-14
 -1      1986 5.34206E-03 6.20115E-04-2.22128E-14
 -1      1987 5.19924E-03 6.22173E-04-2.11093E-14
 -1      1988 5.18362E-03 5.96451E-04-2.10105E-14
 -1      1989 5.62830E-03 6.15467E-04-2.44845E-14
 -1      1990 5.48508E-03 6.17879E-04-2.33378E-14
 -1      1991 5.46950E-03 5.92142E-04-2.32276E-14
 -1      1992 5.91550E-03 6.10037E-04-2.68413E-14
 -1      1993 5.77177E-03 6.12850E-04-2.56527E-14
 -1      1994 5.75616E-03 5.87094E-04-2.55345E-14
 -1      1995 6.20389E-03 6.03738E-04-2.92772E-14
 -1      1996 6.05952E-03 6.06993E-04-2.80500E-14
 -1      1997 6.04380E-03 5.81204E-04-2.79224E-14
 -1      1998 6.49383E-03 5.96523E-04-3.17820E-14
 -1      1999 6.34864E-03 6.00236E-04-3.05217E-14
 -1      2000 6.33268E-03 5.74392E-04-3.03855E-14
 -1      2001 6.78580E-03 5.88426E-04-3.43529E-14
 -1      2002 6.63952E-03 5.92567E-04-3.30604E-14
 -1      2003 6.62314E-03 5.66632E-04-3.29174E-14
 -1      2004 7.08037E-03 5.79624E-04-3.69840E-14
 -1      2005 6.93271E-03 5.84082E-04-3.56605E-14
 -1      2006 6.91565E-03 5.58001E-04-3.55102E-14
 -1      2007 7.37830E-03 5.70518E-04-3.96695E-14
 -1      2008 7.22885E-03 5.75057E-04-3.83193E-14
 -1      2009 7.21077E-03 5.48750E-04-3.81625E-14
 -1      2010 7.68046E-03 5.61860E-04-4.24119E-14
 -1      2011 7.52877E-03 5.66053E-04-4.10346E-14
 -1      2012 7.50920E-03 5.39406E-04-4.08711E-14
 -1      2013 7.98786E-03 5.54924E-04-4.52030E-14
 -1      2014 7.83341E-03 5.58058E-04-4.38012E-14
 -1      2015 7.81174E-03 5.30906E-04-4.36337E-14
 -1      2016 8.30158E-03 5.51733E-04-4.80430E-14
 -1      2017 8.14383E-03 5.52690E-04-4.66176E-14
 -1      2018 8.11930E-03 5.24805E-04-4.64440E-14
 -1      2019 8.62270E-03 5.55359E-04-5.09266E-14
 -1      2020 8.46112E-03 5.52458E-04-4.94796E-14
 -1      2021 8.43285E-03 5.23526E-04-4.93008E-14
 -1      2022 8.95209E-03 5.70226E-04-5.38422E-14
 -1      2023 8.78629E-03 5.61076E-04-5.23804E-14
 -1      2024 8.75334E-03 5.30672E-04-5.21985E-14
 -1      2025 9.29013E-03 6.02319E-04-5.67891E-14
 -1      2026 9.12002E-03 5.83742E-04-5.53130E-14
 -1      2027 9.08159E-03 5.51325E-04-5.51269E-14
 -1      2028 9.63635E-03 6.58955E-04-5.97525E-14
 -1      2029 9.46235E-03 6.27180E-04-5.82692E-14
 -1      2030 9.41810E-03 5.92141E-04-5.80791E-14
 -1      2031 9.98883E-03 7.47543E-04-6.27339E-14
 -1      2032 9.81215E-03 6.98990E-04-6.12409E-14
 -1      2033 9.76267E-03 6.60828E-04-6.10491E-14
 -1      2034 1.03437E-02 8.72538E-04-6.57406E-14
 -1      2035 1.01666E-02 8.05629E-04-6.42334E-14
 -1      2036 1.01139E-02 7.64358E-04-6.40426E-14
 -1      2037 1.06946E-02 1.02989E-03-6.87725E-14
 -1      2038 1.05204E-02 9.48084E-04-6.72538E-14
 -1      2039 1.04682E-02 9.04934E-04-6.70604E-14
 -1      2040 1.10340E-02 1.20085E-03-7.18256E-14
 -1      2041 1.08665E-02 1.11556E-03-7.02956E-14
 -1      2042 1.08190E-02 1.07336E-03-7.01014E-14
 -1      2043 1.13562E-02 1.35061E-03-7.49052E-14
 -1      2044 1.11973E-02 1.28086E-03-7.33636E-14
 -1      2045 1.11585E-02 1.24343E-03-7.31637E-14
 -1      2046 1.16628E-02 1.43834E-03-7.80041E-14
 -1      2047 1.15106E-02 1.40393E-03-7.64510E-14
 -1      2048 1.14817E-02 1.37370E-03-7.62468E-14
 -1      2049 1.19640E-02 1.43998E-03-8.11144E-14
 -1      2050 1.18127E-02 1.44979E-03-7.95579E-14
 -1      2051 1.17931E-02 1.42561E-03-7.93487E-14
 -1      2052 1.22725E-02 1.36274E-03-8.42452E-14
 -1      2053 1.21163E-02 1.40929E-03-8.26781E-14
 -1      2054 1.21053E-02 1.38752E-03-8.24667E-14
 -1      2055 1.25946E-02 1.24033E-03-8.73911E-14
 -1      2056 1.24318E-02 1.30471E-03-8.58161E-14
 -1      2057 1.24288E-02 1.28187E-03-8.56036E-14
 -1      2058 1.29277E-02 1.11153E-03-9.05492E-14
 -1      2059 1.27603E-02 1.17503E-03-8.89676E-14
 -1      2060 1.27641E-02 1.14993E-03-8.87525E-14
 -1      2061 1.32645E-02 1.00194E-03-9.37137E-14
 -1      2062 1.30964E-02 1.05373E-03-9.21327E-14
 -1      2063 1.31044E-02 1.02692E-03-9.19147E-14
 -1      2064 1.35979E-02 9.20213E-04-9.68841E-14
 -1      2065 1.34322E-02 9.57802E-04-9.53003E-14
 -1      2066 1.34420E-02 9.30332E-04-9.50807E-14
 -1      2067 1.39228E-02 8.62471E-04-1.00047E-13
 -1      2068 1.37618E-02 8.88945E-04-9.84650E-14
 -1      2069 1.37713E-02 8.61737E-04-9.82446E-14
 -1      2070 1.42369E-02 8.18505E-04-1.03211E-13
 -1      2071 1.40814E-02 8.39481E-04-1.01629E-13
 -1      2072 1.40901E-02 8.13258E-04-1.01407E-13
 -1      2073 1.45399E-02 7.76250E-04-1.06378E-13
 -1      2074 1.43897E-02 7.97815E-04-1.04794E-13
 -1      2075 1.43977E-02 7.73174E-04-1.04573E-13
 -1      2076 1.47842E-02 7.32200E-04-1.08978E-13
 -1      2077 1.46380E-02 7.58150E-04-1.07394E-13
 -1      2078 1.46457E-02 7.35140E-04-1.07175E-13
 -1      2079 1.48392E-02 6.96838E-04-1.09206E-13
 -1      2080 1.50616E-02 5.18424E-04-1.08510E-13
 -1      2081 1.50158E-02 5.45443E-04-1.08572E-13
 -1      2082 1.49685E-02 5.75373E-04-1.08634E-13
 -1      2083 1.49211E-02 6.07922E-04-1.08696E-13
 -1      2084 1.48707E-02 5.75522E-04-1.07223E-13
 -1      2085 1.49004E-02 6.32640E-04-1.08917E-13
 -1      2086 1.48561E-02 6.69343E-04-1.08979E-13
 -1      2087 1.47599E-02 6.88293E-04-1.07963E-13
 -1      2088 1.47999E-02 6.34333E-04-1.07511E-13
 -1      2089 1.51408E-02 4.73639E-04-1.08387E-13
 -1      2090 1.51034E-02 4.94708E-04-1.08448E-13
 -1      2091 1.49637E-02 5.17079E-04-1.07095E-13
 -1      2092 1.51965E-02 4.38470E-04-1.08267E-13
 -1      2093 1.51725E-02 4.55015E-04-1.08326E-13
 -1      2094 1.50413E-02 4.68980E-04-1.06967E-13
 -1      2095 1.52166E-02 4.10691E-04-1.08147E-13
 -1      2096 1.52115E-02 4.24111E-04-1.08208E-13
 -1      2097 1.50911E-02 4.29825E-04-1.06844E-13
 -1      2098 1.51953E-02 3.85495E-04-1.08030E-13
 -1      2099 1.52113E-02 3.98309E-04-1.08087E-13
 -1      2100 1.51022E-02 3.96721E-04-1.06722E-13
 -1      2101 1.51329E-02 3.57505E-04-1.07910E-13
 -1      2102 1.51690E-02 3.72335E-04-1.07971E-13
 -1      2103 1.50698E-02 3.64626E-04-1.06604E-13
 -1      2104 1.50358E-02 3.22202E-04-1.07781E-13
 -1      2105 1.50882E-02 3.41085E-04-1.07844E-13
 -1      2106 1.49962E-02 3.28262E-04-1.06482E-13
 -1      2107 1.49161E-02 2.77802E-04-1.07654E-13
 -1      2108 1.49783E-02 3.01307E-04-1.07717E-13
 -1      2109 1.48903E-02 2.84142E-04-1.06356E-13
 -1      2110 1.47807E-02 2.22195E-04-1.07522E-13
 -1      2111 1.48496E-02 2.51243E-04-1.07588E-13
 -1      2112 1.47629E-02 2.30362E-04-1.06228E-13
 -1      2113 1.46408E-02 1.57063E-04-1.07386E-13
 -1      2114 1.47108E-02 1.90640E-04-1.07455E-13
 -1      2115 1.46235E-02 1.66739E-04-1.06095E-13
 -1      2116 1.45032E-02 8.42497E-05-1.07243E-13
 -1      2117 1.45714E-02 1.21401E-04-1.07315E-13
 -1      2118 1.44823E-02 9.53381E-05-1.05957E-13
 -1      2119 1.35732E-02 4.68856E-04-8.62531E-14
 -1      2120 1.37251E-02 4.07813E-04-8.66596E-14
 -1      2121 1.39960E-02 2.88861E-04-8.71815E-14
 -1      2122 1.39907E-02 2.68905E-04-8.71662E-14
 -1      2123 1.38717E-02 3.48313E-04-8.70782E-14
 -1      2124 1.39551E-02 3.18359E-04-8.72045E-14
 -1      2125 1.32123E-02 6.40487E-04-8.51544E-14
 -1      2126 1.33893E-02 5.55913E-04-8.56628E-14
 -1      2127 1.28109E-02 8.45465E-04-8.39199E-14
 -1      2128 1.29962E-02 7.43707E-04-8.45718E-14
 -1      2129 3.27170E-04-8.89756E-05-1.79978E-16
 -1      2130 3.29253E-04-1.02146E-04-1.71534E-16
 -1      2131 4.46290E-04-1.45117E-04-2.48919E-16
 -1      2132 4.39997E-04-1.09950E-04-2.71430E-16
 -1      2133 1.20506E-02 1.22248E-03-8.04109E-14
 -1      2134 1.22193E-02 1.15559E-03-8.12800E-14
 -1      2135 1.17016E-02 1.27814E-03-7.84176E-14
 -1      2136 1.18602E-02 1.26932E-03-7.93910E-14
 -1      2137 1.13217E-02 1.17935E-03-7.61847E-14
 -1      2138 1.14861E-02 1.24101E-03-7.71172E-14
 -1      2139 1.09879E-02 1.00073E-03-7.44317E-14
 -1      2140 1.11555E-02 1.10085E-03-7.53070E-14
 -1      2141 1.12609E-02 1.14603E-03-7.55700E-14
 -1      2142 1.05658E-02 7.39775E-04-7.25250E-14
 -1      2143 1.07641E-02 8.66245E-04-7.33884E-14
 -1      2144 1.00873E-02 4.79655E-04-7.08852E-14
 -1      2145 1.02924E-02 5.79522E-04-7.14439E-14
 -1      2146 9.74878E-03 3.28988E-04-6.99371E-14
 -1      2147 9.91220E-03 3.99808E-04-7.04114E-14
 -1      2148 1.00125E-02 4.10670E-04-6.99836E-14
 -1      2149 9.46846E-03 2.23530E-04-6.92491E-14
 -1      2150 9.57808E-03 2.65910E-04-6.95924E-14
 -1      2151 9.34824E-03 1.61704E-04-6.87317E-14
 -1      2152 9.38206E-03 1.81584E-04-6.88486E-14
 -1      2153 9.41269E-03 1.11762E-04-6.87798E-14
 -1      2154 9.35929E-03 1.34043E-04-6.86541E-14
 -1      2155 9.62428E-03 3.57863E-05-6.91861E-14
 -1      2156 9.50058E-03 7.68209E-05-6.89843E-14
 -1      2157 9.44497E-03 1.06883E-04-6.80672E-14
 -1      2158 9.99485E-03-1.28422E-04-7.03601E-14
 -1      2159 9.82541E-03-5.05018E-05-6.98337E-14
 -1      2160 1.03654E-02-3.12407E-04-7.15110E-14
 -1      2161 1.01861E-02-2.19927E-04-7.09320E-14
 -1      2162 1.07475E-02-5.17464E-04-7.29717E-14
 -1      2163 1.05721E-02-4.21170E-04-7.22656E-14
 -1      2164 1.11131E-02-6.95158E-04-7.46204E-14
 -1      2165 1.09518E-02-6.17623E-04-7.38061E-14
 -1      2166 1.14502E-02-7.91926E-04-7.65554E-14
 -1      2167 1.12933E-02-7.57214E-04-7.56544E-14
 -1      2168 1.17934E-02-7.73730E-04-7.86006E-14
 -1      2169 1.16405E-02-7.98995E-04-7.76760E-14
 -1      2170 1.21300E-02-6.45655E-04-8.05062E-14
 -1      2171 1.19726E-02-7.18154E-04-7.96412E-14
 -1      2172 1.25047E-02-4.43546E-04-8.22805E-14
 -1      2173 1.23275E-02-5.47278E-04-8.14522E-14
 -1      2174 1.29264E-02-2.01202E-04-8.40227E-14
 -1      2175 1.27289E-02-3.12233E-04-8.32901E-14
 -1      2176 1.33543E-02 9.15314E-07-8.52719E-14
 -1      2177 1.31649E-02-8.70678E-05-8.47158E-14
 -1      2178 1.36792E-02 1.48804E-04-8.64327E-14
 -1      2179 1.35262E-02 8.15954E-05-8.58531E-14
 -1      2180 1.34227E-02 6.59970E-05-8.61487E-14
 -1      2181 1.39385E-02 2.38396E-04-8.70039E-14
 -1      2182 1.38474E-02 2.10147E-04-8.68736E-14
 -1      2183 1.24144E-02 1.06235E-03-8.22777E-14
 -1      2184 1.25943E-02 9.63232E-04-8.30631E-14
 -1      2185 1.30853E-02 6.75310E-04-8.53789E-14
 -1      2186 6.07884E-04-2.98140E-04-2.39663E-16
 -1      2187 1.26807E-02 8.96712E-04-8.39386E-14
 -1      2188 1.23026E-02 1.11079E-03-8.20827E-14
 -1      2189 6.63601E-04-2.92427E-04-3.34951E-16
 -1      2190 1.38057E-02 3.62173E-04-8.75623E-14
 -1      2191 1.39864E-02 3.01267E-04-8.79577E-14
 -1      2192 1.44079E-02 3.72466E-05-1.06714E-13
 -1      2193 1.34752E-02 4.90529E-04-8.65526E-14
 -1      2194 1.39766E-02 2.65129E-04-8.77739E-14
 -1      2195 1.37694E-02 1.98273E-04-8.71725E-14
 -1      2196 1.36856E-02 1.81653E-04-8.74707E-14
 -1      2197 1.38455E-02 2.30300E-04-8.79106E-14
 -1      2198 1.30258E-02-1.22284E-04-8.48748E-14
 -1      2199 1.25914E-02-3.66348E-04-8.31699E-14
 -1      2200 1.21991E-02-5.97191E-04-8.12127E-14
 -1      2201 1.18679E-02-7.54443E-04-7.92243E-14
 -1      2202 1.15443E-02-8.07722E-04-7.70644E-14
 -1      2203 1.12094E-02-7.33982E-04-7.49119E-14
 -1      2204 1.08706E-02-5.67383E-04-7.30449E-14
 -1      2205 1.04878E-02-3.55281E-04-7.14582E-14
 -1      2206 9.71460E-03 1.59032E-05-6.89172E-14
 -1      2207 9.61600E-03 5.63504E-05-6.80018E-14
 -1      2208 9.80413E-03-1.10209E-05-6.86469E-14
 -1      2209 9.34175E-03 1.44505E-04-6.79441E-14
 -1      2210 9.67471E-03 2.75862E-04-6.91688E-14
 -1      2211 1.09068E-02 9.34328E-04-7.36515E-14
 -1      2212 1.19500E-02 1.25603E-03-8.00633E-14
 -1      2213 1.15989E-02 1.27247E-03-7.77443E-14
 -1      2214 1.04351E-02 6.39737E-04-7.15324E-14
 -1      2215 9.41824E-03 1.86485E-04-6.84240E-14
 -1      2216 1.01072E-02-1.57087E-04-7.01338E-14
 -1      2217 1.01659E-03 3.99844E-04-8.36625E-16
 -1      2218 8.72127E-04 3.63456E-04-6.22983E-16
 -1      2219 5.47790E-04-5.53145E-05-4.23896E-16
 -1      2220 5.48825E-04-7.20357E-05-4.18190E-16
 -1      2221 5.50244E-04-8.93629E-05-4.11238E-16
 -1      2222 5.52103E-04-1.07353E-04-4.02917E-16
 -1      2223 6.65295E-04-9.55142E-05-5.61942E-16
 -1      2224 5.46410E-04 8.85811E-06-4.36418E-16
 -1      2225 5.46390E-04-6.98360E-06-4.34724E-16
 -1      2226 5.47164E-04 4.08771E-05-4.37096E-16
 -1      2227 5.46665E-04 2.47987E-05-4.37123E-16
 -1      2228 6.61350E-04 1.99351E-05-5.90606E-16
 -1      2229 5.48989E-04 7.35057E-05-4.33898E-16
 -1      2230 5.47927E-04 5.70101E-05-4.36161E-16
 -1      2231 6.62675E-04 5.78001E-05-5.90484E-16
 -1      2232 5.52378E-04 1.08983E-04-4.25360E-16
 -1      2233 5.50456E-04 9.09063E-05-4.30401E-16
 -1      2234 6.65534E-04 9.72769E-05-5.84846E-16
 -1      2235 5.58256E-04 1.48320E-04-4.09368E-16
 -1      2236 5.54938E-04 1.28095E-04-4.18556E-16
 -1      2237 6.70621E-04 1.40053E-04-5.71971E-16
 -1      2238 5.68584E-04 1.93919E-04-3.83062E-16
 -1      2239 5.62745E-04 1.70201E-04-3.97916E-16
 -1      2240 6.79269E-04 1.87600E-04-5.49325E-16
 -1      2241 1.30205E-03 4.56791E-04-1.36607E-15
 -1      2242 1.15973E-03 4.30848E-04-1.08430E-15
 -1      2243 1.07177E-03 3.81368E-04-9.96666E-16
 -1      2244 9.15181E-04-3.46401E-04-6.62326E-16
 -1      2245 1.05927E-03-3.79727E-04-8.75778E-16
 -1      2246 1.25831E-02 9.49336E-04-8.40963E-14
 -1      2247 1.27679E-02 8.37662E-04-8.49541E-14
 -1      2248 1.20253E-03-4.08123E-04-1.12100E-15
 -1      2249 1.34533E-03-4.31998E-04-1.39868E-15
 -1      2250 1.11696E-03-3.60554E-04-1.03754E-15
 -1      2251 1.48751E-03-4.52213E-04-1.70821E-15
 -1      2252 1.62928E-03-4.69049E-04-2.04978E-15
 -1      2253 1.40329E-03-4.07319E-04-1.60135E-15
 -1      2254 1.77070E-03-4.83176E-04-2.42209E-15
 -1      2255 1.91187E-03-4.94809E-04-2.82573E-15
 -1      2256 1.68841E-03-4.40550E-04-2.29114E-15
 -1      2257 2.05290E-03-5.04440E-04-3.25990E-15
 -1      2258 2.19381E-03-5.12245E-04-3.72484E-15
 -1      2259 1.97259E-03-4.63581E-04-3.10502E-15
 -1      2260 2.33470E-03-5.18584E-04-4.21936E-15
 -1      2261 2.47557E-03-5.23599E-04-4.74393E-15
 -1      2262 2.25622E-03-4.79049E-04-4.03953E-15
 -1      2263 2.61651E-03-5.27551E-04-5.29816E-15
 -1      2264 2.75750E-03-5.30555E-04-5.88109E-15
 -1      2265 2.53962E-03-4.88982E-04-5.09319E-15
 -1      2266 2.89859E-03-5.32799E-04-6.49239E-15
 -1      2267 3.03975E-03-5.34371E-04-7.13223E-15
 -1      2268 2.82302E-03-4.94921E-04-6.26283E-15
 -1      2269 3.18105E-03-5.35407E-04-7.80033E-15
 -1      2270 3.32243E-03-5.35973E-04-8.49517E-15
 -1      2271 3.10658E-03-4.98017E-04-7.54574E-15
 -1      2272 3.46395E-03-5.36163E-04-9.21695E-15
 -1      2273 3.60557E-03-5.36025E-04-9.96580E-15
 -1      2274 3.39037E-03-4.99115E-04-8.93894E-15
 -1      2275 3.74732E-03-5.35623E-04-1.07405E-14
 -1      2276 3.88916E-03-5.34989E-04-1.15412E-14
 -1      2277 3.67444E-03-4.98819E-04-1.04380E-14
 -1      2278 4.03113E-03-5.34161E-04-1.23668E-14
 -1      2279 4.17319E-03-5.33162E-04-1.32183E-14
 -1      2280 3.95879E-03-4.97539E-04-1.20408E-14
 -1      2281 4.31536E-03-5.32011E-04-1.40955E-14
 -1      2282 4.45763E-03-5.30722E-04-1.49950E-14
 -1      2283 4.24343E-03-4.95538E-04-1.37449E-14
 -1      2284 4.60001E-03-5.29297E-04-1.59180E-14
 -1      2285 4.74248E-03-5.27745E-04-1.68655E-14
 -1      2286 4.52836E-03-4.92960E-04-1.55478E-14
 -1      2287 4.88506E-03-5.26059E-04-1.78364E-14
 -1      2288 5.02774E-03-5.24241E-04-1.88294E-14
 -1      2289 4.81357E-03-4.89863E-04-1.74440E-14
 -1      2290 5.17054E-03-5.22277E-04-1.98447E-14
 -1      2291 5.31345E-03-5.20166E-04-2.08830E-14
 -1      2292 5.09909E-03-4.86237E-04-1.94326E-14
 -1      2293 5.45648E-03-5.17890E-04-2.19435E-14
 -1      2294 5.59965E-03-5.15447E-04-2.30250E-14
 -1      2295 5.38494E-03-4.82027E-04-2.15108E-14
 -1      2296 5.74297E-03-5.12818E-04-2.41281E-14
 -1      2297 5.88645E-03-5.10002E-04-2.52522E-14
 -1      2298 5.67117E-03-4.77153E-04-2.36758E-14
 -1      2299 6.03011E-03-5.06984E-04-2.63961E-14
 -1      2300 6.17398E-03-5.03768E-04-2.75614E-14
 -1      2301 5.95787E-03-4.71531E-04-2.59257E-14
 -1      2302 6.31806E-03-5.00345E-04-2.87481E-14
 -1      2303 6.46241E-03-4.96730E-04-2.99545E-14
 -1      2304 6.24513E-03-4.65100E-04-2.82579E-14
 -1      2305 6.60703E-03-4.92929E-04-3.11817E-14
 -1      2306 6.75198E-03-4.88969E-04-3.24276E-14
 -1      2307 6.53311E-03-4.57856E-04-3.06720E-14
 -1      2308 6.89726E-03-4.84882E-04-3.36928E-14
 -1      2309 7.04296E-03-4.80715E-04-3.49755E-14
 -1      2310 6.82198E-03-4.49896E-04-3.31652E-14
 -1      2311 7.18907E-03-4.76536E-04-3.62772E-14
 -1      2312 7.33570E-03-4.72422E-04-3.75955E-14
 -1      2313 7.11197E-03-4.41475E-04-3.57328E-14
 -1      2314 7.48283E-03-4.68490E-04-3.89278E-14
 -1      2315 7.63059E-03-4.64858E-04-4.02767E-14
 -1      2316 7.40339E-03-4.33082E-04-3.83669E-14
 -1      2317 7.77898E-03-4.61708E-04-4.16391E-14
 -1      2318 7.92812E-03-4.59211E-04-4.30150E-14
 -1      2319 7.69661E-03-4.25530E-04-4.10622E-14
 -1      2320 8.07802E-03-4.57631E-04-4.44061E-14
 -1      2321 8.22881E-03-4.57207E-04-4.58117E-14
 -1      2322 7.99212E-03-4.20061E-04-4.38140E-14
 -1      2323 8.38054E-03-4.58286E-04-4.72295E-14
 -1      2324 8.53328E-03-4.61195E-04-4.86574E-14
 -1      2325 8.29057E-03-4.18460E-04-4.66222E-14
 -1      2326 8.68717E-03-4.66354E-04-5.00968E-14
 -1      2327 8.84218E-03-4.74178E-04-5.15461E-14
 -1      2328 8.59278E-03-4.23145E-04-4.94767E-14
 -1      2329 8.99856E-03-4.85124E-04-5.30047E-14
 -1      2330 9.15612E-03-4.99672E-04-5.44733E-14
 -1      2331 8.89977E-03-4.37202E-04-5.23732E-14
 -1      2332 9.31521E-03-5.18225E-04-5.59497E-14
 -1      2333 9.47542E-03-5.41251E-04-5.74328E-14
 -1      2334 9.21269E-03-4.64268E-04-5.53047E-14
 -1      2335 9.63719E-03-5.68940E-04-5.89249E-14
 -1      2336 9.79974E-03-6.01550E-04-6.04241E-14
 -1      2337 9.53252E-03-5.08107E-04-5.82711E-14
 -1      2338 9.96351E-03-6.38840E-04-6.19302E-14
 -1      2339 1.01274E-02-6.80503E-04-6.34430E-14
 -1      2340 9.85943E-03-5.71600E-04-6.12669E-14
 -1      2341 1.02915E-02-7.25622E-04-6.49611E-14
 -1      2342 1.04547E-02-7.72819E-04-6.64818E-14
 -1      2343 1.01917E-02-6.54789E-04-6.42884E-14
 -1      2344 1.06168E-02-8.20344E-04-6.80080E-14
 -1      2345 1.07767E-02-8.65577E-04-6.95381E-14
 -1      2346 1.05250E-02-7.51703E-04-6.73286E-14
 -1      2347 1.09342E-02-9.06048E-04-7.10726E-14
 -1      2348 1.10893E-02-9.38419E-04-7.26112E-14
 -1      2349 1.08528E-02-8.47298E-04-7.03859E-14
 -1      2350 1.12414E-02-9.60397E-04-7.41518E-14
 -1      2351 1.13924E-02-9.69223E-04-7.56955E-14
 -1      2352 1.11700E-02-9.17789E-04-7.34586E-14
 -1      2353 1.15417E-02-9.63836E-04-7.72472E-14
 -1      2354 1.16919E-02-9.43862E-04-7.88026E-14
 -1      2355 1.14777E-02-9.38391E-04-7.65484E-14
 -1      2356 1.18424E-02-9.10036E-04-8.03612E-14
 -1      2357 1.19953E-02-8.64625E-04-8.19284E-14
 -1      2358 1.17839E-02-8.96466E-04-7.96597E-14
 -1      2359 1.21500E-02-8.09702E-04-8.35006E-14
 -1      2360 1.23070E-02-7.48522E-04-8.50792E-14
 -1      2361 1.20973E-02-8.00263E-04-8.27898E-14
 -1      2362 1.24657E-02-6.83331E-04-8.66623E-14
 -1      2363 1.26254E-02-6.16977E-04-8.82536E-14
 -1      2364 1.24204E-02-6.72483E-04-8.59451E-14
 -1      2365 1.27857E-02-5.51132E-04-8.98474E-14
 -1      2366 1.29454E-02-4.87126E-04-9.14455E-14
 -1      2367 1.27487E-02-5.36911E-04-8.91220E-14
 -1      2368 1.31047E-02-4.25735E-04-9.30474E-14
 -1      2369 1.32623E-02-3.67191E-04-9.46479E-14
 -1      2370 1.30756E-02-4.08989E-04-9.23142E-14
 -1      2371 1.34187E-02-3.11475E-04-9.62535E-14
 -1      2372 1.35730E-02-2.58058E-04-9.78579E-14
 -1      2373 1.33960E-02-2.93987E-04-9.55173E-14
 -1      2374 1.37256E-02-2.06419E-04-9.94608E-14
 -1      2375 1.38762E-02-1.55663E-04-1.01066E-13
 -1      2376 1.37074E-02-1.90138E-04-9.87224E-14
 -1      2377 1.86519E-03 5.25278E-04-2.82752E-15
 -1      2378 1.72497E-03 5.12540E-04-2.41259E-15
 -1      2379 2.14524E-03 5.44518E-04-3.75448E-15
 -1      2380 2.00526E-03 5.35877E-04-3.27497E-15
 -1      2381 1.92452E-03 4.94655E-04-3.10213E-15
 -1      2382 2.42526E-03 5.57237E-04-4.80799E-15
 -1      2383 2.28524E-03 5.51587E-04-4.26536E-15
 -1      2384 2.20660E-03 5.11870E-04-4.06255E-15
 -1      2385 2.70564E-03 5.65230E-04-5.98621E-15
 -1      2386 2.56540E-03 5.61743E-04-5.38186E-15
 -1      2387 2.48851E-03 5.23103E-04-5.14810E-15
 -1      2388 2.98656E-03 5.69838E-04-7.28419E-15
 -1      2389 2.84604E-03 5.67896E-04-6.62015E-15
 -1      2390 2.77058E-03 5.30012E-04-6.35585E-15
 -1      2391 3.26813E-03 5.72047E-04-8.69846E-15
 -1      2392 3.12727E-03 5.71196E-04-7.97691E-15
 -1      2393 3.05296E-03 5.33836E-04-7.68186E-15
 -1      2394 3.55034E-03 5.72573E-04-1.02249E-14
 -1      2395 3.40916E-03 5.72487E-04-9.44745E-15
 -1      2396 3.33575E-03 5.35483E-04-9.12191E-15
 -1      2397 3.83317E-03 5.71914E-04-1.18609E-14
 -1      2398 3.69168E-03 5.72368E-04-1.10298E-14
 -1      2399 3.61898E-03 5.35608E-04-1.06742E-14
 -1      2400 4.11659E-03 5.70402E-04-1.36030E-14
 -1      2401 3.97481E-03 5.71249E-04-1.27184E-14
 -1      2402 3.90265E-03 5.34661E-04-1.23334E-14
 -1      2403 4.40054E-03 5.68233E-04-1.54489E-14
 -1      2404 4.25850E-03 5.69390E-04-1.45131E-14
 -1      2405 4.18674E-03 5.32933E-04-1.40977E-14
 -1      2406 4.68502E-03 5.65503E-04-1.73962E-14
 -1      2407 4.54272E-03 5.66933E-04-1.64099E-14
 -1      2408 4.47124E-03 5.30590E-04-1.59648E-14
 -1      2409 4.97000E-03 5.62227E-04-1.94424E-14
 -1      2410 4.82744E-03 5.63932E-04-1.84080E-14
 -1      2411 4.75614E-03 5.27705E-04-1.79317E-14
 -1      2412 5.25551E-03 5.58363E-04-2.15830E-14
 -1      2413 5.11268E-03 5.60370E-04-2.05007E-14
 -1      2414 5.04144E-03 5.24273E-04-1.99959E-14
 -1      2415 5.54162E-03 5.53828E-04-2.38172E-14
 -1      2416 5.39848E-03 5.56182E-04-2.26882E-14
 -1      2417 5.32719E-03 5.20236E-04-2.21542E-14
 -1      2418 5.82845E-03 5.48515E-04-2.61395E-14
 -1      2419 5.68494E-03 5.51271E-04-2.49685E-14
 -1      2420 5.61343E-03 5.15500E-04-2.44050E-14
 -1      2421 6.11616E-03 5.42319E-04-2.85405E-14
 -1      2422 5.97218E-03 5.45528E-04-2.73295E-14
 -1      2423 5.90028E-03 5.09955E-04-2.67423E-14
 -1      2424 6.40498E-03 5.35159E-04-3.10154E-14
 -1      2425 6.26041E-03 5.38857E-04-2.97699E-14
 -1      2426 6.18787E-03 5.03492E-04-2.91566E-14
 -1      2427 6.69521E-03 5.27020E-04-3.35576E-14
 -1      2428 6.54988E-03 5.31203E-04-3.22781E-14
 -1      2429 6.47638E-03 4.96039E-04-3.16439E-14
 -1      2430 6.98723E-03 5.18003E-04-3.61610E-14
 -1      2431 6.84095E-03 5.22603E-04-3.48507E-14
 -1      2432 6.76605E-03 4.87596E-04-3.41949E-14
 -1      2433 7.28152E-03 5.08399E-04-3.88214E-14
 -1      2434 7.13404E-03 5.13241E-04-3.74845E-14
 -1      2435 7.05717E-03 4.78291E-04-3.68081E-14
 -1      2436 7.57862E-03 4.98797E-04-4.15424E-14
 -1      2437 7.42965E-03 5.03543E-04-4.01752E-14
 -1      2438 7.35009E-03 4.68461E-04-3.94819E-14
 -1      2439 7.87920E-03 4.90234E-04-4.43117E-14
 -1      2440 7.72840E-03 4.94300E-04-4.29208E-14
 -1      2441 7.64524E-03 4.58761E-04-4.22110E-14
 -1      2442 8.18401E-03 4.84400E-04-4.71324E-14
 -1      2443 8.03099E-03 4.86846E-04-4.57162E-14
 -1      2444 7.94314E-03 4.50319E-04-4.49914E-14
 -1      2445 8.49389E-03 4.83901E-04-4.99980E-14
 -1      2446 8.33822E-03 4.83291E-04-4.85596E-14
 -1      2447 8.24440E-03 4.44939E-04-4.78188E-14
 -1      2448 8.80982E-03 4.92567E-04-5.28983E-14
 -1      2449 8.65102E-03 4.86812E-04-5.14441E-14
 -1      2450 8.54986E-03 4.45362E-04-5.06912E-14
 -1      2451 9.13287E-03 5.15742E-04-5.58316E-14
 -1      2452 8.97041E-03 5.01962E-04-5.43614E-14
 -1      2453 8.86066E-03 4.55566E-04-5.35991E-14
 -1      2454 9.46425E-03 5.60346E-04-5.87866E-14
 -1      2455 9.29756E-03 5.34878E-04-5.73073E-14
 -1      2456 9.17841E-03 4.81046E-04-5.65355E-14
 -1      2457 9.80498E-03 6.34309E-04-6.17617E-14
 -1      2458 9.63363E-03 5.93128E-04-6.02713E-14
 -1      2459 9.50531E-03 5.28923E-04-5.94947E-14
 -1      2460 1.01552E-02 7.44671E-04-6.47608E-14
 -1      2461 9.97935E-03 6.84542E-04-6.32585E-14
 -1      2462 9.84390E-03 6.07410E-04-6.24742E-14
 -1      2463 1.05126E-02 8.93351E-04-6.77846E-14
 -1      2464 1.03339E-02 8.14441E-04-6.62687E-14
 -1      2465 1.01960E-02 7.24086E-04-6.54787E-14
 -1      2466 1.08702E-02 1.06911E-03-7.08252E-14
 -1      2467 1.06924E-02 9.79269E-04-6.93020E-14
 -1      2468 1.05598E-02 8.81360E-04-6.85048E-14
 -1      2469 1.12178E-02 1.24163E-03-7.38926E-14
 -1      2470 1.10459E-02 1.15879E-03-7.23569E-14
 -1      2471 1.09263E-02 1.06590E-03-7.15513E-14
 -1      2472 1.15491E-02 1.36298E-03-7.69767E-14
 -1      2473 1.13848E-02 1.31200E-03-7.54327E-14
 -1      2474 1.12824E-02 1.24161E-03-7.46183E-14
 -1      2475 1.18696E-02 1.39296E-03-8.00778E-14
 -1      2476 1.17083E-02 1.39069E-03-7.85255E-14
 -1      2477 1.16204E-02 1.35111E-03-7.77033E-14
 -1      2478 1.21950E-02 1.32825E-03-8.32023E-14
 -1      2479 1.20298E-02 1.37085E-03-8.16379E-14
 -1      2480 1.19507E-02 1.35414E-03-8.08107E-14
 -1      2481 1.25347E-02 1.20355E-03-8.63407E-14
 -1      2482 1.23631E-02 1.26990E-03-8.47683E-14
 -1      2483 1.22925E-02 1.25938E-03-8.39357E-14
 -1      2484 1.28833E-02 1.06691E-03-8.94898E-14
 -1      2485 1.27089E-02 1.13424E-03-8.79139E-14
 -1      2486 1.26494E-02 1.11830E-03-8.70756E-14
 -1      2487 1.32305E-02 9.49817E-04-9.26494E-14
 -1      2488 1.30581E-02 1.00485E-03-9.10703E-14
 -1      2489 1.30099E-02 9.81213E-04-9.02267E-14
 -1      2490 1.35686E-02 8.63469E-04-9.58136E-14
 -1      2491 1.34013E-02 9.02847E-04-9.42308E-14
 -1      2492 1.33615E-02 8.73487E-04-9.33840E-14
 -1      2493 1.38946E-02 8.04488E-04-9.89733E-14
 -1      2494 1.37334E-02 8.31121E-04-9.73937E-14
 -1      2495 1.36983E-02 7.98990E-04-9.65431E-14
 -1      2496 1.42086E-02 7.62706E-04-1.02139E-13
 -1      2497 1.40532E-02 7.82182E-04-1.00555E-13
 -1      2498 1.40198E-02 7.49966E-04-9.97032E-14
 -1      2499 1.45114E-02 7.25832E-04-1.05305E-13
 -1      2500 1.43613E-02 7.44416E-04-1.03721E-13
 -1      2501 1.43284E-02 7.14646E-04-1.02869E-13
 -1      2502 1.46629E-02 7.05793E-04-1.06945E-13
 -1      2503 1.49420E-02 4.59005E-04-1.05546E-13
 -1      2504 1.49072E-02 4.83500E-04-1.05611E-13
 -1      2505 1.49855E-02 4.16645E-04-1.05421E-13
 -1      2506 1.49685E-02 4.37038E-04-1.05483E-13
 -1      2507 1.48430E-02 4.45198E-04-1.04127E-13
 -1      2508 1.47730E-02 5.70834E-04-1.05809E-13
 -1      2509 1.47229E-02 6.05112E-04-1.05876E-13
 -1      2510 1.48664E-02 5.10116E-04-1.05677E-13
 -1      2511 1.48214E-02 5.39111E-04-1.05742E-13
 -1      2512 1.46753E-02 5.62082E-04-1.04396E-13
 -1      2513 1.47701E-02 4.98515E-04-1.04260E-13
 -1      2514 1.49868E-02 3.79383E-04-1.05297E-13
 -1      2515 1.49918E-02 3.97906E-04-1.05359E-13
 -1      2516 1.48796E-02 4.00620E-04-1.03999E-13
 -1      2517 1.49423E-02 3.41544E-04-1.05179E-13
 -1      2518 1.49701E-02 3.61096E-04-1.05235E-13
 -1      2519 1.48698E-02 3.60133E-04-1.03874E-13
 -1      2520 1.48565E-02 2.97685E-04-1.05056E-13
 -1      2521 1.49040E-02 3.20772E-04-1.05118E-13
 -1      2522 1.48120E-02 3.17090E-04-1.03753E-13
 -1      2523 1.47418E-02 2.45485E-04-1.04933E-13
 -1      2524 1.48022E-02 2.72860E-04-1.04995E-13
 -1      2525 1.47142E-02 2.66359E-04-1.03633E-13
 -1      2526 1.46066E-02 1.82565E-04-1.04804E-13
 -1      2527 1.46758E-02 2.15192E-04-1.04869E-13
 -1      2528 1.45886E-02 2.05158E-04-1.03510E-13
 -1      2529 1.44639E-02 1.11237E-04-1.04672E-13
 -1      2530 1.45356E-02 1.47746E-04-1.04739E-13
 -1      2531 1.44473E-02 1.33570E-04-1.03380E-13
 -1      2532 1.43222E-02 3.38621E-05-1.04529E-13
 -1      2533 1.43926E-02 7.30645E-05-1.04599E-13
 -1      2534 1.43022E-02 5.47327E-05-1.03245E-13
 -1      2535 1.39794E-02 3.06787E-04-8.88207E-14
 -1      2536 1.40149E-02 2.94863E-04-8.87991E-14
 -1      2537 1.33734E-02 5.22277E-04-8.68807E-14
 -1      2538 1.35477E-02 4.49250E-04-8.74713E-14
 -1      2539 1.58446E-03 4.97116E-04-2.03062E-15
 -1      2540 1.44353E-03 4.78793E-04-1.68134E-15
 -1      2541 1.64180E-03 4.69259E-04-2.26894E-15
 -1      2542 1.42812E-02-9.37259E-06-1.05279E-13
 -1      2543 1.40069E-02 2.79086E-04-8.86552E-14
 -1      2544 1.39592E-02 2.65911E-04-8.84941E-14
 -1      2545 1.37329E-02 3.80299E-04-8.80259E-14
 -1      2546 1.38725E-02 3.38828E-04-8.84439E-14
 -1      2547 5.88476E-04-2.37998E-04-3.14907E-16
 -1      2548 7.81300E-04-3.04822E-04-5.03476E-16
 -1      2549 8.40719E-04-2.93632E-04-6.24934E-16
 -1      2550 5.78961E-04-2.10227E-04-3.40060E-16
 -1      2551 1.31428E-02-4.18671E-05-8.59266E-14
 -1      2552 1.29346E-02-1.50029E-04-8.52332E-14
 -1      2553 9.33709E-03 1.36600E-04-6.70475E-14
 -1      2554 9.32843E-03 1.45693E-04-6.71278E-14
 -1      2555 1.08272E-02 8.68862E-04-7.27541E-14
 -1      2556 1.10174E-02 9.96826E-04-7.37924E-14
 -1      2557 1.19037E-02 1.28051E-03-7.99563E-14
 -1      2558 1.20504E-02 1.23172E-03-8.09775E-14
 -1      2559 5.46604E-04-2.29076E-05-4.31919E-16
 -1      2560 5.47060E-04-3.89527E-05-4.28368E-16
 -1      2561 6.62526E-04-5.58304E-05-5.76565E-16
 -1      2562 6.61298E-04-1.77107E-05-5.86011E-16
 -1      2563 1.15173E-02 1.26036E-03-7.70522E-14
 -1      2564 1.16868E-02 1.29670E-03-7.83506E-14
 -1      2565 1.03285E-02 5.59825E-04-7.04866E-14
 -1      2566 1.05741E-02 7.08166E-04-7.15638E-14
 -1      2567 1.12001E-02 1.10879E-03-7.49336E-14
 -1      2568 1.13338E-02 1.18466E-03-7.58083E-14
 -1      2569 9.37916E-03 1.66709E-04-6.75057E-14
 -1      2570 9.46586E-03 1.90016E-04-6.79071E-14
 -1      2571 9.92060E-03 3.53513E-04-6.90215E-14
 -1      2572 1.00742E-02 4.24806E-04-6.94910E-14
 -1      2573 1.01967E-02-1.88184E-04-6.97225E-14
 -1      2574 1.00240E-02-1.04744E-04-6.91528E-14
 -1      2575 9.58125E-03 2.26707E-04-6.82226E-14
 -1      2576 9.73525E-03 2.77995E-04-6.85648E-14
 -1      2577 9.47876E-03 9.83434E-05-6.73677E-14
 -1      2578 9.39834E-03 1.17395E-04-6.71658E-14
 -1      2579 1.05851E-02-4.00586E-04-7.12571E-14
 -1      2580 1.04046E-02-2.97167E-04-7.05050E-14
 -1      2581 1.09315E-02-6.01809E-04-7.29229E-14
 -1      2582 1.07641E-02-5.02554E-04-7.20912E-14
 -1      2583 1.06550E-02-4.47846E-04-7.11335E-14
 -1      2584 1.13017E-02-7.73298E-04-7.53093E-14
 -1      2585 1.11531E-02-7.13484E-04-7.42769E-14
 -1      2586 1.16053E-02-8.16089E-04-7.74944E-14
 -1      2587 1.14549E-02-8.08825E-04-7.63761E-14
 -1      2588 1.19126E-02-7.36252E-04-7.98193E-14
 -1      2589 1.17740E-02-7.89621E-04-7.87782E-14
 -1      2590 1.22750E-02-5.41718E-04-8.20352E-14
 -1      2591 1.21141E-02-6.38028E-04-8.10875E-14
 -1      2592 1.26629E-02-3.05125E-04-8.40565E-14
 -1      2593 1.24644E-02-4.28070E-04-8.30452E-14
 -1      2594 1.23699E-02-4.83621E-04-8.29198E-14
 -1      2595 1.34732E-02 1.05842E-04-8.70905E-14
 -1      2596 1.33108E-02 3.73631E-05-8.65094E-14
 -1      2597 1.32228E-02-1.22749E-07-8.68692E-14
 -1      2598 1.22247E-02 1.15363E-03-8.20355E-14
 -1      2599 1.23876E-02 1.06203E-03-8.30339E-14
 -1      2600 1.25004E-02 1.00741E-03-8.40481E-14
 -1      2601 1.21565E-02 1.19575E-03-8.19259E-14
 -1      2602 7.57887E-04 3.34247E-04-4.70706E-16
 -1      2603 6.11473E-04 2.84880E-04-3.18877E-16
 -1      2604 5.84750E-04 2.58110E-04-3.22753E-16
 -1      2605 8.13711E-04 3.22923E-04-5.92747E-16
 -1      2606 1.29999E-02 7.08105E-04-8.57184E-14
 -1      2607 1.31898E-02 6.09078E-04-8.63016E-14
 -1      2608 1.32911E-02 5.62641E-04-8.72217E-14
 -1      2609 6.70205E-04-1.38007E-04-5.40759E-16
 -1      2610 5.54555E-04-1.26266E-04-3.93227E-16
 -1      2611 5.57744E-04-1.46267E-04-3.80894E-16
 -1      2612 1.35779E-03 4.32776E-04-1.56647E-15
 -1      2613 5.72250E-04 2.27915E-04-3.48219E-16
 -1      2614 1.28944E-02 7.72865E-04-8.58764E-14
 -1      2615 1.28019E-02-2.20617E-04-8.51095E-14
 -1      2616 1.26925E-02-2.91325E-04-8.49863E-14
 -1      2617 1.29386E-02-1.49335E-04-8.61629E-14
 -1      2618 1.20045E-02-6.94700E-04-8.06386E-14
 -1      2619 1.16773E-02-8.12457E-04-7.80868E-14
 -1      2620 1.39738E-02 2.69845E-04-8.96725E-14
 -1      2621 1.39155E-02 2.55312E-04-8.87907E-14
 -1      2622 1.38622E-02 2.42390E-04-8.90900E-14
 -1      2623 1.10352E-02-6.62496E-04-7.33159E-14
 -1      2624 1.09189E-02-6.08809E-04-7.23586E-14
 -1      2625 1.11187E-02-7.13286E-04-7.37112E-14
 -1      2626 1.46299E-02 6.80947E-04-1.06092E-13
 -1      2627 1.46517E-02 6.52551E-04-1.05867E-13
 -1      2628 1.40304E-02 2.91056E-04-8.95186E-14
 -1      2629 1.39457E-02 3.21563E-04-8.92883E-14
 -1      2630 1.40042E-02 3.15887E-04-9.01290E-14
 -1      2631 1.39033E-02 3.39787E-04-8.97517E-14
 -1      2632 1.36517E-02 4.13090E-04-8.83561E-14
 -1      2633 9.53876E-03 7.64713E-05-6.70988E-14
 -1      2634 9.50883E-03 1.98652E-04-6.73034E-14
 -1      2635 6.89533E-04 2.51272E-04-4.94301E-16
 -1      2636 9.34444E-03 1.24827E-04-6.63495E-14
 -1      2637 1.02913E-02-2.43555E-04-6.95215E-14
 -1      2638 9.33651E-03 1.50210E-04-6.66101E-14
 -1      2639 9.79291E-03 2.98706E-04-6.80735E-14
 -1      2640 1.10968E-02 1.05032E-03-7.40296E-14
 -1      2641 1.06916E-02 7.85447E-04-7.17025E-14
 -1      2642 5.71730E-04-1.85349E-04-3.60646E-16
 -1      2643 9.88667E-03-4.91402E-05-6.82368E-14
 -1      2644 1.02076E-02 4.95825E-04-6.95208E-14
 -1      2645 1.14422E-02 1.23578E-03-7.64123E-14
 -1      2646 1.41053E-02-7.83843E-05-1.03581E-13
 -1      2647 1.42371E-02-9.64921E-06-1.04187E-13
 -1      2648 1.41444E-02-3.08246E-05-1.02830E-13
 -1      2649 1.39757E-02-1.22387E-04-1.02147E-13
 -1      2650 1.13790E-02-7.99810E-04-7.57378E-14
 -1      2651 1.35882E-02 1.54548E-04-8.78321E-14
 -1      2652 1.35003E-02 1.19568E-04-8.81930E-14
 -1      2653 1.36926E-02 1.89548E-04-8.85721E-14
 -1      2654 1.45504E-02 6.46295E-04-1.04460E-13
 -1      2655 1.39600E-02-1.08515E-04-1.01407E-13
 -1      2656 1.17360E-02 1.30671E-03-7.87412E-14
 -1      2657 1.18309E-02 1.29468E-03-7.94371E-14
 -1      2658 7.80215E-04 7.73549E-05-7.68103E-16
 -1      2659 7.78956E-04 5.54874E-05-7.69729E-16
 -1      2660 7.78111E-04 3.35693E-05-7.69743E-16
 -1      2661 7.77689E-04 1.18989E-05-7.68279E-16
 -1      2662 8.96528E-04 4.96944E-05-9.73099E-16
 -1      2663 7.91542E-04 1.73170E-04-7.40781E-16
 -1      2664 7.87541E-04 1.47752E-04-7.51366E-16
 -1      2665 8.03397E-04 2.28372E-04-7.10356E-16
 -1      2666 7.96778E-04 1.99979E-04-7.27459E-16
 -1      2667 9.14841E-04 2.07872E-04-9.31275E-16
 -1      2668 1.12979E-03 3.62008E-04-1.16287E-15
 -1      2669 9.86198E-04 3.32937E-04-9.07952E-16
 -1      2670 9.34943E-03 1.11472E-04-6.54699E-14
 -1      2671 9.29697E-03 1.23887E-04-6.53529E-14
 -1      2672 1.33196E-02 3.78428E-05-8.79327E-14
 -1      2673 1.31710E-02-3.22104E-05-8.73502E-14
 -1      2674 1.19360E-02 1.28298E-03-8.03472E-14
 -1      2675 1.32012E-03-3.62827E-04-1.49299E-15
 -1      2676 1.46334E-03-3.81810E-04-1.81058E-15
 -1      2677 1.60638E-03-3.97890E-04-2.15901E-15
 -1      2678 1.74931E-03-4.11296E-04-2.53833E-15
 -1      2679 1.52496E-03-3.55480E-04-2.02570E-15
 -1      2680 1.89208E-03-4.22497E-04-2.94872E-15
 -1      2681 2.03473E-03-4.31679E-04-3.38893E-15
 -1      2682 1.81164E-03-3.81375E-04-2.79122E-15
 -1      2683 2.17728E-03-4.39216E-04-3.85920E-15
 -1      2684 2.31974E-03-4.45262E-04-4.35895E-15
 -1      2685 2.09810E-03-3.99208E-04-3.67778E-15
 -1      2686 2.46215E-03-4.50103E-04-4.88798E-15
 -1      2687 2.60452E-03-4.53860E-04-5.44644E-15
 -1      2688 2.38428E-03-4.10988E-04-4.68252E-15
 -1      2689 2.74687E-03-4.56749E-04-6.03352E-15
 -1      2690 2.88920E-03-4.58863E-04-6.64815E-15
 -1      2691 2.67022E-03-4.18326E-04-5.80302E-15
 -1      2692 3.03154E-03-4.60362E-04-7.29142E-15
 -1      2693 3.17389E-03-4.61315E-04-7.96226E-15
 -1      2694 2.95600E-03-4.22465E-04-7.03724E-15
 -1      2695 3.31627E-03-4.61837E-04-8.66000E-15
 -1      2696 3.45866E-03-4.61979E-04-9.38475E-15
 -1      2697 3.24168E-03-4.24337E-04-8.38160E-15
 -1      2698 3.60109E-03-4.61819E-04-1.01360E-14
 -1      2699 3.74355E-03-4.61394E-04-1.09128E-14
 -1      2700 3.52730E-03-4.24623E-04-9.83358E-15
 -1      2701 3.88604E-03-4.60754E-04-1.17153E-14
 -1      2702 4.02857E-03-4.59924E-04-1.25427E-14
 -1      2703 3.81291E-03-4.23800E-04-1.13898E-14
 -1      2704 4.17114E-03-4.58932E-04-1.33961E-14
 -1      2705 4.31375E-03-4.57793E-04-1.42748E-14
 -1      2706 4.09852E-03-4.22185E-04-1.30481E-14
 -1      2707 4.45640E-03-4.56520E-04-1.51764E-14
 -1      2708 4.59909E-03-4.55120E-04-1.61020E-14
 -1      2709 4.38415E-03-4.19966E-04-1.48056E-14
 -1      2710 4.74182E-03-4.53594E-04-1.70515E-14
 -1      2711 4.88459E-03-4.51941E-04-1.80244E-14
 -1      2712 4.66982E-03-4.17237E-04-1.66596E-14
 -1      2713 5.02741E-03-4.50155E-04-1.90204E-14
 -1      2714 5.17028E-03-4.48232E-04-2.00384E-14
 -1      2715 4.95554E-03-4.14015E-04-1.86068E-14
 -1      2716 5.31321E-03-4.46159E-04-2.10779E-14
 -1      2717 5.45619E-03-4.43930E-04-2.21400E-14
 -1      2718 5.24133E-03-4.10264E-04-2.06457E-14
 -1      2719 5.59923E-03-4.41528E-04-2.32238E-14
 -1      2720 5.74234E-03-4.38948E-04-2.43291E-14
 -1      2721 5.52718E-03-4.05913E-04-2.27720E-14
 -1      2722 5.88552E-03-4.36174E-04-2.54548E-14
 -1      2723 6.02879E-03-4.33202E-04-2.66006E-14
 -1      2724 5.81313E-03-4.00873E-04-2.49836E-14
 -1      2725 6.17215E-03-4.30023E-04-2.77682E-14
 -1      2726 6.31562E-03-4.26636E-04-2.89567E-14
 -1      2727 6.09920E-03-3.95062E-04-2.72787E-14
 -1      2728 6.45920E-03-4.23044E-04-3.01640E-14
 -1      2729 6.60293E-03-4.19256E-04-3.13912E-14
 -1      2730 6.38542E-03-3.88429E-04-2.96557E-14
 -1      2731 6.74680E-03-4.15291E-04-3.26385E-14
 -1      2732 6.89086E-03-4.11173E-04-3.39035E-14
 -1      2733 6.67186E-03-3.80986E-04-3.21112E-14
 -1      2734 7.03509E-03-4.06948E-04-3.51875E-14
 -1      2735 7.17959E-03-4.02661E-04-3.64890E-14
 -1      2736 6.95860E-03-3.72856E-04-3.46440E-14
 -1      2737 7.32431E-03-3.98397E-04-3.78063E-14
 -1      2738 7.46938E-03-3.94234E-04-3.91392E-14
 -1      2739 7.24580E-03-3.64326E-04-3.72456E-14
 -1      2740 7.61477E-03-3.90303E-04-4.04870E-14
 -1      2741 7.76061E-03-3.86729E-04-4.18486E-14
 -1      2742 7.53368E-03-3.55917E-04-3.99118E-14
 -1      2743 7.90692E-03-3.83702E-04-4.32242E-14
 -1      2744 8.05382E-03-3.81412E-04-4.46134E-14
 -1      2745 7.82262E-03-3.48466E-04-4.26356E-14
 -1      2746 8.20139E-03-3.80114E-04-4.60160E-14
 -1      2747 8.34978E-03-3.80089E-04-4.74325E-14
 -1      2748 8.11325E-03-3.43231E-04-4.54135E-14
 -1      2749 8.49913E-03-3.81652E-04-4.88586E-14
 -1      2750 8.64959E-03-3.85203E-04-5.02953E-14
 -1      2751 8.40651E-03-3.41997E-04-4.82414E-14
 -1      2752 8.80142E-03-3.91103E-04-5.17426E-14
 -1      2753 8.95473E-03-3.99898E-04-5.31982E-14
 -1      2754 8.70382E-03-3.47194E-04-5.11133E-14
 -1      2755 9.10992E-03-4.11948E-04-5.46636E-14
 -1      2756 9.26697E-03-4.27953E-04-5.61373E-14
 -1      2757 9.00717E-03-3.62007E-04-5.40240E-14
 -1      2758 9.42644E-03-4.48196E-04-5.76195E-14
 -1      2759 9.58803E-03-4.73454E-04-5.91090E-14
 -1      2760 9.31908E-03-3.90434E-04-5.69689E-14
 -1      2761 9.75238E-03-5.03809E-04-6.06069E-14
 -1      2762 9.91868E-03-5.39824E-04-6.21105E-14
 -1      2763 9.64209E-03-4.37118E-04-5.99470E-14
 -1      2764 1.00875E-02-5.81173E-04-6.36179E-14
 -1      2765 1.02572E-02-6.27591E-04-6.51325E-14
 -1      2766 9.97757E-03-5.06463E-04-6.29507E-14
 -1      2767 1.04281E-02-6.78088E-04-6.66521E-14
 -1      2768 1.05980E-02-7.30404E-04-6.81737E-14
 -1      2769 1.03236E-02-6.00025E-04-6.59753E-14
 -1      2770 1.07667E-02-7.82563E-04-6.97016E-14
 -1      2771 1.09326E-02-8.30330E-04-7.12334E-14
 -1      2772 1.06728E-02-7.10549E-04-6.90188E-14
 -1      2773 1.10948E-02-8.70957E-04-7.27669E-14
 -1      2774 1.12544E-02-8.98923E-04-7.43060E-14
 -1      2775 1.10140E-02-8.16395E-04-7.20772E-14
 -1      2776 1.14104E-02-9.12024E-04-7.58509E-14
 -1      2777 1.15665E-02-9.07220E-04-7.74017E-14
 -1      2778 1.13403E-02-8.81406E-04-7.51545E-14
 -1      2779 1.17220E-02-8.84331E-04-7.89573E-14
 -1      2780 1.18803E-02-8.45261E-04-8.05173E-14
 -1      2781 1.16585E-02-8.72616E-04-7.82538E-14
 -1      2782 1.20406E-02-7.92197E-04-8.20825E-14
 -1      2783 1.22047E-02-7.29894E-04-8.36529E-14
 -1      2784 1.19824E-02-7.86793E-04-8.13755E-14
 -1      2785 1.23720E-02-6.61046E-04-8.52284E-14
 -1      2786 1.25403E-02-5.90700E-04-8.68111E-14
 -1      2787 1.23211E-02-6.51183E-04-8.45147E-14
 -1      2788 1.27097E-02-5.20684E-04-8.83978E-14
 -1      2789 1.28782E-02-4.53297E-04-8.99889E-14
 -1      2790 1.26691E-02-5.03590E-04-8.76762E-14
 -1      2791 1.30458E-02-3.89405E-04-9.15855E-14
 -1      2792 1.32107E-02-3.29517E-04-9.31821E-14
 -1      2793 1.30151E-02-3.67535E-04-9.08572E-14
 -1      2794 1.33734E-02-2.73668E-04-9.47821E-14
 -1      2795 1.35330E-02-2.21111E-04-9.63824E-14
 -1      2796 1.33509E-02-2.50494E-04-9.40479E-14
 -1      2797 1.36899E-02-1.71465E-04-9.79826E-14
 -1      2798 1.38439E-02-1.23492E-04-9.95855E-14
 -1      2799 1.36730E-02-1.50068E-04-9.72453E-14
 -1      2800 2.26911E-03 4.78580E-04-4.37257E-15
 -1      2801 2.12730E-03 4.71756E-04-3.86080E-15
 -1      2802 1.14343E-02-8.18335E-04-7.61113E-14
 -1      2803 1.13033E-02-7.86912E-04-7.50454E-14
 -1      2804 1.98539E-03 4.63303E-04-3.37961E-15
 -1      2805 1.84335E-03 4.53058E-04-2.92961E-15
 -1      2806 2.04758E-03 4.31365E-04-3.65953E-15
 -1      2807 2.83614E-03 4.94333E-04-6.72613E-15
 -1      2808 2.69438E-03 4.91799E-04-6.09290E-15
 -1      2809 3.11980E-03 4.97453E-04-8.07946E-15
 -1      2810 2.97796E-03 4.96191E-04-7.38844E-15
 -1      2811 2.90234E-03 4.58282E-04-7.09707E-15
 -1      2812 3.40369E-03 4.98612E-04-9.54597E-15
 -1      2813 3.26172E-03 4.98241E-04-8.79888E-15
 -1      2814 3.18712E-03 4.60765E-04-8.47742E-15
 -1      2815 3.68783E-03 4.98399E-04-1.11226E-14
 -1      2816 3.54573E-03 4.98651E-04-1.03211E-14
 -1      2817 3.47197E-03 4.61494E-04-9.97040E-15
 -1      2818 3.97226E-03 4.97217E-04-1.28057E-14
 -1      2819 3.83002E-03 4.97912E-04-1.19512E-14
 -1      2820 3.75693E-03 4.60995E-04-1.15709E-14
 -1      2821 4.25695E-03 4.95320E-04-1.45911E-14
 -1      2822 4.11457E-03 4.96347E-04-1.36849E-14
 -1      2823 4.04201E-03 4.59625E-04-1.32762E-14
 -1      2824 4.54193E-03 4.92845E-04-1.64790E-14
 -1      2825 4.39941E-03 4.94149E-04-1.55228E-14
 -1      2826 4.32724E-03 4.57599E-04-1.50839E-14
 -1      2827 4.82719E-03 4.89841E-04-1.84659E-14
 -1      2828 4.68452E-03 4.91408E-04-1.74601E-14
 -1      2829 4.61262E-03 4.55029E-04-1.69924E-14
 -1      2830 5.11274E-03 4.86287E-04-2.05479E-14
 -1      2831 4.96993E-03 4.88134E-04-1.94954E-14
 -1      2832 4.89817E-03 4.51943E-04-1.89978E-14
 -1      2833 5.39863E-03 4.82115E-04-2.27239E-14
 -1      2834 5.25564E-03 4.84282E-04-2.16242E-14
 -1      2835 5.18389E-03 4.48305E-04-2.10987E-14
 -1      2836 5.68489E-03 4.77222E-04-2.49923E-14
 -1      2837 5.54170E-03 4.79763E-04-2.38468E-14
 -1      2838 5.46981E-03 4.44039E-04-2.32921E-14
 -1      2839 5.97161E-03 4.71496E-04-2.73419E-14
 -1      2840 5.82818E-03 4.74468E-04-2.61572E-14
 -1      2841 5.75596E-03 4.39038E-04-2.55754E-14
 -1      2842 6.25888E-03 4.64833E-04-2.97704E-14
 -1      2843 6.11516E-03 4.68284E-04-2.85467E-14
 -1      2844 6.04239E-03 4.33192E-04-2.79407E-14
 -1      2845 6.54682E-03 4.57171E-04-3.22682E-14
 -1      2846 6.40275E-03 4.61126E-04-3.10117E-14
 -1      2847 6.32913E-03 4.26406E-04-3.03818E-14
 -1      2848 6.83561E-03 4.48531E-04-3.48316E-14
 -1      2849 6.69109E-03 4.52967E-04-3.35422E-14
 -1      2850 6.61626E-03 4.18632E-04-3.28918E-14
 -1      2851 7.12543E-03 4.39075E-04-3.74556E-14
 -1      2852 6.98036E-03 4.43888E-04-3.61358E-14
 -1      2853 6.90385E-03 4.09917E-04-3.54658E-14
 -1      2854 7.41651E-03 4.29183E-04-4.01405E-14
 -1      2855 7.27077E-03 4.34151E-04-3.87899E-14
 -1      2856 7.19197E-03 4.00456E-04-3.81013E-14
 -1      2857 7.70914E-03 4.19571E-04-4.28782E-14
 -1      2858 7.56258E-03 4.24287E-04-4.15031E-14
 -1      2859 7.48074E-03 3.90673E-04-4.07958E-14
 -1      2860 8.00370E-03 4.11438E-04-4.56678E-14
 -1      2861 7.85612E-03 4.15231E-04-4.42671E-14
 -1      2862 7.77031E-03 3.81333E-04-4.35452E-14
 -1      2863 8.30074E-03 4.06659E-04-4.85065E-14
 -1      2864 8.15183E-03 4.08491E-04-4.70813E-14
 -1      2865 8.06094E-03 3.73674E-04-4.63446E-14
 -1      2866 8.60111E-03 4.08035E-04-5.13832E-14
 -1      2867 8.45041E-03 4.06369E-04-4.99396E-14
 -1      2868 8.35312E-03 3.69593E-04-4.91893E-14
 -1      2869 8.90621E-03 4.19574E-04-5.42970E-14
 -1      2870 8.75294E-03 4.12223E-04-5.28371E-14
 -1      2871 8.64779E-03 3.71856E-04-5.20751E-14
 -1      2872 9.21832E-03 4.46784E-04-5.72386E-14
 -1      2873 9.06124E-03 4.30766E-04-5.57650E-14
 -1      2874 8.94670E-03 3.84369E-04-5.49950E-14
 -1      2875 9.54085E-03 4.96894E-04-6.02010E-14
 -1      2876 9.37814E-03 4.68333E-04-5.87163E-14
 -1      2877 9.25290E-03 4.12518E-04-5.79398E-14
 -1      2878 9.87810E-03 5.78582E-04-6.31858E-14
 -1      2879 9.70764E-03 5.33033E-04-6.16902E-14
 -1      2880 9.57129E-03 4.63713E-04-6.09065E-14
 -1      2881 1.02338E-02 7.00526E-04-6.61949E-14
 -1      2882 1.00540E-02 6.33679E-04-6.46876E-14
 -1      2883 9.90799E-03 5.47491E-04-6.38962E-14
 -1      2884 1.06075E-02 8.66965E-04-6.92238E-14
 -1      2885 1.04200E-02 7.78535E-04-6.77075E-14
 -1      2886 1.02691E-02 6.74285E-04-6.69091E-14
 -1      2887 1.09861E-02 1.06286E-03-7.22737E-14
 -1      2888 1.07978E-02 9.63468E-04-7.07462E-14
 -1      2889 1.06546E-02 8.53048E-04-6.99420E-14
 -1      2890 1.17013E-02 1.32934E-03-7.84567E-14
 -1      2891 1.15244E-02 1.29593E-03-7.69118E-14
 -1      2892 1.20595E-02 1.28264E-03-8.16193E-14
 -1      2893 1.18784E-02 1.32104E-03-8.00616E-14
 -1      2894 1.27745E-02 1.02436E-03-8.78115E-14
 -1      2895 1.25872E-02 1.10076E-03-8.62387E-14
 -1      2896 1.31449E-02 8.91907E-04-9.09615E-14
 -1      2897 1.29622E-02 9.53803E-04-8.93859E-14
 -1      2898 1.29149E-02 9.24760E-04-8.85465E-14
 -1      2899 1.34977E-02 7.97657E-04-9.41157E-14
 -1      2900 1.33244E-02 8.40303E-04-9.25385E-14
 -1      2901 1.32895E-02 8.03551E-04-9.16952E-14
 -1      2902 1.38304E-02 7.36946E-04-9.72735E-14
 -1      2903 1.36667E-02 7.63957E-04-9.56950E-14
 -1      2904 1.36383E-02 7.25710E-04-9.48476E-14
 -1      2905 1.41460E-02 6.98420E-04-1.00432E-13
 -1      2906 1.39902E-02 7.15826E-04-9.88502E-14
 -1      2907 1.39638E-02 6.79376E-04-9.80012E-14
 -1      2908 1.44256E-02 6.64534E-04-1.03237E-13
 -1      2909 1.42755E-02 6.78209E-04-1.01653E-13
 -1      2910 1.42494E-02 6.44900E-04-1.00799E-13
 -1      2911 1.45014E-02 6.12576E-04-1.03242E-13
 -1      2912 1.47519E-02 3.39420E-04-1.02454E-13
 -1      2913 1.47698E-02 3.61261E-04-1.02518E-13
 -1      2914 1.39452E-02-9.26849E-05-1.00668E-13
 -1      2915 1.40453E-02-6.18206E-05-1.01749E-13
 -1      2916 1.39313E-02-7.44867E-05-9.99279E-14
 -1      2917 1.47456E-02 4.28185E-04-1.02710E-13
 -1      2918 1.47146E-02 4.54478E-04-1.02776E-13
 -1      2919 1.46789E-02 2.91382E-04-1.02332E-13
 -1      2920 1.47212E-02 3.16672E-04-1.02394E-13
 -1      2921 1.46318E-02 3.17985E-04-1.01039E-13
 -1      2922 1.47745E-02 3.82348E-04-1.02580E-13
 -1      2923 1.47661E-02 4.04618E-04-1.02644E-13
 -1      2924 1.46498E-02 4.09467E-04-1.01295E-13
 -1      2925 1.46694E-02 3.63238E-04-1.01164E-13
 -1      2926 1.40581E-02 2.99524E-04-9.05658E-14
 -1      2927 1.40465E-02 2.90460E-04-9.04241E-14
 -1      2928 1.45683E-02 2.33652E-04-1.02212E-13
 -1      2929 1.46275E-02 2.64086E-04-1.02272E-13
 -1      2930 1.45426E-02 2.64790E-04-1.00917E-13
 -1      2931 1.44314E-02 1.62954E-04-1.02086E-13
 -1      2932 1.45019E-02 1.99718E-04-1.02149E-13
 -1      2933 1.44165E-02 1.98155E-04-1.00793E-13
 -1      2934 1.42845E-02 8.26162E-05-1.01956E-13
 -1      2935 1.43585E-02 1.23681E-04-1.02021E-13
 -1      2936 1.42698E-02 1.17850E-04-1.00666E-13
 -1      2937 9.61179E-03 4.59084E-05-6.67178E-14
 -1      2938 9.47708E-03 8.07176E-05-6.60867E-14
 -1      2939 1.35795E-02 4.48422E-04-8.88504E-14
 -1      2940 1.37492E-02 3.89667E-04-8.94021E-14
 -1      2941 7.88844E-04-2.52546E-04-6.00011E-16
 -1      2942 9.20028E-04-2.88336E-04-7.76357E-16
 -1      2943 1.22416E-02 1.23950E-03-8.33064E-14
 -1      2944 1.21988E-02 1.20501E-03-8.25549E-14
 -1      2945 1.23462E-02 1.12547E-03-8.36156E-14
 -1      2946 1.24259E-02 1.16666E-03-8.48733E-14
 -1      2947 9.67397E-03 2.55128E-04-6.69750E-14
 -1      2948 9.83180E-03 3.19332E-04-6.74285E-14
 -1      2949 1.70115E-03 4.40602E-04-2.51143E-15
 -1      2950 1.55870E-03 4.25731E-04-2.12542E-15
 -1      2951 1.76208E-03 4.11276E-04-2.75794E-15
 -1      2952 1.05555E-02 7.10529E-04-7.04861E-14
 -1      2953 1.07761E-02 8.55494E-04-7.16724E-14
 -1      2954 2.55262E-03 4.88419E-04-5.48960E-15
 -1      2955 2.41089E-03 4.84091E-04-4.91589E-15
 -1      2956 2.33269E-03 4.44777E-04-4.68512E-15
 -1      2957 2.61756E-03 4.53294E-04-5.83192E-15
 -1      2958 1.28589E-02 8.17483E-04-8.64434E-14
 -1      2959 1.30560E-02 7.00023E-04-8.72096E-14
 -1      2960 1.04824E-03-3.15909E-04-9.79129E-16
 -1      2961 1.19151E-03-3.41561E-04-1.23706E-15
 -1      2962 1.25304E-03-3.19995E-04-1.41564E-15
 -1      2963 9.96732E-04-2.74910E-04-9.42822E-16
 -1      2964 1.41603E-03 4.07910E-04-1.77202E-15
 -1      2965 1.27298E-03 3.86878E-04-1.45099E-15
 -1      2966 1.18965E-03 3.41555E-04-1.33538E-15
 -1      2967 1.47608E-03 3.82260E-04-1.98223E-15
 -1      2968 1.21233E-02-6.37640E-04-8.17440E-14
 -1      2969 1.19514E-02-7.29615E-04-8.04734E-14
 -1      2970 9.97610E-03-1.02077E-04-6.77251E-14
 -1      2971 9.78455E-03-1.82422E-05-6.72221E-14
 -1      2972 9.69020E-03-2.57911E-06-6.62087E-14
 -1      2973 8.03078E-04 2.78279E-04-6.46849E-16
 -1      2974 7.84399E-04 1.23492E-04-7.58942E-16
 -1      2975 7.82016E-04 1.00051E-04-7.64457E-16
 -1      2976 8.99635E-04 9.94770E-05-9.69006E-16
 -1      2977 9.05363E-04 1.51628E-04-9.55778E-16
 -1      2978 6.52862E-04-1.88435E-04-4.68687E-16
 -1      2979 7.81748E-04-9.79938E-05-7.38789E-16
 -1      2980 7.84057E-04-1.21349E-04-7.27689E-16
 -1      2981 1.00765E-02 4.34983E-04-6.83528E-14
 -1      2982 1.03036E-02 5.56333E-04-6.93442E-14
 -1      2983 1.41321E-02-1.60530E-05-1.02090E-13
 -1      2984 1.10267E-02 1.01581E-03-7.32612E-14
 -1      2985 1.11879E-02 1.11790E-03-7.43990E-14
 -1      2986 1.03570E-02-2.98905E-04-6.91439E-14
 -1      2987 1.01757E-02-2.02578E-04-6.83650E-14
 -1      2988 9.29755E-03 1.40572E-04-6.55971E-14
 -1      2989 9.35186E-03 1.54376E-04-6.59746E-14
 -1      2990 1.32387E-02 6.00532E-04-8.77405E-14
 -1      2991 1.34010E-02 5.24357E-04-8.83203E-14
 -1      2992 1.35284E-02 4.89080E-04-8.93702E-14
 -1      2993 1.31878E-02 6.56655E-04-8.83086E-14
 -1      2994 9.43702E-03 1.78315E-04-6.63275E-14
 -1      2995 9.53902E-03 2.07123E-04-6.66420E-14
 -1      2996 1.07084E-02-5.00164E-04-7.09260E-14
 -1      2997 1.05538E-02-4.08862E-04-7.00956E-14
 -1      2998 1.17358E-02-8.05098E-04-7.86746E-14
 -1      2999 1.15895E-02-8.27169E-04-7.73906E-14
 -1      3000 1.15074E-02-8.31779E-04-7.66957E-14
 -1      3001 1.24378E-02-4.48671E-04-8.37696E-14
 -1      3002 1.22754E-02-5.49558E-04-8.27566E-14
 -1      3003 1.22069E-02-6.04639E-04-8.25910E-14
 -1      3004 7.69982E-04-2.02441E-04-6.32551E-16
 -1      3005 8.95506E-04 1.00970E-06-9.69087E-16
 -1      3006 7.77660E-04-9.72459E-06-7.65135E-16
 -1      3007 7.78023E-04-3.13784E-05-7.60744E-16
 -1      3008 9.23900E-03 1.15975E-04-6.38429E-14
 -1      3009 9.26370E-03 1.28328E-04-6.47201E-14
 -1      3010 9.24604E-03 1.31170E-04-6.40864E-14
 -1      3011 1.30569E-02-1.01936E-04-8.72285E-14
 -1      3012 1.25027E-02 1.02926E-03-8.44981E-14
 -1      3013 1.26755E-02 9.27443E-04-8.55610E-14
 -1      3014 1.28472E-02 8.54730E-04-8.68944E-14
 -1      3015 1.25242E-02 1.05557E-03-8.51270E-14
 -1      3016 1.27143E-02-3.06197E-04-8.58755E-14
 -1      3017 1.25759E-02-3.74688E-04-8.48197E-14
 -1      3018 1.24870E-02-4.50311E-04-8.46579E-14
 -1      3019 1.40346E-02 2.83081E-04-9.07213E-14
 -1      3020 1.40119E-02 2.74779E-04-9.10200E-14
 -1      3021 1.40889E-02 2.92967E-04-9.17698E-14
 -1      3022 1.11886E-02-7.54871E-04-7.40796E-14
 -1      3023 1.10755E-02-7.16101E-04-7.31181E-14
 -1      3024 1.12457E-02-7.87142E-04-7.44509E-14
 -1      3025 1.45821E-02 4.65055E-04-1.01432E-13
 -1      3026 1.46751E-02 4.83130E-04-1.02844E-13
 -1      3027 1.46293E-02 5.14857E-04-1.02914E-13
 -1      3028 1.08773E-02 9.39232E-04-7.20386E-14
 -1      3029 1.13543E-02 1.20895E-03-7.56373E-14
 -1      3030 1.12964E-02 1.21212E-03-7.48942E-14
 -1      3031 1.11116E-02 1.12134E-03-7.33583E-14
 -1      3032 1.25525E-02 1.07215E-03-8.56078E-14
 -1      3033 9.78933E-03 3.27487E-04-6.61524E-14
 -1      3034 9.92778E-03 3.73381E-04-6.72506E-14
 -1      3035 1.00097E-02 4.32432E-04-6.70726E-14
 -1      3036 1.40608E-02 3.11176E-04-9.10330E-14
 -1      3037 1.41060E-02 3.10241E-04-9.19385E-14
 -1      3038 1.40519E-02 3.24019E-04-9.15003E-14
 -1      3039 1.45928E-02 5.43775E-04-1.03043E-13
 -1      3040 1.45404E-02 5.80251E-04-1.03113E-13
 -1      3041 1.44173E-02 5.93320E-04-1.01892E-13
 -1      3042 1.44980E-02 5.27779E-04-1.01632E-13
 -1      3043 9.43046E-03 6.58699E-05-6.47100E-14
 -1      3044 9.38610E-03 9.13777E-05-6.50906E-14
 -1      3045 9.30833E-03 9.35404E-05-6.40954E-14
 -1      3046 8.64844E-04 2.66601E-04-7.73700E-16
 -1      3047 1.42040E-02 2.71084E-05-1.02161E-13
 -1      3048 1.38532E-02 3.66183E-04-9.02486E-14
 -1      3049 1.39435E-02 3.54364E-04-9.10934E-14
 -1      3050 1.38042E-02 3.98730E-04-9.07443E-14
 -1      3051 9.82940E-04 2.75844E-04-9.87857E-16
 -1      3052 9.04890E-04-1.49092E-04-9.14457E-16
 -1      3053 7.87106E-04-1.45492E-04-7.14571E-16
 -1      3054 7.90964E-04-1.70650E-04-6.99161E-16
 -1      3055 9.36294E-03 1.61860E-04-6.53154E-14
 -1      3056 1.08018E-02-5.67391E-04-7.13153E-14
 -1      3057 9.57305E-03 2.27652E-04-6.59994E-14
 -1      3058 1.04013E-02 6.35483E-04-6.93132E-14
 -1      3059 7.78800E-04-5.31693E-05-7.54944E-16
 -1      3060 7.80015E-04-7.53637E-05-7.47571E-16
 -1      3061 8.99351E-04-9.71253E-05-9.40681E-16
 -1      3062 8.96399E-04-4.75427E-05-9.58340E-16
 -1      3063 1.00464E-02-1.61982E-04-6.73498E-14
 -1      3064 1.34416E-02 8.65006E-05-8.86696E-14
 -1      3065 1.33981E-02 5.02778E-05-8.91530E-14
 -1      3066 1.35579E-02 1.26386E-04-8.94120E-14
 -1      3067 1.04171E-02-3.62052E-04-6.89368E-14
 -1      3068 1.37941E-02 2.20279E-04-8.94499E-14
 -1      3069 1.37252E-02 1.91776E-04-8.98144E-14
 -1      3070 1.38833E-02 2.40065E-04-9.03312E-14
 -1      3071 1.40211E-02-2.94545E-05-1.00368E-13
 -1      3072 1.41945E-02 4.21111E-05-1.01518E-13
 -1      3073 1.41024E-02 3.21886E-05-1.00163E-13
 -1      3074 1.39194E-02-5.71122E-05-9.92861E-14
 -1      3075 1.04027E-03 2.43323E-04-1.14305E-15
 -1      3076 1.03366E-03 2.11597E-04-1.16086E-15
 -1      3077 8.87894E-04-2.11870E-04-8.22489E-16
 -1      3078 1.73167E-03-3.40536E-04-2.63313E-15
 -1      3079 1.87534E-03-3.50737E-04-3.04933E-15
 -1      3080 2.01900E-03-3.59217E-04-3.49533E-15
 -1      3081 2.16265E-03-3.66130E-04-3.97113E-15
 -1      3082 1.94019E-03-3.19415E-04-3.31301E-15
 -1      3083 2.30625E-03-3.71751E-04-4.47605E-15
 -1      3084 2.44980E-03-3.76204E-04-5.00989E-15
 -1      3085 2.22823E-03-3.32507E-04-4.26921E-15
 -1      3086 2.59330E-03-3.79711E-04-5.57254E-15
 -1      3087 2.73673E-03-3.82370E-04-6.16355E-15
 -1      3088 2.51621E-03-3.40982E-04-5.34186E-15
 -1      3089 2.88012E-03-3.84348E-04-6.78258E-15
 -1      3090 3.02345E-03-3.85722E-04-7.42921E-15
 -1      3091 2.80399E-03-3.46062E-04-6.52787E-15
 -1      3092 3.16673E-03-3.86616E-04-8.10326E-15
 -1      3093 3.30997E-03-3.87084E-04-8.80407E-15
 -1      3094 3.09150E-03-3.48702E-04-7.82473E-15
 -1      3095 3.45317E-03-3.87218E-04-9.53106E-15
 -1      3096 3.59632E-03-3.87055E-04-1.02848E-14
 -1      3097 3.37873E-03-3.49620E-04-9.22946E-15
 -1      3098 3.73945E-03-3.86658E-04-1.10645E-14
 -1      3099 3.88253E-03-3.86051E-04-1.18690E-14
 -1      3100 3.66570E-03-3.49332E-04-1.07391E-14
 -1      3101 4.02560E-03-3.85273E-04-1.26992E-14
 -1      3102 4.16864E-03-3.84340E-04-1.35551E-14
 -1      3103 3.95243E-03-3.48194E-04-1.23516E-14
 -1      3104 4.31165E-03-3.83274E-04-1.44357E-14
 -1      3105 4.45464E-03-3.82080E-04-1.53397E-14
 -1      3106 4.23893E-03-3.46434E-04-1.40650E-14
 -1      3107 4.59762E-03-3.80769E-04-1.62670E-14
 -1      3108 4.74057E-03-3.79340E-04-1.72187E-14
 -1      3109 4.52523E-03-3.44175E-04-1.58761E-14
 -1      3110 4.88351E-03-3.77792E-04-1.81941E-14
 -1      3111 5.02642E-03-3.76120E-04-1.91924E-14
 -1      3112 4.81133E-03-3.41466E-04-1.77809E-14
 -1      3113 5.16932E-03-3.74318E-04-2.02126E-14
 -1      3114 5.31221E-03-3.72376E-04-2.12551E-14
 -1      3115 5.09723E-03-3.38294E-04-1.97793E-14
 -1      3116 5.45507E-03-3.70284E-04-2.23196E-14
 -1      3117 5.59792E-03-3.68031E-04-2.34056E-14
 -1      3118 5.38293E-03-3.34607E-04-2.18674E-14
 -1      3119 5.74074E-03-3.65605E-04-2.45136E-14
 -1      3120 5.88355E-03-3.62995E-04-2.56406E-14
 -1      3121 5.66839E-03-3.30324E-04-2.40415E-14
 -1      3122 6.02633E-03-3.60193E-04-2.67892E-14
 -1      3123 6.16910E-03-3.57189E-04-2.79587E-14
 -1      3124 5.95359E-03-3.25358E-04-2.63004E-14
 -1      3125 6.31183E-03-3.53982E-04-2.91482E-14
 -1      3126 6.45455E-03-3.50566E-04-3.03573E-14
 -1      3127 6.23849E-03-3.19631E-04-2.86404E-14
 -1      3128 6.59724E-03-3.46953E-04-3.15862E-14
 -1      3129 6.73993E-03-3.43146E-04-3.28339E-14
 -1      3130 6.52302E-03-3.13100E-04-3.10607E-14
 -1      3131 6.88260E-03-3.39174E-04-3.41007E-14
 -1      3132 7.02528E-03-3.35054E-04-3.53846E-14
 -1      3133 6.80716E-03-3.05786E-04-3.35578E-14
 -1      3134 7.16796E-03-3.30843E-04-3.66855E-14
 -1      3135 7.31070E-03-3.26578E-04-3.80037E-14
 -1      3136 7.09091E-03-2.97813E-04-3.61267E-14
 -1      3137 7.45348E-03-3.22349E-04-3.93363E-14
 -1      3138 7.59639E-03-3.18228E-04-4.06850E-14
 -1      3139 7.37431E-03-2.89454E-04-3.87614E-14
 -1      3140 7.73945E-03-3.14343E-04-4.20476E-14
 -1      3141 7.88277E-03-3.10816E-04-4.34228E-14
 -1      3142 7.65757E-03-2.81187E-04-4.14591E-14
 -1      3143 8.02640E-03-3.07820E-04-4.48105E-14
 -1      3144 8.17052E-03-3.05551E-04-4.62115E-14
 -1      3145 7.94110E-03-2.73766E-04-4.42091E-14
 -1      3146 8.31523E-03-3.04225E-04-4.76260E-14
 -1      3147 8.46076E-03-3.04153E-04-4.90508E-14
 -1      3148 8.22565E-03-2.68313E-04-4.70112E-14
 -1      3149 8.60735E-03-3.05582E-04-5.04845E-14
 -1      3150 8.75527E-03-3.08993E-04-5.19300E-14
 -1      3151 8.51256E-03-2.66430E-04-4.98583E-14
 -1      3152 8.90491E-03-3.14649E-04-5.33855E-14
 -1      3153 9.05659E-03-3.23283E-04-5.48486E-14
 -1      3154 8.80391E-03-2.70387E-04-5.27471E-14
 -1      3155 9.21087E-03-3.35145E-04-5.63208E-14
 -1      3156 9.36802E-03-3.51297E-04-5.78008E-14
 -1      3157 9.10285E-03-2.83418E-04-5.56740E-14
 -1      3158 9.52881E-03-3.71929E-04-5.92873E-14
 -1      3159 9.69314E-03-3.98437E-04-6.07833E-14
 -1      3160 9.41362E-03-3.10186E-04-5.86315E-14
 -1      3161 9.86198E-03-4.30888E-04-6.22835E-14
 -1      3162 1.00343E-02-4.70575E-04-6.37887E-14
 -1      3163 9.74105E-03-3.57247E-04-6.16156E-14
 -1      3164 1.02108E-02-5.17246E-04-6.52985E-14
 -1      3165 1.03893E-02-5.70907E-04-6.68138E-14
 -1      3166 1.00885E-02-4.32799E-04-6.46258E-14
 -1      3167 1.05701E-02-6.30334E-04-6.83368E-14
 -1      3168 1.07494E-02-6.91696E-04-6.98612E-14
 -1      3169 1.04538E-02-5.42615E-04-6.76545E-14
 -1      3170 1.09896E-02-7.55577E-04-7.20154E-14
 -1      3171 1.11642E-02-8.08274E-04-7.35487E-14
 -1      3172 1.15910E-02-8.62673E-04-7.75503E-14
 -1      3173 1.17547E-02-8.35224E-04-7.91049E-14
 -1      3174 1.19318E-02-7.68098E-04-8.06962E-14
 -1      3175 1.21069E-02-6.98599E-04-8.22607E-14
 -1      3176 1.23574E-02-5.72788E-04-8.43255E-14
 -1      3177 1.25431E-02-4.87589E-04-8.59035E-14
 -1      3178 1.29855E-02-3.42382E-04-9.01293E-14
 -1      3179 1.31594E-02-2.80008E-04-9.17210E-14
 -1      3180 1.33299E-02-2.23745E-04-9.33155E-14
 -1      3181 1.34957E-02-1.72366E-04-9.49097E-14
 -1      3182 1.33106E-02-1.93601E-04-9.25822E-14
 -1      3183 1.36315E-02-1.35538E-04-9.62964E-14
 -1      3184 1.37898E-02-9.06746E-05-9.78947E-14
 -1      3185 1.38822E-02-4.26411E-05-9.83341E-14
 -1      3186 1.36172E-02-1.07499E-04-9.55591E-14
 -1      3187 3.25492E-03 4.23771E-04-8.87623E-15
 -1      3188 3.11206E-03 4.23049E-04-8.15845E-15
 -1      3189 2.96917E-03 4.21853E-04-7.46904E-15
 -1      3190 2.82627E-03 4.20120E-04-6.80807E-15
 -1      3191 3.03663E-03 3.85120E-04-7.84210E-15
 -1      3192 3.82627E-03 4.23407E-04-1.20189E-14
 -1      3193 3.68345E-03 4.23887E-04-1.11930E-14
 -1      3194 4.11193E-03 4.21898E-04-1.37459E-14
 -1      3195 3.96910E-03 4.22738E-04-1.28699E-14
 -1      3196 3.89588E-03 3.85683E-04-1.24659E-14
 -1      3197 4.39761E-03 4.19791E-04-1.55753E-14
 -1      3198 4.25477E-03 4.20913E-04-1.46478E-14
 -1      3199 4.18202E-03 3.84082E-04-1.42155E-14
 -1      3200 4.68332E-03 4.17170E-04-1.75043E-14
 -1      3201 4.54046E-03 4.18543E-04-1.65276E-14
 -1      3202 4.46807E-03 3.81936E-04-1.60663E-14
 -1      3203 4.96907E-03 4.14045E-04-1.95294E-14
 -1      3204 4.82619E-03 4.15672E-04-1.85049E-14
 -1      3205 4.75402E-03 3.79305E-04-1.80152E-14
 -1      3206 5.25487E-03 4.10372E-04-2.16484E-14
 -1      3207 5.11196E-03 4.12281E-04-2.05776E-14
 -1      3208 5.03989E-03 3.76187E-04-2.00598E-14
 -1      3209 5.54072E-03 4.06066E-04-2.38599E-14
 -1      3210 5.39778E-03 4.08303E-04-2.27427E-14
 -1      3211 5.32567E-03 3.72527E-04-2.21975E-14
 -1      3212 5.82664E-03 4.01023E-04-2.61585E-14
 -1      3213 5.68367E-03 4.03642E-04-2.49993E-14
 -1      3214 5.61135E-03 3.68240E-04-2.44262E-14
 -1      3215 6.11261E-03 3.95137E-04-2.85382E-14
 -1      3216 5.96961E-03 3.98191E-04-2.73385E-14
 -1      3217 5.89690E-03 3.63225E-04-2.67405E-14
 -1      3218 6.39864E-03 3.88326E-04-3.09909E-14
 -1      3219 6.25561E-03 3.91851E-04-2.97552E-14
 -1      3220 6.18227E-03 3.57386E-04-2.91332E-14
 -1      3221 6.68472E-03 3.80563E-04-3.35135E-14
 -1      3222 6.54167E-03 3.84563E-04-3.22439E-14
 -1      3223 6.46740E-03 3.50658E-04-3.15990E-14
 -1      3224 6.97081E-03 3.71921E-04-3.60982E-14
 -1      3225 6.82775E-03 3.76345E-04-3.47981E-14
 -1      3226 6.75219E-03 3.43036E-04-3.41322E-14
 -1      3227 7.25690E-03 3.62628E-04-3.87459E-14
 -1      3228 7.11384E-03 3.67339E-04-3.74146E-14
 -1      3229 7.03652E-03 3.34621E-04-3.67300E-14
 -1      3230 7.54295E-03 3.53147E-04-4.14513E-14
 -1      3231 7.39991E-03 3.57879E-04-4.00915E-14
 -1      3232 7.32025E-03 3.25674E-04-3.93889E-14
 -1      3233 7.82900E-03 3.44271E-04-4.42098E-14
 -1      3234 7.68594E-03 3.48580E-04-4.28246E-14
 -1      3235 7.60322E-03 3.16684E-04-4.21058E-14
 -1      3236 8.11518E-03 3.37247E-04-4.70198E-14
 -1      3237 7.97202E-03 3.40442E-04-4.56073E-14
 -1      3238 7.88532E-03 3.08452E-04-4.48738E-14
 -1      3239 8.40193E-03 3.33926E-04-4.98710E-14
 -1      3240 8.25840E-03 3.34992E-04-4.84409E-14
 -1      3241 8.16657E-03 3.02191E-04-4.76914E-14
 -1      3242 8.69024E-03 3.36944E-04-5.27650E-14
 -1      3243 8.54575E-03 3.34440E-04-5.13137E-14
 -1      3244 8.44732E-03 2.99633E-04-5.05534E-14
 -1      3245 8.98217E-03 3.49972E-04-5.56906E-14
 -1      3246 8.83552E-03 3.41888E-04-5.42236E-14
 -1      3247 8.72860E-03 3.03169E-04-5.34531E-14
 -1      3248 9.28150E-03 3.78138E-04-5.86396E-14
 -1      3249 9.13054E-03 3.61647E-04-5.71619E-14
 -1      3250 9.01267E-03 3.16080E-04-5.63835E-14
 -1      3251 9.59453E-03 4.28916E-04-6.16104E-14
 -1      3252 9.43580E-03 3.99836E-04-6.01213E-14
 -1      3253 9.30393E-03 3.43043E-04-5.93369E-14
 -1      3254 9.93046E-03 5.13254E-04-6.46062E-14
 -1      3255 9.75912E-03 4.65568E-04-6.31057E-14
 -1      3256 9.61042E-03 3.91729E-04-6.23143E-14
 -1      3257 1.01776E-02 5.62168E-04-6.71986E-14
 -1      3258 9.99622E-03 4.96103E-04-6.56922E-14
 -1      3259 1.09795E-02 1.01979E-03-7.25451E-14
 -1      3260 1.18197E-02 1.33244E-03-7.95427E-14
 -1      3261 1.40969E-02 6.26682E-04-9.87280E-14
 -1      3262 1.39419E-02 6.40333E-04-9.71518E-14
 -1      3263 1.43225E-02 6.01086E-04-1.00918E-13
 -1      3264 1.41952E-02 6.16576E-04-9.96986E-14
 -1      3265 1.41754E-02 5.79063E-04-9.88463E-14
 -1      3266 1.43652E-02 5.65510E-04-1.00788E-13
 -1      3267 1.45094E-02 2.95949E-04-9.96263E-14
 -1      3268 1.45449E-02 3.21035E-04-9.96901E-14
 -1      3269 1.41033E-02 6.91373E-05-9.92466E-14
 -1      3270 1.41816E-02 1.15706E-04-9.93102E-14
 -1      3271 1.00593E-02-2.11874E-04-6.66052E-14
 -1      3272 9.88880E-03-1.24155E-04-6.59695E-14
 -1      3273 1.44019E-02 2.36765E-04-9.95032E-14
 -1      3274 1.44609E-02 2.68484E-04-9.95645E-14
 -1      3275 1.43831E-02 2.73403E-04-9.82184E-14
 -1      3276 1.18533E-02-7.71454E-04-7.97032E-14
 -1      3277 1.17654E-02-8.04497E-04-7.90045E-14
 -1      3278 1.14499E-03 3.10632E-04-1.28248E-15
 -1      3279 1.08236E-03 2.71703E-04-1.19848E-15
 -1      3280 1.20147E-03 2.73140E-04-1.46072E-15
 -1      3281 1.28815E-03 3.32605E-04-1.58338E-15
 -1      3282 1.42590E-02 1.59801E-04-9.93774E-14
 -1      3283 1.43331E-02 2.00332E-04-9.94409E-14
 -1      3284 1.42533E-02 2.05161E-04-9.80929E-14
 -1      3285 1.40951E-02 1.16876E-04-9.79619E-14
 -1      3286 1.37819E-02 6.58250E-04-9.55733E-14
 -1      3287 1.36161E-02 6.83645E-04-9.39986E-14
 -1      3288 1.39248E-02 5.98282E-04-9.62982E-14
 -1      3289 1.34423E-02 7.16734E-04-9.24245E-14
 -1      3290 1.32614E-02 7.61945E-04-9.08524E-14
 -1      3291 1.36000E-02 6.36965E-04-9.31518E-14
 -1      3292 1.82455E-03 3.81227E-04-3.00777E-15
 -1      3293 1.68120E-03 3.69641E-04-2.58685E-15
 -1      3294 1.19722E-02-7.29949E-04-8.08064E-14
 -1      3295 3.54061E-03 4.24133E-04-1.03937E-14
 -1      3296 3.39778E-03 4.24118E-04-9.62135E-15
 -1      3297 3.32321E-03 3.86536E-04-9.27555E-15
 -1      3298 3.60962E-03 3.86589E-04-1.08183E-14
 -1      3299 2.11105E-03 3.98797E-04-3.94228E-15
 -1      3300 1.96783E-03 3.90888E-04-3.45958E-15
 -1      3301 1.88826E-03 3.50506E-04-3.26143E-15
 -1      3302 1.44458E-03-3.13817E-04-1.89177E-15
 -1      3303 1.58808E-03-3.28291E-04-2.24702E-15
 -1      3304 1.65239E-03-3.00211E-04-2.47491E-15
 -1      3305 1.07487E-02 8.74224E-04-7.09599E-14
 -1      3306 9.71750E-03-4.43116E-05-6.54255E-14
 -1      3307 9.56680E-03 1.31434E-05-6.49243E-14
 -1      3308 1.31641E-02-7.30322E-05-8.84633E-14
 -1      3309 1.29509E-02-1.78319E-04-8.72747E-14
 -1      3310 1.26964E-02 9.79543E-04-8.64925E-14
 -1      3311 1.09123E-02-6.48431E-04-7.18224E-14
 -1      3312 1.07177E-02-5.54921E-04-7.03916E-14
 -1      3313 9.46399E-03 2.02623E-04-6.48483E-14
 -1      3314 9.57731E-03 2.43881E-04-6.51787E-14
 -1      3315 1.15408E-02-8.38539E-04-7.70046E-14
 -1      3316 1.13977E-02-8.25833E-04-7.57260E-14
 -1      3317 1.12882E-02-8.08424E-04-7.47582E-14
 -1      3318 1.04576E-02-4.24712E-04-6.86494E-14
 -1      3319 1.02844E-02-3.28836E-04-6.77019E-14
 -1      3320 1.01660E-03 6.82250E-05-1.20009E-15
 -1      3321 1.01544E-03 4.12351E-05-1.19997E-15
 -1      3322 9.29061E-03 1.50340E-04-6.41471E-14
 -1      3323 9.36685E-03 1.70858E-04-6.44977E-14
 -1      3324 9.36353E-03 1.85191E-04-6.36819E-14
 -1      3325 1.05482E-02 7.68610E-04-6.94405E-14
 -1      3326 1.17812E-02-8.06950E-04-7.92170E-14
 -1      3327 1.16702E-02-8.29790E-04-7.81880E-14
 -1      3328 1.01484E-03 1.44519E-05-1.19784E-15
 -1      3329 1.01481E-03-1.22340E-05-1.19327E-15
 -1      3330 1.13553E-03 3.01715E-05-1.44977E-15
 -1      3331 9.24431E-03 1.02173E-04-6.34650E-14
 -1      3332 9.19471E-03 1.07095E-04-6.28345E-14
 -1      3333 9.25910E-03 8.49401E-05-6.30857E-14
 -1      3334 1.01426E-03-2.34453E-04-1.03296E-15
 -1      3335 1.05735E-02-5.13029E-04-6.91508E-14
 -1      3336 1.41197E-02 3.03950E-04-9.22406E-14
 -1      3337 1.41230E-02 2.97644E-04-9.25390E-14
 -1      3338 1.41387E-02 3.14850E-04-9.27066E-14
 -1      3339 1.55629E-03 3.61571E-04-2.23930E-15
 -1      3340 1.41293E-03 3.45387E-04-1.87784E-15
 -1      3341 1.36910E-03 3.15138E-04-1.81078E-15
 -1      3342 1.61929E-03 3.33961E-04-2.46198E-15
 -1      3343 1.01102E-02-2.79071E-04-6.63190E-14
 -1      3344 1.44920E-02 4.44475E-04-1.00025E-13
 -1      3345 1.44446E-02 4.77821E-04-1.00093E-13
 -1      3346 1.13037E-02-8.46410E-04-7.48223E-14
 -1      3347 1.14695E-02-8.62213E-04-7.63682E-14
 -1      3348 1.26270E-02-4.84693E-04-8.69576E-14
 -1      3349 1.28068E-02-4.10599E-04-8.85413E-14
 -1      3350 1.28430E-02-2.62845E-04-8.71120E-14
 -1      3351 2.74985E-03 3.81754E-04-6.52134E-15
 -1      3352 2.68332E-03 4.17712E-04-6.17555E-15
 -1      3353 2.54034E-03 4.14546E-04-5.57256E-15
 -1      3354 9.45111E-03 2.96589E-05-6.39292E-14
 -1      3355 1.15628E-02-8.44553E-04-7.72150E-14
 -1      3356 9.65006E-03 2.85963E-04-6.50025E-14
 -1      3357 9.71738E-03 3.33781E-04-6.48231E-14
 -1      3358 9.52202E-03 2.56309E-04-6.38542E-14
 -1      3359 1.40333E-02 3.43434E-04-9.19976E-14
 -1      3360 1.41096E-02 3.38938E-04-9.29025E-14
 -1      3361 1.40089E-02 3.67207E-04-9.24949E-14
 -1      3362 1.30706E-02 8.18852E-04-8.92803E-14
 -1      3363 1.28737E-02 8.91762E-04-8.77088E-14
 -1      3364 1.45571E-02 3.88976E-04-9.98840E-14
 -1      3365 1.45308E-02 4.15141E-04-9.99533E-14
 -1      3366 1.44065E-02 4.22559E-04-9.86186E-14
 -1      3367 1.15309E-03 2.11869E-04-1.41521E-15
 -1      3368 1.02834E-03 1.81215E-04-1.17464E-15
 -1      3369 1.02417E-03 1.51881E-04-1.18540E-15
 -1      3370 1.45651E-02 3.43405E-04-9.97525E-14
 -1      3371 1.45691E-02 3.65957E-04-9.98182E-14
 -1      3372 1.44670E-02 3.68728E-04-9.84781E-14
 -1      3373 1.44600E-02 3.24001E-04-9.83468E-14
 -1      3374 9.73852E-03-9.62996E-05-6.46840E-14
 -1      3375 9.22605E-03 1.36697E-04-6.32732E-14
 -1      3376 1.37181E-02 4.41686E-04-9.08544E-14
 -1      3377 1.38318E-02 4.18794E-04-9.17005E-14
 -1      3378 1.02369E-03-1.49147E-04-1.13996E-15
 -1      3379 1.02773E-03-1.78389E-04-1.12163E-15
 -1      3380 1.01840E-03 9.54944E-05-1.19783E-15
 -1      3381 1.13819E-03 8.85852E-05-1.44993E-15
 -1      3382 1.02087E-03 1.23272E-04-1.19299E-15
 -1      3383 1.03329E-02 6.30643E-04-6.83030E-14
 -1      3384 1.29565E-02-3.14703E-04-8.94045E-14
 -1      3385 1.31608E-03-2.97366E-04-1.60103E-15
 -1      3386 1.38021E-03-2.73506E-04-1.79354E-15
 -1      3387 1.18783E-03-2.78833E-04-1.33473E-15
 -1      3388 1.23098E-02-5.64568E-04-8.36068E-14
 -1      3389 1.21737E-02-6.43558E-04-8.25913E-14
 -1      3390 1.32851E-02-2.03397E-05-8.92029E-14
 -1      3391 1.31877E-02-9.34551E-05-8.92514E-14
 -1      3392 1.34032E-02 2.48378E-05-8.99415E-14
 -1      3393 2.39730E-03 4.10433E-04-4.99930E-15
 -1      3394 2.25421E-03 4.05266E-04-4.45557E-15
 -1      3395 2.17563E-03 3.65677E-04-4.22812E-15
 -1      3396 2.46285E-03 3.75632E-04-5.31525E-15
 -1      3397 1.32302E-02 7.01228E-04-8.96795E-14
 -1      3398 1.33781E-02 6.18281E-04-9.02092E-14
 -1      3399 1.36771E-02 1.60467E-04-9.02927E-14
 -1      3400 1.39765E-02 2.58969E-04-9.13817E-14
 -1      3401 1.39346E-02 2.38606E-04-9.17445E-14
 -1      3402 1.40594E-02 2.72080E-04-9.24308E-14
 -1      3403 1.02051E-03-1.20740E-04-1.15539E-15
 -1      3404 1.14331E-03-1.45940E-04-1.39061E-15
 -1      3405 1.01813E-03-9.30191E-05-1.16813E-15
 -1      3406 1.35664E-02 5.02372E-04-9.03271E-14
 -1      3407 1.09784E-02-6.99260E-04-7.21895E-14
 -1      3408 1.39456E-02-8.13585E-06-9.85722E-14
 -1      3409 1.40394E-02 3.69920E-05-9.90101E-14
 -1      3410 1.39470E-02 3.35102E-05-9.76584E-14
 -1      3411 1.38158E-02-3.75476E-05-9.71842E-14
 -1      3412 1.86191E-03-2.80058E-04-3.13100E-15
 -1      3413 2.00614E-03-2.87383E-04-3.58218E-15
 -1      3414 1.18447E-02-8.04129E-04-7.99243E-14
 -1      3415 1.28551E-02 8.82454E-04-8.73767E-14
 -1      3416 2.15046E-03-2.93430E-04-4.06280E-15
 -1      3417 2.29482E-03-2.98318E-04-4.57262E-15
 -1      3418 2.07306E-03-2.54663E-04-3.85694E-15
 -1      3419 2.43917E-03-3.02246E-04-5.11078E-15
 -1      3420 2.58350E-03-3.05309E-04-5.67803E-15
 -1      3421 2.36229E-03-2.63609E-04-4.88073E-15
 -1      3422 2.72777E-03-3.07669E-04-6.27318E-15
 -1      3423 2.87197E-03-3.09400E-04-6.89603E-15
 -1      3424 2.65157E-03-2.69243E-04-6.01864E-15
 -1      3425 3.01610E-03-3.10629E-04-7.54618E-15
 -1      3426 3.16015E-03-3.11410E-04-8.22358E-15
 -1      3427 2.94064E-03-2.72445E-04-7.26798E-15
 -1      3428 3.30411E-03-3.11839E-04-8.92790E-15
 -1      3429 3.44797E-03-3.11952E-04-9.65795E-15
 -1      3430 3.22935E-03-2.73906E-04-8.62606E-15
 -1      3431 3.59176E-03-3.11820E-04-1.04143E-14
 -1      3432 3.73545E-03-3.11466E-04-1.11967E-14
 -1      3433 3.51766E-03-2.74139E-04-1.00898E-14
 -1      3434 3.87906E-03-3.10938E-04-1.20046E-14
 -1      3435 4.02258E-03-3.10249E-04-1.28373E-14
 -1      3436 3.80554E-03-2.73510E-04-1.16572E-14
 -1      3437 4.16603E-03-3.09431E-04-1.36952E-14
 -1      3438 4.30940E-03-3.08487E-04-1.45783E-14
 -1      3439 4.09299E-03-2.72262E-04-1.33262E-14
 -1      3440 4.45269E-03-3.07437E-04-1.54844E-14
 -1      3441 4.59590E-03-3.06277E-04-1.64141E-14
 -1      3442 4.38003E-03-2.70544E-04-1.50932E-14
 -1      3443 4.73904E-03-3.05016E-04-1.73690E-14
 -1      3444 4.88209E-03-3.03647E-04-1.83467E-14
 -1      3445 4.66665E-03-2.68427E-04-1.69571E-14
 -1      3446 5.02507E-03-3.02171E-04-1.93469E-14
 -1      3447 5.16797E-03-3.00575E-04-2.03695E-14
 -1      3448 4.95287E-03-2.65923E-04-1.89141E-14
 -1      3449 5.31078E-03-2.98857E-04-2.14144E-14
 -1      3450 5.45349E-03-2.97001E-04-2.24813E-14
 -1      3451 5.23863E-03-2.63001E-04-2.09616E-14
 -1      3452 5.59611E-03-2.95003E-04-2.35695E-14
 -1      3453 5.73862E-03-2.92846E-04-2.46800E-14
 -1      3454 5.52391E-03-2.59599E-04-2.30983E-14
 -1      3455 5.88102E-03-2.90525E-04-2.58101E-14
 -1      3456 6.02329E-03-2.88023E-04-2.69607E-14
 -1      3457 5.80862E-03-2.55638E-04-2.53198E-14
 -1      3458 6.16542E-03-2.85340E-04-2.81329E-14
 -1      3459 6.30741E-03-2.82458E-04-2.93247E-14
 -1      3460 6.09265E-03-2.51035E-04-2.76247E-14
 -1      3461 6.44923E-03-2.79386E-04-3.05358E-14
 -1      3462 6.59089E-03-2.76109E-04-3.17668E-14
 -1      3463 6.37589E-03-2.45715E-04-3.00113E-14
 -1      3464 6.73235E-03-2.72648E-04-3.30154E-14
 -1      3465 6.87364E-03-2.68994E-04-3.42827E-14
 -1      3466 6.65819E-03-2.39638E-04-3.24739E-14
 -1      3467 7.01471E-03-2.65186E-04-3.55683E-14
 -1      3468 7.15561E-03-2.61225E-04-3.68701E-14
 -1      3469 6.93941E-03-2.32813E-04-3.50099E-14
 -1      3470 7.29628E-03-2.57172E-04-3.81884E-14
 -1      3471 7.43680E-03-2.53046E-04-3.95219E-14
 -1      3472 7.21944E-03-2.25328E-04-3.76147E-14
 -1      3473 7.57713E-03-2.48934E-04-4.08705E-14
 -1      3474 7.71738E-03-2.44884E-04-4.22340E-14
 -1      3475 7.49822E-03-2.17384E-04-4.02835E-14
 -1      3476 7.85754E-03-2.41008E-04-4.36093E-14
 -1      3477 7.99776E-03-2.37404E-04-4.49968E-14
 -1      3478 7.77589E-03-2.09331E-04-4.30085E-14
 -1      3479 8.13808E-03-2.34209E-04-4.63974E-14
 -1      3480 8.27874E-03-2.31600E-04-4.78109E-14
 -1      3481 8.05280E-03-2.01716E-04-4.57850E-14
 -1      3482 8.41986E-03-2.29730E-04-4.92338E-14
 -1      3483 8.56180E-03-2.28914E-04-5.06667E-14
 -1      3484 8.32980E-03-1.95359E-04-4.86086E-14
 -1      3485 8.70478E-03-2.29310E-04-5.21106E-14
 -1      3486 8.84932E-03-2.31468E-04-5.35647E-14
 -1      3487 8.60843E-03-1.91485E-04-5.14762E-14
 -1      3488 8.99583E-03-2.35535E-04-5.50264E-14
 -1      3489 9.14500E-03-2.42482E-04-5.64972E-14
 -1      3490 8.89132E-03-1.92004E-04-5.43810E-14
 -1      3491 9.29751E-03-2.52432E-04-5.79764E-14
 -1      3492 9.45408E-03-2.67071E-04-5.94612E-14
 -1      3493 9.18270E-03-2.00097E-04-5.73209E-14
 -1      3494 9.61576E-03-2.86452E-04-6.09531E-14
 -1      3495 9.78286E-03-3.13140E-04-6.24517E-14
 -1      3496 9.48898E-03-2.21406E-04-6.02916E-14
 -1      3497 1.08399E-02-7.03232E-04-7.07228E-14
 -1      3498 1.26956E-02-3.84672E-04-8.67643E-14
 -1      3499 1.07293E-02-6.19890E-04-7.00362E-14
 -1      3500 1.29059E-02-2.71943E-04-8.81682E-14
 -1      3501 1.95319E-03 3.19075E-04-3.51890E-15
 -1      3502 1.80920E-03 3.10495E-04-3.06531E-15
 -1      3503 3.10470E-03 3.48083E-04-8.21698E-15
 -1      3504 2.96095E-03 3.47005E-04-7.52863E-15
 -1      3505 1.07916E-03-2.16837E-04-1.18478E-15
 -1      3506 4.25229E-03 3.46197E-04-1.46852E-14
 -1      3507 4.10905E-03 3.47088E-04-1.37870E-14
 -1      3508 3.96575E-03 3.47841E-04-1.29132E-14
 -1      3509 3.82240E-03 3.48447E-04-1.20653E-14
 -1      3510 4.03588E-03 3.09928E-04-1.33607E-14
 -1      3511 4.82473E-03 3.41467E-04-1.85255E-14
 -1      3512 4.68170E-03 3.42820E-04-1.75289E-14
 -1      3513 5.11064E-03 3.38407E-04-2.05886E-14
 -1      3514 4.96771E-03 3.39999E-04-1.95452E-14
 -1      3515 4.89544E-03 3.03695E-04-1.90343E-14
 -1      3516 5.39631E-03 3.34819E-04-2.27443E-14
 -1      3517 5.25350E-03 3.36684E-04-2.16549E-14
 -1      3518 5.18130E-03 3.00745E-04-2.11163E-14
 -1      3519 5.68171E-03 3.30621E-04-2.49902E-14
 -1      3520 5.53905E-03 3.32803E-04-2.38562E-14
 -1      3521 5.46678E-03 2.97291E-04-2.32898E-14
 -1      3522 5.96678E-03 3.25719E-04-2.73190E-14
 -1      3523 5.82429E-03 3.28265E-04-2.61446E-14
 -1      3524 5.75181E-03 2.93255E-04-2.55523E-14
 -1      3525 6.25141E-03 3.20030E-04-2.97260E-14
 -1      3526 6.10915E-03 3.22979E-04-2.85135E-14
 -1      3527 6.03628E-03 2.88553E-04-2.78971E-14
 -1      3528 6.53547E-03 3.13509E-04-3.22055E-14
 -1      3529 6.39351E-03 3.16877E-04-3.09572E-14
 -1      3530 6.32003E-03 2.83122E-04-3.03186E-14
 -1      3531 6.81878E-03 3.06175E-04-3.47502E-14
 -1      3532 6.67722E-03 3.09944E-04-3.34694E-14
 -1      3533 6.60288E-03 2.76936E-04-3.28094E-14
 -1      3534 7.10113E-03 2.98160E-04-3.73602E-14
 -1      3535 6.96008E-03 3.02247E-04-3.60468E-14
 -1      3536 6.88455E-03 2.70042E-04-3.53667E-14
 -1      3537 7.38225E-03 2.89750E-04-4.00304E-14
 -1      3538 7.24184E-03 2.93990E-04-3.86876E-14
 -1      3539 7.16472E-03 2.62599E-04-3.79884E-14
 -1      3540 7.66185E-03 2.81450E-04-4.27578E-14
 -1      3541 7.52223E-03 2.85560E-04-4.13872E-14
 -1      3542 7.44302E-03 2.54915E-04-4.06709E-14
 -1      3543 7.93967E-03 2.74050E-04-4.55369E-14
 -1      3544 7.80096E-03 2.77595E-04-4.41417E-14
 -1      3545 7.71901E-03 2.47499E-04-4.34096E-14
 -1      3546 8.21559E-03 2.68688E-04-4.83624E-14
 -1      3547 8.07783E-03 2.71049E-04-4.69438E-14
 -1      3548 7.99227E-03 2.41102E-04-4.61978E-14
 -1      3549 8.48981E-03 2.66923E-04-5.12320E-14
 -1      3550 8.35283E-03 2.67258E-04-4.97929E-14
 -1      3551 8.26248E-03 2.36752E-04-4.90323E-14
 -1      3552 8.76325E-03 2.70824E-04-5.41392E-14
 -1      3553 8.62646E-03 2.68012E-04-5.26813E-14
 -1      3554 8.52964E-03 2.35770E-04-5.19098E-14
 -1      3555 9.03817E-03 2.83166E-04-5.70751E-14
 -1      3556 8.90019E-03 2.75669E-04-5.56033E-14
 -1      3557 8.79437E-03 2.39795E-04-5.48236E-14
 -1      3558 9.31923E-03 3.08036E-04-6.00337E-14
 -1      3559 9.17739E-03 2.93548E-04-5.85519E-14
 -1      3560 9.05866E-03 2.50927E-04-5.77651E-14
 -1      3561 9.67913E-03 3.60621E-04-6.37465E-14
 -1      3562 9.52706E-03 3.31055E-04-6.22496E-14
 -1      3563 9.82437E-03 4.04403E-04-6.48931E-14
 -1      3564 1.35839E-02 5.60673E-04-9.16981E-14
 -1      3565 1.44265E-02 5.04091E-04-1.00375E-13
 -1      3566 1.43853E-02 5.36932E-04-1.00505E-13
 -1      3567 1.42930E-02 5.41515E-04-9.95329E-14
 -1      3568 1.43369E-02 4.83259E-04-9.89700E-14
 -1      3569 1.01463E-02-3.48997E-04-6.59458E-14
 -1      3570 9.94572E-03-2.47448E-04-6.48530E-14
 -1      3571 1.42595E-02 2.50278E-04-9.69243E-14
 -1      3572 1.43182E-02 2.80623E-04-9.69901E-14
 -1      3573 1.19877E-03-2.16002E-04-1.44252E-15
 -1      3574 9.43859E-03-4.32075E-06-6.29392E-14
 -1      3575 9.32651E-03 4.27344E-05-6.27269E-14
 -1      3576 4.53861E-03 3.44058E-04-1.65571E-14
 -1      3577 4.39548E-03 3.45187E-04-1.56086E-14
 -1      3578 4.32272E-03 3.08287E-04-1.51549E-14
 -1      3579 4.60924E-03 3.06200E-04-1.70463E-14
 -1      3580 1.32955E-02-1.59306E-04-9.18531E-14
 -1      3581 1.34673E-02-1.09170E-04-9.34437E-14
 -1      3582 9.73161E-03-1.43500E-04-6.38410E-14
 -1      3583 9.58622E-03-7.44970E-05-6.33026E-14
 -1      3584 1.37445E-02 5.39668E-04-9.32645E-14
 -1      3585 1.57405E-03-2.60766E-04-2.31725E-15
 -1      3586 1.71786E-03-2.71237E-04-2.70910E-15
 -1      3587 1.78431E-03-2.41336E-04-2.94952E-15
 -1      3588 1.38820E-02 4.33238E-04-9.27163E-14
 -1      3589 1.39488E-02 3.96932E-04-9.26053E-14
 -1      3590 1.40525E-02 3.83652E-04-9.35115E-14
 -1      3591 1.01533E-03-3.89462E-05-1.18690E-15
 -1      3592 1.01642E-03-6.57960E-05-1.17864E-15
 -1      3593 1.13793E-03-8.60083E-05-1.42032E-15
 -1      3594 9.15196E-03 1.21754E-04-6.20553E-14
 -1      3595 9.18542E-03 1.40880E-04-6.21162E-14
 -1      3596 1.04893E-02-5.04389E-04-6.82940E-14
 -1      3597 1.38195E-02 1.94415E-04-9.16118E-14
 -1      3598 1.36748E-02 1.36758E-04-9.12130E-14
 -1      3599 1.30935E-02-2.01714E-04-8.97492E-14
 -1      3600 9.26542E-03 1.71498E-04-6.24479E-14
 -1      3601 9.34864E-03 2.00363E-04-6.27953E-14
 -1      3602 1.38946E-02 5.54694E-04-9.52360E-14
 -1      3603 1.38830E-02 4.81047E-04-9.37761E-14
 -1      3604 1.40038E-02 4.57892E-04-9.46847E-14
 -1      3605 1.40452E-02 5.46394E-04-9.68101E-14
 -1      3606 1.02994E-02-4.39034E-04-6.67761E-14
 -1      3607 1.32688E-02-1.03346E-04-9.06079E-14
 -1      3608 1.01272E-02-3.98324E-04-6.53066E-14
 -1      3609 9.24115E-03 5.92982E-05-6.20990E-14
 -1      3610 9.16851E-03 7.01325E-05-6.14717E-14
 -1      3611 9.21772E-03 2.99063E-05-6.11130E-14
 -1      3612 1.41481E-02 3.29663E-04-9.32040E-14
 -1      3613 1.41753E-02 3.22507E-04-9.35063E-14
 -1      3614 1.41472E-02 3.47416E-04-9.37018E-14
 -1      3615 1.68359E-03 3.05506E-04-2.68888E-15
 -1      3616 1.55813E-03 2.98902E-04-2.33666E-15
 -1      3617 1.74896E-03 2.76170E-04-2.92054E-15
 -1      3618 1.14378E-03 1.48751E-04-1.43925E-15
 -1      3619 1.32180E-03-2.32857E-04-1.70670E-15
 -1      3620 1.45000E-03-2.46462E-04-2.00771E-15
 -1      3621 1.51624E-03-2.20124E-04-2.21494E-15
 -1      3622 1.26959E-03-1.92212E-04-1.63038E-15
 -1      3623 9.94812E-03-3.54372E-04-6.37989E-14
 -1      3624 1.37329E-02 1.20196E-04-9.25872E-14
 -1      3625 1.35736E-02 7.90315E-05-9.12648E-14
 -1      3626 1.34795E-02 1.59776E-05-9.13168E-14
 -1      3627 3.24837E-03 3.48756E-04-8.93273E-15
 -1      3628 3.17334E-03 3.10806E-04-8.59261E-15
 -1      3629 3.39198E-03 3.49067E-04-9.67592E-15
 -1      3630 2.09722E-03 3.26190E-04-4.00277E-15
 -1      3631 2.01915E-03 2.86960E-04-3.78000E-15
 -1      3632 2.24128E-03 3.31976E-04-4.51689E-15
 -1      3633 2.88513E-03 3.08754E-04-7.21740E-15
 -1      3634 2.81714E-03 3.45413E-04-6.86815E-15
 -1      3635 2.67326E-03 3.43245E-04-6.23657E-15
 -1      3636 1.35764E-02-8.82045E-05-9.46193E-14
 -1      3637 1.37119E-02-5.62796E-05-9.60031E-14
 -1      3638 1.37788E-02-1.81873E-05-9.62420E-14
 -1      3639 1.35686E-02-5.27987E-05-9.38864E-14
 -1      3640 3.74872E-03 3.11033E-04-1.16672E-14
 -1      3641 3.67899E-03 3.48871E-04-1.12427E-14
 -1      3642 3.53552E-03 3.49095E-04-1.04457E-14
 -1      3643 9.38474E-03 2.73822E-04-6.14555E-14
 -1      3644 9.39873E-03 2.33238E-04-6.26202E-14
 -1      3645 1.13545E-03-2.77088E-05-1.43977E-15
 -1      3646 1.43278E-02 3.99150E-04-9.72390E-14
 -1      3647 1.42772E-02 4.32335E-04-9.73118E-14
 -1      3648 1.41994E-02 5.46784E-04-9.85641E-14
 -1      3649 1.27930E-03 2.42960E-04-1.67704E-15
 -1      3650 1.27318E-03 2.08755E-04-1.69419E-15
 -1      3651 1.39341E-02 2.17746E-04-9.26638E-14
 -1      3652 1.43620E-02 3.05636E-04-9.70552E-14
 -1      3653 1.43856E-02 3.28305E-04-9.71210E-14
 -1      3654 1.42592E-02 2.87204E-04-9.57656E-14
 -1      3655 1.41864E-02 2.13666E-04-9.68589E-14
 -1      3656 1.41257E-02 2.23179E-04-9.56311E-14
 -1      3657 1.41055E-02 1.70817E-04-9.67947E-14
 -1      3658 9.81110E-03-2.73498E-04-6.31306E-14
 -1      3659 9.43643E-03-4.75652E-05-6.21015E-14
 -1      3660 1.26119E-03 1.10586E-04-1.72240E-15
 -1      3661 1.25899E-03 7.90917E-05-1.72498E-15
 -1      3662 9.77672E-03-2.10667E-04-6.34678E-14
 -1      3663 1.38071E-03 6.71154E-05-2.02240E-15
 -1      3664 1.25753E-03 4.77998E-05-1.72476E-15
 -1      3665 1.25679E-03 1.67221E-05-1.72184E-15
 -1      3666 1.24397E-02-5.02965E-04-8.46580E-14
 -1      3667 1.41677E-02 5.06808E-04-9.74970E-14
 -1      3668 9.12884E-03 1.08709E-04-6.16807E-14
 -1      3669 9.06660E-03 1.11951E-04-6.05304E-14
 -1      3670 9.11750E-03 9.55800E-05-6.13051E-14
 -1      3671 9.15809E-03 1.51762E-04-6.12357E-14
 -1      3672 1.41161E-02 2.87040E-04-9.29019E-14
 -1      3673 1.40993E-02 2.73292E-04-9.32661E-14
 -1      3674 1.41603E-02 2.99054E-04-9.33725E-14
 -1      3675 1.26171E-03-1.27022E-04-1.67109E-15
 -1      3676 1.26514E-03-1.59286E-04-1.65228E-15
 -1      3677 1.38782E-03-1.71995E-04-1.93618E-15
 -1      3678 1.38466E-02 1.89530E-05-9.64782E-14
 -1      3679 1.37540E-02 1.51772E-05-9.52146E-14
 -1      3680 1.39235E-02 6.47572E-05-9.66285E-14
 -1      3681 1.40099E-02 1.17396E-04-9.66964E-14
 -1      3682 1.36511E-02 7.75952E-07-9.40396E-14
 -1      3683 1.99622E-03-2.16410E-04-3.65170E-15
 -1      3684 2.14093E-03-2.21253E-04-4.13690E-15
 -1      3685 2.28575E-03-2.25215E-04-4.65112E-15
 -1      3686 2.43064E-03-2.28377E-04-5.19378E-15
 -1      3687 2.20964E-03-1.87182E-04-4.42245E-15
 -1      3688 2.57555E-03-2.30879E-04-5.76449E-15
 -1      3689 2.72042E-03-2.32785E-04-6.36366E-15
 -1      3690 2.49978E-03-1.92668E-04-5.51157E-15
 -1      3691 2.86523E-03-2.34211E-04-6.99015E-15
 -1      3692 3.00995E-03-2.35204E-04-7.64400E-15
 -1      3693 2.78996E-03-1.95991E-04-6.71284E-15
 -1      3694 3.15458E-03-2.35856E-04-8.32507E-15
 -1      3695 3.29910E-03-2.36200E-04-9.03245E-15
 -1      3696 3.07987E-03-1.97733E-04-8.02404E-15
 -1      3697 3.44350E-03-2.36306E-04-9.76557E-15
 -1      3698 3.58778E-03-2.36193E-04-1.05247E-14
 -1      3699 3.36934E-03-1.98348E-04-9.44188E-15
 -1      3700 3.73193E-03-2.35915E-04-1.13098E-14
 -1      3701 3.87596E-03-2.35480E-04-1.21207E-14
 -1      3702 3.65829E-03-1.98168E-04-1.09633E-14
 -1      3703 4.01986E-03-2.34925E-04-1.29570E-14
 -1      3704 4.16363E-03-2.34254E-04-1.38181E-14
 -1      3705 3.94668E-03-1.97425E-04-1.25877E-14
 -1      3706 4.30729E-03-2.33489E-04-1.47030E-14
 -1      3707 4.45081E-03-2.32628E-04-1.56113E-14
 -1      3708 4.23450E-03-1.96268E-04-1.43122E-14
 -1      3709 4.59422E-03-2.31685E-04-1.65447E-14
 -1      3710 4.73749E-03-2.30651E-04-1.75022E-14
 -1      3711 4.52175E-03-1.94779E-04-1.61339E-14
 -1      3712 4.88064E-03-2.29535E-04-1.84822E-14
 -1      3713 5.02365E-03-2.28323E-04-1.94846E-14
 -1      3714 4.80841E-03-1.92987E-04-1.80500E-14
 -1      3715 5.16652E-03-2.27019E-04-2.05098E-14
 -1      3716 5.30924E-03-2.25607E-04-2.15569E-14
 -1      3717 5.09444E-03-1.90885E-04-2.00578E-14
 -1      3718 5.45180E-03-2.24087E-04-2.26268E-14
 -1      3719 5.59420E-03-2.22441E-04-2.37181E-14
 -1      3720 5.37980E-03-1.88430E-04-2.21555E-14
 -1      3721 5.73640E-03-2.20667E-04-2.48302E-14
 -1      3722 5.87841E-03-2.18747E-04-2.59629E-14
 -1      3723 5.66437E-03-1.85562E-04-2.43399E-14
 -1      3724 6.02019E-03-2.16680E-04-2.71170E-14
 -1      3725 6.16174E-03-2.14444E-04-2.82920E-14
 -1      3726 5.94803E-03-1.82207E-04-2.66094E-14
 -1      3727 6.30302E-03-2.12046E-04-2.94859E-14
 -1      3728 6.44402E-03-2.09461E-04-3.06997E-14
 -1      3729 6.23059E-03-1.78288E-04-2.89608E-14
 -1      3730 6.58470E-03-2.06705E-04-3.19325E-14
 -1      3731 6.72505E-03-2.03752E-04-3.31832E-14
 -1      3732 6.51183E-03-1.73733E-04-3.13904E-14
 -1      3733 6.86502E-03-2.00628E-04-3.44523E-14
 -1      3734 7.00463E-03-1.97311E-04-3.57391E-14
 -1      3735 6.79152E-03-1.68487E-04-3.38947E-14
 -1      3736 7.14381E-03-1.93840E-04-3.70415E-14
 -1      3737 7.28258E-03-1.90197E-04-3.83603E-14
 -1      3738 7.06937E-03-1.62525E-04-3.64685E-14
 -1      3739 7.42089E-03-1.86437E-04-3.96958E-14
 -1      3740 7.55880E-03-1.82551E-04-4.10447E-14
 -1      3741 7.34514E-03-1.55864E-04-3.91073E-14
 -1      3742 7.69624E-03-1.78613E-04-4.24079E-14
 -1      3743 7.83332E-03-1.74630E-04-4.37849E-14
 -1      3744 7.61864E-03-1.48575E-04-4.18076E-14
 -1      3745 7.97000E-03-1.70690E-04-4.51731E-14
 -1      3746 8.10645E-03-1.66837E-04-4.65736E-14
 -1      3747 7.88980E-03-1.40799E-04-4.45610E-14
 -1      3748 8.24267E-03-1.63164E-04-4.79855E-14
 -1      3749 8.37896E-03-1.59788E-04-4.94085E-14
 -1      3750 8.15880E-03-1.32770E-04-4.73622E-14
 -1      3751 8.51536E-03-1.56797E-04-5.08422E-14
 -1      3752 8.65237E-03-1.54455E-04-5.22848E-14
 -1      3753 8.42628E-03-1.24866E-04-5.02087E-14
 -1      3754 8.79011E-03-1.52837E-04-5.37383E-14
 -1      3755 8.92939E-03-1.52495E-04-5.51989E-14
 -1      3756 8.69356E-03-1.17749E-04-5.30949E-14
 -1      3757 9.07044E-03-1.53450E-04-5.66668E-14
 -1      3758 9.21460E-03-1.56954E-04-5.81443E-14
 -1      3759 8.96325E-03-1.12707E-04-5.60156E-14
 -1      3760 5.53709E-03 2.59989E-04-2.38352E-14
 -1      3761 5.39456E-03 2.61680E-04-2.27279E-14
 -1      3762 1.30347E-02 7.65159E-04-8.81100E-14
 -1      3763 4.10626E-03 2.71964E-04-1.38077E-14
 -1      3764 3.96258E-03 2.72596E-04-1.29374E-14
 -1      3765 1.22076E-02-6.68611E-04-8.32746E-14
 -1      3766 5.25189E-03 2.63241E-04-2.16436E-14
 -1      3767 5.10908E-03 2.64688E-04-2.05822E-14
 -1      3768 5.32241E-03 2.25932E-04-2.21702E-14
 -1      3769 4.96615E-03 2.66022E-04-1.95434E-14
 -1      3770 4.82310E-03 2.67256E-04-1.85273E-14
 -1      3771 5.03686E-03 2.28487E-04-2.00513E-14
 -1      3772 5.82166E-03 2.56195E-04-2.61144E-14
 -1      3773 5.67946E-03 2.58166E-04-2.49646E-14
 -1      3774 5.60727E-03 2.22951E-04-2.43802E-14
 -1      3775 6.10545E-03 2.51793E-04-2.84740E-14
 -1      3776 5.96366E-03 2.54077E-04-2.72845E-14
 -1      3777 5.89131E-03 2.19484E-04-2.66755E-14
 -1      3778 6.38823E-03 2.46735E-04-3.09082E-14
 -1      3779 6.24697E-03 2.49352E-04-2.96818E-14
 -1      3780 6.17433E-03 2.15479E-04-2.90491E-14
 -1      3781 6.66976E-03 2.41022E-04-3.34117E-14
 -1      3782 6.52917E-03 2.43964E-04-3.21514E-14
 -1      3783 6.45607E-03 2.10912E-04-3.14961E-14
 -1      3784 6.94967E-03 2.34727E-04-3.59829E-14
 -1      3785 6.80993E-03 2.37948E-04-3.46900E-14
 -1      3786 6.73619E-03 2.05810E-04-3.40147E-14
 -1      3787 7.22755E-03 2.28033E-04-3.86181E-14
 -1      3788 7.08888E-03 2.31426E-04-3.72928E-14
 -1      3789 7.01427E-03 2.00270E-04-3.65989E-14
 -1      3790 7.50290E-03 2.21267E-04-4.13107E-14
 -1      3791 7.36556E-03 2.24650E-04-3.99568E-14
 -1      3792 7.28978E-03 1.94500E-04-3.92456E-14
 -1      3793 7.77515E-03 2.14930E-04-4.40608E-14
 -1      3794 7.63943E-03 2.18029E-04-4.26793E-14
 -1      3795 7.56212E-03 1.88836E-04-4.19511E-14
 -1      3796 8.04368E-03 2.09723E-04-4.68583E-14
 -1      3797 7.90989E-03 2.12163E-04-4.54542E-14
 -1      3798 7.83055E-03 1.83767E-04-4.47105E-14
 -1      3799 8.30796E-03 2.06544E-04-4.97031E-14
 -1      3800 8.17634E-03 2.07853E-04-4.82751E-14
 -1      3801 8.09427E-03 1.79929E-04-4.75192E-14
 -1      3802 8.56759E-03 2.06460E-04-5.25880E-14
 -1      3803 8.43829E-03 2.06083E-04-5.11404E-14
 -1      3804 8.35240E-03 1.78078E-04-5.03722E-14
 -1      3805 8.82271E-03 2.10679E-04-5.55069E-14
 -1      3806 8.69555E-03 2.07979E-04-5.40434E-14
 -1      3807 8.60409E-03 1.79005E-04-5.32647E-14
 -1      3808 9.07452E-03 2.20543E-04-5.84539E-14
 -1      3809 8.94866E-03 2.14766E-04-5.69771E-14
 -1      3810 8.84873E-03 1.83371E-04-5.61881E-14
 -1      3811 1.41170E-02 4.51114E-04-9.58428E-14
 -1      3812 1.41025E-02 4.09138E-04-9.47794E-14
 -1      3813 1.70755E-03-2.03515E-04-2.76911E-15
 -1      3814 1.85173E-03-2.10534E-04-3.19559E-15
 -1      3815 1.92003E-03-1.78819E-04-3.44775E-15
 -1      3816 1.48542E-03-1.82489E-04-2.17557E-15
 -1      3817 1.60923E-03-1.93946E-04-2.49894E-15
 -1      3818 1.67728E-03-1.64881E-04-2.72240E-15
 -1      3819 1.48141E-03-1.47177E-04-2.19882E-15
 -1      3820 1.25730E-03-6.40070E-05-1.69938E-15
 -1      3821 1.25909E-03-9.53103E-05-1.68663E-15
 -1      3822 1.38118E-03-1.04411E-04-1.97512E-15
 -1      3823 1.32406E-02 7.15975E-04-9.00125E-14
 -1      3824 1.32614E-03 2.85662E-04-1.74253E-15
 -1      3825 1.44605E-03 2.81043E-04-2.05462E-15
 -1      3826 1.41473E-02 3.83085E-04-9.46672E-14
 -1      3827 1.41125E-02 2.57623E-04-9.42438E-14
 -1      3828 1.40258E-02 2.21887E-04-9.41166E-14
 -1      3829 1.41949E-02 4.75161E-04-9.72178E-14
 -1      3830 9.61752E-03-1.80328E-04-6.21257E-14
 -1      3831 9.22395E-03 2.21718E-04-6.04059E-14
 -1      3832 9.49325E-03-1.62222E-04-6.10305E-14
 -1      3833 9.45553E-03-1.06229E-04-6.13666E-14
 -1      3834 9.32837E-03-4.09649E-05-6.10084E-14
 -1      3835 9.34184E-03-1.52384E-04-5.95389E-14
 -1      3836 2.52931E-03 3.40356E-04-5.63381E-15
 -1      3837 2.38532E-03 3.36661E-04-5.06068E-15
 -1      3838 2.59661E-03 3.04668E-04-5.95479E-15
 -1      3839 1.43853E-02 3.48715E-04-9.71466E-14
 -1      3840 1.43674E-02 3.72439E-04-9.72151E-14
 -1      3841 1.42585E-02 3.76977E-04-9.59116E-14
 -1      3842 1.43081E-02 3.30971E-04-9.58594E-14
 -1      3843 1.51129E-03 2.54949E-04-2.25845E-15
 -1      3844 1.26818E-03 1.75358E-04-1.70720E-15
 -1      3845 1.26424E-03 1.42630E-04-1.71662E-15
 -1      3846 1.38547E-03 1.33954E-04-2.01678E-15
 -1      3847 1.39387E-03 2.02707E-04-1.99673E-15
 -1      3848 1.39297E-02 1.75777E-04-9.40454E-14
 -1      3849 9.10993E-03 1.85623E-04-5.96091E-14
 -1      3850 1.41776E-02 2.74798E-04-9.47153E-14
 -1      3851 1.25628E-03-8.09214E-06-1.71639E-15
 -1      3852 1.25679E-03-3.90640E-05-1.70842E-15
 -1      3853 1.37852E-03-4.48407E-05-2.00033E-15
 -1      3854 1.37871E-03 7.78049E-06-2.01553E-15
 -1      3855 9.22019E-03-1.03330E-04-5.88767E-14
 -1      3856 2.30788E-03 2.97745E-04-4.80852E-15
 -1      3857 1.38508E-02 1.29283E-04-9.41041E-14
 -1      3858 4.24984E-03 2.71224E-04-1.47028E-14
 -1      3859 4.17687E-03 2.33996E-04-1.42542E-14
 -1      3860 4.39331E-03 2.70375E-04-1.56223E-14
 -1      3861 3.46121E-03 3.11422E-04-1.00770E-14
 -1      3862 2.95381E-03 2.71779E-04-7.56816E-15
 -1      3863 2.80930E-03 2.70429E-04-6.90837E-15
 -1      3864 1.42268E-02 2.99614E-04-9.47842E-14
 -1      3865 4.67995E-03 2.68390E-04-1.75354E-14
 -1      3866 4.53668E-03 2.69431E-04-1.65667E-14
 -1      3867 4.46405E-03 2.32503E-04-1.60904E-14
 -1      3868 9.07742E-03 7.43685E-05-6.03239E-14
 -1      3869 1.79229E-03 2.42949E-04-3.08759E-15
 -1      3870 1.66633E-03 2.39317E-04-2.71156E-15
 -1      3871 1.51084E-03 1.58244E-04-2.33315E-15
 -1      3872 1.50747E-03 1.22886E-04-2.33974E-15
 -1      3873 8.99259E-03 1.05445E-04-5.93259E-14
 -1      3874 9.02281E-03 1.19515E-04-5.96969E-14
 -1      3875 1.42011E-02 3.53917E-04-9.46420E-14
 -1      3876 9.23015E-03-5.88395E-05-5.96331E-14
 -1      3877 9.22027E-03-8.76693E-06-6.03635E-14
 -1      3878 9.13418E-03 1.00206E-05-5.97414E-14
 -1      3879 9.11645E-03-6.93292E-05-5.82407E-14
 -1      3880 1.39381E-02 1.24974E-04-9.54650E-14
 -1      3881 9.03560E-03 1.52493E-04-5.92836E-14
 -1      3882 2.08107E-03 2.56245E-04-4.02491E-15
 -1      3883 1.93658E-03 2.50218E-04-3.54151E-15
 -1      3884 1.85458E-03 2.14056E-04-3.30732E-15
 -1      3885 1.50496E-03 8.78469E-05-2.34274E-15
 -1      3886 1.50331E-03 5.30893E-05-2.34201E-15
 -1      3887 1.63016E-03 1.09698E-04-2.68466E-15
 -1      3888 3.24256E-03 2.73296E-04-8.96905E-15
 -1      3889 3.09824E-03 2.72721E-04-8.25499E-15
 -1      3890 3.02312E-03 2.34547E-04-7.92004E-15
 -1      3891 1.55449E-03 2.24481E-04-2.40652E-15
 -1      3892 1.42223E-02 3.09799E-04-9.44185E-14
 -1      3893 1.54932E-03 1.87848E-04-2.42044E-15
 -1      3894 3.88918E-03 2.35097E-04-1.25168E-14
 -1      3895 3.81879E-03 2.73092E-04-1.20919E-14
 -1      3896 3.67489E-03 2.73445E-04-1.12717E-14
 -1      3897 1.35485E-02-2.83825E-06-9.26776E-14
 -1      3898 1.37390E-02 6.41425E-05-9.40019E-14
 -1      3899 4.75073E-03 2.30666E-04-1.80240E-14
 -1      3900 2.13409E-03-1.49666E-04-4.19533E-15
 -1      3901 2.27919E-03-1.52464E-04-4.71303E-15
 -1      3902 2.42441E-03-1.54724E-04-5.25953E-15
 -1      3903 2.56968E-03-1.56494E-04-5.83416E-15
 -1      3904 2.34950E-03-1.17145E-04-5.00868E-15
 -1      3905 2.71495E-03-1.57866E-04-6.43642E-15
 -1      3906 2.86017E-03-1.58873E-04-7.06621E-15
 -1      3907 2.64027E-03-1.19909E-04-6.16098E-15
 -1      3908 3.00532E-03-1.59593E-04-7.72371E-15
 -1      3909 3.15036E-03-1.60048E-04-8.40785E-15
 -1      3910 2.93099E-03-1.21488E-04-7.42402E-15
 -1      3911 3.29528E-03-1.60302E-04-9.11841E-15
 -1      3912 3.44006E-03-1.60367E-04-9.85487E-15
 -1      3913 3.22136E-03-1.22204E-04-8.79568E-15
 -1      3914 3.58470E-03-1.60292E-04-1.06172E-14
 -1      3915 3.72918E-03-1.60082E-04-1.14054E-14
 -1      3916 3.51119E-03-1.22309E-04-1.02719E-14
 -1      3917 3.87352E-03-1.59773E-04-1.22189E-14
 -1      3918 4.01769E-03-1.59365E-04-1.30583E-14
 -1      3919 3.80040E-03-1.21981E-04-1.18510E-14
 -1      3920 4.16171E-03-1.58884E-04-1.39221E-14
 -1      3921 4.30558E-03-1.58325E-04-1.48101E-14
 -1      3922 4.08896E-03-1.21341E-04-1.35317E-14
 -1      3923 4.44928E-03-1.57706E-04-1.57225E-14
 -1      3924 4.59282E-03-1.57018E-04-1.66588E-14
 -1      3925 4.37683E-03-1.20463E-04-1.53115E-14
 -1      3926 4.73619E-03-1.56273E-04-1.76176E-14
 -1      3927 4.87939E-03-1.55459E-04-1.86001E-14
 -1      3928 4.66401E-03-1.19382E-04-1.71862E-14
 -1      3929 5.02242E-03-1.54584E-04-1.96060E-14
 -1      3930 5.16526E-03-1.53633E-04-2.06334E-14
 -1      3931 4.95045E-03-1.18100E-04-1.91534E-14
 -1      3932 5.30790E-03-1.52609E-04-2.16840E-14
 -1      3933 5.45032E-03-1.51497E-04-2.27560E-14
 -1      3934 5.23609E-03-1.16598E-04-2.12123E-14
 -1      3935 5.59252E-03-1.50298E-04-2.38498E-14
 -1      3936 5.73447E-03-1.48994E-04-2.49646E-14
 -1      3937 5.52084E-03-1.14838E-04-2.33599E-14
 -1      3938 5.87615E-03-1.47587E-04-2.61009E-14
 -1      3939 6.01753E-03-1.46055E-04-2.72581E-14
 -1      3940 5.80453E-03-1.12766E-04-2.55929E-14
 -1      3941 6.15858E-03-1.44403E-04-2.84352E-14
 -1      3942 6.29928E-03-1.42604E-04-2.96318E-14
 -1      3943 6.08696E-03-1.10318E-04-2.79091E-14
 -1      3944 6.43958E-03-1.40671E-04-3.08481E-14
 -1      3945 6.57946E-03-1.38570E-04-3.20830E-14
 -1      3946 6.36788E-03-1.07422E-04-3.03057E-14
 -1      3947 6.71886E-03-1.36321E-04-3.33363E-14
 -1      3948 6.85776E-03-1.33886E-04-3.46072E-14
 -1      3949 6.64697E-03-1.04001E-04-3.27775E-14
 -1      3950 6.99609E-03-1.31294E-04-3.58946E-14
 -1      3951 7.13383E-03-1.28501E-04-3.71984E-14
 -1      3952 6.92387E-03-9.99763E-05-3.53202E-14
 -1      3953 7.27093E-03-1.25548E-04-3.85190E-14
 -1      3954 7.40736E-03-1.22384E-04-3.98549E-14
 -1      3955 7.19815E-03-9.52657E-05-3.79301E-14
 -1      3956 7.54306E-03-1.19062E-04-4.12055E-14
 -1      3957 7.67804E-03-1.15528E-04-4.25696E-14
 -1      3958 7.46940E-03-8.97840E-05-4.06031E-14
 -1      3959 7.81221E-03-1.11843E-04-4.39469E-14
 -1      3960 7.94566E-03-1.07952E-04-4.53368E-14
 -1      3961 7.73718E-03-8.34383E-05-4.33325E-14
 -1      3962 8.07828E-03-1.03925E-04-4.67381E-14
 -1      3963 8.21023E-03-9.97134E-05-4.81512E-14
 -1      3964 8.00112E-03-7.61198E-05-4.61127E-14
 -1      3965 8.34138E-03-9.53901E-05-4.95748E-14
 -1      3966 8.47207E-03-9.09435E-05-5.10079E-14
 -1      3967 8.26092E-03-6.76990E-05-4.89398E-14
 -1      3968 8.60214E-03-8.64399E-05-5.24509E-14
 -1      3969 8.73218E-03-8.19803E-05-5.39035E-14
 -1      3970 8.51652E-03-5.80524E-05-5.18073E-14
 -1      3971 8.85853E-03-7.72588E-05-5.53308E-14
 -1      3972 8.98910E-03-7.33481E-05-5.67970E-14
 -1      3973 9.00736E-03-3.44453E-05-5.75467E-14
 -1      3974 8.76504E-03-4.68672E-05-5.46774E-14
 -1      3975 5.96080E-03 1.83161E-04-2.72330E-14
 -1      3976 5.81921E-03 1.84746E-04-2.60676E-14
 -1      3977 1.33790E-02-5.80234E-05-9.13501E-14
 -1      3978 8.96737E-03 8.52952E-05-5.88855E-14
 -1      3979 8.91005E-03 9.31026E-05-5.80575E-14
 -1      3980 5.39288E-03 1.88853E-04-2.26965E-14
 -1      3981 5.25033E-03 1.90032E-04-2.16162E-14
 -1      3982 1.67147E-03 1.76268E-04-2.77491E-15
 -1      3983 5.10759E-03 1.91119E-04-2.05585E-14
 -1      3984 4.96467E-03 1.92128E-04-1.95234E-14
 -1      3985 5.17833E-03 1.53951E-04-2.10646E-14
 -1      3986 6.24301E-03 1.79656E-04-2.96230E-14
 -1      3987 6.10207E-03 1.81470E-04-2.84189E-14
 -1      3988 6.03017E-03 1.47256E-04-2.77906E-14
 -1      3989 6.52366E-03 1.75700E-04-3.20838E-14
 -1      3990 6.38355E-03 1.77740E-04-3.08448E-14
 -1      3991 6.31155E-03 1.44353E-04-3.01953E-14
 -1      3992 6.80235E-03 1.71344E-04-3.46162E-14
 -1      3993 6.66327E-03 1.73576E-04-3.33419E-14
 -1      3994 6.59110E-03 1.41124E-04-3.26709E-14
 -1      3995 7.07859E-03 1.66712E-04-3.72138E-14
 -1      3996 6.94080E-03 1.69064E-04-3.59067E-14
 -1      3997 6.86837E-03 1.37645E-04-3.52166E-14
 -1      3998 7.35175E-03 1.62030E-04-3.98719E-14
 -1      3999 7.21559E-03 1.64377E-04-3.85351E-14
 -1      4000 7.14280E-03 1.34065E-04-3.78267E-14
 -1      4001 7.62112E-03 1.57642E-04-4.25894E-14
 -1      4002 7.48695E-03 1.59797E-04-4.12231E-14
 -1      4003 7.41369E-03 1.30625E-04-4.04983E-14
 -1      4004 7.88581E-03 1.54022E-04-4.53603E-14
 -1      4005 7.75409E-03 1.55735E-04-4.39692E-14
 -1      4006 7.68020E-03 1.27678E-04-4.32285E-14
 -1      4007 8.14480E-03 1.51745E-04-4.81783E-14
 -1      4008 8.01606E-03 1.52722E-04-4.67635E-14
 -1      4009 7.94132E-03 1.25679E-04-4.60100E-14
 -1      4010 8.39685E-03 1.51444E-04-5.10394E-14
 -1      4011 8.27173E-03 1.51372E-04-4.96036E-14
 -1      4012 8.19578E-03 1.25154E-04-4.88372E-14
 -1      4013 8.64049E-03 1.53701E-04-5.39391E-14
 -1      4014 8.51975E-03 1.52317E-04-5.24854E-14
 -1      4015 8.44195E-03 1.26641E-04-5.17072E-14
 -1      4016 8.87374E-03 1.58829E-04-5.68696E-14
 -1      4017 8.75839E-03 1.56043E-04-5.54008E-14
 -1      4018 8.67763E-03 1.30582E-04-5.46139E-14
 -1      4019 2.37031E-03 2.65199E-04-5.08111E-15
 -1      4020 2.22566E-03 2.61201E-04-4.53823E-15
 -1      4021 2.14377E-03 2.24950E-04-4.27265E-15
 -1      4022 1.84460E-03-1.42089E-04-3.24578E-15
 -1      4023 1.98920E-03-1.46229E-04-3.70599E-15
 -1      4024 2.05916E-03-1.12787E-04-3.96986E-15
 -1      4025 1.42390E-02 3.44624E-04-9.49445E-14
 -1      4026 3.53089E-03 2.73614E-04-1.04779E-14
 -1      4027 3.38678E-03 2.73584E-04-9.71025E-15
 -1      4028 3.31229E-03 2.35610E-04-9.34653E-15
 -1      4029 3.60099E-03 2.35698E-04-1.08797E-14
 -1      4030 1.42246E-02 3.29196E-04-9.44473E-14
 -1      4031 2.73356E-03 2.32096E-04-6.60333E-15
 -1      4032 2.66472E-03 2.68563E-04-6.27796E-15
 -1      4033 2.52007E-03 2.66123E-04-5.67620E-15
 -1      4034 5.67734E-03 1.86216E-04-2.49229E-14
 -1      4035 5.53522E-03 1.87587E-04-2.37988E-14
 -1      4036 5.74734E-03 1.49813E-04-2.54637E-14
 -1      4037 8.95399E-03 1.27735E-04-5.84840E-14
 -1      4038 1.81556E-03 1.82780E-04-3.20597E-15
 -1      4039 1.77709E-03 1.52029E-04-3.10366E-15
 -1      4040 1.96003E-03 1.88259E-04-3.66665E-15
 -1      4041 9.00382E-03 5.99065E-05-5.90517E-14
 -1      4042 1.47613E-03-7.78892E-05-2.23477E-15
 -1      4043 1.47833E-03-1.12353E-04-2.21837E-15
 -1      4044 1.57591E-03-1.20179E-04-2.47519E-15
 -1      4045 4.82158E-03 1.93056E-04-1.85121E-14
 -1      4046 4.67834E-03 1.93914E-04-1.75237E-14
 -1      4047 4.89251E-03 1.55594E-04-1.89997E-14
 -1      4048 5.46332E-03 1.52035E-04-2.32213E-14
 -1      4049 8.71807E-03 1.09946E-04-5.52872E-14
 -1      4050 8.60545E-03 1.06771E-04-5.38270E-14
 -1      4051 1.77404E-03 1.14072E-04-3.10853E-15
 -1      4052 2.43861E-03 2.29968E-04-5.37835E-15
 -1      4053 4.60595E-03 1.56990E-04-1.70274E-14
 -1      4054 4.53494E-03 1.94695E-04-1.65591E-14
 -1      4055 4.39139E-03 1.95409E-04-1.56178E-14
 -1      4056 1.62650E-03 4.44591E-05-2.68260E-15
 -1      4057 1.50215E-03 2.53999E-05-2.33796E-15
 -1      4058 1.50150E-03-2.22311E-06-2.33169E-15
 -1      4059 3.09305E-03 1.97068E-04-8.27413E-15
 -1      4060 2.94813E-03 1.96340E-04-7.58837E-15
 -1      4061 2.87332E-03 1.58160E-04-7.26032E-15
 -1      4062 2.80312E-03 1.95278E-04-6.93082E-15
 -1      4063 2.65804E-03 1.93845E-04-6.30161E-15
 -1      4064 1.66092E-03-1.27479E-04-2.70873E-15
 -1      4065 1.75913E-03-1.35028E-04-2.99083E-15
 -1      4066 1.82885E-03-1.03574E-04-3.22851E-15
 -1      4067 1.65841E-03-9.08881E-05-2.72834E-15
 -1      4068 8.77043E-03 7.84342E-05-5.60546E-14
 -1      4069 8.80193E-03 9.97917E-05-5.64887E-14
 -1      4070 3.95988E-03 1.97067E-04-1.29418E-14
 -1      4071 3.81575E-03 1.97439E-04-1.20992E-14
 -1      4072 8.99409E-03-3.82545E-08-5.79277E-14
 -1      4073 9.00988E-03 3.29483E-05-5.86727E-14
 -1      4074 8.87741E-03 4.82627E-05-5.72439E-14
 -1      4075 8.87964E-03-7.93039E-06-5.64889E-14
 -1      4076 1.48824E-03-2.64084E-05-2.28969E-15
 -1      4077 1.48854E-03-5.39452E-05-2.27986E-15
 -1      4078 1.58591E-03-5.97257E-05-2.54121E-15
 -1      4079 1.61188E-03-9.68616E-06-2.63313E-15
 -1      4080 4.24770E-03 1.96043E-04-1.47010E-14
 -1      4081 4.10386E-03 1.96602E-04-1.38090E-14
 -1      4082 4.31873E-03 1.58147E-04-1.51486E-14
 -1      4083 4.03085E-03 1.59049E-04-1.33666E-14
 -1      4084 2.56604E-03-8.22137E-05-5.88662E-15
 -1      4085 2.71153E-03-8.29430E-05-6.49216E-15
 -1      4086 2.85700E-03-8.34874E-05-7.12530E-15
 -1      4087 3.00239E-03-8.38618E-05-7.78618E-15
 -1      4088 2.78339E-03-4.56435E-05-6.82779E-15
 -1      4089 3.14768E-03-8.41053E-05-8.47293E-15
 -1      4090 3.29284E-03-8.42256E-05-9.18642E-15
 -1      4091 3.07430E-03-4.60426E-05-8.15140E-15
 -1      4092 3.43786E-03-8.42565E-05-9.92663E-15
 -1      4093 3.58272E-03-8.41958E-05-1.06921E-14
 -1      4094 3.36474E-03-4.61635E-05-9.58162E-15
 -1      4095 3.72741E-03-8.40746E-05-1.14831E-14
 -1      4096 3.87194E-03-8.38872E-05-1.22998E-14
 -1      4097 3.65458E-03-4.60735E-05-1.11156E-14
 -1      4098 4.01629E-03-8.36558E-05-1.31424E-14
 -1      4099 4.16046E-03-8.33744E-05-1.40088E-14
 -1      4100 3.94374E-03-4.58363E-05-1.27525E-14
 -1      4101 4.30446E-03-8.30593E-05-1.49001E-14
 -1      4102 4.44826E-03-8.27023E-05-1.58165E-14
 -1      4103 4.23217E-03-4.54972E-05-1.44896E-14
 -1      4104 4.59189E-03-8.23148E-05-1.67546E-14
 -1      4105 4.73532E-03-8.18875E-05-1.77167E-14
 -1      4106 4.51984E-03-4.50707E-05-1.63233E-14
 -1      4107 4.87856E-03-8.14283E-05-1.87015E-14
 -1      4108 5.02159E-03-8.09266E-05-1.97094E-14
 -1      4109 4.80674E-03-4.45615E-05-1.82499E-14
 -1      4110 5.16440E-03-8.03878E-05-2.07409E-14
 -1      4111 5.30698E-03-7.97994E-05-2.17942E-14
 -1      4112 5.09279E-03-4.39630E-05-2.02687E-14
 -1      4113 5.44931E-03-7.91655E-05-2.28691E-14
 -1      4114 5.59137E-03-7.84712E-05-2.39658E-14
 -1      4115 5.37791E-03-4.32574E-05-2.23790E-14
 -1      4116 5.73314E-03-7.77204E-05-2.50839E-14
 -1      4117 5.87459E-03-7.68951E-05-2.62230E-14
 -1      4118 5.66195E-03-4.24165E-05-2.45751E-14
 -1      4119 6.01569E-03-7.60000E-05-2.73835E-14
 -1      4120 6.15640E-03-7.50127E-05-2.85635E-14
 -1      4121 5.94471E-03-4.14008E-05-2.68571E-14
 -1      4122 6.29669E-03-7.39403E-05-2.97627E-14
 -1      4123 6.43651E-03-7.27547E-05-3.09814E-14
 -1      4124 6.22591E-03-4.01583E-05-2.92204E-14
 -1      4125 6.57580E-03-7.14661E-05-3.22192E-14
 -1      4126 6.71453E-03-7.00393E-05-3.34742E-14
 -1      4127 6.50523E-03-3.86213E-05-3.16602E-14
 -1      4128 6.85263E-03-6.84889E-05-3.47468E-14
 -1      4129 6.99005E-03-6.67704E-05-3.60365E-14
 -1      4130 6.78224E-03-3.67017E-05-3.41725E-14
 -1      4131 7.12672E-03-6.49038E-05-3.73419E-14
 -1      4132 7.26259E-03-6.28332E-05-3.86640E-14
 -1      4133 7.05646E-03-3.42848E-05-3.67546E-14
 -1      4134 7.39755E-03-6.05841E-05-4.00020E-14
 -1      4135 7.53159E-03-5.80869E-05-4.13534E-14
 -1      4136 7.32731E-03-3.12201E-05-3.93995E-14
 -1      4137 7.66457E-03-5.53727E-05-4.27172E-14
 -1      4138 7.79649E-03-5.23546E-05-4.40950E-14
 -1      4139 7.59415E-03-2.73109E-05-4.21020E-14
 -1      4140 7.92718E-03-4.90700E-05-4.54864E-14
 -1      4141 8.05668E-03-4.54085E-05-4.68903E-14
 -1      4142 7.85623E-03-2.23001E-05-4.48589E-14
 -1      4143 8.18476E-03-4.14189E-05-4.83035E-14
 -1      4144 8.31153E-03-3.69568E-05-4.97284E-14
 -1      4145 8.11269E-03-1.58547E-05-4.76679E-14
 -1      4146 8.43665E-03-3.21140E-05-5.11629E-14
 -1      4147 8.56040E-03-2.66575E-05-5.26056E-14
 -1      4148 8.36244E-03-7.55033E-06-5.05167E-14
 -1      4149 5.53375E-03 1.15501E-04-2.37448E-14
 -1      4150 5.39155E-03 1.16284E-04-2.26467E-14
 -1      4151 6.09952E-03 1.11791E-04-2.83478E-14
 -1      4152 5.95860E-03 1.12814E-04-2.71661E-14
 -1      4153 6.65857E-03 1.07191E-04-3.32575E-14
 -1      4154 6.51960E-03 1.08416E-04-3.20030E-14
 -1      4155 6.93449E-03 1.04707E-04-3.58159E-14
 -1      4156 6.79688E-03 1.05964E-04-3.45274E-14
 -1      4157 6.72616E-03 7.39063E-05-3.38414E-14
 -1      4158 7.20722E-03 1.02301E-04-3.84395E-14
 -1      4159 7.07129E-03 1.03498E-04-3.71202E-14
 -1      4160 7.00085E-03 7.25254E-05-3.64142E-14
 -1      4161 7.47601E-03 1.00231E-04-4.11253E-14
 -1      4162 7.34215E-03 1.01228E-04-3.97759E-14
 -1      4163 7.27205E-03 7.14063E-05-3.90542E-14
 -1      4164 7.73993E-03 9.88507E-05-4.38682E-14
 -1      4165 7.60863E-03 9.94608E-05-4.24891E-14
 -1      4166 7.53899E-03 7.08164E-05-4.17522E-14
 -1      4167 7.99784E-03 9.86078E-05-4.66590E-14
 -1      4168 7.86971E-03 9.86026E-05-4.52577E-14
 -1      4169 7.80067E-03 7.11151E-05-4.45053E-14
 -1      4170 8.24825E-03 9.99940E-05-4.94948E-14
 -1      4171 8.12408E-03 9.91386E-05-4.80706E-14
 -1      4172 8.05586E-03 7.27504E-05-4.73061E-14
 -1      4173 8.48920E-03 1.03506E-04-5.23735E-14
 -1      4174 8.37003E-03 1.01541E-04-5.09299E-14
 -1      4175 8.30287E-03 7.62106E-05-5.01528E-14
 -1      4176 1.93362E-03 1.13185E-04-3.61300E-15
 -1      4177 1.78709E-03 7.18181E-05-3.15663E-15
 -1      4178 2.24971E-03 1.96553E-04-4.67680E-15
 -1      4179 2.10478E-03 1.92815E-04-4.15706E-15
 -1      4180 2.06625E-03 1.61006E-04-4.04047E-15
 -1      4181 8.53958E-03 8.23593E-05-5.30398E-14
 -1      4182 8.76700E-03 5.99553E-05-5.59165E-14
 -1      4183 8.64481E-03 6.78044E-05-5.43606E-14
 -1      4184 8.53096E-03 6.28929E-05-5.29055E-14
 -1      4185 8.75516E-03 3.54012E-05-5.55433E-14
 -1      4186 3.23785E-03 1.97536E-04-8.98604E-15
 -1      4187 3.16352E-03 1.59400E-04-8.62892E-15
 -1      4188 3.38253E-03 1.97764E-04-9.72494E-15
 -1      4189 6.38008E-03 1.09585E-04-3.07663E-14
 -1      4190 6.24003E-03 1.10722E-04-2.95481E-14
 -1      4191 6.16890E-03 7.67827E-05-2.89027E-14
 -1      4192 6.44867E-03 7.53644E-05-3.13375E-14
 -1      4193 1.98494E-03-7.66914E-05-3.74641E-15
 -1      4194 2.12992E-03-7.85359E-05-4.23859E-15
 -1      4195 2.52896E-03 1.95820E-04-5.76369E-15
 -1      4196 2.37868E-03 1.95686E-04-5.16628E-15
 -1      4197 2.34035E-03 1.63273E-04-5.03539E-15
 -1      4198 2.59881E-03 1.59577E-04-6.06783E-15
 -1      4199 5.81731E-03 1.13767E-04-2.60044E-14
 -1      4200 5.67568E-03 1.14667E-04-2.48639E-14
 -1      4201 5.88730E-03 7.80953E-05-2.65446E-14
 -1      4202 3.74234E-03 1.59637E-04-1.16847E-14
 -1      4203 3.67148E-03 1.97689E-04-1.12817E-14
 -1      4204 3.52708E-03 1.97811E-04-1.04906E-14
 -1      4205 4.10208E-03 1.21061E-04-1.37910E-14
 -1      4206 3.95789E-03 1.21349E-04-1.29259E-14
 -1      4207 2.27516E-03-8.00470E-05-4.75970E-15
 -1      4208 2.42055E-03-8.12571E-05-5.30911E-15
 -1      4209 2.20142E-03-4.35163E-05-4.51241E-15
 -1      4210 5.24909E-03 1.17006E-04-2.15701E-14
 -1      4211 5.10640E-03 1.17681E-04-2.05168E-14
 -1      4212 5.31990E-03 8.03075E-05-2.20747E-14
 -1      4213 4.96350E-03 1.18301E-04-1.94856E-14
 -1      4214 4.82039E-03 1.18879E-04-1.84779E-14
 -1      4215 5.03456E-03 8.12053E-05-1.99718E-14
 -1      4216 8.86896E-03 1.22568E-04-5.72854E-14
 -1      4217 5.60421E-03 7.92725E-05-2.42671E-14
 -1      4218 1.68347E-03-3.98092E-05-2.82787E-15
 -1      4219 1.67072E-03-6.54101E-05-2.77884E-15
 -1      4220 1.75579E-03-7.11422E-05-3.02659E-15
 -1      4221 1.78563E-03 4.16550E-05-3.15258E-15
 -1      4222 2.07845E-03 1.16108E-04-4.09926E-15
 -1      4223 2.94414E-03 1.20764E-04-7.59138E-15
 -1      4224 2.79881E-03 1.20079E-04-6.93522E-15
 -1      4225 4.67709E-03 1.19406E-04-1.74937E-14
 -1      4226 4.53361E-03 1.19893E-04-1.65321E-14
 -1      4227 4.74834E-03 8.19750E-05-1.79593E-14
 -1      4228 3.88502E-03 8.35092E-05-1.24889E-14
 -1      4229 3.81354E-03 1.21562E-04-1.20869E-14
 -1      4230 3.66902E-03 1.21713E-04-1.12726E-14
 -1      4231 2.49229E-03-4.48433E-05-5.61357E-15
 -1      4232 1.84108E-03-7.69085E-05-3.28416E-15
 -1      4233 4.24610E-03 1.20724E-04-1.46813E-14
 -1      4234 4.17353E-03 8.31403E-05-1.42159E-14
 -1      4235 4.38994E-03 1.20329E-04-1.55950E-14
 -1      4236 1.91217E-03-4.39509E-05-3.52688E-15
 -1      4237 3.23451E-03 1.21563E-04-8.98451E-15
 -1      4238 3.08939E-03 1.21256E-04-8.27467E-15
 -1      4239 3.01552E-03 8.31422E-05-7.92367E-15
 -1      4240 8.60424E-03 3.27258E-06-5.34042E-14
 -1      4241 8.68235E-03-2.07543E-05-5.40572E-14
 -1      4242 3.04424E-03 1.85930E-05-8.04379E-15
 -1      4243 3.18959E-03 1.86802E-05-8.74249E-15
 -1      4244 3.58198E-03-8.01119E-06-1.07490E-14
 -1      4245 3.72676E-03-7.96384E-06-1.15431E-14
 -1      4246 3.91403E-03 1.88085E-05-1.26270E-14
 -1      4247 4.05838E-03 1.88038E-05-1.34809E-14
 -1      4248 4.20256E-03 1.87785E-05-1.43599E-14
 -1      4249 4.34654E-03 1.87571E-05-1.52628E-14
 -1      4250 4.49033E-03 1.87197E-05-1.61890E-14
 -1      4251 4.63393E-03 1.86859E-05-1.71384E-14
 -1      4252 4.77732E-03 1.86382E-05-1.81114E-14
 -1      4253 4.92051E-03 1.85949E-05-1.91079E-14
 -1      4254 5.06347E-03 1.85389E-05-2.01270E-14
 -1      4255 5.20619E-03 1.84891E-05-2.11693E-14
 -1      4256 5.34867E-03 1.84276E-05-2.22334E-14
 -1      4257 5.49088E-03 1.83759E-05-2.33194E-14
 -1      4258 5.63279E-03 1.83141E-05-2.44269E-14
 -1      4259 5.77438E-03 1.82688E-05-2.55562E-14
 -1      4260 5.91561E-03 1.82163E-05-2.67066E-14
 -1      4261 6.05646E-03 1.81916E-05-2.78767E-14
 -1      4262 6.19687E-03 1.81654E-05-2.90671E-14
 -1      4263 6.33681E-03 1.81849E-05-3.02759E-14
 -1      4264 6.47621E-03 1.82131E-05-3.15039E-14
 -1      4265 6.61503E-03 1.83141E-05-3.27495E-14
 -1      4266 6.75319E-03 1.84408E-05-3.40121E-14
 -1      4267 6.89063E-03 1.86800E-05-3.52930E-14
 -1      4268 7.02727E-03 1.89709E-05-3.65898E-14
 -1      4269 7.16303E-03 1.94301E-05-3.79024E-14
 -1      4270 7.29780E-03 1.99790E-05-3.92317E-14
 -1      4271 7.43152E-03 2.07730E-05-4.05753E-14
 -1      4272 7.56403E-03 2.17083E-05-4.19317E-14
 -1      4273 7.69527E-03 2.29911E-05-4.33022E-14
 -1      4274 7.82504E-03 2.44808E-05-4.46860E-14
 -1      4275 7.95327E-03 2.64525E-05-4.60842E-14
 -1      4276 8.07969E-03 2.87066E-05-4.74921E-14
 -1      4277 8.20425E-03 3.16221E-05-4.89108E-14
 -1      4278 8.79977E-03-1.39110E-05-5.54844E-14
 -1      4279 3.45322E-03 1.59811E-04-1.01043E-14
 -1      4280 8.32655E-03 3.48881E-05-5.03400E-14
 -1      4281 2.74056E-03 8.59064E-05-6.68221E-15
 -1      4282 2.66937E-03 1.22923E-04-6.37378E-15
 -1      4283 2.53993E-03 1.25498E-04-5.83491E-15
 -1      4284 2.24115E-03 1.19303E-04-4.67832E-15
 -1      4285 2.10932E-03 7.18427E-05-4.21326E-15
 -1      4286 2.16330E-03 1.47822E-05-4.39746E-15
 -1      4287 2.30864E-03 1.50768E-05-4.92836E-15
 -1      4288 2.47795E-03 2.15837E-05-5.58347E-15
 -1      4289 2.62351E-03 2.18496E-05-6.17564E-15
 -1      4290 1.69663E-03-1.40606E-05-2.87560E-15
 -1      4291 3.52434E-03 1.21770E-04-1.04841E-14
 -1      4292 3.37950E-03 1.21731E-04-9.72155E-15
 -1      4293 3.59583E-03 8.36922E-05-1.08642E-14
 -1      4294 2.75326E-03 1.83421E-05-6.72628E-15
 -1      4295 2.89879E-03 1.84936E-05-7.37165E-15
 -1      4296 1.85663E-03 1.10872E-05-3.36883E-15
 -1      4297 2.00068E-03 1.39244E-05-3.83684E-15
 -1      4298 3.29192E-03-8.07542E-06-9.23780E-15
 -1      4299 3.43704E-03-8.04239E-06-9.98092E-15
 -1      4300 2.37047E-03 1.17443E-04-5.16565E-15
 -1      4301 8.44652E-03 3.91178E-05-5.17793E-14
 -1      4302 8.79969E-03 1.55983E-05-5.58622E-14
 -1      4303 3.50965E-03 3.00866E-05-1.03830E-14
 -1      4304 4.46131E-03 8.26215E-05-1.60408E-14
 -1      4305 2.44150E-03 8.14797E-05-5.44580E-15
 -1      4306 3.84205E-03 5.68185E-05-1.22310E-14
 -1      4307 8.67858E-03 2.97413E-05-5.45426E-14
 -1      4308 8.56287E-03 2.35863E-05-5.30883E-14
 -1      4309 3.26263E-03 5.67918E-05-9.11790E-15
 -1      4310 3.30596E-03 8.36077E-05-9.34143E-15
 -1      4311 3.40773E-03 5.68705E-05-9.85785E-15
 -1      4312 3.55268E-03 5.69025E-05-1.06231E-14
 -1      4313 3.69745E-03 5.68816E-05-1.14146E-14
 -3
    1PSTEP                         2           1           1          
  100CL  101 1.000000000        4313                     0    1           1
 -4  STRESS      6    1
 -5  SXX         1    4    1    1
 -5  SYY         1    4    2    2
 -5  SZZ         1    4    3    3
 -5  SXY         1    4    1    2
 -5  SYZ         1    4    2    3
 -5  SZX         1    4    3    1
 -1         1 1.28852E+00 7.85453E-01-1.36610E+00 1.56756E+00 7.03881E-14 1.20126E-13
 -1         2-7.48193E-01-2.67434E+01-3.61785E+00 6.20603E-02 1.85437E-12 1.10079E-13
 -1         3 1.99497E+01-5.34157E-02 6.38491E-02-5.24507E-02-3.10868E-13-2.73306E-13
 -1         4 1.99800E+01-2.01153E-02 4.51812E-02 2.04897E-02 1.82927E-14 1.70921E-13
 -1         5 3.27683E+01 6.14278E+00 2.74252E+00 6.22436E+00-3.25712E-14 2.72278E-12
 -1         6 3.57525E+01 1.22635E+01 5.12555E+00-8.64677E+00-1.60427E-13 3.08598E-12
 -1         7 2.08187E+01 6.09970E+00-1.28674E-01-4.72566E+00-2.28290E-14 7.35332E-13
 -1         8 1.96718E+01 5.93496E+00 5.09649E-02-3.27493E+00-3.79072E-14-3.79870E-14
 -1         9 1.91369E+01 5.77186E+00 4.90922E-02-2.52676E+00-3.59417E-14-4.71862E-13
 -1        10 1.88953E+01 5.69212E+00 5.10634E-02-1.95161E+00-2.49349E-14-7.04640E-13
 -1        11 1.87739E+01 5.65126E+00 5.02705E-02-1.45634E+00-2.20115E-14-8.16498E-13
 -1        12 1.87103E+01 5.62964E+00 4.87571E-02-1.01539E+00-1.40593E-14-8.75912E-13
 -1        13 1.86768E+01 5.61824E+00 4.74391E-02-5.95532E-01-9.66230E-15-9.08965E-13
 -1        14 1.86628E+01 5.61342E+00 4.67238E-02-1.91276E-01-4.99378E-15-9.38207E-13
 -1        15 1.86633E+01 5.61358E+00 4.67656E-02 2.08254E-01-6.95787E-16-9.53783E-13
 -1        16 1.86784E+01 5.61873E+00 4.75837E-02 6.13346E-01 3.91690E-15-9.65535E-13
 -1        17 1.87131E+01 5.63041E+00 4.90940E-02 1.03521E+00 8.01095E-15-9.56398E-13
 -1        18 1.87778E+01 5.65241E+00 5.08368E-02 1.47935E+00 1.07215E-14-9.22448E-13
 -1        19 1.89009E+01 5.69376E+00 5.15391E-02 1.98050E+00 1.84332E-14-8.36607E-13
 -1        20 1.91423E+01 5.77445E+00 4.87831E-02 2.56408E+00 2.96846E-14-6.57358E-13
 -1        21 1.96673E+01 5.94955E+00 4.59147E-02 3.30901E+00 3.75047E-14-2.65512E-13
 -1        22 2.12015E+01 6.38146E+00 1.39688E-01 4.52318E+00 1.07414E-14 6.11164E-13
 -1        23 2.30296E+01-1.37920E+00-9.38338E-01-7.11202E-01-1.02980E-13 2.51599E-12
 -1        24 1.93667E+01-9.94914E-02-3.09840E-01 6.32212E-02-3.25087E-14 1.97183E-12
 -1        25 1.86782E+01-5.63192E-02-6.87742E-02 6.07187E-02-1.65204E-14 1.42805E-12
 -1        26 1.84754E+01-2.20818E-02-6.46501E-03 3.29596E-02-1.21034E-14 1.02689E-12
 -1        27 1.84863E+01-1.17940E-02 1.59578E-03 2.25974E-02-1.39100E-14 7.64519E-13
 -1        28 1.85999E+01-6.22833E-03 1.80829E-03 1.62939E-02-3.21189E-15 5.67126E-13
 -1        29 1.87590E+01-3.07280E-03 1.75049E-03 1.21355E-02 2.63000E-15 4.46679E-13
 -1        30 1.89323E+01-1.21935E-03 1.93424E-03 9.16772E-03 1.95679E-14 3.83184E-13
 -1        31 1.91021E+01-1.29294E-04 2.09458E-03 6.93180E-03-1.95749E-14 1.86139E-13
 -1        32 1.92586E+01 4.86655E-04 2.12193E-03 5.19448E-03-2.72630E-14 5.10599E-14
 -1        33 1.93970E+01 7.95986E-04 2.02136E-03 3.82494E-03 4.07922E-14-9.12985E-15
 -1        34 1.95159E+01 9.01758E-04 1.82790E-03 2.74068E-03-8.32778E-15 3.38151E-14
 -1        35 1.96157E+01 8.69675E-04 1.57339E-03 1.88417E-03 3.04573E-14-3.28947E-14
 -1        36 1.96986E+01 7.41742E-04 1.27913E-03 1.21285E-03 6.86017E-15-9.04756E-15
 -1        37 1.97674E+01 5.43802E-04 9.55962E-04 6.94853E-04-3.67021E-14-1.42217E-13
 -1        38 1.98257E+01 2.90188E-04 6.05911E-04 3.07500E-04-4.79326E-14-3.26205E-13
 -1        39 1.98778E+01-1.29839E-05 2.23838E-04 3.71797E-05 4.31002E-14-3.00874E-13
 -1        40 1.99284E+01-3.65111E-04-2.00889E-04-1.20087E-04 2.41881E-14-1.47350E-13
 -1        41 1.99830E+01-7.68479E-04-6.82564E-04-1.57614E-04-1.29148E-14-3.62794E-13
 -1        42 2.00478E+01-1.22529E-03-1.23681E-03-5.67369E-05-2.93780E-14-4.63855E-13
 -1        43 2.01296E+01-1.73383E-03-1.87711E-03 2.14561E-04-1.70126E-14-3.90164E-13
 -1        44 2.02366E+01-2.28326E-03-2.60935E-03 7.02649E-04 1.73766E-14-4.00801E-13
 -1        45 2.03776E+01-2.84610E-03-3.42277E-03 1.46793E-03-4.47992E-14-3.44756E-13
 -1        46 2.05621E+01-3.36783E-03-4.27533E-03 2.58132E-03 4.62320E-15-6.74044E-13
 -1        47 2.07995E+01-3.75289E-03-5.07022E-03 4.11398E-03-5.88815E-14-4.97247E-13
 -1        48 2.10978E+01-3.84757E-03-5.62047E-03 6.11396E-03 7.79867E-14-2.93494E-13
 -1        49 2.14610E+01-3.42315E-03-5.60012E-03 8.55946E-03 1.66658E-14-1.72825E-13
 -1        50 2.18856E+01-2.16899E-03-4.48952E-03 1.12740E-02-2.56277E-14-2.45152E-13
 -1        51 2.23547E+01 2.83107E-04-1.54562E-03 1.37881E-02-3.04405E-15-2.62361E-13
 -1        52 2.28307E+01 4.26440E-03 4.12406E-03 1.51484E-02 2.28070E-15-1.26285E-13
 -1        53 2.32466E+01 9.85129E-03 1.32339E-02 1.37287E-02 1.50986E-15-8.57023E-14
 -1        54 2.35016E+01 1.64909E-02 2.55569E-02 7.23244E-03-4.29658E-15-1.93421E-13
 -1        55 2.34658E+01 2.25470E-02 3.87034E-02-6.72282E-03-2.28517E-14-5.04540E-14
 -1        56 2.30078E+01 2.51226E-02 4.70509E-02-2.89478E-02 3.28448E-15-1.63531E-13
 -1        57 2.20526E+01 2.07503E-02 4.23313E-02-5.59679E-02 7.18262E-14-2.37275E-13
 -1        58 2.06620E+01 7.48988E-03 1.81155E-02-7.79920E-02-7.29232E-14-3.68528E-13
 -1        59 1.90944E+01-1.23045E-02-2.27992E-02-8.10206E-02 8.96838E-14-3.59785E-13
 -1        60 1.77715E+01-3.11253E-02-6.41889E-02-5.56191E-02-7.65746E-14 1.18237E-13
 -1        61 1.71142E+01-3.96620E-02-8.35844E-02-7.27956E-03 4.21746E-14-1.29916E-13
 -1        62 1.73190E+01-3.31576E-02-6.86893E-02 4.30252E-02 5.70930E-14-4.37574E-13
 -1        63 1.82372E+01-1.51433E-02-2.85277E-02 7.26566E-02-8.14679E-14-5.94469E-13
 -1        64 1.94627E+01 5.25129E-03 1.46651E-02 7.28760E-02 1.52059E-15-9.34166E-13
 -1        65 2.05532E+01 1.95573E-02 4.23829E-02 5.11876E-02 9.68067E-14-5.49590E-13
 -1        66 2.12177E+01 2.42194E-02 4.88987E-02 2.18465E-02 8.34827E-14-8.15719E-14
 -1        67 2.13791E+01 2.03808E-02 3.90438E-02-3.53938E-03 3.43840E-14-1.11094E-13
 -1        68 2.11309E+01 1.12727E-02 2.00601E-02-1.93115E-02 7.55008E-14 3.41304E-13
 -1        69 2.06626E+01 4.27069E-04-2.00776E-03-2.35192E-02-5.90852E-15 9.53898E-14
 -1        70 2.02027E+01-6.39729E-03-1.87105E-02-1.22953E-02 1.38826E-13 3.32838E-13
 -1        71 1.99692E+01 5.49827E-03-6.09303E-03 9.61382E-03-1.57255E-14 6.52516E-13
 -1        72 2.10422E+01-4.04889E-01-9.80405E-01-3.11594E-01 4.77743E-14 2.37260E-12
 -1        73 1.93312E+01-6.58819E-02-2.91132E-01-5.38266E-02 2.39140E-14 1.63790E-12
 -1        74 1.86876E+01-2.05031E-02-6.42689E-02-2.03421E-02 2.65947E-14 1.06304E-12
 -1        75 1.84845E+01-9.87454E-03-9.30265E-03-1.54431E-02 1.00592E-15 6.82973E-13
 -1        76 1.84953E+01-5.16068E-03 6.92542E-04-1.23724E-02 2.62197E-14 4.07854E-13
 -1        77 1.86081E+01-2.60913E-03 1.75942E-03-1.00969E-02 6.50584E-15 1.84837E-13
 -1        78 1.87662E+01-1.13979E-03 1.89702E-03-8.35076E-03-1.42657E-14 1.63802E-13
 -1        79 1.89384E+01-2.78154E-04 2.09067E-03-6.90810E-03 3.37848E-14 3.12684E-15
 -1        80 1.91072E+01 2.16306E-04 2.22969E-03-5.66214E-03-4.02388E-15-2.66319E-13
 -1        81 1.92627E+01 4.77680E-04 2.23523E-03-4.56988E-03 1.98644E-15-3.60889E-13
 -1        82 1.94003E+01 5.86432E-04 2.11559E-03-3.61145E-03 1.34821E-15-4.78854E-13
 -1        83 1.95183E+01 5.92888E-04 1.90554E-03-2.77351E-03-1.15073E-14-5.63028E-13
 -1        84 1.96173E+01 5.28922E-04 1.63662E-03-2.04336E-03 1.33504E-14-5.65943E-13
 -1        85 1.96993E+01 4.14107E-04 1.32976E-03-1.40738E-03-2.89373E-15-6.27176E-13
 -1        86 1.97672E+01 2.59196E-04 9.95207E-04-8.51163E-04 5.92873E-15-7.01013E-13
 -1        87 1.98246E+01 6.82621E-05 6.33838E-04-3.60382E-04-2.94401E-14-7.49101E-13
 -1        88 1.98757E+01-1.59843E-04 2.38322E-04 7.79845E-05 7.30055E-15-6.20858E-13
 -1        89 1.99253E+01-4.30392E-04-2.05977E-04 4.74112E-04 3.95435E-14-7.89631E-13
 -1        90 1.99790E+01-7.51814E-04-7.20411E-04 8.33462E-04 6.13698E-15-1.01733E-12
 -1        91 2.00433E+01-1.13460E-03-1.33268E-03 1.15431E-03 1.24420E-14-1.00091E-12
 -1        92 2.01260E+01-1.58973E-03-2.07646E-03 1.42414E-03 1.31767E-15-8.01980E-13
 -1        93 2.02365E+01-2.12594E-03-2.99030E-03 1.61421E-03-1.00865E-14-6.12115E-13
 -1        94 2.03860E+01-2.74477E-03-4.11470E-03 1.67098E-03 5.27963E-15-8.83485E-13
 -1        95 2.05881E+01-3.43161E-03-5.48439E-03 1.50296E-03-5.75114E-14-7.43739E-13
 -1        96 2.08587E+01-4.13973E-03-7.11020E-03 9.61103E-04 6.84468E-14-5.67195E-13
 -1        97 2.12160E+01-4.76336E-03-8.93965E-03-1.88124E-04-8.29073E-15-3.20290E-13
 -1        98 2.16794E+01-5.09557E-03-1.07764E-02-2.29326E-03-6.43794E-15-4.16477E-13
 -1        99 2.22663E+01-4.77074E-03-1.21282E-02-5.83502E-03-3.86556E-15-5.28978E-13
 -1       100 2.29867E+01-3.20696E-03-1.19535E-02-1.13798E-02-4.30441E-14-5.08792E-13
 -1       101 2.38313E+01 3.90907E-04-8.32746E-03-1.93511E-02 2.93445E-14-7.20942E-13
 -1       102 2.47526E+01 6.82903E-03 1.76618E-03-2.94020E-02-9.30163E-15-8.28180E-13
 -1       103 2.56375E+01 1.63121E-02 2.18799E-02-3.91593E-02-3.46641E-15-5.05550E-13
 -1       104 2.62779E+01 2.71250E-02 5.34845E-02-4.23322E-02-1.78436E-14-1.54680E-13
 -1       105 2.63635E+01 3.37906E-02 8.95883E-02-2.73535E-02 3.29118E-14-3.93496E-14
 -1       106 2.55486E+01 2.80781E-02 1.07991E-01 1.80814E-02-6.88655E-14-3.44724E-13
 -1       107 2.36588E+01 5.00465E-03 7.70297E-02 9.12630E-02-5.58835E-14-7.62473E-13
 -1       108 2.09874E+01-2.77757E-02-1.71306E-02 1.59110E-01 1.17039E-13-1.13753E-12
 -1       109 1.84412E+01-4.92393E-02-1.34543E-01 1.62926E-01 1.30430E-14-9.43655E-13
 -1       110 1.71752E+01-4.51341E-02-1.93928E-01 7.73894E-02-6.01888E-14-8.51892E-13
 -1       111 1.77828E+01-1.91342E-02-1.44972E-01-4.96516E-02-5.41841E-15-1.37494E-13
 -1       112 1.98203E+01 9.44510E-03-2.79741E-02-1.37554E-01-1.75860E-13 1.67033E-13
 -1       113 2.21540E+01 2.71587E-02 7.23057E-02-1.44478E-01 1.71137E-13-6.44068E-14
 -1       114 2.37843E+01 3.07005E-02 1.11097E-01-9.63203E-02-2.02517E-13-1.23755E-14
 -1       115 2.43186E+01 2.37614E-02 9.66145E-02-3.65918E-02 2.92897E-14 1.65314E-13
 -1       116 2.38873E+01 1.21630E-02 5.89453E-02 9.74713E-03 1.13698E-13 8.87164E-14
 -1       117 2.28553E+01-1.96029E-04 1.87585E-02 3.78669E-02 2.27170E-14-4.10080E-13
 -1       118 2.16179E+01-1.11147E-02-1.76825E-02 5.07908E-02 7.53609E-14-5.96101E-13
 -1       119 2.05437E+01-1.79040E-02-4.54113E-02 4.63823E-02-2.64842E-14-7.68097E-13
 -1       120 1.99939E+01 1.73660E-02-1.58965E-02 4.19640E-03 1.94485E-13-4.83494E-13
 -1       121 1.99948E+01 2.78815E-02-1.88359E-02-1.02865E-02-3.93017E-13 1.19978E-13
 -1       122 1.99750E+01 5.93284E-01-4.88524E-02 2.96895E-02-5.11081E-13-2.00770E-13
 -1       123 1.99849E+01 1.72119E+00-2.97737E-02 5.14065E-02-6.11457E-13 4.61601E-14
 -1       124 1.99981E+01 3.13876E+00-5.60728E-03 6.02589E-02-4.55219E-13-4.51022E-14
 -1       125 2.00125E+01 4.59694E+00 1.94556E-02 5.79955E-02 3.03091E-14 1.50973E-14
 -1       126 2.00266E+01 5.82012E+00 4.25325E-02 4.49664E-02-1.02226E-12 2.57489E-14
 -1       127 2.00349E+01 6.60551E+00 5.74770E-02 2.07028E-02-6.49945E-13 1.53058E-13
 -1       128 2.00359E+01 6.77100E+00 5.89032E-02-8.41070E-03-2.33740E-13-1.87354E-14
 -1       129 2.00291E+01 6.29966E+00 4.60170E-02-3.38858E-02 3.41385E-13 1.11350E-13
 -1       130 2.00170E+01 5.32393E+00 2.41486E-02-4.88692E-02 1.12480E-12-1.73812E-13
 -1       131 2.00038E+01 4.07275E+00 1.47908E-03-5.13736E-02 2.46601E-13-9.21447E-14
 -1       132 1.99927E+01 2.80548E+00-1.55475E-02-4.42202E-02-6.99118E-13 1.97611E-13
 -1       133 1.99860E+01 1.66640E+00-2.52201E-02-3.21791E-02-6.70266E-13 1.34994E-14
 -1       134 1.99812E+01 7.83820E-01-3.06019E-02-2.07759E-02-6.73159E-15 1.44727E-13
 -1       135 1.99858E+01 2.22058E-01-2.59574E-02-1.14903E-02-1.94676E-13-4.00392E-14
 -1       136 1.99860E+01-1.18619E-03-5.59654E-03 2.69273E-02-6.54656E-13 2.90675E-14
 -1       137-1.60937E+00-2.15574E+01-3.31142E+00-4.35750E+00 3.06255E-13-2.71734E-13
 -1       138-1.50627E+00-7.92771E+00-2.29542E+00-2.92005E+00-1.63891E-12-8.30336E-13
 -1       139 3.80739E+00 4.40834E+00-9.65687E-01 4.33829E+00-9.44467E-13-5.46285E-13
 -1       140 1.70232E+01 1.10666E+01 5.38730E-01 1.36139E+01-1.74916E-13-1.69365E-13
 -1       141 3.67788E+01 1.04050E+01 2.01896E+00 1.90752E+01 1.52378E-14 6.60583E-14
 -1       142 5.73290E+01 5.06308E+00 3.25013E+00 1.56335E+01-8.82627E-15 3.66984E-13
 -1       143 6.80405E+01 1.22703E+00 3.82059E+00 3.71421E+00-4.41175E-14-7.40193E-13
 -1       144 6.31123E+01 2.64602E+00 3.50645E+00-1.04653E+01 4.03360E-13-1.87897E-12
 -1       145 4.60905E+01 7.63702E+00 2.48289E+00-1.79480E+01 1.05013E-12-2.53059E-12
 -1       146 2.49225E+01 1.05950E+01 1.04208E+00-1.58927E+01 1.32494E-12-2.02144E-12
 -1       147 7.08646E+00 6.49375E+00-5.96928E-01-6.92077E+00 1.39155E-12-1.24584E-12
 -1       148-9.46349E-01-4.33123E+00-1.98135E+00 1.61576E+00 1.12593E-12-6.50646E-13
 -1       149-1.91550E+00-1.69417E+01-2.92253E+00 4.64792E+00 2.03448E-13-1.56861E-13
 -1       150-8.99801E-01-2.48098E+01-3.38665E+00 1.94358E+00-1.43077E-12 9.49588E-15
 -1       151-1.04746E+00-2.31969E+01-3.27108E+00-2.83386E+00-1.20379E-12-3.83213E-14
 -1       152-1.83054E+00-1.23346E+01-2.52487E+00-4.01060E+00-1.43052E-13-2.24265E-14
 -1       153 1.14992E+01 9.51998E+00 5.14007E-03 1.04517E+01-2.46303E-13-3.23075E-14
 -1       154 2.85629E+01 1.10180E+01 1.38168E+00 1.74121E+01-4.13392E-13-9.53126E-13
 -1       155 4.87151E+01 6.95310E+00 2.60870E+00 1.75681E+01-5.77538E-13-1.45189E-12
 -1       156 6.37947E+01 2.04913E+00 3.42233E+00 8.92853E+00-3.38852E-13-1.73103E-12
 -1       157 6.64798E+01 1.18557E+00 3.59485E+00-4.91833E+00 1.54855E-13-1.74703E-12
 -1       158 5.55045E+01 5.21767E+00 3.07122E+00-1.58359E+01 1.78579E-13-1.13842E-12
 -1       159 3.65415E+01 1.03207E+01 2.01127E+00-1.88623E+01-5.01266E-14-1.68865E-13
 -1       160 1.70527E+01 1.10486E+01 5.90381E-01-1.35573E+01 1.36668E-13 2.90323E-14
 -1       161 3.40658E+00 3.97353E+00-9.66498E-01-3.95457E+00 3.29958E-13-1.83520E-13
 -1       162-1.37983E+00-8.58976E+00-2.26844E+00 2.75673E+00-3.60212E-13-1.38306E-13
 -1       163-1.61935E+00-2.09138E+01-3.20821E+00 4.20115E+00 1.66478E-13 1.28973E-13
 -1       164 2.10133E+01 3.69403E+00-5.73756E-02-3.61068E+00-4.18519E-13 3.00291E-13
 -1       165 1.99909E+01 4.20734E+00-4.58037E-02-2.80949E+00-4.25268E-13-1.94164E-13
 -1       166 1.95067E+01 4.47793E+00-3.17262E-02-2.19541E+00-3.67120E-13-4.85010E-13
 -1       167 1.92681E+01 4.61445E+00-2.38257E-02-1.67506E+00-3.12409E-13-6.33317E-13
 -1       168 1.91372E+01 4.69708E+00-1.95880E-02-1.21932E+00-2.30270E-13-7.03678E-13
 -1       169 1.90636E+01 4.74781E+00-1.74520E-02-7.92376E-01-1.65756E-13-7.47547E-13
 -1       170 1.90265E+01 4.77562E+00-1.64296E-02-3.87037E-01-9.25213E-14-7.71747E-13
 -1       171 1.90157E+01 4.78416E+00-1.61360E-02 8.26154E-03-2.89357E-14-7.90879E-13
 -1       172 1.90282E+01 4.77435E+00-1.64684E-02 4.03886E-01 3.17745E-14-8.09803E-13
 -1       173 1.90673E+01 4.74482E+00-1.75215E-02 8.10257E-01 9.06233E-14-8.14746E-13
 -1       174 1.91417E+01 4.69240E+00-1.96889E-02 1.23184E+00 1.59601E-13-7.93822E-13
 -1       175 1.92771E+01 4.60527E+00-2.40078E-02 1.69859E+00 2.46959E-13-7.37087E-13
 -1       176 1.95238E+01 4.45950E+00-3.28519E-02 2.22697E+00 3.29481E-13-6.21761E-13
 -1       177 2.00132E+01 4.18381E+00-4.72146E-02 2.84718E+00 4.04191E-13-3.70384E-13
 -1       178 2.11348E+01 3.46368E+00-5.97830E-02 3.53705E+00 4.17595E-13 1.45300E-13
 -1       179 2.24192E+01 1.14339E+00-3.36473E-01 3.01506E+00 3.42293E-13 8.42673E-13
 -1       180 2.19713E+01 8.58322E-01 6.06828E-04-1.95911E+00-3.67855E-13 8.44359E-13
 -1       181 2.04469E+01 1.90047E-01-9.98970E-03-7.64387E-01-3.28520E-13 6.57948E-13
 -1       182 1.96710E+01 1.01645E-01 1.35708E-02-2.86041E-01-2.49295E-13 4.95830E-13
 -1       183 1.93310E+01 4.71965E-02 1.00099E-02-6.83286E-02-1.86362E-13 3.15741E-13
 -1       184 1.92009E+01 2.25344E-02 5.16862E-03 3.89194E-02-1.38338E-13 1.83281E-13
 -1       185 1.91871E+01 9.47884E-03 2.43349E-03 9.14489E-02-7.53446E-14 1.26293E-13
 -1       186 1.92352E+01 2.08693E-03 1.12884E-03 1.13743E-01-6.04005E-14 4.71891E-14
 -1       187 1.93138E+01-2.13175E-03 4.95735E-04 1.18612E-01-1.01132E-13-3.81558E-15
 -1       188 1.94043E+01-4.40564E-03 1.63201E-04 1.13505E-01-9.11701E-14 3.48912E-14
 -1       189 1.94955E+01-5.42900E-03-1.90387E-05 1.03072E-01-5.88495E-14-2.77229E-15
 -1       190 1.95814E+01-5.63104E-03-1.13714E-04 9.03323E-02-3.21858E-15-1.43463E-13
 -1       191 1.96588E+01-5.28873E-03-1.51677E-04 7.72831E-02-5.05096E-14-1.69021E-13
 -1       192 1.97271E+01-4.58077E-03-1.50782E-04 6.52663E-02-3.08126E-14-1.59884E-13
 -1       193 1.97867E+01-3.61695E-03-1.22163E-04 5.52053E-02-7.86418E-14-2.06714E-13
 -1       194 1.98395E+01-2.45617E-03-7.27392E-05 4.77732E-02-7.85599E-14-1.71429E-13
 -1       195 1.98880E+01-1.11906E-03-6.59293E-06 4.35167E-02-2.86971E-14-1.60105E-13
 -1       196 1.99351E+01 4.01814E-04 7.40510E-05 4.29462E-02 6.34663E-15-3.26056E-13
 -1       197 1.99848E+01 2.13247E-03 1.67964E-04 4.65992E-02-6.85102E-14-4.05324E-13
 -1       198 2.00414E+01 4.10716E-03 2.74014E-04 5.50750E-02-4.60358E-14-3.17261E-13
 -1       199 2.01098E+01 6.35525E-03 3.90090E-04 6.90380E-02 1.31187E-14-3.29109E-13
 -1       200 2.01955E+01 8.88269E-03 5.11705E-04 8.91786E-02 4.56604E-14-3.03754E-13
 -1       201 2.03047E+01 1.16443E-02 6.30142E-04 1.16114E-01 4.23083E-15-3.26285E-13
 -1       202 2.04438E+01 1.45022E-02 7.30074E-04 1.50201E-01-3.77048E-15-1.81540E-13
 -1       203 2.06189E+01 1.71636E-02 7.86784E-04 1.91215E-01 5.40943E-14-7.04247E-14
 -1       204 2.08353E+01 1.90927E-02 7.63651E-04 2.37851E-01 7.91771E-14-1.43076E-13
 -1       205 2.10958E+01 1.93950E-02 6.11559E-04 2.86977E-01 2.06399E-14-2.27842E-13
 -1       206 2.13990E+01 1.66915E-02 2.73611E-04 3.32609E-01-4.00993E-14-3.37831E-13
 -1       207 2.17362E+01 9.04003E-03-2.99594E-04 3.64668E-01 8.26871E-15-2.09786E-13
 -1       208 2.20878E+01-5.94668E-03-1.11878E-03 3.67837E-01 5.55856E-14 6.94005E-14
 -1       209 2.24197E+01-3.04936E-02-2.10788E-03 3.21343E-01-2.13356E-14 5.50156E-14
 -1       210 2.26805E+01-6.51241E-02-3.05584E-03 2.01359E-01-6.94225E-14 8.84412E-14
 -1       211 2.28024E+01-1.05836E-01-3.60711E-03-1.14143E-02-2.25664E-14-2.24504E-14
 -1       212 2.27114E+01-1.40558E-01-3.36452E-03-3.16640E-01-7.57784E-14-1.04092E-13
 -1       213 2.23489E+01-1.47770E-01-2.11479E-03-6.73375E-01 3.29389E-14-1.30321E-16
 -1       214 2.17085E+01-1.03183E-01-2.56598E-04-9.85004E-01-1.49750E-15-1.32067E-13
 -1       215 2.08758E+01 2.06282E-03 1.41153E-03-1.11377E+00-3.21158E-14 1.10356E-13
 -1       216 2.00412E+01 1.39374E-01 2.33032E-03-9.44386E-01 8.82549E-14-1.44048E-13
 -1       217 1.94501E+01 2.43316E-01 2.67085E-03-4.76785E-01-9.58001E-14-1.36848E-15
 -1       218 1.92881E+01 2.51763E-01 2.92009E-03 1.30450E-01-1.91707E-13-9.76541E-14
 -1       219 1.95703E+01 1.58463E-01 2.91223E-03 6.32241E-01-1.72530E-13-2.78531E-13
 -1       220 2.01306E+01 1.92766E-02 2.09376E-03 8.46580E-01-7.70867E-14-4.53896E-13
 -1       221 2.07220E+01-9.57151E-02 4.38309E-04 7.48795E-01 2.54341E-13-3.35412E-13
 -1       222 2.11399E+01-1.48739E-01-1.38429E-03 4.46430E-01 3.59764E-13-9.77903E-14
 -1       223 2.12888E+01-1.41405E-01-2.27547E-03 8.98948E-02 3.01743E-13 6.09360E-14
 -1       224 2.11799E+01-9.54563E-02-2.22320E-03-2.00396E-01 2.36237E-13 3.53794E-13
 -1       225 2.08947E+01-3.22791E-02-1.57965E-03-3.57125E-01-1.29509E-13 1.45025E-14
 -1       226 2.05436E+01 3.57571E-02-5.79742E-04-3.57473E-01 4.44394E-14 2.11257E-14
 -1       227 2.02240E+01 9.29577E-02 2.12799E-04-2.16446E-01 2.01663E-13 3.70922E-15
 -1       228 2.09631E+01 2.77027E-01-5.13363E-02 1.16508E+00 3.45137E-13 6.96625E-13
 -1       229 1.98681E+01 1.26837E-01 8.30849E-03 4.43390E-01 2.74391E-13 4.76377E-13
 -1       230 1.93614E+01 5.80487E-02 1.27342E-02 1.50379E-01 1.84354E-13 2.66539E-13
 -1       231 1.91514E+01 2.76954E-02 7.62877E-03 1.11658E-02 1.66443E-13 1.03889E-13
 -1       232 1.91012E+01 1.30451E-02 3.82369E-03-5.78913E-02 7.94941E-14 3.28654E-14
 -1       233 1.91365E+01 5.09923E-03 1.90695E-03-9.02465E-02 2.83653E-14-2.32939E-14
 -1       234 1.92150E+01 5.62668E-04 1.00508E-03-1.01949E-01 1.22131E-13-1.25112E-13
 -1       235 1.93120E+01-2.00949E-03 5.46741E-04-1.01737E-01 8.23621E-14-1.83790E-13
 -1       236 1.94131E+01-3.35806E-03 2.86709E-04-9.48467E-02 3.54536E-14-2.44395E-13
 -1       237 1.95097E+01-3.91383E-03 1.30753E-04-8.46008E-02 3.33042E-14-2.41002E-13
 -1       238 1.95977E+01-3.94718E-03 3.91806E-05-7.31707E-02 9.18268E-14-2.42700E-13
 -1       239 1.96753E+01-3.63295E-03-8.66946E-06-6.19981E-02 5.85225E-15-3.70488E-13
 -1       240 1.97425E+01-3.08237E-03-2.54596E-05-5.20563E-02 4.14032E-14-4.00083E-13
 -1       241 1.98009E+01-2.36088E-03-1.94110E-05-4.40281E-02-4.14219E-15-4.74460E-13
 -1       242 1.98526E+01-1.49878E-03 4.16416E-06-3.84361E-02-6.98436E-15-3.51227E-13
 -1       243 1.99007E+01-4.98355E-04 4.19697E-05-3.57434E-02-2.98762E-14-3.65112E-13
 -1       244 1.99490E+01 6.61241E-04 9.20923E-05-3.64343E-02 1.72447E-13-4.27374E-13
 -1       245 2.00017E+01 2.02018E-03 1.53463E-04-4.10792E-02 1.23713E-13-4.32610E-13
 -1       246 2.00642E+01 3.63488E-03 2.25277E-04-5.03882E-02-4.07793E-14-4.78040E-13
 -1       247 2.01427E+01 5.57449E-03 3.06235E-04-6.52520E-02-1.57336E-13-4.14415E-13
 -1       248 2.02445E+01 7.91542E-03 3.93420E-04-8.67666E-02-4.10509E-14-2.88630E-13
 -1       249 2.03783E+01 1.07305E-02 4.80540E-04-1.16229E-01 1.06889E-13-3.41595E-13
 -1       250 2.05543E+01 1.40673E-02 5.55240E-04-1.55078E-01-7.49210E-14-5.35163E-13
 -1       251 2.07838E+01 1.79037E-02 5.95264E-04-2.04730E-01-1.77262E-13-4.54102E-13
 -1       252 2.10792E+01 2.20626E-02 5.63970E-04-2.66216E-01-7.02661E-14-3.21200E-13
 -1       253 2.14526E+01 2.60548E-02 4.07781E-04-3.39450E-01 2.19335E-14-2.20068E-13
 -1       254 2.19139E+01 2.88052E-02 6.29295E-05-4.21876E-01 1.14099E-14-2.44963E-13
 -1       255 2.24659E+01 2.82275E-02-5.13302E-04-5.06139E-01-1.32027E-14-2.47542E-13
 -1       256 2.30980E+01 2.06813E-02-1.26399E-03-5.76456E-01 1.76450E-14-2.04371E-13
 -1       257 2.37756E+01 6.25465E-04-1.89691E-03-6.03923E-01-6.95479E-14-1.38306E-13
 -1       258 2.44263E+01-3.85596E-02-1.71909E-03-5.42748E-01-1.14738E-13-2.21368E-13
 -1       259 2.49290E+01-1.00897E-01 2.19861E-04-3.33419E-01-3.82572E-14-2.60021E-13
 -1       260 2.51151E+01-1.78106E-01 4.29263E-03 7.62159E-02 1.07141E-13-4.32509E-13
 -1       261 2.48028E+01-2.33489E-01 8.32852E-03 6.75377E-01-4.43100E-14-5.20181E-13
 -1       262 2.38925E+01-2.00447E-01 7.34925E-03 1.30399E+00 1.76809E-13-4.63747E-13
 -1       263 2.25153E+01-2.97710E-02-2.46921E-03 1.63873E+00 1.72141E-13-5.85995E-13
 -1       264 2.11175E+01 2.30968E-01-1.84169E-02 1.33838E+00-2.53274E-13-5.58189E-13
 -1       265 2.03264E+01 4.01538E-01-2.82190E-02 4.01241E-01-1.46331E-13 1.57018E-14
 -1       266 2.05132E+01 3.45393E-01-1.93863E-02-6.87772E-01-2.63636E-13 1.44162E-13
 -1       267 2.14833E+01 1.05934E-01-1.38576E-03-1.32377E+00-1.37126E-13 2.42133E-13
 -1       268 2.26290E+01-1.27360E-01 9.71915E-03-1.25668E+00 1.33626E-13 2.03632E-13
 -1       269 2.34013E+01-2.31139E-01 1.03544E-02-7.10043E-01-2.45825E-13 5.35321E-13
 -1       270 2.35724E+01-2.14899E-01 5.19221E-03-5.46303E-02 2.23362E-13 1.96395E-13
 -1       271 2.31971E+01-1.41272E-01 4.41038E-04 4.57666E-01 2.44472E-13-2.90735E-14
 -1       272 2.24689E+01-5.81213E-02-2.00854E-03 7.36813E-01 1.89661E-13 4.54237E-15
 -1       273 2.16114E+01 1.78225E-02-3.59068E-03 7.83530E-01 2.03840E-13-1.38223E-13
 -1       274 2.08294E+01 9.22696E-02-3.83832E-03 6.18972E-01 6.59314E-14-2.33778E-13
 -1       275 2.02638E+01 1.45796E-01-5.75303E-04 2.85340E-01 1.31666E-14-1.45869E-13
 -1       276 2.01870E+01 5.09144E-01 2.14423E-03 5.14792E-01-4.57205E-14 2.37226E-14
 -1       277 2.01245E+01 1.17189E+00 1.39593E-03 8.64159E-01 3.74687E-14-1.40946E-13
 -1       278 2.00508E+01 2.02673E+00 1.63707E-04 1.07149E+00 3.15225E-14 1.85262E-13
 -1       279 1.99733E+01 2.97018E+00-1.48433E-03 1.10049E+00 3.53645E-14 4.21214E-14
 -1       280 1.98935E+01 3.83978E+00-3.54143E-03 9.38562E-01-2.97706E-13-4.73111E-13
 -1       281 1.98267E+01 4.50643E+00-4.93183E-03 5.92130E-01-2.00365E-13-9.94270E-14
 -1       282 1.97970E+01 4.81826E+00-5.54351E-03 1.25062E-01-2.07250E-13 2.50821E-13
 -1       283 1.98164E+01 4.71553E+00-5.32692E-03-3.55402E-01 1.16727E-13 3.13596E-13
 -1       284 1.98765E+01 4.23411E+00-4.36618E-03-7.37619E-01 2.53154E-13 2.84370E-13
 -1       285 1.99537E+01 3.49076E+00-2.79624E-03-9.49830E-01-8.39212E-14-4.46611E-13
 -1       286 2.00212E+01 2.65241E+00-8.22741E-04-9.82458E-01-1.42841E-14-4.61194E-13
 -1       287 2.00668E+01 1.82667E+00 8.87138E-04-8.75075E-01 4.81694E-14 8.50273E-14
 -1       288 2.00881E+01 1.12618E+00 2.11516E-03-6.84247E-01 2.95250E-15 2.10181E-13
 -1       289 2.00964E+01 5.97218E-01 2.16345E-03-4.52325E-01-1.76805E-13 6.86649E-14
 -1       290 2.01627E+01 3.06896E-01 3.12520E-03-3.60111E-01 4.60475E-14-1.00970E-13
 -1       291-1.01088E+00-1.20653E+01-1.07533E+00 1.06630E+00 5.33185E-14-6.80761E-13
 -1       292 3.17310E+00-9.25525E+00-8.14794E-01 3.77735E+00-2.08944E-13-8.99308E-13
 -1       293 1.04180E+01-5.26476E+00-5.11073E-01 5.78322E+00-6.42819E-13 1.04000E-13
 -1       294 1.98988E+01-1.02050E+00-7.18094E-02 7.43661E+00-3.91853E-13 7.97695E-14
 -1       295 3.04926E+01 2.57077E+00 3.91921E-01 7.82411E+00-2.45526E-13-9.38138E-14
 -1       296 4.03746E+01 5.21084E+00 8.24711E-01 6.52920E+00-1.22092E-13-2.25486E-13
 -1       297 4.61247E+01 6.67385E+00 9.90789E-01 3.07181E+00 3.44225E-13-9.48755E-13
 -1       298 4.56228E+01 7.26391E+00 8.61345E-01-4.37824E-01 5.10897E-13-1.10882E-12
 -1       299 4.33916E+01 5.59241E+00 8.84299E-01-4.46802E+00 7.70314E-13-1.13043E-12
 -1       300 3.46160E+01 2.88357E+00 4.23238E-01-5.71487E+00 6.67473E-13-1.41492E-12
 -1       301 2.47055E+01-1.30486E+00 3.51191E-02-6.35187E+00 7.21367E-13-1.41787E-12
 -1       302 1.26722E+01-4.02005E+00-3.95350E-01-5.98472E+00 6.20504E-13-9.61675E-13
 -1       303 4.58859E+00-7.99710E+00-7.64254E-01-3.82173E+00 2.71755E-13-5.26971E-13
 -1       304 2.35243E-02-1.05222E+01-8.89935E-01-1.82966E+00-1.29133E-13-7.27307E-13
 -1       305-1.34626E+00-1.11917E+01-9.36775E-01 5.06241E-01-3.09031E-13-8.17679E-14
 -1       306 1.06005E+00-1.00141E+01-8.91473E-01 2.69784E+00-4.01262E-13 3.89300E-13
 -1       307 8.05781E+00-6.41449E+00-4.88989E-01 5.54674E+00-1.12271E-13 1.29164E-13
 -1       308 1.58951E+01-1.99107E+00-2.15844E-01 6.82554E+00-5.96745E-15-1.85935E-13
 -1       309 2.60381E+01 1.65526E+00 2.03969E-01 7.73214E+00 9.45355E-14-6.01241E-13
 -1       310 3.61043E+01 4.34555E+00 6.12757E-01 6.99625E+00-3.41949E-14-8.01248E-13
 -1       311 4.39994E+01 6.01052E+00 9.24515E-01 4.48009E+00-2.14093E-13-9.67532E-13
 -1       312 4.69162E+01 6.91493E+00 9.96793E-01 4.07434E-01 4.14113E-14-9.90270E-13
 -1       313 4.59062E+01 6.52068E+00 1.02841E+00-3.63002E+00-3.37647E-14-1.07769E-12
 -1       314 3.95646E+01 5.24331E+00 7.79955E-01-6.54954E+00-2.58593E-13-9.13741E-13
 -1       315 3.02408E+01 2.37895E+00 3.54222E-01-7.46719E+00 2.58960E-13-3.01426E-13
 -1       316 1.98482E+01-1.33348E+00-5.57764E-02-7.38853E+00 3.44696E-13-3.58602E-13
 -1       317 9.92703E+00-5.37239E+00-5.01861E-01-5.77573E+00 1.78912E-13-3.94185E-13
 -1       318 4.20000E+00-8.31222E+00-5.29034E-01-4.83439E+00 4.77451E-13-8.95187E-14
 -1       319-8.27705E-01-1.13945E+01-9.58346E-01-1.41946E+00 4.52194E-13 4.78784E-13
 -1       320 2.01458E+01 3.01489E+00-1.78018E-02-2.11065E+00-4.65731E-13-2.27452E-13
 -1       321 2.07547E+01 2.20990E+00-1.78589E-02-2.36381E+00-4.71311E-13 7.10456E-14
 -1       322 1.95828E+01 3.69195E+00-1.56051E-02-1.31893E+00-3.23165E-13-4.98015E-13
 -1       323 1.94607E+01 3.84809E+00-1.36947E-02-9.24177E-01-2.38008E-13-5.59107E-13
 -1       324 1.93919E+01 3.93911E+00-1.27077E-02-5.44089E-01-1.48157E-13-5.80090E-13
 -1       325 1.93614E+01 3.98046E+00-1.22951E-02-1.73314E-01-6.56082E-14-6.11637E-13
 -1       326 1.93627E+01 3.97887E+00-1.23146E-02 1.94466E-01 7.48554E-16-6.34853E-13
 -1       327 1.93960E+01 3.93398E+00-1.27603E-02 5.65564E-01 8.43659E-14-6.47539E-13
 -1       328 1.94667E+01 3.84073E+00-1.37670E-02 9.39621E-01 1.60830E-13-6.42640E-13
 -1       329 1.95934E+01 3.67852E+00-1.56538E-02 1.33374E+00 2.51366E-13-5.87924E-13
 -1       330 1.98087E+01 3.40987E+00-1.88307E-02 1.73905E+00 3.49341E-13-5.22983E-13
 -1       331 2.01791E+01 2.95515E+00-2.29402E-02 2.12763E+00 4.36903E-13-3.68508E-13
 -1       332 2.07487E+01 2.12941E+00-3.04702E-02 2.32255E+00 4.75950E-13-6.00422E-14
 -1       333 2.10951E+01 1.18772E+00-2.49247E-02 1.92225E+00 4.47474E-13 2.49439E-13
 -1       334 2.03913E+01 4.89254E-01 8.33108E-03 9.27701E-01 3.57775E-13 1.38292E-13
 -1       335 2.04582E+01 6.75062E-01 1.25584E-02-1.02625E+00-3.69791E-13 1.04762E-13
 -1       336 2.00359E+01 3.37151E-01 7.18426E-03-4.58502E-01-3.14528E-13 6.14170E-14
 -1       337 1.97817E+01 1.76434E-01 4.16575E-03-1.49421E-01-2.52560E-13 9.79869E-15
 -1       338 1.96460E+01 9.03362E-02 1.90367E-03 2.16054E-02-1.53960E-13-4.27107E-14
 -1       339 1.95903E+01 4.12259E-02 7.90182E-04 1.12647E-01-9.50840E-14-8.94287E-14
 -1       340 1.95847E+01 1.23161E-02 2.71415E-04 1.55756E-01-9.87874E-14-8.29495E-14
 -1       341 1.96085E+01-4.55575E-03 1.54707E-05 1.69882E-01-7.68678E-14-1.14718E-13
 -1       342 1.96479E+01-1.38204E-02-1.16387E-04 1.66859E-01-9.39982E-14-8.71399E-14
 -1       343 1.96939E+01-1.81097E-02-1.79565E-04 1.54378E-01-1.34900E-13-1.20783E-13
 -1       344 1.97413E+01-1.90843E-02-1.99608E-04 1.37567E-01-3.78273E-14-1.72441E-13
 -1       345 1.97870E+01-1.78205E-02-1.90827E-04 1.19900E-01-5.08600E-14-2.05097E-13
 -1       346 1.98297E+01-1.50089E-02-1.62066E-04 1.03768E-01-1.97114E-14-1.92876E-13
 -1       347 1.98695E+01-1.10679E-02-1.18722E-04 9.08768E-02-1.04258E-13-8.67616E-14
 -1       348 1.99073E+01-6.21726E-03-6.37819E-05 8.25153E-02-8.03988E-14-1.72997E-13
 -1       349 1.99445E+01-5.31235E-04 1.48356E-06 7.97636E-02-1.04149E-13-1.73343E-13
 -1       350 1.99835E+01 6.01598E-03 7.69195E-05 8.36327E-02-6.04052E-14-2.46105E-13
 -1       351 2.00268E+01 1.35063E-02 1.62893E-04 9.51546E-02 2.12135E-15-1.68651E-13
 -1       352 2.00775E+01 2.20273E-02 2.59598E-04 1.15417E-01-5.10537E-14-2.86528E-13
 -1       353 2.01393E+01 3.16069E-02 3.66143E-04 1.45535E-01 2.16153E-14-2.84663E-13
 -1       354 2.02159E+01 4.21216E-02 4.79276E-04 1.86535E-01 5.92001E-14-2.75562E-13
 -1       355 2.03116E+01 5.31627E-02 5.91578E-04 2.39125E-01 1.33864E-13-1.15606E-13
 -1       356 2.04305E+01 6.38440E-02 6.88985E-04 3.03296E-01 2.31791E-14-7.15707E-14
 -1       357 2.05767E+01 7.25306E-02 7.47628E-04 3.77702E-01 3.67686E-14-9.85792E-14
 -1       358 2.07532E+01 7.64832E-02 7.30430E-04 4.58735E-01-1.89953E-14-2.75592E-13
 -1       359 2.09620E+01 7.14501E-02 5.84807E-04 5.39248E-01 5.92377E-14-1.97509E-13
 -1       360 2.12023E+01 5.13412E-02 2.44598E-04 6.06954E-01 3.63707E-14-1.31514E-13
 -1       361 2.14701E+01 8.32948E-03-3.58163E-04 6.42717E-01 1.36318E-13-4.63299E-14
 -1       362 2.17560E+01-6.58944E-02-1.26488E-03 6.19440E-01 4.32104E-14 3.59389E-15
 -1       363 2.20432E+01-1.76486E-01-2.43480E-03 5.03084E-01-5.36899E-14 3.30118E-15
 -1       364 2.23044E+01-3.17982E-01-3.67089E-03 2.58615E-01 2.30541E-14 4.78225E-14
 -1       365 2.24982E+01-4.62843E-01-4.54368E-03-1.35144E-01-2.60946E-14 1.11573E-13
 -1       366 2.25675E+01-5.50937E-01-4.44896E-03-6.58757E-01 4.08642E-14 2.01826E-13
 -1       367 2.24495E+01-4.94751E-01-2.83874E-03-1.21828E+00-1.56966E-14 2.47186E-13
 -1       368 2.21096E+01-2.22482E-01-4.44057E-04-1.62894E+00 4.41455E-14 2.67909E-13
 -1       369 2.15970E+01 2.42832E-01 1.63154E-03-1.66148E+00-6.45856E-14 1.84361E-13
 -1       370 2.10825E+01 7.21302E-01 3.12581E-03-1.17941E+00-4.69303E-14 1.41743E-13
 -1       371 2.07938E+01 9.50297E-01 4.78294E-03-2.96199E-01-1.92157E-13-8.59176E-14
 -1       372 2.08548E+01 7.78549E-01 4.88020E-03 6.20479E-01-1.02236E-13-1.04682E-13
 -1       373 2.11748E+01 3.16141E-01 3.58975E-03 1.17788E+00-1.03901E-13 9.08882E-14
 -1       374 2.15300E+01-1.73542E-01 8.00334E-04 1.21208E+00-8.79951E-14-3.22051E-15
 -1       375 2.17309E+01-4.82132E-01-2.66176E-03 8.32841E-01 3.98125E-13-1.44123E-13
 -1       376 2.17098E+01-5.52366E-01-3.85344E-03 2.78059E-01 4.31318E-13 8.97204E-15
 -1       377 2.14975E+01-4.41785E-01-3.73468E-03-2.35232E-01 3.58019E-13-1.38736E-13
 -1       378 2.11654E+01-2.35249E-01-2.40834E-03-5.74984E-01-2.53942E-13-2.69041E-13
 -1       379 2.07859E+01 1.64309E-03-8.44525E-04-6.89302E-01-5.60941E-14-2.58062E-13
 -1       380 2.04581E+01 1.86622E-01 2.31161E-03-5.91107E-01 1.01584E-13 4.91756E-14
 -1       381 1.98894E+01 2.28425E-01 1.07947E-02 3.99119E-01 2.93927E-13 6.69556E-14
 -1       382 1.96006E+01 1.15251E-01 6.17446E-03 1.20544E-01 2.37261E-13-2.31620E-14
 -1       383 1.94656E+01 5.75453E-02 2.80679E-03-2.81420E-02 1.28228E-13-9.20249E-14
 -1       384 1.94255E+01 2.56506E-02 1.17621E-03-1.04861E-01 5.55186E-14-1.39465E-13
 -1       385 1.94408E+01 7.21087E-03 4.47748E-04-1.39929E-01 1.30653E-13-1.64868E-13
 -1       386 1.94865E+01-3.45087E-03 1.01295E-04-1.50321E-01 1.47943E-13-1.75230E-13
 -1       387 1.95464E+01-9.28054E-03-7.79555E-05-1.46305E-01 7.59539E-14-1.96581E-13
 -1       388 1.96109E+01-1.19830E-02-1.69582E-04-1.34419E-01 2.02024E-14-2.06626E-13
 -1       389 1.96740E+01-1.26188E-02-2.06952E-04-1.18964E-01 6.01682E-14-2.12766E-13
 -1       390 1.97328E+01-1.18708E-02-2.07942E-04-1.02823E-01 6.25861E-14-1.63606E-13
 -1       391 1.97861E+01-1.01754E-02-1.83613E-04-8.79598E-02 1.06334E-13-2.80200E-13
 -1       392 1.98342E+01-7.79476E-03-1.40796E-04-7.57636E-02 2.86534E-14-2.32047E-13
 -1       393 1.98784E+01-4.86061E-03-8.32707E-05-6.72846E-02-7.42962E-14-2.42174E-13
 -1       394 1.99207E+01-1.40202E-03-1.24814E-05-6.34193E-02 2.30779E-14-2.98830E-13
 -1       395 1.99639E+01 2.63438E-03 7.19378E-05-6.50528E-02 1.77736E-13-2.89805E-13
 -1       396 2.00113E+01 7.36888E-03 1.71741E-04-7.31715E-02 1.28196E-13-2.70999E-13
 -1       397 2.00670E+01 1.29751E-02 2.89639E-04-8.89507E-02 3.77339E-14-2.01480E-13
 -1       398 2.01357E+01 1.96648E-02 4.28736E-04-1.13817E-01-1.32642E-13-2.05981E-13
 -1       399 2.02230E+01 2.76647E-02 5.91626E-04-1.49480E-01-5.29914E-14-2.94861E-13
 -1       400 2.03354E+01 3.71752E-02 7.78818E-04-1.97908E-01 1.40159E-13-3.62935E-13
 -1       401 2.04802E+01 4.82910E-02 9.85898E-04-2.61220E-01-2.19851E-14-4.03384E-13
 -1       402 2.06654E+01 6.08509E-02 1.19865E-03-3.41406E-01-2.55167E-13-4.53520E-13
 -1       403 2.08996E+01 7.41586E-02 1.38518E-03-4.39754E-01-9.51377E-14-4.03373E-13
 -1       404 2.11909E+01 8.64903E-02 1.48472E-03-5.55762E-01-2.06590E-14-4.42235E-13
 -1       405 2.15461E+01 9.42780E-02 1.39517E-03-6.85206E-01 3.58743E-14-2.36115E-13
 -1       406 2.19682E+01 9.08961E-02 9.67297E-04-8.16948E-01-3.58996E-14-1.94563E-13
 -1       407 2.24539E+01 6.52147E-02 2.38176E-05-9.28132E-01-2.80026E-14-2.80572E-14
 -1       408 2.29893E+01 8.62262E-04-1.56327E-03-9.78101E-01-8.18933E-15 1.42079E-13
 -1       409 2.35438E+01-1.21102E-01-3.70523E-03-9.03494E-01-2.89317E-14-1.28604E-13
 -1       410 2.40634E+01-3.10852E-01-5.73150E-03-6.21910E-01 8.42334E-14-3.37551E-13
 -1       411 2.44635E+01-5.44905E-01-6.64379E-03-5.70920E-02-1.79522E-14-3.53951E-13
 -1       412 2.46200E+01-7.21131E-01-5.76058E-03 7.94834E-01-4.99371E-14-2.56523E-13
 -1       413 2.43835E+01-6.40109E-01-5.04019E-03 1.74125E+00 1.10628E-13-5.60706E-15
 -1       414 2.37054E+01-1.52509E-01-6.85381E-03 2.33616E+00 1.77479E-13 9.43759E-14
 -1       415 2.27787E+01 6.54761E-01-8.41516E-03 2.04077E+00-3.03836E-13 3.52111E-13
 -1       416 2.21049E+01 1.24629E+00-1.36322E-02 7.51796E-01-2.61334E-13 2.57391E-13
 -1       417 2.21401E+01 1.10993E+00-9.11969E-03-8.56308E-01-3.05462E-13 2.38697E-13
 -1       418 2.27495E+01 3.75091E-01-2.21208E-03-1.84485E+00-1.02680E-13 1.11834E-13
 -1       419 2.33959E+01-3.74660E-01-2.79314E-03-1.76982E+00-9.81368E-14 1.44589E-13
 -1       420 2.36647E+01-7.26312E-01-5.58228E-03-9.66501E-01-1.12748E-13 3.02558E-13
 -1       421 2.34787E+01-6.90710E-01-8.32683E-03 2.99028E-03 2.31256E-13 3.76392E-14
 -1       422 2.29606E+01-4.61485E-01-7.74653E-03 7.63522E-01 2.47561E-13-5.76054E-14
 -1       423 2.22703E+01-1.94699E-01-4.81871E-03 1.18242E+00 3.44126E-13-1.61459E-14
 -1       424 2.15401E+01 4.91820E-02-1.21422E-03 1.26355E+00 2.58603E-13-1.94204E-13
 -1       425 2.08665E+01 2.61375E-01 1.03700E-03 1.05033E+00 4.51572E-14-7.93104E-14
 -1       426 2.04953E+01 4.02498E-01 2.23581E-03 8.21626E-01-1.80303E-13 6.99218E-15
 -1       427 2.00484E+01 1.82132E+00 2.85245E-04 1.81326E+00 2.19362E-13 1.23493E-13
 -1       428 2.03136E+01 1.18353E+00 3.43685E-03 1.62564E+00 1.06965E-13 1.74881E-13
 -1       429 2.04342E+01 7.82048E-01 3.99677E-03 1.26431E+00-6.73333E-14-4.83133E-14
 -1       430 1.97469E+01 2.48040E+00-2.71898E-03 1.71538E+00-1.18938E-14-7.78016E-13
 -1       431 1.94512E+01 3.07423E+00-5.01432E-03 1.29652E+00-4.08773E-14-6.02552E-14
 -1       432 1.92546E+01 3.45507E+00-6.28796E-03 6.05191E-01 1.76350E-14 1.29318E-13
 -1       433 1.92321E+01 3.52188E+00-6.44186E-03-2.09964E-01-1.66200E-13 3.48999E-13
 -1       434 1.93923E+01 3.26019E+00-5.54671E-03-9.49233E-01-3.58103E-13 3.19276E-13
 -1       435 1.96680E+01 2.75034E+00-3.75219E-03-1.44710E+00-3.73836E-13-4.03882E-13
 -1       436 1.99527E+01 2.13599E+00-1.40482E-03-1.63612E+00-9.47520E-14-4.80118E-13
 -1       437 2.01760E+01 1.52070E+00 8.39575E-04-1.55687E+00 1.92235E-13 3.09829E-13
 -1       438 2.03043E+01 9.96950E-01 2.80502E-03-1.29854E+00 3.37869E-13-1.83037E-14
 -1       439 2.03477E+01 5.97885E-01 4.15756E-03-9.59570E-01 5.31547E-14-1.46029E-13
 -1       440 1.17307E+01-6.34458E+00-4.95465E-02 7.28676E+00-2.88380E-13-1.16483E-13
 -1       441 1.24395E+00-4.96555E+00-6.58064E-02 3.58726E-02 3.76335E-14-4.31960E-13
 -1       442 4.38422E+00-5.04691E+00 5.52716E-03 4.73964E+00-4.19109E-15-1.02665E-12
 -1       443 1.99583E+01-5.76375E+00-4.77303E-02 6.83009E+00-5.46091E-13 2.85612E-13
 -1       444 2.81445E+01-3.63646E+00-1.35785E-03 4.22698E+00-4.16292E-13-4.55774E-13
 -1       445 1.98031E+01 3.43104E+00-1.76719E-02-1.73851E+00-4.12533E-13-4.19315E-13
 -1       446 3.64970E+01 5.44424E+00 1.08039E-01 3.53537E-01 2.67328E-13-9.47215E-13
 -1       447 3.56254E+01 7.99527E+00 6.94502E-03 9.27326E-02 5.22610E-13-4.98067E-13
 -1       448 3.55812E+01 6.60591E+00 2.16810E-02 1.07364E+00 4.24050E-13-6.30551E-13
 -1       449 3.45338E+01 2.96352E+00 2.22146E-02 4.55055E-01 4.77562E-13-6.08916E-13
 -1       450 3.05199E+01-2.13066E+00-3.64371E-03-1.93618E+00 4.14984E-13-6.01089E-13
 -1       451 2.22752E+01-5.95404E+00-3.70810E-02-5.52138E+00 1.72626E-13-1.15279E-12
 -1       452 1.48922E+01-6.10928E+00 2.15387E-02-6.93225E+00 4.37567E-14-8.89148E-13
 -1       453 5.62865E+00-5.88193E+00-9.18515E-02-5.36073E+00 1.54043E-15-7.23824E-13
 -1       454 1.61260E+00-4.42720E+00-1.04780E-02-1.55672E+00 3.30257E-14-5.62911E-13
 -1       455 2.84097E+00-4.18247E+00 4.68654E-02 3.48747E+00 8.64031E-14 2.66315E-13
 -1       456 7.56146E+00-5.12898E+00 2.88181E-02 6.35492E+00 1.00656E-13 4.99850E-13
 -1       457 1.67889E+01-5.54382E+00-2.56809E-02 6.89563E+00 1.89140E-13 6.40356E-14
 -1       458 2.47276E+01-4.00859E+00-3.57076E-03 5.30717E+00 2.79998E-13-2.57003E-13
 -1       459 3.10402E+01-4.62280E-01 2.69362E-02 2.66584E+00 3.92616E-13-3.79446E-13
 -1       460 3.40995E+01 3.74289E+00-9.03169E-04-1.18513E-01 1.39007E-13-3.12805E-14
 -1       461 3.68980E+01 7.37683E+00 1.06172E-01-2.15633E-01-7.43849E-15 1.70974E-14
 -1       462 3.62428E+01 8.06684E+00 5.89298E-02-1.17241E-01-7.32747E-15 8.63198E-15
 -1       463 3.48385E+01 5.38198E+00 8.71610E-03 6.95922E-02-2.27138E-13-2.74628E-13
 -1       464 3.29269E+01 1.08004E+00 2.68441E-02-1.68309E+00-2.66245E-14-6.80012E-13
 -1       465 2.78769E+01-3.78716E+00-3.74991E-03-4.17083E+00 6.11726E-13-3.48124E-13
 -1       466 1.95221E+01-5.88252E+00-3.88196E-02-7.02384E+00 2.70561E-13-6.35686E-13
 -1       467 1.23411E+01-6.20350E+00-1.45532E-02-7.44577E+00 5.34128E-13-5.35121E-13
 -1       468 3.77588E+00-5.33008E+00-4.33446E-02-4.47026E+00 5.37501E-13 3.21729E-13
 -1       469 3.32408E+01 6.40160E-01 1.20102E-02 1.37009E+00-3.29327E-13-6.18672E-13
 -1       470 9.86234E+00-4.50381E+00 1.17469E-01-6.74494E+00 6.75737E-13-3.34385E-13
 -1       471 1.39913E+01-5.29657E+00 8.56653E-02 7.23436E+00 1.76220E-13 3.38500E-13
 -1       472 2.03727E+01 8.31878E-01 4.01007E-03 9.72519E-01 3.34801E-13-1.62891E-13
 -1       473 1.97335E+01 3.10361E+00-5.33096E-03-6.34104E-01-1.88857E-13-5.01296E-13
 -1       474 1.98300E+01 2.92995E+00-5.71373E-03-9.50028E-01-2.63240E-13-4.62168E-13
 -1       475 1.96660E+01 3.22621E+00-5.02183E-03 8.82960E-03-3.46768E-14-5.57533E-13
 -1       476 1.96844E+01 3.19322E+00-5.10449E-03 3.30593E-01 4.29630E-14-5.84877E-13
 -1       477 1.97381E+01 3.09643E+00-5.41473E-03 6.46149E-01 1.11071E-13-5.94226E-13
 -1       478 1.98364E+01 2.91865E+00-5.94539E-03 9.61906E-01 2.05244E-13-5.41018E-13
 -1       479 1.99915E+01 2.63366E+00-6.52693E-03 1.25718E+00 2.76056E-13-4.99052E-13
 -1       480 2.02334E+01 2.18761E+00-5.70384E-03 1.50199E+00 3.68291E-13-4.07407E-13
 -1       481 2.01109E+01 4.53419E-01 5.07424E-03 4.64739E-01 2.92297E-13-1.52531E-13
 -1       482 2.03436E+01 9.72718E-01 2.77999E-03-9.40659E-01-3.51213E-13-1.32449E-13
 -1       483 2.97908E+01-3.11742E+00-7.49420E-02 4.43172E-01-4.25403E-13-6.08374E-13
 -1       484 2.01713E+01 5.45245E-01 2.33594E-03-4.68486E-01-2.83550E-13-1.14224E-13
 -1       485 2.00237E+01 3.03447E-01 1.11375E-03-1.67355E-01-2.40335E-13-8.44222E-14
 -1       486 1.99228E+01 1.61427E-01 4.66628E-04 1.40041E-02-1.74563E-13-1.16858E-13
 -1       487 1.98640E+01 7.52432E-02 1.60726E-04 1.16540E-01-1.04348E-13-1.90199E-13
 -1       488 1.98365E+01 2.27413E-02 2.21822E-05 1.67949E-01-1.33392E-13-2.21588E-13
 -1       489 1.98305E+01-8.38039E-03-4.59966E-05 1.86899E-01-8.09650E-14-2.49492E-13
 -1       490 1.98380E+01-2.54554E-02-7.96965E-05 1.86079E-01-1.16090E-13-2.47609E-13
 -1       491 1.98534E+01-3.31113E-02-9.27483E-05 1.74192E-01-7.86616E-14-1.72213E-13
 -1       492 1.98730E+01-3.43695E-02-9.20572E-05 1.57252E-01-1.40069E-14-1.00662E-13
 -1       493 1.98944E+01-3.12156E-02-8.19098E-05 1.39450E-01-3.00796E-14-4.86396E-14
 -1       494 1.99166E+01-2.49214E-02-6.50307E-05 1.23756E-01-7.58685E-14-1.32349E-13
 -1       495 1.99392E+01-1.62436E-02-4.30332E-05 1.12350E-01-1.52446E-13-1.33664E-13
 -1       496 1.99624E+01-5.56210E-03-1.66820E-05 1.06945E-01-8.15572E-14-6.74894E-14
 -1       497 1.99872E+01 7.01045E-03 1.38509E-05 1.09012E-01-1.32828E-13-7.73914E-14
 -1       498 2.00146E+01 2.15320E-02 4.87565E-05 1.19941E-01-3.14394E-15-1.50291E-13
 -1       499 2.00461E+01 3.81306E-02 8.83301E-05 1.41126E-01-8.12145E-14-1.76973E-13
 -1       500 2.00836E+01 5.68850E-02 1.32644E-04 1.73977E-01-1.39864E-14-4.88479E-14
 -1       501 2.01293E+01 7.76676E-02 1.81098E-04 2.19853E-01 3.34491E-14-2.18115E-13
 -1       502 2.01853E+01 9.99253E-02 2.31780E-04 2.79871E-01 1.27049E-13-3.16305E-13
 -1       503 2.02544E+01 1.22372E-01 2.80547E-04 3.54574E-01 6.10449E-14-2.82334E-13
 -1       504 2.03393E+01 1.42555E-01 3.19760E-04 4.43396E-01-2.64401E-14-2.67542E-13
 -1       505 2.04433E+01 1.56284E-01 3.36676E-04 5.43865E-01-1.03048E-13-2.50298E-13
 -1       506 2.05703E+01 1.56929E-01 3.11719E-04 6.50494E-01 7.37384E-15-2.03604E-13
 -1       507 2.07249E+01 1.34718E-01 2.17283E-04 7.53288E-01 6.31812E-14-2.37819E-13
 -1       508 2.09133E+01 7.64118E-02 1.87085E-05 8.35942E-01 1.51327E-13-1.66990E-13
 -1       509 2.11434E+01-3.38147E-02-3.19500E-04 8.73927E-01 1.60692E-13-1.02272E-13
 -1       510 2.14241E+01-2.10644E-01-8.22399E-04 8.33133E-01 6.94904E-15 4.60706E-14
 -1       511 2.17619E+01-4.58458E-01-1.46496E-03 6.70659E-01-4.34899E-14 1.75896E-13
 -1       512 2.21521E+01-7.54012E-01-2.12720E-03 3.41272E-01 6.02133E-15 4.56600E-14
 -1       513 2.25617E+01-1.02185E+00-2.50987E-03-1.83968E-01-1.48001E-14-1.60794E-14
 -1       514 2.29093E+01-1.11578E+00-2.28850E-03-8.78151E-01 8.57049E-14-5.52486E-14
 -1       515 2.30670E+01-8.45814E-01-1.16966E-03-1.59927E+00 9.21603E-14 1.38704E-13
 -1       516 2.29257E+01-1.05729E-01-2.53439E-03-2.05788E+00-8.57553E-14 2.69617E-13
 -1       517 2.25185E+01 9.46018E-01-6.16263E-03-1.90169E+00-6.56402E-14 1.69807E-13
 -1       518 2.21183E+01 1.78605E+00-5.37670E-03-1.01222E+00-3.20621E-13 1.34547E-13
 -1       519 2.20352E+01 1.85837E+00-2.93190E-03 2.61899E-01-2.49567E-13 2.19068E-13
 -1       520 2.23016E+01 1.10704E+00-2.29119E-03 1.25023E+00-2.87144E-14 1.90694E-13
 -1       521 2.26414E+01 2.40801E-02-9.17470E-04 1.51906E+00-1.80078E-13 2.16699E-13
 -1       522 2.27370E+01-7.91132E-01-3.27707E-03 1.12715E+00-1.08090E-14 1.63790E-13
 -1       523 2.25284E+01-1.11616E+00-1.69375E-03 4.08366E-01 4.00083E-13 1.08729E-14
 -1       524 2.20990E+01-1.01287E+00-2.10839E-03-2.96700E-01 1.97550E-13 6.33240E-14
 -1       525 2.15852E+01-6.59677E-01-1.54502E-03-7.99684E-01-1.12502E-13-1.42072E-13
 -1       526 2.10824E+01-2.12456E-01-9.56159E-05-1.03088E+00-9.68219E-14 9.22297E-14
 -1       527 1.98083E+01 1.28742E-01 1.00138E-03-1.86962E-02 1.23261E-13-1.75855E-13
 -1       528 1.97502E+01 5.93881E-02 3.65683E-04-1.17100E-01 7.12780E-14-2.20430E-13
 -1       529 1.97312E+01 1.77697E-02 8.36659E-05-1.65232E-01 1.22961E-13-2.02895E-13
 -1       530 1.97372E+01-6.73446E-03-5.11783E-05-1.82071E-01 7.89368E-14-1.48971E-13
 -1       531 1.97577E+01-2.01869E-02-1.18652E-04-1.80067E-01 4.79277E-14-1.36490E-13
 -1       532 1.97858E+01-2.63138E-02-1.47492E-04-1.67577E-01 4.97587E-14-1.56036E-13
 -1       533 1.98170E+01-2.75083E-02-1.51263E-04-1.50290E-01 4.95479E-14-2.01573E-13
 -1       534 1.98488E+01-2.53275E-02-1.38092E-04-1.32124E-01 1.49383E-13-2.27116E-13
 -1       535 1.98799E+01-2.07611E-02-1.13040E-04-1.15837E-01 8.58038E-16-2.68045E-13
 -1       536 1.99101E+01-1.43873E-02-7.90638E-05-1.03444E-01-4.30130E-14-2.16671E-13
 -1       537 1.99401E+01-6.47204E-03-3.75265E-05-9.65395E-02 9.66229E-15-2.31124E-13
 -1       538 1.99711E+01 2.96308E-03 1.14291E-05-9.65346E-02 7.23723E-14-2.29493E-13
 -1       539 2.00048E+01 1.40888E-02 6.86259E-05-1.04844E-01 8.79295E-14-3.34159E-14
 -1       540 2.00434E+01 2.72252E-02 1.35624E-04-1.23026E-01 8.13161E-14-8.48907E-14
 -1       541 2.00894E+01 4.27990E-02 2.14434E-04-1.52881E-01-8.87384E-14 3.96550E-15
 -1       542 2.01459E+01 6.12892E-02 3.07145E-04-1.96502E-01-8.78177E-14-7.65743E-14
 -1       543 2.02163E+01 8.31419E-02 4.15291E-04-2.56274E-01 1.24132E-13-2.05321E-13
 -1       544 2.03043E+01 1.08621E-01 5.38699E-04-3.34768E-01 9.63338E-14-2.08564E-13
 -1       545 2.04139E+01 1.37539E-01 6.73432E-04-4.34492E-01-5.93799E-14-1.74063E-13
 -1       546 2.05492E+01 1.68778E-01 8.08227E-04-5.57385E-01-1.20601E-13-4.62531E-13
 -1       547 2.07145E+01 1.99449E-01 9.18793E-04-7.03895E-01-1.77072E-13-3.96440E-13
 -1       548 2.09143E+01 2.23518E-01 9.59691E-04-8.71393E-01-1.30973E-13-2.87129E-13
 -1       549 2.11538E+01 2.29697E-01 8.54940E-04-1.05159E+00-5.07315E-14-2.49286E-13
 -1       550 2.14403E+01 1.98671E-01 4.91349E-04-1.22658E+00-1.26057E-13-2.03256E-13
 -1       551 2.17858E+01 1.00523E-01-2.76093E-04-1.36319E+00-1.25388E-13-1.85539E-13
 -1       552 2.22098E+01-1.04441E-01-1.57220E-03-1.40596E+00 1.02390E-13-2.03071E-13
 -1       553 2.27391E+01-4.53397E-01-3.34295E-03-1.27109E+00 9.48955E-14-2.00336E-13
 -1       554 2.33934E+01-9.43394E-01-4.66507E-03-8.53078E-01-1.52425E-13 6.21956E-14
 -1       555 2.41658E+01-1.47541E+00-4.45132E-03-5.31936E-02-3.92750E-14 1.44198E-13
 -1       556 2.49035E+01-1.70616E+00-4.44614E-03 1.14668E+00-1.16809E-13 1.53497E-13
 -1       557 2.52966E+01-1.15224E+00-1.57099E-02 2.37954E+00 4.24023E-14 1.71988E-13
 -1       558 2.51118E+01 4.34104E-01-2.67014E-02 2.97167E+00-2.21125E-14 2.36183E-13
 -1       559 2.44102E+01 2.34663E+00-5.08954E-02 2.00727E+00-2.21266E-13 2.36638E-13
 -1       560 2.37851E+01 2.90974E+00-1.31482E-01-1.19041E-01-1.69071E-13 2.38557E-13
 -1       561 2.45278E+01 1.65238E+00-2.50356E-02-1.97584E+00-9.61739E-14-2.80304E-13
 -1       562 2.49157E+01-2.69847E-01-2.51291E-02-2.28058E+00-1.51335E-13-7.50413E-14
 -1       563 2.47461E+01-1.50865E+00-1.17065E-02-1.33740E+00-9.60009E-14-2.40652E-13
 -1       564 2.40484E+01-1.71030E+00-7.26849E-03-3.04791E-02 1.30646E-13-2.43309E-13
 -1       565 2.31430E+01-1.29085E+00-5.81040E-03 1.03459E+00 3.27323E-13-1.59993E-14
 -1       566 2.22797E+01-6.86094E-01-3.93807E-03 1.66007E+00 2.20555E-13-1.53112E-13
 -1       567 2.15527E+01-1.10672E-01-1.43332E-04 1.86632E+00 4.26415E-13-1.01693E-13
 -1       568 2.09463E+01 3.79881E-01 2.01520E-03 1.72765E+00 1.25089E-13 1.54954E-13
 -1       569 1.91745E+01 1.94055E+00-2.18561E-03 2.04322E+00 4.63189E-13-2.89802E-13
 -1       570 1.86165E+01 2.41833E+00-2.56853E-03 1.30482E+00 2.61355E-13-7.36473E-14
 -1       571 2.03946E+01 8.77360E-01 8.59930E-04 2.23082E+00 1.20553E-13 2.42483E-13
 -1       572 1.98224E+01 1.38039E+00-8.60915E-04 2.33667E+00 1.00823E-13-5.06684E-13
 -1       573 1.83610E+01 2.63580E+00-2.60647E-03 2.49222E-01-2.93778E-14-7.64631E-14
 -1       574 1.85186E+01 2.50080E+00-2.65098E-03-8.47520E-01-4.15141E-13-5.50200E-15
 -1       575 1.90163E+01 2.06661E+00-2.43247E-03-1.68917E+00-3.77784E-13 1.92448E-13
 -1       576 1.96340E+01 1.50446E+00-1.56256E-03-2.10310E+00-1.50826E-13-1.97886E-13
 -1       577 2.01826E+01 9.62059E-01-7.27843E-05-2.10865E+00 7.20937E-14-3.17128E-13
 -1       578 2.05333E+01 5.45613E-01 1.61350E-03-1.82560E+00-3.63076E-14 1.55790E-13
 -1       579 2.06739E+01 2.83470E-01-1.05853E-03-1.39730E+00-1.20980E-13-2.31386E-13
 -1       580 5.66306E+00-1.85798E+00 1.89031E-01 2.31371E+00-1.54116E-13-1.04333E-12
 -1       581 1.89049E+01-6.11912E+00 6.70732E-02 7.00130E+00-7.56339E-13-5.18821E-14
 -1       582 1.99234E+01 2.46117E-01 2.45720E-03 1.59572E-01 2.23619E-13-1.58977E-13
 -1       583 5.38403E+00-2.09619E+00 1.84314E-01-2.49647E+00 3.61239E-14-2.76501E-13
 -1       584 1.08110E+01-4.27959E+00 1.19231E-01 6.67927E+00-3.07566E-13-7.55562E-13
 -1       585 2.03970E+01 1.75557E+00-5.96377E-03-1.53754E+00-4.41058E-13-1.82013E-13
 -1       586 2.45601E+01-5.79936E+00 2.04820E-03-4.87223E+00 9.84421E-14-1.07688E-13
 -1       587 4.95121E+00-1.30401E+00 1.95346E-01 8.51752E-01 2.48550E-13-2.28526E-13
 -1       588 3.03457E+01-8.15865E-01-1.09261E-01 1.83120E+00 1.67814E-13-1.83985E-13
 -1       589 2.98058E+01 5.18621E+00-1.79702E-01-1.70632E+00 4.37705E-14-8.24361E-13
 -1       590 1.96816E+01 3.19761E+00-5.09531E-03-3.13027E-01-9.50628E-14-5.24961E-13
 -1       591 2.93139E+01 6.46287E+00-1.69595E-01 1.35338E+00 4.32543E-13-6.31939E-13
 -1       592 2.73257E+01-5.05431E+00-1.27459E-02-1.98852E+00-6.18602E-14-2.46005E-13
 -1       593 3.10750E+01 3.61370E+00-1.88656E-01 2.37173E+00 3.07268E-13-4.00936E-13
 -1       594 6.55739E+00-2.70427E+00 1.53604E-01-4.28310E+00 8.85889E-14-8.38801E-13
 -1       595 2.03555E+01-5.96053E+00 5.97341E-02-5.72943E+00-2.33889E-13-8.22049E-13
 -1       596 2.29441E+01-5.82367E+00 3.84364E-02 5.26045E+00 1.35503E-13-1.57228E-13
 -1       597 1.23451E+01-4.46753E+00 1.14086E-01-6.46905E+00 3.22450E-14-8.50674E-13
 -1       598 8.22841E+00-2.66425E+00 1.76150E-01 5.28490E+00 9.78384E-14 5.57346E-13
 -1       599 2.81010E+01-3.87882E+00-3.58022E-02 1.83253E+00 3.64398E-13-3.69531E-13
 -1       600 3.02294E+01-2.50556E-01-1.06328E-01-7.69831E-01 3.76203E-13-1.37113E-14
 -1       601 3.10517E+01 5.34759E+00-1.57186E-01-1.73664E+00 1.47049E-13 3.18107E-13
 -1       602 3.08914E+01 7.57088E+00-1.67229E-01-6.57763E-01 6.75432E-14 1.25015E-13
 -1       603 2.91246E+01 5.85564E+00-1.99193E-01 1.36204E+00-1.34545E-13 2.85539E-13
 -1       604 3.06136E+01 1.81058E+00-1.39864E-01 1.37603E+00-2.61596E-15-2.30739E-13
 -1       605 2.95719E+01-2.43308E+00-8.22047E-02-6.34520E-01 2.34772E-13-2.16521E-13
 -1       606 1.96113E+01-5.93060E+00 7.92135E-02-6.81814E+00 1.60018E-13-2.13950E-13
 -1       607 3.09843E+01 1.31649E+00-1.54251E-01-1.62287E+00-1.25608E-13-8.66855E-13
 -1       608 2.05847E+01 1.30518E+00-1.00025E-03 1.54836E+00 4.16296E-13-1.30629E-13
 -1       609 2.52809E+01-5.93779E+00-5.02730E-03 4.64810E+00-6.99829E-13-5.55063E-13
 -1       610 1.99729E+01 2.64896E+00-9.82542E-03-1.23958E+00-3.48241E-13-4.11105E-13
 -1       611 2.72299E+01-4.76226E+00-1.85386E-02-2.01519E+00-2.14624E-13 1.48912E-13
 -1       612 9.28013E+00-2.10778E+00 1.70011E-01-4.84312E+00 3.93376E-13-3.50719E-13
 -1       613 2.90775E+01 1.85555E+00-1.16257E-01-2.35927E+00 1.03473E-13 4.18797E-13
 -1       614 9.86134E+00-1.81833E+00 1.61853E-01 4.64616E+00-3.66120E-13-1.27540E-12
 -1       615 2.07661E+01 8.87068E-02 3.95491E-04-1.03053E+00-6.34535E-14 3.00983E-13
 -1       616 1.62834E+01-4.60426E+00 1.19183E-01-6.89491E+00 4.18485E-13 1.75079E-13
 -1       617 2.96968E+01 5.91751E+00-7.54326E-02-8.55137E-01 3.07428E-13-1.04386E-12
 -1       618 1.99612E+01 2.44867E+00-1.59201E-03 3.94440E-01 7.07889E-14-5.22565E-13
 -1       619 1.99294E+01 2.52360E+00-1.52138E-03 1.35897E-01 1.61451E-14-5.14413E-13
 -1       620 2.01207E+01 2.04554E+00-1.58194E-03 8.51029E-01 1.97737E-13-4.56374E-13
 -1       621 2.02395E+01 1.67500E+00-2.21865E-03 9.92506E-01 2.74308E-13-3.71718E-13
 -1       622 2.03188E+01 1.03658E+00 2.86067E-03 8.32265E-01 2.85683E-13-3.21053E-13
 -1       623 9.01559E+00-5.08899E-01 1.37062E-01 2.91703E+00 1.04134E-13-4.62824E-15
 -1       624 2.28566E+01-5.47122E+00 3.65626E-02-4.94915E+00-2.79048E-13 1.67884E-13
 -1       625 2.02392E+01 6.74574E-01 5.78837E-04-3.95461E-01-2.40517E-13-2.05366E-13
 -1       626 2.01671E+01 3.91409E-01 2.03720E-04-1.40971E-01-2.23441E-13-1.63067E-13
 -1       627 2.01017E+01 2.12095E-01 6.57291E-05 2.08531E-02-1.65853E-13-2.05213E-13
 -1       628 2.00516E+01 9.81329E-02 6.75788E-06 1.15865E-01-1.40410E-13-2.56283E-13
 -1       629 2.00167E+01 2.69875E-02-1.55051E-05 1.64873E-01-1.05337E-13-2.47642E-13
 -1       630 1.99945E+01-1.54516E-02-2.59305E-05 1.83593E-01-8.11389E-14-1.68226E-13
 -1       631 1.99820E+01-3.83497E-02-3.05984E-05 1.83537E-01-4.16902E-14-1.46441E-13
 -1       632 1.99765E+01-4.78237E-02-3.12143E-05 1.72995E-01-1.64575E-14-1.49835E-13
 -1       633 1.99759E+01-4.79952E-02-2.88588E-05 1.57900E-01-4.27032E-14-1.85365E-13
 -1       634 1.99787E+01-4.16058E-02-2.42898E-05 1.42497E-01-9.14478E-14-1.76201E-13
 -1       635 1.99840E+01-3.04001E-02-1.80460E-05 1.29881E-01-5.62276E-14-1.41875E-13
 -1       636 1.99913E+01-1.53883E-02-1.04064E-05 1.22397E-01-4.21618E-14-1.21194E-13
 -1       637 2.00003E+01 2.95327E-03-1.50176E-06 1.21951E-01-1.01325E-13-8.27371E-14
 -1       638 2.00109E+01 2.45139E-02 8.69084E-06 1.30227E-01-1.16458E-13 1.50968E-14
 -1       639 2.00235E+01 4.93898E-02 2.03020E-05 1.48834E-01-4.85481E-14 3.93319E-14
 -1       640 2.00385E+01 7.77115E-02 3.34738E-05 1.79374E-01-1.10643E-14-1.59777E-13
 -1       641 2.00562E+01 1.09433E-01 4.82499E-05 2.23439E-01-7.37649E-14-2.52541E-13
 -1       642 2.00775E+01 1.44054E-01 6.44285E-05 2.82510E-01-1.31400E-14-2.62850E-13
 -1       643 2.01035E+01 1.80237E-01 8.13495E-05 3.57742E-01 1.31787E-13-2.60300E-13
 -1       644 2.01355E+01 2.15291E-01 9.75843E-05 4.49615E-01 4.54276E-14-8.95150E-14
 -1       645 2.01762E+01 2.44460E-01 1.10493E-04 5.57402E-01-1.51599E-13-1.78085E-13
 -1       646 2.02294E+01 2.60035E-01 1.15601E-04 6.78421E-01-6.85946E-14-1.76431E-13
 -1       647 2.03015E+01 2.50322E-01 1.05732E-04 8.06999E-01 9.56744E-14-8.27937E-14
 -1       648 2.04033E+01 1.98729E-01 6.98416E-05 9.33085E-01 2.10125E-13-3.98915E-14
 -1       649 2.05514E+01 8.36051E-02-7.58699E-06 1.04036E+00 1.44126E-13 6.87209E-15
 -1       650 2.07702E+01-1.19794E-01-1.44917E-04 1.10371E+00 1.31242E-13 4.24774E-14
 -1       651 2.10918E+01-4.32559E-01-3.78441E-04 1.08593E+00 6.52926E-14 6.40921E-14
 -1       652 2.15511E+01-8.56064E-01-7.05741E-04 9.34379E-01-1.83572E-14 1.18626E-13
 -1       653 2.21673E+01-1.34091E+00-1.09867E-03 5.82031E-01-2.93681E-14 3.05520E-13
 -1       654 2.29077E+01-1.74083E+00-1.52045E-03-3.51992E-02-5.47481E-14 2.94446E-13
 -1       655 2.36347E+01-1.77513E+00-2.63765E-03-9.13696E-01 4.90022E-14 2.96041E-13
 -1       656 2.41015E+01-1.09180E+00-2.49770E-03-1.85551E+00-6.38964E-15 4.30847E-14
 -1       657 2.40341E+01 4.22665E-01-9.16416E-03-2.40141E+00-1.18535E-13 5.55194E-14
 -1       658 2.35746E+01 2.25502E+00-3.12100E-02-1.93563E+00-1.10777E-13-1.00679E-14
 -1       659 2.33260E+01 3.20107E+00-3.47721E-02-4.52188E-01-1.72029E-13 2.52330E-13
 -1       660 2.34324E+01 2.53066E+00-4.94911E-02 1.14481E+00-2.75533E-13 4.78607E-13
 -1       661 2.38577E+01 7.40021E-01-6.06465E-02 1.85252E+00-2.17105E-13 1.23239E-13
 -1       662 2.41148E+01-9.03510E-01-1.81490E-03 1.43664E+00-1.57209E-14 2.11615E-13
 -1       663 2.36617E+01-1.77303E+00-9.68595E-04 4.32045E-01 2.63648E-13 3.30469E-13
 -1       664 2.29118E+01-1.77049E+00-1.10183E-03-4.92603E-01 1.11803E-13 4.93478E-14
 -1       665 2.21086E+01-1.28396E+00-1.15638E-03-1.13429E+00-1.20765E-13-1.58472E-14
 -1       666 2.14071E+01-6.15956E-01-5.38308E-04-1.44300E+00-4.03673E-14-1.33584E-13
 -1       667 1.99725E+01 8.77409E-02 5.51232E-05-1.18179E-01 1.06519E-13-2.11856E-13
 -1       668 2.79052E+01 5.69574E+00-1.60291E-01-1.66895E+00 3.40422E-13 2.82734E-13
 -1       669 2.00262E+01 1.89017E-01 1.78735E-04-1.97366E-02 1.31538E-13-2.07696E-13
 -1       670 1.99253E+01-1.23001E-02-2.84795E-05-1.87024E-01 5.25659E-14-1.60853E-13
 -1       671 1.99212E+01-3.26209E-02-4.34711E-05-1.86448E-01 9.22083E-14-1.82118E-13
 -1       672 1.99246E+01-4.13630E-02-4.88425E-05-1.75069E-01 5.99979E-14-1.67579E-13
 -1       673 1.99326E+01-4.21409E-02-4.75678E-05-1.58892E-01 8.22491E-14-1.63632E-13
 -1       674 1.99436E+01-3.73347E-02-4.15336E-05-1.42183E-01 8.28653E-14-2.91980E-15
 -1       675 1.99564E+01-2.84458E-02-3.19744E-05-1.28029E-01-1.92404E-14-4.53601E-14
 -1       676 1.99708E+01-1.63186E-02-1.95247E-05-1.18766E-01-9.28097E-15-1.36765E-13
 -1       677 1.99866E+01-1.29065E-03-4.44151E-06-1.16311E-01 3.19105E-14-1.42779E-13
 -1       678 2.00042E+01 1.66930E-02 1.33911E-05-1.22410E-01-5.34843E-14-8.00806E-14
 -1       679 2.00244E+01 3.79884E-02 3.44558E-05-1.38829E-01 1.87037E-14 5.66292E-14
 -1       680 2.00478E+01 6.31702E-02 5.94329E-05-1.67484E-01 7.80407E-15 9.60026E-14
 -1       681 2.00755E+01 9.29416E-02 8.91500E-05-2.10526E-01-6.10187E-15-8.06144E-14
 -1       682 2.01084E+01 1.28012E-01 1.24445E-04-2.70357E-01 7.35286E-14-1.83300E-13
 -1       683 2.01473E+01 1.68905E-01 1.65933E-04-3.49578E-01 1.41947E-13-1.16309E-13
 -1       684 2.01932E+01 2.15636E-01 2.13572E-04-4.50822E-01 5.09966E-14-8.05793E-14
 -1       685 2.02467E+01 2.67159E-01 2.65888E-04-5.76437E-01-3.53198E-14-3.75898E-14
 -1       686 2.03086E+01 3.20423E-01 3.18639E-04-7.27948E-01-5.96841E-14-9.07665E-14
 -1       687 2.03804E+01 3.68825E-01 3.62704E-04-9.05189E-01-2.10394E-13-2.55133E-13
 -1       688 2.04656E+01 3.99798E-01 3.81105E-04-1.10497E+00-1.06793E-14-2.92019E-13
 -1       689 2.05731E+01 3.91349E-01 3.45000E-04-1.31907E+00-2.07927E-13-2.36955E-13
 -1       690 2.07218E+01 3.07846E-01 2.06153E-04-1.53124E+00-1.14120E-13-8.31190E-14
 -1       691 2.09498E+01 9.66956E-02-1.22553E-04-1.71232E+00 6.86299E-15-2.15907E-13
 -1       692 2.13246E+01-3.08822E-01-7.45123E-04-1.81136E+00 5.86901E-14-8.05101E-14
 -1       693 2.19486E+01-9.64807E-01-1.65125E-03-1.73749E+00-1.27857E-13 8.64486E-15
 -1       694 2.29291E+01-1.83342E+00 1.13355E-03-1.34770E+00-2.24910E-13-1.35450E-13
 -1       695 2.43136E+01-2.68726E+00-1.73933E-02-4.57052E-01-1.78368E-13 1.08092E-13
 -1       696 2.61387E+01-2.93280E+00 1.38045E-03 1.05345E+00 3.76201E-14 9.19386E-14
 -1       697 2.69278E+01-1.18641E+00-4.80117E-02 2.58445E+00 7.10629E-14 1.08932E-13
 -1       698 2.66344E+01-2.10449E+00-3.26613E-02-1.43240E+00-3.48194E-14-7.15910E-13
 -1       699 2.51563E+01-3.00316E+00-6.54264E-03 3.07265E-01-1.02685E-13-5.28207E-13
 -1       700 2.35460E+01-2.44080E+00 9.30391E-04 1.59386E+00-7.59813E-14-2.52408E-13
 -1       701 2.22623E+01-1.45327E+00-3.99969E-04 2.25586E+00 3.41598E-13-7.91096E-15
 -1       702 2.13813E+01-4.83708E-01 8.47331E-04 2.43642E+00 1.53680E-13 1.59083E-14
 -1       703 2.07975E+01 2.06345E-01 7.40581E-04 2.43511E+00 2.05252E-13 1.06359E-13
 -1       704 1.72608E+01 1.93798E+00 9.42960E-04-4.60229E-01-1.35517E-13-3.03894E-13
 -1       705 2.10145E+01-1.48348E-01 1.81425E-03-1.47522E+00-9.46051E-15-2.38040E-13
 -1       706 1.81473E+01 1.45076E+00-4.92192E-04 2.18459E+00 4.28394E-13-5.03991E-13
 -1       707 1.78987E+01 1.53052E+00-4.43082E-05-1.75463E+00-4.63594E-13 2.17712E-13
 -1       708 1.73613E+01 1.89811E+00 1.02545E-03 1.01428E+00 1.48274E-14-4.92459E-13
 -1       709 8.46949E+00-2.54799E-01 1.68819E-01-2.97871E-01-2.68313E-13-7.16066E-13
 -1       710 1.89365E+01 8.93708E-01-9.55701E-04-2.49165E+00-4.06030E-13 1.05712E-13
 -1       711 1.99825E+01 2.80418E-01-5.99331E-04-2.62072E+00-1.92994E-13-1.75266E-13
 -1       712 2.07127E+01-1.15810E-01 4.30340E-04-2.29058E+00-3.87621E-14-3.01655E-14
 -1       713 1.37509E+01-3.30889E+00 1.03190E-01 6.16026E+00-7.68066E-14 2.24827E-13
 -1       714 1.67500E+01-4.42724E+00 8.43816E-02 6.54677E+00-4.10651E-13-5.65513E-13
 -1       715 2.02806E+01 1.67868E+00 7.39621E-05-1.14124E+00-3.64494E-13-2.72325E-13
 -1       716 2.71319E+01 2.04633E-01-9.84998E-02-2.46260E+00-3.28675E-13-6.61745E-13
 -1       717 1.73506E+01-3.99662E+00 1.00160E-01-5.52516E+00 8.99454E-14-6.42493E-13
 -1       718 2.01047E+01 3.52748E-01 6.35322E-04 1.50184E-01 1.73581E-13-1.91411E-13
 -1       719 2.79325E+01-3.34983E+00-2.32149E-02 1.03197E+00 1.28122E-13-1.93096E-13
 -1       720 1.99408E+01 2.50390E-02 9.17052E-08-1.68285E-01 8.08738E-14-2.00601E-13
 -1       721 2.66986E+01-4.87387E+00-1.43249E-02 1.89169E+00-4.34239E-13-2.17174E-13
 -1       722 2.02907E+01 1.07606E+00-1.41952E-04-7.24008E-01-2.98633E-13-2.49444E-13
 -1       723 2.02054E+01 6.13504E-01 9.81033E-04 4.21216E-01 2.48742E-13-2.60777E-13
 -1       724 2.70992E+01 2.38078E+00-9.75631E-02 2.07482E+00-2.15286E-13 5.62425E-13
 -1       725 2.04249E+01-5.17531E+00 5.59861E-02 5.52435E+00-9.97119E-14-3.79008E-13
 -1       726 2.00248E+01 2.29421E+00-1.65460E-03 6.38375E-01 1.32135E-13-5.06948E-13
 -1       727 2.00191E+01 2.30486E+00-1.56711E-03-6.29988E-01-2.05336E-13-4.24263E-13
 -1       728 2.42747E+01-5.21028E+00-1.86897E-02-2.89135E+00-6.96387E-14-4.57985E-13
 -1       729 2.79978E+01 1.04484E+00-1.38785E-01 3.26831E+00 1.28224E-13 1.15189E-13
 -1       730 2.55407E+01-4.93584E+00 3.50507E-03 2.37809E+00 7.94816E-14-3.68263E-13
 -1       731 8.05151E+00-5.25939E-01 1.43783E-01-2.07023E+00 2.71146E-13-6.15431E-13
 -1       732 2.28197E+01-5.65302E+00 3.97365E-02 5.05553E+00-7.30076E-13-2.30911E-13
 -1       733 1.15827E+01-2.19677E+00 1.34388E-01-5.04095E+00 1.68858E-13-7.96023E-13
 -1       734 2.77757E+01-2.63282E+00-7.53717E-02-7.09027E-01 4.48339E-14-2.19363E-13
 -1       735 2.69215E+01 5.91187E+00-1.53561E-01 2.91429E-01-1.14818E-13 3.55472E-13
 -1       736 2.79396E+01-5.18715E-01-8.27664E-02 1.56895E+00-5.88453E-14 6.32935E-13
 -1       737 1.99284E+01 2.52530E+00-1.52279E-03-1.26625E-01-5.94470E-14-4.98093E-13
 -1       738 9.85319E+00 3.76695E-01 1.00376E-01 3.23526E-01 3.04617E-13-4.21246E-13
 -1       739 2.80893E+01-2.59278E+00-5.25325E-02-9.71989E-01-3.00066E-13-7.25271E-13
 -1       740 2.71040E+01-2.64326E+00-1.78487E-02 5.30780E-01-1.66988E-13 9.41051E-13
 -1       741 1.03772E+01-2.98477E-01 1.30651E-01-2.49224E+00-1.05853E-13-8.74724E-13
 -1       742 2.69253E+01 3.11348E+00-1.04108E-01-2.52670E+00 1.68480E-13 2.46489E-13
 -1       743 1.92559E+01 8.44228E-01-2.56149E-03 2.74196E+00 6.24521E-13-2.83237E-13
 -1       744 2.17754E+01-4.39591E+00 2.92736E-02-3.79685E+00-2.10942E-15-5.64664E-13
 -1       745 1.04230E+01-1.29240E-01 1.25521E-01 2.10304E+00-2.95665E-13-1.35275E-12
 -1       746 2.01356E+01 4.61005E-01 4.03514E-04 2.72799E+00 1.47251E-13-1.39717E-13
 -1       747 1.25693E+01-1.27612E+00 8.38194E-02 4.47094E+00-1.74234E-13 3.48919E-13
 -1       748 1.45372E+01-2.36376E+00 1.09366E-01 5.57542E+00-4.27214E-13-5.17652E-13
 -1       749 2.01194E+01 2.06278E+00-1.17927E-03-8.54847E-01-2.83537E-13-3.75975E-13
 -1       750 1.99580E+01 2.45448E+00-1.55875E-03-3.84703E-01-1.32065E-13-4.29990E-13
 -1       751 2.02079E+01-4.53759E+00 7.43546E-02-5.73394E+00-5.69336E-14 2.66584E-13
 -1       752 1.42309E+01-2.77471E+00 1.01762E-01-5.94936E+00 9.85635E-14 2.06373E-13
 -1       753 2.11459E+01-4.58274E-01 1.68218E-03-1.91904E+00-2.57125E-13-9.58137E-14
 -1       754 2.02719E+01 1.30079E+00 8.28009E-04 6.31579E-01 1.83922E-13-3.60976E-13
 -1       755 2.02624E+01 4.32416E-01-3.18053E-05-9.48913E-02-1.95164E-13-2.39162E-13
 -1       756 2.02226E+01 2.34017E-01-1.43977E-05 3.45918E-02-1.74400E-13-2.35484E-13
 -1       757 2.01814E+01 1.04225E-01-1.44653E-05 1.11945E-01-1.48296E-13-2.45056E-13
 -1       758 2.01441E+01 2.22154E-02-1.13090E-05 1.52021E-01-4.61228E-14-2.60277E-13
 -1       759 2.01126E+01-2.63931E-02-9.57416E-06 1.67046E-01-2.88530E-14-2.29688E-13
 -1       760 2.00870E+01-5.16199E-02-8.45991E-06 1.66499E-01-3.68159E-14-1.42711E-13
 -1       761 2.00667E+01-6.04519E-02-7.63661E-06 1.57472E-01-5.70956E-14-1.37561E-13
 -1       762 2.00512E+01-5.77065E-02-6.76996E-06 1.45178E-01-1.78576E-14-1.62469E-13
 -1       763 2.00394E+01-4.66002E-02-5.67635E-06 1.33442E-01-3.48408E-14-2.00349E-13
 -1       764 2.00305E+01-2.91469E-02-4.08852E-06 1.25123E-01-5.04966E-14-1.46195E-13
 -1       765 2.00238E+01-6.46616E-03-2.12076E-06 1.22468E-01-6.23629E-14-1.37179E-13
 -1       766 2.00185E+01 2.09630E-02 9.50153E-08 1.27364E-01-6.13392E-14-1.71146E-13
 -1       767 2.00138E+01 5.30788E-02 2.57973E-06 1.41535E-01-8.05668E-14-2.00062E-13
 -1       768 2.00089E+01 9.00137E-02 5.41832E-06 1.66659E-01-1.67948E-13-2.30847E-13
 -1       769 2.00030E+01 1.31842E-01 8.70587E-06 2.04426E-01-5.98210E-14-2.35347E-13
 -1       770 1.99956E+01 1.78270E-01 1.25348E-05 2.56532E-01-4.28670E-14-1.92690E-13
 -1       771 1.99860E+01 2.28226E-01 1.69834E-05 3.24589E-01 1.18328E-13-2.14627E-13
 -1       772 1.99744E+01 2.79316E-01 2.21001E-05 4.09961E-01 2.13611E-13-2.63106E-13
 -1       773 1.99615E+01 3.27103E-01 2.78852E-05 5.13516E-01-6.33521E-14-8.89179E-14
 -1       774 1.99497E+01 3.64156E-01 3.42534E-05 6.35276E-01-1.37938E-13-2.75143E-14
 -1       775 1.99444E+01 3.78889E-01 4.08651E-05 7.73950E-01 2.48088E-14-6.47127E-14
 -1       776 1.99554E+01 3.54265E-01 4.65057E-05 9.26268E-01 1.71987E-13-7.76598E-14
 -1       777 1.99999E+01 2.66661E-01 4.78590E-05 1.08593E+00 2.18995E-13-1.54706E-13
 -1       778 2.01060E+01 8.56685E-02 4.22432E-05 1.24169E+00 1.85525E-13-6.92030E-14
 -1       779 2.03164E+01-2.23482E-01 3.89883E-05 1.37347E+00 1.34595E-13 1.53464E-14
 -1       780 2.06911E+01-6.91311E-01-3.58397E-05 1.44503E+00-1.09462E-13-2.43484E-14
 -1       781 2.13047E+01-1.32234E+00 9.53427E-06 1.39053E+00 3.82549E-14 1.74361E-14
 -1       782 2.22157E+01-2.04125E+00-1.76501E-04 1.10187E+00-6.96665E-14-7.99363E-14
 -1       783 2.34225E+01-2.61450E+00 1.63645E-03 4.31493E-01-2.48017E-15 1.31807E-13
 -1       784 2.47073E+01-2.53690E+00-5.17406E-03-7.16502E-01 1.57086E-13 1.77721E-13
 -1       785 2.55595E+01-1.14787E+00-3.50640E-02-1.93853E+00-9.60733E-14 2.09680E-13
 -1       786 2.52105E+01 4.53025E+00-1.19673E-01 5.47014E-01-1.05672E-13 3.60397E-13
 -1       787 2.38461E+01-2.70740E+00-1.25428E-04-9.02460E-01-4.83067E-14 1.16226E-13
 -1       788 2.26015E+01-2.06914E+00-2.88098E-04-1.67700E+00-1.75426E-14 1.32695E-13
 -1       789 2.17626E+01-1.25832E+00 4.45153E-04-1.90576E+00-1.91373E-13 2.67092E-13
 -1       790 2.00430E+01-4.59472E-02-1.38913E-05-1.75503E-01 1.89940E-14-1.57438E-13
 -1       791 2.00629E+01-2.16896E-02-1.28233E-05-1.76040E-01 8.41077E-14-1.81125E-13
 -1       792 2.00201E+01-5.38240E-02-1.25925E-05-1.51919E-01-2.86963E-14-8.28561E-14
 -1       793 2.00149E+01-4.48856E-02-1.04958E-05-1.38471E-01 5.97899E-15-8.05375E-14
 -1       794 2.00125E+01-3.01955E-02-7.49040E-06-1.28282E-01 9.18771E-15-7.58829E-14
 -1       795 2.00123E+01-1.07288E-02-3.76848E-06-1.23702E-01 1.65159E-14-1.70335E-13
 -1       796 2.00137E+01 1.32098E-02 5.11681E-07-1.26721E-01-7.26595E-14-9.23360E-14
 -1       797 2.00162E+01 4.18249E-02 5.57490E-06-1.39196E-01-3.34660E-14-9.93383E-14
 -1       798 2.00192E+01 7.56960E-02 1.15704E-05-1.63002E-01-7.43509E-14-7.29026E-14
 -1       799 2.00220E+01 1.15647E-01 1.87310E-05-2.00145E-01 2.19269E-14-3.41753E-14
 -1       800 2.00239E+01 1.62590E-01 2.73537E-05-2.52800E-01 2.35443E-14 6.32899E-14
 -1       801 2.00235E+01 2.17314E-01 3.77879E-05-3.23297E-01 7.05068E-14 6.94529E-14
 -1       802 2.00193E+01 2.80161E-01 5.04229E-05-4.14041E-01 9.13263E-15 1.05370E-13
 -1       803 2.00092E+01 3.50501E-01 6.56676E-05-5.27350E-01 2.53047E-15 1.59339E-13
 -1       804 1.99909E+01 4.25888E-01 8.39243E-05-6.65236E-01 1.04849E-13 2.77339E-14
 -1       805 1.99623E+01 5.00691E-01 1.05602E-04-8.29142E-01 1.84800E-14-1.40626E-13
 -1       806 1.99226E+01 5.63960E-01 1.31274E-04-1.01967E+00-1.57223E-13-3.75891E-13
 -1       807 1.98753E+01 5.96245E-01 1.61920E-04-1.23643E+00-1.14389E-13-2.41669E-13
 -1       808 1.98325E+01 5.65207E-01 1.98435E-04-1.47788E+00-1.22127E-13-3.84847E-13
 -1       809 1.98236E+01 4.20298E-01 2.27827E-04-1.74098E+00 3.25110E-14-5.03235E-13
 -1       810 1.99093E+01 8.79136E-02 1.73471E-04-2.01885E+00 1.01442E-15-3.73992E-13
 -1       811 2.02014E+01-5.28543E-01-7.80171E-04-2.29110E+00-6.64695E-14-2.58033E-13
 -1       812 2.09131E+01-1.52075E+00-3.99069E-03-2.46622E+00-2.16496E-13-2.12303E-13
 -1       813 2.23412E+01-2.85226E+00 1.63213E-02-2.40453E+00-2.90408E-13-2.69179E-13
 -1       814 2.08161E+01-9.35780E-01 3.25862E-04 3.10006E+00 3.24785E-13 1.61350E-13
 -1       815 2.03791E+01-2.05467E-01-4.03589E-03 2.95397E+00 3.18876E-13-1.26891E-13
 -1       816 1.61761E+01 1.16106E+00 6.73838E-03-1.60582E+00-4.34590E-13-7.71325E-13
 -1       817 2.08048E+01-9.51172E-01 9.37268E-04-2.80557E+00-4.08725E-13-6.38056E-14
 -1       818 2.27269E+01-4.43376E+00 1.47293E-02 3.28336E+00 1.15619E-15-2.99068E-13
 -1       819 1.76828E+01 3.80271E-01 4.15115E-03-2.86664E+00-6.51349E-13 4.79111E-13
 -1       820 2.64884E+01 3.88667E+00-8.90446E-02 1.58470E+00-3.17388E-13 3.32368E-13
 -1       821 2.02762E+01 9.43304E-01 2.90674E-05 5.53857E-01 2.07419E-13-3.09662E-13
 -1       822 1.94652E+01-4.53715E-01 2.15646E-03-3.21150E+00-4.11579E-13 1.12448E-13
 -1       823 2.18900E+01-2.33531E+00-6.96252E-03 3.16413E+00 8.52465E-14-8.74609E-14
 -1       824 2.37088E+01-3.85313E+00-2.30304E-04 2.77088E+00-3.27688E-13-6.87853E-14
 -1       825 2.02196E+01 4.14064E-01-1.10137E-04 1.12408E-01 1.55511E-13-2.04784E-13
 -1       826 2.00291E+01-5.51665E-02-1.38077E-05-1.65613E-01 2.78835E-14-1.41631E-13
 -1       827 2.01709E+01 2.23716E-01-5.04374E-06-3.10450E-02 1.16795E-13-1.83544E-13
 -1       828 2.02892E+01 7.30553E-01-3.63459E-05-2.92483E-01-2.01233E-13-2.89191E-13
 -1       829 1.81442E+01-3.35564E+00 6.00022E-02 5.07022E+00-8.88577E-14-2.75713E-13
 -1       830 2.51100E+01-4.55674E+00-9.43777E-03-2.39096E+00-3.72598E-13 2.91055E-13
 -1       831 2.67902E+01-1.51064E-01-5.95419E-02-2.42262E+00-1.75679E-13 1.41887E-13
 -1       832 1.54677E+01-1.97139E+00 5.63801E-02-4.56504E+00 1.76529E-13-7.19202E-13
 -1       833 2.60221E+01 5.16159E+00-1.22137E-01-1.15143E+00 2.47316E-13 4.23543E-13
 -1       834 2.58525E+01-3.63340E+00-1.92192E-02 1.24859E-01 1.27763E-13-1.38292E-13
 -1       835 2.01402E+01 1.88786E+00-3.53788E-04 1.99359E-01 4.20683E-14-4.54875E-13
 -1       836 1.19430E+01-3.68208E-01 8.70171E-02-3.19336E+00 3.23035E-13-7.13228E-13
 -1       837 2.01278E+01 1.92599E+00-5.61451E-04 3.69409E-03-1.00706E-14-4.39930E-13
 -1       838 1.14426E+01 1.34555E-01 6.76397E-02 2.35995E+00 2.64229E-13-1.80182E-13
 -1       839 1.07128E+01 3.08278E-01 1.00745E-01-7.87354E-02-3.65144E-13-1.00702E-12
 -1       840 2.02538E+01 6.29722E-01-4.77104E-04 2.97740E-01 1.52887E-13-2.52364E-13
 -1       841 1.81971E+01 3.02822E-01 5.98165E-03 3.14394E+00 2.06242E-13-5.68949E-13
 -1       842 2.49885E+01-2.46809E+00-2.71437E-02 2.77477E-01 2.71476E-14 5.81795E-13
 -1       843 2.00903E+01 2.41855E-02-9.94598E-06-1.59594E-01 4.96288E-14-1.74583E-13
 -1       844 1.91162E+01-2.62113E+00 3.21575E-02-3.92678E+00 6.39818E-14-4.45706E-13
 -1       845 1.33812E+01-5.41921E-01 6.84976E-02 3.76487E+00-2.66156E-13-1.01034E-12
 -1       846 2.62081E+01-4.29879E+00-1.54426E-02 1.34505E+00-4.72001E-13-4.05355E-13
 -1       847 1.65075E+01 1.06740E+00 7.86842E-03 2.13560E+00 2.53035E-13-5.99296E-13
 -1       848 2.02199E+01 1.58165E+00-2.42659E-04 5.34979E-01 1.00615E-13-4.21653E-13
 -1       849 1.56723E+01 1.45536E+00 8.75367E-03 3.25291E-01-2.83630E-14-5.59606E-13
 -1       850 1.88732E+01-3.44641E+00 7.11847E-02 5.43935E+00-7.80521E-14-2.05827E-13
 -1       851 2.02153E+01 1.59147E+00-9.04947E-04-5.28137E-01-2.16547E-13-3.33321E-13
 -1       852 2.01726E+01 1.77472E+00-3.54488E-04 3.81802E-01 8.18943E-14-4.88911E-13
 -1       853 2.02882E+01 1.12387E+00 2.28451E-04-5.36723E-01-2.41465E-13-3.05803E-13
 -1       854 2.60347E+01 1.49593E-01 1.12743E-02 1.86414E+00-3.10580E-13 8.06152E-13
 -1       855 2.34429E+01-4.42013E+00 2.40621E-02-3.57584E+00-1.06986E-13 3.35489E-13
 -1       856 2.01263E+01 1.01265E-01-8.38534E-06-1.15828E-01 8.23081E-14-1.68898E-13
 -1       857 1.35415E+01-9.09989E-01 6.97829E-02-4.13694E+00-6.76594E-14-3.31225E-13
 -1       858 2.01689E+01 1.78225E+00-3.20986E-04-3.74197E-01-1.51120E-13-3.69730E-13
 -1       859 2.13743E+01-1.18134E+00-1.34798E-03-2.39864E+00-5.26818E-13-1.84311E-13
 -1       860 2.03316E+01 4.30167E-01-6.30149E-05-4.75793E-02-1.69235E-13-2.51495E-13
 -1       861 2.03061E+01 2.27720E-01-1.88147E-05 4.65167E-02-1.38989E-13-1.94295E-13
 -1       862 2.02701E+01 9.34810E-02-1.20352E-05 1.02578E-01-1.06372E-13-1.72948E-13
 -1       863 2.02311E+01 8.78570E-03-6.59047E-06 1.31038E-01-4.17035E-14-1.86304E-13
 -1       864 2.01931E+01-4.02943E-02-2.81664E-06 1.40903E-01-1.13533E-14-1.93209E-13
 -1       865 2.01583E+01-6.39509E-02-1.03902E-06 1.39382E-01-5.83555E-14-2.41016E-13
 -1       866 2.01275E+01-6.94924E-02-1.06282E-06 1.32007E-01-9.78099E-14-2.68065E-13
 -1       867 2.01006E+01-6.20159E-02-1.98683E-06 1.22920E-01-8.70737E-14-2.80037E-13
 -1       868 2.00772E+01-4.48907E-02-2.08881E-06 1.15221E-01 3.52606E-14-2.21958E-13
 -1       869 2.00564E+01-2.01645E-02-1.63738E-06 1.11303E-01-1.51400E-14-1.92277E-13
 -1       870 2.00369E+01 1.10914E-02-1.26559E-06 1.13114E-01-1.00125E-13-1.56134E-13
 -1       871 2.00175E+01 4.84911E-02-1.09195E-06 1.22359E-01-5.90067E-14-1.59088E-13
 -1       872 1.99964E+01 9.20676E-02-1.03085E-06 1.40655E-01-1.49824E-13-1.10364E-13
 -1       873 1.99720E+01 1.41987E-01-1.01537E-06 1.69635E-01-6.30796E-14-1.15917E-13
 -1       874 1.99424E+01 1.98222E-01-9.91670E-07 2.11002E-01-9.05601E-14-1.57300E-13
 -1       875 1.99059E+01 2.60149E-01-8.91793E-07 2.66550E-01 7.07488E-14-2.01698E-13
 -1       876 1.98607E+01 3.26029E-01-6.04815E-07 3.38141E-01 1.65502E-13-1.55496E-13
 -1       877 1.98059E+01 3.92340E-01 7.57204E-08 4.27668E-01 1.33674E-13-1.88763E-13
 -1       878 1.97414E+01 4.52912E-01 1.56525E-06 5.37025E-01-3.93037E-14-2.59271E-13
 -1       879 1.96694E+01 4.97834E-01 4.66449E-06 6.68104E-01 1.72671E-14-8.78084E-15
 -1       880 1.95957E+01 5.12124E-01 1.05627E-05 8.22838E-01-5.35980E-15-9.78258E-14
 -1       881 1.95322E+01 4.74222E-01 2.01032E-05 1.00320E+00 1.77159E-13-1.99185E-13
 -1       882 1.95001E+01 3.54484E-01 3.46526E-05 1.21084E+00 2.20206E-13-1.47915E-13
 -1       883 1.95360E+01 1.14229E-01 8.57701E-05 1.44554E+00 2.39319E-13-1.60460E-13
 -1       884 1.96992E+01-2.93399E-01 3.24348E-04 1.70007E+00 6.48055E-16-1.96073E-13
 -1       885 2.00806E+01-9.15417E-01 7.58496E-04 1.94721E+00-1.24941E-14-1.57365E-13
 -1       886 2.08211E+01-1.78434E+00 1.11065E-03 2.11052E+00-1.01295E-13-1.93335E-13
 -1       887 2.20613E+01-2.80928E+00 6.52160E-03 2.03414E+00 2.22894E-13-5.16191E-14
 -1       888 2.03018E+01 4.29383E-01-2.24915E-05 6.47543E-02 9.46785E-14-2.57102E-13
 -1       889 2.01596E+01-3.45040E-02-2.12450E-06-1.54032E-01 2.28197E-15-1.49166E-13
 -1       890 2.00628E+01-4.60915E-02-1.30133E-06-1.24449E-01-2.63246E-15-1.37323E-13
 -1       891 2.00810E+01-6.06150E-02-2.17558E-06-1.33890E-01 1.77814E-14-9.35892E-14
 -1       892 2.00338E+01 3.62828E-03 3.73238E-08-1.18952E-01-5.20608E-14-1.68709E-13
 -1       893 2.00206E+01 3.77164E-02 5.95020E-07-1.26841E-01-7.77903E-14-1.75573E-13
 -1       894 2.00064E+01 7.82996E-02 1.31105E-06-1.44160E-01-3.93750E-14-1.47885E-13
 -1       895 1.99894E+01 1.26172E-01 2.24186E-06-1.72641E-01-4.13495E-14-2.26965E-13
 -1       896 1.99675E+01 1.82335E-01 3.48157E-06-2.14085E-01-1.08734E-13-2.13845E-13
 -1       897 1.99379E+01 2.47766E-01 5.16812E-06-2.70366E-01-7.61439E-16-1.33907E-13
 -1       898 1.98975E+01 3.23115E-01 7.51153E-06-3.43388E-01 9.80380E-14-1.84759E-13
 -1       899 1.98422E+01 4.08257E-01 1.08443E-05-4.35022E-01-1.27489E-14-1.76234E-13
 -1       900 1.97672E+01 5.01614E-01 1.57307E-05-5.47038E-01 8.31723E-14-2.27608E-13
 -1       901 1.96673E+01 5.99138E-01 2.32906E-05-6.81143E-01 3.85618E-14-2.10138E-13
 -1       902 1.95372E+01 6.92759E-01 3.62205E-05-8.39271E-01 5.69773E-14-2.07651E-13
 -1       903 1.93726E+01 7.68089E-01 6.14720E-05-1.02438E+00-1.14229E-13-3.34154E-13
 -1       904 1.91736E+01 8.01126E-01 1.14800E-04-1.24208E+00-7.74731E-14-3.67671E-13
 -1       905 1.89482E+01 7.53776E-01 2.34506E-04-1.50348E+00-4.23649E-14-3.91545E-13
 -1       906 1.87229E+01 5.67722E-01 5.98224E-04-1.82882E+00 2.25167E-14-3.42220E-13
 -1       907 1.85533E+01 1.58041E-01 6.92049E-04-2.25364E+00-7.45458E-14-3.82324E-13
 -1       908 1.85880E+01-5.95791E-01 2.10805E-03-2.80874E+00-2.08064E-13-3.41525E-13
 -1       909 1.94564E+01-4.10692E-02 5.96361E-04 3.20615E+00 4.19426E-13 8.46960E-14
 -1       910 2.38354E+01-3.49943E+00 5.13957E-03 1.22320E+00 2.55955E-14-3.69585E-14
 -1       911 1.56867E+01 9.13317E-02 3.12992E-02-3.17030E+00-3.87315E-13-1.97487E-13
 -1       912 1.60765E+01-1.44476E+00 3.08588E-02 4.08835E+00-2.77005E-13 1.82614E-14
 -1       913 2.00474E+01-2.43648E-02-3.60506E-07-1.18767E-01 1.81617E-14-1.73779E-13
 -1       914 2.27801E+01-2.97284E+00 9.75939E-03-2.61332E+00-6.72392E-14 4.12917E-13
 -1       915 2.04734E+01-3.08113E+00 1.47276E-02 3.54571E+00 1.60909E-14-1.78001E-13
 -1       916 2.03342E+01 7.27368E-01 6.81763E-06-1.89993E-01-1.67916E-13-2.95454E-13
 -1       917 1.64928E+01-1.56580E+00 6.03124E-02 4.70066E+00-1.77111E-13-1.91843E-13
 -1       918 2.01380E+01 1.89126E+00-5.15195E-04-1.91238E-01-9.23863E-14-3.80786E-13
 -1       919 1.26909E+01 7.33735E-01 3.88346E-02-1.13743E+00 3.57425E-13-5.56635E-13
 -1       920 1.77544E+01-2.43347E+00 4.68913E-02-5.11238E+00-2.80834E-14 4.33330E-13
 -1       921 1.51747E+01-4.62482E-01 4.66738E-02-3.29985E+00 1.08554E-13-6.04616E-13
 -1       922 1.95475E+01-1.42919E+00 2.03777E-02 4.00280E+00-8.76070E-14-2.22427E-13
 -1       923 1.44729E+01-1.18207E-01 2.63441E-02 2.99218E+00-2.77703E-14-2.41753E-13
 -1       924 1.26106E+01 2.81417E-01 1.10218E-01 2.10679E+00-2.82365E-13-1.41299E-12
 -1       925 2.03075E+01 6.66992E-01 6.23848E-04 2.08144E-01 1.24202E-13-2.99535E-13
 -1       926 2.03036E+01 1.10307E+00 1.65932E-04-3.49187E-01-1.92840E-13-2.96302E-13
 -1       927 2.10037E+01-3.12270E+00 1.77045E-02-4.19223E+00-7.46549E-14 1.43250E-13
 -1       928 2.01289E+01-5.89020E-02-2.27765E-06-1.52727E-01 3.34675E-15-6.90213E-14
 -1       929 2.02701E+01 2.29513E-01-1.99470E-05-4.40815E-02 8.52369E-14-2.29934E-13
 -1       930 2.01946E+01 1.43533E-02-3.70085E-06-1.42191E-01 5.43044E-14-2.51904E-13
 -1       931 2.19515E+01-2.04161E+00 1.59498E-03-2.55658E+00-6.48463E-14 1.04689E-13
 -1       932 2.01028E+01-6.59705E-02-2.23939E-06-1.44470E-01-2.64052E-15-7.42951E-14
 -1       933 1.63870E+01-2.08056E-01 1.94228E-02 3.59163E+00 1.56632E-13-3.81502E-13
 -1       934 2.03031E+01 1.00127E+00-5.11856E-04 3.65173E-01 1.09489E-13-3.49226E-13
 -1       935 1.39365E+01 9.16355E-01 3.29857E-02-9.58452E-01-3.56504E-13-8.87228E-13
 -1       936 1.84418E+01-1.11960E+00 1.41759E-02-3.93764E+00-4.92298E-13 2.62261E-13
 -1       937 2.02871E+01 1.33678E+00-5.98496E-05 1.97738E-01 4.09438E-14-4.43345E-13
 -1       938 2.02770E+01 1.40473E+00 2.11970E-06 6.98593E-02-2.67057E-15-4.05521E-13
 -1       939 1.29161E+01 8.80762E-01 3.42308E-02 4.84704E-01 3.52832E-13-4.32870E-13
 -1       940 1.24962E+01 2.06747E-01 7.97697E-02-2.27429E+00-2.99307E-13-9.46590E-13
 -1       941 2.02915E+01 1.27558E+00 1.61377E-04-2.60592E-01-1.64975E-13-3.10367E-13
 -1       942 2.09091E+01-1.90737E+00 5.39148E-03-3.38190E+00-4.50696E-13 1.41387E-13
 -1       943 2.03822E+01 3.92849E-01-3.88491E-05-1.05479E-02-7.60327E-14-1.61115E-13
 -1       944 2.03618E+01 1.98210E-01-1.22294E-05 5.00973E-02-1.49826E-13-1.46440E-13
 -1       945 2.03267E+01 6.92765E-02-7.28298E-06 8.53876E-02-3.21104E-14-1.47781E-13
 -1       946 2.02850E+01-1.07535E-02-4.21640E-07 1.02442E-01-3.75990E-14-1.65864E-13
 -1       947 2.02420E+01-5.51433E-02 2.37807E-06 1.07378E-01-8.87032E-14-1.68877E-13
 -1       948 2.02005E+01-7.37314E-02 2.93885E-06 1.05179E-01-7.54082E-14-1.05343E-13
 -1       949 2.01621E+01-7.37330E-02-2.60183E-07 9.96930E-02-7.37094E-14-1.15586E-13
 -1       950 2.01269E+01-6.01371E-02-1.57492E-06 9.38305E-02-1.81459E-14-7.56664E-14
 -1       951 2.00945E+01-3.61470E-02-1.28858E-06 8.98404E-02 3.67541E-14-7.63968E-14
 -1       952 2.00636E+01-3.63101E-03-1.57691E-06 8.95217E-02-4.34108E-14-1.81750E-13
 -1       953 2.00327E+01 3.65213E-02-2.75391E-06 9.43954E-02-5.01790E-14-1.03657E-13
 -1       954 1.99996E+01 8.41072E-02-4.57993E-06 1.05860E-01-8.30572E-14-7.88621E-14
 -1       955 1.99621E+01 1.39296E-01-6.97570E-06 1.25324E-01-7.61896E-14-1.00982E-14
 -1       956 1.99174E+01 2.02293E-01-9.99095E-06 1.54291E-01-4.27434E-14 1.21264E-13
 -1       957 1.98626E+01 2.72958E-01-1.37420E-05 1.94439E-01-8.61209E-15 6.74467E-14
 -1       958 1.97948E+01 3.50337E-01-1.83931E-05 2.47685E-01 1.14663E-13 3.80400E-14
 -1       959 1.97111E+01 4.32082E-01-2.41636E-05 3.16274E-01 9.93813E-14-2.73346E-14
 -1       960 1.96090E+01 5.13728E-01-3.13285E-05 4.02924E-01-1.37628E-14 2.63589E-16
 -1       961 1.94872E+01 5.87798E-01-4.01959E-05 5.11084E-01 2.20778E-14 8.70281E-14
 -1       962 1.93463E+01 6.42718E-01-5.12220E-05 6.45377E-01 7.43134E-14-2.18812E-14
 -1       963 1.91901E+01 6.61491E-01-6.62084E-05 8.12326E-01-2.58898E-14 1.18131E-13
 -1       964 1.90281E+01 6.20069E-01-9.13303E-05 1.02133E+00 1.51925E-13-8.25626E-15
 -1       965 1.88793E+01 4.85343E-01-1.26606E-04 1.28557E+00 2.60182E-13-5.53085E-14
 -1       966 1.87792E+01 2.12752E-01-8.46178E-06 1.62241E+00 1.21687E-13-1.79203E-13
 -1       967 1.87925E+01-2.58425E-01 7.56305E-04 2.04938E+00 6.18943E-14-1.33941E-13
 -1       968 1.90356E+01-9.99214E-01 2.33761E-03 2.57419E+00-2.11706E-14 3.82568E-14
 -1       969 1.99773E+01 1.24043E-01-1.54983E-06-1.34425E-01-8.80338E-14-3.08279E-13
 -1       970 2.01173E+01-6.13962E-02 3.12072E-06-1.07890E-01 5.19544E-14-1.64429E-13
 -1       971 2.00089E+01 7.11300E-02 2.07520E-07-1.15292E-01-5.33249E-14-2.92086E-13
 -1       972 2.00364E+01 2.64195E-02 1.87934E-06-1.04511E-01-9.60684E-15-2.26854E-13
 -1       973 1.99389E+01 1.86102E-01-3.39183E-06-1.63258E-01-4.02651E-14-2.52873E-13
 -1       974 1.98901E+01 2.58348E-01-5.32859E-06-2.03117E-01-2.11186E-14-4.03629E-13
 -1       975 1.98265E+01 3.41625E-01-7.37649E-06-2.55276E-01 1.36703E-14-3.51807E-13
 -1       976 1.97431E+01 4.36192E-01-9.57294E-06-3.20902E-01-2.73597E-14-2.30107E-13
 -1       977 1.96336E+01 5.41212E-01-1.20213E-05-4.01028E-01 4.93011E-14-3.12868E-13
 -1       978 1.94909E+01 6.54034E-01-1.48892E-05-4.96616E-01 7.56747E-14-2.05406E-13
 -1       979 1.93062E+01 7.69225E-01-1.78690E-05-6.08897E-01 7.36489E-14-2.91380E-13
 -1       980 1.90701E+01 8.77246E-01-1.75418E-05-7.40261E-01 8.28033E-14-3.63245E-13
 -1       981 1.87718E+01 9.62601E-01 1.20858E-06-8.96162E-01-2.22546E-14-4.25647E-13
 -1       982 1.84006E+01 1.00130E+00 8.38187E-05-1.08837E+00-1.19730E-13-4.75082E-13
 -1       983 1.79458E+01 9.57985E-01 2.88042E-04-1.34094E+00-1.36736E-13-3.36194E-13
 -1       984 1.74019E+01 7.77232E-01 5.01103E-04-1.70271E+00-4.84263E-14-1.46014E-13
 -1       985 1.68178E+01 3.82924E-01 2.25943E-03-2.27517E+00 6.80434E-15-1.46523E-13
 -1       986 2.03756E+01 6.76611E-01 1.58734E-05-1.02915E-01-1.34108E-13-2.54492E-13
 -1       987 2.03481E+01 9.46252E-01 6.19551E-06-1.78686E-01-1.47421E-13-2.99847E-13
 -1       988 2.02793E+01 1.37930E+00-2.00509E-05-1.42362E-01-9.17402E-14-3.10165E-13
 -1       989 1.92281E+01-1.94716E+00-4.17774E-03 3.25149E+00 4.90430E-14-1.17874E-14
 -1       990 2.02324E+01 9.76509E-02-3.42132E-05-1.08970E-01 6.73502E-14-2.29163E-13
 -1       991 1.41574E+01 8.01455E-01 3.25082E-02 1.74519E+00-9.94831E-14-9.11410E-13
 -1       992 2.03003E+01 1.20106E+00-9.07235E-05 3.02575E-01 7.97286E-14-4.27360E-13
 -1       993 2.02756E+01 1.41243E+00 7.05026E-05-3.67814E-02-5.02412E-14-3.62122E-13
 -1       994 2.00889E+01-4.02156E-02 4.94178E-06-1.02393E-01 4.01382E-14-1.73423E-13
 -1       995 2.02629E+01-2.76357E-03 6.97124E-06-1.16922E-01-4.22727E-14-2.10615E-13
 -1       996 2.00625E+01-1.06873E-02 3.46924E-06-1.00703E-01-3.27624E-14-1.62881E-13
 -1       997 2.03566E+01 6.95970E-01 1.78729E-04 1.40005E-01 6.52691E-14-3.75935E-13
 -1       998 2.03626E+01 8.85906E-01 3.03822E-04 1.44955E-01 5.66221E-14-4.33583E-13
 -1       999 1.42508E+01 9.88364E-01-6.15614E-03-6.39328E-01 3.35573E-13-4.98479E-13
 -1      1000 1.72169E+01-7.42022E-01 1.25846E-02 3.08489E+00-9.72334E-14-3.14214E-14
 -1      1001 2.03570E+01 4.10777E-01 1.21428E-05 2.49995E-02 9.41692E-14-3.43715E-13
 -1      1002 2.03724E+01 9.66804E-01 4.52444E-04 8.14349E-02 2.17722E-14-3.89987E-13
 -1      1003 2.02223E+01-4.91427E-02 9.24424E-06-1.23712E-01-7.48465E-14-1.76752E-13
 -1      1004 2.01488E+01-7.24219E-02-1.50341E-06-1.15180E-01 4.41706E-14-7.54775E-14
 -1      1005 2.04156E+01 3.29731E-01-5.81144E-05 9.65347E-03-8.62053E-14-2.55558E-13
 -1      1006 2.03933E+01 1.52252E-01-5.78324E-05 4.15188E-02-1.07713E-13-1.78343E-13
 -1      1007 2.03556E+01 3.66134E-02-2.60717E-05 5.92069E-02-5.20113E-14-2.03451E-13
 -1      1008 2.03106E+01-3.28625E-02-1.51405E-05 6.70731E-02-2.75064E-14-1.97891E-13
 -1      1009 2.02635E+01-6.84042E-02 1.03568E-05 6.84473E-02-3.90252E-14-1.43274E-13
 -1      1010 2.02176E+01-7.94407E-02-2.02241E-07 6.63693E-02-4.99524E-14-1.24415E-13
 -1      1011 2.01742E+01-7.24893E-02-7.32901E-06 6.29985E-02 8.35599E-15-3.64322E-14
 -1      1012 2.01334E+01-5.20898E-02-3.32005E-06 6.00074E-02-6.77414E-14-1.10189E-13
 -1      1013 2.00943E+01-2.10085E-02-5.22366E-06 5.88201E-02-3.13142E-14-1.80037E-13
 -1      1014 2.00555E+01 1.91603E-02-8.96604E-06 6.05715E-02-3.36206E-14-1.49909E-13
 -1      1015 2.00148E+01 6.78438E-02-1.47855E-05 6.62715E-02-2.32104E-14-9.82817E-14
 -1      1016 1.99695E+01 1.25095E-01-2.22498E-05 7.69464E-02-8.82752E-15-1.78179E-15
 -1      1017 1.99165E+01 1.91252E-01-3.12620E-05 9.37199E-02 2.36897E-14 7.24108E-14
 -1      1018 1.98521E+01 2.66578E-01-4.18910E-05 1.17902E-01-7.66004E-14 4.68635E-14
 -1      1019 1.97725E+01 3.50852E-01-5.43093E-05 1.51093E-01 8.70269E-14 1.31587E-14
 -1      1020 1.96733E+01 4.42875E-01-6.88491E-05 1.95317E-01 6.47554E-14-1.08303E-14
 -1      1021 1.95502E+01 5.39887E-01-8.61786E-05 2.53221E-01 2.48087E-14-2.21627E-15
 -1      1022 1.93989E+01 6.36878E-01-1.07714E-04 3.28389E-01 1.11250E-13 3.43212E-14
 -1      1023 1.92154E+01 7.25802E-01-1.36660E-04 4.25861E-01 2.95260E-14 1.50071E-13
 -1      1024 1.89966E+01 7.94696E-01-1.81245E-04 5.52978E-01 5.13831E-14 2.78248E-14
 -1      1025 1.87402E+01 8.26643E-01-2.66730E-04 7.20787E-01-1.73084E-14 1.41264E-14
 -1      1026 1.84466E+01 7.98225E-01-4.59880E-04 9.46232E-01 1.09282E-13 2.47692E-14
 -1      1027 1.81213E+01 6.77169E-01-7.29571E-04 1.25452E+00 1.50075E-13-2.78779E-13
 -1      1028 1.77787E+01 4.18390E-01-4.61552E-04 1.68532E+00 2.90494E-14-1.44210E-13
 -1      1029 1.74392E+01-3.02418E-02 2.17384E-04 2.27196E+00 1.44658E-13-1.65389E-13
 -1      1030 1.98750E+01 2.50249E-01-2.85682E-05-1.31426E-01-4.58775E-14-2.41224E-13
 -1      1031 1.46682E+01 1.00522E+00 1.15222E-02 8.06827E-01 1.71551E-13-5.37424E-13
 -1      1032 1.99826E+01 1.10763E-01-1.21894E-05-9.08061E-02 6.16886E-14-6.77762E-14
 -1      1033 2.00235E+01 5.58894E-02-5.48941E-06-8.01623E-02-2.06707E-14-2.55014E-14
 -1      1034 1.97998E+01 3.36719E-01-3.84463E-05-1.62789E-01-1.48437E-14-2.35610E-13
 -1      1035 1.97032E+01 4.35098E-01-4.97985E-05-2.02150E-01 1.94986E-14-2.32520E-13
 -1      1036 1.95784E+01 5.44986E-01-6.32837E-05-2.49652E-01 1.01449E-13-3.09503E-13
 -1      1037 1.94177E+01 6.64605E-01-8.03364E-05-3.05137E-01-4.03737E-14-3.11129E-13
 -1      1038 1.92114E+01 7.90177E-01-1.03723E-04-3.68257E-01 6.21957E-14-1.50035E-13
 -1      1039 1.89475E+01 9.15249E-01-1.36967E-04-4.38919E-01 1.27270E-13-1.24734E-13
 -1      1040 1.86110E+01 1.03001E+00-1.78383E-04-5.18372E-01-4.24742E-14-1.13953E-13
 -1      1041 1.81806E+01 1.12049E+00-2.40611E-04-6.11761E-01-1.43900E-13-8.94345E-14
 -1      1042 1.76297E+01 1.16566E+00-6.86842E-05-7.31345E-01-2.38068E-13-8.96204E-14
 -1      1043 1.69115E+01 1.14373E+00 2.21792E-04-8.98669E-01-1.57900E-13-1.58168E-13
 -1      1044 1.60251E+01 1.00961E+00 8.65123E-04-1.17139E+00 2.58375E-14-2.21909E-13
 -1      1045 2.03345E+01 2.13260E-01 9.76631E-05-5.13826E-02 7.25514E-14-3.25198E-13
 -1      1046 2.04113E+01 5.87952E-01-1.85016E-04-4.06403E-02-5.19371E-14-2.41779E-13
 -1      1047 2.01838E+01-6.99823E-02 7.27773E-07-1.21615E-01-3.15357E-14-6.16948E-14
 -1      1048 2.03030E+01 7.95209E-02 5.05469E-05-9.53705E-02 7.85577E-15-3.00692E-13
 -1      1049 1.99344E+01 1.75227E-01-1.98635E-05-1.07640E-01-5.93340E-14-1.91012E-13
 -1      1050 2.03965E+01 5.41163E-01-1.56048E-04 5.00367E-02 5.51792E-14-4.07919E-13
 -1      1051 2.03517E+01 1.04357E+00 1.07149E-04-1.05654E-01-6.87033E-14-2.69678E-13
 -1      1052 2.00604E+01 9.85819E-03 2.22636E-07-7.48458E-02 1.94928E-14-1.12218E-13
 -1      1053 1.60752E+01 1.21111E+00 4.54881E-04-1.29436E-01 3.76762E-14-6.55224E-13
 -1      1054 2.00959E+01-2.75825E-02 5.14221E-06-7.38951E-02-1.49605E-14-1.42210E-13
 -1      1055 2.03711E+01 9.97403E-01 3.48856E-04 1.82379E-02-2.84935E-14-3.59362E-13
 -1      1056 2.03011E+01-2.41434E-02 3.11008E-06-8.43924E-02-1.07669E-13-1.51277E-13
 -1      1057 2.03444E+01 5.02792E-02 7.07674E-06-7.30939E-02-4.94922E-14-1.75831E-13
 -1      1058 2.03906E+01 7.98690E-01 4.72756E-04-7.32246E-02-6.30891E-14-2.29308E-13
 -1      1059 2.01705E+01-7.35761E-02-1.09958E-05-8.03567E-02 1.24383E-13-2.16273E-13
 -1      1060 1.58826E+01 5.37743E-01 2.60615E-03 1.85622E+00 1.56534E-13-3.87450E-13
 -1      1061 2.03605E+01 1.03605E+00 5.25146E-04-4.25141E-02-4.72738E-14-3.21432E-13
 -1      1062 2.01322E+01-5.59045E-02 9.49471E-06-7.62091E-02 6.96830E-15-1.93884E-13
 -1      1063 2.04023E+01 1.00179E-01 1.49581E-04 1.98388E-02-7.10716E-14-2.16139E-13
 -1      1064 2.03604E+01 2.48570E-03 1.03410E-04 2.49225E-02-3.86107E-14-2.22224E-13
 -1      1065 2.03109E+01-5.24736E-02-1.76690E-05 2.66476E-02-9.93438E-15-2.45793E-13
 -1      1066 2.02614E+01-7.76177E-02 2.54788E-05 2.64422E-02-5.10227E-14-1.98610E-13
 -1      1067 2.02139E+01-8.02145E-02-3.45278E-05 2.50441E-02-1.18108E-14-1.67609E-13
 -1      1068 2.01685E+01-6.55374E-02 2.83068E-05 2.39265E-02-5.80143E-14-1.93286E-13
 -1      1069 2.01245E+01-3.83036E-02 2.83998E-05 2.33328E-02-1.54156E-14-1.53559E-13
 -1      1070 2.00813E+01-6.51699E-04 2.62873E-05 2.36859E-02-8.85144E-15-8.12648E-14
 -1      1071 2.00368E+01 4.64066E-02 2.49970E-05 2.55192E-02 8.12339E-14-6.68866E-14
 -1      1072 1.99884E+01 1.02678E-01 2.61246E-05 2.93643E-02 2.85453E-14 1.91590E-15
 -1      1073 1.99328E+01 1.68494E-01 3.01089E-05 3.58338E-02 9.80922E-15-1.76547E-15
 -1      1074 1.98661E+01 2.44373E-01 3.74242E-05 4.57054E-02 3.21306E-14-1.89624E-14
 -1      1075 1.97838E+01 3.30657E-01 4.88655E-05 6.00218E-02-5.15796E-14 3.97085E-14
 -1      1076 1.96810E+01 4.27097E-01 6.57624E-05 8.02223E-02-1.20918E-14-5.35630E-14
 -1      1077 1.95521E+01 5.32372E-01 9.02754E-05 1.08328E-01 2.03312E-14-1.49436E-13
 -1      1078 1.93908E+01 6.43556E-01 1.25737E-04 1.47212E-01 7.77112E-14-1.57734E-13
 -1      1079 1.91902E+01 7.55547E-01 1.76532E-04 2.00995E-01 1.64153E-14-2.70813E-13
 -1      1080 1.89425E+01 8.60505E-01 2.45192E-04 2.75646E-01-4.10509E-14-2.41142E-13
 -1      1081 1.86381E+01 9.47357E-01 3.17796E-04 3.79883E-01-6.88516E-14-2.71666E-13
 -1      1082 1.82647E+01 1.00136E+00 3.05807E-04 5.26518E-01 1.20183E-13-3.92200E-13
 -1      1083 1.78049E+01 1.00204E+00-4.11593E-04 7.35074E-01 5.00025E-14-3.78222E-13
 -1      1084 1.72565E+01 9.22474E-01 1.10013E-03 1.03088E+00 1.76409E-13-4.47245E-13
 -1      1085 1.99473E+01 1.53222E-01-1.05555E-05-5.26782E-02 5.43436E-14-1.70221E-13
 -1      1086 1.98065E+01 3.12911E-01-2.42435E-05-7.51460E-02 4.98156E-14-3.31663E-13
 -1      1087 1.95825E+01 5.18989E-01-5.83069E-05-1.08352E-01 1.41946E-15-2.43693E-13
 -1      1088 1.94225E+01 6.37950E-01-8.77134E-05-1.27000E-01-5.50067E-15-1.74419E-13
 -1      1089 1.92190E+01 7.64005E-01-1.29918E-04-1.44808E-01-6.59291E-14-2.08613E-13
 -1      1090 1.89609E+01 8.91984E-01-1.91090E-04-1.59252E-01-2.63289E-14-2.08547E-13
 -1      1091 1.86336E+01 1.01428E+00-2.78334E-04-1.67153E-01 5.18953E-14 2.30465E-15
 -1      1092 1.82171E+01 1.12091E+00-3.68720E-04-1.64815E-01 1.83939E-14 7.10049E-14
 -1      1093 1.76799E+01 1.20173E+00-8.29615E-05-1.47804E-01-1.64861E-13-9.71809E-14
 -1      1094 1.69693E+01 1.24458E+00-1.37035E-04-1.28116E-01-5.67022E-14-3.52555E-13
 -1      1095 2.04261E+01 5.75568E-01-3.47250E-04 2.46872E-02-1.27673E-14-3.01282E-13
 -1      1096 2.03916E+01 2.99345E-01-2.12619E-04-1.81187E-02 2.04563E-14-3.33494E-13
 -1      1097 1.61985E+01 1.09920E+00-7.09557E-03 6.44435E-01 1.63511E-13-4.29367E-13
 -1      1098 2.02558E+01-6.33394E-02 1.62075E-05-8.71168E-02-8.05173E-14-1.70654E-13
 -1      1099 1.97080E+01 4.10176E-01-3.79445E-05-9.06779E-02 2.71282E-14-3.26695E-13
 -1      1100 2.04357E+01 4.79355E-01 1.47433E-04-5.14885E-03-7.36690E-14-2.68867E-13
 -1      1101 2.03732E+01 1.51958E-01-1.69953E-04-5.42707E-02 3.28705E-14-2.70866E-13
 -1      1102 1.98845E+01 2.27422E-01-1.55352E-05-6.23972E-02-9.42510E-15-2.03628E-13
 -1      1103 2.02117E+01-7.75150E-02-8.53163E-06-8.47831E-02 1.30424E-14-2.67759E-13
 -1      1104 2.01725E+01-6.95493E-02-4.65748E-05-4.24647E-02 2.83119E-14-2.46679E-13
 -1      1105 2.04311E+01 2.52581E-01 8.01045E-05 1.04919E-02-4.64185E-14-2.46197E-13
 -1      1106 1.99997E+01 8.95020E-02-8.27140E-06-4.59579E-02 4.79080E-14-1.98657E-13
 -1      1107 2.00455E+01 3.54865E-02-7.69623E-06-4.20117E-02 1.40769E-15-1.41797E-13
 -1      1108 2.04032E+01 7.92666E-01-1.62252E-04-3.20057E-02-7.08930E-14-2.91456E-13
 -1      1109 2.03610E+01 1.61230E-02-6.14499E-05-4.15837E-02-5.84978E-14-2.62966E-13
 -1      1110 2.00881E+01-9.25209E-03-7.49516E-06-4.04689E-02-1.19828E-14-1.27784E-13
 -1      1111 2.02158E+01-7.98322E-02-4.31810E-05-4.49432E-02 2.82583E-14-2.90317E-13
 -1      1112 2.01299E+01-4.44949E-02-5.17218E-06-4.08174E-02-1.57274E-14-1.99640E-13
 -1      1113 2.03140E+01-4.57604E-02-9.01967E-05-4.59055E-02-6.84337E-14-3.16113E-13
 -1      1114 1.65753E+01 7.20064E-01 6.62278E-03 1.46310E+00 9.54000E-14-3.57820E-13
 -1      1115 2.02396E+01-8.17411E-02 1.09903E-04-1.56404E-02-7.51365E-15-2.31515E-13
 -1      1116 2.03953E+01 1.06053E-01 3.41582E-05-3.53544E-02-6.77173E-14-2.13244E-13
 -1      1117 2.04293E+01 2.97707E-01 2.03617E-04-9.05512E-03-3.40611E-14-2.52823E-13
 -1      1118 2.02635E+01-7.43841E-02-9.60683E-07-4.61002E-02 2.17240E-14-3.27030E-13
 -1      1119 2.02892E+01-6.87854E-02 6.85695E-05-1.68416E-02-2.00824E-14-2.80152E-13
 -1      1120 2.79634E+01 9.08667E+00 2.32536E+00-6.69849E+00-4.16889E-14 1.87850E-12
 -1      1121 2.05475E+01 6.22720E+00 2.09743E-01-3.90431E+00-2.68674E-14 4.25382E-13
 -1      1122 1.94343E+01 5.85287E+00 7.52873E-02-2.88828E+00-2.17881E-14-2.39876E-13
 -1      1123 1.90260E+01 5.72591E+00 6.03968E-02-2.23553E+00-1.47625E-14-5.70469E-13
 -1      1124 1.88397E+01 5.66918E+00 5.75520E-02-1.70194E+00-1.14214E-14-7.45355E-13
 -1      1125 1.87462E+01 5.64052E+00 5.55273E-02-1.23448E+00-8.07861E-15-8.29953E-13
 -1      1126 1.86972E+01 5.62529E+00 5.37646E-02-8.04624E-01-5.35683E-15-8.77283E-13
 -1      1127 1.86733E+01 5.61774E+00 5.25468E-02-3.93012E-01-3.50024E-15-9.06640E-13
 -1      1128 1.86664E+01 5.61558E+00 5.21579E-02 8.46895E-03-1.67422E-15-9.30518E-13
 -1      1129 1.86743E+01 5.61810E+00 5.26695E-02 4.10359E-01 9.20488E-16-9.43357E-13
 -1      1130 1.86994E+01 5.62604E+00 5.40539E-02 8.23341E-01 2.85102E-15-9.45515E-13
 -1      1131 1.87500E+01 5.64187E+00 5.62550E-02 1.25587E+00 5.60576E-15-9.23976E-13
 -1      1132 1.88451E+01 5.67106E+00 5.84578E-02 1.72773E+00 8.68229E-15-8.62366E-13
 -1      1133 1.90314E+01 5.72755E+00 6.03991E-02 2.26881E+00 1.37182E-14-7.27063E-13
 -1      1134 1.94310E+01 5.85007E+00 6.92045E-02 2.92893E+00 1.97065E-14-4.42672E-13
 -1      1135 2.04535E+01 6.18205E+00 1.53267E-01 3.87887E+00 2.67009E-14 1.76525E-13
 -1      1136 2.52176E+01 7.99445E+00 1.43045E+00 5.84662E+00 6.65024E-14 1.57074E-12
 -1      1137 2.88131E+01 3.61644E+00 1.27132E+00-4.21723E+00-1.83631E-13 2.82196E-12
 -1      1138 2.02277E+01-1.77760E-01-6.16351E-01-1.09906E-01-6.01880E-14 2.37382E-12
 -1      1139 1.88333E+01-9.63515E-02-2.36344E-01 6.25241E-02-2.30718E-14 1.70673E-12
 -1      1140 1.84991E+01-4.80558E-02-5.95776E-02 4.04992E-02-2.08340E-14 1.22825E-12
 -1      1141 1.84435E+01-2.46168E-02-1.51905E-02 2.67843E-02-7.98406E-15 9.03510E-13
 -1      1142 1.85249E+01-1.30421E-02-4.95646E-03 1.90598E-02-1.56249E-14 6.75245E-13
 -1      1143 1.86712E+01-6.59671E-03-1.44670E-03 1.41088E-02-6.42607E-15 5.09282E-13
 -1      1144 1.88430E+01-2.82725E-03 5.91030E-04 1.06694E-02 2.78250E-15 4.24948E-13
 -1      1145 1.90177E+01-5.99058E-04 1.90656E-03 8.12101E-03-2.55803E-15 2.97349E-13
 -1      1146 1.91826E+01 6.84196E-04 2.64344E-03 6.15396E-03-9.98142E-15 1.11952E-13
 -1      1147 1.93309E+01 1.36169E-03 2.93379E-03 4.60352E-03-3.82628E-16-2.02442E-15
 -1      1148 1.94598E+01 1.63993E-03 2.90730E-03 3.37170E-03 1.00100E-14 5.76327E-14
 -1      1149 1.95691E+01 1.65033E-03 2.66625E-03 2.39313E-03 8.45450E-15-1.40083E-14
 -1      1150 1.96600E+01 1.47772E-03 2.28130E-03 1.62045E-03 1.62914E-14-8.29024E-15
 -1      1151 1.97352E+01 1.17548E-03 1.79603E-03 1.01808E-03-1.03377E-14-4.04067E-14
 -1      1152 1.97980E+01 7.74699E-04 1.23256E-03 5.59871E-04-2.81678E-14-2.53450E-13
 -1      1153 1.98524E+01 2.90163E-04 5.96348E-04 2.28484E-04-1.86856E-15-3.55636E-13
 -1      1154 1.99028E+01-2.74851E-04-1.19667E-04 1.57666E-05 3.44809E-14-1.77131E-13
 -1      1155 1.99543E+01-9.24365E-04-9.31088E-04-7.64032E-05-6.20652E-15-2.57469E-13
 -1      1156 2.00126E+01-1.66523E-03-1.85760E-03-3.49609E-05-2.29942E-14-4.40324E-13
 -1      1157 2.00845E+01-2.50171E-03-2.91714E-03 1.65600E-04-1.18365E-14-4.48682E-13
 -1      1158 2.01773E+01-3.42813E-03-4.11744E-03 5.64228E-04 1.49566E-15-3.51171E-13
 -1      1159 2.02995E+01-4.41851E-03-5.44303E-03 1.21332E-03 9.77354E-16-3.79198E-13
 -1      1160 2.04605E+01-5.41163E-03-6.83502E-03 2.17630E-03-3.97511E-14-4.91579E-13
 -1      1161 2.06698E+01-6.28999E-03-8.16006E-03 3.52003E-03-8.83375E-15-6.40124E-13
 -1      1162 2.09365E+01-6.85176E-03-9.16465E-03 5.29711E-03 8.68370E-15-3.35175E-13
 -1      1163 2.12672E+01-6.77700E-03-9.41298E-03 7.51015E-03 5.10269E-14-1.74543E-13
 -1      1164 2.16632E+01-5.59620E-03-8.21559E-03 1.00459E-02-1.95593E-14-2.31331E-13
 -1      1165 2.21153E+01-2.68286E-03-4.58001E-03 1.25658E-02-3.95574E-14-3.45389E-13
 -1      1166 2.25978E+01 2.68155E-03 2.73410E-03 1.43473E-02 2.49435E-14-2.18433E-13
 -1      1167 2.30594E+01 1.10850E-02 1.48904E-02 1.41052E-02-5.84103E-15-1.54397E-13
 -1      1168 2.34163E+01 2.24865E-02 3.21438E-02 9.91288E-03-5.77012E-16-1.42935E-13
 -1      1169 2.35502E+01 3.53807E-02 5.23522E-02-4.98516E-04 2.85297E-14-1.50346E-13
 -1      1170 2.33226E+01 4.58269E-02 6.92426E-02-1.86444E-02-5.85729E-15-7.30839E-14
 -1      1171 2.26177E+01 4.72500E-02 7.20082E-02-4.31563E-02 2.98706E-14-1.66742E-13
 -1      1172 2.14157E+01 3.24962E-02 4.90485E-02-6.74699E-02 1.08897E-14-2.30330E-13
 -1      1173 1.98737E+01-6.59839E-04-2.81644E-03-7.98199E-02 2.89753E-15-5.72237E-13
 -1      1174 1.83495E+01-4.31708E-02-6.87901E-02-6.85412E-02 4.93351E-14-8.36553E-14
 -1      1175 1.73011E+01-7.51019E-02-1.17844E-01-3.16141E-02-1.59230E-14 4.14113E-14
 -1      1176 1.70703E+01-7.76399E-02-1.21580E-01 1.77793E-02 1.27684E-14-3.38243E-13
 -1      1177 1.76841E+01-4.89865E-02-7.72964E-02 5.78076E-02 3.67241E-15-4.05356E-13
 -1      1178 1.88355E+01-6.10832E-03-1.05562E-02 7.28187E-02-1.99270E-14-8.15743E-13
 -1      1179 2.00614E+01 2.97121E-02 4.58143E-02 6.22739E-02 4.20224E-14-7.90618E-13
 -1      1180 2.09723E+01 4.65810E-02 7.27360E-02 3.70220E-02 5.99668E-14-2.23294E-13
 -1      1181 2.13831E+01 4.47518E-02 6.99561E-02 9.86970E-03 1.30217E-14-6.83568E-14
 -1      1182 2.13132E+01 3.04554E-02 4.72377E-02-1.06207E-02 5.62857E-14 1.96586E-13
 -1      1183 2.09170E+01 1.06344E-02 1.51930E-02-2.07107E-02 2.26691E-14 2.44957E-13
 -1      1184 2.04127E+01-9.10772E-03-1.64740E-02-1.82100E-02 5.45049E-14 1.41935E-13
 -1      1185 2.00413E+01-2.49739E-02-2.94487E-02-9.25765E-05 3.24742E-14 5.43920E-13
 -1      1186 1.99669E+01 1.18482E-02 2.18939E-02 1.14774E-02 2.61703E-14 4.48089E-13
 -1      1187 2.77928E+01 5.25757E-01 3.77090E-01 1.96670E+00-2.72282E-14 2.75030E-12
 -1      1188 2.00853E+01-6.62413E-02-5.73626E-01 1.29475E-01 2.14134E-14 2.03448E-12
 -1      1189 1.89079E+01-4.06077E-02-1.93234E-01 1.94152E-02 2.07247E-14 1.36087E-12
 -1      1190 1.85279E+01-2.14200E-02-5.05620E-02 1.45728E-03 1.97815E-14 8.83044E-13
 -1      1191 1.84563E+01-1.24066E-02-1.34080E-02-4.08171E-03 9.45273E-15 5.68504E-13
 -1      1192 1.85313E+01-7.40047E-03-4.65906E-03-5.53763E-03 2.46570E-14 2.82045E-13
 -1      1193 1.86744E+01-4.32153E-03-1.92564E-03-5.72506E-03 4.69286E-15 1.84769E-13
 -1      1194 1.88445E+01-2.34837E-03-3.35643E-04-5.44167E-03-5.33132E-15 1.16325E-13
 -1      1195 1.90183E+01-1.07603E-03 7.85733E-04-4.93844E-03 2.07253E-14-1.34916E-13
 -1      1196 1.91826E+01-2.73738E-04 1.49632E-03-4.32856E-03 2.46926E-15-2.97841E-13
 -1      1197 1.93306E+01 2.03451E-04 1.85773E-03-3.67795E-03 1.06444E-14-4.32735E-13
 -1      1198 1.94592E+01 4.51024E-04 1.95430E-03-3.02730E-03-5.61244E-15-5.44528E-13
 -1      1199 1.95682E+01 5.32618E-04 1.86089E-03-2.40015E-03 8.30518E-15-5.86194E-13
 -1      1200 1.96590E+01 4.89628E-04 1.63142E-03-1.80774E-03-1.22373E-14-5.70580E-13
 -1      1201 1.97339E+01 3.46833E-04 1.29898E-03-1.25234E-03 6.41904E-15-6.81190E-13
 -1      1202 1.97964E+01 1.15842E-04 8.78541E-04-7.29941E-04 1.48707E-14-7.26339E-13
 -1      1203 1.98502E+01-2.02699E-04 3.69413E-04-2.32466E-04-2.76870E-14-7.31663E-13
 -1      1204 1.99000E+01-6.17602E-04-2.43035E-04 2.50236E-04 1.80027E-14-7.05502E-13
 -1      1205 1.99509E+01-1.14604E-03-9.86212E-04 7.28351E-04 2.66932E-14-9.11939E-13
 -1      1206 2.00088E+01-1.81254E-03-1.89959E-03 1.20985E-03 1.72104E-14-1.00506E-12
 -1      1207 2.00810E+01-2.64758E-03-3.03404E-03 1.69755E-03 3.27322E-14-9.26633E-13
 -1      1208 2.01758E+01-3.68493E-03-4.45040E-03 2.18475E-03-1.36338E-15-6.98819E-13
 -1      1209 2.03035E+01-4.95601E-03-6.21551E-03 2.64834E-03 4.05600E-16-7.50864E-13
 -1      1210 2.04764E+01-6.47833E-03-8.39223E-03 3.03752E-03-4.17770E-14-8.42488E-13
 -1      1211 2.07092E+01-8.23263E-03-1.10163E-02 3.25558E-03 2.38665E-14-7.31455E-13
 -1      1212 2.10189E+01-1.01199E-02-1.40466E-02 3.13144E-03 5.97092E-15-4.87865E-13
 -1      1213 2.14245E+01-1.18851E-02-1.72658E-02 2.37864E-03 1.87350E-14-3.37728E-13
 -1      1214 2.19450E+01-1.29938E-02-2.00949E-02 5.45311E-04 4.72799E-15-5.54876E-13
 -1      1215 2.25955E+01-1.24571E-02-2.12809E-02-3.02188E-03-4.35871E-14-4.56905E-13
 -1      1216 2.33789E+01-8.65385E-03-1.84635E-02-9.12770E-03-1.12012E-14-6.78117E-13
 -1      1217 2.42713E+01 6.61020E-04-7.80365E-03-1.84259E-02 6.24267E-14-8.23071E-13
 -1      1218 2.51985E+01 1.77387E-02 1.56979E-02-3.05890E-02-4.27566E-15-6.57623E-13
 -1      1219 2.60056E+01 4.29340E-02 5.58588E-02-4.26697E-02-2.54653E-14-4.12569E-13
 -1      1220 2.64329E+01 7.07405E-02 1.08860E-01-4.68512E-02-6.21656E-14-4.04945E-14
 -1      1221 2.61339E+01 8.52875E-02 1.53363E-01-3.02418E-02-2.80349E-14-1.66415E-13
 -1      1222 2.48062E+01 6.53523E-02 1.49301E-01 1.73650E-02-2.42523E-14-5.01849E-13
 -1      1223 2.24619E+01 2.54884E-03 6.18679E-02 8.75765E-02 3.71773E-14-1.02512E-12
 -1      1224 1.96965E+01-7.51353E-02-9.22036E-02 1.42408E-01-1.27806E-14-1.04083E-12
 -1      1225 1.76221E+01-1.13164E-01-2.24432E-01 1.33989E-01 7.41542E-14-9.14269E-13
 -1      1226 1.72250E+01-8.61251E-02-2.39076E-01 5.50240E-02-8.97806E-14-4.80400E-13
 -1      1227 1.86150E+01-2.12085E-02-1.29082E-01-4.75353E-02-8.04669E-14 6.77514E-14
 -1      1228 2.09374E+01 3.18269E-02 1.79233E-02-1.12590E-01-2.01662E-16 1.48437E-13
 -1      1229 2.30294E+01 5.29592E-02 1.13070E-01-1.16556E-01 2.05842E-14-1.40582E-13
 -1      1230 2.41569E+01 4.87384E-02 1.32923E-01-8.00673E-02-5.96355E-14 8.35859E-14
 -1      1231 2.42028E+01 3.24873E-02 1.02688E-01-3.32300E-02 3.76600E-14 1.45712E-13
 -1      1232 2.34399E+01 1.24882E-02 5.42923E-02 5.94828E-03 2.67681E-14-1.45786E-13
 -1      1233 2.22628E+01-8.79389E-03 4.06366E-03 3.26936E-02 5.75494E-14-4.89990E-13
 -1      1234 2.10550E+01-2.99596E-02-4.22850E-02 4.59992E-02 7.70486E-14-7.07830E-13
 -1      1235 2.01799E+01-3.92741E-02-6.27887E-02 3.59459E-02 6.46792E-14-5.86640E-13
 -1      1236 1.99554E+01 1.58150E-02 2.82297E-02-1.60499E-02 1.22697E-14-3.86841E-13
 -1      1237 2.00165E+01-4.49936E-02 2.49825E-02-1.38311E-02-4.32200E-13-6.05471E-14
 -1      1238 1.99549E+01 1.93662E-01-7.02417E-02 4.06945E-03-3.85367E-13-8.01460E-14
 -1      1239 1.99628E+01 1.08407E+00-6.10545E-02 4.08135E-02-6.95798E-13-5.43272E-15
 -1      1240 1.99834E+01 2.39933E+00-2.70535E-02 5.58632E-02-5.28494E-13-6.79669E-14
 -1      1241 2.00095E+01 3.88591E+00 1.24398E-02 5.90712E-02 6.70436E-14-2.90229E-14
 -1      1242 2.00368E+01 5.27482E+00 5.20583E-02 5.08817E-02-5.76955E-13-7.22079E-16
 -1      1243 2.00589E+01 6.31845E+00 8.33665E-02 3.28127E-02-1.06995E-12 5.32560E-16
 -1      1244 2.00690E+01 6.81157E+00 9.73570E-02 6.19556E-03-2.82850E-13-3.63824E-14
 -1      1245 2.00627E+01 6.64741E+00 8.80375E-02-2.09906E-02-1.07837E-13 4.93538E-14
 -1      1246 2.00429E+01 5.88860E+00 5.93273E-02-4.11906E-02 8.41736E-13-2.49800E-14
 -1      1247 2.00170E+01 4.72885E+00 2.23214E-02-4.99521E-02 9.47853E-13-1.34579E-13
 -1      1248 1.99942E+01 3.42814E+00-1.06578E-02-4.75565E-02-3.70252E-13 5.25539E-14
 -1      1249 1.99781E+01 2.19682E+00-3.27468E-02-3.84292E-02-7.99971E-13 8.78982E-14
 -1      1250 1.99702E+01 1.17129E+00-4.44710E-02-2.62519E-02-2.83516E-13 1.11172E-13
 -1      1251 1.99691E+01 4.27654E-01-5.06849E-02-1.72838E-02-5.03000E-14 4.98347E-14
 -1      1252 1.99628E+01 4.82109E-02-3.73911E-02 1.32586E-02-4.34866E-13-1.12922E-13
 -1      1253 2.00114E+01-3.32472E-02 2.00811E-02 1.09951E-02-4.17470E-13 1.13163E-13
 -1      1254-1.12078E+00-2.60912E+01-3.97112E+00-2.46991E+00 1.61782E-12-9.58261E-15
 -1      1255-1.89697E+00-1.58435E+01-3.17175E+00-4.40264E+00-1.15330E-12-5.99798E-13
 -1      1256 5.51343E-01-1.85731E+00-1.82479E+00 1.93538E-01-1.27987E-12-8.15459E-13
 -1      1257 1.00037E+01 8.31165E+00-1.59929E-01 8.97055E+00-4.77174E-13-2.29594E-13
 -1      1258 2.71124E+01 1.15468E+01 1.56895E+00 1.69262E+01-1.14797E-13-8.52651E-14
 -1      1259 4.84361E+01 8.27303E+00 3.16307E+00 1.83261E+01 6.02851E-14 3.61711E-13
 -1      1260 6.52680E+01 3.36054E+00 4.31628E+00 1.02772E+01-7.68136E-15-1.89293E-13
 -1      1261 6.82584E+01 2.13574E+00 4.43916E+00-3.61895E+00 1.06692E-13-1.21986E-12
 -1      1262 5.66371E+01 5.51153E+00 3.67401E+00-1.51611E+01 7.83040E-13-2.38076E-12
 -1      1263 3.62213E+01 9.92548E+00 2.17555E+00-1.77577E+01 1.18949E-12-2.42917E-12
 -1      1264 1.57339E+01 9.39673E+00 3.96633E-01-1.16708E+01 1.38689E-12-1.63469E-12
 -1      1265 2.46493E+00 1.27497E+00-1.37733E+00-2.20634E+00 1.29607E-12-9.89653E-13
 -1      1266-1.84545E+00-1.14525E+01-2.78269E+00 3.85850E+00 7.93587E-13-3.99625E-13
 -1      1267-1.53495E+00-2.24761E+01-3.61719E+00 3.79268E+00-6.54254E-13-8.41965E-14
 -1      1268-9.49912E-01-2.58675E+01-3.81978E+00-5.15767E-01-1.55626E-12 5.95982E-14
 -1      1269-1.55062E+00-1.91976E+01-3.30184E+00-4.10743E+00-6.63136E-13-1.00281E-13
 -1      1270-8.11240E-01-6.17099E+00-2.19121E+00-1.82170E+00 8.68194E-14 3.50830E-14
 -1      1271 5.83054E+00 5.50488E+00-7.39522E-01 5.79542E+00-5.68434E-14 8.34888E-14
 -1      1272 1.99959E+01 1.10080E+01 8.94357E-01 1.43153E+01-3.67484E-13-5.06484E-13
 -1      1273 3.94671E+01 9.65505E+00 2.41221E+00 1.82753E+01-5.43010E-13-1.20703E-12
 -1      1274 5.81330E+01 4.80295E+00 3.62140E+00 1.40036E+01-4.54109E-13-1.66556E-12
 -1      1275 6.75778E+01 1.68062E+00 4.18740E+00 2.12525E+00-6.48787E-14-1.67541E-12
 -1      1276 6.31594E+01 3.41047E+00 3.99553E+00-1.09670E+01 2.59182E-13-1.43885E-12
 -1      1277 4.73178E+01 8.33490E+00 3.05710E+00-1.82164E+01 4.14668E-14-4.94493E-13
 -1      1278 2.70860E+01 1.15205E+01 1.61129E+00-1.68447E+01-2.66454E-14 5.32907E-14
 -1      1279 9.80249E+00 8.16358E+00-1.14069E-01-8.76682E+00 3.57270E-13-1.23457E-13
 -1      1280 3.53969E-01-2.64962E+00-1.89694E+00 8.31255E-02-5.46230E-14-2.07612E-13
 -1      1281-1.98802E+00-1.58168E+01-3.15812E+00 4.12051E+00-4.46088E-13 9.00391E-14
 -1      1282-1.18071E+00-2.58573E+01-3.94957E+00 2.53563E+00 1.17850E-12 3.60892E-14
 -1      1283 2.22668E+01 1.83819E+00-7.25902E-01-2.79080E+00-6.56697E-14 1.59744E-12
 -1      1284 2.03593E+01 4.69020E+00-4.86503E-02-3.30740E+00-2.21212E-13 1.11348E-13
 -1      1285 2.08667E+01 4.81069E+00-1.13390E-01-4.16160E+00-2.73920E-13 4.61561E-13
 -1      1286 1.95313E+01 4.99317E+00-1.96972E-02-2.65486E+00-2.40162E-13-3.88287E-13
 -1      1287 1.98297E+01 5.09008E+00 2.38492E-04-3.04594E+00-2.65968E-13-1.70669E-13
 -1      1288 2.05260E+01 3.95271E+00-2.59059E-02-3.07545E+00-3.94636E-13 8.97615E-14
 -1      1289 1.91839E+01 5.08437E+00-3.54740E-03-2.07122E+00-2.03273E-13-6.56076E-13
 -1      1290 1.93325E+01 5.13955E+00 1.05478E-02-2.36403E+00-2.26971E-13-5.33452E-13
 -1      1291 1.97531E+01 4.36580E+00-2.45231E-02-2.48974E+00-3.77379E-13-3.29403E-13
 -1      1292 1.90093E+01 5.13078E+00 3.28241E-03-1.56502E+00-1.74028E-13-7.86099E-13
 -1      1293 1.90869E+01 5.16034E+00 1.25445E-02-1.81509E+00-1.86108E-13-7.27227E-13
 -1      1294 1.93916E+01 4.55477E+00-2.00491E-02-1.93242E+00-3.23300E-13-5.54081E-13
 -1      1295 1.89157E+01 5.16071E+00 6.52336E-03-1.11736E+00-1.25865E-13-8.52988E-13
 -1      1296 1.89580E+01 5.17700E+00 1.26755E-02-1.33882E+00-1.42242E-13-8.13403E-13
 -1      1297 1.92059E+01 4.66145E+00-1.61245E-02-1.44488E+00-2.62990E-13-6.56680E-13
 -1      1298 1.88644E+01 5.18044E+00 8.19218E-03-6.94095E-01-8.96577E-14-8.92722E-13
 -1      1299 1.88873E+01 5.18925E+00 1.19620E-02-9.04356E-01-1.00914E-13-8.74665E-13
 -1      1300 1.91030E+01 4.72678E+00-1.40391E-02-1.00463E+00-1.85994E-13-7.25347E-13
 -1      1301 1.88406E+01 5.19234E+00 9.29350E-03-2.89291E-01-4.68519E-14-9.20706E-13
 -1      1302 1.88504E+01 5.19615E+00 1.10644E-02-4.91462E-01-6.03675E-14-9.02113E-13
 -1      1303 1.90475E+01 4.76561E+00-1.29360E-02-5.89030E-01-1.25153E-13-7.50577E-13
 -1      1304 1.88369E+01 5.19728E+00 1.02258E-02 1.08237E-01-1.28186E-14-9.39394E-13
 -1      1305 1.88365E+01 5.19714E+00 1.01540E-02-9.14906E-02-2.35992E-14-9.29447E-13
 -1      1306 1.90234E+01 4.78361E+00-1.24794E-02-1.89184E-01-5.49216E-14-7.76112E-13
 -1      1307 1.88522E+01 5.19580E+00 1.11632E-02 5.08791E-01 2.60196E-14-9.50844E-13
 -1      1308 1.88416E+01 5.19170E+00 9.23132E-03 3.06199E-01 1.05895E-14-9.45955E-13
 -1      1309 1.90243E+01 4.78298E+00-1.24952E-02 2.05835E-01-3.11264E-15-7.97581E-13
 -1      1310 1.88906E+01 5.18810E+00 1.20955E-02 9.23170E-01 5.75989E-14-9.49567E-13
 -1      1311 1.88669E+01 5.17910E+00 8.14009E-03 7.11943E-01 4.48990E-14-9.53010E-13
 -1      1312 1.90501E+01 4.76355E+00-1.29809E-02 6.06352E-01 6.24978E-14-8.04613E-13
 -1      1313 1.89624E+01 5.17510E+00 1.28990E-02 1.35647E+00 9.81160E-14-9.20548E-13
 -1      1314 1.89192E+01 5.15839E+00 6.45395E-03 1.13354E+00 8.37498E-14-9.40168E-13
 -1      1315 1.91074E+01 4.72313E+00-1.40033E-02 1.01978E+00 1.18499E-13-7.99874E-13
 -1      1316 1.90949E+01 5.15664E+00 1.28251E-02 1.84119E+00 1.51055E-13-8.48457E-13
 -1      1317 1.90154E+01 5.12632E+00 3.14650E-03 1.58836E+00 1.30914E-13-8.93934E-13
 -1      1318 1.92127E+01 4.65478E+00-1.61469E-02 1.46298E+00 1.94229E-13-7.59032E-13
 -1      1319 1.93434E+01 5.13339E+00 1.01668E-02 2.39830E+00 2.05874E-13-6.99461E-13
 -1      1320 1.91934E+01 5.07630E+00-4.37750E-03 2.10102E+00 1.80644E-13-7.93254E-13
 -1      1321 1.94052E+01 4.54236E+00-1.99856E-02 1.95871E+00 2.76629E-13-6.73385E-13
 -1      1322 1.98549E+01 5.09935E+00 6.04264E-03 3.08437E+00 2.54963E-13-3.76497E-13
 -1      1323 1.95430E+01 4.98437E+00-2.05464E-02 2.69702E+00 2.21913E-13-5.72219E-13
 -1      1324 1.97744E+01 4.34637E+00-2.45639E-02 2.52858E+00 3.48010E-13-4.86056E-13
 -1      1325 2.11028E+01 4.90696E+00 8.30353E-03 4.05434E+00 2.38892E-13 3.01273E-13
 -1      1326 2.03338E+01 4.73381E+00-4.79761E-02 3.41673E+00 2.25417E-13-1.15685E-13
 -1      1327 2.05640E+01 3.91592E+00-2.24164E-02 3.17889E+00 3.95902E-13-1.02363E-13
 -1      1328 2.72026E+01 3.20542E+00 9.29074E-01 4.58251E+00 1.35628E-13 1.68171E-12
 -1      1329 2.20196E+01 3.52218E+00-1.82007E-01 3.88532E+00 1.33754E-13 7.09099E-13
 -1      1330 2.21118E+01 2.56180E+00-3.25567E-02 3.45700E+00 4.03811E-13 5.17308E-13
 -1      1331 2.14264E+01 3.59598E-01-7.63536E-01 1.18405E+00 2.29011E-13 1.57585E-12
 -1      1332 2.20007E+01 1.31429E-01-4.00898E-01-1.28586E+00-2.21573E-13 1.65368E-12
 -1      1333 2.06778E+01 3.06717E-01-1.64851E-01-8.05878E-01-2.14481E-13 1.39218E-12
 -1      1334 2.00801E+01 1.53471E-01-7.35277E-02-4.02286E-01-1.71172E-13 1.27855E-12
 -1      1335 1.96101E+01 9.11645E-02-1.49312E-02-3.30136E-01-1.66565E-13 1.03453E-12
 -1      1336 2.09717E+01 3.69046E-01-1.04293E-01-1.27414E+00-3.72577E-13 7.68351E-13
 -1      1337 1.92525E+01 6.44920E-02 3.03880E-03-1.35555E-01-1.37117E-13 9.41944E-13
 -1      1338 1.90979E+01 4.12620E-02 1.32207E-02-1.17761E-01-1.33263E-13 7.53834E-13
 -1      1339 1.99207E+01 1.33889E-01-3.51397E-02-5.04343E-01-2.88054E-13 5.95329E-13
 -1      1340 1.89373E+01 3.15292E-02 1.32429E-02-2.82481E-02-9.84213E-14 6.53998E-13
 -1      1341 1.89176E+01 1.93848E-02 1.10578E-02-1.88661E-02-9.44414E-14 5.25711E-13
 -1      1342 1.94430E+01 5.54442E-02-8.51419E-03-1.70445E-01-2.24524E-13 4.19135E-13
 -1      1343 1.88613E+01 1.59985E-02 8.78108E-03 2.47601E-02-7.58870E-14 4.56132E-13
 -1      1344 1.89034E+01 9.05819E-03 6.44050E-03 2.93805E-02-6.01971E-14 3.72140E-13
 -1      1345 1.92337E+01 2.44024E-02-3.49299E-03-1.16335E-02-1.68367E-13 2.46952E-13
 -1      1346 1.89031E+01 7.83323E-03 4.67834E-03 5.04996E-02-4.04663E-14 3.27646E-13
 -1      1347 1.89731E+01 3.48277E-03 3.64553E-03 5.23771E-02-2.58176E-14 2.74525E-13
 -1      1348 1.91764E+01 1.01599E-02-2.20819E-03 6.69656E-02-1.11426E-13 1.64055E-13
 -1      1349 1.90022E+01 3.16523E-03 2.44940E-03 6.11276E-02-2.92062E-14 2.34555E-13
 -1      1350 1.90823E+01 3.14562E-04 2.21593E-03 6.13834E-02-2.35292E-14 1.98791E-13
 -1      1351 1.92019E+01 2.73687E-03-1.31669E-03 1.03689E-01-6.20917E-14 1.04118E-13
 -1      1352 1.91255E+01 4.25905E-04 1.34149E-03 6.30336E-02-4.66053E-14 1.90022E-13
 -1      1353 1.92057E+01-1.47011E-03 1.44697E-03 6.23423E-02-7.56685E-14 7.99343E-14
 -1      1354 1.92703E+01-1.33878E-03-5.55153E-04 1.16865E-01-7.72419E-14 3.43701E-14
 -1      1355 1.92539E+01-1.14650E-03 7.60104E-04 5.99492E-02-5.57219E-14 9.52658E-14
 -1      1356 1.93289E+01-2.39494E-03 9.82410E-04 5.87466E-02-5.02590E-14 3.65420E-14
 -1      1357 1.93578E+01-3.52657E-03-3.86358E-07 1.16485E-01-1.06400E-13-6.38899E-15
 -1      1358 1.93768E+01-1.97266E-03 4.28332E-04 5.42150E-02-5.92662E-14 1.68242E-14
 -1      1359 1.94438E+01-2.76444E-03 6.76742E-04 5.27902E-02-1.53730E-14-3.71899E-14
 -1      1360 1.94504E+01-4.55606E-03 3.45104E-04 1.08538E-01-7.50608E-14 3.33241E-14
 -1      1361 1.94884E+01-2.30728E-03 2.30193E-04 4.73540E-02 1.83669E-14-6.80630E-14
 -1      1362 1.95463E+01-2.76970E-03 4.69236E-04 4.58998E-02-1.25927E-14-6.03419E-14
 -1      1363 1.95399E+01-4.84455E-03 5.24313E-04 9.68288E-02-2.44696E-14-7.23702E-14
 -1      1364 1.95863E+01-2.31300E-03 1.13295E-04 4.03743E-02-3.50349E-14-7.46020E-14
 -1      1365 1.96353E+01-2.53442E-03 3.29968E-04 3.90196E-02-1.87160E-14-9.67280E-14
 -1      1366 1.96219E+01-4.65093E-03 5.83741E-04 8.38473E-02-3.35265E-14-1.68505E-13
 -1      1367 1.96703E+01-2.09529E-03 4.97736E-05 3.39509E-02 7.82900E-15-1.03937E-13
 -1      1368 1.97113E+01-2.13781E-03 2.41222E-04 3.27820E-02-1.46350E-14-8.26869E-14
 -1      1369 1.96948E+01-4.14047E-03 5.59557E-04 7.12523E-02-3.33838E-14-1.68807E-13
 -1      1370 1.97417E+01-1.72075E-03 2.24835E-05 2.85452E-02-2.93705E-14-1.27171E-13
 -1      1371 1.97759E+01-1.62766E-03 1.91221E-04 2.76229E-02-6.43668E-14-1.78904E-13
 -1      1372 1.97585E+01-3.41625E-03 4.76616E-04 6.01680E-02-5.14427E-14-1.78514E-13
 -1      1373 1.98027E+01-1.22784E-03 1.98202E-05 2.44914E-02-6.18914E-14-1.88041E-13
 -1      1374 1.98320E+01-1.02856E-03 1.71625E-04 2.38623E-02-7.62387E-14-2.60298E-13
 -1      1375 1.98143E+01-2.53676E-03 3.50565E-04 5.13864E-02-8.62696E-14-1.87763E-13
 -1      1376 1.98564E+01-6.34015E-04 3.33214E-05 2.20588E-02-4.43699E-14-2.39226E-13
 -1      1377 1.98828E+01-3.48000E-04 1.76190E-04 2.17653E-02 7.33583E-15-2.56500E-13
 -1      1378 1.98643E+01-1.52705E-03 1.90033E-04 4.55128E-02-6.65939E-14-1.57817E-13
 -1      1379 1.99064E+01 5.88985E-05 5.62363E-05 2.14989E-02 3.13249E-14-2.99160E-13
 -1      1380 1.99322E+01 4.18587E-04 1.99831E-04 2.15858E-02 1.56636E-14-2.59028E-13
 -1      1381 1.99114E+01-3.87132E-04-1.55313E-06 4.30724E-02-6.15421E-16-2.37978E-13
 -1      1382 1.99571E+01 8.59904E-04 8.24810E-05 2.30779E-02-2.79266E-14-2.87461E-13
 -1      1383 1.99850E+01 1.28298E-03 2.37791E-04 2.35976E-02-6.48601E-14-3.56611E-13
 -1      1384 1.99590E+01 9.00758E-04-2.24407E-04 4.45872E-02-2.64874E-14-3.91242E-13
 -1      1385 2.00133E+01 1.78392E-03 1.05744E-04 2.70966E-02-2.06260E-14-3.43474E-13
 -1      1386 2.00463E+01 2.25868E-03 2.84772E-04 2.81108E-02-3.70339E-14-3.88378E-13
 -1      1387 2.00112E+01 2.36474E-03-4.80895E-04 5.06246E-02-7.31796E-14-3.50814E-13
 -1      1388 2.00805E+01 2.84579E-03 1.18649E-04 3.38935E-02 6.69983E-16-3.86304E-13
 -1      1389 2.01221E+01 3.35386E-03 3.33935E-04 3.54726E-02-6.81866E-15-3.73209E-13
 -1      1390 2.00726E+01 4.03427E-03-7.73893E-04 6.18177E-02-1.47681E-14-3.11928E-13
 -1      1391 2.01652E+01 4.05197E-03 1.11977E-04 4.38278E-02 2.89222E-15-3.26472E-13
 -1      1392 2.02192E+01 4.56143E-03 3.75758E-04 4.60456E-02 1.00935E-14-3.51845E-13
 -1      1393 2.01484E+01 5.92772E-03-1.10473E-03 7.88471E-02 3.13496E-14-3.27718E-13
 -1      1394 2.02743E+01 5.38845E-03 7.40599E-05 5.72327E-02 3.04525E-14-3.81705E-13
 -1      1395 2.03451E+01 5.84436E-03 3.96845E-04 6.01546E-02-1.08932E-14-3.85361E-13
 -1      1396 2.02446E+01 8.03390E-03-1.47036E-03 1.02373E-01 2.31377E-14-3.32961E-13
 -1      1397 2.04153E+01 6.80237E-03-9.27736E-06 7.43248E-02-4.84414E-14-2.92031E-13
 -1      1398 2.05075E+01 7.11411E-03 3.79075E-04 7.79855E-02-3.20428E-14-4.33206E-13
 -1      1399 2.03675E+01 1.02838E-02-1.85935E-03 1.32894E-01-1.67455E-15-2.73657E-13
 -1      1400 2.05962E+01 8.17479E-03-1.53461E-04 9.50488E-02 2.95598E-14-3.73084E-13
 -1      1401 2.07141E+01 8.19955E-03 3.00008E-04 9.94152E-02 2.26362E-14-3.39449E-13
 -1      1402 2.05233E+01 1.25075E-02-2.24596E-03 1.70494E-01 2.59168E-15-1.03132E-13
 -1      1403 2.08241E+01 9.28139E-03-3.71075E-04 1.18829E-01-5.37547E-16-3.04557E-13
 -1      1404 2.09713E+01 8.80456E-03 1.36391E-04 1.23740E-01 6.62068E-14-2.29382E-13
 -1      1405 2.07182E+01 1.43718E-02-2.58162E-03 2.14435E-01 8.06529E-14-1.44992E-13
 -1      1406 2.11041E+01 9.73982E-03-6.62416E-04 1.44195E-01 6.74123E-14-2.58436E-13
 -1      1407 2.12822E+01 8.45661E-03-1.26136E-04 1.49272E-01 3.34334E-14-1.90216E-13
 -1      1408 2.09564E+01 1.52928E-02-2.78283E-03 2.62540E-01 5.33983E-14-1.29307E-13
 -1      1409 2.14373E+01 8.94869E-03-9.97321E-04 1.68259E-01-1.39927E-14-3.01484E-13
 -1      1410 2.16439E+01 6.45900E-03-4.73177E-04 1.72778E-01-3.05460E-14-2.25861E-13
 -1      1411 2.12393E+01 1.43330E-02-2.71555E-03 3.10300E-01-1.83516E-14-3.65264E-13
 -1      1412 2.18168E+01 6.03982E-03-1.28584E-03 1.86065E-01-9.51349E-15-2.61467E-13
 -1      1413 2.20429E+01 1.88393E-03-8.29556E-04 1.88804E-01-6.94144E-15-2.36216E-13
 -1      1414 2.15624E+01 1.01118E-02-2.17834E-03 3.49742E-01 1.07249E-15-2.86222E-13
 -1      1415 2.22238E+01-9.90062E-05-1.34219E-03 1.89950E-01 3.03067E-15-5.42543E-14
 -1      1416 2.24502E+01-6.31139E-03-1.02219E-03 1.89043E-01 2.09276E-14-2.07889E-14
 -1      1417 2.19123E+01 8.19773E-04-8.93979E-04 3.68207E-01 4.68248E-15-3.09943E-14
 -1      1418 2.26214E+01-1.06101E-02-8.64604E-04 1.69311E-01-5.99781E-15-4.83294E-15
 -1      1419 2.28153E+01-1.88983E-02-7.67561E-04 1.62239E-01-1.01338E-14 9.87752E-15
 -1      1420 2.22629E+01-1.54719E-02 1.46605E-03 3.47620E-01 3.52812E-14 1.28617E-14
 -1      1421 2.29499E+01-2.60655E-02 5.11983E-04 1.11627E-01-2.82283E-14 6.13884E-14
 -1      1422 2.30631E+01-3.55319E-02 2.54770E-04 9.55795E-02-4.31426E-14-1.20771E-14
 -1      1423 2.25715E+01-3.98872E-02 5.17587E-03 2.65472E-01-4.94665E-14 8.91557E-14
 -1      1424 2.31253E+01-4.52787E-02 3.00746E-03 6.05091E-03-9.47159E-16-7.85986E-14
 -1      1425 2.30979E+01-5.33860E-02 2.16523E-03-2.09509E-02-5.85903E-15-9.28524E-14
 -1      1426 2.27777E+01-7.08785E-02 1.01981E-02 9.96661E-02-5.76796E-14 7.25327E-14
 -1      1427 2.30482E+01-6.36428E-02 6.28425E-03-1.49065E-01-5.59067E-14-6.78771E-14
 -1      1428 2.28218E+01-6.57697E-02 4.48942E-03-1.85991E-01-2.95944E-14-1.79422E-13
 -1      1429 2.28070E+01-1.01542E-01 1.57378E-02-1.60229E-01-3.87104E-14-9.24109E-14
 -1      1430 2.26285E+01-7.20164E-02 9.01651E-03-3.35199E-01-4.68375E-17-8.74335E-14
 -1      1431 2.21741E+01-6.23624E-02 5.79915E-03-3.75195E-01 4.81681E-14-1.43156E-13
 -1      1432 2.25871E+01-1.17732E-01 1.97344E-02-4.94713E-01-3.38922E-14-7.40076E-14
 -1      1433 2.18330E+01-5.87134E-02 8.89790E-03-5.04762E-01 3.55089E-14-1.88776E-13
 -1      1434 2.11853E+01-3.36208E-02 4.07976E-03-5.33898E-01-1.76768E-14-1.88141E-13
 -1      1435 2.20776E+01-1.00661E-01 1.88168E-02-8.35388E-01 2.45984E-14-7.66149E-14
 -1      1436 2.07412E+01-1.67368E-02 4.08022E-03-5.86329E-01-7.14569E-14-1.04035E-13
 -1      1437 2.00213E+01 2.02069E-02-1.71059E-03-5.87399E-01 1.20145E-14-9.15240E-14
 -1      1438 2.13126E+01-3.77762E-02 9.70225E-03-1.06323E+00-3.78968E-14-4.85584E-14
 -1      1439 1.95759E+01 4.55578E-02-4.55593E-03-5.15322E-01 1.36741E-13-1.87204E-13
 -1      1440 1.89731E+01 8.10020E-02-9.66234E-03-4.78470E-01 1.01108E-14-5.02376E-15
 -1      1441 2.04338E+01 6.11551E-02-7.33600E-03-1.04701E+00 7.43888E-14-2.21455E-14
 -1      1442 1.86585E+01 1.01164E-01-1.25769E-02-2.82671E-01-1.15727E-13 9.65061E-14
 -1      1443 1.83569E+01 1.17676E-01-1.50292E-02-2.16595E-01-1.59595E-14-6.29713E-14
 -1      1444 1.96764E+01 1.57625E-01-2.55222E-02-7.24202E-01-5.52943E-14-5.15586E-14
 -1      1445 1.82731E+01 1.18946E-01-1.48454E-02 3.68387E-02-9.10418E-14-1.56281E-13
 -1      1446 1.83575E+01 1.07288E-01-1.35678E-02 1.05325E-01-1.27162E-13-3.48353E-13
 -1      1447 1.92790E+01 2.02029E-01-3.41507E-02-1.74359E-01-9.48686E-14-5.93121E-14
 -1      1448 1.85128E+01 8.82326E-02-1.00185E-02 3.15179E-01-2.83003E-14-3.66748E-13
 -1      1449 1.89189E+01 5.51725E-02-5.85218E-03 3.57413E-01-1.51866E-13-4.96651E-13
 -1      1450 1.93548E+01 1.68466E-01-2.72893E-02 3.93385E-01-1.74950E-13-1.71969E-13
 -1      1451 1.92235E+01 2.81208E-02-1.83508E-03 4.48092E-01-9.78752E-14-5.75588E-13
 -1      1452 1.97739E+01-9.14238E-03 3.28152E-03 4.51717E-01-4.83840E-14-7.10369E-13
 -1      1453 1.98189E+01 7.56177E-02-9.58444E-03 7.57372E-01-1.60304E-13-4.05152E-13
 -1      1454 2.00948E+01-2.93574E-02 4.75547E-03 4.12198E-01 1.28673E-13-6.35159E-13
 -1      1455 2.05926E+01-5.57062E-02 9.12039E-03 3.84858E-01 2.21447E-13-4.80858E-13
 -1      1456 2.04414E+01-2.77452E-02 8.36931E-03 8.12545E-01 5.27191E-14-4.13648E-13
 -1      1457 2.08201E+01-6.22904E-02 7.34801E-03 2.59239E-01 2.13854E-13-3.25098E-13
 -1      1458 2.11309E+01-7.19898E-02 1.01212E-02 2.18521E-01 2.29453E-13-7.49713E-14
 -1      1459 2.09770E+01-9.80691E-02 1.86566E-02 6.04662E-01 3.48186E-13-1.98071E-13
 -1      1460 2.12143E+01-6.66799E-02 6.52588E-03 6.94131E-02 1.67422E-13-1.17595E-13
 -1      1461 2.12977E+01-6.21315E-02 7.82710E-03 3.16523E-02 1.21959E-13-8.36635E-15
 -1      1462 2.12690E+01-1.18635E-01 2.01567E-02 2.67689E-01 3.30536E-13-8.23148E-14
 -1      1463 2.12436E+01-5.03524E-02 3.95062E-03-9.02203E-02 1.74721E-13 9.84451E-14
 -1      1464 2.11382E+01-3.71608E-02 4.00831E-03-1.15199E-01 1.96589E-13 3.16937E-13
 -1      1465 2.12792E+01-9.80339E-02 1.53574E-02-6.05390E-02 2.34896E-13 2.82422E-13
 -1      1466 2.09906E+01-2.32966E-02 5.87095E-04-1.81216E-01-5.22399E-14 1.32758E-13
 -1      1467 2.07818E+01-6.61804E-03-1.07435E-04-1.89337E-01-1.31075E-13 6.61381E-14
 -1      1468 2.10619E+01-5.35118E-02 7.49777E-03-2.86211E-01 5.55393E-14 1.73478E-13
 -1      1469 2.05997E+01 7.27076E-03-3.21240E-03-1.89608E-01 6.83817E-14 5.56152E-14
 -1      1470 2.03909E+01 2.32776E-02-2.99027E-03-1.79789E-01 1.31231E-13 1.78696E-13
 -1      1471 2.07214E+01 7.81433E-04-6.70375E-04-3.65046E-01-6.46999E-14 1.74669E-14
 -1      1472 2.02294E+01 3.71407E-02-4.97053E-03-1.17897E-01 1.57189E-13 2.21165E-13
 -1      1473 2.01125E+01 4.02809E-02-2.42652E-04-9.55741E-02 4.67742E-14 3.37925E-13
 -1      1474 2.03716E+01 5.72920E-02-5.40205E-03-2.93347E-01 1.45819E-13 4.35004E-14
 -1      1475 1.99974E+01 1.39145E-02 1.36048E-03 4.95521E-03-3.33506E-13 3.72243E-13
 -1      1476 2.00815E+01 7.04278E-02-3.10326E-03-9.07940E-02-1.69744E-13 6.57416E-14
 -1      1477 2.02588E+01 7.54775E-02-1.52100E-01 4.84023E-01 1.97429E-13 1.14943E-12
 -1      1478 2.15293E+01 2.16130E-01-2.29289E-01 7.21023E-01 1.66894E-13 1.47159E-12
 -1      1479 2.17279E+01 8.81793E-01-8.54639E-02 2.06516E+00 3.41623E-13 8.67181E-13
 -1      1480 1.93301E+01 3.23783E-02-2.13353E-02 1.86185E-01 1.60668E-13 7.58900E-13
 -1      1481 1.97509E+01 1.13614E-01-6.27051E-02 2.38193E-01 1.47597E-13 1.01415E-12
 -1      1482 2.03023E+01 1.87682E-01-5.51901E-02 7.86500E-01 3.08011E-13 6.04568E-13
 -1      1483 1.89478E+01 1.50988E-02 5.66745E-03 5.37017E-02 9.37618E-14 4.66707E-13
 -1      1484 1.90867E+01 5.16167E-02 9.75315E-04 8.00087E-02 1.05849E-13 6.46493E-13
 -1      1485 1.95569E+01 7.18322E-02-1.21533E-02 2.99332E-01 2.32101E-13 3.93085E-13
 -1      1486 1.88368E+01 7.11147E-03 6.97875E-03-8.75966E-03 9.64832E-14 2.57943E-13
 -1      1487 1.88517E+01 2.58447E-02 1.10886E-02 5.62876E-03 7.78991E-14 3.82850E-13
 -1      1488 1.92211E+01 3.10206E-02-2.45840E-03 8.38876E-02 1.73651E-13 1.91354E-13
 -1      1489 1.88622E+01 3.19868E-03 4.78593E-03-3.89665E-02 4.41008E-14 9.79876E-14
 -1      1490 1.88188E+01 1.37891E-02 8.52055E-03-3.08618E-02 5.92850E-14 1.92558E-13
 -1      1491 1.91040E+01 1.32418E-02-1.61228E-03-2.10169E-02 1.31567E-13 6.51710E-14
 -1      1492 1.89555E+01 1.04147E-03 3.29748E-03-5.23454E-02 8.58840E-15 6.34163E-14
 -1      1493 1.88855E+01 7.25755E-03 5.36790E-03-4.78903E-02 1.51724E-14 7.73080E-14
 -1      1494 1.91045E+01 4.51520E-03-1.62594E-03-7.24154E-02 5.00858E-14 2.32540E-14
 -1      1495 1.90788E+01-2.04233E-04 2.51492E-03-5.62448E-02 7.52146E-14-5.40609E-14
 -1      1496 1.89993E+01 3.42342E-03 3.43170E-03-5.40495E-02 4.27245E-14 8.33795E-15
 -1      1497 1.91665E+01-1.36816E-04-1.36976E-03-9.49594E-02 6.45533E-14-6.91435E-14
 -1      1498 1.92105E+01-9.04868E-04 2.04955E-03-5.47093E-02 4.16730E-14-2.20842E-13
 -1      1499 1.91309E+01 1.09640E-03 2.33035E-03-5.39329E-02 6.49020E-14-1.09274E-13
 -1      1500 1.92576E+01-2.64698E-03-9.94019E-04-1.01070E-01 1.13918E-13-1.43585E-13
 -1      1501 1.93380E+01-1.25514E-03 1.70399E-03-5.01913E-02 1.46220E-14-2.91015E-13
 -1      1502 1.92638E+01-2.98769E-04 1.65393E-03-5.02877E-02 1.32150E-14-2.47430E-13
 -1      1503 1.93589E+01-3.89886E-03-6.52249E-04-9.77759E-02 5.09368E-14-2.12748E-13
 -1      1504 1.94547E+01-1.37354E-03 1.41138E-03-4.42554E-02 2.59317E-14-3.33229E-13
 -1      1505 1.93885E+01-1.08344E-03 1.19652E-03-4.48576E-02 3.21671E-14-3.08877E-13
 -1      1506 1.94593E+01-4.36867E-03-3.91123E-04-8.93870E-02 4.82745E-14-2.59284E-13
 -1      1507 1.95574E+01-1.33705E-03 1.15339E-03-3.79256E-02 3.78287E-14-4.20586E-13
 -1      1508 1.95002E+01-1.45563E-03 8.69036E-04-3.87812E-02 4.51719E-14-3.61039E-13
 -1      1509 1.95526E+01-4.34176E-03-2.08330E-04-7.86708E-02 5.78099E-14-2.28423E-13
 -1      1510 1.96457E+01-1.19615E-03 9.24865E-04-3.18797E-02 1.67906E-14-4.80035E-13
 -1      1511 1.95974E+01-1.54353E-03 6.30178E-04-3.28123E-02 4.28769E-15-4.72230E-13
 -1      1512 1.96360E+01-3.99866E-03-9.02228E-05-6.74478E-02 4.87466E-14-3.37732E-13
 -1      1513 1.97204E+01-9.82634E-04 7.22937E-04-2.65737E-02 9.96946E-15-4.97225E-13
 -1      1514 1.96801E+01-1.43059E-03 4.57097E-04-2.74564E-02 9.90657E-15-4.62573E-13
 -1      1515 1.97088E+01-3.45447E-03-2.43774E-05-5.69347E-02 1.91364E-14-3.68034E-13
 -1      1516 1.97836E+01-7.14280E-04 5.44350E-04-2.23271E-02-1.41956E-14-5.64380E-13
 -1      1517 1.97501E+01-1.16873E-03 3.35085E-04-2.30643E-02 4.55452E-15-5.49467E-13
 -1      1518 1.97717E+01-2.77938E-03-2.20651E-06-4.79651E-02 3.57086E-14-4.45002E-13
 -1      1519 1.98384E+01-3.97831E-04 3.84874E-04-1.93869E-02-1.37726E-14-5.32472E-13
 -1      1520 1.98098E+01-7.86039E-04 2.53877E-04-1.98993E-02 1.58745E-14-5.56859E-13
 -1      1521 1.98267E+01-2.01052E-03-1.90716E-05-4.11448E-02 8.66974E-15-4.44132E-13
 -1      1522 1.98882E+01-3.10294E-05 2.39241E-04-1.79772E-02-1.93450E-14-4.83749E-13
 -1      1523 1.98626E+01-2.91502E-04 2.06078E-04-1.81898E-02-5.77928E-14-5.59542E-13
 -1      1524 1.98764E+01-1.15955E-03-7.40718E-05-3.69674E-02-4.78124E-14-3.32347E-13
 -1      1525 1.99375E+01 3.95862E-04 1.01185E-04-1.83398E-02 8.42207E-14-5.87092E-13
 -1      1526 1.99124E+01 3.21850E-04 1.86316E-04-1.81711E-02 8.96127E-14-5.12808E-13
 -1      1527 1.99242E+01-2.17798E-04-1.69919E-04-3.59052E-02 1.09243E-13-4.17092E-13
 -1      1528 1.99911E+01 8.98868E-04-3.65418E-05-2.07666E-02 3.75993E-14-7.34688E-13
 -1      1529 1.99639E+01 1.07476E-03 1.90678E-04-2.01196E-02 7.76965E-14-6.28612E-13
 -1      1530 1.99742E+01 8.39900E-04-3.12944E-04-3.84823E-02 1.49132E-13-4.12302E-13
 -1      1531 2.00551E+01 1.49920E-03-1.82272E-04-2.56277E-02-2.84692E-14-7.21694E-13
 -1      1532 2.00225E+01 2.00010E-03 2.16205E-04-2.43804E-02-4.04188E-15-7.31492E-13
 -1      1533 2.00310E+01 2.05213E-03-5.13226E-04-4.53340E-02 4.89009E-14-4.46911E-13
 -1      1534 2.01364E+01 2.22185E-03-3.45673E-04-3.33929E-02-8.53489E-14-6.06634E-13
 -1      1535 2.00945E+01 3.14117E-03 2.60274E-04-3.13902E-02-5.63075E-14-6.94357E-13
 -1      1536 2.01005E+01 3.46808E-03-7.84776E-04-5.72541E-02-8.17134E-14-4.43429E-13
 -1      1537 2.02434E+01 3.09316E-03-5.38140E-04-4.46448E-02-2.99361E-14-4.44203E-13
 -1      1538 2.01877E+01 4.54916E-03 3.19695E-04-4.16910E-02-4.45946E-14-5.12994E-13
 -1      1539 2.01894E+01 5.14388E-03-1.14565E-03-7.52281E-02-1.31421E-13-3.36628E-13
 -1      1540 2.03861E+01 4.13600E-03-7.73166E-04-6.00786E-02 6.30445E-14-5.73562E-13
 -1      1541 2.03111E+01 6.27788E-03 3.89323E-04-5.59324E-02 5.32821E-14-4.53442E-13
 -1      1542 2.03056E+01 7.13634E-03-1.61763E-03-1.00444E-01 4.59727E-14-3.22775E-13
 -1      1543 2.05763E+01 5.36020E-03-1.06621E-03-8.04728E-02-6.10384E-14-5.99591E-13
 -1      1544 2.04754E+01 8.37264E-03 4.59942E-04-7.48481E-02-2.54060E-14-6.50429E-13
 -1      1545 2.04585E+01 9.49060E-03-2.22484E-03-1.34264E-01 2.77291E-14-4.27784E-13
 -1      1546 2.08277E+01 6.74357E-03-1.43269E-03-1.06603E-01-4.35296E-14-4.91092E-13
 -1      1547 2.06932E+01 1.08471E-02 5.15326E-04-9.91842E-02-9.25468E-14-5.94510E-13
 -1      1548 2.06588E+01 1.22152E-02-2.98962E-03-1.78117E-01-1.10851E-13-5.50360E-13
 -1      1549 2.11556E+01 8.19632E-03-1.88055E-03-1.39051E-01-4.24888E-14-3.41006E-13
 -1      1550 2.09787E+01 1.36373E-02 5.28997E-04-1.29536E-01-1.33639E-14-4.08954E-13
 -1      1551 2.09184E+01 1.52330E-02-3.92261E-03-2.33241E-01-1.23592E-13-3.74331E-13
 -1      1552 2.15755E+01 9.49715E-03-2.38988E-03-1.77807E-01 1.15246E-14-2.70923E-13
 -1      1553 2.13472E+01 1.65150E-02 4.63081E-04-1.66012E-01 8.06603E-15-2.39545E-13
 -1      1554 2.12498E+01 1.82883E-02-5.00096E-03-3.00156E-01-4.49701E-14-2.92893E-13
 -1      1555 2.21005E+01 1.01869E-02-2.86468E-03-2.21535E-01-8.77575E-15-3.94646E-13
 -1      1556 2.18129E+01 1.89352E-02 2.75942E-04-2.07606E-01-3.87602E-15-3.25507E-13
 -1      1557 2.16642E+01 2.07799E-02-6.12370E-03-3.77650E-01 5.18491E-14-2.48907E-13
 -1      1558 2.27364E+01 9.41186E-03-3.03529E-03-2.66282E-01-7.73470E-15-3.61390E-13
 -1      1559 2.23856E+01 1.97906E-02-4.70986E-05-2.51092E-01-8.41232E-15-3.49009E-13
 -1      1560 2.21690E+01 2.14864E-02-7.02880E-03-4.60977E-01-4.69290E-14-2.13811E-13
 -1      1561 2.34718E+01 5.74740E-03-2.29806E-03-3.03442E-01 4.43710E-15-4.48905E-13
 -1      1562 2.30640E+01 1.70849E-02-4.17546E-04-2.89267E-01-8.80405E-15-3.84382E-13
 -1      1563 2.27619E+01 1.81736E-02-7.15954E-03-5.38928E-01 1.92567E-14-2.74799E-13
 -1      1564 2.42639E+01-2.84507E-03 4.60909E-04-3.17107E-01-3.71443E-14-4.61447E-13
 -1      1565 2.38239E+01 7.66547E-03-5.06085E-04-3.08582E-01-5.40995E-15-4.14859E-13
 -1      1566 2.34227E+01 7.20917E-03-5.50323E-03-5.89685E-01-3.22068E-14-1.89905E-13
 -1      1567 2.50182E+01-1.85219E-02 6.82221E-03-2.81918E-01-7.14793E-14-3.17690E-13
 -1      1568 2.46020E+01-1.25034E-02 4.20433E-04-2.86976E-01-8.04383E-14-5.30884E-13
 -1      1569 2.41009E+01-1.63507E-02-5.41484E-04-5.76481E-01-7.62094E-14-2.24944E-13
 -1      1570 2.55698E+01-4.19110E-02 1.79683E-02-1.64773E-01-2.90991E-14-1.79152E-13
 -1      1571 2.52769E+01-4.66061E-02 3.43934E-03-1.94559E-01-3.67857E-14-3.23522E-13
 -1      1572 2.47027E+01-5.70316E-02 9.35071E-03-4.46842E-01-8.70996E-14-1.84585E-13
 -1      1573 2.56838E+01-6.82384E-02 3.20634E-02 6.30368E-02 5.18544E-14-2.68514E-13
 -1      1574 2.56571E+01-9.22193E-02 9.16714E-03-2.39963E-03 1.04534E-14-2.73843E-13
 -1      1575 2.50827E+01-1.13898E-01 2.43054E-02-1.43824E-01 2.82066E-14-3.75052E-13
 -1      1576 2.51086E+01-8.18429E-02 4.04986E-02 3.93562E-01-5.67428E-14-3.99666E-13
 -1      1577 2.55002E+01-1.32928E-01 1.55926E-02 2.92412E-01 1.50973E-14-3.01960E-13
 -1      1578 2.50570E+01-1.69819E-01 3.99325E-02 3.57076E-01 2.35940E-14-5.05859E-13
 -1      1579 2.37227E+01-5.96109E-02 2.86156E-02 7.34856E-01 5.49335E-14-5.87252E-13
 -1      1580 2.46003E+01-1.35022E-01 1.61144E-02 6.24410E-01 6.31543E-14-4.08951E-13
 -1      1581 2.44637E+01-1.82677E-01 4.49070E-02 9.76300E-01 8.91023E-14-4.48724E-13
 -1      1582 2.17446E+01 1.00695E-02-1.24536E-02 9.04838E-01 1.75991E-13-8.77895E-13
 -1      1583 2.29644E+01-6.61029E-02 2.95266E-03 8.40360E-01 4.90998E-14-6.98025E-13
 -1      1584 2.32960E+01-9.96901E-02 2.82055E-02 1.47331E+00 1.49387E-13-4.74044E-13
 -1      1585 1.98329E+01 9.93249E-02-6.77007E-02 7.19201E-01-9.95991E-14-8.47239E-13
 -1      1586 2.09835E+01 6.63375E-02-2.46099E-02 7.57862E-01-5.68347E-14-8.21038E-13
 -1      1587 2.18368E+01 8.98199E-02-9.62940E-03 1.50890E+00-1.35725E-14-5.54723E-13
 -1      1588 1.88404E+01 1.41844E-01-9.73195E-02 1.88382E-01-9.52537E-14-4.31591E-13
 -1      1589 1.94105E+01 1.85146E-01-5.06175E-02 3.27224E-01-3.64084E-14-4.84585E-13
 -1      1590 2.06591E+01 2.90830E-01-4.74938E-02 8.92265E-01-1.83353E-13-3.50647E-13
 -1      1591 1.92251E+01 1.03567E-01-7.11606E-02-4.11784E-01-1.41111E-13-3.39381E-14
 -1      1592 1.89557E+01 2.04279E-01-5.14803E-02-2.48859E-01-2.08430E-13-3.22870E-13
 -1      1593 2.03135E+01 3.51634E-01-5.73342E-02-1.36164E-01-2.35881E-13 8.91197E-14
 -1      1594 2.06816E+01 1.53229E-02-8.54039E-03-7.49001E-01-1.19899E-13 1.83048E-13
 -1      1595 1.97690E+01 1.14438E-01-2.28000E-02-6.51654E-01-5.75616E-14 5.14866E-14
 -1      1596 2.09041E+01 2.16745E-01-3.64172E-02-1.01575E+00-2.19248E-13 2.21715E-13
 -1      1597 2.23734E+01-5.72106E-02 4.30824E-02-6.94905E-01 1.69926E-13 9.83519E-14
 -1      1598 2.13212E+01-1.13547E-02 1.24925E-02-6.95795E-01 7.85049E-15 1.41803E-13
 -1      1599 2.20076E+01-1.62790E-02-8.53777E-03-1.30303E+00 1.27437E-14 1.81841E-13
 -1      1600 2.35489E+01-8.17105E-02 5.97159E-02-3.83763E-01-2.36552E-13 1.89543E-13
 -1      1601 2.28071E+01-9.35353E-02 3.17349E-02-4.49607E-01-3.07150E-14 1.58457E-13
 -1      1602 2.30135E+01-1.81761E-01 1.02926E-02-9.89678E-01-5.69336E-14 3.69902E-13
 -1      1603 2.38994E+01-6.89333E-02 4.79596E-02-2.34752E-02 1.48033E-13 1.85258E-13
 -1      1604 2.36536E+01-1.12078E-01 3.12384E-02-1.04960E-01-6.10623E-16 1.98071E-13
 -1      1605 2.35161E+01-2.20276E-01 1.70434E-02-3.82892E-01-5.21146E-14 4.30772E-13
 -1      1606 2.35083E+01-4.11276E-02 2.62311E-02 2.51108E-01 1.52395E-13-1.30208E-14
 -1      1607 2.37077E+01-8.86567E-02 1.98298E-02 1.85803E-01 1.05211E-13 2.53213E-14
 -1      1608 2.34250E+01-1.71207E-01 1.55223E-02 2.03253E-01 2.48896E-13 2.20466E-14
 -1      1609 2.26464E+01-1.25663E-02 6.08149E-03 3.96013E-01 1.21720E-13-1.80168E-13
 -1      1610 2.31272E+01-4.93323E-02 7.40605E-03 3.58137E-01 1.84943E-13 4.72296E-14
 -1      1611 2.28682E+01-9.26749E-02 1.01614E-02 5.99560E-01 2.44751E-13 2.17257E-14
 -1      1612 2.16193E+01 1.30662E-02-9.82431E-03 4.15054E-01 6.25733E-14-3.94566E-13
 -1      1613 2.21971E+01-7.63152E-03-2.16280E-03 4.06017E-01 4.82787E-14-2.74468E-13
 -1      1614 2.20591E+01-1.71990E-02 2.68763E-03 7.63766E-01 1.49892E-13-5.94195E-14
 -1      1615 2.07100E+01 3.66902E-02-1.99841E-02 3.19980E-01-2.40988E-14-4.42002E-13
 -1      1616 2.12107E+01 3.42080E-02-8.89467E-03 3.41302E-01 6.43253E-14-3.75498E-13
 -1      1617 2.12154E+01 5.05946E-02-5.95496E-03 7.08352E-01 1.77619E-13-2.89668E-13
 -1      1618 2.01587E+01 5.96042E-02-5.59510E-03 1.35306E-01 3.16678E-14-4.01933E-13
 -1      1619 2.04233E+01 7.09358E-02-9.91206E-03 1.81169E-01-1.34706E-14-5.61870E-13
 -1      1620 2.05179E+01 1.13326E-01-1.18381E-02 4.59265E-01 7.04727E-14-1.91666E-13
 -1      1621 2.00264E+01 4.83512E-02-2.00960E-03 1.65761E-02-1.37715E-13-1.77902E-13
 -1      1622 2.00740E+01 5.86839E-01-1.10527E-02 2.85333E-01-2.34146E-13-1.76802E-13
 -1      1623 2.00867E+01 2.93956E-01-9.20231E-04 2.31497E-01-1.27929E-13 9.91841E-14
 -1      1624 2.00456E+01 1.46441E+00-5.42717E-03 4.64881E-01-2.88880E-13 5.50749E-14
 -1      1625 2.00648E+01 9.30692E-01-8.19821E-03 4.34345E-01-1.73304E-13-1.66902E-13
 -1      1626 2.01380E+01 7.94002E-01-1.51841E-02 6.93623E-01-3.59801E-14-2.60148E-13
 -1      1627 2.00122E+01 2.57575E+00-1.62455E-03 5.64432E-01-2.40023E-13 1.11577E-14
 -1      1628 2.00345E+01 1.90922E+00-5.42855E-03 5.51180E-01-2.89331E-13 8.95720E-14
 -1      1629 2.00709E+01 1.56880E+00-1.14194E-02 9.76298E-01-2.99526E-14 1.35775E-13
 -1      1630 1.99751E+01 3.75230E+00 1.05000E-03 5.70098E-01 6.25541E-14 2.16873E-14
 -1      1631 1.99991E+01 3.06871E+00-2.21347E-03 5.76551E-01-1.59095E-13 7.70360E-14
 -1      1632 2.00094E+01 2.49477E+00-2.49665E-03 1.09594E+00 1.16563E-13 1.40704E-13
 -1      1633 1.99391E+01 4.77815E+00 3.29518E-03 4.75523E-01-5.82728E-13-2.21215E-13
 -1      1634 1.99604E+01 4.20685E+00 7.13657E-04 5.02042E-01-1.93026E-13-3.15983E-13
 -1      1635 1.99455E+01 3.43493E+00 8.82536E-03 1.02939E+00-1.30345E-13-3.91122E-13
 -1      1636 1.99119E+01 5.49431E+00 5.21607E-03 2.86052E-01-4.94623E-13 1.16162E-13
 -1      1637 1.99264E+01 5.12792E+00 3.68943E-03 3.30831E-01-6.62560E-13-2.26485E-14
 -1      1638 1.98877E+01 4.23493E+00 1.97017E-02 7.74106E-01-3.42308E-13-3.16546E-13
 -1      1639 1.99045E+01 5.73645E+00 5.61714E-03 3.86811E-02-2.05630E-13 1.06460E-14
 -1      1640 1.99064E+01 5.65769E+00 5.28181E-03 9.13589E-02-4.15595E-13 2.36200E-13
 -1      1641 1.98500E+01 4.74496E+00 2.72544E-02 3.62487E-01-2.09670E-13 2.42634E-13
 -1      1642 1.99199E+01 5.46576E+00 3.98936E-03-2.08954E-01 2.02257E-13 2.22874E-13
 -1      1643 1.99087E+01 5.68237E+00 4.89705E-03-1.61509E-01-7.58230E-14 2.00273E-13
 -1      1644 1.98461E+01 4.85216E+00 2.81152E-02-1.17575E-01-7.56185E-14 1.90639E-13
 -1      1645 1.99517E+01 4.76055E+00 9.02151E-04-3.99695E-01 5.74901E-13 4.18363E-14
 -1      1646 1.99319E+01 5.21336E+00 2.78775E-03-3.68377E-01 3.91298E-13 2.85091E-13
 -1      1647 1.98774E+01 4.54360E+00 2.19261E-02-5.54166E-01 2.44588E-13 3.24107E-13
 -1      1648 1.99880E+01 3.78598E+00-2.20858E-03-4.99395E-01 1.22968E-13-2.56620E-13
 -1      1649 1.99667E+01 4.37172E+00 2.25432E-04-4.88582E-01 4.92356E-13-2.08174E-13
 -1      1650 1.99315E+01 3.90224E+00 1.14157E-02-8.53655E-01 5.66994E-14-1.09323E-13
 -1      1651 2.00176E+01 2.75016E+00-4.02009E-03-5.06806E-01-3.28702E-13-6.91631E-14
 -1      1652 2.00003E+01 3.34906E+00-1.56430E-03-5.13383E-01 1.05031E-13-2.96244E-13
 -1      1653 1.99897E+01 3.07980E+00 7.91917E-04-9.74633E-01-1.62812E-14-5.60311E-13
 -1      1654 2.00363E+01 1.77630E+00-4.57734E-03-4.44344E-01-3.35419E-13-2.57858E-14
 -1      1655 2.00247E+01 2.32077E+00-2.32017E-03-4.62243E-01-3.04333E-13 1.87254E-13
 -1      1656 2.00347E+01 2.22284E+00-7.10450E-03-9.34840E-01-3.88231E-14 7.06249E-15
 -1      1657 2.00444E+01 9.88423E-01-4.25433E-03-3.42602E-01-1.15789E-13 1.95657E-13
 -1      1658 2.00379E+01 1.41392E+00-2.33156E-03-3.64565E-01-3.00548E-13 1.36740E-13
 -1      1659 2.00621E+01 1.44421E+00-1.13738E-02-7.82452E-01 6.17102E-14 4.34596E-14
 -1      1660 2.00502E+01 4.46064E-01 6.19231E-04-2.27086E-01-1.86924E-13 8.33795E-15
 -1      1661 2.00391E+01 7.18577E-01-3.38971E-03-2.46949E-01-9.87214E-14 4.25788E-14
 -1      1662 2.00770E+01 8.24269E-01-1.16536E-02-5.70983E-01-1.57633E-13 1.35524E-13
 -1      1663 2.00738E+01 1.71422E-01 5.58935E-03-1.50482E-01-2.04248E-13-1.14917E-13
 -1      1664 2.00718E+01 2.98622E-01-1.87007E-03-1.91015E-01-3.41242E-14-6.57694E-14
 -1      1665 2.01192E+01 4.26982E-01-7.83329E-03-4.02856E-01-9.81621E-14 7.54041E-14
 -1      1666 2.01872E+01 1.83101E-01-5.14746E-03-2.88805E-01 1.96125E-13-1.22875E-13
 -1      1667-7.49587E-01-1.62970E+01-1.85162E+00-1.27784E+00 2.84439E-13-5.07872E-13
 -1      1668-6.82944E-01-1.85991E+01-2.04942E+00 2.36602E-01 9.26412E-13-1.55986E-13
 -1      1669 1.55304E+00-8.46471E+00-1.25459E+00 5.19634E-01-9.68670E-13-7.95225E-13
 -1      1670 6.13873E-01-1.45064E+01-1.87151E+00-3.32116E-01-9.85878E-14-6.61932E-13
 -1      1671 7.56452E+00-3.63535E-01-5.39172E-01 4.82439E+00-8.32223E-13-2.49356E-13
 -1      1672 4.22215E+00-6.02753E+00-1.35224E+00 1.73785E+00-9.92761E-13-4.62241E-13
 -1      1673 1.83849E+01 5.12420E+00 2.96282E-01 1.01049E+01-2.47913E-13-1.48326E-13
 -1      1674 1.17056E+01 1.65163E+00-6.24643E-01 6.30486E+00-6.26610E-13-2.29927E-13
 -1      1675 3.29527E+01 6.71269E+00 1.11733E+00 1.31157E+01-1.11466E-13-5.68434E-14
 -1      1676 2.36277E+01 6.23653E+00 2.00656E-01 1.09608E+01-2.57905E-13-1.68532E-13
 -1      1677 4.76918E+01 5.24507E+00 1.75217E+00 1.10827E+01-6.29080E-14 7.07212E-14
 -1      1678 3.83409E+01 6.93757E+00 1.04474E+00 1.26758E+01-1.06914E-13-7.14984E-14
 -1      1679 5.56600E+01 3.70983E+00 1.92081E+00 3.81326E+00 1.71835E-13-8.71914E-13
 -1      1680 5.10697E+01 5.11007E+00 1.67119E+00 8.88771E+00 1.70100E-13-3.18301E-13
 -1      1681 5.34710E+01 4.30777E+00 1.69561E+00-4.84607E+00 4.30878E-13-1.40221E-12
 -1      1682 5.55891E+01 3.85894E+00 1.84856E+00 1.07559E+00 2.19824E-13-9.68385E-13
 -1      1683 4.42619E+01 5.81170E+00 1.26520E+00-1.10027E+01 8.51458E-13-1.79368E-12
 -1      1684 5.19350E+01 4.13719E+00 1.82957E+00-7.68665E+00 6.17437E-13-1.56541E-12
 -1      1685 2.97133E+01 5.96035E+00 4.22033E-01-1.08989E+01 9.59899E-13-1.70108E-12
 -1      1686 3.94445E+01 5.46749E+00 1.28919E+00-1.15109E+01 8.46490E-13-1.90137E-12
 -1      1687 1.60711E+01 2.16033E+00-4.35650E-01-7.12098E+00 9.68337E-13-1.32871E-12
 -1      1688 2.45047E+01 4.50898E+00 4.79573E-01-1.05114E+01 1.01108E-12-1.62803E-12
 -1      1689 5.44378E+00-3.80994E+00-1.23887E+00-2.44140E+00 8.23119E-13-8.25007E-13
 -1      1690 9.97493E+00 1.34251E+00-3.79373E-01-6.07364E+00 1.02185E-12-1.02873E-12
 -1      1691 1.16927E+00-1.16913E+01-1.68770E+00 3.29709E-01 2.50577E-13-3.64778E-13
 -1      1692 2.48628E+00-6.01015E+00-1.08409E+00-1.10735E+00 7.23643E-13-5.55445E-13
 -1      1693-3.88348E-01-1.67334E+01-1.85746E+00 2.81103E-01-7.21645E-13-3.69094E-13
 -1      1694-3.25679E-01-1.33309E+01-1.57455E+00 1.11371E+00-1.11022E-15-4.65836E-13
 -1      1695-7.64131E-01-1.65828E+01-1.77714E+00-7.65215E-01-7.57394E-13 3.26683E-14
 -1      1696-7.86537E-01-1.72736E+01-1.83760E+00 8.68117E-01-8.37802E-13-4.62963E-14
 -1      1697 1.97320E-01-1.08930E+01-1.41475E+00-5.30777E-01-2.90434E-13 1.84554E-13
 -1      1698-1.08759E-01-1.57875E+01-1.88316E+00-2.98925E-01-7.14206E-13 7.37604E-14
 -1      1699 5.22916E+00-2.81480E+00-7.04138E-01 3.37481E+00 4.88498E-15 7.03881E-14
 -1      1700 2.86775E+00-8.58270E+00-1.38883E+00 1.01269E+00-1.19016E-13 3.88578E-14
 -1      1701 1.38243E+01 3.87116E+00 1.27647E-02 8.27638E+00-1.21236E-13-1.12355E-13
 -1      1702 8.40892E+00-3.66879E-01-8.23497E-01 4.58111E+00-2.22045E-15-1.11022E-14
 -1      1703 2.68675E+01 6.48020E+00 7.54520E-01 1.21726E+01-1.49325E-13-8.01581E-13
 -1      1704 1.86812E+01 5.17453E+00-9.54418E-02 9.39926E+00-1.04583E-13-3.06644E-13
 -1      1705 4.14536E+01 5.86242E+00 1.42700E+00 1.21662E+01-3.50109E-13-1.04006E-12
 -1      1706 3.21800E+01 6.92020E+00 6.78992E-01 1.22591E+01-2.43694E-13-8.31113E-13
 -1      1707 5.27458E+01 3.99429E+00 1.83675E+00 6.92338E+00-2.96374E-13-1.45972E-12
 -1      1708 4.59290E+01 5.65019E+00 1.35679E+00 1.06744E+01-3.47271E-13-1.27165E-12
 -1      1709 5.57046E+01 3.65058E+00 1.87313E+00-1.73042E+00 5.70100E-14-1.45098E-12
 -1      1710 5.45290E+01 3.93607E+00 1.78394E+00 4.15523E+00-1.10606E-13-1.42331E-12
 -1      1711 5.01318E+01 5.08804E+00 1.61802E+00-9.31138E+00 3.04895E-14-1.19249E-12
 -1      1712 5.50691E+01 3.68595E+00 1.93491E+00-4.62063E+00 2.20657E-14-1.45872E-12
 -1      1713 3.77849E+01 6.93429E+00 1.01960E+00-1.26298E+01-8.87068E-14-5.82645E-13
 -1      1714 4.64742E+01 5.40202E+00 1.68835E+00-1.12130E+01-7.88675E-14-1.04050E-12
 -1      1715 2.35871E+01 6.06312E+00 2.00436E-01-1.07302E+01 2.06168E-13-1.52323E-13
 -1      1716 3.27347E+01 6.50938E+00 1.08074E+00-1.27740E+01 3.90799E-14-3.26628E-13
 -1      1717 1.14978E+01 1.26251E+00-6.20382E-01-6.11712E+00 3.08864E-13-1.93179E-13
 -1      1718 1.83361E+01 4.90196E+00 3.07726E-01-1.00178E+01 2.41696E-13-1.64091E-13
 -1      1719 4.07220E+00-6.26839E+00-1.27175E+00-1.77607E+00-1.39888E-14-2.79277E-13
 -1      1720 7.07089E+00-5.40647E-01-5.19256E-01-4.63758E+00 2.28706E-13-2.90212E-13
 -1      1721 1.21629E+00-1.34649E+01-1.57617E+00-4.79601E-01 3.05422E-13 8.04842E-14
 -1      1722 2.16634E+00-8.32458E+00-1.07205E+00-1.23720E+00 7.06102E-14-2.08805E-13
 -1      1723-6.83262E-01-1.81984E+01-1.99574E+00-3.39061E-01 9.93372E-13 2.11470E-13
 -1      1724-6.98275E-01-1.55804E+01-1.73065E+00 1.07423E+00 4.17222E-13 2.50522E-13
 -1      1725 2.55075E+01 1.03281E+00 3.26920E-01 7.72076E+00-2.97873E-13-5.91749E-14
 -1      1726 1.50593E+01-3.23191E+00-3.38585E-01 6.60329E+00-5.58775E-13 2.15050E-13
 -1      1727 2.00959E+01 1.20299E-01-1.21239E-02 1.33459E-01-2.29638E-13 1.39071E-14
 -1      1728 2.02159E+01 3.08912E-01-9.12124E-03 3.95138E-01-3.68846E-15 2.08205E-13
 -1      1729 5.42142E-01-1.14928E+01-1.30756E+00 2.35478E+00-9.10383E-15-1.03795E-12
 -1      1730 6.46462E+00-7.84981E+00-8.99815E-01 4.66836E+00-5.14699E-13-3.64556E-13
 -1      1731-1.48814E+00-1.27679E+01-1.44014E+00-1.66979E-01 2.65454E-13 1.54876E-14
 -1      1732 3.61985E+01 4.41317E+00 9.65256E-01 7.36010E+00-2.12164E-13-8.19345E-14
 -1      1733 4.46170E+01 6.57252E+00 1.45293E+00 4.99956E+00 1.79023E-13-5.56555E-13
 -1      1734 4.73163E+01 7.78266E+00 1.54521E+00 1.27599E+00 3.87579E-13-1.05665E-12
 -1      1735 4.60780E+01 7.11408E+00 1.48218E+00-2.50654E+00 6.57918E-13-1.09290E-12
 -1      1736 3.98262E+01 4.86362E+00 1.06742E+00-5.22932E+00 6.89088E-13-1.28597E-12
 -1      1737 3.00517E+01 1.07423E+00 4.37315E-01-6.02468E+00 7.53508E-13-1.45572E-12
 -1      1738 1.89847E+01-2.44900E+00-5.96230E-02-6.51114E+00 7.14206E-13-1.14342E-12
 -1      1739 8.28776E+00-6.37626E+00-7.58333E-01-4.78684E+00 4.91718E-13-7.73520E-13
 -1      1740 1.87377E+00-1.00842E+01-1.15463E+00-2.68456E+00 6.00631E-14-6.69076E-13
 -1      1741-1.18787E+00-1.17931E+01-1.30416E+00-6.39035E-01-2.79471E-13-3.70703E-13
 -1      1742-6.73890E-01-1.15937E+01-1.31154E+00 1.52698E+00-3.75699E-13 1.50435E-13
 -1      1743 4.14768E+00-8.55847E+00-8.87214E-01 4.13530E+00-3.07865E-13 2.61506E-13
 -1      1744 1.16400E+01-4.64243E+00-5.44607E-01 5.95839E+00-2.84217E-14-3.11973E-14
 -1      1745 2.11046E+01-2.59580E-02 7.50211E-02 7.35071E+00 1.72085E-14-3.01315E-13
 -1      1746 3.16518E+01 3.40373E+00 6.86397E-01 7.54084E+00 1.50990E-14-8.43769E-13
 -1      1747 4.10307E+01 5.79823E+00 1.21379E+00 5.88242E+00-1.01433E-13-8.71969E-13
 -1      1748 4.68561E+01 7.07313E+00 1.50664E+00 2.53682E+00-8.32112E-14-9.93927E-13
 -1      1749 4.78253E+01 7.41302E+00 1.59066E+00-1.65359E+00 2.25930E-14-1.04583E-12
 -1      1750 4.39249E+01 6.57103E+00 1.42669E+00-5.25184E+00-1.99896E-13-1.02129E-12
 -1      1751 3.56091E+01 4.32997E+00 9.13440E-01-7.17905E+00-4.47142E-14-5.75096E-13
 -1      1752 2.54044E+01 7.76272E-01 3.25247E-01-7.51295E+00 4.10116E-13-2.25153E-13
 -1      1753 1.47842E+01-3.40609E+00-3.22679E-01-6.64535E+00 2.39475E-13-3.44280E-13
 -1      1754 6.59536E+00-7.75397E+00-8.56982E-01-5.04235E+00 2.39697E-13-3.48249E-13
 -1      1755 1.15883E+00-1.04491E+01-1.04112E+00-3.09910E+00 5.59497E-13 2.77112E-13
 -1      1756 2.28596E+01 1.98501E+00-2.35742E-02-2.72268E+00-2.64757E-13 1.31331E-12
 -1      1757 1.98232E+01 3.71434E+00-3.55589E-02-2.15251E+00-4.08383E-13-3.06082E-13
 -1      1758 2.00583E+01 3.56212E+00-4.02624E-02-2.44550E+00-4.51934E-13-1.69482E-13
 -1      1759 2.03637E+01 3.18180E+00-4.57164E-02-2.58540E+00-4.31664E-13 1.74166E-15
 -1      1760 2.05836E+01 2.81005E+00-1.42534E-01-2.85379E+00-4.39752E-13 2.36443E-13
 -1      1761 2.04236E+01 2.69339E+00-4.44403E-03-2.22646E+00-4.65457E-13-6.76195E-14
 -1      1762 1.93544E+01 4.18939E+00-2.02053E-02-1.27114E+00-2.79957E-13-5.43739E-13
 -1      1763 1.94277E+01 4.14907E+00-1.75104E-02-1.49542E+00-3.22998E-13-5.07878E-13
 -1      1764 1.92585E+01 4.29450E+00-1.67982E-02-8.60038E-01-2.00938E-13-5.91784E-13
 -1      1765 1.93011E+01 4.27076E+00-1.43405E-02-1.07082E+00-2.38848E-13-5.72851E-13
 -1      1766 1.95268E+01 3.78266E+00-9.21398E-03-1.12060E+00-2.80805E-13-5.30305E-13
 -1      1767 1.92071E+01 4.35490E+00-1.48073E-02-4.66948E-01-1.23713E-13-6.14911E-13
 -1      1768 1.92290E+01 4.34210E+00-1.33164E-02-6.67305E-01-1.60341E-13-5.98998E-13
 -1      1769 1.94300E+01 3.90293E+00-9.19835E-03-7.33520E-01-1.86812E-13-5.70932E-13
 -1      1770 1.91877E+01 4.38051E+00-1.36728E-02-8.36585E-02-4.57209E-14-6.35296E-13
 -1      1771 1.91941E+01 4.37659E+00-1.32210E-02-2.79161E-01-8.07726E-14-6.26985E-13
 -1      1772 1.93797E+01 3.96747E+00-9.15945E-03-3.58415E-01-1.05539E-13-5.97846E-13
 -1      1773 1.91958E+01 4.37523E+00-1.31742E-02 2.98208E-01 1.68494E-14-6.56412E-13
 -1      1774 1.91882E+01 4.37969E+00-1.37556E-02 1.02548E-01-1.33105E-14-6.44665E-13
 -1      1775 1.93650E+01 3.98689E+00-9.14806E-03 1.05643E-02-3.25591E-14-6.30353E-13
 -1      1776 1.92330E+01 4.33806E+00-1.33322E-02 6.87046E-01 8.94160E-14-6.69353E-13
 -1      1777 1.92098E+01 4.35175E+00-1.49186E-02 4.86195E-01 6.10347E-14-6.64743E-13
 -1      1778 1.93824E+01 3.96420E+00-9.18984E-03 3.79720E-01 4.46536E-14-6.42006E-13
 -1      1779 1.93065E+01 4.26468E+00-1.44135E-02 1.08479E+00 1.61100E-13-6.56464E-13
 -1      1780 1.92631E+01 4.28914E+00-1.69725E-02 8.76784E-01 1.25383E-13-6.68764E-13
 -1      1781 1.94352E+01 3.89673E+00-9.19532E-03 7.51984E-01 1.21984E-13-6.50409E-13
 -1      1782 1.94380E+01 4.13752E+00-1.74064E-02 1.51485E+00 2.53152E-13-6.00880E-13
 -1      1783 1.93616E+01 4.18009E+00-2.05003E-02 1.28529E+00 2.03541E-13-6.28135E-13
 -1      1784 1.95347E+01 3.77287E+00-9.24058E-03 1.13582E+00 1.99099E-13-6.13246E-13
 -1      1785 1.96672E+01 3.92102E+00-2.51963E-02 1.97993E+00 3.44744E-13-5.12264E-13
 -1      1786 1.95343E+01 3.99778E+00-2.69012E-02 1.72259E+00 2.94014E-13-5.68320E-13
 -1      1787 1.97080E+01 3.56586E+00-8.69629E-03 1.53557E+00 2.95774E-13-5.59072E-13
 -1      1788 2.00758E+01 3.52274E+00-4.51883E-02 2.47235E+00 4.27356E-13-3.18693E-13
 -1      1789 1.98357E+01 3.68319E+00-3.97217E-02 2.18326E+00 3.71410E-13-4.31457E-13
 -1      1790 2.00044E+01 3.22278E+00-5.27200E-03 1.93490E+00 3.85915E-13-4.41383E-13
 -1      1791 2.09212E+01 2.68181E+00-5.76519E-02 2.85801E+00 4.46766E-13 8.60423E-14
 -1      1792 2.04138E+01 3.09692E+00-5.04280E-02 2.61625E+00 4.25535E-13-1.59615E-13
 -1      1793 2.05176E+01 2.60989E+00 3.18752E-03 2.24486E+00 4.52698E-13-2.13465E-13
 -1      1794 2.17316E+01 1.21299E+00-1.22096E-01 2.33003E+00 3.99597E-13 5.97813E-13
 -1      1795 2.12750E+01 2.26306E+00 1.18267E-04 2.74066E+00 4.24702E-13 2.64455E-13
 -1      1796 2.09377E+01 1.68502E+00-2.29629E-02 2.14045E+00 4.69033E-13 9.05317E-14
 -1      1797 2.09528E+01 7.78682E-01-6.24533E-02 1.52434E+00 4.02983E-13 4.76525E-13
 -1      1798 2.17974E+01 2.45831E+00 9.08577E-02-3.04840E+00-3.68733E-13 6.27901E-13
 -1      1799 2.01019E+01 2.97929E-01-8.91947E-03 6.57209E-01 3.15734E-13 3.10925E-13
 -1      1800 2.06541E+01 4.40404E-01-1.24693E-02 1.03424E+00 3.39617E-13 4.11302E-13
 -1      1801 2.07452E+01 8.45122E-01 2.24945E-03 1.41535E+00 3.98775E-13 1.98537E-13
 -1      1802 2.15076E+01 1.74277E+00 7.94497E-02-2.33736E+00-4.09034E-13 4.52437E-13
 -1      1803 2.05217E+01 5.00428E-01 3.25304E-02-9.21863E-01-3.37976E-13 3.82173E-13
 -1      1804 2.00895E+01 3.51811E-01 7.57594E-03-6.30103E-01-2.93630E-13 2.92702E-13
 -1      1805 1.98949E+01 2.57331E-01 2.74156E-02-3.91758E-01-2.81084E-13 2.70297E-13
 -1      1806 1.97037E+01 1.78077E-01 1.04018E-02-2.53918E-01-2.48735E-13 1.91690E-13
 -1      1807 2.01995E+01 4.83759E-01-5.72290E-03-7.23429E-01-3.43324E-13 8.00046E-14
 -1      1808 1.95817E+01 1.32679E-01 1.66802E-02-1.20378E-01-2.21904E-13 1.63260E-13
 -1      1809 1.95033E+01 9.29513E-02 6.97266E-03-4.96579E-02-1.91635E-13 9.06601E-14
 -1      1810 1.98731E+01 2.44027E-01-5.70362E-03-2.96228E-01-2.92816E-13 4.65105E-14
 -1      1811 1.94383E+01 6.82414E-02 8.69259E-03 2.37389E-02-1.47411E-13 8.77657E-14
 -1      1812 1.94235E+01 4.65237E-02 4.10611E-03 5.98074E-02-1.10408E-13 4.81973E-14
 -1      1813 1.96902E+01 1.25017E-01-4.60937E-03-5.96031E-02-2.07282E-13-1.26212E-14
 -1      1814 1.93973E+01 3.21744E-02 4.23532E-03 9.83700E-02-9.22036E-14 3.91709E-14
 -1      1815 1.94167E+01 1.97259E-02 2.42375E-03 1.15016E-01-7.55614E-14-3.42239E-15
 -1      1816 1.96033E+01 6.06319E-02-3.44981E-03 6.96753E-02-1.24289E-13-7.30109E-14
 -1      1817 1.94147E+01 1.10909E-02 1.85297E-03 1.32785E-01-7.98775E-14-1.06666E-14
 -1      1818 1.94513E+01 3.91799E-03 1.44137E-03 1.38083E-01-7.68604E-14-2.30436E-14
 -1      1819 1.95786E+01 2.37286E-02-2.33388E-03 1.35751E-01-1.08413E-13-8.50628E-14
 -1      1820 1.94635E+01-1.25618E-03 5.54614E-04 1.43338E-01-7.67410E-14-4.95663E-14
 -1      1821 1.95072E+01-5.20957E-03 8.33614E-04 1.42019E-01-7.44914E-14-3.59322E-14
 -1      1822 1.95916E+01 2.22664E-03-1.43888E-03 1.63759E-01-8.75844E-14-9.50827E-14
 -1      1823 1.95270E+01-8.15689E-03-1.61760E-04 1.39920E-01-1.02248E-13 5.22548E-15
 -1      1824 1.95718E+01-1.00589E-02 4.48035E-04 1.34949E-01-6.24602E-14-9.67615E-15
 -1      1825 1.96257E+01-9.94154E-03-7.99302E-04 1.68917E-01-9.25443E-14-1.04739E-13
 -1      1826 1.95947E+01-1.15238E-02-5.40558E-04 1.28843E-01-9.40521E-14-3.23071E-14
 -1      1827 1.96374E+01-1.20883E-02 2.11754E-04 1.22155E-01-6.35241E-14-1.14026E-13
 -1      1828 1.96700E+01-1.61576E-02-3.75398E-04 1.60903E-01-1.15066E-13-1.03282E-13
 -1      1829 1.96609E+01-1.25488E-02-7.10713E-04 1.14269E-01-6.50082E-15-1.54329E-13
 -1      1830 1.96996E+01-1.22302E-02 8.40346E-05 1.07151E-01-2.28676E-14-1.79844E-13
 -1      1831 1.97176E+01-1.84669E-02-1.14372E-04 1.46079E-01-8.32906E-14-1.49300E-13
 -1      1832 1.97222E+01-1.20012E-02-7.47947E-04 9.89909E-02-4.57699E-14-1.81257E-13
 -1      1833 1.97566E+01-1.10903E-02 3.92569E-05 9.23137E-02-4.24375E-14-1.85907E-13
 -1      1834 1.97646E+01-1.81681E-02 2.81200E-05 1.28716E-01-4.43852E-14-1.88772E-13
 -1      1835 1.97777E+01-1.03775E-02-7.00120E-04 8.49132E-02-2.66253E-14-1.97715E-13
 -1      1836 1.98079E+01-9.05349E-03 6.10712E-05 7.92795E-02-3.63586E-14-1.86462E-13
 -1      1837 1.98090E+01-1.60964E-02 8.48201E-05 1.11731E-01-3.78519E-14-2.33592E-13
 -1      1838 1.98275E+01-7.98448E-03-5.98374E-04 7.33741E-02-9.06471E-14-1.59460E-13
 -1      1839 1.98544E+01-6.34614E-03 1.39815E-04 6.92240E-02-6.04005E-14-1.01654E-13
 -1      1840 1.98501E+01-1.27737E-02 7.87045E-05 9.71558E-02-6.82812E-14-1.57335E-13
 -1      1841 1.98730E+01-4.99109E-03-4.62898E-04 6.53714E-02-5.89255E-14-1.70601E-13
 -1      1842 1.98978E+01-3.07800E-03 2.70804E-04 6.30588E-02-3.89716E-14-1.64059E-13
 -1      1843 1.98886E+01-8.49758E-03 2.53366E-05 8.64787E-02-9.41557E-14-1.14909E-13
 -1      1844 1.99161E+01-1.46488E-03-3.06460E-04 6.17277E-02-6.59263E-14-1.59171E-13
 -1      1845 1.99403E+01 7.25931E-04 4.52871E-04 6.15757E-02-5.47112E-14-2.04647E-13
 -1      1846 1.99257E+01-3.40191E-03-6.51290E-05 8.08773E-02-8.56735E-14-1.95368E-13
 -1      1847 1.99594E+01 2.59814E-03-1.36890E-04 6.32088E-02-4.47634E-14-2.76787E-13
 -1      1848 1.99851E+01 5.09734E-03 6.86864E-04 6.55480E-02-4.93996E-14-3.51639E-13
 -1      1849 1.99633E+01 2.49656E-03-1.86310E-04 8.13920E-02-9.04689E-14-1.89651E-13
 -1      1850 2.00063E+01 7.24565E-03 4.09697E-05 7.06014E-02-1.57437E-14-3.06101E-13
 -1      1851 2.00355E+01 1.00959E-02 9.73833E-04 7.57910E-02-1.28366E-14-2.49216E-13
 -1      1852 2.00038E+01 9.25558E-03-3.34209E-04 8.90416E-02-2.78764E-14-2.25443E-13
 -1      1853 2.00604E+01 1.25383E-02 2.23590E-04 8.47502E-02-4.16338E-14-2.82312E-13
 -1      1854 2.00956E+01 1.57749E-02 1.31259E-03 9.31793E-02-1.01411E-14-2.75591E-13
 -1      1855 2.00501E+01 1.69623E-02-5.05943E-04 1.04886E-01-2.88280E-14-2.26792E-13
 -1      1856 2.01259E+01 1.85112E-02 4.07191E-04 1.06546E-01 2.43230E-15-3.21634E-13
 -1      1857 2.01699E+01 2.21356E-02 1.69627E-03 1.18610E-01 5.46862E-14-3.01644E-13
 -1      1858 2.01056E+01 2.56780E-02-6.98484E-04 1.30028E-01-2.86643E-14-2.89991E-13
 -1      1859 2.02076E+01 2.51199E-02 5.86188E-04 1.36851E-01 7.07094E-14-2.90429E-13
 -1      1860 2.02634E+01 2.90612E-02 2.10730E-03 1.52892E-01 2.32906E-14-2.56180E-13
 -1      1861 2.01739E+01 3.53614E-02-9.07387E-04 1.65548E-01 5.75748E-14-2.89574E-13
 -1      1862 2.03105E+01 3.21631E-02 7.51637E-04 1.76337E-01 5.26819E-14-1.71583E-13
 -1      1863 2.03813E+01 3.62213E-02 2.51047E-03 1.96533E-01 1.10707E-13-1.22836E-13
 -1      1864 2.02592E+01 4.57604E-02-1.12549E-03 2.12324E-01 7.04929E-14-2.14526E-13
 -1      1865 2.04400E+01 3.91695E-02 8.89822E-04 2.25194E-01 2.64437E-14-9.02547E-14
 -1      1866 2.05288E+01 4.29338E-02 2.84348E-03 2.49376E-01 3.03056E-14-3.01676E-14
 -1      1867 2.03657E+01 5.62521E-02-1.34173E-03 2.70729E-01 1.02984E-13-9.23451E-14
 -1      1868 2.06010E+01 4.52361E-02 9.81326E-04 2.82665E-01 3.40273E-14-7.05356E-14
 -1      1869 2.07102E+01 4.79722E-02 3.00548E-03 3.10026E-01 8.05515E-14-1.22587E-13
 -1      1870 2.04975E+01 6.56160E-02-1.54014E-03 3.40119E-01 2.64074E-14-8.28293E-14
 -1      1871 2.07977E+01 4.88117E-02 1.00133E-03 3.46338E-01 4.10532E-14-1.88467E-13
 -1      1872 2.09284E+01 4.93197E-02 2.84551E-03 3.75014E-01-1.62357E-14-2.26682E-13
 -1      1873 2.06585E+01 7.17252E-02-1.69922E-03 4.18065E-01 1.82762E-14-1.95658E-13
 -1      1874 2.10323E+01 4.74338E-02 9.22163E-04 4.11139E-01 1.29606E-14-2.56174E-13
 -1      1875 2.11833E+01 4.39023E-02 2.15661E-03 4.37642E-01 1.06436E-14-2.55936E-13
 -1      1876 2.08514E+01 7.11690E-02-1.79140E-03 4.99256E-01-7.23943E-15-2.59090E-13
 -1      1877 2.13036E+01 3.74856E-02 7.19014E-04 4.68018E-01-2.96138E-14-2.04652E-13
 -1      1878 2.14699E+01 2.74193E-02 6.87861E-04 4.86561E-01 3.06017E-14-1.56386E-13
 -1      1879 2.10768E+01 5.88871E-02-1.78137E-03 5.74056E-01 3.55905E-14-1.48259E-13
 -1      1880 2.16050E+01 1.41522E-02 3.78047E-04 5.02478E-01 8.82518E-14-9.97866E-14
 -1      1881 2.17762E+01-5.44378E-03-1.80409E-03 5.04374E-01 1.36176E-13 4.19933E-14
 -1      1882 2.13328E+01 2.80534E-02-1.62007E-03 6.26832E-01 1.02150E-13-1.39926E-13
 -1      1883 2.19218E+01-2.80240E-02-9.97282E-05 4.93441E-01 5.73342E-14 2.31362E-14
 -1      1884 2.20802E+01-5.98533E-02-5.43219E-03 4.67039E-01 1.11924E-14 1.86574E-14
 -1      1885 2.16130E+01-2.92574E-02-1.22871E-03 6.34501E-01 7.53429E-14-4.27458E-15
 -1      1886 2.22285E+01-9.32628E-02-7.11288E-04 4.13635E-01-6.42437E-14-3.65923E-14
 -1      1887 2.23481E+01-1.37829E-01-9.95441E-03 3.45685E-01-5.31467E-14 1.72878E-14
 -1      1888 2.19043E+01-1.19646E-01-4.66552E-04 5.66390E-01-7.21385E-15-1.19556E-14
 -1      1889 2.24855E+01-1.80380E-01-1.49985E-03 2.33745E-01-2.84169E-14 2.71137E-15
 -1      1890 2.25336E+01-2.32570E-01-1.44582E-02 1.13567E-01-8.07731E-15 4.60676E-14
 -1      1891 2.21851E+01-2.42864E-01 9.10047E-04 3.87548E-01-1.40348E-14 2.32261E-14
 -1      1892 2.26385E+01-2.75865E-01-2.61083E-03-6.64463E-02-5.45588E-14 1.30978E-14
 -1      1893 2.25811E+01-3.20682E-01-1.71069E-02-2.38747E-01-5.27876E-14 2.62001E-14
 -1      1894 2.24205E+01-3.82421E-01 3.22959E-03 6.89337E-02-1.02318E-14 8.98386E-14
 -1      1895 2.26225E+01-3.46345E-01-4.26212E-03-4.77342E-01-4.20983E-14 8.69975E-14
 -1      1896 2.24361E+01-3.57208E-01-1.53682E-02-6.79384E-01 5.53385E-14 1.54571E-13
 -1      1897 2.25603E+01-4.94740E-01 6.66186E-03-3.91913E-01-3.37360E-15 1.28015E-13
 -1      1898 2.23786E+01-3.38339E-01-6.34072E-03-9.32624E-01 1.08741E-14 1.24426E-13
 -1      1899 2.20670E+01-2.85060E-01-7.53505E-03-1.11091E+00 1.66143E-14 6.60427E-14
 -1      1900 2.25415E+01-5.07174E-01 1.04741E-02-9.40090E-01 2.96317E-14 2.34859E-13
 -1      1901 2.18894E+01-1.99488E-01-8.05245E-03-1.29401E+00 1.03541E-14 3.89749E-14
 -1      1902 2.14988E+01-7.04817E-02 4.80539E-03-1.37106E+00 2.71064E-14 1.55407E-13
 -1      1903 2.23096E+01-3.42789E-01 1.19302E-02-1.43630E+00 1.38752E-14 2.30846E-13
 -1      1904 2.12257E+01 7.48557E-02-6.96577E-03-1.38096E+00-4.41847E-14 1.07766E-13
 -1      1905 2.08446E+01 2.44726E-01 1.57642E-02-1.28964E+00-1.50808E-14 6.30537E-14
 -1      1906 2.18662E+01 1.87188E-02 6.91818E-03-1.66941E+00-6.56398E-15 1.71438E-13
 -1      1907 2.05687E+01 3.94002E-01-2.36328E-04-1.06781E+00 1.97932E-14-2.31759E-15
 -1      1908 2.03013E+01 5.23118E-01 1.86061E-02-8.05814E-01-7.40050E-14 1.22206E-13
 -1      1909 2.13229E+01 4.73916E-01-5.36464E-03-1.44687E+00-2.35515E-14 1.84831E-13
 -1      1910 2.01479E+01 5.94710E-01 1.11896E-02-4.05530E-01-1.16754E-13-5.51803E-14
 -1      1911 2.00689E+01 6.04960E-01 1.19290E-02-6.25684E-02-1.13253E-13-3.77261E-14
 -1      1912 2.08952E+01 8.11933E-01-1.63902E-02-7.51039E-01-1.98805E-13 5.19649E-14
 -1      1913 2.01067E+01 5.51785E-01 2.00112E-02 3.52476E-01-9.34149E-14-5.56751E-14
 -1      1914 2.02220E+01 4.35391E-01 1.00433E-03 6.34471E-01-1.19609E-13-5.93969E-14
 -1      1915 2.07790E+01 8.39253E-01-1.66072E-02 1.72016E-01-6.14274E-14-1.55373E-13
 -1      1916 2.04009E+01 2.91652E-01 1.91633E-02 8.89569E-01-1.40452E-13-2.16008E-14
 -1      1917 2.06436E+01 1.18981E-01-6.78796E-03 1.00678E+00-4.55979E-14-5.95505E-14
 -1      1918 2.09927E+01 5.36068E-01-6.00467E-03 9.24881E-01-1.37862E-13-4.41557E-14
 -1      1919 2.08400E+01-3.33316E-02 8.74759E-03 1.02696E+00-5.53312E-14-1.39742E-13
 -1      1920 2.11068E+01-1.74567E-01-8.88683E-03 9.67784E-01 6.13199E-14-1.42547E-13
 -1      1921 2.13612E+01 7.83356E-02 6.89813E-03 1.22058E+00-7.48407E-14 1.04270E-13
 -1      1922 2.12174E+01-2.71021E-01-4.44271E-03 7.99024E-01 3.18477E-13-1.57161E-13
 -1      1923 2.14153E+01-3.34532E-01-7.25606E-03 6.26279E-01 4.53242E-13-9.49523E-14
 -1      1924 2.16585E+01-3.12887E-01 1.18517E-02 1.03719E+00 9.35931E-14-1.33703E-13
 -1      1925 2.14045E+01-3.57373E-01-1.32422E-02 3.75102E-01 3.77065E-13-9.85757E-15
 -1      1926 2.14843E+01-3.45894E-01-3.58114E-03 1.74168E-01 4.10330E-13 1.32777E-13
 -1      1927 2.17522E+01-5.01321E-01 1.08974E-02 5.57670E-01 4.70146E-13-9.57862E-14
 -1      1928 2.13709E+01-3.13094E-01-1.56399E-02-6.02013E-02 3.48470E-13 6.98246E-14
 -1      1929 2.13315E+01-2.53955E-01 1.28725E-04-2.22614E-01 2.92164E-13 1.68662E-13
 -1      1930 2.16286E+01-4.85598E-01 6.86351E-03 1.52349E-02 3.76958E-13-4.49505E-14
 -1      1931 2.11552E+01-1.91581E-01-1.32785E-02-3.78756E-01-6.27710E-14-2.23983E-14
 -1      1932 2.10307E+01-1.12303E-01 3.42707E-03-4.65829E-01-1.56201E-13-1.57369E-13
 -1      1933 2.13454E+01-3.32660E-01 2.62524E-03-4.15320E-01 4.09811E-14-2.27514E-13
 -1      1934 2.08309E+01-4.07424E-02-8.88257E-03-5.20020E-01-1.41079E-14-1.85517E-13
 -1      1935 2.06707E+01 4.03495E-02 5.80279E-03-5.20651E-01-1.75991E-14-1.26427E-13
 -1      1936 2.09801E+01-1.18120E-01-4.39722E-04-6.43332E-01-1.56814E-13-3.13946E-13
 -1      1937 2.04945E+01 9.48156E-02-4.76769E-03-4.72464E-01 2.26777E-14-3.58489E-14
 -1      1938 2.03498E+01 1.58287E-01 8.16712E-03-4.00528E-01 1.63780E-13-2.49974E-14
 -1      1939 2.03128E+01 2.36276E-01-2.47354E-04-4.83215E-01 5.02309E-14 4.72194E-14
 -1      1940 2.06193E+01 1.02893E-01 1.67638E-03-6.47569E-01 5.17057E-14-1.25077E-13
 -1      1941 1.96190E+01 1.42005E-01 7.87957E-03 2.59624E-01 2.44740E-13 1.65402E-13
 -1      1942 1.98912E+01 2.04073E-01 1.64324E-02 4.32604E-01 2.73285E-13 2.73254E-13
 -1      1943 2.01027E+01 3.50524E-01-1.53049E-03 6.55221E-01 3.28411E-13 1.16547E-13
 -1      1944 1.93764E+01 7.18656E-02 6.94563E-03 5.67180E-02 2.06583E-13 3.18608E-14
 -1      1945 1.94915E+01 1.01756E-01 1.41949E-02 1.45200E-01 2.03391E-13 1.14002E-13
 -1      1946 1.97098E+01 1.65134E-01-1.94087E-03 2.56531E-01 2.65199E-13 3.07462E-14
 -1      1947 1.92857E+01 3.60985E-02 4.42812E-03-4.86591E-02 1.02789E-13-3.15780E-14
 -1      1948 1.93160E+01 5.19108E-02 8.33569E-03-1.49148E-03 1.41794E-13 6.62578E-15
 -1      1949 1.95094E+01 8.06119E-02-2.82039E-03 4.46386E-02 1.89701E-13-5.40245E-14
 -1      1950 1.92836E+01 1.61633E-02 2.85922E-03-1.01075E-01 4.64301E-14-7.86389E-14
 -1      1951 1.92686E+01 2.50214E-02 4.35157E-03-7.64924E-02 5.66321E-14-3.64981E-14
 -1      1952 1.94300E+01 3.74106E-02-2.83832E-03-6.71699E-02 9.04103E-14-1.20215E-13
 -1      1953 1.93304E+01 4.54800E-03 1.98497E-03-1.23113E-01 1.32193E-13-1.51066E-13
 -1      1954 1.92923E+01 9.57156E-03 2.14757E-03-1.11716E-01 8.02380E-14-8.58168E-14
 -1      1955 1.94232E+01 1.35939E-02-2.31025E-03-1.22645E-01 8.91384E-14-1.33133E-13
 -1      1956 1.94014E+01-2.20223E-03 1.44464E-03-1.27323E-01 1.10761E-13-1.82494E-13
 -1      1957 1.93532E+01 5.24896E-04 9.51662E-04-1.23835E-01 1.40615E-13-1.48590E-13
 -1      1958 1.94574E+01 4.80686E-05-1.69266E-03-1.45163E-01 1.47429E-13-1.74572E-13
 -1      1959 1.94816E+01-5.90264E-03 1.06773E-03-1.21291E-01 4.46705E-14-2.36780E-13
 -1      1960 1.94309E+01-4.61192E-03 2.83779E-04-1.22481E-01 6.86679E-14-1.99418E-13
 -1      1961 1.95127E+01-7.48195E-03-1.17376E-03-1.48241E-01 1.09219E-13-1.91312E-13
 -1      1962 1.95619E+01-7.61537E-03 7.90495E-04-1.09850E-01 9.67962E-15-2.44677E-13
 -1      1963 1.95130E+01-7.23922E-03-9.13678E-05-1.13630E-01 3.31022E-14-2.44566E-13
 -1      1964 1.95766E+01-1.12575E-02-7.86718E-04-1.40232E-01 5.07542E-14-2.07111E-13
 -1      1965 1.96371E+01-8.00681E-03 5.87157E-04-9.61756E-02 8.58714E-14-2.23651E-13
 -1      1966 1.95925E+01-8.21204E-03-2.88213E-04-1.01152E-01 3.80681E-14-2.40194E-13
 -1      1967 1.96414E+01-1.26059E-02-5.13533E-04-1.26532E-01 3.75878E-14-2.07414E-13
 -1      1968 1.97051E+01-7.50755E-03 4.44060E-04-8.23903E-02 2.86490E-14-2.57982E-13
 -1      1969 1.96656E+01-8.07749E-03-3.68975E-04-8.76156E-02 7.41362E-14-1.82276E-13
 -1      1970 1.97030E+01-1.23566E-02-3.29181E-04-1.10718E-01 5.78569E-14-1.92338E-13
 -1      1971 1.97652E+01-6.39256E-03 3.52554E-04-6.99378E-02 8.98005E-14-3.45463E-13
 -1      1972 1.97309E+01-7.18831E-03-3.71322E-04-7.47515E-02 4.86246E-14-2.89179E-13
 -1      1973 1.97594E+01-1.10377E-02-2.13106E-04-9.52050E-02 8.22368E-14-2.20306E-13
 -1      1974 1.98183E+01-4.82574E-03 3.07326E-04-5.98365E-02 2.01276E-14-3.69128E-13
 -1      1975 1.97885E+01-5.76332E-03-3.19099E-04-6.37598E-02 4.98283E-14-3.27545E-13
 -1      1976 1.98102E+01-8.97690E-03-1.50357E-04-8.16638E-02 7.58468E-14-2.44407E-13
 -1      1977 1.98662E+01-2.88694E-03 3.05896E-04-5.28635E-02-4.09120E-14-3.09839E-13
 -1      1978 1.98397E+01-3.92270E-03-2.27105E-04-5.55192E-02-3.74995E-14-3.69234E-13
 -1      1979 1.98562E+01-6.35685E-03-1.30676E-04-7.13081E-02-6.37476E-15-2.66714E-13
 -1      1980 1.99114E+01-5.89595E-04 3.48378E-04-4.96950E-02-1.95279E-14-3.30005E-13
 -1      1981 1.98868E+01-1.71013E-03-1.03737E-04-5.07455E-02-3.41050E-14-3.03364E-13
 -1      1982 1.98993E+01-3.24992E-03-1.47564E-04-6.51064E-02-3.58016E-14-2.81924E-13
 -1      1983 1.99572E+01 2.10652E-03 4.37326E-04-5.10163E-02 1.67093E-13-3.72615E-13
 -1      1984 1.99325E+01 8.91853E-04 4.73044E-05-5.01139E-02 8.82814E-14-3.44368E-13
 -1      1985 1.99416E+01 3.58922E-04-1.97523E-04-6.39451E-02 1.24426E-13-2.96159E-13
 -1      1986 2.00075E+01 5.28544E-03 5.77591E-04-5.76110E-02 1.54537E-13-3.56908E-13
 -1      1987 1.99805E+01 3.95043E-03 2.25723E-04-5.43565E-02 1.48365E-13-3.75269E-13
 -1      1988 1.99864E+01 4.55526E-03-2.79446E-04-6.87552E-02 1.26588E-13-2.64157E-13
 -1      1989 2.00669E+01 9.06620E-03 7.76023E-04-7.04302E-02-2.15802E-14-3.59985E-13
 -1      1990 2.00349E+01 7.57302E-03 4.33519E-04-6.43387E-02 9.68839E-14-2.84223E-13
 -1      1991 2.00373E+01 9.48154E-03-3.94118E-04-8.06125E-02 1.15174E-13-2.07656E-13
 -1      1992 2.01409E+01 1.35925E-02 1.04078E-03-9.06443E-02-1.39443E-13-3.47884E-13
 -1      1993 2.01008E+01 1.18976E-02 6.73840E-04-8.11177E-02-9.69244E-14-3.65831E-13
 -1      1994 2.00987E+01 1.53234E-02-5.43779E-04-1.00813E-01-6.02948E-14-2.46427E-13
 -1      1995 2.02361E+01 1.90169E-02 1.37977E-03-1.19669E-01-5.07087E-14-3.25252E-13
 -1      1996 2.01841E+01 1.70792E-02 9.49504E-04-1.05979E-01-1.39681E-13-3.44412E-13
 -1      1997 2.01757E+01 2.22915E-02-7.31705E-04-1.30921E-01-1.05194E-13-2.58909E-13
 -1      1998 2.03599E+01 2.54712E-02 1.79748E-03-1.59150E-01 9.94574E-14-3.68396E-13
 -1      1999 2.02918E+01 2.32670E-02 1.26084E-03-1.40439E-01 7.45380E-14-3.48936E-13
 -1      2000 2.02743E+01 3.05910E-02-9.61780E-04-1.72771E-01 6.06704E-14-3.45146E-13
 -1      2001 2.05212E+01 3.30102E-02 2.28885E-03-2.10876E-01-6.65593E-14-4.90532E-13
 -1      2002 2.04319E+01 3.05601E-02 1.60220E-03-1.86189E-01 4.85616E-14-3.96296E-13
 -1      2003 2.04015E+01 4.03634E-02-1.23812E-03-2.28408E-01 6.54312E-14-3.84180E-13
 -1      2004 2.07297E+01 4.15042E-02 2.82810E-03-2.76547E-01-2.65848E-13-4.59042E-13
 -1      2005 2.06134E+01 3.89237E-02 1.95648E-03-2.44935E-01-1.88501E-13-5.65565E-13
 -1      2006 2.05649E+01 5.15761E-02-1.56476E-03-2.99897E-01-1.27199E-13-4.91362E-13
 -1      2007 2.09958E+01 5.04405E-02 3.35009E-03-3.57296E-01-7.93699E-14-3.73026E-13
 -1      2008 2.08463E+01 4.80322E-02 2.28651E-03-3.18033E-01-1.66950E-13-4.28008E-13
 -1      2009 2.07730E+01 6.38146E-02-1.94554E-03-3.88905E-01-1.97821E-13-3.76865E-13
 -1      2010 2.13293E+01 5.85731E-02 3.72227E-03-4.52750E-01-8.55132E-15-3.57196E-13
 -1      2011 2.11410E+01 5.69864E-02 2.52331E-03-4.05787E-01-5.14846E-14-3.92907E-13
 -1      2012 2.10341E+01 7.59088E-02-2.38352E-03-4.95887E-01-3.91946E-14-4.45595E-13
 -1      2013 2.17382E+01 6.33473E-02 3.71000E-03-5.59355E-01 6.30531E-14-2.44800E-13
 -1      2014 2.15066E+01 6.38338E-02 2.55279E-03-5.06145E-01 3.87810E-14-2.63031E-13
 -1      2015 2.13561E+01 8.52973E-02-2.87842E-03-6.18602E-01-5.28657E-16-3.73316E-13
 -1      2016 2.22247E+01 6.00583E-02 2.95105E-03-6.67552E-01-4.08076E-14-1.90439E-13
 -1      2017 2.19494E+01 6.48267E-02 2.20850E-03-6.12481E-01-2.44665E-14-2.31191E-13
 -1      2018 2.17442E+01 8.70411E-02-3.41664E-03-7.49589E-01-5.33774E-15-2.30795E-13
 -1      2019 2.27810E+01 4.08928E-02 9.84473E-04-7.57492E-01-4.56373E-15-1.27985E-13
 -1      2020 2.24686E+01 5.34511E-02 1.28683E-03-7.10097E-01-3.57353E-14-2.15572E-13
 -1      2021 2.21991E+01 7.25313E-02-3.94236E-03-8.72201E-01-4.26616E-14-1.42273E-13
 -1      2022 2.33811E+01-5.40479E-03-2.57457E-03-7.93596E-01-3.93045E-14-5.05394E-14
 -1      2023 2.30509E+01 1.96507E-02-3.87645E-04-7.71468E-01 8.45862E-15-2.11723E-15
 -1      2024 2.27131E+01 2.84349E-02-4.28833E-03-9.55167E-01 7.36896E-15 1.29576E-13
 -1      2025 2.39728E+01-9.12500E-02-7.57523E-03-7.20316E-01-4.87271E-14-1.85800E-13
 -1      2026 2.36622E+01-4.93745E-02-2.82602E-03-7.51495E-01-6.24461E-14-1.04617E-13
 -1      2027 2.32650E+01-6.22906E-02-4.03773E-03-9.46939E-01-2.17530E-14-4.19239E-14
 -1      2028 2.44693E+01-2.21767E-01-1.26545E-02-4.66088E-01 2.33355E-14-3.84515E-13
 -1      2029 2.42381E+01-1.63723E-01-5.61711E-03-5.87262E-01 5.84342E-15-2.71377E-13
 -1      2030 2.38134E+01-2.13464E-01-2.32800E-03-7.74525E-01 4.36803E-14-2.01469E-13
 -1      2031 2.47491E+01-3.76185E-01-1.47419E-02 3.27432E-02 9.78349E-14-3.25141E-13
 -1      2032 2.46749E+01-3.17290E-01-8.03888E-03-2.11756E-01 1.39038E-14-3.60907E-13
 -1      2033 2.42888E+01-4.18168E-01 1.91970E-03-3.57258E-01 2.02269E-14-4.08438E-13
 -1      2034 2.46708E+01-4.78718E-01-1.01692E-02 7.68943E-01-8.47239E-14-4.07417E-13
 -1      2035 2.48295E+01-4.60662E-01-9.47834E-03 4.04114E-01 3.18010E-14-3.19773E-13
 -1      2036 2.45853E+01-6.13900E-01 9.38268E-03 3.49892E-01-2.52576E-14-2.73449E-13
 -1      2037 2.41175E+01-3.98000E-01-7.67189E-04 1.55623E+00 1.36190E-13-2.36949E-13
 -1      2038 2.45439E+01-4.77192E-01-1.06225E-02 1.16689E+00 1.49394E-14-3.50034E-13
 -1      2039 2.45597E+01-6.49610E-01 1.77851E-02 1.26245E+00 2.02893E-14-1.81229E-13
 -1      2040 2.31237E+01-4.81992E-02 5.20590E-03 2.00455E+00 1.40784E-13-2.75991E-13
 -1      2041 2.37560E+01-2.43107E-01-1.07405E-02 1.78330E+00 1.60118E-13-2.42209E-13
 -1      2042 2.40986E+01-3.67123E-01 1.60108E-02 2.05903E+00 1.61815E-13 1.34283E-13
 -1      2043 2.19786E+01 4.74875E-01-4.05206E-03 1.67687E+00-3.05860E-13-6.07916E-14
 -1      2044 2.26295E+01 2.49560E-01-7.64848E-03 1.83496E+00-6.71373E-14-1.68837E-13
 -1      2045 2.32631E+01 2.63308E-01 3.21230E-04 2.23839E+00-4.31209E-14 2.18894E-13
 -1      2046 2.12318E+01 8.08605E-01-2.74166E-02 5.42941E-01-2.06005E-13 2.00516E-13
 -1      2047 2.16364E+01 7.23098E-01-2.18938E-03 1.07445E+00-3.26478E-13-4.94136E-14
 -1      2048 2.24266E+01 9.27378E-01-2.24874E-02 1.44040E+00-3.16438E-13 2.86863E-13
 -1      2049 2.13103E+01 6.79870E-01-3.53661E-02-8.02476E-01-2.55070E-13 2.16278E-13
 -1      2050 2.12832E+01 8.09216E-01 5.23113E-03-1.92611E-01-2.04614E-13 2.12634E-13
 -1      2051 2.20937E+01 1.13998E+00-2.99352E-02-6.43573E-02-2.49176E-13 2.74455E-13
 -1      2052 2.20956E+01 1.94448E-01-1.85583E-02-1.59807E+00-1.48756E-13 2.01911E-13
 -1      2053 2.16777E+01 4.44032E-01 7.32431E-03-1.25087E+00-2.15591E-13 2.17257E-13
 -1      2054 2.24277E+01 7.39865E-01-1.03089E-02-1.39957E+00-2.89768E-13 1.73387E-13
 -1      2055 2.30118E+01-2.68720E-01 4.53389E-03-1.51317E+00 2.79993E-14 2.20393E-13
 -1      2056 2.24644E+01-8.40670E-02-2.02730E-03-1.54793E+00-7.20645E-14 1.58130E-13
 -1      2057 2.30803E+01 1.70695E-02 5.41335E-03-1.84729E+00-3.23621E-14 7.77954E-14
 -1      2058 2.35522E+01-4.71281E-01 1.71136E-02-8.30202E-01-1.68360E-13 4.01802E-13
 -1      2059 2.31487E+01-4.24143E-01-1.21841E-02-1.11636E+00-3.86149E-14 3.55934E-13
 -1      2060 2.35454E+01-5.29388E-01 6.84831E-03-1.37967E+00-1.31515E-13 3.05948E-13
 -1      2061 2.35500E+01-4.35033E-01 1.59746E-02-1.42998E-02 2.09766E-13 1.15147E-14
 -1      2062 2.34285E+01-4.86013E-01-1.63278E-02-3.57237E-01-1.90611E-14 3.33332E-13
 -1      2063 2.35843E+01-6.96605E-01-2.25242E-04-4.73252E-01 7.45758E-14 1.85402E-13
 -1      2064 2.30976E+01-2.83466E-01 9.50564E-03 6.21530E-01 2.52497E-13-2.85622E-14
 -1      2065 2.32505E+01-3.69600E-01-1.45468E-02 3.51102E-01 2.66237E-13 2.87487E-14
 -1      2066 2.32288E+01-5.72833E-01-5.30593E-03 3.97827E-01 2.50196E-13-4.02924E-14
 -1      2067 2.23811E+01-1.11243E-01 4.23625E-03 9.66773E-01 2.30750E-13-4.32675E-14
 -1      2068 2.27192E+01-1.94424E-01-9.23858E-03 8.16507E-01 2.95548E-13 6.70505E-14
 -1      2069 2.26207E+01-3.29513E-01-5.93319E-03 9.86243E-01 2.75238E-13 3.94797E-14
 -1      2070 2.15837E+01 4.68950E-02 1.90231E-03 1.02460E+00 2.50021E-13-1.15509E-13
 -1      2071 2.19954E+01-2.35144E-02-3.27512E-03 9.98023E-01 1.73596E-13-1.27112E-13
 -1      2072 2.19047E+01-7.73749E-02-4.70898E-03 1.23415E+00 2.97881E-13-2.03438E-13
 -1      2073 2.08590E+01 1.90621E-01 3.13304E-03 8.28170E-01 3.74245E-14-1.93209E-13
 -1      2074 2.12375E+01 1.27773E-01 6.65244E-04 9.19787E-01 2.07963E-13-8.81699E-14
 -1      2075 2.11960E+01 1.47793E-01-4.12872E-03 1.16839E+00 1.89542E-13-1.89459E-13
 -1      2076 2.03871E+01 2.93028E-01 6.49650E-03 5.42237E-01-7.16773E-14 9.75301E-14
 -1      2077 2.06740E+01 2.41083E-01 1.53964E-03 7.19941E-01-4.96335E-14-1.11234E-13
 -1      2078 2.06726E+01 3.14265E-01-5.34068E-03 9.36373E-01-8.30577E-14-9.33593E-14
 -1      2079 2.03409E+01 4.55924E-01-3.58476E-04 6.67769E-01-1.45219E-13 1.71449E-13
 -1      2080 1.99815E+01 2.38502E+00-5.76577E-03 1.45297E+00 1.98360E-13 7.22788E-14
 -1      2081 2.00778E+01 1.93465E+00 5.09979E-03 1.43574E+00 1.66618E-13 1.46821E-13
 -1      2082 2.01626E+01 1.60468E+00 7.02991E-04 1.35381E+00 8.79036E-14 2.06834E-13
 -1      2083 2.02429E+01 1.19212E+00 6.62481E-03 1.23427E+00 3.36233E-14 1.15259E-14
 -1      2084 2.01741E+01 1.49048E+00-3.97228E-03 1.73411E+00 1.47122E-13 1.57165E-13
 -1      2085 2.02719E+01 9.89865E-01 3.87801E-03 1.06398E+00-8.05692E-14-1.39149E-13
 -1      2086 2.03298E+01 6.57517E-01 6.78246E-03 8.73910E-01-8.22998E-14-8.19128E-14
 -1      2087 2.04710E+01 5.93635E-01 4.47179E-03 1.03655E+00-8.01750E-14-7.09315E-14
 -1      2088 2.03627E+01 9.78825E-01-1.27454E-03 1.44545E+00-4.72565E-14 6.38526E-14
 -1      2089 1.97849E+01 3.13594E+00-1.36248E-02 1.31481E+00-1.41308E-13-6.02903E-13
 -1      2090 1.98865E+01 2.72523E+00 3.61851E-04 1.40734E+00-5.13652E-15-3.80310E-13
 -1      2091 1.98982E+01 2.15635E+00 1.88520E-04 1.77902E+00 1.22314E-13-2.89788E-13
 -1      2092 1.96057E+01 3.75614E+00-1.87430E-02 9.25271E-01-1.03455E-13-1.90882E-13
 -1      2093 1.96918E+01 3.44458E+00-5.82994E-03 1.12561E+00-2.53977E-13-1.33313E-13
 -1      2094 1.96115E+01 2.80636E+00 7.35157E-03 1.52157E+00-3.49963E-14-4.98478E-13
 -1      2095 1.95057E+01 4.10068E+00-1.86147E-02 3.43874E-01-6.90258E-14 2.35393E-13
 -1      2096 1.95442E+01 3.95447E+00-1.29864E-02 6.14787E-01-3.76470E-14 6.80801E-14
 -1      2097 1.93769E+01 3.31552E+00 1.50463E-02 9.61487E-01-2.41736E-14-2.72100E-14
 -1      2098 1.95233E+01 4.08955E+00-1.39279E-02-3.00447E-01-5.82416E-14 2.67000E-13
 -1      2099 1.94985E+01 4.13479E+00-1.86950E-02-2.14131E-02-1.25832E-13 3.30303E-13
 -1      2100 1.92731E+01 3.54996E+00 1.89638E-02 1.98897E-01 8.65345E-15 2.76603E-13
 -1      2101 1.96503E+01 3.73023E+00-7.30038E-03-8.53745E-01 2.76341E-15 2.64611E-13
 -1      2102 1.95731E+01 3.95177E+00-2.03460E-02-6.31893E-01-6.51510E-14 4.05638E-13
 -1      2103 1.93388E+01 3.44682E+00 1.67410E-02-5.88216E-01-3.16147E-13 3.50557E-13
 -1      2104 1.98349E+01 3.11643E+00-1.51461E-03-1.20063E+00-2.28612E-13-4.90017E-13
 -1      2105 1.97365E+01 3.46395E+00-1.66900E-02-1.07782E+00-1.16361E-13-2.99379E-14
 -1      2106 1.95462E+01 3.04218E+00 9.72367E-03-1.21288E+00-3.65719E-13-5.81770E-14
 -1      2107 2.00105E+01 2.39996E+00 2.46255E-03-1.30526E+00-1.05421E-13-5.59337E-13
 -1      2108 1.99241E+01 2.79855E+00-9.10895E-03-1.28620E+00-1.17463E-13-4.26802E-13
 -1      2109 1.98156E+01 2.45640E+00 2.01750E-03-1.55602E+00-2.09255E-13-4.49015E-13
 -1      2110 2.01393E+01 1.68547E+00 4.50215E-03-1.20872E+00 1.47919E-13 2.43556E-13
 -1      2111 2.00812E+01 2.08452E+00-6.93905E-04-1.27073E+00 8.35937E-14-8.88994E-14
 -1      2112 2.00595E+01 1.82166E+00-4.01194E-03-1.60770E+00 5.40640E-14-1.65450E-13
 -1      2113 2.02068E+01 1.07484E+00 5.18573E-03-9.82676E-01 2.57387E-13-2.74585E-14
 -1      2114 2.01800E+01 1.42023E+00 6.09269E-03-1.09289E+00 2.93209E-13-9.93476E-15
 -1      2115 2.02301E+01 1.24039E+00-6.38281E-03-1.43374E+00 3.00170E-13 2.78103E-13
 -1      2116 2.02274E+01 6.04178E-01 3.37707E-03-7.01166E-01-6.06229E-14 2.39852E-14
 -1      2117 2.02174E+01 8.72520E-01 7.82957E-03-8.30720E-01 5.67996E-14 3.11903E-15
 -1      2118 2.03154E+01 7.73556E-01-6.23294E-03-1.13061E+00 1.35819E-13-1.34375E-13
 -1      2119 1.13466E+01-5.78805E+00-1.61790E-01 6.69040E+00-4.81060E-13 8.40369E-14
 -1      2120 7.46130E+00-7.47281E+00-3.97469E-01 5.54761E+00-2.66565E-13-4.25965E-13
 -1      2121 2.24110E-01-8.14918E+00-4.50560E-01 8.14125E-01 2.27596E-14-4.85278E-13
 -1      2122 3.21412E-01-7.88069E+00-4.00339E-01-9.25881E-01 2.10096E-13 5.78981E-14
 -1      2123 3.96084E+00-6.92250E+00-2.52744E-01 4.53876E+00-7.32192E-14-9.49019E-13
 -1      2124 1.68690E+00-8.07724E+00-4.35028E-01 2.75940E+00 2.85605E-14-8.70748E-13
 -1      2125 1.99423E+01-3.37359E+00-5.95346E-03 7.11696E+00-4.74620E-13 2.12941E-13
 -1      2126 1.51148E+01-5.48355E+00-3.46194E-01 6.31452E+00-5.15032E-13 2.70006E-13
 -1      2127 2.90926E+01-6.13715E-01 1.78898E-01 5.92346E+00-2.93376E-13-3.25295E-13
 -1      2128 2.40896E+01-2.62891E+00-1.66796E-01 5.78977E+00-4.44367E-13-1.96176E-13
 -1      2129 1.95240E+01 4.01751E+00-2.49862E-02-1.70022E+00-3.58148E-13-4.70471E-13
 -1      2130 1.96480E+01 3.94377E+00-2.46601E-02-1.95657E+00-4.00237E-13-3.96096E-13
 -1      2131 1.99640E+01 3.23732E+00-1.87414E-02-1.92611E+00-4.28130E-13-3.29787E-13
 -1      2132 1.96952E+01 3.58935E+00-6.68070E-03-1.52055E+00-3.54747E-13-4.60382E-13
 -1      2133 4.06957E+01 5.95469E+00 3.68846E-01 1.94662E+00 3.00093E-13-9.20597E-13
 -1      2134 3.82094E+01 4.98337E+00 2.75529E-01 3.13861E+00 1.50269E-13-6.55032E-13
 -1      2135 4.01346E+01 7.42604E+00 2.34926E-01 2.14035E-01 5.41123E-13-8.21135E-13
 -1      2136 4.06393E+01 7.12795E+00 3.74596E-01 1.12338E+00 3.97238E-13-6.93640E-13
 -1      2137 3.92366E+01 5.75221E+00 2.79368E-01-1.26916E+00 5.90750E-13-9.47575E-13
 -1      2138 3.99333E+01 6.77938E+00 2.31720E-01 3.33855E-02 4.91829E-13-9.49407E-13
 -1      2139 3.44096E+01 2.61963E+00 2.74759E-02-2.39620E+00 5.64951E-13-9.95426E-13
 -1      2140 3.84515E+01 4.24376E+00 3.55848E-01-2.03722E+00 6.46871E-13-8.18123E-13
 -1      2141 3.56502E+01 5.16610E+00 3.02500E-01 7.60255E-01 4.12226E-13-6.34159E-13
 -1      2142 2.74837E+01-1.79912E+00-9.44967E-02-4.00186E+00 5.49505E-13-1.07181E-12
 -1      2143 3.23348E+01 3.95014E-01 2.05904E-01-3.90587E+00 5.65686E-13-1.03662E-12
 -1      2144 1.77356E+01-5.18337E+00-2.65920E-01-5.80454E+00 3.95906E-13-1.05660E-12
 -1      2145 2.32002E+01-3.69309E+00-2.55278E-02-5.94835E+00 4.87776E-13-1.25910E-12
 -1      2146 9.76313E+00-6.83862E+00-3.76324E-01-5.49556E+00 1.27454E-13-6.46781E-13
 -1      2147 1.40704E+01-5.17025E+00-9.38582E-02-6.54420E+00 3.35620E-13-9.32032E-13
 -1      2148 1.87646E+01-6.06264E+00 3.09807E-02-6.25092E+00 1.69698E-13-1.04792E-12
 -1      2149 2.77059E+00-7.88207E+00-4.46649E-01-3.46550E+00-1.01585E-14-7.03548E-13
 -1      2150 5.32900E+00-6.82543E+00-3.17472E-01-4.77724E+00 1.09912E-13-5.62134E-13
 -1      2151 2.01926E-01-7.38232E+00-3.61093E-01-3.22234E-01-1.37026E-13-2.83884E-13
 -1      2152 9.99394E-01-7.18044E+00-3.21997E-01-1.95575E+00-4.40759E-14-6.27387E-13
 -1      2153 2.19920E+00-6.83257E+00-2.75182E-01 3.40220E+00-1.10356E-13 3.69205E-13
 -1      2154 7.88557E-01-7.19194E+00-3.21889E-01 1.84635E+00-7.93116E-14 1.33227E-14
 -1      2155 7.84235E+00-5.87773E+00-2.01201E-01 5.99762E+00 8.10463E-15 3.69704E-13
 -1      2156 4.34287E+00-7.39921E+00-4.28950E-01 4.49359E+00-1.66978E-13 4.14113E-13
 -1      2157 5.12084E+00-5.02666E+00-7.86040E-02 4.94329E+00 7.58005E-14 3.32012E-13
 -1      2158 1.65168E+01-3.76066E+00-2.08106E-02 6.97265E+00 1.12355E-13-1.08580E-13
 -1      2159 1.24390E+01-5.70075E+00-2.29065E-01 6.35454E+00 1.03251E-14 1.00309E-13
 -1      2160 2.52883E+01-1.16422E+00 1.32537E-01 6.47478E+00 1.90459E-13-4.03677E-13
 -1      2161 2.03278E+01-3.16303E+00-2.14112E-01 6.07933E+00 1.16629E-13-2.59404E-13
 -1      2162 3.31692E+01 1.93567E+00 2.51718E-01 4.77436E+00 1.68698E-13-5.91749E-13
 -1      2163 2.84455E+01 2.67439E-01-5.59517E-02 5.05277E+00 2.57794E-13-4.98712E-13
 -1      2164 3.84251E+01 4.88134E+00 3.34543E-01 2.25642E+00-2.31204E-14-4.38982E-13
 -1      2165 3.49946E+01 3.61982E+00 1.02870E-01 3.07128E+00 1.57582E-13-4.23439E-13
 -1      2166 4.13495E+01 7.04740E+00 3.81880E-01 3.74370E-01 9.38138E-15-4.02067E-13
 -1      2167 4.00627E+01 6.43345E+00 3.25787E-01 1.79909E+00-7.96030E-14-4.14224E-13
 -1      2168 4.05592E+01 7.03185E+00 3.23781E-01-1.44425E+00 3.44169E-14-4.63241E-13
 -1      2169 4.10463E+01 7.35875E+00 3.49131E-01-1.81059E-01 4.79616E-14-4.20133E-13
 -1      2170 3.69329E+01 4.85256E+00 1.55001E-01-2.84724E+00-2.47219E-13-6.65024E-13
 -1      2171 3.96457E+01 5.92701E+00 3.51902E-01-1.93865E+00-7.64944E-14-5.88085E-13
 -1      2172 3.13896E+01 1.40312E+00-7.08019E-03-4.40118E+00 5.34434E-14-5.22915E-13
 -1      2173 3.57804E+01 3.18707E+00 3.28265E-01-4.08880E+00-2.05176E-13-7.80376E-13
 -1      2174 2.39440E+01-2.79066E+00-1.45918E-01-5.72887E+00 5.11979E-13-3.58935E-13
 -1      2175 2.88213E+01-7.33332E-01 1.67726E-01-5.76829E+00 5.01599E-13-3.06144E-13
 -1      2176 1.46878E+01-5.60609E+00-3.32292E-01-6.40728E+00 2.56906E-13-4.98518E-13
 -1      2177 1.96344E+01-3.57671E+00 2.91352E-03-7.19600E+00 3.13749E-13-5.65215E-13
 -1      2178 8.24078E+00-6.85891E+00-2.08556E-01-6.13633E+00 4.23550E-13-3.02647E-13
 -1      2179 1.13864E+01-5.85663E+00-1.55520E-01-6.77363E+00 2.96096E-13-4.43208E-13
 -1      2180 1.57539E+01-6.30521E+00-1.15545E-01-7.21537E+00 3.50442E-13-5.79516E-13
 -1      2181 1.47395E+00-8.26722E+00-4.99779E-01-2.74470E+00 5.53529E-13 3.66263E-13
 -1      2182 3.92525E+00-6.83948E+00-2.86052E-01-4.65593E+00 5.52725E-13 1.65312E-13
 -1      2183 3.63363E+01 2.93703E+00 3.49516E-01 3.95106E+00-2.06776E-13-4.10560E-13
 -1      2184 3.18304E+01 1.17571E+00 9.81124E-03 4.35477E+00-3.09225E-13-4.06342E-13
 -1      2185 2.43340E+01-4.64789E+00 5.34326E-02 5.68916E+00-5.12868E-13-1.53433E-13
 -1      2186 2.07354E+01 1.10846E+00-2.09123E-02-1.61595E+00-4.03351E-13 3.55358E-13
 -1      2187 3.11489E+01-1.35823E+00 1.67073E-01 2.79388E+00-3.46181E-13-5.45397E-13
 -1      2188 3.54315E+01 3.38199E+00 3.07286E-01 8.97250E-01-4.54081E-14-7.71050E-13
 -1      2189 2.06269E+01 1.33216E+00-1.78567E-02-1.67773E+00-4.32638E-13 1.06427E-13
 -1      2190 7.76890E+00-6.10450E+00-1.52923E-01 6.08656E+00-9.77551E-14-6.75293E-13
 -1      2191 2.48847E+00-5.33336E+00-1.78577E-01 2.41388E+00 1.00753E-14-7.85760E-13
 -1      2192 2.02595E+01 4.58624E-01 4.93976E-03-6.47222E-01-2.14774E-14-4.18597E-14
 -1      2193 1.58065E+01-6.28432E+00-9.38824E-02 7.03761E+00-4.47420E-13 1.91236E-13
 -1      2194 2.22088E+00-5.52834E+00-1.87168E-01-2.25937E+00 3.18051E-13-6.77236E-14
 -1      2195 7.31948E+00-6.25040E+00-1.32158E-01-5.91363E+00 5.21527E-13-2.15328E-13
 -1      2196 1.07648E+01-5.64986E+00-1.02282E-01-7.00461E+00 6.77014E-13-4.79811E-13
 -1      2197 6.95034E+00-4.75222E+00 1.06852E-01-5.76063E+00 5.22776E-13 1.50269E-13
 -1      2198 2.40135E+01-4.74187E+00 7.59229E-02-5.81008E+00 4.39815E-13-3.32734E-13
 -1      2199 3.06661E+01-1.29506E+00 1.04936E-01-2.91055E+00 3.49457E-13-5.02265E-13
 -1      2200 3.45628E+01 3.53455E+00 2.68211E-01-8.63106E-01-1.61787E-13-5.73208E-13
 -1      2201 3.61585E+01 7.16540E+00 3.24164E-01-4.92273E-03-1.28009E-13-8.65141E-14
 -1      2202 3.73537E+01 8.11440E+00 3.55949E-01-1.75862E-01-6.43929E-15-1.87489E-14
 -1      2203 3.59710E+01 5.89965E+00 2.65539E-01-1.64532E-01 4.25771E-14-5.42344E-14
 -1      2204 3.32306E+01 1.92235E+00 2.34836E-01 1.36890E+00 2.76820E-13-2.27707E-13
 -1      2205 2.82169E+01-2.12608E+00 1.35307E-01 4.02375E+00 3.95295E-13-3.48277E-13
 -1      2206 1.14565E+01-5.85160E+00-1.14241E-01 6.57140E+00 2.86993E-14 3.23973E-13
 -1      2207 1.09537E+01-5.00194E+00 1.53124E-01 6.85536E+00 1.28786E-13 4.53748E-13
 -1      2208 1.50203E+01-5.81594E+00-1.55824E-01 7.08349E+00 1.87794E-13 2.92009E-13
 -1      2209 1.94600E+00-4.67784E+00-1.22612E-01 9.95762E-01 3.67692E-14-1.28064E-13
 -1      2210 1.01022E+01-6.17510E+00-1.18130E-01-6.29732E+00-2.50910E-14-7.43794E-13
 -1      2211 3.29834E+01 5.80180E-01 1.54360E-01-6.96727E-01 4.64392E-13-6.54532E-13
 -1      2212 3.68916E+01 7.18310E+00 3.72578E-01 2.10563E-01 3.62543E-13-6.63997E-13
 -1      2213 3.64564E+01 7.73365E+00 2.93437E-01 6.17843E-01 5.06428E-13-5.54834E-13
 -1      2214 2.67036E+01-4.14233E+00 6.02052E-02-3.79666E+00 2.45748E-13-8.46545E-13
 -1      2215 3.31967E+00-5.52744E+00-1.86710E-01-3.44037E+00 2.68119E-14-7.28417E-13
 -1      2216 2.09156E+01-4.88305E+00 1.10267E-02 6.16926E+00 2.21323E-13-9.35085E-14
 -1      2217 2.01474E+01 5.06376E-01 3.72588E-03 6.78391E-01 3.13301E-13-5.15859E-14
 -1      2218 2.04154E+01 6.99931E-01 2.07825E-02 9.69968E-01 3.47326E-13-6.39766E-15
 -1      2219 1.95605E+01 3.51569E+00-1.11087E-02-5.91731E-01-1.66136E-13-5.41089E-13
 -1      2220 1.95959E+01 3.46966E+00-1.05082E-02-7.76248E-01-2.16446E-13-5.34218E-13
 -1      2221 1.96427E+01 3.38117E+00-1.27894E-02-9.40559E-01-2.47375E-13-5.12488E-13
 -1      2222 1.97035E+01 3.30058E+00-1.27694E-02-1.13050E+00-3.02525E-13-4.77284E-13
 -1      2223 1.97873E+01 3.03294E+00 3.25649E-04-7.92257E-01-2.18547E-13-4.87412E-13
 -1      2224 1.95132E+01 3.59825E+00-9.62063E-03 9.95030E-02-1.72686E-14-6.03672E-13
 -1      2225 1.95126E+01 3.59907E+00-9.62747E-03-8.00841E-02-5.35474E-14-5.90080E-13
 -1      2226 1.95393E+01 3.55887E+00-9.72259E-03 4.45766E-01 6.82198E-14-6.17765E-13
 -1      2227 1.95219E+01 3.58142E+00-1.01407E-02 2.64834E-01 1.60989E-14-6.14113E-13
 -1      2228 1.96795E+01 3.22092E+00-8.99539E-04 1.69703E-01 2.31471E-15-5.73870E-13
 -1      2229 1.96011E+01 3.46237E+00-1.06097E-02 7.89946E-01 1.40821E-13-6.25194E-13
 -1      2230 1.95648E+01 3.50936E+00-1.12097E-02 6.08413E-01 9.36376E-14-6.24325E-13
 -1      2231 1.97162E+01 3.15742E+00-5.03952E-04 4.88363E-01 7.96659E-14-5.89431E-13
 -1      2232 1.97116E+01 3.28868E+00-1.29514E-02 1.14348E+00 2.31152E-13-5.70539E-13
 -1      2233 1.96490E+01 3.37199E+00-1.28708E-02 9.54131E-01 1.76784E-13-5.96867E-13
 -1      2234 1.97931E+01 3.02380E+00 2.70415E-04 8.04261E-01 1.56799E-13-5.71657E-13
 -1      2235 1.98906E+01 3.00320E+00-1.81691E-02 1.49060E+00 3.18489E-13-5.15626E-13
 -1      2236 1.97912E+01 3.14446E+00-1.51760E-02 1.30016E+00 2.62290E-13-5.48228E-13
 -1      2237 1.99221E+01 2.79876E+00 1.96122E-03 1.11068E+00 2.36604E-13-5.21813E-13
 -1      2238 2.01690E+01 2.54372E+00-2.84014E-02 1.79498E+00 4.09206E-13-3.93300E-13
 -1      2239 2.00178E+01 2.78305E+00-1.70905E-02 1.62049E+00 3.56457E-13-4.63834E-13
 -1      2240 2.01166E+01 2.44817E+00 5.81752E-03 1.37648E+00 3.22154E-13-4.49002E-13
 -1      2241 1.98701E+01 2.68101E-01 4.72565E-03 2.85943E-01 2.59804E-13-9.01119E-14
 -1      2242 2.00310E+01 3.67893E-01 2.01707E-02 4.43044E-01 2.87006E-13-4.07968E-14
 -1      2243 2.02101E+01 6.34476E-01-2.24548E-03 7.05373E-01 3.22264E-13-1.51521E-13
 -1      2244 2.04015E+01 8.55519E-01 1.35228E-02-1.00009E+00-3.55629E-13-2.02767E-14
 -1      2245 2.01889E+01 6.26828E-01-4.68410E-03-6.92298E-01-3.26041E-13-3.76823E-14
 -1      2246 3.11814E+01-1.38607E+00-1.11809E-01 9.95766E-01-3.82724E-13-6.37712E-13
 -1      2247 2.91507E+01-3.30289E+00-1.90850E-02 2.13716E+00-3.89751E-13-5.40290E-13
 -1      2248 2.01237E+01 4.69692E-01 1.62007E-02-4.75454E-01-2.98590E-13-1.54467E-14
 -1      2249 1.99828E+01 3.44284E-01 8.32332E-05-3.04107E-01-2.65971E-13-4.54530E-14
 -1      2250 2.02447E+01 7.49190E-01-6.68236E-04-6.94582E-01-3.23212E-13-1.13736E-13
 -1      2251 1.99192E+01 2.59268E-01 1.08805E-02-1.66897E-01-2.49602E-13-2.38469E-14
 -1      2252 1.98404E+01 1.87771E-01 7.23048E-04-6.97851E-02-2.01169E-13-4.96292E-14
 -1      2253 2.00800E+01 4.15850E-01-3.62976E-03-3.11362E-01-2.64252E-13-1.01117E-13
 -1      2254 1.97959E+01 1.38267E-01 6.40769E-03 1.21713E-02-1.65089E-13-8.11106E-14
 -1      2255 1.97606E+01 9.59232E-02 7.18638E-04 6.53636E-02-1.20298E-13-1.06986E-13
 -1      2256 1.99588E+01 2.26889E-01-3.61406E-03-7.25328E-02-2.15449E-13-9.55050E-14
 -1      2257 1.97346E+01 6.60323E-02 3.58282E-03 1.10960E-01-9.48220E-14-1.53673E-13
 -1      2258 1.97271E+01 4.05282E-02 6.18196E-04 1.37420E-01-9.59300E-14-1.56097E-13
 -1      2259 1.98829E+01 1.14475E-01-2.92566E-03 6.79333E-02-1.38687E-13-1.47189E-13
 -1      2260 1.97153E+01 2.23238E-02 1.85894E-03 1.59586E-01-1.19211E-13-1.65713E-13
 -1      2261 1.97243E+01 7.15240E-03 5.02341E-04 1.69658E-01-1.08660E-13-1.79633E-13
 -1      2262 1.98430E+01 4.64214E-02-2.12635E-03 1.43949E-01-1.17214E-13-2.05793E-13
 -1      2263 1.97223E+01-3.65979E-03 7.98047E-04 1.77047E-01-8.33095E-14-1.87491E-13
 -1      2264 1.97402E+01-1.22001E-02 3.95890E-04 1.77270E-01-7.08576E-14-1.79526E-13
 -1      2265 1.98288E+01 5.54654E-03-1.44549E-03 1.78487E-01-1.10622E-13-2.44867E-13
 -1      2266 1.97444E+01-1.81511E-02 1.49762E-04 1.75739E-01-1.17511E-13-1.86961E-13
 -1      2267 1.97666E+01-2.23176E-02 3.13755E-04 1.70401E-01-1.30655E-13-2.04454E-13
 -1      2268 1.98313E+01-1.78962E-02-9.33314E-04 1.87114E-01-1.02585E-13-2.40559E-13
 -1      2269 1.97743E+01-2.50001E-02-2.31418E-04 1.63952E-01-1.02289E-13-1.74599E-13
 -1      2270 1.97977E+01-2.62362E-02 2.63086E-04 1.55931E-01-5.93192E-14-1.54524E-13
 -1      2271 1.98440E+01-2.98225E-02-5.73942E-04 1.80459E-01-1.00169E-13-2.47373E-13
 -1      2272 1.98073E+01-2.66913E-02-4.36350E-04 1.47321E-01-2.89549E-14-1.37207E-13
 -1      2273 1.98302E+01-2.59397E-02 2.46036E-04 1.38577E-01-1.93566E-14-1.39581E-13
 -1      2274 1.98623E+01-3.40030E-02-3.36691E-04 1.65836E-01-3.89236E-14-1.25872E-13
 -1      2275 1.98405E+01-2.48533E-02-5.25367E-04 1.29721E-01-4.71306E-14-1.28214E-13
 -1      2276 1.98623E+01-2.27233E-02 2.63012E-04 1.21614E-01-2.76843E-14-9.38168E-14
 -1      2277 1.98832E+01-3.28998E-02-1.92848E-04 1.48317E-01-3.23990E-14-7.74128E-14
 -1      2278 1.98729E+01-2.05361E-02-5.39829E-04 1.13867E-01-5.67922E-14-1.06789E-13
 -1      2279 1.98933E+01-1.74013E-02 3.14651E-04 1.07366E-01-9.22222E-14-9.62800E-14
 -1      2280 1.99053E+01-2.81104E-02-1.19412E-04 1.31463E-01-5.71149E-14-8.18281E-14
 -1      2281 1.99041E+01-1.43763E-02-5.08361E-04 1.01720E-01-1.48304E-13-1.04474E-13
 -1      2282 1.99236E+01-1.04391E-02 4.02492E-04 9.75594E-02-1.26344E-13-1.31596E-13
 -1      2283 1.99277E+01-2.06266E-02-9.90765E-05 1.17832E-01-1.14922E-13-1.81752E-13
 -1      2284 1.99346E+01-6.70906E-03-4.50649E-04 9.47986E-02-8.20086E-14-1.02744E-13
 -1      2285 1.99541E+01-2.04699E-03 5.28894E-04 9.35865E-02-8.10767E-14-1.21350E-13
 -1      2286 1.99505E+01-1.10009E-02-1.19235E-04 1.09361E-01-1.11779E-13-9.40042E-14
 -1      2287 1.99657E+01 2.34803E-03-3.79988E-04 9.43873E-02-1.22965E-13-1.41800E-13
 -1      2288 1.99862E+01 7.74310E-03 6.96506E-04 9.66853E-02-9.16294E-14-1.57944E-13
 -1      2289 1.99743E+01 5.31279E-04-1.70801E-04 1.07632E-01-1.17134E-13-7.81066E-14
 -1      2290 1.99991E+01 1.28219E-02-3.05049E-04 1.01693E-01-1.37839E-14-1.91571E-13
 -1      2291 2.00218E+01 1.90062E-02 9.07332E-04 1.08063E-01 1.90251E-14-1.43060E-13
 -1      2292 2.00000E+01 1.39502E-02-2.47163E-04 1.14071E-01-7.06308E-14-1.10092E-13
 -1      2293 2.00367E+01 2.48114E-02-2.31056E-04 1.17932E-01-5.89090E-14-1.46687E-13
 -1      2294 2.00633E+01 3.18473E-02 1.16126E-03 1.28958E-01-8.07663E-14-2.33767E-13
 -1      2295 2.00291E+01 2.93547E-02-3.43309E-04 1.30068E-01-2.95804E-14-2.05396E-13
 -1      2296 2.00811E+01 3.84029E-02-1.60464E-04 1.44358E-01-4.42162E-14-2.03955E-13
 -1      2297 2.01133E+01 4.63060E-02 1.45391E-03 1.60626E-01 5.35265E-15-2.05161E-13
 -1      2298 2.00632E+01 4.68530E-02-4.55125E-04 1.57026E-01-5.68649E-14-1.15480E-13
 -1      2299 2.01350E+01 5.35611E-02-9.31098E-05 1.82209E-01 4.50072E-14-2.36092E-13
 -1      2300 2.01749E+01 6.22271E-02 1.77345E-03 2.04249E-01 6.72622E-14-2.56625E-13
 -1      2301 2.01044E+01 6.64261E-02-5.78953E-04 1.96335E-01 4.76515E-15-1.33027E-13
 -1      2302 2.02016E+01 6.99776E-02-2.57418E-05 2.32558E-01 8.79035E-14-3.06304E-13
 -1      2303 2.02511E+01 7.90786E-02 2.09627E-03 2.60724E-01 1.35806E-13-2.36210E-13
 -1      2304 2.01547E+01 8.77407E-02-7.11608E-04 2.49244E-01 7.48333E-14-3.03265E-13
 -1      2305 2.02842E+01 8.68554E-02 4.92891E-05 2.96034E-01 1.17880E-13-2.02025E-13
 -1      2306 2.03454E+01 9.56923E-02 2.38111E-03 3.30295E-01 8.51092E-14-1.75720E-13
 -1      2307 2.02168E+01 1.09886E-01-8.51181E-04 3.16601E-01 1.09412E-13-3.04797E-13
 -1      2308 2.03864E+01 1.02604E-01 1.46425E-04 3.72352E-01 5.64072E-15-1.79335E-13
 -1      2309 2.04611E+01 1.09903E-01 2.56171E-03 4.11970E-01 2.21825E-14-1.53485E-13
 -1      2310 2.02933E+01 1.31002E-01-9.99080E-04 3.98421E-01 1.12813E-14-2.72617E-13
 -1      2311 2.05118E+01 1.14427E-01 2.90528E-04 4.59604E-01-4.93206E-14-2.02276E-13
 -1      2312 2.06013E+01 1.18076E-01 2.53868E-03 5.02669E-01-4.30713E-14-2.56283E-13
 -1      2313 2.03874E+01 1.47778E-01-1.16379E-03 4.93229E-01-6.93617E-14-2.56642E-13
 -1      2314 2.06639E+01 1.17800E-01 5.21335E-04 5.53237E-01 1.38922E-14-2.29642E-13
 -1      2315 2.07687E+01 1.14548E-01 2.17239E-03 5.96024E-01 7.17373E-14-1.70224E-13
 -1      2316 2.05026E+01 1.54807E-01-1.36640E-03 5.97100E-01-3.63194E-14-2.46874E-13
 -1      2317 2.08461E+01 1.05912E-01 8.96732E-04 6.44670E-01 5.56886E-14-2.15559E-13
 -1      2318 2.09653E+01 9.11277E-02 1.28162E-03 6.80848E-01 6.70689E-14-1.64316E-13
 -1      2319 2.06430E+01 1.43879E-01-1.64632E-03 7.02367E-01 3.06563E-14-2.33694E-13
 -1      2320 2.10611E+01 6.93099E-02 1.48920E-03 7.19584E-01 1.12498E-13-1.82363E-13
 -1      2321 2.11919E+01 3.70338E-02-3.42984E-04 7.39386E-01 1.31451E-13-1.31438E-13
 -1      2322 2.08141E+01 1.03458E-01-2.06191E-03 7.95969E-01 1.00778E-13-1.71300E-13
 -1      2323 2.13109E+01-3.69800E-03 2.36273E-03 7.56124E-01 1.33888E-13-7.72074E-14
 -1      2324 2.14477E+01-5.99055E-02-2.89465E-03 7.45820E-01 1.13252E-13-2.47361E-14
 -1      2325 2.10227E+01 1.89571E-02-2.67290E-03 8.57573E-01 1.62272E-13-1.49533E-13
 -1      2326 2.15952E+01-1.24762E-01 3.50383E-03 7.23707E-01 2.19407E-14-3.88036E-15
 -1      2327 2.17286E+01-2.09300E-01-6.44246E-03 6.66107E-01 1.06661E-14 6.44915E-14
 -1      2328 2.12772E+01-1.24928E-01-3.48103E-03 8.57907E-01 5.90878E-14-7.23531E-15
 -1      2329 2.19085E+01-2.99493E-01 4.68489E-03 5.84031E-01-5.62697E-14 8.19598E-14
 -1      2330 2.20246E+01-4.09383E-01-1.07026E-02 4.61328E-01-2.03646E-14 1.39969E-13
 -1      2331 2.15856E+01-3.37693E-01-4.29329E-03 7.58385E-01-7.27673E-15 1.26162E-13
 -1      2332 2.22338E+01-5.15685E-01 5.24414E-03 2.97484E-01 3.43345E-15 1.87336E-14
 -1      2333 2.23128E+01-6.31894E-01-1.46385E-02 9.83433E-02 4.47559E-16 1.00727E-13
 -1      2334 2.19500E+01-6.09535E-01-4.48967E-03 5.14517E-01-1.73510E-14 1.14464E-13
 -1      2335 2.25318E+01-7.25837E-01 3.94807E-03-1.59942E-01 1.89187E-14 7.52714E-14
 -1      2336 2.25497E+01-8.03975E-01-1.59906E-02-4.27424E-01 3.94402E-14 9.51770E-14
 -1      2337 2.23538E+01-8.90176E-01-2.87590E-03 8.80657E-02-1.76591E-14-6.79123E-15
 -1      2338 2.27318E+01-8.32000E-01-7.53477E-04-7.63778E-01 7.71193E-14 6.40367E-14
 -1      2339 2.26668E+01-8.03012E-01-1.14327E-02-1.05471E+00 5.14341E-14 1.28790E-13
 -1      2340 2.27424E+01-1.06699E+00 1.94766E-03-5.24455E-01 4.71498E-14-5.13545E-14
 -1      2341 2.27394E+01-6.97599E-01-9.05814E-03-1.39630E+00-3.31601E-14 2.02182E-13
 -1      2342 2.25855E+01-4.98364E-01 3.63016E-04-1.61764E+00 3.59881E-14 2.35555E-13
 -1      2343 2.30104E+01-9.71423E-01 9.55950E-03-1.24214E+00 6.34536E-14 6.94801E-14
 -1      2344 2.24884E+01-2.24372E-01-1.91073E-02-1.82436E+00-3.92026E-14 2.97957E-13
 -1      2345 2.22755E+01 1.38380E-01 1.45769E-02-1.85557E+00-8.86188E-14 2.11598E-13
 -1      2346 2.30291E+01-4.58398E-01 1.40725E-02-1.84905E+00 3.89129E-14 2.15488E-13
 -1      2347 2.20319E+01 5.18596E-01-2.29329E-02-1.76665E+00-5.40640E-14 1.87593E-13
 -1      2348 2.18277E+01 9.03766E-01 2.01251E-02-1.52666E+00-6.96596E-14 1.37465E-13
 -1      2349 2.27479E+01 4.34550E-01 5.91323E-03-2.01879E+00-9.49167E-14 2.00305E-13
 -1      2350 2.15941E+01 1.20483E+00-1.09760E-02-1.09638E+00-1.93127E-13 1.38068E-13
 -1      2351 2.14764E+01 1.39278E+00 1.16065E-02-6.38323E-01-3.06902E-13 7.07542E-14
 -1      2352 2.23207E+01 1.36383E+00-9.81545E-03-1.49191E+00-1.75068E-13 1.42919E-13
 -1      2353 2.14331E+01 1.41874E+00 1.09807E-02-3.22257E-02-1.52872E-13 4.50475E-14
 -1      2354 2.14423E+01 1.27725E+00-7.35502E-03 4.44340E-01-1.22698E-13 1.65406E-14
 -1      2355 2.20620E+01 1.81014E+00-1.77100E-02-3.78303E-01-2.97348E-13 2.46933E-13
 -1      2356 2.16071E+01 1.00923E+00 2.39138E-02 9.19620E-01-1.41496E-13-1.77352E-14
 -1      2357 2.17128E+01 6.34910E-01-2.12091E-02 1.20140E+00-9.36805E-14 3.46082E-14
 -1      2358 2.21664E+01 1.47669E+00-9.46251E-03 7.88206E-01-1.69736E-13 1.69641E-13
 -1      2359 2.19250E+01 2.46424E-01 2.00373E-02 1.34392E+00-1.25832E-13 9.30315E-14
 -1      2360 2.20546E+01-1.37892E-01-2.01817E-02 1.34682E+00-8.45175E-14 1.33395E-13
 -1      2361 2.24916E+01 5.81837E-01 7.15460E-03 1.42780E+00-7.17140E-14 1.94612E-13
 -1      2362 2.21341E+01-4.38912E-01 3.80158E-03 1.17179E+00-8.32239E-14 5.84398E-14
 -1      2363 2.22136E+01-6.68621E-01-1.24017E-02 9.65543E-01 1.48454E-13 4.90136E-14
 -1      2364 2.27172E+01-3.70124E-01 1.07167E-02 1.34573E+00-1.04081E-13 2.21870E-13
 -1      2365 2.21181E+01-7.93812E-01-9.41931E-03 6.26961E-01 4.26547E-13-7.13352E-14
 -1      2366 2.21125E+01-8.33488E-01-1.35959E-03 3.38439E-01 4.45959E-13-4.64404E-14
 -1      2367 2.26568E+01-9.41854E-01 1.03825E-02 7.72557E-01 1.95041E-13 1.17825E-13
 -1      2368 2.18896E+01-8.02006E-01-1.53962E-02-3.01240E-03 3.23588E-13-1.07443E-13
 -1      2369 2.18026E+01-7.05893E-01 5.45074E-03-2.64343E-01 2.95756E-13-1.26029E-13
 -1      2370 2.23212E+01-1.06280E+00 3.12766E-03 4.87315E-02 2.78063E-13-3.93934E-15
 -1      2371 2.15283E+01-5.80614E-01-1.52681E-02-5.12573E-01 1.46347E-13-2.29090E-13
 -1      2372 2.13854E+01-4.17792E-01 8.84185E-03-6.82422E-01-1.22466E-13-1.06142E-13
 -1      2373 2.18376E+01-8.39491E-01-2.45446E-03-5.60302E-01 6.15365E-14-9.38121E-14
 -1      2374 2.11133E+01-2.54335E-01-1.14407E-02-8.02247E-01-1.36476E-13-6.02964E-14
 -1      2375 2.09411E+01-8.18543E-02 7.14386E-03-8.54580E-01-1.30565E-13 4.41964E-15
 -1      2376 2.13249E+01-4.42229E-01-3.84812E-03-9.29915E-01-9.74175E-14-5.01946E-14
 -1      2377 1.96221E+01 7.24452E-02 2.06874E-03-6.52675E-02 7.77462E-14-1.80153E-13
 -1      2378 1.96497E+01 1.04166E-01 6.91316E-03-1.91729E-02 1.26818E-13-1.35508E-13
 -1      2379 1.95983E+01 3.06373E-02 1.33761E-03-1.30871E-01 9.07609E-14-2.03872E-13
 -1      2380 1.95954E+01 4.95279E-02 3.68506E-03-1.08399E-01 6.71615E-14-1.78929E-13
 -1      2381 1.97670E+01 8.96907E-02-3.17473E-03-7.05060E-02 9.45139E-14-1.92159E-13
 -1      2382 1.96101E+01 5.69514E-03 8.75633E-04-1.59318E-01 1.33219E-13-1.93689E-13
 -1      2383 1.95902E+01 1.68887E-02 1.81922E-03-1.51073E-01 1.28828E-13-1.79423E-13
 -1      2384 1.97327E+01 3.57957E-02-2.28878E-03-1.42801E-01 1.01731E-13-2.09906E-13
 -1      2385 1.96421E+01-8.73901E-03 5.64563E-04-1.65157E-01 7.83206E-14-1.71753E-13
 -1      2386 1.96139E+01-2.40707E-03 7.23006E-04-1.65384E-01 1.20798E-13-1.57375E-13
 -1      2387 1.97293E+01 3.83876E-03-1.52423E-03-1.74667E-01 1.06531E-13-1.91693E-13
 -1      2388 1.96841E+01-1.63470E-02 3.55539E-04-1.57826E-01 2.74522E-14-1.64436E-13
 -1      2389 1.96528E+01-1.31913E-02 7.44011E-05-1.62817E-01 6.86671E-14-1.62940E-13
 -1      2390 1.97446E+01-1.43897E-02-9.54630E-04-1.81669E-01 6.83677E-14-1.43729E-13
 -1      2391 1.97294E+01-1.94144E-02 2.25960E-04-1.43606E-01 2.95370E-14-1.56862E-13
 -1      2392 1.96982E+01-1.83735E-02-2.94930E-04-1.50904E-01 3.41683E-14-1.59232E-13
 -1      2393 1.97703E+01-2.36899E-02-5.60956E-04-1.74139E-01 4.50232E-14-1.58784E-13
 -1      2394 1.97744E+01-1.94161E-02 1.61462E-04-1.26749E-01 4.24931E-14-1.94595E-13
 -1      2395 1.97450E+01-1.98028E-02-4.82763E-04-1.34691E-01 5.66747E-14-1.80043E-13
 -1      2396 1.98008E+01-2.70523E-02-3.05395E-04-1.59054E-01 5.85252E-14-1.75023E-13
 -1      2397 1.98170E+01-1.73082E-02 1.52090E-04-1.10174E-01 1.24141E-13-2.73713E-13
 -1      2398 1.97901E+01-1.86807E-02-5.51218E-04-1.17616E-01 1.11869E-13-2.14467E-13
 -1      2399 1.98328E+01-2.64008E-02-1.53922E-04-1.41191E-01 8.16817E-14-2.15535E-13
 -1      2400 1.98568E+01-1.36874E-02 1.91888E-04-9.59381E-02-7.13958E-15-2.43353E-13
 -1      2401 1.98323E+01-1.57768E-02-5.41611E-04-1.02064E-01 5.46241E-14-2.75509E-13
 -1      2402 1.98644E+01-2.29719E-02-8.04175E-05-1.23866E-01 8.62292E-14-2.45391E-13
 -1      2403 1.98942E+01-8.88650E-03 2.78684E-04-8.55651E-02-4.51544E-14-2.06790E-13
 -1      2404 1.98716E+01-1.15525E-02-4.81744E-04-8.97535E-02 6.69071E-15-2.09918E-13
 -1      2405 1.98950E+01-1.75238E-02-6.58414E-05-1.09450E-01-1.94927E-14-2.56748E-13
 -1      2406 1.99308E+01-3.03459E-03 4.13738E-04-8.02962E-02 2.04920E-14-2.70974E-13
 -1      2407 1.99089E+01-6.23678E-03-3.90172E-04-8.20191E-02-4.12342E-14-2.17440E-13
 -1      2408 1.99250E+01-1.04614E-02-9.68248E-05-9.97388E-02-1.49337E-14-2.32575E-13
 -1      2409 1.99682E+01 3.89945E-03 6.01263E-04-8.12799E-02 1.41380E-13-2.45208E-13
 -1      2410 1.99459E+01 1.22159E-04-2.78945E-04-8.00222E-02 7.51087E-14-2.45726E-13
 -1      2411 1.99551E+01-1.91776E-03-1.64374E-04-9.62249E-02 3.95339E-14-2.41589E-13
 -1      2412 2.00093E+01 1.20738E-02 8.47913E-04-8.97201E-02 8.20492E-14-1.56824E-13
 -1      2413 1.99846E+01 7.61956E-03-1.55574E-04-8.49177E-02 1.54148E-13-1.42945E-13
 -1      2414 1.99870E+01 8.18768E-03-2.62549E-04-1.00315E-01 9.37853E-14-1.29021E-13
 -1      2415 2.00569E+01 2.17453E-02 1.16209E-03-1.06989E-01 7.81739E-14-1.53085E-13
 -1      2416 2.00280E+01 1.64635E-02-2.45871E-05-9.79814E-02 1.08779E-13-1.65339E-13
 -1      2417 2.00226E+01 2.01033E-02-3.87267E-04-1.13491E-01 4.96534E-14-4.40305E-14
 -1      2418 2.01149E+01 3.32386E-02 1.55278E-03-1.34707E-01-1.18189E-13-8.27050E-14
 -1      2419 2.00793E+01 2.69462E-02 1.11191E-04-1.20703E-01-1.35400E-14-1.26652E-13
 -1      2420 2.00643E+01 3.42037E-02-5.35247E-04-1.37428E-01 1.06992E-14-6.64300E-14
 -1      2421 2.01875E+01 4.69056E-02 2.02758E-03-1.74781E-01-8.05548E-14-1.96723E-13
 -1      2422 2.01425E+01 3.94104E-02 2.49543E-04-1.54848E-01-1.20631E-13-9.62043E-14
 -1      2423 2.01149E+01 5.09433E-02-7.02955E-04-1.74073E-01-9.63934E-14-1.65791E-14
 -1      2424 2.02796E+01 6.30555E-02 2.58917E-03-2.29392E-01 1.22160E-13-2.86378E-13
 -1      2425 2.02219E+01 5.41968E-02 3.87906E-04-2.02464E-01 7.20211E-14-2.40042E-13
 -1      2426 2.01775E+01 7.07878E-02-8.85637E-04-2.25666E-01 2.90546E-14-1.80938E-13
 -1      2427 2.03968E+01 8.18321E-02 3.22906E-03-3.00878E-01 3.56988E-14-2.86846E-13
 -1      2428 2.03227E+01 7.15538E-02 5.22631E-04-2.65828E-01 1.17912E-13-2.81060E-13
 -1      2429 2.02559E+01 9.40992E-02-1.07670E-03-2.94691E-01 1.05915E-13-2.09303E-13
 -1      2430 2.05449E+01 1.02987E-01 3.91710E-03-3.91469E-01-1.29567E-13-3.32150E-13
 -1      2431 2.04505E+01 9.14730E-02 6.48730E-04-3.47261E-01-4.23410E-14-2.72981E-13
 -1      2432 2.03538E+01 1.20930E-01-1.26805E-03-3.83704E-01 2.03750E-14-1.64488E-13
 -1      2433 2.07301E+01 1.25474E-01 4.58445E-03-5.02729E-01-1.19158E-13-4.04385E-13
 -1      2434 2.06113E+01 1.13389E-01 7.60774E-04-4.48736E-01-1.84327E-13-3.63033E-13
 -1      2435 2.04755E+01 1.50647E-01-1.45268E-03-4.94956E-01-1.06156E-13-3.04786E-13
 -1      2436 2.09586E+01 1.46745E-01 5.09797E-03-6.34541E-01-8.75591E-14-3.70965E-13
 -1      2437 2.08115E+01 1.35651E-01 8.56343E-04-5.71125E-01-9.04850E-14-3.93165E-13
 -1      2438 2.06251E+01 1.81277E-01-1.63170E-03-6.29691E-01-1.39873E-13-4.60147E-13
 -1      2439 2.12356E+01 1.61603E-01 5.22613E-03-7.83322E-01-4.14781E-14-2.63988E-13
 -1      2440 2.10574E+01 1.54623E-01 9.44541E-04-7.12855E-01-7.00590E-14-3.06979E-13
 -1      2441 2.08071E+01 2.08389E-01-1.82895E-03-7.86908E-01-1.62052E-13-3.13530E-13
 -1      2442 2.15651E+01 1.60492E-01 4.60216E-03-9.39113E-01-3.32748E-14-1.98742E-13
 -1      2443 2.13548E+01 1.63279E-01 1.06323E-03-8.67626E-01-1.81248E-14-2.18694E-13
 -1      2444 2.10264E+01 2.23344E-01-2.11663E-03-9.61286E-01-7.53111E-14-3.05144E-13
 -1      2445 2.19486E+01 1.27383E-01 2.70249E-03-1.08119E+00-1.32000E-13-9.60707E-14
 -1      2446 2.17089E+01 1.49243E-01 1.30680E-03-1.02079E+00-8.29432E-14-1.69275E-13
 -1      2447 2.12892E+01 2.10811E-01-2.65110E-03-1.13994E+00-7.11455E-14-2.46642E-13
 -1      2448 2.23851E+01 3.82872E-02-1.11429E-03-1.17222E+00-8.67560E-14 2.63791E-14
 -1      2449 2.21241E+01 9.27429E-02 1.85271E-03-1.14410E+00-6.54886E-14-4.35216E-14
 -1      2450 2.16045E+01 1.46043E-01-3.70204E-03-1.29762E+00-1.55405E-13-1.93223E-13
 -1      2451 2.28689E+01-1.36339E-01-7.39174E-03-1.15239E+00 4.21356E-14-1.76303E-13
 -1      2452 2.26032E+01-3.36488E-02 2.93960E-03-1.18912E+00 3.80477E-14-2.67028E-14
 -1      2453 2.19874E+01-6.08201E-03-5.60295E-03-1.39036E+00-1.42032E-14-2.14967E-13
 -1      2454 2.33871E+01-4.17982E-01-1.57172E-02-9.38305E-01 1.15618E-13-2.48997E-13
 -1      2455 2.31444E+01-2.58559E-01 4.67087E-03-1.08203E+00 7.80300E-14-1.66926E-13
 -1      2456 2.24607E+01-2.84424E-01-8.41325E-03-1.34886E+00 9.22418E-14-2.04494E-13
 -1      2457 2.39084E+01-7.87858E-01-2.42274E-02-4.40065E-01-1.04296E-13-1.84281E-13
 -1      2458 2.37301E+01-5.89354E-01 6.81129E-03-7.29021E-01-1.44329E-14-1.17150E-13
 -1      2459 2.30490E+01-7.05916E-01-1.09281E-02-1.07741E+00-1.54226E-14-1.13921E-13
 -1      2460 2.43662E+01-1.12822E+00-2.83985E-02 3.92104E-01-2.06571E-14-1.08176E-13
 -1      2461 2.43077E+01-9.69765E-01 7.13028E-03-4.50541E-02-3.62496E-14-1.65355E-13
 -1      2462 2.37580E+01-1.21578E+00-1.05588E-02-4.74589E-01-1.26216E-13 7.92248E-14
 -1      2463 2.46255E+01-1.14873E+00-1.96431E-02 1.47003E+00-5.06956E-14 3.32429E-14
 -1      2464 2.47464E+01-1.20429E+00 3.52550E-04 9.72970E-01-1.16985E-13-1.20252E-13
 -1      2465 2.45306E+01-1.60781E+00-5.55485E-03 5.29914E-01-9.19187E-14 1.68797E-13
 -1      2466 2.45039E+01-5.49564E-01-4.84609E-03 2.36949E+00 1.16755E-13 2.05055E-13
 -1      2467 2.48043E+01-9.42918E-01-2.19864E-02 2.04630E+00 6.59433E-14 1.82801E-13
 -1      2468 2.51278E+01-1.40585E+00 9.41783E-03 1.77140E+00-6.45645E-14 1.33201E-13
 -1      2469 2.39695E+01 7.12044E-01 1.57487E-02 2.49210E+00-1.91843E-13 3.88490E-13
 -1      2470 2.43682E+01 1.80292E-02-4.48413E-02 2.62246E+00 4.48088E-14 2.28952E-13
 -1      2471 2.52544E+01-3.69422E-01-4.83159E-03 2.72625E+00 3.61291E-14 1.80951E-13
 -1      2472 2.33307E+01 1.84896E+00-9.88978E-03 1.36118E+00-2.12934E-13 1.87889E-13
 -1      2473 2.36015E+01 1.33978E+00-6.28285E-02 1.99290E+00-2.32488E-13 3.08115E-13
 -1      2474 2.48202E+01 1.51078E+00-1.21098E-02 2.59090E+00-1.06672E-13 2.20617E-13
 -1      2475 2.31243E+01 1.90170E+00-6.47275E-02-4.79918E-01-2.80199E-13 2.80234E-13
 -1      2476 2.31624E+01 2.04679E+00-3.66289E-02 3.04252E-01-2.32696E-13 2.20286E-13
 -1      2477 2.43662E+01 2.67476E+00-7.42649E-03 9.70729E-01-2.44922E-13 2.91728E-13
 -1      2478 2.35943E+01 8.58005E-01-5.89861E-02-1.87602E+00-1.48607E-13-9.02594E-14
 -1      2479 2.33823E+01 1.51837E+00 1.28881E-02-1.41400E+00-2.90504E-13-2.58786E-14
 -1      2480 2.43463E+01 2.38246E+00-1.42536E-02-1.14744E+00-7.12347E-14 4.39484E-14
 -1      2481 2.40982E+01-4.32805E-01-3.85707E-02-1.98946E+00-1.76262E-13 5.32968E-14
 -1      2482 2.38364E+01 1.77380E-01 8.76980E-03-2.06131E+00-8.13898E-14-6.22592E-15
 -1      2483 2.47841E+01 7.55803E-01-6.84175E-03-2.21019E+00-1.57624E-13-1.77920E-13
 -1      2484 2.41639E+01-1.13544E+00-1.13280E-02-1.13693E+00-1.17621E-13-3.33879E-14
 -1      2485 2.40408E+01-8.80642E-01-1.13093E-02-1.55836E+00-1.50149E-13 1.61936E-14
 -1      2486 2.48803E+01-8.77773E-01 4.66932E-03-1.84509E+00-9.85444E-14-5.08317E-14
 -1      2487 2.37465E+01-1.16353E+00 4.61882E-03-1.73235E-02 1.85294E-13-9.84651E-14
 -1      2488 2.38133E+01-1.22022E+00-2.50297E-02-5.04199E-01 6.67695E-14-2.92869E-14
 -1      2489 2.44097E+01-1.60509E+00 1.06014E-03-6.79402E-01 3.58264E-14-2.94616E-13
 -1      2490 2.30530E+01-8.22896E-01 9.41592E-03 8.88781E-01 3.37830E-13-2.88641E-14
 -1      2491 2.32754E+01-1.02297E+00-2.64087E-02 5.14999E-01 2.71494E-13 8.21094E-14
 -1      2492 2.35800E+01-1.50960E+00-9.64205E-03 5.22912E-01 1.50536E-13-7.72861E-14
 -1      2493 2.22870E+01-3.90567E-01 9.77392E-03 1.41081E+00 3.10639E-13-6.34440E-14
 -1      2494 2.26000E+01-6.11410E-01-1.93627E-02 1.20915E+00 2.19705E-13 1.76122E-14
 -1      2495 2.26859E+01-9.99703E-01-1.35075E-02 1.36810E+00 3.23309E-13-4.63984E-14
 -1      2496 2.15618E+01 1.02073E-02 1.03117E-02 1.55492E+00 3.65764E-13-8.29371E-14
 -1      2497 2.19015E+01-1.88018E-01-1.12043E-02 1.52167E+00 4.24710E-13 6.57807E-15
 -1      2498 2.18884E+01-4.08715E-01-1.17867E-02 1.78013E+00 3.20349E-13-1.77283E-13
 -1      2499 2.09213E+01 3.52777E-01 9.62376E-03 1.37783E+00 7.21417E-14-1.88660E-14
 -1      2500 2.12436E+01 1.85906E-01-4.22874E-03 1.49006E+00 1.95203E-13 8.50448E-16
 -1      2501 2.12273E+01 1.31056E-01-7.63978E-03 1.80787E+00 3.07195E-13 4.37363E-14
 -1      2502 2.06560E+01 5.00893E-01 1.65928E-03 1.15870E+00 1.88478E-14-5.88752E-14
 -1      2503 1.92636E+01 2.47953E+00-2.10872E-02 1.65576E+00 1.95185E-13-1.70623E-13
 -1      2504 1.95029E+01 2.21925E+00 7.67385E-03 1.87466E+00 1.57195E-13-5.80846E-13
 -1      2505 1.89007E+01 2.90611E+00-2.04825E-02 9.37385E-01 1.19980E-13-7.73305E-14
 -1      2506 1.90629E+01 2.74207E+00 2.60354E-04 1.30432E+00 1.09332E-13-2.53508E-14
 -1      2507 1.89067E+01 2.20448E+00 8.65497E-03 1.69447E+00 4.03508E-13-1.61648E-13
 -1      2508 2.01820E+01 1.34300E+00-6.26219E-03 2.01756E+00 1.88371E-13 2.35475E-13
 -1      2509 2.03817E+01 1.04189E+00 1.01142E-02 1.92413E+00 1.21651E-13 2.52891E-13
 -1      2510 1.97367E+01 1.91333E+00-1.46286E-02 2.01869E+00 1.27734E-14-5.80799E-13
 -1      2511 1.99745E+01 1.61516E+00 1.05152E-02 2.06760E+00 1.28114E-13-1.27053E-13
 -1      2512 2.01086E+01 1.12086E+00-2.15444E-03 2.29565E+00 1.32392E-13-9.44131E-14
 -1      2513 1.94965E+01 1.66438E+00-4.68644E-04 2.21043E+00 2.76007E-13-4.66587E-13
 -1      2514 1.87901E+01 3.05597E+00-1.26387E-02 4.92505E-03-3.98364E-14 1.45763E-13
 -1      2515 1.88092E+01 3.02587E+00-1.06015E-02 4.39996E-01 1.88370E-14 7.52965E-14
 -1      2516 1.85112E+01 2.57094E+00 1.76051E-02 7.86810E-01 1.00728E-13-1.31524E-13
 -1      2517 1.89783E+01 2.87185E+00-1.91914E-03-9.04923E-01-4.60071E-13 1.84202E-13
 -1      2518 1.88465E+01 2.98129E+00-1.99232E-02-5.11040E-01-3.50720E-13 1.62941E-13
 -1      2519 1.84641E+01 2.61543E+00 1.90309E-02-3.05069E-01-1.81159E-13-6.48327E-14
 -1      2520 1.93813E+01 2.41315E+00 6.14409E-03-1.56596E+00-3.57151E-13-1.01203E-13
 -1      2521 1.91570E+01 2.63294E+00-2.26286E-02-1.30339E+00-4.38718E-13 2.50007E-13
 -1      2522 1.87826E+01 2.31631E+00 1.17840E-02-1.28683E+00-4.02791E-13 1.84333E-13
 -1      2523 1.98333E+01 1.83273E+00 9.61149E-03-1.86200E+00-1.08981E-13-2.85688E-13
 -1      2524 1.96042E+01 2.10575E+00-1.77026E-02-1.76466E+00-2.62745E-13-3.31079E-13
 -1      2525 1.93297E+01 1.79573E+00 2.03014E-03-1.91721E+00-2.55046E-13-1.13971E-13
 -1      2526 2.02097E+01 1.25566E+00 9.27418E-03-1.82399E+00 1.03300E-13 7.94211E-15
 -1      2527 2.00335E+01 1.53918E+00-8.49356E-03-1.86925E+00 4.96176E-14-4.07969E-13
 -1      2528 1.99022E+01 1.22476E+00-5.74851E-03-2.12327E+00-3.48701E-15-2.93238E-13
 -1      2529 2.04337E+01 7.84326E-01 5.79379E-03-1.55354E+00 1.33088E-13 1.71279E-13
 -1      2530 2.03363E+01 1.03576E+00-8.93864E-05-1.68952E+00 4.15342E-14 2.81875E-13
 -1      2531 2.03501E+01 7.37630E-01-7.89362E-03-1.97370E+00-1.41573E-14-2.79404E-15
 -1      2532 2.05200E+01 4.56376E-01 5.83422E-03-1.17569E+00-5.07977E-14-1.92338E-13
 -1      2533 2.04891E+01 6.52951E-01 7.16064E-03-1.34803E+00 8.31495E-14-1.30556E-13
 -1      2534 2.06133E+01 4.08468E-01 6.72462E-04-1.61011E+00-1.66548E-14-8.81246E-14
 -1      2535 4.93030E+00-3.41098E+00 8.16406E-02 3.52455E+00-1.25747E-13-1.00892E-12
 -1      2536 3.50718E+00-3.35076E+00 7.76280E-02 1.11137E+00-3.18356E-14-7.61669E-13
 -1      2537 1.92948E+01-6.06263E+00-3.43330E-02 6.98132E+00-7.16871E-13 2.43264E-13
 -1      2538 1.54472E+01-6.08546E+00 3.82574E-02 7.06599E+00-5.52225E-13-3.00593E-14
 -1      2539 1.97034E+01 1.43199E-01 3.26817E-03 6.07119E-02 1.77991E-13-1.32990E-13
 -1      2540 1.97821E+01 1.98014E-01 1.23826E-02 1.46868E-01 2.31955E-13-8.59855E-14
 -1      2541 1.98482E+01 1.80742E-01-3.86326E-03 6.62891E-02 1.82849E-13-1.72808E-13
 -1      2542 2.03983E+01 3.60871E-01-3.79832E-03-7.70587E-01 9.04172E-14 4.04329E-14
 -1      2543 3.29571E+00-3.48113E+00 5.95105E-02-1.18751E+00 3.23838E-14-3.28515E-13
 -1      2544 4.52671E+00-3.72257E+00 6.38833E-02-3.55885E+00 2.30843E-13-7.64944E-14
 -1      2545 1.11011E+01-5.36741E+00 7.10857E-03 7.07786E+00-2.64566E-13-4.35846E-13
 -1      2546 7.65141E+00-4.53842E+00 8.66920E-02 5.69070E+00-1.44662E-13-8.59479E-13
 -1      2547 2.05471E+01 1.95505E+00-1.37212E-02-1.89614E+00-4.47946E-13-6.94965E-14
 -1      2548 2.04090E+01 1.20891E+00-8.82011E-03-1.28984E+00-4.10980E-13-4.09190E-14
 -1      2549 2.03819E+01 1.38484E+00 9.19450E-03-1.23879E+00-3.98026E-13-1.48418E-13
 -1      2550 2.02948E+01 2.39746E+00 7.03816E-04-1.83640E+00-4.52077E-13-1.98602E-13
 -1      2551 2.22625E+01-5.85853E+00-1.74891E-02-5.85726E+00 2.15467E-13-3.11931E-13
 -1      2552 2.59207E+01-4.89129E+00-5.57870E-02-4.50246E+00 3.29237E-13-2.46386E-13
 -1      2553 3.80067E+00-2.72317E+00 1.03101E-01 2.21333E+00 1.30992E-13 5.02931E-14
 -1      2554 3.34261E+00-2.77821E+00 1.20921E-01-4.26864E-01 1.36904E-13-4.00791E-13
 -1      2555 3.05755E+01-1.33727E+00-2.54960E-02 1.78250E-01 3.23838E-13-3.86025E-13
 -1      2556 3.20897E+01 8.29879E-01-1.52367E-01 1.04771E+00 3.45793E-13-4.63490E-13
 -1      2557 3.23116E+01 6.50593E+00-2.19911E-01-6.72573E-01 2.32980E-13-4.87513E-13
 -1      2558 3.31137E+01 5.17603E+00-1.15213E-01-8.91191E-01 8.05467E-14-7.74325E-13
 -1      2559 1.95199E+01 3.58444E+00-1.00928E-02-2.45419E-01-7.93742E-14-5.75222E-13
 -1      2560 1.95359E+01 3.56373E+00-9.66946E-03-4.26252E-01-1.25843E-13-5.54272E-13
 -1      2561 1.97123E+01 3.16316E+00-5.52250E-04-4.73584E-01-1.38602E-13-5.08934E-13
 -1      2562 1.96780E+01 3.22303E+00-9.10920E-04-1.52092E-01-6.54466E-14-5.49630E-13
 -1      2563 3.23096E+01 6.46800E+00-1.60916E-01 1.38619E+00 4.68847E-13-5.31158E-13
 -1      2564 3.21959E+01 7.11044E+00-1.94555E-01 4.74683E-01 4.91329E-13-5.86527E-13
 -1      2565 2.49840E+01-5.27684E+00 4.26255E-02-3.67525E+00 5.28466E-14-7.17898E-13
 -1      2566 2.85582E+01-3.87831E+00-1.35572E-01-2.07248E+00 2.11303E-13-4.00235E-13
 -1      2567 3.26598E+01 3.32973E+00-1.13091E-01 1.58260E+00 3.74423E-13-5.45342E-13
 -1      2568 3.29771E+01 5.06199E+00-1.53049E-01 1.58708E+00 3.79530E-13-4.92967E-13
 -1      2569 4.02491E+00-3.48236E+00 5.88710E-02-2.89305E+00 7.84928E-14-7.06324E-13
 -1      2570 6.11786E+00-4.30480E+00 2.95686E-02-4.91521E+00 3.90521E-14-7.80931E-13
 -1      2571 1.78168E+01-5.92367E+00 9.20926E-02-6.15538E+00-5.63993E-14-9.41507E-13
 -1      2572 2.09694E+01-6.04981E+00-8.27728E-02-5.75070E+00-8.65974E-15-9.99228E-13
 -1      2573 2.35547E+01-5.07095E+00-6.29142E-02 5.34331E+00 2.18520E-13-1.51323E-13
 -1      2574 2.01051E+01-5.68042E+00 3.61104E-02 5.98257E+00 2.16521E-13-1.96093E-14
 -1      2575 9.17276E+00-5.04630E+00 4.79848E-02-5.86312E+00 6.82787E-15-7.90201E-13
 -1      2576 1.33219E+01-5.37583E+00-1.07876E-03-6.72263E+00 4.72400E-14-8.59035E-13
 -1      2577 7.89917E+00-3.91810E+00 1.07828E-01 5.93344E+00 9.28424E-14 5.12118E-13
 -1      2578 5.63338E+00-3.33716E+00 1.27746E-01 4.30657E+00 7.95058E-14 4.17222E-13
 -1      2579 2.92604E+01-2.32953E+00-8.26930E-02 2.30020E+00 4.18832E-13-3.70870E-13
 -1      2580 2.65278E+01-3.91308E+00-2.69215E-02 3.44457E+00 3.73146E-13-2.44527E-13
 -1      2581 3.18483E+01 1.67904E+00-1.17144E-01-4.22726E-01 2.63956E-13 7.44682E-14
 -1      2582 3.07128E+01-3.91476E-01-5.35054E-02 7.46357E-01 3.36460E-13-2.07612E-13
 -1      2583 2.94560E+01-2.02059E+00 1.22412E-02 5.02900E-01 3.46403E-13-2.44388E-13
 -1      2584 3.38399E+01 6.29696E+00-5.28844E-02-8.27715E-01-3.88578E-15 2.02588E-13
 -1      2585 3.25490E+01 4.61017E+00-9.52058E-02-9.58273E-01 4.31044E-14 1.42053E-13
 -1      2586 3.33134E+01 7.77912E+00-1.32563E-01-3.05636E-01-4.55191E-15 9.31512E-14
 -1      2587 3.37758E+01 7.42406E+00-7.27590E-02-6.18779E-01 3.37508E-14 1.34864E-13
 -1      2588 3.18102E+01 5.61741E+00-1.50362E-01 9.30133E-01-1.23845E-13 4.76286E-14
 -1      2589 3.23064E+01 6.83734E+00-1.55285E-01 4.96106E-01-6.96110E-14 1.48895E-13
 -1      2590 3.17640E+01 1.42724E+00-8.11042E-02 1.20550E-02 4.74620E-14-4.51694E-13
 -1      2591 3.23932E+01 3.47234E+00-1.59482E-01 6.30736E-01-1.30868E-13-2.31815E-13
 -1      2592 2.88129E+01-2.96778E+00-2.72155E-02-2.39204E+00 4.12642E-13-2.75335E-13
 -1      2593 3.10575E+01-7.79751E-01-6.00255E-02-1.29291E+00 2.17680E-13-4.11671E-13
 -1      2594 3.04160E+01-2.82793E-01-2.68363E-02 3.91890E-01 1.76123E-13-2.49578E-13
 -1      2595 1.60878E+01-5.90049E+00 6.17127E-02-7.16085E+00 3.91132E-13-4.49703E-13
 -1      2596 1.95165E+01-5.92657E+00 2.87716E-02-7.00944E+00 2.06557E-13-5.21569E-13
 -1      2597 2.22372E+01-5.97526E+00 5.83835E-02-5.86539E+00 9.87266E-14-1.76168E-13
 -1      2598 3.33322E+01 3.31792E+00-1.09786E-01-5.58894E-01 5.30964E-14-8.79602E-13
 -1      2599 3.19645E+01 1.01447E+00-1.36519E-01-2.78575E-01-1.76012E-13-7.90423E-13
 -1      2600 3.06272E+01-8.42203E-01-4.20849E-02-5.98604E-01-2.87687E-13-7.19425E-13
 -1      2601 3.09195E+01 3.49455E+00-1.65304E-02-1.62849E+00-1.09079E-13-8.03135E-13
 -1      2602 2.04899E+01 8.74902E-01-7.31810E-03 1.22717E+00 3.86691E-13-4.24747E-15
 -1      2603 2.08405E+01 1.25691E+00-6.05391E-03 1.72785E+00 4.21350E-13 4.75835E-14
 -1      2604 2.06464E+01 1.71559E+00-1.57941E-02 1.92204E+00 4.46630E-13-9.84074E-14
 -1      2605 2.04486E+01 1.05796E+00-9.39881E-03 1.24202E+00 3.85091E-13-1.36910E-13
 -1      2606 2.63472E+01-4.90780E+00-1.02994E-01 4.50508E+00-5.82784E-13-4.41008E-13
 -1      2607 2.27913E+01-5.77114E+00 1.06713E-03 5.63957E+00-6.14370E-13-1.71252E-13
 -1      2608 2.22348E+01-6.06395E+00 7.04351E-02 5.85919E+00-7.37466E-13-3.02730E-13
 -1      2609 1.99134E+01 2.81022E+00 1.13991E-03-1.09788E+00-3.10365E-13-4.33854E-13
 -1      2610 1.97803E+01 3.15607E+00-1.61790E-02-1.28757E+00-3.30200E-13-4.61033E-13
 -1      2611 1.98832E+01 3.01266E+00-1.85372E-02-1.47752E+00-3.78112E-13-4.22889E-13
 -1      2612 1.99940E+01 3.40070E-01-3.53069E-03 3.05331E-01 2.61170E-13-1.52076E-13
 -1      2613 2.04222E+01 2.11571E+00-1.27777E-02 1.87507E+00 4.25859E-13-2.54113E-13
 -1      2614 2.79161E+01-4.51995E+00 2.38266E-02 2.59880E+00-5.36113E-13-5.36932E-13
 -1      2615 2.75694E+01-4.43992E+00-3.71769E-02-2.95945E+00 1.74999E-13-1.41498E-13
 -1      2616 2.82233E+01-3.68688E+00-9.61890E-02-1.24627E+00 8.40734E-15-1.24831E-13
 -1      2617 2.61327E+01-5.15432E+00 7.47875E-02-3.46906E+00-5.06956E-14 8.14626E-14
 -1      2618 3.02633E+01 4.06758E+00-5.24493E-02 1.41431E+00-8.60145E-14 3.17246E-14
 -1      2619 3.02069E+01 6.90978E+00-1.02774E-01 3.81462E-01-9.61453E-14 2.04732E-13
 -1      2620 7.36187E+00-2.12551E+00 1.76174E-01-3.79484E+00 2.35464E-13-3.18218E-13
 -1      2621 6.79715E+00-3.60485E+00 1.17333E-01-4.71591E+00 3.73951E-13 2.87548E-14
 -1      2622 9.32834E+00-3.40992E+00 6.82289E-02-5.68130E+00 4.75217E-13-2.96124E-13
 -1      2623 3.13771E+01 2.64929E+00-1.00251E-01-1.33319E+00 6.56419E-14 2.26541E-13
 -1      2624 2.97857E+01 9.95266E-01-3.38598E-02-1.58135E+00 2.63733E-13 1.75415E-13
 -1      2625 2.99377E+01 3.56284E+00-1.62904E-01-2.09899E+00 1.68310E-13 3.95461E-13
 -1      2626 2.06828E+01 5.77396E-01 1.40231E-03 1.50636E+00 2.29058E-14 2.80748E-14
 -1      2627 2.06012E+01 7.62068E-01-1.03551E-03 1.68382E+00 1.07879E-13 1.24510E-13
 -1      2628 5.30003E+00-2.09424E+00 1.56000E-01-7.34919E-02-5.63456E-14-7.13152E-13
 -1      2629 7.43435E+00-3.29998E+00 1.32974E-01 4.69267E+00-2.02782E-13-1.09684E-12
 -1      2630 7.77104E+00-1.85282E+00 1.65162E-01 3.61468E+00-2.28262E-13-1.13429E-12
 -1      2631 1.01561E+01-3.06002E+00 9.44514E-02 5.55015E+00-4.13169E-13-1.06334E-12
 -1      2632 1.47634E+01-5.36441E+00 7.36157E-02 7.00301E+00-4.78673E-13-3.99902E-13
 -1      2633 1.08743E+01-4.10052E+00 9.69387E-02 6.23060E+00 1.15130E-13 4.26575E-13
 -1      2634 9.50403E+00-3.65705E+00 1.42842E-01-5.43385E+00 4.32987E-14-8.37275E-13
 -1      2635 2.04362E+01 1.80792E+00 1.25388E-02 1.56287E+00 3.87828E-13-2.70468E-13
 -1      2636 6.37335E+00-2.05109E+00 1.62147E-01 3.14819E+00 1.61315E-13 1.55320E-13
 -1      2637 2.57322E+01-4.89367E+00 4.88846E-02 3.54667E+00 2.17854E-13-2.30302E-13
 -1      2638 5.47816E+00-2.04905E+00 1.56569E-01-1.73594E+00 1.81341E-13-5.65492E-13
 -1      2639 1.64100E+01-5.21215E+00 1.22751E-01-6.24421E+00-9.15656E-14-8.71789E-13
 -1      2640 3.09042E+01 1.45339E+00-8.07691E-02 2.24082E+00 2.18617E-13-3.13138E-13
 -1      2641 2.92140E+01-3.01702E+00-4.78986E-03-3.88728E-02 4.65877E-14-1.99479E-13
 -1      2642 2.01188E+01 2.61284E+00-9.99902E-03-1.67670E+00-4.26929E-13-2.99816E-13
 -1      2643 1.86355E+01-5.54719E+00 1.19595E-01 6.44564E+00 2.01950E-13 8.97997E-14
 -1      2644 2.40159E+01-5.63492E+00 5.69440E-02-3.98528E+00-1.34337E-13-4.88748E-13
 -1      2645 3.05884E+01 5.55662E+00 9.05834E-03 1.91985E+00 4.00902E-13-4.53290E-13
 -1      2646 2.06173E+01 1.59681E-01 7.47211E-03-8.08349E-01 1.21157E-13 1.27851E-13
 -1      2647 2.05583E+01 3.43637E-01 4.91219E-03-1.00975E+00 4.53248E-14 5.86757E-14
 -1      2648 2.07150E+01 1.65607E-01-7.56406E-03-1.21341E+00-1.49821E-13 5.99973E-14
 -1      2649 2.07681E+01 2.37902E-02-8.50010E-03-8.54917E-01-5.27300E-14 5.92590E-14
 -1      2650 3.12984E+01 6.61466E+00-6.73487E-02-1.24056E+00 9.52016E-14 2.13232E-13
 -1      2651 1.45875E+01-5.41951E+00 9.08821E-02-7.20429E+00 5.58248E-13-2.72921E-13
 -1      2652 1.78216E+01-5.40311E+00 4.35321E-02-6.78470E+00 3.22270E-13-3.39659E-14
 -1      2653 1.31966E+01-4.40009E+00 1.74701E-01-6.95742E+00 6.16229E-13-1.15741E-13
 -1      2654 2.06802E+01 6.09808E-01-8.66321E-04 1.99205E+00 1.00541E-13 2.13348E-13
 -1      2655 2.09235E+01-5.69507E-02 1.31569E-03-1.03397E+00-1.52560E-13 2.70029E-13
 -1      2656 2.97177E+01 6.28152E+00-5.97172E-02 8.81464E-02 3.57825E-13-8.98141E-13
 -1      2657 3.22338E+01 6.86413E+00-1.13001E-01-3.65890E-01 3.62266E-13-7.39742E-13
 -1      2658 1.98459E+01 2.76446E+00-6.30075E-03 5.16588E-01 9.04727E-14-5.59395E-13
 -1      2659 1.98211E+01 2.81421E+00-5.70378E-03 3.65620E-01 5.58950E-14-5.55322E-13
 -1      2660 1.98042E+01 2.85174E+00-5.61318E-03 2.30017E-01 2.72720E-14-5.52601E-13
 -1      2661 1.97957E+01 2.86860E+00-5.43766E-03 7.53067E-02-8.03807E-15-5.30796E-13
 -1      2662 1.99507E+01 2.50038E+00 3.63172E-03 2.65435E-01 4.24493E-14-5.25128E-13
 -1      2663 2.00439E+01 2.32362E+00-1.07295E-02 1.04662E+00 2.38531E-13-4.83783E-13
 -1      2664 1.99799E+01 2.47252E+00-6.30256E-03 9.10998E-01 2.01816E-13-4.92968E-13
 -1      2665 2.02169E+01 1.90790E+00-1.20277E-02 1.22795E+00 3.20943E-13-3.95155E-13
 -1      2666 2.01246E+01 2.14598E+00-4.79734E-03 1.13450E+00 2.72694E-13-4.35125E-13
 -1      2667 2.01896E+01 1.88618E+00 6.44259E-03 9.27189E-01 2.39347E-13-4.14838E-13
 -1      2668 2.02122E+01 7.26721E-01-3.49722E-03 6.43460E-01 2.89613E-13-2.32218E-13
 -1      2669 2.03542E+01 9.51633E-01 9.14716E-03 9.07231E-01 3.01028E-13-2.39033E-13
 -1      2670 8.51492E+00-1.57259E+00 1.30677E-01 4.06603E+00 9.74429E-14 2.99094E-13
 -1      2671 7.02512E+00-8.92231E-01 1.56897E-01 1.95051E+00 1.97228E-13-4.53526E-14
 -1      2672 2.12888E+01-5.58544E+00 8.16270E-02-5.83032E+00-8.07965E-14 2.96638E-14
 -1      2673 2.35653E+01-5.72234E+00-1.58069E-02-5.03338E+00-9.53682E-14 3.13586E-14
 -1      2674 2.98415E+01 5.78256E+00-4.57416E-02-1.22427E+00 2.35950E-13-9.31977E-13
 -1      2675 2.02150E+01 6.26859E-01 7.81657E-03-4.38269E-01-2.56526E-13-1.69320E-13
 -1      2676 2.01320E+01 4.75675E-01-3.11073E-03-2.79222E-01-2.31223E-13-1.62438E-13
 -1      2677 2.01058E+01 3.62206E-01 6.62508E-03-1.59697E-01-2.24650E-13-1.33668E-13
 -1      2678 2.00466E+01 2.67554E-01-1.74350E-03-6.20370E-02-1.95972E-13-1.50218E-13
 -1      2679 2.01954E+01 5.28382E-01-1.51213E-03-2.63065E-01-2.34369E-13-1.74174E-13
 -1      2680 2.00205E+01 1.97363E-01 4.54306E-03 1.32625E-02-1.65376E-13-1.58154E-13
 -1      2681 1.99846E+01 1.37907E-01-8.24104E-04 6.98348E-02-1.32535E-13-1.81491E-13
 -1      2682 2.01262E+01 2.98476E-01-2.06327E-03-5.66123E-02-1.98497E-13-1.81609E-13
 -1      2683 1.99637E+01 9.38963E-02 2.90208E-03 1.13242E-01-1.21657E-13-2.08173E-13
 -1      2684 1.99456E+01 5.68009E-02-2.82395E-04 1.42757E-01-1.26060E-13-2.32677E-13
 -1      2685 2.00698E+01 1.52512E-01-1.89879E-03 7.07211E-02-1.55379E-13-2.27289E-13
 -1      2686 1.99307E+01 2.95702E-02 1.73348E-03 1.64386E-01-1.15736E-13-2.14405E-13
 -1      2687 1.99248E+01 7.11689E-03 2.49067E-05 1.76497E-01-8.90390E-14-2.32606E-13
 -1      2688 2.00288E+01 6.06066E-02-1.53095E-03 1.41948E-01-1.28830E-13-2.54869E-13
 -1      2689 1.99152E+01-9.00356E-03 9.25365E-04 1.83913E-01-9.00738E-14-2.07630E-13
 -1      2690 1.99172E+01-2.16465E-02 1.95748E-04 1.85269E-01-8.48087E-14-1.85709E-13
 -1      2691 2.00017E+01 4.35629E-03-1.15548E-03 1.75240E-01-9.36782E-14-2.17781E-13
 -1      2692 1.99116E+01-3.02553E-02 3.82160E-04 1.83968E-01-5.69310E-14-2.00661E-13
 -1      2693 1.99185E+01-3.62345E-02 2.91977E-04 1.79175E-01-4.42885E-14-1.64128E-13
 -1      2694 1.99855E+01-2.78934E-02-8.40533E-04 1.84160E-01-6.54372E-14-1.59485E-13
 -1      2695 1.99159E+01-3.97027E-02 2.91811E-05 1.73096E-01-5.32434E-14-1.34213E-13
 -1      2696 1.99254E+01-4.11145E-02 3.50854E-04 1.65361E-01-1.94477E-14-1.26177E-13
 -1      2697 1.99773E+01-4.37721E-02-5.98771E-04 1.78567E-01-1.68759E-14-1.42196E-13
 -1      2698 1.99249E+01-4.10278E-02-1.90800E-04 1.57308E-01-3.37723E-14-1.25603E-13
 -1      2699 1.99357E+01-3.92696E-02 3.95200E-04 1.48877E-01-2.42072E-14-1.14165E-13
 -1      2700 1.99748E+01-4.83804E-02-4.23909E-04 1.65539E-01-2.90115E-14-1.71210E-13
 -1      2701 1.99367E+01-3.66779E-02-3.21073E-04 1.40852E-01-5.99687E-14-1.32253E-13
 -1      2702 1.99482E+01-3.26556E-02 4.40078E-04 1.33325E-01-8.08766E-14-1.55690E-13
 -1      2703 1.99763E+01-4.51308E-02-3.04477E-04 1.50139E-01-7.02283E-14-1.98041E-13
 -1      2704 1.99503E+01-2.82242E-02-3.94062E-04 1.26783E-01-6.23727E-14-1.76331E-13
 -1      2705 1.99622E+01-2.24855E-02 4.96209E-04 1.21336E-01-8.82321E-14-1.45083E-13
 -1      2706 1.99807E+01-3.62498E-02-2.28956E-04 1.36018E-01-7.34856E-14-1.49198E-13
 -1      2707 1.99651E+01-1.65974E-02-4.33767E-04 1.17380E-01-9.71686E-14-9.47074E-14
 -1      2708 1.99775E+01-9.42713E-03 5.71606E-04 1.14936E-01-7.48550E-14-6.53481E-14
 -1      2709 1.99871E+01-2.31017E-02-1.87438E-04 1.25880E-01-4.18158E-14-1.44256E-13
 -1      2710 1.99812E+01-2.25987E-03-4.57675E-04 1.14466E-01-1.05733E-13-7.28884E-14
 -1      2711 1.99945E+01 6.24413E-03 6.72217E-04 1.15810E-01-1.14054E-13-5.54930E-14
 -1      2712 1.99952E+01-6.41909E-03-1.71804E-04 1.21841E-01-8.41978E-14-1.06670E-13
 -1      2713 1.99989E+01 1.46531E-02-4.78201E-04 1.19627E-01-1.23646E-13-2.86918E-14
 -1      2714 2.00137E+01 2.45132E-02 8.02100E-04 1.25492E-01-8.12611E-14-4.48192E-14
 -1      2715 2.00050E+01 1.35129E-02-1.75460E-04 1.25688E-01-1.01507E-13-3.25907E-14
 -1      2716 2.00189E+01 3.42049E-02-5.03539E-04 1.34370E-01-3.18727E-14-7.43379E-14
 -1      2717 2.00360E+01 4.54950E-02 9.63065E-04 1.45478E-01-3.77351E-14-8.01753E-14
 -1      2718 2.00166E+01 3.66941E-02-1.93116E-04 1.39061E-01-8.70765E-14 3.75555E-14
 -1      2719 2.00422E+01 5.65213E-02-5.37917E-04 1.60196E-01-4.73778E-14-1.34336E-13
 -1      2720 2.00624E+01 6.92875E-02 1.15385E-03 1.77271E-01-1.24357E-14-7.18338E-14
 -1      2721 2.00302E+01 6.32435E-02-2.20719E-04 1.63567E-01-4.38492E-14-4.05625E-14
 -1      2722 2.00699E+01 8.16265E-02-5.81186E-04 1.98610E-01-3.27361E-14-9.39710E-14
 -1      2723 2.00943E+01 9.57845E-02 1.36884E-03 2.22339E-01-2.83242E-14-2.10323E-13
 -1      2724 2.00464E+01 9.32084E-02-2.55679E-04 2.00804E-01-4.10476E-14-2.33832E-13
 -1      2725 2.01034E+01 1.09229E-01-6.27577E-04 2.51031E-01-1.19867E-14-2.15272E-13
 -1      2726 2.01332E+01 1.24424E-01 1.59636E-03 2.81972E-01 5.78351E-14-2.56090E-13
 -1      2727 2.00658E+01 1.26319E-01-2.97697E-04 2.52315E-01-4.46211E-14-2.90006E-13
 -1      2728 2.01445E+01 1.38427E-01-6.63363E-04 3.18592E-01 1.09372E-13-2.84050E-13
 -1      2729 2.01809E+01 1.53840E-01 1.81651E-03 3.57006E-01 6.46798E-14-2.89462E-13
 -1      2730 2.00893E+01 1.61657E-01-3.50606E-04 3.19429E-01 6.79218E-14-2.72390E-13
 -1      2731 2.01952E+01 1.67299E-01-6.63099E-04 4.01796E-01 3.41121E-14-2.06841E-13
 -1      2732 2.02396E+01 1.81379E-01 1.99862E-03 4.47389E-01 2.60814E-14-1.60381E-13
 -1      2733 2.01182E+01 1.97204E-01-4.25779E-04 4.02983E-01 1.05723E-13-2.10955E-13
 -1      2734 2.02582E+01 1.92345E-01-5.84120E-04 4.99976E-01-8.51710E-14-2.59238E-13
 -1      2735 2.03120E+01 2.02459E-01 2.09842E-03 5.51513E-01-1.18350E-13-2.37441E-13
 -1      2736 2.01543E+01 2.29221E-01-5.47793E-04 5.02881E-01-6.08282E-14-1.06064E-13
 -1      2737 2.03372E+01 2.07766E-01-3.59278E-04 6.10520E-01-1.00977E-13-2.27525E-13
 -1      2738 2.04021E+01 2.09763E-01 2.05455E-03 6.65291E-01-5.03369E-14-2.27561E-13
 -1      2739 2.02008E+01 2.51440E-01-7.62894E-04 6.17455E-01-1.25918E-13-1.74573E-13
 -1      2740 2.04376E+01 2.04608E-01 1.11100E-04 7.27785E-01 5.97488E-15-1.75471E-13
 -1      2741 2.05154E+01 1.92377E-01 1.78383E-03 7.80912E-01 9.28784E-14-1.61965E-13
 -1      2742 2.02627E+01 2.54092E-01-1.14986E-03 7.42579E-01 1.25251E-14-1.78043E-13
 -1      2743 2.05671E+01 1.69961E-01 9.64526E-04 8.41649E-01 1.45632E-13-1.60812E-13
 -1      2744 2.06605E+01 1.35164E-01 1.17295E-03 8.85241E-01 1.79038E-13-1.25043E-13
 -1      2745 2.03482E+01 2.22919E-01-1.83014E-03 8.70459E-01 1.66616E-13-4.75230E-15
 -1      2746 2.07375E+01 8.67021E-02 2.37003E-03 9.35663E-01 1.82819E-13-1.05683E-13
 -1      2747 2.08495E+01 1.91411E-02 6.46009E-05 9.57930E-01 1.59033E-13-9.46487E-14
 -1      2748 2.04705E+01 1.38619E-01-2.96738E-03 9.88001E-01 1.90128E-13-3.06378E-14
 -1      2749 2.09651E+01-6.51437E-02 4.48959E-03 9.84841E-01 1.61585E-13-7.55320E-14
 -1      2750 2.10990E+01-1.75630E-01-1.76425E-03 9.69442E-01 9.18610E-14-1.37802E-14
 -1      2751 2.06497E+01-2.22429E-02-4.73309E-03 1.07462E+00 1.13425E-13 6.10818E-14
 -1      2752 2.12705E+01-3.03373E-01 7.35116E-03 9.53451E-01 5.75510E-14-1.01440E-14
 -1      2753 2.14282E+01-4.61898E-01-4.59440E-03 8.79722E-01 4.31256E-14 1.00523E-13
 -1      2754 2.09137E+01-2.82798E-01-7.19799E-03 1.09932E+00 1.08950E-13-3.94518E-14
 -1      2755 2.16734E+01-6.31556E-01 1.05963E-02 7.93986E-01-1.13319E-14 1.21755E-13
 -1      2756 2.18511E+01-8.27849E-01-8.56121E-03 6.39544E-01-3.08694E-15 1.20166E-13
 -1      2757 2.12966E+01-6.54333E-01-1.00720E-02 1.01739E+00 2.75116E-14 1.31398E-13
 -1      2758 2.21787E+01-1.01603E+00 1.29582E-02 4.51451E-01-2.57357E-15 1.91696E-13
 -1      2759 2.23600E+01-1.20791E+00-1.30679E-02 2.00236E-01-4.79152E-14 1.45486E-13
 -1      2760 2.18280E+01-1.11195E+00-1.21444E-02 7.68893E-01-4.74449E-14 1.41859E-13
 -1      2761 2.27491E+01-1.35253E+00 1.17343E-02-1.17916E-01-3.27170E-14 1.37473E-13
 -1      2762 2.28987E+01-1.44766E+00-1.54594E-02-4.57928E-01 6.94928E-14 8.70675E-14
 -1      2763 2.25076E+01-1.55618E+00-1.10752E-02 2.87204E-01-5.07796E-14 3.32057E-13
 -1      2764 2.32704E+01-1.43812E+00 2.71804E-03-8.94942E-01 3.92586E-14 1.35726E-13
 -1      2765 2.33401E+01-1.30011E+00-1.04845E-02-1.26175E+00 1.04154E-13 1.51971E-13
 -1      2766 2.32582E+01-1.76720E+00-3.65869E-03-4.62406E-01 4.49850E-14 3.30380E-13
 -1      2767 2.35546E+01-1.00713E+00-1.46761E-02-1.70986E+00 1.16251E-13 8.39590E-14
 -1      2768 2.35098E+01-5.37125E-01 3.12594E-03-1.95974E+00 6.25151E-16 1.56000E-13
 -1      2769 2.38868E+01-1.42689E+00 9.43226E-03-1.38863E+00 2.65206E-14 1.77510E-13
 -1      2770 2.34473E+01 6.98848E-02-4.04614E-02-2.18989E+00-1.06392E-13 1.00876E-13
 -1      2771 2.33089E+01 8.00725E-01 1.37669E-02-2.13713E+00-1.15461E-13 1.21050E-13
 -1      2772 2.41270E+01-3.19059E-01 6.75564E-03-2.16775E+00-5.11188E-14-2.02087E-14
 -1      2773 2.30334E+01 1.49291E+00-5.12687E-02-1.88213E+00-9.43438E-14 8.21066E-14
 -1      2774 2.28918E+01 2.10393E+00 3.78635E-03-1.45371E+00-2.19240E-13 1.43366E-14
 -1      2775 2.38878E+01 1.31826E+00-3.00060E-03-2.21362E+00-1.43970E-13-3.29251E-15
 -1      2776 2.27248E+01 2.46549E+00-2.36160E-02-7.22177E-01-2.51245E-13 1.52693E-13
 -1      2777 2.26832E+01 2.51469E+00-2.06102E-02-9.02061E-02-3.07671E-13 2.11246E-13
 -1      2778 2.35106E+01 2.75664E+00-2.34318E-02-1.21124E+00-8.40456E-14 1.55709E-13
 -1      2779 2.28120E+01 2.25231E+00 8.67188E-03 6.77051E-01-2.46627E-13 2.80313E-13
 -1      2780 2.28629E+01 1.69826E+00-5.45076E-02 1.15554E+00-5.71158E-14 3.17529E-13
 -1      2781 2.34880E+01 2.91452E+00-1.73090E-02 3.76492E-01-2.57183E-13 3.63607E-13
 -1      2782 2.31632E+01 1.03350E+00 2.48768E-02 1.51505E+00-3.84779E-14 2.02009E-13
 -1      2783 2.32584E+01 2.61493E-01-4.11998E-02 1.62529E+00-1.86467E-13 1.16592E-13
 -1      2784 2.37978E+01 1.67575E+00 5.63341E-03 1.55702E+00-2.44351E-13 3.40419E-13
 -1      2785 2.33463E+01-3.73917E-01 5.28941E-03 1.43807E+00-1.77524E-13 2.24771E-13
 -1      2786 2.33652E+01-8.99026E-01-2.12056E-02 1.23771E+00-1.59733E-14 1.00255E-13
 -1      2787 2.40654E+01-5.02099E-02-9.73528E-03 1.69347E+00-1.07261E-13 1.71651E-13
 -1      2788 2.31853E+01-1.26636E+00-1.04845E-02 7.83273E-01 6.34312E-14 2.09556E-13
 -1      2789 2.30880E+01-1.43774E+00 1.20494E-03 4.18280E-01 2.60477E-13 1.42514E-13
 -1      2790 2.38730E+01-1.36757E+00-4.20397E-03 9.40046E-01 1.23830E-13 2.93522E-13
 -1      2791 2.27090E+01-1.46307E+00-1.51441E-02-4.03799E-02 2.89383E-13 9.42670E-14
 -1      2792 2.25204E+01-1.35952E+00 1.20640E-02-3.86086E-01 1.53126E-13 9.38780E-14
 -1      2793 2.32727E+01-1.78065E+00-1.73110E-03-4.20221E-02 2.11766E-13 2.44003E-13
 -1      2794 2.20993E+01-1.18382E+00-1.47331E-02-7.17057E-01 2.28376E-14 1.14608E-13
 -1      2795 2.18687E+01-9.35198E-01 1.42999E-02-9.57257E-01-1.42973E-13-4.21176E-14
 -1      2796 2.24829E+01-1.54490E+00-9.80447E-03-8.29590E-01-1.75632E-14-9.58038E-14
 -1      2797 2.14938E+01-6.70338E-01-1.02826E-02-1.12445E+00-1.11603E-13-5.53850E-14
 -1      2798 2.12628E+01-3.87628E-01 1.06085E-02-1.22836E+00-5.53172E-14-4.87916E-14
 -1      2799 2.17308E+01-9.57547E-01-7.82748E-03-1.30363E+00-4.15758E-14-5.26756E-14
 -1      2800 1.98539E+01 4.92797E-02 5.38236E-05-1.42706E-01 1.08926E-13-1.95039E-13
 -1      2801 1.98679E+01 8.10627E-02 3.16514E-03-1.14381E-01 9.37865E-14-2.04985E-13
 -1      2802 2.93286E+01 6.59247E+00-1.74738E-01-1.10532E+00 1.91014E-13 1.42171E-13
 -1      2803 2.94581E+01 5.53950E+00-1.58067E-01-1.76676E+00 2.64816E-13 2.59695E-13
 -1      2804 1.98909E+01 1.18581E-01-2.51377E-04-6.98847E-02 9.65453E-14-2.23345E-13
 -1      2805 1.99266E+01 1.70137E-01 5.20413E-03-1.44217E-02 1.33199E-13-1.91795E-13
 -1      2806 1.99911E+01 1.35281E-01-2.34167E-03-7.14579E-02 1.22066E-13-2.17381E-13
 -1      2807 1.98425E+01-1.73674E-02 2.71448E-04-1.83951E-01 5.06875E-14-1.49128E-13
 -1      2808 1.98339E+01-6.58365E-03 8.80720E-04-1.83208E-01 6.33156E-14-1.59623E-13
 -1      2809 1.98542E+01-2.99501E-02 2.98646E-04-1.77260E-01 8.00644E-14-1.70257E-13
 -1      2810 1.98410E+01-2.47639E-02 2.95450E-04-1.82466E-01 7.25343E-14-1.48842E-13
 -1      2811 1.99204E+01-2.34486E-02-8.74996E-04-1.87348E-01 6.94174E-14-1.63496E-13
 -1      2812 1.98713E+01-3.44691E-02 3.15196E-04-1.62836E-01 4.37904E-14-2.09693E-13
 -1      2813 1.98560E+01-3.30856E-02-6.91988E-05-1.70899E-01 7.36429E-14-1.67212E-13
 -1      2814 1.99211E+01-3.76193E-02-5.84405E-04-1.81071E-01 8.44253E-14-1.72676E-13
 -1      2815 1.98911E+01-3.34394E-02 3.36738E-04-1.45628E-01 1.00454E-13-1.80020E-13
 -1      2816 1.98752E+01-3.46753E-02-2.83076E-04-1.54402E-01 6.32111E-14-1.65431E-13
 -1      2817 1.99274E+01-4.21406E-02-3.84830E-04-1.67082E-01 6.57917E-14-1.76743E-13
 -1      2818 1.99121E+01-2.84963E-02 3.73201E-04-1.29133E-01 5.04235E-14-1.31673E-13
 -1      2819 1.98962E+01-3.15913E-02-3.96329E-04-1.37105E-01 1.25402E-13-1.17874E-13
 -1      2820 1.99373E+01-3.99821E-02-2.57867E-04-1.50488E-01 7.60802E-14-1.00697E-13
 -1      2821 1.99338E+01-2.06431E-02 4.32057E-04-1.15897E-01-5.99962E-14-1.66112E-13
 -1      2822 1.99180E+01-2.51447E-02-4.45108E-04-1.21956E-01-8.10644E-15-1.42039E-13
 -1      2823 1.99495E+01-3.30626E-02-1.87290E-04-1.34945E-01 4.71700E-14-7.62143E-16
 -1      2824 1.99560E+01-1.04062E-02 5.20060E-04-1.07880E-01 4.97301E-15-2.02090E-13
 -1      2825 1.99403E+01-1.60962E-02-4.55785E-04-1.11150E-01-3.47974E-14-1.93363E-13
 -1      2826 1.99631E+01-2.25375E-02-1.59710E-04-1.23149E-01-2.57830E-14-1.10571E-13
 -1      2827 1.99796E+01 2.05709E-03 6.43764E-04-1.06742E-01 4.93482E-14-2.13722E-13
 -1      2828 1.99632E+01-4.78500E-03-4.47768E-04-1.06456E-01 3.33587E-14-1.81434E-13
 -1      2829 1.99781E+01-8.98515E-03-1.64796E-04-1.17215E-01 2.01348E-14-1.36654E-13
 -1      2830 2.00055E+01 1.68770E-02 8.09691E-04-1.14063E-01 2.85522E-14-6.76977E-14
 -1      2831 1.99876E+01 8.77730E-03-4.35451E-04-1.09463E-01 1.59689E-14-1.58772E-13
 -1      2832 1.99947E+01 7.46250E-03-1.94447E-04-1.18964E-01 4.96164E-16-1.54555E-13
 -1      2833 2.00352E+01 3.44039E-02 1.02424E-03-1.31501E-01 3.65968E-14-1.44493E-14
 -1      2834 2.00146E+01 2.48332E-02-4.29810E-04-1.21768E-01 5.85066E-14-1.61155E-14
 -1      2835 2.00135E+01 2.70188E-02-2.41633E-04-1.30146E-01-1.58550E-14-1.74586E-14
 -1      2836 2.00702E+01 5.51455E-02 1.29309E-03-1.60914E-01-3.81694E-14 5.56442E-14
 -1      2837 2.00457E+01 4.38153E-02-4.39626E-04-1.45114E-01 5.40190E-14-6.81123E-15
 -1      2838 2.00350E+01 5.01560E-02-2.99643E-04-1.52597E-01 1.36081E-14 8.78075E-14
 -1      2839 2.01127E+01 7.96923E-02 1.62021E-03-2.04418E-01-5.96656E-14-7.23886E-14
 -1      2840 2.00827E+01 6.62801E-02-4.72212E-04-1.81480E-01-5.03808E-14-2.15051E-14
 -1      2841 2.00603E+01 7.75207E-02-3.61245E-04-1.88350E-01 1.32830E-14 2.33262E-14
 -1      2842 2.01647E+01 1.08611E-01 2.00613E-03-2.64398E-01 8.68163E-14-1.83416E-13
 -1      2843 2.01274E+01 9.28210E-02-5.33572E-04-2.33122E-01 1.39665E-14-1.41066E-13
 -1      2844 2.00903E+01 1.09828E-01-4.18010E-04-2.39681E-01 2.23197E-14-1.57985E-13
 -1      2845 2.02286E+01 1.42266E-01 2.44519E-03-3.43426E-01 1.31783E-13-1.54021E-13
 -1      2846 2.01822E+01 1.23933E-01-6.27678E-04-3.02534E-01 1.56688E-13-1.36957E-13
 -1      2847 2.01260E+01 1.47708E-01-4.60201E-04-3.09096E-01 1.24841E-13-1.46071E-13
 -1      2848 2.03067E+01 1.80519E-01 2.92156E-03-4.44052E-01-2.20912E-14-1.41264E-13
 -1      2849 2.02492E+01 1.59785E-01-7.54177E-04-3.92325E-01 6.58928E-14-1.68318E-13
 -1      2850 2.01683E+01 1.91443E-01-4.77992E-04-3.99221E-01 9.34191E-14-1.05460E-13
 -1      2851 2.04014E+01 2.22193E-01 3.40360E-03-5.68391E-01-5.54080E-14-2.68745E-13
 -1      2852 2.03307E+01 1.99819E-01-9.03307E-04-5.04928E-01-4.55321E-14-1.45484E-13
 -1      2853 2.02180E+01 2.40536E-01-4.65507E-04-5.12564E-01-1.79653E-14-5.72049E-14
 -1      2854 2.05152E+01 2.64173E-01 3.83647E-03-7.17400E-01-1.51678E-13-2.89537E-13
 -1      2855 2.04294E+01 2.42062E-01-1.04607E-03-6.42069E-01-5.89410E-14-3.01800E-13
 -1      2856 2.02757E+01 2.92946E-01-4.30322E-04-6.51094E-01-1.55065E-14-6.74167E-15
 -1      2857 2.06510E+01 2.99913E-01 4.13342E-03-8.89656E-01-1.94452E-13-2.87565E-13
 -1      2858 2.05480E+01 2.81964E-01-1.11668E-03-8.03864E-01-1.97899E-13-3.59190E-13
 -1      2859 2.03427E+01 3.43841E-01-4.12617E-04-8.15533E-01-1.61872E-13-2.08647E-13
 -1      2860 2.08133E+01 3.17155E-01 4.16614E-03-1.07943E+00-1.24388E-14-2.98417E-13
 -1      2861 2.06909E+01 3.10551E-01-9.83726E-04-9.87331E-01-5.37899E-14-2.96376E-13
 -1      2862 2.04212E+01 3.83574E-01-5.19575E-04-1.00427E+00-1.02940E-13-2.09398E-13
 -1      2863 2.10103E+01 2.94780E-01 3.75116E-03-1.27375E+00-1.54181E-13-2.06597E-13
 -1      2864 2.08655E+01 3.11710E-01-4.07120E-04-1.18405E+00-1.47691E-13-2.60390E-13
 -1      2865 2.05168E+01 3.94704E-01-9.80495E-04-1.21172E+00-1.01790E-13-3.99234E-13
 -1      2866 2.12579E+01 1.99362E-01 2.61299E-03-1.44813E+00-1.13687E-13-1.88440E-13
 -1      2867 2.10857E+01 2.58772E-01 1.01456E-03-1.37661E+00-8.34491E-14-1.22135E-13
 -1      2868 2.06423E+01 3.48060E-01-2.22369E-03-1.42577E+00-1.68246E-13-9.19802E-14
 -1      2869 2.15852E+01-1.61966E-02 2.72303E-04-1.56073E+00 4.27769E-14-2.12523E-13
 -1      2870 2.13776E+01 1.11646E-01 3.87380E-03-1.53324E+00-2.84150E-14-2.22519E-13
 -1      2871 2.08244E+01 1.98863E-01-4.95388E-03-1.62398E+00-4.57772E-14-1.71088E-13
 -1      2872 2.20388E+01-4.04996E-01-4.17859E-03-1.54475E+00 4.55326E-14-9.43004E-14
 -1      2873 2.17857E+01-1.81374E-01 8.86421E-03-1.59985E+00 1.04719E-13-1.27319E-13
 -1      2874 2.11131E+01-1.13706E-01-1.01324E-02-1.76681E+00 2.31344E-14-1.99369E-13
 -1      2875 2.26774E+01-9.91958E-01-1.10676E-02-1.30126E+00-1.37165E-13 4.09072E-14
 -1      2876 2.23738E+01-6.66384E-01 1.61847E-02-1.48906E+00-4.07006E-14-1.93599E-14
 -1      2877 2.15913E+01-6.53092E-01-1.84642E-02-1.78495E+00-4.85538E-14-2.24838E-14
 -1      2878 2.35567E+01-1.69804E+00-1.37106E-02-7.10155E-01-1.15341E-13 1.47964E-14
 -1      2879 2.31999E+01-1.32806E+00 2.54773E-02-1.07898E+00-1.94346E-13-6.86007E-15
 -1      2880 2.23678E+01-1.43250E+00-2.77132E-02-1.56237E+00-1.63395E-13-7.67737E-14
 -1      2881 2.45918E+01-2.26521E+00-3.07913E-02 2.80979E-01-7.80261E-14 2.07623E-13
 -1      2882 2.42507E+01-2.01689E+00 2.40542E-02-2.66184E-01-1.04206E-13 2.09140E-13
 -1      2883 2.34615E+01-2.29432E+00-4.59215E-02-9.26584E-01-2.08224E-13-1.52656E-14
 -1      2884 2.56117E+01-1.94938E+00-1.40302E-02 1.71615E+00-9.93585E-15 7.41976E-14
 -1      2885 2.54820E+01-2.24138E+00 3.65147E-02 1.11625E+00-2.49870E-14 1.77934E-13
 -1      2886 2.50994E+01-2.96414E+00-7.00267E-02 2.30897E-01-5.70273E-14 6.39662E-14
 -1      2887 2.60149E+01-3.38789E-01-5.07899E-02 2.73345E+00 5.85330E-14 1.63730E-13
 -1      2888 2.60818E+01-1.28125E+00-5.37327E-02 2.47235E+00 7.74953E-14 1.39020E-13
 -1      2889 2.64290E+01-2.07024E+00-1.47504E-02 1.86352E+00 2.47372E-14 1.02925E-13
 -1      2890 2.62589E+01 4.62110E+00-1.64837E-01 5.67578E-01 9.44661E-14-3.12944E-13
 -1      2891 2.65155E+01 4.07819E+00-1.89787E-01 1.67459E+00 5.28882E-14-1.56982E-13
 -1      2892 2.68453E+01 3.13128E+00-1.57481E-01-1.83705E+00 7.01383E-14-7.17464E-13
 -1      2893 2.66329E+01 4.21506E+00-1.27723E-01-8.92779E-01 1.10328E-13-5.00832E-13
 -1      2894 2.56212E+01-1.86866E+00-3.06563E-02-1.34687E+00-3.56590E-14-4.66609E-13
 -1      2895 2.57300E+01-1.10945E+00-2.97182E-02-1.83217E+00-8.17610E-14-3.96594E-13
 -1      2896 2.46205E+01-2.30032E+00 1.67728E-02 1.21892E-01-2.31304E-15-4.37465E-13
 -1      2897 2.49390E+01-2.25060E+00-2.63427E-02-5.14988E-01-7.20812E-14-5.13172E-13
 -1      2898 2.58149E+01-2.62045E+00-3.13109E-02-5.49701E-01-3.00107E-16-6.09695E-13
 -1      2899 2.33909E+01-1.79343E+00 2.94892E-02 1.28602E+00 8.29824E-14-2.83785E-13
 -1      2900 2.37967E+01-2.12746E+00-2.40250E-02 7.89627E-01-1.22671E-14-3.26835E-13
 -1      2901 2.42583E+01-2.76505E+00-2.98049E-02 9.89323E-01-1.47983E-13-3.64999E-13
 -1      2902 2.23129E+01-1.00462E+00 2.45805E-02 1.93541E+00 2.89829E-13-1.20828E-13
 -1      2903 2.27084E+01-1.42106E+00-1.54541E-02 1.65340E+00 3.29100E-13-8.37941E-14
 -1      2904 2.28120E+01-1.98764E+00-3.16832E-02 1.94920E+00 1.53365E-13-1.03458E-13
 -1      2905 2.15029E+01-2.55967E-01 1.90146E-02 2.13644E+00 2.93507E-13-6.97704E-14
 -1      2906 2.18347E+01-6.27686E-01-8.70158E-03 2.05534E+00 1.94204E-13-6.91409E-14
 -1      2907 2.17493E+01-9.91751E-01-2.37082E-02 2.36676E+00 2.35866E-13 1.39784E-14
 -1      2908 2.09108E+01 3.28994E-01 1.29644E-02 2.06837E+00 1.88473E-13 2.00229E-13
 -1      2909 2.11833E+01 1.58766E-02-3.47020E-03 2.15560E+00 2.59246E-13-8.76680E-14
 -1      2910 2.10408E+01-1.54866E-01-1.42668E-02 2.44411E+00 1.63408E-13 3.70884E-14
 -1      2911 2.05597E+01 5.40040E-01-9.06260E-03 2.33459E+00 1.45160E-13 1.41960E-13
 -1      2912 1.79114E+01 2.21123E+00 5.07531E-04-6.61761E-01-2.93866E-13-2.46726E-13
 -1      2913 1.77970E+01 2.26369E+00-1.25990E-02-8.96883E-02-1.20129E-13-1.96347E-13
 -1      2914 2.10451E+01-1.93598E-01-4.87562E-03-1.24621E+00 3.51398E-14-5.09489E-14
 -1      2915 2.09011E+01-9.06045E-03 7.35599E-03-1.23803E+00-2.45943E-14 8.63404E-14
 -1      2916 2.11899E+01-3.81385E-01-5.62892E-03-1.46614E+00-5.43138E-14-2.07575E-13
 -1      2917 1.83217E+01 1.90172E+00-2.52169E-02 1.72739E+00 3.29624E-13-3.12620E-13
 -1      2918 1.87218E+01 1.71274E+00 1.61602E-02 2.10438E+00 5.08051E-13-3.13894E-13
 -1      2919 1.85124E+01 1.81056E+00 1.40104E-02-1.71644E+00-4.14519E-13 2.30504E-13
 -1      2920 1.81540E+01 1.98222E+00-2.46867E-02-1.28289E+00-3.85106E-13 9.06534E-14
 -1      2921 1.75984E+01 1.77063E+00 1.97019E-02-1.12843E+00-2.65333E-13-6.97776E-14
 -1      2922 1.78347E+01 2.23991E+00-1.60170E-02 6.14235E-01-8.17152E-14-3.45154E-13
 -1      2923 1.80222E+01 2.15640E+00 4.65767E-03 1.16331E+00 1.24083E-13-3.27953E-13
 -1      2924 1.77697E+01 1.70145E+00 1.56058E-02 1.62468E+00 2.05525E-13-6.17829E-13
 -1      2925 1.73370E+01 1.96391E+00 2.56825E-02 2.80496E-01-8.49540E-14-3.18979E-13
 -1      2926 7.00281E+00-1.04607E+00 1.61983E-01 9.63501E-01-1.69968E-13-9.05054E-13
 -1      2927 6.93196E+00-1.14801E+00 1.75488E-01-1.37460E+00-1.44711E-13-4.29046E-13
 -1      2928 1.93472E+01 1.22273E+00 1.91100E-02-2.28374E+00-2.67169E-13-7.53242E-14
 -1      2929 1.89105E+01 1.45163E+00-2.49216E-02-2.07677E+00-3.88923E-13 8.24406E-14
 -1      2930 1.84226E+01 1.22020E+00 4.66358E-03-2.15325E+00-4.84213E-13 1.57160E-13
 -1      2931 2.01304E+01 6.45702E-01 1.67152E-02-2.35086E+00-8.86124E-14-2.63997E-13
 -1      2932 1.97546E+01 8.77413E-01-1.57559E-02-2.35764E+00-1.35478E-13-1.31803E-13
 -1      2933 1.94479E+01 5.69594E-01-9.54505E-03-2.58330E+00-2.66585E-13 6.35093E-14
 -1      2934 2.06510E+01 2.43260E-01 1.40638E-02-2.04658E+00-5.45868E-14 4.65114E-14
 -1      2935 2.04193E+01 4.20082E-01-4.35903E-03-2.20073E+00 4.61829E-14-1.74887E-13
 -1      2936 2.03398E+01 5.39758E-02-1.22790E-02-2.47027E+00-1.20845E-13-1.25529E-13
 -1      2937 1.36644E+01-4.30086E+00 4.12880E-02 6.68060E+00 4.85445E-14 2.10248E-13
 -1      2938 1.10053E+01-2.94178E+00 1.39905E-01 5.77970E+00 5.36238E-14 5.06928E-13
 -1      2939 1.76038E+01-5.37053E+00 1.11754E-02 6.86272E+00-5.52475E-13-3.52690E-13
 -1      2940 1.39414E+01-4.27005E+00 1.38355E-01 6.62004E+00-3.04035E-13-6.04933E-13
 -1      2941 2.03197E+01 1.70954E+00-9.82728E-03-1.33238E+00-4.01278E-13-2.29281E-13
 -1      2942 2.02871E+01 1.32792E+00-7.05959E-03-1.03531E+00-3.67800E-13-2.13423E-13
 -1      2943 2.58212E+01 1.10282E+00-3.80823E-02-2.16139E+00-1.85352E-13-5.22198E-13
 -1      2944 2.84111E+01 2.58751E+00-1.34632E-01-2.22533E+00-1.37224E-13-7.53356E-13
 -1      2945 2.89888E+01 5.88357E-01-1.57035E-01-2.16252E+00-2.10026E-13-7.35731E-13
 -1      2946 2.59990E+01-1.57685E-01-9.93369E-02-2.30052E+00-2.64330E-13-4.38975E-13
 -1      2947 1.50862E+01-4.16152E+00 1.61267E-01-5.94083E+00 2.35922E-14-7.40491E-13
 -1      2948 1.85193E+01-5.04635E+00-1.79117E-03-5.63066E+00-9.19265E-14-7.08510E-13
 -1      2949 1.99603E+01 2.30989E-01-7.71106E-04 6.36510E-02 1.51333E-13-1.77835E-13
 -1      2950 2.00259E+01 3.14816E-01 7.82011E-03 1.61393E-01 1.96393E-13-1.69390E-13
 -1      2951 2.00557E+01 2.65622E-01-2.72014E-03 6.16355E-02 1.60556E-13-2.01111E-13
 -1      2952 2.78970E+01-3.94522E+00 9.41309E-02-2.49937E-01-5.98480E-15-1.74971E-13
 -1      2953 2.87949E+01-2.39887E+00-2.06247E-01 1.29668E+00 1.08663E-13-1.33948E-13
 -1      2954 1.98404E+01 7.08819E-03 2.05717E-04-1.75828E-01 6.57184E-14-1.66440E-13
 -1      2955 1.98403E+01 2.62115E-02 1.78654E-03-1.64626E-01 9.91592E-14-2.00528E-13
 -1      2956 1.99506E+01 5.41841E-02-1.78121E-03-1.44872E-01 9.58314E-14-2.21111E-13
 -1      2957 1.99288E+01 4.86523E-03-1.27381E-03-1.78691E-01 6.80759E-14-1.77030E-13
 -1      2958 2.79151E+01-4.15385E+00-1.27670E-01 1.22557E+00-4.04293E-13-4.02345E-13
 -1      2959 2.62702E+01-5.29920E+00 6.72635E-02 3.15699E+00-6.07264E-13-3.81778E-13
 -1      2960 2.03185E+01 1.03567E+00 5.04130E-03-8.34303E-01-3.20429E-13-1.93182E-13
 -1      2961 2.02247E+01 7.98574E-01-5.16977E-03-5.94036E-01-2.86497E-13-1.87172E-13
 -1      2962 2.02615E+01 8.78358E-01 2.17386E-03-5.54988E-01-2.74983E-13-2.21677E-13
 -1      2963 2.02794E+01 1.38582E+00 1.93211E-03-9.20558E-01-3.37952E-13-2.62506E-13
 -1      2964 2.00694E+01 4.15225E-01-1.54589E-03 2.88761E-01 2.33335E-13-2.04379E-13
 -1      2965 2.01706E+01 5.53515E-01 1.04333E-02 4.51390E-01 2.65835E-13-2.01009E-13
 -1      2966 2.02532E+01 8.21244E-01 6.12225E-04 6.18083E-01 2.66814E-13-2.89553E-13
 -1      2967 2.01455E+01 4.76756E-01-2.12789E-03 2.81463E-01 2.15592E-13-2.28728E-13
 -1      2968 2.88854E+01 2.12546E+00-1.16065E-01 1.81058E+00-1.20140E-13 1.84838E-13
 -1      2969 2.79978E+01 4.01499E+00-1.93823E-01 1.70981E+00-1.65146E-13 3.97918E-13
 -1      2970 2.13594E+01-5.66823E+00-7.34671E-02 5.46235E+00-1.37945E-14-2.65697E-13
 -1      2971 1.74345E+01-5.00213E+00 1.37791E-01 6.31696E+00 4.08285E-14-9.83658E-14
 -1      2972 1.72407E+01-4.27241E+00 1.35446E-01 5.93321E+00-1.03764E-13-1.54633E-13
 -1      2973 2.03377E+01 1.50013E+00-1.89936E-03 1.26767E+00 3.42710E-13-2.92670E-13
 -1      2974 1.99242E+01 2.59543E+00-7.89019E-03 7.95010E-01 1.78537E-13-5.21665E-13
 -1      2975 1.98805E+01 2.68757E+00-6.12203E-03 6.45933E-01 1.20468E-13-5.48428E-13
 -1      2976 1.99993E+01 2.38783E+00 4.31918E-03 5.17187E-01 9.67445E-14-5.16199E-13
 -1      2977 2.00804E+01 2.19016E+00 5.59967E-03 7.46388E-01 1.67570E-13-4.80586E-13
 -1      2978 2.00854E+01 2.52652E+00-2.11055E-03-1.45814E+00-3.91699E-13-3.31620E-13
 -1      2979 1.98755E+01 2.69655E+00-5.97553E-03-6.35682E-01-1.95544E-13-4.67324E-13
 -1      2980 1.99182E+01 2.60697E+00-7.55498E-03-7.84768E-01-2.33384E-13-4.49247E-13
 -1      2981 2.24231E+01-5.48704E+00 5.21918E-02-4.34387E+00-2.06765E-13-5.91565E-13
 -1      2982 2.53589E+01-5.34988E+00-1.49007E-01-2.61491E+00-1.12854E-13-2.92044E-13
 -1      2983 2.08402E+01 5.72219E-02-2.87944E-03-1.44084E+00-5.37770E-14-1.94321E-13
 -1      2984 2.92426E+01 4.34935E-01-2.36797E-02 2.61819E+00 1.41206E-13-9.63118E-14
 -1      2985 2.93950E+01 1.97607E+00-2.76381E-01 2.78734E+00 1.89640E-13-1.19654E-13
 -1      2986 2.65202E+01-4.58642E+00-1.14158E-01 2.19007E+00 1.73542E-13-4.10852E-13
 -1      2987 2.44387E+01-5.19580E+00 8.99032E-02 3.65805E+00 4.90441E-14-2.69527E-13
 -1      2988 6.45811E+00-8.97319E-01 1.54026E-01-7.07985E-01 2.45581E-13-4.57773E-13
 -1      2989 7.25191E+00-1.59921E+00 1.35928E-01-3.15321E+00 2.18880E-13-7.73742E-13
 -1      2990 2.37277E+01-5.91576E+00-7.52583E-02 4.89176E+00-7.58726E-13-4.50841E-13
 -1      2991 2.10576E+01-5.70554E+00 1.20688E-01 5.89529E+00-7.89480E-13-2.56604E-13
 -1      2992 1.97399E+01-5.15032E+00 3.51771E-02 5.99180E+00-6.38323E-13-4.19234E-13
 -1      2993 2.50635E+01-5.34937E+00 5.66242E-02 3.53618E+00-5.70738E-13-2.33806E-13
 -1      2994 9.19774E+00-2.41022E+00 1.55215E-01-4.61595E+00 1.20182E-13-8.61977E-13
 -1      2995 1.17502E+01-3.40041E+00 4.91567E-02-5.76831E+00 1.42358E-13-8.07687E-13
 -1      2996 2.88175E+01-1.65649E+00-1.71400E-01-6.41900E-01 1.96721E-13-1.72848E-13
 -1      2997 2.80427E+01-3.08389E+00-2.63439E-03 4.49824E-01 1.54959E-13-3.59504E-13
 -1      2998 2.79976E+01 5.95909E+00-1.60202E-01 7.83405E-01-1.58568E-13 2.99358E-13
 -1      2999 2.88456E+01 6.66471E+00-1.71754E-01-2.21910E-01-3.26128E-14 1.75064E-13
 -1      3000 2.75199E+01 5.91114E+00-1.33216E-01-6.94802E-01 1.22957E-13 3.74752E-13
 -1      3001 2.88260E+01-1.38970E+00-7.36657E-02 5.26867E-01 6.78763E-14 2.24820E-13
 -1      3002 2.90887E+01 5.02008E-01-1.62519E-01 1.37181E+00-4.14946E-15 1.81688E-13
 -1      3003 2.77956E+01 8.89231E-01-4.67056E-02 1.86056E+00-1.32006E-13 5.81951E-13
 -1      3004 2.01444E+01 2.17286E+00 5.12421E-04-1.20738E+00-3.49649E-13-3.37530E-13
 -1      3005 1.99341E+01 2.53789E+00 3.39487E-03 4.61131E-03-1.61935E-14-5.01136E-13
 -1      3006 1.97951E+01 2.86947E+00-5.47810E-03-6.19432E-02-4.72613E-14-5.28470E-13
 -1      3007 1.98025E+01 2.85481E+00-5.54226E-03-2.16728E-01-8.24763E-14-5.14744E-13
 -1      3008 9.39810E+00-9.40122E-02 1.04350E-01 1.54930E+00 1.88722E-13-2.65649E-13
 -1      3009 7.74593E+00-4.17904E-01 1.72613E-01 6.08419E-01 2.96985E-13-3.18259E-13
 -1      3010 8.82334E+00-8.33566E-02 7.53168E-02-8.07050E-01 2.71927E-13-4.31669E-13
 -1      3011 2.51238E+01-5.28617E+00 8.47295E-03-3.56347E+00-2.38191E-13 2.50307E-13
 -1      3012 2.93747E+01-8.04757E-01-1.23479E-01-1.31540E+00-2.35964E-13-7.25614E-13
 -1      3013 2.89055E+01-2.80867E+00-4.18807E-02-3.88258E-01-3.56118E-13-6.27623E-13
 -1      3014 2.75984E+01-3.69851E+00 1.49355E-02 4.41497E-01-3.14047E-13-5.25628E-13
 -1      3015 2.77122E+01-1.10790E+00-4.85633E-02-1.65826E+00-3.22201E-13-6.81052E-13
 -1      3016 2.72104E+01-3.58562E+00 1.53748E-02-7.95724E-01-2.37429E-13 3.47666E-13
 -1      3017 2.82505E+01-2.77351E+00-9.13190E-02-8.45099E-02-3.06135E-14 2.63400E-13
 -1      3018 2.73703E+01-1.68379E+00-9.54838E-02 1.02776E+00-1.53724E-13 8.45018E-13
 -1      3019 8.12861E+00-1.14036E+00 1.84066E-01-2.46297E+00 2.54137E-14-5.26440E-13
 -1      3020 9.69637E+00-1.20730E+00 1.12811E-01-3.59056E+00 1.79738E-13-6.08735E-13
 -1      3021 9.39875E+00-3.48754E-01 1.24541E-01-1.45603E+00-2.10651E-13-7.78294E-13
 -1      3022 2.89036E+01 4.07095E+00-1.49686E-01-2.15054E+00 2.49439E-13 3.14901E-13
 -1      3023 2.80112E+01 2.66106E+00-7.81294E-02-2.36898E+00 2.00034E-13 3.44044E-13
 -1      3024 2.74383E+01 4.45457E+00-1.13655E-01-2.12095E+00 2.78999E-13 2.66134E-13
 -1      3025 1.86916E+01 1.14831E+00-1.60000E-03 2.49742E+00 5.78450E-13-3.69896E-13
 -1      3026 1.91463E+01 1.37127E+00-2.21286E-02 2.38738E+00 5.72630E-13-3.06328E-13
 -1      3027 1.95899E+01 1.13548E+00 1.54368E-02 2.52661E+00 3.73780E-13-4.48369E-13
 -1      3028 2.81537E+01-1.19307E+00-4.70027E-02 2.14276E+00 9.89764E-14-1.02737E-13
 -1      3029 2.87510E+01 3.89697E+00-1.20509E-01 2.53227E+00 2.34562E-13-1.15088E-13
 -1      3030 2.61150E+01 2.06505E+00-6.78442E-02 2.65781E+00-5.73708E-14 1.60216E-13
 -1      3031 2.64678E+01 6.58333E-01-1.00101E-01 3.07345E+00 1.21840E-13 1.44645E-13
 -1      3032 2.69307E+01-9.29050E-01-3.21297E-02-1.94643E+00-2.90518E-13-6.78315E-13
 -1      3033 1.95330E+01-4.04918E+00 9.84657E-02-4.71463E+00 7.18176E-14-5.44870E-13
 -1      3034 2.11664E+01-5.08442E+00 9.50205E-02-4.68369E+00-1.23762E-13-6.19560E-13
 -1      3035 2.28213E+01-5.02114E+00-9.85385E-02-3.42052E+00-6.08506E-14-5.29472E-13
 -1      3036 8.32306E+00-9.35023E-01 1.96995E-01 2.18151E+00-2.38681E-13-1.11111E-12
 -1      3037 9.40347E+00-2.39946E-01 1.24918E-01 9.82525E-01-2.64771E-13-1.08838E-12
 -1      3038 9.99768E+00-9.84493E-01 1.08724E-01 3.27962E+00-3.02793E-13-1.28117E-12
 -1      3039 1.99304E+01 9.10502E-01-1.25784E-02 2.52917E+00 1.42005E-13-3.09936E-13
 -1      3040 2.03043E+01 6.91373E-01 1.29396E-02 2.46680E+00 1.08269E-13 2.36629E-14
 -1      3041 2.04822E+01 3.24575E-01 2.31825E-03 2.58948E+00 1.71691E-13 2.75108E-15
 -1      3042 1.97052E+01 6.46385E-01 5.24161E-04 2.74984E+00 3.69270E-13-1.83191E-13
 -1      3043 1.29118E+01-2.34089E+00 1.56125E-02 5.30500E+00-1.26135E-13 3.38285E-13
 -1      3044 1.06877E+01-1.91380E+00 1.57874E-01 4.78011E+00-3.18148E-14 4.40675E-13
 -1      3045 1.07898E+01-9.20818E-01 1.01010E-01 3.75861E+00-1.98105E-14 1.90459E-13
 -1      3046 2.02903E+01 1.58770E+00-1.13079E-03 1.16666E+00 3.32487E-13-3.54827E-13
 -1      3047 2.07717E+01 1.68460E-01-1.35611E-03-1.66242E+00-3.89692E-14-1.31282E-13
 -1      3048 1.29168E+01-3.25614E+00 1.51072E-01 6.09154E+00-3.39520E-13-7.67830E-13
 -1      3049 1.22021E+01-2.08604E+00 1.31326E-01 5.20258E+00-3.74770E-13-8.82239E-13
 -1      3050 1.55108E+01-3.39175E+00 6.66046E-02 5.98712E+00-3.68094E-13-6.40182E-13
 -1      3051 2.02802E+01 1.36628E+00 2.30815E-03 9.20689E-01 2.82025E-13-3.52669E-13
 -1      3052 2.00734E+01 2.20449E+00 5.87597E-03-7.40057E-01-2.38910E-13-3.95636E-13
 -1      3053 1.99727E+01 2.48917E+00-5.44236E-03-9.02255E-01-2.68025E-13-4.17699E-13
 -1      3054 2.00335E+01 2.35966E+00-6.75484E-03-1.03661E+00-3.19129E-13-3.86918E-13
 -1      3055 9.85772E+00-1.34440E+00 1.88222E-01-3.57501E+00 1.95899E-13-7.52565E-13
 -1      3056 2.85337E+01-3.99070E-01-6.91032E-02-1.63258E+00 7.00551E-14 9.98229E-14
 -1      3057 1.45494E+01-3.14352E+00 1.44543E-01-5.39093E+00 1.53710E-13-6.99052E-13
 -1      3058 2.65341E+01-4.27269E+00 9.00410E-02-8.48487E-01 6.60305E-14-3.33074E-13
 -1      3059 1.98181E+01 2.81939E+00-5.66930E-03-3.52036E-01-1.08610E-13-4.71550E-13
 -1      3060 1.98421E+01 2.77112E+00-6.16097E-03-5.05680E-01-1.61805E-13-4.61169E-13
 -1      3061 1.99948E+01 2.39555E+00 4.24818E-03-5.08154E-01-1.70549E-13-4.28409E-13
 -1      3062 1.99486E+01 2.50386E+00 3.57364E-03-2.55982E-01-9.47878E-14-4.68417E-13
 -1      3063 2.31769E+01-5.14093E+00 5.42206E-02 4.02491E+00 1.18516E-14-2.73857E-13
 -1      3064 1.99210E+01-5.27610E+00 6.87642E-02-6.26566E+00 3.04756E-14 1.64334E-13
 -1      3065 2.14164E+01-5.00987E+00 2.90741E-02-5.29297E+00-2.30441E-13 1.50148E-13
 -1      3066 1.84030E+01-4.46040E+00 1.65736E-01-6.29688E+00 1.74083E-13 3.91312E-13
 -1      3067 2.68598E+01-3.84501E+00-1.39215E-03 8.33016E-01 6.08853E-14-3.35038E-13
 -1      3068 1.23080E+01-3.52878E+00 1.75038E-01-6.30503E+00 3.94740E-13-1.38931E-13
 -1      3069 1.49863E+01-3.86141E+00 2.78597E-03-6.39551E+00 2.01908E-13 2.36144E-13
 -1      3070 1.17950E+01-2.37163E+00 1.61783E-01-5.49286E+00 2.75086E-13-1.92568E-13
 -1      3071 2.11032E+01-2.85213E-01 1.23929E-02-1.69445E+00-2.17153E-13-1.66594E-13
 -1      3072 2.08092E+01 3.63564E-02-4.82876E-03-1.88692E+00-1.08109E-13 3.29459E-14
 -1      3073 2.09189E+01-3.14140E-01-9.14134E-03-2.11530E+00-1.40792E-13-1.01603E-14
 -1      3074 2.12839E+01-5.60184E-01-4.72297E-03-1.67811E+00-1.79878E-13-2.01186E-13
 -1      3075 2.02399E+01 1.47491E+00-8.01135E-03 8.01823E-01 2.30142E-13-3.68466E-13
 -1      3076 2.02006E+01 1.66942E+00-4.55687E-04 7.46991E-01 1.89415E-13-4.07499E-13
 -1      3077 2.01970E+01 1.89088E+00 1.10091E-03-1.00755E+00-3.16793E-13-3.31816E-13
 -1      3078 2.02211E+01 4.22501E-01 4.06948E-03-1.21380E-01-2.20234E-13-1.92421E-13
 -1      3079 2.01819E+01 3.14790E-01-2.30365E-03-3.65663E-02-1.92490E-13-2.30276E-13
 -1      3080 2.01678E+01 2.31318E-01 3.17784E-03 2.48360E-02-1.77920E-13-2.20006E-13
 -1      3081 2.01375E+01 1.60917E-01-1.29964E-03 7.57714E-02-1.59076E-13-2.56804E-13
 -1      3082 2.02382E+01 3.31455E-01-8.65708E-04-2.74983E-02-1.93194E-13-2.33102E-13
 -1      3083 2.01209E+01 1.07119E-01 2.23279E-03 1.11668E-01-1.45987E-13-2.47096E-13
 -1      3084 2.00998E+01 6.22525E-02-6.14529E-04 1.38948E-01-1.28323E-13-2.57827E-13
 -1      3085 2.01977E+01 1.67483E-01-1.02556E-03 7.51625E-02-1.52668E-13-2.35423E-13
 -1      3086 2.00837E+01 2.86450E-02 1.45907E-03 1.56792E-01-7.79175E-14-2.57116E-13
 -1      3087 2.00702E+01 1.36511E-03-1.70203E-04 1.68299E-01-6.05697E-14-2.19170E-13
 -1      3088 2.01590E+01 6.18122E-02-9.79712E-04 1.33285E-01-1.08962E-13-2.60966E-13
 -1      3089 2.00559E+01-1.83360E-02 8.68776E-04 1.74137E-01-5.60915E-14-1.82766E-13
 -1      3090 2.00482E+01-3.34244E-02 1.09911E-04 1.75728E-01-5.50833E-14-1.80914E-13
 -1      3091 2.01252E+01-3.24436E-03-8.52799E-04 1.60371E-01-3.39387E-14-2.35326E-13
 -1      3092 2.00361E+01-4.34805E-02 4.39398E-04 1.74201E-01-5.94166E-14-1.46018E-13
 -1      3093 2.00326E+01-5.00884E-02 2.83781E-04 1.70133E-01-2.52440E-14-1.62857E-13
 -1      3094 2.00973E+01-3.99289E-02-7.07918E-04 1.67263E-01-3.60805E-14-2.02765E-13
 -1      3095 2.00226E+01-5.34220E-02 1.36511E-04 1.64690E-01-4.93391E-14-1.58821E-13
 -1      3096 2.00221E+01-5.41013E-02 3.91765E-04 1.58032E-01-4.72422E-14-1.96170E-13
 -1      3097 2.00749E+01-5.67602E-02-5.71703E-04 1.62220E-01-5.39558E-14-1.28585E-13
 -1      3098 2.00141E+01-5.27057E-02-7.39207E-05 1.51194E-01-4.67397E-14-1.80450E-13
 -1      3099 2.00157E+01-4.91794E-02 4.62295E-04 1.44157E-01-5.36687E-14-1.63931E-13
 -1      3100 2.00574E+01-5.96424E-02-4.53421E-04 1.51373E-01-2.67117E-14-1.67815E-13
 -1      3101 2.00093E+01-4.43754E-02-2.21472E-04 1.37769E-01-7.69916E-14-1.66488E-13
 -1      3102 2.00124E+01-3.77538E-02 5.15800E-04 1.31966E-01-5.83635E-14-1.53569E-13
 -1      3103 2.00441E+01-5.25884E-02-3.53992E-04 1.39220E-01-2.97336E-14-1.75199E-13
 -1      3104 2.00074E+01-3.03624E-02-3.30294E-04 1.27405E-01-5.71433E-14-1.33857E-13
 -1      3105 2.00116E+01-2.12992E-02 5.67065E-04 1.24063E-01-2.32300E-14-1.51128E-13
 -1      3106 2.00340E+01-3.82079E-02-2.71121E-04 1.29088E-01-4.54620E-14-1.97098E-13
 -1      3107 2.00075E+01-1.17721E-02-4.19375E-04 1.22410E-01-5.77256E-14-1.54238E-13
 -1      3108 2.00128E+01-5.86715E-04 6.26431E-04 1.22521E-01-8.59636E-14-1.43405E-13
 -1      3109 2.00265E+01-1.80614E-02-2.01304E-04 1.23516E-01-4.33075E-14-1.31658E-13
 -1      3110 2.00092E+01 1.08882E-02-5.03256E-04 1.24692E-01-1.01316E-13-1.49424E-13
 -1      3111 2.00155E+01 2.41068E-02 7.01008E-04 1.29125E-01-8.90508E-14-9.00724E-14
 -1      3112 2.00207E+01 7.05854E-03-1.40520E-04 1.24562E-01-7.14885E-14-1.76514E-13
 -1      3113 2.00120E+01 3.75118E-02-5.92523E-04 1.35961E-01-8.55884E-14-9.66850E-14
 -1      3114 2.00195E+01 5.28083E-02 7.95305E-04 1.45537E-01-6.62185E-14-7.30893E-14
 -1      3115 2.00158E+01 3.68878E-02-8.47222E-05 1.34025E-01-4.99910E-14-1.64880E-13
 -1      3116 2.00158E+01 6.82021E-02-6.93899E-04 1.57867E-01-1.31084E-13-9.30596E-14
 -1      3117 2.00246E+01 8.56509E-02 9.11336E-04 1.73394E-01-9.51943E-14-1.86428E-13
 -1      3118 2.00111E+01 7.14676E-02-3.04906E-05 1.53602E-01-1.33725E-13-2.19119E-13
 -1      3119 2.00202E+01 1.03060E-01-8.09837E-04 1.92060E-01-3.47686E-14-2.01537E-13
 -1      3120 2.00306E+01 1.22642E-01 1.04861E-03 2.14333E-01-8.56076E-14-2.47202E-13
 -1      3121 2.00059E+01 1.10906E-01 2.42679E-05 1.84977E-01-1.19632E-13-2.32570E-13
 -1      3122 2.00252E+01 1.41927E-01-9.37461E-04 2.40185E-01-6.21559E-14-2.17208E-13
 -1      3123 2.00377E+01 1.63365E-01 1.20413E-03 2.69936E-01-3.07003E-14-2.57709E-13
 -1      3124 1.99994E+01 1.55097E-01 7.90746E-05 2.29844E-01-4.79738E-14-2.13242E-13
 -1      3125 2.00310E+01 1.84041E-01-1.06662E-03 3.03785E-01 3.93320E-14-2.38110E-13
 -1      3126 2.00459E+01 2.06590E-01 1.37270E-03 3.41584E-01 1.39514E-13-2.32128E-13
 -1      3127 1.99911E+01 2.03355E-01 1.28730E-04 2.89862E-01 1.90318E-14-2.18758E-13
 -1      3128 2.00381E+01 2.27583E-01-1.17674E-03 3.84108E-01 1.78087E-13-2.07214E-13
 -1      3129 2.00563E+01 2.49733E-01 1.54761E-03 4.30200E-01 1.20979E-13-2.07252E-13
 -1      3130 1.99806E+01 2.53940E-01 1.59736E-04 3.66529E-01 1.71455E-13-2.05446E-13
 -1      3131 2.00477E+01 2.69054E-01-1.23206E-03 4.81808E-01-5.73432E-14-8.33040E-14
 -1      3132 2.00702E+01 2.88148E-01 1.72207E-03 5.35864E-01-1.38868E-13-5.81272E-14
 -1      3133 1.99684E+01 3.03416E-01 1.44580E-04 4.60974E-01 9.53470E-14-2.71570E-13
 -1      3134 2.00624E+01 3.02465E-01-1.17472E-03 5.96491E-01-1.47573E-13-5.35503E-14
 -1      3135 2.00911E+01 3.14203E-01 1.89071E-03 6.57271E-01-9.12723E-14-4.54014E-14
 -1      3136 1.99560E+01 3.45806E-01 3.29540E-05 5.73658E-01-1.11770E-13-2.53139E-14
 -1      3137 2.00869E+01 3.18319E-01-9.14801E-04 7.26098E-01-2.33414E-14-1.12951E-13
 -1      3138 2.01250E+01 3.16177E-01 2.04939E-03 7.90992E-01 7.27868E-14-7.92270E-14
 -1      3139 1.99469E+01 3.71524E-01-2.60958E-04 7.03969E-01-7.28481E-14-4.04862E-14
 -1      3140 2.01297E+01 3.02472E-01-3.16884E-04 8.66042E-01 1.37505E-13-6.65877E-14
 -1      3141 2.01821E+01 2.77143E-01 2.18740E-03 9.30459E-01 1.88025E-13-1.33249E-14
 -1      3142 1.99484E+01 3.66124E-01-8.75330E-04 8.49657E-01 1.05893E-13-7.69114E-14
 -1      3143 2.02050E+01 2.35153E-01 8.16794E-04 1.00796E+00 2.16677E-13-3.96351E-14
 -1      3144 2.02797E+01 1.74267E-01 2.26113E-03 1.06451E+00 1.71413E-13-5.05772E-14
 -1      3145 1.99734E+01 3.09058E-01-2.01899E-03 1.00599E+00 2.10268E-13-9.94420E-14
 -1      3146 2.03358E+01 9.08386E-02 2.76389E-03 1.13779E+00 1.16947E-13 1.58579E-14
 -1      3147 2.04441E+01-2.04110E-02 2.13126E-03 1.17512E+00 1.24443E-13 6.91260E-14
 -1      3148 2.00437E+01 1.72989E-01-3.98028E-03 1.16430E+00 2.01236E-13-1.52089E-13
 -1      3149 2.05561E+01-1.59483E-01 5.88152E-03 1.23259E+00 9.03691E-14 6.27485E-14
 -1      3150 2.07128E+01-3.35533E-01 1.43084E-03 1.23383E+00 9.46699E-14 5.12325E-14
 -1      3151 2.01936E+01-7.51363E-02-7.09723E-03 1.30913E+00 1.39733E-13-3.36381E-14
 -1      3152 2.09123E+01-5.40698E-01 1.04608E-02 1.25530E+00-7.20277E-14 1.20037E-13
 -1      3153 2.11324E+01-7.88223E-01-6.37967E-04 1.19617E+00-6.41089E-14 9.40312E-14
 -1      3154 2.04737E+01-4.68406E-01-1.16391E-02 1.41275E+00 3.70083E-14-1.93560E-14
 -1      3155 2.14579E+01-1.05511E+00 1.64393E-02 1.14679E+00 2.55883E-14 7.37420E-14
 -1      3156 2.17475E+01-1.35605E+00-4.92625E-03 9.94879E-01 1.90991E-14 1.32000E-13
 -1      3157 2.09507E+01-1.02482E+00-1.74835E-02 1.42522E+00-3.63312E-14-1.43418E-15
 -1      3158 2.22292E+01-1.64389E+00 2.21709E-02 8.20751E-01-5.34802E-14 1.56130E-13
 -1      3159 2.25684E+01-1.92782E+00-1.26277E-02 5.42521E-01-1.21704E-13 6.60572E-14
 -1      3160 2.16962E+01-1.70790E+00-2.26584E-02 1.25881E+00-1.25778E-14 1.10348E-14
 -1      3161 2.31984E+01-2.12583E+00 2.33190E-02 1.74184E-01-1.06349E-13 2.21637E-13
 -1      3162 2.35216E+01-2.22697E+00-1.99437E-02-2.39789E-01 2.40992E-14 1.92616E-13
 -1      3163 2.27506E+01-2.36488E+00-2.31923E-02 7.89449E-01-3.86127E-14-7.85396E-15
 -1      3164 2.41722E+01-2.13027E+00 6.91285E-03-8.18126E-01 4.67994E-14 2.64944E-13
 -1      3165 2.43959E+01-1.78740E+00-1.18081E-02-1.29237E+00-1.81409E-14 1.06531E-13
 -1      3166 2.40081E+01-2.61633E+00-1.78049E-02-1.10075E-01 8.58107E-14 2.17364E-13
 -1      3167 2.48169E+01-1.17493E+00-2.38934E-02-1.88654E+00-9.53077E-14 1.26921E-13
 -1      3168 2.48627E+01-2.87925E-01-8.10464E-03-2.19535E+00-8.82037E-14 1.33300E-13
 -1      3169 2.51446E+01-1.82796E+00-3.64593E-03-1.36142E+00 1.35482E-14 1.32257E-13
 -1      3170 2.52910E+01 1.55517E+00-8.55538E-02-2.43180E+00-3.13360E-14 1.95223E-13
 -1      3171 2.51313E+01 2.74863E+00-6.04222E-02-2.24959E+00-2.64372E-15 8.80407E-14
 -1      3172 2.42048E+01 3.93590E+00-6.47177E-02 6.16946E-02-1.37987E-13 3.39200E-13
 -1      3173 2.42666E+01 3.51412E+00-7.71811E-02 8.44257E-01-2.39045E-13 4.60096E-13
 -1      3174 2.51628E+01 2.61805E+00-6.77753E-02 1.58840E+00-3.42969E-13 4.94431E-13
 -1      3175 2.52894E+01 1.39435E+00-1.10681E-01 1.86236E+00-2.60993E-13 4.58644E-13
 -1      3176 2.56079E+01-6.49417E-01-2.56018E-02 1.40884E+00-1.71731E-13 6.77264E-13
 -1      3177 2.54681E+01-1.66242E+00-4.47289E-02 1.05119E+00-1.92867E-14 6.01342E-13
 -1      3178 2.37528E+01-2.25625E+00-9.74241E-03-2.55837E-01 1.63970E-13 2.07284E-13
 -1      3179 2.33981E+01-2.17849E+00 2.32967E-02-6.91400E-01-4.44274E-15 1.44028E-13
 -1      3180 2.27634E+01-1.96735E+00-1.44074E-02-1.10040E+00-3.51021E-15 3.13556E-14
 -1      3181 2.23890E+01-1.63107E+00 1.94823E-02-1.38957E+00-6.37238E-14 3.63479E-14
 -1      3182 2.31369E+01-2.43420E+00-2.79586E-02-1.32077E+00-6.36236E-14 1.29392E-13
 -1      3183 2.19434E+01-1.30429E+00-8.24933E-03-1.52879E+00-1.76231E-13 1.11614E-13
 -1      3184 2.16097E+01-9.05399E-01 1.39355E-02-1.66694E+00-1.59702E-13 3.70207E-14
 -1      3185 2.14259E+01-8.53959E-01-4.59422E-03-1.91243E+00-3.04455E-13 2.68223E-14
 -1      3186 2.21307E+01-1.67459E+00-1.39059E-02-1.79973E+00-3.88022E-14 1.67565E-13
 -1      3187 1.99846E+01-4.40843E-02 2.91364E-04-1.75642E-01 3.75128E-14-1.56518E-13
 -1      3188 1.99837E+01-3.77137E-02 4.25436E-04-1.80146E-01 7.00326E-14-1.78472E-13
 -1      3189 1.99930E+01-2.82783E-02 1.45973E-04-1.81678E-01 8.39830E-14-2.00345E-13
 -1      3190 1.99966E+01-1.42617E-02 9.02636E-04-1.80286E-01 6.59393E-14-1.76300E-13
 -1      3191 2.00503E+01-3.47703E-02-7.60155E-04-1.76307E-01 6.43465E-14-1.69981E-13
 -1      3192 1.99825E+01-4.51524E-02 4.44527E-04-1.47328E-01 7.37682E-15-5.08904E-14
 -1      3193 1.99769E+01-4.78344E-02-1.14889E-04-1.55089E-01 4.02451E-14-1.42705E-13
 -1      3194 1.99863E+01-3.59593E-02 4.97885E-04-1.33521E-01 3.58205E-15-5.13243E-15
 -1      3195 1.99795E+01-4.13862E-02-2.56904E-04-1.40154E-01 3.73475E-14-1.39071E-15
 -1      3196 2.00164E+01-4.97548E-02-3.37880E-04-1.45114E-01-2.69405E-14-8.84184E-14
 -1      3197 1.99923E+01-2.23142E-02 5.55719E-04-1.23808E-01-8.12653E-15-7.54855E-14
 -1      3198 1.99845E+01-2.99107E-02-3.53084E-04-1.28076E-01 1.97707E-14-2.18511E-14
 -1      3199 2.00128E+01-3.78507E-02-2.61077E-04-1.33186E-01 1.73949E-14-5.21928E-14
 -1      3200 2.00002E+01-4.84372E-03 6.28464E-04-1.20320E-01 1.80166E-14-1.11525E-13
 -1      3201 1.99914E+01-1.43638E-02-4.25811E-04-1.21215E-01 1.43005E-14-1.35299E-13
 -1      3202 2.00117E+01-2.07124E-02-2.05170E-04-1.25713E-01 3.86358E-15-1.59360E-13
 -1      3203 2.00098E+01 1.63489E-02 7.23921E-04-1.24923E-01-9.37830E-14-3.36533E-14
 -1      3204 2.00000E+01 4.89795E-03-4.92779E-04-1.21534E-01-4.58468E-14-7.84902E-14
 -1      3205 2.00124E+01 1.02834E-03-1.63735E-04-1.24853E-01-3.23546E-14-1.48864E-13
 -1      3206 2.00213E+01 4.15585E-02 8.47984E-04-1.39424E-01-1.64138E-14-2.24889E-14
 -1      3207 2.00100E+01 2.79775E-02-5.68122E-04-1.30844E-01-4.38196E-14-5.07968E-14
 -1      3208 2.00145E+01 2.73309E-02-1.29446E-04-1.32522E-01-3.82738E-14-5.60172E-14
 -1      3209 2.00346E+01 7.13702E-02 1.00450E-03-1.65716E-01-7.50459E-14 1.54898E-14
 -1      3210 2.00215E+01 5.53227E-02-6.63686E-04-1.50975E-01-3.88832E-14 4.72068E-15
 -1      3211 2.00173E+01 5.85965E-02-9.43920E-05-1.50582E-01-5.73997E-14-1.16142E-13
 -1      3212 2.00501E+01 1.06548E-01 1.19511E-03-2.05868E-01 3.01806E-14-2.85386E-14
 -1      3213 2.00345E+01 8.76190E-02-7.89613E-04-1.83897E-01 1.48349E-14 3.97811E-14
 -1      3214 2.00203E+01 9.55375E-02-4.96629E-05-1.80969E-01-4.03444E-14-6.10154E-14
 -1      3215 2.00675E+01 1.47893E-01 1.41873E-03-2.62160E-01 2.53717E-14-5.04844E-14
 -1      3216 2.00491E+01 1.25667E-01-9.54448E-04-2.31780E-01 1.73585E-14-1.67286E-14
 -1      3217 2.00228E+01 1.39034E-01 1.50958E-05-2.25774E-01 3.15443E-14 6.45590E-15
 -1      3218 2.00869E+01 1.96043E-01 1.67116E-03-3.37043E-01 7.84386E-14-3.71034E-14
 -1      3219 2.00652E+01 1.70219E-01-1.16463E-03-2.96999E-01 6.87764E-14-6.46108E-14
 -1      3220 2.00237E+01 1.89953E-01 1.11608E-04-2.87250E-01 4.10689E-14 7.00395E-14
 -1      3221 2.01078E+01 2.51145E-01 1.94513E-03-4.33019E-01 5.13041E-14 5.56712E-14
 -1      3222 2.00823E+01 2.21718E-01-1.42286E-03-3.82064E-01 6.85877E-14-1.88763E-14
 -1      3223 2.00218E+01 2.48877E-01 2.51837E-04-3.67772E-01 5.62899E-14 4.79671E-14
 -1      3224 2.01295E+01 3.12312E-01 2.23169E-03-5.52404E-01-3.84269E-14 7.18802E-14
 -1      3225 2.00999E+01 2.79887E-01-1.72461E-03-4.89458E-01 4.77278E-14 6.38291E-14
 -1      3226 2.00152E+01 3.15678E-01 4.44671E-04-4.69708E-01 9.12636E-15 1.67773E-13
 -1      3227 2.01512E+01 3.76739E-01 2.52447E-03-6.96955E-01 8.82749E-15-2.51352E-14
 -1      3228 2.01171E+01 3.43032E-01-2.05152E-03-6.21360E-01 1.16239E-14-2.14673E-14
 -1      3229 2.00018E+01 3.88829E-01 6.88407E-04-5.95236E-01 3.67569E-14 6.22060E-14
 -1      3230 2.01727E+01 4.38245E-01 2.82890E-03-8.67317E-01-1.42060E-13-2.51312E-13
 -1      3231 2.01334E+01 4.06902E-01-2.35962E-03-7.79233E-01-2.57914E-14-1.50275E-13
 -1      3232 1.99792E+01 4.64287E-01 9.55666E-04-7.46096E-01 9.05243E-14-7.96947E-15
 -1      3233 2.01955E+01 4.85013E-01 3.17801E-03-1.06226E+00-1.09830E-13-2.61142E-13
 -1      3234 2.01493E+01 4.62869E-01-2.55891E-03-9.63234E-01-1.65035E-13-2.99075E-13
 -1      3235 1.99459E+01 5.33710E-01 1.16569E-03-9.23322E-01-8.43699E-14-3.35403E-13
 -1      3236 2.02261E+01 4.96278E-01 3.65332E-03-1.27763E+00-1.50102E-13-2.78470E-13
 -1      3237 2.01687E+01 4.95171E-01-2.47904E-03-1.17142E+00-4.93184E-14-2.68940E-13
 -1      3238 1.99027E+01 5.81757E-01 1.13731E-03-1.12702E+00-1.26359E-13-2.81108E-13
 -1      3239 2.02809E+01 4.37984E-01 4.39040E-03-1.50488E+00-1.63012E-13-2.21002E-13
 -1      3240 2.02028E+01 4.77068E-01-1.81077E-03-1.39862E+00-1.65232E-13-2.27859E-13
 -1      3241 1.98565E+01 5.82229E-01 5.14605E-04-1.35622E+00-1.23511E-13-2.94418E-13
 -1      3242 2.03948E+01 2.58247E-01 5.50300E-03-1.72851E+00 1.38061E-14-3.03064E-13
 -1      3243 2.02771E+01 3.66276E-01-6.38837E-06-1.63457E+00-4.67766E-14-2.85808E-13
 -1      3244 1.98261E+01 4.93076E-01-1.35415E-03-1.60864E+00-6.33608E-14-5.16050E-13
 -1      3245 2.06334E+01-1.14498E-01 6.77069E-03-1.92065E+00-1.13041E-14-2.34847E-13
 -1      3246 2.04431E+01 1.01385E-01 3.88673E-03-1.86017E+00-4.38342E-15-3.10804E-13
 -1      3247 1.98534E+01 2.51210E-01-5.59224E-03-1.87938E+00 3.79476E-15-4.41849E-13
 -1      3248 2.11040E+01-7.62930E-01 5.51837E-03-2.02827E+00-9.04257E-14-1.37360E-13
 -1      3249 2.07948E+01-3.95448E-01 1.15549E-02-2.03748E+00-2.59428E-15-1.19637E-13
 -1      3250 2.00192E+01-2.30636E-01-1.43208E-02-2.15478E+00-3.19206E-14-2.68649E-13
 -1      3251 2.19620E+01-1.70730E+00 5.73391E-03-1.93974E+00-2.22862E-13-1.78006E-13
 -1      3252 2.14856E+01-1.18702E+00 2.75293E-02-2.07905E+00-1.34195E-13-1.18004E-13
 -1      3253 2.04686E+01-1.05967E+00-3.31326E-02-2.38940E+00-1.13989E-13-2.86913E-13
 -1      3254 2.34817E+01-2.76493E+00 2.90564E-02-1.36611E+00-2.49539E-13-1.34118E-13
 -1      3255 2.27252E+01-2.28438E+00 4.97637E-02-1.81981E+00-2.95619E-13-2.21505E-13
 -1      3256 2.14713E+01-2.22548E+00-4.24343E-02-2.45634E+00-2.82161E-13-2.14501E-13
 -1      3257 2.44518E+01-3.81367E+00 4.16663E-02-1.38279E+00-4.44783E-15-3.83471E-13
 -1      3258 2.34710E+01-3.49183E+00 6.91150E-02-1.99510E+00-1.21970E-13-3.41623E-13
 -1      3259 2.74634E+01-2.30980E-01-1.10004E-01 2.85410E+00 1.00822E-13 1.01461E-13
 -1      3260 2.62208E+01 4.26492E+00-2.47873E-01-4.78063E-01 1.37640E-13-4.97260E-13
 -1      3261 2.11587E+01-6.66138E-01 2.43748E-02 2.74853E+00 2.25619E-13 7.10258E-14
 -1      3262 2.15739E+01-1.22533E+00 5.57018E-03 2.70682E+00 3.48632E-13 9.19140E-14
 -1      3263 2.06374E+01 2.34368E-02 1.36355E-02 2.68267E+00 3.19766E-13-6.69582E-15
 -1      3264 2.09153E+01-3.63532E-01 2.37194E-03 2.70390E+00 2.45954E-13-1.68264E-14
 -1      3265 2.05505E+01-5.91979E-01-1.82082E-02 3.03028E+00 3.13782E-13 1.18126E-13
 -1      3266 2.02229E+01 1.29603E-01-1.09408E-02 2.82989E+00 2.07012E-13-2.52973E-13
 -1      3267 1.71091E+01 1.35857E+00 2.09651E-02-1.67560E+00-4.58188E-13-2.41892E-13
 -1      3268 1.66670E+01 1.51495E+00-2.16104E-02-1.00851E+00-2.66737E-13-4.87489E-13
 -1      3269 2.07964E+01-5.01025E-01 1.72600E-02-2.53062E+00-2.38785E-13-1.41199E-14
 -1      3270 2.03513E+01-3.39088E-01-8.19780E-03-2.71924E+00-2.85202E-13-9.85808E-14
 -1      3271 2.38045E+01-4.85561E+00-1.06148E-01 2.91289E+00 1.62786E-14-3.26335E-13
 -1      3272 2.17996E+01-4.63475E+00 1.20344E-01 4.27992E+00-3.36849E-14-3.10072E-13
 -1      3273 1.84036E+01 6.73375E-01 3.24968E-02-2.65825E+00-5.28153E-13 2.07543E-13
 -1      3274 1.77010E+01 9.18125E-01-3.13455E-02-2.29102E+00-6.30458E-13 3.52899E-13
 -1      3275 1.69398E+01 7.81998E-01 1.61594E-02-2.27905E+00-5.71506E-13-9.40543E-14
 -1      3276 2.77874E+01 4.71451E+00-1.46943E-01 1.46673E+00-2.26014E-13 2.88970E-13
 -1      3277 2.67395E+01 4.90433E+00-1.12443E-01 1.03407E+00-2.12066E-13 3.11362E-13
 -1      3278 2.02895E+01 9.89447E-01-7.74361E-04 6.90833E-01 2.44509E-13-3.24394E-13
 -1      3279 2.02686E+01 1.31102E+00 4.57343E-03 7.74107E-01 2.37900E-13-3.32934E-13
 -1      3280 2.02833E+01 1.13052E+00 5.35364E-03 5.98134E-01 1.97329E-13-3.33866E-13
 -1      3281 2.02318E+01 7.75444E-01-3.85270E-03 4.83747E-01 2.28118E-13-2.90082E-13
 -1      3282 1.97990E+01-4.80069E-02 2.84356E-02-2.89015E+00-3.08600E-13-6.30030E-15
 -1      3283 1.91180E+01 1.99298E-01-2.34097E-02-2.84677E+00-3.94764E-13 2.21729E-13
 -1      3284 1.85543E+01-6.52814E-02-1.00232E-02-3.08421E+00-4.66718E-13 2.58905E-13
 -1      3285 2.01153E+01-7.47392E-01-2.01915E-02-3.03215E+00-3.96360E-13 2.55432E-14
 -1      3286 2.21302E+01-1.80338E+00 4.06144E-02 2.68794E+00 2.35014E-13-1.29023E-14
 -1      3287 2.27597E+01-2.42932E+00 7.47517E-03 2.43869E+00 5.68642E-14-2.00499E-14
 -1      3288 2.11814E+01-1.67510E+00-5.04400E-02 3.14954E+00 1.84995E-13 1.94324E-14
 -1      3289 2.37369E+01-3.00148E+00 6.30946E-02 2.09544E+00-1.43587E-13-3.29950E-14
 -1      3290 2.44871E+01-3.46463E+00-7.93017E-03 1.54991E+00-2.31308E-13-1.17680E-13
 -1      3291 2.26239E+01-3.17400E+00-7.86853E-02 2.98699E+00-9.48261E-14-1.77556E-13
 -1      3292 2.01240E+01 2.93302E-01-1.99268E-03 4.53281E-02 1.41665E-13-1.95923E-13
 -1      3293 2.01693E+01 3.94256E-01 4.35428E-03 1.35739E-01 1.63240E-13-2.02470E-13
 -1      3294 2.68563E+01 3.29317E+00-3.79627E-02 1.82538E+00-2.84731E-13 4.06258E-13
 -1      3295 1.99816E+01-4.85887E-02 3.81848E-04-1.62557E-01 6.70952E-14-1.61895E-13
 -1      3296 1.99778E+01-4.75255E-02 1.00854E-04-1.69813E-01 5.99556E-14-1.45620E-13
 -1      3297 2.00341E+01-5.12682E-02-5.82517E-04-1.70821E-01 1.48814E-14-1.70266E-13
 -1      3298 2.00232E+01-5.50254E-02-4.42805E-04-1.58831E-01 1.94229E-14-1.11402E-13
 -1      3299 2.00727E+01 1.50311E-01-1.13113E-03-7.53828E-02 1.08666E-13-2.03075E-13
 -1      3300 2.01052E+01 2.15569E-01 3.69417E-03-2.19743E-02 1.23358E-13-1.75752E-13
 -1      3301 2.01898E+01 3.15636E-01-1.49788E-03 3.73636E-02 1.42064E-13-1.85026E-13
 -1      3302 2.02683E+01 7.12548E-01 3.61779E-03-3.47159E-01-2.24431E-13-2.34677E-13
 -1      3303 2.02265E+01 5.50967E-01-3.49317E-03-2.16138E-01-2.16088E-13-2.40899E-13
 -1      3304 2.02729E+01 5.78908E-01-3.17844E-04-1.90040E-01-1.97404E-13-2.55164E-13
 -1      3305 2.74141E+01-2.07940E+00-5.31999E-03 1.83382E+00 1.07463E-13-1.30590E-13
 -1      3306 1.89319E+01-4.36265E+00-4.84179E-02 5.32712E+00-9.65408E-14-3.90195E-13
 -1      3307 1.62022E+01-3.23117E+00 1.57379E-01 5.55822E+00-9.97535E-14-1.03362E-13
 -1      3308 2.40979E+01-4.93884E+00 3.89824E-02-3.68220E+00-2.30146E-13 2.72449E-13
 -1      3309 2.59619E+01-4.74030E+00-6.91970E-02-2.32245E+00-2.97234E-13 1.93234E-13
 -1      3310 2.73087E+01-2.41198E+00-9.17645E-02-1.18061E+00-1.84755E-13-7.61162E-13
 -1      3311 2.78057E+01 6.26884E-01-1.66180E-01-2.26842E+00-6.78832E-14 3.19342E-13
 -1      3312 2.74023E+01-1.15160E+00 6.06636E-03-1.62669E+00-4.59563E-14 1.88044E-14
 -1      3313 1.37070E+01-2.04538E+00 1.29819E-01-4.76671E+00 1.60538E-13-7.26252E-13
 -1      3314 1.62167E+01-3.00689E+00 3.13335E-02-5.02000E+00 1.46674E-13-7.10335E-13
 -1      3315 2.65224E+01 5.64945E+00-1.17462E-01-4.38282E-01 9.76164E-14 4.75817E-13
 -1      3316 2.70364E+01 5.35564E+00-1.55472E-01-1.44002E+00 3.37869E-13 3.76178E-13
 -1      3317 2.65773E+01 4.23082E+00-1.05480E-01-1.86695E+00 2.07445E-13 2.76487E-13
 -1      3318 2.65869E+01-3.36934E+00-1.58048E-01-1.66512E-01 1.21299E-13-2.06932E-13
 -1      3319 2.58470E+01-4.06480E+00 8.19599E-02 1.13930E+00 1.50041E-13-2.63463E-13
 -1      3320 2.00462E+01 2.15989E+00-4.29283E-03 2.92902E-01 5.97731E-14-4.87086E-13
 -1      3321 2.00329E+01 2.19863E+00-3.37270E-03 1.71009E-01 2.25766E-14-4.90251E-13
 -1      3322 1.01005E+01-4.16579E-01 1.39690E-01-2.64254E+00 2.80664E-13-6.55864E-13
 -1      3323 1.16277E+01-1.32532E+00 5.26722E-02-4.08957E+00 1.78163E-13-7.65457E-13
 -1      3324 1.38387E+01-1.20510E+00 1.08920E-01-3.90358E+00 2.29372E-13-6.88866E-13
 -1      3325 2.66941E+01-3.35535E+00-1.44536E-01 9.22932E-01 1.52348E-13-3.64622E-14
 -1      3326 2.58821E+01 4.25511E+00-9.20768E-02 1.02155E+00-2.11289E-13 3.13697E-13
 -1      3327 2.60808E+01 5.05716E+00-1.71004E-01 4.42370E-01-1.05749E-13 3.02050E-13
 -1      3328 2.00262E+01 2.21764E+00-3.54591E-03 6.61620E-02 5.58485E-15-4.68003E-13
 -1      3329 2.00255E+01 2.21831E+00-3.65212E-03-5.83923E-02-3.89053E-14-4.61814E-13
 -1      3330 2.01394E+01 1.92145E+00 4.72685E-03 1.01702E-01 1.59160E-14-4.47785E-13
 -1      3331 1.04041E+01-1.39179E-01 1.57061E-01 2.62715E+00 1.59133E-13-1.77344E-13
 -1      3332 1.05963E+01 2.16998E-01 6.95989E-02 1.44542E+00 2.55240E-13-3.55688E-13
 -1      3333 1.19187E+01-5.66735E-01 6.98046E-02 3.31771E+00 6.26374E-14 1.05083E-13
 -1      3334 2.02173E+01 1.56764E+00-2.12117E-03-8.08378E-01-2.94297E-13-3.19354E-13
 -1      3335 2.64996E+01-1.96180E+00-1.90761E-02-1.20209E+00-3.21167E-14-4.91482E-14
 -1      3336 9.74444E+00 5.32472E-02 1.87388E-01-1.78248E-01-3.04543E-13-7.95752E-13
 -1      3337 1.04248E+01-6.00087E-02 8.71551E-02-1.24441E+00-1.98659E-13-8.69999E-13
 -1      3338 1.04292E+01 2.58278E-02 7.49859E-02 9.66946E-01-3.67272E-13-1.16110E-12
 -1      3339 2.01761E+01 4.88296E-01-2.06674E-03 2.22194E-01 1.55293E-13-2.21694E-13
 -1      3340 2.02324E+01 6.34416E-01 4.13609E-03 3.63366E-01 2.01457E-13-2.58943E-13
 -1      3341 2.02563E+01 7.76385E-01-4.81141E-03 4.20550E-01 1.87130E-13-2.84482E-13
 -1      3342 2.02291E+01 5.23699E-01-1.31061E-03 2.01001E-01 1.51602E-13-2.24745E-13
 -1      3343 2.44304E+01-4.08835E+00 2.64918E-02 1.74341E+00 7.62550E-14-1.75387E-13
 -1      3344 1.80841E+01 8.37030E-01-2.95112E-02 2.65860E+00 3.07530E-13-5.03149E-13
 -1      3345 1.88044E+01 5.96712E-01 2.27660E-02 2.91499E+00 4.46060E-13-3.33167E-13
 -1      3346 2.46443E+01 3.63363E+00-9.22536E-02-1.55216E+00 5.20001E-14 1.42830E-13
 -1      3347 2.45558E+01 4.13968E+00-8.48129E-02-8.18012E-01 5.32768E-14 2.85905E-13
 -1      3348 2.46611E+01-1.69301E+00 5.78923E-03 8.77528E-01 3.57947E-14 4.19091E-13
 -1      3349 2.43784E+01-2.12908E+00 7.93856E-03 3.47851E-01 2.06710E-13 3.94201E-13
 -1      3350 2.63640E+01-3.76083E+00 3.42245E-02-9.33523E-01-3.42022E-13 4.21718E-13
 -1      3351 2.00731E+01-9.67140E-06-9.72684E-04-1.68730E-01 5.57878E-14-1.72852E-13
 -1      3352 2.00088E+01 3.83626E-03-9.43566E-05-1.73846E-01 3.71697E-14-1.74006E-13
 -1      3353 2.00191E+01 2.89426E-02 1.58001E-03-1.62132E-01 6.55622E-14-1.84532E-13
 -1      3354 1.53250E+01-2.32144E+00 8.83154E-02 4.92311E+00-1.56257E-13 8.37039E-14
 -1      3355 2.56574E+01 4.93687E+00-1.09104E-01-2.40996E-01 8.12961E-14 4.34474E-13
 -1      3356 1.84232E+01-3.28741E+00 9.80643E-02-4.66542E+00 1.12237E-13-5.58088E-13
 -1      3357 2.01335E+01-3.45886E+00-7.80864E-03-3.84940E+00 6.64486E-14-4.62689E-13
 -1      3358 1.73207E+01-2.31838E+00 4.38087E-02-4.30299E+00 1.57083E-13-5.91697E-13
 -1      3359 1.18268E+01-1.12564E+00 1.60986E-01 4.16486E+00-3.52447E-13-1.11931E-12
 -1      3360 1.18745E+01-3.38309E-01 9.06042E-02 3.02564E+00-2.76161E-13-1.30961E-12
 -1      3361 1.38073E+01-1.49384E+00 4.85941E-02 4.60158E+00-3.88106E-13-5.94982E-13
 -1      3362 2.58015E+01-3.63093E+00 2.70370E-02 7.83521E-01-2.48961E-13-4.50587E-13
 -1      3363 2.66303E+01-3.21083E+00-1.51942E-02-6.61186E-02-1.82441E-13-6.32702E-13
 -1      3364 1.68667E+01 1.44387E+00-2.54732E-02 1.55253E+00 1.61911E-13-5.77025E-13
 -1      3365 1.74108E+01 1.28371E+00 2.74558E-02 2.14978E+00 3.02940E-13-5.82609E-13
 -1      3366 1.73532E+01 6.75431E-01 8.12249E-03 2.70063E+00 2.16136E-13-6.28246E-13
 -1      3367 2.02517E+01 1.46184E+00 6.35190E-03 5.87188E-01 1.45784E-13-3.90549E-13
 -1      3368 2.01593E+01 1.80057E+00-6.99530E-03 6.86335E-01 1.49673E-13-4.40938E-13
 -1      3369 2.01244E+01 1.93023E+00-2.47610E-03 5.90680E-01 1.10986E-13-4.64746E-13
 -1      3370 1.64708E+01 1.67850E+00-3.13662E-03-8.39667E-02-8.14345E-14-3.59243E-13
 -1      3371 1.65427E+01 1.66731E+00 4.30204E-03 6.82181E-01 3.77617E-14-4.51812E-13
 -1      3372 1.61145E+01 1.30038E+00 3.38490E-02 1.25823E+00 1.77400E-13-6.65422E-13
 -1      3373 1.59462E+01 1.35619E+00 3.59782E-02-6.56318E-01-2.90634E-13-6.03343E-13
 -1      3374 2.05551E+01-3.93877E+00 5.95171E-02 4.23783E+00-1.95260E-14-2.82266E-13
 -1      3375 1.07381E+01 7.02930E-02 1.15587E-01-1.50682E+00 3.55039E-13-5.49852E-13
 -1      3376 1.79884E+01-3.80038E+00 1.76434E-01 5.94984E+00-2.21885E-13-4.57120E-13
 -1      3377 1.66072E+01-2.93728E+00 6.63563E-02 5.57375E+00-2.19477E-13-3.22416E-13
 -1      3378 2.01207E+01 1.93958E+00-2.48258E-03-5.84176E-01-2.08512E-13-3.71887E-13
 -1      3379 2.01577E+01 1.81014E+00-6.69659E-03-6.83440E-01-2.54133E-13-3.59637E-13
 -1      3380 2.00665E+01 2.10447E+00-3.06158E-03 3.91634E-01 7.67397E-14-5.00285E-13
 -1      3381 2.01624E+01 1.84680E+00 5.24527E-03 2.91406E-01 7.18566E-14-4.71129E-13
 -1      3382 2.00916E+01 2.02417E+00-5.43468E-03 5.05134E-01 1.01769E-13-4.98008E-13
 -1      3383 2.57648E+01-3.90874E+00 1.17115E-01-7.37935E-01 7.53252E-14-2.45776E-13
 -1      3384 2.44077E+01-2.57693E+00-4.43373E-03-3.02255E-01-1.27936E-15 2.61353E-13
 -1      3385 2.02556E+01 8.92194E-01-4.76876E-03-4.64422E-01-2.40910E-13-2.68461E-13
 -1      3386 2.02874E+01 9.29594E-01 1.63784E-03-4.10027E-01-2.22034E-13-2.92219E-13
 -1      3387 2.02865E+01 1.10345E+00-2.79756E-04-6.32709E-01-2.65470E-13-2.73895E-13
 -1      3388 2.70948E+01-1.52863E-01 4.74675E-03 1.76801E+00-1.90147E-13 7.03472E-13
 -1      3389 2.65237E+01 1.10120E+00-7.16710E-02 1.94336E+00-2.47233E-13 6.82836E-13
 -1      3390 2.32306E+01-4.93287E+00 3.28394E-02-4.24953E+00-1.83888E-13 3.44721E-13
 -1      3391 2.42329E+01-4.50609E+00 1.26240E-03-3.02865E+00-2.00014E-13 3.49581E-13
 -1      3392 2.18566E+01-4.51296E+00 1.93920E-02-4.65185E+00-1.05103E-13 2.03674E-13
 -1      3393 2.00346E+01 5.96573E-02-4.92100E-04-1.42714E-01 8.78531E-14-1.92496E-13
 -1      3394 2.00544E+01 1.00979E-01 2.50401E-03-1.14472E-01 9.62383E-14-1.89164E-13
 -1      3395 2.01433E+01 1.60447E-01-1.39482E-03-7.55372E-02 9.91507E-14-1.86512E-13
 -1      3396 2.01039E+01 6.10940E-02-1.20229E-03-1.39131E-01 7.29893E-14-1.80125E-13
 -1      3397 2.48626E+01-4.43944E+00-6.11611E-02 2.40530E+00-4.17237E-13-1.47743E-13
 -1      3398 2.36282E+01-4.59262E+00 1.29028E-01 3.78959E+00-4.88675E-13-1.81714E-13
 -1      3399 1.72167E+01-3.73909E+00 8.77181E-02-5.97766E+00 6.47815E-14 3.82382E-13
 -1      3400 1.16367E+01-1.44757E+00 1.61863E-01-4.44305E+00 2.10602E-13-3.76352E-13
 -1      3401 1.36273E+01-1.88482E+00 7.56518E-03-5.00784E+00 7.01314E-14-2.78805E-14
 -1      3402 1.19419E+01-6.21562E-01 9.13789E-02-3.37976E+00-1.41977E-13-6.95805E-13
 -1      3403 2.00880E+01 2.03286E+00-5.10993E-03-4.98960E-01-1.79801E-13-3.97269E-13
 -1      3404 2.01969E+01 1.70085E+00 4.02696E-03-4.52334E-01-1.81292E-13-3.52259E-13
 -1      3405 2.00639E+01 2.11074E+00-2.85754E-03-3.83633E-01-1.40277E-13-4.00459E-13
 -1      3406 2.04847E+01-4.67252E+00-2.07910E-02 5.33120E+00-3.79814E-13-1.71745E-13
 -1      3407 2.68964E+01 1.41999E+00-8.16129E-02-2.52166E+00-2.54657E-14 1.63244E-13
 -1      3408 2.12867E+01-7.86113E-01 1.39782E-02-2.14386E+00-4.07728E-13-9.32005E-14
 -1      3409 2.10159E+01-6.37972E-01-2.35449E-03-2.34562E+00-3.12694E-13-8.90000E-14
 -1      3410 2.10722E+01-1.08660E+00-1.04293E-02-2.60547E+00-4.66509E-13-2.15319E-13
 -1      3411 2.15867E+01-1.23712E+00-2.16688E-03-2.14880E+00-3.65724E-13 7.19033E-14
 -1      3412 2.03008E+01 4.38567E-01 2.47178E-03-7.33307E-02-1.80189E-13-2.55959E-13
 -1      3413 2.02762E+01 3.26288E-01-2.13277E-03-6.50567E-03-1.73300E-13-2.45425E-13
 -1      3414 2.47655E+01 3.12792E+00-1.27549E-01 1.31426E+00-3.63005E-13 4.55377E-13
 -1      3415 2.69012E+01-3.39113E+00-1.12364E-02 1.19267E-01-1.67373E-13-5.20604E-13
 -1      3416 2.02681E+01 2.36907E-01 2.14249E-03 3.86230E-02-1.55111E-13-2.19562E-13
 -1      3417 2.02436E+01 1.61835E-01-1.27996E-03 7.94580E-02-1.39775E-13-2.23213E-13
 -1      3418 2.03167E+01 3.28121E-01-1.14880E-04 1.40522E-03-1.54890E-13-2.16546E-13
 -1      3419 2.02289E+01 1.03360E-01 1.60489E-03 1.05638E-01-1.40900E-13-2.12077E-13
 -1      3420 2.02075E+01 5.51439E-02-6.40312E-04 1.27665E-01-7.94566E-14-2.13466E-13
 -1      3421 2.02855E+01 1.59604E-01-4.45351E-04 7.59453E-02-1.22884E-13-1.79230E-13
 -1      3422 2.01901E+01 1.86536E-02 1.11235E-03 1.40235E-01-3.82412E-14-2.15020E-13
 -1      3423 2.01725E+01-1.03911E-02-1.96105E-04 1.49467E-01-3.11682E-14-1.99963E-13
 -1      3424 2.02479E+01 5.01206E-02-5.93056E-04 1.17777E-01-6.86497E-14-1.80659E-13
 -1      3425 2.01547E+01-3.12882E-02 7.06150E-04 1.52980E-01-1.63980E-14-2.23401E-13
 -1      3426 2.01408E+01-4.67163E-02 9.80163E-05 1.54140E-01-1.39410E-14-1.74732E-13
 -1      3427 2.02096E+01-1.67012E-02-6.26494E-04 1.36590E-01-3.35767E-14-1.89827E-13
 -1      3428 2.01240E+01-5.65804E-02 3.89447E-04 1.52202E-01-4.07315E-14-1.82661E-13
 -1      3429 2.01134E+01-6.23630E-02 2.84801E-04 1.48854E-01-4.67502E-14-1.59715E-13
 -1      3430 2.01735E+01-5.29592E-02-5.93948E-04 1.40493E-01-3.38181E-14-2.30326E-13
 -1      3431 2.00980E+01-6.44119E-02 1.47978E-04 1.44211E-01-8.72926E-14-1.60286E-13
 -1      3432 2.00902E+01-6.33352E-02 3.99058E-04 1.38995E-01-5.53721E-14-2.03706E-13
 -1      3433 2.01410E+01-6.74338E-02-5.28321E-04 1.35843E-01-7.67174E-14-2.32694E-13
 -1      3434 2.00765E+01-5.97887E-02-3.71426E-05 1.33690E-01-6.89170E-14-2.35644E-13
 -1      3435 2.00708E+01-5.37372E-02 4.68406E-04 1.28552E-01-6.16428E-14-2.34544E-13
 -1      3436 2.01125E+01-6.63375E-02-4.44819E-04 1.27463E-01-9.29977E-14-2.97948E-13
 -1      3437 2.00586E+01-4.60513E-02-1.84857E-04 1.24112E-01 3.28340E-15-2.29265E-13
 -1      3438 2.00547E+01-3.62169E-02 5.14156E-04 1.20511E-01-1.17279E-14-1.85299E-13
 -1      3439 2.00877E+01-5.39097E-02-3.51164E-04 1.18957E-01-3.06525E-14-2.39602E-13
 -1      3440 2.00435E+01-2.52701E-02-3.11911E-04 1.18111E-01-4.92710E-14-1.51925E-13
 -1      3441 2.00408E+01-1.23257E-02 5.50765E-04 1.17194E-01-5.05560E-14-1.34890E-13
 -1      3442 2.00659E+01-3.28612E-02-2.51428E-04 1.13060E-01 3.28778E-14-2.07406E-13
 -1      3443 2.00302E+01 1.42801E-03-4.32585E-04 1.17793E-01-8.18605E-14-1.40550E-13
 -1      3444 2.00284E+01 1.71842E-02 5.88215E-04 1.20518E-01-5.92350E-14-1.71907E-13
 -1      3445 2.00461E+01-4.74875E-03-1.46465E-04 1.11931E-01-8.51735E-14-1.76306E-13
 -1      3446 2.00176E+01 3.35867E-02-5.58381E-04 1.24962E-01-3.81846E-14-1.80685E-13
 -1      3447 2.00163E+01 5.21048E-02 6.33686E-04 1.32195E-01-6.77710E-14-2.00262E-13
 -1      3448 2.00270E+01 2.97037E-02-3.49256E-05 1.17391E-01-6.12145E-14-1.71064E-13
 -1      3449 2.00045E+01 7.11745E-02-6.97812E-04 1.41294E-01-1.50617E-13-2.02572E-13
 -1      3450 2.00032E+01 9.25275E-02 6.92033E-04 1.53870E-01-1.50138E-13-2.11174E-13
 -1      3451 2.00070E+01 7.03241E-02 8.51764E-05 1.31095E-01-1.18463E-13-1.27033E-13
 -1      3452 1.99896E+01 1.14332E-01-8.56114E-04 1.68450E-01-9.78808E-14-2.03486E-13
 -1      3453 1.99880E+01 1.38575E-01 7.66373E-04 1.87202E-01-4.13393E-14-1.69141E-13
 -1      3454 1.99847E+01 1.17217E-01 2.15671E-04 1.54663E-01-9.06689E-14-1.29129E-13
 -1      3455 1.99717E+01 1.63080E-01-1.03473E-03 2.08131E-01-5.94097E-14-1.67241E-13
 -1      3456 1.99695E+01 1.90083E-01 8.59081E-04 2.33888E-01-6.44734E-14-1.50565E-13
 -1      3457 1.99581E+01 1.70455E-01 3.56791E-04 1.89764E-01-6.71219E-14-1.08508E-13
 -1      3458 1.99494E+01 2.16968E-01-1.23024E-03 2.62079E-01 6.80796E-15-2.20462E-13
 -1      3459 1.99464E+01 2.46197E-01 9.73278E-04 2.95630E-01 9.62980E-14-2.16405E-13
 -1      3460 1.99255E+01 2.29714E-01 5.05178E-04 2.38147E-01-2.16645E-14-2.19174E-13
 -1      3461 1.99218E+01 2.74610E-01-1.43256E-03 3.32026E-01 1.41205E-13-1.89946E-13
 -1      3462 1.99180E+01 3.04843E-01 1.11522E-03 3.74045E-01 1.94573E-13-2.21233E-13
 -1      3463 1.98851E+01 2.93806E-01 6.50951E-04 3.01639E-01 1.24399E-13-1.32046E-13
 -1      3464 1.98883E+01 3.33076E-01-1.62239E-03 4.19585E-01 1.81824E-13-2.32290E-13
 -1      3465 1.98841E+01 3.62034E-01 1.29810E-03 4.70528E-01 7.38739E-14-1.71131E-13
 -1      3466 1.98355E+01 3.60089E-01 7.73279E-04 3.82122E-01 1.51725E-13-1.75494E-13
 -1      3467 1.98495E+01 3.87108E-01-1.76708E-03 5.26109E-01-5.52647E-14-1.75426E-13
 -1      3468 1.98461E+01 4.10975E-01 1.54740E-03 5.86067E-01-9.51072E-14-1.34111E-13
 -1      3469 1.97762E+01 4.23682E-01 8.33641E-04 4.81489E-01 3.50732E-14-2.53269E-13
 -1      3470 1.98078E+01 4.28103E-01-1.81378E-03 6.52502E-01-6.80619E-14 1.50234E-15
 -1      3471 1.98079E+01 4.40932E-01 1.90720E-03 7.21022E-01 2.35192E-14-8.26921E-15
 -1      3472 1.97080E+01 4.76487E-01 7.65516E-04 6.01632E-01-2.17515E-15-7.72471E-14
 -1      3473 1.97688E+01 4.42886E-01-1.67721E-03 7.98989E-01 1.46223E-14-9.70055E-14
 -1      3474 1.97774E+01 4.35916E-01 2.44331E-03 8.74825E-01 8.96437E-14-9.42021E-14
 -1      3475 1.96347E+01 5.05954E-01 4.58295E-04 7.44459E-01 6.80669E-16-4.18245E-14
 -1      3476 1.97439E+01 4.12351E-01-1.21664E-03 9.64766E-01 1.99634E-13-1.43587E-13
 -1      3477 1.97696E+01 3.73319E-01 3.23462E-03 1.04548E+00 2.10273E-13-1.73001E-13
 -1      3478 1.95645E+01 4.93639E-01-2.67817E-04 9.11920E-01 9.43072E-14-1.78795E-13
 -1      3479 1.97528E+01 3.10245E-01-1.92047E-04 1.14725E+00 1.65205E-13-1.92444E-13
 -1      3480 1.98096E+01 2.22955E-01 4.33804E-03 1.22841E+00 1.99315E-13-1.31953E-13
 -1      3481 1.95132E+01 4.13656E-01-1.69706E-03 1.10585E+00 1.86045E-13-1.84128E-13
 -1      3482 1.98287E+01 1.02781E-01 1.82714E-03 1.34025E+00 2.20359E-13-1.24353E-13
 -1      3483 1.99374E+01-5.25161E-02 5.68722E-03 1.41380E+00 1.93031E-13-7.52002E-14
 -1      3484 1.95084E+01 2.31397E-01-4.25283E-03 1.32704E+00 2.47294E-13-1.19199E-13
 -1      3485 2.00238E+01-2.49366E-01 5.60132E-03 1.52941E+00 4.69523E-14-1.38786E-13
 -1      3486 2.02129E+01-4.93242E-01 6.81805E-03 1.58021E+00-4.83477E-14-1.85567E-13
 -1      3487 1.95961E+01-9.66824E-02-8.50951E-03 1.57209E+00 1.02129E-13-1.66823E-13
 -1      3488 2.04148E+01-7.82602E-01 1.20792E-02 1.68214E+00-5.69119E-14-1.21017E-13
 -1      3489 2.07186E+01-1.12785E+00 6.78538E-03 1.68176E+00-5.21306E-15-5.39796E-14
 -1      3490 1.98487E+01-6.18415E-01-1.50825E-02 1.82446E+00-2.00751E-15-1.95997E-13
 -1      3491 2.11044E+01-1.51112E+00 2.15736E-02 1.72869E+00-5.22978E-14-1.14104E-13
 -1      3492 2.15490E+01-1.93740E+00 3.00327E-03 1.62615E+00-5.68083E-14-1.22975E-13
 -1      3493 2.03710E+01-1.37228E+00-2.58333E-02 2.03496E+00-6.91645E-14-1.87208E-13
 -1      3494 2.21943E+01-2.35329E+00 3.50232E-02 1.52384E+00 8.03116E-14-2.68999E-14
 -1      3495 2.27489E+01-2.77536E+00-1.55253E-02 1.25349E+00 1.36645E-13 3.23047E-14
 -1      3496 2.13261E+01-2.34475E+00-3.74229E-02 2.08580E+00 6.85322E-14-1.22735E-13
 -1      3497 2.52842E+01 2.84968E-01-1.57180E-02-2.42023E+00-1.16226E-13 1.51041E-13
 -1      3498 2.58819E+01-2.59188E+00-4.93499E-02 3.55048E-01-2.38676E-14 7.62728E-13
 -1      3499 2.61014E+01-6.87940E-01-7.21713E-02-2.15391E+00-9.18120E-14 1.82562E-13
 -1      3500 2.51843E+01-3.49037E+00-2.09840E-02-9.42402E-01-2.52041E-13 4.83848E-13
 -1      3501 2.02357E+01 3.20452E-01-2.03532E-03 1.67097E-02 1.07994E-13-2.09560E-13
 -1      3502 2.02652E+01 4.29947E-01 2.87303E-03 9.07412E-02 1.31005E-13-2.26308E-13
 -1      3503 2.01021E+01-4.11115E-02 1.04551E-04-1.65204E-01 1.84562E-14-1.29102E-13
 -1      3504 2.01133E+01-2.58161E-02 7.78593E-04-1.63965E-01 5.79459E-14-1.47888E-13
 -1      3505 2.02187E+01 1.58121E+00 1.55730E-03-7.00140E-01-2.64436E-13-3.30528E-13
 -1      3506 2.00384E+01-3.73419E-02 5.28672E-04-1.26701E-01-1.30980E-14-1.44667E-13
 -1      3507 2.00392E+01-4.57915E-02-2.00012E-04-1.31244E-01 3.77177E-15-1.39504E-13
 -1      3508 2.00487E+01-5.22025E-02 4.76483E-04-1.36538E-01 1.49885E-14-1.38016E-13
 -1      3509 2.00511E+01-5.71228E-02-5.08193E-05-1.42549E-01-7.37839E-15-7.74949E-14
 -1      3510 2.00707E+01-5.38092E-02-3.56660E-04-1.29061E-01 1.05711E-14-1.08154E-13
 -1      3511 2.00245E+01 9.62402E-03 6.24038E-04-1.23145E-01-4.15308E-14-2.05619E-13
 -1      3512 2.00229E+01-4.44586E-03-4.36203E-04-1.21314E-01-1.34480E-14-1.76501E-13
 -1      3513 2.00191E+01 4.11672E-02 6.84211E-04-1.33315E-01-5.56218E-14-1.27892E-13
 -1      3514 2.00168E+01 2.43070E-02-5.55793E-04-1.26852E-01-5.06252E-14-1.71956E-13
 -1      3515 2.00268E+01 2.05371E-02-7.46735E-05-1.22537E-01-7.78314E-14-1.88262E-13
 -1      3516 2.00135E+01 7.85942E-02 7.58612E-04-1.53863E-01-5.36520E-14-1.33227E-13
 -1      3517 2.00108E+01 5.86373E-02-6.93757E-04-1.41833E-01-4.63276E-14-1.32175E-13
 -1      3518 2.00134E+01 5.79851E-02 3.38256E-05-1.35069E-01-4.43483E-14-1.31136E-13
 -1      3519 2.00064E+01 1.22716E-01 8.47895E-04-1.86647E-01-2.56589E-14-1.63173E-13
 -1      3520 2.00036E+01 9.92158E-02-8.61181E-04-1.68072E-01-3.70652E-14-1.58706E-13
 -1      3521 1.99982E+01 1.02345E-01 1.62704E-04-1.57895E-01-3.91900E-14-2.02539E-13
 -1      3522 1.99963E+01 1.74482E-01 9.49916E-04-2.33646E-01-4.60687E-14-9.48250E-14
 -1      3523 1.99937E+01 1.46944E-01-1.06772E-03-2.07481E-01-3.01777E-14-1.05944E-13
 -1      3524 1.99791E+01 1.54527E-01 3.22744E-04-1.92781E-01-5.47743E-14-2.16151E-13
 -1      3525 1.99812E+01 2.34763E-01 1.06020E-03-2.96948E-01 3.22374E-14 2.43013E-15
 -1      3526 1.99795E+01 2.02762E-01-1.32166E-03-2.62096E-01 1.67547E-14-1.52734E-14
 -1      3527 1.99540E+01 2.15538E-01 5.26747E-04-2.41565E-01-8.47127E-14-1.91391E-13
 -1      3528 1.99587E+01 3.04035E-01 1.17342E-03-3.78692E-01 2.85246E-14-3.39738E-14
 -1      3529 1.99587E+01 2.67392E-01-1.62955E-03-3.34045E-01 9.66523E-14-1.81833E-14
 -1      3530 1.99197E+01 2.86211E-01 7.88946E-04-3.06138E-01 6.87194E-14-1.60732E-13
 -1      3531 1.99257E+01 3.81899E-01 1.28697E-03-4.80955E-01 9.79676E-15-1.50596E-14
 -1      3532 1.99283E+01 3.40945E-01-1.99542E-03-4.25477E-01-8.24295E-15-4.67610E-14
 -1      3533 1.98728E+01 3.66829E-01 1.12335E-03-3.88393E-01 1.99283E-14-1.80389E-13
 -1      3534 1.98786E+01 4.66335E-01 1.40887E-03-6.05617E-01 7.15839E-14-1.38800E-13
 -1      3535 1.98852E+01 4.22327E-01-2.41935E-03-5.38445E-01 2.36682E-14-8.99795E-14
 -1      3536 1.98089E+01 4.56560E-01 1.54001E-03-4.90152E-01 6.19014E-14-1.81804E-13
 -1      3537 1.98139E+01 5.52526E-01 1.57283E-03-7.54260E-01 6.90744E-14-1.24764E-13
 -1      3538 1.98253E+01 5.08294E-01-2.89500E-03-6.74809E-01 1.03378E-13-8.59017E-14
 -1      3539 1.97230E+01 5.52604E-01 2.03755E-03-6.13150E-01 2.02516E-14-2.12157E-13
 -1      3540 1.97286E+01 6.31058E-01 1.86429E-03-9.28202E-01-5.25569E-14-3.39436E-13
 -1      3541 1.97451E+01 5.91991E-01-3.40453E-03-8.36241E-01 7.75616E-14-1.59723E-13
 -1      3542 1.96098E+01 6.48896E-01 2.58927E-03-7.59188E-01 1.01943E-13-1.93996E-13
 -1      3543 1.96227E+01 6.85221E-01 2.45985E-03-1.12885E+00-1.29818E-13-3.02076E-13
 -1      3544 1.96424E+01 6.60727E-01-3.90715E-03-1.02446E+00-1.26308E-13-3.10662E-13
 -1      3545 1.94643E+01 7.34155E-01 3.11838E-03-9.30665E-01-4.13146E-14-2.57673E-13
 -1      3546 1.95028E+01 6.87229E-01 3.68603E-03-1.35849E+00-7.88590E-14-3.52491E-13
 -1      3547 1.95191E+01 6.92748E-01-4.31302E-03-1.24193E+00-1.00284E-13-2.95406E-13
 -1      3548 1.92839E+01 7.89044E-01 3.45641E-03-1.13177E+00-1.03883E-13-4.04168E-13
 -1      3549 1.93891E+01 5.93237E-01 6.05201E-03-1.62167E+00 4.07907E-15-4.77668E-13
 -1      3550 1.93862E+01 6.52891E-01-4.41383E-03-1.49309E+00-3.24550E-14-4.20400E-13
 -1      3551 1.90718E+01 7.82256E-01 3.28489E-03-1.37068E+00-5.10450E-14-3.57394E-13
 -1      3552 1.93270E+01 3.37807E-01 1.03677E-02-1.92581E+00 2.16852E-14-4.04658E-13
 -1      3553 1.92730E+01 4.87200E-01-3.69109E-03-1.78590E+00 3.10410E-14-4.36913E-13
 -1      3554 1.88432E+01 6.64971E-01 2.00620E-03-1.66291E+00-3.68681E-14-3.78408E-13
 -1      3555 1.94045E+01-1.74341E-01 1.59156E-02-2.27894E+00-8.67373E-14-3.42593E-13
 -1      3556 1.92429E+01 1.17357E-01-9.32642E-04-2.13228E+00-1.75027E-14-3.70274E-13
 -1      3557 1.86366E+01 3.64587E-01-1.35673E-03-2.03457E+00-1.35885E-14-3.59669E-13
 -1      3558 1.98021E+01-1.06318E+00 2.05165E-02-2.66603E+00-2.18570E-13-2.60279E-13
 -1      3559 1.94244E+01-5.50965E-01 1.08798E-02-2.53618E+00-1.38813E-13-2.56869E-13
 -1      3560 1.85398E+01-2.29941E-01-8.98537E-03-2.52367E+00-1.47402E-13-3.90472E-13
 -1      3561 2.07460E+01-2.77288E+00 1.51695E-02-3.20428E+00-1.18502E-13-3.41227E-13
 -1      3562 2.00649E+01-2.00399E+00 1.86500E-02-3.10371E+00-1.49006E-13-3.08543E-13
 -1      3563 2.19388E+01-3.61552E+00-1.33783E-02-3.08497E+00-1.19453E-13-4.39965E-13
 -1      3564 2.15847E+01-3.74841E+00 4.80416E-02 4.21478E+00-2.55178E-13-1.98402E-13
 -1      3565 1.93051E+01 3.97483E-01-1.69402E-02 2.95790E+00 4.59161E-13-6.75146E-14
 -1      3566 1.98396E+01 2.20002E-01 8.63285E-03 2.94576E+00 3.09013E-13-6.03512E-14
 -1      3567 1.99537E+01-1.24355E-01 8.34441E-03 3.07973E+00 3.90361E-13-7.33249E-14
 -1      3568 1.87855E+01 1.26240E-01-9.43146E-03 3.18239E+00 2.43569E-13-1.99310E-13
 -1      3569 2.46072E+01-3.66213E+00-7.72542E-02 7.68429E-01 1.09990E-13-9.54020E-14
 -1      3570 2.34850E+01-3.81923E+00 9.16854E-02 2.15625E+00 2.98542E-14-1.39249E-13
 -1      3571 1.68406E+01 2.78345E-01 6.30475E-02-2.96941E+00-5.27627E-13 2.09478E-13
 -1      3572 1.58293E+01 5.72973E-01-2.46237E-02-2.35094E+00-3.79969E-13-6.63126E-13
 -1      3573 2.02568E+01 1.36576E+00 2.25185E-03-5.39146E-01-2.32868E-13-3.21331E-13
 -1      3574 1.68124E+01-2.47178E+00-4.08374E-02 4.61385E+00-1.73545E-13-6.62803E-14
 -1      3575 1.44421E+01-1.30613E+00 9.11619E-02 4.26177E+00-2.30076E-13 2.06835E-13
 -1      3576 2.00306E+01-1.65345E-02 5.74522E-04-1.21554E-01 7.04987E-15-1.96108E-13
 -1      3577 2.00300E+01-2.79009E-02-3.22389E-04-1.23419E-01-2.33048E-16-1.67135E-13
 -1      3578 2.00542E+01-3.55711E-02-2.63632E-04-1.21403E-01 4.73731E-15-1.74240E-13
 -1      3579 2.00400E+01-1.06074E-02-1.71474E-04-1.18573E-01 3.62276E-18-1.54831E-13
 -1      3580 2.33881E+01-2.91218E+00 1.02353E-03-1.78019E+00-1.37869E-13 2.62038E-13
 -1      3581 2.27661E+01-2.46054E+00 3.14641E-02-2.11161E+00-8.72453E-14 2.80159E-13
 -1      3582 2.12808E+01-3.86841E+00-9.52616E-02 3.47823E+00 5.49838E-14-2.45444E-13
 -1      3583 1.95361E+01-3.08940E+00 1.21157E-01 4.21097E+00-4.84404E-14-2.44936E-13
 -1      3584 2.07139E+01-2.83054E+00 6.86274E-02 4.21391E+00-6.12349E-14-1.81574E-13
 -1      3585 2.03134E+01 7.34358E-01 1.46879E-03-2.43093E-01-1.77823E-13-3.03035E-13
 -1      3586 2.02965E+01 5.72429E-01-2.83977E-03-1.42425E-01-1.70713E-13-2.72003E-13
 -1      3587 2.03326E+01 5.76601E-01 3.58808E-04-1.16051E-01-1.76193E-13-2.63910E-13
 -1      3588 1.75393E+01-2.48175E+00 5.44326E-02 5.01552E+00-1.14235E-13-2.18311E-13
 -1      3589 1.56335E+01-1.89017E+00 1.38068E-01 5.11174E+00-3.38413E-13-3.11612E-13
 -1      3590 1.49694E+01-1.08264E+00 7.51223E-02 4.31387E+00-2.03948E-13-5.04936E-13
 -1      3591 2.00322E+01 2.20132E+00-3.14019E-03-1.62828E-01-7.33197E-14-4.41876E-13
 -1      3592 2.00441E+01 2.16432E+00-4.21134E-03-2.85217E-01-1.20400E-13-4.12596E-13
 -1      3593 2.01578E+01 1.85040E+00 4.08452E-03-2.82835E-01-1.27550E-13-3.78898E-13
 -1      3594 1.12787E+01 5.60238E-01 7.36277E-02-4.28586E-01 3.42931E-13-4.72414E-13
 -1      3595 1.21113E+01 1.68378E-01 1.48340E-02-2.13471E+00 3.46449E-13-6.13648E-13
 -1      3596 2.58095E+01-2.29487E+00-5.85333E-03-1.00629E+00-2.60295E-14 6.36869E-14
 -1      3597 1.62372E+01-2.50174E+00 1.52604E-01-5.47153E+00 5.59067E-14 4.15633E-13
 -1      3598 1.87714E+01-3.53202E+00 8.54886E-03-5.41047E+00 1.26496E-14 2.87645E-13
 -1      3599 2.45192E+01-3.56152E+00 8.31613E-03-1.54496E+00-2.34770E-13 2.99284E-13
 -1      3600 1.36493E+01-4.14876E-01 7.78478E-02-3.18418E+00 2.33731E-13-6.50618E-13
 -1      3601 1.52153E+01-1.25022E+00 2.14049E-02-3.93884E+00 1.62384E-13-6.55712E-13
 -1      3602 2.08520E+01-1.90061E+00 3.47239E-02 3.56804E+00-2.87634E-14-1.68665E-13
 -1      3603 1.91463E+01-2.43760E+00 1.34522E-03 4.65494E+00-1.42379E-13-3.06411E-13
 -1      3604 1.80657E+01-1.49100E+00 3.40364E-02 4.32822E+00-1.30527E-13-2.77001E-13
 -1      3605 2.02585E+01-1.15449E+00 3.03876E-02 3.49883E+00 7.26091E-14-7.14819E-14
 -1      3606 2.52914E+01-3.00621E+00 9.65691E-03-3.41682E-01 1.60717E-13 2.92891E-14
 -1      3607 2.37302E+01-3.75547E+00-1.61732E-02-2.53199E+00-2.19047E-13 3.91312E-13
 -1      3608 2.42656E+01-3.07227E+00-2.15235E-02 2.75826E-01 1.58003E-13 8.26218E-14
 -1      3609 1.35979E+01-6.75172E-01 5.65427E-02 3.71241E+00-9.21277E-14 2.00152E-14
 -1      3610 1.29770E+01 6.90061E-03 4.10749E-02 2.71024E+00 1.55919E-13-1.65742E-13
 -1      3611 1.53035E+01-7.72588E-01 4.12686E-02 3.47065E+00-1.78523E-13-6.10761E-14
 -1      3612 1.16043E+01 9.04289E-02 1.47041E-01 2.11740E+00-2.79228E-13-1.48837E-12
 -1      3613 1.16023E+01 3.07873E-01 9.78736E-02 1.05012E+00-3.37026E-13-1.16859E-12
 -1      3614 1.28428E+01-1.54865E-01 5.14336E-02 2.93262E+00-2.86500E-13-1.38131E-12
 -1      3615 2.02618E+01 5.34599E-01-2.27875E-03 1.59425E-01 1.39054E-13-2.52792E-13
 -1      3616 2.02809E+01 6.51534E-01-2.32381E-04 2.55236E-01 1.36698E-13-2.77010E-13
 -1      3617 2.03019E+01 5.47468E-01-2.32629E-05 1.32828E-01 1.13977E-13-2.80741E-13
 -1      3618 2.02030E+01 1.69526E+00 5.78240E-03 4.60311E-01 8.58698E-14-4.56807E-13
 -1      3619 2.02927E+01 1.11382E+00-1.18149E-03-4.43431E-01-2.22319E-13-3.06947E-13
 -1      3620 2.02945E+01 9.12454E-01-2.69328E-03-3.22691E-01-1.96035E-13-3.02562E-13
 -1      3621 2.03215E+01 9.15325E-01 1.74815E-03-2.68722E-01-1.82060E-13-2.91280E-13
 -1      3622 2.02621E+01 1.35132E+00 2.24023E-03-4.40599E-01-1.99313E-13-3.09543E-13
 -1      3623 2.37038E+01-2.94283E+00 5.61630E-02 7.81815E-01 2.40936E-14 4.55491E-14
 -1      3624 1.93495E+01-2.87437E+00-1.71218E-02-4.70637E+00-7.64909E-14 1.30000E-13
 -1      3625 2.07336E+01-3.76722E+00 8.21786E-02-4.85054E+00-4.77049E-14 1.13586E-13
 -1      3626 2.21458E+01-3.77059E+00 1.58388E-02-3.87648E+00-9.42996E-14 2.13150E-13
 -1      3627 2.00873E+01-5.10924E-02 4.14464E-04-1.63343E-01 1.15220E-15-1.14709E-13
 -1      3628 2.01419E+01-4.75746E-02-6.38630E-04-1.53788E-01 1.46716E-14-1.07091E-13
 -1      3629 2.00798E+01-5.72807E-02 2.88166E-04-1.59581E-01-1.97063E-14-1.08733E-13
 -1      3630 2.02250E+01 2.33571E-01 2.53560E-03-3.52323E-02 9.62438E-14-2.01414E-13
 -1      3631 2.02828E+01 3.27891E-01-5.23958E-04 8.03235E-03 9.48930E-14-2.40380E-13
 -1      3632 2.01984E+01 1.60899E-01-1.28077E-03-8.03004E-02 7.04701E-14-1.89553E-13
 -1      3633 2.01743E+01-1.11067E-02-7.13094E-04-1.48822E-01 1.71194E-14-2.35581E-13
 -1      3634 2.01295E+01-5.44705E-03-1.87327E-04-1.59563E-01 6.24112E-14-2.11388E-13
 -1      3635 2.01452E+01 2.28046E-02 1.26427E-03-1.49456E-01 6.28350E-14-1.99652E-13
 -1      3636 2.23204E+01-2.07580E+00 3.02475E-03-2.11047E+00-1.60336E-14 1.96049E-13
 -1      3637 2.18924E+01-1.61855E+00 1.43644E-02-2.20762E+00-2.70052E-14 1.44122E-13
 -1      3638 2.16498E+01-1.59115E+00 4.56254E-03-2.47335E+00-3.02412E-13-1.09667E-13
 -1      3639 2.23249E+01-2.50721E+00-5.46206E-03-2.59101E+00-6.24761E-14 3.09129E-13
 -1      3640 2.00903E+01-6.38724E-02-4.50653E-04-1.39196E-01 1.52632E-14-7.43730E-14
 -1      3641 2.00623E+01-5.96839E-02 4.03024E-04-1.48577E-01 4.12673E-15-7.80925E-14
 -1      3642 2.00669E+01-5.99438E-02 1.46405E-04-1.54504E-01 1.86751E-14-1.10020E-13
 -1      3643 1.86916E+01-1.56624E+00-1.53843E-02-3.35714E+00-8.52009E-14-4.01873E-13
 -1      3644 1.70565E+01-1.52608E+00 5.69646E-02-3.72872E+00 1.06181E-13-5.46008E-13
 -1      3645 2.01380E+01 1.92271E+00 4.38003E-03-9.36355E-02-5.17195E-14-4.14891E-13
 -1      3646 1.62901E+01 3.94255E-01-3.49710E-02 2.84244E+00 2.28416E-13-4.40686E-13
 -1      3647 1.74113E+01 1.02053E-01 5.38938E-02 3.35053E+00 2.05117E-13-5.31232E-13
 -1      3648 2.01617E+01-4.92389E-01 1.23543E-02 3.16004E+00 4.45676E-13 1.22715E-13
 -1      3649 2.02776E+01 1.14083E+00-5.18011E-03 4.94261E-01 1.43112E-13-3.51238E-13
 -1      3650 2.02670E+01 1.28626E+00 1.48986E-04 4.55247E-01 9.74104E-14-3.79309E-13
 -1      3651 1.55833E+01-1.72207E+00 3.81593E-02-4.74496E+00-1.55223E-14 1.78912E-13
 -1      3652 1.51087E+01 1.04255E+00 2.98368E-02-1.28330E+00-4.37754E-13-8.46819E-13
 -1      3653 1.47641E+01 1.15398E+00-1.40600E-03-3.01695E-01-2.65690E-13-6.90297E-13
 -1      3654 1.47835E+01 5.16390E-01 4.07327E-02-2.11211E+00-3.29750E-13-7.49959E-13
 -1      3655 1.79281E+01-3.99430E-01-3.24699E-02-3.39699E+00-5.25515E-13 4.78064E-13
 -1      3656 1.69748E+01-5.75081E-01-1.27355E-02-3.61135E+00-4.45494E-13 2.94660E-13
 -1      3657 1.90826E+01-7.29635E-01 5.12354E-02-3.53759E+00-4.32162E-13 1.49274E-13
 -1      3658 2.27871E+01-3.25551E+00-5.90202E-02 1.67548E+00 9.77812E-14-6.21577E-14
 -1      3659 1.82988E+01-2.27442E+00 3.82135E-02 3.93054E+00-1.57622E-13-1.61149E-13
 -1      3660 2.02234E+01 1.54663E+00-4.28901E-03 2.85410E-01 6.78462E-14-4.74579E-13
 -1      3661 2.02129E+01 1.60566E+00-2.11468E-03 2.01896E-01 4.29983E-14-4.47137E-13
 -1      3662 2.22636E+01-3.34806E+00 2.55958E-02 2.41624E+00 3.73139E-14-1.75281E-14
 -1      3663 2.02872E+01 1.38512E+00 4.88420E-03 1.34237E-01 2.35151E-14-4.06507E-13
 -1      3664 2.02051E+01 1.63893E+00-3.09110E-03 1.30572E-01 2.25665E-14-4.23681E-13
 -1      3665 2.02000E+01 1.65801E+00-2.82310E-03 3.97814E-02-5.16040E-15-4.30531E-13
 -1      3666 2.67567E+01-1.08436E+00 5.69790E-02 1.28438E+00-2.39052E-13 1.13141E-12
 -1      3667 1.94558E+01-7.18453E-01 8.12942E-03 3.57371E+00 1.34203E-13 9.83957E-15
 -1      3668 1.15419E+01 6.33889E-01 8.09020E-02 3.67317E-01 3.03337E-13-4.53304E-13
 -1      3669 1.28473E+01 8.12357E-01 5.91886E-02-2.54458E-01 3.37714E-13-4.50794E-13
 -1      3670 1.20795E+01 4.67928E-01 7.07626E-03 1.41076E+00 3.15700E-13-3.19134E-13
 -1      3671 1.38371E+01 1.91603E-01 6.09112E-02-2.26106E+00 2.07553E-13-5.69666E-13
 -1      3672 1.15405E+01 8.21289E-04 1.52147E-01-2.39526E+00-2.10408E-13-9.35654E-13
 -1      3673 1.29460E+01-3.62799E-01 6.30527E-02-3.12173E+00-1.97630E-13-7.45154E-13
 -1      3674 1.16140E+01 2.56728E-01 1.02861E-01-1.24913E+00-3.52145E-13-9.61453E-13
 -1      3675 2.02330E+01 1.52507E+00 3.46296E-04-3.19721E-01-1.51823E-13-3.29812E-13
 -1      3676 2.02471E+01 1.42845E+00-3.29822E-03-3.88217E-01-1.89561E-13-3.20499E-13
 -1      3677 2.02964E+01 1.19615E+00 1.17291E-03-3.04866E-01-1.76249E-13-3.13872E-13
 -1      3678 2.13572E+01-1.48941E+00 5.31031E-03-2.68835E+00-3.13473E-13-1.10674E-13
 -1      3679 2.14168E+01-2.00194E+00-1.02258E-02-2.96471E+00-2.75599E-13 1.58970E-13
 -1      3680 2.09015E+01-1.39269E+00 2.40895E-02-3.07468E+00-4.73161E-13 3.89827E-14
 -1      3681 2.01193E+01-1.18572E+00-8.68991E-03-3.31171E+00-4.50153E-13 1.22891E-14
 -1      3682 2.18538E+01-2.44975E+00 1.33317E-02-3.00890E+00-2.15316E-13 2.82903E-13
 -1      3683 2.03591E+01 4.16289E-01 1.42313E-03-3.02649E-02-1.25436E-13-2.04045E-13
 -1      3684 2.03431E+01 3.06090E-01-1.71738E-03 1.78328E-02-1.09534E-13-1.82519E-13
 -1      3685 2.03363E+01 2.17079E-01 1.33503E-03 4.70455E-02-1.38594E-13-1.64155E-13
 -1      3686 2.03157E+01 1.42858E-01-1.03775E-03 7.64580E-02-1.21376E-13-1.63051E-13
 -1      3687 2.03711E+01 2.95228E-01 2.92485E-04 2.10783E-02-1.14353E-13-1.48409E-13
 -1      3688 2.03006E+01 8.45217E-02 1.05519E-03 9.28284E-02-7.01757E-14-1.62470E-13
 -1      3689 2.02792E+01 3.71325E-02-5.01970E-04 1.08525E-01-4.42722E-14-1.68433E-13
 -1      3690 2.03425E+01 1.33120E-01-1.19955E-04 6.86712E-02-9.41076E-14-1.56182E-13
 -1      3691 2.02599E+01 1.25170E-03 7.71365E-04 1.15743E-01-4.05166E-14-1.64882E-13
 -1      3692 2.02397E+01-2.65698E-02-1.20255E-04 1.22086E-01-2.69407E-14-1.74124E-13
 -1      3693 2.03038E+01 2.84848E-02-3.68600E-04 9.45470E-02-3.08065E-14-1.42711E-13
 -1      3694 2.02190E+01-4.62409E-02 5.18954E-04 1.23325E-01-5.88202E-14-1.72023E-13
 -1      3695 2.02009E+01-5.99518E-02 1.34068E-04 1.23832E-01-8.18881E-14-2.16483E-13
 -1      3696 2.02614E+01-3.37543E-02-4.83246E-04 1.05311E-01-6.55461E-14-1.83018E-13
 -1      3697 2.01806E+01-6.79771E-02 3.03966E-04 1.21634E-01-8.19104E-14-1.90959E-13
 -1      3698 2.01649E+01-7.15594E-02 2.91443E-04 1.19041E-01-7.76718E-14-2.09483E-13
 -1      3699 2.02193E+01-6.52086E-02-5.14943E-04 1.06489E-01-8.73517E-14-1.53361E-13
 -1      3700 2.01456E+01-7.12336E-02 1.23590E-04 1.15365E-01-6.71602E-14-2.14390E-13
 -1      3701 2.01322E+01-6.75047E-02 3.80645E-04 1.11725E-01-5.48834E-14-1.94589E-13
 -1      3702 2.01796E+01-7.44074E-02-4.81352E-04 1.02505E-01-7.04682E-14-1.01517E-13
 -1      3703 2.01143E+01-6.10841E-02-3.11446E-05 1.08039E-01-5.31539E-14-1.75197E-13
 -1      3704 2.01029E+01-5.19177E-02 4.28892E-04 1.04898E-01-1.43461E-15-1.45572E-13
 -1      3705 2.01431E+01-6.74889E-02-4.06763E-04 9.67257E-02-5.91001E-14-1.19078E-13
 -1      3706 2.00861E+01-4.08468E-02-1.70198E-04 1.02331E-01 2.91871E-14-1.43620E-13
 -1      3707 2.00761E+01-2.73918E-02 4.52892E-04 1.00888E-01 2.75288E-14-1.33741E-13
 -1      3708 2.01096E+01-4.85608E-02-3.04798E-04 9.17166E-02 2.96449E-14-6.60699E-14
 -1      3709 2.00600E+01-1.25078E-02-3.04830E-04 1.00343E-01-3.82474E-14-1.70191E-13
 -1      3710 2.00509E+01 4.62569E-03 4.63729E-04 1.01570E-01-1.02026E-13-1.42600E-13
 -1      3711 2.00783E+01-2.01584E-02-1.81091E-04 8.94935E-02-1.50356E-14-1.34361E-13
 -1      3712 2.00345E+01 2.29302E-02-4.45653E-04 1.03816E-01-6.31861E-14-1.01397E-13
 -1      3713 2.00255E+01 4.35170E-02 4.70562E-04 1.08558E-01-5.14739E-14-8.53715E-14
 -1      3714 2.00478E+01 1.63421E-02-3.75278E-05 9.17115E-02-5.02289E-14-1.56527E-13
 -1      3715 2.00080E+01 6.51530E-02-6.01601E-04 1.14309E-01-7.22123E-14-8.87739E-14
 -1      3716 1.99983E+01 8.92107E-02 4.80269E-04 1.23357E-01-9.98610E-14-4.92666E-14
 -1      3717 2.00163E+01 6.03948E-02 1.24997E-04 9.98232E-02-6.59815E-14-9.29362E-14
 -1      3718 1.99784E+01 1.14247E-01-7.79380E-04 1.33337E-01-1.09813E-13-1.72589E-14
 -1      3719 1.99672E+01 1.41883E-01 4.97966E-04 1.47486E-01-1.01914E-13-6.96414E-14
 -1      3720 1.99815E+01 1.11988E-01 3.07761E-04 1.15228E-01-7.08434E-14-4.47457E-14
 -1      3721 1.99435E+01 1.70390E-01-9.83854E-04 1.62476E-01-6.11380E-14-1.45122E-14
 -1      3722 1.99299E+01 2.01628E-01 5.28464E-04 1.82546E-01-5.66929E-14-4.22592E-14
 -1      3723 1.99410E+01 1.71313E-01 5.12084E-04 1.39378E-01-6.48254E-14 2.78163E-14
 -1      3724 1.99009E+01 2.33490E-01-1.21765E-03 2.03420E-01-6.05396E-14-6.49783E-14
 -1      3725 1.98841E+01 2.68070E-01 5.78143E-04 2.30273E-01 5.40267E-14-6.81243E-14
 -1      3726 1.98920E+01 2.38406E-01 7.37604E-04 1.73862E-01-4.93881E-14 1.06695E-13
 -1      3727 1.98483E+01 3.02756E-01-1.48065E-03 2.58022E-01 9.96902E-14-5.19751E-14
 -1      3728 1.98274E+01 3.39870E-01 6.57662E-04 2.92558E-01 1.39462E-13-5.07545E-14
 -1      3729 1.98314E+01 3.12721E-01 9.80274E-04 2.20474E-01 8.27620E-14 5.67223E-14
 -1      3730 1.97834E+01 3.76146E-01-1.76943E-03 3.28332E-01 1.56953E-13-8.42040E-14
 -1      3731 1.97580E+01 4.14113E-01 7.86103E-04 3.71481E-01 1.33583E-13-9.60352E-14
 -1      3732 1.97565E+01 3.92602E-01 1.22969E-03 2.81291E-01 1.01995E-13-3.35110E-15
 -1      3733 1.97045E+01 4.49665E-01-2.07661E-03 4.16643E-01 4.58325E-14-1.48669E-13
 -1      3734 1.96746E+01 4.85521E-01 9.97332E-04 4.69371E-01-4.91733E-15-1.65370E-13
 -1      3735 1.96644E+01 4.74629E-01 1.46537E-03 3.58789E-01 3.78874E-14-4.65277E-14
 -1      3736 1.96110E+01 5.16485E-01-2.38946E-03 5.25599E-01 1.77658E-14-1.03918E-13
 -1      3737 1.95779E+01 5.45468E-01 1.34931E-03 5.88942E-01 4.62189E-14 3.84314E-15
 -1      3738 1.95532E+01 5.52800E-01 1.65130E-03 4.56034E-01 5.86235E-15 7.21924E-14
 -1      3739 1.95043E+01 5.65859E-01-2.68582E-03 6.58414E-01 3.15507E-14-6.47198E-14
 -1      3740 1.94711E+01 5.80791E-01 1.93619E-03 7.33547E-01 2.69168E-14-3.94630E-14
 -1      3741 1.94224E+01 6.17540E-01 1.72702E-03 5.77039E-01 5.84598E-14 4.57101E-14
 -1      3742 1.93896E+01 5.81812E-01-2.92226E-03 8.19225E-01 2.70793E-16-2.13197E-14
 -1      3743 1.93624E+01 5.72359E-01 2.89913E-03 9.07563E-01 7.25728E-14-2.58288E-14
 -1      3744 1.92738E+01 6.54476E-01 1.59064E-03 7.27334E-01 2.97381E-14 2.01418E-14
 -1      3745 1.92777E+01 5.41630E-01-3.00295E-03 1.01356E+00 1.31367E-13-1.28881E-13
 -1      3746 1.92677E+01 4.93471E-01 4.42851E-03 1.11673E+00 2.21482E-13-8.42371E-14
 -1      3747 1.91138E+01 6.42931E-01 1.06328E-03 9.14825E-01 2.54403E-14 3.07581E-14
 -1      3748 1.91897E+01 4.14247E-01-2.69801E-03 1.24854E+00 2.62076E-13-1.23646E-13
 -1      3749 1.92156E+01 3.08261E-01 6.78066E-03 1.36785E+00 2.53255E-13-1.33129E-13
 -1      3750 1.89558E+01 5.54036E-01-1.68184E-04 1.15076E+00 2.39384E-13-2.95242E-14
 -1      3751 1.91627E+01 1.58847E-01-1.39568E-03 1.53212E+00 1.80074E-13-2.61690E-13
 -1      3752 1.92546E+01-2.96978E-02 1.02733E-02 1.66649E+00 1.00864E-13-1.81249E-13
 -1      3753 1.88251E+01 3.48450E-01-2.57531E-03 1.45037E+00 1.69821E-13-1.29389E-13
 -1      3754 1.92615E+01-2.76463E-01 2.19519E-03 1.86818E+00 5.42433E-14-1.62172E-13
 -1      3755 1.94649E+01-5.75915E-01 1.51005E-02 2.00771E+00 4.82737E-14-6.39541E-14
 -1      3756 1.87690E+01-2.69766E-02-6.69235E-03 1.83158E+00 9.75246E-14-2.08933E-13
 -1      3757 1.95943E+01-9.49735E-01 1.00175E-02 2.24322E+00-2.83384E-14-7.48894E-14
 -1      3758 1.99914E+01-1.38095E+00 2.54848E-02 2.35205E+00-7.79982E-14-3.43250E-14
 -1      3759 1.88748E+01-6.36530E-01-1.15820E-02 2.30714E+00 1.62301E-14-2.64242E-14
 -1      3760 1.99836E+01 1.26424E-01 5.50831E-04-1.53595E-01-7.96346E-14-2.23760E-13
 -1      3761 1.99910E+01 9.97152E-02-7.84035E-04-1.39597E-01-5.16175E-14-2.26095E-13
 -1      3762 2.62795E+01-4.55189E+00-5.36907E-02 1.61099E+00-4.58244E-13-2.81015E-13
 -1      3763 2.00909E+01-5.31426E-02 4.57088E-04-1.16550E-01 2.23796E-14-1.22809E-13
 -1      3764 2.00997E+01-6.09937E-02-3.51794E-05-1.20542E-01 3.23881E-14-1.10638E-13
 -1      3765 2.47260E+01 4.21758E-01-1.07138E-01 1.82176E+00-3.00628E-13 4.78406E-13
 -1      3766 2.00080E+01 7.59203E-02 5.38480E-04-1.29879E-01-5.39071E-14-2.13518E-13
 -1      3767 2.00142E+01 5.32522E-02-6.05274E-04-1.21230E-01-6.01320E-14-2.27883E-13
 -1      3768 1.99936E+01 9.78045E-02 2.63895E-04-1.24480E-01-6.93142E-14-3.38207E-13
 -1      3769 2.00291E+01 3.31532E-02 5.25458E-04-1.15901E-01-6.53296E-14-2.02814E-13
 -1      3770 2.00349E+01 1.41233E-02-4.51607E-04-1.11768E-01-6.71378E-14-1.84320E-13
 -1      3771 2.00227E+01 4.87958E-02 8.15692E-05-1.09580E-01-3.12376E-14-2.52380E-13
 -1      3772 1.99532E+01 1.85631E-01 5.59688E-04-1.88613E-01-8.83535E-14-2.35470E-13
 -1      3773 1.99630E+01 1.54370E-01-9.96992E-04-1.68420E-01-5.02534E-14-2.32273E-13
 -1      3774 1.99593E+01 1.55527E-01 4.83910E-04-1.48407E-01-6.53911E-14-2.65823E-13
 -1      3775 1.99137E+01 2.54539E-01 5.59500E-04-2.36519E-01-3.97576E-14-3.10039E-13
 -1      3776 1.99271E+01 2.18230E-01-1.25247E-03-2.09273E-01-9.34816E-14-3.06721E-13
 -1      3777 1.99164E+01 2.22972E-01 7.53828E-04-1.82699E-01-4.21507E-14-3.04658E-13
 -1      3778 1.98614E+01 3.33879E-01 5.43308E-04-2.98885E-01 8.17926E-14-3.13126E-13
 -1      3779 1.98801E+01 2.92202E-01-1.55843E-03-2.63741E-01 5.42021E-14-3.10770E-13
 -1      3780 1.98611E+01 3.01100E-01 1.08840E-03-2.28658E-01 8.80853E-15-4.18905E-13
 -1      3781 1.97914E+01 4.23704E-01 5.05704E-04-3.77213E-01-2.62754E-14-2.21857E-13
 -1      3782 1.98175E+01 3.76738E-01-1.92331E-03-3.33378E-01 6.88065E-14-2.14764E-13
 -1      3783 1.97889E+01 3.90486E-01 1.50467E-03-2.87507E-01-1.27154E-14-2.44204E-13
 -1      3784 1.96985E+01 5.22807E-01 4.49006E-04-4.72887E-01 9.02948E-14-2.19173E-13
 -1      3785 1.97342E+01 4.71342E-01-2.35807E-03-4.19649E-01 8.74860E-15-2.25582E-13
 -1      3786 1.96939E+01 4.90868E-01 2.02140E-03-3.60348E-01 1.11286E-14-3.11687E-13
 -1      3787 1.95763E+01 6.27876E-01 3.95328E-04-5.87232E-01 3.08069E-14-1.97985E-13
 -1      3788 1.96243E+01 5.73869E-01-2.88017E-03-5.23940E-01 9.00763E-14-1.79036E-13
 -1      3789 1.95697E+01 6.00528E-01 2.65818E-03-4.48172E-01 3.85557E-14-2.51744E-13
 -1      3790 1.94180E+01 7.32278E-01 4.08981E-04-7.21837E-01 4.53623E-14-2.49761E-13
 -1      3791 1.94808E+01 6.79499E-01-3.52073E-03-6.47741E-01 5.29769E-14-2.27119E-13
 -1      3792 1.94084E+01 7.15458E-01 3.43430E-03-5.52056E-01 9.81626E-14-2.46104E-13
 -1      3793 1.92167E+01 8.24308E-01 6.33955E-04-8.79425E-01-1.36971E-14-3.54432E-13
 -1      3794 1.92962E+01 7.79264E-01-4.33394E-03-7.93236E-01 6.08841E-14-2.81724E-13
 -1      3795 1.92010E+01 8.28203E-01 4.36774E-03-6.73755E-01 7.91497E-14-3.33407E-13
 -1      3796 1.89674E+01 8.84678E-01 1.34084E-03-1.06564E+00-6.96374E-14-4.33727E-13
 -1      3797 1.90631E+01 8.57939E-01-5.40404E-03-9.64637E-01-6.07059E-14-3.81643E-13
 -1      3798 1.89374E+01 9.26280E-01 5.47196E-03-8.17080E-01 4.13489E-14-4.22886E-13
 -1      3799 1.86694E+01 8.83216E-01 3.06329E-03-1.29211E+00-9.11814E-14-4.24684E-13
 -1      3800 1.87760E+01 8.91059E-01-6.84818E-03-1.17062E+00-8.48187E-14-4.15054E-13
 -1      3801 1.86069E+01 9.89891E-01 6.74175E-03-9.90486E-01-9.10688E-14-4.71419E-13
 -1      3802 1.83322E+01 7.74354E-01 6.84286E-03-1.58149E+00-7.52928E-14-3.33830E-13
 -1      3803 1.84344E+01 8.41132E-01-8.78359E-03-1.42874E+00-9.63701E-14-3.61524E-13
 -1      3804 1.81988E+01 9.89526E-01 8.25175E-03-1.21150E+00-1.22051E-13-4.13644E-13
 -1      3805 1.79815E+01 4.88183E-01 1.26564E-02-1.97394E+00-1.83765E-14-2.30906E-13
 -1      3806 1.80502E+01 6.50516E-01-1.11521E-02-1.77222E+00 5.47067E-15-2.27709E-13
 -1      3807 1.77043E+01 8.81190E-01 1.01492E-02-1.51570E+00-1.04994E-13-2.52274E-13
 -1      3808 1.77303E+01-8.17790E-02 2.65751E-02-2.51441E+00-1.20576E-13-3.04431E-13
 -1      3809 1.76626E+01 2.35880E-01-1.19457E-02-2.25145E+00-1.67921E-14-2.32629E-13
 -1      3810 1.71490E+01 6.03388E-01 2.28786E-02-1.97498E+00-3.69995E-15-1.15127E-13
 -1      3811 1.79626E+01-8.46821E-01 2.02849E-02 3.88073E+00 3.05034E-14-3.32437E-13
 -1      3812 1.63227E+01-9.72657E-01-2.02639E-02 4.15365E+00-3.35925E-14-2.27009E-13
 -1      3813 2.03550E+01 7.04484E-01 3.09558E-04-1.47246E-01-1.60505E-13-2.68016E-13
 -1      3814 2.03522E+01 5.48022E-01-2.07724E-03-7.57165E-02-1.57200E-13-2.52785E-13
 -1      3815 2.03798E+01 5.32982E-01 7.36353E-04-5.48050E-02-1.04553E-13-1.98430E-13
 -1      3816 2.03230E+01 1.02214E+00-1.47243E-03-2.61350E-01-1.70842E-13-3.01091E-13
 -1      3817 2.03397E+01 8.37590E-01-9.47964E-04-1.85344E-01-1.66132E-13-2.91646E-13
 -1      3818 2.03632E+01 8.13622E-01 1.45305E-03-1.41937E-01-1.45351E-13-2.69294E-13
 -1      3819 2.03224E+01 1.11118E+00 1.38306E-03-2.21900E-01-1.51043E-13-3.15122E-13
 -1      3820 2.02096E+01 1.62973E+00-1.02197E-03-1.69161E-01-8.85804E-14-3.41361E-13
 -1      3821 2.02189E+01 1.57484E+00-3.33508E-03-2.53420E-01-1.25083E-13-3.48770E-13
 -1      3822 2.02869E+01 1.33685E+00 2.49871E-03-2.01116E-01-1.29485E-13-3.12064E-13
 -1      3823 2.47475E+01-4.18783E+00-4.18292E-02 2.12430E+00-4.55892E-13-1.24515E-13
 -1      3824 2.02721E+01 9.55947E-01 2.02173E-03 4.64076E-01 1.67625E-13-3.03027E-13
 -1      3825 2.02864E+01 8.22412E-01 2.25557E-03 3.36861E-01 1.37544E-13-3.01524E-13
 -1      3826 1.50484E+01-3.21095E-01 9.02454E-02 3.63854E+00-1.89397E-14-6.62654E-13
 -1      3827 1.47487E+01-3.08628E-01 1.09747E-01-3.63084E+00-2.55121E-13-2.14131E-13
 -1      3828 1.65119E+01-1.18377E+00 1.24543E-02-4.12784E+00-2.46873E-13 3.00523E-13
 -1      3829 1.87185E+01-5.73087E-01-1.11130E-02 3.58407E+00 9.34886E-14-2.97029E-13
 -1      3830 2.14373E+01-2.85426E+00 7.48396E-02 2.73669E+00 1.45442E-13-1.04992E-13
 -1      3831 1.69091E+01-5.56121E-01 5.16615E-04-3.06094E+00-4.93084E-14-4.80013E-13
 -1      3832 2.07459E+01-2.39162E+00 3.13374E-02 2.68942E+00 1.96792E-13-3.37415E-15
 -1      3833 1.96724E+01-2.61408E+00-7.05751E-02 3.42641E+00 7.04992E-15-6.64711E-14
 -1      3834 1.77731E+01-1.67252E+00 3.94381E-02 3.68276E+00-1.78675E-13-5.67688E-14
 -1      3835 2.01179E+01-1.84352E+00 2.20276E-02 2.66391E+00 3.30812E-15-9.93984E-14
 -1      3836 2.01619E+01 5.79628E-02-6.36999E-04-1.34716E-01 6.81868E-14-1.97070E-13
 -1      3837 2.01830E+01 1.04589E-01 1.85964E-03-1.10540E-01 7.55245E-14-1.82457E-13
 -1      3838 2.02104E+01 5.49060E-02-7.29539E-04-1.26694E-01 7.01011E-14-2.28056E-13
 -1      3839 1.48612E+01 1.10336E+00-2.92419E-03 1.00701E+00-7.93291E-14-8.39842E-13
 -1      3840 1.54361E+01 9.54193E-01 4.60020E-02 1.92995E+00 1.23532E-13-7.55524E-13
 -1      3841 1.52537E+01 3.14346E-01 3.97585E-02 2.71935E+00 1.43467E-13-7.21034E-13
 -1      3842 1.40145E+01 9.16160E-01 5.63902E-02 3.98535E-01-3.22070E-13-8.77836E-13
 -1      3843 2.03052E+01 8.33553E-01 2.67048E-04 2.87460E-01 1.18320E-13-3.25150E-13
 -1      3844 2.02515E+01 1.38081E+00-5.30129E-03 4.13900E-01 9.31591E-14-4.24855E-13
 -1      3845 2.02387E+01 1.48237E+00-1.04092E-03 3.45567E-01 7.16272E-14-4.51318E-13
 -1      3846 2.02994E+01 1.28460E+00 5.19165E-03 2.51851E-01 5.94232E-14-4.39247E-13
 -1      3847 2.03078E+01 1.11386E+00 4.29538E-03 3.35928E-01 9.76712E-14-3.97626E-13
 -1      3848 1.82030E+01-1.67450E+00 8.66152E-02-4.48629E+00-2.81783E-13 2.86885E-13
 -1      3849 1.60502E+01-6.18719E-02 8.73238E-03-2.77254E+00 4.26612E-14-4.28557E-13
 -1      3850 1.41156E+01 1.30478E-01 3.71701E-02-2.75585E+00-2.95684E-13-6.69680E-13
 -1      3851 2.02004E+01 1.66244E+00-2.23995E-03-1.97791E-02-1.86533E-14-4.06534E-13
 -1      3852 2.02030E+01 1.64523E+00-3.10680E-03-1.10235E-01-6.73180E-14-3.62305E-13
 -1      3853 2.02818E+01 1.40668E+00 4.07161E-03-8.92548E-02-7.81277E-14-3.30087E-13
 -1      3854 2.02824E+01 1.42074E+00 4.97382E-03 1.67355E-02-2.16430E-14-3.99121E-13
 -1      3855 1.90656E+01-1.48732E+00-2.48628E-02 2.90412E+00 2.22131E-14-3.67631E-14
 -1      3856 2.02481E+01 1.62207E-01-7.09198E-04-7.81632E-02 7.21285E-14-2.35861E-13
 -1      3857 1.96441E+01-2.11409E+00 1.72459E-02-4.08227E+00-2.87479E-13 1.96319E-14
 -1      3858 2.00761E+01-4.34851E-02-1.77420E-04-1.13210E-01 3.70491E-14-1.18955E-13
 -1      3859 2.01020E+01-5.12423E-02-3.20110E-04-1.05023E-01 5.65712E-14-1.84056E-13
 -1      3860 2.00689E+01-3.14929E-02 4.91648E-04-1.10914E-01 2.95964E-14-1.57285E-13
 -1      3861 2.01139E+01-6.31564E-02-5.47016E-04-1.48783E-01-7.58806E-15-7.36144E-14
 -1      3862 2.02119E+01-1.99118E-02-1.46187E-04-1.35888E-01-4.36322E-14-1.71549E-13
 -1      3863 2.02308E+01 8.40341E-03 9.15125E-04-1.28432E-01 3.96807E-15-2.20321E-13
 -1      3864 1.31500E+01 5.15359E-01 1.71492E-02-1.62152E+00-3.23718E-13-9.08440E-13
 -1      3865 2.00488E+01-2.57664E-03 5.11239E-04-1.10111E-01-4.57282E-14-1.41465E-13
 -1      3866 2.00550E+01-1.81542E-02-3.12697E-04-1.09650E-01-4.53548E-15-1.73398E-13
 -1      3867 2.00749E+01-2.57519E-02-2.04911E-04-1.01351E-01-1.82523E-14-2.05890E-13
 -1      3868 1.35243E+01 4.14119E-01 2.69053E-02 1.79941E+00 1.97098E-13-3.23453E-13
 -1      3869 2.03282E+01 5.57753E-01-2.11226E-03 1.05323E-01 6.95763E-14-3.18815E-13
 -1      3870 2.03331E+01 6.91745E-01 2.97883E-03 1.74669E-01 9.03101E-14-3.29258E-13
 -1      3871 2.03259E+01 1.03412E+00-3.72528E-03 2.20883E-01 6.46396E-14-4.29937E-13
 -1      3872 2.03271E+01 1.10496E+00-8.50151E-04 1.75212E-01 4.44488E-14-4.31021E-13
 -1      3873 1.34914E+01 8.79862E-01-2.23882E-02-8.71949E-02 3.33745E-13-4.67274E-13
 -1      3874 1.35291E+01 8.67037E-01 2.67122E-02-8.28582E-01 3.35781E-13-5.64285E-13
 -1      3875 1.36484E+01 1.11122E-01 1.80557E-02 2.69673E+00-6.46956E-14-1.02516E-12
 -1      3876 1.82563E+01-1.30711E+00 3.03821E-02 3.14632E+00-4.75479E-14-3.81787E-14
 -1      3877 1.66989E+01-1.09617E+00 2.21786E-02 3.56189E+00-2.09751E-13-4.75141E-15
 -1      3878 1.58238E+01-5.00921E-01-1.49774E-02 3.07628E+00-1.25129E-13-1.42213E-13
 -1      3879 1.81195E+01-9.04954E-01-9.55822E-03 2.81980E+00-3.58502E-14 3.01391E-14
 -1      3880 1.96617E+01-1.58971E+00-2.23773E-02-3.69974E+00-4.37643E-13 6.01286E-14
 -1      3881 1.47856E+01 5.28263E-01-9.27900E-04-1.85326E+00 2.06209E-13-3.78954E-13
 -1      3882 2.03133E+01 3.15022E-01-1.64757E-03-8.93019E-03 9.43606E-14-2.85748E-13
 -1      3883 2.03318E+01 4.25642E-01 1.82557E-03 4.64960E-02 9.26821E-14-2.98977E-13
 -1      3884 2.03553E+01 5.53095E-01 2.32590E-04 8.22344E-02 9.01275E-14-3.55673E-13
 -1      3885 2.03240E+01 1.14490E+00-3.26389E-03 1.34861E-01 3.16619E-14-4.17637E-13
 -1      3886 2.03222E+01 1.18001E+00-1.97009E-03 7.82720E-02 9.29980E-15-3.96558E-13
 -1      3887 2.03723E+01 9.38509E-01 4.37718E-03 1.15088E-01 3.91216E-14-4.10245E-13
 -1      3888 2.01764E+01-5.45773E-02 1.24152E-04-1.38667E-01-1.42212E-14-1.21731E-13
 -1      3889 2.01926E+01-4.01083E-02 6.01622E-04-1.37984E-01-3.58400E-14-1.55235E-13
 -1      3890 2.02403E+01-2.68065E-02-5.24804E-04-1.20811E-01-6.12504E-14-1.94524E-13
 -1      3891 2.03233E+01 8.45069E-01-2.41048E-03 2.44868E-01 8.65177E-14-3.63957E-13
 -1      3892 1.24182E+01 6.27139E-01 7.20204E-02-5.20170E-01-3.16002E-13-1.02012E-12
 -1      3893 2.03307E+01 9.42013E-01 1.76867E-04 2.21710E-01 7.22683E-14-4.02393E-13
 -1      3894 2.01315E+01-6.74782E-02-4.22958E-04-1.11506E-01 4.76896E-14-1.10435E-13
 -1      3895 2.01157E+01-6.61769E-02 3.95873E-04-1.24949E-01 2.65845E-14-7.13262E-14
 -1      3896 2.01266E+01-6.87456E-02 1.31866E-04-1.29320E-01 9.23454E-15-6.47443E-14
 -1      3897 2.19078E+01-3.10881E+00-1.59399E-02-3.41232E+00-6.54442E-14 3.60085E-13
 -1      3898 2.09933E+01-2.46103E+00 3.60422E-02-3.77487E+00-2.26805E-13 1.74657E-13
 -1      3899 2.00490E+01 7.71734E-03-7.25485E-05-1.02345E-01-9.07715E-15-1.76537E-13
 -1      3900 2.04001E+01 3.64339E-01 7.05593E-04-1.01668E-03-7.90488E-14-2.18403E-13
 -1      3901 2.03879E+01 2.61403E-01-1.21382E-03 2.97269E-02-1.18499E-13-1.98656E-13
 -1      3902 2.03789E+01 1.77844E-01 6.93681E-04 4.50152E-02-1.32230E-13-1.70149E-13
 -1      3903 2.03599E+01 1.09054E-01-6.85001E-04 6.35752E-02-6.59868E-14-1.61734E-13
 -1      3904 2.04037E+01 2.40772E-01 2.77782E-04 2.62444E-02-9.99550E-14-2.19003E-13
 -1      3905 2.03425E+01 5.49704E-02 6.01924E-04 7.14648E-02-3.26008E-14-1.67754E-13
 -1      3906 2.03207E+01 1.19582E-02-2.72273E-04 8.11406E-02-4.47563E-14-1.67086E-13
 -1      3907 2.03729E+01 9.37949E-02-1.51773E-04 5.08158E-02-7.46909E-14-1.89848E-13
 -1      3908 2.02991E+01-2.03442E-02 4.85836E-04 8.39746E-02-4.52623E-14-2.03582E-13
 -1      3909 2.02770E+01-4.44643E-02 8.21260E-06 8.76346E-02-5.29544E-14-1.78601E-13
 -1      3910 2.03312E+01 1.13065E-03-3.69006E-04 6.34246E-02-4.53512E-14-2.00985E-13
 -1      3911 2.02539E+01-6.08120E-02 3.58498E-04 8.72179E-02-5.89056E-14-1.61312E-13
 -1      3912 2.02328E+01-7.11277E-02 1.87182E-04 8.72774E-02-4.56075E-14-1.12662E-13
 -1      3913 2.02851E+01-5.14553E-02-4.65561E-04 6.79363E-02-3.99251E-14-1.78465E-13
 -1      3914 2.02100E+01-7.59994E-02 2.30665E-04 8.52236E-02-5.30107E-14-7.92164E-14
 -1      3915 2.01907E+01-7.63470E-02 2.87560E-04 8.34854E-02-7.74560E-14-8.87710E-14
 -1      3916 2.02387E+01-7.46109E-02-4.69858E-04 6.75174E-02-3.57420E-14-1.32703E-13
 -1      3917 2.01689E+01-7.28613E-02 1.00307E-04 8.09257E-02-4.97267E-14-7.32241E-14
 -1      3918 2.01514E+01-6.58882E-02 3.38077E-04 7.88106E-02 1.78870E-15-3.71963E-14
 -1      3919 2.01943E+01-7.65940E-02-4.53884E-04 6.46860E-02-2.98404E-14-8.91631E-14
 -1      3920 2.01306E+01-5.61390E-02-2.42053E-05 7.66254E-02-2.01699E-14-6.12526E-14
 -1      3921 2.01146E+01-4.35514E-02 3.53268E-04 7.52499E-02 7.54513E-15-8.74192E-14
 -1      3922 2.01525E+01-6.28223E-02-3.77963E-04 6.14536E-02-2.12715E-14-2.96751E-14
 -1      3923 2.00946E+01-2.88660E-02-1.51588E-04 7.41702E-02-7.30715E-15-1.54258E-13
 -1      3924 2.00795E+01-1.16732E-02 3.42027E-04 7.44123E-02-2.65591E-14-1.61185E-13
 -1      3925 2.01129E+01-3.69148E-02-2.55436E-04 5.93013E-02-5.36840E-14-1.97867E-13
 -1      3926 2.00595E+01 7.22954E-03-2.88932E-04 7.50306E-02-1.35873E-14-1.87060E-13
 -1      3927 2.00444E+01 2.85439E-02 3.15957E-04 7.76255E-02-4.43415E-14-1.51170E-13
 -1      3928 2.00745E+01-1.09826E-03-9.76152E-05 5.95417E-02-2.85413E-14-1.46073E-13
 -1      3929 2.00233E+01 5.13931E-02-4.44808E-04 8.04727E-02-3.57719E-14-1.61906E-13
 -1      3930 2.00073E+01 7.67266E-02 2.82953E-04 8.60945E-02-5.68704E-14-1.16518E-13
 -1      3931 2.00352E+01 4.35432E-02 8.70680E-05 6.32245E-02-3.63929E-14-1.26383E-13
 -1      3932 1.99838E+01 1.03535E-01-6.24826E-04 9.17144E-02-4.95455E-14-6.36722E-14
 -1      3933 1.99657E+01 1.32995E-01 2.48539E-04 1.01033E-01-6.66236E-15-1.24576E-14
 -1      3934 1.99929E+01 9.67551E-02 2.99485E-04 7.13659E-02-2.17451E-14-7.00395E-14
 -1      3935 1.99381E+01 1.63895E-01-8.35293E-04 1.10027E-01-1.78142E-14 3.28711E-14
 -1      3936 1.99166E+01 1.97630E-01 2.17708E-04 1.23754E-01-9.89341E-15 9.60549E-14
 -1      3937 1.99444E+01 1.58739E-01 5.42559E-04 8.50372E-02 1.77818E-14 3.47791E-14
 -1      3938 1.98831E+01 2.32695E-01-1.08261E-03 1.36824E-01-7.98135E-14 7.85257E-14
 -1      3939 1.98567E+01 2.70703E-01 1.96688E-04 1.55748E-01-5.47016E-14 9.25587E-15
 -1      3940 1.98865E+01 2.29803E-01 8.19415E-04 1.05452E-01-4.99684E-14 4.81542E-14
 -1      3941 1.98154E+01 3.09737E-01-1.37332E-03 1.73750E-01 3.34273E-14 6.00418E-14
 -1      3942 1.97827E+01 3.51639E-01 1.95153E-04 1.98773E-01 1.04117E-13 1.98378E-14
 -1      3943 1.98154E+01 3.09974E-01 1.13230E-03 1.34059E-01 1.38945E-14 1.69645E-14
 -1      3944 1.97313E+01 3.93928E-01-1.71482E-03 2.22777E-01 8.75278E-14 3.52135E-14
 -1      3945 1.96909E+01 4.38692E-01 2.29368E-04 2.54968E-01 6.83601E-14-3.74398E-14
 -1      3946 1.97271E+01 3.98548E-01 1.48143E-03 1.72666E-01 7.81660E-14-2.49147E-14
 -1      3947 1.96272E+01 4.82685E-01-2.11693E-03 2.86354E-01 4.07097E-14-3.13236E-14
 -1      3948 1.95780E+01 5.28291E-01 3.26895E-04 3.27026E-01 2.01515E-14 4.66616E-15
 -1      3949 1.96171E+01 4.93547E-01 1.86379E-03 2.23595E-01 3.62240E-14-7.32541E-16
 -1      3950 1.94997E+01 5.71228E-01-2.59480E-03 3.67631E-01 2.95143E-14 7.64213E-14
 -1      3951 1.94412E+01 6.14271E-01 5.33822E-04 4.18482E-01 3.93911E-14 1.06219E-13
 -1      3952 1.94813E+01 5.91088E-01 2.27219E-03 2.89948E-01 7.59949E-14 3.51893E-14
 -1      3953 1.93463E+01 6.51725E-01-3.17330E-03 4.70847E-01-1.50416E-14 1.67882E-13
 -1      3954 1.92790E+01 6.86950E-01 9.26166E-04 5.34205E-01 5.35654E-14 1.36887E-13
 -1      3955 1.93154E+01 6.84637E-01 2.69405E-03 3.76006E-01 6.13111E-14 7.56064E-14
 -1      3956 1.91655E+01 7.12298E-01-3.89230E-03 6.01971E-01 7.28359E-14 1.25526E-14
 -1      3957 1.90917E+01 7.32055E-01 1.62813E-03 6.81186E-01 3.42506E-14 1.02456E-13
 -1      3958 1.91158E+01 7.64184E-01 3.10854E-03 4.87911E-01 3.43824E-14 9.74395E-14
 -1      3959 1.89584E+01 7.35838E-01-4.80800E-03 7.69757E-01-3.31730E-14 7.64263E-14
 -1      3960 1.88835E+01 7.29402E-01 2.83336E-03 8.69759E-01 7.73653E-14 4.61542E-14
 -1      3961 1.88798E+01 8.15283E-01 3.47354E-03 6.34774E-01 1.72966E-14-2.21228E-14
 -1      3962 1.87301E+01 6.98500E-01-5.96962E-03 9.87287E-01 1.22189E-13 6.13133E-14
 -1      3963 1.86645E+01 6.51103E-01 4.81499E-03 1.11523E+00 1.83031E-13-1.77305E-14
 -1      3964 1.86064E+01 8.17749E-01 3.67083E-03 8.30474E-01 6.34729E-14 3.28409E-14
 -1      3965 1.84933E+01 5.67761E-01-7.26192E-03 1.27373E+00 1.92454E-13-9.36177E-14
 -1      3966 1.84556E+01 4.59498E-01 8.11506E-03 1.43935E+00 1.17444E-13-1.34540E-13
 -1      3967 1.82975E+01 7.43449E-01 3.37284E-03 1.09611E+00 1.12498E-13-1.69058E-13
 -1      3968 1.82751E+01 2.98871E-01-7.92638E-03 1.65644E+00 5.28999E-14-1.25979E-13
 -1      3969 1.82977E+01 1.00901E-01 1.36429E-02 1.87095E+00 3.05026E-14-1.54538E-13
 -1      3970 1.79621E+01 5.52278E-01 2.22376E-03 1.46350E+00 1.01121E-13-2.58281E-13
 -1      3971 1.81200E+01-1.64550E-01-8.23587E-03 2.15932E+00 8.71065E-14-1.17739E-13
 -1      3972 1.82565E+01-4.80641E-01 2.22482E-02 2.42922E+00 6.85359E-14-4.77943E-14
 -1      3973 1.73382E+01-3.57406E-01 1.75485E-02 2.65529E+00 2.03192E-14-1.16630E-13
 -1      3974 1.76222E+01 1.99914E-01 2.14578E-03 1.97117E+00 8.75283E-14-1.41106E-13
 -1      3975 1.98818E+01 2.55073E-01 1.43420E-04-1.66841E-01-7.18650E-16-3.21360E-13
 -1      3976 1.99054E+01 2.16535E-01-1.05512E-03-1.48024E-01-1.25101E-14-2.62012E-13
 -1      3977 2.30965E+01-3.62848E+00 4.31556E-02-3.03260E+00-9.49093E-14 3.76548E-13
 -1      3978 1.38591E+01 9.88643E-01 5.66276E-02 6.60360E-01 3.06228E-13-5.44728E-13
 -1      3979 1.44732E+01 9.97383E-01 1.57123E-02 1.29255E-01 2.99059E-13-5.13760E-13
 -1      3980 1.99799E+01 1.18242E-01 2.94102E-04-1.12560E-01-2.05027E-14-2.18108E-13
 -1      3981 1.99950E+01 8.98760E-02-6.19528E-04-1.03321E-01 2.08556E-14-1.78701E-13
 -1      3982 2.03604E+01 7.95413E-01 1.49829E-03 1.42391E-01 6.02883E-14-4.14545E-13
 -1      3983 2.00164E+01 6.43300E-02 3.41862E-04-9.78032E-02-3.41915E-14-1.39132E-13
 -1      3984 2.00296E+01 4.03410E-02-4.46800E-04-9.24452E-02-4.24160E-15-1.25169E-13
 -1      3985 2.00036E+01 8.35396E-02 2.56704E-04-8.52402E-02 3.27599E-14-3.88710E-14
 -1      3986 1.98119E+01 3.39833E-01 2.46906E-05-2.08329E-01-1.93597E-14-2.30032E-13
 -1      3987 1.98428E+01 2.95569E-01-1.33154E-03-1.83904E-01 9.51845E-15-3.05004E-13
 -1      3988 1.98406E+01 2.94713E-01 1.16917E-03-1.46780E-01-3.10753E-14-2.47629E-13
 -1      3989 1.97212E+01 4.36114E-01-1.36728E-04-2.60470E-01-2.52216E-14-2.26183E-13
 -1      3990 1.97620E+01 3.86042E-01-1.65729E-03-2.29993E-01-4.12370E-15-2.43808E-13
 -1      3991 1.97559E+01 3.87639E-01 1.61440E-03-1.82132E-01 1.42350E-14-2.27891E-13
 -1      3992 1.96032E+01 5.43286E-01-3.50178E-04-3.23828E-01 7.34124E-14-3.37519E-13
 -1      3993 1.96571E+01 4.87872E-01-2.04426E-03-2.86967E-01 3.08188E-14-3.17013E-13
 -1      3994 1.96469E+01 4.92398E-01 2.16224E-03-2.25567E-01 6.14911E-14-2.80276E-13
 -1      3995 1.94504E+01 6.59142E-01-6.18466E-04-3.98783E-01 5.15446E-15-2.66143E-13
 -1      3996 1.95209E+01 5.99718E-01-2.51418E-03-3.55285E-01-4.52759E-15-3.11181E-13
 -1      3997 1.95062E+01 6.07933E-01 2.84050E-03-2.77079E-01 2.34605E-14-2.84113E-13
 -1      3998 1.92535E+01 7.79137E-01-9.28117E-04-4.85750E-01 8.94763E-14-1.74383E-13
 -1      3999 1.93450E+01 7.18293E-01-3.10969E-03-4.35295E-01 9.07497E-14-1.68580E-13
 -1      4000 1.93252E+01 7.31511E-01 3.68846E-03-3.36407E-01-2.02960E-15-2.80501E-13
 -1      4001 1.90018E+01 8.95432E-01-1.22925E-03-5.85851E-01 9.27173E-14-2.35591E-13
 -1      4002 1.91190E+01 8.37491E-01-3.91403E-03-5.27624E-01 1.10441E-13-2.09764E-13
 -1      4003 1.90936E+01 8.58086E-01 4.76803E-03-4.03305E-01 1.20446E-13-9.97842E-14
 -1      4004 1.86822E+01 9.95722E-01-1.38697E-03-7.02404E-01-5.31646E-14-2.11380E-13
 -1      4005 1.88302E+01 9.47317E-01-5.07941E-03-6.34204E-01-4.45577E-15-2.59417E-13
 -1      4006 1.87979E+01 9.79632E-01 6.18847E-03-4.78290E-01 2.09702E-14-2.04228E-13
 -1      4007 1.82790E+01 1.06139E+00-1.23367E-03-8.43924E-01-1.44762E-13-2.96180E-13
 -1      4008 1.84625E+01 1.03248E+00-6.85448E-03-7.60477E-01-5.28973E-14-2.16516E-13
 -1      4009 1.84208E+01 1.08449E+00 8.13989E-03-5.64369E-01-8.02184E-14-6.22335E-14
 -1      4010 1.77724E+01 1.06572E+00-3.30163E-04-1.02828E+00-1.75039E-13-2.07040E-13
 -1      4011 1.79959E+01 1.07011E+00-9.62875E-03-9.18616E-01-1.69641E-13-2.73800E-13
 -1      4012 1.79384E+01 1.15550E+00 1.08499E-02-6.70479E-01-2.21654E-13-1.26982E-13
 -1      4013 1.71330E+01 9.71535E-01 1.10743E-03-1.29218E+00-1.12000E-13-1.59364E-13
 -1      4014 1.74004E+01 1.02899E+00-1.43974E-02-1.13262E+00-1.35558E-13-2.13176E-13
 -1      4015 1.73171E+01 1.17154E+00 1.53261E-02-8.11969E-01-1.82393E-13-1.12454E-13
 -1      4016 1.63513E+01 7.27001E-01-2.74863E-04-1.71440E+00 2.66367E-15-1.43364E-13
 -1      4017 1.66189E+01 8.60075E-01-2.73253E-02-1.44944E+00-6.73905E-14-1.62711E-13
 -1      4018 1.64974E+01 1.10391E+00 2.10821E-02-1.02320E+00-9.69530E-14-1.95783E-13
 -1      4019 2.02835E+01 1.51414E-01-1.08101E-03-8.01547E-02 5.28578E-14-2.82721E-13
 -1      4020 2.03046E+01 2.26132E-01 1.60089E-03-4.60966E-02 7.23562E-14-2.83371E-13
 -1      4021 2.03448E+01 3.10535E-01 5.24931E-05-1.41109E-02 8.06019E-14-3.35268E-13
 -1      4022 2.03935E+01 6.34223E-01 8.08214E-05-7.11957E-02-7.38440E-14-2.49588E-13
 -1      4023 2.03953E+01 4.87380E-01-1.56672E-03-2.61684E-02-4.92213E-14-2.21716E-13
 -1      4024 2.04141E+01 4.58865E-01 8.80188E-04-1.43573E-02-6.90707E-14-2.58441E-13
 -1      4025 1.34158E+01 5.37707E-01 7.05401E-02 1.90825E+00-1.95018E-13-1.04210E-12
 -1      4026 2.01441E+01-6.80079E-02 2.92719E-04-1.33485E-01-3.39965E-14-6.24729E-14
 -1      4027 2.01576E+01-6.34361E-02 3.39293E-04-1.36488E-01 4.87518E-15-7.49835E-14
 -1      4028 2.02009E+01-6.03554E-02-5.41614E-04-1.22934E-01-4.42875E-14-1.30511E-13
 -1      4029 2.01644E+01-7.19058E-02-5.07738E-04-1.18499E-01 7.04596E-16-4.83343E-14
 -1      4030 1.24635E+01 5.71188E-01 5.60559E-02 9.09057E-01-3.17197E-13-9.67088E-13
 -1      4031 2.02808E+01 3.72652E-02-4.51017E-04-1.06855E-01-1.99586E-14-2.43916E-13
 -1      4032 2.02492E+01 4.44799E-02-5.57785E-04-1.19092E-01 2.86236E-14-2.39931E-13
 -1      4033 2.02701E+01 9.22930E-02 1.27286E-03-1.00898E-01 3.74346E-14-2.69024E-13
 -1      4034 1.99363E+01 1.81493E-01 2.30133E-04-1.35229E-01-5.15958E-14-2.36339E-13
 -1      4035 1.99548E+01 1.48291E-01-8.20041E-04-1.21492E-01-5.86180E-14-2.65019E-13
 -1      4036 1.99068E+01 2.13560E-01 8.05245E-04-1.19227E-01-6.73043E-14-2.20539E-13
 -1      4037 1.45585E+01 8.57184E-01 2.57956E-02-1.19148E+00 2.68325E-13-4.54674E-13
 -1      4038 2.03766E+01 6.19494E-01 6.46002E-05 9.40553E-02 7.43895E-14-3.99671E-13
 -1      4039 2.03788E+01 7.08748E-01-8.43579E-04 9.57922E-02 6.97664E-14-4.18847E-13
 -1      4040 2.03729E+01 4.78365E-01-8.11224E-04 3.55990E-02 6.99271E-14-3.86532E-13
 -1      4041 1.44010E+01 4.69942E-01-2.25697E-03 1.84204E+00 9.63898E-14-4.25184E-13
 -1      4042 2.03160E+01 1.20847E+00-3.15442E-04-1.26421E-01-7.25181E-14-2.81109E-13
 -1      4043 2.03178E+01 1.15627E+00-2.25062E-03-1.81275E-01-1.22580E-13-2.84794E-13
 -1      4044 2.03500E+01 1.00016E+00 9.14329E-04-1.41977E-01-1.10887E-13-2.88915E-13
 -1      4045 2.00488E+01 1.89159E-02 3.76567E-04-8.98622E-02 1.36690E-14-1.38064E-13
 -1      4046 2.00613E+01-9.77076E-04-2.94785E-04-8.77357E-02-1.90052E-14-1.37242E-13
 -1      4047 2.00419E+01 3.28533E-02 4.77931E-05-7.72971E-02 1.86708E-15-6.72382E-14
 -1      4048 1.99597E+01 1.43485E-01 5.05643E-04-9.89458E-02 9.09357E-15-1.66340E-13
 -1      4049 1.60197E+01 1.11574E+00 4.52481E-03-6.20029E-01 1.52096E-14-3.95497E-13
 -1      4050 1.64450E+01 1.15410E+00-1.53608E-02-5.32293E-01-8.33626E-14-3.77801E-13
 -1      4051 2.03863E+01 7.47090E-01-1.34614E-03 7.11458E-02 3.11966E-14-3.86027E-13
 -1      4052 2.03172E+01 1.44879E-01-1.96501E-04-7.44524E-02 5.00084E-14-3.20271E-13
 -1      4053 2.00776E+01-9.08438E-03-1.28468E-04-7.42051E-02 1.24239E-14-1.53915E-13
 -1      4054 2.00798E+01-1.84275E-02 3.97453E-04-8.75722E-02-3.98464E-14-1.38075E-13
 -1      4055 2.00926E+01-3.42017E-02-1.55534E-04-8.79675E-02-1.68046E-14-1.59983E-13
 -1      4056 2.03787E+01 9.92982E-01 5.40282E-03 5.09737E-02 1.78381E-15-3.68322E-13
 -1      4057 2.03204E+01 1.19325E+00-2.67136E-03 4.02058E-02-1.64786E-14-3.84298E-13
 -1      4058 2.03198E+01 1.19887E+00-2.20659E-03-7.77097E-03-4.52861E-14-3.64480E-13
 -1      4059 2.02623E+01-3.72944E-02-3.13530E-05-1.04450E-01-1.11667E-13-1.67436E-13
 -1      4060 2.02836E+01-1.16488E-02 6.16004E-04-9.97989E-02-7.38061E-14-2.25481E-13
 -1      4061 2.03209E+01 1.19575E-02-3.95521E-04-7.92358E-02-7.88477E-14-1.86255E-13
 -1      4062 2.03041E+01 2.23082E-02-3.22575E-04-9.53272E-02-4.18275E-14-2.22734E-13
 -1      4063 2.03252E+01 6.72692E-02 7.23225E-04-8.32755E-02-1.81592E-14-2.58364E-13
 -1      4064 2.03674E+01 8.70311E-01-1.23405E-03-1.24331E-01-1.07383E-13-2.63973E-13
 -1      4065 2.03817E+01 7.39554E-01-4.09629E-04-8.80582E-02-9.95769E-14-2.48722E-13
 -1      4066 2.04009E+01 6.95220E-01 8.95348E-04-5.72660E-02-5.53088E-14-2.22565E-13
 -1      4067 2.03718E+01 9.19252E-01 3.19889E-04-9.06872E-02-6.49644E-14-2.51464E-13
 -1      4068 1.53619E+01 1.07621E+00-1.60847E-02 3.11038E-01 1.07307E-13-6.19862E-13
 -1      4069 1.52356E+01 1.13810E+00 1.58715E-02-3.74423E-01 1.81670E-13-5.56800E-13
 -1      4070 2.01447E+01-6.70567E-02 3.59675E-04-9.45371E-02 9.11549E-14-1.83134E-13
 -1      4071 2.01604E+01-7.27024E-02 1.06945E-04-9.73270E-02 8.71122E-14-1.52166E-13
 -1      4072 1.64972E+01-6.07259E-02 1.64351E-02 2.46755E+00 4.66649E-14-2.58681E-13
 -1      4073 1.52964E+01 2.56441E-01 4.87786E-02 2.36326E+00 8.57916E-14-3.64262E-13
 -1      4074 1.51964E+01 7.47240E-01-1.88332E-02 1.37326E+00 1.26474E-13-4.33070E-13
 -1      4075 1.66002E+01 1.96713E-01-2.94698E-02 2.09075E+00 1.52818E-13-2.62967E-13
 -1      4076 2.03166E+01 1.21761E+00-1.68151E-03-4.13258E-02-5.74811E-14-3.45322E-13
 -1      4077 2.03176E+01 1.20132E+00-2.06933E-03-9.03078E-02-6.78200E-14-3.09937E-13
 -1      4078 2.03581E+01 1.04549E+00 2.39892E-03-7.33790E-02-4.90285E-14-2.91325E-13
 -1      4079 2.03665E+01 1.02412E+00 2.38570E-03-1.32979E-02-4.47056E-14-3.52452E-13
 -1      4080 2.01112E+01-4.74633E-02 3.98915E-04-8.96460E-02 1.86873E-15-1.84686E-13
 -1      4081 2.01252E+01-5.86598E-02-1.96425E-05-9.17415E-02 2.33849E-14-1.83430E-13
 -1      4082 2.01130E+01-4.21439E-02-2.74439E-04-7.49363E-02-1.77368E-14-1.62038E-13
 -1      4083 2.01500E+01-6.52458E-02-3.87245E-04-7.82510E-02 6.49003E-14-2.07569E-13
 -1      4084 2.03973E+01 1.26834E-01 1.36697E-04 2.92967E-02-8.64148E-14-1.80233E-13
 -1      4085 2.03788E+01 6.76952E-02 3.39914E-05 4.00478E-02-6.66057E-14-2.02777E-13
 -1      4086 2.03580E+01 2.04349E-02 2.92180E-04 4.09140E-02-5.88281E-14-2.20319E-13
 -1      4087 2.03357E+01-1.52927E-02 2.21866E-04 4.66226E-02-2.83821E-14-2.12391E-13
 -1      4088 2.03778E+01 4.90119E-02-8.64737E-04 2.18257E-02-7.01891E-14-1.96649E-13
 -1      4089 2.03116E+01-4.23635E-02 2.49423E-04 4.57242E-02-1.97562E-14-2.00341E-13
 -1      4090 2.02877E+01-6.06516E-02 1.42030E-04 4.78296E-02-3.34117E-14-1.90854E-13
 -1      4091 2.03332E+01-2.69393E-02-7.35920E-04 2.55586E-02-1.64789E-14-2.31994E-13
 -1      4092 2.02635E+01-7.24152E-02 2.92650E-04 4.68753E-02-5.44591E-14-1.49547E-13
 -1      4093 2.02404E+01-7.83633E-02 2.31421E-04 4.69056E-02-6.19837E-14-1.63386E-13
 -1      4094 2.02838E+01-6.60610E-02-5.01710E-04 2.67170E-02-2.78614E-14-2.44205E-13
 -1      4095 2.02162E+01-7.92078E-02 1.73249E-04 4.54681E-02-2.73205E-14-1.65252E-13
 -1      4096 2.01949E+01-7.57699E-02 3.81145E-04 4.48786E-02 7.12329E-15-1.37853E-13
 -1      4097 2.02353E+01-7.94959E-02-5.77188E-04 2.57528E-02-3.61258E-14-1.66879E-13
 -1      4098 2.01715E+01-6.88120E-02 1.06067E-04 4.30064E-02-3.51430E-14-1.42029E-13
 -1      4099 2.01514E+01-5.82865E-02 3.57992E-04 4.25042E-02-7.52294E-14-1.75936E-13
 -1      4100 2.01892E+01-7.39386E-02-6.93521E-04 2.41819E-02-2.14060E-14-1.73004E-13
 -1      4101 2.01290E+01-4.52017E-02 1.72848E-05 4.12791E-02-5.75313E-14-1.71712E-13
 -1      4102 2.01097E+01-2.91554E-02 3.12965E-04 4.14120E-02-2.82337E-14-1.76074E-13
 -1      4103 2.01445E+01-5.28546E-02-6.12607E-04 2.34033E-02-3.74712E-14-1.87609E-13
 -1      4104 2.00877E+01-1.10993E-02-1.15851E-04 4.09784E-02-1.12895E-14-1.13461E-13
 -1      4105 2.00686E+01 9.68062E-03 2.50135E-04 4.22671E-02-1.88251E-14-1.04003E-13
 -1      4106 2.01017E+01-2.00504E-02-3.22747E-04 2.32973E-02-1.80722E-14-1.34149E-13
 -1      4107 2.00459E+01 3.22089E-02-2.74374E-04 4.28884E-02 1.02198E-14-7.79407E-14
 -1      4108 2.00260E+01 5.74492E-02 1.77749E-04 4.58120E-02 1.42633E-14-1.49995E-14
 -1      4109 2.00588E+01 2.27301E-02 3.43775E-05 2.44005E-02 2.89254E-14-6.32058E-14
 -1      4110 2.00011E+01 8.43329E-02-4.62437E-04 4.77835E-02 2.94834E-15 2.95064E-14
 -1      4111 1.99791E+01 1.14090E-01 9.94403E-05 5.28170E-02 1.67931E-14 5.82116E-14
 -1      4112 2.00135E+01 7.48704E-02 4.52284E-04 2.72439E-02 5.53683E-14-2.27754E-14
 -1      4113 1.99504E+01 1.45450E-01-6.86872E-04 5.64892E-02-2.55738E-14 8.16447E-14
 -1      4114 1.99246E+01 1.79943E-01 1.80480E-05 6.41409E-02 2.59449E-14 8.75832E-14
 -1      4115 1.99628E+01 1.36452E-01 9.39322E-04 3.24007E-02 6.60838E-15 2.45682E-14
 -1      4116 1.98903E+01 2.15970E-01-9.56276E-04 6.99624E-02-2.09622E-15 8.21748E-14
 -1      4117 1.98590E+01 2.55410E-01-6.27672E-05 8.08169E-02-3.94709E-14 9.48792E-14
 -1      4118 1.99032E+01 2.07920E-01 1.50882E-03 4.05672E-02 4.11417E-14-4.01938E-14
 -1      4119 1.98166E+01 2.96175E-01-1.28149E-03 8.93854E-02-5.43532E-14 1.05249E-13
 -1      4120 1.97780E+01 3.40561E-01-1.36838E-04 1.04153E-01 2.77037E-14 5.30633E-14
 -1      4121 1.98306E+01 2.89729E-01 2.17743E-03 5.26541E-02-1.21352E-14 1.21045E-14
 -1      4122 1.97250E+01 3.85798E-01-1.67678E-03 1.16281E-01 3.75031E-14-2.63459E-14
 -1      4123 1.96770E+01 4.34691E-01-1.93381E-04 1.35865E-01 3.16066E-14-8.08265E-14
 -1      4124 1.97402E+01 3.81951E-01 2.96502E-03 6.99008E-02-2.34212E-14 1.37454E-15
 -1      4125 1.96105E+01 4.83537E-01-2.16228E-03 1.52672E-01 4.05376E-14-1.09582E-13
 -1      4126 1.95510E+01 5.35790E-01-2.14200E-04 1.78265E-01 1.86149E-14-1.20788E-13
 -1      4127 1.96269E+01 4.83832E-01 3.89645E-03 9.40330E-02 7.07363E-15-1.65600E-13
 -1      4128 1.94677E+01 5.86483E-01-2.76872E-03 2.01309E-01 4.60446E-14-1.12955E-13
 -1      4129 1.93948E+01 6.39940E-01-1.69888E-04 2.34554E-01 1.15732E-13-8.80551E-14
 -1      4130 1.94849E+01 5.93290E-01 5.00645E-03 1.27488E-01 6.22931E-14-1.52364E-13
 -1      4131 1.92911E+01 6.89470E-01-3.54611E-03 2.66028E-01 1.04565E-13-1.38683E-13
 -1      4132 1.92030E+01 7.40642E-01-1.47925E-05 3.09265E-01 8.42848E-14-1.09496E-13
 -1      4133 1.93077E+01 7.06369E-01 6.34932E-03 1.73745E-01 3.13753E-14-1.95938E-13
 -1      4134 1.90746E+01 7.84381E-01-4.57953E-03 3.52303E-01 2.38036E-14-7.73833E-14
 -1      4135 1.89703E+01 8.28114E-01 3.18744E-04 4.08979E-01 4.72701E-15-7.40316E-14
 -1      4136 1.90883E+01 8.16694E-01 8.01407E-03 2.37819E-01-5.21702E-15-2.78773E-13
 -1      4137 1.88119E+01 8.59422E-01-6.01734E-03 4.68127E-01-4.52322E-14-1.05527E-13
 -1      4138 1.86908E+01 8.88573E-01 9.26167E-04 5.43478E-01-6.01088E-14-1.22477E-13
 -1      4139 1.88183E+01 9.14956E-01 1.01359E-02 3.27000E-01-6.71487E-14-2.34161E-13
 -1      4140 1.84953E+01 8.98434E-01-8.11013E-03 6.25512E-01 4.35705E-14-2.08997E-13
 -1      4141 1.83589E+01 9.03425E-01 1.97980E-03 7.27680E-01 1.62198E-13-1.63044E-13
 -1      4142 1.84874E+01 9.88405E-01 1.28355E-02 4.51959E-01 2.28827E-14-3.39068E-13
 -1      4143 1.81159E+01 8.79991E-01-1.12133E-02 8.43337E-01 9.91346E-14-1.75987E-13
 -1      4144 1.79685E+01 8.47367E-01 3.73561E-03 9.85324E-01 1.01319E-13-3.27653E-13
 -1      4145 1.80798E+01 1.01961E+00 1.56071E-02 6.28324E-01 8.83185E-14-4.01673E-13
 -1      4146 1.76647E+01 7.78749E-01-1.43620E-02 1.15101E+00 1.35032E-13-3.51649E-13
 -1      4147 1.75118E+01 6.86259E-01 6.09011E-03 1.35765E+00 1.10075E-13-2.74818E-13
 -1      4148 1.75682E+01 9.76030E-01 1.29503E-02 8.77342E-01 1.09838E-13-3.57067E-13
 -1      4149 1.99405E+01 1.64272E-01-6.48453E-05-7.99079E-02 2.44327E-14-1.29015E-13
 -1      4150 1.99644E+01 1.30896E-01-5.73161E-04-7.21276E-02 8.98278E-14-8.02839E-14
 -1      4151 1.98022E+01 3.24203E-01-4.63035E-04-1.18274E-01-1.75035E-15-2.90027E-13
 -1      4152 1.98398E+01 2.79748E-01-1.02392E-03-1.04366E-01-2.08395E-14-2.44258E-13
 -1      4153 1.95785E+01 5.30265E-01-1.12138E-03-1.77602E-01 6.04617E-14-2.68463E-13
 -1      4154 1.96412E+01 4.74358E-01-1.63055E-03-1.57371E-01-4.32557E-15-2.55951E-13
 -1      4155 1.94174E+01 6.48757E-01-1.60278E-03-2.14171E-01 7.89437E-15-2.53833E-13
 -1      4156 1.94984E+01 5.88295E-01-2.01693E-03-1.91173E-01 7.78134E-14-2.40770E-13
 -1      4157 1.95153E+01 5.83259E-01 4.49229E-03-1.17547E-01 2.96022E-14-2.11872E-13
 -1      4158 1.92114E+01 7.73575E-01-2.22673E-03-2.54010E-01-2.17641E-14-1.97906E-13
 -1      4159 1.93157E+01 7.10558E-01-2.49101E-03-2.28750E-01-2.24246E-14-2.55877E-13
 -1      4160 1.93375E+01 7.07235E-01 5.77871E-03-1.35785E-01-3.79536E-14-2.03676E-13
 -1      4161 1.89490E+01 8.98892E-01-3.03776E-03-2.95780E-01 5.51687E-14-1.10579E-13
 -1      4162 1.90827E+01 8.36581E-01-3.10971E-03-2.68761E-01-1.50137E-15-1.67639E-13
 -1      4163 1.91117E+01 8.36076E-01 7.38148E-03-1.51928E-01-6.07013E-14-2.38420E-13
 -1      4164 1.86151E+01 1.01601E+00-4.10363E-03-3.38474E-01 4.07277E-14-7.21323E-14
 -1      4165 1.87859E+01 9.59144E-01-3.98494E-03-3.09728E-01 1.04753E-13-1.92923E-14
 -1      4166 1.88256E+01 9.63526E-01 9.44812E-03-1.63117E-01 2.14294E-14-5.97282E-14
 -1      4167 1.81884E+01 1.11307E+00-5.52010E-03-3.82734E-01-8.77849E-14 3.01012E-15
 -1      4168 1.84073E+01 1.06802E+00-5.31941E-03-3.50759E-01 2.87505E-14 3.55465E-14
 -1      4169 1.84626E+01 1.08097E+00 1.22313E-02-1.65915E-01 5.54668E-14 6.54229E-14
 -1      4170 1.76396E+01 1.17581E+00-6.49302E-03-4.33579E-01-2.30222E-13-1.24344E-13
 -1      4171 1.79197E+01 1.15051E+00-7.34778E-03-3.93540E-01-1.57396E-13-5.72301E-14
 -1      4172 1.79985E+01 1.17782E+00 1.60663E-02-1.56493E-01-1.07008E-13 4.44805E-15
 -1      4173 1.69289E+01 1.17987E+00-6.06269E-03-5.05239E-01-1.28144E-13-2.38869E-13
 -1      4174 1.72834E+01 1.18283E+00-1.19701E-02-4.50210E-01-1.64995E-13-2.15335E-13
 -1      4175 1.73861E+01 1.24194E+00 1.92250E-02-1.34075E-01-1.17257E-13-2.28179E-13
 -1      4176 2.04156E+01 5.68818E-01 3.29567E-03 3.98466E-02 4.24262E-15-3.46562E-13
 -1      4177 2.03957E+01 7.62000E-01-2.32926E-03 4.91520E-02 5.45669E-15-3.34459E-13
 -1      4178 2.03607E+01 2.57276E-01-7.09042E-04-3.57992E-02 5.73153E-14-3.34868E-13
 -1      4179 2.03756E+01 3.56032E-01 4.50099E-04 3.00964E-03 4.85401E-14-3.40653E-13
 -1      4180 2.03917E+01 4.18610E-01-7.05266E-04 1.30105E-02 2.41971E-14-3.66475E-13
 -1      4181 1.65911E+01 1.23805E+00 2.07738E-02-1.43636E-01 7.85168E-15-4.72882E-13
 -1      4182 1.55397E+01 1.07175E+00 2.57008E-02 6.97912E-01 1.16724E-13-3.82773E-13
 -1      4183 1.61497E+01 1.14285E+00-5.12913E-04 2.83528E-01 1.15828E-13-5.86371E-13
 -1      4184 1.65824E+01 1.16963E+00-5.18257E-03 2.47749E-01 7.61370E-14-4.59825E-13
 -1      4185 1.59961E+01 8.22647E-01-1.20969E-02 1.22375E+00 1.22980E-13-3.27800E-13
 -1      4186 2.02403E+01-5.50381E-02 4.32991E-04-1.04667E-01-8.79659E-14-1.81613E-13
 -1      4187 2.02764E+01-4.44668E-02-4.61658E-04-8.60240E-02-9.17370E-14-1.30550E-13
 -1      4188 2.02206E+01-6.68427E-02 1.76709E-04-1.04808E-01-5.99451E-14-1.42761E-13
 -1      4189 1.97042E+01 4.21541E-01-7.49990E-04-1.45409E-01 3.83158E-14-2.86061E-13
 -1      4190 1.97526E+01 3.71205E-01-1.30412E-03-1.28278E-01 4.47736E-14-2.86853E-13
 -1      4191 1.97643E+01 3.64148E-01 2.55707E-03-8.27938E-02 5.84144E-14-3.37779E-13
 -1      4192 1.96548E+01 4.68173E-01 3.43609E-03-9.93859E-02-1.68661E-14-3.15419E-13
 -1      4193 2.04230E+01 5.34780E-01 2.72050E-04-2.30337E-02-7.87242E-14-2.57220E-13
 -1      4194 2.04247E+01 4.02571E-01-7.21268E-04 1.98535E-03-8.22419E-14-2.63232E-13
 -1      4195 2.03374E+01 1.14835E-01-6.27386E-04-7.50409E-02 2.11965E-14-3.00949E-13
 -1      4196 2.03554E+01 1.84813E-01 6.46872E-04-5.22867E-02 5.85893E-14-3.08886E-13
 -1      4197 2.03797E+01 2.26752E-01-3.45832E-04-3.81365E-02 3.78522E-14-3.13999E-13
 -1      4198 2.03565E+01 1.01966E-01-1.14843E-04-6.43299E-02-4.21908E-15-2.08658E-13
 -1      4199 1.98792E+01 2.38596E-01-2.40007E-04-9.64645E-02-4.23692E-14-2.12429E-13
 -1      4200 1.99087E+01 1.99875E-01-7.82215E-04-8.57194E-02-3.23661E-14-1.44939E-13
 -1      4201 1.98504E+01 2.71957E-01 1.81934E-03-6.86733E-02 2.04500E-14-2.57470E-13
 -1      4202 2.01895E+01-7.62679E-02-4.87445E-04-8.26343E-02 6.63157E-14-2.49176E-13
 -1      4203 2.01811E+01-7.48313E-02 2.85078E-04-1.00448E-01 2.02274E-14-1.84812E-13
 -1      4204 2.01988E+01-7.30797E-02 2.47574E-04-1.02599E-01-1.32823E-14-1.52136E-13
 -1      4205 2.01528E+01-6.19162E-02 3.56617E-04-5.97978E-02 4.20807E-14-2.43826E-13
 -1      4206 2.01721E+01-7.08599E-02 2.32878E-04-6.08673E-02 7.59268E-14-2.31347E-13
 -1      4207 2.04223E+01 2.92420E-01 6.08398E-05 9.00453E-03-7.56681E-14-2.50844E-13
 -1      4208 2.04119E+01 2.01556E-01-1.67895E-04 2.64892E-02-8.05780E-14-2.18829E-13
 -1      4209 2.04322E+01 3.65166E-01 4.25298E-04 1.51050E-03-6.05148E-14-2.57865E-13
 -1      4210 1.99910E+01 1.00399E-01 7.43032E-05-6.82903E-02 3.34490E-14-1.08641E-13
 -1      4211 2.00112E+01 7.19262E-02-3.91099E-04-6.31778E-02 1.22517E-14-7.83245E-14
 -1      4212 1.99752E+01 1.21902E-01 6.65273E-04-4.92836E-02 4.55028E-14-2.22220E-13
 -1      4213 2.00345E+01 4.61198E-02 1.85202E-04-6.11306E-02-1.28724E-14-7.71490E-14
 -1      4214 2.00528E+01 2.22087E-02-2.29833E-04-5.83140E-02 1.73384E-14-9.06730E-14
 -1      4215 2.00231E+01 6.25444E-02 2.09899E-04-4.39964E-02 3.00211E-14-1.64708E-13
 -1      4216 1.51846E+01 9.82487E-01-9.32735E-03-9.49686E-01 2.24106E-13-3.95432E-13
 -1      4217 1.99191E+01 1.91434E-01 1.19596E-03-5.74672E-02 2.81085E-15-1.49036E-13
 -1      4218 2.03811E+01 9.14219E-01 2.14954E-04-3.73446E-02-5.96893E-14-3.00610E-13
 -1      4219 2.03758E+01 9.16219E-01-6.17060E-04-6.65064E-02-7.38081E-14-2.77523E-13
 -1      4220 2.03970E+01 7.98757E-01 1.12365E-03-5.34436E-02-6.67768E-14-2.47137E-13
 -1      4221 2.03985E+01 7.80830E-01-8.61772E-04 2.48029E-02-1.46395E-14-3.25040E-13
 -1      4222 2.04104E+01 4.32284E-01-1.29279E-03 6.39821E-03-1.01583E-14-3.24361E-13
 -1      4223 2.03305E+01-4.48831E-03-9.70489E-05-6.38551E-02-7.38809E-14-1.73014E-13
 -1      4224 2.03534E+01 3.47690E-02 6.58615E-04-5.64427E-02-6.24693E-14-1.70959E-13
 -1      4225 2.00744E+01 8.50352E-04 2.71523E-04-5.78244E-02 2.32031E-14-1.03541E-13
 -1      4226 2.00920E+01-1.85898E-02-8.23739E-05-5.68628E-02 7.69804E-15-1.53682E-13
 -1      4227 2.00662E+01 1.27412E-02-1.82329E-04-4.13117E-02 1.29011E-15-1.11912E-13
 -1      4228 2.01927E+01-7.58260E-02-4.33124E-04-4.38934E-02 1.82330E-14-2.46269E-13
 -1      4229 2.01943E+01-7.67952E-02 1.68341E-04-6.31097E-02 7.61711E-14-2.51970E-13
 -1      4230 2.02149E+01-7.84340E-02 1.27794E-04-6.42936E-02 4.04498E-14-2.87872E-13
 -1      4231 2.04143E+01 1.73799E-01-5.47223E-04 1.41553E-02-4.45391E-14-2.40545E-13
 -1      4232 2.04061E+01 6.88493E-01-1.09316E-03-3.86543E-02-7.13685E-14-2.57177E-13
 -1      4233 2.01312E+01-5.00984E-02 5.53352E-05-5.80257E-02 1.20113E-14-2.09724E-13
 -1      4234 2.01490E+01-5.78062E-02-7.43621E-04-4.18514E-02 1.89869E-14-2.37342E-13
 -1      4235 2.01131E+01-3.54362E-02 3.31966E-04-5.76538E-02-1.51017E-14-1.86599E-13
 -1      4236 2.04197E+01 6.37457E-01 1.17546E-03-1.91296E-02-6.85246E-14-2.89051E-13
 -1      4237 2.02849E+01-5.42326E-02 1.93254E-04-6.68864E-02-7.25549E-14-2.20186E-13
 -1      4238 2.03085E+01-3.34893E-02 6.08618E-04-6.40091E-02-8.00744E-14-2.04520E-13
 -1      4239 2.03338E+01-1.65255E-02-1.05984E-03-4.49461E-02-5.44366E-14-2.99692E-13
 -1      4240 1.69479E+01 8.12747E-01 4.90838E-03 1.24763E+00 1.27616E-13-4.36495E-13
 -1      4241 1.71444E+01 5.45917E-01-1.48547E-02 1.58482E+00 6.91936E-14-2.07391E-13
 -1      4242 2.03414E+01-2.18951E-02 3.14266E-04-1.03066E-02-4.49786E-14-2.69446E-13
 -1      4243 2.03165E+01-4.72910E-02 5.53234E-04-8.95773E-03-3.54445E-14-2.91988E-13
 -1      4244 2.02517E+01-7.93075E-02 3.03981E-04 4.70257E-03-1.71437E-14-2.25886E-13
 -1      4245 2.02283E+01-8.08155E-02 3.52031E-04 4.77829E-03-2.21034E-14-1.99377E-13
 -1      4246 2.01958E+01-7.46282E-02 3.69682E-04-9.19946E-03-1.02418E-14-1.98528E-13
 -1      4247 2.01732E+01-6.65445E-02 4.70990E-04-8.69415E-03-2.01481E-15-1.86348E-13
 -1      4248 2.01515E+01-5.48155E-02 4.28745E-04-8.63752E-03-3.26270E-14-1.81066E-13
 -1      4249 2.01292E+01-4.07731E-02 3.82152E-04-8.39053E-03-7.90292E-15-1.43963E-13
 -1      4250 2.01078E+01-2.36684E-02 2.60848E-04-8.60960E-03-1.82699E-14-1.42253E-13
 -1      4251 2.00857E+01-4.43748E-03 1.92462E-04-8.17724E-03-1.07252E-14-1.27383E-13
 -1      4252 2.00640E+01 1.73818E-02 1.20077E-05-8.99369E-03 2.20002E-15-1.24261E-13
 -1      4253 2.00412E+01 4.14036E-02-3.11031E-05-8.16275E-03 4.67199E-14-1.62205E-13
 -1      4254 2.00177E+01 6.77254E-02-2.92449E-04-9.77017E-03 8.81372E-14-1.50763E-13
 -1      4255 1.99928E+01 9.65296E-02-2.83925E-04-8.34583E-03 4.26094E-14-1.56671E-13
 -1      4256 1.99659E+01 1.27475E-01-6.53743E-04-1.08579E-02-1.12482E-14-1.67334E-13
 -1      4257 1.99374E+01 1.61306E-01-5.71303E-04-8.61249E-03 4.86141E-15-1.46025E-13
 -1      4258 1.99051E+01 1.97173E-01-1.08142E-03-1.20569E-02 5.98854E-15-1.85001E-13
 -1      4259 1.98709E+01 2.36371E-01-9.01029E-04-8.69113E-03 4.31238E-14-1.83117E-13
 -1      4260 1.98309E+01 2.77467E-01-1.58991E-03-1.29814E-02 6.02227E-14-2.17563E-13
 -1      4261 1.97888E+01 3.22290E-01-1.28181E-03-8.07853E-03 1.98584E-14-2.21533E-13
 -1      4262 1.97383E+01 3.68748E-01-2.19842E-03-1.29672E-02-3.35706E-14-1.68258E-13
 -1      4263 1.96857E+01 4.19178E-01-1.72323E-03-5.93039E-03-1.86909E-14-1.55811E-13
 -1      4264 1.96214E+01 4.70744E-01-2.93293E-03-1.09442E-02-2.34626E-14-9.02941E-14
 -1      4265 1.95555E+01 5.26258E-01-2.23709E-03-9.09048E-04 1.70721E-15-1.42593E-13
 -1      4266 1.94737E+01 5.82050E-01-3.83083E-03-5.27125E-03-1.17657E-14-7.82752E-14
 -1      4267 1.93913E+01 6.41374E-01-2.84107E-03 9.01925E-03 7.27740E-15-1.34419E-13
 -1      4268 1.92872E+01 6.99615E-01-4.95035E-03 6.47075E-03-3.75680E-14-1.55572E-13
 -1      4269 1.91847E+01 7.60466E-01-3.56597E-03 2.68453E-02-6.37704E-14-2.27931E-13
 -1      4270 1.90526E+01 8.18209E-01-6.38675E-03 2.77321E-02-2.80463E-14-2.50283E-13
 -1      4271 1.89258E+01 8.77067E-01-4.46627E-03 5.68472E-02-1.96232E-14-2.36836E-13
 -1      4272 1.87584E+01 9.29964E-01-8.29367E-03 6.33136E-02-3.08843E-14-1.63230E-13
 -1      4273 1.86021E+01 9.81921E-01-5.62227E-03 1.05015E-01-9.15061E-15-1.84307E-13
 -1      4274 1.83891E+01 1.02413E+00-1.08705E-02 1.19850E-01 8.31274E-15-1.40562E-13
 -1      4275 1.81970E+01 1.06288E+00-7.03087E-03 1.79642E-01 5.10159E-14-1.76335E-13
 -1      4276 1.79236E+01 1.08760E+00-1.40181E-02 2.06932E-01-3.61136E-14-2.57878E-13
 -1      4277 1.76884E+01 1.10555E+00-7.80005E-03 2.93129E-01-4.46468E-14-2.83528E-13
 -1      4278 1.69738E+01 3.72005E-01 7.97609E-03 1.87347E+00 1.27321E-13-2.58553E-13
 -1      4279 2.02318E+01-7.11458E-02-4.83219E-04-8.60492E-02-3.76083E-14-2.28813E-13
 -1      4280 1.73324E+01 1.11383E+00-1.37640E-02 3.41666E-01 8.43292E-16-3.86617E-13
 -1      4281 2.03743E+01 5.97609E-02-1.03203E-03-4.01178E-02-6.73228E-14-2.34778E-13
 -1      4282 2.03686E+01 7.76495E-02-3.18744E-04-5.54756E-02-6.78031E-14-1.65373E-13
 -1      4283 2.03854E+01 1.30852E-01 9.11369E-04-4.43419E-02-2.08989E-14-2.14264E-13
 -1      4284 2.04133E+01 3.04592E-01 2.00740E-03-1.19761E-02-7.08680E-15-3.05631E-13
 -1      4285 2.04267E+01 4.34346E-01-3.67408E-05 5.48268E-03-1.97542E-14-2.79680E-13
 -1      4286 2.04336E+01 3.86057E-01-1.30154E-03-5.66678E-03-4.94649E-14-2.52834E-13
 -1      4287 2.04331E+01 2.79304E-01 8.38832E-04 2.14707E-03-4.32414E-14-2.41450E-13
 -1      4288 2.04172E+01 1.77716E-01-3.11452E-04-9.89922E-03-4.38260E-14-2.49134E-13
 -1      4289 2.04031E+01 1.07697E-01 1.06320E-03-5.80297E-03-5.87396E-14-2.57160E-13
 -1      4290 2.03857E+01 8.93631E-01-1.31158E-03-7.20444E-03-4.54553E-14-3.37152E-13
 -1      4291 2.02388E+01-7.58469E-02 2.45368E-04-6.58972E-02 1.48969E-14-2.79304E-13
 -1      4292 2.02608E+01-6.82876E-02 2.41546E-04-6.60187E-02-2.68698E-14-2.37463E-13
 -1      4293 2.02385E+01-7.77254E-02-3.06567E-04-4.52721E-02 2.59400E-14-3.21910E-13
 -1      4294 2.03863E+01 5.80106E-02 3.78765E-04-9.29787E-03-7.02463E-14-2.72341E-13
 -1      4295 2.03651E+01 1.19313E-02 9.10170E-04-7.09325E-03-4.37583E-14-2.65335E-13
 -1      4296 2.04166E+01 6.89901E-01 3.96903E-04-1.41087E-03-3.47178E-14-3.05632E-13
 -1      4297 2.04324E+01 5.33070E-01 3.19014E-04 9.86108E-03-3.57988E-14-2.77732E-13
 -1      4298 2.03019E+01-6.03288E-02 2.98990E-04 5.25635E-03-1.39664E-14-2.81494E-13
 -1      4299 2.02762E+01-7.31681E-02 2.03582E-04 5.47415E-03-1.51711E-14-2.44727E-13
 -1      4300 2.04010E+01 2.21400E-01-9.66088E-04-3.17247E-02 4.96342E-15-2.69736E-13
 -1      4301 1.70474E+01 1.10128E+00-2.64194E-03 4.56052E-01 9.98266E-14-4.74899E-13
 -1      4302 1.62769E+01 6.48152E-01 2.28351E-02 1.64278E+00 1.12391E-13-3.46927E-13
 -1      4303 2.02627E+01-7.59404E-02-2.95149E-04-1.61845E-02-4.24532E-15-2.42263E-13
 -1      4304 2.01074E+01-2.76191E-02-5.13224E-04-4.07935E-02-2.17902E-14-1.77706E-13
 -1      4305 2.04099E+01 1.98321E-01-4.38805E-04-2.35474E-02-4.73950E-14-2.22083E-13
 -1      4306 2.02043E+01-7.68049E-02-4.06018E-04-2.91842E-02-2.00430E-15-2.32869E-13
 -1      4307 1.63583E+01 9.06539E-01-4.68643E-03 1.05411E+00 1.26515E-13-4.13162E-13
 -1      4308 1.67205E+01 1.00355E+00-6.98894E-03 8.43814E-01 1.90043E-13-5.03344E-13
 -1      4309 2.03004E+01-5.77266E-02-4.84334E-04-3.18349E-02-5.23073E-14-3.33500E-13
 -1      4310 2.02859E+01-6.06439E-02-4.39762E-04-4.60486E-02-2.40697E-14-3.26440E-13
 -1      4311 2.02760E+01-7.07612E-02 2.44306E-04-3.20452E-02-8.52356E-15-3.08282E-13
 -1      4312 2.02513E+01-7.84340E-02-1.02611E-04-3.05643E-02 1.37728E-14-2.83557E-13
 -1      4313 2.02273E+01-7.98130E-02 2.55231E-04-3.03116E-02 3.41692E-15-2.42307E-13
 -3
    1PSTEP                         3           1           1          
  100CL  101 1.000000000        4313                     0    1           1
 -4  TOSTRAIN    6    1
 -5  EXX         1    4    1    1
 -5  EYY         1    4    2    2
 -5  EZZ         1    4    3    3
 -5  EXY         1    4    1    2
 -5  EYZ         1    4    2    3
 -5  EZX         1    4    3    1
 -1         1 6.96533E-06 3.85108E-06-9.46807E-06 9.70397E-06 4.36222E-19 7.44330E-19
 -1         2 3.98104E-05-1.21112E-04 2.20459E-05 3.84183E-07 1.14795E-17 6.81570E-19
 -1         3 9.49837E-05-2.88451E-05-2.81192E-05-3.24695E-07-1.92442E-18-1.69189E-18
 -1         4 9.51071E-05-2.87032E-05-2.82990E-05 1.26841E-07 1.13248E-19 1.05809E-18
 -1         5 1.43346E-04-2.14785E-05-4.25277E-05 3.85317E-05-2.02017E-19 1.68553E-17
 -1         6 1.45409E-04 2.57567E-10-4.41869E-05-5.35276E-05-9.93040E-19 1.91022E-17
 -1         7 9.06067E-05-5.11037E-07-3.90676E-05-2.92541E-05-1.41455E-19 4.55222E-18
 -1         8 8.51239E-05 8.63112E-08-3.63384E-05-2.02734E-05-2.34628E-19-2.35148E-19
 -1         9 8.28124E-05 7.65168E-08-3.53501E-05-1.56418E-05-2.22584E-19-2.92105E-18
 -1        10 8.17729E-05 3.91491E-08-3.48817E-05-1.20814E-05-1.54372E-19-4.36207E-18
 -1        11 8.12543E-05 1.91486E-08-3.46536E-05-9.01547E-06-1.36263E-19-5.05451E-18
 -1        12 8.09846E-05 9.16590E-09-3.45391E-05-6.28572E-06-8.70244E-20-5.42231E-18
 -1        13 8.08434E-05 4.60109E-09-3.44813E-05-3.68663E-06-5.98118E-20-5.62693E-18
 -1        14 8.07845E-05 2.71515E-09-3.44578E-05-1.18409E-06-3.09148E-20-5.80795E-18
 -1        15 8.07866E-05 2.69844E-09-3.44585E-05 1.28919E-06-4.30775E-21-5.90437E-18
 -1        16 8.08499E-05 4.49158E-09-3.44836E-05 3.79690E-06 2.42471E-20-5.97711E-18
 -1        17 8.09963E-05 8.38390E-09-3.45426E-05 6.40842E-06 4.95878E-20-5.92056E-18
 -1        18 8.12707E-05 1.81606E-08-3.46582E-05 9.15788E-06 6.63697E-20-5.71039E-18
 -1        19 8.17968E-05 3.81981E-08-3.48898E-05 1.22602E-05 1.14111E-19-5.17901E-18
 -1        20 8.28350E-05 8.15450E-08-3.53631E-05 1.58729E-05 1.83753E-19-4.06935E-18
 -1        21 8.50887E-05 1.69508E-07-3.63768E-05 2.04844E-05 2.32193E-19-1.64362E-18
 -1        22 9.16438E-05-9.95703E-08-3.87391E-05 2.80006E-05 6.67038E-20 3.78351E-18
 -1        23 1.12975E-04-3.81266E-05-3.53974E-05-4.40268E-06-6.37631E-19 1.55749E-17
 -1        24 9.28074E-05-2.76979E-05-2.90001E-05 3.91369E-07-2.01273E-19 1.22067E-17
 -1        25 8.91225E-05-2.68531E-05-2.69302E-05 3.75878E-07-1.02268E-19 8.84038E-18
 -1        26 8.80186E-05-2.64893E-05-2.63926E-05 2.04036E-07-7.49235E-20 6.35700E-18
 -1        27 8.80444E-05-2.64674E-05-2.63845E-05 1.39888E-07-8.61083E-20 4.73271E-18
 -1        28 8.85772E-05-2.66035E-05-2.65538E-05 1.00867E-07-1.98823E-20 3.51081E-18
 -1        29 8.93306E-05-2.68157E-05-2.67859E-05 7.51244E-08 1.62811E-20 2.76517E-18
 -1        30 9.01529E-05-2.70548E-05-2.70352E-05 5.67525E-08 1.21135E-19 2.37211E-18
 -1        31 9.09596E-05-2.72923E-05-2.72786E-05 4.29111E-08-1.21178E-19 1.15229E-18
 -1        32 9.17038E-05-2.75130E-05-2.75028E-05 3.21563E-08-1.68771E-19 3.16082E-19
 -1        33 9.23627E-05-2.77091E-05-2.77015E-05 2.36782E-08 2.52523E-19-5.65213E-20
 -1        34 9.29288E-05-2.78781E-05-2.78724E-05 1.69661E-08-5.15528E-20 2.09335E-19
 -1        35 9.34047E-05-2.80206E-05-2.80162E-05 1.16639E-08 1.88545E-19-2.03634E-19
 -1        36 9.37999E-05-2.81391E-05-2.81358E-05 7.50813E-09 4.24679E-20-5.60096E-20
 -1        37 9.41281E-05-2.82379E-05-2.82353E-05 4.30147E-09-2.27204E-19-8.80390E-19
 -1        38 9.44068E-05-2.83219E-05-2.83199E-05 1.90357E-09-2.96726E-19-2.01936E-18
 -1        39 9.46558E-05-2.83972E-05-2.83958E-05 2.30160E-10 2.66811E-19-1.86255E-18
 -1        40 9.48981E-05-2.84706E-05-2.84696E-05-7.43397E-10 1.49736E-19-9.12168E-19
 -1        41 9.51594E-05-2.85499E-05-2.85493E-05-9.75703E-10-7.99486E-20-2.24587E-18
 -1        42 9.54690E-05-2.86437E-05-2.86438E-05-3.51228E-10-1.81864E-19-2.87149E-18
 -1        43 9.58606E-05-2.87622E-05-2.87631E-05 1.32823E-09-1.05316E-19-2.41530E-18
 -1        44 9.63719E-05-2.89166E-05-2.89186E-05 4.34973E-09 1.07570E-19-2.48115E-18
 -1        45 9.70454E-05-2.91196E-05-2.91232E-05 9.08719E-09-2.77328E-19-2.13420E-18
 -1        46 9.79259E-05-2.93844E-05-2.93900E-05 1.59796E-08 2.86198E-20-4.17266E-18
 -1        47 9.90580E-05-2.97242E-05-2.97324E-05 2.54675E-08-3.64504E-19-3.07819E-18
 -1        48 1.00479E-04-3.01499E-05-3.01609E-05 3.78483E-08 4.82775E-19-1.81686E-18
 -1        49 1.02208E-04-3.06668E-05-3.06803E-05 5.29871E-08 1.03170E-19-1.06987E-18
 -1        50 1.04227E-04-3.12690E-05-3.12834E-05 6.97912E-08-1.58648E-19-1.51762E-18
 -1        51 1.06453E-04-3.19318E-05-3.19431E-05 8.53550E-08-1.88443E-20-1.62413E-18
 -1        52 1.08705E-04-3.26008E-05-3.26017E-05 9.37758E-08 1.41179E-20-7.81768E-19
 -1        53 1.10665E-04-3.31814E-05-3.31605E-05 8.49870E-08 9.34259E-21-5.30537E-19
 -1        54 1.11852E-04-3.35317E-05-3.34756E-05 4.47722E-08-2.65930E-20-1.19737E-18
 -1        55 1.11654E-04-3.34705E-05-3.33705E-05-4.16174E-08-1.41463E-19-3.12330E-19
 -1        56 1.09458E-04-3.28159E-05-3.26801E-05-1.79200E-07 2.03354E-20-1.01232E-18
 -1        57 1.04922E-04-3.14653E-05-3.13317E-05-3.46468E-07 4.44638E-19-1.46885E-18
 -1        58 9.83541E-05-2.95074E-05-2.94416E-05-4.82808E-07-4.51428E-19-2.28143E-18
 -1        59 9.09761E-05-2.73038E-05-2.73688E-05-5.01556E-07 5.55184E-19-2.22727E-18
 -1        60 8.47625E-05-2.54444E-05-2.56491E-05-3.44309E-07-4.74026E-19 7.31876E-19
 -1        61 8.16724E-05-2.45184E-05-2.47903E-05-4.50640E-08 2.61071E-19-8.04243E-19
 -1        62 8.26169E-05-2.48012E-05-2.50212E-05 2.66347E-07 3.53429E-19-2.70876E-18
 -1        63 8.69062E-05-2.60845E-05-2.61673E-05 4.49779E-07-5.04323E-19-3.67996E-18
 -1        64 9.26512E-05-2.77998E-05-2.77416E-05 4.51137E-07 9.41166E-21-5.78283E-18
 -1        65 9.77838E-05-2.93291E-05-2.91878E-05 3.16876E-07 5.99278E-19-3.40220E-18
 -1        66 1.00932E-04-3.02656E-05-3.01128E-05 1.35240E-07 5.16802E-19-5.04944E-19
 -1        67 1.01720E-04-3.05003E-05-3.03848E-05-2.19104E-08 2.12844E-19-6.87730E-19
 -1        68 1.00579E-04-3.01620E-05-3.01076E-05-1.19547E-07 4.67382E-19 2.11283E-18
 -1        69 9.83956E-05-2.95131E-05-2.95282E-05-1.45595E-07-3.65755E-20 5.90528E-19
 -1        70 9.62391E-05-2.88647E-05-2.89409E-05-7.61135E-08 8.59401E-19 2.06044E-18
 -1        71 9.50922E-05-2.84925E-05-2.85643E-05 5.95141E-08-9.73480E-20 4.03939E-18
 -1        72 1.02180E-04-3.05877E-05-3.41504E-05-1.92892E-06 2.95747E-19 1.46871E-17
 -1        73 9.25634E-05-2.75138E-05-2.89082E-05-3.33212E-07 1.48036E-19 1.01393E-17
 -1        74 8.91096E-05-2.67024E-05-2.69733E-05-1.25927E-07 1.64628E-19 6.58076E-18
 -1        75 8.80486E-05-2.64401E-05-2.64366E-05-9.56003E-08 6.22660E-21 4.22799E-18
 -1        76 8.80793E-05-2.64474E-05-2.64112E-05-7.65913E-08 1.62314E-19 2.52482E-18
 -1        77 8.86112E-05-2.65979E-05-2.65709E-05-6.25048E-08 4.02744E-20 1.14425E-18
 -1        78 8.93617E-05-2.68170E-05-2.67982E-05-5.16952E-08-8.83111E-20 1.01402E-18
 -1        79 9.01805E-05-2.70592E-05-2.70446E-05-4.27645E-08 2.09144E-19 1.93626E-20
 -1        80 9.09832E-05-2.72982E-05-2.72857E-05-3.50513E-08-2.49097E-20-1.64864E-18
 -1        81 9.17234E-05-2.75191E-05-2.75082E-05-2.82897E-08 1.22971E-20-2.23408E-18
 -1        82 9.23784E-05-2.77149E-05-2.77054E-05-2.23566E-08 8.34616E-21-2.96434E-18
 -1        83 9.29406E-05-2.78832E-05-2.78750E-05-1.71694E-08-7.12359E-20-3.48541E-18
 -1        84 9.34127E-05-2.80245E-05-2.80177E-05-1.26494E-08 8.26455E-20-3.50345E-18
 -1        85 9.38037E-05-2.81418E-05-2.81361E-05-8.71235E-09-1.79134E-20-3.88251E-18
 -1        86 9.41277E-05-2.82390E-05-2.82345E-05-5.26910E-09 3.67016E-20-4.33961E-18
 -1        87 9.44018E-05-2.83214E-05-2.83179E-05-2.23093E-09-1.82248E-19-4.63729E-18
 -1        88 9.46459E-05-2.83949E-05-2.83924E-05 4.82761E-10 4.51939E-20-3.84341E-18
 -1        89 9.48831E-05-2.84664E-05-2.84650E-05 2.93498E-09 2.44793E-19-4.88819E-18
 -1        90 9.51400E-05-2.85439E-05-2.85437E-05 5.15953E-09 3.79909E-20-6.29774E-18
 -1        91 9.54478E-05-2.86368E-05-2.86380E-05 7.14570E-09 7.70218E-20-6.19610E-18
 -1        92 9.58435E-05-2.87561E-05-2.87591E-05 8.81610E-09 8.15714E-21-4.96464E-18
 -1        93 9.63716E-05-2.89151E-05-2.89205E-05 9.99270E-09-6.24405E-20-3.78928E-18
 -1        94 9.70860E-05-2.91300E-05-2.91385E-05 1.03441E-08 3.26829E-20-5.46919E-18
 -1        95 9.80511E-05-2.94200E-05-2.94327E-05 9.30404E-09-3.56022E-19-4.60410E-18
 -1        96 9.93430E-05-2.98076E-05-2.98260E-05 5.94968E-09 4.23718E-19-3.51121E-18
 -1        97 1.01048E-04-3.03185E-05-3.03443E-05-1.16458E-09-5.13241E-20-1.98274E-18
 -1        98 1.03258E-04-3.09794E-05-3.10145E-05-1.41963E-08-3.98544E-20-2.57820E-18
 -1        99 1.06054E-04-3.18144E-05-3.18600E-05-3.61216E-08-2.39266E-20-3.27463E-18
 -1       100 1.09482E-04-3.28363E-05-3.28905E-05-7.04467E-08-2.66464E-19-3.14968E-18
 -1       101 1.13494E-04-3.40309E-05-3.40849E-05-1.19792E-07 1.81656E-19-4.46301E-18
 -1       102 1.17857E-04-3.53308E-05-3.53622E-05-1.82013E-07-5.75806E-20-5.12679E-18
 -1       103 1.22029E-04-3.65785E-05-3.65441E-05-2.42415E-07-2.14600E-20-3.12961E-18
 -1       104 1.25018E-04-3.74871E-05-3.73239E-05-2.62057E-07-1.10458E-19-9.57528E-19
 -1       105 1.25364E-04-3.76292E-05-3.72838E-05-1.69331E-07 2.03736E-19-2.43601E-19
 -1       106 1.21466E-04-3.65186E-05-3.60239E-05 1.11933E-07-4.26311E-19-2.13405E-18
 -1       107 1.12544E-04-3.38846E-05-3.34387E-05 5.64962E-07-3.45942E-19-4.72025E-18
 -1       108 1.00004E-04-3.00898E-05-3.00239E-05 9.84965E-07 7.24527E-19-7.04191E-18
 -1       109 8.80778E-05-2.63868E-05-2.69149E-05 1.00859E-06 8.07527E-20-5.84175E-18
 -1       110 8.21282E-05-2.44739E-05-2.53950E-05 4.79077E-07-3.72592E-19-5.27364E-18
 -1       111 8.49147E-05-2.52881E-05-2.60671E-05-3.07367E-07-3.35422E-20-8.51136E-19
 -1       112 9.44090E-05-2.82298E-05-2.84615E-05-8.51525E-07-1.08866E-18 1.03380E-18
 -1       113 1.05353E-04-3.16226E-05-3.13431E-05-8.94385E-07 1.05942E-18-3.98741E-19
 -1       114 1.13056E-04-3.39901E-05-3.34924E-05-5.96269E-07-1.25367E-18-7.66565E-20
 -1       115 1.15631E-04-3.47657E-05-3.43147E-05-2.26521E-07 1.81315E-19 1.02338E-18
 -1       116 1.13648E-04-3.41510E-05-3.38614E-05 6.03394E-08 7.03851E-19 5.49221E-19
 -1       117 1.08808E-04-3.26781E-05-3.25608E-05 2.34414E-07 1.40629E-19-2.53868E-18
 -1       118 1.02983E-04-3.09104E-05-3.09510E-05 3.14419E-07 4.66526E-19-3.69017E-18
 -1       119 9.79178E-05-2.93686E-05-2.95389E-05 2.87129E-07-1.63954E-19-4.75488E-18
 -1       120 9.52069E-05-2.84573E-05-2.86632E-05 2.59777E-08 1.20395E-18-2.99306E-18
 -1       121 9.52006E-05-2.84044E-05-2.86936E-05-6.36786E-08-2.43297E-18 7.42719E-19
 -1       122 9.43414E-05-2.56408E-05-2.96159E-05 1.83792E-07-3.16382E-18-1.24286E-18
 -1       123 9.27501E-05-2.03112E-05-3.11505E-05 3.18231E-07-3.78520E-18 2.85750E-19
 -1       124 9.07530E-05-1.36142E-05-3.30793E-05 3.73031E-07-2.81797E-18-2.79205E-19
 -1       125 8.87028E-05-6.72691E-06-3.50637E-05 3.59020E-07 1.87684E-19 9.34607E-20
 -1       126 8.69897E-05-9.55401E-07-3.67214E-05 2.78363E-07-6.32830E-18 1.59401E-19
 -1       127 8.58857E-05 2.75141E-06-3.77840E-05 1.28160E-07-4.02347E-18 9.47502E-19
 -1       128 8.56522E-05 3.53596E-06-3.80151E-05-5.20663E-08-1.44697E-18-1.15977E-19
 -1       129 8.63113E-05 1.31967E-06-3.73933E-05-2.09769E-07 2.11326E-18 6.89314E-19
 -1       130 8.76789E-05-3.27818E-06-3.60863E-05-3.02523E-07 6.96306E-18-1.07598E-18
 -1       131 8.94360E-05-9.18494E-06-3.43881E-05-3.18027E-07 1.52655E-18-5.70419E-19
 -1       132 9.12176E-05-1.51793E-05-3.26428E-05-2.73744E-07-4.32782E-18 1.22331E-18
 -1       133 9.28269E-05-2.05802E-05-3.10521E-05-1.99204E-07-4.14922E-18 8.35651E-20
 -1       134 9.40724E-05-2.47683E-05-2.98100E-05-1.28613E-07-4.16965E-20 8.95930E-19
 -1       135 9.48901E-05-2.74566E-05-2.89919E-05-7.11302E-08-1.20513E-18-2.47861E-19
 -1       136 9.51814E-05-2.85492E-05-2.85765E-05 1.66693E-07-4.05263E-18 1.79941E-19
 -1       137 2.78631E-05-9.56244E-05 1.73267E-05-2.69750E-05 1.89630E-18-1.68218E-18
 -1       138 7.43178E-06-3.23200E-05 2.54652E-06-1.80765E-05-1.01436E-17-5.13980E-18
 -1       139 1.32124E-05 1.69325E-05-1.63353E-05 2.68561E-05-5.84664E-18-3.38178E-18
 -1       140 6.44837E-05 2.76098E-05-3.75629E-05 8.42763E-05-1.08166E-18-1.04736E-18
 -1       141 1.57388E-04-5.87768E-06-5.77913E-05 1.18085E-04 9.48677E-20 4.08693E-19
 -1       142 2.61119E-04-6.24317E-05-7.36547E-05 9.67790E-05-5.47395E-20 2.27132E-18
 -1       143 3.16792E-04-9.68157E-05-8.07604E-05 2.29928E-05-2.72930E-19-4.58208E-18
 -1       144 2.91745E-04-8.25695E-05-7.72430E-05-6.47854E-05 2.49705E-18-1.16300E-17
 -1       145 2.05022E-04-3.30238E-05-6.49304E-05-1.11107E-04 6.50098E-18-1.56629E-17
 -1       146 1.02054E-04 1.33603E-05-4.57770E-05-9.83831E-05 8.20351E-18-1.25132E-17
 -1       147 2.53210E-05 2.16518E-05-2.22428E-05-4.28429E-05 8.61475E-18-7.71012E-18
 -1       148 4.51154E-06-1.64425E-05-1.89558E-06 1.00023E-05 6.97066E-18-4.02785E-18
 -1       149 1.92560E-05-7.37632E-05 1.30220E-05 2.87728E-05 1.25954E-18-9.71017E-19
 -1       150 3.59958E-05-1.12018E-04 2.06010E-05 1.20317E-05-8.85732E-18 5.88423E-20
 -1       151 3.28235E-05-1.04292E-04 1.90583E-05-1.75430E-05-7.45220E-18-2.37126E-19
 -1       152 1.25109E-05-5.25141E-05 8.21272E-06-2.48275E-05-8.86843E-19-1.39231E-19
 -1       153 4.11508E-05 2.88985E-05-3.00029E-05 6.47011E-05-1.52593E-18-2.00323E-19
 -1       154 1.18300E-04 9.68848E-06-4.99647E-05 1.07789E-04-2.55973E-18-5.90170E-18
 -1       155 2.18317E-04-4.02097E-05-6.71036E-05 1.08755E-04-3.57469E-18-8.98617E-18
 -1       156 2.95968E-04-8.62665E-05-7.77658E-05 5.52719E-05-2.09754E-18-1.07158E-17
 -1       157 3.09741E-04-9.44611E-05-7.95466E-05-3.04468E-05 9.58444E-19-1.08152E-17
 -1       158 2.52466E-04-5.88336E-05-7.21212E-05-9.80316E-05 1.10517E-18-7.04774E-18
 -1       159 1.56390E-04-5.92906E-06-5.73686E-05-1.16767E-04-3.11285E-19-1.04354E-18
 -1       160 6.45763E-05 2.74078E-05-3.73333E-05-8.39263E-05 8.46186E-19 1.80418E-19
 -1       161 1.19260E-05 1.54357E-05-1.51454E-05-2.44807E-05 2.04304E-18-1.13799E-18
 -1       162 8.94110E-06-3.56918E-05 3.44018E-06 1.70654E-05-2.22897E-18-8.55927E-19
 -1       163 2.67488E-05-9.26929E-05 1.69130E-05 2.60071E-05 1.02872E-18 7.98276E-19
 -1       164 9.48681E-05-1.23464E-05-3.55694E-05-2.23518E-05-2.59085E-18 1.85889E-18
 -1       165 8.92496E-05-8.45801E-06-3.47870E-05-1.73921E-05-2.63262E-18-1.20206E-18
 -1       166 8.65375E-05-6.49799E-06-3.44149E-05-1.35906E-05-2.27264E-18-3.00247E-18
 -1       167 8.51950E-05-5.51832E-06-3.42314E-05-1.03694E-05-1.93396E-18-3.92056E-18
 -1       168 8.44472E-05-4.94377E-06-3.41422E-05-7.54820E-06-1.42548E-18-4.35609E-18
 -1       169 8.40213E-05-4.60014E-06-3.40994E-05-4.90519E-06-1.02611E-18-4.62769E-18
 -1       170 8.38038E-05-4.41625E-06-3.40813E-05-2.39594E-06-5.72751E-19-4.77750E-18
 -1       171 8.37396E-05-4.36055E-06-3.40767E-05 5.11429E-08-1.79126E-19-4.89592E-18
 -1       172 8.38137E-05-4.42466E-06-3.40821E-05 2.50025E-06 1.96700E-19-5.01305E-18
 -1       173 8.40435E-05-4.61964E-06-3.41008E-05 5.01588E-06 5.61001E-19-5.04368E-18
 -1       174 8.44758E-05-4.97243E-06-3.41425E-05 7.62567E-06 9.88008E-19-4.91413E-18
 -1       175 8.52511E-05-5.57455E-06-3.42320E-05 1.05151E-05 1.52879E-18-4.56295E-18
 -1       176 8.66467E-05-6.60849E-06-3.44183E-05 1.37860E-05 2.03963E-18-3.84901E-18
 -1       177 8.93914E-05-8.59991E-06-3.47919E-05 1.76254E-05 2.50214E-18-2.29292E-18
 -1       178 9.57794E-05-1.36135E-05-3.54254E-05 2.18960E-05 2.58509E-18 8.99523E-19
 -1       179 1.05605E-04-2.61020E-05-3.52631E-05 1.86647E-05 2.11897E-18 5.21651E-18
 -1       180 1.03398E-04-2.73012E-05-3.26109E-05-1.21278E-05-2.27733E-18 5.22691E-18
 -1       181 9.71091E-05-2.82907E-05-2.95290E-05-4.73192E-06-2.03374E-18 4.07302E-18
 -1       182 9.35070E-05-2.76368E-05-2.81821E-05-1.77073E-06-1.54326E-18 3.06942E-18
 -1       183 9.19704E-05-2.74052E-05-2.76354E-05-4.22987E-07-1.15367E-18 1.95460E-18
 -1       184 9.13934E-05-2.73300E-05-2.74375E-05 2.40929E-07-8.56379E-19 1.13459E-18
 -1       185 9.13500E-05-2.73684E-05-2.74121E-05 5.66112E-07-4.66419E-19 7.81815E-19
 -1       186 9.15916E-05-2.74705E-05-2.74765E-05 7.04121E-07-3.73907E-19 2.92124E-19
 -1       187 9.19730E-05-2.76021E-05-2.75858E-05 7.34262E-07-6.26054E-19-2.36195E-20
 -1       188 9.24074E-05-2.77416E-05-2.77133E-05 7.02650E-07-5.64386E-19 2.15994E-19
 -1       189 9.28436E-05-2.78766E-05-2.78431E-05 6.38067E-07-3.64307E-19-1.71612E-20
 -1       190 9.32528E-05-2.80000E-05-2.79659E-05 5.59200E-07-1.99248E-20-8.88105E-19
 -1       191 9.36212E-05-2.81090E-05-2.80772E-05 4.78419E-07-3.12679E-19-1.04632E-18
 -1       192 9.39452E-05-2.82031E-05-2.81757E-05 4.04030E-07-1.90744E-19-9.89755E-19
 -1       193 9.42279E-05-2.82838E-05-2.82622E-05 3.41747E-07-4.86830E-19-1.27966E-18
 -1       194 9.44776E-05-2.83538E-05-2.83390E-05 2.95739E-07-4.86323E-19-1.06123E-18
 -1       195 9.47062E-05-2.84167E-05-2.84098E-05 2.69389E-07-1.77648E-19-9.91128E-19
 -1       196 9.49286E-05-2.84770E-05-2.84790E-05 2.65858E-07 3.92887E-20-2.01844E-18
 -1       197 9.51626E-05-2.85398E-05-2.85520E-05 2.88472E-07-4.24111E-19-2.50915E-18
 -1       198 9.54289E-05-2.86114E-05-2.86351E-05 3.40941E-07-2.84984E-19-1.96399E-18
 -1       199 9.57512E-05-2.86985E-05-2.87355E-05 4.27378E-07 8.12116E-20-2.03734E-18
 -1       200 9.61558E-05-2.88092E-05-2.88610E-05 5.52058E-07 2.82659E-19-1.88038E-18
 -1       201 9.66717E-05-2.89522E-05-2.90204E-05 7.18802E-07 2.61902E-20-2.01986E-18
 -1       202 9.73296E-05-2.91374E-05-2.92227E-05 9.29814E-07-2.33414E-20-1.12382E-18
 -1       203 9.81595E-05-2.93749E-05-2.94763E-05 1.18371E-06 3.34870E-19-4.35963E-19
 -1       204 9.91871E-05-2.96748E-05-2.97883E-05 1.47241E-06 4.90144E-19-8.85707E-19
 -1       205 1.00427E-04-3.00453E-05-3.01616E-05 1.77653E-06 1.27770E-19-1.41045E-18
 -1       206 1.01876E-04-3.04909E-05-3.05925E-05 2.05901E-06-2.48235E-19-2.09133E-18
 -1       207 1.03493E-04-3.10082E-05-3.10660E-05 2.25747E-06 5.11870E-20-1.29868E-18
 -1       208 1.05190E-04-3.15807E-05-3.15508E-05 2.27708E-06 3.44100E-19 4.29621E-19
 -1       209 1.06807E-04-3.21704E-05-3.19946E-05 1.98927E-06-1.32078E-19 3.40572E-19
 -1       210 1.08100E-04-3.27064E-05-3.23222E-05 1.24651E-06-4.29760E-19 5.47494E-19
 -1       211 1.08739E-04-3.30737E-05-3.24409E-05-7.06600E-08-1.39699E-19-1.38978E-19
 -1       212 1.08355E-04-3.31094E-05-3.22601E-05-1.96015E-06-4.69104E-19-6.44380E-19
 -1       213 1.06637E-04-3.26276E-05-3.17259E-05-4.16851E-06 2.03910E-19-8.12291E-22
 -1       214 1.03522E-04-3.15032E-05-3.08660E-05-6.09765E-06-9.26608E-21-8.17556E-19
 -1       215 9.94037E-05-2.98148E-05-2.98188E-05-6.89479E-06-1.98813E-19 6.83159E-19
 -1       216 9.52320E-05-2.79700E-05-2.88183E-05-5.84620E-06 5.46338E-19-8.91721E-19
 -1       217 9.22683E-05-2.66311E-05-2.81208E-05-2.95153E-06-5.93062E-19-8.47529E-21
 -1       218 9.14844E-05-2.63598E-05-2.79002E-05 8.07546E-07-1.18677E-18-6.04525E-19
 -1       219 9.29615E-05-2.72072E-05-2.81701E-05 3.91387E-06-1.06805E-18-1.72425E-18
 -1       220 9.58294E-05-2.86692E-05-2.87756E-05 5.24073E-06-4.77203E-19-2.80983E-18
 -1       221 9.88122E-05-3.00592E-05-2.94640E-05 4.63540E-06 1.57449E-18-2.07638E-18
 -1       222 1.00881E-04-3.09062E-05-2.99940E-05 2.76362E-06 2.22711E-18-6.05370E-19
 -1       223 1.01580E-04-3.10827E-05-3.02214E-05 5.56492E-07 1.86794E-18 3.77221E-19
 -1       224 1.00996E-04-3.07084E-05-3.01312E-05-1.24054E-06 1.46242E-18 2.19015E-18
 -1       225 9.95470E-05-3.00011E-05-2.98110E-05-2.21078E-06-8.01721E-19 8.97739E-20
 -1       226 9.77762E-05-2.91768E-05-2.94018E-05-2.21293E-06 2.75101E-19 1.30778E-19
 -1       227 9.61715E-05-2.84490E-05-2.90232E-05-1.33991E-06 1.24839E-18 2.29623E-20
 -1       228 9.95017E-05-2.85547E-05-3.05874E-05 7.21242E-06 2.13657E-18 4.31246E-18
 -1       229 9.44168E-05-2.77909E-05-2.85246E-05 2.74480E-06 1.69863E-18 2.94900E-18
 -1       230 9.20962E-05-2.74010E-05-2.76815E-05 9.30918E-07 1.14125E-18 1.64999E-18
 -1       231 9.11468E-05-2.72382E-05-2.73624E-05 6.91214E-08 1.03036E-18 6.43123E-19
 -1       232 9.09340E-05-2.72308E-05-2.72879E-05-3.58375E-07 4.92105E-19 2.03455E-19
 -1       233 9.11161E-05-2.73163E-05-2.73360E-05-5.58669E-07 1.75595E-19-1.44205E-19
 -1       234 9.14978E-05-2.74488E-05-2.74460E-05-6.31114E-07 7.56047E-19-7.74503E-19
 -1       235 9.19642E-05-2.75990E-05-2.75832E-05-6.29800E-07 5.09860E-19-1.13775E-18
 -1       236 9.24476E-05-2.77494E-05-2.77268E-05-5.87146E-07 2.19475E-19-1.51292E-18
 -1       237 9.29089E-05-2.78899E-05-2.78648E-05-5.23719E-07 2.06169E-19-1.49191E-18
 -1       238 9.33279E-05-2.80156E-05-2.79909E-05-4.52961E-07 5.68452E-19-1.50243E-18
 -1       239 9.36969E-05-2.81248E-05-2.81024E-05-3.83798E-07 3.62278E-20-2.29350E-18
 -1       240 9.40166E-05-2.82183E-05-2.81994E-05-3.22253E-07 2.56305E-19-2.47671E-18
 -1       241 9.42935E-05-2.82982E-05-2.82837E-05-2.72555E-07-2.56423E-20-2.93714E-18
 -1       242 9.45385E-05-2.83681E-05-2.83587E-05-2.37937E-07-4.32366E-20-2.17426E-18
 -1       243 9.47661E-05-2.84321E-05-2.84287E-05-2.21269E-07-1.84948E-19-2.26022E-18
 -1       244 9.49940E-05-2.84955E-05-2.84990E-05-2.25546E-07 1.06753E-18-2.64565E-18
 -1       245 9.52431E-05-2.85644E-05-2.85760E-05-2.54300E-07 7.65841E-19-2.67806E-18
 -1       246 9.55383E-05-2.86462E-05-2.86673E-05-3.11927E-07-2.52443E-19-2.95930E-18
 -1       247 9.59091E-05-2.87491E-05-2.87818E-05-4.03941E-07-9.73983E-19-2.56543E-18
 -1       248 9.63905E-05-2.88836E-05-2.89301E-05-5.37126E-07-2.54124E-19-1.78676E-18
 -1       249 9.70237E-05-2.90615E-05-2.91250E-05-7.19511E-07 6.61693E-19-2.11464E-18
 -1       250 9.78567E-05-2.92971E-05-2.93807E-05-9.60005E-07-4.63795E-19-3.31291E-18
 -1       251 9.89440E-05-2.96067E-05-2.97139E-05-1.26738E-06-1.09734E-18-2.81111E-18
 -1       252 1.00345E-04-3.00089E-05-3.01419E-05-1.64801E-06-4.34982E-19-1.98838E-18
 -1       253 1.02118E-04-3.05231E-05-3.06819E-05-2.10136E-06 1.35780E-19-1.36233E-18
 -1       254 1.04310E-04-3.11684E-05-3.13463E-05-2.61162E-06 7.06371E-20-1.51643E-18
 -1       255 1.06941E-04-3.19589E-05-3.21369E-05-3.13324E-06-8.17312E-20-1.53241E-18
 -1       256 1.09963E-04-3.28969E-05-3.30328E-05-3.56854E-06 1.09231E-19-1.26515E-18
 -1       257 1.13219E-04-3.39594E-05-3.39751E-05-3.73857E-06-4.30536E-19-8.56178E-19
 -1       258 1.16373E-04-3.50759E-05-3.48479E-05-3.35987E-06-7.10282E-19-1.37037E-18
 -1       259 1.18853E-04-3.60937E-05-3.54677E-05-2.06402E-06-2.36835E-19-1.60965E-18
 -1       260 1.19844E-04-3.67329E-05-3.56038E-05 4.71813E-07 6.63247E-19-2.67743E-18
 -1       261 1.18430E-04-3.65563E-05-3.50594E-05 4.18091E-06-2.74306E-19-3.22017E-18
 -1       262 1.14050E-04-3.50971E-05-3.38108E-05 8.07230E-06 1.09453E-18-2.87083E-18
 -1       263 1.07262E-04-3.23029E-05-3.21339E-05 1.01445E-05 1.06563E-18-3.62764E-18
 -1       264 1.00256E-04-2.90417E-05-3.05855E-05 8.28519E-06-1.56790E-18-3.45544E-18
 -1       265 9.62589E-05-2.70853E-05-2.97457E-05 2.48387E-06-9.05882E-19 9.72038E-20
 -1       266 9.72163E-05-2.76322E-05-2.98903E-05-4.25764E-06-1.63201E-18 8.92415E-19
 -1       267 1.02152E-04-3.01840E-05-3.08484E-05-8.19478E-06-8.48873E-19 1.49894E-18
 -1       268 1.07925E-04-3.29475E-05-3.20989E-05-7.77946E-06 8.27200E-19 1.26060E-18
 -1       269 1.11750E-04-3.45459E-05-3.30510E-05-4.39550E-06-1.52179E-18 3.31386E-18
 -1       270 1.12549E-04-3.47056E-05-3.33431E-05-3.38187E-07 1.38273E-18 1.21577E-18
 -1       271 1.10663E-04-3.38120E-05-3.29348E-05 2.83317E-06 1.51340E-18-1.79971E-19
 -1       272 1.07081E-04-3.23724E-05-3.20250E-05 4.56122E-06 1.17409E-18 2.81175E-20
 -1       273 1.02891E-04-3.07834E-05-3.09159E-05 4.85042E-06 1.26187E-18-8.55662E-19
 -1       274 9.90615E-05-2.93115E-05-2.99064E-05 3.83173E-06 4.08147E-19-1.44720E-18
 -1       275 9.62870E-05-2.82533E-05-2.91594E-05 1.76639E-06 8.15060E-20-9.02994E-19
 -1       276 9.53983E-05-2.64172E-05-2.95558E-05 3.18681E-06-2.83034E-19 1.46851E-19
 -1       277 9.41546E-05-2.31708E-05-3.04167E-05 5.34956E-06 2.31953E-19-8.72513E-19
 -1       278 9.25844E-05-1.89931E-05-3.15385E-05 6.63303E-06 1.95148E-19 1.14686E-18
 -1       279 9.08698E-05-1.43874E-05-3.27834E-05 6.81256E-06 2.18925E-19 2.60753E-19
 -1       280 8.92508E-05-1.01296E-05-3.39216E-05 5.81015E-06-1.84296E-18-2.92879E-18
 -1       281 8.79821E-05-6.85763E-06-3.47851E-05 3.66557E-06-1.24035E-18-6.15505E-19
 -1       282 8.73962E-05-5.32943E-06-3.51911E-05 7.74195E-07-1.28297E-18 1.55270E-18
 -1       283 8.76349E-05-5.84659E-06-3.50710E-05-2.20011E-06 7.22585E-19 1.94131E-18
 -1       284 8.86076E-05-8.22634E-06-3.44645E-05-4.56621E-06 1.56714E-18 1.76039E-18
 -1       285 9.00349E-05-1.18786E-05-3.35054E-05-5.87990E-06-5.19509E-19-2.76474E-18
 -1       286 9.15512E-05-1.59701E-05-3.23948E-05-6.08188E-06-8.84339E-20-2.85501E-18
 -1       287 9.29456E-05-1.99698E-05-3.12722E-05-5.41713E-06 2.98177E-19 5.26360E-19
 -1       288 9.40456E-05-2.33375E-05-3.02960E-05-4.23581E-06 1.82774E-20 1.30113E-18
 -1       289 9.48407E-05-2.58683E-05-2.95519E-05-2.80010E-06-1.09451E-18 4.25065E-19
 -1       290 9.55698E-05-2.73469E-05-2.92273E-05-2.22926E-06 2.85057E-19-6.25058E-19
 -1       291 1.39586E-05-5.44735E-05 1.35597E-05 6.60091E-06 3.29919E-19-4.21431E-18
 -1       292 2.94958E-05-4.74416E-05 4.80881E-06 2.33836E-05-1.29342E-18-5.56712E-18
 -1       293 5.78606E-05-3.92230E-05-9.79543E-06 3.58009E-05-3.97915E-18 6.44169E-19
 -1       294 9.63166E-05-3.31838E-05-2.73109E-05 4.60362E-05-2.42569E-18 4.93608E-19
 -1       295 1.40970E-04-3.18790E-05-4.53671E-05 4.84350E-05-1.52000E-18-5.80641E-19
 -1       296 1.83638E-04-3.40427E-05-6.11949E-05 4.04188E-05-7.55792E-19-1.39485E-18
 -1       297 2.08692E-04-3.55275E-05-7.07084E-05 1.90160E-05 2.13124E-18-5.87354E-18
 -1       298 2.05644E-04-3.18158E-05-7.14507E-05-2.71034E-06 3.16240E-18-6.86393E-18
 -1       299 1.97374E-04-3.66207E-05-6.57662E-05-2.76592E-05 4.76848E-18-6.99755E-18
 -1       300 1.60114E-04-3.63248E-05-5.15554E-05-3.53777E-05 4.13199E-18-8.75832E-18
 -1       301 1.19459E-04-4.15573E-05-3.32622E-05-3.93211E-05 4.46535E-18-8.77780E-18
 -1       302 6.66513E-05-3.66814E-05-1.42428E-05-3.70483E-05 3.84129E-18-5.95316E-18
 -1       303 3.43666E-05-4.35448E-05 1.23000E-06-2.36583E-05 1.68200E-18-3.26216E-18
 -1       304 1.64151E-05-4.88682E-05 1.07604E-05-1.13265E-05-7.99387E-19-4.50219E-18
 -1       305 1.09156E-05-5.00322E-05 1.34505E-05 3.13387E-06-1.91308E-18-5.05890E-19
 -1       306 2.06272E-05-4.79269E-05 8.54636E-06 1.67009E-05-2.48371E-18 2.40991E-18
 -1       307 4.82326E-05-4.13578E-05-4.67611E-06 3.43369E-05-6.95626E-19 7.99440E-19
 -1       308 7.88436E-05-3.18802E-05-2.08907E-05 4.22533E-05-3.74812E-20-1.15069E-18
 -1       309 1.21335E-04-2.96065E-05-3.85906E-05 4.78656E-05 5.85512E-19-3.72144E-18
 -1       310 1.64842E-04-3.17598E-05-5.48676E-05 4.33101E-05-2.11599E-19-4.96044E-18
 -1       311 1.99614E-04-3.55555E-05-6.70403E-05 2.77339E-05-1.32518E-18-5.98958E-18
 -1       312 2.12108E-04-3.55188E-05-7.21549E-05 2.52221E-06 2.56651E-19-6.13016E-18
 -1       313 2.07816E-04-3.59986E-05-6.99983E-05-2.24716E-05-2.09323E-19-6.67166E-18
 -1       314 1.79798E-04-3.26669E-05-6.02972E-05-4.05448E-05-1.60076E-18-5.65670E-18
 -1       315 1.40099E-04-3.23788E-05-4.49128E-05-4.62255E-05 1.60333E-18-1.86559E-18
 -1       316 9.65001E-05-3.46248E-05-2.67153E-05-4.57385E-05 2.13473E-18-2.21944E-18
 -1       317 5.56634E-05-3.90473E-05-8.89644E-06-3.57545E-05 1.10792E-18-2.44009E-18
 -1       318 3.26304E-05-4.48262E-05 3.35539E-06-2.99272E-05 2.95572E-18-5.54171E-19
 -1       319 1.37054E-05-5.17079E-05 1.28967E-05-8.78712E-06 2.79934E-18 2.96430E-18
 -1       320 9.16508E-05-1.43976E-05-3.31715E-05-1.30659E-05-2.88310E-18-1.40803E-18
 -1       321 9.57003E-05-1.91007E-05-3.28916E-05-1.46331E-05-2.91764E-18 4.39822E-19
 -1       322 8.79993E-05-1.03723E-05-3.33239E-05-8.16480E-06-2.00055E-18-3.08295E-18
 -1       323 8.71925E-05-9.45725E-06-3.33635E-05-5.72110E-06-1.47338E-18-3.46113E-18
 -1       324 8.67330E-05-8.92684E-06-3.33905E-05-3.36817E-06-9.17165E-19-3.59103E-18
 -1       325 8.65282E-05-8.68697E-06-3.34040E-05-1.07290E-06-4.06146E-19-3.78632E-18
 -1       326 8.65368E-05-8.69641E-06-3.34037E-05 1.20384E-06 4.63387E-21-3.93004E-18
 -1       327 8.67602E-05-8.95710E-06-3.33893E-05 3.50111E-06 5.22265E-19-4.00857E-18
 -1       328 8.72314E-05-9.50071E-06-3.33619E-05 5.81670E-06 9.95618E-19-3.97824E-18
 -1       329 8.80692E-05-1.04514E-05-3.33201E-05 8.25647E-06 1.55608E-18-3.63954E-18
 -1       330 8.94829E-05-1.20338E-05-3.32591E-05 1.07656E-05 2.16259E-18-3.23751E-18
 -1       331 9.19020E-05-1.47224E-05-3.31581E-05 1.31710E-05 2.70464E-18-2.28123E-18
 -1       332 9.58048E-05-1.94574E-05-3.28281E-05 1.43777E-05 2.94637E-18-3.71695E-19
 -1       333 9.87918E-05-2.44445E-05-3.19513E-05 1.18996E-05 2.77009E-18 1.54413E-18
 -1       334 9.63904E-05-2.68125E-05-2.97896E-05 5.74291E-06 2.21481E-18 8.56096E-19
 -1       335 9.64376E-05-2.60293E-05-3.01305E-05-6.35296E-06-2.28918E-18 6.48533E-19
 -1       336 9.49170E-05-2.70274E-05-2.90701E-05-2.83835E-06-1.94708E-18 3.80199E-19
 -1       337 9.39405E-05-2.74253E-05-2.84918E-05-9.24988E-07-1.56347E-18 6.06580E-20
 -1       338 9.34206E-05-2.76382E-05-2.81857E-05 1.33748E-07-9.53089E-19-2.64399E-19
 -1       339 9.32272E-05-2.77910E-05-2.80413E-05 6.97342E-07-5.88615E-19-5.53606E-19
 -1       340 9.32427E-05-2.79199E-05-2.79945E-05 9.64203E-07-6.11541E-19-5.13497E-19
 -1       341 9.33804E-05-2.80339E-05-2.80056E-05 1.05165E-06-4.75848E-19-7.10157E-19
 -1       342 9.35813E-05-2.81341E-05-2.80492E-05 1.03294E-06-5.81894E-19-5.39438E-19
 -1       343 9.38068E-05-2.82202E-05-2.81092E-05 9.55675E-07-8.35098E-19-7.47701E-19
 -1       344 9.40337E-05-2.82924E-05-2.81755E-05 8.51607E-07-2.34169E-19-1.06749E-18
 -1       345 9.42494E-05-2.83517E-05-2.82425E-05 7.42235E-07-3.14848E-19-1.26965E-18
 -1       346 9.44489E-05-2.83994E-05-2.83075E-05 6.42376E-07-1.22023E-19-1.19399E-18
 -1       347 9.46327E-05-2.84376E-05-2.83698E-05 5.62571E-07-6.45406E-19-5.37095E-19
 -1       348 9.48054E-05-2.84685E-05-2.84304E-05 5.10809E-07-4.97707E-19-1.07094E-18
 -1       349 9.49747E-05-2.84947E-05-2.84914E-05 4.93775E-07-6.44729E-19-1.07308E-18
 -1       350 9.51507E-05-2.85193E-05-2.85560E-05 5.17726E-07-3.73937E-19-1.52350E-18
 -1       351 9.53460E-05-2.85456E-05-2.86282E-05 5.89053E-07 1.31321E-20-1.04403E-18
 -1       352 9.55754E-05-2.85776E-05-2.87124E-05 7.14487E-07-3.16047E-19-1.77375E-18
 -1       353 9.58556E-05-2.86204E-05-2.88138E-05 9.00931E-07 1.33809E-19-1.76220E-18
 -1       354 9.62053E-05-2.86800E-05-2.89377E-05 1.15474E-06 3.66477E-19-1.70586E-18
 -1       355 9.66450E-05-2.87642E-05-2.90897E-05 1.48030E-06 8.28681E-19-7.15654E-19
 -1       356 9.71960E-05-2.88834E-05-2.92744E-05 1.87755E-06 1.43490E-19-4.43057E-19
 -1       357 9.78795E-05-2.90509E-05-2.94953E-05 2.33816E-06 2.27614E-19-6.10252E-19
 -1       358 9.87146E-05-2.92843E-05-2.97533E-05 2.83979E-06-1.17590E-19-1.70605E-18
 -1       359 9.97160E-05-2.96063E-05-3.00450E-05 3.33820E-06 3.66710E-19-1.22267E-18
 -1       360 1.00890E-04-3.00449E-05-3.03612E-05 3.75734E-06 2.25152E-19-8.14136E-19
 -1       361 1.02227E-04-3.06314E-05-3.06852E-05 3.97873E-06 8.43871E-19-2.86804E-19
 -1       362 1.03696E-04-3.13919E-05-3.09918E-05 3.83463E-06 2.67493E-19 2.22478E-20
 -1       363 1.05223E-04-3.23272E-05-3.12497E-05 3.11433E-06-3.32366E-19 2.04372E-20
 -1       364 1.06671E-04-3.33724E-05-3.14266E-05 1.60095E-06 1.42717E-19 2.96045E-19
 -1       365 1.07802E-04-3.43378E-05-3.15007E-05-8.36607E-07-1.61538E-19 6.90692E-19
 -1       366 1.08258E-04-3.48564E-05-3.14734E-05-4.07802E-06 2.52972E-19 1.24940E-18
 -1       367 1.07613E-04-3.44227E-05-3.13775E-05-7.54174E-06-9.71673E-20 1.53020E-18
 -1       368 1.05602E-04-3.26439E-05-3.12694E-05-1.00839E-05 2.73282E-19 1.65849E-18
 -1       369 1.02493E-04-2.96988E-05-3.11919E-05-1.02854E-05-3.99818E-19 1.14128E-18
 -1       370 9.93582E-05-2.66876E-05-3.11335E-05-7.30110E-06-2.90519E-19 8.77456E-19
 -1       371 9.76539E-05-2.51871E-05-3.10403E-05-1.83361E-06-1.18954E-18-5.31870E-19
 -1       372 9.81895E-05-2.60922E-05-3.08816E-05 3.84106E-06-6.32887E-19-6.48038E-19
 -1       373 1.00376E-04-2.87494E-05-3.06843E-05 7.29166E-06-6.43200E-19 5.62645E-19
 -1       374 1.02771E-04-3.15847E-05-3.05055E-05 7.50333E-06-5.44730E-19-1.99342E-20
 -1       375 1.04173E-04-3.33362E-05-3.03680E-05 5.15568E-06 2.46458E-18-8.92187E-19
 -1       376 1.04175E-04-3.36389E-05-3.02433E-05 1.72132E-06 2.67006E-18 5.55412E-20
 -1       377 1.03005E-04-3.28091E-05-3.00973E-05-1.45620E-06 2.21631E-18-8.58843E-19
 -1       378 1.01127E-04-3.13531E-05-2.99117E-05-3.55942E-06-1.57202E-18-1.66549E-18
 -1       379 9.89795E-05-2.96852E-05-2.97006E-05-4.26711E-06-3.47250E-19-1.59753E-18
 -1       380 9.71497E-05-2.83405E-05-2.94815E-05-3.65923E-06 6.28852E-19 3.04419E-19
 -1       381 9.43699E-05-2.73412E-05-2.86884E-05 2.47074E-06 1.81956E-18 4.14490E-19
 -1       382 9.31626E-05-2.74608E-05-2.81361E-05 7.46226E-07 1.46876E-18-1.43386E-19
 -1       383 9.26073E-05-2.75380E-05-2.78769E-05-1.74212E-07 7.93795E-19-5.69678E-19
 -1       384 9.24638E-05-2.76302E-05-2.77817E-05-6.49137E-07 3.43686E-19-8.63353E-19
 -1       385 9.25643E-05-2.77389E-05-2.77807E-05-8.66229E-07 8.08806E-19-1.02061E-18
 -1       386 9.27974E-05-2.78544E-05-2.78324E-05-9.30559E-07 9.15839E-19-1.08476E-18
 -1       387 9.30917E-05-2.79676E-05-2.79106E-05-9.05695E-07 4.70191E-19-1.21693E-18
 -1       388 9.34026E-05-2.80724E-05-2.79993E-05-8.32117E-07 1.25063E-19-1.27911E-18
 -1       389 9.37041E-05-2.81655E-05-2.80887E-05-7.36446E-07 3.72470E-19-1.31712E-18
 -1       390 9.39828E-05-2.82459E-05-2.81737E-05-6.36521E-07 3.87438E-19-1.01280E-18
 -1       391 9.42342E-05-2.83140E-05-2.82522E-05-5.44513E-07 6.58260E-19-1.73457E-18
 -1       392 9.44599E-05-2.83715E-05-2.83241E-05-4.69013E-07 1.77378E-19-1.43648E-18
 -1       393 9.46661E-05-2.84207E-05-2.83912E-05-4.16524E-07-4.59929E-19-1.49918E-18
 -1       394 9.48626E-05-2.84648E-05-2.84562E-05-3.92596E-07 1.42863E-19-1.84990E-18
 -1       395 9.50624E-05-2.85074E-05-2.85233E-05-4.02708E-07 1.10027E-18-1.79403E-18
 -1       396 9.52813E-05-2.85528E-05-2.85973E-05-4.52967E-07 7.93595E-19-1.67761E-18
 -1       397 9.55382E-05-2.86058E-05-2.86843E-05-5.50647E-07 2.33591E-19-1.24726E-18
 -1       398 9.58557E-05-2.86723E-05-2.87914E-05-7.04582E-07-8.21117E-19-1.27512E-18
 -1       399 9.62598E-05-2.87592E-05-2.89268E-05-9.25349E-07-3.28041E-19-1.82533E-18
 -1       400 9.67811E-05-2.88747E-05-2.91000E-05-1.22514E-06 8.67650E-19-2.24674E-18
 -1       401 9.74544E-05-2.90289E-05-2.93217E-05-1.61707E-06-1.36100E-19-2.49714E-18
 -1       402 9.83182E-05-2.92340E-05-2.96033E-05-2.11347E-06-1.57961E-18-2.80750E-18
 -1       403 9.94141E-05-2.95054E-05-2.99559E-05-2.72229E-06-5.88947E-19-2.49707E-18
 -1       404 1.00784E-04-2.98630E-05-3.03893E-05-3.44043E-06-1.27892E-19-2.73765E-18
 -1       405 1.02464E-04-3.03332E-05-3.09082E-05-4.24175E-06 2.22079E-19-1.46166E-18
 -1       406 1.04479E-04-3.09517E-05-3.15084E-05-5.05729E-06-2.22234E-19-1.20444E-18
 -1       407 1.06830E-04-3.17665E-05-3.21701E-05-5.74558E-06-1.73350E-19-1.73689E-19
 -1       408 1.09474E-04-3.28355E-05-3.28505E-05-6.05491E-06-5.06961E-20 8.79535E-19
 -1       409 1.12292E-04-3.42054E-05-3.34786E-05-5.59306E-06-1.79104E-19-7.96115E-19
 -1       410 1.15040E-04-3.58484E-05-3.39596E-05-3.84992E-06 5.21450E-19-2.08961E-18
 -1       411 1.17281E-04-3.75332E-05-3.42011E-05-3.53426E-07-1.11123E-19-2.19112E-18
 -1       412 1.18276E-04-3.85971E-05-3.41686E-05 4.92040E-06-3.09134E-19-1.58800E-18
 -1       413 1.17033E-04-3.78745E-05-3.39431E-05 1.07791E-05 6.84839E-19-3.47085E-20
 -1       414 1.13111E-04-3.45813E-05-3.36796E-05 1.44619E-05 1.09868E-18 5.84228E-19
 -1       415 1.07547E-04-2.94111E-05-3.35165E-05 1.26333E-05-1.88088E-18 2.17973E-18
 -1       416 1.03501E-04-2.56243E-05-3.34238E-05 4.65398E-06-1.61779E-18 1.59338E-18
 -1       417 1.03857E-04-2.63304E-05-3.32578E-05-5.30095E-06-1.89094E-18 1.47766E-18
 -1       418 1.07798E-04-3.07099E-05-3.30456E-05-1.14205E-05-6.35625E-19 6.92304E-19
 -1       419 1.11948E-04-3.52028E-05-3.29008E-05-1.09560E-05-6.07515E-19 8.95072E-19
 -1       420 1.13735E-04-3.72574E-05-3.27957E-05-5.98310E-06-6.97968E-19 1.87298E-18
 -1       421 1.12802E-04-3.68183E-05-3.25940E-05 1.85113E-08 1.43159E-18 2.33006E-19
 -1       422 1.10007E-04-3.49874E-05-3.21785E-05 4.72657E-06 1.53252E-18-3.56591E-19
 -1       423 1.06334E-04-3.27350E-05-3.15596E-05 7.31977E-06 2.13031E-18-9.99482E-20
 -1       424 1.02503E-04-3.05356E-05-3.08476E-05 7.82200E-06 1.60087E-18-1.20221E-18
 -1       425 9.89894E-05-2.85661E-05-3.01777E-05 6.50203E-06 2.79542E-19-4.90969E-19
 -1       426 9.70183E-05-2.73655E-05-2.98433E-05 5.08625E-06-1.11616E-18 4.32859E-20
 -1       427 9.28663E-05-1.99680E-05-3.12411E-05 1.12249E-05 1.35796E-18 7.64481E-19
 -1       428 9.50357E-05-2.33885E-05-3.06938E-05 1.00635E-05 6.62165E-19 1.08260E-18
 -1       429 9.61829E-05-2.54734E-05-3.02899E-05 7.82669E-06-4.16824E-19-2.99080E-19
 -1       430 9.04932E-05-1.63945E-05-3.17662E-05 1.06190E-05-7.36290E-20-4.81629E-18
 -1       431 8.82402E-05-1.31411E-05-3.22031E-05 8.02608E-06-2.53049E-19-3.73009E-19
 -1       432 8.67615E-05-1.10448E-05-3.24723E-05 3.74642E-06 1.09168E-19 8.00545E-19
 -1       433 8.65594E-05-1.06944E-05-3.25364E-05-1.29978E-06-1.02886E-18 2.16048E-18
 -1       434 8.76947E-05-1.21706E-05-3.23871E-05-5.87620E-06-2.21683E-18 1.97647E-18
 -1       435 8.97334E-05-1.49949E-05-3.20440E-05-8.95822E-06-2.31422E-18-2.50022E-18
 -1       436 9.19634E-05-1.83305E-05-3.15619E-05-1.01284E-05-5.86559E-19-2.97216E-18
 -1       437 9.39026E-05-2.15826E-05-3.09913E-05-9.63774E-06 1.19003E-18 1.91799E-18
 -1       438 9.52587E-05-2.42627E-05-3.04169E-05-8.03857E-06 2.09157E-18-1.13306E-19
 -1       439 9.60339E-05-2.62271E-05-2.99025E-05-5.94020E-06 3.29052E-19-9.03990E-19
 -1       440 6.49948E-05-4.68996E-05-7.93037E-06 4.51085E-05-1.78555E-18-7.21143E-19
 -1       441 1.31112E-05-2.53285E-05 5.00320E-06 2.22069E-07 2.32964E-19-2.67398E-18
 -1       442 2.80792E-05-3.03040E-05 9.73026E-07 2.93407E-05-2.60463E-20-6.35508E-18
 -1       443 1.03341E-04-5.58900E-05-2.05052E-05 4.22815E-05-3.38019E-18 1.76813E-18
 -1       444 1.39218E-04-5.75209E-05-3.50179E-05 2.61670E-05-2.57710E-18-2.82136E-18
 -1       445 8.94240E-05-1.19265E-05-3.32757E-05-1.07622E-05-2.55377E-18-2.59578E-18
 -1       446 1.65864E-04-2.63680E-05-5.94016E-05 2.18857E-06 1.65521E-18-5.86380E-18
 -1       447 1.58213E-04-1.28306E-05-6.22821E-05 5.74059E-07 3.23556E-18-3.08339E-18
 -1       448 1.59967E-04-1.94046E-05-6.01641E-05 6.64637E-06 2.62496E-18-3.90334E-18
 -1       449 1.60182E-04-3.52538E-05-5.34619E-05 2.81701E-06 2.95630E-18-3.76951E-18
 -1       450 1.48382E-04-5.37406E-05-4.05734E-05-1.19859E-05 2.56889E-18-3.72144E-18
 -1       451 1.14631E-04-6.01213E-05-2.34925E-05-3.41800E-05 1.06853E-18-7.13620E-18
 -1       452 7.96119E-05-5.03971E-05-1.24444E-05-4.29139E-05 2.70733E-19-5.50426E-18
 -1       453 3.53371E-05-3.59189E-05-7.55562E-08-3.31854E-05 9.31736E-21-4.48059E-18
 -1       454 1.40186E-05-2.33706E-05 3.97096E-06-9.63681E-06 2.04479E-19-3.48480E-18
 -1       455 1.94365E-05-2.40420E-05 2.13959E-06 2.15891E-05 5.34954E-19 1.64896E-18
 -1       456 4.32929E-05-3.52670E-05-3.33774E-06 3.93400E-05 6.23099E-19 3.09474E-18
 -1       457 8.79033E-05-5.03465E-05-1.61866E-05 4.26872E-05 1.17123E-18 3.96438E-19
 -1       458 1.23482E-04-5.44086E-05-2.96156E-05 3.28539E-05 1.73314E-18-1.59115E-18
 -1       459 1.48433E-04-4.65830E-05-4.35545E-05 1.65028E-05 2.43048E-18-2.34925E-18
 -1       460 1.57033E-04-3.08890E-05-5.40649E-05-7.33654E-07 8.60374E-19-1.93653E-19
 -1       461 1.65015E-04-1.77354E-05-6.27442E-05-1.33487E-06-4.57398E-20 1.05932E-19
 -1       462 1.60977E-04-1.34462E-05-6.30189E-05-7.25776E-07-4.51045E-20 5.33895E-20
 -1       463 1.58196E-04-2.41532E-05-5.74163E-05 4.30809E-07-1.40586E-18-1.70000E-18
 -1       464 1.55213E-04-4.19337E-05-4.84534E-05-1.04191E-05-1.64721E-19-4.20975E-18
 -1       465 1.38163E-04-5.78528E-05-3.44317E-05-2.58194E-05 3.78671E-18-2.15517E-18
 -1       466 1.01422E-04-5.58453E-05-1.96700E-05-4.34809E-05 1.67543E-18-3.93510E-18
 -1       467 6.76502E-05-4.71499E-05-8.83733E-06-4.60929E-05 3.30608E-18-3.31253E-18
 -1       468 2.56567E-05-3.07135E-05 2.01388E-06-2.76730E-05 3.32720E-18 1.99148E-18
 -1       469 1.57358E-04-4.44557E-05-4.83442E-05 8.48151E-06-2.03865E-18-3.83007E-18
 -1       470 5.32297E-05-3.57036E-05-7.09566E-06-4.17544E-05 4.18307E-18-2.06983E-18
 -1       471 7.40695E-05-4.53318E-05-1.20132E-05 4.47841E-05 1.09114E-18 2.09553E-18
 -1       472 9.58190E-05-2.51483E-05-3.02732E-05 6.02036E-06 2.07258E-18-1.00838E-18
 -1       473 8.95428E-05-1.34040E-05-3.26498E-05-3.92540E-06-1.16911E-18-3.10326E-18
 -1       474 9.02509E-05-1.43682E-05-3.25414E-05-5.88113E-06-1.62958E-18-2.86104E-18
 -1       475 8.90459E-05-1.27242E-05-3.27271E-05 5.46594E-08-2.14666E-19-3.45139E-18
 -1       476 8.91809E-05-1.29075E-05-3.27066E-05 2.04653E-06 2.65962E-19-3.62066E-18
 -1       477 8.95751E-05-1.34446E-05-3.26465E-05 3.99997E-06 6.87582E-19-3.67854E-18
 -1       478 9.02981E-05-1.44309E-05-3.25355E-05 5.95466E-06 1.27056E-18-3.34916E-18
 -1       479 9.14445E-05-1.60087E-05-3.23527E-05 7.78254E-06 1.70892E-18-3.08937E-18
 -1       480 9.32325E-05-1.84795E-05-3.20572E-05 9.29804E-06 2.27990E-18-2.52205E-18
 -1       481 9.51114E-05-2.65780E-05-2.93535E-05 2.87696E-06 1.80946E-18-9.44242E-19
 -1       482 9.54806E-05-2.44342E-05-3.04386E-05-5.82313E-06-2.17418E-18-8.19925E-19
 -1       483 1.46421E-04-5.72961E-05-3.84617E-05 2.74345E-06-2.63346E-18-3.76617E-18
 -1       484 9.52718E-05-2.62231E-05-2.95840E-05-2.90015E-06-1.75531E-18-7.07102E-19
 -1       485 9.49159E-05-2.71619E-05-2.90335E-05-1.03601E-06-1.48779E-18-5.22613E-19
 -1       486 9.46394E-05-2.76932E-05-2.86896E-05 8.66919E-08-1.08063E-18-7.23407E-19
 -1       487 9.44825E-05-2.80190E-05-2.84838E-05 7.21437E-07-6.45962E-19-1.17742E-18
 -1       488 9.44271E-05-2.82296E-05-2.83703E-05 1.03968E-06-8.25760E-19-1.37173E-18
 -1       489 9.44429E-05-2.83691E-05-2.83175E-05 1.15699E-06-5.01212E-19-1.54447E-18
 -1       490 9.45030E-05-2.84611E-05-2.83040E-05 1.15192E-06-7.18651E-19-1.53282E-18
 -1       491 9.45873E-05-2.85195E-05-2.83151E-05 1.07833E-06-4.86953E-19-1.06608E-18
 -1       492 9.46823E-05-2.85535E-05-2.83413E-05 9.73464E-07-8.67093E-20-6.23146E-19
 -1       493 9.47800E-05-2.85691E-05-2.83764E-05 8.63262E-07-1.86207E-19-3.01102E-19
 -1       494 9.48767E-05-2.85709E-05-2.84170E-05 7.66106E-07-4.69662E-19-8.19305E-19
 -1       495 9.49718E-05-2.85618E-05-2.84616E-05 6.95499E-07-9.43716E-19-8.27445E-19
 -1       496 9.50672E-05-2.85442E-05-2.85099E-05 6.62038E-07-5.04878E-19-4.17791E-19
 -1       497 9.51670E-05-2.85197E-05-2.85631E-05 6.74836E-07-8.22266E-19-4.79090E-19
 -1       498 9.52766E-05-2.84898E-05-2.86227E-05 7.42493E-07-1.94624E-20-9.30374E-19
 -1       499 9.54030E-05-2.84558E-05-2.86913E-05 8.73634E-07-5.02757E-19-1.09555E-18
 -1       500 9.55550E-05-2.84202E-05-2.87716E-05 1.07700E-06-8.65826E-20-3.02392E-19
 -1       501 9.57424E-05-2.83865E-05-2.88662E-05 1.36100E-06 2.07066E-19-1.35023E-18
 -1       502 9.59774E-05-2.83606E-05-2.89778E-05 1.73254E-06 7.86492E-19-1.95808E-18
 -1       503 9.62741E-05-2.83525E-05-2.91083E-05 2.19498E-06 3.77897E-19-1.74778E-18
 -1       504 9.66496E-05-2.83777E-05-2.92582E-05 2.74483E-06-1.63677E-19-1.65621E-18
 -1       505 9.71254E-05-2.84610E-05-2.94264E-05 3.36679E-06-6.37916E-19-1.54946E-18
 -1       506 9.77291E-05-2.86393E-05-2.96088E-05 4.02687E-06 4.56475E-20-1.26040E-18
 -1       507 9.84973E-05-2.89658E-05-2.97985E-05 4.66321E-06 3.91122E-19-1.47221E-18
 -1       508 9.94782E-05-2.95124E-05-2.99853E-05 5.17488E-06 9.36784E-19-1.03375E-18
 -1       509 1.00732E-04-3.03654E-05-3.01581E-05 5.41002E-06 9.94761E-19-6.33112E-19
 -1       510 1.02321E-04-3.16077E-05-3.03088E-05 5.15749E-06 4.30178E-20 2.85198E-19
 -1       511 1.04285E-04-3.32695E-05-3.04404E-05 4.15170E-06-2.69222E-19 1.08888E-18
 -1       512 1.06566E-04-3.52334E-05-3.05788E-05 2.11264E-06 3.72759E-20 2.82657E-19
 -1       513 1.08900E-04-3.70933E-05-3.07831E-05-1.13885E-06-9.16202E-20-9.95392E-20
 -1       514 1.10689E-04-3.80375E-05-3.11445E-05-5.43617E-06 5.30553E-19-3.42017E-19
 -1       515 1.11053E-04-3.69788E-05-3.17501E-05-9.90025E-06 5.70516E-19 8.58642E-19
 -1       516 1.09325E-04-3.32509E-05-3.26121E-05-1.27393E-05-5.30867E-19 1.66906E-18
 -1       517 1.05888E-04-2.76556E-05-3.35501E-05-1.17724E-05-4.06334E-19 1.05119E-18
 -1       518 1.02781E-04-2.30848E-05-3.41746E-05-6.26615E-06-1.98480E-18 8.32907E-19
 -1       519 1.02279E-04-2.26253E-05-3.41476E-05 1.62128E-06-1.54494E-18 1.35614E-18
 -1       520 1.04620E-04-2.65845E-05-3.34518E-05 7.73951E-06-1.77754E-19 1.18048E-18
 -1       521 1.07783E-04-3.22289E-05-3.23836E-05 9.40367E-06-1.11477E-18 1.34148E-18
 -1       522 1.09406E-04-3.62441E-05-3.13669E-05 6.97757E-06-6.69108E-20 1.01394E-18
 -1       523 1.08875E-04-3.74961E-05-3.05970E-05 2.52798E-06 2.47671E-18 6.73076E-20
 -1       524 1.06683E-04-3.63902E-05-3.01331E-05-1.83672E-06 1.22293E-18 3.92006E-19
 -1       525 1.03731E-04-3.39751E-05-2.99009E-05-4.95043E-06-6.96440E-19-8.79496E-19
 -1       526 1.00696E-04-3.11292E-05-2.98146E-05-6.38165E-06-5.99373E-19 5.70945E-19
 -1       527 9.41400E-05-2.76860E-05-2.84768E-05-1.15738E-07 7.63045E-19-1.08862E-18
 -1       528 9.39632E-05-2.79323E-05-2.82977E-05-7.24902E-07 4.41245E-19-1.36456E-18
 -1       529 9.39327E-05-2.81030E-05-2.82125E-05-1.02286E-06 7.61189E-19-1.25602E-18
 -1       530 9.39962E-05-2.82280E-05-2.81866E-05-1.12710E-06 4.88656E-19-9.22201E-19
 -1       531 9.41133E-05-2.83212E-05-2.81970E-05-1.11470E-06 2.96696E-19-8.44935E-19
 -1       532 9.42560E-05-2.83905E-05-2.82286E-05-1.03738E-06 3.08030E-19-9.65934E-19
 -1       533 9.44064E-05-2.84408E-05-2.82715E-05-9.30364E-07 3.06725E-19-1.24783E-18
 -1       534 9.45545E-05-2.84758E-05-2.83199E-05-8.17913E-07 9.24752E-19-1.40596E-18
 -1       535 9.46959E-05-2.84985E-05-2.83707E-05-7.17087E-07 5.31164E-21-1.65933E-18
 -1       536 9.48308E-05-2.85114E-05-2.84229E-05-6.40369E-07-2.66271E-19-1.34130E-18
 -1       537 9.49624E-05-2.85167E-05-2.84769E-05-5.97626E-07 5.98142E-20-1.43077E-18
 -1       538 9.50964E-05-2.85161E-05-2.85344E-05-5.97595E-07 4.48019E-19-1.42067E-18
 -1       539 9.52408E-05-2.85113E-05-2.85981E-05-6.49035E-07 5.44325E-19-2.06860E-19
 -1       540 9.54055E-05-2.85039E-05-2.86716E-05-7.61592E-07 5.03385E-19-5.25514E-19
 -1       541 9.56023E-05-2.84956E-05-2.87592E-05-9.46404E-07-5.49333E-19 2.45483E-20
 -1       542 9.58449E-05-2.84885E-05-2.88660E-05-1.21644E-06-5.43633E-19-4.74031E-19
 -1       543 9.61488E-05-2.84851E-05-2.89972E-05-1.58646E-06 7.68434E-19-1.27103E-18
 -1       544 9.65312E-05-2.84897E-05-2.91588E-05-2.07238E-06 5.96352E-19-1.29111E-18
 -1       545 9.70116E-05-2.85087E-05-2.93560E-05-2.68971E-06-3.67590E-19-1.07754E-18
 -1       546 9.76111E-05-2.85535E-05-2.95933E-05-3.45048E-06-7.46575E-19-2.86329E-18
 -1       547 9.83543E-05-2.86437E-05-2.98727E-05-4.35744E-06-1.09616E-18-2.45415E-18
 -1       548 9.92712E-05-2.88146E-05-3.01923E-05-5.39434E-06-8.10787E-19-1.77746E-18
 -1       549 1.00403E-04-2.91271E-05-3.05437E-05-6.50986E-06-3.14052E-19-1.54320E-18
 -1       550 1.01812E-04-2.96837E-05-3.09105E-05-7.59313E-06-7.80353E-19-1.25825E-18
 -1       551 1.03599E-04-3.06435E-05-3.12675E-05-8.43881E-06-7.76210E-19-1.14858E-18
 -1       552 1.05913E-04-3.22234E-05-3.15866E-05-8.70355E-06 6.33844E-19-1.25711E-18
 -1       553 1.08934E-04-3.46387E-05-3.18527E-05-7.86867E-06 5.87449E-19-1.24017E-18
 -1       554 1.12751E-04-3.79048E-05-3.20936E-05-5.28096E-06-9.43583E-19 3.85023E-19
 -1       555 1.17189E-04-4.15420E-05-3.24361E-05-3.29293E-07-2.43132E-19 8.92653E-19
 -1       556 1.21032E-04-4.36946E-05-3.31602E-05 7.09849E-06-7.23105E-19 9.50219E-19
 -1       557 1.22129E-04-4.16025E-05-3.45668E-05 1.47305E-05 2.62490E-19 1.06468E-18
 -1       558 1.18998E-04-3.37686E-05-3.66212E-05 1.83961E-05-1.36862E-19 1.46208E-18
 -1       559 1.12959E-04-2.36245E-05-3.84663E-05 1.24259E-05-1.36974E-18 1.46494E-18
 -1       560 1.09294E-04-1.99350E-05-3.87616E-05-7.36922E-07-1.04665E-18 1.47681E-18
 -1       561 1.14474E-04-2.71355E-05-3.75195E-05-1.22314E-05-5.95358E-19-1.73519E-18
 -1       562 1.19068E-04-3.68430E-05-3.53281E-05-1.41179E-05-9.36832E-19-4.64550E-19
 -1       563 1.20011E-04-4.25190E-05-3.32522E-05-8.27915E-06-5.94290E-19-1.48975E-18
 -1       564 1.16970E-04-4.24888E-05-3.19462E-05-1.88680E-07 8.08756E-19-1.50620E-18
 -1       565 1.12057E-04-3.92001E-05-3.12451E-05 6.40459E-06 2.02629E-18-9.90404E-20
 -1       566 1.07080E-04-3.50897E-05-3.08668E-05 1.02766E-05 1.36534E-18-9.47837E-19
 -1       567 1.02790E-04-3.13163E-05-3.06321E-05 1.15534E-05 2.63971E-18-6.29528E-19
 -1       568 9.91988E-05-2.81172E-05-3.04564E-05 1.06950E-05 7.74360E-19 9.59240E-19
 -1       569 8.85379E-05-1.81483E-05-3.01747E-05 1.26485E-05 2.86736E-18-1.79401E-18
 -1       570 8.51987E-05-1.50754E-05-3.00619E-05 8.07747E-06 1.61791E-18-4.55911E-19
 -1       571 9.58627E-05-2.49585E-05-3.03845E-05 1.38099E-05 7.46281E-19 1.50108E-18
 -1       572 9.24215E-05-2.17432E-05-3.02938E-05 1.44651E-05 6.24145E-19-3.13661E-18
 -1       573 8.36715E-05-1.36748E-05-3.00078E-05 1.54280E-06-1.81862E-19-4.73343E-19
 -1       574 8.46152E-05-1.45428E-05-3.00404E-05-5.24655E-06-2.56992E-18-3.40641E-20
 -1       575 8.76050E-05-1.73217E-05-3.01300E-05-1.04567E-05-2.33866E-18 1.19134E-18
 -1       576 9.13480E-05-2.08822E-05-3.02052E-05-1.30192E-05-9.33686E-19-1.22501E-18
 -1       577 9.47334E-05-2.42509E-05-3.02070E-05-1.30535E-05 4.46294E-19-1.96317E-18
 -1       578 9.69956E-05-2.67374E-05-3.01050E-05-1.13013E-05-2.24761E-19 9.64411E-19
 -1       579 9.80439E-05-2.81828E-05-2.99442E-05-8.64994E-06-7.48923E-19-1.43239E-18
 -1       580 2.93512E-05-1.72077E-05-4.53568E-06 1.43230E-05-9.54077E-19-6.45926E-18
 -1       581 9.86689E-05-5.62414E-05-1.79459E-05 4.33414E-05-4.68192E-18-3.21171E-19
 -1       582 9.45182E-05-2.72935E-05-2.88019E-05 9.87825E-07 1.38431E-18-9.84141E-19
 -1       583 2.83695E-05-1.79366E-05-3.81922E-06-1.54543E-05 2.23603E-19-1.71164E-18
 -1       584 5.74243E-05-3.59936E-05-8.76281E-06 4.13478E-05-1.90402E-18-4.67742E-18
 -1       585 9.46290E-05-2.07701E-05-3.16749E-05-9.51811E-06-2.73036E-18-1.12675E-18
 -1       586 1.25235E-04-6.27048E-05-2.67913E-05-3.01614E-05 6.09625E-19-6.66655E-19
 -1       587 2.51610E-05-1.35618E-05-4.28008E-06 5.27275E-06 1.53863E-18-1.41444E-18
 -1       588 1.45825E-04-4.70801E-05-4.27058E-05 1.13360E-05 1.03881E-18-1.13873E-18
 -1       589 1.34780E-04-1.76267E-05-5.08443E-05-1.05629E-05 2.70945E-19-5.10321E-18
 -1       590 8.91610E-05-1.28825E-05-3.27088E-05-1.93778E-06-5.88484E-19-3.24976E-18
 -1       591 1.30600E-04-1.08591E-05-5.19173E-05 8.37805E-06 2.67758E-18-3.91197E-18
 -1       592 1.37361E-04-6.30867E-05-3.18770E-05-1.23099E-05-3.83018E-19-1.52291E-18
 -1       593 1.43083E-04-2.69153E-05-5.04536E-05 1.46821E-05 1.90191E-18-2.48197E-18
 -1       594 3.48695E-05-2.24646E-05-4.77302E-06-2.65144E-05 5.48507E-19-5.19252E-18
 -1       595 1.05361E-04-5.75481E-05-2.02798E-05-3.54679E-05-1.44795E-18-5.08891E-18
 -1       596 1.17522E-04-6.05640E-05-2.42748E-05 3.25647E-05 8.38933E-19-9.73241E-19
 -1       597 6.50053E-05-3.90728E-05-1.07104E-05-4.00465E-05 1.99794E-19-5.26611E-18
 -1       598 4.27373E-05-2.46934E-05-7.10999E-06 3.27160E-05 6.05814E-19 3.45012E-18
 -1       599 1.39407E-04-5.85637E-05-3.47736E-05 1.13443E-05 2.25581E-18-2.28778E-18
 -1       600 1.44459E-04-4.42261E-05-4.33332E-05-4.76562E-06 2.32884E-18-8.50209E-20
 -1       601 1.40450E-04-1.86703E-05-5.27475E-05-1.07506E-05 9.10243E-19 1.96919E-18
 -1       602 1.36525E-04-7.83992E-06-5.57425E-05-4.07186E-06 4.17905E-19 7.73851E-19
 -1       603 1.30608E-04-1.34379E-05-5.09203E-05 8.43169E-06-8.32898E-19 1.76752E-18
 -1       604 1.43392E-04-3.49121E-05-4.69863E-05 8.51830E-06-1.61995E-20-1.42831E-18
 -1       605 1.44412E-04-5.37142E-05-3.91611E-05-3.92798E-06 1.45336E-18-1.34043E-18
 -1       606 1.01747E-04-5.63703E-05-1.91667E-05-4.22075E-05 9.90499E-19-1.32447E-18
 -1       607 1.45884E-04-3.77740E-05-4.68786E-05-1.00463E-05-7.77444E-19-5.36632E-18
 -1       608 9.61593E-05-2.31901E-05-3.12760E-05 9.58508E-06 2.57708E-18-8.08650E-19
 -1       609 1.28875E-04-6.43835E-05-2.76569E-05 2.87740E-05-4.33231E-18-3.43594E-18
 -1       610 9.13391E-05-1.59046E-05-3.23638E-05-7.67361E-06-2.15578E-18-2.54494E-18
 -1       611 1.36496E-04-6.15509E-05-3.21850E-05-1.24750E-05-1.32856E-18 9.21810E-19
 -1       612 4.69593E-05-2.35372E-05-9.43664E-06-2.99812E-05 2.43517E-18-2.17105E-18
 -1       613 1.35980E-04-3.25373E-05-4.47437E-05-1.46050E-05 6.40622E-19 2.59253E-18
 -1       614 4.93252E-05-2.29776E-05-1.07193E-05 2.87619E-05-2.26655E-18-7.89551E-18
 -1       615 9.87590E-05-2.92440E-05-2.97907E-05-6.37948E-06-3.92807E-19 1.86323E-18
 -1       616 8.39473E-05-4.53573E-05-1.61170E-05-4.26828E-05 2.59057E-18 1.08388E-18
 -1       617 1.33068E-04-1.41377E-05-5.12368E-05-5.29370E-06 1.90323E-18-6.46191E-18
 -1       618 9.15575E-05-1.68534E-05-3.20217E-05 2.44177E-06 4.38217E-19-3.23492E-18
 -1       619 9.12989E-05-1.64513E-05-3.20829E-05 8.41264E-07 9.99461E-20-3.18446E-18
 -1       620 9.28928E-05-1.90009E-05-3.16736E-05 5.26828E-06 1.22409E-18-2.82517E-18
 -1       621 9.39887E-05-2.09342E-05-3.13170E-05 6.14408E-06 1.69810E-18-2.30111E-18
 -1       622 9.52713E-05-2.40949E-05-3.04941E-05 5.15212E-06 1.76851E-18-1.98747E-18
 -1       623 4.34626E-05-1.54985E-05-1.14997E-05 1.80578E-05 6.44671E-19-2.86403E-20
 -1       624 1.16605E-04-5.87580E-05-2.46622E-05-3.06376E-05-1.72746E-18 1.03927E-18
 -1       625 9.54127E-05-2.57017E-05-2.98741E-05-2.44809E-06-1.48891E-18-1.27132E-18
 -1       626 9.54742E-05-2.69465E-05-2.93683E-05-8.72681E-07-1.38320E-18-1.00946E-18
 -1       627 9.54195E-05-2.77069E-05-2.90195E-05 1.29091E-07-1.02671E-18-1.27037E-18
 -1       628 9.53434E-05-2.81778E-05-2.87852E-05 7.17262E-07-8.69204E-19-1.58652E-18
 -1       629 9.52791E-05-2.84668E-05-2.86339E-05 1.02064E-06-6.52088E-19-1.53302E-18
 -1       630 9.52342E-05-2.86372E-05-2.85417E-05 1.13653E-06-5.02289E-19-1.04140E-18
 -1       631 9.52074E-05-2.87283E-05-2.84911E-05 1.13618E-06-2.58082E-19-9.06538E-19
 -1       632 9.51946E-05-2.87656E-05-2.84697E-05 1.07092E-06-1.01880E-19-9.27552E-19
 -1       633 9.51919E-05-2.87655E-05-2.84686E-05 9.77474E-07-2.64353E-19-1.14750E-18
 -1       634 9.51962E-05-2.87391E-05-2.84817E-05 8.82126E-07-5.66106E-19-1.09077E-18
 -1       635 9.52055E-05-2.86934E-05-2.85053E-05 8.04026E-07-3.48076E-19-8.78274E-19
 -1       636 9.52187E-05-2.86323E-05-2.85371E-05 7.57698E-07-2.61001E-19-7.50247E-19
 -1       637 9.52351E-05-2.85577E-05-2.85760E-05 7.54937E-07-6.27247E-19-5.12182E-19
 -1       638 9.52552E-05-2.84703E-05-2.86220E-05 8.06169E-07-7.20933E-19 9.34561E-20
 -1       639 9.52796E-05-2.83699E-05-2.86755E-05 9.21351E-07-3.00536E-19 2.43483E-19
 -1       640 9.53101E-05-2.82564E-05-2.87372E-05 1.11041E-06-6.84933E-20-9.89098E-19
 -1       641 9.53493E-05-2.81307E-05-2.88078E-05 1.38320E-06-4.56640E-19-1.56335E-18
 -1       642 9.54014E-05-2.79963E-05-2.88877E-05 1.74887E-06-8.13430E-20-1.62717E-18
 -1       643 9.54732E-05-2.78611E-05-2.89763E-05 2.21460E-06 8.15824E-19-1.61138E-18
 -1       644 9.55759E-05-2.77400E-05-2.90722E-05 2.78333E-06 2.81218E-19-5.54140E-19
 -1       645 9.57277E-05-2.76592E-05-2.91718E-05 3.45058E-06-9.38471E-19-1.10243E-18
 -1       646 9.59586E-05-2.76610E-05-2.92700E-05 4.19975E-06-4.24633E-19-1.09219E-18
 -1       647 9.63162E-05-2.78103E-05-2.93593E-05 4.99571E-06 5.92270E-19-5.12532E-19
 -1       648 9.68748E-05-2.82014E-05-2.94312E-05 5.77624E-06 1.30077E-18-2.46948E-19
 -1       649 9.77445E-05-2.89610E-05-2.94786E-05 6.44033E-06 8.92206E-19 4.25415E-20
 -1       650 9.90769E-05-3.02419E-05-2.95012E-05 6.83247E-06 8.12453E-19 2.62956E-19
 -1       651 1.01056E-04-3.21905E-05-2.95151E-05 6.72240E-06 4.04192E-19 3.96760E-19
 -1       652 1.03848E-04-3.48628E-05-2.95677E-05 5.78425E-06-1.13640E-19 7.34353E-19
 -1       653 1.07476E-04-3.80513E-05-2.97573E-05 3.60305E-06-1.81803E-19 1.89131E-18
 -1       654 1.11573E-04-4.10127E-05-3.02456E-05-2.17900E-07-3.38917E-19 1.82276E-18
 -1       655 1.15086E-04-4.22130E-05-3.12405E-05-5.65622E-06 3.03348E-19 1.83263E-18
 -1       656 1.16332E-04-3.96262E-05-3.28829E-05-1.14865E-05-3.95558E-20 2.66712E-19
 -1       657 1.13857E-04-3.23087E-05-3.49819E-05-1.48659E-05-7.33795E-19 3.43684E-19
 -1       658 1.09083E-04-2.28952E-05-3.70480E-05-1.19825E-05-6.85746E-19-6.23165E-20
 -1       659 1.06553E-04-1.80300E-05-3.80614E-05-2.79926E-06-1.06495E-18 1.56205E-18
 -1       660 1.08038E-04-2.13533E-05-3.73257E-05 7.08695E-06-1.70566E-18 2.96279E-18
 -1       661 1.12638E-04-3.04719E-05-3.54284E-05 1.14680E-05-1.34400E-18 7.62919E-19
 -1       662 1.16126E-04-3.87495E-05-3.31676E-05 8.89346E-06-9.73360E-20 1.31001E-18
 -1       663 1.15209E-04-4.22440E-05-3.12741E-05 2.67457E-06 1.63211E-18 2.04576E-18
 -1       664 1.11635E-04-4.11605E-05-3.02071E-05-3.04945E-06 6.92110E-19 3.05487E-19
 -1       665 1.07115E-04-3.76962E-05-2.97550E-05-7.02181E-06-7.47594E-19-9.81040E-20
 -1       666 1.02819E-04-3.35139E-05-2.97042E-05-8.93285E-06-2.49893E-19-8.26949E-19
 -1       667 9.49819E-05-2.81145E-05-2.86573E-05-7.31582E-07 6.59405E-19-1.31149E-18
 -1       668 1.24974E-04-1.25130E-05-4.87646E-05-1.03316E-05 2.10747E-18 1.75029E-18
 -1       669 9.50926E-05-2.77091E-05-2.88781E-05-1.22179E-07 8.14285E-19-1.28573E-18
 -1       670 9.49001E-05-2.85233E-05-2.84473E-05-1.15777E-06 3.25408E-19-9.95760E-19
 -1       671 9.49097E-05-2.86142E-05-2.84125E-05-1.15420E-06 5.70813E-19-1.12740E-18
 -1       672 9.49381E-05-2.86606E-05-2.84048E-05-1.08376E-06 3.71416E-19-1.03740E-18
 -1       673 9.49776E-05-2.86758E-05-2.84152E-05-9.83620E-07 5.09161E-19-1.01296E-18
 -1       674 9.50229E-05-2.86686E-05-2.84377E-05-8.80183E-07 5.12975E-19-1.80750E-20
 -1       675 9.50714E-05-2.86446E-05-2.84687E-05-7.92560E-07-1.19107E-19-2.80801E-19
 -1       676 9.51222E-05-2.86073E-05-2.85064E-05-7.35220E-07-5.74536E-20-8.46640E-19
 -1       677 9.51760E-05-2.85584E-05-2.85504E-05-7.20022E-07 1.97541E-19-8.83869E-19
 -1       678 9.52344E-05-2.84980E-05-2.86013E-05-7.57777E-07-3.31093E-19-4.95737E-19
 -1       679 9.52999E-05-2.84254E-05-2.86604E-05-8.59415E-07 1.15785E-19 3.50561E-19
 -1       680 9.53756E-05-2.83390E-05-2.87297E-05-1.03680E-06 4.83110E-20 5.94302E-19
 -1       681 9.54648E-05-2.82369E-05-2.88117E-05-1.30325E-06-3.77736E-20-4.99041E-19
 -1       682 9.55711E-05-2.81169E-05-2.89085E-05-1.67364E-06 4.55177E-19-1.13471E-18
 -1       683 9.56982E-05-2.79778E-05-2.90224E-05-2.16406E-06 8.78722E-19-7.20011E-19
 -1       684 9.58498E-05-2.78209E-05-2.91545E-05-2.79080E-06 3.15693E-19-4.98824E-19
 -1       685 9.60309E-05-2.76521E-05-2.93043E-05-3.56842E-06-2.18646E-19-2.32699E-19
 -1       686 9.62495E-05-2.74869E-05-2.94685E-05-4.50635E-06-3.69474E-19-5.61888E-19
 -1       687 9.65220E-05-2.73590E-05-2.96400E-05-5.60355E-06-1.30244E-18-1.57940E-18
 -1       688 9.68837E-05-2.73334E-05-2.98059E-05-6.84028E-06-6.61099E-20-1.80774E-18
 -1       689 9.74074E-05-2.75270E-05-2.99475E-05-8.16569E-06-1.28716E-18-1.46686E-18
 -1       690 9.82353E-05-2.81370E-05-3.00414E-05-9.47911E-06-7.06457E-19-5.14546E-19
 -1       691 9.96230E-05-2.94677E-05-3.00670E-05-1.06001E-05 4.24854E-20-1.33657E-18
 -1       692 1.01988E-04-3.19333E-05-3.00261E-05-1.12132E-05 3.63320E-19-4.98397E-19
 -1       693 1.05898E-04-3.59471E-05-2.99847E-05-1.07559E-05-7.91498E-19 5.35174E-20
 -1       694 1.11804E-04-4.14881E-05-3.01313E-05-8.34288E-06-1.39230E-18-8.38491E-19
 -1       695 1.19643E-04-4.75054E-05-3.09776E-05-2.82937E-06-1.10421E-18 6.69133E-19
 -1       696 1.28658E-04-5.13087E-05-3.31447E-05 6.52136E-06 2.32884E-19 5.69118E-19
 -1       697 1.29991E-04-4.40492E-05-3.70020E-05 1.59990E-05 4.39901E-19 6.74337E-19
 -1       698 1.29884E-04-4.80239E-05-3.51982E-05-8.86726E-06-2.15543E-19-4.43181E-18
 -1       699 1.24091E-04-5.02290E-05-3.16784E-05 1.90212E-06-6.35668E-19-3.26985E-18
 -1       700 1.15610E-04-4.52614E-05-3.01459E-05 9.86675E-06-4.70364E-19-1.56253E-18
 -1       701 1.08088E-04-3.87230E-05-2.97291E-05 1.39648E-05 2.11466E-18-4.89685E-20
 -1       702 1.02506E-04-3.28493E-05-2.98497E-05 1.50826E-05 9.51353E-19 9.84805E-20
 -1       703 9.87397E-05-2.87291E-05-3.00019E-05 1.50745E-05 1.27061E-18 6.58410E-19
 -1       704 7.94244E-05-1.54311E-05-2.74223E-05-2.84903E-06-8.38915E-19-1.88125E-18
 -1       705 1.00279E-04-3.07298E-05-2.98002E-05-9.13230E-06-5.85647E-20-1.47358E-18
 -1       706 8.43440E-05-1.90157E-05-2.79996E-05 1.35237E-05 2.65196E-18-3.11994E-18
 -1       707 8.30453E-05-1.82812E-05-2.77562E-05-1.08620E-05-2.86987E-18 1.34774E-18
 -1       708 7.99598E-05-1.57647E-05-2.75085E-05 6.27887E-06 9.17877E-20-3.04856E-18
 -1       709 4.04537E-05-1.35538E-05-1.09314E-05-1.84396E-06-1.66098E-18-4.43268E-18
 -1       710 8.88983E-05-2.27950E-05-2.83334E-05-1.54245E-05-2.51352E-18 6.54410E-19
 -1       711 9.47553E-05-2.72103E-05-2.89500E-05-1.62235E-05-1.19473E-18-1.08498E-18
 -1       712 9.87966E-05-3.01416E-05-2.94221E-05-1.41798E-05-2.39957E-19-1.86738E-19
 -1       713 7.00602E-05-3.55482E-05-1.44258E-05 3.81350E-05-4.75371E-19 1.39183E-18
 -1       714 8.59661E-05-4.51312E-05-1.72022E-05 4.05276E-05-2.54210E-18-3.50079E-18
 -1       715 9.41760E-05-2.09786E-05-3.13700E-05-7.06481E-06-2.25639E-18-1.68583E-18
 -1       716 1.29048E-04-3.76447E-05-3.95213E-05-1.52447E-05-2.03472E-18-4.09653E-18
 -1       717 8.81885E-05-4.39612E-05-1.86002E-05-3.42034E-05 5.56805E-19-3.97739E-18
 -1       718 9.52319E-05-2.70422E-05-2.92219E-05 9.29711E-07 1.07455E-18-1.18493E-18
 -1       719 1.37830E-04-5.58219E-05-3.52286E-05 6.38839E-06 7.93126E-19-1.19535E-18
 -1       720 9.49203E-05-2.83676E-05-2.85226E-05-1.04176E-06 5.00647E-19-1.24181E-18
 -1       721 1.34119E-04-6.13293E-05-3.12464E-05 1.17105E-05-2.68815E-18-1.34438E-18
 -1       722 9.50854E-05-2.38624E-05-3.05246E-05-4.48195E-06-1.84868E-18-1.54417E-18
 -1       723 9.53384E-05-2.59448E-05-2.97366E-05 2.60753E-06 1.53983E-18-1.61433E-18
 -1       724 1.25782E-04-2.72368E-05-4.25789E-05 1.28441E-05-1.33273E-18 3.48169E-18
 -1       725 1.04575E-04-5.39027E-05-2.15185E-05 3.41984E-05-6.17196E-19-2.34618E-18
 -1       726 9.20812E-05-1.76797E-05-3.18922E-05 3.95184E-06 8.17981E-19-3.13825E-18
 -1       727 9.20385E-05-1.76209E-05-3.18988E-05-3.89993E-06-1.27113E-18-2.62639E-18
 -1       728 1.23064E-04-5.94623E-05-2.73238E-05-1.78988E-05-4.31100E-19-2.83513E-18
 -1       729 1.32028E-04-3.48231E-05-4.21503E-05 2.02324E-05 7.93829E-19 7.13096E-19
 -1       730 1.28669E-04-5.99957E-05-2.94188E-05 1.47215E-05 4.91967E-19-2.27970E-18
 -1       731 3.88865E-05-1.42120E-05-1.00661E-05-1.28157E-05 1.67851E-18-3.80980E-18
 -1       732 1.16684E-04-5.95755E-05-2.43346E-05 3.12961E-05-4.51950E-18-1.42944E-18
 -1       733 5.81020E-05-2.71995E-05-1.27685E-05-3.12059E-05 1.04527E-18-4.92796E-18
 -1       734 1.36134E-04-5.21091E-05-3.62773E-05-4.38922E-06 2.77509E-19-1.35798E-18
 -1       735 1.19971E-04-1.00881E-05-4.76360E-05 1.80408E-06-7.10767E-19 2.20051E-18
 -1       736 1.33905E-04-4.22656E-05-3.95669E-05 9.71254E-06-3.64304E-19 3.91819E-18
 -1       737 9.12919E-05-1.64418E-05-3.20840E-05-7.83866E-07-3.68006E-19-3.08343E-18
 -1       738 4.62384E-05-1.24256E-05-1.41361E-05 2.00278E-06 1.88572E-18-2.60772E-18
 -1       739 1.37538E-04-5.23991E-05-3.66737E-05-6.01708E-06-1.85753E-18-4.48972E-18
 -1       740 1.32868E-04-5.12814E-05-3.50289E-05 3.28578E-06-1.03377E-18 5.82559E-18
 -1       741 4.96550E-05-1.64325E-05-1.37760E-05-1.54281E-05-6.55299E-19-5.41498E-18
 -1       742 1.23917E-04-2.34899E-05-4.34083E-05-1.56415E-05 1.04288E-18 1.52588E-18
 -1       743 9.04922E-05-2.34846E-05-2.87266E-05 1.69740E-05 3.86608E-18-1.75337E-18
 -1       744 1.09931E-04-5.20825E-05-2.46885E-05-2.35043E-05-1.30231E-20-3.49556E-18
 -1       745 4.96386E-05-1.56847E-05-1.41076E-05 1.30188E-05-1.83028E-18-8.37422E-18
 -1       746 9.52245E-05-2.65704E-05-2.94218E-05 1.68876E-05 9.11556E-19-8.64912E-19
 -1       747 6.15569E-05-2.41526E-05-1.57339E-05 2.76773E-05-1.07860E-18 2.15997E-18
 -1       748 7.24453E-05-3.21797E-05-1.68698E-05 3.45145E-05-2.64469E-18-3.20454E-18
 -1       749 9.28615E-05-1.89176E-05-3.16944E-05-5.29191E-06-1.75523E-18-2.32746E-18
 -1       750 9.15338E-05-1.68212E-05-3.20252E-05-2.38150E-06-8.17547E-19-2.66184E-18
 -1       751 1.02604E-04-5.05822E-05-2.20320E-05-3.54958E-05-3.52445E-19 1.65028E-18
 -1       752 7.15845E-05-3.36881E-05-1.58813E-05-3.68294E-05 6.10128E-19 1.27748E-18
 -1       753 1.01347E-04-3.23930E-05-2.95457E-05-1.18797E-05-1.59172E-18-5.93132E-19
 -1       754 9.46735E-05-2.27669E-05-3.08142E-05 3.90977E-06 1.13856E-18-2.23461E-18
 -1       755 9.58702E-05-2.68872E-05-2.95642E-05-5.87422E-07-1.20816E-18-1.48053E-18
 -1       756 9.59639E-05-2.77751E-05-2.92238E-05 2.14140E-07-1.07962E-18-1.45776E-18
 -1       757 9.59531E-05-2.83342E-05-2.89795E-05 6.92993E-07-9.18024E-19-1.51701E-18
 -1       758 9.58927E-05-2.86715E-05-2.88091E-05 9.41082E-07-2.85522E-19-1.61124E-18
 -1       759 9.58119E-05-2.88579E-05-2.86946E-05 1.03409E-06-1.78614E-19-1.42188E-18
 -1       760 9.57259E-05-2.89415E-05-2.86220E-05 1.03071E-06-2.27908E-19-8.83451E-19
 -1       761 9.56423E-05-2.89546E-05-2.85804E-05 9.74829E-07-3.53449E-19-8.51567E-19
 -1       762 9.55641E-05-2.89193E-05-2.85621E-05 8.98724E-07-1.10547E-19-1.00576E-18
 -1       763 9.54921E-05-2.88496E-05-2.85611E-05 8.26067E-07-2.15681E-19-1.24026E-18
 -1       764 9.54251E-05-2.87538E-05-2.85734E-05 7.74571E-07-3.12598E-19-9.05018E-19
 -1       765 9.53609E-05-2.86363E-05-2.85963E-05 7.58133E-07-3.86056E-19-8.49206E-19
 -1       766 9.52963E-05-2.84981E-05-2.86278E-05 7.88446E-07-3.79719E-19-1.05948E-18
 -1       767 9.52279E-05-2.83384E-05-2.86669E-05 8.76171E-07-4.98747E-19-1.23848E-18
 -1       768 9.51517E-05-2.81555E-05-2.87127E-05 1.03170E-06-1.03968E-18-1.42905E-18
 -1       769 9.50641E-05-2.79479E-05-2.87640E-05 1.26550E-06-3.70321E-19-1.45691E-18
 -1       770 9.49623E-05-2.77162E-05-2.88197E-05 1.58806E-06-2.65367E-19-1.19284E-18
 -1       771 9.48456E-05-2.74647E-05-2.88774E-05 2.00936E-06 7.32505E-19-1.32864E-18
 -1       772 9.47172E-05-2.72048E-05-2.89338E-05 2.53785E-06 1.32236E-18-1.62875E-18
 -1       773 9.45874E-05-2.69588E-05-2.89836E-05 3.17891E-06-3.92180E-19-5.50444E-19
 -1       774 9.44785E-05-2.67656E-05-2.90197E-05 3.93266E-06-8.53902E-19-1.70327E-19
 -1       775 9.44321E-05-2.66879E-05-2.90331E-05 4.79112E-06 1.53578E-19-4.00602E-19
 -1       776 9.45196E-05-2.68208E-05-2.90136E-05 5.73404E-06 1.06468E-18-4.80751E-19
 -1       777 9.48567E-05-2.73016E-05-2.89520E-05 6.72245E-06 1.35568E-18-9.57703E-19
 -1       778 9.56202E-05-2.83149E-05-2.88450E-05 7.68665E-06 1.14849E-18-4.28400E-19
 -1       779 9.70638E-05-3.00876E-05-2.87039E-05 8.50240E-06 8.33210E-19 9.50019E-20
 -1       780 9.95167E-05-3.28506E-05-2.85713E-05 8.94544E-06-6.77622E-19-1.50727E-19
 -1       781 1.03340E-04-3.67322E-05-2.85462E-05 8.60802E-06 2.36815E-19 1.07939E-19
 -1       782 1.08705E-04-4.14566E-05-2.88214E-05 6.82107E-06-4.31268E-19-4.94847E-19
 -1       783 1.15268E-04-4.59130E-05-2.97179E-05 2.67115E-06-1.53545E-20 8.15950E-19
 -1       784 1.21285E-04-4.73692E-05-3.16967E-05-4.43549E-06 9.72442E-19 1.10018E-18
 -1       785 1.23402E-04-4.19295E-05-3.50407E-05-1.20004E-05-5.94746E-19 1.29802E-18
 -1       786 1.13749E-04-1.42714E-05-4.30567E-05 3.38628E-06-6.54227E-19 2.23103E-18
 -1       787 1.17421E-04-4.69580E-05-3.01988E-05-5.58666E-06-2.99043E-19 7.19490E-19
 -1       788 1.10582E-04-4.21405E-05-2.93333E-05-1.03815E-05-1.08597E-19 8.21444E-19
 -1       789 1.05428E-04-3.70821E-05-2.92897E-05-1.17976E-05-1.18469E-18 1.65343E-18
 -1       790 9.55083E-05-2.88516E-05-2.85672E-05-1.08644E-06 1.17582E-19-9.74614E-19
 -1       791 9.55685E-05-2.87645E-05-2.86303E-05-1.08977E-06 5.20667E-19-1.12125E-18
 -1       792 9.54109E-05-2.88565E-05-2.85234E-05-9.40450E-07-1.77644E-19-5.12919E-19
 -1       793 9.53731E-05-2.88064E-05-2.85286E-05-8.57202E-07 3.70128E-20-4.98566E-19
 -1       794 9.53408E-05-2.87331E-05-2.85462E-05-7.94127E-07 5.68763E-20-4.69751E-19
 -1       795 9.53120E-05-2.86401E-05-2.85737E-05-7.65773E-07 1.02241E-19-1.05445E-18
 -1       796 9.52845E-05-2.85281E-05-2.86099E-05-7.84466E-07-4.49797E-19-5.71604E-19
 -1       797 9.52554E-05-2.83954E-05-2.86543E-05-8.61687E-07-2.07171E-19-6.14951E-19
 -1       798 9.52213E-05-2.82384E-05-2.87069E-05-1.00906E-06-4.60267E-19-4.51302E-19
 -1       799 9.51778E-05-2.80523E-05-2.87680E-05-1.23899E-06 1.35738E-19-2.11561E-19
 -1       800 9.51195E-05-2.78313E-05-2.88377E-05-1.56495E-06 1.45751E-19 3.91795E-19
 -1       801 9.50394E-05-2.75702E-05-2.89152E-05-2.00137E-06 4.36471E-19 4.29947E-19
 -1       802 9.49295E-05-2.72649E-05-2.89989E-05-2.56311E-06 5.65353E-20 6.52290E-19
 -1       803 9.47810E-05-2.69156E-05-2.90849E-05-3.26455E-06 1.56648E-20 9.86383E-19
 -1       804 9.45862E-05-2.65305E-05-2.91664E-05-4.11813E-06 6.49064E-19 1.71686E-19
 -1       805 9.43430E-05-2.61334E-05-2.92323E-05-5.13278E-06 1.14400E-19-8.70543E-19
 -1       806 9.40638E-05-2.57756E-05-2.92659E-05-6.31227E-06-9.73283E-19-2.32694E-18
 -1       807 9.37923E-05-2.55543E-05-2.92443E-05-7.65409E-06-7.08122E-19-1.49604E-18
 -1       808 9.36326E-05-2.56409E-05-2.91386E-05-9.14879E-06-7.56024E-19-2.38239E-18
 -1       809 9.37973E-05-2.63183E-05-2.89188E-05-1.07775E-05 2.01259E-19-3.11526E-18
 -1       810 9.46802E-05-2.80234E-05-2.85666E-05-1.24977E-05 6.27949E-21-2.31519E-18
 -1       811 9.69531E-05-3.13748E-05-2.81077E-05-1.41830E-05-4.11477E-19-1.59735E-18
 -1       812 1.01764E-04-3.71118E-05-2.77223E-05-1.52670E-05-1.34022E-18-1.31426E-18
 -1       813 1.10438E-04-4.55215E-05-2.77636E-05-1.48852E-05-1.79776E-18-1.66637E-18
 -1       814 1.00461E-04-3.41938E-05-2.83989E-05 1.91909E-05 2.01058E-18 9.98835E-19
 -1       815 9.73426E-05-3.00856E-05-2.88387E-05 1.82865E-05 1.97399E-18-7.85517E-19
 -1       816 7.53608E-05-1.75895E-05-2.47353E-05-9.94079E-06-2.69032E-18-4.77487E-18
 -1       817 1.00428E-04-3.42519E-05-2.83579E-05-1.73678E-05-2.53021E-18-3.94987E-19
 -1       818 1.14536E-04-5.36011E-05-2.60629E-05 2.03256E-05 7.14022E-21-1.85137E-18
 -1       819 8.36544E-05-2.34562E-05-2.57846E-05-1.77459E-05-4.03216E-18 2.96592E-18
 -1       820 1.20710E-04-1.92054E-05-4.38170E-05 9.81006E-06-1.96483E-18 2.05750E-18
 -1       821 9.52055E-05-2.44741E-05-3.03134E-05 3.42864E-06 1.28402E-18-1.91695E-18
 -1       822 9.33364E-05-2.99710E-05-2.71490E-05-1.98807E-05-2.54787E-18 6.96105E-19
 -1       823 1.07584E-04-4.23820E-05-2.79684E-05 1.95875E-05 5.27726E-19-5.41434E-19
 -1       824 1.18404E-04-5.22176E-05-2.83663E-05 1.71531E-05-2.02853E-18-4.25826E-19
 -1       825 9.56926E-05-2.69133E-05-2.94772E-05 6.95857E-07 9.62686E-19-1.26771E-18
 -1       826 9.54557E-05-2.88757E-05-2.85343E-05-1.02522E-06 1.72612E-19-8.76764E-19
 -1       827 9.57322E-05-2.77502E-05-2.91352E-05-1.92183E-07 7.23018E-19-1.13622E-18
 -1       828 9.55719E-05-2.55058E-05-3.00285E-05-1.81061E-06-1.24573E-18-1.79023E-18
 -1       829 9.11089E-05-4.19852E-05-2.08407E-05 3.13871E-05-5.50042E-19-1.70681E-18
 -1       830 1.26094E-04-5.75567E-05-2.94067E-05-1.48012E-05-2.30658E-18 1.80174E-18
 -1       831 1.27873E-04-3.89060E-05-3.83394E-05-1.49972E-05-1.08756E-18 8.78400E-19
 -1       832 7.63913E-05-3.15648E-05-1.90119E-05-2.82598E-05 1.09279E-18-4.45224E-18
 -1       833 1.16715E-04-1.24209E-05-4.51297E-05-7.12791E-06 1.53104E-18 2.62194E-18
 -1       834 1.28325E-04-5.42065E-05-3.18331E-05 7.72936E-07 7.90904E-19-8.56072E-19
 -1       835 9.32093E-05-1.97814E-05-3.14704E-05 1.23413E-06 2.60423E-19-2.81589E-18
 -1       836 5.72729E-05-1.89391E-05-1.61210E-05-1.97684E-05 1.99975E-18-4.41511E-18
 -1       837 9.30960E-05-1.95818E-05-3.15081E-05 2.28682E-08-6.23417E-20-2.72337E-18
 -1       838 5.41996E-05-1.58024E-05-1.62167E-05 1.46092E-05 1.63571E-18-1.11550E-18
 -1       839 5.04292E-05-1.39800E-05-1.52647E-05-4.87410E-07-2.26042E-18-6.23392E-18
 -1       840 9.55475E-05-2.59346E-05-2.98358E-05 1.84315E-06 9.46446E-19-1.56226E-18
 -1       841 8.62117E-05-2.45624E-05-2.64000E-05 1.94625E-05 1.27674E-18-3.52207E-18
 -1       842 1.22558E-04-4.74120E-05-3.23013E-05 1.71772E-06 1.68055E-19 3.60159E-18
 -1       843 9.56335E-05-2.85852E-05-2.87350E-05-9.87963E-07 3.07226E-19-1.08075E-18
 -1       844 9.47281E-05-3.98364E-05-2.34113E-05-2.43086E-05 3.96057E-19-2.75912E-18
 -1       845 6.43961E-05-2.17944E-05-1.80156E-05 2.33063E-05-1.64763E-18-6.25453E-18
 -1       846 1.30964E-04-5.78885E-05-3.13726E-05 8.32649E-06-2.92191E-18-2.50936E-18
 -1       847 7.70710E-05-1.85105E-05-2.50695E-05 1.32204E-05 1.56641E-18-3.70993E-18
 -1       848 9.40260E-05-2.13535E-05-3.11462E-05 3.31178E-06 6.22854E-19-2.61024E-18
 -1       849 7.25385E-05-1.54713E-05-2.44264E-05 2.01371E-06-1.75580E-19-3.46422E-18
 -1       850 9.46941E-05-4.34749E-05-2.16993E-05 3.36722E-05-4.83166E-19-1.27422E-18
 -1       851 9.39910E-05-2.12993E-05-3.11568E-05-3.26942E-06-1.34053E-18-2.06342E-18
 -1       852 9.35250E-05-2.03664E-05-3.13549E-05 2.36354E-06 5.06965E-19-3.02659E-18
 -1       853 9.50048E-05-2.36317E-05-3.05876E-05-3.32257E-06-1.49478E-18-1.89306E-18
 -1       854 1.23745E-04-3.64962E-05-3.73525E-05 1.15399E-05-1.92267E-18 4.99048E-18
 -1       855 1.17913E-04-5.45724E-05-2.70607E-05-2.21362E-05-6.62294E-19 2.07685E-18
 -1       856 9.56948E-05-2.82696E-05-2.88966E-05-7.17029E-07 5.09526E-19-1.04556E-18
 -1       857 6.56838E-05-2.37780E-05-1.77128E-05-2.56096E-05-4.18838E-19-2.05048E-18
 -1       858 9.34968E-05-2.03254E-05-3.13603E-05-2.31646E-06-9.35507E-19-2.28880E-18
 -1       859 1.03472E-04-3.61582E-05-2.88535E-05-1.48487E-05-3.26125E-18-1.14097E-18
 -1       860 9.62027E-05-2.69966E-05-2.96600E-05-2.94539E-07-1.04764E-18-1.55687E-18
 -1       861 9.63705E-05-2.79243E-05-2.93341E-05 2.87961E-07-8.60410E-19-1.20278E-18
 -1       862 9.63909E-05-2.85122E-05-2.90909E-05 6.35009E-07-6.58493E-19-1.07063E-18
 -1       863 9.63259E-05-2.88597E-05-2.89141E-05 8.11185E-07-2.58165E-19-1.15331E-18
 -1       864 9.62152E-05-2.90392E-05-2.87897E-05 8.72255E-07-7.02820E-20-1.19606E-18
 -1       865 9.60832E-05-2.91021E-05-2.87062E-05 8.62838E-07-3.61248E-19-1.49200E-18
 -1       866 9.59444E-05-2.90844E-05-2.86543E-05 8.17186E-07-6.05490E-19-1.65945E-18
 -1       867 9.58059E-05-2.90105E-05-2.86266E-05 7.60932E-07-5.39028E-19-1.73356E-18
 -1       868 9.56701E-05-2.88955E-05-2.86177E-05 7.13271E-07 2.18280E-19-1.37402E-18
 -1       869 9.55355E-05-2.87480E-05-2.86232E-05 6.89016E-07-9.37240E-20-1.19029E-18
 -1       870 9.53982E-05-2.85714E-05-2.86401E-05 7.00228E-07-6.19824E-19-9.66542E-19
 -1       871 9.52520E-05-2.83655E-05-2.86657E-05 7.57462E-07-3.65280E-19-9.84830E-19
 -1       872 9.50894E-05-2.81279E-05-2.86978E-05 8.70724E-07-9.27483E-19-6.83208E-19
 -1       873 9.49019E-05-2.78553E-05-2.87343E-05 1.05012E-06-3.90493E-19-7.17578E-19
 -1       874 9.46809E-05-2.75453E-05-2.87724E-05 1.30620E-06-5.60610E-19-9.73764E-19
 -1       875 9.44184E-05-2.71982E-05-2.88087E-05 1.65007E-06 4.37969E-19-1.24861E-18
 -1       876 9.41092E-05-2.68200E-05-2.88383E-05 2.09325E-06 1.02454E-18-9.62592E-19
 -1       877 9.37533E-05-2.64258E-05-2.88546E-05 2.64747E-06 8.27508E-19-1.16853E-18
 -1       878 9.33596E-05-2.60453E-05-2.88490E-05 3.32444E-06-2.43309E-19-1.60501E-18
 -1       879 9.29526E-05-2.57285E-05-2.88103E-05 4.13588E-06 1.06892E-19-5.43576E-20
 -1       880 9.25815E-05-2.55552E-05-2.87255E-05 5.09376E-06-3.31796E-20-6.05588E-19
 -1       881 9.23329E-05-2.56450E-05-2.85805E-05 6.21028E-06 1.09670E-18-1.23305E-18
 -1       882 9.23514E-05-2.61694E-05-2.83636E-05 7.49570E-06 1.36318E-18-9.15667E-19
 -1       883 9.28653E-05-2.73648E-05-2.80714E-05 8.94861E-06 1.48150E-18-9.93324E-19
 -1       884 9.42243E-05-2.95393E-05-2.77210E-05 1.05243E-05 4.01229E-21-1.21378E-18
 -1       885 9.69284E-05-3.30467E-05-2.73752E-05 1.20541E-05-7.73457E-20-9.74167E-19
 -1       886 1.01696E-04-3.82429E-05-2.71901E-05 1.30651E-05-6.27067E-19-1.19684E-18
 -1       887 1.09058E-04-4.49029E-05-2.74718E-05 1.25923E-05 1.37982E-18-3.19550E-19
 -1       888 9.60617E-05-2.69578E-05-2.96160E-05 4.00860E-07 5.86105E-19-1.59158E-18
 -1       889 9.60472E-05-2.89637E-05-2.87501E-05-9.53530E-07 1.41265E-20-9.23409E-19
 -1       890 9.56030E-05-2.88806E-05-2.85953E-05-7.70399E-07-1.62962E-20-8.50093E-19
 -1       891 9.57102E-05-2.89757E-05-2.86005E-05-8.28842E-07 1.10075E-19-5.79361E-19
 -1       892 9.53938E-05-2.86024E-05-2.86249E-05-7.36372E-07-3.22281E-19-1.04439E-18
 -1       893 9.52823E-05-2.84213E-05-2.86547E-05-7.85208E-07-4.81559E-19-1.08688E-18
 -1       894 9.51567E-05-2.82077E-05-2.86924E-05-8.92418E-07-2.43750E-19-9.15476E-19
 -1       895 9.50074E-05-2.79555E-05-2.87365E-05-1.06873E-06-2.55973E-19-1.40502E-18
 -1       896 9.48227E-05-2.76567E-05-2.87854E-05-1.32529E-06-6.73116E-19-1.32380E-18
 -1       897 9.45886E-05-2.73029E-05-2.88367E-05-1.67369E-06-4.71365E-21-8.28950E-19
 -1       898 9.42885E-05-2.68864E-05-2.88866E-05-2.12574E-06 6.06902E-19-1.14374E-18
 -1       899 9.39034E-05-2.64019E-05-2.89292E-05-2.69300E-06-7.89216E-20-1.09097E-18
 -1       900 9.34131E-05-2.58503E-05-2.89554E-05-3.38643E-06 5.14876E-19-1.40900E-18
 -1       901 9.27980E-05-2.52432E-05-2.89520E-05-4.21660E-06 2.38716E-19-1.30085E-18
 -1       902 9.20444E-05-2.46114E-05-2.88997E-05-5.19549E-06 3.52717E-19-1.28546E-18
 -1       903 9.11533E-05-2.40177E-05-2.87722E-05-6.34141E-06-7.07131E-19-2.06857E-18
 -1       904 9.01581E-05-2.35761E-05-2.85347E-05-7.68909E-06-4.79595E-19-2.27606E-18
 -1       905 8.91526E-05-2.34798E-05-2.81446E-05-9.30723E-06-2.62259E-19-2.42385E-18
 -1       906 8.83446E-05-2.40444E-05-2.75551E-05-1.13213E-05 1.39389E-19-2.11851E-18
 -1       907 8.81223E-05-2.57531E-05-2.67272E-05-1.39511E-05-4.61475E-19-2.36677E-18
 -1       908 8.93625E-05-2.93944E-05-2.56931E-05-1.73874E-05-1.28802E-18-2.11421E-18
 -1       909 9.27075E-05-2.79913E-05-2.77334E-05 1.98476E-05 2.59644E-18 5.24308E-19
 -1       910 1.18494E-04-5.07219E-05-2.90269E-05 7.57219E-06 1.58452E-19-2.28783E-19
 -1       911 7.45236E-05-2.20194E-05-2.23911E-05-1.96257E-05-2.39767E-18-1.22254E-18
 -1       912 7.85744E-05-2.98903E-05-2.07555E-05 2.53088E-05-1.71480E-18 1.13066E-19
 -1       913 9.54988E-05-2.87552E-05-2.86044E-05-7.35223E-07 1.12430E-19-1.07577E-18
 -1       914 1.12710E-04-4.67133E-05-2.82496E-05-1.61777E-05-4.16242E-19 2.55616E-18
 -1       915 1.01873E-04-4.39407E-05-2.47759E-05 2.19496E-05 9.96157E-20-1.10192E-18
 -1       916 9.57906E-05-2.55853E-05-3.00880E-05-1.17615E-06-1.03948E-18-1.82900E-18
 -1       917 8.06877E-05-3.11035E-05-2.10370E-05 2.90993E-05-1.09639E-18-1.18762E-18
 -1       918 9.31940E-05-1.97618E-05-3.14728E-05-1.18385E-06-5.71915E-19-2.35724E-18
 -1       919 5.93292E-05-1.46914E-05-1.89931E-05-7.04123E-06 2.21263E-18-3.44584E-18
 -1       920 8.79540E-05-3.70183E-05-2.16637E-05-3.16481E-05-1.73850E-19 2.68251E-18
 -1       921 7.28544E-05-2.39471E-05-2.07952E-05-2.04277E-05 6.71997E-19-3.74286E-18
 -1       922 9.50958E-05-3.47598E-05-2.57862E-05 2.47792E-05-5.42346E-19-1.37694E-18
 -1       923 6.90499E-05-2.12761E-05-2.03813E-05 1.85230E-05-1.71920E-19-1.49656E-18
 -1       924 5.94911E-05-1.68326E-05-1.78924E-05 1.30420E-05-1.74798E-18-8.74708E-18
 -1       925 9.57485E-05-2.58354E-05-2.99605E-05 1.28851E-06 7.68872E-19-1.85426E-18
 -1       926 9.51077E-05-2.37527E-05-3.05801E-05-2.16164E-06-1.19377E-18-1.83425E-18
 -1       927 1.04454E-04-4.49006E-05-2.54600E-05-2.59519E-05-4.62152E-19 8.86791E-19
 -1       928 9.59359E-05-2.90360E-05-2.86714E-05-9.45451E-07 2.07180E-20-4.27275E-19
 -1       929 9.61966E-05-2.78644E-05-2.92853E-05-2.72886E-07 5.27657E-19-1.42340E-18
 -1       930 9.61441E-05-2.87810E-05-2.88699E-05-8.80230E-07 3.36170E-19-1.55941E-18
 -1       931 1.07445E-04-4.10835E-05-2.84351E-05-1.58264E-05-4.01427E-19 6.48083E-19
 -1       932 9.58217E-05-2.90324E-05-2.86240E-05-8.94335E-07-1.63461E-20-4.59922E-19
 -1       933 7.83030E-05-2.44285E-05-2.30203E-05 2.22339E-05 9.69618E-19-2.36170E-18
 -1       934 9.52516E-05-2.42357E-05-3.04372E-05 2.26059E-06 6.77788E-19-2.16187E-18
 -1       935 6.50080E-05-1.55928E-05-2.10613E-05-5.93327E-06-2.20693E-18-5.49235E-18
 -1       936 8.93974E-05-3.16971E-05-2.46785E-05-2.43758E-05-3.04756E-18 1.62352E-18
 -1       937 9.46957E-05-2.26159E-05-3.08916E-05 1.22409E-06 2.53461E-19-2.74452E-18
 -1       938 9.45505E-05-2.22780E-05-3.09739E-05 4.32462E-07-1.65321E-20-2.51037E-18
 -1       939 6.01982E-05-1.43064E-05-1.95468E-05 3.00055E-06 2.18420E-18-2.67967E-18
 -1       940 5.90964E-05-1.69812E-05-1.77672E-05-1.40789E-05-1.85286E-18-5.85983E-18
 -1       941 9.48035E-05-2.29139E-05-3.08093E-05-1.61319E-06-1.02128E-18-1.92132E-18
 -1       942 1.02284E-04-3.89606E-05-2.71196E-05-2.09356E-05-2.79002E-18 8.75251E-19
 -1       943 9.64972E-05-2.72467E-05-2.96789E-05-6.52965E-08-4.70679E-19-9.97377E-19
 -1       944 9.66777E-05-2.81444E-05-2.93715E-05 3.10126E-07-9.27493E-19-9.06536E-19
 -1       945 9.66948E-05-2.87082E-05-2.91371E-05 5.28590E-07-1.98779E-19-9.14836E-19
 -1       946 9.66108E-05-2.90298E-05-2.89633E-05 6.34164E-07-2.32756E-19-1.02678E-18
 -1       947 9.64692E-05-2.91797E-05-2.88383E-05 6.64721E-07-5.49115E-19-1.04543E-18
 -1       948 9.62984E-05-2.92090E-05-2.87526E-05 6.51106E-07-4.66813E-19-6.52122E-19
 -1       949 9.61153E-05-2.91541E-05-2.86977E-05 6.17147E-07-4.56296E-19-7.15532E-19
 -1       950 9.59285E-05-2.90391E-05-2.86669E-05 5.80855E-07-1.12332E-19-4.68411E-19
 -1       951 9.57397E-05-2.88785E-05-2.86548E-05 5.56155E-07 2.27525E-19-4.72933E-19
 -1       952 9.55462E-05-2.86796E-05-2.86571E-05 5.54182E-07-2.68733E-19-1.12512E-18
 -1       953 9.53414E-05-2.84442E-05-2.86703E-05 5.84352E-07-3.10632E-19-6.41689E-19
 -1       954 9.51161E-05-2.81704E-05-2.86910E-05 6.55327E-07-5.14164E-19-4.88194E-19
 -1       955 9.48585E-05-2.78539E-05-2.87163E-05 7.75814E-07-4.71650E-19-6.25124E-20
 -1       956 9.45557E-05-2.74901E-05-2.87425E-05 9.55135E-07-2.64602E-19 7.50684E-19
 -1       957 9.41941E-05-2.70754E-05-2.87652E-05 1.20367E-06-5.33130E-20 4.17527E-19
 -1       958 9.37607E-05-2.66101E-05-2.87789E-05 1.53329E-06 7.09819E-19 2.35486E-19
 -1       959 9.32452E-05-2.61012E-05-2.87761E-05 1.95789E-06 6.15218E-19-1.69214E-19
 -1       960 9.26425E-05-2.55665E-05-2.87470E-05 2.49429E-06-8.51985E-20 1.63199E-21
 -1       961 9.19567E-05-2.50398E-05-2.86788E-05 3.16385E-06 1.36672E-19 5.38745E-19
 -1       962 9.12070E-05-2.45769E-05-2.85560E-05 3.99519E-06 4.60035E-19-1.35455E-19
 -1       963 9.04363E-05-2.42643E-05-2.83597E-05 5.02868E-06-1.60270E-19 7.31290E-19
 -1       964 8.97241E-05-2.42301E-05-2.80692E-05 6.32249E-06 9.40485E-19-5.11105E-20
 -1       965 8.92085E-05-2.46592E-05-2.76644E-05 7.95829E-06 1.61065E-18-3.42385E-19
 -1       966 8.91206E-05-2.58142E-05-2.71313E-05 1.00435E-05 7.53302E-19-1.10935E-18
 -1       967 8.98563E-05-2.80781E-05-2.64737E-05 1.26866E-05 3.83157E-19-8.29158E-19
 -1       968 9.20700E-05-3.19553E-05-2.57552E-05 1.59355E-05-1.31056E-19 2.36826E-19
 -1       969 9.49530E-05-2.79484E-05-2.87163E-05-8.32153E-07-5.44971E-19-1.90840E-18
 -1       970 9.58844E-05-2.90314E-05-2.86513E-05-6.67893E-07 3.21622E-19-1.01789E-18
 -1       971 9.51787E-05-2.82454E-05-2.86857E-05-7.13710E-07-3.30107E-19-1.80815E-18
 -1       972 9.53738E-05-2.84977E-05-2.86612E-05-6.46974E-07-5.94709E-20-1.40434E-18
 -1       973 9.46814E-05-2.75980E-05-2.87500E-05-1.01065E-06-2.49260E-19-1.56541E-18
 -1       974 9.43456E-05-2.71841E-05-2.87835E-05-1.25739E-06-1.30734E-19-2.49865E-18
 -1       975 9.39239E-05-2.66968E-05-2.88117E-05-1.58028E-06 8.46259E-20-2.17786E-18
 -1       976 9.33916E-05-2.61273E-05-2.88276E-05-1.98654E-06-1.69369E-19-1.42447E-18
 -1       977 9.27204E-05-2.54708E-05-2.88213E-05-2.48256E-06 3.05197E-19-1.93680E-18
 -1       978 9.18793E-05-2.47296E-05-2.87785E-05-3.07429E-06 4.68462E-19-1.27156E-18
 -1       979 9.08356E-05-2.39173E-05-2.86793E-05-3.76936E-06 4.55922E-19-1.80378E-18
 -1       980 8.95567E-05-2.30656E-05-2.84963E-05-4.58257E-06 5.12592E-19-2.24866E-18
 -1       981 8.80144E-05-2.22330E-05-2.81920E-05-5.54767E-06-1.37766E-19-2.63496E-18
 -1       982 8.61912E-05-2.15185E-05-2.77165E-05-6.73752E-06-7.41185E-19-2.94098E-18
 -1       983 8.40873E-05-2.10755E-05-2.70041E-05-8.30104E-06-8.46459E-19-2.08120E-18
 -1       984 8.17551E-05-2.11595E-05-2.59678E-05-1.05406E-05-2.99781E-19-9.03895E-19
 -1       985 7.95344E-05-2.22052E-05-2.45617E-05-1.40844E-05 4.21250E-20-9.07046E-19
 -1       986 9.60601E-05-2.58861E-05-3.00745E-05-6.37095E-07-8.30194E-19-1.57543E-18
 -1       987 9.55441E-05-2.45628E-05-3.04205E-05-1.10615E-06-9.12608E-19-1.85619E-18
 -1       988 9.45976E-05-2.24023E-05-3.09409E-05-8.81286E-07-5.67916E-19-1.92007E-18
 -1       989 9.43500E-05-3.67349E-05-2.47069E-05 2.01283E-05 3.03598E-19-7.29689E-20
 -1       990 9.62052E-05-2.84384E-05-2.90431E-05-6.74578E-07 4.16930E-19-1.41863E-18
 -1       991 6.62247E-05-1.64548E-05-2.12150E-05 1.08035E-05-6.15847E-19-5.64206E-18
 -1       992 9.49522E-05-2.32809E-05-3.07166E-05 1.87308E-06 4.93558E-19-2.64556E-18
 -1       993 9.45326E-05-2.22394E-05-3.09826E-05-2.27694E-07-3.11017E-19-2.24171E-18
 -1       994 9.57189E-05-2.88899E-05-2.86410E-05-6.33863E-07 2.48475E-19-1.07357E-18
 -1       995 9.64941E-05-2.89602E-05-2.89431E-05-7.23806E-07-2.61688E-19-1.30381E-18
 -1       996 9.55508E-05-2.87116E-05-2.86454E-05-6.23402E-07-2.02815E-19-1.00831E-18
 -1       997 9.59416E-05-2.57669E-05-3.00742E-05 8.66697E-07 4.04047E-19-2.32722E-18
 -1       998 9.56987E-05-2.48712E-05-3.03535E-05 8.97342E-07 3.50518E-19-2.68408E-18
 -1       999 6.64577E-05-1.56430E-05-2.17995E-05-3.95774E-06 2.07735E-18-3.08583E-18
 -1      1000 8.30274E-05-2.81470E-05-2.34756E-05 1.90970E-05-6.01918E-19-1.94509E-19
 -1      1001 9.63511E-05-2.71253E-05-2.96681E-05 1.54759E-07 5.82952E-19-2.12776E-18
 -1      1002 9.56299E-05-2.45003E-05-3.04825E-05 5.04121E-07 1.34780E-19-2.41421E-18
 -1      1003 9.63666E-05-2.91230E-05-2.88187E-05-7.65834E-07-4.63336E-19-1.09418E-18
 -1      1004 9.60499E-05-2.91288E-05-2.86805E-05-7.13017E-07 2.73437E-19-4.67242E-19
 -1      1005 9.67464E-05-2.75950E-05-2.96365E-05 5.97596E-08-5.33652E-19-1.58203E-18
 -1      1006 9.68935E-05-2.84082E-05-2.93511E-05 2.57021E-07-6.66794E-19-1.10403E-18
 -1      1007 9.68792E-05-2.89050E-05-2.91319E-05 3.66519E-07-3.21975E-19-1.25946E-18
 -1      1008 9.67639E-05-2.91715E-05-2.89682E-05 4.15215E-07-1.70278E-19-1.22504E-18
 -1      1009 9.65906E-05-2.92736E-05-2.88501E-05 4.23721E-07-2.41585E-19-8.86932E-19
 -1      1010 9.63879E-05-2.92606E-05-2.87688E-05 4.10857E-07-3.09229E-19-7.70188E-19
 -1      1011 9.61712E-05-2.91655E-05-2.87168E-05 3.89991E-07 5.17275E-20-2.25532E-19
 -1      1012 9.59477E-05-2.90100E-05-2.86876E-05 3.71475E-07-4.19351E-19-6.82122E-19
 -1      1013 9.57173E-05-2.88062E-05-2.86762E-05 3.64124E-07-1.93850E-19-1.11452E-18
 -1      1014 9.54751E-05-2.85595E-05-2.86782E-05 3.74967E-07-2.08127E-19-9.28011E-19
 -1      1015 9.52118E-05-2.82695E-05-2.86896E-05 4.10252E-07-1.43683E-19-6.08411E-19
 -1      1016 9.49143E-05-2.79322E-05-2.87067E-05 4.76335E-07-5.46466E-20-1.10301E-20
 -1      1017 9.45673E-05-2.75414E-05-2.87255E-05 5.80171E-07 1.46651E-19 4.48258E-19
 -1      1018 9.41532E-05-2.70907E-05-2.87412E-05 7.29871E-07-4.74193E-19 2.90108E-19
 -1      1019 9.36535E-05-2.65756E-05-2.87479E-05 9.35340E-07 5.38738E-19 8.14583E-20
 -1      1020 9.30498E-05-2.59957E-05-2.87377E-05 1.20911E-06 4.00867E-19-6.70449E-20
 -1      1021 9.23251E-05-2.53579E-05-2.87006E-05 1.56756E-06 1.53577E-19-1.37197E-20
 -1      1022 9.14661E-05-2.46798E-05-2.86231E-05 2.03288E-06 6.88688E-19 2.12465E-19
 -1      1023 9.04655E-05-2.39942E-05-2.84881E-05 2.63628E-06 1.82780E-19 9.29009E-19
 -1      1024 8.93247E-05-2.33534E-05-2.82741E-05 3.42320E-06 3.18086E-19 1.72249E-19
 -1      1025 8.80585E-05-2.28349E-05-2.79539E-05 4.46201E-06-1.07147E-19 8.74488E-20
 -1      1026 8.67015E-05-2.25506E-05-2.74949E-05 5.85763E-06 6.76505E-19 1.53334E-19
 -1      1027 8.53257E-05-2.26620E-05-2.68585E-05 7.76609E-06 9.29035E-19-1.72577E-18
 -1      1028 8.40634E-05-2.34051E-05-2.59980E-05 1.04329E-05 1.79829E-19-8.92730E-19
 -1      1029 8.30865E-05-2.50574E-05-2.48689E-05 1.40645E-05 8.95497E-19-1.02384E-18
 -1      1030 9.42856E-05-2.72012E-05-2.87506E-05-8.13588E-07-2.84003E-19-1.49329E-18
 -1      1031 6.83960E-05-1.61842E-05-2.23357E-05 4.99465E-06 1.06199E-18-3.32691E-18
 -1      1032 9.49969E-05-2.80191E-05-2.87048E-05-5.62133E-07 3.81882E-19-4.19567E-19
 -1      1033 9.52700E-05-2.83388E-05-2.86848E-05-4.96243E-07-1.27962E-19-1.57866E-19
 -1      1034 9.38039E-05-2.66820E-05-2.87667E-05-1.00774E-06-9.18895E-20-1.45854E-18
 -1      1035 9.32031E-05-2.60754E-05-2.87692E-05-1.25140E-06 1.20706E-19-1.43941E-18
 -1      1036 9.24522E-05-2.53739E-05-2.87481E-05-1.54547E-06 6.28017E-19-1.91597E-18
 -1      1037 9.15159E-05-2.45747E-05-2.86894E-05-1.88894E-06-2.49932E-19-1.92604E-18
 -1      1038 9.03540E-05-2.36819E-05-2.85741E-05-2.27969E-06 3.85022E-19-9.28785E-19
 -1      1039 8.89191E-05-2.27094E-05-2.83761E-05-2.71712E-06 7.87860E-19-7.72165E-19
 -1      1040 8.71524E-05-2.16820E-05-2.80594E-05-3.20897E-06-2.62935E-19-7.05423E-19
 -1      1041 8.49741E-05-2.06363E-05-2.75742E-05-3.78709E-06-8.90811E-19-5.53644E-19
 -1      1042 8.22860E-05-1.96345E-05-2.68509E-05-4.52738E-06-1.47375E-18-5.54793E-19
 -1      1043 7.88968E-05-1.87133E-05-2.57921E-05-5.56319E-06-9.77475E-19-9.79137E-19
 -1      1044 7.48663E-05-1.80865E-05-2.43311E-05-7.25146E-06 1.59945E-19-1.37372E-18
 -1      1045 9.65261E-05-2.80339E-05-2.93535E-05-3.18083E-07 4.49128E-19-2.01313E-18
 -1      1046 9.63568E-05-2.63589E-05-2.99998E-05-2.51583E-07-3.21516E-19-1.49672E-18
 -1      1047 9.62133E-05-2.91672E-05-2.87340E-05-7.52855E-07-1.95221E-19-3.81920E-19
 -1      1048 9.65674E-05-2.86257E-05-2.91177E-05-5.90389E-07 4.86310E-20-1.86143E-18
 -1      1049 9.46754E-05-2.76433E-05-2.87281E-05-6.66341E-07-3.67306E-19-1.18245E-18
 -1      1050 9.63532E-05-2.65606E-05-2.99117E-05 3.09751E-07 3.41585E-19-2.52521E-18
 -1      1051 9.54218E-05-2.41046E-05-3.05641E-05-6.54046E-07-4.25306E-19-1.66943E-18
 -1      1052 9.55114E-05-2.86107E-05-2.86717E-05-4.63331E-07 1.20670E-19-6.94682E-19
 -1      1053 7.48176E-05-1.71980E-05-2.46925E-05-8.01269E-07 2.33236E-19-4.05615E-18
 -1      1054 9.57342E-05-2.88398E-05-2.86690E-05-4.57446E-07-9.26126E-20-8.80348E-19
 -1      1055 9.55799E-05-2.43525E-05-3.05248E-05 1.12902E-07-1.76388E-19-2.22462E-18
 -1      1056 9.67066E-05-2.91166E-05-2.89671E-05-5.22429E-07-6.66521E-19-9.36480E-19
 -1      1057 9.68062E-05-2.88240E-05-2.91352E-05-4.52486E-07-3.06381E-19-1.08848E-18
 -1      1058 9.59563E-05-2.53268E-05-3.02681E-05-4.53295E-07-3.90551E-19-1.41952E-18
 -1      1059 9.61553E-05-2.91654E-05-2.87100E-05-4.97446E-07 7.69990E-19-1.33883E-18
 -1      1060 7.48594E-05-2.01324E-05-2.34452E-05 1.14909E-05 9.69014E-19-2.39850E-18
 -1      1061 9.54740E-05-2.41536E-05-3.05640E-05-2.63183E-07-2.92647E-19-1.98982E-18
 -1      1062 9.59473E-05-2.90265E-05-2.86803E-05-4.71771E-07 4.31371E-20-1.20024E-18
 -1      1063 9.70104E-05-2.86693E-05-2.92885E-05 1.22811E-07-4.39967E-19-1.33801E-18
 -1      1064 9.69507E-05-2.90746E-05-2.90894E-05 1.54282E-07-2.39019E-19-1.37567E-18
 -1      1065 9.67936E-05-2.92654E-05-2.89407E-05 1.64961E-07-6.14985E-20-1.52158E-18
 -1      1066 9.65937E-05-2.93145E-05-2.88339E-05 1.63690E-07-3.15855E-19-1.22949E-18
 -1      1067 9.63714E-05-2.92589E-05-2.87626E-05 1.55035E-07-7.31143E-20-1.03758E-18
 -1      1068 9.61342E-05-2.91243E-05-2.87184E-05 1.48117E-07-3.59136E-19-1.19653E-18
 -1      1069 9.58856E-05-2.89317E-05-2.86944E-05 1.44441E-07-9.54299E-20-9.50605E-19
 -1      1070 9.56260E-05-2.86907E-05-2.86865E-05 1.46627E-07-5.47947E-20-5.03068E-19
 -1      1071 9.53470E-05-2.84031E-05-2.86902E-05 1.57976E-07 5.02876E-19-4.14060E-19
 -1      1072 9.50362E-05-2.80660E-05-2.87014E-05 1.81779E-07 1.76709E-19 1.18603E-20
 -1      1073 9.46773E-05-2.76731E-05-2.87160E-05 2.21828E-07 6.07238E-20-1.09290E-20
 -1      1074 9.42513E-05-2.72165E-05-2.87291E-05 2.82938E-07 1.98904E-19-1.17386E-19
 -1      1075 9.37364E-05-2.66882E-05-2.87348E-05 3.71564E-07-3.19302E-19 2.45815E-19
 -1      1076 9.31091E-05-2.60821E-05-2.87256E-05 4.96614E-07-7.48540E-20-3.31581E-19
 -1      1077 9.23446E-05-2.53966E-05-2.86917E-05 6.70603E-07 1.25860E-19-9.25080E-19
 -1      1078 9.14176E-05-2.46368E-05-2.86199E-05 9.11311E-07 4.81069E-19-9.76449E-19
 -1      1079 9.03024E-05-2.38170E-05-2.84931E-05 1.24425E-06 1.01619E-19-1.67646E-18
 -1      1080 8.89727E-05-2.29634E-05-2.82888E-05 1.70638E-06-2.54125E-19-1.49279E-18
 -1      1081 8.73992E-05-2.21151E-05-2.79778E-05 2.35166E-06-4.26223E-19-1.68174E-18
 -1      1082 8.55439E-05-2.13245E-05-2.75215E-05 3.25940E-06 7.43989E-19-2.42791E-18
 -1      1083 8.33545E-05-2.06634E-05-2.68691E-05 4.55046E-06 3.09539E-19-2.34138E-18
 -1      1084 8.08546E-05-2.02610E-05-2.59648E-05 6.38166E-06 1.09206E-18-2.76866E-18
 -1      1085 9.47683E-05-2.77665E-05-2.87151E-05-3.26103E-07 3.36412E-19-1.05375E-18
 -1      1086 9.38696E-05-2.68049E-05-2.87421E-05-4.65190E-07 3.08383E-19-2.05315E-18
 -1      1087 9.25086E-05-2.55035E-05-2.87167E-05-6.70749E-07 8.78704E-21-1.50858E-18
 -1      1088 9.15769E-05-2.47085E-05-2.86582E-05-7.86191E-07-3.40519E-20-1.07974E-18
 -1      1089 9.04280E-05-2.38175E-05-2.85478E-05-8.96427E-07-4.08133E-19-1.29141E-18
 -1      1090 8.90161E-05-2.28392E-05-2.83622E-05-9.85846E-07-1.62988E-19-1.29100E-18
 -1      1091 8.72831E-05-2.17892E-05-2.80698E-05-1.03476E-06 3.21257E-19 1.42671E-20
 -1      1092 8.51472E-05-2.06862E-05-2.76274E-05-1.02029E-06 1.13867E-19 4.39554E-19
 -1      1093 8.24734E-05-1.95344E-05-2.69742E-05-9.14975E-07-1.02057E-18-6.01595E-19
 -1      1094 7.90282E-05-1.83150E-05-2.60204E-05-7.93098E-07-3.51014E-19-2.18248E-18
 -1      1095 9.64454E-05-2.64388E-05-3.00040E-05 1.52825E-07-7.90357E-20-1.86508E-18
 -1      1096 9.66757E-05-2.77052E-05-2.95596E-05-1.12164E-07 1.26634E-19-2.06449E-18
 -1      1097 7.55755E-05-1.78963E-05-2.47448E-05 3.98936E-06 1.01221E-18-2.65799E-18
 -1      1098 9.65467E-05-2.92385E-05-2.88463E-05-5.39295E-07-4.98441E-19-1.05643E-18
 -1      1099 9.32615E-05-2.62009E-05-2.87404E-05-5.61339E-07 1.67937E-19-2.02240E-18
 -1      1100 9.66279E-05-2.69114E-05-2.98780E-05-3.18738E-08-4.56046E-19-1.66442E-18
 -1      1101 9.67983E-05-2.83807E-05-2.93224E-05-3.35962E-07 2.03484E-19-1.67679E-18
 -1      1102 9.43630E-05-2.73234E-05-2.87313E-05-3.86268E-07-5.83458E-20-1.26055E-18
 -1      1103 9.63571E-05-2.92430E-05-2.87632E-05-5.24848E-07 8.07384E-20-1.65755E-18
 -1      1104 9.61592E-05-2.91490E-05-2.87188E-05-2.62877E-07 1.75264E-19-1.52706E-18
 -1      1105 9.69299E-05-2.79846E-05-2.95477E-05 6.49499E-08-2.87353E-19-1.52408E-18
 -1      1106 9.51088E-05-2.81448E-05-2.86989E-05-2.84501E-07 2.96574E-19-1.22978E-18
 -1      1107 9.54043E-05-2.84675E-05-2.86872E-05-2.60073E-07 8.71422E-21-8.77789E-19
 -1      1108 9.60259E-05-2.53726E-05-3.02806E-05-1.98130E-07-4.38862E-19-1.80425E-18
 -1      1109 9.69342E-05-2.90103E-05-2.91105E-05-2.57423E-07-3.62129E-19-1.62789E-18
 -1      1110 9.56707E-05-2.87413E-05-2.86841E-05-2.50522E-07-7.41792E-20-7.91045E-19
 -1      1111 9.63798E-05-2.92598E-05-2.87659E-05-2.78220E-07 1.74932E-19-1.79720E-18
 -1      1112 9.59201E-05-2.89688E-05-2.86934E-05-2.52679E-07-9.73600E-20-1.23587E-18
 -1      1113 9.67990E-05-2.92378E-05-2.89551E-05-2.84177E-07-4.23637E-19-1.95689E-18
 -1      1114 7.78921E-05-2.02597E-05-2.46762E-05 9.05730E-06 5.90571E-19-2.21508E-18
 -1      1115 9.64958E-05-2.93031E-05-2.87964E-05-9.68218E-08-4.65131E-20-1.43319E-18
 -1      1116 9.69691E-05-2.86312E-05-2.92875E-05-2.18860E-07-4.19202E-19-1.32008E-18
 -1      1117 9.68570E-05-2.77674E-05-2.96091E-05-5.60555E-08-2.10854E-19-1.56509E-18
 -1      1118 9.65989E-05-2.93020E-05-2.88415E-05-2.85382E-07 1.34482E-19-2.02447E-18
 -1      1119 9.67132E-05-2.93122E-05-2.88859E-05-1.04258E-07-1.24319E-19-1.73427E-18
 -1      1120 1.16856E-04 2.57567E-10-4.18555E-05-4.14669E-05-2.57922E-19 1.16281E-17
 -1      1121 8.86498E-05 7.19174E-11-3.72508E-05-2.41696E-05-1.66548E-19 2.63337E-18
 -1      1122 8.40753E-05 4.14557E-11-3.57660E-05-1.78798E-05-1.34943E-19-1.48495E-18
 -1      1123 8.23336E-05 3.20114E-11-3.50722E-05-1.38390E-05-9.14001E-20-3.53147E-18
 -1      1124 8.15317E-05 2.73440E-11-3.47386E-05-1.05358E-05-7.06743E-20-4.61410E-18
 -1      1125 8.11303E-05 2.46069E-11-3.45737E-05-7.64203E-06-5.00146E-20-5.13781E-18
 -1      1126 8.09213E-05 2.29548E-11-3.44904E-05-4.98100E-06-3.31633E-20-5.43080E-18
 -1      1127 8.08198E-05 2.20634E-11-3.44512E-05-2.43293E-06-2.16622E-20-5.61254E-18
 -1      1128 8.07910E-05 2.17935E-11-3.44402E-05 5.24268E-08-1.03637E-20-5.76035E-18
 -1      1129 8.08242E-05 2.21076E-11-3.44527E-05 2.54032E-06 5.69927E-21-5.83983E-18
 -1      1130 8.09303E-05 2.30567E-11-3.44932E-05 5.09687E-06 1.76587E-20-5.85317E-18
 -1      1131 8.11454E-05 2.47715E-11-3.45776E-05 7.77444E-06 3.47151E-20-5.71985E-18
 -1      1132 8.15534E-05 2.76426E-11-3.47447E-05 1.06955E-05 5.37337E-20-5.33845E-18
 -1      1133 8.23573E-05 3.24997E-11-3.50823E-05 1.40450E-05 8.49415E-20-4.50088E-18
 -1      1134 8.40724E-05 4.19226E-11-3.57863E-05 1.81314E-05 1.21867E-19-2.74032E-18
 -1      1135 8.83473E-05 6.67404E-11-3.73210E-05 2.40121E-05 1.65383E-19 1.09283E-18
 -1      1136 1.06620E-04 1.63921E-10-4.06341E-05 3.61934E-05 4.11234E-19 9.72436E-18
 -1      1137 1.30223E-04-2.57566E-05-4.02740E-05-2.61066E-05-1.13693E-18 1.74679E-17
 -1      1138 9.74567E-05-2.88627E-05-3.15777E-05-6.80372E-07-3.72668E-19 1.46952E-17
 -1      1139 9.01578E-05-2.70259E-05-2.78926E-05 3.87054E-07-1.42831E-19 1.05655E-17
 -1      1140 8.82445E-05-2.65710E-05-2.66423E-05 2.50709E-07-1.28971E-19 7.60352E-18
 -1      1141 8.78832E-05-2.64434E-05-2.63851E-05 1.65807E-07-4.94290E-20 5.59317E-18
 -1      1142 8.82393E-05-2.65191E-05-2.64690E-05 1.17989E-07-9.67255E-20 4.18011E-18
 -1      1143 8.89219E-05-2.67025E-05-2.66706E-05 8.73401E-08-3.97799E-20 3.15270E-18
 -1      1144 8.97318E-05-2.69329E-05-2.69117E-05 6.60486E-08 1.72254E-20 2.63066E-18
 -1      1145 9.05588E-05-2.71738E-05-2.71583E-05 5.02729E-08-1.58353E-20 1.84073E-18
 -1      1146 9.13411E-05-2.74043E-05-2.73921E-05 3.80960E-08-6.17897E-20 6.93045E-19
 -1      1147 9.20459E-05-2.76133E-05-2.76036E-05 2.84980E-08-2.36874E-21-1.25301E-20
 -1      1148 9.26594E-05-2.77961E-05-2.77883E-05 2.08724E-08 6.19669E-20 3.56773E-19
 -1      1149 9.31798E-05-2.79517E-05-2.79455E-05 1.48146E-08 5.23373E-20-8.67150E-20
 -1      1150 9.36137E-05-2.80819E-05-2.80770E-05 1.00314E-08 1.00852E-19-5.13216E-20
 -1      1151 9.39730E-05-2.81901E-05-2.81863E-05 6.30242E-09-6.39956E-20-2.50137E-19
 -1      1152 9.42735E-05-2.82810E-05-2.82781E-05 3.46587E-09-1.74372E-19-1.56898E-18
 -1      1153 9.45339E-05-2.83600E-05-2.83581E-05 1.41442E-09-1.15673E-20-2.20156E-18
 -1      1154 9.47756E-05-2.84337E-05-2.84327E-05 9.76027E-11 2.13453E-19-1.09652E-18
 -1      1155 9.50229E-05-2.85092E-05-2.85092E-05-4.72972E-10-3.84214E-20-1.59386E-18
 -1      1156 9.53033E-05-2.85947E-05-2.85959E-05-2.16425E-10-1.42345E-19-2.72581E-18
 -1      1157 9.56480E-05-2.86998E-05-2.87024E-05 1.02514E-09-7.32737E-20-2.77755E-18
 -1      1158 9.60930E-05-2.88351E-05-2.88394E-05 3.49284E-09 9.25946E-21-2.17392E-18
 -1      1159 9.66784E-05-2.90126E-05-2.90189E-05 7.51103E-09 6.05000E-21-2.34742E-18
 -1      1160 9.74483E-05-2.92452E-05-2.92540E-05 1.34723E-08-2.46078E-19-3.04310E-18
 -1      1161 9.84481E-05-2.95465E-05-2.95581E-05 2.17906E-08-5.46849E-20-3.96267E-18
 -1      1162 9.97204E-05-2.99288E-05-2.99431E-05 3.27916E-08 5.37568E-20-2.07489E-18
 -1      1163 1.01296E-04-3.04006E-05-3.04169E-05 4.64914E-08 3.15881E-19-1.08051E-18
 -1      1164 1.03178E-04-3.09623E-05-3.09785E-05 6.21888E-08-1.21081E-19-1.43205E-18
 -1      1165 1.05321E-04-3.15996E-05-3.16113E-05 7.77883E-08-2.44879E-19-2.13811E-18
 -1      1166 1.07601E-04-3.22736E-05-3.22733E-05 8.88168E-08 1.54413E-19-1.35221E-18
 -1      1167 1.09770E-04-3.29105E-05-3.28869E-05 8.73182E-08-3.61610E-20-9.55784E-19
 -1      1168 1.11428E-04-3.33907E-05-3.33309E-05 6.13654E-08-3.57011E-21-8.84838E-19
 -1      1169 1.12018E-04-3.35494E-05-3.34444E-05-3.08605E-09 1.76613E-19-9.30707E-19
 -1      1170 1.10896E-04-3.31988E-05-3.30538E-05-1.15418E-07-3.62636E-20-4.52395E-19
 -1      1171 1.07533E-04-3.21889E-05-3.20356E-05-2.67158E-07 1.84921E-19-1.03216E-18
 -1      1172 1.01863E-04-3.05092E-05-3.04068E-05-4.17671E-07 6.74119E-20-1.42587E-18
 -1      1173 9.46416E-05-2.83901E-05-2.84035E-05-4.94123E-07 1.79366E-20-3.54245E-18
 -1      1174 8.75385E-05-2.63209E-05-2.64795E-05-4.24303E-07 3.05405E-19-5.17855E-19
 -1      1175 8.26619E-05-2.49052E-05-2.51697E-05-1.95707E-07-9.85668E-20 2.56307E-19
 -1      1176 8.15717E-05-2.45821E-05-2.48542E-05 1.10062E-07 7.90388E-20-2.09385E-18
 -1      1177 8.43903E-05-2.53858E-05-2.55611E-05 3.57857E-07 2.27342E-20-2.50934E-18
 -1      1178 8.97165E-05-2.69218E-05-2.69493E-05 4.50782E-07-1.23358E-19-5.04980E-18
 -1      1179 9.54224E-05-2.85830E-05-2.84834E-05 3.85505E-07 2.60133E-19-4.89416E-18
 -1      1180 9.96976E-05-2.98425E-05-2.96806E-05 2.29184E-07 3.71219E-19-1.38230E-18
 -1      1181 1.01660E-04-3.04341E-05-3.02780E-05 6.10981E-08 8.06137E-20-4.23172E-19
 -1      1182 1.01380E-04-3.03699E-05-3.02660E-05-6.57474E-08 3.48427E-19 1.21694E-18
 -1      1183 9.95677E-05-2.98524E-05-2.98242E-05-1.28209E-07 1.40334E-19 1.51641E-18
 -1      1184 9.72399E-05-2.91808E-05-2.92264E-05-1.12729E-07 3.37411E-19 8.78651E-19
 -1      1185 9.55126E-05-2.87073E-05-2.87350E-05-5.73093E-10 2.01030E-19 3.36713E-18
 -1      1186 9.50321E-05-2.84989E-05-2.84367E-05 7.10506E-08 1.62012E-19 2.77388E-18
 -1      1187 1.31057E-04-3.77391E-05-3.86594E-05 1.21748E-05-1.68586E-19 1.70249E-17
 -1      1188 9.65582E-05-2.81892E-05-3.13301E-05 8.01512E-07 1.32534E-19 1.25942E-17
 -1      1189 9.03715E-05-2.69286E-05-2.78734E-05 1.20189E-07 1.28279E-19 8.42444E-18
 -1      1190 8.83310E-05-2.64982E-05-2.66786E-05 9.02125E-09 1.22459E-19 5.46649E-18
 -1      1191 8.79238E-05-2.64060E-05-2.64122E-05-2.52677E-08 5.85197E-20 3.51932E-18
 -1      1192 8.82613E-05-2.65018E-05-2.64848E-05-3.42805E-08 1.52639E-19 1.74597E-18
 -1      1193 8.89349E-05-2.66956E-05-2.66808E-05-3.54409E-08 2.90510E-20 1.14384E-18
 -1      1194 8.97397E-05-2.69315E-05-2.69190E-05-3.36865E-08-3.30033E-20 7.20110E-19
 -1      1195 9.05637E-05-2.71752E-05-2.71637E-05-3.05713E-08 1.28300E-19-8.35194E-19
 -1      1196 9.13440E-05-2.74072E-05-2.73962E-05-2.67958E-08 1.52860E-20-1.84378E-18
 -1      1197 9.20474E-05-2.76168E-05-2.76065E-05-2.27683E-08 6.58939E-20-2.67885E-18
 -1      1198 9.26595E-05-2.77995E-05-2.77902E-05-1.87404E-08-3.47437E-20-3.37089E-18
 -1      1199 9.31787E-05-2.79548E-05-2.79465E-05-1.48581E-08 5.14130E-20-3.62882E-18
 -1      1200 9.36112E-05-2.80843E-05-2.80772E-05-1.11907E-08-7.57548E-20-3.53216E-18
 -1      1201 9.39687E-05-2.81915E-05-2.81856E-05-7.75255E-09 3.97369E-20-4.21689E-18
 -1      1202 9.42670E-05-2.82812E-05-2.82765E-05-4.51868E-09 9.20565E-20-4.49639E-18
 -1      1203 9.45246E-05-2.83589E-05-2.83554E-05-1.43908E-09-1.71395E-19-4.52934E-18
 -1      1204 9.47631E-05-2.84311E-05-2.84288E-05 1.54908E-09 1.11445E-19-4.36740E-18
 -1      1205 9.50072E-05-2.85053E-05-2.85043E-05 4.50884E-09 1.65243E-19-5.64534E-18
 -1      1206 9.52855E-05-2.85900E-05-2.85905E-05 7.48956E-09 1.06540E-19-6.22181E-18
 -1      1207 9.56320E-05-2.86954E-05-2.86978E-05 1.05086E-08 2.02628E-19-5.73630E-18
 -1      1208 9.60870E-05-2.88338E-05-2.88386E-05 1.35246E-08-8.43931E-21-4.32602E-18
 -1      1209 9.66995E-05-2.90198E-05-2.90276E-05 1.63945E-08 2.51091E-21-4.64820E-18
 -1      1210 9.75280E-05-2.92709E-05-2.92827E-05 1.88037E-08-2.58620E-19-5.21541E-18
 -1      1211 9.86426E-05-2.96080E-05-2.96252E-05 2.01536E-08 1.47746E-19-4.52806E-18
 -1      1212 1.00124E-04-3.00551E-05-3.00794E-05 1.93851E-08 3.69609E-20-3.02012E-18
 -1      1213 1.02063E-04-3.06383E-05-3.06716E-05 1.47249E-08 1.15981E-19-2.09069E-18
 -1      1214 1.04547E-04-3.13831E-05-3.14271E-05 3.37574E-09 2.92706E-20-3.43494E-18
 -1      1215 1.07646E-04-3.23082E-05-3.23628E-05-1.87068E-08-2.69824E-19-2.82845E-18
 -1      1216 1.11367E-04-3.34133E-05-3.34740E-05-5.65048E-08-6.93409E-20-4.19790E-18
 -1      1217 1.15588E-04-3.46590E-05-3.47114E-05-1.14065E-07 3.86451E-19-5.09519E-18
 -1      1218 1.19945E-04-3.59358E-05-3.59484E-05-1.89360E-07-2.64673E-20-4.07100E-18
 -1      1219 1.23695E-04-3.70262E-05-3.69462E-05-2.64145E-07-1.57641E-19-2.55402E-18
 -1      1220 1.25614E-04-3.75799E-05-3.73440E-05-2.90031E-07-3.84831E-19-2.50682E-19
 -1      1221 1.24106E-04-3.71471E-05-3.67257E-05-1.87211E-07-1.73556E-19-1.03020E-18
 -1      1222 1.17818E-04-3.53395E-05-3.48198E-05 1.07498E-07-1.50137E-19-3.10681E-18
 -1      1223 1.06870E-04-3.21647E-05-3.17975E-05 5.42141E-07 2.30155E-19-6.34618E-18
 -1      1224 9.40317E-05-2.83639E-05-2.84695E-05 8.81573E-07-7.91116E-20-6.44338E-18
 -1      1225 8.43969E-05-2.53927E-05-2.60815E-05 8.29454E-07 4.59065E-19-5.65982E-18
 -1      1226 8.24885E-05-2.46757E-05-2.56226E-05 3.40625E-07-5.55759E-19-2.97388E-18
 -1      1227 8.88575E-05-2.65094E-05-2.71772E-05-2.94266E-07-4.98122E-19 4.19387E-19
 -1      1228 9.96306E-05-2.97846E-05-2.98706E-05-6.96988E-07-1.25235E-21 9.18713E-19
 -1      1229 1.09426E-04-3.28084E-05-3.24363E-05-7.21535E-07 1.27426E-19-8.70326E-19
 -1      1230 1.14774E-04-3.44677E-05-3.39466E-05-4.95655E-07-3.69167E-19 5.17378E-19
 -1      1231 1.15058E-04-3.45674E-05-3.41329E-05-2.05710E-07 2.33133E-19 9.02024E-19
 -1      1232 1.11523E-04-3.35037E-05-3.32449E-05 3.68227E-08 1.65711E-19-9.02461E-19
 -1      1233 1.06020E-04-3.18517E-05-3.17721E-05 2.02389E-07 3.56258E-19-3.03328E-18
 -1      1234 1.00365E-04-3.01609E-05-3.02372E-05 2.84757E-07 4.76974E-19-4.38178E-18
 -1      1235 9.62404E-05-2.89257E-05-2.90713E-05 2.22522E-07 4.00390E-19-3.63161E-18
 -1      1236 9.49629E-05-2.84728E-05-2.83959E-05-9.93568E-08 7.59550E-20-2.39472E-18
 -1      1237 9.53451E-05-2.88449E-05-2.84117E-05-8.56210E-08-2.67553E-18-3.74812E-19
 -1      1238 9.48470E-05-2.74845E-05-2.91181E-05 2.51918E-08-2.38561E-18-4.96140E-19
 -1      1239 9.35997E-05-2.32689E-05-3.03578E-05 2.52655E-07-4.30732E-18-3.36365E-20
 -1      1240 9.17703E-05-1.70838E-05-3.21042E-05 3.45820E-07-3.27156E-18-4.20744E-19
 -1      1241 8.97142E-05-1.00984E-05-3.40770E-05 3.65679E-07 4.15046E-19-1.79666E-19
 -1      1242 8.78033E-05-3.58010E-06-3.59115E-05 3.14982E-07-3.57157E-18-4.47008E-21
 -1      1243 8.63732E-05 1.31315E-06-3.72850E-05 2.03126E-07-6.62353E-18 3.30541E-21
 -1      1244 8.56967E-05 3.62698E-06-3.79372E-05 3.83535E-08-1.75098E-18-2.25218E-19
 -1      1245 8.59148E-05 2.86752E-06-3.77381E-05-1.29942E-07-6.67581E-19 3.05527E-19
 -1      1246 8.69453E-05-6.76522E-07-3.67625E-05-2.54989E-07 5.21071E-18-1.54643E-19
 -1      1247 8.85315E-05-6.10922E-06-3.52449E-05-3.09227E-07 5.86771E-18-8.33110E-19
 -1      1248 9.03282E-05-1.22234E-05-3.35112E-05-2.94397E-07-2.29202E-18 3.25334E-19
 -1      1249 9.20423E-05-1.80323E-05-3.18344E-05-2.37895E-07-4.95207E-18 5.44133E-19
 -1      1250 9.34864E-05-2.28878E-05-3.04139E-05-1.62512E-07-1.75508E-18 6.88206E-19
 -1      1251 9.45525E-05-2.64184E-05-2.93796E-05-1.06995E-07-3.11390E-19 3.08499E-19
 -1      1252 9.50456E-05-2.82353E-05-2.87652E-05 8.20770E-08-2.69203E-18-6.99044E-19
 -1      1253 9.53110E-05-2.87747E-05-2.84445E-05 6.80650E-08-2.58433E-18 7.00531E-19
 -1      1254 3.76092E-05-1.16970E-04 1.99641E-05-1.52899E-05 1.00153E-17-5.91600E-20
 -1      1255 1.81314E-05-6.82041E-05 1.02399E-05-2.72544E-05-7.13795E-18-3.71255E-18
 -1      1256 7.88558E-06-7.02511E-06-6.82380E-06 1.19809E-06-7.92145E-18-5.04747E-18
 -1      1257 3.59916E-05 2.55167E-05-2.69264E-05 5.55320E-05-2.95276E-18-1.42132E-18
 -1      1258 1.10370E-04 1.40113E-05-4.77562E-05 1.04781E-04-7.10661E-19-5.26854E-19
 -1      1259 2.14311E-04-3.43177E-05-6.59508E-05 1.13447E-04 3.73542E-19 2.23956E-18
 -1      1260 2.99833E-04-8.34036E-05-7.74871E-05 6.36210E-05-4.74868E-20-1.17272E-18
 -1      1261 3.15647E-04-9.36834E-05-7.94242E-05-2.24030E-05 6.60633E-19-7.55151E-18
 -1      1262 2.56578E-04-5.99133E-05-7.12885E-05-9.38544E-05 4.84778E-18-1.47358E-17
 -1      1263 1.55195E-04-7.58845E-06-5.55642E-05-1.09929E-04 7.36410E-18-1.50382E-17
 -1      1264 6.09327E-05 2.17027E-05-3.40121E-05-7.22477E-05 8.58553E-18-1.01187E-17
 -1      1265 1.18840E-05 4.51755E-06-1.19014E-05-1.36583E-05 8.02310E-18-6.12490E-18
 -1      1266 1.15482E-05-4.79243E-05 5.74624E-06 2.38859E-05 4.91279E-18-2.47461E-18
 -1      1267 2.99669E-05-9.96689E-05 1.70768E-05 2.34785E-05-4.05051E-18-5.21137E-19
 -1      1268 3.78870E-05-1.16365E-04 2.01212E-05-3.19285E-06-9.63405E-18 3.69015E-19
 -1      1269 2.47582E-05-8.44851E-05 1.39173E-05-2.54269E-05-4.10557E-18-6.21087E-19
 -1      1270 8.08296E-06-2.50965E-05-4.59712E-07-1.12772E-05 5.37019E-19 2.17687E-19
 -1      1271 2.09568E-05 1.89409E-05-1.97150E-05 3.58764E-05-3.52366E-19 5.14996E-19
 -1      1272 7.82152E-05 2.25759E-05-4.00325E-05 8.86183E-05-2.27513E-18-3.13741E-18
 -1      1273 1.70700E-04-1.38512E-05-5.86878E-05 1.13133E-04-3.36103E-18-7.47252E-18
 -1      1274 2.64789E-04-6.53494E-05-7.26638E-05 8.66888E-05-2.81067E-18-1.03092E-17
 -1      1275 3.13416E-04-9.45187E-05-7.90005E-05 1.31563E-05-4.01705E-19-1.03716E-17
 -1      1276 2.90179E-04-7.96953E-05-7.60735E-05-6.78909E-05 1.60455E-18-8.90825E-18
 -1      1277 2.09049E-04-3.22741E-05-6.49462E-05-1.12768E-04 2.55380E-19-3.06118E-18
 -1      1278 1.10221E-04 1.38632E-05-4.74793E-05-1.04277E-04-1.65171E-19 3.28649E-19
 -1      1279 3.51792E-05 2.50336E-05-2.62090E-05-5.42708E-05 2.21076E-18-7.65718E-19
 -1      1280 8.18066E-06-1.04130E-05-5.75357E-06 5.14586E-07-3.35425E-19-1.28580E-18
 -1      1281 1.76403E-05-6.79665E-05 1.03968E-05 2.55079E-05-2.76133E-18 5.57348E-19
 -1      1282 3.69588E-05-1.15801E-04 1.98182E-05 1.56967E-05 7.29549E-18 2.23511E-19
 -1      1283 1.04443E-04-2.20194E-05-3.78923E-05-1.72764E-05-4.06576E-19 9.88911E-18
 -1      1284 9.03184E-05-6.68099E-06-3.60167E-05-2.04744E-05-1.36933E-18 6.89326E-19
 -1      1285 9.26549E-05-6.73957E-06-3.72220E-05-2.57623E-05-1.69597E-18 2.85736E-18
 -1      1286 8.59013E-05-4.09675E-06-3.51288E-05-1.64348E-05-1.48675E-18-2.40377E-18
 -1      1287 8.71551E-05-4.08994E-06-3.55985E-05-1.88558E-05-1.64653E-18-1.05657E-18
 -1      1288 9.21330E-05-1.04634E-05-3.50929E-05-1.90385E-05-2.44300E-18 5.55548E-19
 -1      1289 8.40938E-05-3.18930E-06-3.46859E-05-1.28218E-05-1.25837E-18-4.06144E-18
 -1      1290 8.47023E-05-3.15891E-06-3.49099E-05-1.46345E-05-1.40507E-18-3.30234E-18
 -1      1291 8.78603E-05-7.39408E-06-3.45723E-05-1.54127E-05-2.33614E-18-2.03921E-18
 -1      1292 8.31860E-05-2.72851E-06-3.44702E-05-9.68822E-06-1.07731E-18-4.86632E-18
 -1      1293 8.35001E-05-2.71188E-06-3.45792E-05-1.12363E-05-1.15212E-18-4.50187E-18
 -1      1294 8.58626E-05-5.98420E-06-3.43045E-05-1.19626E-05-2.00139E-18-3.43006E-18
 -1      1295 8.26929E-05-2.45693E-06-3.43638E-05-6.91700E-06-7.79164E-19-5.28040E-18
 -1      1296 8.28626E-05-2.44864E-06-3.44183E-05-8.28794E-06-8.80544E-19-5.03536E-18
 -1      1297 8.48206E-05-5.21661E-06-3.41730E-05-8.94447E-06-1.62803E-18-4.06520E-18
 -1      1298 8.24182E-05-2.29209E-06-3.43108E-05-4.29678E-06-5.55023E-19-5.52636E-18
 -1      1299 8.25090E-05-2.28815E-06-3.43380E-05-5.59839E-06-6.24697E-19-5.41461E-18
 -1      1300 8.42341E-05-4.76145E-06-3.41094E-05-6.21912E-06-1.15139E-18-4.49023E-18
 -1      1301 8.22861E-05-2.20297E-06-3.42885E-05-1.79085E-06-2.90036E-19-5.69962E-18
 -1      1302 8.23250E-05-2.20137E-06-3.42995E-05-3.04238E-06-3.73700E-19-5.58451E-18
 -1      1303 8.39128E-05-4.49884E-06-3.40803E-05-3.64637E-06-7.74756E-19-4.64644E-18
 -1      1304 8.22602E-05-2.17549E-06-3.42858E-05 6.70038E-07-7.93539E-20-5.81529E-18
 -1      1305 8.22588E-05-2.17553E-06-3.42855E-05-5.66370E-07-1.46092E-19-5.75371E-18
 -1      1306 8.37718E-05-4.37941E-06-3.40695E-05-1.17114E-06-3.39991E-19-4.80452E-18
 -1      1307 8.23336E-05-2.20570E-06-3.43011E-05 3.14966E-06 1.61072E-19-5.88618E-18
 -1      1308 8.22919E-05-2.20734E-06-3.42893E-05 1.89552E-06 6.55530E-20-5.85591E-18
 -1      1309 8.37768E-05-4.38359E-06-3.40699E-05 1.27422E-06-1.92688E-20-4.93739E-18
 -1      1310 8.25265E-05-2.29862E-06-3.43406E-05 5.71486E-06 3.56568E-19-5.87826E-18
 -1      1311 8.24321E-05-2.30199E-06-3.43127E-05 4.40726E-06 2.77946E-19-5.89958E-18
 -1      1312 8.39285E-05-4.51239E-06-3.40814E-05 3.75361E-06 3.86891E-19-4.98092E-18
 -1      1313 8.28855E-05-2.46415E-06-3.44207E-05 8.39722E-06 6.07389E-19-5.69863E-18
 -1      1314 8.27130E-05-2.47285E-06-3.43658E-05 7.01717E-06 5.18447E-19-5.82006E-18
 -1      1315 8.42605E-05-4.78523E-06-3.41103E-05 6.31292E-06 7.33560E-19-4.95157E-18
 -1      1316 8.35430E-05-2.74126E-06-3.45839E-05 1.13978E-05 9.35098E-19-5.25239E-18
 -1      1317 8.32219E-05-2.75837E-06-3.44732E-05 9.83272E-06 8.10405E-19-5.53390E-18
 -1      1318 8.48626E-05-5.25807E-06-3.41733E-05 9.05652E-06 1.20236E-18-4.69876E-18
 -1      1319 8.47636E-05-3.20326E-06-3.49185E-05 1.48466E-05 1.27447E-18-4.32998E-18
 -1      1320 8.41514E-05-3.24001E-06-3.46918E-05 1.30063E-05 1.11824E-18-4.91067E-18
 -1      1321 8.59451E-05-6.06284E-06-3.43060E-05 1.21253E-05 1.71247E-18-4.16857E-18
 -1      1322 8.72539E-05-4.09018E-06-3.56202E-05 1.90937E-05 1.57834E-18-2.33066E-18
 -1      1323 8.59706E-05-4.15407E-06-3.51369E-05 1.66958E-05 1.37373E-18-3.54232E-18
 -1      1324 8.79896E-05-7.51698E-06-3.45752E-05 1.56531E-05 2.15434E-18-3.00895E-18
 -1      1325 9.34676E-05-6.79220E-06-3.71172E-05 2.50983E-05 1.47892E-18 1.86522E-18
 -1      1326 9.01334E-05-6.43773E-06-3.60393E-05 2.11512E-05 1.39549E-18-7.16113E-19
 -1      1327 9.23618E-05-1.06979E-05-3.50781E-05 1.96788E-05 2.45084E-18-6.33634E-19
 -1      1328 1.23630E-04-2.49242E-05-3.90159E-05 2.83679E-05 8.39516E-19 1.04109E-17
 -1      1329 1.00084E-04-1.44243E-05-3.73550E-05 2.40520E-05 8.28081E-19 4.38985E-18
 -1      1330 1.01681E-04-1.93427E-05-3.54031E-05 2.14005E-05 2.49977E-18 3.20263E-18
 -1      1331 1.02608E-04-2.78061E-05-3.47588E-05 7.32982E-06 1.41777E-18 9.75507E-18
 -1      1332 1.05150E-04-3.02310E-05-3.35264E-05-7.96010E-06-1.37177E-18 1.02370E-17
 -1      1333 9.82633E-05-2.78437E-05-3.07630E-05-4.98877E-06-1.32778E-18 8.61835E-18
 -1      1334 9.55054E-05-2.78500E-05-2.92553E-05-2.49034E-06-1.05966E-18 7.91488E-18
 -1      1335 9.32724E-05-2.75589E-05-2.82157E-05-2.04370E-06-1.03110E-18 6.40426E-18
 -1      1336 9.94870E-05-2.80532E-05-3.09834E-05-7.88753E-06-2.30647E-18 4.75646E-18
 -1      1337 9.15821E-05-2.72008E-05-2.75812E-05-8.39149E-07-8.48813E-19 5.83113E-18
 -1      1338 9.08647E-05-2.71051E-05-2.72787E-05-7.28994E-07-8.24951E-19 4.66662E-18
 -1      1339 9.47194E-05-2.77704E-05-2.88167E-05-3.12212E-06-1.78324E-18 3.68537E-18
 -1      1340 9.01139E-05-2.69221E-05-2.70353E-05-1.74869E-07-6.09271E-19 4.04861E-18
 -1      1341 9.00404E-05-2.69487E-05-2.70002E-05-1.16790E-07-5.84638E-19 3.25445E-18
 -1      1342 9.25189E-05-2.74996E-05-2.78955E-05-1.05514E-06-1.38991E-18 2.59466E-18
 -1      1343 8.97804E-05-2.68811E-05-2.69258E-05 1.53277E-07-4.69776E-19 2.82366E-18
 -1      1344 8.99939E-05-2.69709E-05-2.69871E-05 1.81879E-07-3.72647E-19 2.30374E-18
 -1      1345 9.15592E-05-2.73555E-05-2.75282E-05-7.20169E-08-1.04227E-18 1.52875E-18
 -1      1346 8.99969E-05-2.69738E-05-2.69933E-05 3.12616E-07-2.50506E-19 2.02827E-18
 -1      1347 9.03377E-05-2.70930E-05-2.70920E-05 3.24239E-07-1.59824E-19 1.69945E-18
 -1      1348 9.13047E-05-2.73433E-05-2.74199E-05 4.14549E-07-6.89779E-19 1.01558E-18
 -1      1349 9.04786E-05-2.71344E-05-2.71389E-05 3.78409E-07-1.80800E-19 1.45202E-18
 -1      1350 9.08643E-05-2.72620E-05-2.72503E-05 3.79992E-07-1.45657E-19 1.23061E-18
 -1      1351 9.14357E-05-2.74164E-05-2.74415E-05 6.41884E-07-3.84378E-19 6.44542E-19
 -1      1352 9.10710E-05-2.73220E-05-2.73163E-05 3.90208E-07-2.88509E-19 1.17633E-18
 -1      1353 9.14558E-05-2.74458E-05-2.74277E-05 3.85928E-07-4.68424E-19 4.94833E-19
 -1      1354 9.17661E-05-2.75346E-05-2.75297E-05 7.23451E-07-4.78164E-19 2.12770E-19
 -1      1355 9.16858E-05-2.75121E-05-2.75003E-05 3.71114E-07-3.44945E-19 5.89743E-19
 -1      1356 9.20445E-05-2.76255E-05-2.76046E-05 3.63669E-07-3.11127E-19 2.26211E-19
 -1      1357 9.21852E-05-2.76708E-05-2.76490E-05 7.21099E-07-6.58666E-19-3.95516E-20
 -1      1358 9.22725E-05-2.76911E-05-2.76762E-05 3.35617E-07-3.66886E-19 1.04149E-19
 -1      1359 9.25924E-05-2.77909E-05-2.77696E-05 3.26796E-07-9.51657E-20-2.30229E-19
 -1      1360 9.26270E-05-2.78085E-05-2.77782E-05 6.71904E-07-4.64662E-19 2.06293E-19
 -1      1361 9.28046E-05-2.78518E-05-2.78361E-05 2.93144E-07 1.13700E-19-4.21343E-19
 -1      1362 9.30810E-05-2.79372E-05-2.79171E-05 2.84142E-07-7.79549E-20-3.73546E-19
 -1      1363 9.30532E-05-2.79379E-05-2.79047E-05 5.99416E-07-1.51479E-19-4.48007E-19
 -1      1364 9.32711E-05-2.79916E-05-2.79765E-05 2.49936E-07-2.16883E-19-4.61820E-19
 -1      1365 9.35046E-05-2.80630E-05-2.80453E-05 2.41550E-07-1.15861E-19-5.98793E-19
 -1      1366 9.34435E-05-2.80543E-05-2.80219E-05 5.19055E-07-2.07544E-19-1.04313E-18
 -1      1367 9.36709E-05-2.81104E-05-2.80972E-05 2.10172E-07 4.84653E-20-6.43417E-19
 -1      1368 9.38658E-05-2.81695E-05-2.81547E-05 2.02936E-07-9.05972E-20-5.11873E-19
 -1      1369 9.37898E-05-2.81559E-05-2.81268E-05 4.41086E-07-2.06662E-19-1.04499E-18
 -1      1370 9.40103E-05-2.82106E-05-2.81998E-05 1.76709E-07-1.81817E-19-7.87249E-19
 -1      1371 9.41731E-05-2.82593E-05-2.82481E-05 1.70999E-07-3.98461E-19-1.10750E-18
 -1      1372 9.40923E-05-2.82434E-05-2.82193E-05 3.72468E-07-3.18455E-19-1.10509E-18
 -1      1373 9.43002E-05-2.82954E-05-2.82877E-05 1.51614E-07-3.83137E-19-1.16406E-18
 -1      1374 9.44392E-05-2.83365E-05-2.83291E-05 1.47719E-07-4.71954E-19-1.61137E-18
 -1      1375 9.43570E-05-2.83187E-05-2.83009E-05 3.18106E-07-5.34050E-19-1.16234E-18
 -1      1376 9.45550E-05-2.83693E-05-2.83652E-05 1.36555E-07-2.74671E-19-1.48092E-18
 -1      1377 9.46800E-05-2.84058E-05-2.84026E-05 1.34737E-07 4.54122E-20-1.58786E-18
 -1      1378 9.45940E-05-2.83852E-05-2.83745E-05 2.81746E-07-4.12248E-19-9.76963E-19
 -1      1379 9.47923E-05-2.84375E-05-2.84376E-05 1.33088E-07 1.93916E-19-1.85194E-18
 -1      1380 9.49145E-05-2.84729E-05-2.84743E-05 1.33626E-07 9.69653E-20-1.60351E-18
 -1      1381 9.48168E-05-2.84467E-05-2.84443E-05 2.66639E-07-3.80978E-21-1.47320E-18
 -1      1382 9.50324E-05-2.85061E-05-2.85110E-05 1.42863E-07-1.72879E-19-1.77952E-18
 -1      1383 9.51644E-05-2.85442E-05-2.85507E-05 1.46080E-07-4.01515E-19-2.20759E-18
 -1      1384 9.50420E-05-2.85083E-05-2.85152E-05 2.76016E-07-1.63970E-19-2.42197E-18
 -1      1385 9.52986E-05-2.85820E-05-2.85924E-05 1.67741E-07-1.27684E-19-2.12627E-18
 -1      1386 9.54549E-05-2.86272E-05-2.86394E-05 1.74019E-07-2.29257E-19-2.40424E-18
 -1      1387 9.52887E-05-2.85755E-05-2.85931E-05 3.13391E-07-4.53016E-19-2.17171E-18
 -1      1388 9.56173E-05-2.86731E-05-2.86900E-05 2.09817E-07 4.14748E-21-2.39141E-18
 -1      1389 9.58144E-05-2.87304E-05-2.87491E-05 2.19592E-07-4.22112E-20-2.31034E-18
 -1      1390 9.55790E-05-2.86548E-05-2.86845E-05 3.82681E-07-9.14217E-20-1.93098E-18
 -1      1391 9.60187E-05-2.87883E-05-2.88127E-05 2.71315E-07 1.79043E-20-2.02102E-18
 -1      1392 9.62751E-05-2.88635E-05-2.88894E-05 2.85044E-07 6.24832E-20-2.17809E-18
 -1      1393 9.59380E-05-2.87537E-05-2.87972E-05 4.88101E-07 1.94070E-19-2.02873E-18
 -1      1394 9.65363E-05-2.89377E-05-2.89706E-05 3.54298E-07 1.88516E-19-2.36294E-18
 -1      1395 9.68725E-05-2.90371E-05-2.90709E-05 3.72385E-07-6.74338E-20-2.38557E-18
 -1      1396 9.63936E-05-2.88805E-05-2.89394E-05 6.33739E-07 1.43233E-19-2.06119E-18
 -1      1397 9.72062E-05-2.91324E-05-2.91745E-05 4.60106E-07-2.99875E-19-1.80781E-18
 -1      1398 9.76440E-05-2.92631E-05-2.93048E-05 4.82767E-07-1.98360E-19-2.68176E-18
 -1      1399 9.69758E-05-2.90447E-05-2.91199E-05 8.22677E-07-1.03687E-20-1.69407E-18
 -1      1400 9.80658E-05-2.93840E-05-2.94356E-05 5.88398E-07 1.82988E-19-2.30956E-18
 -1      1401 9.86265E-05-2.95530E-05-2.96019E-05 6.15427E-07 1.40129E-19-2.10135E-18
 -1      1402 9.77154E-05-2.92563E-05-2.93476E-05 1.05544E-06 1.60432E-20-6.38433E-19
 -1      1403 9.91496E-05-2.97040E-05-2.97637E-05 7.35608E-07-3.32775E-21-1.88535E-18
 -1      1404 9.98505E-05-2.99173E-05-2.99709E-05 7.66009E-07 4.09851E-19-1.41998E-18
 -1      1405 9.86412E-05-2.95253E-05-2.96302E-05 1.32746E-06 4.99283E-19-8.97570E-19
 -1      1406 1.00483E-04-3.01014E-05-3.01658E-05 8.92635E-07 4.17313E-19-1.59984E-18
 -1      1407 1.01332E-04-3.03627E-05-3.04158E-05 9.24062E-07 2.06969E-19-1.17753E-18
 -1      1408 9.97747E-05-2.98610E-05-2.99729E-05 1.62525E-06 3.30560E-19-8.00474E-19
 -1      1409 1.02071E-04-3.05807E-05-3.06422E-05 1.04160E-06-8.66207E-20-1.86633E-18
 -1      1410 1.03057E-04-3.08884E-05-3.09313E-05 1.06958E-06-1.89093E-19-1.39819E-18
 -1      1411 1.01123E-04-3.02697E-05-3.03753E-05 1.92091E-06-1.13607E-19-2.26116E-18
 -1      1412 1.03883E-04-3.11363E-05-3.11817E-05 1.15183E-06-5.88930E-20-1.61861E-18
 -1      1413 1.04965E-04-3.14797E-05-3.14965E-05 1.16879E-06-4.29712E-20-1.46228E-18
 -1      1414 1.02667E-04-3.07521E-05-3.08282E-05 2.16507E-06 6.63895E-21-1.77185E-18
 -1      1415 1.05830E-04-3.17469E-05-3.17546E-05 1.17588E-06 1.87609E-20-3.35849E-19
 -1      1416 1.06916E-04-3.21003E-05-3.20676E-05 1.17027E-06 1.29552E-19-1.28696E-19
 -1      1417 1.04344E-04-3.12980E-05-3.13087E-05 2.27938E-06 2.89863E-20-1.91866E-19
 -1      1418 1.07737E-04-3.23656E-05-3.23052E-05 1.04812E-06-3.71305E-20-2.99175E-20
 -1      1419 1.08673E-04-3.26822E-05-3.25700E-05 1.00434E-06-6.27350E-20 6.11452E-20
 -1      1420 1.06034E-04-3.18799E-05-3.17750E-05 2.15193E-06 2.18409E-19 7.96211E-20
 -1      1421 1.09322E-04-3.29104E-05-3.27459E-05 6.91026E-07-1.74753E-19 3.80027E-19
 -1      1422 1.09875E-04-3.31169E-05-3.28954E-05 5.91682E-07-2.67067E-19-7.47672E-20
 -1      1423 1.07533E-04-3.24424E-05-3.21634E-05 1.64340E-06-3.06219E-19 5.51915E-19
 -1      1424 1.10181E-04-3.32561E-05-3.29572E-05 3.74580E-08-5.85644E-21-4.86561E-19
 -1      1425 1.10063E-04-3.32543E-05-3.29104E-05-1.29696E-07-3.62636E-20-5.74791E-19
 -1      1426 1.08552E-04-3.28916E-05-3.23897E-05 6.16980E-07-3.57064E-19 4.49010E-19
 -1      1427 1.09835E-04-3.32380E-05-3.28051E-05-9.22784E-07-3.46092E-19-4.20201E-19
 -1      1428 1.08763E-04-3.29222E-05-3.24873E-05-1.15137E-06-1.83204E-19-1.11071E-18
 -1      1429 1.08727E-04-3.30874E-05-3.23614E-05-9.91896E-07-2.39638E-19-5.72067E-19
 -1      1430 1.07845E-04-3.26822E-05-3.21806E-05-2.07504E-06-2.84550E-22-5.41294E-19
 -1      1431 1.05672E-04-3.19826E-05-3.15606E-05-2.32263E-06 2.98182E-19-8.86235E-19
 -1      1432 1.07697E-04-3.28560E-05-3.20051E-05-3.06251E-06-2.09806E-19-4.58152E-19
 -1      1433 1.04038E-04-3.14823E-05-3.10638E-05-3.12472E-06 2.19822E-19-1.16864E-18
 -1      1434 1.00925E-04-3.04306E-05-3.01972E-05-3.30508E-06-1.09423E-19-1.16472E-18
 -1      1435 1.05248E-04-3.20456E-05-3.13060E-05-5.17145E-06 1.52287E-19-4.74286E-19
 -1      1436 9.87855E-05-2.97158E-05-2.95869E-05-3.62966E-06-4.42352E-19-6.44116E-19
 -1      1437 9.53132E-05-2.85032E-05-2.86389E-05-3.63628E-06 7.43755E-20-5.66586E-19
 -1      1438 1.01529E-04-3.06403E-05-3.03464E-05-6.58193E-06-2.34597E-19-3.00591E-19
 -1      1439 9.31602E-05-2.77422E-05-2.80524E-05-3.19009E-06 8.46490E-19-1.15890E-18
 -1      1440 9.02463E-05-2.67049E-05-2.72662E-05-2.96196E-06 6.25944E-20-3.11285E-20
 -1      1441 9.72271E-05-2.88895E-05-2.93135E-05-6.48149E-06 4.60501E-19-1.37087E-19
 -1      1442 8.87234E-05-2.61553E-05-2.68594E-05-1.74987E-06-7.16405E-19 5.97370E-19
 -1      1443 8.72670E-05-2.56422E-05-2.64638E-05-1.34083E-06-9.88117E-20-3.89820E-19
 -1      1444 9.35084E-05-2.73221E-05-2.84558E-05-4.48316E-06-3.42294E-19-3.19159E-19
 -1      1445 8.68661E-05-2.55168E-05-2.63451E-05 2.28049E-07-5.63608E-19-9.67444E-19
 -1      1446 8.72828E-05-2.56947E-05-2.64429E-05 6.52012E-07-7.87191E-19-2.15644E-18
 -1      1447 9.15650E-05-2.65306E-05-2.79927E-05-1.07937E-06-5.87298E-19-3.67169E-19
 -1      1448 8.80446E-05-2.60124E-05-2.66207E-05 1.95111E-06-1.75203E-19-2.27037E-18
 -1      1449 9.00193E-05-2.67558E-05-2.71336E-05 2.21256E-06-9.40121E-19-3.07446E-18
 -1      1450 9.19641E-05-2.68085E-05-2.80203E-05 2.43524E-06-1.08302E-18-1.06457E-18
 -1      1451 9.15031E-05-2.73257E-05-2.75111E-05 2.77390E-06-6.05891E-19-3.56310E-18
 -1      1452 9.41699E-05-2.82967E-05-2.82198E-05 2.79634E-06-2.99520E-19-4.39750E-18
 -1      1453 9.42812E-05-2.79389E-05-2.84663E-05 4.68849E-06-9.92359E-19-2.50808E-18
 -1      1454 9.57247E-05-2.88535E-05-2.86423E-05 2.55170E-06 7.96545E-19-3.93187E-18
 -1      1455 9.81264E-05-2.96963E-05-2.92950E-05 2.38245E-06 1.37086E-18-2.97671E-18
 -1      1456 9.73676E-05-2.93460E-05-2.91225E-05 5.03004E-06 3.26357E-19-2.56069E-18
 -1      1457 9.92220E-05-3.00502E-05-2.96191E-05 1.60481E-06 1.32387E-18-2.01250E-18
 -1      1458 1.00712E-04-3.05442E-05-3.00359E-05 1.35275E-06 1.42041E-18-4.64095E-19
 -1      1459 1.00004E-04-3.04608E-05-2.97382E-05 3.74314E-06 2.15545E-18-1.22615E-18
 -1      1460 1.01107E-04-3.06330E-05-3.01798E-05 4.29700E-07 1.03642E-18-7.27985E-19
 -1      1461 1.01495E-04-3.07323E-05-3.02992E-05 1.95943E-07 7.54971E-19-5.17947E-20
 -1      1462 1.01422E-04-3.09780E-05-3.01189E-05 1.65712E-06 2.04618E-18-5.09570E-19
 -1      1463 1.01226E-04-3.05934E-05-3.02573E-05-5.58507E-07 1.08160E-18 6.09420E-19
 -1      1464 1.00705E-04-3.03801E-05-3.01253E-05-7.13135E-07 1.21697E-18 1.96199E-18
 -1      1465 1.01448E-04-3.08876E-05-3.01857E-05-3.74765E-07 1.45411E-18 1.74832E-18
 -1      1466 9.99875E-05-3.00983E-05-2.99504E-05-1.12181E-06-3.23388E-19 8.21834E-19
 -1      1467 9.89704E-05-2.97196E-05-2.96793E-05-1.17209E-06-8.11413E-19 4.09435E-19
 -1      1468 1.00360E-04-3.03540E-05-2.99763E-05-1.77178E-06 3.43816E-19 1.07392E-18
 -1      1469 9.80882E-05-2.93890E-05-2.94539E-05-1.17376E-06 4.23315E-19 3.44292E-19
 -1      1470 9.70705E-05-2.90147E-05-2.91773E-05-1.11298E-06 8.12386E-19 1.10622E-18
 -1      1471 9.86730E-05-2.95973E-05-2.96063E-05-2.25981E-06-4.00523E-19 1.08122E-19
 -1      1472 9.62847E-05-2.87153E-05-2.89759E-05-7.29836E-07 9.73079E-19 1.36912E-18
 -1      1473 9.57164E-05-2.85399E-05-2.87908E-05-5.91649E-07 2.89554E-19 2.09192E-18
 -1      1474 9.69336E-05-2.88218E-05-2.92099E-05-1.81596E-06 9.02691E-19 2.69287E-19
 -1      1475 9.52041E-05-2.85035E-05-2.85812E-05 3.06751E-08-2.06455E-18 2.30437E-18
 -1      1476 9.55298E-05-2.83480E-05-2.88032E-05-5.62058E-07-1.05080E-18 4.06972E-19
 -1      1477 9.65798E-05-2.83644E-05-2.97732E-05 2.99633E-06 1.22216E-18 7.11545E-18
 -1      1478 1.02539E-04-2.93994E-05-3.21568E-05 4.46347E-06 1.03317E-18 9.10984E-18
 -1      1479 1.02329E-04-2.67187E-05-3.27065E-05 1.27843E-05 2.11488E-18 5.36807E-18
 -1      1480 9.20321E-05-2.74297E-05-2.77622E-05 1.15258E-06 9.94628E-19 4.69799E-18
 -1      1481 9.39794E-05-2.75850E-05-2.86765E-05 1.47453E-06 9.13697E-19 6.27802E-18
 -1      1482 9.64885E-05-2.80308E-05-2.95343E-05 4.86881E-06 1.90670E-18 3.74257E-18
 -1      1483 9.01981E-05-2.70045E-05-2.70629E-05 3.32439E-07 5.80423E-19 2.88918E-18
 -1      1484 9.08137E-05-2.70223E-05-2.73358E-05 4.95292E-07 6.55273E-19 4.00207E-18
 -1      1485 9.30427E-05-2.75790E-05-2.80989E-05 1.85301E-06 1.43682E-18 2.43337E-18
 -1      1486 8.96789E-05-2.68858E-05-2.68867E-05-5.42265E-08 5.97277E-19 1.59679E-18
 -1      1487 8.97173E-05-2.68238E-05-2.69151E-05 3.48447E-08 4.82233E-19 2.37002E-18
 -1      1488 9.14881E-05-2.73074E-05-2.75147E-05 5.19304E-07 1.07499E-18 1.18458E-18
 -1      1489 8.98085E-05-2.69376E-05-2.69277E-05-2.41221E-07 2.73006E-19 6.06581E-19
 -1      1490 8.95812E-05-2.68304E-05-2.68631E-05-1.91049E-07 3.67003E-19 1.19203E-18
 -1      1491 9.09546E-05-2.72260E-05-2.73180E-05-1.30105E-07 8.14462E-19 4.03439E-19
 -1      1492 9.02580E-05-2.70790E-05-2.70651E-05-3.24043E-07 5.31670E-20 3.92567E-19
 -1      1493 8.99128E-05-2.69523E-05-2.69640E-05-2.96464E-07 9.39247E-20 4.78574E-19
 -1      1494 9.09697E-05-2.72683E-05-2.73064E-05-4.48286E-07 3.10055E-19 1.43956E-19
 -1      1495 9.08483E-05-2.72600E-05-2.72432E-05-3.48182E-07 4.65614E-19-3.34671E-19
 -1      1496 9.04629E-05-2.71304E-05-2.71304E-05-3.34592E-07 2.64484E-19 5.16161E-20
 -1      1497 9.12712E-05-2.73794E-05-2.73870E-05-5.87844E-07 3.99615E-19-4.28035E-19
 -1      1498 9.14769E-05-2.74508E-05-2.74325E-05-3.38677E-07 2.57976E-19-1.36712E-18
 -1      1499 9.10948E-05-2.73280E-05-2.73204E-05-3.33870E-07 4.01774E-19-6.76455E-19
 -1      1500 9.17082E-05-2.75221E-05-2.75118E-05-6.25672E-07 7.05208E-19-8.88860E-19
 -1      1501 9.20851E-05-2.76341E-05-2.76158E-05-3.10708E-07 9.05171E-20-1.80152E-18
 -1      1502 9.17304E-05-2.75235E-05-2.75114E-05-3.11305E-07 8.18069E-20-1.53171E-18
 -1      1503 9.21918E-05-2.76732E-05-2.76531E-05-6.05280E-07 3.15324E-19-1.31701E-18
 -1      1504 9.26412E-05-2.78009E-05-2.77837E-05-2.73962E-07 1.60530E-19-2.06285E-18
 -1      1505 9.23258E-05-2.77047E-05-2.76906E-05-2.77690E-07 1.99130E-19-1.91210E-18
 -1      1506 9.26700E-05-2.78192E-05-2.77946E-05-5.53348E-07 2.98842E-19-1.60509E-18
 -1      1507 9.31309E-05-2.79472E-05-2.79318E-05-2.34778E-07 2.34177E-19-2.60363E-18
 -1      1508 9.28591E-05-2.78656E-05-2.78513E-05-2.40074E-07 2.79636E-19-2.23501E-18
 -1      1509 9.31141E-05-2.79527E-05-2.79271E-05-4.87010E-07 3.57871E-19-1.41405E-18
 -1      1510 9.35512E-05-2.80722E-05-2.80591E-05-1.97351E-07 1.03942E-19-2.97165E-18
 -1      1511 9.33221E-05-2.80045E-05-2.79910E-05-2.03123E-07 2.65426E-20-2.92333E-18
 -1      1512 9.35106E-05-2.80703E-05-2.80461E-05-4.17534E-07 3.01765E-19-2.09073E-18
 -1      1513 9.39068E-05-2.81776E-05-2.81671E-05-1.64504E-07 6.17157E-20-3.07806E-18
 -1      1514 9.37162E-05-2.81219E-05-2.81102E-05-1.69968E-07 6.13266E-20-2.86354E-18
 -1      1515 9.38563E-05-2.81718E-05-2.81506E-05-3.52453E-07 1.18463E-19-2.27830E-18
 -1      1516 9.42079E-05-2.82665E-05-2.82587E-05-1.38215E-07-8.78777E-20-3.49378E-18
 -1      1517 9.40491E-05-2.82204E-05-2.82111E-05-1.42779E-07 2.81948E-20-3.40146E-18
 -1      1518 9.41551E-05-2.82586E-05-2.82414E-05-2.96927E-07 2.21053E-19-2.75477E-18
 -1      1519 9.44684E-05-2.83430E-05-2.83381E-05-1.20014E-07-8.52591E-20-3.29625E-18
 -1      1520 9.43331E-05-2.83038E-05-2.82974E-05-1.23186E-07 9.82709E-20-3.44722E-18
 -1      1521 9.44159E-05-2.83335E-05-2.83211E-05-2.54706E-07 5.36699E-20-2.74939E-18
 -1      1522 9.47056E-05-2.84123E-05-2.84106E-05-1.11288E-07-1.19755E-19-2.99464E-18
 -1      1523 9.45839E-05-2.83768E-05-2.83737E-05-1.12604E-07-3.57765E-19-3.46383E-18
 -1      1524 9.46515E-05-2.84003E-05-2.83936E-05-2.28846E-07-2.95981E-19-2.05739E-18
 -1      1525 9.49397E-05-2.84804E-05-2.84822E-05-1.13532E-07 5.21366E-19-3.63438E-18
 -1      1526 9.48203E-05-2.84450E-05-2.84459E-05-1.12488E-07 5.54745E-19-3.17452E-18
 -1      1527 9.48779E-05-2.84640E-05-2.84637E-05-2.22270E-07 6.76263E-19-2.58200E-18
 -1      1528 9.51947E-05-2.85545E-05-2.85602E-05-1.28555E-07 2.32758E-19-4.54807E-18
 -1      1529 9.50644E-05-2.85150E-05-2.85205E-05-1.24550E-07 4.80978E-19-3.89141E-18
 -1      1530 9.51143E-05-2.85301E-05-2.85372E-05-2.38224E-07 9.23199E-19-2.55234E-18
 -1      1531 9.54986E-05-2.86428E-05-2.86532E-05-1.58648E-07-1.76238E-19-4.46763E-18
 -1      1532 9.53420E-05-2.85943E-05-2.86054E-05-1.50926E-07-2.50208E-20-4.52829E-18
 -1      1533 9.53836E-05-2.86052E-05-2.86211E-05-2.80639E-07 3.02719E-19-2.76659E-18
 -1      1534 9.58849E-05-2.87552E-05-2.87711E-05-2.06718E-07-5.28351E-19-3.75535E-18
 -1      1535 9.56835E-05-2.86919E-05-2.87097E-05-1.94320E-07-3.48570E-19-4.29840E-18
 -1      1536 9.57130E-05-2.86974E-05-2.87237E-05-3.54430E-07-5.05846E-19-2.74504E-18
 -1      1537 9.63934E-05-2.89036E-05-2.89261E-05-2.76372E-07-1.85319E-19-2.74983E-18
 -1      1538 9.61251E-05-2.88184E-05-2.88446E-05-2.58087E-07-2.76062E-19-3.17567E-18
 -1      1539 9.61343E-05-2.88159E-05-2.88548E-05-4.65698E-07-8.13562E-19-2.08389E-18
 -1      1540 9.70717E-05-2.91021E-05-2.91325E-05-3.71915E-07 3.90275E-19-3.55062E-18
 -1      1541 9.67099E-05-2.89865E-05-2.90230E-05-3.46248E-07 3.29842E-19-2.80702E-18
 -1      1542 9.66855E-05-2.89717E-05-2.90259E-05-6.21797E-07 2.84592E-19-1.99813E-18
 -1      1543 9.79762E-05-2.93676E-05-2.94074E-05-4.98165E-07-3.77857E-19-3.71176E-18
 -1      1544 9.74892E-05-2.92113E-05-2.92603E-05-4.63345E-07-1.57276E-19-4.02647E-18
 -1      1545 9.74109E-05-2.91780E-05-2.92506E-05-8.31160E-07 1.71657E-19-2.64819E-18
 -1      1546 9.91721E-05-2.97198E-05-2.97704E-05-6.59926E-07-2.69469E-19-3.04009E-18
 -1      1547 9.85227E-05-2.95108E-05-2.95747E-05-6.13998E-07-5.72909E-19-3.68030E-18
 -1      1548 9.83619E-05-2.94501E-05-2.95442E-05-1.10263E-06-6.86221E-19-3.40699E-18
 -1      1549 1.00732E-04-3.01806E-05-3.02430E-05-8.60791E-07-2.63027E-19-2.11098E-18
 -1      1550 9.98784E-05-2.99054E-05-2.99866E-05-8.01888E-07-8.27280E-20-2.53162E-18
 -1      1551 9.95952E-05-2.98053E-05-2.99238E-05-1.44387E-06-7.65089E-19-2.31729E-18
 -1      1552 1.02730E-04-3.07735E-05-3.08471E-05-1.10071E-06 7.13427E-20-1.67715E-18
 -1      1553 1.01629E-04-3.04180E-05-3.05173E-05-1.02769E-06 4.99319E-20-1.48289E-18
 -1      1554 1.01170E-04-3.02626E-05-3.04067E-05-1.85811E-06-2.78389E-19-1.81315E-18
 -1      1555 1.05230E-04-3.15196E-05-3.16004E-05-1.37141E-06-5.43226E-20-2.44304E-18
 -1      1556 1.03843E-04-3.10714E-05-3.11870E-05-1.28518E-06-2.39949E-20-2.01504E-18
 -1      1557 1.03142E-04-3.08412E-05-3.10077E-05-2.33784E-06 3.20971E-19-1.54085E-18
 -1      1558 1.08259E-04-3.24314E-05-3.25084E-05-1.64841E-06-4.78838E-20-2.23720E-18
 -1      1559 1.06570E-04-3.18852E-05-3.20080E-05-1.55438E-06-5.20743E-20-2.16053E-18
 -1      1560 1.05546E-04-3.15577E-05-3.17342E-05-2.85367E-06-2.90511E-19-1.32358E-18
 -1      1561 1.11766E-04-3.35005E-05-3.35503E-05-1.87845E-06 2.74682E-20-2.77894E-18
 -1      1562 1.09805E-04-3.28666E-05-3.29750E-05-1.79070E-06-5.45013E-20-2.37951E-18
 -1      1563 1.08374E-04-3.24203E-05-3.25771E-05-3.33622E-06 1.19212E-19-1.70113E-18
 -1      1564 1.15546E-04-3.46769E-05-3.46565E-05-1.96304E-06-2.29940E-19-2.85659E-18
 -1      1565 1.13437E-04-3.39969E-05-3.40474E-05-1.91027E-06-3.34909E-20-2.56819E-18
 -1      1566 1.11534E-04-3.34188E-05-3.34975E-05-3.65043E-06-1.99376E-19-1.17560E-18
 -1      1567 1.19151E-04-3.58382E-05-3.56813E-05-1.74521E-06-4.42492E-19-1.96666E-18
 -1      1568 1.17170E-04-3.52058E-05-3.51258E-05-1.77652E-06-4.97946E-19-3.28642E-18
 -1      1569 1.14790E-04-3.45070E-05-3.44091E-05-3.56869E-06-4.71774E-19-1.39252E-18
 -1      1570 1.21795E-04-3.67536E-05-3.63829E-05-1.02002E-06-1.80147E-19-1.10903E-18
 -1      1571 1.20428E-04-3.63366E-05-3.60268E-05-1.20441E-06-2.27733E-19-2.00277E-18
 -1      1572 1.17700E-04-3.55745E-05-3.51636E-05-2.76616E-06-5.39189E-19-1.14267E-18
 -1      1573 1.22356E-04-3.70620E-05-3.64410E-05 3.90228E-07 3.20999E-19-1.66224E-18
 -1      1574 1.22295E-04-3.71052E-05-3.64776E-05-1.48548E-08 6.47054E-20-1.69522E-18
 -1      1575 1.19569E-04-3.64095E-05-3.55540E-05-8.90341E-07 1.74595E-19-2.32175E-18
 -1      1576 1.19624E-04-3.63169E-05-3.55596E-05 2.43634E-06-3.51261E-19-2.47413E-18
 -1      1577 1.21597E-04-3.70842E-05-3.61648E-05 1.81017E-06 9.34516E-20-1.86927E-18
 -1      1578 1.19505E-04-3.66614E-05-3.53629E-05 2.21047E-06 1.46060E-19-3.13152E-18
 -1      1579 1.13009E-04-3.42143E-05-3.36681E-05 4.54911E-06 3.40064E-19-3.63541E-18
 -1      1580 1.17314E-04-3.58093E-05-3.48737E-05 3.86540E-06 3.90965E-19-2.53162E-18
 -1      1581 1.16690E-04-3.58821E-05-3.44733E-05 6.04376E-06 5.51564E-19-2.77787E-18
 -1      1582 1.03549E-04-3.09980E-05-3.11374E-05 5.60138E-06 1.08947E-18-5.43456E-18
 -1      1583 1.09445E-04-3.31253E-05-3.26978E-05 5.20223E-06 3.03954E-19-4.32114E-18
 -1      1584 1.11035E-04-3.37950E-05-3.30033E-05 9.12050E-06 9.24785E-19-2.93457E-18
 -1      1585 9.43971E-05-2.77630E-05-2.87969E-05 4.45220E-06-6.16561E-19-5.24478E-18
 -1      1586 9.98618E-05-2.96254E-05-3.01884E-05 4.69153E-06-3.51823E-19-5.08262E-18
 -1      1587 1.03870E-04-3.07540E-05-3.13696E-05 9.34083E-06-8.40283E-20-3.43398E-18
 -1      1588 8.96526E-05-2.61004E-05-2.75809E-05 1.16617E-06-5.89654E-19-2.67177E-18
 -1      1589 9.22386E-05-2.67753E-05-2.82348E-05 2.02567E-06-2.25390E-19-2.99982E-18
 -1      1590 9.80293E-05-2.80603E-05-3.01547E-05 5.52354E-06-1.13505E-18-2.17068E-18
 -1      1591 9.15018E-05-2.68696E-05-2.79512E-05-2.54914E-06-8.73556E-19-2.10117E-19
 -1      1592 9.00472E-05-2.60333E-05-2.76166E-05-1.54056E-06-1.29027E-18-1.99869E-18
 -1      1593 9.63103E-05-2.72629E-05-2.97946E-05-8.42922E-07-1.46026E-18 5.51683E-19
 -1      1594 9.84739E-05-2.94599E-05-2.96076E-05-4.63668E-06-7.42236E-19 1.13312E-18
 -1      1595 9.40073E-05-2.76639E-05-2.85135E-05-4.03405E-06-3.56343E-19 3.18696E-19
 -1      1596 9.92857E-05-2.87788E-05-3.03460E-05-6.28801E-06-1.35724E-18 1.37256E-18
 -1      1597 1.06560E-04-3.22960E-05-3.16751E-05-4.30179E-06 1.05192E-18 6.08805E-19
 -1      1598 1.01528E-04-3.05308E-05-3.03832E-05-4.30731E-06 4.85919E-20 8.77738E-19
 -1      1599 1.04834E-04-3.15048E-05-3.14568E-05-8.06636E-06 7.88915E-20 1.12571E-18
 -1      1600 1.12169E-04-3.41158E-05-3.32403E-05-2.37568E-06-1.46437E-18 1.17335E-18
 -1      1601 1.08694E-04-3.30724E-05-3.22969E-05-2.78328E-06-1.90132E-19 9.80811E-19
 -1      1602 1.09833E-04-3.37567E-05-3.25678E-05-6.12658E-06-3.52445E-19 2.28987E-18
 -1      1603 1.13836E-04-3.45387E-05-3.38151E-05-1.45323E-07 9.16397E-19 1.14684E-18
 -1      1604 1.12752E-04-3.43692E-05-3.34820E-05-6.49751E-07-3.78518E-21 1.22616E-18
 -1      1605 1.12272E-04-3.46677E-05-3.31985E-05-2.37029E-06-3.22614E-19 2.66667E-18
 -1      1606 1.11965E-04-3.38166E-05-3.33996E-05 1.55448E-06 9.43409E-19-8.05872E-20
 -1      1607 1.12992E-04-3.43186E-05-3.36470E-05 1.15021E-06 6.51309E-19 1.56744E-19
 -1      1608 1.11770E-04-3.43017E-05-3.31458E-05 1.25823E-06 1.54081E-18 1.36481E-19
 -1      1609 1.07849E-04-3.24205E-05-3.23050E-05 2.45151E-06 7.53512E-19-1.11536E-18
 -1      1610 1.10189E-04-3.32844E-05-3.29331E-05 2.21704E-06 1.14489E-18 2.92385E-19
 -1      1611 1.09014E-04-3.31247E-05-3.24880E-05 3.71156E-06 1.51512E-18 1.34493E-19
 -1      1612 1.02945E-04-3.08085E-05-3.09502E-05 2.56938E-06 3.87359E-19-2.44255E-18
 -1      1613 1.05714E-04-3.17434E-05-3.17095E-05 2.51344E-06 2.98867E-19-1.69917E-18
 -1      1614 1.05064E-04-3.15988E-05-3.14757E-05 4.72807E-06 9.27902E-19-3.67824E-19
 -1      1615 9.85951E-05-2.93824E-05-2.97333E-05 1.98083E-06-1.49177E-19-2.73621E-18
 -1      1616 1.00967E-04-3.01254E-05-3.03922E-05 2.11282E-06 3.98208E-19-2.32452E-18
 -1      1617 1.00962E-04-3.00582E-05-3.04083E-05 4.38504E-06 1.09955E-18-1.79318E-18
 -1      1618 9.59167E-05-2.85063E-05-2.89099E-05 8.37606E-07 1.96038E-19-2.48815E-18
 -1      1619 9.71664E-05-2.88241E-05-2.93246E-05 1.12152E-06-8.33864E-20-3.47823E-18
 -1      1620 9.75593E-05-2.87547E-05-2.95295E-05 2.84307E-06 4.36262E-19-1.18651E-18
 -1      1621 9.52978E-05-2.83761E-05-2.86878E-05 1.02614E-07-8.52522E-19-1.10129E-18
 -1      1622 9.47677E-05-2.58668E-05-2.95680E-05 1.76635E-06-1.44946E-18-1.09450E-18
 -1      1623 9.52323E-05-2.72942E-05-2.91196E-05 1.43307E-06-7.91941E-19 6.13996E-19
 -1      1624 9.33710E-05-2.16555E-05-3.07544E-05 2.87783E-06-1.78827E-18 3.40941E-19
 -1      1625 9.42289E-05-2.42204E-05-3.00326E-05 2.68880E-06-1.07283E-18-1.03320E-18
 -1      1626 9.47828E-05-2.49660E-05-2.99752E-05 4.29386E-06-2.22733E-19-1.61044E-18
 -1      1627 9.16187E-05-1.63210E-05-3.22762E-05 3.49410E-06-1.48585E-18 6.90712E-20
 -1      1628 9.26828E-05-1.95215E-05-3.13741E-05 3.41207E-06-1.79110E-18 5.54492E-19
 -1      1629 9.33510E-05-2.11860E-05-3.09683E-05 6.04375E-06-1.85421E-19 8.40518E-19
 -1      1630 8.97578E-05-1.06693E-05-3.38913E-05 3.52918E-06 3.87306E-19 1.34256E-19
 -1      1631 9.08530E-05-1.39540E-05-3.29645E-05 3.56913E-06-9.84835E-19 4.76888E-19
 -1      1632 9.17224E-05-1.67014E-05-3.21607E-05 6.78439E-06 7.21586E-19 8.71024E-19
 -1      1633 8.81173E-05-5.73602E-06-3.52946E-05 2.94371E-06-3.60741E-18-1.36942E-18
 -1      1634 8.90388E-05-8.48330E-06-3.45213E-05 3.10788E-06-1.19490E-18-1.95608E-18
 -1      1635 9.00591E-05-1.21495E-05-3.33586E-05 6.37240E-06-8.06911E-19-2.42123E-18
 -1      1636 8.69622E-05-2.28968E-06-3.62698E-05 1.77080E-06-3.06194E-18 7.19091E-19
 -1      1637 8.75566E-05-4.05285E-06-3.57743E-05 2.04800E-06-4.10160E-18-1.40197E-19
 -1      1638 8.86253E-05-8.27282E-06-3.43671E-05 4.79209E-06-2.11905E-18-1.95958E-18
 -1      1639 8.65806E-05-1.12664E-06-3.66032E-05 2.39454E-07-1.27295E-18 6.59164E-20
 -1      1640 8.67025E-05-1.50391E-06-3.64950E-05 5.65555E-07-2.57272E-18 1.46220E-18
 -1      1641 8.77062E-05-5.80098E-06-3.50058E-05 2.24397E-06-1.29796E-18 1.50201E-18
 -1      1642 8.70426E-05-2.43524E-06-3.62462E-05-1.29353E-06 1.25205E-18 1.37970E-18
 -1      1643 8.66787E-05-1.38910E-06-3.65354E-05-9.99817E-07-4.69402E-19 1.23978E-18
 -1      1644 8.75334E-05-5.28622E-06-3.51494E-05-7.27843E-07-4.68121E-19 1.18016E-18
 -1      1645 8.82061E-05-5.83447E-06-3.52989E-05-2.47430E-06 3.55894E-18 2.58994E-19
 -1      1646 8.74622E-05-3.65263E-06-3.59085E-05-2.28043E-06 2.42226E-18 1.76486E-18
 -1      1647 8.81322E-05-6.79145E-06-3.47827E-05-3.43055E-06 1.51412E-18 2.00638E-18
 -1      1648 8.97757E-05-1.05227E-05-3.39734E-05-3.09149E-06 7.61218E-19-1.58860E-18
 -1      1649 8.88338E-05-7.70645E-06-3.47681E-05-3.02455E-06 3.04794E-18-1.28870E-18
 -1      1650 8.93209E-05-9.90779E-06-3.39938E-05-5.28453E-06 3.50989E-19-6.76753E-19
 -1      1651 9.13988E-05-1.54948E-05-3.25445E-05-3.13737E-06-2.03481E-18-4.28153E-19
 -1      1652 9.04574E-05-1.26217E-05-3.33637E-05-3.17809E-06 6.50177E-19-1.83389E-18
 -1      1653 9.07880E-05-1.38921E-05-3.29526E-05-6.03344E-06-1.00770E-19-3.46859E-18
 -1      1654 9.28801E-05-2.01582E-05-3.11827E-05-2.75070E-06-2.07640E-18-1.59628E-19
 -1      1655 9.20434E-05-1.75521E-05-3.19331E-05-2.86151E-06-1.88393E-18 1.15919E-18
 -1      1656 9.22380E-05-1.80259E-05-3.18303E-05-5.78711E-06-2.40346E-19 4.37165E-20
 -1      1657 9.40434E-05-2.39219E-05-3.00671E-05-2.12087E-06-7.16802E-19 1.21121E-18
 -1      1658 9.34018E-05-2.18892E-05-3.06565E-05-2.25683E-06-1.86048E-18 8.46487E-19
 -1      1659 9.34870E-05-2.17667E-05-3.07775E-05-4.84375E-06 3.82009E-19 2.69036E-19
 -1      1660 9.48388E-05-2.65199E-05-2.92774E-05-1.40577E-06-1.15714E-18 5.16128E-20
 -1      1661 9.44024E-05-2.52006E-05-2.96699E-05-1.52873E-06-6.11161E-19 2.63583E-19
 -1      1662 9.44438E-05-2.47397E-05-2.99144E-05-3.53466E-06-9.75825E-19 8.38956E-19
 -1      1663 9.53369E-05-2.78686E-05-2.88952E-05-9.31552E-07-1.26440E-18-7.11392E-19
 -1      1664 9.51562E-05-2.72494E-05-2.91096E-05-1.18247E-06-2.11242E-19-4.07147E-19
 -1      1665 9.52069E-05-2.66973E-05-2.93890E-05-2.49387E-06-6.07670E-19 4.66781E-19
 -1      1666 9.58752E-05-2.79596E-05-2.91249E-05-1.78784E-06 1.21411E-18-7.60655E-19
 -1      1667 2.23571E-05-7.38886E-05 1.55350E-05-7.91042E-06 1.76056E-18-3.14376E-18
 -1      1668 2.62457E-05-8.46637E-05 1.77866E-05 1.46468E-06 5.73505E-18-9.65829E-19
 -1      1669 2.12801E-05-4.07345E-05 3.89957E-06 3.21678E-06-5.99615E-18-4.92274E-18
 -1      1670 2.63203E-05-6.72817E-05 1.09346E-05-2.05595E-06-6.10711E-19-4.09785E-18
 -1      1671 3.73111E-05-1.17673E-05-1.28546E-05 2.98653E-05-5.15165E-18-1.54414E-18
 -1      1672 3.06480E-05-3.28024E-05-3.86012E-06 1.07581E-05-6.14438E-18-2.86212E-18
 -1      1673 7.98036E-05-2.28644E-06-3.21736E-05 6.25540E-05-1.53567E-18-9.19031E-19
 -1      1674 5.42738E-05-7.96502E-06-2.20562E-05 3.90301E-05-3.87941E-18-1.42302E-18
 -1      1675 1.45732E-04-1.67063E-05-5.13442E-05 8.11926E-05-6.89908E-19-3.50672E-19
 -1      1676 1.03317E-04-4.34274E-06-4.17077E-05 6.78527E-05-1.59666E-18-1.04270E-18
 -1      1677 2.17108E-04-4.56577E-05-6.72804E-05 6.86075E-05-3.89423E-19 4.38763E-19
 -1      1678 1.71172E-04-2.32291E-05-5.97085E-05 7.84690E-05-6.61109E-19-4.42151E-19
 -1      1679 2.57004E-04-6.45924E-05-7.56673E-05 2.36059E-05 1.06387E-18-5.39708E-18
 -1      1680 2.33501E-04-5.10104E-05-7.22987E-05 5.50192E-05 1.05307E-18-1.97020E-18
 -1      1681 2.46047E-04-5.82962E-05-7.44667E-05-2.99995E-05 2.66688E-18-8.67955E-18
 -1      1682 2.56556E-04-6.36778E-05-7.61231E-05 6.65843E-06 1.36076E-18-5.99480E-18
 -1      1683 2.00661E-04-3.73639E-05-6.55089E-05-6.81120E-05 5.27140E-18-1.11021E-17
 -1      1684 2.38786E-04-5.71057E-05-7.13909E-05-4.75840E-05 3.82213E-18-9.69006E-18
 -1      1685 1.32374E-04-1.46679E-05-4.89527E-05-6.74692E-05 5.94321E-18-1.05312E-17
 -1      1686 1.78179E-04-3.21554E-05-5.80210E-05-7.12578E-05 5.24059E-18-1.17704E-17
 -1      1687 7.40653E-05-1.20491E-05-2.81195E-05-4.40822E-05 5.99445E-18-8.22554E-18
 -1      1688 1.09562E-04-1.42204E-05-3.91644E-05-6.50705E-05 6.25873E-18-1.00780E-17
 -1      1689 3.31354E-05-2.41496E-05-8.23345E-06-1.51134E-05 5.09406E-18-5.10719E-18
 -1      1690 4.61238E-05-7.31505E-06-1.79743E-05-3.75987E-05 6.32480E-18-6.36715E-18
 -1      1691 2.46808E-05-5.49322E-05 6.99480E-06 2.04105E-06 1.55176E-18-2.25840E-18
 -1      1692 2.19741E-05-3.06229E-05-1.28234E-07-6.85500E-06 4.48080E-18-3.43895E-18
 -1      1693 2.47091E-05-7.64747E-05 1.56146E-05 1.74016E-06-4.46683E-18-2.28508E-18
 -1      1694 1.97426E-05-6.07659E-05 1.20115E-05 6.89441E-06-6.77626E-21-2.88383E-18
 -1      1695 2.25897E-05-7.53352E-05 1.63187E-05-4.73704E-06-4.68812E-18 2.02017E-19
 -1      1696 2.35563E-05-7.85063E-05 1.70497E-05 5.37406E-06-5.18649E-18-2.86509E-19
 -1      1697 1.85221E-05-5.01322E-05 8.54262E-06-3.28576E-06-1.79910E-18 1.14233E-18
 -1      1698 2.47259E-05-7.23329E-05 1.37415E-05-1.85049E-06-4.42109E-18 4.56763E-19
 -1      1699 2.99278E-05-1.98681E-05-6.80212E-06 2.08917E-05 3.04932E-20 4.36222E-19
 -1      1700 2.79010E-05-4.29827E-05 1.55074E-06 6.26904E-06-7.38613E-19 2.40134E-19
 -1      1701 6.02816E-05-1.33318E-06-2.52185E-05 5.12348E-05-7.51318E-19-6.94567E-19
 -1      1702 4.17430E-05-1.25834E-05-1.54100E-05 2.83592E-05-1.35525E-20-6.86097E-20
 -1      1703 1.17605E-04-8.60191E-06-4.40466E-05 7.53545E-05-9.23266E-19-4.96192E-18
 -1      1704 8.17025E-05-1.91051E-06-3.45342E-05 5.81859E-05-6.47133E-19-1.89905E-18
 -1      1705 1.86984E-04-3.33417E-05-6.07990E-05 7.53147E-05-2.16756E-18-6.43830E-18
 -1      1706 1.42382E-04-1.39882E-05-5.26242E-05 7.58894E-05-1.50941E-18-5.14488E-18
 -1      1707 2.42841E-04-5.89547E-05-7.23109E-05 4.28590E-05-1.83446E-18-9.03615E-18
 -1      1708 2.08699E-04-4.06454E-05-6.72236E-05 6.60797E-05-2.14945E-18-7.87063E-18
 -1      1709 2.57369E-04-6.48702E-05-7.58735E-05-1.07121E-05 3.53213E-19-8.98220E-18
 -1      1710 2.51491E-04-6.17039E-05-7.50267E-05 2.57228E-05-6.84403E-19-8.81126E-18
 -1      1711 2.29143E-04-4.96995E-05-7.11806E-05-5.76418E-05 1.88677E-19-7.38105E-18
 -1      1712 2.54204E-04-6.38821E-05-7.47219E-05-2.86039E-05 1.35949E-19-9.03022E-18
 -1      1713 1.68566E-04-2.24146E-05-5.90293E-05-7.81844E-05-5.50148E-19-3.60751E-18
 -1      1714 2.11177E-04-4.30798E-05-6.60691E-05-6.94138E-05-4.88314E-19-6.44253E-18
 -1      1715 1.03371E-04-5.11012E-06-4.14029E-05-6.64250E-05 1.27648E-18-9.43595E-19
 -1      1716 1.45037E-04-1.73107E-05-5.09166E-05-7.90770E-05 2.42251E-19-2.01933E-18
 -1      1717 5.38340E-05-9.52720E-06-2.11832E-05-3.78679E-05 1.91175E-18-1.19601E-18
 -1      1718 7.98722E-05-3.29133E-06-3.17318E-05-6.20152E-05 1.49586E-18-1.01559E-18
 -1      1719 3.01630E-05-3.38501E-05-2.91852E-06-1.09947E-05-8.55503E-20-1.72922E-18
 -1      1720 3.51850E-05-1.19340E-05-1.18016E-05-2.87088E-05 1.41624E-18-1.79656E-18
 -1      1721 2.72791E-05-6.36044E-05 9.99242E-06-2.96896E-06 1.89058E-18 4.98188E-19
 -1      1722 2.37396E-05-4.12041E-05 3.69250E-06-7.65883E-06 4.37069E-19-1.29215E-18
 -1      1723 2.55952E-05-8.28321E-05 1.74703E-05-2.09895E-06 6.14935E-18 1.30951E-18
 -1      1724 2.14049E-05-7.07224E-05 1.50140E-05 6.64997E-06 2.58218E-18 1.55134E-18
 -1      1725 1.19522E-04-3.19882E-05-3.63580E-05 4.77952E-05-1.84526E-18-3.67612E-19
 -1      1726 7.68116E-05-3.64196E-05-1.85086E-05 4.08775E-05-3.45674E-18 1.33154E-18
 -1      1727 9.55401E-05-2.81182E-05-2.89380E-05 8.26174E-07-1.42157E-18 8.60930E-20
 -1      1728 9.58380E-05-2.73958E-05-2.93646E-05 2.44609E-06-2.28351E-20 1.28889E-18
 -1      1729 2.08678E-05-5.36341E-05 9.41727E-06 1.45772E-05-5.59042E-20-6.42517E-18
 -1      1730 4.32834E-05-4.53298E-05-2.30598E-06 2.88994E-05-3.18654E-18-2.25676E-18
 -1      1731 1.32107E-05-5.66161E-05 1.35079E-05-1.03368E-06 1.64330E-18 9.61382E-20
 -1      1732 1.64690E-04-3.20760E-05-5.34202E-05 4.55625E-05-1.31375E-18-5.06526E-19
 -1      1733 2.00997E-04-3.45165E-05-6.62092E-05 3.09497E-05 1.10792E-18-3.44573E-18
 -1      1734 2.11990E-04-3.27419E-05-7.13547E-05 7.89900E-06 2.40007E-18-6.54142E-18
 -1      1735 2.07139E-04-3.40666E-05-6.89307E-05-1.55167E-05 4.07253E-18-6.76568E-18
 -1      1736 1.81176E-04-3.52594E-05-5.87597E-05-3.23720E-05 4.26572E-18-7.95957E-18
 -1      1737 1.40944E-04-3.84404E-05-4.23832E-05-3.72956E-05 4.66461E-18-9.01074E-18
 -1      1738 9.39869E-05-3.86977E-05-2.39063E-05-4.03071E-05 4.42066E-18-7.07865E-18
 -1      1739 4.96578E-05-4.11195E-05-6.34182E-06-2.96328E-05 3.04424E-18-4.78828E-18
 -1      1740 2.49781E-05-4.90471E-05 6.23088E-06-1.66187E-05 3.71847E-19-4.14199E-18
 -1      1741 1.30539E-05-5.25975E-05 1.23339E-05-3.95593E-06-1.73006E-18-2.29461E-18
 -1      1742 1.52270E-05-5.23717E-05 1.12797E-05 9.45275E-06-2.32574E-18 9.30889E-19
 -1      1743 3.32447E-05-4.54124E-05 2.07629E-06 2.55995E-05-1.90498E-18 1.61868E-18
 -1      1744 6.28386E-05-3.79574E-05-1.25899E-05 3.68853E-05-1.76183E-19-1.93124E-19
 -1      1745 1.00428E-04-3.03803E-05-2.97551E-05 4.55044E-05 1.06726E-19-1.86517E-18
 -1      1746 1.44880E-04-2.99892E-05-4.68108E-05 4.66814E-05 9.40207E-20-5.22281E-18
 -1      1747 1.85367E-04-3.27387E-05-6.11185E-05 3.64150E-05-6.28075E-19-5.39899E-18
 -1      1748 2.10868E-04-3.54080E-05-6.98673E-05 1.57041E-05-5.14996E-19-6.15285E-18
 -1      1749 2.14877E-04-3.52942E-05-7.13374E-05-1.02365E-05 1.39760E-19-6.47408E-18
 -1      1750 1.97741E-04-3.34974E-05-6.53433E-05-3.25114E-05-1.23752E-18-6.32141E-18
 -1      1751 1.62076E-04-3.15561E-05-5.27060E-05-4.44417E-05-2.76556E-19-3.56008E-18
 -1      1752 1.19400E-04-3.30601E-05-3.58521E-05-4.65087E-05 2.53940E-18-1.39506E-18
 -1      1753 7.57279E-05-3.68788E-05-1.77911E-05-4.11379E-05 1.48400E-18-2.13071E-18
 -1      1754 4.37078E-05-4.51213E-05-2.42571E-06-3.12146E-05 1.48400E-18-2.15570E-18
 -1      1755 2.19328E-05-4.99258E-05 8.31413E-06-1.91849E-05 3.46352E-18 1.71524E-18
 -1      1756 1.06053E-04-2.31705E-05-3.56045E-05-1.68547E-05-1.63906E-18 8.13025E-18
 -1      1757 8.91409E-05-1.05808E-05-3.37944E-05-1.33251E-05-2.52809E-18-1.89479E-18
 -1      1758 9.04847E-05-1.16348E-05-3.39352E-05-1.51388E-05-2.79766E-18-1.04926E-18
 -1      1759 9.24899E-05-1.38742E-05-3.38541E-05-1.60049E-05-2.67221E-18 1.07732E-20
 -1      1760 9.42064E-05-1.58203E-05-3.40982E-05-1.76663E-05-2.72228E-18 1.46373E-18
 -1      1761 9.34139E-05-1.63446E-05-3.30454E-05-1.37829E-05-2.88140E-18-4.18593E-19
 -1      1762 8.62080E-05-7.67086E-06-3.37303E-05-7.86898E-06-1.73307E-18-3.36599E-18
 -1      1763 8.66105E-05-7.97132E-06-3.37644E-05-9.25738E-06-1.99951E-18-3.14400E-18
 -1      1764 8.55959E-05-7.03807E-06-3.37271E-05-5.32404E-06-1.24390E-18-3.66344E-18
 -1      1765 8.58292E-05-7.21547E-06-3.37423E-05-6.62886E-06-1.47858E-18-3.54624E-18
 -1      1766 8.75943E-05-9.86968E-06-3.33432E-05-6.93706E-06-1.73832E-18-3.28285E-18
 -1      1767 8.52621E-05-6.67992E-06-3.37305E-05-2.89063E-06-7.65840E-19-3.80659E-18
 -1      1768 8.53825E-05-6.77427E-06-3.37364E-05-4.13093E-06-9.92585E-19-3.70810E-18
 -1      1769 8.69612E-05-9.15861E-06-3.33765E-05-4.54084E-06-1.15646E-18-3.53432E-18
 -1      1770 8.51317E-05-6.53189E-06-3.37340E-05-5.17886E-07-2.83034E-19-3.93277E-18
 -1      1771 8.51672E-05-6.56036E-06-3.37354E-05-1.72814E-06-5.00021E-19-3.88133E-18
 -1      1772 8.66297E-05-8.77954E-06-3.33968E-05-2.21876E-06-6.53335E-19-3.70095E-18
 -1      1773 8.51770E-05-6.56929E-06-3.37356E-05 1.84605E-06 1.04305E-19-4.06352E-18
 -1      1774 8.51353E-05-6.53640E-06-3.37339E-05 6.34823E-07-8.23986E-20-3.99078E-18
 -1      1775 8.65318E-05-8.66600E-06-3.34034E-05 6.53978E-08-2.01557E-19-3.90217E-18
 -1      1776 8.54076E-05-6.79926E-06-3.37365E-05 4.25314E-06 5.53528E-19-4.14362E-18
 -1      1777 8.52799E-05-6.69869E-06-3.37304E-05 3.00978E-06 3.77835E-19-4.11506E-18
 -1      1778 8.66472E-05-8.79890E-06-3.33961E-05 2.35065E-06 2.76427E-19-3.97431E-18
 -1      1779 8.58637E-05-7.25206E-06-3.37417E-05 6.71538E-06 9.97284E-19-4.06387E-18
 -1      1780 8.56261E-05-7.07002E-06-3.37269E-05 5.42771E-06 7.76180E-19-4.13997E-18
 -1      1781 8.69948E-05-9.19552E-06-3.33751E-05 4.65514E-06 7.55140E-19-4.02635E-18
 -1      1782 8.66760E-05-8.04121E-06-3.37622E-05 9.37763E-06 1.56713E-18-3.71971E-18
 -1      1783 8.62556E-05-7.72487E-06-3.37286E-05 7.95658E-06 1.26001E-18-3.88848E-18
 -1      1784 8.76459E-05-9.92749E-06-3.33406E-05 7.03129E-06 1.23252E-18-3.79628E-18
 -1      1785 8.80876E-05-9.38841E-06-3.38174E-05 1.22567E-05 2.13414E-18-3.17119E-18
 -1      1786 8.73479E-05-8.83071E-06-3.37454E-05 1.06637E-05 1.82009E-18-3.51815E-18
 -1      1787 8.87660E-05-1.11616E-05-3.32898E-05 9.50594E-06 1.83098E-18-3.46090E-18
 -1      1788 9.06312E-05-1.18402E-05-3.39274E-05 1.53050E-05 2.64552E-18-1.97287E-18
 -1      1789 8.92509E-05-1.07410E-05-3.37876E-05 1.35154E-05 2.29920E-18-2.67091E-18
 -1      1790 9.06626E-05-1.32236E-05-3.32068E-05 1.19780E-05 2.38900E-18-2.73237E-18
 -1      1791 9.58760E-05-1.70345E-05-3.39931E-05 1.76925E-05 2.76570E-18 5.32572E-19
 -1      1792 9.28563E-05-1.43432E-05-3.38268E-05 1.61958E-05 2.63428E-18-9.88117E-19
 -1      1793 9.39697E-05-1.68873E-05-3.30240E-05 1.38967E-05 2.80243E-18-1.32145E-18
 -1      1794 1.01925E-04-2.50946E-05-3.33594E-05 1.44240E-05 2.47376E-18 3.70069E-18
 -1      1795 9.80766E-05-1.96166E-05-3.36253E-05 1.69660E-05 2.62909E-18 1.63710E-18
 -1      1796 9.73292E-05-2.18543E-05-3.24276E-05 1.32504E-05 2.90355E-18 5.60392E-19
 -1      1797 9.87523E-05-2.61354E-05-3.13424E-05 9.43641E-06 2.49464E-18 2.94991E-18
 -1      1798 1.00155E-04-1.95627E-05-3.42184E-05-1.88711E-05-2.28270E-18 3.88703E-18
 -1      1799 9.53103E-05-2.72855E-05-2.91851E-05 4.06844E-06 1.95453E-18 1.92479E-18
 -1      1800 9.77413E-05-2.73908E-05-3.01943E-05 6.40242E-06 2.10236E-18 2.54614E-18
 -1      1801 9.75761E-05-2.56148E-05-3.08326E-05 8.76172E-06 2.46865E-18 1.22904E-18
 -1      1802 9.98140E-05-2.25397E-05-3.28365E-05-1.44694E-05-2.53215E-18 2.80071E-18
 -1      1803 9.69609E-05-2.69802E-05-2.98767E-05-5.70677E-06-2.09222E-18 2.36583E-18
 -1      1804 9.51511E-05-2.70349E-05-2.91659E-05-3.90064E-06-1.81773E-18 1.81197E-18
 -1      1805 9.43307E-05-2.72350E-05-2.86583E-05-2.42517E-06-1.74004E-18 1.67326E-18
 -1      1806 9.35579E-05-2.73150E-05-2.83530E-05-1.57187E-06-1.53979E-18 1.18666E-18
 -1      1807 9.55050E-05-2.65446E-05-2.95747E-05-4.47837E-06-2.12533E-18 4.95263E-19
 -1      1808 9.30326E-05-2.73658E-05-2.80839E-05-7.45198E-07-1.37370E-18 1.01066E-18
 -1      1809 9.27303E-05-2.74292E-05-2.79615E-05-3.07406E-07-1.18631E-18 5.61226E-19
 -1      1810 9.42931E-05-2.72199E-05-2.87658E-05-1.83379E-06-1.81267E-18 2.87918E-19
 -1      1811 9.24535E-05-2.74565E-05-2.78251E-05 1.46955E-07-9.12546E-19 5.43309E-19
 -1      1812 9.24206E-05-2.75322E-05-2.77948E-05 3.70236E-07-6.83476E-19 2.98364E-19
 -1      1813 9.35908E-05-2.75269E-05-2.83294E-05-3.68972E-07-1.28318E-18-7.81289E-20
 -1      1814 9.23159E-05-2.75632E-05-2.77362E-05 6.08957E-07-5.70783E-19 2.42489E-19
 -1      1815 9.24287E-05-2.76476E-05-2.77547E-05 7.12006E-07-4.67760E-19-2.11870E-20
 -1      1816 9.32672E-05-2.77110E-05-2.81077E-05 4.31323E-07-7.69410E-19-4.51971E-19
 -1      1817 9.24324E-05-2.76851E-05-2.77423E-05 8.22000E-07-4.94479E-19-6.60305E-20
 -1      1818 9.26175E-05-2.77710E-05-2.77863E-05 8.54803E-07-4.75803E-19-1.42651E-19
 -1      1819 9.32007E-05-2.78531E-05-2.80144E-05 8.40365E-07-6.71126E-19-5.26580E-19
 -1      1820 9.26845E-05-2.78118E-05-2.78006E-05 8.87331E-07-4.75063E-19-3.06838E-19
 -1      1821 9.28978E-05-2.78935E-05-2.78561E-05 8.79167E-07-4.61137E-19-2.22437E-19
 -1      1822 9.32921E-05-2.79753E-05-2.79980E-05 1.01375E-06-5.42190E-19-5.88607E-19
 -1      1823 9.29974E-05-2.79343E-05-2.78848E-05 8.66170E-07-6.32964E-19 3.23486E-20
 -1      1824 9.32129E-05-2.80083E-05-2.79432E-05 8.35400E-07-3.86658E-19-5.99003E-20
 -1      1825 9.34710E-05-2.80829E-05-2.80263E-05 1.04568E-06-5.72894E-19-6.48382E-19
 -1      1826 9.33255E-05-2.80466E-05-2.79786E-05 7.97601E-07-5.82227E-19-1.99996E-19
 -1      1827 9.35283E-05-2.81113E-05-2.80351E-05 7.56198E-07-3.93244E-19-7.05874E-19
 -1      1828 9.36901E-05-2.81764E-05-2.80787E-05 9.96065E-07-7.12315E-19-6.39365E-19
 -1      1829 9.36420E-05-2.81457E-05-2.80724E-05 7.07381E-07-4.02434E-20-9.55372E-19
 -1      1830 9.38251E-05-2.82007E-05-2.81245E-05 6.63318E-07-1.41561E-19-1.11332E-18
 -1      1831 9.39199E-05-2.82558E-05-2.81422E-05 9.04296E-07-5.15609E-19-9.24235E-19
 -1      1832 9.39335E-05-2.82307E-05-2.81610E-05 6.12801E-07-2.83337E-19-1.12207E-18
 -1      1833 9.40948E-05-2.82766E-05-2.82077E-05 5.71465E-07-2.62708E-19-1.15085E-18
 -1      1834 9.41430E-05-2.83217E-05-2.82090E-05 7.96816E-07-2.74766E-19-1.16859E-18
 -1      1835 9.41952E-05-2.83022E-05-2.82423E-05 5.25653E-07-1.64824E-19-1.22395E-18
 -1      1836 9.43363E-05-2.83402E-05-2.82838E-05 4.90778E-07-2.25077E-19-1.15429E-18
 -1      1837 9.43512E-05-2.83753E-05-2.82751E-05 6.91666E-07-2.34322E-19-1.44605E-18
 -1      1838 9.44289E-05-2.83622E-05-2.83164E-05 4.54221E-07-5.61149E-19-9.87136E-19
 -1      1839 9.45537E-05-2.83939E-05-2.83537E-05 4.28530E-07-3.73908E-19-6.29289E-19
 -1      1840 9.45426E-05-2.84183E-05-2.83387E-05 6.01441E-07-4.22693E-19-9.73977E-19
 -1      1841 9.46409E-05-2.84131E-05-2.83850E-05 4.04680E-07-3.64777E-19-1.05610E-18
 -1      1842 9.47553E-05-2.84404E-05-2.84197E-05 3.90364E-07-2.41252E-19-1.01560E-18
 -1      1843 9.47199E-05-2.84528E-05-2.84001E-05 5.35344E-07-5.82868E-19-7.11339E-19
 -1      1844 9.48409E-05-2.84580E-05-2.84509E-05 3.82124E-07-4.08115E-19-9.85346E-19
 -1      1845 9.49524E-05-2.84834E-05-2.84851E-05 3.81183E-07-3.38688E-19-1.26686E-18
 -1      1846 9.48894E-05-2.84814E-05-2.84608E-05 5.00669E-07-5.30360E-19-1.20942E-18
 -1      1847 9.50414E-05-2.85009E-05-2.85178E-05 3.91292E-07-2.77107E-19-1.71345E-18
 -1      1848 9.51588E-05-2.85268E-05-2.85541E-05 4.05773E-07-3.05807E-19-2.17681E-18
 -1      1849 9.50601E-05-2.85069E-05-2.85235E-05 5.03855E-07-5.60045E-19-1.17403E-18
 -1      1850 9.52577E-05-2.85460E-05-2.85906E-05 4.37056E-07-9.74605E-20-1.89491E-18
 -1      1851 9.53913E-05-2.85754E-05-2.86319E-05 4.69182E-07-7.94648E-20-1.54276E-18
 -1      1852 9.52435E-05-2.85323E-05-2.85917E-05 5.51210E-07-1.72568E-19-1.39560E-18
 -1      1853 9.55073E-05-2.85983E-05-2.86745E-05 5.24644E-07-2.57733E-19-1.74765E-18
 -1      1854 9.56689E-05-2.86347E-05-2.87243E-05 5.76824E-07-6.27780E-20-1.70604E-18
 -1      1855 9.54532E-05-2.85615E-05-2.86697E-05 6.49292E-07-1.78459E-19-1.40395E-18
 -1      1856 9.58105E-05-2.86637E-05-2.87758E-05 6.59570E-07 1.50572E-20-1.99107E-18
 -1      1857 9.60132E-05-2.87112E-05-2.88377E-05 7.34252E-07 3.38534E-19-1.86732E-18
 -1      1858 9.57051E-05-2.85989E-05-2.87622E-05 8.04938E-07-1.77446E-19-1.79518E-18
 -1      1859 9.61898E-05-2.87492E-05-2.89010E-05 8.47173E-07 4.37724E-19-1.79790E-18
 -1      1860 9.64480E-05-2.88124E-05-2.89792E-05 9.46476E-07 1.44180E-19-1.58588E-18
 -1      1861 9.60169E-05-2.86502E-05-2.88747E-05 1.02482E-06 3.56415E-19-1.79260E-18
 -1      1862 9.66697E-05-2.88629E-05-2.90574E-05 1.09161E-06 3.26125E-19-1.06218E-18
 -1      1863 9.69987E-05-2.89473E-05-2.91560E-05 1.21664E-06 6.85327E-19-7.60413E-19
 -1      1864 9.64085E-05-2.87222E-05-2.90124E-05 1.31439E-06 4.36385E-19-1.32802E-18
 -1      1865 9.72760E-05-2.90147E-05-2.92517E-05 1.39406E-06 1.63701E-19-5.58720E-19
 -1      1866 9.76907E-05-2.91264E-05-2.93746E-05 1.54375E-06 1.87605E-19-1.86752E-19
 -1      1867 9.69009E-05-2.88240E-05-2.91805E-05 1.67594E-06 6.37518E-19-5.71660E-19
 -1      1868 9.80340E-05-2.92160E-05-2.94900E-05 1.74983E-06 2.10645E-19-4.36649E-19
 -1      1869 9.85471E-05-2.93618E-05-2.96402E-05 1.91921E-06 4.98653E-19-7.58871E-19
 -1      1870 9.75158E-05-2.89675E-05-2.93833E-05 2.10550E-06 1.63474E-19-5.12753E-19
 -1      1871 9.89656E-05-2.94800E-05-2.97760E-05 2.14400E-06 2.54140E-19-1.16670E-18
 -1      1872 9.95845E-05-2.96669E-05-2.99546E-05 2.32152E-06-1.00505E-19-1.40327E-18
 -1      1873 9.82740E-05-2.91682E-05-2.96228E-05 2.58802E-06 1.13139E-19-1.21122E-18
 -1      1874 1.00085E-04-2.98216E-05-3.01095E-05 2.54515E-06 8.02316E-20-1.58584E-18
 -1      1875 1.00807E-04-3.00559E-05-3.03143E-05 2.70921E-06 6.58882E-20-1.58436E-18
 -1      1876 9.91931E-05-2.94462E-05-2.98979E-05 3.09063E-06-4.48154E-20-1.60389E-18
 -1      1877 1.01391E-04-3.02562E-05-3.04838E-05 2.89725E-06-1.83324E-19-1.26690E-18
 -1      1878 1.02198E-04-3.05417E-05-3.07072E-05 3.01204E-06 1.89438E-19-9.68102E-19
 -1      1879 1.00284E-04-2.98268E-05-3.02024E-05 3.55368E-06 2.20321E-19-9.17794E-19
 -1      1880 1.02860E-04-3.07974E-05-3.08826E-05 3.11058E-06 5.46321E-19-6.17728E-19
 -1      1881 1.03707E-04-3.11322E-05-3.11097E-05 3.12232E-06 8.42995E-19 2.59960E-19
 -1      1882 1.01547E-04-3.03396E-05-3.05233E-05 3.88039E-06 6.32357E-19-8.66209E-19
 -1      1883 1.04430E-04-3.14501E-05-3.12773E-05 3.05464E-06 3.54926E-19 1.43221E-19
 -1      1884 1.05237E-04-3.18204E-05-3.14835E-05 2.89119E-06 6.92855E-20 1.15501E-19
 -1      1885 1.02962E-04-3.10132E-05-3.08397E-05 3.92787E-06 4.66408E-19-2.64607E-20
 -1      1886 1.05984E-04-3.21980E-05-3.16251E-05 2.56060E-06-3.97699E-19-2.26523E-19
 -1      1887 1.06631E-04-3.25680E-05-3.17764E-05 2.13995E-06-3.29004E-19 1.07019E-19
 -1      1888 1.04478E-04-3.18610E-05-3.11232E-05 3.50622E-06-4.46570E-20-7.40120E-20
 -1      1889 1.07334E-04-3.29789E-05-3.18716E-05 1.44699E-06-1.75912E-19 1.67885E-20
 -1      1890 1.07656E-04-3.32777E-05-3.19275E-05 7.03035E-07-5.00047E-20 2.85180E-19
 -1      1891 1.05989E-04-3.28507E-05-3.13417E-05 2.39911E-06-8.68804E-20 1.43781E-19
 -1      1892 1.08200E-04-3.36506E-05-3.19591E-05-4.11334E-07-3.37754E-19 8.10802E-20
 -1      1893 1.08012E-04-3.37613E-05-3.18821E-05-1.47796E-06-3.26776E-19 1.62191E-19
 -1      1894 1.07306E-04-3.38550E-05-3.14676E-05 4.26732E-07-6.33356E-20 5.56145E-19
 -1      1895 1.08227E-04-3.39610E-05-3.18434E-05-2.95497E-06-2.60608E-19 5.38557E-19
 -1      1896 1.07371E-04-3.37306E-05-3.16145E-05-4.20571E-06 3.42565E-19 9.56866E-19
 -1      1897 1.08127E-04-3.45944E-05-3.14905E-05-2.42613E-06-2.08913E-20 7.92475E-19
 -1      1898 1.07057E-04-3.35715E-05-3.15163E-05-5.77338E-06 6.73193E-20 7.70257E-19
 -1      1899 1.05499E-04-3.28710E-05-3.11530E-05-6.87707E-06 1.02858E-19 4.08832E-19
 -1      1900 1.08050E-04-3.46322E-05-3.14277E-05-5.81961E-06 1.83432E-19 1.45389E-18
 -1      1901 1.04532E-04-3.22090E-05-3.10239E-05-8.01052E-06 6.41032E-20 2.41272E-19
 -1      1902 1.02469E-04-3.10551E-05-3.05890E-05-8.48753E-06 1.67801E-19 9.62044E-19
 -1      1903 1.06709E-04-3.35202E-05-3.13244E-05-8.89139E-06 8.58911E-20 1.42905E-18
 -1      1904 1.00978E-04-2.99560E-05-3.04625E-05-8.54878E-06-2.73525E-19 6.67124E-19
 -1      1905 9.88879E-05-2.86352E-05-3.00525E-05-7.98352E-06-9.33622E-20 3.90343E-19
 -1      1906 1.04088E-04-3.11582E-05-3.12312E-05-1.03345E-05-4.06315E-20 1.06128E-18
 -1      1907 9.73838E-05-2.75073E-05-2.99479E-05-6.61026E-06 1.22529E-19-1.43466E-20
 -1      1908 9.58988E-05-2.65373E-05-2.96605E-05-4.98837E-06-4.58132E-19 7.56516E-19
 -1      1909 1.00868E-04-2.81969E-05-3.11639E-05-8.95683E-06-1.45799E-19 1.14419E-18
 -1      1910 9.50767E-05-2.59667E-05-2.95790E-05-2.51042E-06-7.22784E-19-3.41593E-19
 -1      1911 9.46848E-05-2.58061E-05-2.94772E-05-3.87328E-07-7.01079E-19-2.33546E-19
 -1      1912 9.83646E-05-2.59606E-05-3.10883E-05-4.64929E-06-1.23070E-18 3.21686E-19
 -1      1913 9.49295E-05-2.61250E-05-2.94169E-05 2.18199E-06-5.78279E-19-3.44658E-19
 -1      1914 9.56717E-05-2.68167E-05-2.95057E-05 3.92768E-06-7.40433E-19-3.67692E-19
 -1      1915 9.77722E-05-2.56641E-05-3.09623E-05 1.06486E-06-3.80271E-19-9.61833E-19
 -1      1916 9.67032E-05-2.77827E-05-2.94696E-05 5.50685E-06-8.69463E-19-1.33725E-19
 -1      1917 9.81426E-05-2.89146E-05-2.96932E-05 6.23246E-06-2.82275E-19-3.68645E-19
 -1      1918 9.92080E-05-2.74283E-05-3.07840E-05 5.72545E-06-8.53432E-19-2.73345E-19
 -1      1919 9.92731E-05-2.99426E-05-2.96821E-05 6.35736E-06-3.42526E-19-8.65085E-19
 -1      1920 1.00771E-04-3.09712E-05-2.99455E-05 5.99104E-06 3.79600E-19-8.82456E-19
 -1      1921 1.01598E-04-3.01529E-05-3.05951E-05 7.55595E-06-4.63301E-19 6.45485E-19
 -1      1922 1.01429E-04-3.15948E-05-2.99445E-05 4.94634E-06 1.97152E-18-9.72910E-19
 -1      1923 1.02466E-04-3.21759E-05-3.01499E-05 3.87696E-06 2.80578E-18-5.87803E-19
 -1      1924 1.03566E-04-3.24476E-05-3.04373E-05 6.42068E-06 5.79385E-19-8.27684E-19
 -1      1925 1.02455E-04-3.22607E-05-3.01303E-05 2.32206E-06 2.33421E-18-6.10261E-20
 -1      1926 1.02806E-04-3.23339E-05-3.02148E-05 1.07818E-06 2.54015E-18 8.21952E-19
 -1      1927 1.04282E-04-3.34773E-05-3.03065E-05 3.45224E-06 2.91043E-18-5.92960E-19
 -1      1928 1.02236E-04-3.19984E-05-3.01570E-05-3.72675E-07 2.15720E-18 4.32247E-19
 -1      1929 1.01941E-04-3.16831E-05-3.01102E-05-1.37809E-06 1.80863E-18 1.04410E-18
 -1      1930 1.03677E-04-3.32202E-05-3.01716E-05 9.43114E-08 2.33355E-18-2.78266E-19
 -1      1931 1.01032E-04-3.11151E-05-3.00113E-05-2.34468E-06-3.88583E-19-1.38654E-19
 -1      1932 1.00302E-04-3.05835E-05-2.98671E-05-2.88370E-06-9.66961E-19-9.74187E-19
 -1      1933 1.02116E-04-3.20812E-05-3.00057E-05-2.57103E-06 2.53700E-19-1.40842E-18
 -1      1934 9.92658E-05-2.99398E-05-2.97426E-05-3.21917E-06-8.73337E-20-1.14843E-18
 -1      1935 9.83660E-05-2.93457E-05-2.95596E-05-3.22308E-06-1.08946E-19-7.82645E-19
 -1      1936 1.00075E-04-3.05334E-05-2.98049E-05-3.98253E-06-9.70752E-19-1.94348E-18
 -1      1937 9.74640E-05-2.88195E-05-2.94359E-05-2.92478E-06 1.40386E-19-2.21926E-19
 -1      1938 9.66658E-05-2.83290E-05-2.92583E-05-2.47946E-06 1.01388E-18-1.54742E-19
 -1      1939 9.63903E-05-2.78928E-05-2.93570E-05-2.99133E-06 3.10953E-19 2.92309E-19
 -1      1940 9.80380E-05-2.89686E-05-2.95952E-05-4.00876E-06 3.20082E-19-7.74284E-19
 -1      1941 9.32096E-05-2.73622E-05-2.81925E-05 1.60719E-06 1.51506E-18 1.02393E-18
 -1      1942 9.44049E-05-2.74677E-05-2.86292E-05 2.67802E-06 1.69176E-18 1.69158E-18
 -1      1943 9.52288E-05-2.70469E-05-2.92262E-05 4.05613E-06 2.03301E-18 7.21480E-19
 -1      1944 9.21560E-05-2.73483E-05-2.77502E-05 3.51112E-07 1.27884E-18 1.97240E-19
 -1      1945 9.26513E-05-2.73808E-05-2.79228E-05 8.98860E-07 1.25909E-18 7.05724E-19
 -1      1946 9.36232E-05-2.73678E-05-2.84021E-05 1.58805E-06 1.64171E-18 1.90338E-19
 -1      1947 9.17785E-05-2.73854E-05-2.75814E-05-3.01223E-07 6.36314E-19-1.95479E-19
 -1      1948 9.18947E-05-2.73590E-05-2.76287E-05-9.23300E-09 8.77774E-19 4.10116E-20
 -1      1949 9.27905E-05-2.74826E-05-2.79991E-05 2.76334E-07 1.17434E-18-3.34442E-19
 -1      1950 9.17994E-05-2.74751E-05-2.75574E-05-6.25705E-07 2.87425E-19-4.86812E-19
 -1      1951 9.17131E-05-2.74136E-05-2.75415E-05-4.73524E-07 3.50579E-19-2.25939E-19
 -1      1952 9.24745E-05-2.75750E-05-2.78241E-05-4.15814E-07 5.59682E-19-7.44185E-19
 -1      1953 9.20401E-05-2.75960E-05-2.76119E-05-7.62128E-07 8.18336E-19-9.35172E-19
 -1      1954 9.18513E-05-2.75179E-05-2.75639E-05-6.91577E-07 4.96711E-19-5.31248E-19
 -1      1955 9.24752E-05-2.76794E-05-2.77778E-05-7.59232E-07 5.51809E-19-8.24156E-19
 -1      1956 9.23889E-05-2.77289E-05-2.77063E-05-7.88190E-07 6.85663E-19-1.12973E-18
 -1      1957 9.21561E-05-2.76463E-05-2.76437E-05-7.66595E-07 8.70476E-19-9.19843E-19
 -1      1958 9.26567E-05-2.77937E-05-2.78044E-05-8.98630E-07 9.12654E-19-1.08069E-18
 -1      1959 9.27766E-05-2.78605E-05-2.78174E-05-7.50847E-07 2.76532E-19-1.46578E-18
 -1      1960 9.25343E-05-2.77808E-05-2.77505E-05-7.58213E-07 4.25087E-19-1.23449E-18
 -1      1961 9.29301E-05-2.79093E-05-2.78702E-05-9.17680E-07 6.76115E-19-1.18431E-18
 -1      1962 9.31615E-05-2.79829E-05-2.79309E-05-6.80023E-07 5.99213E-20-1.51467E-18
 -1      1963 9.29298E-05-2.79101E-05-2.78659E-05-7.03423E-07 2.04918E-19-1.51398E-18
 -1      1964 9.32390E-05-2.80190E-05-2.79542E-05-8.68101E-07 3.14192E-19-1.28211E-18
 -1      1965 9.35207E-05-2.80920E-05-2.80388E-05-5.95373E-07 5.31585E-19-1.38451E-18
 -1      1966 9.33099E-05-2.80280E-05-2.79790E-05-6.26182E-07 2.35660E-19-1.48691E-18
 -1      1967 9.35493E-05-2.81185E-05-2.80436E-05-7.83291E-07 2.32687E-19-1.28399E-18
 -1      1968 9.38437E-05-2.81865E-05-2.81372E-05-5.10035E-07 1.77351E-19-1.59703E-18
 -1      1969 9.36578E-05-2.81316E-05-2.80839E-05-5.42382E-07 4.58939E-19-1.12837E-18
 -1      1970 9.38419E-05-2.82055E-05-2.81311E-05-6.85396E-07 3.58161E-19-1.19066E-18
 -1      1971 9.41285E-05-2.82669E-05-2.82252E-05-4.32948E-07 5.55908E-19-2.13858E-18
 -1      1972 9.39672E-05-2.82206E-05-2.81784E-05-4.62748E-07 3.01010E-19-1.79016E-18
 -1      1973 9.41082E-05-2.82799E-05-2.82129E-05-5.89364E-07 5.09085E-19-1.36380E-18
 -1      1974 9.43793E-05-2.83353E-05-2.83035E-05-3.70416E-07 1.24600E-19-2.28508E-18
 -1      1975 9.42394E-05-2.82962E-05-2.82625E-05-3.94704E-07 3.08461E-19-2.02766E-18
 -1      1976 9.43472E-05-2.83428E-05-2.82881E-05-5.05538E-07 4.69528E-19-1.51300E-18
 -1      1977 9.46046E-05-2.83945E-05-2.83747E-05-3.27251E-07-2.53265E-19-1.91805E-18
 -1      1978 9.44807E-05-2.83608E-05-2.83379E-05-3.43690E-07-2.32140E-19-2.28573E-18
 -1      1979 9.45628E-05-2.83961E-05-2.83576E-05-4.41431E-07-3.94629E-20-1.65109E-18
 -1      1980 9.48167E-05-2.84482E-05-2.84424E-05-3.07636E-07-1.20887E-19-2.04289E-18
 -1      1981 9.47014E-05-2.84177E-05-2.84077E-05-3.14139E-07-2.11126E-19-1.87797E-18
 -1      1982 9.47632E-05-2.84428E-05-2.84236E-05-4.03040E-07-2.21629E-19-1.74525E-18
 -1      1983 9.50308E-05-2.85009E-05-2.85113E-05-3.15815E-07 1.03438E-18-2.30666E-18
 -1      1984 9.49153E-05-2.84708E-05-2.84760E-05-3.10229E-07 5.46504E-19-2.13180E-18
 -1      1985 9.49600E-05-2.84861E-05-2.84895E-05-3.95851E-07 7.70259E-19-1.83336E-18
 -1      1986 9.52654E-05-2.85578E-05-2.85869E-05-3.56639E-07 9.56655E-19-2.20943E-18
 -1      1987 9.51391E-05-2.85250E-05-2.85481E-05-3.36493E-07 9.18450E-19-2.32309E-18
 -1      1988 9.51674E-05-2.85299E-05-2.85599E-05-4.25627E-07 7.83641E-19-1.63526E-18
 -1      1989 9.55425E-05-2.86249E-05-2.86762E-05-4.35997E-07-1.33592E-19-2.22848E-18
 -1      1990 9.53928E-05-2.85858E-05-2.86300E-05-3.98287E-07 5.99758E-19-1.75948E-18
 -1      1991 9.54027E-05-2.85790E-05-2.86401E-05-4.99030E-07 7.12983E-19-1.28549E-18
 -1      1992 9.58882E-05-2.87095E-05-2.87872E-05-5.61131E-07-8.63219E-19-2.15357E-18
 -1      1993 9.57002E-05-2.86598E-05-2.87292E-05-5.02157E-07-6.00009E-19-2.26467E-18
 -1      1994 9.56868E-05-2.86386E-05-2.87369E-05-6.24082E-07-3.73254E-19-1.52550E-18
 -1      1995 9.63330E-05-2.88201E-05-2.89292E-05-7.40807E-07-3.13910E-19-2.01346E-18
 -1      1996 9.60892E-05-2.87545E-05-2.88544E-05-6.56060E-07-8.64692E-19-2.13207E-18
 -1      1997 9.60438E-05-2.87152E-05-2.88577E-05-8.10461E-07-6.51200E-19-1.60277E-18
 -1      1998 9.69131E-05-2.89669E-05-2.91134E-05-9.85214E-07 6.15687E-19-2.28055E-18
 -1      1999 9.65927E-05-2.88793E-05-2.90155E-05-8.69383E-07 4.61426E-19-2.16008E-18
 -1      2000 9.65020E-05-2.88163E-05-2.90116E-05-1.06953E-06 3.75579E-19-2.13662E-18
 -1      2001 9.76697E-05-2.91621E-05-2.93523E-05-1.30542E-06-4.12034E-19-3.03663E-18
 -1      2002 9.72486E-05-2.90451E-05-2.92244E-05-1.15260E-06 3.00619E-19-2.45326E-18
 -1      2003 9.70941E-05-2.89510E-05-2.92085E-05-1.41396E-06 4.05050E-19-2.37826E-18
 -1      2004 9.86497E-05-2.94203E-05-2.96597E-05-1.71196E-06-1.64573E-18-2.84169E-18
 -1      2005 9.81005E-05-2.92651E-05-2.94940E-05-1.51626E-06-1.16691E-18-3.50112E-18
 -1      2006 9.78568E-05-2.91306E-05-2.94596E-05-1.85651E-06-7.87421E-19-3.04177E-18
 -1      2007 9.99029E-05-2.97585E-05-3.00500E-05-2.21183E-06-4.91337E-19-2.30921E-18
 -1      2008 9.91964E-05-2.95550E-05-2.98382E-05-1.96877E-06-1.03350E-18-2.64958E-18
 -1      2009 9.88305E-05-2.93690E-05-2.97761E-05-2.40751E-06-1.22461E-18-2.33297E-18
 -1      2010 1.01479E-04-3.01968E-05-3.05364E-05-2.80274E-06-5.29396E-20-2.21122E-18
 -1      2011 1.00586E-04-2.99337E-05-3.02708E-05-2.51201E-06-3.18718E-19-2.43228E-18
 -1      2012 1.00057E-04-2.96838E-05-3.01685E-05-3.06978E-06-2.42632E-19-2.75845E-18
 -1      2013 1.03419E-04-3.07582E-05-3.11273E-05-3.46267E-06 3.90328E-19-1.51543E-18
 -1      2014 1.02318E-04-3.04235E-05-3.08028E-05-3.13328E-06 2.40073E-19-1.62829E-18
 -1      2015 1.01578E-04-3.00984E-05-3.06442E-05-3.82944E-06-3.27564E-21-2.31100E-18
 -1      2016 1.05742E-04-3.14679E-05-3.18214E-05-4.13247E-06-2.52619E-19-1.17891E-18
 -1      2017 1.04425E-04-3.10508E-05-3.14384E-05-3.79155E-06-1.51453E-19-1.43118E-18
 -1      2018 1.03424E-04-3.06438E-05-3.12038E-05-4.64031E-06-3.30442E-20-1.42873E-18
 -1      2019 1.08421E-04-3.23509E-05-3.25980E-05-4.68924E-06-2.82515E-20-7.92290E-19
 -1      2020 1.06915E-04-3.18453E-05-3.21682E-05-4.39584E-06-2.21218E-19-1.33449E-18
 -1      2021 1.05612E-04-3.13620E-05-3.18355E-05-5.39934E-06-2.64097E-19-8.80737E-19
 -1      2022 1.11350E-04-3.34236E-05-3.34060E-05-4.91274E-06-2.43315E-19-3.12853E-19
 -1      2023 1.09738E-04-3.28357E-05-3.29597E-05-4.77575E-06 5.23624E-20-1.31125E-20
 -1      2024 1.08123E-04-3.23058E-05-3.25084E-05-5.91294E-06 4.56169E-20 8.02137E-19
 -1      2025 1.14297E-04-3.46705E-05-3.41525E-05-4.45910E-06-3.01643E-19-1.15019E-18
 -1      2026 1.12752E-04-3.40343E-05-3.37461E-05-4.65211E-06-3.86571E-19-6.47636E-19
 -1      2027 1.10880E-04-3.35266E-05-3.31660E-05-5.86200E-06-1.34665E-19-2.59530E-19
 -1      2028 1.16855E-04-3.59941E-05-3.46996E-05-2.88531E-06 1.44452E-19-2.38033E-18
 -1      2029 1.15661E-04-3.53975E-05-3.44187E-05-3.63543E-06 3.61643E-20-1.67994E-18
 -1      2030 1.13706E-04-3.50324E-05-3.37253E-05-4.79468E-06 2.70409E-19-1.24718E-18
 -1      2031 1.18411E-04-3.71261E-05-3.48886E-05 2.02696E-07 6.05668E-19-2.01277E-18
 -1      2032 1.17964E-04-3.67493E-05-3.48349E-05-1.31087E-06 8.60665E-20-2.23418E-18
 -1      2033 1.16255E-04-3.66923E-05-3.40917E-05-2.21160E-06 1.25222E-19-2.52843E-18
 -1      2034 1.18178E-04-3.75091E-05-3.46085E-05 4.76012E-06-5.24485E-19-2.52209E-18
 -1      2035 1.18907E-04-3.76508E-05-3.48578E-05 2.50166E-06 1.96882E-19-1.97954E-18
 -1      2036 1.17937E-04-3.80586E-05-3.42002E-05 2.16600E-06-1.56331E-19-1.69277E-18
 -1      2037 1.15415E-04-3.63477E-05-3.38887E-05 9.63381E-06 8.43082E-19-1.46682E-18
 -1      2038 1.17573E-04-3.73199E-05-3.44316E-05 7.22362E-06 9.24722E-20-2.16687E-18
 -1      2039 1.17854E-04-3.82041E-05-3.40726E-05 7.81515E-06 1.25599E-19-1.12189E-18
 -1      2040 1.10174E-04-3.32709E-05-3.29403E-05 1.24091E-05 8.71524E-19-1.70849E-18
 -1      2041 1.13486E-04-3.50794E-05-3.36409E-05 1.10395E-05 9.91207E-19-1.49941E-18
 -1      2042 1.15257E-04-3.61977E-05-3.38259E-05 1.27464E-05 1.00172E-18 8.31257E-19
 -1      2043 1.03987E-04-2.91309E-05-3.20956E-05 1.03806E-05-1.89341E-18-3.76347E-19
 -1      2044 1.07414E-04-3.11286E-05-3.27208E-05 1.13593E-05-4.15628E-19-1.04524E-18
 -1      2045 1.10400E-04-3.19796E-05-3.36076E-05 1.38567E-05-2.66908E-19 1.35507E-18
 -1      2046 9.99879E-05-2.64415E-05-3.16169E-05 3.36106E-06-1.27526E-18 1.24130E-18
 -1      2047 1.02001E-04-2.74627E-05-3.19525E-05 6.65139E-06-2.02107E-18-3.05911E-19
 -1      2048 1.05501E-04-2.75899E-05-3.34700E-05 8.91676E-06-1.95887E-18 1.77582E-18
 -1      2049 1.00557E-04-2.71552E-05-3.15829E-05-4.96771E-06-1.57900E-18 1.33887E-18
 -1      2050 1.00185E-04-2.65586E-05-3.15357E-05-1.19235E-06-1.26666E-18 1.31633E-18
 -1      2051 1.03622E-04-2.60911E-05-3.33335E-05-3.98403E-07-1.54247E-18 1.69902E-18
 -1      2052 1.04966E-04-3.06127E-05-3.19313E-05-9.89279E-06-9.20857E-19 1.24996E-18
 -1      2053 1.02582E-04-2.88642E-05-3.15676E-05-7.74350E-06-1.33459E-18 1.34493E-18
 -1      2054 1.05756E-04-2.85016E-05-3.31455E-05-8.66401E-06-1.79376E-18 1.07335E-18
 -1      2055 1.09957E-04-3.41601E-05-3.24685E-05-9.36723E-06 1.73324E-19 1.36438E-18
 -1      2056 1.07096E-04-3.24894E-05-3.19816E-05-9.58243E-06-4.46113E-19 9.78905E-19
 -1      2057 1.09874E-04-3.28983E-05-3.29705E-05-1.14356E-05-2.00333E-19 4.81591E-19
 -1      2058 1.12802E-04-3.59147E-05-3.28913E-05-5.13935E-06-1.04221E-18 2.48733E-18
 -1      2059 1.10855E-04-3.50718E-05-3.25216E-05-6.91079E-06-2.39035E-19 2.20342E-18
 -1      2060 1.12867E-04-3.61669E-05-3.28474E-05-8.54081E-06-8.14138E-19 1.89397E-18
 -1      2061 1.12742E-04-3.57373E-05-3.29454E-05-8.85229E-08 1.29855E-18 7.12798E-20
 -1      2062 1.12282E-04-3.57603E-05-3.28527E-05-2.21147E-06-1.18016E-19 2.06347E-18
 -1      2063 1.13302E-04-3.70087E-05-3.26978E-05-2.92966E-06 4.61659E-19 1.14772E-18
 -1      2064 1.10380E-04-3.43600E-05-3.25463E-05 3.84757E-06 1.56308E-18-1.76805E-19
 -1      2065 1.11265E-04-3.49542E-05-3.27563E-05 2.17349E-06 1.64814E-18 1.77970E-19
 -1      2066 1.11439E-04-3.59041E-05-3.23909E-05 2.46274E-06 1.54883E-18-2.49425E-19
 -1      2067 1.06729E-04-3.25087E-05-3.17938E-05 5.98479E-06 1.42845E-18-2.67848E-19
 -1      2068 1.08478E-04-3.33686E-05-3.22222E-05 5.05457E-06 1.82959E-18 4.15079E-19
 -1      2069 1.08197E-04-3.38759E-05-3.18728E-05 6.10531E-06 1.70386E-18 2.44402E-19
 -1      2070 1.02710E-04-3.06133E-05-3.08918E-05 6.34279E-06 1.54775E-18-7.15055E-19
 -1      2071 1.04778E-04-3.15293E-05-3.14040E-05 6.17824E-06 1.07464E-18-7.86900E-19
 -1      2072 1.04426E-04-3.16542E-05-3.12044E-05 7.64000E-06 1.84403E-18-1.25938E-18
 -1      2073 9.90519E-05-2.88954E-05-3.00560E-05 5.12677E-06 2.31677E-19-1.19606E-18
 -1      2074 1.00947E-04-2.97318E-05-3.05186E-05 5.69392E-06 1.28739E-18-5.45820E-19
 -1      2075 1.00728E-04-2.95703E-05-3.05108E-05 7.23287E-06 1.17335E-18-1.17284E-18
 -1      2076 9.66537E-05-2.77384E-05-2.95122E-05 3.35670E-06-4.43718E-19 6.03757E-19
 -1      2077 9.81009E-05-2.83884E-05-2.98713E-05 4.45678E-06-3.07258E-19-6.88591E-19
 -1      2078 9.79998E-05-2.80282E-05-3.00067E-05 5.79659E-06-5.14164E-19-5.77936E-19
 -1      2079 9.62107E-05-2.68869E-05-2.97115E-05 4.13381E-06-8.98975E-19 1.06135E-18
 -1      2080 9.17512E-05-1.71796E-05-3.19797E-05 8.99460E-06 1.22794E-18 4.47439E-19
 -1      2081 9.28373E-05-1.94772E-05-3.14220E-05 8.88793E-06 1.03145E-18 9.08890E-19
 -1      2082 9.37191E-05-2.11634E-05-3.10928E-05 8.38072E-06 5.44162E-19 1.28040E-18
 -1      2083 9.46825E-05-2.32512E-05-3.05900E-05 7.64072E-06 2.08145E-19 7.13559E-20
 -1      2084 9.39434E-05-2.17169E-05-3.09683E-05 1.07350E-05 9.10762E-19 9.72925E-19
 -1      2085 9.51132E-05-2.42518E-05-3.03555E-05 6.58655E-06-4.98757E-19-8.61393E-19
 -1      2086 9.58598E-05-2.59213E-05-2.99497E-05 5.40992E-06-5.09475E-19-5.07082E-19
 -1      2087 9.66264E-05-2.64238E-05-3.00710E-05 6.41674E-06-4.96318E-19-4.39101E-19
 -1      2088 9.55688E-05-2.44267E-05-3.04940E-05 8.94805E-06-2.92537E-19 3.95277E-19
 -1      2089 8.97532E-05-1.33116E-05-3.28089E-05 8.13932E-06-8.74767E-19-3.73226E-18
 -1      2090 9.08039E-05-1.54325E-05-3.23007E-05 8.71208E-06-3.17935E-20-2.35430E-18
 -1      2091 9.16724E-05-1.81579E-05-3.15055E-05 1.10130E-05 7.57188E-19-1.79393E-18
 -1      2092 8.80214E-05-1.00950E-05-3.34633E-05 5.72787E-06-6.40428E-19-1.18165E-18
 -1      2093 8.88582E-05-1.17201E-05-3.30798E-05 6.96806E-06-1.57224E-18-8.25275E-19
 -1      2094 8.93685E-05-1.46633E-05-3.19905E-05 9.41924E-06-2.16645E-19-3.08581E-18
 -1      2095 8.70529E-05-8.31169E-06-3.38121E-05 2.12874E-06-4.27302E-19 1.45719E-18
 -1      2096 8.74368E-05-9.07091E-06-3.36313E-05 3.80582E-06-2.33053E-19 4.21452E-19
 -1      2097 8.75132E-05-1.19147E-05-3.23461E-05 5.95206E-06-1.49644E-19-1.68440E-19
 -1      2098 8.71458E-05-8.39649E-06-3.37990E-05-1.85991E-06-3.60545E-19 1.65287E-18
 -1      2099 8.69700E-05-8.13888E-06-3.38509E-05-1.32557E-07-7.78964E-19 2.04472E-18
 -1      2100 8.66783E-05-1.06556E-05-3.25141E-05 1.23127E-06 5.35686E-20 1.71232E-18
 -1      2101 8.82545E-05-1.02985E-05-3.34355E-05-5.28509E-06 1.70995E-20 1.63807E-18
 -1      2102 8.75889E-05-9.11456E-06-3.37038E-05-3.91172E-06-4.03322E-19 2.51110E-18
 -1      2103 8.71414E-05-1.12373E-05-3.24711E-05-3.64134E-06-1.95710E-18 2.17011E-18
 -1      2104 9.00018E-05-1.34932E-05-3.27948E-05-7.43248E-06-1.41522E-18-3.03343E-18
 -1      2105 8.90584E-05-1.16761E-05-3.32229E-05-6.67220E-06-7.20335E-19-1.85325E-19
 -1      2106 8.87175E-05-1.34505E-05-3.22229E-05-7.50831E-06-2.26398E-18-3.60145E-19
 -1      2107 9.18561E-05-1.71616E-05-3.20032E-05-8.08016E-06-6.52606E-19-3.46256E-18
 -1      2108 9.08918E-05-1.51236E-05-3.25043E-05-7.96217E-06-7.27145E-19-2.64210E-18
 -1      2109 9.08482E-05-1.66138E-05-3.18076E-05-9.63251E-06-1.29539E-18-2.77961E-18
 -1      2110 9.34870E-05-2.07508E-05-3.11568E-05-7.48253E-06 9.15689E-19 1.50772E-18
 -1      2111 9.26481E-05-1.87602E-05-3.16687E-05-7.86645E-06 5.17484E-19-5.50330E-19
 -1      2112 9.29248E-05-1.99761E-05-3.12779E-05-9.95243E-06 3.34682E-19-1.02422E-18
 -1      2113 9.46797E-05-2.37559E-05-3.03776E-05-6.08323E-06 1.59335E-18-1.69982E-19
 -1      2114 9.40577E-05-2.20743E-05-3.08285E-05-6.76550E-06 1.81510E-18-6.14893E-20
 -1      2115 9.45708E-05-2.29844E-05-3.07025E-05-8.87552E-06 1.85819E-18 1.72159E-18
 -1      2116 9.54531E-05-2.60241E-05-2.97433E-05-4.34055E-06-3.75286E-19 1.48482E-19
 -1      2117 9.50156E-05-2.47383E-05-3.00912E-05-5.14255E-06 3.51618E-19 1.93064E-20
 -1      2118 9.56436E-05-2.53294E-05-3.01567E-05-6.99902E-06 8.40784E-19-8.31844E-19
 -1      2119 6.25310E-05-4.35404E-05-8.71116E-06 4.14167E-05-2.97817E-18 5.20131E-19
 -1      2120 4.67733E-05-4.56760E-05-1.87628E-06 3.43424E-05-1.65087E-18-2.63703E-18
 -1      2121 1.33525E-05-3.84821E-05 9.17600E-06 5.03982E-06 1.41243E-19-3.00358E-18
 -1      2122 1.33606E-05-3.74143E-05 8.89259E-06-5.73165E-06 1.30072E-18 3.58718E-19
 -1      2123 2.91115E-05-3.82616E-05 3.02740E-06 2.80971E-05-4.52739E-19-5.87481E-18
 -1      2124 2.01932E-05-4.02515E-05 7.05751E-06 1.70820E-05 1.76818E-19-5.39094E-18
 -1      2125 9.97913E-05-4.45452E-05-2.36979E-05 4.40574E-05-2.93709E-18 1.31841E-18
 -1      2126 8.03035E-05-4.72101E-05-1.54075E-05 3.90899E-05-3.18738E-18 1.67120E-18
 -1      2127 1.39157E-04-4.47388E-05-3.98322E-05 3.66690E-05-1.81646E-18-2.01382E-18
 -1      2128 1.18706E-04-4.66940E-05-3.14523E-05 3.58415E-05-2.75159E-18-1.21465E-18
 -1      2129 8.72678E-05-8.72473E-06-3.37497E-05-1.05252E-05-2.21711E-18-2.91246E-18
 -1      2130 8.79632E-05-9.25347E-06-3.38200E-05-1.21121E-05-2.47765E-18-2.45201E-18
 -1      2131 9.04687E-05-1.30774E-05-3.32340E-05-1.19235E-05-2.65033E-18-2.04153E-18
 -1      2132 8.86688E-05-1.10344E-05-3.32955E-05-9.41291E-06-2.19605E-18-2.84999E-18
 -1      2133 1.84756E-04-3.03080E-05-6.48870E-05 1.20505E-05 1.85881E-18-5.70053E-18
 -1      2134 1.74437E-04-3.12481E-05-6.03919E-05 1.94295E-05 9.30254E-19-4.05432E-18
 -1      2135 1.80173E-04-2.23087E-05-6.68251E-05 1.32498E-06 3.35002E-18-5.08320E-18
 -1      2136 1.82803E-04-2.46487E-05-6.64552E-05 6.95425E-06 2.45936E-18-4.29446E-18
 -1      2137 1.78224E-04-2.90599E-05-6.29394E-05-7.85673E-06 3.65664E-18-5.86655E-18
 -1      2138 1.80143E-04-2.50958E-05-6.56289E-05 2.06672E-07 3.04551E-18-5.87714E-18
 -1      2139 1.60074E-04-3.67214E-05-5.27681E-05-1.48336E-05 3.49729E-18-6.16216E-18
 -1      2140 1.76532E-04-3.52307E-05-5.92987E-05-1.26113E-05 4.00414E-18-5.06483E-18
 -1      2141 1.61951E-04-2.67605E-05-5.68685E-05 4.70634E-06 2.55169E-18-3.92557E-18
 -1      2142 1.33580E-04-4.76947E-05-3.71422E-05-2.47734E-05 3.40211E-18-6.63523E-18
 -1      2143 1.53117E-04-4.46058E-05-4.57764E-05-2.41792E-05 3.50163E-18-6.41712E-18
 -1      2144 9.22398E-05-4.96394E-05-1.91980E-05-3.59329E-05 2.45089E-18-6.54121E-18
 -1      2145 1.15789E-04-5.06928E-05-2.79889E-05-3.68231E-05 3.01967E-18-7.79397E-18
 -1      2146 5.67981E-05-4.59746E-05-5.96989E-06-3.40201E-05 7.89011E-19-4.00394E-18
 -1      2147 7.45222E-05-4.45868E-05-1.31615E-05-4.05117E-05 2.07777E-18-5.76956E-18
 -1      2148 9.79720E-05-5.57206E-05-1.79982E-05-3.86962E-05 1.05117E-18-6.48721E-18
 -1      2149 2.50914E-05-4.08536E-05 5.17521E-06-2.14531E-05-6.31040E-20-4.35481E-18
 -1      2150 3.55804E-05-3.96614E-05 6.25981E-07-2.95734E-05 6.80167E-19-3.47961E-18
 -1      2151 1.20236E-05-3.49265E-05 8.53822E-06-1.99478E-06-8.48237E-19-1.75759E-18
 -1      2152 1.54768E-05-3.51603E-05 7.29675E-06-1.21070E-05-2.73168E-19-3.88407E-18
 -1      2153 2.06263E-05-3.52846E-05 5.30871E-06 2.10613E-05-6.83132E-19 2.28614E-18
 -1      2154 1.44891E-05-3.49140E-05 7.61488E-06 1.14298E-05-4.91067E-19 8.30092E-20
 -1      2155 4.60287E-05-3.89051E-05-3.76470E-06 3.71281E-05 5.03985E-20 2.28879E-18
 -1      2156 3.18634E-05-4.08257E-05 2.32358E-06 2.78174E-05-1.03338E-18 2.56397E-18
 -1      2157 3.16782E-05-3.11397E-05-5.08845E-07 3.06013E-05 4.69256E-19 2.05554E-18
 -1      2158 8.40538E-05-4.14737E-05-1.83222E-05 4.31640E-05 6.94991E-19-6.72756E-19
 -1      2159 6.77043E-05-4.45891E-05-1.07168E-05 3.93377E-05 6.35275E-20 6.20928E-19
 -1      2160 1.21894E-04-4.18593E-05-3.38318E-05 4.00820E-05 1.17949E-18-2.49875E-18
 -1      2161 1.01623E-04-4.37958E-05-2.55407E-05 3.76339E-05 7.22096E-19-1.60555E-18
 -1      2162 1.54824E-04-3.85267E-05-4.89511E-05 2.95556E-05 1.04439E-18-3.66342E-18
 -1      2163 1.35152E-04-3.92829E-05-4.12849E-05 3.12790E-05 1.59602E-18-3.08828E-18
 -1      2164 1.75525E-04-3.21264E-05-6.02733E-05 1.39683E-05-1.43149E-19-2.71686E-18
 -1      2165 1.61323E-04-3.29020E-05-5.46736E-05 1.90127E-05 9.75570E-19-2.62284E-18
 -1      2166 1.86289E-04-2.60572E-05-6.73200E-05 2.31753E-06 5.75982E-20-2.48890E-18
 -1      2167 1.81118E-04-2.70623E-05-6.48716E-05 1.11372E-05-4.92126E-19-2.56397E-18
 -1      2168 1.82631E-04-2.49192E-05-6.64453E-05-8.94062E-06 2.13452E-19-2.86805E-18
 -1      2169 1.84447E-04-2.40947E-05-6.74875E-05-1.12084E-06 2.96462E-19-2.60092E-18
 -1      2170 1.68717E-04-2.98753E-05-5.89554E-05-1.76258E-05-1.53017E-18-4.11658E-18
 -1      2171 1.79819E-04-2.89156E-05-6.34282E-05-1.20012E-05-4.73491E-19-3.64097E-18
 -1      2172 1.47480E-04-3.81506E-05-4.68805E-05-2.72454E-05 3.30978E-19-3.23651E-18
 -1      2173 1.65361E-04-3.64073E-05-5.41047E-05-2.53116E-05-1.27018E-18-4.83063E-18
 -1      2174 1.18214E-04-4.72861E-05-3.09139E-05-3.54644E-05 3.16960E-18-2.22177E-18
 -1      2175 1.38052E-04-4.49049E-05-3.93269E-05-3.57085E-05 3.10543E-18-1.89481E-18
 -1      2176 7.84255E-05-4.72036E-05-1.45563E-05-3.96641E-05 1.59157E-18-3.08616E-18
 -1      2177 9.86028E-05-4.50853E-05-2.29257E-05-4.45467E-05 1.94225E-18-3.49825E-18
 -1      2178 4.93382E-05-4.41361E-05-2.96722E-06-3.79868E-05 2.62199E-18-1.87321E-18
 -1      2179 6.28096E-05-4.39328E-05-8.64020E-06-4.19320E-05 1.83213E-18-2.74354E-18
 -1      2180 8.41912E-05-5.23654E-05-1.40484E-05-4.46666E-05 2.17010E-18-3.58753E-18
 -1      2181 1.95431E-05-4.07594E-05 7.32478E-06-1.69910E-05 3.42646E-18 2.26751E-18
 -1      2182 2.88710E-05-3.77678E-05 2.80103E-06-2.88224E-05 3.42159E-18 1.02300E-18
 -1      2183 1.68335E-04-3.84225E-05-5.44404E-05 2.44590E-05-1.28000E-18-2.54068E-18
 -1      2184 1.49880E-04-3.98873E-05-4.71048E-05 2.69581E-05-1.91429E-18-2.51484E-18
 -1      2185 1.22440E-04-5.69720E-05-2.78686E-05 3.52186E-05-3.17468E-18-9.49736E-19
 -1      2186 9.71861E-05-2.43137E-05-3.13050E-05-1.00035E-05-2.49692E-18 2.19982E-18
 -1      2187 1.50030E-04-5.12049E-05-4.17625E-05 1.72955E-05-2.14299E-18-3.37585E-18
 -1      2188 1.63451E-04-3.49507E-05-5.39845E-05 5.55440E-06-2.80791E-19-4.77345E-18
 -1      2189 9.63457E-05-2.30979E-05-3.14551E-05-1.03860E-05-2.67824E-18 6.58820E-19
 -1      2190 4.59340E-05-3.99490E-05-3.10593E-06 3.76787E-05-6.04782E-19-4.18032E-18
 -1      2191 1.97240E-05-2.86968E-05 3.21377E-06 1.49430E-05 6.23628E-20-4.86366E-18
 -1      2192 9.58117E-05-2.67653E-05-2.95738E-05-4.00661E-06-1.32956E-19-2.59136E-19
 -1      2193 8.43809E-05-5.23720E-05-1.40502E-05 4.35662E-05-2.76980E-18 1.18373E-18
 -1      2194 1.87406E-05-2.92307E-05 3.83365E-06-1.39866E-05 1.96872E-18-4.19281E-19
 -1      2195 4.39726E-05-4.00314E-05-2.15658E-06-3.66082E-05 3.22847E-18-1.33259E-18
 -1      2196 5.94784E-05-4.21363E-05-7.79415E-06-4.33619E-05 4.19070E-18-2.97012E-18
 -1      2197 3.97331E-05-3.27113E-05-2.63135E-06-3.56610E-05 3.23651E-18 9.30466E-19
 -1      2198 1.21016E-04-5.69938E-05-2.71694E-05-3.59672E-05 2.72279E-18-2.05956E-18
 -1      2199 1.47729E-04-5.01256E-05-4.14590E-05-1.80177E-05 2.16322E-18-3.10946E-18
 -1      2200 1.59152E-04-3.29274E-05-5.31476E-05-5.34304E-06-1.00162E-18-3.54864E-18
 -1      2201 1.61484E-04-1.79971E-05-6.03476E-05-3.04740E-08-7.91976E-19-5.35537E-19
 -1      2202 1.65774E-04-1.52309E-05-6.32594E-05-1.08867E-06-4.02341E-20-1.16096E-19
 -1      2203 1.62483E-04-2.36729E-05-5.85507E-05-1.01853E-06 2.63427E-19-3.35213E-19
 -1      2204 1.55159E-04-3.86537E-05-4.91003E-05 8.47416E-06 1.71376E-18-1.40989E-18
 -1      2205 1.37210E-04-5.06273E-05-3.66283E-05 2.49089E-05 2.44708E-18-2.15570E-18
 -1      2206 6.30774E-05-4.40680E-05-8.55101E-06 4.06801E-05 1.77453E-19 2.00548E-18
 -1      2207 5.90873E-05-3.96856E-05-7.77333E-06 4.24379E-05 7.97482E-19 2.80897E-18
 -1      2208 8.00566E-05-4.89300E-05-1.38912E-05 4.38502E-05 1.16276E-18 1.80767E-18
 -1      2209 1.61245E-05-2.48803E-05 3.31876E-06 6.16424E-06 2.27746E-19-7.92823E-19
 -1      2210 5.70961E-05-4.36682E-05-6.17270E-06-3.89834E-05-1.55431E-19-4.60447E-18
 -1      2211 1.56014E-04-4.45769E-05-4.72129E-05-4.31307E-06 2.87472E-18-4.05178E-18
 -1      2212 1.64881E-04-1.90293E-05-6.11897E-05 1.30349E-06 2.24464E-18-4.11065E-18
 -1      2213 1.62135E-04-1.56729E-05-6.17314E-05 3.82474E-06 3.13487E-18-3.43493E-18
 -1      2214 1.32992E-04-5.79594E-05-3.19437E-05-2.35031E-05 1.52148E-18-5.24038E-18
 -1      2215 2.39710E-05-3.07968E-05 2.26486E-06-2.12975E-05 1.65595E-19-4.50960E-18
 -1      2216 1.06558E-04-5.31479E-05-2.28512E-05 3.81907E-05 1.36965E-18-5.78947E-19
 -1      2217 9.52114E-05-2.63760E-05-2.94877E-05 4.19957E-06 1.93950E-18-3.19341E-19
 -1      2218 9.61867E-05-2.58616E-05-3.00658E-05 6.00456E-06 2.15013E-18-3.95988E-20
 -1      2219 8.81385E-05-1.11862E-05-3.30188E-05-3.66310E-06-1.02846E-18-3.34959E-18
 -1      2220 8.83723E-05-1.14570E-05-3.30009E-05-4.80535E-06-1.33991E-18-3.30705E-18
 -1      2221 8.87248E-05-1.19420E-05-3.29522E-05-5.82251E-06-1.53137E-18-3.17254E-18
 -1      2222 8.91295E-05-1.24126E-05-3.29238E-05-6.99835E-06-1.87277E-18-2.95462E-18
 -1      2223 8.98922E-05-1.38255E-05-3.25989E-05-4.90445E-06-1.35291E-18-3.01731E-18
 -1      2224 8.77936E-05-1.07278E-05-3.30622E-05 6.15971E-07-1.06901E-19-3.73702E-18
 -1      2225 8.77892E-05-1.07229E-05-3.30625E-05-4.95759E-07-3.31484E-19-3.65288E-18
 -1      2226 8.79741E-05-1.09524E-05-3.30437E-05 2.75951E-06 4.22313E-19-3.82425E-18
 -1      2227 8.78596E-05-1.08195E-05-3.30530E-05 1.63945E-06 9.96598E-20-3.80165E-18
 -1      2228 8.91117E-05-1.27745E-05-3.27191E-05 1.05054E-06 1.43291E-20-3.55253E-18
 -1      2229 8.84074E-05-1.14989E-05-3.29983E-05 4.89014E-06 8.71751E-19-3.87025E-18
 -1      2230 8.81685E-05-1.12225E-05-3.30165E-05 3.76636E-06 5.79662E-19-3.86488E-18
 -1      2231 8.93768E-05-1.31300E-05-3.26790E-05 3.02320E-06 4.93170E-19-3.64886E-18
 -1      2232 8.91851E-05-1.24805E-05-3.29192E-05 7.07868E-06 1.43094E-18-3.53191E-18
 -1      2233 8.87681E-05-1.19945E-05-3.29485E-05 5.90652E-06 1.09438E-18-3.69489E-18
 -1      2234 8.99329E-05-1.38772E-05-3.25943E-05 4.97876E-06 9.70658E-19-3.53883E-18
 -1      2235 9.04530E-05-1.40883E-05-3.27920E-05 9.22751E-06 1.97159E-18-3.19194E-18
 -1      2236 8.97733E-05-1.32778E-05-3.28375E-05 8.04862E-06 1.62370E-18-3.39379E-18
 -1      2237 9.08663E-05-1.51356E-05-3.24491E-05 6.87563E-06 1.46469E-18-3.23028E-18
 -1      2238 9.24494E-05-1.66593E-05-3.25819E-05 1.11118E-05 2.53318E-18-2.43472E-18
 -1      2239 9.13714E-05-1.53198E-05-3.26540E-05 1.00316E-05 2.20664E-18-2.87133E-18
 -1      2240 9.22877E-05-1.70884E-05-3.22077E-05 8.52104E-06 1.99428E-18-2.77953E-18
 -1      2241 9.42299E-05-2.71160E-05-2.87464E-05 1.77012E-06 1.60831E-18-5.57834E-19
 -1      2242 9.48312E-05-2.68926E-05-2.90452E-05 2.74266E-06 1.77670E-18-2.52555E-19
 -1      2243 9.53356E-05-2.58471E-05-2.97887E-05 4.36660E-06 1.99497E-18-9.37990E-19
 -1      2244 9.59085E-05-2.50904E-05-3.03028E-05-6.19105E-06-2.20152E-18-1.25523E-19
 -1      2245 9.52487E-05-2.58496E-05-2.97590E-05-4.28566E-06-2.01835E-18-2.33272E-19
 -1      2246 1.50622E-04-5.09854E-05-4.30971E-05 6.16426E-06-2.36925E-18-3.94781E-18
 -1      2247 1.43559E-04-5.73447E-05-3.70164E-05 1.32301E-05-2.41267E-18-3.34472E-18
 -1      2248 9.51330E-05-2.65347E-05-2.93420E-05-2.94329E-06-1.84842E-18-9.56221E-20
 -1      2249 9.46644E-05-2.69076E-05-2.90383E-05-1.88257E-06-1.64649E-18-2.81377E-19
 -1      2250 9.53339E-05-2.53524E-05-2.99944E-05-4.29979E-06-2.00084E-18-7.04078E-19
 -1      2251 9.44675E-05-2.72370E-05-2.87746E-05-1.03317E-06-1.54515E-18-1.47622E-19
 -1      2252 9.42086E-05-2.74503E-05-2.86082E-05-4.32003E-07-1.24534E-18-3.07227E-19
 -1      2253 9.50301E-05-2.67003E-05-2.92970E-05-1.92748E-06-1.63584E-18-6.25962E-19
 -1      2254 9.40595E-05-2.76306E-05-2.84469E-05 7.53459E-08-1.02198E-18-5.02112E-19
 -1      2255 9.39601E-05-2.77737E-05-2.83631E-05 4.04632E-07-7.44702E-19-6.62293E-19
 -1      2256 9.47230E-05-2.74270E-05-2.88539E-05-4.49013E-07-1.33373E-18-5.91221E-19
 -1      2257 9.38750E-05-2.78830E-05-2.82696E-05 6.86898E-07-5.86993E-19-9.51310E-19
 -1      2258 9.38798E-05-2.79895E-05-2.82365E-05 8.50697E-07-5.93853E-19-9.66312E-19
 -1      2259 9.45210E-05-2.78548E-05-2.85816E-05 4.20540E-07-8.58538E-19-9.11171E-19
 -1      2260 9.38479E-05-2.80611E-05-2.81878E-05 9.87913E-07-7.37970E-19-1.02584E-18
 -1      2261 9.39142E-05-2.81442E-05-2.81854E-05 1.05026E-06-6.72657E-19-1.11202E-18
 -1      2262 9.44274E-05-2.81231E-05-2.84236E-05 8.91112E-07-7.25608E-19-1.27396E-18
 -1      2263 9.39196E-05-2.81932E-05-2.81656E-05 1.09601E-06-5.15725E-19-1.16066E-18
 -1      2264 9.40180E-05-2.82590E-05-2.81810E-05 1.09739E-06-4.38642E-19-1.11135E-18
 -1      2265 9.44170E-05-2.82984E-05-2.83417E-05 1.10492E-06-6.84803E-19-1.51584E-18
 -1      2266 9.40467E-05-2.82929E-05-2.81796E-05 1.08791E-06-7.27450E-19-1.15738E-18
 -1      2267 9.41580E-05-2.83447E-05-2.82046E-05 1.05487E-06-8.08819E-19-1.26567E-18
 -1      2268 9.44618E-05-2.84143E-05-2.83093E-05 1.15833E-06-6.35052E-19-1.48917E-18
 -1      2269 9.41994E-05-2.83677E-05-2.82144E-05 1.01494E-06-6.33220E-19-1.08085E-18
 -1      2270 9.43118E-05-2.84077E-05-2.82437E-05 9.65288E-07-3.67214E-19-9.56576E-19
 -1      2271 9.45386E-05-2.84897E-05-2.83087E-05 1.11713E-06-6.20092E-19-1.53136E-18
 -1      2272 9.43590E-05-2.84226E-05-2.82600E-05 9.11984E-07-1.79245E-19-8.49376E-19
 -1      2273 9.44661E-05-2.84527E-05-2.82906E-05 8.57860E-07-1.19827E-19-8.64073E-19
 -1      2274 9.46312E-05-2.85361E-05-2.83277E-05 1.02660E-06-2.40956E-19-7.79207E-19
 -1      2275 9.45150E-05-2.84612E-05-2.83106E-05 8.03037E-07-2.91761E-19-7.93708E-19
 -1      2276 9.46143E-05-2.84833E-05-2.83410E-05 7.52850E-07-1.71379E-19-5.80770E-19
 -1      2277 9.47293E-05-2.85610E-05-2.83585E-05 9.18155E-07-2.00565E-19-4.79222E-19
 -1      2278 9.46629E-05-2.84869E-05-2.83631E-05 7.04889E-07-3.51571E-19-6.61074E-19
 -1      2279 9.47545E-05-2.85024E-05-2.83927E-05 6.64644E-07-5.70899E-19-5.96019E-19
 -1      2280 9.48273E-05-2.85698E-05-2.83965E-05 8.13818E-07-3.53568E-19-5.06555E-19
 -1      2281 9.48025E-05-2.85021E-05-2.84163E-05 6.29697E-07-9.18073E-19-6.46744E-19
 -1      2282 9.48887E-05-2.85126E-05-2.84455E-05 6.03939E-07-7.82127E-19-8.14640E-19
 -1      2283 9.49233E-05-2.85662E-05-2.84391E-05 7.29438E-07-7.11423E-19-1.12513E-18
 -1      2284 9.49370E-05-2.85093E-05-2.84706E-05 5.86848E-07-5.07672E-19-6.36037E-19
 -1      2285 9.50216E-05-2.85163E-05-2.85004E-05 5.79345E-07-5.01904E-19-7.51215E-19
 -1      2286 9.50182E-05-2.85529E-05-2.84855E-05 6.76994E-07-6.91964E-19-5.81931E-19
 -1      2287 9.50722E-05-2.85108E-05-2.85277E-05 5.84302E-07-7.61209E-19-8.77807E-19
 -1      2288 9.51602E-05-2.85158E-05-2.85594E-05 5.98528E-07-5.67229E-19-9.77749E-19
 -1      2289 9.51150E-05-2.85319E-05-2.85362E-05 6.66292E-07-7.25115E-19-4.83517E-19
 -1      2290 9.52158E-05-2.85086E-05-2.85899E-05 6.29528E-07-8.53291E-20-1.18592E-18
 -1      2291 9.53136E-05-2.85134E-05-2.86254E-05 6.68964E-07 1.17774E-19-8.85609E-19
 -1      2292 9.52186E-05-2.85047E-05-2.85926E-05 7.06156E-07-4.37238E-19-6.81523E-19
 -1      2293 9.53777E-05-2.85054E-05-2.86604E-05 7.30057E-07-3.64675E-19-9.08061E-19
 -1      2294 9.54925E-05-2.85119E-05-2.87019E-05 7.98310E-07-4.99982E-19-1.44713E-18
 -1      2295 9.53353E-05-2.84727E-05-2.86566E-05 8.05184E-07-1.83117E-19-1.27150E-18
 -1      2296 9.55695E-05-2.85041E-05-2.87429E-05 8.93645E-07-2.73719E-19-1.26258E-18
 -1      2297 9.57096E-05-2.85149E-05-2.87926E-05 9.94349E-07 3.31354E-20-1.27005E-18
 -1      2298 9.54729E-05-2.84380E-05-2.87309E-05 9.72067E-07-3.52021E-19-7.14879E-19
 -1      2299 9.58045E-05-2.85091E-05-2.88412E-05 1.12796E-06 2.78616E-19-1.46152E-18
 -1      2300 9.59793E-05-2.85274E-05-2.89017E-05 1.26440E-06 4.16385E-19-1.58863E-18
 -1      2301 9.56410E-05-2.84034E-05-2.88182E-05 1.21541E-06 2.94985E-20-8.23503E-19
 -1      2302 9.60980E-05-2.85261E-05-2.89595E-05 1.43965E-06 5.44165E-19-1.89617E-18
 -1      2303 9.63178E-05-2.85566E-05-2.90331E-05 1.61401E-06 8.40702E-19-1.46225E-18
 -1      2304 9.58505E-05-2.83736E-05-2.89212E-05 1.54294E-06 4.63254E-19-1.87736E-18
 -1      2305 9.64673E-05-2.85639E-05-2.91013E-05 1.83259E-06 7.29733E-19-1.25063E-18
 -1      2306 9.67426E-05-2.86126E-05-2.91902E-05 2.04468E-06 5.26866E-19-1.08779E-18
 -1      2307 9.61146E-05-2.83566E-05-2.90422E-05 1.95991E-06 6.77311E-19-1.88684E-18
 -1      2308 9.69314E-05-2.86351E-05-2.92693E-05 2.30504E-06 3.49194E-20-1.11017E-18
 -1      2309 9.72730E-05-2.87104E-05-2.93749E-05 2.55029E-06 1.37319E-19-9.50145E-19
 -1      2310 9.64492E-05-2.83652E-05-2.91824E-05 2.46642E-06 6.98366E-20-1.68763E-18
 -1      2311 9.75114E-05-2.87581E-05-2.94647E-05 2.84517E-06-3.05319E-19-1.25218E-18
 -1      2312 9.79290E-05-2.88718E-05-2.95870E-05 3.11176E-06-2.66631E-19-1.58652E-18
 -1      2313 9.68735E-05-2.84195E-05-2.93415E-05 3.05332E-06-4.29382E-19-1.58874E-18
 -1      2314 9.82307E-05-2.89597E-05-2.96857E-05 3.42480E-06 8.59995E-20-1.42159E-18
 -1      2315 9.87318E-05-2.91272E-05-2.98229E-05 3.68967E-06 4.44088E-19-1.05377E-18
 -1      2316 9.74121E-05-2.85503E-05-2.95171E-05 3.69633E-06-2.24834E-19-1.52827E-18
 -1      2317 9.91146E-05-2.92771E-05-2.99272E-05 3.99081E-06 3.44739E-19-1.33441E-18
 -1      2318 9.97027E-05-2.95183E-05-3.00745E-05 4.21477E-06 4.15188E-19-1.01719E-18
 -1      2319 9.80970E-05-2.88026E-05-2.97034E-05 4.34799E-06 1.89777E-19-1.44668E-18
 -1      2320 1.00190E-04-2.97594E-05-3.01793E-05 4.45457E-06 6.96418E-19-1.12892E-18
 -1      2321 1.00861E-04-3.00973E-05-3.03287E-05 4.57715E-06 8.13745E-19-8.13664E-19
 -1      2322 9.89700E-05-2.92389E-05-2.98921E-05 4.92743E-06 6.23861E-19-1.06043E-18
 -1      2323 1.01483E-04-3.04652E-05-3.04277E-05 4.68077E-06 8.28829E-19-4.77951E-19
 -1      2324 1.02221E-04-3.09206E-05-3.05677E-05 4.61698E-06 7.01086E-19-1.53127E-19
 -1      2325 1.00085E-04-2.99384E-05-3.00723E-05 5.30878E-06 1.00454E-18-9.25678E-19
 -1      2326 1.03008E-04-3.14494E-05-3.06554E-05 4.48009E-06 1.35823E-19-2.40213E-20
 -1      2327 1.03778E-04-3.20284E-05-3.07726E-05 4.12352E-06 6.60280E-20 3.99235E-19
 -1      2328 1.01503E-04-3.09859E-05-3.02341E-05 5.31085E-06 3.65782E-19-4.47899E-20
 -1      2329 1.04748E-04-3.27308E-05-3.08478E-05 3.61543E-06-3.48336E-19 5.07372E-19
 -1      2330 1.05479E-04-3.33978E-05-3.09298E-05 2.85584E-06-1.26067E-19 8.66477E-19
 -1      2331 1.03277E-04-3.24385E-05-3.03746E-05 4.69477E-06-4.50458E-20 7.81006E-19
 -1      2332 1.06604E-04-3.42256E-05-3.10008E-05 1.84157E-06 2.12552E-20 1.15971E-19
 -1      2333 1.07175E-04-3.48635E-05-3.10424E-05 6.08792E-07 2.77436E-21 6.23549E-19
 -1      2334 1.05401E-04-3.42532E-05-3.05077E-05 3.18510E-06-1.07410E-19 7.08586E-19
 -1      2335 1.08326E-04-3.56503E-05-3.11326E-05-9.90118E-07 1.17116E-19 4.65966E-19
 -1      2336 1.08551E-04-3.60195E-05-3.11415E-05-2.64596E-06 2.44151E-19 5.89192E-19
 -1      2337 1.07722E-04-3.61688E-05-3.06760E-05 5.45169E-07-1.09318E-19-4.20410E-20
 -1      2338 1.09436E-04-3.64349E-05-3.12891E-05-4.72815E-06 4.77406E-19 3.96418E-19
 -1      2339 1.09101E-04-3.61887E-05-3.12884E-05-6.52914E-06 3.18402E-19 7.97270E-19
 -1      2340 1.09819E-04-3.75729E-05-3.09557E-05-3.24663E-06 2.91879E-19-3.17910E-19
 -1      2341 1.09292E-04-3.57938E-05-3.15314E-05-8.64374E-06-2.05276E-19 1.25160E-18
 -1      2342 1.08261E-04-3.46387E-05-3.15513E-05-1.00140E-05 2.22783E-19 1.45820E-18
 -1      2343 1.10947E-04-3.75114E-05-3.14387E-05-7.68942E-06 3.92806E-19 4.30116E-19
 -1      2344 1.07435E-04-3.31674E-05-3.18967E-05-1.12936E-05-2.42680E-19 1.84450E-18
 -1      2345 1.05855E-04-3.11840E-05-3.19504E-05-1.14868E-05-5.48594E-19 1.30989E-18
 -1      2346 1.10297E-04-3.51017E-05-3.21769E-05-1.14465E-05 2.40890E-19 1.33398E-18
 -1      2347 1.04206E-04-2.89719E-05-3.23242E-05-1.09364E-05-3.34684E-19 1.16129E-18
 -1      2348 1.02621E-04-2.69075E-05-3.23776E-05-9.45077E-06-4.31226E-19 8.50977E-19
 -1      2349 1.07694E-04-3.04361E-05-3.30896E-05-1.24973E-05-5.87573E-19 1.23998E-18
 -1      2350 1.01124E-04-2.50958E-05-3.26222E-05-6.78711E-06-1.19554E-18 8.54712E-19
 -1      2351 1.00263E-04-2.40649E-05-3.26150E-05-3.95153E-06-1.89987E-18 4.38003E-19
 -1      2352 1.04355E-04-2.53784E-05-3.38818E-05-9.23562E-06-1.08376E-18 8.84736E-19
 -1      2353 1.00020E-04-2.38785E-05-3.25932E-05-1.99492E-07-9.46361E-19 2.78866E-19
 -1      2354 1.00292E-04-2.45392E-05-3.24915E-05 2.75068E-06-7.59564E-19 1.02392E-19
 -1      2355 1.02497E-04-2.28722E-05-3.41874E-05-2.34188E-06-1.84073E-18 1.52863E-18
 -1      2356 1.01415E-04-2.60955E-05-3.21951E-05 5.69289E-06-8.75925E-19-1.09792E-19
 -1      2357 1.02517E-04-2.79646E-05-3.20263E-05 7.43726E-06-5.79924E-19 2.14243E-19
 -1      2358 1.03458E-04-2.46209E-05-3.38209E-05 4.87937E-06-1.05074E-18 1.05016E-18
 -1      2359 1.04024E-04-3.01766E-05-3.15781E-05 8.31951E-06-7.78961E-19 5.75910E-19
 -1      2360 1.05248E-04-3.21344E-05-3.14057E-05 8.33748E-06-5.23198E-19 8.25774E-19
 -1      2361 1.06261E-04-2.93704E-05-3.29280E-05 8.83879E-06-4.43948E-19 1.20474E-18
 -1      2362 1.06022E-04-3.37157E-05-3.09750E-05 7.25396E-06-5.15195E-19 3.61774E-19
 -1      2363 1.06752E-04-3.48999E-05-3.08376E-05 5.97717E-06 9.19003E-19 3.03418E-19
 -1      2364 1.08691E-04-3.42309E-05-3.18734E-05 8.33072E-06-6.44309E-19 1.37348E-18
 -1      2365 1.06472E-04-3.53638E-05-3.05081E-05 3.88119E-06 2.64053E-18-4.41596E-19
 -1      2366 1.06490E-04-3.55564E-05-3.04051E-05 2.09510E-06 2.76070E-18-2.87488E-19
 -1      2367 1.09220E-04-3.68667E-05-3.09720E-05 4.78249E-06 1.20740E-18 7.29395E-19
 -1      2368 1.05404E-04-3.50679E-05-3.01984E-05-1.86482E-08 2.00316E-18-6.65122E-19
 -1      2369 1.04823E-04-3.45158E-05-3.01122E-05-1.63641E-06 1.83087E-18-7.80179E-19
 -1      2370 1.07805E-04-3.69529E-05-3.03543E-05 3.01671E-07 1.72134E-18-2.43861E-20
 -1      2371 1.03367E-04-3.34977E-05-2.99980E-05-3.17307E-06 9.05956E-19-1.41818E-18
 -1      2372 1.02419E-04-3.25527E-05-2.99116E-05-4.22452E-06-7.58122E-19-6.57072E-19
 -1      2373 1.05191E-04-3.51906E-05-3.00090E-05-3.46854E-06 3.80941E-19-5.80741E-19
 -1      2374 1.00919E-04-3.13567E-05-2.98530E-05-4.96629E-06-8.44849E-19-3.73262E-19
 -1      2375 9.98261E-05-3.03158E-05-2.97649E-05-5.29026E-06-8.08261E-19 2.73590E-20
 -1      2376 1.02184E-04-3.25645E-05-2.98507E-05-5.75662E-06-6.03059E-19-3.10729E-19
 -1      2377 9.33322E-05-2.76896E-05-2.81252E-05-4.04037E-07 4.81285E-19-1.11523E-18
 -1      2378 9.34112E-05-2.75848E-05-2.81869E-05-1.18689E-07 7.85063E-19-8.38856E-19
 -1      2379 9.32795E-05-2.78536E-05-2.80350E-05-8.10155E-07 5.61854E-19-1.26207E-18
 -1      2380 9.32354E-05-2.77628E-05-2.80466E-05-6.71039E-07 4.15761E-19-1.10765E-18
 -1      2381 9.40052E-05-2.78070E-05-2.83819E-05-4.36466E-07 5.85087E-19-1.18956E-18
 -1      2382 9.33720E-05-2.79885E-05-2.80184E-05-9.86254E-07 8.24687E-19-1.19903E-18
 -1      2383 9.32600E-05-2.79082E-05-2.80015E-05-9.35215E-07 7.97509E-19-1.11072E-18
 -1      2384 9.39175E-05-2.80159E-05-2.82517E-05-8.84004E-07 6.29766E-19-1.29942E-18
 -1      2385 9.35455E-05-2.81026E-05-2.80450E-05-1.02240E-06 4.84842E-19-1.06323E-18
 -1      2386 9.34017E-05-2.80323E-05-2.80129E-05-1.02380E-06 7.47796E-19-9.74226E-19
 -1      2387 9.39455E-05-2.81642E-05-2.81974E-05-1.08127E-06 6.59478E-19-1.18667E-18
 -1      2388 9.37565E-05-2.81984E-05-2.80950E-05-9.77018E-07 1.69942E-19-1.01794E-18
 -1      2389 9.36033E-05-2.81383E-05-2.80562E-05-1.00792E-06 4.25082E-19-1.00868E-18
 -1      2390 9.40437E-05-2.82737E-05-2.81905E-05-1.12462E-06 4.23229E-19-8.89753E-19
 -1      2391 9.39771E-05-2.82777E-05-2.81561E-05-8.88989E-07 1.82848E-19-9.71048E-19
 -1      2392 9.38279E-05-2.82274E-05-2.81155E-05-9.34167E-07 2.11518E-19-9.85722E-19
 -1      2393 9.41788E-05-2.83553E-05-2.82121E-05-1.07800E-06 2.78715E-19-9.82952E-19
 -1      2394 9.41911E-05-2.83418E-05-2.82206E-05-7.84635E-07 2.63052E-19-1.20463E-18
 -1      2395 9.40527E-05-2.83007E-05-2.81811E-05-8.33802E-07 3.50843E-19-1.11455E-18
 -1      2396 9.43286E-05-2.84152E-05-2.82497E-05-9.84622E-07 3.62299E-19-1.08348E-18
 -1      2397 9.43910E-05-2.83926E-05-2.82845E-05-6.82030E-07 7.68490E-19-1.69442E-18
 -1      2398 9.42659E-05-2.83597E-05-2.82475E-05-7.28098E-07 6.92523E-19-1.32765E-18
 -1      2399 9.44796E-05-2.84580E-05-2.82955E-05-8.74037E-07 5.05648E-19-1.33426E-18
 -1      2400 9.45753E-05-2.84322E-05-2.83463E-05-5.93902E-07-4.41975E-20-1.50647E-18
 -1      2401 9.44627E-05-2.84062E-05-2.83119E-05-6.31822E-07 3.38149E-19-1.70553E-18
 -1      2402 9.46251E-05-2.84869E-05-2.83452E-05-7.66787E-07 5.33800E-19-1.51909E-18
 -1      2403 9.47468E-05-2.84631E-05-2.84063E-05-5.29689E-07-2.79527E-19-1.28013E-18
 -1      2404 9.46438E-05-2.84423E-05-2.83738E-05-5.55617E-07 4.14186E-20-1.29949E-18
 -1      2405 9.47633E-05-2.85048E-05-2.83967E-05-6.77549E-07-1.20669E-19-1.58939E-18
 -1      2406 9.49121E-05-2.84875E-05-2.84662E-05-4.97072E-07 1.26855E-19-1.67746E-18
 -1      2407 9.48138E-05-2.84704E-05-2.84342E-05-5.07737E-07-2.55259E-19-1.34606E-18
 -1      2408 9.48959E-05-2.85139E-05-2.84497E-05-6.17430E-07-9.24467E-20-1.43975E-18
 -1      2409 9.50805E-05-2.85084E-05-2.85288E-05-5.03161E-07 8.75208E-19-1.51795E-18
 -1      2410 9.49805E-05-2.84931E-05-2.84956E-05-4.95375E-07 4.64959E-19-1.52116E-18
 -1      2411 9.50275E-05-2.85162E-05-2.85054E-05-5.95678E-07 2.44734E-19-1.49555E-18
 -1      2412 9.52638E-05-2.85284E-05-2.85979E-05-5.55410E-07 5.07924E-19-9.70815E-19
 -1      2413 9.51543E-05-2.85130E-05-2.85611E-05-5.25681E-07 9.54247E-19-8.84898E-19
 -1      2414 9.51651E-05-2.85136E-05-2.85659E-05-6.20999E-07 5.80576E-19-7.98704E-19
 -1      2415 9.54765E-05-2.85509E-05-2.86783E-05-6.62314E-07 4.83934E-19-9.47669E-19
 -1      2416 9.53481E-05-2.85330E-05-2.86351E-05-6.06552E-07 6.73395E-19-1.02353E-18
 -1      2417 9.53177E-05-2.85075E-05-2.86343E-05-7.02564E-07 3.07378E-19-2.72570E-19
 -1      2418 9.57356E-05-2.85795E-05-2.87757E-05-8.33900E-07-7.31648E-19-5.11983E-19
 -1      2419 9.55773E-05-2.85566E-05-2.87227E-05-7.47212E-07-8.38190E-20-7.84034E-19
 -1      2420 9.54962E-05-2.84996E-05-2.87147E-05-8.50747E-07 6.62330E-20-4.11234E-19
 -1      2421 9.60611E-05-2.86188E-05-2.88967E-05-1.08198E-06-4.98672E-19-1.21781E-18
 -1      2422 9.58599E-05-2.85876E-05-2.88301E-05-9.58580E-07-7.46765E-19-5.95551E-19
 -1      2423 9.57133E-05-2.84919E-05-2.88116E-05-1.07759E-06-5.96721E-19-1.02633E-19
 -1      2424 9.64760E-05-2.86744E-05-2.90487E-05-1.42005E-06 7.56227E-19-1.77282E-18
 -1      2425 9.62167E-05-2.86309E-05-2.89640E-05-1.25335E-06 4.45845E-19-1.48597E-18
 -1      2426 9.59836E-05-2.84867E-05-2.89304E-05-1.39698E-06 1.79862E-19-1.12009E-18
 -1      2427 9.70060E-05-2.87532E-05-2.92398E-05-1.86258E-06 2.20990E-19-1.77571E-18
 -1      2428 9.66717E-05-2.86924E-05-2.91321E-05-1.64560E-06 7.29928E-19-1.73989E-18
 -1      2429 9.63237E-05-2.84873E-05-2.90765E-05-1.82428E-06 6.55665E-19-1.29568E-18
 -1      2430 9.76800E-05-2.88650E-05-2.94783E-05-2.42338E-06-8.02081E-19-2.05617E-18
 -1      2431 9.72515E-05-2.87803E-05-2.93425E-05-2.14971E-06-2.62112E-19-1.68988E-18
 -1      2432 9.67520E-05-2.84992E-05-2.92557E-05-2.37531E-06 1.26130E-19-1.01826E-18
 -1      2433 9.85291E-05-2.90235E-05-2.97719E-05-3.11213E-06-7.37648E-19-2.50334E-18
 -1      2434 9.79860E-05-2.89059E-05-2.96031E-05-2.77789E-06-1.14107E-18-2.24735E-18
 -1      2435 9.72891E-05-2.85312E-05-2.94728E-05-3.06401E-06-6.57158E-19-1.88677E-18
 -1      2436 9.95860E-05-2.92494E-05-3.01262E-05-3.92811E-06-5.42033E-19-2.29645E-18
 -1      2437 9.89076E-05-2.90860E-05-2.99205E-05-3.53554E-06-5.60145E-19-2.43388E-18
 -1      2438 9.79581E-05-2.85989E-05-2.97312E-05-3.89809E-06-8.65881E-19-2.84853E-18
 -1      2439 1.00884E-04-2.95745E-05-3.05426E-05-4.84913E-06-2.56767E-19-1.63421E-18
 -1      2440 1.00051E-04-2.93471E-05-3.02984E-05-4.41291E-06-4.33699E-19-1.90034E-18
 -1      2441 9.87865E-05-2.87295E-05-3.00309E-05-4.87133E-06-1.00318E-18-1.94090E-18
 -1      2442 1.02455E-04-3.00496E-05-3.10146E-05-5.81356E-06-2.05987E-19-1.23031E-18
 -1      2443 1.01455E-04-2.97309E-05-3.07351E-05-5.37102E-06-1.12200E-19-1.35382E-18
 -1      2444 9.98099E-05-2.89712E-05-3.03669E-05-5.95082E-06-4.66211E-19-1.88899E-18
 -1      2445 1.04331E-04-3.07525E-05-3.15243E-05-6.69307E-06-8.17142E-19-5.94724E-19
 -1      2446 1.03161E-04-3.03039E-05-3.12197E-05-6.31920E-06-5.13457E-19-1.04789E-18
 -1      2447 1.01080E-04-2.94054E-05-3.07269E-05-7.05676E-06-4.40424E-19-1.52683E-18
 -1      2448 1.06543E-04-3.17948E-05-3.20387E-05-7.25659E-06-5.37061E-19 1.63299E-19
 -1      2449 1.05218E-04-3.11669E-05-3.17296E-05-7.08255E-06-4.05406E-19-2.69418E-19
 -1      2450 1.02675E-04-3.01628E-05-3.10898E-05-8.03286E-06-9.62033E-19-1.19614E-18
 -1      2451 1.09105E-04-3.33085E-05-3.25103E-05-7.13382E-06 2.60837E-19-1.09140E-18
 -1      2452 1.07678E-04-3.24548E-05-3.22283E-05-7.36122E-06 2.35535E-19-1.65304E-19
 -1      2453 1.04719E-04-3.14316E-05-3.14286E-05-8.60700E-06-8.79247E-20-1.33075E-18
 -1      2454 1.11987E-04-3.53780E-05-3.28878E-05-5.80855E-06 7.15730E-19-1.54141E-18
 -1      2455 1.10574E-04-3.43013E-05-3.26718E-05-6.69825E-06 4.83047E-19-1.03335E-18
 -1      2456 1.07374E-04-3.34291E-05-3.17204E-05-8.35010E-06 5.71019E-19-1.26591E-18
 -1      2457 1.15010E-04-3.78719E-05-3.31447E-05-2.72421E-06-6.45638E-19-1.14078E-18
 -1      2458 1.13832E-04-3.67163E-05-3.30257E-05-4.51299E-06-8.93454E-20-7.25219E-19
 -1      2459 1.10781E-04-3.62730E-05-3.19707E-05-6.66967E-06-9.54732E-20-7.05222E-19
 -1      2460 1.17682E-04-4.01407E-05-3.33323E-05 2.42731E-06-1.27876E-19-6.69656E-19
 -1      2461 1.17126E-04-3.93535E-05-3.33060E-05-2.78906E-07-2.24391E-19-1.02362E-18
 -1      2462 1.14885E-04-3.97144E-05-3.22534E-05-2.93793E-06-7.81342E-19 4.90441E-19
 -1      2463 1.18933E-04-4.06213E-05-3.36318E-05 9.10016E-06-3.13826E-19 2.05793E-19
 -1      2464 1.19560E-04-4.10872E-05-3.36299E-05 6.02315E-06-7.24187E-19-7.44420E-19
 -1      2465 1.19117E-04-4.26920E-05-3.27733E-05 3.28042E-06-5.69008E-19 1.04493E-18
 -1      2466 1.17477E-04-3.76156E-05-3.42435E-05 1.46683E-05 7.22761E-19 1.26938E-18
 -1      2467 1.19494E-04-3.98934E-05-3.41923E-05 1.26676E-05 4.08224E-19 1.13162E-18
 -1      2468 1.21651E-04-4.26049E-05-3.38437E-05 1.09658E-05-3.99683E-19 8.24573E-19
 -1      2469 1.13101E-04-3.08739E-05-3.51843E-05 1.54273E-05-1.18759E-18 2.40493E-18
 -1      2470 1.16078E-04-3.46619E-05-3.50511E-05 1.62343E-05 2.77390E-19 1.41730E-18
 -1      2471 1.20794E-04-3.78300E-05-3.55730E-05 1.68768E-05 2.23656E-19 1.12016E-18
 -1      2472 1.08471E-04-2.45109E-05-3.60181E-05 8.42636E-06-1.31814E-18 1.16312E-18
 -1      2473 1.10564E-04-2.72467E-05-3.59296E-05 1.23370E-05-1.43921E-18 1.90736E-18
 -1      2474 1.16050E-04-2.82459E-05-3.76733E-05 1.60389E-05-6.60342E-19 1.36571E-18
 -1      2475 1.07492E-04-2.38866E-05-3.60597E-05-2.97092E-06-1.73459E-18 1.73479E-18
 -1      2476 1.07426E-04-2.32903E-05-3.61876E-05 1.88346E-06-1.44046E-18 1.36368E-18
 -1      2477 1.12219E-04-2.20614E-05-3.86654E-05 6.00927E-06-1.51619E-18 1.80593E-18
 -1      2478 1.11213E-04-2.95362E-05-3.52128E-05-1.16134E-05-9.19944E-19-5.58737E-19
 -1      2479 1.09157E-04-2.61914E-05-3.55110E-05-8.75336E-06-1.79841E-18-1.60192E-19
 -1      2480 1.12552E-04-2.34151E-05-3.82519E-05-7.10320E-06-4.41013E-19 2.72076E-19
 -1      2481 1.15427E-04-3.64319E-05-3.39914E-05-1.23157E-05-1.09115E-18 3.29926E-19
 -1      2482 1.13241E-04-3.32199E-05-3.42636E-05-1.27605E-05-5.03826E-19-3.85400E-20
 -1      2483 1.16950E-04-3.17970E-05-3.65182E-05-1.36822E-05-9.75755E-19-1.10141E-18
 -1      2484 1.16704E-04-3.99106E-05-3.29518E-05-7.03815E-06-7.28137E-19-2.06685E-19
 -1      2485 1.15754E-04-3.85214E-05-3.31398E-05-9.64697E-06-9.29499E-19 1.00251E-19
 -1      2486 1.19725E-04-3.97299E-05-3.42671E-05-1.14220E-05-6.10042E-19-3.14660E-19
 -1      2487 1.14734E-04-3.94709E-05-3.22394E-05-1.07241E-07 1.14705E-18-6.09544E-19
 -1      2488 1.15176E-04-3.97938E-05-3.23951E-05-3.12123E-06 4.13319E-19-1.81298E-19
 -1      2489 1.18528E-04-4.25158E-05-3.25730E-05-4.20582E-06 2.21780E-19-1.82381E-18
 -1      2490 1.10938E-04-3.68649E-05-3.17125E-05 5.50198E-06 2.09132E-18-1.78678E-19
 -1      2491 1.12334E-04-3.80842E-05-3.19150E-05 3.18809E-06 1.68069E-18 5.08298E-19
 -1      2492 1.14456E-04-4.08605E-05-3.15750E-05 3.23707E-06 9.31885E-19-4.78437E-19
 -1      2493 1.06673E-04-3.37124E-05-3.12341E-05 8.73358E-06 1.92300E-18-3.92749E-19
 -1      2494 1.08520E-04-3.51695E-05-3.15044E-05 7.48519E-06 1.36007E-18 1.09036E-19
 -1      2495 1.09476E-04-3.71496E-05-3.10446E-05 8.46917E-06 2.00143E-18-2.87229E-19
 -1      2496 1.02646E-04-3.07688E-05-3.07681E-05 9.62567E-06 2.26425E-18-5.13421E-19
 -1      2497 1.04577E-04-3.21672E-05-3.10726E-05 9.41983E-06 2.62916E-18 4.07271E-20
 -1      2498 1.04831E-04-3.31986E-05-3.07414E-05 1.10198E-05 1.98311E-18-1.09746E-18
 -1      2499 9.91076E-05-2.82215E-05-3.03457E-05 8.52944E-06 4.46590E-19-1.16790E-19
 -1      2500 1.00900E-04-2.94567E-05-3.06337E-05 9.22419E-06 1.20840E-18 5.26749E-21
 -1      2501 1.00906E-04-2.96897E-05-3.05483E-05 1.11916E-05 1.90168E-18 2.70750E-19
 -1      2502 9.76442E-05-2.71258E-05-3.02163E-05 7.17292E-06 1.16675E-19-3.64462E-19
 -1      2503 8.82192E-05-1.56819E-05-3.11620E-05 1.02499E-05 1.20829E-18-1.05623E-18
 -1      2504 8.96898E-05-1.73045E-05-3.09951E-05 1.16050E-05 9.73113E-19-3.59571E-18
 -1      2505 8.58809E-05-1.31331E-05-3.12501E-05 5.80286E-06 7.42731E-19-4.78709E-19
 -1      2506 8.68583E-05-1.41757E-05-3.11488E-05 8.07435E-06 6.76814E-19-1.56929E-19
 -1      2507 8.68701E-05-1.65244E-05-3.01176E-05 1.04896E-05 2.49790E-18-1.00068E-18
 -1      2508 9.41953E-05-2.24273E-05-3.07799E-05 1.24897E-05 1.16610E-18 1.45770E-18
 -1      2509 9.55526E-05-2.41697E-05-3.05569E-05 1.19113E-05 7.53076E-19 1.56552E-18
 -1      2510 9.12717E-05-1.90633E-05-3.09982E-05 1.24966E-05 7.90752E-20-3.59543E-18
 -1      2511 9.27943E-05-2.08588E-05-3.07923E-05 1.27994E-05 7.93084E-19-7.86516E-19
 -1      2512 9.41572E-05-2.33861E-05-3.03381E-05 1.42112E-05 8.19571E-19-5.84462E-19
 -1      2513 9.04635E-05-1.99258E-05-3.02321E-05 1.36836E-05 1.70861E-18-2.88839E-18
 -1      2514 8.51290E-05-1.22727E-05-3.12689E-05 3.04884E-08-2.46605E-19 9.02351E-19
 -1      2515 8.52600E-05-1.24462E-05-3.12434E-05 2.72378E-06 1.16610E-19 4.66130E-19
 -1      2516 8.44508E-05-1.42272E-05-3.00335E-05 4.87073E-06 6.23556E-19-8.14194E-19
 -1      2517 8.62731E-05-1.34337E-05-3.12237E-05-5.60191E-06-2.84806E-18 1.14030E-18
 -1      2518 8.55148E-05-1.26985E-05-3.12775E-05-3.16358E-06-2.17113E-18 1.00868E-18
 -1      2519 8.41609E-05-1.39501E-05-3.00230E-05-1.88852E-06-1.12146E-18-4.01345E-19
 -1      2520 8.88360E-05-1.62052E-05-3.11057E-05-9.69406E-06-2.21093E-18-6.26493E-19
 -1      2521 8.74949E-05-1.47970E-05-3.12363E-05-8.06863E-06-2.71587E-18 1.54766E-18
 -1      2522 8.61149E-05-1.58190E-05-3.00851E-05-7.96611E-06-2.49347E-18 1.14111E-18
 -1      2523 9.18123E-05-1.96197E-05-3.09057E-05-1.15267E-05-6.74645E-19-1.76854E-18
 -1      2524 9.03703E-05-1.79533E-05-3.10985E-05-1.09241E-05-1.62652E-18-2.04953E-18
 -1      2525 8.94781E-05-1.90657E-05-3.01696E-05-1.18684E-05-1.57885E-18-7.05535E-19
 -1      2526 9.44294E-05-2.29049E-05-3.06206E-05-1.12914E-05 6.39480E-19 4.91660E-20
 -1      2527 9.32111E-05-2.12778E-05-3.08586E-05-1.15715E-05 3.07157E-19-2.52552E-18
 -1      2528 9.30309E-05-2.25913E-05-3.02087E-05-1.31440E-05-2.15869E-20-1.81528E-18
 -1      2529 9.61746E-05-2.54644E-05-3.02839E-05-9.61714E-06 8.23878E-19 1.06030E-18
 -1      2530 9.53599E-05-2.41195E-05-3.05319E-05-1.04589E-05 2.57117E-19 1.74494E-18
 -1      2531 9.58626E-05-2.55477E-05-3.01629E-05-1.22181E-05-8.76402E-20-1.72976E-20
 -1      2532 9.70541E-05-2.71494E-05-2.99385E-05-7.27809E-06-3.14462E-19-1.19066E-18
 -1      2533 9.66241E-05-2.61711E-05-3.01688E-05-8.34493E-06 5.14733E-19-8.08198E-19
 -1      2534 9.75743E-05-2.75035E-05-3.00280E-05-9.96732E-06-1.03101E-19-5.45534E-19
 -1      2535 2.82338E-05-2.34027E-05-1.78169E-06 2.18186E-05-7.78529E-19-6.24602E-18
 -1      2536 2.13768E-05-2.10771E-05 1.46195E-07 6.87989E-06-1.97041E-19-4.71459E-18
 -1      2537 1.00590E-04-5.63846E-05-1.90665E-05 4.32177E-05-4.43761E-18 1.50587E-18
 -1      2538 8.21972E-05-5.11005E-05-1.31918E-05 4.37418E-05-3.41862E-18-1.85977E-19
 -1      2539 9.36167E-05-2.74705E-05-2.83368E-05 3.75836E-07 1.10185E-18-8.23275E-19
 -1      2540 9.39001E-05-2.73350E-05-2.84841E-05 9.09180E-07 1.43591E-18-5.32289E-19
 -1      2541 9.42624E-05-2.74883E-05-2.86311E-05 4.10361E-07 1.13192E-18-1.06976E-18
 -1      2542 9.66248E-05-2.74166E-05-2.96741E-05-4.77030E-06 5.59725E-19 2.50298E-19
 -1      2543 2.05819E-05-2.13700E-05 5.48275E-07-7.35127E-06 2.00482E-19-2.03373E-18
 -1      2544 2.67825E-05-2.42845E-05-8.44575E-07-2.20310E-05 1.42894E-18-4.73491E-19
 -1      2545 6.05200E-05-4.14280E-05-8.15716E-06 4.38153E-05-1.63731E-18-2.69822E-18
 -1      2546 4.27949E-05-3.26660E-05-4.03431E-06 3.52281E-05-8.95737E-19-5.32064E-18
 -1      2547 9.50701E-05-2.00236E-05-3.22113E-05-1.17380E-05-2.77299E-18-4.30213E-19
 -1      2548 9.54714E-05-2.33864E-05-3.09248E-05-7.98474E-06-2.54416E-18-2.53306E-19
 -1      2549 9.50651E-05-2.25356E-05-3.10515E-05-7.66870E-06-2.46398E-18-9.18779E-19
 -1      2550 9.32162E-05-1.75772E-05-3.24142E-05-1.13682E-05-2.79857E-18-1.22943E-18
 -1      2551 1.14406E-04-5.96763E-05-2.35175E-05-3.62593E-05 1.33429E-18-1.93092E-18
 -1      2552 1.30499E-04-6.02417E-05-3.03076E-05-2.78723E-05 2.03754E-18-1.52529E-18
 -1      2553 2.18414E-05-1.85443E-05-1.04833E-06 1.37016E-05 8.10928E-19 3.11708E-19
 -1      2554 1.97133E-05-1.81775E-05-2.30475E-07-2.64249E-06 8.47456E-19-2.48096E-18
 -1      2555 1.47544E-04-5.00108E-05-4.18903E-05 1.10345E-06 2.00466E-18-2.38990E-18
 -1      2556 1.51840E-04-4.16729E-05-4.77535E-05 6.48585E-06 2.14066E-18-2.86911E-18
 -1      2557 1.44885E-04-1.48647E-05-5.65008E-05-4.16355E-06 1.44250E-18-3.01798E-18
 -1      2558 1.50454E-04-2.24929E-05-5.52482E-05-5.51690E-06 4.98691E-19-4.79336E-18
 -1      2559 8.78455E-05-1.08023E-05-3.30542E-05-1.51926E-06-4.91364E-19-3.56090E-18
 -1      2560 8.79507E-05-1.09244E-05-3.30454E-05-2.63870E-06-7.79025E-19-3.43120E-18
 -1      2561 8.93499E-05-1.30969E-05-3.26818E-05-2.93171E-06-8.58014E-19-3.15054E-18
 -1      2562 8.91020E-05-1.27624E-05-3.27202E-05-9.41521E-07-4.05146E-19-3.40248E-18
 -1      2563 1.44845E-04-1.51267E-05-5.61628E-05 8.58117E-06 2.90193E-18-3.28797E-18
 -1      2564 1.43434E-04-1.18569E-05-5.70783E-05 2.93851E-06 3.04170E-18-3.63091E-18
 -1      2565 1.26449E-04-6.08801E-05-2.79501E-05-2.27516E-05 3.26955E-19-4.44417E-18
 -1      2566 1.41725E-04-5.90719E-05-3.59025E-05-1.28296E-05 1.30814E-18-2.47778E-18
 -1      2567 1.50927E-04-3.06394E-05-5.19521E-05 9.79705E-06 2.31812E-18-3.37564E-18
 -1      2568 1.50021E-04-2.27868E-05-5.50704E-05 9.82477E-06 2.34967E-18-3.05165E-18
 -1      2569 2.40569E-05-2.24166E-05-4.94726E-07-1.79094E-05 4.85879E-19-4.37238E-18
 -1      2570 3.52401E-05-2.92811E-05-2.44928E-06-3.04275E-05 2.41828E-19-4.83381E-18
 -1      2571 9.31728E-05-5.37921E-05-1.65517E-05-3.81047E-05-3.49401E-19-5.82839E-18
 -1      2572 1.08615E-04-5.86466E-05-2.17078E-05-3.55996E-05-5.39984E-20-6.18570E-18
 -1      2573 1.19499E-04-5.77071E-05-2.67050E-05 3.30776E-05 1.35271E-18-9.36607E-19
 -1      2574 1.03802E-04-5.58229E-05-2.04348E-05 3.70350E-05 1.34022E-18-1.21337E-19
 -1      2575 5.08203E-05-3.72025E-05-5.66644E-06-3.62955E-05 4.19281E-20-4.89162E-18
 -1      2576 7.11190E-05-4.46289E-05-1.13567E-05-4.16163E-05 2.92226E-19-5.31767E-18
 -1      2577 4.30583E-05-3.00962E-05-5.17376E-06 3.67308E-05 5.74500E-19 3.17066E-18
 -1      2578 3.14105E-05-2.41214E-05-2.67200E-06 2.66597E-05 4.92126E-19 2.58260E-18
 -1      2579 1.42781E-04-5.27754E-05-3.88664E-05 1.42393E-05 2.59271E-18-2.29567E-18
 -1      2580 1.31951E-04-5.64921E-05-3.24349E-05 2.13235E-05 2.30986E-18-1.51344E-18
 -1      2581 1.49427E-04-3.73348E-05-4.84540E-05-2.61687E-06 1.63414E-18 4.61209E-19
 -1      2582 1.46887E-04-4.56631E-05-4.35709E-05 4.62030E-06 2.08280E-18-1.28516E-18
 -1      2583 1.43136E-04-5.17193E-05-3.91351E-05 3.11319E-06 2.14434E-18-1.51322E-18
 -1      2584 1.52222E-04-1.82816E-05-5.75902E-05-5.12395E-06-2.39287E-20 1.25424E-18
 -1      2585 1.48545E-04-2.44093E-05-5.35378E-05-5.93217E-06 2.66604E-19 8.79432E-19
 -1      2586 1.47712E-04-1.03578E-05-5.93349E-05-1.89203E-06-2.83756E-20 5.76578E-19
 -1      2587 1.50335E-04-1.27945E-05-5.92034E-05-3.83054E-06 2.08794E-19 8.34751E-19
 -1      2588 1.43667E-04-1.84788E-05-5.41841E-05 5.75797E-06-7.66353E-19 2.95191E-19
 -1      2589 1.44294E-04-1.33713E-05-5.66590E-05 3.07113E-06-4.30928E-19 9.21678E-19
 -1      2590 1.49334E-04-3.84650E-05-4.78023E-05 7.46263E-08 2.93920E-19-2.79627E-18
 -1      2591 1.49521E-04-2.95132E-05-5.19959E-05 3.90456E-06-8.10187E-19-1.43530E-18
 -1      2592 1.41483E-04-5.52547E-05-3.70512E-05-1.48079E-05 2.55460E-18-1.70465E-18
 -1      2593 1.49093E-04-4.79952E-05-4.35398E-05-8.00372E-06 1.34764E-18-2.54872E-18
 -1      2594 1.45281E-04-4.47598E-05-4.31753E-05 2.42599E-06 1.09029E-18-1.54499E-18
 -1      2595 8.49495E-05-5.11682E-05-1.42594E-05-4.43291E-05 2.42082E-18-2.78388E-18
 -1      2596 1.01361E-04-5.61436E-05-1.92772E-05-4.33917E-05 1.27881E-18-3.22884E-18
 -1      2597 1.14344E-04-6.03045E-05-2.29534E-05-3.63096E-05 6.11346E-19-1.09055E-18
 -1      2598 1.54142E-04-3.16609E-05-5.28801E-05-3.45982E-06 3.28649E-19-5.44494E-18
 -1      2599 1.50958E-04-4.06377E-05-4.77629E-05-1.72451E-06-1.08918E-18-4.89352E-18
 -1      2600 1.47107E-04-4.77035E-05-4.27504E-05-3.70565E-06-1.78078E-18-4.45370E-18
 -1      2601 1.42267E-04-2.75064E-05-4.92416E-05-1.00811E-05-6.75509E-19-4.97187E-18
 -1      2602 9.63316E-05-2.50947E-05-3.05560E-05 7.59676E-06 2.39382E-18-2.62944E-20
 -1      2603 9.74537E-05-2.37782E-05-3.15966E-05 1.06962E-05 2.60839E-18 2.94582E-19
 -1      2604 9.58881E-05-2.13029E-05-3.20210E-05 1.18983E-05 2.76485E-18-6.09189E-19
 -1      2605 9.58763E-05-2.41609E-05-3.07684E-05 7.68871E-06 2.38389E-18-8.47535E-19
 -1      2606 1.32621E-04-6.08621E-05-3.11181E-05 2.78886E-05-3.60751E-18-2.72978E-18
 -1      2607 1.16773E-04-6.00421E-05-2.43094E-05 3.49116E-05-3.80318E-18-1.05964E-18
 -1      2608 1.14442E-04-6.07405E-05-2.27658E-05 3.62712E-05-4.56530E-18-1.87406E-18
 -1      2609 9.08096E-05-1.50674E-05-3.24569E-05-6.79641E-06-1.92131E-18-2.68576E-18
 -1      2610 8.97066E-05-1.32056E-05-3.28434E-05-7.97069E-06-2.04409E-18-2.85402E-18
 -1      2611 9.04044E-05-1.40320E-05-3.27966E-05-9.14656E-06-2.34069E-18-2.61789E-18
 -1      2612 9.47290E-05-2.69385E-05-2.90656E-05 1.89015E-06 1.61677E-18-9.41423E-19
 -1      2613 9.42442E-05-1.90814E-05-3.22578E-05 1.16076E-05 2.63626E-18-1.57306E-18
 -1      2614 1.39357E-04-6.14377E-05-3.33096E-05 1.60878E-05-3.31868E-18-3.32376E-18
 -1      2615 1.37679E-04-6.04742E-05-3.32191E-05-1.83204E-05 1.08346E-18-8.76044E-19
 -1      2616 1.39801E-04-5.77381E-05-3.55100E-05-7.71499E-06 5.20528E-20-7.72812E-19
 -1      2617 1.31698E-04-6.19836E-05-2.96129E-05-2.14751E-05-3.13826E-19 5.04355E-19
 -1      2618 1.38375E-04-2.37890E-05-4.92939E-05 8.75527E-06-5.32572E-19 1.96194E-19
 -1      2619 1.34118E-04-1.01022E-05-5.35132E-05 2.36143E-06-5.95041E-19 1.26737E-18
 -1      2620 3.78413E-05-2.08901E-05-6.64160E-06-2.34919E-05 1.45764E-18-1.97020E-18
 -1      2621 3.73495E-05-2.70438E-05-4.00171E-06-2.91938E-05 2.31473E-18 1.77877E-19
 -1      2622 4.91945E-05-2.96614E-05-8.13000E-06-3.51700E-05 2.94164E-18-1.83298E-18
 -1      2623 1.45773E-04-3.20656E-05-4.90865E-05-8.25310E-06 4.06364E-19 1.40247E-18
 -1      2624 1.40463E-04-3.77633E-05-4.41341E-05-9.78934E-06 1.63266E-18 1.08590E-18
 -1      2625 1.37703E-04-2.55695E-05-4.86336E-05-1.29937E-05 1.04185E-18 2.44814E-18
 -1      2626 9.76629E-05-2.67994E-05-3.03651E-05 9.32509E-06 1.41798E-19 1.73799E-19
 -1      2627 9.70137E-05-2.57999E-05-3.05239E-05 1.04236E-05 6.67820E-19 7.70777E-19
 -1      2628 2.80072E-05-1.77669E-05-3.83684E-06-4.54950E-07-3.48819E-19-4.41474E-18
 -1      2629 3.99259E-05-2.65246E-05-5.27303E-06 2.90499E-05-1.25551E-18-6.78982E-18
 -1      2630 3.94159E-05-2.01604E-05-7.66811E-06 2.23766E-05-1.41312E-18-7.02190E-18
 -1      2631 5.25991E-05-2.92152E-05-9.68756E-06 3.43581E-05-2.55772E-18-6.58250E-18
 -1      2632 7.78600E-05-4.67405E-05-1.30765E-05 4.33520E-05-2.96292E-18-2.47567E-18
 -1      2633 5.75020E-05-3.51995E-05-9.21528E-06 3.85704E-05 7.13202E-19 2.64094E-18
 -1      2634 5.02776E-05-3.11958E-05-7.67263E-06-3.36381E-05 2.68086E-19-5.18299E-18
 -1      2635 9.47147E-05-2.06034E-05-3.17176E-05 9.67490E-06 2.40084E-18-1.67431E-18
 -1      2636 3.30478E-05-1.91035E-05-5.40254E-06 1.94888E-05 9.98652E-19 9.61382E-19
 -1      2637 1.29455E-04-6.01333E-05-2.95365E-05 2.19556E-05 1.34869E-18-1.42566E-18
 -1      2638 2.87900E-05-1.78070E-05-4.15316E-06-1.07463E-05 1.12253E-18-3.50058E-18
 -1      2639 8.54137E-05-4.84380E-05-1.54125E-05-3.86546E-05-5.66665E-19-5.39676E-18
 -1      2640 1.45202E-04-3.71125E-05-4.66097E-05 1.38717E-05 1.35314E-18-1.93843E-18
 -1      2641 1.43431E-04-5.60942E-05-3.74471E-05-2.40641E-07 2.88415E-19-1.23497E-18
 -1      2642 9.20854E-05-1.62847E-05-3.25214E-05-1.03796E-05-2.64288E-18-1.85599E-18
 -1      2643 9.64943E-05-5.32082E-05-1.81281E-05 3.99016E-05 1.25022E-18 5.55892E-19
 -1      2644 1.22330E-04-6.12227E-05-2.59873E-05-2.46708E-05-8.31786E-19-3.02571E-18
 -1      2645 1.37708E-04-1.72506E-05-5.15927E-05 1.18848E-05 2.48181E-18-2.80611E-18
 -1      2646 9.79388E-05-2.87036E-05-2.96458E-05-5.00407E-06 7.50021E-19 7.91460E-19
 -1      2647 9.73986E-05-2.77396E-05-2.98365E-05-6.25081E-06 2.80583E-19 3.63230E-19
 -1      2648 9.84171E-05-2.87935E-05-2.98655E-05-7.51161E-06-9.27464E-19 3.71411E-19
 -1      2649 9.88738E-05-2.95433E-05-2.97431E-05-5.29234E-06-3.26424E-19 3.66841E-19
 -1      2650 1.39687E-04-1.31175E-05-5.44823E-05-7.67963E-06 5.88900E-19 1.31999E-18
 -1      2651 7.70764E-05-4.67763E-05-1.26643E-05-4.45980E-05 3.45547E-18-1.68951E-18
 -1      2652 9.25212E-05-5.12507E-05-1.75334E-05-4.20005E-05 1.99497E-18-2.10329E-19
 -1      2653 6.88771E-05-4.00546E-05-1.17345E-05-4.30698E-05 3.81461E-18-7.16590E-19
 -1      2654 9.76072E-05-2.66381E-05-3.04184E-05 1.23317E-05 6.22393E-19 1.32072E-18
 -1      2655 9.97152E-05-3.01638E-05-2.98031E-05-6.40076E-06-9.44419E-19 1.67161E-18
 -1      2656 1.32625E-04-1.24566E-05-5.17119E-05 5.45668E-07 2.21478E-18-5.55988E-18
 -1      2657 1.43850E-04-1.32005E-05-5.63923E-05-2.26504E-06 2.24210E-18-4.57943E-18
 -1      2658 9.05639E-05-1.51781E-05-3.23305E-05 3.19792E-06 5.60069E-19-3.46292E-18
 -1      2659 9.03740E-05-1.49067E-05-3.23633E-05 2.26336E-06 3.46017E-19-3.43770E-18
 -1      2660 9.02399E-05-1.47040E-05-3.23924E-05 1.42391E-06 1.68827E-19-3.42086E-18
 -1      2661 9.01750E-05-1.46118E-05-3.24035E-05 4.66185E-07-4.97595E-20-3.28588E-18
 -1      2662 9.14262E-05-1.65996E-05-3.20557E-05 1.64317E-06 2.62782E-19-3.25079E-18
 -1      2663 9.21428E-05-1.75539E-05-3.20046E-05 6.47908E-06 1.47662E-18-2.99485E-18
 -1      2664 9.16192E-05-1.67598E-05-3.21049E-05 5.63951E-06 1.24934E-18-3.05170E-18
 -1      2665 9.35626E-05-1.97789E-05-3.16641E-05 7.60160E-06 1.98679E-18-2.44620E-18
 -1      2666 9.27724E-05-1.85236E-05-3.18379E-05 7.02307E-06 1.68810E-18-2.69363E-18
 -1      2667 9.34372E-05-1.98697E-05-3.15061E-05 5.73974E-06 1.48167E-18-2.56805E-18
 -1      2668 9.52152E-05-2.54089E-05-2.99293E-05 3.98333E-06 1.79284E-18-1.43755E-18
 -1      2669 9.55522E-05-2.45589E-05-3.03934E-05 5.61619E-06 1.86352E-18-1.47973E-18
 -1      2670 4.26071E-05-1.98394E-05-9.29534E-06 2.51707E-05 6.03246E-19 1.85119E-18
 -1      2671 3.45034E-05-1.45088E-05-8.01415E-06 1.20746E-05 1.22095E-18-2.80791E-19
 -1      2672 1.09238E-04-5.71266E-05-2.20447E-05-3.60925E-05-5.00067E-19 1.83661E-19
 -1      2673 1.20413E-04-6.08914E-05-2.55652E-05-3.11590E-05-5.90276E-19 1.94143E-19
 -1      2674 1.33907E-04-1.50294E-05-5.11093E-05-7.57883E-06 1.46050E-18-5.76935E-18
 -1      2675 9.53554E-05-2.59048E-05-2.97369E-05-2.71310E-06-1.58802E-18-1.04817E-18
 -1      2676 9.51914E-05-2.64904E-05-2.94543E-05-1.72851E-06-1.43138E-18-1.00557E-18
 -1      2677 9.52149E-05-2.70072E-05-2.92084E-05-9.88603E-07-1.39069E-18-8.27468E-19
 -1      2678 9.50802E-05-2.73614E-05-2.90285E-05-3.84039E-07-1.21316E-18-9.29919E-19
 -1      2679 9.54161E-05-2.63324E-05-2.96127E-05-1.62850E-06-1.45085E-18-1.07822E-18
 -1      2680 9.50473E-05-2.76674E-05-2.88610E-05 8.21009E-08-1.02376E-18-9.79046E-19
 -1      2681 9.49690E-05-2.78916E-05-2.87504E-05 4.32311E-07-8.20453E-19-1.12352E-18
 -1      2682 9.54158E-05-2.73275E-05-2.91880E-05-3.50457E-07-1.22879E-18-1.12425E-18
 -1      2683 9.49269E-05-2.80766E-05-2.86399E-05 7.01021E-07-7.53117E-19-1.28869E-18
 -1      2684 9.48983E-05-2.82228E-05-2.85762E-05 8.83734E-07-7.80374E-19-1.44038E-18
 -1      2685 9.53553E-05-2.79422E-05-2.88981E-05 4.37797E-07-9.61868E-19-1.40703E-18
 -1      2686 9.48633E-05-2.83341E-05-2.85064E-05 1.01763E-06-7.16463E-19-1.32727E-18
 -1      2687 9.48700E-05-2.84302E-05-2.84741E-05 1.09260E-06-5.51194E-19-1.43994E-18
 -1      2688 9.52910E-05-2.83218E-05-2.87065E-05 8.78723E-07-7.97516E-19-1.57776E-18
 -1      2689 9.48457E-05-2.84944E-05-2.84330E-05 1.13851E-06-5.57600E-19-1.28533E-18
 -1      2690 9.48746E-05-2.85566E-05-2.84213E-05 1.14690E-06-5.25006E-19-1.14963E-18
 -1      2691 9.52417E-05-2.85515E-05-2.85856E-05 1.08482E-06-5.79913E-19-1.34817E-18
 -1      2692 9.48600E-05-2.85898E-05-2.84002E-05 1.13885E-06-3.52430E-19-1.24218E-18
 -1      2693 9.49013E-05-2.86279E-05-2.84018E-05 1.10918E-06-2.74167E-19-1.01603E-18
 -1      2694 9.52101E-05-2.86823E-05-2.85149E-05 1.14004E-06-4.05087E-19-9.87290E-19
 -1      2695 9.48942E-05-2.86404E-05-2.83944E-05 1.07155E-06-3.29602E-19-8.30845E-19
 -1      2696 9.49409E-05-2.86611E-05-2.84044E-05 1.02366E-06-1.20390E-19-7.81098E-19
 -1      2697 9.51935E-05-2.87466E-05-2.84793E-05 1.10541E-06-1.04469E-19-8.80261E-19
 -1      2698 9.49392E-05-2.86592E-05-2.84064E-05 9.73811E-07-2.09067E-19-7.77540E-19
 -1      2699 9.49875E-05-2.86672E-05-2.84216E-05 9.21620E-07-1.49854E-19-7.06736E-19
 -1      2700 9.51880E-05-2.87653E-05-2.84684E-05 1.02476E-06-1.79595E-19-1.05987E-18
 -1      2701 9.49896E-05-2.86552E-05-2.84302E-05 8.71941E-07-3.71235E-19-8.18710E-19
 -1      2702 9.50375E-05-2.86536E-05-2.84487E-05 8.25344E-07-5.00664E-19-9.63797E-19
 -1      2703 9.51903E-05-2.87521E-05-2.84746E-05 9.29430E-07-4.34747E-19-1.22597E-18
 -1      2704 9.50423E-05-2.86343E-05-2.84620E-05 7.84844E-07-3.86117E-19-1.09157E-18
 -1      2705 9.50895E-05-2.86252E-05-2.84829E-05 7.51130E-07-5.46199E-19-8.98133E-19
 -1      2706 9.51981E-05-2.87161E-05-2.84931E-05 8.42015E-07-4.54911E-19-9.23605E-19
 -1      2707 9.50963E-05-2.86000E-05-2.85000E-05 7.26639E-07-6.01520E-19-5.86284E-19
 -1      2708 9.51438E-05-2.85851E-05-2.85232E-05 7.11511E-07-4.63388E-19-4.04536E-19
 -1      2709 9.52098E-05-2.86627E-05-2.85208E-05 7.79259E-07-2.58860E-19-8.93014E-19
 -1      2710 9.51524E-05-2.85547E-05-2.85435E-05 7.08598E-07-6.54538E-19-4.51214E-19
 -1      2711 9.52021E-05-2.85348E-05-2.85693E-05 7.16921E-07-7.06049E-19-3.43528E-19
 -1      2712 9.52247E-05-2.85949E-05-2.85562E-05 7.54255E-07-5.21224E-19-6.60341E-19
 -1      2713 9.52126E-05-2.84994E-05-2.85931E-05 7.40549E-07-7.65429E-19-1.77616E-19
 -1      2714 9.52672E-05-2.84754E-05-2.86222E-05 7.76854E-07-5.03045E-19-2.77452E-19
 -1      2715 9.52429E-05-2.85140E-05-2.85987E-05 7.78066E-07-6.28375E-19-2.01752E-19
 -1      2716 9.52800E-05-2.84348E-05-2.86497E-05 8.31811E-07-1.97307E-19-4.60187E-19
 -1      2717 9.53431E-05-2.84076E-05-2.86832E-05 9.00577E-07-2.33598E-19-4.96323E-19
 -1      2718 9.52649E-05-2.84201E-05-2.86484E-05 8.60856E-07-5.39045E-19 2.32486E-19
 -1      2719 9.53590E-05-2.83618E-05-2.87150E-05 9.91688E-07-2.93291E-19-8.31603E-19
 -1      2720 9.54347E-05-2.83323E-05-2.87541E-05 1.09739E-06-7.69828E-20-4.44685E-19
 -1      2721 9.52920E-05-2.83131E-05-2.87060E-05 1.01256E-06-2.71447E-19-2.51101E-19
 -1      2722 9.54550E-05-2.82817E-05-2.87906E-05 1.22949E-06-2.02652E-19-5.81725E-19
 -1      2723 9.55486E-05-2.82520E-05-2.88365E-05 1.37638E-06-1.75340E-19-1.30200E-18
 -1      2724 9.53263E-05-2.81935E-05-2.87721E-05 1.24307E-06-2.54104E-19-1.44753E-18
 -1      2725 9.55753E-05-2.81981E-05-2.88782E-05 1.55400E-06-7.42033E-20-1.33264E-18
 -1      2726 9.56926E-05-2.81716E-05-2.89319E-05 1.74554E-06 3.58027E-19-1.58532E-18
 -1      2727 9.53715E-05-2.80635E-05-2.88473E-05 1.56195E-06-2.76226E-19-1.79527E-18
 -1      2728 9.57292E-05-2.81177E-05-2.89787E-05 1.97224E-06 6.77066E-19-1.75840E-18
 -1      2729 9.58773E-05-2.80999E-05-2.90410E-05 2.21004E-06 4.00399E-19-1.79191E-18
 -1      2730 9.54329E-05-2.79287E-05-2.89316E-05 1.97742E-06 4.20468E-19-1.68622E-18
 -1      2731 9.59294E-05-2.80526E-05-2.90924E-05 2.48731E-06 2.11170E-19-1.28045E-18
 -1      2732 9.61170E-05-2.80528E-05-2.91633E-05 2.76955E-06 1.61456E-19-9.92833E-19
 -1      2733 9.55196E-05-2.78005E-05-2.90240E-05 2.49466E-06 6.54479E-19-1.30591E-18
 -1      2734 9.61936E-05-2.80235E-05-2.92178E-05 3.09509E-06-5.27249E-19-1.60481E-18
 -1      2735 9.64316E-05-2.80561E-05-2.92964E-05 3.41413E-06-7.32644E-19-1.46987E-18
 -1      2736 9.56461E-05-2.76995E-05-2.91219E-05 3.11307E-06-3.76556E-19-6.56588E-19
 -1      2737 9.65476E-05-2.80633E-05-2.93517E-05 3.77941E-06-6.25096E-19-1.40849E-18
 -1      2738 9.68502E-05-2.81499E-05-2.94357E-05 4.11847E-06-3.11609E-19-1.40871E-18
 -1      2739 9.58360E-05-2.76598E-05-2.92211E-05 3.82234E-06-7.79490E-19-1.08069E-18
 -1      2740 9.70293E-05-2.82224E-05-2.94883E-05 4.50533E-06 3.69872E-20-1.08625E-18
 -1      2741 9.74152E-05-2.83942E-05-2.95741E-05 4.83422E-06 5.74962E-19-1.00264E-18
 -1      2742 9.61275E-05-2.77351E-05-2.93151E-05 4.59692E-06 7.75366E-20-1.10217E-18
 -1      2743 9.76944E-05-2.85736E-05-2.96198E-05 5.21021E-06 9.01530E-19-9.95505E-19
 -1      2744 9.81885E-05-2.88730E-05-2.97025E-05 5.48006E-06 1.10833E-18-7.74078E-19
 -1      2745 9.65803E-05-2.80047E-05-2.93960E-05 5.38855E-06 1.03143E-18-2.94190E-20
 -1      2746 9.86228E-05-2.92155E-05-2.97376E-05 5.79220E-06 1.13173E-18-6.54229E-19
 -1      2747 9.92558E-05-2.96939E-05-2.98120E-05 5.93004E-06 9.84488E-19-5.85921E-19
 -1      2748 9.72849E-05-2.85793E-05-2.94558E-05 6.11620E-06 1.17699E-18-1.89663E-19
 -1      2749 9.99205E-05-3.02668E-05-2.98357E-05 6.09664E-06 1.00029E-18-4.67580E-19
 -1      2750 1.00725E-04-3.09753E-05-2.98990E-05 6.00131E-06 5.68663E-19-8.53061E-20
 -1      2751 9.83704E-05-2.95987E-05-2.94903E-05 6.65238E-06 7.02156E-19 3.78126E-19
 -1      2752 1.01711E-04-3.18415E-05-2.99180E-05 5.90232E-06 3.56268E-19-6.27975E-20
 -1      2753 1.02705E-04-3.28046E-05-2.99737E-05 5.44590E-06 2.66968E-19 6.22285E-19
 -1      2754 1.00003E-04-3.12131E-05-2.95070E-05 6.80530E-06 6.74451E-19-2.44225E-19
 -1      2755 1.04094E-04-3.39845E-05-3.00093E-05 4.91515E-06-7.01497E-20 7.53722E-19
 -1      2756 1.05248E-04-3.51457E-05-3.00739E-05 3.95908E-06-1.91087E-20 7.43885E-19
 -1      2757 1.02361E-04-3.35252E-05-2.95369E-05 6.29815E-06 1.70310E-19 8.13417E-19
 -1      2758 1.07046E-04-3.65406E-05-3.01707E-05 2.79470E-06-1.59315E-20 1.18669E-18
 -1      2759 1.08220E-04-3.76761E-05-3.02794E-05 1.23956E-06-2.96619E-19 9.00629E-19
 -1      2760 1.05549E-04-3.64606E-05-2.96522E-05 4.75981E-06-2.93708E-19 8.78175E-19
 -1      2761 1.10245E-04-3.89561E-05-3.05107E-05-7.29959E-07-2.02534E-19 8.51027E-19
 -1      2762 1.11132E-04-3.95840E-05-3.07180E-05-2.83479E-06 4.30192E-19 5.38988E-19
 -1      2763 1.09418E-04-3.95482E-05-2.99833E-05 1.77793E-06-3.14352E-19 2.05559E-18
 -1      2764 1.12862E-04-4.00955E-05-3.11760E-05-5.54012E-06 2.43029E-19 8.40205E-19
 -1      2765 1.13015E-04-3.95190E-05-3.15356E-05-7.81084E-06 6.44765E-19 9.40773E-19
 -1      2766 1.13283E-04-4.16360E-05-3.07188E-05-2.86251E-06 2.78479E-19 2.04521E-18
 -1      2767 1.13625E-04-3.84243E-05-3.22806E-05-1.05849E-05 7.19650E-19 5.19745E-19
 -1      2768 1.12714E-04-3.61477E-05-3.28033E-05-1.21317E-05 3.86955E-21 9.65717E-19
 -1      2769 1.15772E-04-4.09321E-05-3.20407E-05-8.59629E-06 1.64176E-19 1.09887E-18
 -1      2770 1.11612E-04-3.31056E-05-3.37887E-05-1.35565E-05-6.58614E-19 6.24472E-19
 -1      2771 1.09831E-04-2.95052E-05-3.43768E-05-1.32298E-05-7.14750E-19 7.49356E-19
 -1      2772 1.15336E-04-3.59961E-05-3.39791E-05-1.34194E-05-3.16459E-19-1.25109E-19
 -1      2773 1.07624E-04-2.57226E-05-3.52818E-05-1.16513E-05-5.84029E-19 5.08278E-19
 -1      2774 1.05997E-04-2.26892E-05-3.56901E-05-8.99918E-06-1.35721E-18 8.87466E-20
 -1      2775 1.11872E-04-2.78437E-05-3.60229E-05-1.37034E-05-8.91237E-19-2.03685E-20
 -1      2776 1.04725E-04-2.06899E-05-3.60987E-05-4.47062E-06-1.55532E-18 9.45241E-19
 -1      2777 1.04452E-04-2.04004E-05-3.60951E-05-5.58419E-07-1.90463E-18 1.30771E-18
 -1      2778 1.08051E-04-2.04262E-05-3.76362E-05-7.49815E-06-5.20264E-19 9.63910E-19
 -1      2779 1.05399E-04-2.18756E-05-3.57649E-05 4.19127E-06-1.52675E-18 1.73527E-18
 -1      2780 1.06523E-04-2.44964E-05-3.53469E-05 7.15332E-06-3.53557E-19 1.96565E-18
 -1      2781 1.07709E-04-1.96509E-05-3.78004E-05 2.33067E-06-1.59212E-18 2.25090E-18
 -1      2782 1.08789E-04-2.82045E-05-3.44483E-05 9.37890E-06-2.38195E-19 1.25052E-18
 -1      2783 1.10439E-04-3.19222E-05-3.37960E-05 1.00613E-05-1.15432E-18 7.21761E-19
 -1      2784 1.10921E-04-2.60251E-05-3.63639E-05 9.63870E-06-1.51264E-18 2.10735E-18
 -1      2785 1.11699E-04-3.51400E-05-3.27925E-05 8.90231E-06-1.09896E-18 1.39145E-18
 -1      2786 1.12577E-04-3.76296E-05-3.21955E-05 7.66200E-06-9.88911E-20 6.20624E-19
 -1      2787 1.14683E-04-3.46044E-05-3.43538E-05 1.04834E-05-6.63955E-19 1.06260E-18
 -1      2788 1.12230E-04-3.91371E-05-3.13627E-05 4.84883E-06 3.92666E-19 1.29725E-18
 -1      2789 1.11995E-04-3.98309E-05-3.09231E-05 2.58935E-06 1.61247E-18 8.82234E-19
 -1      2790 1.15641E-04-4.06105E-05-3.21707E-05 5.81933E-06 7.66571E-19 1.81706E-18
 -1      2791 1.10250E-04-3.93868E-05-3.04234E-05-2.49971E-07 1.79142E-18 5.83556E-19
 -1      2792 1.09165E-04-3.86631E-05-3.01724E-05-2.39006E-06 9.47919E-19 5.81151E-19
 -1      2793 1.13369E-04-4.17236E-05-3.07112E-05-2.60137E-07 1.31093E-18 1.51049E-18
 -1      2794 1.06947E-04-3.71867E-05-2.99495E-05-4.43892E-06 1.41378E-19 7.09475E-19
 -1      2795 1.05452E-04-3.57147E-05-2.98369E-05-5.92587E-06-8.85070E-19-2.60728E-19
 -1      2796 1.09282E-04-3.94611E-05-2.99581E-05-5.13556E-06-1.08725E-19-5.93070E-19
 -1      2797 1.03324E-04-3.38829E-05-2.97968E-05-6.96089E-06-6.90876E-19-3.42858E-19
 -1      2798 1.01790E-04-3.22364E-05-2.97711E-05-7.60411E-06-3.42440E-19-3.02043E-19
 -1      2799 1.04859E-04-3.55926E-05-2.97133E-05-8.07010E-06-2.57375E-19-3.26086E-19
 -1      2800 9.44719E-05-2.81281E-05-2.84329E-05-8.83416E-07 6.74303E-19-1.20738E-18
 -1      2801 9.44889E-05-2.80013E-05-2.84835E-05-7.08075E-07 5.80583E-19-1.26895E-18
 -1      2802 1.30492E-04-1.02556E-05-5.21479E-05-6.84247E-06 1.18246E-18 8.80067E-19
 -1      2803 1.32589E-04-1.54787E-05-5.07493E-05-1.09371E-05 1.63901E-18 1.60767E-18
 -1      2804 9.45494E-05-2.78505E-05-2.85861E-05-4.32619E-07 5.97661E-19-1.38261E-18
 -1      2805 9.46383E-05-2.76639E-05-2.86849E-05-8.92773E-08 8.24567E-19-1.18730E-18
 -1      2806 9.50056E-05-2.79111E-05-2.87631E-05-4.42359E-07 7.55649E-19-1.34569E-18
 -1      2807 9.45126E-05-2.84295E-05-2.83203E-05-1.13875E-06 3.13780E-19-9.23170E-19
 -1      2808 9.44555E-05-2.83668E-05-2.83206E-05-1.13415E-06 3.91954E-19-9.88139E-19
 -1      2809 9.45862E-05-2.85062E-05-2.83190E-05-1.09733E-06 4.95636E-19-1.05397E-18
 -1      2810 9.45161E-05-2.84627E-05-2.83076E-05-1.12955E-06 4.49022E-19-9.21402E-19
 -1      2811 9.48940E-05-2.85682E-05-2.84284E-05-1.15977E-06 4.29726E-19-1.01212E-18
 -1      2812 9.46741E-05-2.85522E-05-2.83368E-05-1.00803E-06 2.71083E-19-1.29810E-18
 -1      2813 9.45998E-05-2.85232E-05-2.83188E-05-1.05794E-06 4.55884E-19-1.03512E-18
 -1      2814 9.49167E-05-2.86370E-05-2.84077E-05-1.12092E-06 5.22633E-19-1.06895E-18
 -1      2815 9.47670E-05-2.85756E-05-2.83665E-05-9.01506E-07 6.21856E-19-1.11441E-18
 -1      2816 9.46936E-05-2.85578E-05-2.83449E-05-9.55824E-07 3.91307E-19-1.02409E-18
 -1      2817 9.49532E-05-2.86679E-05-2.84094E-05-1.03432E-06 4.07282E-19-1.09412E-18
 -1      2818 9.48599E-05-2.85822E-05-2.84034E-05-7.99398E-07 3.12145E-19-8.15119E-19
 -1      2819 9.47896E-05-2.85731E-05-2.83799E-05-8.48748E-07 7.76298E-19-7.29695E-19
 -1      2820 9.49972E-05-2.86719E-05-2.84260E-05-9.31594E-07 4.70972E-19-6.23363E-19
 -1      2821 9.49515E-05-2.85757E-05-2.84453E-05-7.17460E-07-3.71405E-19-1.02831E-18
 -1      2822 9.48844E-05-2.85735E-05-2.84206E-05-7.54965E-07-5.01827E-20-8.79291E-19
 -1      2823 9.50449E-05-2.86564E-05-2.84529E-05-8.35373E-07 2.92005E-19-4.71801E-21
 -1      2824 9.50429E-05-2.85589E-05-2.84913E-05-6.67828E-07 3.07853E-20-1.25103E-18
 -1      2825 9.49773E-05-2.85621E-05-2.84653E-05-6.88071E-07-2.15413E-19-1.19701E-18
 -1      2826 9.50949E-05-2.86258E-05-2.84873E-05-7.62351E-07-1.59609E-19-6.84486E-19
 -1      2827 9.51372E-05-2.85334E-05-2.85422E-05-6.60785E-07 3.05489E-19-1.32304E-18
 -1      2828 9.50703E-05-2.85410E-05-2.85142E-05-6.59012E-07 2.06507E-19-1.12316E-18
 -1      2829 9.51471E-05-2.85828E-05-2.85281E-05-7.25614E-07 1.24644E-19-8.45953E-19
 -1      2830 9.52391E-05-2.85001E-05-2.85996E-05-7.06101E-07 1.76752E-19-4.19081E-19
 -1      2831 9.51671E-05-2.85113E-05-2.85683E-05-6.77626E-07 9.88548E-20-9.82876E-19
 -1      2832 9.52027E-05-2.85281E-05-2.85755E-05-7.36442E-07 3.07148E-21-9.56772E-19
 -1      2833 9.53549E-05-2.84593E-05-2.86659E-05-8.14054E-07 2.26551E-19-8.94480E-20
 -1      2834 9.52727E-05-2.84734E-05-2.86298E-05-7.53799E-07 3.62184E-19-9.97624E-20
 -1      2835 9.52640E-05-2.84617E-05-2.86304E-05-8.05663E-07-9.81502E-20-1.08077E-19
 -1      2836 9.54920E-05-2.84110E-05-2.87444E-05-9.96132E-07-2.36287E-19 3.44464E-19
 -1      2837 9.53937E-05-2.84274E-05-2.87014E-05-8.98322E-07 3.34404E-19-4.21647E-20
 -1      2838 9.53337E-05-2.83822E-05-2.86945E-05-9.44650E-07 8.42406E-20 5.43570E-19
 -1      2839 9.56587E-05-2.83553E-05-2.88386E-05-1.26544E-06-3.69359E-19-4.48120E-19
 -1      2840 9.55377E-05-2.83732E-05-2.87864E-05-1.12345E-06-3.11881E-19-1.33126E-19
 -1      2841 9.54152E-05-2.82880E-05-2.87701E-05-1.16598E-06 8.22282E-20 1.44400E-19
 -1      2842 9.58646E-05-2.82925E-05-2.89524E-05-1.63675E-06 5.37434E-19-1.13543E-18
 -1      2843 9.57131E-05-2.83107E-05-2.88886E-05-1.44313E-06 8.64591E-20-8.73268E-19
 -1      2844 9.55120E-05-2.81769E-05-2.88594E-05-1.48374E-06 1.38169E-19-9.78004E-19
 -1      2845 9.61201E-05-2.82241E-05-2.90896E-05-2.12597E-06 8.15800E-19-9.53462E-19
 -1      2846 9.59295E-05-2.82407E-05-2.90117E-05-1.87283E-06 9.69975E-19-8.47832E-19
 -1      2847 9.56279E-05-2.80475E-05-2.89647E-05-1.91345E-06 7.72823E-19-9.04249E-19
 -1      2848 9.64367E-05-2.81542E-05-2.92536E-05-2.74889E-06-1.36756E-19-8.74492E-19
 -1      2849 9.61975E-05-2.81654E-05-2.91593E-05-2.42868E-06 4.07907E-19-1.04197E-18
 -1      2850 9.57668E-05-2.78996E-05-2.90876E-05-2.47137E-06 5.78309E-19-6.52850E-19
 -1      2851 9.68274E-05-2.80917E-05-2.94461E-05-3.51861E-06-3.43002E-19-1.66366E-18
 -1      2852 9.65289E-05-2.80911E-05-2.93337E-05-3.12574E-06-2.81865E-19-9.00615E-19
 -1      2853 9.59331E-05-2.77367E-05-2.92286E-05-3.17302E-06-1.11214E-19-3.54126E-19
 -1      2854 9.73086E-05-2.80550E-05-2.96666E-05-4.44105E-06-9.38959E-19-1.79237E-18
 -1      2855 9.69384E-05-2.80306E-05-2.95356E-05-3.97471E-06-3.64873E-19-1.86829E-18
 -1      2856 9.61333E-05-2.75697E-05-2.93859E-05-4.03058E-06-9.59928E-20-4.17341E-20
 -1      2857 9.79038E-05-2.80792E-05-2.99102E-05-5.50739E-06-1.20375E-18-1.78016E-18
 -1      2858 9.74464E-05-2.80100E-05-2.97624E-05-4.97630E-06-1.22509E-18-2.22356E-18
 -1      2859 9.63794E-05-2.74231E-05-2.95542E-05-5.04854E-06-1.00207E-18-1.29162E-18
 -1      2860 9.86519E-05-2.82290E-05-3.01665E-05-6.68219E-06-7.70022E-20-1.84734E-18
 -1      2861 9.80859E-05-2.80782E-05-3.00068E-05-6.11205E-06-3.32986E-19-1.83471E-18
 -1      2862 9.66965E-05-2.73458E-05-2.97235E-05-6.21693E-06-6.37245E-19-1.29627E-18
 -1      2863 9.96226E-05-2.86164E-05-3.04180E-05-7.88510E-06-9.54451E-19-1.27893E-18
 -1      2864 9.89147E-05-2.83229E-05-3.02551E-05-7.32986E-06-9.14279E-19-1.61194E-18
 -1      2865 9.71364E-05-2.74287E-05-2.98782E-05-7.50110E-06-6.30126E-19-2.47145E-18
 -1      2866 1.00940E-04-2.94228E-05-3.06408E-05-8.96462E-06-7.03774E-19-1.16653E-18
 -1      2867 1.00037E-04-2.88916E-05-3.04873E-05-8.52188E-06-5.16590E-19-7.56075E-19
 -1      2868 9.78025E-05-2.78284E-05-2.99968E-05-8.82621E-06-1.04152E-18-5.69401E-19
 -1      2869 1.02809E-04-3.09135E-05-3.08115E-05-9.66165E-06 2.64809E-19-1.31562E-18
 -1      2870 1.01633E-04-3.00133E-05-3.06805E-05-9.49147E-06-1.75902E-19-1.37750E-18
 -1      2871 9.88868E-05-2.87951E-05-3.00568E-05-1.00532E-05-2.83383E-19-1.05911E-18
 -1      2872 1.05531E-04-3.34066E-05-3.09254E-05-9.56273E-06 2.81870E-19-5.83763E-19
 -1      2873 1.03988E-04-3.19988E-05-3.08212E-05-9.90383E-06 6.48258E-19-7.88167E-19
 -1      2874 1.00716E-04-3.06886E-05-3.00474E-05-1.09374E-05 1.43214E-19-1.23419E-18
 -1      2875 1.09420E-04-3.71041E-05-3.10319E-05-8.05541E-06-8.49117E-19 2.53240E-19
 -1      2876 1.07471E-04-3.51590E-05-3.09336E-05-9.21800E-06-2.51955E-19-1.19844E-19
 -1      2877 1.03775E-04-3.39282E-05-2.99996E-05-1.10497E-05-3.00571E-19-1.39186E-19
 -1      2878 1.14620E-04-4.17187E-05-3.12920E-05-4.39620E-06-7.14009E-19 9.15937E-20
 -1      2879 1.12337E-04-3.95032E-05-3.11242E-05-6.67940E-06-1.20310E-18-4.24666E-20
 -1      2880 1.08599E-04-3.87359E-05-3.00395E-05-9.67183E-06-1.01150E-18-4.75258E-19
 -1      2881 1.20384E-04-4.58738E-05-3.20417E-05 1.73939E-06-4.83001E-19 1.28528E-18
 -1      2882 1.18326E-04-4.42824E-05-3.16480E-05-1.64781E-06-6.45085E-19 1.29467E-18
 -1      2883 1.15065E-04-4.43762E-05-3.04575E-05-5.73600E-06-1.28901E-18-9.45103E-20
 -1      2884 1.24766E-04-4.58509E-05-3.38702E-05 1.06238E-05-6.15025E-20 4.59317E-19
 -1      2885 1.24493E-04-4.71283E-05-3.30270E-05 6.91013E-06-1.54676E-19 1.10149E-18
 -1      2886 1.23855E-04-4.98711E-05-3.19552E-05 1.42937E-06-3.53034E-19 3.95961E-19
 -1      2887 1.24437E-04-3.87048E-05-3.69220E-05 1.69214E-05 3.62345E-19 1.01356E-18
 -1      2888 1.26106E-04-4.32841E-05-3.56852E-05 1.53050E-05 4.79712E-19 8.60599E-19
 -1      2889 1.28831E-04-4.75929E-05-3.48685E-05 1.15361E-05 1.53128E-19 6.37161E-19
 -1      2890 1.18676E-04-1.52720E-05-4.48992E-05 3.51358E-06 5.84876E-19-1.93724E-18
 -1      2891 1.20710E-04-1.81883E-05-4.46091E-05 1.03665E-05 3.27484E-19-9.71613E-19
 -1      2892 1.23586E-04-2.32146E-05-4.35736E-05-1.13722E-05 4.34316E-19-4.44144E-18
 -1      2893 1.20984E-04-1.77928E-05-4.46767E-05-5.52672E-06 6.82814E-19-3.10031E-18
 -1      2894 1.24719E-04-4.54564E-05-3.40782E-05-8.33776E-06-2.20731E-19-2.88853E-18
 -1      2895 1.24151E-04-4.19978E-05-3.53138E-05-1.13420E-05-5.06129E-19-2.45510E-18
 -1      2896 1.20503E-04-4.61500E-05-3.18061E-05 7.54570E-07-1.43168E-20-2.70812E-18
 -1      2897 1.22010E-04-4.63066E-05-3.25374E-05-3.18802E-06-4.46214E-19-3.17678E-18
 -1      2898 1.26717E-04-4.93121E-05-3.32841E-05-3.40291E-06-1.86612E-21-3.77429E-18
 -1      2899 1.13905E-04-4.19979E-05-3.07131E-05 7.96105E-06 5.13700E-19-1.75676E-18
 -1      2900 1.16391E-04-4.40918E-05-3.10705E-05 4.88817E-06-7.59484E-20-2.02327E-18
 -1      2901 1.19508E-04-4.77790E-05-3.08466E-05 6.12438E-06-9.16091E-19-2.25953E-18
 -1      2902 1.07652E-04-3.66946E-05-3.03234E-05 1.19811E-05 1.79418E-18-7.47983E-19
 -1      2903 1.10188E-04-3.91855E-05-3.04841E-05 1.02353E-05 2.03728E-18-5.18723E-19
 -1      2904 1.11513E-04-4.20082E-05-2.98999E-05 1.20665E-05 9.49405E-19-6.40450E-19
 -1      2905 1.02733E-04-3.19645E-05-3.02623E-05 1.32256E-05 1.81695E-18-4.31912E-19
 -1      2906 1.04884E-04-3.41689E-05-3.03371E-05 1.27235E-05 1.20222E-18-4.28015E-19
 -1      2907 1.05019E-04-3.57592E-05-2.97666E-05 1.46514E-05 1.46012E-18 8.65330E-20
 -1      2908 9.90867E-05-2.83244E-05-3.02808E-05 1.28042E-05 1.16674E-18 1.23951E-18
 -1      2909 1.00855E-04-3.01813E-05-3.03011E-05 1.33442E-05 1.60485E-18-5.42709E-19
 -1      2910 1.00436E-04-3.07753E-05-2.99049E-05 1.51302E-05 1.01158E-18 2.29595E-19
 -1      2911 9.71449E-05-2.67865E-05-3.01857E-05 1.44522E-05 8.98613E-19 8.78803E-19
 -1      2912 8.21329E-05-1.50588E-05-2.87442E-05-4.09662E-06-1.81917E-18-1.52735E-18
 -1      2913 8.15316E-05-1.46267E-05-2.87181E-05-5.55213E-07-7.43652E-19-1.21548E-18
 -1      2914 1.00498E-04-3.09794E-05-2.98111E-05-7.71463E-06 2.17532E-19-3.15400E-19
 -1      2915 9.95317E-05-2.99124E-05-2.98108E-05-7.66402E-06-1.52250E-19 5.34488E-19
 -1      2916 1.01457E-04-3.20794E-05-2.97533E-05-9.07608E-06-3.36228E-19-1.28499E-18
 -1      2917 8.45656E-05-1.70820E-05-2.90107E-05 1.06934E-05 2.04053E-18-1.93527E-18
 -1      2918 8.66817E-05-1.86127E-05-2.91153E-05 1.30271E-05 3.14508E-18-1.94315E-18
 -1      2919 8.55475E-05-1.78445E-05-2.89660E-05-1.06256E-05-2.56607E-18 1.42693E-18
 -1      2920 8.36513E-05-1.64599E-05-2.88836E-05-7.94171E-06-2.38399E-18 5.61182E-19
 -1      2921 8.12443E-05-1.67371E-05-2.75762E-05-6.98552E-06-1.64254E-18-4.31952E-19
 -1      2922 8.17501E-05-1.47890E-05-2.87543E-05 3.80241E-06-5.05855E-19-2.13667E-18
 -1      2923 8.27328E-05-1.54841E-05-2.88044E-05 7.20145E-06 7.68133E-19-2.03018E-18
 -1      2924 8.21647E-05-1.73055E-05-2.77416E-05 1.00576E-05 1.27229E-18-3.82466E-18
 -1      2925 7.97150E-05-1.54519E-05-2.74505E-05 1.73640E-06-5.25903E-19-1.97463E-18
 -1      2926 3.46097E-05-1.52167E-05-7.73828E-06 5.96453E-06-1.05220E-18-5.60312E-18
 -1      2927 3.43986E-05-1.56202E-05-7.42713E-06-8.50945E-06-8.95843E-19-2.65608E-18
 -1      2928 9.03553E-05-2.18436E-05-2.92946E-05-1.41374E-05-1.65391E-18-4.66292E-19
 -1      2929 8.80119E-05-2.00669E-05-2.92074E-05-1.28562E-05-2.40762E-18 5.10345E-19
 -1      2930 8.59769E-05-2.05142E-05-2.80390E-05-1.33296E-05-2.99751E-18 9.72898E-19
 -1      2931 9.49125E-05-2.57068E-05-2.96005E-05-1.45530E-05-5.48554E-19-1.63427E-18
 -1      2932 9.28386E-05-2.40202E-05-2.95494E-05-1.45949E-05-8.38673E-19-8.15920E-19
 -1      2933 9.18091E-05-2.50568E-05-2.86419E-05-1.59919E-05-1.65029E-18 3.93149E-19
 -1      2934 9.79703E-05-2.83631E-05-2.97819E-05-1.26693E-05-3.37918E-19 2.87928E-19
 -1      2935 9.66407E-05-2.71638E-05-2.97913E-05-1.36236E-05 2.85894E-19-1.08263E-18
 -1      2936 9.67968E-05-2.87823E-05-2.91925E-05-1.52921E-05-7.48088E-19-7.77084E-19
 -1      2937 7.11535E-05-4.00598E-05-1.31798E-05 4.13561E-05 3.00485E-19 1.30168E-18
 -1      2938 5.64088E-05-2.99302E-05-1.08531E-05 3.57791E-05 3.32037E-19 3.13826E-18
 -1      2939 9.14840E-05-5.07382E-05-1.74229E-05 4.24835E-05-3.42011E-18-2.18323E-18
 -1      2940 7.22901E-05-4.04475E-05-1.31574E-05 4.09812E-05-1.88211E-18-3.74494E-18
 -1      2941 9.43325E-05-2.08735E-05-3.15172E-05-8.24807E-06-2.48410E-18-1.41936E-18
 -1      2942 9.47181E-05-2.26480E-05-3.09122E-05-6.40904E-06-2.27686E-18-1.32119E-18
 -1      2943 1.21437E-04-3.15815E-05-3.86443E-05-1.33800E-05-1.14741E-18-3.23264E-18
 -1      2944 1.31787E-04-2.80735E-05-4.49248E-05-1.37759E-05-8.49468E-19-4.66366E-18
 -1      2945 1.37426E-04-3.83866E-05-4.30009E-05-1.33870E-05-1.30009E-18-4.55471E-18
 -1      2946 1.24172E-04-3.77504E-05-3.73892E-05-1.42413E-05-1.63626E-18-2.71745E-18
 -1      2947 7.75537E-05-4.15989E-05-1.48387E-05-3.67766E-05 1.46219E-19-4.58404E-18
 -1      2948 9.53987E-05-5.04838E-05-1.92556E-05-3.48565E-05-5.68889E-19-4.38610E-18
 -1      2949 9.47201E-05-2.74136E-05-2.88483E-05 3.94030E-07 9.36826E-19-1.10088E-18
 -1      2950 9.49006E-05-2.71205E-05-2.90210E-05 9.99102E-07 1.21577E-18-1.04860E-18
 -1      2951 9.51277E-05-2.73822E-05-2.90434E-05 3.81553E-07 9.93915E-19-1.24497E-18
 -1      2952 1.38345E-04-5.87742E-05-3.37687E-05-1.54723E-06-3.70511E-20-1.08314E-18
 -1      2953 1.40840E-04-5.22641E-05-3.86907E-05 8.02705E-06 6.72597E-19-8.29351E-19
 -1      2954 9.44677E-05-2.83100E-05-2.83526E-05-1.08846E-06 4.06828E-19-1.03034E-18
 -1      2955 9.44377E-05-2.82210E-05-2.83722E-05-1.01911E-06 6.13843E-19-1.24136E-18
 -1      2956 9.49280E-05-2.82403E-05-2.85867E-05-8.96824E-07 5.93242E-19-1.36878E-18
 -1      2957 9.48941E-05-2.84448E-05-2.84828E-05-1.10618E-06 4.21422E-19-1.09590E-18
 -1      2958 1.39045E-04-5.94765E-05-3.45525E-05 7.58688E-06-2.50277E-18-2.49065E-18
 -1      2959 1.32570E-04-6.28592E-05-2.96382E-05 1.95433E-05-3.75934E-18-2.36333E-18
 -1      2960 9.52680E-05-2.41019E-05-3.04819E-05-5.16473E-06-1.98361E-18-1.19589E-18
 -1      2961 9.51746E-05-2.50823E-05-3.00579E-05-3.67737E-06-1.77355E-18-1.15868E-18
 -1      2962 9.52254E-05-2.47655E-05-3.01895E-05-3.43564E-06-1.70228E-18-1.37229E-18
 -1      2963 9.45863E-05-2.23743E-05-3.09412E-05-5.69869E-06-2.09208E-18-1.62503E-18
 -1      2964 9.49775E-05-2.66911E-05-2.92711E-05 1.78757E-06 1.44445E-18-1.26520E-18
 -1      2965 9.52449E-05-2.61943E-05-2.95562E-05 2.79432E-06 1.64565E-18-1.24434E-18
 -1      2966 9.52696E-05-2.50233E-05-3.01034E-05 3.82623E-06 1.65171E-18-1.79247E-18
 -1      2967 9.52529E-05-2.65060E-05-2.94705E-05 1.74239E-06 1.33462E-18-1.41594E-18
 -1      2968 1.34679E-04-3.09778E-05-4.48540E-05 1.12084E-05-7.43695E-19 1.14413E-18
 -1      2969 1.27864E-04-2.06010E-05-4.66556E-05 1.05845E-05-1.02226E-18 2.46312E-18
 -1      2970 1.09914E-04-5.74001E-05-2.27658E-05 3.38145E-05-8.54444E-20-1.64470E-18
 -1      2971 8.99704E-05-4.89229E-05-1.71043E-05 3.91050E-05 2.52839E-19-6.08805E-19
 -1      2972 8.80084E-05-4.51678E-05-1.78811E-05 3.67294E-05-6.42369E-19-9.57147E-19
 -1      2973 9.47058E-05-2.19077E-05-3.12059E-05 7.84749E-06 2.12154E-18-1.81177E-18
 -1      2974 9.11805E-05-1.60926E-05-3.22084E-05 4.92149E-06 1.10523E-18-3.22935E-18
 -1      2975 9.08383E-05-1.55940E-05-3.22692E-05 3.99863E-06 7.45753E-19-3.39503E-18
 -1      2976 9.18172E-05-1.72059E-05-3.19610E-05 3.20163E-06 5.98894E-19-3.19552E-18
 -1      2977 9.24842E-05-1.82650E-05-3.17884E-05 4.62050E-06 1.03734E-18-2.97506E-18
 -1      2978 9.20382E-05-1.66593E-05-3.23127E-05-9.02656E-06-2.42480E-18-2.05289E-18
 -1      2979 9.08014E-05-1.55443E-05-3.22742E-05-3.93517E-06-1.21051E-18-2.89296E-18
 -1      2980 9.11353E-05-1.60297E-05-3.22148E-05-4.85809E-06-1.44476E-18-2.78105E-18
 -1      2981 1.14541E-04-5.82363E-05-2.39458E-05-2.68906E-05-1.28003E-18-3.66205E-18
 -1      2982 1.28612E-04-6.14898E-05-2.92939E-05-1.61876E-05-6.98590E-19-1.80786E-18
 -1      2983 9.91612E-05-2.94951E-05-2.98671E-05-8.91950E-06-3.32904E-19-1.20294E-18
 -1      2984 1.38663E-04-3.96702E-05-4.25092E-05 1.62078E-05 8.74138E-19-5.96311E-19
 -1      2985 1.37548E-04-3.21881E-05-4.61319E-05 1.72550E-05 1.17388E-18-7.40942E-19
 -1      2986 1.33002E-04-5.95630E-05-3.18775E-05 1.35576E-05 1.07441E-18-2.54338E-18
 -1      2987 1.23669E-04-5.97828E-05-2.70618E-05 2.26451E-05 3.03767E-19-1.66834E-18
 -1      2988 3.18148E-05-1.37189E-05-7.21053E-06-4.38277E-06 1.52024E-18-2.83417E-18
 -1      2989 3.66233E-05-1.81693E-05-7.42801E-06-1.95199E-05 1.35494E-18-4.78997E-18
 -1      2990 1.21547E-04-6.19594E-05-2.58040E-05 3.02823E-05-4.69680E-18-2.79089E-18
 -1      2991 1.08253E-04-5.74239E-05-2.13568E-05 3.64946E-05-4.88717E-18-1.58850E-18
 -1      2992 1.01307E-04-5.27754E-05-2.06748E-05 3.70921E-05-3.95162E-18-2.59520E-18
 -1      2993 1.26911E-04-6.13591E-05-2.78934E-05 2.18906E-05-3.53308E-18-1.44734E-18
 -1      2994 4.70202E-05-2.48386E-05-8.95734E-06-2.85749E-05 7.44118E-19-5.33631E-18
 -1      2995 6.07408E-05-3.30486E-05-1.16942E-05-3.57086E-05 8.81550E-19-5.00014E-18
 -1      2996 1.39838E-04-4.88111E-05-3.96177E-05-3.97366E-06 1.21780E-18-1.07001E-18
 -1      2997 1.37946E-04-5.47425E-05-3.56681E-05 2.78463E-06 9.59238E-19-2.22558E-18
 -1      2998 1.25038E-04-1.13911E-05-4.92725E-05 4.84965E-06-9.81711E-19 1.85312E-18
 -1      2999 1.28085E-04-9.22599E-06-5.15470E-05-1.37373E-06-2.01806E-19 1.08373E-18
 -1      3000 1.22793E-04-1.09756E-05-4.83930E-05-4.30116E-06 7.61271E-19 2.31989E-18
 -1      3001 1.39357E-04-4.76924E-05-3.95455E-05 3.26156E-06 4.20128E-19 1.39189E-18
 -1      3002 1.38033E-04-3.89327E-05-4.30464E-05 8.49216E-06-2.58345E-20 1.12486E-18
 -1      3003 1.31156E-04-3.54069E-05-4.12008E-05 1.15177E-05-8.17122E-19 3.60254E-18
 -1      3004 9.28210E-05-1.84315E-05-3.18794E-05-7.47428E-06-2.16450E-18-2.08948E-18
 -1      3005 9.12937E-05-1.63969E-05-3.20866E-05 2.85462E-08-1.00245E-19-3.10227E-18
 -1      3006 9.01708E-05-1.46067E-05-3.24040E-05-3.83458E-07-2.92570E-19-3.27148E-18
 -1      3007 9.02273E-05-1.46871E-05-3.23940E-05-1.34165E-06-5.10568E-19-3.18651E-18
 -1      3008 4.47381E-05-1.40226E-05-1.27946E-05 9.59093E-06 1.16828E-18-1.64451E-18
 -1      3009 3.72358E-05-1.33022E-05-9.64664E-06 3.76640E-06 1.83846E-18-1.97020E-18
 -1      3010 4.20274E-05-1.31093E-05-1.21270E-05-4.99602E-06 1.68339E-18-2.67218E-18
 -1      3011 1.27177E-04-6.10755E-05-2.82992E-05-2.20596E-05-1.47453E-18 1.54954E-18
 -1      3012 1.41205E-04-4.56196E-05-4.14022E-05-8.14295E-06-1.46071E-18-4.49203E-18
 -1      3013 1.41717E-04-5.46083E-05-3.74806E-05-2.40350E-06-2.20454E-18-3.88523E-18
 -1      3014 1.36683E-04-5.70596E-05-3.40716E-05 2.73307E-06-1.94412E-18-3.25388E-18
 -1      3015 1.33615E-04-4.47952E-05-3.82374E-05-1.02654E-05-1.99466E-18-4.21600E-18
 -1      3016 1.34674E-04-5.59684E-05-3.36765E-05-4.92591E-06-1.46980E-18 2.15228E-18
 -1      3017 1.38619E-04-5.34347E-05-3.68306E-05-5.23156E-07-1.89517E-19 1.63054E-18
 -1      3018 1.32876E-04-4.69820E-05-3.71497E-05 6.36234E-06-9.51642E-19 5.23106E-18
 -1      3019 4.00738E-05-1.73055E-05-9.10671E-06-1.52469E-05 1.57336E-19-3.25896E-18
 -1      3020 4.77367E-05-1.97621E-05-1.15901E-05-2.22273E-05 1.11274E-18-3.76834E-18
 -1      3021 4.50763E-05-1.52654E-05-1.23355E-05-9.01349E-06-1.30403E-18-4.81792E-18
 -1      3022 1.32034E-04-2.16915E-05-4.78193E-05-1.33129E-05 1.54404E-18 1.94934E-18
 -1      3023 1.29697E-04-2.72326E-05-4.41895E-05-1.46651E-05 1.23847E-18 2.12986E-18
 -1      3024 1.24457E-04-1.78230E-05-4.61025E-05-1.31297E-05 1.72689E-18 1.64748E-18
 -1      3025 8.73695E-05-2.12319E-05-2.83504E-05 1.54602E-05 3.58088E-18-2.28984E-18
 -1      3026 8.92457E-05-2.07905E-05-2.94163E-05 1.47790E-05 3.54485E-18-1.89632E-18
 -1      3027 9.16410E-05-2.26005E-05-2.95342E-05 1.56409E-05 2.31388E-18-2.77562E-18
 -1      3028 1.35837E-04-4.58337E-05-3.87390E-05 1.32647E-05 6.12670E-19-6.36122E-19
 -1      3029 1.31515E-04-2.23437E-05-4.72138E-05 1.56759E-05 1.45224E-18-7.12355E-19
 -1      3030 1.21504E-04-2.73767E-05-4.05803E-05 1.64531E-05-3.55013E-19 9.91929E-19
 -1      3031 1.25239E-04-3.45332E-05-3.92282E-05 1.90261E-05 7.54230E-19 8.95420E-19
 -1      3032 1.29615E-04-4.28506E-05-3.72983E-05-1.20493E-05-1.79846E-18-4.19906E-18
 -1      3033 9.86582E-05-4.73268E-05-2.16509E-05-2.91858E-05 4.44639E-19-3.37304E-18
 -1      3034 1.07920E-04-5.45849E-05-2.25218E-05-2.89943E-05-7.66141E-19-3.83539E-18
 -1      3035 1.15987E-04-5.63713E-05-2.58980E-05-2.11747E-05-3.76718E-19-3.27770E-18
 -1      3036 4.06879E-05-1.66240E-05-9.61627E-06 1.35046E-05-1.47754E-18-6.87833E-18
 -1      3037 4.49428E-05-1.47546E-05-1.24959E-05 6.08230E-06-1.63906E-18-6.73772E-18
 -1      3038 4.88591E-05-1.91258E-05-1.23582E-05 2.03024E-05-1.87443E-18-7.93109E-18
 -1      3039 9.36240E-05-2.41183E-05-2.98326E-05 1.56568E-05 8.79082E-19-1.91865E-18
 -1      3040 9.56808E-05-2.57323E-05-2.99322E-05 1.52707E-05 6.70238E-19 1.46484E-19
 -1      3041 9.70673E-05-2.77180E-05-2.97129E-05 1.60301E-05 1.06285E-18 1.70310E-20
 -1      3042 9.29102E-05-2.50730E-05-2.90712E-05 1.70228E-05 2.28596E-18-1.13404E-18
 -1      3043 6.48066E-05-2.96148E-05-1.50270E-05 3.28405E-05-7.80753E-19 2.09387E-18
 -1      3044 5.34023E-05-2.46070E-05-1.17824E-05 2.95912E-05-1.96935E-19 2.72798E-18
 -1      3045 5.25513E-05-1.99432E-05-1.36176E-05 2.32676E-05-1.22608E-19 1.17907E-18
 -1      3046 9.43539E-05-2.14240E-05-3.12597E-05 7.22217E-06 2.05825E-18-2.19655E-18
 -1      3047 9.86743E-05-2.88698E-05-2.99210E-05-1.02912E-05-2.41237E-19-8.12697E-19
 -1      3048 6.59444E-05-3.41738E-05-1.30816E-05 3.77095E-05-2.10181E-18-4.75334E-18
 -1      3049 6.08976E-05-2.75527E-05-1.38261E-05 3.22065E-05-2.32008E-18-5.46156E-18
 -1      3050 7.86112E-05-3.84046E-05-1.69958E-05 3.70631E-05-2.27868E-18-3.96306E-18
 -1      3051 9.46172E-05-2.24689E-05-3.09125E-05 5.69951E-06 1.74587E-18-2.18319E-18
 -1      3052 9.24300E-05-1.81871E-05-3.17976E-05-4.58130E-06-1.47896E-18-2.44918E-18
 -1      3053 9.15599E-05-1.66715E-05-3.21143E-05-5.58539E-06-1.65920E-18-2.58576E-18
 -1      3054 9.20363E-05-1.73731E-05-3.20224E-05-6.41711E-06-1.97556E-18-2.39520E-18
 -1      3055 4.85932E-05-2.07532E-05-1.12656E-05-2.21310E-05 1.21279E-18-4.65879E-18
 -1      3056 1.36543E-04-4.25640E-05-4.05213E-05-1.01064E-05 4.33681E-19 6.18016E-19
 -1      3057 7.35673E-05-3.59605E-05-1.56059E-05-3.33724E-05 9.51536E-19-4.32760E-18
 -1      3058 1.32328E-04-5.83806E-05-3.13732E-05-5.25254E-06 4.08799E-19-2.06189E-18
 -1      3059 9.03522E-05-1.48778E-05-3.23662E-05-2.17927E-06-6.72349E-19-2.91911E-18
 -1      3060 9.05363E-05-1.51413E-05-3.23340E-05-3.13040E-06-1.00165E-18-2.85486E-18
 -1      3061 9.17851E-05-1.71627E-05-3.19660E-05-3.14572E-06-1.05578E-18-2.65205E-18
 -1      3062 9.14113E-05-1.65800E-05-3.20579E-05-1.58465E-06-5.86782E-19-2.89973E-18
 -1      3063 1.17633E-04-5.76680E-05-2.55075E-05 2.49161E-05 7.34801E-20-1.69523E-18
 -1      3064 1.02301E-04-5.36811E-05-2.05939E-05-3.87874E-05 1.88677E-19 1.01734E-18
 -1      3065 1.09098E-04-5.44929E-05-2.32995E-05-3.27660E-05-1.42651E-18 9.29473E-19
 -1      3066 9.37685E-05-4.77668E-05-1.91288E-05-3.89807E-05 1.07764E-18 2.42251E-18
 -1      3067 1.33399E-04-5.66787E-05-3.28849E-05 5.15676E-06 3.76850E-19-2.07407E-18
 -1      3068 6.34004E-05-3.46366E-05-1.17082E-05-3.90311E-05 2.44358E-18-8.59950E-19
 -1      3069 7.68758E-05-3.98007E-05-1.58795E-05-3.95912E-05 1.24980E-18 1.46208E-18
 -1      3070 5.93234E-05-2.83746E-05-1.26915E-05-3.40034E-05 1.70307E-18-1.19199E-18
 -1      3071 1.00881E-04-3.15233E-05-2.96810E-05-1.04894E-05-1.34428E-18-1.03130E-18
 -1      3072 9.90465E-05-2.95474E-05-2.98024E-05-1.16809E-05-6.69245E-19 2.03950E-19
 -1      3073 1.00076E-04-3.13670E-05-2.94789E-05-1.30947E-05-8.71567E-19-6.28963E-20
 -1      3074 1.02159E-04-3.30663E-05-2.96278E-05-1.03883E-05-1.11353E-18-1.24544E-18
 -1      3075 9.42849E-05-2.18793E-05-3.10593E-05 4.96367E-06 1.42469E-18-2.28098E-18
 -1      3076 9.38090E-05-2.09077E-05-3.12450E-05 4.62423E-06 1.17257E-18-2.52261E-18
 -1      3077 9.34733E-05-1.98502E-05-3.15489E-05-6.23722E-06-1.96110E-18-2.05410E-18
 -1      3078 9.56815E-05-2.68812E-05-2.94715E-05-7.51403E-07-1.36335E-18-1.19118E-18
 -1      3079 9.56577E-05-2.73289E-05-2.92919E-05-2.26363E-07-1.19161E-18-1.42552E-18
 -1      3080 9.57020E-05-2.77141E-05-2.91264E-05 1.53746E-07-1.10141E-18-1.36194E-18
 -1      3081 9.56650E-05-2.79998E-05-2.90040E-05 4.69061E-07-9.84754E-19-1.58974E-18
 -1      3082 9.59003E-05-2.73322E-05-2.93894E-05-1.70228E-07-1.19596E-18-1.44301E-18
 -1      3083 9.56575E-05-2.82372E-05-2.88865E-05 6.91279E-07-9.03732E-19-1.52964E-18
 -1      3084 9.56254E-05-2.84167E-05-2.88059E-05 8.60156E-07-7.94379E-19-1.59607E-18
 -1      3085 9.59419E-05-2.80549E-05-2.90981E-05 4.65291E-07-9.45088E-19-1.45738E-18
 -1      3086 9.55935E-05-2.85566E-05-2.87249E-05 9.70616E-07-4.82346E-19-1.59167E-18
 -1      3087 9.55707E-05-2.86650E-05-2.86745E-05 1.04185E-06-3.74955E-19-1.35677E-18
 -1      3088 9.59084E-05-2.85028E-05-2.88915E-05 8.25095E-07-6.74527E-19-1.61550E-18
 -1      3089 9.55291E-05-2.87398E-05-2.86209E-05 1.07799E-06-3.47233E-19-1.13141E-18
 -1      3090 9.55151E-05-2.87996E-05-2.85920E-05 1.08784E-06-3.40992E-19-1.11994E-18
 -1      3091 9.58403E-05-2.87646E-05-2.87498E-05 9.92774E-07-2.10097E-19-1.45678E-18
 -1      3092 9.54713E-05-2.88306E-05-2.85587E-05 1.07838E-06-3.67817E-19-9.03923E-19
 -1      3093 9.54643E-05-2.88569E-05-2.85450E-05 1.05321E-06-1.56272E-19-1.00816E-18
 -1      3094 9.57593E-05-2.88995E-05-2.86567E-05 1.03543E-06-2.23355E-19-1.25521E-18
 -1      3095 9.54219E-05-2.88583E-05-2.85268E-05 1.01951E-06-3.05432E-19-9.83177E-19
 -1      3096 9.54200E-05-2.88612E-05-2.85238E-05 9.78295E-07-2.92452E-19-1.21439E-18
 -1      3097 9.56765E-05-2.89479E-05-2.86000E-05 1.00422E-06-3.34012E-19-7.96001E-19
 -1      3098 9.53807E-05-2.88425E-05-2.85166E-05 9.35966E-07-2.89341E-19-1.11707E-18
 -1      3099 9.53824E-05-2.88287E-05-2.85214E-05 8.92400E-07-3.32235E-19-1.01481E-18
 -1      3100 9.55973E-05-2.89368E-05-2.85704E-05 9.37070E-07-1.65358E-19-1.03885E-18
 -1      3101 9.53462E-05-2.87958E-05-2.85224E-05 8.52855E-07-4.76615E-19-1.03064E-18
 -1      3102 9.53505E-05-2.87697E-05-2.85328E-05 8.16933E-07-3.61298E-19-9.50668E-19
 -1      3103 9.55236E-05-2.88843E-05-2.85609E-05 8.61839E-07-1.84065E-19-1.08457E-18
 -1      3104 9.53170E-05-2.87261E-05-2.85401E-05 7.88697E-07-3.53745E-19-8.28637E-19
 -1      3105 9.53232E-05-2.86903E-05-2.85549E-05 7.68009E-07-1.43805E-19-9.35556E-19
 -1      3106 9.54551E-05-2.88016E-05-2.85668E-05 7.99114E-07-2.81432E-19-1.22013E-18
 -1      3107 9.52912E-05-2.86376E-05-2.85673E-05 7.57778E-07-3.57349E-19-9.54809E-19
 -1      3108 9.52990E-05-2.85934E-05-2.85859E-05 7.58464E-07-5.32156E-19-8.87743E-19
 -1      3109 9.53903E-05-2.86950E-05-2.85844E-05 7.64621E-07-2.68094E-19-8.15027E-19
 -1      3110 9.52669E-05-2.85320E-05-2.86025E-05 7.71902E-07-6.27194E-19-9.25006E-19
 -1      3111 9.52766E-05-2.84798E-05-2.86247E-05 7.99345E-07-5.51267E-19-5.57591E-19
 -1      3112 9.53266E-05-2.85671E-05-2.86117E-05 7.71098E-07-4.42548E-19-1.09271E-18
 -1      3113 9.52426E-05-2.84091E-05-2.86450E-05 8.41663E-07-5.29833E-19-5.98526E-19
 -1      3114 9.52545E-05-2.83490E-05-2.86710E-05 9.00941E-07-4.09924E-19-4.52458E-19
 -1      3115 9.52607E-05-2.84182E-05-2.86471E-05 8.29680E-07-3.09468E-19-1.02069E-18
 -1      3116 9.52167E-05-2.82682E-05-2.86947E-05 9.77270E-07-8.11475E-19-5.76083E-19
 -1      3117 9.52316E-05-2.82000E-05-2.87246E-05 1.07339E-06-5.89298E-19-1.15408E-18
 -1      3118 9.51889E-05-2.82469E-05-2.86895E-05 9.50871E-07-8.27821E-19-1.35645E-18
 -1      3119 9.51881E-05-2.81083E-05-2.87513E-05 1.18894E-06-2.15234E-19-1.24761E-18
 -1      3120 9.52073E-05-2.80327E-05-2.87854E-05 1.32682E-06-5.29952E-19-1.53030E-18
 -1      3121 9.51076E-05-2.80517E-05-2.87381E-05 1.14509E-06-7.40581E-19-1.43972E-18
 -1      3122 9.51568E-05-2.79303E-05-2.88147E-05 1.48686E-06-3.84775E-19-1.34462E-18
 -1      3123 9.51823E-05-2.78490E-05-2.88529E-05 1.67103E-06-1.90049E-19-1.59534E-18
 -1      3124 9.50135E-05-2.78321E-05-2.87917E-05 1.42284E-06-2.96981E-19-1.32007E-18
 -1      3125 9.51244E-05-2.77378E-05-2.88837E-05 1.88057E-06 2.43484E-19-1.47402E-18
 -1      3126 9.51598E-05-2.76553E-05-2.89257E-05 2.11457E-06 8.63657E-19-1.43698E-18
 -1      3127 9.49049E-05-2.75905E-05-2.88486E-05 1.79438E-06 1.17816E-19-1.35422E-18
 -1      3128 9.50961E-05-2.75404E-05-2.89566E-05 2.37781E-06 1.10244E-18-1.28275E-18
 -1      3129 9.51470E-05-2.74648E-05-2.90012E-05 2.66315E-06 7.48915E-19-1.28299E-18
 -1      3130 9.47829E-05-2.73348E-05-2.89058E-05 2.26899E-06 1.06139E-18-1.27181E-18
 -1      3131 9.50827E-05-2.73566E-05-2.90298E-05 2.98262E-06-3.54982E-19-5.15691E-19
 -1      3132 9.51585E-05-2.73021E-05-2.90752E-05 3.31725E-06-8.59658E-19-3.59835E-19
 -1      3133 9.46542E-05-2.70817E-05-2.89591E-05 2.85365E-06 5.90243E-19-1.68115E-18
 -1      3134 9.51048E-05-2.72186E-05-2.90982E-05 3.69256E-06-9.13549E-19-3.31502E-19
 -1      3135 9.52205E-05-2.72081E-05-2.91415E-05 4.06882E-06-5.65019E-19-2.81056E-19
 -1      3136 9.45344E-05-2.68619E-05-2.90024E-05 3.55122E-06-6.91911E-19-1.56705E-19
 -1      3137 9.51984E-05-2.71784E-05-2.91546E-05 4.49489E-06-1.44495E-19-6.99221E-19
 -1      3138 9.53785E-05-2.72473E-05-2.91919E-05 4.89661E-06 4.50585E-19-4.90453E-19
 -1      3139 9.44548E-05-2.67260E-05-2.90276E-05 4.35790E-06-4.50965E-19-2.50629E-19
 -1      3140 9.54239E-05-2.73159E-05-2.91903E-05 5.36121E-06 8.51221E-19-4.12210E-19
 -1      3141 9.57062E-05-2.75150E-05-2.92171E-05 5.75999E-06 1.16396E-18-8.24877E-20
 -1      3142 9.44705E-05-2.67530E-05-2.90249E-05 5.25978E-06 6.55530E-19-4.76118E-19
 -1      3143 9.58772E-05-2.77457E-05-2.91963E-05 6.23976E-06 1.34133E-18-2.45360E-19
 -1      3144 9.63177E-05-2.81444E-05-2.92092E-05 6.58981E-06 1.06113E-18-3.13097E-19
 -1      3145 9.46727E-05-2.70588E-05-2.89845E-05 6.22758E-06 1.30166E-18-6.15593E-19
 -1      3146 9.67032E-05-2.86225E-05-2.91677E-05 7.04349E-06 7.23956E-19 9.81680E-20
 -1      3147 9.73790E-05-2.93061E-05-2.91666E-05 7.27458E-06 7.70362E-19 4.27923E-19
 -1      3148 9.52047E-05-2.78044E-05-2.88999E-05 7.20757E-06 1.24575E-18-9.41501E-19
 -1      3149 9.81054E-05-3.01336E-05-2.91100E-05 7.63035E-06 5.59428E-19 3.88443E-19
 -1      3150 9.91099E-05-3.11896E-05-2.91036E-05 7.63799E-06 5.86052E-19 3.17154E-19
 -1      3151 9.62777E-05-2.91957E-05-2.87745E-05 8.10414E-06 8.65011E-19-2.08236E-19
 -1      3152 1.00340E-04-3.24644E-05-2.90525E-05 7.77093E-06-4.45886E-19 7.43088E-19
 -1      3153 1.01757E-04-3.39416E-05-2.90661E-05 7.40487E-06-3.96865E-19 5.82098E-19
 -1      3154 9.81794E-05-3.14620E-05-2.86344E-05 8.74559E-06 2.29099E-19-1.19823E-19
 -1      3155 1.03664E-04-3.57019E-05-2.90685E-05 7.09915E-06 1.58403E-19 4.56497E-19
 -1      3156 1.05504E-04-3.75183E-05-2.91542E-05 6.15878E-06 1.18234E-19 8.17142E-19
 -1      3157 1.01254E-04-3.47846E-05-2.85487E-05 8.82282E-06-2.24908E-19-8.87730E-21
 -1      3158 1.08170E-04-3.96157E-05-2.93020E-05 5.08084E-06-3.31067E-19 9.66521E-19
 -1      3159 1.10241E-04-4.14026E-05-2.95467E-05 3.35846E-06-7.53409E-19 4.08924E-19
 -1      3160 1.05787E-04-3.90950E-05-2.86626E-05 7.79264E-06-7.78633E-20 6.83135E-20
 -1      3161 1.13472E-04-4.32969E-05-2.99926E-05 1.07828E-06-6.58350E-19 1.37204E-18
 -1      3162 1.15217E-04-4.41783E-05-3.05158E-05-1.48441E-06 1.49185E-19 1.19238E-18
 -1      3163 1.11748E-04-4.37290E-05-2.92329E-05 4.88707E-06-2.39027E-19-4.86283E-20
 -1      3164 1.18139E-04-4.46857E-05-3.14555E-05-5.06459E-06 2.89718E-19 1.64013E-18
 -1      3165 1.18741E-04-4.33458E-05-3.23541E-05-8.00040E-06-1.12288E-19 6.59472E-19
 -1      3166 1.18088E-04-4.67306E-05-3.06445E-05-6.81415E-07 5.31202E-19 1.34558E-18
 -1      3167 1.19888E-04-4.10135E-05-3.38880E-05-1.16786E-05-5.89994E-19 7.85689E-19
 -1      3168 1.18817E-04-3.68776E-05-3.51454E-05-1.35903E-05-5.46019E-19 8.25182E-19
 -1      3169 1.22353E-04-4.46203E-05-3.33269E-05-8.42784E-06 8.38827E-20 8.18732E-19
 -1      3170 1.18334E-04-2.86021E-05-3.87590E-05-1.50540E-05-1.93997E-19 1.20849E-18
 -1      3171 1.15832E-04-2.27268E-05-4.01161E-05-1.39260E-05-1.63583E-20 5.44986E-19
 -1      3172 1.09731E-04-1.57434E-05-4.05092E-05 3.81919E-07-8.54127E-19 2.09982E-18
 -1      3173 1.10646E-04-1.78225E-05-4.00543E-05 5.22635E-06-1.47977E-18 2.84820E-18
 -1      3174 1.16180E-04-2.33831E-05-4.00097E-05 9.83298E-06-2.12319E-18 3.06074E-18
 -1      3175 1.18592E-04-2.93298E-05-3.86467E-05 1.15289E-05-1.61569E-18 2.83928E-18
 -1      3176 1.22906E-04-3.96385E-05-3.57768E-05 8.72140E-06-1.06313E-18 4.19264E-18
 -1      3177 1.23716E-04-4.42354E-05-3.42211E-05 6.50734E-06-1.19392E-19 3.72259E-18
 -1      3178 1.16346E-04-4.46627E-05-3.07557E-05-1.58375E-06 1.01505E-18 1.28318E-18
 -1      3179 1.14499E-04-4.38329E-05-3.02029E-05-4.28010E-06-2.74996E-20 8.91605E-19
 -1      3180 1.11228E-04-4.18669E-05-2.97773E-05-6.81199E-06-2.17325E-20 1.94108E-19
 -1      3181 1.08916E-04-3.97790E-05-2.95613E-05-8.60211E-06-3.94476E-19 2.25006E-19
 -1      3182 1.13693E-04-4.46042E-05-2.97084E-05-8.17622E-06-3.93857E-19 8.01003E-19
 -1      3183 1.06367E-04-3.75468E-05-2.95237E-05-9.46394E-06-1.09095E-18 6.90938E-19
 -1      3184 1.04177E-04-3.52023E-05-2.95112E-05-1.03192E-05-9.88634E-19 2.29177E-19
 -1      3185 1.03255E-04-3.46684E-05-2.94104E-05-1.18388E-05-1.88472E-18 1.66043E-19
 -1      3186 1.07797E-04-3.95697E-05-2.92893E-05-1.11412E-05-2.40202E-19 1.03730E-18
 -1      3187 9.52272E-05-2.87597E-05-2.84850E-05-1.08731E-06 2.32222E-19-9.68920E-19
 -1      3188 9.52137E-05-2.87283E-05-2.84922E-05-1.11519E-06 4.33535E-19-1.10483E-18
 -1      3189 9.52448E-05-2.86962E-05-2.85203E-05-1.12467E-06 5.19895E-19-1.24023E-18
 -1      3190 9.52408E-05-2.86357E-05-2.85418E-05-1.11606E-06 4.08195E-19-1.09138E-18
 -1      3191 9.55283E-05-2.88078E-05-2.85972E-05-1.09143E-06 3.98335E-19-1.05226E-18
 -1      3192 9.52189E-05-2.87621E-05-2.84799E-05-9.12032E-07 4.56660E-20-3.15036E-19
 -1      3193 9.51967E-05-2.87661E-05-2.84707E-05-9.60074E-07 2.49136E-19-8.83415E-19
 -1      3194 9.52237E-05-2.87239E-05-2.84982E-05-8.26560E-07 2.21746E-20-3.17721E-20
 -1      3195 9.51999E-05-2.87388E-05-2.84842E-05-8.67619E-07 2.31199E-19-8.60915E-21
 -1      3196 9.53877E-05-2.88313E-05-2.85254E-05-8.98327E-07-1.66774E-19-5.47352E-19
 -1      3197 9.52327E-05-2.86675E-05-2.85260E-05-7.66432E-07-5.03071E-20-4.67291E-19
 -1      3198 9.52076E-05-2.86912E-05-2.85083E-05-7.92853E-07 1.22390E-19-1.35269E-19
 -1      3199 9.53536E-05-2.87696E-05-2.85369E-05-8.24486E-07 1.07683E-19-3.23098E-19
 -1      3200 9.52451E-05-2.85957E-05-2.85618E-05-7.44839E-07 1.11532E-19-6.90392E-19
 -1      3201 9.52185E-05-2.86270E-05-2.85407E-05-7.50376E-07 8.85271E-20-8.37564E-19
 -1      3202 9.53237E-05-2.86865E-05-2.85595E-05-7.78220E-07 2.39174E-20-9.86512E-19
 -1      3203 9.52605E-05-2.85087E-05-2.86054E-05-7.73335E-07-5.80561E-19-2.08330E-19
 -1      3204 9.52316E-05-2.85473E-05-2.85807E-05-7.52351E-07-2.83814E-19-4.85891E-19
 -1      3205 9.52960E-05-2.85840E-05-2.85914E-05-7.72899E-07-2.00290E-19-9.21539E-19
 -1      3206 9.52788E-05-2.84051E-05-2.86571E-05-8.63103E-07-1.01609E-19-1.39217E-19
 -1      3207 9.52464E-05-2.84516E-05-2.86283E-05-8.09986E-07-2.71264E-19-3.14457E-19
 -1      3208 9.52680E-05-2.84617E-05-2.86317E-05-8.20377E-07-2.36933E-19-3.46773E-19
 -1      3209 9.52996E-05-2.82825E-05-2.87181E-05-1.02586E-06-4.64570E-19 9.58894E-20
 -1      3210 9.52622E-05-2.83377E-05-2.86843E-05-9.34610E-07-2.40706E-19 2.92233E-20
 -1      3211 9.52367E-05-2.83169E-05-2.86802E-05-9.32175E-07-3.55331E-19-7.18971E-19
 -1      3212 9.53225E-05-2.81373E-05-2.87895E-05-1.27442E-06 1.86832E-19-1.76667E-19
 -1      3213 9.52784E-05-2.82024E-05-2.87497E-05-1.13841E-06 9.18352E-20 2.46264E-19
 -1      3214 9.51983E-05-2.81454E-05-2.87371E-05-1.12029E-06-2.49751E-19-3.77715E-19
 -1      3215 9.53464E-05-2.79657E-05-2.88724E-05-1.62290E-06 1.57063E-19-3.12523E-19
 -1      3216 9.52939E-05-2.80418E-05-2.88257E-05-1.43483E-06 1.07457E-19-1.03558E-19
 -1      3217 9.51479E-05-2.79419E-05-2.88025E-05-1.39765E-06 1.95275E-19 3.99651E-20
 -1      3218 9.53696E-05-2.77645E-05-2.89677E-05-2.08646E-06 4.85572E-19-2.29688E-19
 -1      3219 9.53070E-05-2.78523E-05-2.89133E-05-1.83857E-06 4.25759E-19-3.99972E-19
 -1      3220 9.50796E-05-2.77009E-05-2.88762E-05-1.77822E-06 2.54236E-19 4.33578E-19
 -1      3221 9.53900E-05-2.75323E-05-2.90750E-05-2.68060E-06 3.17597E-19 3.44631E-19
 -1      3222 9.53153E-05-2.76312E-05-2.90125E-05-2.36516E-06 4.24591E-19-1.16853E-19
 -1      3223 9.49860E-05-2.74178E-05-2.89569E-05-2.27668E-06 3.48461E-19 2.96939E-19
 -1      3224 9.54054E-05-2.72724E-05-2.91920E-05-3.41964E-06-2.37881E-19 4.44972E-19
 -1      3225 9.53163E-05-2.73789E-05-2.91222E-05-3.02998E-06 2.95457E-19 3.95133E-19
 -1      3226 9.48589E-05-2.70906E-05-2.90420E-05-2.90771E-06 5.64963E-20 1.03859E-18
 -1      3227 9.54163E-05-2.69971E-05-2.93136E-05-4.31448E-06 5.46460E-20-1.55599E-19
 -1      3228 9.53087E-05-2.71023E-05-2.92386E-05-3.84652E-06 7.19576E-20-1.32893E-19
 -1      3229 9.46900E-05-2.67234E-05-2.91261E-05-3.68479E-06 2.27542E-19 3.85085E-19
 -1      3230 9.54302E-05-2.67352E-05-2.94307E-05-5.36910E-06-8.79420E-19-1.55574E-18
 -1      3231 9.52955E-05-2.68210E-05-2.93545E-05-4.82382E-06-1.59661E-19-9.30276E-19
 -1      3232 9.44744E-05-2.63322E-05-2.92004E-05-4.61869E-06 5.60389E-19-4.93348E-20
 -1      3233 9.54716E-05-2.65456E-05-2.95284E-05-6.57589E-06-6.79899E-19-1.61659E-18
 -1      3234 9.52916E-05-2.65770E-05-2.94582E-05-5.96288E-06-1.02165E-18-1.85142E-18
 -1      3235 9.42163E-05-2.59543E-05-2.92510E-05-5.71580E-06-5.22290E-19-2.07631E-18
 -1      3236 9.56006E-05-2.65364E-05-2.95860E-05-7.90915E-06-9.29205E-19-1.72386E-18
 -1      3237 9.53378E-05-2.64510E-05-2.95317E-05-7.25165E-06-3.05304E-19-1.66486E-18
 -1      3238 9.39421E-05-2.56638E-05-2.92581E-05-6.97680E-06-7.82221E-19-1.74019E-18
 -1      3239 9.59438E-05-2.68934E-05-2.95775E-05-9.31592E-06-1.00912E-18-1.36811E-18
 -1      3240 9.55249E-05-2.65868E-05-2.95513E-05-8.65810E-06-1.02287E-18-1.41056E-18
 -1      3241 9.37220E-05-2.55946E-05-2.91957E-05-8.39565E-06-7.64593E-19-1.82259E-18
 -1      3242 9.67412E-05-2.79135E-05-2.94781E-05-1.07003E-05 8.54665E-20-1.87611E-18
 -1      3243 9.60344E-05-2.72231E-05-2.94906E-05-1.01188E-05-2.89569E-19-1.76928E-18
 -1      3244 9.37074E-05-2.59731E-05-2.90338E-05-9.95822E-06-3.92233E-19-3.19460E-18
 -1      3245 9.84080E-05-3.00311E-05-2.92804E-05-1.18897E-05-6.99782E-20-1.45382E-18
 -1      3246 9.71978E-05-2.87272E-05-2.93308E-05-1.15153E-05-2.71355E-20-1.92403E-18
 -1      3247 9.41889E-05-2.71577E-05-2.87474E-05-1.16343E-05 2.34913E-20-2.73526E-18
 -1      3248 1.01577E-04-3.37894E-05-2.90324E-05-1.25559E-05-5.59776E-19-8.50319E-19
 -1      3249 9.95713E-05-3.16065E-05-2.90869E-05-1.26130E-05-1.60589E-20-7.40608E-19
 -1      3250 9.56796E-05-2.96767E-05-2.83376E-05-1.33391E-05-1.97604E-19-1.66307E-18
 -1      3251 1.07012E-04-3.95125E-05-2.89080E-05-1.20079E-05-1.37962E-18-1.10194E-18
 -1      3252 1.03969E-04-3.63855E-05-2.88669E-05-1.28703E-05-8.30734E-19-7.30500E-19
 -1      3253 9.90308E-05-3.42396E-05-2.78849E-05-1.47915E-05-7.05645E-19-1.77613E-18
 -1      3254 1.15726E-04-4.67531E-05-2.94570E-05-8.45687E-06-1.54478E-18-8.30278E-19
 -1      3255 1.11407E-04-4.34136E-05-2.89642E-05-1.12655E-05-1.83002E-18-1.37123E-18
 -1      3256 1.05484E-04-4.12101E-05-2.76960E-05-1.52059E-05-1.74672E-18-1.32787E-18
 -1      3257 1.21826E-04-5.31510E-05-2.92847E-05-8.56014E-06-2.74756E-20-2.37392E-18
 -1      3258 1.16656E-04-5.02564E-05-2.82125E-05-1.23506E-05-7.55057E-19-2.11482E-18
 -1      3259 1.31265E-04-4.01761E-05-3.94273E-05 1.76683E-05 6.24052E-19 6.28022E-19
 -1      3260 1.19122E-04-1.67951E-05-4.47314E-05-2.95944E-06 8.52009E-19-3.07817E-18
 -1      3261 1.01672E-04-3.34336E-05-2.91590E-05 1.70147E-05 1.39669E-18 4.39685E-19
 -1      3262 1.04475E-04-3.66627E-05-2.90428E-05 1.67565E-05 2.15820E-18 5.68998E-19
 -1      3263 9.82203E-05-2.93899E-05-2.94505E-05 1.66070E-05 1.97951E-18-4.14508E-20
 -1      3264 1.00112E-04-3.16135E-05-2.93483E-05 1.67384E-05 1.52257E-18-1.04161E-19
 -1      3265 9.87310E-05-3.21507E-05-2.85988E-05 1.87589E-05 1.94246E-18 7.31254E-19
 -1      3266 9.61299E-05-2.82570E-05-2.91271E-05 1.75184E-05 1.28151E-18-1.56602E-18
 -1      3267 7.95013E-05-1.80022E-05-2.62826E-05-1.03728E-05-2.83640E-18-1.49742E-18
 -1      3268 7.72331E-05-1.65650E-05-2.60771E-05-6.24316E-06-1.65123E-18-3.01779E-18
 -1      3269 9.97216E-05-3.21196E-05-2.89112E-05-1.56658E-05-1.47819E-18-8.74076E-20
 -1      3270 9.74073E-05-3.06763E-05-2.86280E-05-1.68334E-05-1.76554E-18-6.10263E-19
 -1      3271 1.20443E-04-5.69768E-05-2.75754E-05 1.80322E-05 1.00718E-19-2.02015E-18
 -1      3272 1.10257E-04-5.33844E-05-2.39481E-05 2.64947E-05-2.08476E-19-1.91950E-18
 -1      3273 8.66276E-05-2.31307E-05-2.70980E-05-1.64559E-05-3.26953E-18 1.28479E-18
 -1      3274 8.30238E-05-2.08704E-05-2.67481E-05-1.41825E-05-3.90284E-18 2.18462E-18
 -1      3275 7.95257E-05-2.04991E-05-2.52400E-05-1.41084E-05-3.53790E-18-5.82249E-19
 -1      3276 1.25796E-04-1.70363E-05-4.71310E-05 9.07978E-06-1.39919E-18 1.78888E-18
 -1      3277 1.20485E-04-1.46847E-05-4.57409E-05 6.40139E-06-1.31269E-18 1.92753E-18
 -1      3278 9.52040E-05-2.42722E-05-3.04021E-05 4.27658E-06 1.51363E-18-2.00816E-18
 -1      3279 9.46376E-05-2.27187E-05-3.08062E-05 4.79209E-06 1.47272E-18-2.06102E-18
 -1      3280 9.49645E-05-2.36004E-05-3.05657E-05 3.70274E-06 1.22156E-18-2.06679E-18
 -1      3281 9.52394E-05-2.52044E-05-3.00286E-05 2.99462E-06 1.41216E-18-1.79574E-18
 -1      3282 9.43090E-05-2.85535E-05-2.80803E-05-1.78914E-05-1.91038E-18-3.90032E-20
 -1      3283 9.07867E-05-2.63289E-05-2.77076E-05-1.76229E-05-2.44378E-18 1.37260E-18
 -1      3284 8.84615E-05-2.68027E-05-2.64606E-05-1.90927E-05-2.88920E-18 1.60274E-18
 -1      3285 9.68836E-05-3.22663E-05-2.77646E-05-1.87705E-05-2.45365E-18 1.58125E-19
 -1      3286 1.07900E-04-4.02601E-05-2.88449E-05 1.66397E-05 1.45486E-18-7.98635E-20
 -1      3287 1.11839E-04-4.40927E-05-2.90077E-05 1.50967E-05 3.52008E-19-1.24112E-19
 -1      3288 1.03329E-04-3.81638E-05-2.81063E-05 1.94971E-05 1.14522E-18 1.20292E-19
 -1      3289 1.17231E-04-4.82928E-05-2.93216E-05 1.29718E-05-8.88875E-19-2.04252E-19
 -1      3290 1.21566E-04-5.14685E-05-3.00699E-05 9.59468E-06-1.43191E-18-7.28515E-19
 -1      3291 1.12380E-04-4.73218E-05-2.81603E-05 1.84909E-05-5.87007E-19-1.09916E-18
 -1      3292 9.54122E-05-2.73490E-05-2.91770E-05 2.80603E-07 8.76976E-19-1.21286E-18
 -1      3293 9.54747E-05-2.69420E-05-2.93557E-05 8.40287E-07 1.01053E-18-1.25338E-18
 -1      3294 1.23237E-04-2.26301E-05-4.32514E-05 1.13000E-05-1.76268E-18 2.51495E-18
 -1      3295 9.52194E-05-2.87771E-05-2.84739E-05-1.00631E-06 4.15351E-19-1.00220E-18
 -1      3296 9.52003E-05-2.87662E-05-2.84714E-05-1.05122E-06 3.71154E-19-9.01456E-19
 -1      3297 9.54744E-05-2.88634E-05-2.85496E-05-1.05746E-06 9.21232E-20-1.05403E-18
 -1      3298 9.54276E-05-2.88659E-05-2.85280E-05-9.83237E-07 1.20237E-19-6.89631E-19
 -1      3299 9.53710E-05-2.79579E-05-2.88954E-05-4.66655E-07 6.72693E-19-1.25713E-18
 -1      3300 9.54257E-05-2.77004E-05-2.90120E-05-1.36031E-07 7.63643E-19-1.08799E-18
 -1      3301 9.56932E-05-2.73374E-05-2.93006E-05 2.31298E-07 8.79444E-19-1.14540E-18
 -1      3302 9.54925E-05-2.55668E-05-2.99554E-05-2.14908E-06-1.38934E-18-1.45276E-18
 -1      3303 9.55346E-05-2.62664E-05-2.96987E-05-1.33800E-06-1.33769E-18-1.49128E-18
 -1      3304 9.57110E-05-2.62041E-05-2.97898E-05-1.17644E-06-1.22202E-18-1.57959E-18
 -1      3305 1.33522E-04-4.90574E-05-3.62178E-05 1.13522E-05 6.65318E-19-8.08440E-19
 -1      3306 9.64536E-05-4.77510E-05-2.10438E-05 3.29774E-05-5.97582E-19-2.41553E-18
 -1      3307 8.15444E-05-3.87573E-05-1.77806E-05 3.44081E-05-6.17487E-19-6.39880E-19
 -1      3308 1.21752E-04-5.79995E-05-2.71844E-05-2.27946E-05-1.42471E-18 1.68659E-18
 -1      3309 1.30499E-04-5.95624E-05-3.06461E-05-1.43771E-05-1.83999E-18 1.19622E-18
 -1      3310 1.33618E-04-5.03669E-05-3.60037E-05-7.30851E-06-1.14371E-18-4.71194E-18
 -1      3311 1.31750E-04-3.64999E-05-4.14093E-05-1.40426E-05-4.20128E-19 1.97687E-18
 -1      3312 1.32124E-04-4.46386E-05-3.74721E-05-1.00700E-05-2.84550E-19 1.16414E-19
 -1      3313 6.80081E-05-2.95068E-05-1.60413E-05-2.95082E-05 9.93755E-19-4.49584E-18
 -1      3314 8.14730E-05-3.75300E-05-1.87219E-05-3.10762E-05 9.08019E-19-4.39742E-18
 -1      3315 1.18394E-04-1.08191E-05-4.65191E-05-2.71317E-06 6.04146E-19 2.94553E-18
 -1      3316 1.21316E-04-1.28982E-05-4.70146E-05-8.91438E-06 2.09143E-18 2.32871E-18
 -1      3317 1.20665E-04-1.76701E-05-4.45138E-05-1.15573E-05 1.28410E-18 1.71156E-18
 -1      3318 1.31644E-04-5.38000E-05-3.39206E-05-1.03079E-06 7.50888E-19-1.28100E-18
 -1      3319 1.28771E-04-5.63976E-05-3.07271E-05 7.05279E-06 9.28782E-19-1.63091E-18
 -1      3320 9.23785E-05-1.83460E-05-3.17434E-05 1.81320E-06 3.70024E-19-3.01529E-18
 -1      3321 9.22586E-05-1.81439E-05-3.17754E-05 1.05863E-06 1.39760E-19-3.03489E-18
 -1      3322 4.84933E-05-1.66126E-05-1.31690E-05-1.63586E-05 1.73750E-18-4.06004E-18
 -1      3323 5.71882E-05-2.29973E-05-1.44669E-05-2.53164E-05 1.10294E-18-4.73851E-18
 -1      3324 6.74645E-05-2.56637E-05-1.75293E-05-2.41650E-05 1.41989E-18-4.26439E-18
 -1      3325 1.32114E-04-5.39058E-05-3.40293E-05 5.71339E-06 9.43108E-19-2.25734E-19
 -1      3326 1.17301E-04-1.65805E-05-4.34916E-05 6.32389E-06-1.30798E-18 1.94193E-18
 -1      3327 1.17214E-04-1.29322E-05-4.52970E-05 2.73848E-06-6.54545E-19 1.86983E-18
 -1      3328 9.21999E-05-1.80436E-05-3.17938E-05 4.09574E-07 3.45729E-20-2.89716E-18
 -1      3329 9.21960E-05-1.80393E-05-3.17943E-05-3.61476E-07-2.40842E-19-2.85885E-18
 -1      3330 9.31504E-05-1.96276E-05-3.14930E-05 6.29586E-07 9.85275E-20-2.77200E-18
 -1      3331 4.95176E-05-1.57501E-05-1.39162E-05 1.62633E-05 9.85126E-19-1.09775E-18
 -1      3332 5.00490E-05-1.42036E-05-1.51161E-05 8.94785E-06 1.58009E-18-2.20192E-18
 -1      3333 5.74657E-05-1.98252E-05-1.58847E-05 2.05382E-05 3.87756E-19 6.50468E-19
 -1      3334 9.40365E-05-2.14139E-05-3.11315E-05-5.00425E-06-1.82184E-18-1.97695E-18
 -1      3335 1.29018E-04-4.71713E-05-3.51448E-05-7.44151E-06-1.98854E-19-3.04138E-19
 -1      3336 4.60583E-05-1.39348E-05-1.31044E-05-1.10344E-06-1.88527E-18-4.92624E-18
 -1      3337 4.96029E-05-1.53028E-05-1.43918E-05-7.70350E-06-1.22982E-18-5.38575E-18
 -1      3338 4.95189E-05-1.48830E-05-1.45787E-05 5.98586E-06-2.27359E-18-7.18782E-18
 -1      3339 9.53822E-05-2.64949E-05-2.95304E-05 1.37549E-06 9.61340E-19-1.37239E-18
 -1      3340 9.54324E-05-2.58883E-05-2.97900E-05 2.24941E-06 1.24711E-18-1.60298E-18
 -1      3341 9.53562E-05-2.52336E-05-3.00696E-05 2.60341E-06 1.15843E-18-1.76108E-18
 -1      3342 9.55826E-05-2.64030E-05-2.96530E-05 1.24429E-06 9.38489E-19-1.39128E-18
 -1      3343 1.22138E-04-5.44067E-05-2.89338E-05 1.07926E-05 4.72036E-19-1.08575E-18
 -1      3344 8.49611E-05-2.18064E-05-2.71707E-05 1.64580E-05 1.90376E-18-3.11474E-18
 -1      3345 8.86598E-05-2.40545E-05-2.76075E-05 1.80452E-05 2.76132E-18-2.06246E-18
 -1      3346 1.12295E-04-1.77714E-05-4.08363E-05-9.60858E-06 3.21978E-19 8.84190E-19
 -1      3347 1.11140E-04-1.52458E-05-4.13974E-05-5.06388E-06 3.29866E-19 1.76989E-18
 -1      3348 1.19844E-04-4.33003E-05-3.27840E-05 5.43231E-06 2.21592E-19 2.59438E-18
 -1      3349 1.19118E-04-4.49762E-05-3.17470E-05 2.15336E-06 1.27963E-18 2.44029E-18
 -1      3350 1.30867E-04-5.56205E-05-3.21273E-05-5.77895E-06-2.11729E-18 2.61066E-18
 -1      3351 9.55878E-05-2.86746E-05-2.86805E-05-1.04452E-06 3.45353E-19-1.07004E-18
 -1      3352 9.52747E-05-2.85656E-05-2.85900E-05-1.07619E-06 2.30098E-19-1.07718E-18
 -1      3353 9.52855E-05-2.84632E-05-2.86326E-05-1.00367E-06 4.05861E-19-1.14234E-18
 -1      3354 7.61663E-05-3.30735E-05-1.81559E-05 3.04764E-05-9.67259E-19 5.18172E-19
 -1      3355 1.15281E-04-1.29887E-05-4.42256E-05-1.49188E-06 5.03138E-19 2.68961E-18
 -1      3356 9.22857E-05-4.21133E-05-2.11556E-05-2.88812E-05 6.94779E-19-3.45489E-18
 -1      3357 1.00826E-04-4.52217E-05-2.38580E-05-2.38296E-05 4.11340E-19-2.86424E-18
 -1      3358 8.57289E-05-3.58463E-05-2.12233E-05-2.66376E-05 9.72420E-19-3.66291E-18
 -1      3359 5.76961E-05-2.24856E-05-1.45208E-05 2.57824E-05-2.18188E-18-6.92915E-18
 -1      3360 5.68991E-05-1.87040E-05-1.60488E-05 1.87301E-05-1.70950E-18-8.10706E-18
 -1      3361 6.78138E-05-2.69077E-05-1.73593E-05 2.84860E-05-2.40258E-18-3.68311E-18
 -1      3362 1.28013E-04-5.41880E-05-3.15435E-05 4.85037E-06-1.54119E-18-2.78941E-18
 -1      3363 1.31420E-04-5.33112E-05-3.35287E-05-4.09306E-07-1.12944E-18-3.91673E-18
 -1      3364 7.82913E-05-1.71833E-05-2.62793E-05 9.61088E-06 1.00230E-18-3.57207E-18
 -1      3365 8.10354E-05-1.87989E-05-2.65757E-05 1.33082E-05 1.87534E-18-3.60662E-18
 -1      3366 8.16580E-05-2.15856E-05-2.57166E-05 1.67182E-05 1.33798E-18-3.88915E-18
 -1      3367 9.43393E-05-2.19789E-05-3.09891E-05 3.63497E-06 9.02470E-19-2.41768E-18
 -1      3368 9.34346E-05-2.02149E-05-3.14046E-05 4.24874E-06 9.26545E-19-2.72962E-18
 -1      3369 9.30768E-05-1.95541E-05-3.15185E-05 3.65659E-06 6.87055E-19-2.87700E-18
 -1      3370 7.60391E-05-1.55324E-05-2.59425E-05-5.19794E-07-5.04118E-19-2.22389E-18
 -1      3371 7.63867E-05-1.56990E-05-2.59938E-05 4.22302E-06 2.33763E-19-2.79693E-18
 -1      3372 7.48296E-05-1.68768E-05-2.47172E-05 7.78907E-06 1.09819E-18-4.11927E-18
 -1      3373 7.39455E-05-1.63736E-05-2.45464E-05-4.06292E-06-1.79917E-18-3.73498E-18
 -1      3374 1.03423E-04-4.82056E-05-2.34542E-05 2.62342E-05-1.20861E-19-1.74735E-18
 -1      3375 5.08684E-05-1.51706E-05-1.48902E-05-9.32792E-06 2.19788E-18-3.40375E-18
 -1      3376 9.08359E-05-4.40467E-05-1.94284E-05 3.68323E-05-1.37357E-18-2.82983E-18
 -1      3377 8.31832E-05-3.78064E-05-1.92125E-05 3.45041E-05-1.35864E-18-1.99598E-18
 -1      3378 9.30454E-05-1.95042E-05-3.15265E-05-3.61633E-06-1.29079E-18-2.30216E-18
 -1      3379 9.34128E-05-2.01674E-05-3.14145E-05-4.23082E-06-1.57320E-18-2.22633E-18
 -1      3380 9.25526E-05-1.86408E-05-3.16874E-05 2.42440E-06 4.75055E-19-3.09700E-18
 -1      3381 9.33657E-05-2.00167E-05-3.14168E-05 1.80394E-06 4.44827E-19-2.91651E-18
 -1      3382 9.27902E-05-1.90555E-05-3.16198E-05 3.12702E-06 6.29996E-19-3.08291E-18
 -1      3383 1.28106E-04-5.55873E-05-3.06653E-05-4.56817E-06 4.66278E-19-1.52151E-18
 -1      3384 1.19915E-04-4.71329E-05-3.12080E-05-1.87110E-06-7.92770E-21 1.61790E-18
 -1      3385 9.51874E-05-2.46812E-05-3.02338E-05-2.87499E-06-1.49135E-18-1.66190E-18
 -1      3386 9.52761E-05-2.45576E-05-3.03021E-05-2.53826E-06-1.37450E-18-1.80898E-18
 -1      3387 9.50265E-05-2.37258E-05-3.05584E-05-3.91677E-06-1.64339E-18-1.69554E-18
 -1      3388 1.29234E-04-3.94415E-05-3.84658E-05 1.09448E-05-1.17711E-18 4.35486E-18
 -1      3389 1.24833E-04-3.25449E-05-3.98055E-05 1.20303E-05-1.53054E-18 4.22706E-18
 -1      3390 1.17622E-04-5.67233E-05-2.59833E-05-2.63066E-05-1.13828E-18 2.13399E-18
 -1      3391 1.21830E-04-5.60778E-05-2.81751E-05-1.87488E-05-1.23818E-18 2.16408E-18
 -1      3392 1.10498E-04-5.27416E-05-2.46842E-05-2.87972E-05-6.50680E-19 1.26084E-18
 -1      3393 9.53183E-05-2.83361E-05-2.87084E-05-8.83468E-07 5.43852E-19-1.19164E-18
 -1      3394 9.53495E-05-2.81719E-05-2.87815E-05-7.08635E-07 5.95760E-19-1.17102E-18
 -1      3395 9.56932E-05-2.80101E-05-2.90120E-05-4.67611E-07 6.13790E-19-1.15460E-18
 -1      3396 9.56474E-05-2.84272E-05-2.88129E-05-8.61290E-07 4.51839E-19-1.11506E-18
 -1      3397 1.24823E-04-5.65709E-05-2.94672E-05 1.48900E-05-2.58288E-18-9.14610E-19
 -1      3398 1.18892E-04-5.58086E-05-2.65793E-05 2.34593E-05-3.02510E-18-1.12489E-18
 -1      3399 8.72003E-05-4.25257E-05-1.88360E-05-3.70045E-05 4.00964E-19 2.36714E-18
 -1      3400 5.72495E-05-2.37482E-05-1.37851E-05-2.75046E-05 1.30380E-18-2.32976E-18
 -1      3401 6.75738E-05-2.84537E-05-1.67390E-05-3.10009E-05 4.34157E-19-1.72689E-19
 -1      3402 5.76235E-05-2.01502E-05-1.57368E-05-2.09223E-05-8.78903E-19-4.30732E-18
 -1      3403 9.27606E-05-1.90096E-05-3.16256E-05-3.08880E-06-1.11305E-18-2.45928E-18
 -1      3404 9.37400E-05-2.07592E-05-3.12633E-05-2.80016E-06-1.12228E-18-2.18065E-18
 -1      3405 9.25313E-05-1.86076E-05-3.16917E-05-2.37487E-06-8.68380E-19-2.47903E-18
 -1      3406 1.04251E-04-5.14843E-05-2.26879E-05 3.30027E-05-2.35131E-18-1.06319E-18
 -1      3407 1.26166E-04-3.15449E-05-4.08406E-05-1.56103E-05-1.57601E-19 1.01062E-18
 -1      3408 1.02468E-04-3.41730E-05-2.92200E-05-1.32715E-05-2.52403E-18-5.76955E-19
 -1      3409 1.00991E-04-3.30573E-05-2.91225E-05-1.45205E-05-1.93572E-18-5.50954E-19
 -1      3410 1.01911E-04-3.52626E-05-2.86005E-05-1.61291E-05-2.88792E-18-1.33293E-18
 -1      3411 1.04564E-04-3.67261E-05-2.90811E-05-1.33021E-05-2.26401E-18 4.45113E-19
 -1      3412 9.60406E-05-2.69163E-05-2.96159E-05-4.53952E-07-1.11546E-18-1.58451E-18
 -1      3413 9.60902E-05-2.74092E-05-2.94423E-05-4.02732E-08-1.07281E-18-1.51930E-18
 -1      3414 1.13645E-04-2.03022E-05-4.04552E-05 8.13588E-06-2.24718E-18 2.81899E-18
 -1      3415 1.32962E-04-5.45625E-05-3.36394E-05 7.38318E-07-1.03613E-18-3.22278E-18
 -1      3416 9.61731E-05-2.78293E-05-2.92826E-05 2.39095E-07-9.60213E-19-1.35919E-18
 -1      3417 9.61688E-05-2.81470E-05-2.91567E-05 4.91883E-07-8.65272E-19-1.38179E-18
 -1      3418 9.62778E-05-2.74613E-05-2.94932E-05 8.69896E-09-9.58845E-19-1.34052E-18
 -1      3419 9.61781E-05-2.84085E-05-2.90384E-05 6.53951E-07-8.72236E-19-1.31286E-18
 -1      3420 9.61484E-05-2.86044E-05-2.89497E-05 7.90305E-07-4.91874E-19-1.32145E-18
 -1      3421 9.63701E-05-2.82186E-05-2.92094E-05 4.70138E-07-7.60710E-19-1.10952E-18
 -1      3422 9.61150E-05-2.87557E-05-2.88643E-05 8.68124E-07-2.36731E-19-1.33108E-18
 -1      3423 9.60747E-05-2.88671E-05-2.88040E-05 9.25271E-07-1.92946E-19-1.23787E-18
 -1      3424 9.63478E-05-2.86861E-05-2.90000E-05 7.29094E-07-4.24974E-19-1.11837E-18
 -1      3425 9.60186E-05-2.89425E-05-2.87444E-05 9.47022E-07-1.01512E-19-1.38296E-18
 -1      3426 9.59753E-05-2.89952E-05-2.87054E-05 9.54199E-07-8.63014E-20-1.08168E-18
 -1      3427 9.62608E-05-2.89495E-05-2.88499E-05 8.45556E-07-2.07855E-19-1.17512E-18
 -1      3428 9.59088E-05-2.90185E-05-2.86659E-05 9.42205E-07-2.52147E-19-1.13076E-18
 -1      3429 9.58666E-05-2.90308E-05-2.86429E-05 9.21479E-07-2.89406E-19-9.88710E-19
 -1      3430 9.61407E-05-2.90706E-05-2.87464E-05 8.69719E-07-2.09350E-19-1.42583E-18
 -1      3431 9.57968E-05-2.90184E-05-2.86188E-05 8.92733E-07-5.40383E-19-9.92247E-19
 -1      3432 9.57573E-05-2.90024E-05-2.86078E-05 8.60445E-07-3.42780E-19-1.26104E-18
 -1      3433 9.60066E-05-2.90932E-05-2.86790E-05 8.40935E-07-4.74917E-19-1.44048E-18
 -1      3434 9.56878E-05-2.89654E-05-2.85955E-05 8.27608E-07-4.26629E-19-1.45875E-18
 -1      3435 9.56514E-05-2.89291E-05-2.85936E-05 7.95798E-07-3.81598E-19-1.45194E-18
 -1      3436 9.58692E-05-2.90474E-05-2.86395E-05 7.89057E-07-5.75700E-19-1.84444E-18
 -1      3437 9.55833E-05-2.88742E-05-2.85903E-05 7.68313E-07 2.03258E-20-1.41926E-18
 -1      3438 9.55494E-05-2.88227E-05-2.85953E-05 7.46023E-07-7.26015E-20-1.14709E-18
 -1      3439 9.57334E-05-2.89530E-05-2.86214E-05 7.36402E-07-1.89753E-19-1.48325E-18
 -1      3440 9.54820E-05-2.87535E-05-2.85990E-05 7.31164E-07-3.05011E-19-9.40491E-19
 -1      3441 9.54494E-05-2.86893E-05-2.86095E-05 7.25486E-07-3.12966E-19-8.35031E-19
 -1      3442 9.55994E-05-2.88218E-05-2.86199E-05 6.99893E-07 2.03529E-19-1.28394E-18
 -1      3443 9.53807E-05-2.86072E-05-2.86187E-05 7.29193E-07-5.06756E-19-8.70074E-19
 -1      3444 9.53480E-05-2.85310E-05-2.86338E-05 7.46061E-07-3.66693E-19-1.06419E-18
 -1      3445 9.54647E-05-2.86597E-05-2.86312E-05 6.92906E-07-5.27265E-19-1.09142E-18
 -1      3446 9.52749E-05-2.84359E-05-2.86473E-05 7.73574E-07-2.36381E-19-1.11853E-18
 -1      3447 9.52401E-05-2.83474E-05-2.86661E-05 8.18348E-07-4.19535E-19-1.23972E-18
 -1      3448 9.53241E-05-2.84684E-05-2.86525E-05 7.26707E-07-3.78947E-19-1.05897E-18
 -1      3449 9.51589E-05-2.82379E-05-2.86829E-05 8.74679E-07-9.32394E-19-1.25402E-18
 -1      3450 9.51202E-05-2.81364E-05-2.87049E-05 9.52527E-07-9.29424E-19-1.30727E-18
 -1      3451 9.51709E-05-2.82467E-05-2.86815E-05 8.11540E-07-7.33339E-19-7.86393E-19
 -1      3452 9.50265E-05-2.80109E-05-2.87240E-05 1.04279E-06-6.05929E-19-1.25967E-18
 -1      3453 9.49821E-05-2.78956E-05-2.87487E-05 1.15887E-06-2.55910E-19-1.04706E-18
 -1      3454 9.49973E-05-2.79916E-05-2.87159E-05 9.57440E-07-5.61283E-19-7.99368E-19
 -1      3455 9.48717E-05-2.77529E-05-2.87688E-05 1.28843E-06-3.67775E-19-1.03530E-18
 -1      3456 9.48201E-05-2.76239E-05-2.87953E-05 1.44788E-06-3.99121E-19-9.32067E-19
 -1      3457 9.47945E-05-2.77004E-05-2.87534E-05 1.17473E-06-4.15516E-19-6.71717E-19
 -1      3458 9.46889E-05-2.74642E-05-2.88150E-05 1.62239E-06 4.21445E-20-1.36476E-18
 -1      3459 9.46299E-05-2.73239E-05-2.88420E-05 1.83009E-06 5.96131E-19-1.33965E-18
 -1      3460 9.45544E-05-2.73718E-05-2.87907E-05 1.47424E-06-1.34113E-19-1.35679E-18
 -1      3461 9.44754E-05-2.71500E-05-2.88588E-05 2.05540E-06 8.74126E-19-1.17586E-18
 -1      3462 9.44105E-05-2.70042E-05-2.88845E-05 2.31552E-06 1.20450E-18-1.36954E-18
 -1      3463 9.42703E-05-2.70091E-05-2.88239E-05 1.86729E-06 7.70091E-19-8.17430E-19
 -1      3464 9.42328E-05-2.68235E-05-2.88954E-05 2.59743E-06 1.12558E-18-1.43798E-18
 -1      3465 9.41672E-05-2.66838E-05-2.89169E-05 2.91279E-06 4.57315E-19-1.05938E-18
 -1      3466 9.39395E-05-2.66229E-05-2.88472E-05 2.36552E-06 9.39252E-19-1.08639E-18
 -1      3467 9.39709E-05-2.65105E-05-2.89178E-05 3.25687E-06-3.42115E-19-1.08597E-18
 -1      3468 9.39161E-05-2.63968E-05-2.89314E-05 3.62804E-06-5.88759E-19-8.30210E-19
 -1      3469 9.35660E-05-2.62354E-05-2.88530E-05 2.98065E-06 2.17120E-19-1.56786E-18
 -1      3470 9.37137E-05-2.62556E-05-2.89170E-05 4.03930E-06-4.21335E-19 9.30020E-21
 -1      3471 9.36907E-05-2.62000E-05-2.89178E-05 4.46347E-06 1.45595E-19-5.11904E-20
 -1      3472 9.31660E-05-2.58864E-05-2.88314E-05 3.72439E-06-1.34651E-20-4.78196E-19
 -1      3473 9.35070E-05-2.61298E-05-2.88819E-05 4.94612E-06 9.05193E-20-6.00510E-19
 -1      3474 9.35521E-05-2.61812E-05-2.88646E-05 5.41558E-06 5.54938E-19-5.83156E-19
 -1      3475 9.27751E-05-2.56409E-05-2.87702E-05 4.60856E-06 4.21383E-21-2.58914E-19
 -1      3476 9.34313E-05-2.62403E-05-2.88005E-05 5.97236E-06 1.23583E-18-8.88875E-19
 -1      3477 9.36031E-05-2.64692E-05-2.87602E-05 6.47199E-06 1.30169E-18-1.07096E-18
 -1      3478 9.24595E-05-2.55982E-05-2.86558E-05 5.64522E-06 5.83807E-19-1.10682E-18
 -1      3479 9.36182E-05-2.67407E-05-2.86625E-05 7.10201E-06 1.02270E-18-1.19132E-18
 -1      3480 9.40065E-05-2.72439E-05-2.85972E-05 7.60445E-06 1.23386E-18-8.16850E-19
 -1      3481 9.23316E-05-2.59038E-05-2.84750E-05 6.84572E-06 1.15171E-18-1.13984E-18
 -1      3482 9.42729E-05-2.78399E-05-2.84648E-05 8.29679E-06 1.36413E-18-7.69803E-19
 -1      3483 9.50067E-05-2.87401E-05-2.83798E-05 8.75211E-06 1.19496E-18-4.65526E-19
 -1      3484 9.25729E-05-2.67612E-05-2.82200E-05 8.21499E-06 1.53087E-18-7.37900E-19
 -1      3485 9.56995E-05-2.98008E-05-2.82225E-05 9.46775E-06 2.90657E-19-8.59154E-19
 -1      3486 9.69467E-05-3.12341E-05-2.81385E-05 9.78228E-06-2.99295E-19-1.14875E-18
 -1      3487 9.34649E-05-2.84426E-05-2.78968E-05 9.73195E-06 6.32227E-19-1.03272E-18
 -1      3488 9.83139E-05-3.29079E-05-2.79884E-05 1.04133E-05-3.52314E-19-7.49150E-19
 -1      3489 1.00262E-04-3.49784E-05-2.79545E-05 1.04109E-05-3.22708E-20-3.34158E-19
 -1      3490 9.54228E-05-3.12786E-05-2.75437E-05 1.12943E-05-1.24271E-20-1.21332E-18
 -1      3491 1.02625E-04-3.73758E-05-2.78877E-05 1.07014E-05-3.23752E-19-7.06360E-19
 -1      3492 1.05378E-04-4.00144E-05-2.80023E-05 1.00666E-05-3.51671E-19-7.61279E-19
 -1      3493 9.90019E-05-3.55991E-05-2.72640E-05 1.25974E-05-4.28162E-19-1.15890E-18
 -1      3494 1.08999E-04-4.29623E-05-2.81775E-05 9.43329E-06 4.97165E-19-1.66523E-19
 -1      3495 1.12315E-04-4.56923E-05-2.86076E-05 7.75967E-06 8.45895E-19 1.99990E-19
 -1      3496 1.04956E-04-4.15779E-05-2.72944E-05 1.29121E-05 4.24246E-19-7.59802E-19
 -1      3497 1.20016E-04-3.47408E-05-3.66022E-05-1.49824E-05-7.19502E-19 9.35032E-19
 -1      3498 1.27020E-04-4.92459E-05-3.35064E-05 2.19791E-06-1.47764E-19 4.72163E-18
 -1      3499 1.25378E-04-4.04605E-05-3.66486E-05-1.33337E-05-5.68386E-19 1.13021E-18
 -1      3500 1.24941E-04-5.25684E-05-3.10913E-05-5.83392E-06-1.56025E-18 2.99523E-18
 -1      3501 9.59057E-05-2.73793E-05-2.93757E-05 1.03441E-07 6.68533E-19-1.29727E-18
 -1      3502 9.58828E-05-2.69071E-05-2.95509E-05 5.61731E-07 8.10985E-19-1.40096E-18
 -1      3503 9.57828E-05-2.89132E-05-2.86580E-05-1.02269E-06 1.14253E-19-7.99204E-19
 -1      3504 9.58132E-05-2.88573E-05-2.86927E-05-1.01502E-06 3.58713E-19-9.15498E-19
 -1      3505 9.40187E-05-2.13566E-05-3.11354E-05-4.33420E-06-1.63698E-18-2.04612E-18
 -1      3506 9.54737E-05-2.88049E-05-2.85705E-05-7.84342E-07-8.10828E-20-8.95559E-19
 -1      3507 9.54902E-05-2.88451E-05-2.85629E-05-8.12462E-07 2.33491E-20-8.63597E-19
 -1      3508 9.55440E-05-2.88903E-05-2.85642E-05-8.45235E-07 9.27860E-20-8.54384E-19
 -1      3509 9.55633E-05-2.89164E-05-2.85631E-05-8.82444E-07-4.56758E-20-4.79731E-19
 -1      3510 9.56520E-05-2.89281E-05-2.85972E-05-7.98948E-07 6.54400E-20-6.69528E-19
 -1      3511 9.53401E-05-2.85615E-05-2.86172E-05-7.62325E-07-2.57095E-19-1.27288E-18
 -1      3512 9.53542E-05-2.86247E-05-2.85999E-05-7.50991E-07-8.32498E-20-1.09263E-18
 -1      3513 9.52694E-05-2.84037E-05-2.86543E-05-8.25285E-07-3.44326E-19-7.91713E-19
 -1      3514 9.52844E-05-2.84789E-05-2.86329E-05-7.85273E-07-3.13394E-19-1.06449E-18
 -1      3515 9.53366E-05-2.85118E-05-2.86394E-05-7.58563E-07-4.81813E-19-1.16543E-18
 -1      3516 9.51890E-05-2.82175E-05-2.86994E-05-9.52482E-07-3.32131E-19-8.24736E-19
 -1      3517 9.52067E-05-2.83066E-05-2.86739E-05-8.78013E-07-2.86790E-19-8.18225E-19
 -1      3518 9.52191E-05-2.83145E-05-2.86733E-05-8.36142E-07-2.74537E-19-8.11793E-19
 -1      3519 9.50921E-05-2.79974E-05-2.87519E-05-1.15543E-06-1.58841E-19-1.01012E-18
 -1      3520 9.51145E-05-2.81028E-05-2.87224E-05-1.04045E-06-2.29451E-19-9.82463E-19
 -1      3521 9.50829E-05-2.80817E-05-2.87142E-05-9.77448E-07-2.42605E-19-1.25381E-18
 -1      3522 9.49698E-05-2.77366E-05-2.88109E-05-1.44638E-06-2.85187E-19-5.87012E-19
 -1      3523 9.49999E-05-2.78612E-05-2.87775E-05-1.28441E-06-1.86814E-19-6.55844E-19
 -1      3524 9.49176E-05-2.78063E-05-2.87609E-05-1.19341E-06-3.39079E-19-1.33808E-18
 -1      3525 9.48117E-05-2.74282E-05-2.88749E-05-1.83825E-06 1.99565E-19 1.50436E-20
 -1      3526 9.48528E-05-2.75748E-05-2.88381E-05-1.62250E-06 1.03719E-19-9.45495E-20
 -1      3527 9.47102E-05-2.74801E-05-2.88111E-05-1.49540E-06-5.24412E-19-1.18480E-18
 -1      3528 9.46053E-05-2.70663E-05-2.89411E-05-2.34428E-06 1.76581E-19-2.10314E-19
 -1      3529 9.46616E-05-2.72368E-05-2.89021E-05-2.06790E-06 5.98324E-19-1.12563E-19
 -1      3530 9.44458E-05-2.70950E-05-2.88619E-05-1.89514E-06 4.25406E-19-9.95010E-19
 -1      3531 9.43367E-05-2.66485E-05-2.90047E-05-2.97734E-06 6.06465E-20-9.32262E-20
 -1      3532 9.44127E-05-2.68427E-05-2.89656E-05-2.63391E-06-5.10279E-20-2.89473E-19
 -1      3533 9.41068E-05-2.66445E-05-2.89084E-05-2.40434E-06 1.23366E-19-1.11670E-18
 -1      3534 9.39919E-05-2.61794E-05-2.90575E-05-3.74906E-06 4.43138E-19-8.59240E-19
 -1      3535 9.40914E-05-2.63928E-05-2.90222E-05-3.33323E-06 1.46517E-19-5.57016E-19
 -1      3536 9.36738E-05-2.61266E-05-2.89434E-05-3.03428E-06 3.83199E-19-1.12545E-18
 -1      3537 9.35602E-05-2.56767E-05-2.90874E-05-4.66923E-06 4.27604E-19-7.72351E-19
 -1      3538 9.36842E-05-2.58973E-05-2.90618E-05-4.17739E-06 6.39961E-19-5.31773E-19
 -1      3539 9.31268E-05-2.55472E-05-2.89555E-05-3.79569E-06 1.25367E-19-1.31335E-18
 -1      3540 9.30414E-05-2.51813E-05-2.90763E-05-5.74601E-06-3.25352E-19-2.10127E-18
 -1      3541 9.31835E-05-2.53834E-05-2.90692E-05-5.17673E-06 4.80143E-19-9.88760E-19
 -1      3542 9.24492E-05-2.49277E-05-2.89286E-05-4.69974E-06 6.31076E-19-1.20093E-18
 -1      3543 9.24589E-05-2.47729E-05-2.89996E-05-6.98810E-06-8.03634E-19-1.86999E-18
 -1      3544 9.25969E-05-2.49087E-05-2.90231E-05-6.34191E-06-7.81907E-19-1.92315E-18
 -1      3545 9.16338E-05-2.43146E-05-2.88400E-05-5.76126E-06-2.55756E-19-1.59512E-18
 -1      3546 9.18835E-05-2.45939E-05-2.88254E-05-8.40973E-06-4.88175E-19-2.18209E-18
 -1      3547 9.19645E-05-2.45794E-05-2.88946E-05-7.68812E-06-6.20805E-19-1.82870E-18
 -1      3548 9.06961E-05-2.37960E-05-2.86592E-05-7.00620E-06-6.43088E-19-2.50199E-18
 -1      3549 9.14729E-05-2.48824E-05-2.85174E-05-1.00389E-05 2.52513E-20-2.95699E-18
 -1      3550 9.13888E-05-2.45792E-05-2.86483E-05-9.24296E-06-2.00912E-19-2.60248E-18
 -1      3551 8.96959E-05-2.35251E-05-2.83473E-05-8.48514E-06-3.15993E-19-2.21244E-18
 -1      3552 9.15359E-05-2.60162E-05-2.80432E-05-1.19217E-05 1.34241E-19-2.50503E-18
 -1      3553 9.10857E-05-2.52077E-05-2.82465E-05-1.10556E-05 1.92158E-19-2.70470E-18
 -1      3554 8.87765E-05-2.37551E-05-2.78592E-05-1.02942E-05-2.28231E-19-2.34253E-18
 -1      3555 9.26286E-05-2.85736E-05-2.73958E-05-1.41077E-05-5.36947E-19-2.12081E-18
 -1      3556 9.14666E-05-2.69297E-05-2.76620E-05-1.31998E-05-1.08350E-19-2.29217E-18
 -1      3557 8.82267E-05-2.48856E-05-2.71510E-05-1.25950E-05-8.41193E-20-2.22652E-18
 -1      3558 9.57852E-05-3.33808E-05-2.66722E-05-1.65040E-05-1.35305E-18-1.61125E-18
 -1      3559 9.32685E-05-3.03883E-05-2.69102E-05-1.57001E-05-8.59323E-19-1.59014E-18
 -1      3560 8.86261E-05-2.75675E-05-2.61997E-05-1.56227E-05-9.12489E-19-2.41721E-18
 -1      3561 1.02730E-04-4.28630E-05-2.56037E-05-1.98360E-05-7.33583E-19-2.11235E-18
 -1      3562 9.83834E-05-3.82336E-05-2.57125E-05-1.92135E-05-9.22427E-19-1.91002E-18
 -1      3563 1.09655E-04-4.85388E-05-2.62398E-05-1.90974E-05-7.39460E-19-2.72359E-18
 -1      3564 1.08070E-04-4.87534E-05-2.52516E-05 2.60915E-05-1.57969E-18-1.22822E-18
 -1      3565 9.13853E-05-2.56617E-05-2.82272E-05 1.83108E-05 2.84243E-18-4.17949E-19
 -1      3566 9.41477E-05-2.73070E-05-2.86155E-05 1.82357E-05 1.91294E-18-3.73603E-19
 -1      3567 9.51836E-05-2.91094E-05-2.82880E-05 1.90650E-05 2.41652E-18-4.53917E-19
 -1      3568 8.92879E-05-2.62218E-05-2.70617E-05 1.97005E-05 1.50781E-18-1.23383E-18
 -1      3569 1.22519E-04-5.24814E-05-3.02893E-05 4.75694E-06 6.80897E-19-5.90587E-19
 -1      3570 1.17158E-04-5.18677E-05-2.76573E-05 1.33482E-05 1.84812E-19-8.62015E-19
 -1      3571 7.97055E-05-2.28226E-05-2.41554E-05-1.83821E-05-3.26626E-18 1.29677E-18
 -1      3572 7.45942E-05-1.98496E-05-2.35491E-05-1.45534E-05-2.35219E-18-4.10507E-18
 -1      3573 9.45068E-05-2.24379E-05-3.08787E-05-3.33757E-06-1.44157E-18-1.98919E-18
 -1      3574 8.36486E-05-3.57298E-05-2.06811E-05 2.85619E-05-1.07430E-18-4.10282E-19
 -1      3575 7.05074E-05-2.69814E-05-1.83315E-05 2.63824E-05-1.42429E-18 1.28040E-18
 -1      3576 9.54067E-05-2.86947E-05-2.85888E-05-7.52478E-07 4.36421E-20-1.21400E-18
 -1      3577 9.54215E-05-2.87468E-05-2.85760E-05-7.64023E-07-1.44265E-21-1.03464E-18
 -1      3578 9.55474E-05-2.88179E-05-2.85993E-05-7.51542E-07 2.93262E-20-1.07863E-18
 -1      3579 9.54438E-05-2.86788E-05-2.86142E-05-7.34025E-07 2.24437E-23-9.58480E-19
 -1      3580 1.15531E-04-4.72806E-05-2.92465E-05-1.10202E-05-8.53478E-19 1.62214E-18
 -1      3581 1.11880E-04-4.42848E-05-2.88582E-05-1.30719E-05-5.40089E-19 1.73431E-18
 -1      3582 1.06999E-04-4.86860E-05-2.53284E-05 2.15319E-05 3.40375E-19-1.51942E-18
 -1      3583 9.72693E-05-4.27932E-05-2.29183E-05 2.60679E-05-2.99836E-19-1.51626E-18
 -1      3584 1.02583E-04-4.31681E-05-2.52209E-05 2.60861E-05-3.79057E-19-1.12406E-18
 -1      3585 9.56791E-05-2.55242E-05-3.00612E-05-1.50486E-06-1.10081E-18-1.87593E-18
 -1      3586 9.58365E-05-2.62652E-05-2.98263E-05-8.81679E-07-1.05679E-18-1.68383E-18
 -1      3587 9.59976E-05-2.63013E-05-2.98686E-05-7.18409E-07-1.09072E-18-1.63373E-18
 -1      3588 8.69883E-05-3.69518E-05-2.12516E-05 3.10485E-05-7.07167E-19-1.35144E-18
 -1      3589 7.69481E-05-3.15316E-05-1.89758E-05 3.16441E-05-2.09495E-18-1.92901E-18
 -1      3590 7.27223E-05-2.66476E-05-1.94806E-05 2.67049E-05-1.26250E-18-3.12582E-18
 -1      3591 9.22513E-05-1.81305E-05-3.17772E-05-1.00798E-06-4.53884E-19-2.73542E-18
 -1      3592 9.23624E-05-1.83222E-05-3.17464E-05-1.76563E-06-7.45334E-19-2.55417E-18
 -1      3593 9.33402E-05-1.99912E-05-3.14208E-05-1.75088E-06-7.89595E-19-2.34556E-18
 -1      3594 5.28024E-05-1.35498E-05-1.65621E-05-2.65315E-06 2.12290E-18-2.92438E-18
 -1      3595 5.74113E-05-1.65213E-05-1.74718E-05-1.32149E-05 2.14469E-18-3.79863E-18
 -1      3596 1.26189E-04-4.77903E-05-3.36201E-05-6.22942E-06-1.61135E-19 3.94281E-19
 -1      3597 8.06761E-05-3.53271E-05-1.88955E-05-3.38714E-05 3.46039E-19 2.57297E-18
 -1      3598 9.44212E-05-4.36477E-05-2.17298E-05-3.34934E-05 7.82976E-20 1.78065E-18
 -1      3599 1.21834E-04-5.19989E-05-2.98999E-05-9.56406E-06-1.45334E-18 1.85270E-18
 -1      3600 6.54779E-05-2.15858E-05-1.85356E-05-1.97116E-05 1.44690E-18-4.02767E-18
 -1      3601 7.42094E-05-2.77202E-05-1.98482E-05-2.43833E-05 1.00524E-18-4.05917E-18
 -1      3602 1.01961E-04-3.88887E-05-2.69080E-05 2.20878E-05-1.78049E-19-1.04415E-18
 -1      3603 9.46533E-05-3.89614E-05-2.38632E-05 2.88163E-05-8.81417E-19-1.89682E-18
 -1      3604 8.81085E-05-3.29568E-05-2.35161E-05 2.67937E-05-8.08036E-19-1.71479E-18
 -1      3605 9.80748E-05-3.44817E-05-2.71467E-05 2.16594E-05 4.49496E-19-4.42509E-19
 -1      3606 1.24716E-04-5.04596E-05-3.17899E-05-2.11517E-06 9.94906E-19 1.81278E-19
 -1      3607 1.18389E-04-5.17603E-05-2.86123E-05-1.56742E-05-1.35602E-18 2.42242E-18
 -1      3608 1.19970E-04-4.92643E-05-3.03787E-05 1.70749E-06 9.78115E-19 5.11469E-19
 -1      3609 6.56359E-05-2.27215E-05-1.81918E-05 2.29816E-05-5.70318E-19 1.23932E-19
 -1      3610 6.17269E-05-1.85644E-05-1.83529E-05 1.67777E-05 9.65194E-19-1.02613E-18
 -1      3611 7.39186E-05-2.56001E-05-2.05619E-05 2.14850E-05-1.10514E-18-3.78081E-19
 -1      3612 5.49191E-05-1.63570E-05-1.60065E-05 1.31077E-05-1.72853E-18-9.21371E-18
 -1      3613 5.46694E-05-1.52485E-05-1.65485E-05 6.50072E-06-2.08636E-18-7.23403E-18
 -1      3614 6.13039E-05-1.91578E-05-1.78807E-05 1.81543E-05-1.77355E-18-8.55090E-18
 -1      3615 9.57243E-05-2.63965E-05-2.97200E-05 9.86917E-07 8.60809E-19-1.56490E-18
 -1      3616 9.56455E-05-2.58699E-05-2.99046E-05 1.58004E-06 8.46223E-19-1.71482E-18
 -1      3617 9.58936E-05-2.63957E-05-2.97849E-05 8.22267E-07 7.05571E-19-1.73792E-18
 -1      3618 9.37747E-05-2.07970E-05-3.12557E-05 2.84954E-06 5.31576E-19-2.82786E-18
 -1      3619 9.50425E-05-2.36840E-05-3.05864E-05-2.74505E-06-1.37626E-18-1.90015E-18
 -1      3620 9.53408E-05-2.46433E-05-3.03085E-05-1.99761E-06-1.21355E-18-1.87301E-18
 -1      3621 9.54592E-05-2.46746E-05-3.03301E-05-1.66351E-06-1.12704E-18-1.80316E-18
 -1      3622 9.45527E-05-2.25143E-05-3.08657E-05-2.72752E-06-1.23384E-18-1.91622E-18
 -1      3623 1.16999E-04-4.79563E-05-2.93911E-05 4.83980E-06 1.49147E-19 2.81969E-19
 -1      3624 9.62713E-05-4.13052E-05-2.36175E-05-2.91347E-05-4.73505E-19 8.04734E-19
 -1      3625 1.03996E-04-4.76760E-05-2.38464E-05-3.00272E-05-2.95297E-19 7.03163E-19
 -1      3626 1.10820E-04-4.96146E-05-2.61748E-05-2.39973E-05-5.83778E-19 1.31950E-18
 -1      3627 9.57264E-05-2.89401E-05-2.86212E-05-1.01117E-06 7.13268E-21-7.10103E-19
 -1      3628 9.59825E-05-2.89997E-05-2.87092E-05-9.52024E-07 9.08239E-20-6.62947E-19
 -1      3629 9.56997E-05-2.89587E-05-2.86023E-05-9.87883E-07-1.21992E-19-6.73108E-19
 -1      3630 9.59725E-05-2.77843E-05-2.92145E-05-2.18105E-07 5.95795E-19-1.24685E-18
 -1      3631 9.61169E-05-2.74132E-05-2.94463E-05 4.97241E-08 5.87433E-19-1.48807E-18
 -1      3632 9.59550E-05-2.80869E-05-2.90909E-05-4.97098E-07 4.36243E-19-1.17342E-18
 -1      3633 9.60850E-05-2.88723E-05-2.88080E-05-9.21277E-07 1.05977E-19-1.45836E-18
 -1      3634 9.58626E-05-2.87820E-05-2.87495E-05-9.87769E-07 3.86355E-19-1.30859E-18
 -1      3635 9.58953E-05-2.86721E-05-2.88055E-05-9.25203E-07 3.88979E-19-1.23594E-18
 -1      3636 1.09249E-04-4.17754E-05-2.89064E-05-1.30648E-05-9.92517E-20 1.21364E-18
 -1      3637 1.06541E-04-3.90028E-05-2.88943E-05-1.36662E-05-1.67174E-19 8.92188E-19
 -1      3638 1.05361E-04-3.85117E-05-2.86335E-05-1.53112E-05-1.87208E-18-6.78890E-19
 -1      3639 1.09899E-04-4.38240E-05-2.83370E-05-1.60396E-05-3.86757E-19 1.91367E-18
 -1      3640 9.57600E-05-2.90039E-05-2.86113E-05-8.61691E-07 9.44866E-20-4.60404E-19
 -1      3641 9.56193E-05-2.89452E-05-2.85732E-05-9.19763E-07 2.55464E-20-4.83430E-19
 -1      3642 9.56421E-05-2.89527E-05-2.85807E-05-9.56452E-07 1.15608E-19-6.81076E-19
 -1      3643 9.12669E-05-3.41385E-05-2.45380E-05-2.07823E-05-5.27450E-19-2.48780E-18
 -1      3644 8.33204E-05-3.17149E-05-2.19151E-05-2.30826E-05 6.57298E-19-3.38006E-18
 -1      3645 9.31421E-05-1.96190E-05-3.14944E-05-5.79649E-07-3.20168E-19-2.56837E-18
 -1      3646 7.70584E-05-2.13441E-05-2.40013E-05 1.75961E-05 1.41401E-18-2.72808E-18
 -1      3647 8.26882E-05-2.44643E-05-2.47625E-05 2.07414E-05 1.26978E-18-3.28857E-18
 -1      3648 9.66940E-05-3.11648E-05-2.80402E-05 1.95621E-05 2.75895E-18 7.59666E-19
 -1      3649 9.49378E-05-2.35281E-05-3.06225E-05 3.05971E-06 8.85933E-19-2.17433E-18
 -1      3650 9.46719E-05-2.28280E-05-3.07897E-05 2.81819E-06 6.03016E-19-2.34810E-18
 -1      3651 7.66117E-05-3.05167E-05-1.96200E-05-2.93735E-05-9.60324E-20 1.10757E-18
 -1      3652 7.04144E-05-1.66620E-05-2.29312E-05-7.94424E-06-2.70991E-18-5.24221E-18
 -1      3653 6.86586E-05-1.55944E-05-2.27468E-05-1.86764E-06-1.64475E-18-4.27327E-18
 -1      3654 6.96019E-05-1.87185E-05-2.16631E-05-1.30750E-05-2.04131E-18-4.64260E-18
 -1      3655 8.59887E-05-2.74672E-05-2.51955E-05-2.10290E-05-3.25318E-18 2.95943E-18
 -1      3656 8.16722E-05-2.69700E-05-2.34889E-05-2.23560E-05-2.75781E-18 1.82407E-18
 -1      3657 9.18388E-05-3.08086E-05-2.59746E-05-2.18994E-05-2.67528E-18 9.24076E-19
 -1      3658 1.13245E-04-4.79711E-05-2.81833E-05 1.03720E-05 6.05314E-19-3.84781E-19
 -1      3659 9.03318E-05-3.70263E-05-2.27100E-05 2.43319E-05-9.75755E-19-9.97593E-19
 -1      3660 9.40986E-05-2.15196E-05-3.11205E-05 1.76683E-06 4.20000E-19-2.93787E-18
 -1      3661 9.39610E-05-2.12265E-05-3.11794E-05 1.24983E-06 2.66180E-19-2.76799E-18
 -1      3662 1.10763E-04-4.77848E-05-2.69003E-05 1.49577E-05 2.30975E-19-1.08513E-19
 -1      3663 9.46201E-05-2.23929E-05-3.09372E-05 8.30993E-07 1.45570E-19-2.51648E-18
 -1      3664 9.38777E-05-2.10555E-05-3.12204E-05 8.08301E-07 1.39697E-19-2.62279E-18
 -1      3665 9.38261E-05-2.09579E-05-3.12392E-05 2.46266E-07-3.19455E-20-2.66519E-18
 -1      3666 1.28881E-04-4.34689E-05-3.64035E-05 7.95095E-06-1.47985E-18 7.00406E-18
 -1      3667 9.36613E-05-3.12268E-05-2.67289E-05 2.21230E-05 8.30781E-19 6.09152E-20
 -1      3668 5.39404E-05-1.35855E-05-1.70088E-05 2.27387E-06 1.87782E-18-2.80619E-18
 -1      3669 5.99326E-05-1.45695E-05-1.92319E-05-1.57521E-06 2.09062E-18-2.79060E-18
 -1      3670 5.68428E-05-1.50383E-05-1.78912E-05 8.73329E-06 1.95433E-18-1.97562E-18
 -1      3671 6.55302E-05-1.89419E-05-1.97509E-05-1.39970E-05 1.28485E-18-3.52649E-18
 -1      3672 5.47364E-05-1.66999E-05-1.57631E-05-1.48278E-05-1.30250E-18-5.79217E-18
 -1      3673 6.20760E-05-2.03120E-05-1.76758E-05-1.93250E-05-1.22341E-18-4.61289E-18
 -1      3674 5.47908E-05-1.55158E-05-1.64683E-05-7.73270E-06-2.17995E-18-5.95189E-18
 -1      3675 9.41684E-05-2.16425E-05-3.10813E-05-1.97923E-06-9.39859E-19-2.04169E-18
 -1      3676 9.43790E-05-2.21176E-05-3.09808E-05-2.40325E-06-1.17347E-18-1.98404E-18
 -1      3677 9.49390E-05-2.33006E-05-3.06980E-05-1.88727E-06-1.09107E-18-1.94302E-18
 -1      3678 1.03821E-04-3.76103E-05-2.83572E-05-1.66422E-05-1.94055E-18-6.85121E-19
 -1      3679 1.04859E-04-4.01139E-05-2.77843E-05-1.83529E-05-1.70609E-18 9.84110E-19
 -1      3680 1.01486E-04-3.65255E-05-2.77550E-05-1.90338E-05-2.92910E-18 2.41323E-19
 -1      3681 9.75126E-05-3.43758E-05-2.70894E-05-2.05011E-05-2.78666E-18 7.60770E-20
 -1      3682 1.07546E-04-4.29042E-05-2.76566E-05-1.86265E-05-1.33291E-18 1.75131E-18
 -1      3683 9.63515E-05-2.71042E-05-2.96724E-05-1.87354E-07-7.76510E-19-1.26314E-18
 -1      3684 9.64373E-05-2.76016E-05-2.95071E-05 1.10393E-07-6.78067E-19-1.12988E-18
 -1      3685 9.65275E-05-2.80200E-05-2.93556E-05 2.91234E-07-8.57963E-19-1.01620E-18
 -1      3686 9.65388E-05-2.83407E-05-2.92315E-05 4.73312E-07-7.51374E-19-1.00937E-18
 -1      3687 9.65829E-05-2.76961E-05-2.95219E-05 1.30484E-07-7.07897E-19-9.18723E-19
 -1      3688 9.65471E-05-2.85998E-05-2.91165E-05 5.74652E-07-4.34421E-19-1.00576E-18
 -1      3689 9.65152E-05-2.87927E-05-2.90257E-05 6.71819E-07-2.74066E-19-1.04268E-18
 -1      3690 9.66792E-05-2.84267E-05-2.92515E-05 4.25107E-07-5.82571E-19-9.66839E-19
 -1      3691 9.64728E-05-2.89379E-05-2.89408E-05 7.16503E-07-2.50817E-19-1.02070E-18
 -1      3692 9.64176E-05-2.90402E-05-2.88765E-05 7.55770E-07-1.66776E-19-1.07791E-18
 -1      3693 9.66446E-05-2.88693E-05-2.90479E-05 5.85291E-07-1.90707E-19-8.83451E-19
 -1      3694 9.63465E-05-2.91053E-05-2.88158E-05 7.63438E-07-3.64125E-19-1.06490E-18
 -1      3695 9.62804E-05-2.91442E-05-2.87722E-05 7.66581E-07-5.06926E-19-1.34013E-18
 -1      3696 9.65317E-05-2.91049E-05-2.88989E-05 6.51924E-07-4.05761E-19-1.13297E-18
 -1      3697 9.61946E-05-2.91535E-05-2.87308E-05 7.52973E-07-5.07065E-19-1.18213E-18
 -1      3698 9.61249E-05-2.91481E-05-2.87033E-05 7.36921E-07-4.80825E-19-1.29680E-18
 -1      3699 9.63761E-05-2.91944E-05-2.87940E-05 6.59218E-07-5.40749E-19-9.49377E-19
 -1      3700 9.60331E-05-2.91188E-05-2.86771E-05 7.14165E-07-4.15753E-19-1.32718E-18
 -1      3701 9.59635E-05-2.90823E-05-2.86620E-05 6.91629E-07-3.39754E-19-1.20460E-18
 -1      3702 9.62001E-05-2.91816E-05-2.87239E-05 6.34554E-07-4.36232E-19-6.28436E-19
 -1      3703 9.58698E-05-2.90256E-05-2.86476E-05 6.68813E-07-3.29048E-19-1.08455E-18
 -1      3704 9.58015E-05-2.89662E-05-2.86422E-05 6.49370E-07-8.88090E-21-9.01162E-19
 -1      3705 9.60164E-05-2.90966E-05-2.86813E-05 5.98778E-07-3.65858E-19-7.37150E-19
 -1      3706 9.57069E-05-2.88888E-05-2.86369E-05 6.33477E-07 1.80682E-19-8.89073E-19
 -1      3707 9.56392E-05-2.88113E-05-2.86389E-05 6.24547E-07 1.70416E-19-8.27919E-19
 -1      3708 9.58299E-05-2.89588E-05-2.86601E-05 5.67769E-07 1.83516E-19-4.09004E-19
 -1      3709 9.55422E-05-2.87163E-05-2.86407E-05 6.21170E-07-2.36770E-19-1.05356E-18
 -1      3710 9.54730E-05-2.86227E-05-2.86485E-05 6.28769E-07-6.31589E-19-8.82760E-19
 -1      3711 9.56402E-05-2.87791E-05-2.86554E-05 5.54007E-07-9.30774E-20-8.31761E-19
 -1      3712 9.53704E-05-2.85109E-05-2.86556E-05 6.42672E-07-3.91152E-19-6.27698E-19
 -1      3713 9.52968E-05-2.84013E-05-2.86678E-05 6.72025E-07-3.18648E-19-5.28490E-19
 -1      3714 9.54426E-05-2.85619E-05-2.86633E-05 5.67738E-07-3.10941E-19-9.68976E-19
 -1      3715 9.51839E-05-2.82717E-05-2.86788E-05 7.07625E-07-4.47029E-19-5.49552E-19
 -1      3716 9.51020E-05-2.81449E-05-2.86942E-05 7.63640E-07-6.18187E-19-3.04984E-19
 -1      3717 9.52293E-05-2.83073E-05-2.86804E-05 6.17953E-07-4.08457E-19-5.75319E-19
 -1      3718 9.49730E-05-2.79954E-05-2.87074E-05 8.25422E-07-6.79796E-19-1.06841E-19
 -1      3719 9.48785E-05-2.78496E-05-2.87249E-05 9.13006E-07-6.30898E-19-4.31114E-19
 -1      3720 9.49898E-05-2.80122E-05-2.87036E-05 7.13314E-07-4.38555E-19-2.76997E-19
 -1      3721 9.47269E-05-2.76779E-05-2.87388E-05 1.00581E-06-3.78473E-19-8.98373E-20
 -1      3722 9.46155E-05-2.75119E-05-2.87568E-05 1.13005E-06-3.50956E-19-2.61605E-19
 -1      3723 9.47117E-05-2.76721E-05-2.87295E-05 8.62813E-07-4.01300E-19 1.72196E-19
 -1      3724 9.44345E-05-2.73163E-05-2.87693E-05 1.25926E-06-3.74769E-19-4.02247E-19
 -1      3725 9.43024E-05-2.71301E-05-2.87860E-05 1.42550E-06 3.34451E-19-4.21722E-19
 -1      3726 9.43820E-05-2.72829E-05-2.87541E-05 1.07629E-06-3.05736E-19 6.60493E-19
 -1      3727 9.40855E-05-2.69109E-05-2.87943E-05 1.59728E-06 6.17130E-19-3.21751E-19
 -1      3728 9.39299E-05-2.67074E-05-2.88073E-05 1.81107E-06 8.63333E-19-3.14194E-19
 -1      3729 9.39872E-05-2.68429E-05-2.87727E-05 1.36484E-06 5.12336E-19 3.51138E-19
 -1      3730 9.36720E-05-2.64683E-05-2.88078E-05 2.03253E-06 9.71611E-19-5.21263E-19
 -1      3731 9.34929E-05-2.62548E-05-2.88135E-05 2.29964E-06 8.26945E-19-5.94503E-19
 -1      3732 9.35157E-05-2.63557E-05-2.87785E-05 1.74133E-06 6.31398E-19-2.07449E-20
 -1      3733 9.31916E-05-2.60051E-05-2.88016E-05 2.57922E-06 2.83725E-19-9.20332E-19
 -1      3734 9.29937E-05-2.57960E-05-2.87955E-05 2.90563E-06-3.04406E-20-1.02372E-18
 -1      3735 9.29597E-05-2.58339E-05-2.87630E-05 2.22107E-06 2.34541E-19-2.88029E-19
 -1      3736 9.26512E-05-2.55528E-05-2.87649E-05 3.25371E-06 1.09979E-19-6.43303E-19
 -1      3737 9.24468E-05-2.53728E-05-2.87412E-05 3.64583E-06 2.86117E-19 2.37909E-20
 -1      3738 9.23183E-05-2.53031E-05-2.87150E-05 2.82307E-06 3.62906E-20 4.46905E-19
 -1      3739 9.20732E-05-2.51649E-05-2.86845E-05 4.07589E-06 1.95314E-19-4.00647E-19
 -1      3740 9.18869E-05-2.50529E-05-2.86363E-05 4.54100E-06 1.66628E-19-2.44295E-19
 -1      3741 9.16027E-05-2.48080E-05-2.86202E-05 3.57214E-06 3.61894E-19 2.82967E-19
 -1      3742 9.15042E-05-2.49247E-05-2.85444E-05 5.07140E-06 1.67649E-21-1.31979E-19
 -1      3743 9.13800E-05-2.49392E-05-2.84644E-05 5.61825E-06 4.49260E-19-1.59893E-19
 -1      3744 9.08430E-05-2.44198E-05-2.84615E-05 4.50254E-06 1.84093E-19 1.24687E-19
 -1      3745 9.10291E-05-2.49561E-05-2.83276E-05 6.27441E-06 8.13224E-19-7.97834E-19
 -1      3746 9.10399E-05-2.51818E-05-2.82092E-05 6.91307E-06 1.37108E-18-5.21468E-19
 -1      3747 9.00983E-05-2.42454E-05-2.82189E-05 5.66320E-06 1.57488E-19 1.90407E-19
 -1      3748 9.07915E-05-2.54374E-05-2.80185E-05 7.72908E-06 1.62238E-18-7.65430E-19
 -1      3749 9.10530E-05-2.59927E-05-2.78590E-05 8.46761E-06 1.56777E-18-8.24134E-19
 -1      3750 8.94742E-05-2.44411E-05-2.78719E-05 7.12378E-06 1.48190E-18-1.82769E-19
 -1      3751 9.10260E-05-2.66169E-05-2.76089E-05 9.48457E-06 1.11475E-18-1.61998E-18
 -1      3752 9.17163E-05-2.76627E-05-2.74152E-05 1.03164E-05 6.24399E-19-1.12202E-18
 -1      3753 8.91492E-05-2.52300E-05-2.74030E-05 8.97846E-06 1.05127E-18-8.00982E-19
 -1      3754 9.21131E-05-2.88360E-05-2.71110E-05 1.15649E-05 3.35793E-19-1.00392E-18
 -1      3755 9.34913E-05-3.05711E-05-2.69124E-05 1.24287E-05 2.98839E-19-3.95905E-19
 -1      3756 8.94245E-05-2.69318E-05-2.68063E-05 1.13383E-05 6.03723E-19-1.29340E-18
 -1      3757 9.46488E-05-3.25288E-05-2.65874E-05 1.38866E-05-1.75432E-19-4.63602E-19
 -1      3758 9.71334E-05-3.51715E-05-2.64650E-05 1.45603E-05-4.82848E-19-2.12490E-19
 -1      3759 9.08057E-05-2.99785E-05-2.61098E-05 1.42823E-05 1.00475E-19-1.63577E-19
 -1      3760 9.49787E-05-2.79468E-05-2.87260E-05-9.50828E-07-4.92976E-19-1.38518E-18
 -1      3761 9.50541E-05-2.80827E-05-2.87048E-05-8.64171E-07-3.19537E-19-1.39964E-18
 -1      3762 1.31720E-04-5.91411E-05-3.12951E-05 9.97277E-06-2.83675E-18-1.73961E-18
 -1      3763 9.57460E-05-2.89549E-05-2.86231E-05-7.21499E-07 1.38540E-19-7.60249E-19
 -1      3764 9.58000E-05-2.90042E-05-2.86269E-05-7.46209E-07 2.00498E-19-6.84901E-19
 -1      3765 1.17293E-04-3.31614E-05-3.64356E-05 1.12776E-05-1.86104E-18 2.96161E-18
 -1      3766 9.51672E-05-2.82222E-05-2.86888E-05-8.04011E-07-3.33711E-19-1.32178E-18
 -1      3767 9.52306E-05-2.83373E-05-2.86707E-05-7.50469E-07-3.72246E-19-1.41070E-18
 -1      3768 9.50677E-05-2.80970E-05-2.87008E-05-7.70589E-07-4.29088E-19-2.09366E-18
 -1      3769 9.53284E-05-2.84558E-05-2.86578E-05-7.17479E-07-4.04422E-19-1.25552E-18
 -1      3770 9.53847E-05-2.85534E-05-2.86436E-05-6.91897E-07-4.15615E-19-1.14103E-18
 -1      3771 9.52763E-05-2.83716E-05-2.86732E-05-6.78351E-07-1.93376E-19-1.56235E-18
 -1      3772 9.47494E-05-2.76215E-05-2.87671E-05-1.16761E-06-5.46950E-19-1.45767E-18
 -1      3773 9.48427E-05-2.77820E-05-2.87438E-05-1.04260E-06-3.11092E-19-1.43788E-18
 -1      3774 9.48213E-05-2.77733E-05-2.87331E-05-9.18712E-07-4.04802E-19-1.64557E-18
 -1      3775 9.44630E-05-2.72369E-05-2.88092E-05-1.46416E-06-2.46119E-19-1.91929E-18
 -1      3776 9.45812E-05-2.74264E-05-2.87851E-05-1.29550E-06-5.78696E-19-1.89875E-18
 -1      3777 9.45204E-05-2.73913E-05-2.87669E-05-1.13100E-06-2.60933E-19-1.88598E-18
 -1      3778 9.41001E-05-2.67842E-05-2.88477E-05-1.85024E-06 5.06335E-19-1.93840E-18
 -1      3779 9.42517E-05-2.70064E-05-2.88249E-05-1.63268E-06 3.35537E-19-1.92382E-18
 -1      3780 9.41452E-05-2.69408E-05-2.87980E-05-1.41550E-06 5.45289E-20-2.59322E-18
 -1      3781 9.36390E-05-2.62566E-05-2.88764E-05-2.33513E-06-1.62657E-19-1.37340E-18
 -1      3782 9.38334E-05-2.65139E-05-2.88580E-05-2.06377E-06 4.25945E-19-1.32949E-18
 -1      3783 9.36726E-05-2.64125E-05-2.88205E-05-1.77981E-06-7.87144E-20-1.51174E-18
 -1      3784 9.30551E-05-2.56519E-05-2.88855E-05-2.92740E-06 5.58968E-19-1.35678E-18
 -1      3785 9.33025E-05-2.59439E-05-2.88763E-05-2.59783E-06 5.41579E-20-1.39646E-18
 -1      3786 9.30765E-05-2.57996E-05-2.88258E-05-2.23073E-06 6.88918E-20-1.92949E-18
 -1      3787 9.23231E-05-2.49769E-05-2.88613E-05-3.63524E-06 1.90709E-19-1.22562E-18
 -1      3788 9.26335E-05-2.52979E-05-2.88683E-05-3.24344E-06 5.57615E-19-1.10832E-18
 -1      3789 9.23275E-05-2.51009E-05-2.88020E-05-2.77440E-06 2.38678E-19-1.55842E-18
 -1      3790 9.14198E-05-2.42535E-05-2.87841E-05-4.46851E-06 2.80814E-19-1.54614E-18
 -1      3791 9.18002E-05-2.45890E-05-2.88172E-05-4.00983E-06 3.27952E-19-1.40598E-18
 -1      3792 9.13942E-05-2.43243E-05-2.87321E-05-3.41749E-06 6.07673E-19-1.52350E-18
 -1      3793 9.03295E-05-2.35280E-05-2.86270E-05-5.44406E-06-8.47910E-20-2.19410E-18
 -1      3794 9.07795E-05-2.38490E-05-2.86998E-05-4.91051E-06 3.76902E-19-1.74401E-18
 -1      3795 9.02441E-05-2.34925E-05-2.85924E-05-4.17087E-06 4.89975E-19-2.06395E-18
 -1      3796 8.90551E-05-2.28854E-05-2.83537E-05-6.59685E-06-4.31089E-19-2.68498E-18
 -1      3797 8.95585E-05-2.31398E-05-2.84843E-05-5.97156E-06-3.75798E-19-2.36255E-18
 -1      3798 8.88471E-05-2.26504E-05-2.83506E-05-5.05812E-06 2.55970E-19-2.61787E-18
 -1      3799 8.76360E-05-2.24692E-05-2.79178E-05-7.99879E-06-5.64456E-19-2.62900E-18
 -1      3800 8.81463E-05-2.25699E-05-2.81284E-05-7.24670E-06-5.25068E-19-2.56938E-18
 -1      3801 8.71804E-05-2.18771E-05-2.79633E-05-6.13158E-06-5.63759E-19-2.91831E-18
 -1      3802 8.61804E-05-2.25113E-05-2.72625E-05-9.79016E-06-4.66098E-19-2.06657E-18
 -1      3803 8.65939E-05-2.23170E-05-2.75783E-05-8.84457E-06-5.96577E-19-2.23800E-18
 -1      3804 8.52356E-05-2.12981E-05-2.73726E-05-7.49976E-06-7.55556E-19-2.56066E-18
 -1      3805 8.49108E-05-2.33813E-05-2.63250E-05-1.22196E-05-1.13760E-19-1.42942E-18
 -1      3806 8.50402E-05-2.26724E-05-2.67685E-05-1.09709E-05 3.38664E-20-1.40963E-18
 -1      3807 8.30330E-05-2.11102E-05-2.65024E-05-9.38291E-06-6.49960E-19-1.56169E-18
 -1      3808 8.45091E-05-2.57564E-05-2.50857E-05-1.55654E-05-7.46425E-19-1.88457E-18
 -1      3809 8.37878E-05-2.40920E-05-2.56262E-05-1.39375E-05-1.03951E-19-1.44008E-18
 -1      3810 8.07674E-05-2.16580E-05-2.52517E-05-1.22261E-05-2.29046E-20-7.12694E-19
 -1      3811 8.67167E-05-2.97223E-05-2.43544E-05 2.40235E-05 1.88796E-19-2.05795E-18
 -1      3812 7.91456E-05-2.79209E-05-2.20251E-05 2.57131E-05-2.07970E-19-1.40528E-18
 -1      3813 9.59219E-05-2.57244E-05-3.00835E-05-9.11523E-07-9.93602E-19-1.65914E-18
 -1      3814 9.61351E-05-2.64619E-05-2.98673E-05-4.68721E-07-9.73143E-19-1.56486E-18
 -1      3815 9.62842E-05-2.65770E-05-2.98719E-05-3.39269E-07-6.47231E-19-1.22838E-18
 -1      3816 9.53179E-05-2.41633E-05-3.05000E-05-1.61788E-06-1.05760E-18-1.86389E-18
 -1      3817 9.56605E-05-2.50668E-05-3.02578E-05-1.14737E-06-1.02844E-18-1.80543E-18
 -1      3818 9.58033E-05-2.52180E-05-3.02457E-05-8.78658E-07-8.99792E-19-1.66706E-18
 -1      3819 9.51840E-05-2.37427E-05-3.06128E-05-1.37367E-06-9.35026E-19-1.95075E-18
 -1      3820 9.39097E-05-2.11088E-05-3.12040E-05-1.04719E-06-5.48355E-19-2.11319E-18
 -1      3821 9.40353E-05-2.13801E-05-3.11498E-05-1.56879E-06-7.74321E-19-2.15905E-18
 -1      3822 9.46912E-05-2.26190E-05-3.08792E-05-1.24501E-06-8.01571E-19-1.93183E-18
 -1      3823 1.23887E-04-5.52358E-05-2.95701E-05 1.31504E-05-2.82218E-18-7.70826E-19
 -1      3824 9.51654E-05-2.44110E-05-3.03162E-05 2.87285E-06 1.03768E-18-1.87588E-18
 -1      3825 9.54239E-05-2.50676E-05-3.01447E-05 2.08533E-06 8.51461E-19-1.86658E-18
 -1      3826 7.19890E-05-2.31557E-05-2.06093E-05 2.25243E-05-1.17261E-19-4.10215E-18
 -1      3827 7.05162E-05-2.26960E-05-2.01061E-05-2.24766E-05-1.57931E-18-1.32555E-18
 -1      3828 8.03014E-05-2.92432E-05-2.18380E-05-2.55533E-05-1.52828E-18 1.86038E-18
 -1      3829 8.99704E-05-2.94539E-05-2.59750E-05 2.21871E-05 5.78735E-19-1.83875E-18
 -1      3830 1.06053E-04-4.43234E-05-2.61908E-05 1.69414E-05 9.00356E-19-6.49960E-19
 -1      3831 8.13131E-05-2.68047E-05-2.33589E-05-1.89487E-05-3.05241E-19-2.97150E-18
 -1      3832 1.02162E-04-4.10704E-05-2.60711E-05 1.66488E-05 1.21823E-18-2.08971E-20
 -1      3833 9.75133E-05-4.04506E-05-2.47051E-05 2.12111E-05 4.36420E-20-4.11499E-19
 -1      3834 8.69669E-05-3.34109E-05-2.28131E-05 2.27981E-05-1.10609E-18-3.51419E-19
 -1      3835 9.84016E-05-3.75500E-05-2.60014E-05 1.64909E-05 2.04744E-20-6.15328E-19
 -1      3836 9.59273E-05-2.85258E-05-2.88886E-05-8.33958E-07 4.22109E-19-1.21996E-18
 -1      3837 9.59577E-05-2.83375E-05-2.89735E-05-6.84296E-07 4.67533E-19-1.12949E-18
 -1      3838 9.61628E-05-2.86096E-05-2.89540E-05-7.84295E-07 4.33959E-19-1.41177E-18
 -1      3839 6.91957E-05-1.59720E-05-2.28205E-05 6.23386E-06-4.91084E-19-5.19901E-18
 -1      3840 7.20765E-05-1.75735E-05-2.31957E-05 1.19473E-05 7.64728E-19-4.67704E-18
 -1      3841 7.21309E-05-2.03510E-05-2.20508E-05 1.68341E-05 8.88107E-19-4.46355E-18
 -1      3842 6.53464E-05-1.57386E-05-2.10610E-05 2.46712E-06-1.99377E-18-5.43421E-18
 -1      3843 9.55002E-05-2.50385E-05-3.01969E-05 1.77951E-06 7.32459E-19-2.01283E-18
 -1      3844 9.44709E-05-2.23479E-05-3.09286E-05 2.56224E-06 5.76699E-19-2.63006E-18
 -1      3845 9.42587E-05-2.18521E-05-3.10351E-05 2.13923E-06 4.43407E-19-2.79387E-18
 -1      3846 9.48212E-05-2.28894E-05-3.08095E-05 1.55908E-06 3.67858E-19-2.71915E-18
 -1      3847 9.51066E-05-2.37132E-05-3.05820E-05 2.07955E-06 6.04632E-19-2.46150E-18
 -1      3848 8.89494E-05-3.41018E-05-2.31997E-05-2.77723E-05-1.74436E-18 1.77595E-18
 -1      3849 7.65056E-05-2.32360E-05-2.27989E-05-1.71633E-05 2.64089E-19-2.65297E-18
 -1      3850 6.69776E-05-1.95969E-05-2.01745E-05-1.70600E-05-1.83044E-18-4.14564E-18
 -1      3851 9.38206E-05-2.09381E-05-3.12433E-05-1.22442E-07-1.15473E-19-2.51664E-18
 -1      3852 9.38588E-05-2.10225E-05-3.12265E-05-6.82405E-07-4.16731E-19-2.24284E-18
 -1      3853 9.45648E-05-2.22814E-05-3.09642E-05-5.52530E-07-4.83647E-19-2.04340E-18
 -1      3854 9.45460E-05-2.22165E-05-3.09807E-05 1.03601E-07-1.33980E-19-2.47075E-18
 -1      3855 9.29487E-05-3.42835E-05-2.52302E-05 1.79779E-05 1.37507E-19-2.27587E-19
 -1      3856 9.61887E-05-2.81524E-05-2.91609E-05-4.83867E-07 4.46510E-19-1.46009E-18
 -1      3857 9.65387E-05-3.81547E-05-2.49607E-05-2.52712E-05-1.77963E-18 1.21529E-19
 -1      3858 9.56631E-05-2.88870E-05-2.86189E-05-7.00826E-07 2.29352E-19-7.36390E-19
 -1      3859 9.57972E-05-2.89606E-05-2.86454E-05-6.50141E-07 3.50203E-19-1.13939E-18
 -1      3860 9.56105E-05-2.88205E-05-2.86225E-05-6.86611E-07 1.83216E-19-9.73666E-19
 -1      3861 9.58714E-05-2.90341E-05-2.86465E-05-9.21035E-07-4.69736E-20-4.55708E-19
 -1      3862 9.62758E-05-2.89687E-05-2.88464E-05-8.41212E-07-2.70104E-19-1.06197E-18
 -1      3863 9.63241E-05-2.88625E-05-2.89089E-05-7.95056E-07 2.45642E-20-1.36389E-18
 -1      3864 6.18585E-05-1.63562E-05-1.94403E-05-1.00380E-05-2.00398E-18-5.62364E-18
 -1      3865 9.54733E-05-2.86541E-05-2.86350E-05-6.81640E-07-2.83079E-19-8.75735E-19
 -1      3866 9.55263E-05-2.87360E-05-2.86255E-05-6.78783E-07-2.80768E-20-1.07341E-18
 -1      3867 9.56318E-05-2.88008E-05-2.86426E-05-6.27409E-07-1.12990E-19-1.27456E-18
 -1      3868 6.37714E-05-1.73869E-05-1.97839E-05 1.11392E-05 1.22013E-18-2.00229E-18
 -1      3869 9.60070E-05-2.63812E-05-2.98471E-05 6.52001E-07 4.30710E-19-1.97361E-18
 -1      3870 9.58318E-05-2.57575E-05-3.00213E-05 1.08128E-06 5.59062E-19-2.03827E-18
 -1      3871 9.53179E-05-2.41073E-05-3.05320E-05 1.36737E-06 4.00150E-19-2.66151E-18
 -1      3872 9.52182E-05-2.37757E-05-3.06212E-05 1.08465E-06 2.75159E-19-2.66822E-18
 -1      3873 6.30196E-05-1.50516E-05-2.06369E-05-5.39778E-07 2.06604E-18-2.89266E-18
 -1      3874 6.31473E-05-1.52366E-05-2.04386E-05-5.12932E-06 2.07865E-18-3.49319E-18
 -1      3875 6.48078E-05-1.89943E-05-1.95705E-05 1.66941E-05-4.00494E-19-6.34629E-18
 -1      3876 8.87586E-05-3.23481E-05-2.40684E-05 1.94772E-05-2.94341E-19-2.36340E-19
 -1      3877 8.10530E-05-2.91071E-05-2.21840E-05 2.20498E-05-1.29845E-18-2.94145E-20
 -1      3878 7.60884E-05-2.49694E-05-2.19612E-05 1.90437E-05-7.74605E-19-8.80352E-19
 -1      3879 8.75899E-05-3.01807E-05-2.46378E-05 1.74559E-05-2.21929E-19 1.86576E-19
 -1      3880 9.59302E-05-3.56262E-05-2.59237E-05-2.29032E-05-2.70922E-18 3.72225E-19
 -1      3881 6.96544E-05-1.86055E-05-2.18814E-05-1.14725E-05 1.27653E-18-2.34588E-18
 -1      3882 9.62822E-05-2.75165E-05-2.94768E-05-5.52821E-08 5.84137E-19-1.76892E-18
 -1      3883 9.62075E-05-2.70212E-05-2.96448E-05 2.87832E-07 5.73747E-19-1.85081E-18
 -1      3884 9.61395E-05-2.64455E-05-2.98680E-05 5.09070E-07 5.57932E-19-2.20179E-18
 -1      3885 9.51501E-05-2.35777E-05-3.06854E-05 8.34851E-07 1.96003E-19-2.58537E-18
 -1      3886 9.50892E-05-2.34097E-05-3.07268E-05 4.84541E-07 5.75702E-20-2.45488E-18
 -1      3887 9.56641E-05-2.46405E-05-3.04232E-05 7.12449E-07 2.42182E-19-2.53961E-18
 -1      3888 9.61557E-05-2.90834E-05-2.87448E-05-8.58414E-07-8.80364E-20-7.53570E-19
 -1      3889 9.62115E-05-2.90384E-05-2.87863E-05-8.54185E-07-2.21867E-19-9.60977E-19
 -1      3890 9.64216E-05-2.90417E-05-2.88790E-05-7.47875E-07-3.79169E-19-1.20419E-18
 -1      3891 9.55738E-05-2.50057E-05-3.02520E-05 1.51585E-06 5.35586E-19-2.25307E-18
 -1      3892 5.81356E-05-1.48568E-05-1.82933E-05-3.22010E-06-1.95622E-18-6.31516E-18
 -1      3893 9.54670E-05-2.45584E-05-3.03888E-05 1.37249E-06 4.47375E-19-2.49101E-18
 -1      3894 9.59614E-05-2.90801E-05-2.86650E-05-6.90277E-07 2.95222E-19-6.83647E-19
 -1      3895 9.58831E-05-2.90524E-05-2.86403E-05-7.73496E-07 1.64571E-19-4.41543E-19
 -1      3896 9.59392E-05-2.90799E-05-2.86535E-05-8.00552E-07 5.71662E-20-4.00798E-19
 -1      3897 1.08787E-04-4.60780E-05-2.69316E-05-2.11239E-05-4.05130E-19 2.22910E-18
 -1      3898 1.03432E-04-4.17611E-05-2.63030E-05-2.33682E-05-1.40402E-18 1.08121E-18
 -1      3899 9.54607E-05-2.86046E-05-2.86529E-05-6.33562E-07-5.61919E-20-1.09285E-18
 -1      3900 9.66217E-05-2.74090E-05-2.96601E-05-6.29374E-09-4.89350E-19-1.35202E-18
 -1      3901 9.67135E-05-2.78791E-05-2.95048E-05 1.84023E-07-7.33564E-19-1.22978E-18
 -1      3902 9.67873E-05-2.82668E-05-2.93635E-05 2.78666E-07-8.18566E-19-1.05330E-18
 -1      3903 9.67972E-05-2.85653E-05-2.92446E-05 3.93561E-07-4.08490E-19-1.00121E-18
 -1      3904 9.68163E-05-2.80021E-05-2.94908E-05 1.62466E-07-6.18769E-19-1.35574E-18
 -1      3905 9.67899E-05-2.87999E-05-2.91364E-05 4.42401E-07-2.01814E-19-1.03848E-18
 -1      3906 9.67486E-05-2.89722E-05-2.90480E-05 5.02299E-07-2.77063E-19-1.03434E-18
 -1      3907 9.68801E-05-2.86573E-05-2.92389E-05 3.14574E-07-4.62372E-19-1.17525E-18
 -1      3908 9.66909E-05-2.90963E-05-2.89674E-05 5.19843E-07-2.80195E-19-1.26027E-18
 -1      3909 9.66206E-05-2.91789E-05-2.89036E-05 5.42500E-07-3.27813E-19-1.10562E-18
 -1      3910 9.68140E-05-2.90386E-05-2.90479E-05 3.92629E-07-2.80746E-19-1.24419E-18
 -1      3911 9.65336E-05-2.92243E-05-2.88456E-05 5.39920E-07-3.64654E-19-9.98597E-19
 -1      3912 9.64482E-05-2.92430E-05-2.88015E-05 5.40289E-07-2.82332E-19-6.97429E-19
 -1      3913 9.66698E-05-2.92230E-05-2.89074E-05 4.20558E-07-2.47155E-19-1.10478E-18
 -1      3914 9.63465E-05-2.92337E-05-2.87618E-05 5.27575E-07-3.28162E-19-4.90387E-19
 -1      3915 9.62548E-05-2.92078E-05-2.87334E-05 5.16814E-07-4.79489E-19-5.49534E-19
 -1      3916 9.64819E-05-2.92670E-05-2.88081E-05 4.17965E-07-2.21260E-19-8.21497E-19
 -1      3917 9.61462E-05-2.91598E-05-2.87081E-05 5.00969E-07-3.07832E-19-4.53292E-19
 -1      3918 9.60525E-05-2.91019E-05-2.86919E-05 4.87875E-07 1.10729E-20-2.30262E-19
 -1      3919 9.62732E-05-2.92130E-05-2.87417E-05 4.00437E-07-1.84726E-19-5.51962E-19
 -1      3920 9.59403E-05-2.90253E-05-2.86779E-05 4.74348E-07-1.24862E-19-3.79183E-19
 -1      3921 9.58455E-05-2.89430E-05-2.86713E-05 4.65832E-07 4.67080E-20-5.41166E-19
 -1      3922 9.60545E-05-2.90879E-05-2.87013E-05 3.80427E-07-1.31681E-19-1.83703E-19
 -1      3923 9.57300E-05-2.88438E-05-2.86660E-05 4.59149E-07-4.52347E-20-9.54932E-19
 -1      3924 9.56328E-05-2.87411E-05-2.86667E-05 4.60648E-07-1.64413E-19-9.97812E-19
 -1      3925 9.58289E-05-2.89082E-05-2.86812E-05 3.67103E-07-3.32330E-19-1.22489E-18
 -1      3926 9.55113E-05-2.86215E-05-2.86681E-05 4.64475E-07-8.41119E-20-1.15799E-18
 -1      3927 9.54084E-05-2.84994E-05-2.86742E-05 4.80539E-07-2.74495E-19-9.35814E-19
 -1      3928 9.55944E-05-2.86829E-05-2.86767E-05 3.68591E-07-1.76684E-19-9.04260E-19
 -1      3929 9.52764E-05-2.83594E-05-2.86803E-05 4.98164E-07-2.21445E-19-1.00228E-18
 -1      3930 9.51631E-05-2.82170E-05-2.86902E-05 5.32966E-07-3.52055E-19-7.21302E-19
 -1      3931 9.53436E-05-2.84146E-05-2.86836E-05 3.91390E-07-2.25290E-19-7.82373E-19
 -1      3932 9.50139E-05-2.80544E-05-2.86992E-05 5.67756E-07-3.06710E-19-3.94162E-19
 -1      3933 9.48844E-05-2.78895E-05-2.87112E-05 6.25445E-07-4.12432E-20-7.71183E-20
 -1      3934 9.50654E-05-2.81009E-05-2.86980E-05 4.41789E-07-1.34613E-19-4.33578E-19
 -1      3935 9.47104E-05-2.77014E-05-2.87211E-05 6.81120E-07-1.10279E-19 2.03488E-19
 -1      3936 9.45582E-05-2.75115E-05-2.87335E-05 7.66097E-07-6.12449E-20 5.94626E-19
 -1      3937 9.47458E-05-2.77369E-05-2.87162E-05 5.26421E-07 1.10078E-19 2.15299E-19
 -1      3938 9.43506E-05-2.72948E-05-2.87420E-05 8.47007E-07-4.94083E-19 4.86112E-19
 -1      3939 9.41689E-05-2.70780E-05-2.87525E-05 9.64155E-07-3.38629E-19 5.72982E-20
 -1      3940 9.43681E-05-2.73161E-05-2.87337E-05 6.52796E-07-3.09328E-19 2.98098E-19
 -1      3941 9.39184E-05-2.68308E-05-2.87567E-05 1.07559E-06 2.06931E-19 3.71687E-19
 -1      3942 9.37007E-05-2.65868E-05-2.87624E-05 1.23050E-06 6.44534E-19 1.22805E-19
 -1      3943 9.39147E-05-2.68333E-05-2.87452E-05 8.29891E-07 8.60133E-20 1.05018E-19
 -1      3944 9.33981E-05-2.63092E-05-2.87585E-05 1.37910E-06 5.41839E-19 2.17988E-19
 -1      3945 9.31392E-05-2.60412E-05-2.87555E-05 1.57838E-06 4.23182E-19-2.31770E-19
 -1      3946 9.33669E-05-2.62858E-05-2.87438E-05 1.06888E-06 4.83885E-19-1.54234E-19
 -1      3947 9.27762E-05-2.57373E-05-2.87385E-05 1.77267E-06 2.52012E-19-1.93908E-19
 -1      3948 9.24735E-05-2.54534E-05-2.87218E-05 2.02444E-06 1.24748E-19 2.88858E-20
 -1      3949 9.27072E-05-2.56769E-05-2.87207E-05 1.38416E-06 2.24244E-19-4.53471E-21
 -1      3950 9.20435E-05-2.51329E-05-2.86851E-05 2.27581E-06 1.82707E-19 4.73084E-19
 -1      3951 9.16991E-05-2.48489E-05-2.86482E-05 2.59060E-06 2.43850E-19 6.57547E-19
 -1      3952 9.19205E-05-2.50190E-05-2.86640E-05 1.79491E-06 4.70445E-19 2.17838E-19
 -1      3953 9.11985E-05-2.45295E-05-2.85836E-05 2.91477E-06-9.31146E-20 1.03927E-18
 -1      3954 9.08220E-05-2.42715E-05-2.85183E-05 3.30698E-06 3.31595E-19 8.47396E-19
 -1      3955 9.09962E-05-2.43371E-05-2.85587E-05 2.32765E-06 3.79545E-19 4.68040E-19
 -1      3956 9.02521E-05-2.39818E-05-2.84153E-05 3.72649E-06 4.50889E-19 7.77066E-20
 -1      3957 8.98647E-05-2.37902E-05-2.83119E-05 4.21686E-06 2.12027E-19 6.34251E-19
 -1      3958 8.99316E-05-2.36738E-05-2.83852E-05 3.02040E-06 2.12843E-19 6.03197E-19
 -1      3959 8.92336E-05-2.35725E-05-2.81575E-05 4.76516E-06-2.05356E-19 4.73115E-19
 -1      3960 8.88752E-05-2.35071E-05-2.80049E-05 5.38422E-06 4.78928E-19 2.85716E-19
 -1      3961 8.87344E-05-2.30939E-05-2.81194E-05 3.92955E-06 1.07074E-19-1.36951E-19
 -1      3962 8.82016E-05-2.34225E-05-2.77835E-05 6.11178E-06 7.56410E-19 3.79558E-19
 -1      3963 8.79413E-05-2.35699E-05-2.75707E-05 6.90378E-06 1.13305E-18-1.09760E-19
 -1      3964 8.74283E-05-2.26917E-05-2.77313E-05 5.14103E-06 3.92928E-19 2.03300E-19
 -1      3965 8.72628E-05-2.37051E-05-2.72647E-05 7.88499E-06 1.19138E-18-5.79537E-19
 -1      3966 8.72156E-05-2.41886E-05-2.69829E-05 8.91025E-06 7.27033E-19-8.32864E-19
 -1      3967 8.60638E-05-2.26038E-05-2.71852E-05 6.78545E-06 6.96420E-19-1.04655E-18
 -1      3968 8.66085E-05-2.46727E-05-2.65719E-05 1.02542E-05 3.27476E-19-7.79872E-19
 -1      3969 8.69681E-05-2.56785E-05-2.62187E-05 1.15821E-05 1.88825E-19-9.56664E-19
 -1      3970 8.47419E-05-2.30335E-05-2.64386E-05 9.05978E-06 6.25985E-19-1.59888E-18
 -1      3971 8.65327E-05-2.66576E-05-2.56899E-05 1.33672E-05 5.39234E-19-7.28861E-19
 -1      3972 8.75904E-05-2.84012E-05-2.52881E-05 1.50381E-05 4.24274E-19-2.95870E-19
 -1      3973 8.30482E-05-2.64958E-05-2.41747E-05 1.64375E-05 1.25786E-19-7.21996E-19
 -1      3974 8.36268E-05-2.42257E-05-2.54500E-05 1.22025E-05 5.41841E-19-8.73511E-19
 -1      3975 9.43107E-05-2.71882E-05-2.87663E-05-1.03282E-06-4.44873E-21-1.98937E-18
 -1      3976 9.44798E-05-2.74037E-05-2.87507E-05-9.16338E-07-7.74437E-20-1.62198E-18
 -1      3977 1.15105E-04-5.03352E-05-2.76060E-05-1.87733E-05-5.87533E-19 2.33101E-18
 -1      3978 6.45026E-05-1.51718E-05-2.09414E-05 4.08794E-06 1.89570E-18-3.37212E-18
 -1      3979 6.74726E-05-1.59490E-05-2.20260E-05 8.00152E-07 1.85132E-18-3.18041E-18
 -1      3980 9.49731E-05-2.79801E-05-2.87103E-05-6.96801E-07-1.26922E-19-1.35019E-18
 -1      3981 9.50868E-05-2.81354E-05-2.86956E-05-6.39604E-07 1.29106E-19-1.10624E-18
 -1      3982 9.58157E-05-2.53007E-05-3.02154E-05 8.81467E-07 3.73213E-19-2.56623E-18
 -1      3983 9.52237E-05-2.82890E-05-2.86851E-05-6.05449E-07-2.11662E-19-8.61292E-19
 -1      3984 9.53220E-05-2.84209E-05-2.86734E-05-5.72280E-07-2.62576E-20-7.74857E-19
 -1      3985 9.51353E-05-2.81791E-05-2.86946E-05-5.27677E-07 2.02799E-19-2.40630E-19
 -1      3986 9.38569E-05-2.66845E-05-2.87881E-05-1.28966E-06-1.19846E-19-1.42401E-18
 -1      3987 9.40692E-05-2.69375E-05-2.87754E-05-1.13845E-06 5.89236E-20-1.88812E-18
 -1      3988 9.40562E-05-2.69420E-05-2.87591E-05-9.08641E-07-1.92371E-19-1.53294E-18
 -1      3989 9.32877E-05-2.60962E-05-2.87968E-05-1.61243E-06-1.56134E-19-1.40018E-18
 -1      3990 9.35556E-05-2.63908E-05-2.87908E-05-1.42377E-06-2.55277E-20-1.50929E-18
 -1      3991 9.35198E-05-2.63792E-05-2.87688E-05-1.12748E-06 8.81218E-20-1.41075E-18
 -1      3992 9.25732E-05-2.54171E-05-2.87824E-05-2.00465E-06 4.54458E-19-2.08940E-18
 -1      3993 9.29111E-05-2.57554E-05-2.87882E-05-1.77646E-06 1.90783E-19-1.96246E-18
 -1      3994 9.28499E-05-2.57253E-05-2.87601E-05-1.39637E-06 3.80659E-19-1.73504E-18
 -1      3995 9.16801E-05-2.46466E-05-2.87308E-05-2.46866E-06 3.19086E-20-1.64755E-18
 -1      3996 9.21035E-05-2.50276E-05-2.87557E-05-2.19939E-06-2.80280E-20-1.92636E-18
 -1      3997 9.20140E-05-2.49751E-05-2.87209E-05-1.71525E-06 1.45232E-19-1.75879E-18
 -1      3998 9.05716E-05-2.37935E-05-2.86225E-05-3.00703E-06 5.53901E-19-1.07951E-18
 -1      3999 9.10973E-05-2.42108E-05-2.86766E-05-2.69468E-06 5.61784E-19-1.04359E-18
 -1      4000 9.09746E-05-2.41294E-05-2.86349E-05-2.08252E-06-1.25641E-20-1.73643E-18
 -1      4001 8.92072E-05-2.28797E-05-2.84304E-05-3.62670E-06 5.73964E-19-1.45842E-18
 -1      4002 8.98519E-05-2.33192E-05-2.85279E-05-3.26624E-06 6.83682E-19-1.29854E-18
 -1      4003 8.96890E-05-2.31972E-05-2.84796E-05-2.49665E-06 7.45620E-19-6.17712E-19
 -1      4004 8.75426E-05-2.19454E-05-2.81180E-05-4.34822E-06-3.29114E-19-1.30854E-18
 -1      4005 8.83214E-05-2.23819E-05-2.82777E-05-3.92602E-06-2.75834E-20-1.60591E-18
 -1      4006 8.81055E-05-2.21981E-05-2.82242E-05-2.96084E-06 1.29814E-19-1.26427E-18
 -1      4007 8.55281E-05-2.10568E-05-2.76350E-05-5.22429E-06-8.96143E-19-1.83350E-18
 -1      4008 8.64516E-05-2.14487E-05-2.78826E-05-4.70771E-06-3.27458E-19-1.34033E-18
 -1      4009 8.61571E-05-2.11628E-05-2.78259E-05-3.49371E-06-4.96590E-19-3.85255E-19
 -1      4010 8.31084E-05-2.03138E-05-2.69132E-05-6.36556E-06-1.08358E-18-1.28168E-18
 -1      4011 8.41796E-05-2.05988E-05-2.72829E-05-5.68667E-06-1.05015E-18-1.69495E-18
 -1      4012 8.37546E-05-2.01394E-05-2.72253E-05-4.15058E-06-1.37215E-18-7.86083E-19
 -1      4013 8.01960E-05-1.98509E-05-2.58583E-05-7.99920E-06-6.93335E-19-9.86542E-19
 -1      4014 8.14096E-05-1.99372E-05-2.63962E-05-7.01147E-06-8.39172E-19-1.31966E-18
 -1      4015 8.07670E-05-1.91819E-05-2.63394E-05-5.02647E-06-1.12910E-18-6.96144E-19
 -1      4016 7.68250E-05-1.98966E-05-2.43988E-05-1.06130E-05 1.64841E-20-8.87484E-19
 -1      4017 7.79477E-05-1.96066E-05-2.51000E-05-8.97275E-06-4.17180E-19-1.00726E-18
 -1      4018 7.69521E-05-1.83412E-05-2.50444E-05-6.33410E-06-6.00184E-19-1.21199E-18
 -1      4019 9.63732E-05-2.82538E-05-2.91978E-05-4.96196E-07 3.27215E-19-1.75018E-18
 -1      4020 9.63634E-05-2.79321E-05-2.93220E-05-2.85360E-07 4.47919E-19-1.75420E-18
 -1      4021 9.64361E-05-2.75853E-05-2.95073E-05-8.73533E-08 4.98964E-19-2.07547E-18
 -1      4022 9.62060E-05-2.61136E-05-3.00393E-05-4.40735E-07-4.57130E-19-1.54507E-18
 -1      4023 9.64266E-05-2.68131E-05-2.98399E-05-1.61995E-07-3.04704E-19-1.37253E-18
 -1      4024 9.65532E-05-2.69792E-05-2.98143E-05-8.88785E-08-4.27581E-19-1.59987E-18
 -1      4025 6.30156E-05-1.67056E-05-1.95976E-05 1.18130E-05-1.20726E-18-6.45111E-18
 -1      4026 9.60212E-05-2.91016E-05-2.86788E-05-8.26335E-07-2.10455E-19-3.86737E-19
 -1      4027 9.60785E-05-2.90991E-05-2.87043E-05-8.44925E-07 3.01796E-20-4.64184E-19
 -1      4028 9.62819E-05-2.91451E-05-2.87748E-05-7.61021E-07-2.74161E-19-8.07922E-19
 -1      4029 9.61246E-05-2.91480E-05-2.87061E-05-7.33565E-07 4.36180E-21-2.99212E-19
 -1      4030 5.84539E-05-1.51651E-05-1.83540E-05 5.62750E-06-1.96359E-18-5.98672E-18
 -1      4031 9.65227E-05-2.87945E-05-2.90280E-05-6.61483E-07-1.23553E-19-1.50996E-18
 -1      4032 9.63622E-05-2.87149E-05-2.89937E-05-7.37238E-07 1.77194E-19-1.48529E-18
 -1      4033 9.63906E-05-2.85196E-05-2.90831E-05-6.24606E-07 2.31738E-19-1.66539E-18
 -1      4034 9.46752E-05-2.76165E-05-2.87386E-05-8.37131E-07-3.19403E-19-1.46305E-18
 -1      4035 9.48120E-05-2.77995E-05-2.87225E-05-7.52092E-07-3.62874E-19-1.64059E-18
 -1      4036 9.44881E-05-2.74225E-05-2.87396E-05-7.38073E-07-4.16646E-19-1.36524E-18
 -1      4037 6.80646E-05-1.67528E-05-2.18995E-05-7.37585E-06 1.66105E-18-2.81466E-18
 -1      4038 9.61465E-05-2.61596E-05-2.99942E-05 5.82247E-07 4.60506E-19-2.47416E-18
 -1      4039 9.60304E-05-2.57363E-05-3.01290E-05 5.92999E-07 4.31887E-19-2.59286E-18
 -1      4040 9.63315E-05-2.68250E-05-2.97914E-05 2.20375E-07 4.32882E-19-2.39282E-18
 -1      4041 6.79083E-05-1.83319E-05-2.12550E-05 1.14031E-05 5.96702E-19-2.63208E-18
 -1      4042 9.50171E-05-2.32678E-05-3.07508E-05-7.82606E-07-4.48921E-19-1.74020E-18
 -1      4043 9.51030E-05-2.35162E-05-3.06880E-05-1.12218E-06-7.58830E-19-1.76301E-18
 -1      4044 9.54748E-05-2.43101E-05-3.04959E-05-8.78906E-07-6.86443E-19-1.78852E-18
 -1      4045 9.54430E-05-2.85516E-05-2.86664E-05-5.56290E-07 8.46178E-20-8.54683E-19
 -1      4046 9.55320E-05-2.86633E-05-2.86591E-05-5.43126E-07-1.17651E-19-8.49592E-19
 -1      4047 9.53904E-05-2.84748E-05-2.86779E-05-4.78506E-07 1.15581E-20-4.16236E-19
 -1      4048 9.48406E-05-2.78314E-05-2.87165E-05-6.12521E-07 5.62935E-20-1.02973E-18
 -1      4049 7.46838E-05-1.75787E-05-2.44576E-05-3.83828E-06 9.41514E-20-2.44831E-18
 -1      4050 7.66828E-05-1.79752E-05-2.52147E-05-3.29515E-06-5.16052E-19-2.33877E-18
 -1      4051 9.60122E-05-2.55638E-05-3.01969E-05 4.40427E-07 1.93122E-19-2.38969E-18
 -1      4052 9.65418E-05-2.83344E-05-2.92324E-05-4.60896E-07 3.09576E-19-1.98263E-18
 -1      4053 9.56206E-05-2.87253E-05-2.86699E-05-4.59365E-07 7.69098E-20-9.52805E-19
 -1      4054 9.56437E-05-2.87737E-05-2.86572E-05-5.42114E-07-2.46668E-19-8.54750E-19
 -1      4055 9.57282E-05-2.88664E-05-2.86556E-05-5.44561E-07-1.04028E-19-9.90370E-19
 -1      4056 9.56150E-05-2.43916E-05-3.05052E-05 3.15551E-07 1.10423E-20-2.28009E-18
 -1      4057 9.50630E-05-2.33432E-05-3.07465E-05 2.48893E-07-1.02010E-19-2.37899E-18
 -1      4058 9.50514E-05-2.33162E-05-3.07514E-05-4.81060E-08-2.80343E-19-2.25631E-18
 -1      4059 9.65406E-05-2.91237E-05-2.88931E-05-6.46592E-07-6.91273E-19-1.03651E-18
 -1      4060 9.66042E-05-2.90329E-05-2.89570E-05-6.17803E-07-4.56895E-19-1.39583E-18
 -1      4061 9.67495E-05-2.89723E-05-2.90488E-05-4.90507E-07-4.88105E-19-1.15301E-18
 -1      4062 9.66546E-05-2.88991E-05-2.90392E-05-5.90121E-07-2.58932E-19-1.37883E-18
 -1      4063 9.66897E-05-2.87168E-05-2.91287E-05-5.15515E-07-1.12414E-19-1.59940E-18
 -1      4064 9.57460E-05-2.49502E-05-3.03454E-05-7.69669E-07-6.64750E-19-1.63412E-18
 -1      4065 9.59998E-05-2.55944E-05-3.01752E-05-5.45122E-07-6.16429E-19-1.53971E-18
 -1      4066 9.61525E-05-2.58348E-05-3.01330E-05-3.54504E-07-3.42388E-19-1.37778E-18
 -1      4067 9.56948E-05-2.47256E-05-3.04142E-05-5.61397E-07-4.02161E-19-1.55668E-18
 -1      4068 7.16377E-05-1.67979E-05-2.35597E-05 1.92547E-06 6.64281E-19-3.83724E-18
 -1      4069 7.09021E-05-1.63683E-05-2.33155E-05-2.31786E-06 1.12462E-18-3.44685E-18
 -1      4070 9.60225E-05-2.90980E-05-2.86807E-05-5.85229E-07 5.64292E-19-1.13369E-18
 -1      4071 9.61058E-05-2.91470E-05-2.86963E-05-6.02501E-07 5.39266E-19-9.41977E-19
 -1      4072 7.86212E-05-2.38800E-05-2.34024E-05 1.52753E-05 2.88878E-19-1.60135E-18
 -1      4073 7.24037E-05-2.07005E-05-2.19860E-05 1.46297E-05 5.31080E-19-2.25496E-18
 -1      4074 7.13233E-05-1.81240E-05-2.28663E-05 8.50111E-06 7.82923E-19-2.68090E-18
 -1      4075 7.88098E-05-2.27358E-05-2.41360E-05 1.29427E-05 9.46003E-19-1.62789E-18
 -1      4076 9.50087E-05-2.32232E-05-3.07712E-05-2.55826E-07-3.55835E-19-2.13771E-18
 -1      4077 9.50371E-05-2.33016E-05-3.07511E-05-5.59048E-07-4.19838E-19-1.91865E-18
 -1      4078 9.54465E-05-2.41079E-05-3.05652E-05-4.54251E-07-3.03509E-19-1.80344E-18
 -1      4079 9.55171E-05-2.42217E-05-3.05467E-05-8.23205E-08-2.76749E-19-2.18184E-18
 -1      4080 9.58351E-05-2.89569E-05-2.86606E-05-5.54952E-07 1.15684E-20-1.14329E-18
 -1      4081 9.59182E-05-2.90296E-05-2.86666E-05-5.67923E-07 1.44764E-19-1.13552E-18
 -1      4082 9.58369E-05-2.89332E-05-2.86740E-05-4.63891E-07-1.09800E-19-1.00310E-18
 -1      4083 9.60459E-05-2.90958E-05-2.86943E-05-4.84411E-07 4.01764E-19-1.28495E-18
 -1      4084 9.69488E-05-2.85353E-05-2.93196E-05 1.81360E-07-5.34949E-19-1.11573E-18
 -1      4085 9.69453E-05-2.87903E-05-2.92092E-05 2.47915E-07-4.12321E-19-1.25529E-18
 -1      4086 9.69132E-05-2.89859E-05-2.91106E-05 2.53277E-07-3.64174E-19-1.36388E-18
 -1      4087 9.68581E-05-2.91241E-05-2.90281E-05 2.88616E-07-1.75699E-19-1.31480E-18
 -1      4088 9.69682E-05-2.88765E-05-2.91852E-05 1.35111E-07-4.34504E-19-1.21735E-18
 -1      4089 9.67821E-05-2.92187E-05-2.89549E-05 2.83055E-07-1.22300E-19-1.24020E-18
 -1      4090 9.66946E-05-2.92715E-05-2.88951E-05 2.96088E-07-2.06835E-19-1.18147E-18
 -1      4091 9.68644E-05-2.91747E-05-2.90125E-05 1.58220E-07-1.02012E-19-1.43616E-18
 -1      4092 9.65958E-05-2.92931E-05-2.88430E-05 2.90181E-07-3.37128E-19-9.25770E-19
 -1      4093 9.64943E-05-2.92883E-05-2.88018E-05 2.90368E-07-3.83708E-19-1.01143E-18
 -1      4094 9.66848E-05-2.92908E-05-2.88849E-05 1.65391E-07-1.72475E-19-1.51175E-18
 -1      4095 9.63806E-05-2.92577E-05-2.87663E-05 2.81469E-07-1.69127E-19-1.02299E-18
 -1      4096 9.62738E-05-2.92112E-05-2.87398E-05 2.77820E-07 4.40966E-20-8.53374E-19
 -1      4097 9.64728E-05-2.92853E-05-2.87967E-05 1.59422E-07-2.23636E-19-1.03306E-18
 -1      4098 9.61531E-05-2.91443E-05-2.87177E-05 2.66230E-07-2.17552E-19-8.79227E-19
 -1      4099 9.60416E-05-2.90657E-05-2.87027E-05 2.63121E-07-4.65706E-19-1.08913E-18
 -1      4100 9.62458E-05-2.91928E-05-2.87394E-05 1.49697E-07-1.32513E-19-1.07098E-18
 -1      4101 9.59170E-05-2.89710E-05-2.86911E-05 2.55537E-07-3.56146E-19-1.06298E-18
 -1      4102 9.58018E-05-2.88675E-05-2.86850E-05 2.56360E-07-1.74780E-19-1.08998E-18
 -1      4103 9.60024E-05-2.90286E-05-2.87052E-05 1.44877E-07-2.31964E-19-1.16139E-18
 -1      4104 9.56718E-05-2.87494E-05-2.86814E-05 2.53676E-07-6.98876E-20-7.02375E-19
 -1      4105 9.55508E-05-2.86237E-05-2.86821E-05 2.61654E-07-1.16536E-19-6.43826E-19
 -1      4106 9.57513E-05-2.88117E-05-2.86896E-05 1.44221E-07-1.11876E-19-8.30446E-19
 -1      4107 9.54110E-05-2.84832E-05-2.86843E-05 2.65500E-07 6.32653E-20-4.82490E-19
 -1      4108 9.52795E-05-2.83352E-05-2.86898E-05 2.83598E-07 8.82968E-20-9.28541E-20
 -1      4109 9.54856E-05-2.85473E-05-2.86877E-05 1.51051E-07 1.79062E-19-3.91274E-19
 -1      4110 9.51237E-05-2.81708E-05-2.86957E-05 2.95803E-07 1.82516E-20 1.82658E-19
 -1      4111 9.49752E-05-2.79984E-05-2.87040E-05 3.26962E-07 1.03958E-19 3.60357E-19
 -1      4112 9.51948E-05-2.82349E-05-2.86955E-05 1.68653E-07 3.42756E-19-1.40991E-19
 -1      4113 9.47952E-05-2.78070E-05-2.87117E-05 3.49695E-07-1.58314E-19 5.05419E-19
 -1      4114 9.46222E-05-2.76069E-05-2.87207E-05 3.97063E-07 1.60611E-19 5.42182E-19
 -1      4115 9.48648E-05-2.78699E-05-2.87088E-05 2.00576E-07 4.09091E-20 1.52089E-19
 -1      4116 9.44084E-05-2.73849E-05-2.87277E-05 4.33101E-07-1.29766E-20 5.08701E-19
 -1      4117 9.42020E-05-2.71537E-05-2.87352E-05 5.00295E-07-2.44343E-19 5.87347E-19
 -1      4118 9.44780E-05-2.74452E-05-2.87230E-05 2.51130E-07 2.54687E-19-2.48819E-19
 -1      4119 9.39435E-05-2.68973E-05-2.87387E-05 5.53338E-07-3.36472E-19 6.51543E-19
 -1      4120 9.36947E-05-2.66324E-05-2.87415E-05 6.44757E-07 1.71499E-19 3.28487E-19
 -1      4121 9.40142E-05-2.69528E-05-2.87329E-05 3.25954E-07-7.51227E-20 7.49325E-20
 -1      4122 9.33798E-05-2.63390E-05-2.87377E-05 7.19836E-07 2.32162E-19-1.63094E-19
 -1      4123 9.30792E-05-2.60397E-05-2.87319E-05 8.41067E-07 1.95660E-19-5.00354E-19
 -1      4124 9.34511E-05-2.63857E-05-2.87318E-05 4.32719E-07-1.44988E-19 8.50921E-21
 -1      4125 9.26954E-05-2.57093E-05-2.87160E-05 9.45110E-07 2.50947E-19-6.78363E-19
 -1      4126 9.23348E-05-2.53783E-05-2.86964E-05 1.10355E-06 1.15235E-19-7.47734E-19
 -1      4127 9.27647E-05-2.57400E-05-2.87111E-05 5.82109E-07 4.37895E-20-1.02514E-18
 -1      4128 9.18694E-05-2.50143E-05-2.86620E-05 1.24620E-06 2.85038E-19-6.99248E-19
 -1      4129 9.14422E-05-2.46593E-05-2.86218E-05 1.45200E-06 7.16437E-19-5.45103E-19
 -1      4130 9.19305E-05-2.50175E-05-2.86593E-05 7.89212E-07 3.85625E-19-9.43205E-19
 -1      4131 9.08824E-05-2.42704E-05-2.85605E-05 1.64684E-06 6.47309E-19-8.58515E-19
 -1      4132 9.03850E-05-2.39060E-05-2.84911E-05 1.91450E-06 5.21763E-19-6.77834E-19
 -1      4133 9.09235E-05-2.42279E-05-2.85614E-05 1.07557E-06 1.94228E-19-1.21295E-18
 -1      4134 8.97175E-05-2.35078E-05-2.83918E-05 2.18092E-06 1.47356E-19-4.79040E-19
 -1      4135 8.91512E-05-2.31575E-05-2.82819E-05 2.53177E-06 2.92623E-20-4.58291E-19
 -1      4136 8.97186E-05-2.33915E-05-2.83976E-05 1.47221E-06-3.22956E-20-1.72574E-18
 -1      4137 8.83611E-05-2.27730E-05-2.81305E-05 2.89793E-06-2.80009E-19-6.53263E-19
 -1      4138 8.77333E-05-2.24712E-05-2.79662E-05 3.36439E-06-3.72102E-19-7.58194E-19
 -1      4139 8.82896E-05-2.25409E-05-2.81422E-05 2.02429E-06-4.15681E-19-1.44957E-18
 -1      4140 8.68010E-05-2.21320E-05-2.77440E-05 3.87222E-06 2.69722E-19-1.29379E-18
 -1      4141 8.61297E-05-2.19277E-05-2.75081E-05 4.50469E-06 1.00409E-18-1.00932E-18
 -1      4142 8.66047E-05-2.17222E-05-2.77614E-05 2.79784E-06 1.41657E-19-2.09899E-18
 -1      4143 8.50250E-05-2.16734E-05-2.71904E-05 5.22066E-06 6.13690E-19-1.08944E-18
 -1      4144 8.43484E-05-2.16395E-05-2.68620E-05 6.09963E-06 6.27212E-19-2.02833E-18
 -1      4145 8.46156E-05-2.09954E-05-2.72106E-05 3.88962E-06 5.46732E-19-2.48654E-18
 -1      4146 8.30257E-05-2.15065E-05-2.64162E-05 7.12531E-06 8.35910E-19-2.17687E-18
 -1      4147 8.24003E-05-2.17576E-05-2.59682E-05 8.40449E-06 6.81417E-19-1.70125E-18
 -1      4148 8.22452E-05-2.04681E-05-2.64301E-05 5.43116E-06 6.79947E-19-2.21042E-18
 -1      4149 9.47203E-05-2.77041E-05-2.87215E-05-4.94668E-07 1.51250E-19-7.98665E-19
 -1      4150 9.48824E-05-2.78964E-05-2.87103E-05-4.46505E-07 5.56077E-19-4.96996E-19
 -1      4151 9.38338E-05-2.67444E-05-2.87542E-05-7.32175E-07-1.08354E-20-1.79540E-18
 -1      4152 9.40769E-05-2.70089E-05-2.87470E-05-6.46076E-07-1.29006E-19-1.51207E-18
 -1      4153 9.24750E-05-2.54426E-05-2.87322E-05-1.09944E-06 3.74287E-19-1.66191E-18
 -1      4154 9.28540E-05-2.57976E-05-2.87442E-05-9.74203E-07-2.67772E-20-1.58446E-18
 -1      4155 9.15392E-05-2.46475E-05-2.86735E-05-1.32582E-06 4.88698E-20-1.57134E-18
 -1      4156 9.20118E-05-2.50505E-05-2.87048E-05-1.18345E-06 4.81702E-19-1.49048E-18
 -1      4157 9.20902E-05-2.51080E-05-2.86908E-05-7.27669E-07 1.83252E-19-1.31159E-18
 -1      4158 9.03811E-05-2.37580E-05-2.85606E-05-1.57244E-06-1.34730E-19-1.22513E-18
 -1      4159 9.09679E-05-2.42067E-05-2.86208E-05-1.41607E-06-1.38819E-19-1.58400E-18
 -1      4160 9.10647E-05-2.42654E-05-2.86078E-05-8.40571E-07-2.34952E-19-1.26085E-18
 -1      4161 8.89538E-05-2.27853E-05-2.83687E-05-1.83102E-06 3.41521E-19-6.84535E-19
 -1      4162 8.96791E-05-2.32728E-05-2.84709E-05-1.66376E-06-9.29368E-21-1.03777E-18
 -1      4163 8.98031E-05-2.33316E-05-2.84617E-05-9.40505E-07-3.75771E-19-1.47593E-18
 -1      4164 8.71976E-05-2.17490E-05-2.80639E-05-2.09532E-06 2.52123E-19-4.46533E-19
 -1      4165 8.80923E-05-2.22640E-05-2.82262E-05-1.91737E-06 6.48472E-19-1.19429E-19
 -1      4166 8.82556E-05-2.23190E-05-2.82251E-05-1.00977E-06 1.32659E-19-3.69745E-19
 -1      4167 8.50290E-05-2.06752E-05-2.75998E-05-2.36930E-06-5.43430E-19 1.86335E-20
 -1      4168 8.61358E-05-2.12028E-05-2.78472E-05-2.17137E-06 1.77979E-19 2.20050E-19
 -1      4169 8.63556E-05-2.12452E-05-2.78612E-05-1.02709E-06 3.43365E-19 4.04999E-19
 -1      4170 8.23276E-05-1.95911E-05-2.69101E-05-2.68406E-06-1.42519E-18-7.69751E-19
 -1      4171 8.36990E-05-2.01105E-05-2.72782E-05-2.43620E-06-9.74355E-19-3.54282E-19
 -1      4172 8.40016E-05-2.01264E-05-2.73182E-05-9.68768E-07-6.62433E-19 2.75352E-20
 -1      4173 7.89371E-05-1.85571E-05-2.58986E-05-3.12767E-06-7.93273E-19-1.47872E-18
 -1      4174 8.06294E-05-1.90410E-05-2.64374E-05-2.78702E-06-1.02140E-18-1.33303E-18
 -1      4175 8.09891E-05-1.89507E-05-2.65199E-05-8.29986E-07-7.25872E-19-1.41254E-18
 -1      4176 9.64000E-05-2.64612E-05-2.99621E-05 2.46670E-07 2.62637E-20-2.14538E-18
 -1      4177 9.60370E-05-2.55048E-05-3.02363E-05 3.04274E-07 3.37796E-20-2.07046E-18
 -1      4178 9.65890E-05-2.78605E-05-2.94576E-05-2.21614E-07 3.54809E-19-2.07299E-18
 -1      4179 9.65174E-05-2.74132E-05-2.96145E-05 1.86311E-08 3.00486E-19-2.10881E-18
 -1      4180 9.65064E-05-2.71366E-05-2.97324E-05 8.05414E-08 1.49791E-19-2.26865E-18
 -1      4181 7.72070E-05-1.78358E-05-2.53713E-05-8.89173E-07 4.86035E-20-2.92736E-18
 -1      4182 7.24306E-05-1.71327E-05-2.36082E-05 4.32041E-06 7.22584E-19-2.36954E-18
 -1      4183 7.52715E-05-1.76282E-05-2.47061E-05 1.75517E-06 7.17033E-19-3.62992E-18
 -1      4184 7.73002E-05-1.81120E-05-2.53847E-05 1.53369E-06 4.71323E-19-2.84653E-18
 -1      4185 7.50138E-05-1.89169E-05-2.40843E-05 7.57559E-06 7.61305E-19-2.02923E-18
 -1      4186 9.64605E-05-2.91774E-05-2.88341E-05-6.47936E-07-5.44551E-19-1.12427E-18
 -1      4187 9.66184E-05-2.91773E-05-2.89049E-05-5.32530E-07-5.67896E-19-8.08166E-19
 -1      4188 9.63838E-05-2.92051E-05-2.87902E-05-6.48812E-07-3.71089E-19-8.83757E-19
 -1      4189 9.32283E-05-2.61404E-05-2.87546E-05-9.00150E-07 2.37193E-19-1.77085E-18
 -1      4190 9.35315E-05-2.64485E-05-2.87545E-05-7.94100E-07 2.77170E-19-1.77576E-18
 -1      4191 9.35917E-05-2.65043E-05-2.87427E-05-5.12533E-07 3.61613E-19-2.09101E-18
 -1      4192 9.29207E-05-2.58538E-05-2.87308E-05-6.15246E-07-1.04410E-19-1.95259E-18
 -1      4193 9.64882E-05-2.66296E-05-2.99384E-05-1.42589E-07-4.87340E-19-1.59231E-18
 -1      4194 9.66864E-05-2.72601E-05-2.97567E-05 1.22903E-08-5.09117E-19-1.62953E-18
 -1      4195 9.66815E-05-2.85057E-05-2.92204E-05-4.64539E-07 1.31216E-19-1.86302E-18
 -1      4196 9.66654E-05-2.82000E-05-2.93400E-05-3.23680E-07 3.62696E-19-1.91215E-18
 -1      4197 9.67227E-05-2.80336E-05-2.94394E-05-2.36083E-07 2.34323E-19-1.94380E-18
 -1      4198 9.67903E-05-2.85950E-05-2.92270E-05-3.98233E-07-2.61182E-20-1.29169E-18
 -1      4199 9.43222E-05-2.72623E-05-2.87408E-05-5.97161E-07-2.62286E-19-1.31504E-18
 -1      4200 9.45188E-05-2.74881E-05-2.87302E-05-5.30644E-07-2.00361E-19-8.97243E-19
 -1      4201 9.41346E-05-2.70653E-05-2.87376E-05-4.25121E-07 1.26596E-19-1.59386E-18
 -1      4202 9.62499E-05-2.92046E-05-2.87354E-05-5.11545E-07 4.10526E-19-1.54252E-18
 -1      4203 9.62070E-05-2.91869E-05-2.87219E-05-6.21823E-07 1.25218E-19-1.14407E-18
 -1      4204 9.62889E-05-2.92038E-05-2.87499E-05-6.35139E-07-8.22236E-20-9.41791E-19
 -1      4205 9.60536E-05-2.90850E-05-2.86995E-05-3.70177E-07 2.60500E-19-1.50940E-18
 -1      4206 9.61587E-05-2.91551E-05-2.87150E-05-3.76798E-07 4.70023E-19-1.43215E-18
 -1      4207 9.68314E-05-2.77824E-05-2.95922E-05 5.57423E-08-4.68422E-19-1.55284E-18
 -1      4208 9.69120E-05-2.81999E-05-2.94487E-05 1.63981E-07-4.98816E-19-1.35466E-18
 -1      4209 9.67738E-05-2.74505E-05-2.97084E-05 9.35075E-09-3.74615E-19-1.59631E-18
 -1      4210 9.50518E-05-2.80806E-05-2.87017E-05-4.22749E-07 2.07065E-19-6.72539E-19
 -1      4211 9.51894E-05-2.82444E-05-2.86921E-05-3.91100E-07 7.58436E-20-4.84866E-19
 -1      4212 9.49450E-05-2.79565E-05-2.87070E-05-3.05089E-07 2.81684E-19-1.37565E-18
 -1      4213 9.53364E-05-2.84014E-05-2.86858E-05-3.78427E-07-7.96861E-20-4.77589E-19
 -1      4214 9.54579E-05-2.85407E-05-2.86796E-05-3.60991E-07 1.07333E-19-5.61309E-19
 -1      4215 9.52583E-05-2.83068E-05-2.86927E-05-2.72359E-07 1.85845E-19-1.01962E-18
 -1      4216 7.09172E-05-1.70004E-05-2.31402E-05-5.87901E-06 1.38733E-18-2.44792E-18
 -1      4217 9.45775E-05-2.75459E-05-2.87236E-05-3.55750E-07 1.74006E-20-9.22606E-19
 -1      4218 9.57466E-05-2.47628E-05-3.04209E-05-2.31181E-07-3.69505E-19-1.86092E-18
 -1      4219 9.57198E-05-2.47445E-05-3.04202E-05-4.11706E-07-4.56907E-19-1.71800E-18
 -1      4220 9.59857E-05-2.53365E-05-3.02743E-05-3.30842E-07-4.13380E-19-1.52990E-18
 -1      4221 9.60217E-05-2.54213E-05-3.02604E-05 1.53542E-07-9.06255E-20-2.01215E-18
 -1      4222 9.65768E-05-2.70974E-05-2.97815E-05 3.96080E-08-6.28847E-20-2.00795E-18
 -1      4223 9.68184E-05-2.90648E-05-2.90376E-05-3.95294E-07-4.57358E-19-1.07104E-18
 -1      4224 9.68703E-05-2.89116E-05-2.91228E-05-3.49407E-07-3.86715E-19-1.05832E-18
 -1      4225 9.55906E-05-2.86740E-05-2.86776E-05-3.57961E-07 1.43638E-19-6.40965E-19
 -1      4226 9.57026E-05-2.87912E-05-2.86766E-05-3.52008E-07 4.76545E-20-9.51363E-19
 -1      4227 9.55352E-05-2.86050E-05-2.86850E-05-2.55739E-07 7.98635E-21-6.92791E-19
 -1      4228 9.62648E-05-2.92072E-05-2.87405E-05-2.71721E-07 1.12871E-19-1.52452E-18
 -1      4229 9.62726E-05-2.92149E-05-2.87384E-05-3.90679E-07 4.71535E-19-1.55981E-18
 -1      4230 9.63732E-05-2.92521E-05-2.87657E-05-3.98008E-07 2.50404E-19-1.78207E-18
 -1      4231 9.69636E-05-2.83349E-05-2.94142E-05 8.76278E-08-2.75718E-19-1.48909E-18
 -1      4232 9.61898E-05-2.58714E-05-3.01403E-05-2.39289E-07-4.41805E-19-1.59205E-18
 -1      4233 9.59341E-05-2.89974E-05-2.86870E-05-3.59207E-07 7.43554E-20-1.29829E-18
 -1      4234 9.60315E-05-2.90586E-05-2.87053E-05-2.59080E-07 1.17538E-19-1.46926E-18
 -1      4235 9.58269E-05-2.89022E-05-2.86808E-05-3.56904E-07-9.34866E-20-1.15513E-18
 -1      4236 9.63243E-05-2.61372E-05-3.00761E-05-1.18421E-07-4.24200E-19-1.78936E-18
 -1      4237 9.66719E-05-2.92369E-05-2.89000E-05-4.14059E-07-4.49149E-19-1.36306E-18
 -1      4238 9.67541E-05-2.91725E-05-2.89614E-05-3.96247E-07-4.95699E-19-1.26608E-18
 -1      4239 9.68530E-05-2.91255E-05-2.90298E-05-2.78238E-07-3.36989E-19-1.85523E-18
 -1      4240 7.95364E-05-2.03481E-05-2.53490E-05 7.72340E-06 7.90001E-19-2.70210E-18
 -1      4241 8.08814E-05-2.18712E-05-2.53426E-05 9.81079E-06 4.28341E-19-1.28385E-18
 -1      4242 9.68947E-05-2.91639E-05-2.90264E-05-6.38028E-08-2.78439E-19-1.66800E-18
 -1      4243 9.68122E-05-2.92496E-05-2.89534E-05-5.54526E-08-2.19418E-19-1.80754E-18
 -1      4244 9.65497E-05-2.93091E-05-2.88163E-05 2.91111E-08-1.06127E-19-1.39834E-18
 -1      4245 9.64403E-05-2.92829E-05-2.87805E-05 2.95799E-08-1.36830E-19-1.23424E-18
 -1      4246 9.62765E-05-2.92070E-05-2.87428E-05-5.69490E-08-6.34014E-20-1.22898E-18
 -1      4247 9.61572E-05-2.91364E-05-2.87215E-05-5.38209E-08-1.24726E-20-1.15358E-18
 -1      4248 9.60374E-05-2.90495E-05-2.87075E-05-5.34704E-08-2.01976E-19-1.12088E-18
 -1      4249 9.59108E-05-2.89506E-05-2.86959E-05-5.19414E-08-4.89228E-20-8.91203E-19
 -1      4250 9.57851E-05-2.88386E-05-2.86904E-05-5.32975E-08-1.13099E-19-8.80615E-19
 -1      4251 9.56524E-05-2.87153E-05-2.86867E-05-5.06210E-08-6.63942E-20-7.88560E-19
 -1      4252 9.55178E-05-2.85801E-05-2.86876E-05-5.56752E-08 1.36191E-20-7.69236E-19
 -1      4253 9.53750E-05-2.84330E-05-2.86895E-05-5.05313E-08 2.89218E-19-1.00412E-18
 -1      4254 9.52258E-05-2.82737E-05-2.86948E-05-6.04820E-08 5.45611E-19-9.33296E-19
 -1      4255 9.50664E-05-2.81011E-05-2.87004E-05-5.16647E-08 2.63772E-19-9.69865E-19
 -1      4256 9.48947E-05-2.79148E-05-2.87080E-05-6.72155E-08-6.96318E-20-1.03588E-18
 -1      4257 9.47103E-05-2.77130E-05-2.87151E-05-5.33154E-08 3.00944E-20-9.03964E-19
 -1      4258 9.45062E-05-2.74954E-05-2.87227E-05-7.46377E-08 3.70721E-20-1.14524E-18
 -1      4259 9.42870E-05-2.72602E-05-2.87290E-05-5.38022E-08 2.66957E-19-1.13358E-18
 -1      4260 9.40388E-05-2.70063E-05-2.87338E-05-8.03613E-08 3.72807E-19-1.34682E-18
 -1      4261 9.37737E-05-2.67332E-05-2.87362E-05-5.00099E-08 1.22933E-19-1.37139E-18
 -1      4262 9.34682E-05-2.64385E-05-2.87348E-05-8.02732E-08-2.07818E-19-1.04160E-18
 -1      4263 9.31451E-05-2.61239E-05-2.87295E-05-3.67120E-08-1.15706E-19-9.64543E-19
 -1      4264 9.27672E-05-2.57848E-05-2.87171E-05-6.77497E-08-1.45244E-19-5.58964E-19
 -1      4265 9.23730E-05-2.54273E-05-2.86989E-05-5.62744E-09 1.05681E-20-8.82721E-19
 -1      4266 9.19057E-05-2.50424E-05-2.86693E-05-3.26316E-08-7.28346E-20-4.84561E-19
 -1      4267 9.14271E-05-2.46436E-05-2.86316E-05 5.58334E-08 4.50501E-20-8.32117E-19
 -1      4268 9.08513E-05-2.42145E-05-2.85761E-05 4.00570E-08-2.32565E-19-9.63064E-19
 -1      4269 9.02742E-05-2.37803E-05-2.85100E-05 1.66185E-07-3.94770E-19-1.41100E-18
 -1      4270 8.95669E-05-2.33127E-05-2.84173E-05 1.71675E-07-1.73620E-19-1.54937E-18
 -1      4271 8.88763E-05-2.28540E-05-2.83111E-05 3.51911E-07-1.21477E-19-1.46613E-18
 -1      4272 8.80089E-05-2.23574E-05-2.81657E-05 3.91941E-07-1.91188E-19-1.01047E-18
 -1      4273 8.71869E-05-2.18906E-05-2.80040E-05 6.50094E-07-5.66459E-20-1.14094E-18
 -1      4274 8.61196E-05-2.13778E-05-2.77849E-05 7.41931E-07 5.14614E-20-8.70145E-19
 -1      4275 8.51439E-05-2.09243E-05-2.75475E-05 1.11207E-06 3.15813E-19-1.09160E-18
 -1      4276 8.38169E-05-2.04061E-05-2.72256E-05 1.28101E-06-2.23559E-19-1.59639E-18
 -1      4277 8.26623E-05-1.99935E-05-2.68857E-05 1.81461E-06-2.76383E-19-1.75517E-18
 -1      4278 8.02848E-05-2.24882E-05-2.47418E-05 1.15977E-05 7.88175E-19-1.60056E-18
 -1      4279 9.64445E-05-2.92407E-05-2.88033E-05-5.32685E-07-2.32813E-19-1.41646E-18
 -1      4280 8.09637E-05-1.94370E-05-2.64173E-05 2.11508E-06 5.21951E-21-2.39334E-18
 -1      4281 9.69366E-05-2.88201E-05-2.91964E-05-2.48348E-07-4.16761E-19-1.45339E-18
 -1      4282 9.68830E-05-2.87278E-05-2.92105E-05-3.43421E-07-4.19734E-19-1.02374E-18
 -1      4283 9.68853E-05-2.85003E-05-2.93047E-05-2.74497E-07-1.29374E-19-1.32640E-18
 -1      4284 9.67684E-05-2.77144E-05-2.95875E-05-7.41375E-08-4.38707E-20-1.89200E-18
 -1      4285 9.66495E-05-2.71126E-05-2.98016E-05 3.39404E-08-1.22288E-19-1.73135E-18
 -1      4286 9.67534E-05-2.73507E-05-2.97486E-05-3.50801E-08-3.06211E-19-1.56516E-18
 -1      4287 9.69003E-05-2.78613E-05-2.95851E-05 1.32914E-08-2.67685E-19-1.49469E-18
 -1      4288 9.69714E-05-2.83207E-05-2.94228E-05-6.12809E-08-2.71304E-19-1.54226E-18
 -1      4289 9.70023E-05-2.86360E-05-2.92961E-05-3.59231E-08-3.63626E-19-1.59194E-18
 -1      4290 9.58000E-05-2.48652E-05-3.04053E-05-4.45989E-08-2.81390E-19-2.08713E-18
 -1      4291 9.64831E-05-2.92740E-05-2.88030E-05-4.07935E-07 9.22192E-20-1.72902E-18
 -1      4292 9.65774E-05-2.92696E-05-2.88454E-05-4.08687E-07-1.66337E-19-1.47001E-18
 -1      4293 9.64852E-05-2.92818E-05-2.88026E-05-2.80256E-07 1.60581E-19-1.99277E-18
 -1      4294 9.69943E-05-2.88476E-05-2.92044E-05-5.75582E-08-4.34858E-19-1.68592E-18
 -1      4295 9.69583E-05-2.90375E-05-2.91057E-05-4.39106E-08-2.70885E-19-1.64255E-18
 -1      4296 9.62360E-05-2.58820E-05-3.01503E-05-8.73396E-09-2.14919E-19-1.89201E-18
 -1      4297 9.65353E-05-2.66512E-05-2.99492E-05 6.10448E-08-2.21612E-19-1.71929E-18
 -1      4298 9.67613E-05-2.92904E-05-2.89151E-05 3.25393E-08-8.64585E-20-1.74258E-18
 -1      4299 9.66577E-05-2.93147E-05-2.88605E-05 3.38876E-08-9.39161E-20-1.51498E-18
 -1      4300 9.68326E-05-2.80886E-05-2.94651E-05-1.96391E-07 3.07259E-20-1.66979E-18
 -1      4301 7.96084E-05-1.91054E-05-2.59392E-05 2.82318E-06 6.17974E-19-2.93985E-18
 -1      4302 7.65505E-05-2.01989E-05-2.40699E-05 1.01696E-05 6.95751E-19-2.14765E-18
 -1      4303 9.65980E-05-2.93079E-05-2.88396E-05-1.00190E-07-2.62805E-20-1.49972E-18
 -1      4304 9.57896E-05-2.88556E-05-2.86878E-05-2.52531E-07-1.34892E-19-1.10009E-18
 -1      4305 9.69074E-05-2.82120E-05-2.94424E-05-1.45769E-07-2.93398E-19-1.37480E-18
 -1      4306 9.63211E-05-2.92284E-05-2.87555E-05-1.80664E-07-1.24076E-20-1.44157E-18
 -1      4307 7.66083E-05-1.90455E-05-2.46864E-05 6.52545E-06 7.83188E-19-2.55767E-18
 -1      4308 7.81979E-05-1.90977E-05-2.53534E-05 5.22361E-06 1.17645E-18-3.11594E-18
 -1      4309 9.67518E-05-2.92748E-05-2.89204E-05-1.97073E-07-3.23807E-19-2.06452E-18
 -1      4310 9.66868E-05-2.92680E-05-2.88953E-05-2.85063E-07-1.49003E-19-2.02082E-18
 -1      4311 9.66529E-05-2.93030E-05-2.88634E-05-1.98375E-07-5.27649E-20-1.90841E-18
 -1      4312 9.65472E-05-2.93038E-05-2.88189E-05-1.89207E-07 8.52603E-20-1.75535E-18
 -1      4313 9.64341E-05-2.92766E-05-2.87809E-05-1.87643E-07 2.11523E-20-1.49999E-18
 -3
    1PSTEP                         4           1           1          
  100CL  101 1.000000000        4313                     0    1           1
 -4  ERROR       1    1
 -5  STR(%)      1    1    0    0
 -1         1 2.90423E+01
 -1         2 2.43201E+01
 -1         3 1.71710E-01
 -1         4 1.09195E-01
 -1         5 1.40400E+01
 -1         6 1.31443E+01
 -1         7 1.31443E+01
 -1         8 3.66368E+00
 -1         9 1.82482E+00
 -1        10 1.28901E+00
 -1        11 1.04622E+00
 -1        12 8.99921E-01
 -1        13 8.08940E-01
 -1        14 7.54124E-01
 -1        15 7.56086E-01
 -1        16 8.13215E-01
 -1        17 9.00801E-01
 -1        18 1.05247E+00
 -1        19 1.30758E+00
 -1        20 1.83552E+00
 -1        21 3.50547E+00
 -1        22 8.64201E+00
 -1        23 1.31443E+01
 -1        24 4.31827E+00
 -1        25 3.34160E+00
 -1        26 2.11232E+00
 -1        27 1.36385E+00
 -1        28 1.01478E+00
 -1        29 7.76092E-01
 -1        30 5.96733E-01
 -1        31 4.57178E-01
 -1        32 3.50314E-01
 -1        33 2.72489E-01
 -1        34 2.10449E-01
 -1        35 1.62186E-01
 -1        36 1.25765E-01
 -1        37 9.94137E-02
 -1        38 8.15467E-02
 -1        39 7.07517E-02
 -1        40 7.41883E-02
 -1        41 8.37252E-02
 -1        42 1.03508E-01
 -1        43 1.34769E-01
 -1        44 1.75275E-01
 -1        45 2.24878E-01
 -1        46 2.82247E-01
 -1        47 3.44125E-01
 -1        48 4.04398E-01
 -1        49 4.92664E-01
 -1        50 6.20787E-01
 -1        51 7.80160E-01
 -1        52 9.30048E-01
 -1        53 1.01777E+00
 -1        54 1.01777E+00
 -1        55 1.10432E+00
 -1        56 1.10432E+00
 -1        57 1.46147E+00
 -1        58 2.05741E+00
 -1        59 3.11551E+00
 -1        60 3.57970E+00
 -1        61 3.57970E+00
 -1        62 3.43607E+00
 -1        63 3.21527E+00
 -1        64 2.30970E+00
 -1        65 1.30580E+00
 -1        66 8.01589E-01
 -1        67 5.00736E-01
 -1        68 5.55596E-01
 -1        69 5.55596E-01
 -1        70 5.25023E-01
 -1        71 4.67438E-01
 -1        72 1.40400E+01
 -1        73 3.39506E+00
 -1        74 2.41364E+00
 -1        75 1.66654E+00
 -1        76 1.14557E+00
 -1        77 9.06125E-01
 -1        78 7.31668E-01
 -1        79 5.88566E-01
 -1        80 4.69557E-01
 -1        81 3.70875E-01
 -1        82 2.97306E-01
 -1        83 2.36859E-01
 -1        84 1.87693E-01
 -1        85 1.49152E-01
 -1        86 1.20407E-01
 -1        87 1.00620E-01
 -1        88 8.90351E-02
 -1        89 9.71581E-02
 -1        90 1.14024E-01
 -1        91 1.38432E-01
 -1        92 1.70054E-01
 -1        93 2.08181E-01
 -1        94 2.51324E-01
 -1        95 3.27507E-01
 -1        96 4.19707E-01
 -1        97 5.24884E-01
 -1        98 6.36411E-01
 -1        99 7.40825E-01
 -1       100 8.14730E-01
 -1       101 8.43329E-01
 -1       102 1.14763E+00
 -1       103 1.43382E+00
 -1       104 1.57796E+00
 -1       105 1.97169E+00
 -1       106 2.06379E+00
 -1       107 2.46246E+00
 -1       108 3.19986E+00
 -1       109 4.59484E+00
 -1       110 5.01926E+00
 -1       111 5.01926E+00
 -1       112 4.83460E+00
 -1       113 3.03370E+00
 -1       114 1.60690E+00
 -1       115 1.51055E+00
 -1       116 1.64780E+00
 -1       117 1.64780E+00
 -1       118 1.31527E+00
 -1       119 1.18743E+00
 -1       120 7.35619E-01
 -1       121 3.76521E-01
 -1       122 3.76521E-01
 -1       123 3.06774E-01
 -1       124 1.91045E-01
 -1       125 1.84252E-01
 -1       126 3.57764E-01
 -1       127 4.36941E-01
 -1       128 4.36941E-01
 -1       129 3.92576E-01
 -1       130 2.40481E-01
 -1       131 1.15662E-01
 -1       132 1.96582E-01
 -1       133 2.21636E-01
 -1       134 2.21636E-01
 -1       135 2.80497E-01
 -1       136 2.80497E-01
 -1       137 2.43802E+01
 -1       138 4.68954E+01
 -1       139 4.68954E+01
 -1       140 1.94288E+01
 -1       141 1.21194E+01
 -1       142 1.26691E+01
 -1       143 1.30356E+01
 -1       144 1.30356E+01
 -1       145 1.23934E+01
 -1       146 1.56410E+01
 -1       147 4.21636E+01
 -1       148 4.21636E+01
 -1       149 2.46522E+01
 -1       150 2.46522E+01
 -1       151 2.43477E+01
 -1       152 2.90423E+01
 -1       153 2.68209E+01
 -1       154 1.21958E+01
 -1       155 1.20367E+01
 -1       156 1.20367E+01
 -1       157 1.19791E+01
 -1       158 1.19791E+01
 -1       159 1.18527E+01
 -1       160 2.04365E+01
 -1       161 4.75718E+01
 -1       162 4.75718E+01
 -1       163 2.46079E+01
 -1       164 6.07790E+00
 -1       165 2.29868E+00
 -1       166 1.50745E+00
 -1       167 1.15779E+00
 -1       168 9.73491E-01
 -1       169 8.64623E-01
 -1       170 7.96186E-01
 -1       171 7.56086E-01
 -1       172 7.99615E-01
 -1       173 8.67284E-01
 -1       174 9.80942E-01
 -1       175 1.17233E+00
 -1       176 1.52735E+00
 -1       177 2.26060E+00
 -1       178 3.93120E+00
 -1       179 1.40400E+01
 -1       180 4.31827E+00
 -1       181 3.34160E+00
 -1       182 2.11232E+00
 -1       183 1.44823E+00
 -1       184 1.02681E+00
 -1       185 7.76092E-01
 -1       186 5.96733E-01
 -1       187 4.69858E-01
 -1       188 3.70539E-01
 -1       189 2.92910E-01
 -1       190 2.37047E-01
 -1       191 1.89951E-01
 -1       192 1.51434E-01
 -1       193 1.20824E-01
 -1       194 9.71936E-02
 -1       195 7.94794E-02
 -1       196 6.87455E-02
 -1       197 7.41883E-02
 -1       198 8.72900E-02
 -1       199 1.10542E-01
 -1       200 1.40785E-01
 -1       201 1.77939E-01
 -1       202 2.24878E-01
 -1       203 2.82247E-01
 -1       204 3.68223E-01
 -1       205 4.63177E-01
 -1       206 5.56563E-01
 -1       207 6.49603E-01
 -1       208 7.80160E-01
 -1       209 9.30048E-01
 -1       210 1.01777E+00
 -1       211 9.87931E-01
 -1       212 1.10432E+00
 -1       213 1.03422E+00
 -1       214 1.46147E+00
 -1       215 2.09079E+00
 -1       216 3.11551E+00
 -1       217 3.57970E+00
 -1       218 3.43607E+00
 -1       219 3.21527E+00
 -1       220 2.30970E+00
 -1       221 1.57015E+00
 -1       222 1.03275E+00
 -1       223 5.82993E-01
 -1       224 5.00736E-01
 -1       225 5.55596E-01
 -1       226 5.25023E-01
 -1       227 4.67438E-01
 -1       228 3.39506E+00
 -1       229 2.41364E+00
 -1       230 1.66654E+00
 -1       231 1.14557E+00
 -1       232 9.06125E-01
 -1       233 7.31668E-01
 -1       234 5.88566E-01
 -1       235 4.69557E-01
 -1       236 3.70875E-01
 -1       237 2.97306E-01
 -1       238 2.36859E-01
 -1       239 1.89933E-01
 -1       240 1.52828E-01
 -1       241 1.24033E-01
 -1       242 1.02978E-01
 -1       243 8.90351E-02
 -1       244 8.95753E-02
 -1       245 1.00117E-01
 -1       246 1.16415E-01
 -1       247 1.38432E-01
 -1       248 1.73385E-01
 -1       249 2.25732E-01
 -1       250 2.89993E-01
 -1       251 3.65688E-01
 -1       252 4.50756E-01
 -1       253 5.40671E-01
 -1       254 6.36411E-01
 -1       255 7.40825E-01
 -1       256 8.14730E-01
 -1       257 9.97484E-01
 -1       258 1.17149E+00
 -1       259 1.43382E+00
 -1       260 1.57796E+00
 -1       261 1.97169E+00
 -1       262 2.06379E+00
 -1       263 2.46246E+00
 -1       264 3.19986E+00
 -1       265 4.59484E+00
 -1       266 5.01926E+00
 -1       267 4.83460E+00
 -1       268 3.03370E+00
 -1       269 1.60690E+00
 -1       270 1.15775E+00
 -1       271 1.51055E+00
 -1       272 1.64780E+00
 -1       273 1.31527E+00
 -1       274 1.18743E+00
 -1       275 7.59490E-01
 -1       276 4.68949E-01
 -1       277 4.98445E-01
 -1       278 4.98445E-01
 -1       279 3.06209E-01
 -1       280 5.96651E-01
 -1       281 8.27144E-01
 -1       282 8.45850E-01
 -1       283 8.45850E-01
 -1       284 6.87192E-01
 -1       285 3.81319E-01
 -1       286 3.56635E-01
 -1       287 4.06940E-01
 -1       288 4.06940E-01
 -1       289 3.79643E-01
 -1       290 3.73891E-01
 -1       291 2.95059E+01
 -1       292 2.88733E+01
 -1       293 4.68954E+01
 -1       294 2.09959E+01
 -1       295 1.11192E+01
 -1       296 1.21194E+01
 -1       297 1.26691E+01
 -1       298 1.30356E+01
 -1       299 1.23934E+01
 -1       300 1.16825E+01
 -1       301 1.69433E+01
 -1       302 4.21636E+01
 -1       303 3.71121E+01
 -1       304 2.89962E+01
 -1       305 2.89962E+01
 -1       306 2.55924E+01
 -1       307 2.90423E+01
 -1       308 2.79101E+01
 -1       309 1.21958E+01
 -1       310 1.14698E+01
 -1       311 1.20367E+01
 -1       312 1.18825E+01
 -1       313 1.19791E+01
 -1       314 1.18527E+01
 -1       315 1.09254E+01
 -1       316 2.21913E+01
 -1       317 4.75718E+01
 -1       318 2.65142E+01
 -1       319 2.95059E+01
 -1       320 1.04792E+00
 -1       321 2.47991E+00
 -1       322 7.95094E-01
 -1       323 6.94912E-01
 -1       324 6.31892E-01
 -1       325 5.87757E-01
 -1       326 5.90951E-01
 -1       327 6.34548E-01
 -1       328 7.01175E-01
 -1       329 7.96282E-01
 -1       330 9.31660E-01
 -1       331 1.15985E+00
 -1       332 1.32887E+00
 -1       333 2.20112E+00
 -1       334 1.91472E+00
 -1       335 1.73009E+00
 -1       336 1.26840E+00
 -1       337 9.08340E-01
 -1       338 6.57560E-01
 -1       339 5.39762E-01
 -1       340 4.43121E-01
 -1       341 3.58210E-01
 -1       342 2.93144E-01
 -1       343 2.38657E-01
 -1       344 1.92099E-01
 -1       345 1.55891E-01
 -1       346 1.26988E-01
 -1       347 1.02605E-01
 -1       348 8.23290E-02
 -1       349 6.66394E-02
 -1       350 6.21735E-02
 -1       351 7.06568E-02
 -1       352 8.72900E-02
 -1       353 1.10542E-01
 -1       354 1.42545E-01
 -1       355 1.97554E-01
 -1       356 2.63761E-01
 -1       357 3.40108E-01
 -1       358 4.23006E-01
 -1       359 5.05158E-01
 -1       360 5.74383E-01
 -1       361 6.46690E-01
 -1       362 7.28366E-01
 -1       363 7.61500E-01
 -1       364 6.96513E-01
 -1       365 5.74426E-01
 -1       366 5.09197E-01
 -1       367 9.52334E-01
 -1       368 1.48837E+00
 -1       369 1.93272E+00
 -1       370 2.27898E+00
 -1       371 2.22784E+00
 -1       372 2.21744E+00
 -1       373 2.02352E+00
 -1       374 1.65338E+00
 -1       375 1.25082E+00
 -1       376 1.01773E+00
 -1       377 7.46848E-01
 -1       378 6.17830E-01
 -1       379 4.61839E-01
 -1       380 5.20093E-01
 -1       381 1.13096E+00
 -1       382 8.92221E-01
 -1       383 7.04981E-01
 -1       384 5.46470E-01
 -1       385 4.39072E-01
 -1       386 3.73011E-01
 -1       387 3.09834E-01
 -1       388 2.54694E-01
 -1       389 2.10042E-01
 -1       390 1.71106E-01
 -1       391 1.38497E-01
 -1       392 1.13895E-01
 -1       393 9.53563E-02
 -1       394 8.25826E-02
 -1       395 7.69805E-02
 -1       396 8.00828E-02
 -1       397 8.86813E-02
 -1       398 1.13134E-01
 -1       399 1.45745E-01
 -1       400 1.95949E-01
 -1       401 2.78093E-01
 -1       402 3.83144E-01
 -1       403 5.13212E-01
 -1       404 6.67390E-01
 -1       405 8.39053E-01
 -1       406 1.01210E+00
 -1       407 1.15671E+00
 -1       408 1.29013E+00
 -1       409 1.32255E+00
 -1       410 1.32255E+00
 -1       411 1.15519E+00
 -1       412 1.02708E+00
 -1       413 1.29157E+00
 -1       414 2.28244E+00
 -1       415 2.61820E+00
 -1       416 3.20959E+00
 -1       417 3.11002E+00
 -1       418 2.81389E+00
 -1       419 2.13592E+00
 -1       420 1.44010E+00
 -1       421 1.09015E+00
 -1       422 9.67706E-01
 -1       423 1.04959E+00
 -1       424 9.64564E-01
 -1       425 9.36664E-01
 -1       426 7.59490E-01
 -1       427 5.99534E-01
 -1       428 7.78564E-01
 -1       429 7.78564E-01
 -1       430 7.29906E-01
 -1       431 1.17281E+00
 -1       432 1.26579E+00
 -1       433 1.26579E+00
 -1       434 1.24499E+00
 -1       435 8.56822E-01
 -1       436 5.77525E-01
 -1       437 5.58246E-01
 -1       438 5.58246E-01
 -1       439 5.20093E-01
 -1       440 2.88733E+01
 -1       441 2.97024E+01
 -1       442 2.97024E+01
 -1       443 1.64815E+01
 -1       444 9.19158E+00
 -1       445 9.10735E-01
 -1       446 9.62123E+00
 -1       447 1.08078E+01
 -1       448 1.00800E+01
 -1       449 8.73618E+00
 -1       450 8.31771E+00
 -1       451 1.38558E+01
 -1       452 2.60833E+01
 -1       453 2.26988E+01
 -1       454 3.64967E+01
 -1       455 3.64967E+01
 -1       456 2.23522E+01
 -1       457 1.92834E+01
 -1       458 1.13712E+01
 -1       459 7.36495E+00
 -1       460 9.56115E+00
 -1       461 9.98729E+00
 -1       462 1.05174E+01
 -1       463 1.04834E+01
 -1       464 7.60386E+00
 -1       465 9.33781E+00
 -1       466 1.68700E+01
 -1       467 2.65142E+01
 -1       468 2.87274E+01
 -1       469 7.65391E+00
 -1       470 2.31921E+01
 -1       471 1.72347E+01
 -1       472 1.04854E+00
 -1       473 4.86435E-01
 -1       474 5.14362E-01
 -1       475 4.31726E-01
 -1       476 4.57571E-01
 -1       477 4.87056E-01
 -1       478 5.11022E-01
 -1       479 5.11022E-01
 -1       480 6.08475E-01
 -1       481 8.92221E-01
 -1       482 8.03506E-01
 -1       483 5.90634E+00
 -1       484 7.03131E-01
 -1       485 5.90094E-01
 -1       486 4.77967E-01
 -1       487 3.79579E-01
 -1       488 3.24914E-01
 -1       489 2.75439E-01
 -1       490 2.28783E-01
 -1       491 1.89874E-01
 -1       492 1.56562E-01
 -1       493 1.27435E-01
 -1       494 1.02609E-01
 -1       495 8.23290E-02
 -1       496 6.56868E-02
 -1       497 5.42047E-02
 -1       498 5.48216E-02
 -1       499 6.56377E-02
 -1       500 8.56658E-02
 -1       501 1.25428E-01
 -1       502 1.74179E-01
 -1       503 2.32873E-01
 -1       504 3.01516E-01
 -1       505 3.78522E-01
 -1       506 4.59867E-01
 -1       507 5.38110E-01
 -1       508 6.06467E-01
 -1       509 6.65293E-01
 -1       510 7.38111E-01
 -1       511 7.79257E-01
 -1       512 7.53636E-01
 -1       513 9.32539E-01
 -1       514 1.01874E+00
 -1       515 1.34838E+00
 -1       516 1.54267E+00
 -1       517 1.98201E+00
 -1       518 2.22212E+00
 -1       519 2.16656E+00
 -1       520 2.17206E+00
 -1       521 1.68442E+00
 -1       522 1.56511E+00
 -1       523 1.36531E+00
 -1       524 1.01773E+00
 -1       525 8.48236E-01
 -1       526 6.17830E-01
 -1       527 5.46470E-01
 -1       528 4.39072E-01
 -1       529 3.73011E-01
 -1       530 3.09834E-01
 -1       531 2.54694E-01
 -1       532 2.10448E-01
 -1       533 1.71940E-01
 -1       534 1.39167E-01
 -1       535 1.12038E-01
 -1       536 9.04127E-02
 -1       537 7.31643E-02
 -1       538 6.21169E-02
 -1       539 5.82798E-02
 -1       540 7.03355E-02
 -1       541 8.83094E-02
 -1       542 1.25429E-01
 -1       543 1.81681E-01
 -1       544 2.54057E-01
 -1       545 3.45708E-01
 -1       546 4.59164E-01
 -1       547 5.95333E-01
 -1       548 7.51847E-01
 -1       549 9.20603E-01
 -1       550 1.08457E+00
 -1       551 1.21494E+00
 -1       552 1.33233E+00
 -1       553 1.51723E+00
 -1       554 1.64521E+00
 -1       555 1.68872E+00
 -1       556 2.42227E+00
 -1       557 1.96052E+00
 -1       558 2.87301E+00
 -1       559 5.42604E+00
 -1       560 7.87107E+00
 -1       561 4.65151E+00
 -1       562 2.44250E+00
 -1       563 2.24012E+00
 -1       564 1.95595E+00
 -1       565 1.48437E+00
 -1       566 1.09670E+00
 -1       567 9.38209E-01
 -1       568 7.79863E-01
 -1       569 1.41889E+00
 -1       570 1.90987E+00
 -1       571 8.60245E-01
 -1       572 1.08660E+00
 -1       573 1.90987E+00
 -1       574 1.90971E+00
 -1       575 1.60021E+00
 -1       576 1.08737E+00
 -1       577 8.93853E-01
 -1       578 8.11737E-01
 -1       579 4.95163E-01
 -1       580 2.97024E+01
 -1       581 1.27959E+01
 -1       582 7.04981E-01
 -1       583 2.87274E+01
 -1       584 2.08483E+01
 -1       585 8.72570E-01
 -1       586 7.37355E+00
 -1       587 3.64967E+01
 -1       588 4.55096E+00
 -1       589 8.45813E+00
 -1       590 4.57464E-01
 -1       591 8.49003E+00
 -1       592 8.24162E+00
 -1       593 6.08321E+00
 -1       594 2.17665E+01
 -1       595 1.22355E+01
 -1       596 1.21214E+01
 -1       597 1.82348E+01
 -1       598 2.23522E+01
 -1       599 6.33480E+00
 -1       600 4.26398E+00
 -1       601 6.73974E+00
 -1       602 8.20271E+00
 -1       603 8.45885E+00
 -1       604 5.35105E+00
 -1       605 3.81938E+00
 -1       606 1.20529E+01
 -1       607 6.13946E+00
 -1       608 1.32841E+00
 -1       609 8.02146E+00
 -1       610 5.31053E-01
 -1       611 4.84312E+00
 -1       612 1.72367E+01
 -1       613 5.00586E+00
 -1       614 1.61108E+01
 -1       615 5.20093E-01
 -1       616 1.37359E+01
 -1       617 7.87107E+00
 -1       618 3.58601E-01
 -1       619 3.43017E-01
 -1       620 3.61961E-01
 -1       621 3.37879E-01
 -1       622 5.44171E-01
 -1       623 1.49347E+01
 -1       624 5.69865E+00
 -1       625 3.98079E-01
 -1       626 3.85422E-01
 -1       627 3.44608E-01
 -1       628 2.95195E-01
 -1       629 2.45710E-01
 -1       630 2.14221E-01
 -1       631 1.81703E-01
 -1       632 1.50468E-01
 -1       633 1.23147E-01
 -1       634 1.00278E-01
 -1       635 8.05469E-02
 -1       636 6.34689E-02
 -1       637 4.82680E-02
 -1       638 3.63641E-02
 -1       639 4.27396E-02
 -1       640 6.52982E-02
 -1       641 9.92358E-02
 -1       642 1.40650E-01
 -1       643 1.91000E-01
 -1       644 2.51447E-01
 -1       645 3.22555E-01
 -1       646 4.03851E-01
 -1       647 4.93176E-01
 -1       648 5.86324E-01
 -1       649 6.73071E-01
 -1       650 7.73689E-01
 -1       651 9.19087E-01
 -1       652 1.05748E+00
 -1       653 1.14380E+00
 -1       654 1.50845E+00
 -1       655 1.71254E+00
 -1       656 1.86680E+00
 -1       657 3.09945E+00
 -1       658 4.46654E+00
 -1       659 3.90781E+00
 -1       660 4.56365E+00
 -1       661 3.64288E+00
 -1       662 2.59080E+00
 -1       663 1.74658E+00
 -1       664 1.47964E+00
 -1       665 1.00721E+00
 -1       666 8.48236E-01
 -1       667 3.29496E-01
 -1       668 5.24669E+00
 -1       669 3.97882E-01
 -1       670 2.36093E-01
 -1       671 1.99485E-01
 -1       672 1.65679E-01
 -1       673 1.36932E-01
 -1       674 1.11930E-01
 -1       675 9.04127E-02
 -1       676 7.21345E-02
 -1       677 5.75971E-02
 -1       678 4.48525E-02
 -1       679 5.08317E-02
 -1       680 6.55978E-02
 -1       681 1.02740E-01
 -1       682 1.49767E-01
 -1       683 2.09423E-01
 -1       684 2.84679E-01
 -1       685 3.78604E-01
 -1       686 4.94118E-01
 -1       687 6.33570E-01
 -1       688 7.98014E-01
 -1       689 9.86001E-01
 -1       690 1.19147E+00
 -1       691 1.39954E+00
 -1       692 1.59733E+00
 -1       693 2.00026E+00
 -1       694 2.43362E+00
 -1       695 2.92463E+00
 -1       696 6.17304E+00
 -1       697 2.87301E+00
 -1       698 2.44250E+00
 -1       699 2.96034E+00
 -1       700 2.22915E+00
 -1       701 1.82347E+00
 -1       702 1.26076E+00
 -1       703 9.38209E-01
 -1       704 2.83014E+00
 -1       705 8.11737E-01
 -1       706 2.53821E+00
 -1       707 2.75700E+00
 -1       708 2.83014E+00
 -1       709 1.20283E+01
 -1       710 1.88619E+00
 -1       711 1.61233E+00
 -1       712 1.22389E+00
 -1       713 1.26997E+01
 -1       714 1.14360E+01
 -1       715 5.31053E-01
 -1       716 4.79944E+00
 -1       717 1.00036E+01
 -1       718 4.65289E-01
 -1       719 5.36032E+00
 -1       720 2.74808E-01
 -1       721 5.56619E+00
 -1       722 4.02673E-01
 -1       723 5.16305E-01
 -1       724 4.60674E+00
 -1       725 9.30469E+00
 -1       726 3.61961E-01
 -1       727 3.58889E-01
 -1       728 6.17304E+00
 -1       729 5.42604E+00
 -1       730 6.44689E+00
 -1       731 1.49366E+01
 -1       732 7.76078E+00
 -1       733 1.34526E+01
 -1       734 3.61464E+00
 -1       735 5.79904E+00
 -1       736 2.56381E+00
 -1       737 3.42617E-01
 -1       738 1.27390E+01
 -1       739 3.51599E+00
 -1       740 3.64288E+00
 -1       741 1.20283E+01
 -1       742 4.46654E+00
 -1       743 1.84215E+00
 -1       744 6.44829E+00
 -1       745 1.14412E+01
 -1       746 1.23819E+00
 -1       747 9.17956E+00
 -1       748 1.09315E+01
 -1       749 3.78298E-01
 -1       750 3.57717E-01
 -1       751 8.92942E+00
 -1       752 1.19251E+01
 -1       753 9.12251E-01
 -1       754 2.40665E-01
 -1       755 2.56515E-01
 -1       756 2.49725E-01
 -1       757 2.28020E-01
 -1       758 1.99686E-01
 -1       759 1.72865E-01
 -1       760 1.51452E-01
 -1       761 1.28682E-01
 -1       762 1.06314E-01
 -1       763 8.51977E-02
 -1       764 6.55191E-02
 -1       765 4.69831E-02
 -1       766 2.89354E-02
 -1       767 2.78242E-02
 -1       768 4.43158E-02
 -1       769 7.21519E-02
 -1       770 1.07445E-01
 -1       771 1.51197E-01
 -1       772 2.03596E-01
 -1       773 2.64649E-01
 -1       774 3.34912E-01
 -1       775 4.29877E-01
 -1       776 5.41213E-01
 -1       777 6.66242E-01
 -1       778 8.13035E-01
 -1       779 9.71280E-01
 -1       780 1.20679E+00
 -1       781 1.53147E+00
 -1       782 1.80340E+00
 -1       783 2.30182E+00
 -1       784 2.43631E+00
 -1       785 2.28890E+00
 -1       786 3.91040E+00
 -1       787 2.40618E+00
 -1       788 1.47964E+00
 -1       789 1.00345E+00
 -1       790 1.64265E-01
 -1       791 1.90095E-01
 -1       792 1.13204E-01
 -1       793 9.03017E-02
 -1       794 6.94077E-02
 -1       795 5.26255E-02
 -1       796 3.69603E-02
 -1       797 2.92345E-02
 -1       798 4.33956E-02
 -1       799 7.28923E-02
 -1       800 1.09228E-01
 -1       801 1.54533E-01
 -1       802 2.11327E-01
 -1       803 2.92000E-01
 -1       804 3.93446E-01
 -1       805 5.18324E-01
 -1       806 6.67401E-01
 -1       807 8.37240E-01
 -1       808 1.07166E+00
 -1       809 1.36795E+00
 -1       810 1.77969E+00
 -1       811 2.26562E+00
 -1       812 2.83531E+00
 -1       813 4.24179E+00
 -1       814 1.83612E+00
 -1       815 1.41869E+00
 -1       816 4.24518E+00
 -1       817 2.05524E+00
 -1       818 6.01533E+00
 -1       819 3.11545E+00
 -1       820 4.56365E+00
 -1       821 2.81977E-01
 -1       822 2.79723E+00
 -1       823 3.37451E+00
 -1       824 6.50575E+00
 -1       825 3.06801E-01
 -1       826 1.38088E-01
 -1       827 2.87845E-01
 -1       828 2.33426E-01
 -1       829 9.17956E+00
 -1       830 4.07805E+00
 -1       831 3.09945E+00
 -1       832 7.51453E+00
 -1       833 4.46654E+00
 -1       834 4.29539E+00
 -1       835 2.88748E-01
 -1       836 9.63815E+00
 -1       837 2.81464E-01
 -1       838 6.10540E+00
 -1       839 6.77277E+00
 -1       840 2.73224E-01
 -1       841 3.11389E+00
 -1       842 2.95041E+00
 -1       843 2.18810E-01
 -1       844 5.57806E+00
 -1       845 7.77763E+00
 -1       846 2.96200E+00
 -1       847 4.23035E+00
 -1       848 2.80173E-01
 -1       849 4.24518E+00
 -1       850 7.11914E+00
 -1       851 2.81606E-01
 -1       852 2.88748E-01
 -1       853 2.61426E-01
 -1       854 3.64288E+00
 -1       855 4.47169E+00
 -1       856 2.55459E-01
 -1       857 8.00258E+00
 -1       858 2.88765E-01
 -1       859 1.42905E+00
 -1       860 1.75596E-01
 -1       861 1.83425E-01
 -1       862 1.76167E-01
 -1       863 1.60325E-01
 -1       864 1.40352E-01
 -1       865 1.23738E-01
 -1       866 1.06748E-01
 -1       867 8.91675E-02
 -1       868 7.19151E-02
 -1       869 5.53130E-02
 -1       870 3.96115E-02
 -1       871 4.12104E-02
 -1       872 4.54546E-02
 -1       873 6.98659E-02
 -1       874 1.03849E-01
 -1       875 1.45822E-01
 -1       876 1.97241E-01
 -1       877 2.59318E-01
 -1       878 3.32719E-01
 -1       879 4.17050E-01
 -1       880 5.09960E-01
 -1       881 6.26885E-01
 -1       882 7.78948E-01
 -1       883 1.02987E+00
 -1       884 1.35800E+00
 -1       885 1.70622E+00
 -1       886 2.42103E+00
 -1       887 3.51399E+00
 -1       888 2.08887E-01
 -1       889 1.52999E-01
 -1       890 7.76266E-02
 -1       891 9.65849E-02
 -1       892 4.22999E-02
 -1       893 3.54551E-02
 -1       894 3.91942E-02
 -1       895 6.35344E-02
 -1       896 9.82835E-02
 -1       897 1.44084E-01
 -1       898 2.02735E-01
 -1       899 2.77643E-01
 -1       900 3.72808E-01
 -1       901 4.92919E-01
 -1       902 6.43387E-01
 -1       903 8.30130E-01
 -1       904 1.05880E+00
 -1       905 1.33131E+00
 -1       906 1.71913E+00
 -1       907 2.39889E+00
 -1       908 4.90384E+00
 -1       909 2.17278E+00
 -1       910 4.35791E+00
 -1       911 5.77140E+00
 -1       912 6.49189E+00
 -1       913 5.95930E-02
 -1       914 3.03118E+00
 -1       915 6.15164E+00
 -1       916 1.42124E-01
 -1       917 6.04024E+00
 -1       918 2.88765E-01
 -1       919 6.97411E+00
 -1       920 7.47758E+00
 -1       921 6.50756E+00
 -1       922 4.46099E+00
 -1       923 5.83766E+00
 -1       924 6.77277E+00
 -1       925 1.67393E-01
 -1       926 1.47050E-01
 -1       927 4.52804E+00
 -1       928 1.35571E-01
 -1       929 2.10610E-01
 -1       930 1.76841E-01
 -1       931 2.08530E+00
 -1       932 1.16192E-01
 -1       933 5.00127E+00
 -1       934 1.67049E-01
 -1       935 6.67806E+00
 -1       936 4.76816E+00
 -1       937 2.17060E-01
 -1       938 2.17060E-01
 -1       939 6.97411E+00
 -1       940 5.77140E+00
 -1       941 1.87585E-01
 -1       942 3.45999E+00
 -1       943 1.24346E-01
 -1       944 1.36684E-01
 -1       945 1.35966E-01
 -1       946 1.26965E-01
 -1       947 1.13333E-01
 -1       948 9.83864E-02
 -1       949 8.55504E-02
 -1       950 7.19886E-02
 -1       951 5.85049E-02
 -1       952 4.86191E-02
 -1       953 4.98186E-02
 -1       954 5.40813E-02
 -1       955 6.26346E-02
 -1       956 9.07144E-02
 -1       957 1.27541E-01
 -1       958 1.73776E-01
 -1       959 2.31478E-01
 -1       960 3.02961E-01
 -1       961 3.90825E-01
 -1       962 4.97906E-01
 -1       963 6.26885E-01
 -1       964 7.78948E-01
 -1       965 9.87719E-01
 -1       966 1.30803E+00
 -1       967 1.97848E+00
 -1       968 2.51770E+00
 -1       969 5.65904E-02
 -1       970 7.93091E-02
 -1       971 4.94388E-02
 -1       972 4.58521E-02
 -1       973 8.68130E-02
 -1       974 1.25682E-01
 -1       975 1.75297E-01
 -1       976 2.38623E-01
 -1       977 3.19421E-01
 -1       978 4.22723E-01
 -1       979 5.55716E-01
 -1       980 7.29277E-01
 -1       981 9.60121E-01
 -1       982 1.27572E+00
 -1       983 1.71913E+00
 -1       984 2.40510E+00
 -1       985 6.50756E+00
 -1       986 9.20171E-02
 -1       987 1.05118E-01
 -1       988 2.09052E-01
 -1       989 4.32838E+00
 -1       990 1.97649E-01
 -1       991 6.77277E+00
 -1       992 2.05492E-01
 -1       993 2.17051E-01
 -1       994 6.40686E-02
 -1       995 1.41169E-01
 -1       996 4.93468E-02
 -1       997 1.21448E-01
 -1       998 1.42566E-01
 -1       999 5.67043E+00
 -1      1000 4.17617E+00
 -1      1001 1.42277E-01
 -1      1002 1.57402E-01
 -1      1003 1.24910E-01
 -1      1004 9.46856E-02
 -1      1005 9.01969E-02
 -1      1006 1.02186E-01
 -1      1007 1.03627E-01
 -1      1008 9.81319E-02
 -1      1009 8.85480E-02
 -1      1010 7.68871E-02
 -1      1011 6.55102E-02
 -1      1012 5.63520E-02
 -1      1013 5.41878E-02
 -1      1014 5.45585E-02
 -1      1015 5.81111E-02
 -1      1016 6.54490E-02
 -1      1017 8.02297E-02
 -1      1018 1.01235E-01
 -1      1019 1.38468E-01
 -1      1020 1.86466E-01
 -1      1021 2.48134E-01
 -1      1022 3.27553E-01
 -1      1023 4.30530E-01
 -1      1024 5.65649E-01
 -1      1025 7.45616E-01
 -1      1026 9.87719E-01
 -1      1027 1.30803E+00
 -1      1028 1.73205E+00
 -1      1029 2.49235E+00
 -1      1030 9.95609E-02
 -1      1031 3.93352E+00
 -1      1032 6.02078E-02
 -1      1033 5.42018E-02
 -1      1034 1.37457E-01
 -1      1035 1.85621E-01
 -1      1036 2.46774E-01
 -1      1037 3.24658E-01
 -1      1038 4.24913E-01
 -1      1039 5.56916E-01
 -1      1040 7.37819E-01
 -1      1041 9.96475E-01
 -1      1042 1.38882E+00
 -1      1043 2.02775E+00
 -1      1044 5.67043E+00
 -1      1045 1.52030E-01
 -1      1046 7.16455E-02
 -1      1047 1.09309E-01
 -1      1048 1.52858E-01
 -1      1049 7.25558E-02
 -1      1050 1.02752E-01
 -1      1051 1.32028E-01
 -1      1052 5.17319E-02
 -1      1053 3.12658E+00
 -1      1054 5.21440E-02
 -1      1055 1.57402E-01
 -1      1056 1.10678E-01
 -1      1057 1.17530E-01
 -1      1058 9.03047E-02
 -1      1059 7.40525E-02
 -1      1060 3.52078E+00
 -1      1061 1.52208E-01
 -1      1062 6.25150E-02
 -1      1063 8.21915E-02
 -1      1064 8.49302E-02
 -1      1065 7.25520E-02
 -1      1066 6.67918E-02
 -1      1067 8.60600E-02
 -1      1068 6.09171E-02
 -1      1069 5.63520E-02
 -1      1070 5.45585E-02
 -1      1071 5.81111E-02
 -1      1072 6.54490E-02
 -1      1073 8.02297E-02
 -1      1074 1.01235E-01
 -1      1075 1.32702E-01
 -1      1076 1.76789E-01
 -1      1077 2.35642E-01
 -1      1078 3.14749E-01
 -1      1079 4.22675E-01
 -1      1080 5.73243E-01
 -1      1081 7.88981E-01
 -1      1082 1.10381E+00
 -1      1083 1.55350E+00
 -1      1084 1.66910E+00
 -1      1085 7.25558E-02
 -1      1086 1.17921E-01
 -1      1087 1.99097E-01
 -1      1088 2.58539E-01
 -1      1089 3.35270E-01
 -1      1090 4.35343E-01
 -1      1091 5.73243E-01
 -1      1092 7.88981E-01
 -1      1093 1.10381E+00
 -1      1094 1.58801E+00
 -1      1095 1.02752E-01
 -1      1096 9.51464E-02
 -1      1097 2.59534E+00
 -1      1098 9.92533E-02
 -1      1099 1.53068E-01
 -1      1100 6.32255E-02
 -1      1101 1.06886E-01
 -1      1102 9.17661E-02
 -1      1103 8.57175E-02
 -1      1104 8.60600E-02
 -1      1105 7.53782E-02
 -1      1106 6.02078E-02
 -1      1107 5.42018E-02
 -1      1108 1.00029E-01
 -1      1109 8.87570E-02
 -1      1110 5.34971E-02
 -1      1111 8.43187E-02
 -1      1112 6.09171E-02
 -1      1113 8.49302E-02
 -1      1114 2.09271E+00
 -1      1115 8.60600E-02
 -1      1116 8.21915E-02
 -1      1117 9.19924E-02
 -1      1118 7.55098E-02
 -1      1119 6.67918E-02
 -1      1120 1.31443E+01
 -1      1121 8.40397E+00
 -1      1122 2.74425E+00
 -1      1123 1.55692E+00
 -1      1124 1.16762E+00
 -1      1125 9.73071E-01
 -1      1126 8.54431E-01
 -1      1127 7.81532E-01
 -1      1128 7.55105E-01
 -1      1129 7.84651E-01
 -1      1130 8.57008E-01
 -1      1131 9.76636E-01
 -1      1132 1.18003E+00
 -1      1133 1.57155E+00
 -1      1134 2.67050E+00
 -1      1135 6.07374E+00
 -1      1136 1.13410E+01
 -1      1137 1.31443E+01
 -1      1138 8.73127E+00
 -1      1139 3.82993E+00
 -1      1140 2.72696E+00
 -1      1141 1.73809E+00
 -1      1142 1.18931E+00
 -1      1143 8.95434E-01
 -1      1144 6.86413E-01
 -1      1145 5.26956E-01
 -1      1146 4.03746E-01
 -1      1147 3.11401E-01
 -1      1148 2.41469E-01
 -1      1149 1.86318E-01
 -1      1150 1.43975E-01
 -1      1151 1.12589E-01
 -1      1152 9.04802E-02
 -1      1153 7.61492E-02
 -1      1154 7.24700E-02
 -1      1155 7.89567E-02
 -1      1156 9.36163E-02
 -1      1157 1.19138E-01
 -1      1158 1.55022E-01
 -1      1159 2.00077E-01
 -1      1160 2.53562E-01
 -1      1161 3.13186E-01
 -1      1162 3.74262E-01
 -1      1163 4.48531E-01
 -1      1164 5.56725E-01
 -1      1165 7.00473E-01
 -1      1166 8.55104E-01
 -1      1167 9.73911E-01
 -1      1168 1.01777E+00
 -1      1169 1.06105E+00
 -1      1170 1.10432E+00
 -1      1171 1.28290E+00
 -1      1172 1.75944E+00
 -1      1173 2.58646E+00
 -1      1174 3.34760E+00
 -1      1175 3.57970E+00
 -1      1176 3.50788E+00
 -1      1177 3.32567E+00
 -1      1178 2.76248E+00
 -1      1179 1.80775E+00
 -1      1180 1.05369E+00
 -1      1181 6.51163E-01
 -1      1182 5.28166E-01
 -1      1183 5.55596E-01
 -1      1184 5.40310E-01
 -1      1185 4.96231E-01
 -1      1186 2.88317E-01
 -1      1187 1.40400E+01
 -1      1188 8.71752E+00
 -1      1189 2.90435E+00
 -1      1190 2.04009E+00
 -1      1191 1.40605E+00
 -1      1192 1.02585E+00
 -1      1193 8.18897E-01
 -1      1194 6.60117E-01
 -1      1195 5.29061E-01
 -1      1196 4.20216E-01
 -1      1197 3.34090E-01
 -1      1198 2.67083E-01
 -1      1199 2.12276E-01
 -1      1200 1.68422E-01
 -1      1201 1.34779E-01
 -1      1202 1.10513E-01
 -1      1203 9.48274E-02
 -1      1204 9.30966E-02
 -1      1205 1.05591E-01
 -1      1206 1.26228E-01
 -1      1207 1.54243E-01
 -1      1208 1.89118E-01
 -1      1209 2.29753E-01
 -1      1210 2.89415E-01
 -1      1211 3.73607E-01
 -1      1212 4.72296E-01
 -1      1213 5.80648E-01
 -1      1214 6.88618E-01
 -1      1215 7.77777E-01
 -1      1216 8.29029E-01
 -1      1217 9.95480E-01
 -1      1218 1.29072E+00
 -1      1219 1.50589E+00
 -1      1220 1.77482E+00
 -1      1221 2.01774E+00
 -1      1222 2.26313E+00
 -1      1223 2.83116E+00
 -1      1224 3.89735E+00
 -1      1225 4.80705E+00
 -1      1226 5.01926E+00
 -1      1227 4.92693E+00
 -1      1228 3.93415E+00
 -1      1229 2.32030E+00
 -1      1230 1.55872E+00
 -1      1231 1.57917E+00
 -1      1232 1.64780E+00
 -1      1233 1.48153E+00
 -1      1234 1.25135E+00
 -1      1235 9.61523E-01
 -1      1236 4.53664E-01
 -1      1237 2.74115E-01
 -1      1238 3.76521E-01
 -1      1239 3.41647E-01
 -1      1240 2.48909E-01
 -1      1241 1.87649E-01
 -1      1242 2.71008E-01
 -1      1243 3.97352E-01
 -1      1244 4.36941E-01
 -1      1245 4.14758E-01
 -1      1246 3.16528E-01
 -1      1247 1.78072E-01
 -1      1248 1.56122E-01
 -1      1249 2.09109E-01
 -1      1250 2.21636E-01
 -1      1251 2.51067E-01
 -1      1252 2.80497E-01
 -1      1253 1.94846E-01
 -1      1254 2.43502E+01
 -1      1255 3.56378E+01
 -1      1256 4.68954E+01
 -1      1257 3.31621E+01
 -1      1258 1.57741E+01
 -1      1259 1.23943E+01
 -1      1260 1.28524E+01
 -1      1261 1.30356E+01
 -1      1262 1.27145E+01
 -1      1263 1.40172E+01
 -1      1264 2.89023E+01
 -1      1265 4.21636E+01
 -1      1266 3.34079E+01
 -1      1267 2.46522E+01
 -1      1268 2.44999E+01
 -1      1269 2.66950E+01
 -1      1270 2.90423E+01
 -1      1271 2.79316E+01
 -1      1272 1.95083E+01
 -1      1273 1.21163E+01
 -1      1274 1.20367E+01
 -1      1275 1.20079E+01
 -1      1276 1.19791E+01
 -1      1277 1.19159E+01
 -1      1278 1.61446E+01
 -1      1279 3.40042E+01
 -1      1280 4.75718E+01
 -1      1281 3.60899E+01
 -1      1282 2.44640E+01
 -1      1283 1.31443E+01
 -1      1284 4.87079E+00
 -1      1285 9.61108E+00
 -1      1286 2.06175E+00
 -1      1287 2.98118E+00
 -1      1288 4.18829E+00
 -1      1289 1.39823E+00
 -1      1290 1.66614E+00
 -1      1291 1.90306E+00
 -1      1292 1.10201E+00
 -1      1293 1.22340E+00
 -1      1294 1.33262E+00
 -1      1295 9.36706E-01
 -1      1296 1.00986E+00
 -1      1297 1.06564E+00
 -1      1298 8.36782E-01
 -1      1299 8.82272E-01
 -1      1300 9.19057E-01
 -1      1301 7.75155E-01
 -1      1302 8.02563E-01
 -1      1303 8.30405E-01
 -1      1304 7.56086E-01
 -1      1305 7.55105E-01
 -1      1306 7.76136E-01
 -1      1307 8.06415E-01
 -1      1308 7.77851E-01
 -1      1309 7.77851E-01
 -1      1310 8.84042E-01
 -1      1311 8.40249E-01
 -1      1312 8.33450E-01
 -1      1313 1.01671E+00
 -1      1314 9.40871E-01
 -1      1315 9.24113E-01
 -1      1316 1.23996E+00
 -1      1317 1.11240E+00
 -1      1318 1.07664E+00
 -1      1319 1.68144E+00
 -1      1320 1.41746E+00
 -1      1321 1.34984E+00
 -1      1322 2.88304E+00
 -1      1323 2.04806E+00
 -1      1324 1.89397E+00
 -1      1325 6.28660E+00
 -1      1326 3.71834E+00
 -1      1327 3.09590E+00
 -1      1328 1.40400E+01
 -1      1329 1.13410E+01
 -1      1330 8.98559E+00
 -1      1331 1.40400E+01
 -1      1332 8.73127E+00
 -1      1333 4.31827E+00
 -1      1334 3.82993E+00
 -1      1335 3.34160E+00
 -1      1336 3.82993E+00
 -1      1337 2.72696E+00
 -1      1338 2.11232E+00
 -1      1339 2.72696E+00
 -1      1340 1.78028E+00
 -1      1341 1.40604E+00
 -1      1342 1.78028E+00
 -1      1343 1.19533E+00
 -1      1344 1.02079E+00
 -1      1345 1.23752E+00
 -1      1346 8.95434E-01
 -1      1347 7.76092E-01
 -1      1348 9.01448E-01
 -1      1349 6.86413E-01
 -1      1350 5.96733E-01
 -1      1351 6.86413E-01
 -1      1352 5.33295E-01
 -1      1353 4.63518E-01
 -1      1354 5.33295E-01
 -1      1355 4.13859E-01
 -1      1356 3.60426E-01
 -1      1357 4.20198E-01
 -1      1358 3.21612E-01
 -1      1359 2.82699E-01
 -1      1360 3.31724E-01
 -1      1361 2.54768E-01
 -1      1362 2.23748E-01
 -1      1363 2.64979E-01
 -1      1364 2.00200E-01
 -1      1365 1.76068E-01
 -1      1366 2.13499E-01
 -1      1367 1.56810E-01
 -1      1368 1.38599E-01
 -1      1369 1.70692E-01
 -1      1370 1.23294E-01
 -1      1371 1.10119E-01
 -1      1372 1.36129E-01
 -1      1373 9.83036E-02
 -1      1374 8.93701E-02
 -1      1375 1.09009E-01
 -1      1376 8.05131E-02
 -1      1377 7.51155E-02
 -1      1378 8.83365E-02
 -1      1379 6.97486E-02
 -1      1380 7.14669E-02
 -1      1381 7.41125E-02
 -1      1382 7.41883E-02
 -1      1383 7.89567E-02
 -1      1384 7.14669E-02
 -1      1385 8.55076E-02
 -1      1386 9.53988E-02
 -1      1387 8.07391E-02
 -1      1388 1.07025E-01
 -1      1389 1.22655E-01
 -1      1390 9.89158E-02
 -1      1391 1.37777E-01
 -1      1392 1.58030E-01
 -1      1393 1.25664E-01
 -1      1394 1.76607E-01
 -1      1395 2.01409E-01
 -1      1396 1.59362E-01
 -1      1397 2.24878E-01
 -1      1398 2.53562E-01
 -1      1399 2.01409E-01
 -1      1400 2.82247E-01
 -1      1401 3.13186E-01
 -1      1402 2.53562E-01
 -1      1403 3.56174E-01
 -1      1404 3.86311E-01
 -1      1405 3.25235E-01
 -1      1406 4.33787E-01
 -1      1407 4.77920E-01
 -1      1408 4.15700E-01
 -1      1409 5.24613E-01
 -1      1410 5.88675E-01
 -1      1411 5.09870E-01
 -1      1412 6.35195E-01
 -1      1413 7.14882E-01
 -1      1414 6.03083E-01
 -1      1415 7.80160E-01
 -1      1416 8.55104E-01
 -1      1417 7.14882E-01
 -1      1418 9.30048E-01
 -1      1419 9.73911E-01
 -1      1420 8.55104E-01
 -1      1421 1.01777E+00
 -1      1422 1.01777E+00
 -1      1423 9.73911E-01
 -1      1424 1.00285E+00
 -1      1425 1.04613E+00
 -1      1426 1.00285E+00
 -1      1427 1.10432E+00
 -1      1428 1.10432E+00
 -1      1429 1.04613E+00
 -1      1430 1.06927E+00
 -1      1431 1.24784E+00
 -1      1432 1.06927E+00
 -1      1433 1.46147E+00
 -1      1434 1.75944E+00
 -1      1435 1.24784E+00
 -1      1436 2.07410E+00
 -1      1437 2.60315E+00
 -1      1438 1.77613E+00
 -1      1439 3.11551E+00
 -1      1440 3.34760E+00
 -1      1441 2.60315E+00
 -1      1442 3.57970E+00
 -1      1443 3.57970E+00
 -1      1444 3.34760E+00
 -1      1445 3.50788E+00
 -1      1446 3.43607E+00
 -1      1447 3.50788E+00
 -1      1448 3.32567E+00
 -1      1449 3.21527E+00
 -1      1450 3.32567E+00
 -1      1451 2.76248E+00
 -1      1452 2.30970E+00
 -1      1453 2.76248E+00
 -1      1454 1.93992E+00
 -1      1455 1.43797E+00
 -1      1456 1.93992E+00
 -1      1457 1.16927E+00
 -1      1458 9.17168E-01
 -1      1459 1.30145E+00
 -1      1460 6.92291E-01
 -1      1461 5.41865E-01
 -1      1462 8.07869E-01
 -1      1463 5.00736E-01
 -1      1464 5.28166E-01
 -1      1465 5.41865E-01
 -1      1466 5.55596E-01
 -1      1467 5.55596E-01
 -1      1468 5.28166E-01
 -1      1469 5.40310E-01
 -1      1470 5.25023E-01
 -1      1471 5.40310E-01
 -1      1472 4.96231E-01
 -1      1473 4.67438E-01
 -1      1474 4.96231E-01
 -1      1475 3.73968E-01
 -1      1476 3.73968E-01
 -1      1477 3.39506E+00
 -1      1478 8.71752E+00
 -1      1479 8.71752E+00
 -1      1480 2.41364E+00
 -1      1481 2.90435E+00
 -1      1482 2.90435E+00
 -1      1483 1.66654E+00
 -1      1484 2.04009E+00
 -1      1485 2.04009E+00
 -1      1486 1.14557E+00
 -1      1487 1.40605E+00
 -1      1488 1.40605E+00
 -1      1489 9.06125E-01
 -1      1490 1.02585E+00
 -1      1491 1.02585E+00
 -1      1492 7.31668E-01
 -1      1493 8.18897E-01
 -1      1494 8.18897E-01
 -1      1495 5.88566E-01
 -1      1496 6.60117E-01
 -1      1497 6.60117E-01
 -1      1498 4.69557E-01
 -1      1499 5.29061E-01
 -1      1500 5.29061E-01
 -1      1501 3.70875E-01
 -1      1502 4.20216E-01
 -1      1503 4.20216E-01
 -1      1504 2.97306E-01
 -1      1505 3.34090E-01
 -1      1506 3.34090E-01
 -1      1507 2.36859E-01
 -1      1508 2.67083E-01
 -1      1509 2.67083E-01
 -1      1510 1.88813E-01
 -1      1511 2.13396E-01
 -1      1512 2.13396E-01
 -1      1513 1.50990E-01
 -1      1514 1.70261E-01
 -1      1515 1.71381E-01
 -1      1516 1.22220E-01
 -1      1517 1.36592E-01
 -1      1518 1.38431E-01
 -1      1519 1.01799E-01
 -1      1520 1.11692E-01
 -1      1521 1.13506E-01
 -1      1522 8.90351E-02
 -1      1523 9.48274E-02
 -1      1524 9.60067E-02
 -1      1525 9.33667E-02
 -1      1526 8.93052E-02
 -1      1527 8.93052E-02
 -1      1528 1.07071E-01
 -1      1529 9.86377E-02
 -1      1530 9.48464E-02
 -1      1531 1.27424E-01
 -1      1532 1.15220E-01
 -1      1533 1.08266E-01
 -1      1534 1.54243E-01
 -1      1535 1.38432E-01
 -1      1536 1.27424E-01
 -1      1537 1.90783E-01
 -1      1538 1.71719E-01
 -1      1539 1.55908E-01
 -1      1540 2.38528E-01
 -1      1541 2.16957E-01
 -1      1542 1.99558E-01
 -1      1543 3.08750E-01
 -1      1544 2.70659E-01
 -1      1545 2.57863E-01
 -1      1546 3.92698E-01
 -1      1547 3.46597E-01
 -1      1548 3.27840E-01
 -1      1549 4.87820E-01
 -1      1550 4.35232E-01
 -1      1551 4.08222E-01
 -1      1552 5.88541E-01
 -1      1553 5.32777E-01
 -1      1554 4.95713E-01
 -1      1555 6.88618E-01
 -1      1556 6.36411E-01
 -1      1557 5.88541E-01
 -1      1558 7.77777E-01
 -1      1559 7.40825E-01
 -1      1560 6.88618E-01
 -1      1561 8.29029E-01
 -1      1562 8.14730E-01
 -1      1563 7.77777E-01
 -1      1564 1.07256E+00
 -1      1565 9.20406E-01
 -1      1566 9.06107E-01
 -1      1567 1.30265E+00
 -1      1568 1.15956E+00
 -1      1569 1.08449E+00
 -1      1570 1.50589E+00
 -1      1571 1.43382E+00
 -1      1572 1.30265E+00
 -1      1573 1.77482E+00
 -1      1574 1.57796E+00
 -1      1575 1.50589E+00
 -1      1576 2.01774E+00
 -1      1577 1.97169E+00
 -1      1578 1.77482E+00
 -1      1579 2.26313E+00
 -1      1580 2.06379E+00
 -1      1581 2.01774E+00
 -1      1582 2.83116E+00
 -1      1583 2.46246E+00
 -1      1584 2.26313E+00
 -1      1585 3.89735E+00
 -1      1586 3.19986E+00
 -1      1587 2.83116E+00
 -1      1588 4.80705E+00
 -1      1589 4.59484E+00
 -1      1590 3.89735E+00
 -1      1591 5.01926E+00
 -1      1592 5.01926E+00
 -1      1593 4.80705E+00
 -1      1594 4.83460E+00
 -1      1595 4.92693E+00
 -1      1596 4.92693E+00
 -1      1597 3.03370E+00
 -1      1598 3.93415E+00
 -1      1599 3.93415E+00
 -1      1600 1.60690E+00
 -1      1601 2.32030E+00
 -1      1602 2.32030E+00
 -1      1603 1.33415E+00
 -1      1604 1.38232E+00
 -1      1605 1.38232E+00
 -1      1606 1.57917E+00
 -1      1607 1.51055E+00
 -1      1608 1.33415E+00
 -1      1609 1.64780E+00
 -1      1610 1.64780E+00
 -1      1611 1.57917E+00
 -1      1612 1.31527E+00
 -1      1613 1.48153E+00
 -1      1614 1.48153E+00
 -1      1615 1.18743E+00
 -1      1616 1.25135E+00
 -1      1617 1.25135E+00
 -1      1618 7.47554E-01
 -1      1619 9.73458E-01
 -1      1620 9.73458E-01
 -1      1621 5.56070E-01
 -1      1622 4.22735E-01
 -1      1623 4.22735E-01
 -1      1624 4.02609E-01
 -1      1625 4.37483E-01
 -1      1626 4.83697E-01
 -1      1627 3.44745E-01
 -1      1628 4.02609E-01
 -1      1629 4.98445E-01
 -1      1630 2.45231E-01
 -1      1631 2.48627E-01
 -1      1632 4.02327E-01
 -1      1633 4.77207E-01
 -1      1634 3.90451E-01
 -1      1635 4.51430E-01
 -1      1636 6.32042E-01
 -1      1637 5.92454E-01
 -1      1638 7.11897E-01
 -1      1639 6.41395E-01
 -1      1640 6.41395E-01
 -1      1641 8.36497E-01
 -1      1642 6.19213E-01
 -1      1643 6.41395E-01
 -1      1644 8.45850E-01
 -1      1645 4.63836E-01
 -1      1646 5.39884E-01
 -1      1647 7.66521E-01
 -1      1648 2.48491E-01
 -1      1649 3.10900E-01
 -1      1650 5.34255E-01
 -1      1651 2.76609E-01
 -1      1652 2.36149E-01
 -1      1653 3.68977E-01
 -1      1654 3.14288E-01
 -1      1655 3.01761E-01
 -1      1656 3.81787E-01
 -1      1657 3.14288E-01
 -1      1658 3.14288E-01
 -1      1659 4.06940E-01
 -1      1660 3.30070E-01
 -1      1661 3.00640E-01
 -1      1662 3.93291E-01
 -1      1663 3.27194E-01
 -1      1664 3.27194E-01
 -1      1665 3.76767E-01
 -1      1666 4.20664E-01
 -1      1667 2.69430E+01
 -1      1668 2.69130E+01
 -1      1669 3.78843E+01
 -1      1670 2.66267E+01
 -1      1671 4.68954E+01
 -1      1672 4.68954E+01
 -1      1673 2.02123E+01
 -1      1674 3.39456E+01
 -1      1675 1.16193E+01
 -1      1676 1.52740E+01
 -1      1677 1.23943E+01
 -1      1678 1.21194E+01
 -1      1679 1.28524E+01
 -1      1680 1.26691E+01
 -1      1681 1.30356E+01
 -1      1682 1.30356E+01
 -1      1683 1.23934E+01
 -1      1684 1.27145E+01
 -1      1685 1.36617E+01
 -1      1686 1.20379E+01
 -1      1687 2.95535E+01
 -1      1688 1.62922E+01
 -1      1689 4.21636E+01
 -1      1690 4.21636E+01
 -1      1691 3.08821E+01
 -1      1692 3.96379E+01
 -1      1693 2.68242E+01
 -1      1694 2.68242E+01
 -1      1695 2.66719E+01
 -1      1696 2.68242E+01
 -1      1697 2.73174E+01
 -1      1698 2.49700E+01
 -1      1699 2.90423E+01
 -1      1700 2.90423E+01
 -1      1701 2.73655E+01
 -1      1702 2.84762E+01
 -1      1703 1.21958E+01
 -1      1704 1.95083E+01
 -1      1705 1.17533E+01
 -1      1706 1.18328E+01
 -1      1707 1.20367E+01
 -1      1708 1.20367E+01
 -1      1709 1.19308E+01
 -1      1710 1.19596E+01
 -1      1711 1.19791E+01
 -1      1712 1.19791E+01
 -1      1713 1.18527E+01
 -1      1714 1.19159E+01
 -1      1715 1.56810E+01
 -1      1716 1.13891E+01
 -1      1717 3.48815E+01
 -1      1718 2.13139E+01
 -1      1719 4.75718E+01
 -1      1720 4.75718E+01
 -1      1721 2.55611E+01
 -1      1722 3.70430E+01
 -1      1723 2.69130E+01
 -1      1724 2.70569E+01
 -1      1725 1.60575E+01
 -1      1726 3.39456E+01
 -1      1727 5.68005E-01
 -1      1728 6.14220E-01
 -1      1729 2.91896E+01
 -1      1730 3.78843E+01
 -1      1731 2.95059E+01
 -1      1732 1.16193E+01
 -1      1733 1.23943E+01
 -1      1734 1.28524E+01
 -1      1735 1.27145E+01
 -1      1736 1.20379E+01
 -1      1737 1.43129E+01
 -1      1738 2.95535E+01
 -1      1739 3.96379E+01
 -1      1740 3.30541E+01
 -1      1741 2.89962E+01
 -1      1742 2.72943E+01
 -1      1743 2.73174E+01
 -1      1744 2.84762E+01
 -1      1745 2.00530E+01
 -1      1746 1.18328E+01
 -1      1747 1.17533E+01
 -1      1748 1.19596E+01
 -1      1749 1.19308E+01
 -1      1750 1.19159E+01
 -1      1751 1.13891E+01
 -1      1752 1.65584E+01
 -1      1753 3.48815E+01
 -1      1754 3.70430E+01
 -1      1755 2.80101E+01
 -1      1756 9.61108E+00
 -1      1757 1.27768E+00
 -1      1758 1.67330E+00
 -1      1759 2.38929E+00
 -1      1760 4.27890E+00
 -1      1761 1.76392E+00
 -1      1762 8.84293E-01
 -1      1763 9.76442E-01
 -1      1764 7.79768E-01
 -1      1765 8.34202E-01
 -1      1766 7.45003E-01
 -1      1767 7.14039E-01
 -1      1768 7.48258E-01
 -1      1769 6.63402E-01
 -1      1770 6.71921E-01
 -1      1771 6.91972E-01
 -1      1772 6.09824E-01
 -1      1773 6.95283E-01
 -1      1774 6.73519E-01
 -1      1775 5.89354E-01
 -1      1776 7.50916E-01
 -1      1777 7.17082E-01
 -1      1778 6.12750E-01
 -1      1779 8.41059E-01
 -1      1780 7.84230E-01
 -1      1781 6.67862E-01
 -1      1782 9.84308E-01
 -1      1783 8.88612E-01
 -1      1784 7.48729E-01
 -1      1785 1.22950E+00
 -1      1786 1.05200E+00
 -1      1787 8.63971E-01
 -1      1788 1.71022E+00
 -1      1789 1.34360E+00
 -1      1790 1.04575E+00
 -1      1791 2.63004E+00
 -1      1792 1.79474E+00
 -1      1793 1.24436E+00
 -1      1794 8.12055E+00
 -1      1795 3.06616E+00
 -1      1796 1.76500E+00
 -1      1797 2.79809E+00
 -1      1798 5.19808E+00
 -1      1799 2.16418E+00
 -1      1800 2.65489E+00
 -1      1801 2.05792E+00
 -1      1802 3.39909E+00
 -1      1803 2.53585E+00
 -1      1804 1.92121E+00
 -1      1805 1.69036E+00
 -1      1806 1.35832E+00
 -1      1807 1.49925E+00
 -1      1808 1.17829E+00
 -1      1809 9.67572E-01
 -1      1810 1.08837E+00
 -1      1811 8.42183E-01
 -1      1812 7.16826E-01
 -1      1813 7.82950E-01
 -1      1814 6.57927E-01
 -1      1815 5.68248E-01
 -1      1816 5.98661E-01
 -1      1817 5.19927E-01
 -1      1818 4.56489E-01
 -1      1819 4.91442E-01
 -1      1820 4.14034E-01
 -1      1821 3.64375E-01
 -1      1822 4.00666E-01
 -1      1823 3.31842E-01
 -1      1824 2.93027E-01
 -1      1825 3.25677E-01
 -1      1826 2.65784E-01
 -1      1827 2.37852E-01
 -1      1828 2.65901E-01
 -1      1829 2.14573E-01
 -1      1830 1.91025E-01
 -1      1831 2.15378E-01
 -1      1832 1.72921E-01
 -1      1833 1.53663E-01
 -1      1834 1.73995E-01
 -1      1835 1.39211E-01
 -1      1836 1.23906E-01
 -1      1837 1.41440E-01
 -1      1838 1.11715E-01
 -1      1839 9.98995E-02
 -1      1840 1.14797E-01
 -1      1841 8.97613E-02
 -1      1842 8.09042E-02
 -1      1843 9.24672E-02
 -1      1844 7.30594E-02
 -1      1845 6.76925E-02
 -1      1846 7.44842E-02
 -1      1847 6.54595E-02
 -1      1848 6.81809E-02
 -1      1849 6.44064E-02
 -1      1850 7.24225E-02
 -1      1851 7.89734E-02
 -1      1852 6.64151E-02
 -1      1853 8.72900E-02
 -1      1854 9.89158E-02
 -1      1855 7.89734E-02
 -1      1856 1.10542E-01
 -1      1857 1.25664E-01
 -1      1858 9.89158E-02
 -1      1859 1.41665E-01
 -1      1860 1.60242E-01
 -1      1861 1.26543E-01
 -1      1862 1.87747E-01
 -1      1863 2.11216E-01
 -1      1864 1.70050E-01
 -1      1865 2.44319E-01
 -1      1866 2.73004E-01
 -1      1867 2.30657E-01
 -1      1868 3.11178E-01
 -1      1869 3.54166E-01
 -1      1870 3.01935E-01
 -1      1871 3.95615E-01
 -1      1872 4.43091E-01
 -1      1873 3.81557E-01
 -1      1874 4.84167E-01
 -1      1875 5.30861E-01
 -1      1876 4.64082E-01
 -1      1877 5.65473E-01
 -1      1878 6.11993E-01
 -1      1879 5.39771E-01
 -1      1880 6.48147E-01
 -1      1881 7.13425E-01
 -1      1882 6.10537E-01
 -1      1883 7.54263E-01
 -1      1884 8.29207E-01
 -1      1885 6.87528E-01
 -1      1886 8.45774E-01
 -1      1887 8.89636E-01
 -1      1888 7.44933E-01
 -1      1889 8.57143E-01
 -1      1890 8.42222E-01
 -1      1891 7.29006E-01
 -1      1892 7.81178E-01
 -1      1893 8.39373E-01
 -1      1894 6.35469E-01
 -1      1895 8.06759E-01
 -1      1896 7.71707E-01
 -1      1897 5.41811E-01
 -1      1898 9.93275E-01
 -1      1899 1.20690E+00
 -1      1900 7.30766E-01
 -1      1901 1.47492E+00
 -1      1902 1.78958E+00
 -1      1903 1.22035E+00
 -1      1904 2.01175E+00
 -1      1905 2.52411E+00
 -1      1906 1.71054E+00
 -1      1907 2.69725E+00
 -1      1908 2.92934E+00
 -1      1909 2.10585E+00
 -1      1910 2.90377E+00
 -1      1911 2.83195E+00
 -1      1912 2.25341E+00
 -1      1913 2.82675E+00
 -1      1914 2.71635E+00
 -1      1915 2.22264E+00
 -1      1916 2.61939E+00
 -1      1917 2.16661E+00
 -1      1918 2.12048E+00
 -1      1919 1.98154E+00
 -1      1920 1.61176E+00
 -1      1921 1.83845E+00
 -1      1922 1.41048E+00
 -1      1923 1.14178E+00
 -1      1924 1.45210E+00
 -1      1925 1.02524E+00
 -1      1926 8.00361E-01
 -1      1927 1.13427E+00
 -1      1928 6.64921E-01
 -1      1929 6.23792E-01
 -1      1930 8.82289E-01
 -1      1931 5.59283E-01
 -1      1932 5.86713E-01
 -1      1933 6.82339E-01
 -1      1934 5.08718E-01
 -1      1935 4.93431E-01
 -1      1936 5.39835E-01
 -1      1937 5.22558E-01
 -1      1938 4.93766E-01
 -1      1939 4.46992E-01
 -1      1940 4.90966E-01
 -1      1941 1.39875E+00
 -1      1942 1.77230E+00
 -1      1943 1.52284E+00
 -1      1944 1.01890E+00
 -1      1945 1.27938E+00
 -1      1946 1.01159E+00
 -1      1947 8.05553E-01
 -1      1948 9.25276E-01
 -1      1949 7.98601E-01
 -1      1950 6.39069E-01
 -1      1951 7.26298E-01
 -1      1952 6.25726E-01
 -1      1953 5.13819E-01
 -1      1954 5.85370E-01
 -1      1955 4.92771E-01
 -1      1956 4.21284E-01
 -1      1957 4.80789E-01
 -1      1958 4.06042E-01
 -1      1959 3.40354E-01
 -1      1960 3.89695E-01
 -1      1961 3.41423E-01
 -1      1962 2.76000E-01
 -1      1963 3.12784E-01
 -1      1964 2.82264E-01
 -1      1965 2.23451E-01
 -1      1966 2.53674E-01
 -1      1967 2.32368E-01
 -1      1968 1.80520E-01
 -1      1969 2.03983E-01
 -1      1970 1.90574E-01
 -1      1971 1.45663E-01
 -1      1972 1.64215E-01
 -1      1973 1.54802E-01
 -1      1974 1.18964E-01
 -1      1975 1.33361E-01
 -1      1976 1.26196E-01
 -1      1977 9.91673E-02
 -1      1978 1.09695E-01
 -1      1979 1.04625E-01
 -1      1980 8.58088E-02
 -1      1981 9.27804E-02
 -1      1982 8.89694E-02
 -1      1983 8.32779E-02
 -1      1984 8.30078E-02
 -1      1985 7.97815E-02
 -1      1986 9.01001E-02
 -1      1987 8.48291E-02
 -1      1988 7.85317E-02
 -1      1989 1.02548E-01
 -1      1990 9.43994E-02
 -1      1991 8.43821E-02
 -1      1992 1.25783E-01
 -1      1993 1.14775E-01
 -1      1994 1.00908E-01
 -1      1995 1.59565E-01
 -1      1996 1.42089E-01
 -1      1997 1.29440E-01
 -1      1998 2.10841E-01
 -1      1999 1.84667E-01
 -1      2000 1.70847E-01
 -1      2001 2.84043E-01
 -1      2002 2.51913E-01
 -1      2003 2.37021E-01
 -1      2004 3.74416E-01
 -1      2005 3.36569E-01
 -1      2006 3.30619E-01
 -1      2007 4.81984E-01
 -1      2008 4.39450E-01
 -1      2009 4.48178E-01
 -1      2010 6.04030E-01
 -1      2011 5.59073E-01
 -1      2012 5.90301E-01
 -1      2013 7.37732E-01
 -1      2014 6.89862E-01
 -1      2015 7.53221E-01
 -1      2016 8.76461E-01
 -1      2017 8.24254E-01
 -1      2018 9.25575E-01
 -1      2019 9.85719E-01
 -1      2020 9.48767E-01
 -1      2021 1.08440E+00
 -1      2022 1.14381E+00
 -1      2023 1.05243E+00
 -1      2024 1.22342E+00
 -1      2025 1.24702E+00
 -1      2026 1.16001E+00
 -1      2027 1.30634E+00
 -1      2028 1.37818E+00
 -1      2029 1.24702E+00
 -1      2030 1.32255E+00
 -1      2031 1.36658E+00
 -1      2032 1.29450E+00
 -1      2033 1.23887E+00
 -1      2034 1.49938E+00
 -1      2035 1.30252E+00
 -1      2036 1.09113E+00
 -1      2037 1.67768E+00
 -1      2038 1.63163E+00
 -1      2039 1.15933E+00
 -1      2040 2.37245E+00
 -1      2041 2.17311E+00
 -1      2042 1.78701E+00
 -1      2043 2.90903E+00
 -1      2044 2.54033E+00
 -1      2045 2.45032E+00
 -1      2046 3.90222E+00
 -1      2047 3.20472E+00
 -1      2048 2.91390E+00
 -1      2049 4.06464E+00
 -1      2050 3.85243E+00
 -1      2051 3.15980E+00
 -1      2052 3.82424E+00
 -1      2053 3.91657E+00
 -1      2054 2.96195E+00
 -1      2055 2.58481E+00
 -1      2056 3.48526E+00
 -1      2057 2.47490E+00
 -1      2058 1.52350E+00
 -1      2059 2.23690E+00
 -1      2060 1.78801E+00
 -1      2061 1.12395E+00
 -1      2062 1.34852E+00
 -1      2063 1.26513E+00
 -1      2064 1.23913E+00
 -1      2065 1.06273E+00
 -1      2066 1.02893E+00
 -1      2067 1.34869E+00
 -1      2068 1.28007E+00
 -1      2069 1.00865E+00
 -1      2070 1.13992E+00
 -1      2071 1.30618E+00
 -1      2072 1.00708E+00
 -1      2073 1.06205E+00
 -1      2074 1.12597E+00
 -1      2075 9.50614E-01
 -1      2076 7.59490E-01
 -1      2077 9.73458E-01
 -1      2078 8.48077E-01
 -1      2079 6.14220E-01
 -1      2080 4.52871E-01
 -1      2081 5.48989E-01
 -1      2082 6.38504E-01
 -1      2083 6.38504E-01
 -1      2084 6.89049E-01
 -1      2085 6.38504E-01
 -1      2086 6.23756E-01
 -1      2087 7.69027E-01
 -1      2088 7.78564E-01
 -1      2089 6.63278E-01
 -1      2090 5.18057E-01
 -1      2091 6.64720E-01
 -1      2092 9.99979E-01
 -1      2093 8.84732E-01
 -1      2094 9.51360E-01
 -1      2095 1.05582E+00
 -1      2096 1.04647E+00
 -1      2097 1.21930E+00
 -1      2098 1.05582E+00
 -1      2099 1.05582E+00
 -1      2100 1.26579E+00
 -1      2101 9.66089E-01
 -1      2102 1.04542E+00
 -1      2103 1.25539E+00
 -1      2104 6.19070E-01
 -1      2105 7.72007E-01
 -1      2106 1.05090E+00
 -1      2107 4.67080E-01
 -1      2108 4.79422E-01
 -1      2109 7.17174E-01
 -1      2110 4.82593E-01
 -1      2111 4.57440E-01
 -1      2112 5.67886E-01
 -1      2113 4.82593E-01
 -1      2114 4.82593E-01
 -1      2115 5.58246E-01
 -1      2116 4.49868E-01
 -1      2117 4.63517E-01
 -1      2118 5.39170E-01
 -1      2119 3.78843E+01
 -1      2120 2.88733E+01
 -1      2121 2.96042E+01
 -1      2122 2.96042E+01
 -1      2123 2.92879E+01
 -1      2124 2.96042E+01
 -1      2125 1.87387E+01
 -1      2126 3.16884E+01
 -1      2127 1.01554E+01
 -1      2128 1.50937E+01
 -1      2129 1.03426E+00
 -1      2130 1.20909E+00
 -1      2131 9.79328E-01
 -1      2132 8.52915E-01
 -1      2133 1.11452E+01
 -1      2134 1.08703E+01
 -1      2135 1.19217E+01
 -1      2136 1.17385E+01
 -1      2137 1.12367E+01
 -1      2138 1.15578E+01
 -1      2139 1.02093E+01
 -1      2140 1.05648E+01
 -1      2141 9.40808E+00
 -1      2142 1.26305E+01
 -1      2143 1.00001E+01
 -1      2144 2.80097E+01
 -1      2145 1.53996E+01
 -1      2146 3.15977E+01
 -1      2147 3.41235E+01
 -1      2148 1.99696E+01
 -1      2149 2.58475E+01
 -1      2150 2.99055E+01
 -1      2151 3.27464E+01
 -1      2152 3.27464E+01
 -1      2153 3.10445E+01
 -1      2154 3.27464E+01
 -1      2155 2.56973E+01
 -1      2156 2.39723E+01
 -1      2157 2.94244E+01
 -1      2158 2.35968E+01
 -1      2159 2.41629E+01
 -1      2160 1.17835E+01
 -1      2161 1.96407E+01
 -1      2162 9.41740E+00
 -1      2163 9.78039E+00
 -1      2164 1.07989E+01
 -1      2165 1.05155E+01
 -1      2166 1.09349E+01
 -1      2167 1.10120E+01
 -1      2168 1.12482E+01
 -1      2169 1.11999E+01
 -1      2170 1.11681E+01
 -1      2171 1.12312E+01
 -1      2172 9.26465E+00
 -1      2173 9.72830E+00
 -1      2174 1.57645E+01
 -1      2175 1.01316E+01
 -1      2176 3.22209E+01
 -1      2177 1.95307E+01
 -1      2178 2.65142E+01
 -1      2179 3.70430E+01
 -1      2180 2.16921E+01
 -1      2181 2.91167E+01
 -1      2182 2.76208E+01
 -1      2183 9.88666E+00
 -1      2184 9.38654E+00
 -1      2185 1.28365E+01
 -1      2186 2.91075E+00
 -1      2187 8.42274E+00
 -1      2188 8.63757E+00
 -1      2189 2.10500E+00
 -1      2190 2.92879E+01
 -1      2191 2.97024E+01
 -1      2192 4.46992E-01
 -1      2193 2.26774E+01
 -1      2194 2.92149E+01
 -1      2195 2.48531E+01
 -1      2196 2.48531E+01
 -1      2197 2.59598E+01
 -1      2198 1.31039E+01
 -1      2199 8.47083E+00
 -1      2200 9.04363E+00
 -1      2201 1.05004E+01
 -1      2202 1.02523E+01
 -1      2203 9.77422E+00
 -1      2204 8.46305E+00
 -1      2205 9.36809E+00
 -1      2206 2.31385E+01
 -1      2207 1.97935E+01
 -1      2208 1.82591E+01
 -1      2209 3.64967E+01
 -1      2210 2.43911E+01
 -1      2211 8.52695E+00
 -1      2212 1.02145E+01
 -1      2213 1.04439E+01
 -1      2214 1.10868E+01
 -1      2215 2.95977E+01
 -1      2216 1.53273E+01
 -1      2217 1.08975E+00
 -1      2218 1.48163E+00
 -1      2219 5.59163E-01
 -1      2220 5.90674E-01
 -1      2221 6.04637E-01
 -1      2222 6.54728E-01
 -1      2223 5.00398E-01
 -1      2224 5.11339E-01
 -1      2225 5.09742E-01
 -1      2226 5.46059E-01
 -1      2227 5.24261E-01
 -1      2228 4.44649E-01
 -1      2229 5.94116E-01
 -1      2230 5.60802E-01
 -1      2231 4.72313E-01
 -1      2232 6.53652E-01
 -1      2233 6.06099E-01
 -1      2234 4.99039E-01
 -1      2235 7.21341E-01
 -1      2236 6.53652E-01
 -1      2237 5.11022E-01
 -1      2238 8.84160E-01
 -1      2239 7.70067E-01
 -1      2240 5.59749E-01
 -1      2241 8.92221E-01
 -1      2242 1.01159E+00
 -1      2243 9.70381E-01
 -1      2244 1.26680E+00
 -1      2245 1.03595E+00
 -1      2246 6.78012E+00
 -1      2247 7.54896E+00
 -1      2248 9.85764E-01
 -1      2249 8.05735E-01
 -1      2250 7.53319E-01
 -1      2251 7.49217E-01
 -1      2252 6.23827E-01
 -1      2253 6.46613E-01
 -1      2254 5.67764E-01
 -1      2255 5.08865E-01
 -1      2256 5.34031E-01
 -1      2257 4.59671E-01
 -1      2258 4.11350E-01
 -1      2259 4.28773E-01
 -1      2260 3.84018E-01
 -1      2261 3.41562E-01
 -1      2262 3.52246E-01
 -1      2263 3.16825E-01
 -1      2264 2.84292E-01
 -1      2265 3.00176E-01
 -1      2266 2.60963E-01
 -1      2267 2.33720E-01
 -1      2268 2.52111E-01
 -1      2269 2.14265E-01
 -1      2270 1.90986E-01
 -1      2271 2.09328E-01
 -1      2272 1.74330E-01
 -1      2273 1.56226E-01
 -1      2274 1.73218E-01
 -1      2275 1.41663E-01
 -1      2276 1.27212E-01
 -1      2277 1.41999E-01
 -1      2278 1.14798E-01
 -1      2279 1.02607E-01
 -1      2280 1.15022E-01
 -1      2281 9.24672E-02
 -1      2282 8.23290E-02
 -1      2283 9.24688E-02
 -1      2284 7.40079E-02
 -1      2285 6.61631E-02
 -1      2286 7.40079E-02
 -1      2287 6.04220E-02
 -1      2288 5.81891E-02
 -1      2289 5.99457E-02
 -1      2290 5.84975E-02
 -1      2291 6.27392E-02
 -1      2292 5.45131E-02
 -1      2293 6.81472E-02
 -1      2294 7.64638E-02
 -1      2295 6.02296E-02
 -1      2296 8.64779E-02
 -1      2297 9.81038E-02
 -1      2298 7.56518E-02
 -1      2299 1.17985E-01
 -1      2300 1.33987E-01
 -1      2301 1.05547E-01
 -1      2302 1.58362E-01
 -1      2303 1.85866E-01
 -1      2304 1.49804E-01
 -1      2305 2.15213E-01
 -1      2306 2.48317E-01
 -1      2307 2.03526E-01
 -1      2308 2.82638E-01
 -1      2309 3.20812E-01
 -1      2310 2.67194E-01
 -1      2311 3.59315E-01
 -1      2312 4.00764E-01
 -1      2313 3.40019E-01
 -1      2314 4.41437E-01
 -1      2315 4.82513E-01
 -1      2316 4.19194E-01
 -1      2317 5.21634E-01
 -1      2318 5.56247E-01
 -1      2319 4.98989E-01
 -1      2320 5.90425E-01
 -1      2321 6.26579E-01
 -1      2322 5.72289E-01
 -1      2323 6.55991E-01
 -1      2324 6.96829E-01
 -1      2325 6.35880E-01
 -1      2326 7.33238E-01
 -1      2327 7.49805E-01
 -1      2328 7.01702E-01
 -1      2329 7.70378E-01
 -1      2330 7.37885E-01
 -1      2331 7.58684E-01
 -1      2332 7.25074E-01
 -1      2333 6.64031E-01
 -1      2334 7.66446E-01
 -1      2335 7.53482E-01
 -1      2336 7.20868E-01
 -1      2337 8.43087E-01
 -1      2338 7.63968E-01
 -1      2339 9.85537E-01
 -1      2340 9.75639E-01
 -1      2341 1.15036E+00
 -1      2342 1.41837E+00
 -1      2343 1.18356E+00
 -1      2344 1.51552E+00
 -1      2345 1.73769E+00
 -1      2346 1.44552E+00
 -1      2347 1.95736E+00
 -1      2348 2.13050E+00
 -1      2349 1.76234E+00
 -1      2350 2.25055E+00
 -1      2351 2.22498E+00
 -1      2352 2.10206E+00
 -1      2353 2.19720E+00
 -1      2354 2.19200E+00
 -1      2355 2.19434E+00
 -1      2356 2.19475E+00
 -1      2357 2.09779E+00
 -1      2358 2.16931E+00
 -1      2359 1.85397E+00
 -1      2360 1.66890E+00
 -1      2361 1.92824E+00
 -1      2362 1.60925E+00
 -1      2363 1.40797E+00
 -1      2364 1.62477E+00
 -1      2365 1.30806E+00
 -1      2366 1.19152E+00
 -1      2367 1.46521E+00
 -1      2368 1.01773E+00
 -1      2369 8.82289E-01
 -1      2370 1.19152E+00
 -1      2371 7.97542E-01
 -1      2372 7.33033E-01
 -1      2373 9.32982E-01
 -1      2374 6.17830E-01
 -1      2375 5.39835E-01
 -1      2376 7.33033E-01
 -1      2377 5.46470E-01
 -1      2378 6.25726E-01
 -1      2379 4.39072E-01
 -1      2380 4.92771E-01
 -1      2381 4.92771E-01
 -1      2382 3.73011E-01
 -1      2383 4.06042E-01
 -1      2384 4.06042E-01
 -1      2385 3.09834E-01
 -1      2386 3.41423E-01
 -1      2387 3.41423E-01
 -1      2388 2.54694E-01
 -1      2389 2.82264E-01
 -1      2390 2.82264E-01
 -1      2391 2.10245E-01
 -1      2392 2.32571E-01
 -1      2393 2.32571E-01
 -1      2394 1.71523E-01
 -1      2395 1.90991E-01
 -1      2396 1.91194E-01
 -1      2397 1.38832E-01
 -1      2398 1.55136E-01
 -1      2399 1.55554E-01
 -1      2400 1.12966E-01
 -1      2401 1.25267E-01
 -1      2402 1.25602E-01
 -1      2403 9.28845E-02
 -1      2404 1.02154E-01
 -1      2405 1.01225E-01
 -1      2406 7.78734E-02
 -1      2407 8.42603E-02
 -1      2408 8.17885E-02
 -1      2409 6.95487E-02
 -1      2410 7.23497E-02
 -1      2411 6.76406E-02
 -1      2412 6.91813E-02
 -1      2413 6.76302E-02
 -1      2414 6.01984E-02
 -1      2415 7.95084E-02
 -1      2416 7.52092E-02
 -1      2417 6.43077E-02
 -1      2418 1.00722E-01
 -1      2419 8.84953E-02
 -1      2420 7.93224E-02
 -1      2421 1.35587E-01
 -1      2422 1.19281E-01
 -1      2423 1.06869E-01
 -1      2424 1.88815E-01
 -1      2425 1.63713E-01
 -1      2426 1.53555E-01
 -1      2427 2.66075E-01
 -1      2428 2.25003E-01
 -1      2429 2.17869E-01
 -1      2430 3.64426E-01
 -1      2431 3.11901E-01
 -1      2432 2.99882E-01
 -1      2433 4.86188E-01
 -1      2434 4.21154E-01
 -1      2435 4.02436E-01
 -1      2436 6.31361E-01
 -1      2437 5.54272E-01
 -1      2438 5.27249E-01
 -1      2439 7.95450E-01
 -1      2440 7.09619E-01
 -1      2441 6.73590E-01
 -1      2442 9.66350E-01
 -1      2443 8.79828E-01
 -1      2444 8.36225E-01
 -1      2445 1.12064E+00
 -1      2446 1.04833E+00
 -1      2447 1.00259E+00
 -1      2448 1.25254E+00
 -1      2449 1.18582E+00
 -1      2450 1.14976E+00
 -1      2451 1.32744E+00
 -1      2452 1.31123E+00
 -1      2453 1.27363E+00
 -1      2454 1.41989E+00
 -1      2455 1.41989E+00
 -1      2456 1.42478E+00
 -1      2457 1.40020E+00
 -1      2458 1.48388E+00
 -1      2459 1.58122E+00
 -1      2460 1.35790E+00
 -1      2461 1.42195E+00
 -1      2462 1.66696E+00
 -1      2463 1.85692E+00
 -1      2464 1.72468E+00
 -1      2465 2.05549E+00
 -1      2466 2.12148E+00
 -1      2467 1.62605E+00
 -1      2468 2.19140E+00
 -1      2469 2.74560E+00
 -1      2470 2.57772E+00
 -1      2471 2.41676E+00
 -1      2472 4.31781E+00
 -1      2473 4.02212E+00
 -1      2474 4.14952E+00
 -1      2475 5.49054E+00
 -1      2476 5.54033E+00
 -1      2477 6.64855E+00
 -1      2478 3.73270E+00
 -1      2479 3.88076E+00
 -1      2480 6.26129E+00
 -1      2481 2.28921E+00
 -1      2482 2.62819E+00
 -1      2483 3.54700E+00
 -1      2484 1.84011E+00
 -1      2485 2.18802E+00
 -1      2486 2.34131E+00
 -1      2487 1.52305E+00
 -1      2488 1.69803E+00
 -1      2489 2.09803E+00
 -1      2490 1.22604E+00
 -1      2491 1.28726E+00
 -1      2492 1.72016E+00
 -1      2493 1.07314E+00
 -1      2494 1.03220E+00
 -1      2495 1.29053E+00
 -1      2496 9.51386E-01
 -1      2497 9.93898E-01
 -1      2498 1.01745E+00
 -1      2499 8.58264E-01
 -1      2500 8.72214E-01
 -1      2501 8.59036E-01
 -1      2502 8.57614E-01
 -1      2503 1.29585E+00
 -1      2504 1.07440E+00
 -1      2505 1.58783E+00
 -1      2506 1.54134E+00
 -1      2507 1.66438E+00
 -1      2508 7.29889E-01
 -1      2509 8.19404E-01
 -1      2510 9.08253E-01
 -1      2511 8.43067E-01
 -1      2512 9.73423E-01
 -1      2513 1.25275E+00
 -1      2514 1.58783E+00
 -1      2515 1.58783E+00
 -1      2516 1.90987E+00
 -1      2517 1.57735E+00
 -1      2518 1.58775E+00
 -1      2519 1.90979E+00
 -1      2520 1.22851E+00
 -1      2521 1.42260E+00
 -1      2522 1.75496E+00
 -1      2523 8.32448E-01
 -1      2524 9.72096E-01
 -1      2525 1.34379E+00
 -1      2526 7.26049E-01
 -1      2527 7.35689E-01
 -1      2528 9.90612E-01
 -1      2529 6.84991E-01
 -1      2530 6.84991E-01
 -1      2531 8.52795E-01
 -1      2532 5.07628E-01
 -1      2533 5.26704E-01
 -1      2534 6.53450E-01
 -1      2535 2.97024E+01
 -1      2536 2.97024E+01
 -1      2537 1.46387E+01
 -1      2538 2.08346E+01
 -1      2539 7.04981E-01
 -1      2540 7.98601E-01
 -1      2541 6.25726E-01
 -1      2542 5.20093E-01
 -1      2543 2.92149E+01
 -1      2544 2.87274E+01
 -1      2545 2.48608E+01
 -1      2546 2.52754E+01
 -1      2547 1.67624E+00
 -1      2548 1.30133E+00
 -1      2549 8.38038E-01
 -1      2550 9.60246E-01
 -1      2551 1.21218E+01
 -1      2552 8.35568E+00
 -1      2553 3.64967E+01
 -1      2554 3.64967E+01
 -1      2555 6.43433E+00
 -1      2556 6.64357E+00
 -1      2557 9.63298E+00
 -1      2558 9.03968E+00
 -1      2559 5.22610E-01
 -1      2560 5.44678E-01
 -1      2561 4.71949E-01
 -1      2562 4.44595E-01
 -1      2563 9.28501E+00
 -1      2564 9.64894E+00
 -1      2565 1.10487E+01
 -1      2566 8.27966E+00
 -1      2567 7.40970E+00
 -1      2568 8.08160E+00
 -1      2569 2.91316E+01
 -1      2570 2.22327E+01
 -1      2571 1.91594E+01
 -1      2572 1.30456E+01
 -1      2573 1.17463E+01
 -1      2574 1.57024E+01
 -1      2575 2.04668E+01
 -1      2576 2.21591E+01
 -1      2577 2.23522E+01
 -1      2578 2.94244E+01
 -1      2579 6.84988E+00
 -1      2580 8.85301E+00
 -1      2581 6.91256E+00
 -1      2582 5.81447E+00
 -1      2583 5.29939E+00
 -1      2584 8.36352E+00
 -1      2585 8.15044E+00
 -1      2586 9.36005E+00
 -1      2587 9.09500E+00
 -1      2588 9.47113E+00
 -1      2589 9.48811E+00
 -1      2590 6.47745E+00
 -1      2591 7.91723E+00
 -1      2592 6.57860E+00
 -1      2593 5.71162E+00
 -1      2594 4.58522E+00
 -1      2595 1.92836E+01
 -1      2596 1.44615E+01
 -1      2597 9.71323E+00
 -1      2598 7.88034E+00
 -1      2599 6.89669E+00
 -1      2600 6.02290E+00
 -1      2601 7.29879E+00
 -1      2602 1.62157E+00
 -1      2603 1.76477E+00
 -1      2604 1.32864E+00
 -1      2605 1.18848E+00
 -1      2606 8.60652E+00
 -1      2607 1.22515E+01
 -1      2608 1.04087E+01
 -1      2609 5.22707E-01
 -1      2610 6.63074E-01
 -1      2611 7.20894E-01
 -1      2612 7.98601E-01
 -1      2613 1.24413E+00
 -1      2614 6.96390E+00
 -1      2615 7.09046E+00
 -1      2616 4.33125E+00
 -1      2617 6.10833E+00
 -1      2618 6.90495E+00
 -1      2619 8.33078E+00
 -1      2620 2.29821E+01
 -1      2621 2.29821E+01
 -1      2622 2.02144E+01
 -1      2623 7.28350E+00
 -1      2624 4.63492E+00
 -1      2625 5.87280E+00
 -1      2626 7.79214E-01
 -1      2627 7.79214E-01
 -1      2628 2.92149E+01
 -1      2629 2.29066E+01
 -1      2630 2.29066E+01
 -1      2631 1.84796E+01
 -1      2632 1.68221E+01
 -1      2633 1.97935E+01
 -1      2634 2.00007E+01
 -1      2635 9.68443E-01
 -1      2636 2.94244E+01
 -1      2637 9.22808E+00
 -1      2638 2.91316E+01
 -1      2639 1.52352E+01
 -1      2640 5.31709E+00
 -1      2641 6.39629E+00
 -1      2642 8.91653E-01
 -1      2643 1.46780E+01
 -1      2644 1.02386E+01
 -1      2645 7.28662E+00
 -1      2646 5.20093E-01
 -1      2647 5.20093E-01
 -1      2648 5.07628E-01
 -1      2649 4.90966E-01
 -1      2650 7.47122E+00
 -1      2651 2.01250E+01
 -1      2652 1.28944E+01
 -1      2653 1.84640E+01
 -1      2654 8.20054E-01
 -1      2655 5.68962E-01
 -1      2656 8.18055E+00
 -1      2657 9.33946E+00
 -1      2658 4.22829E-01
 -1      2659 4.08086E-01
 -1      2660 4.00294E-01
 -1      2661 3.87372E-01
 -1      2662 3.50809E-01
 -1      2663 4.36491E-01
 -1      2664 4.36491E-01
 -1      2665 4.73177E-01
 -1      2666 4.24451E-01
 -1      2667 3.49920E-01
 -1      2668 7.18196E-01
 -1      2669 7.96356E-01
 -1      2670 1.86434E+01
 -1      2671 2.57157E+01
 -1      2672 8.87578E+00
 -1      2673 6.53610E+00
 -1      2674 8.16460E+00
 -1      2675 5.50605E-01
 -1      2676 4.94086E-01
 -1      2677 4.87758E-01
 -1      2678 4.31695E-01
 -1      2679 3.91750E-01
 -1      2680 4.11288E-01
 -1      2681 3.62094E-01
 -1      2682 3.65015E-01
 -1      2683 3.37387E-01
 -1      2684 3.10054E-01
 -1      2685 3.19901E-01
 -1      2686 2.85312E-01
 -1      2687 2.60574E-01
 -1      2688 2.70452E-01
 -1      2689 2.44830E-01
 -1      2690 2.21502E-01
 -1      2691 2.29966E-01
 -1      2692 2.05243E-01
 -1      2693 1.85788E-01
 -1      2694 1.97962E-01
 -1      2695 1.70171E-01
 -1      2696 1.53515E-01
 -1      2697 1.66085E-01
 -1      2698 1.39854E-01
 -1      2699 1.25291E-01
 -1      2700 1.36808E-01
 -1      2701 1.13857E-01
 -1      2702 1.01444E-01
 -1      2703 1.11713E-01
 -1      2704 9.15778E-02
 -1      2705 8.14379E-02
 -1      2706 9.04126E-02
 -1      2707 7.28989E-02
 -1      2708 6.45778E-02
 -1      2709 7.20079E-02
 -1      2710 5.69774E-02
 -1      2711 5.12364E-02
 -1      2712 5.58685E-02
 -1      2713 4.52844E-02
 -1      2714 4.55928E-02
 -1      2715 4.23161E-02
 -1      2716 4.87806E-02
 -1      2717 5.41887E-02
 -1      2718 3.95519E-02
 -1      2719 6.54680E-02
 -1      2720 7.54820E-02
 -1      2721 5.40189E-02
 -1      2722 9.24508E-02
 -1      2723 1.12332E-01
 -1      2724 8.22670E-02
 -1      2725 1.33039E-01
 -1      2726 1.57415E-01
 -1      2727 1.19943E-01
 -1      2728 1.82590E-01
 -1      2729 2.11936E-01
 -1      2730 1.65825E-01
 -1      2731 2.42160E-01
 -1      2732 2.76481E-01
 -1      2733 2.21223E-01
 -1      2734 3.12035E-01
 -1      2735 3.50538E-01
 -1      2736 2.87001E-01
 -1      2737 3.91186E-01
 -1      2738 4.31859E-01
 -1      2739 3.63203E-01
 -1      2740 4.76521E-01
 -1      2741 5.15643E-01
 -1      2742 4.48513E-01
 -1      2743 5.62217E-01
 -1      2744 5.96396E-01
 -1      2745 5.39750E-01
 -1      2746 6.39769E-01
 -1      2747 6.69182E-01
 -1      2748 6.29698E-01
 -1      2749 7.19491E-01
 -1      2750 7.55900E-01
 -1      2751 7.23380E-01
 -1      2752 8.28599E-01
 -1      2753 8.49172E-01
 -1      2754 8.46388E-01
 -1      2755 9.18366E-01
 -1      2756 9.05556E-01
 -1      2757 9.88281E-01
 -1      2758 9.48718E-01
 -1      2759 1.03817E+00
 -1      2760 1.10064E+00
 -1      2761 1.22050E+00
 -1      2762 1.26360E+00
 -1      2763 1.32613E+00
 -1      2764 1.36564E+00
 -1      2765 1.53046E+00
 -1      2766 1.61050E+00
 -1      2767 1.60759E+00
 -1      2768 1.70474E+00
 -1      2769 1.78967E+00
 -1      2770 2.32106E+00
 -1      2771 2.54073E+00
 -1      2772 2.48313E+00
 -1      2773 3.22428E+00
 -1      2774 3.34433E+00
 -1      2775 3.78300E+00
 -1      2776 3.06496E+00
 -1      2777 3.03719E+00
 -1      2778 4.18718E+00
 -1      2779 3.36511E+00
 -1      2780 3.36786E+00
 -1      2781 4.23573E+00
 -1      2782 2.90747E+00
 -1      2783 2.66365E+00
 -1      2784 4.10327E+00
 -1      2785 2.13761E+00
 -1      2786 2.07795E+00
 -1      2787 3.11684E+00
 -1      2788 1.65585E+00
 -1      2789 1.55594E+00
 -1      2790 2.16869E+00
 -1      2791 1.42248E+00
 -1      2792 1.24869E+00
 -1      2793 1.61311E+00
 -1      2794 1.01247E+00
 -1      2795 9.27724E-01
 -1      2796 1.24343E+00
 -1      2797 8.48236E-01
 -1      2798 7.33033E-01
 -1      2799 9.27724E-01
 -1      2800 3.51254E-01
 -1      2801 3.84284E-01
 -1      2802 6.72470E+00
 -1      2803 5.99322E+00
 -1      2804 4.18477E-01
 -1      2805 4.72176E-01
 -1      2806 3.63689E-01
 -1      2807 2.45394E-01
 -1      2808 2.72963E-01
 -1      2809 2.04966E-01
 -1      2810 2.27090E-01
 -1      2811 2.17789E-01
 -1      2812 1.68810E-01
 -1      2813 1.88063E-01
 -1      2814 1.82582E-01
 -1      2815 1.38049E-01
 -1      2816 1.54436E-01
 -1      2817 1.51306E-01
 -1      2818 1.11984E-01
 -1      2819 1.25548E-01
 -1      2820 1.24431E-01
 -1      2821 9.04127E-02
 -1      2822 1.01225E-01
 -1      2823 1.01171E-01
 -1      2824 7.26494E-02
 -1      2825 8.12736E-02
 -1      2826 8.12736E-02
 -1      2827 5.98570E-02
 -1      2828 6.53807E-02
 -1      2829 6.48658E-02
 -1      2830 5.15662E-02
 -1      2831 5.34847E-02
 -1      2832 5.12248E-02
 -1      2833 6.05836E-02
 -1      2834 5.45558E-02
 -1      2835 4.78421E-02
 -1      2836 7.69536E-02
 -1      2837 6.79667E-02
 -1      2838 5.82148E-02
 -1      2839 1.14084E-01
 -1      2840 9.55247E-02
 -1      2841 8.41689E-02
 -1      2842 1.65724E-01
 -1      2843 1.37598E-01
 -1      2844 1.26253E-01
 -1      2845 2.31740E-01
 -1      2846 1.95552E-01
 -1      2847 1.79595E-01
 -1      2848 3.15194E-01
 -1      2849 2.69368E-01
 -1      2850 2.47051E-01
 -1      2851 4.18884E-01
 -1      2852 3.62156E-01
 -1      2853 3.31641E-01
 -1      2854 5.44725E-01
 -1      2855 4.76641E-01
 -1      2856 4.36361E-01
 -1      2857 6.92709E-01
 -1      2858 6.14451E-01
 -1      2859 5.63844E-01
 -1      2860 8.59308E-01
 -1      2861 7.74931E-01
 -1      2862 7.15792E-01
 -1      2863 1.03529E+00
 -1      2864 9.53302E-01
 -1      2865 8.92007E-01
 -1      2866 1.20320E+00
 -1      2867 1.13802E+00
 -1      2868 1.08873E+00
 -1      2869 1.36593E+00
 -1      2870 1.30724E+00
 -1      2871 1.29550E+00
 -1      2872 1.55728E+00
 -1      2873 1.46483E+00
 -1      2874 1.49843E+00
 -1      2875 1.82273E+00
 -1      2876 1.75874E+00
 -1      2877 1.79879E+00
 -1      2878 2.06117E+00
 -1      2879 2.03942E+00
 -1      2880 2.21694E+00
 -1      2881 2.67345E+00
 -1      2882 2.30667E+00
 -1      2883 2.67912E+00
 -1      2884 4.06678E+00
 -1      2885 4.29766E+00
 -1      2886 4.54883E+00
 -1      2887 2.87301E+00
 -1      2888 2.41676E+00
 -1      2889 4.52302E+00
 -1      2890 8.18055E+00
 -1      2891 6.95803E+00
 -1      2892 6.55482E+00
 -1      2893 8.16460E+00
 -1      2894 2.34131E+00
 -1      2895 2.44250E+00
 -1      2896 2.45815E+00
 -1      2897 2.60023E+00
 -1      2898 2.70142E+00
 -1      2899 1.85676E+00
 -1      2900 2.09255E+00
 -1      2901 2.59474E+00
 -1      2902 1.46008E+00
 -1      2903 1.65392E+00
 -1      2904 2.02631E+00
 -1      2905 1.09948E+00
 -1      2906 1.17873E+00
 -1      2907 1.54211E+00
 -1      2908 8.59036E-01
 -1      2909 9.38209E-01
 -1      2910 1.09948E+00
 -1      2911 8.99227E-01
 -1      2912 2.36992E+00
 -1      2913 2.37000E+00
 -1      2914 7.14783E-01
 -1      2915 6.65915E-01
 -1      2916 8.29986E-01
 -1      2917 2.22404E+00
 -1      2918 1.97855E+00
 -1      2919 2.17861E+00
 -1      2920 2.33336E+00
 -1      2921 2.79357E+00
 -1      2922 2.37000E+00
 -1      2923 2.37000E+00
 -1      2924 2.68417E+00
 -1      2925 2.83014E+00
 -1      2926 2.08654E+01
 -1      2927 2.03779E+01
 -1      2928 1.48678E+00
 -1      2929 1.74320E+00
 -1      2930 2.32160E+00
 -1      2931 1.25309E+00
 -1      2932 1.34985E+00
 -1      2933 1.74926E+00
 -1      2934 1.01781E+00
 -1      2935 1.05887E+00
 -1      2936 1.41811E+00
 -1      2937 1.49672E+01
 -1      2938 1.75259E+01
 -1      2939 1.21160E+01
 -1      2940 1.61422E+01
 -1      2941 7.01812E-01
 -1      2942 6.67279E-01
 -1      2943 4.72548E+00
 -1      2944 6.62879E+00
 -1      2945 5.46945E+00
 -1      2946 3.62097E+00
 -1      2947 1.41192E+01
 -1      2948 1.11195E+01
 -1      2949 5.05879E-01
 -1      2950 5.85135E-01
 -1      2951 4.31585E-01
 -1      2952 6.80097E+00
 -1      2953 4.95564E+00
 -1      2954 2.92321E-01
 -1      2955 3.23910E-01
 -1      2956 3.02152E-01
 -1      2957 2.55451E-01
 -1      2958 5.73626E+00
 -1      2959 6.79383E+00
 -1      2960 6.03089E-01
 -1      2961 5.52902E-01
 -1      2962 4.00376E-01
 -1      2963 4.66863E-01
 -1      2964 6.10643E-01
 -1      2965 7.04263E-01
 -1      2966 5.30238E-01
 -1      2967 4.90797E-01
 -1      2968 4.97889E+00
 -1      2969 6.53279E+00
 -1      2970 1.07130E+01
 -1      2971 1.32697E+01
 -1      2972 1.10022E+01
 -1      2973 8.28508E-01
 -1      2974 4.36491E-01
 -1      2975 4.24508E-01
 -1      2976 3.60281E-01
 -1      2977 3.61961E-01
 -1      2978 7.20894E-01
 -1      2979 4.22662E-01
 -1      2980 4.36626E-01
 -1      2981 9.20427E+00
 -1      2982 7.20733E+00
 -1      2983 6.53450E-01
 -1      2984 4.98850E+00
 -1      2985 5.75463E+00
 -1      2986 6.39085E+00
 -1      2987 9.28412E+00
 -1      2988 2.57166E+01
 -1      2989 1.83515E+01
 -1      2990 7.89112E+00
 -1      2991 1.02784E+01
 -1      2992 9.59839E+00
 -1      2993 6.66348E+00
 -1      2994 1.76095E+01
 -1      2995 1.58437E+01
 -1      2996 3.93931E+00
 -1      2997 4.97472E+00
 -1      2998 7.12894E+00
 -1      2999 7.00087E+00
 -1      3000 5.52286E+00
 -1      3001 3.19160E+00
 -1      3002 3.95743E+00
 -1      3003 3.58527E+00
 -1      3004 5.31053E-01
 -1      3005 3.42817E-01
 -1      3006 3.87172E-01
 -1      3007 4.00041E-01
 -1      3008 1.38368E+01
 -1      3009 2.46178E+01
 -1      3010 1.38378E+01
 -1      3011 5.27088E+00
 -1      3012 4.82772E+00
 -1      3013 4.71116E+00
 -1      3014 4.54109E+00
 -1      3015 4.15772E+00
 -1      3016 4.24300E+00
 -1      3017 3.73113E+00
 -1      3018 3.10335E+00
 -1      3019 2.03779E+01
 -1      3020 1.46325E+01
 -1      3021 1.20283E+01
 -1      3022 5.60314E+00
 -1      3023 4.73620E+00
 -1      3024 4.85662E+00
 -1      3025 2.19018E+00
 -1      3026 1.63052E+00
 -1      3027 1.46438E+00
 -1      3028 5.39318E+00
 -1      3029 6.95803E+00
 -1      3030 5.42604E+00
 -1      3031 4.14952E+00
 -1      3032 3.62097E+00
 -1      3033 8.22592E+00
 -1      3034 9.34189E+00
 -1      3035 6.31067E+00
 -1      3036 2.05718E+01
 -1      3037 1.17348E+01
 -1      3038 1.37760E+01
 -1      3039 1.16239E+00
 -1      3040 1.04922E+00
 -1      3041 1.08820E+00
 -1      3042 1.54017E+00
 -1      3043 1.09396E+01
 -1      3044 1.57659E+01
 -1      3045 1.20571E+01
 -1      3046 5.76323E-01
 -1      3047 8.11737E-01
 -1      3048 1.58899E+01
 -1      3049 1.35211E+01
 -1      3050 1.11837E+01
 -1      3051 4.41025E-01
 -1      3052 3.68594E-01
 -1      3053 4.46330E-01
 -1      3054 4.54675E-01
 -1      3055 1.41946E+01
 -1      3056 4.31025E+00
 -1      3057 1.17281E+01
 -1      3058 5.76668E+00
 -1      3059 4.07590E-01
 -1      3060 4.22076E-01
 -1      3061 3.58303E-01
 -1      3062 3.50167E-01
 -1      3063 7.87579E+00
 -1      3064 1.04912E+01
 -1      3065 7.31404E+00
 -1      3066 1.13326E+01
 -1      3067 5.03076E+00
 -1      3068 1.75586E+01
 -1      3069 1.28305E+01
 -1      3070 1.45809E+01
 -1      3071 8.61994E-01
 -1      3072 8.61994E-01
 -1      3073 1.06807E+00
 -1      3074 8.80243E-01
 -1      3075 2.89272E-01
 -1      3076 3.01313E-01
 -1      3077 4.54675E-01
 -1      3078 3.20968E-01
 -1      3079 3.00562E-01
 -1      3080 2.97166E-01
 -1      3081 2.72460E-01
 -1      3082 2.53120E-01
 -1      3083 2.61607E-01
 -1      3084 2.36865E-01
 -1      3085 2.38872E-01
 -1      3086 2.22698E-01
 -1      3087 2.06954E-01
 -1      3088 2.13853E-01
 -1      3089 1.93543E-01
 -1      3090 1.77284E-01
 -1      3091 1.86275E-01
 -1      3092 1.66577E-01
 -1      3093 1.50960E-01
 -1      3094 1.62159E-01
 -1      3095 1.39575E-01
 -1      3096 1.25915E-01
 -1      3097 1.40067E-01
 -1      3098 1.14731E-01
 -1      3099 1.03296E-01
 -1      3100 1.17498E-01
 -1      3101 9.27380E-02
 -1      3102 8.28723E-02
 -1      3103 9.57561E-02
 -1      3104 7.30330E-02
 -1      3105 6.44940E-02
 -1      3106 7.53584E-02
 -1      3107 5.52260E-02
 -1      3108 4.76256E-02
 -1      3109 5.62511E-02
 -1      3110 3.86017E-02
 -1      3111 3.26498E-02
 -1      3112 3.79593E-02
 -1      3113 3.20942E-02
 -1      3114 3.52819E-02
 -1      3115 2.83798E-02
 -1      3116 4.35277E-02
 -1      3117 5.48070E-02
 -1      3118 3.60700E-02
 -1      3119 6.87250E-02
 -1      3120 8.56938E-02
 -1      3121 5.82338E-02
 -1      3122 1.03341E-01
 -1      3123 1.24048E-01
 -1      3124 8.97986E-02
 -1      3125 1.45924E-01
 -1      3126 1.71099E-01
 -1      3127 1.29321E-01
 -1      3128 1.97298E-01
 -1      3129 2.27521E-01
 -1      3130 1.77396E-01
 -1      3131 2.58048E-01
 -1      3132 2.93602E-01
 -1      3133 2.34122E-01
 -1      3134 3.28734E-01
 -1      3135 3.69382E-01
 -1      3136 2.99781E-01
 -1      3137 4.16864E-01
 -1      3138 4.61526E-01
 -1      3139 3.82395E-01
 -1      3140 5.17195E-01
 -1      3141 5.63769E-01
 -1      3142 4.85545E-01
 -1      3143 6.26283E-01
 -1      3144 6.69657E-01
 -1      3145 6.03728E-01
 -1      3146 7.43053E-01
 -1      3147 7.93362E-01
 -1      3148 7.39639E-01
 -1      3149 8.72485E-01
 -1      3150 9.45184E-01
 -1      3151 8.92158E-01
 -1      3152 1.06294E+00
 -1      3153 1.13213E+00
 -1      3154 1.08904E+00
 -1      3155 1.29448E+00
 -1      3156 1.33764E+00
 -1      3157 1.36913E+00
 -1      3158 1.47360E+00
 -1      3159 1.65593E+00
 -1      3160 1.66744E+00
 -1      3161 1.90514E+00
 -1      3162 2.00718E+00
 -1      3163 2.05261E+00
 -1      3164 2.07442E+00
 -1      3165 2.15155E+00
 -1      3166 2.36906E+00
 -1      3167 2.07785E+00
 -1      3168 2.69418E+00
 -1      3169 2.36260E+00
 -1      3170 3.78300E+00
 -1      3171 4.46654E+00
 -1      3172 3.90911E+00
 -1      3173 4.23703E+00
 -1      3174 4.58520E+00
 -1      3175 4.12481E+00
 -1      3176 3.64288E+00
 -1      3177 3.11684E+00
 -1      3178 2.07638E+00
 -1      3179 1.94291E+00
 -1      3180 1.47964E+00
 -1      3181 1.24343E+00
 -1      3182 1.94291E+00
 -1      3183 1.00533E+00
 -1      3184 9.25843E-01
 -1      3185 9.57850E-01
 -1      3186 1.24155E+00
 -1      3187 1.64972E-01
 -1      3188 1.81875E-01
 -1      3189 1.94790E-01
 -1      3190 2.13094E-01
 -1      3191 1.77180E-01
 -1      3192 1.12567E-01
 -1      3193 1.25068E-01
 -1      3194 9.03572E-02
 -1      3195 1.01116E-01
 -1      3196 1.01753E-01
 -1      3197 7.07711E-02
 -1      3198 7.99102E-02
 -1      3199 7.98547E-02
 -1      3200 5.51113E-02
 -1      3201 6.23800E-02
 -1      3202 6.10166E-02
 -1      3203 4.09064E-02
 -1      3204 4.72787E-02
 -1      3205 4.47929E-02
 -1      3206 4.00331E-02
 -1      3207 3.70435E-02
 -1      3208 3.30974E-02
 -1      3209 5.44967E-02
 -1      3210 4.71137E-02
 -1      3211 3.63151E-02
 -1      3212 8.78162E-02
 -1      3213 6.92451E-02
 -1      3214 5.81440E-02
 -1      3215 1.29497E-01
 -1      3216 1.05984E-01
 -1      3217 9.10600E-02
 -1      3218 1.81978E-01
 -1      3219 1.52150E-01
 -1      3220 1.31881E-01
 -1      3221 2.48003E-01
 -1      3222 2.10375E-01
 -1      3223 1.82930E-01
 -1      3224 3.35302E-01
 -1      3225 2.88340E-01
 -1      3226 2.51664E-01
 -1      3227 4.43782E-01
 -1      3228 3.86025E-01
 -1      3229 3.42723E-01
 -1      3230 5.75947E-01
 -1      3231 5.06221E-01
 -1      3232 4.55885E-01
 -1      3233 7.32707E-01
 -1      3234 6.50485E-01
 -1      3235 5.92863E-01
 -1      3236 9.11620E-01
 -1      3237 8.17627E-01
 -1      3238 7.52320E-01
 -1      3239 1.13156E+00
 -1      3240 1.02883E+00
 -1      3241 9.54450E-01
 -1      3242 1.38374E+00
 -1      3243 1.27971E+00
 -1      3244 1.21980E+00
 -1      3245 1.68851E+00
 -1      3246 1.58961E+00
 -1      3247 1.57382E+00
 -1      3248 2.13294E+00
 -1      3249 1.93147E+00
 -1      3250 2.02265E+00
 -1      3251 2.63446E+00
 -1      3252 2.41778E+00
 -1      3253 2.55047E+00
 -1      3254 3.58321E+00
 -1      3255 3.33770E+00
 -1      3256 3.53855E+00
 -1      3257 6.31067E+00
 -1      3258 4.68646E+00
 -1      3259 4.14952E+00
 -1      3260 7.87107E+00
 -1      3261 1.54844E+00
 -1      3262 1.82980E+00
 -1      3263 1.17845E+00
 -1      3264 1.33972E+00
 -1      3265 1.62741E+00
 -1      3266 1.32844E+00
 -1      3267 3.50109E+00
 -1      3268 3.53766E+00
 -1      3269 1.63956E+00
 -1      3270 1.83379E+00
 -1      3271 6.23111E+00
 -1      3272 7.66001E+00
 -1      3273 2.50082E+00
 -1      3274 2.93622E+00
 -1      3275 3.68031E+00
 -1      3276 6.51125E+00
 -1      3277 5.18135E+00
 -1      3278 4.13074E-01
 -1      3279 3.09928E-01
 -1      3280 2.61321E-01
 -1      3281 3.99141E-01
 -1      3282 2.20478E+00
 -1      3283 2.34171E+00
 -1      3284 2.95634E+00
 -1      3285 2.42623E+00
 -1      3286 2.59899E+00
 -1      3287 2.80183E+00
 -1      3288 2.60532E+00
 -1      3289 4.36745E+00
 -1      3290 4.73305E+00
 -1      3291 4.94013E+00
 -1      3292 3.52341E-01
 -1      3293 3.86045E-01
 -1      3294 4.58520E+00
 -1      3295 1.37510E-01
 -1      3296 1.51884E-01
 -1      3297 1.51176E-01
 -1      3298 1.25646E-01
 -1      3299 3.08670E-01
 -1      3300 3.42863E-01
 -1      3301 2.97323E-01
 -1      3302 3.15752E-01
 -1      3303 3.09424E-01
 -1      3304 2.44970E-01
 -1      3305 4.11666E+00
 -1      3306 9.24212E+00
 -1      3307 1.09396E+01
 -1      3308 4.88835E+00
 -1      3309 4.46058E+00
 -1      3310 2.97924E+00
 -1      3311 4.05265E+00
 -1      3312 3.35704E+00
 -1      3313 1.04835E+01
 -1      3314 8.75904E+00
 -1      3315 5.13279E+00
 -1      3316 4.85662E+00
 -1      3317 4.46654E+00
 -1      3318 3.95502E+00
 -1      3319 5.37114E+00
 -1      3320 3.23675E-01
 -1      3321 3.15883E-01
 -1      3322 1.22874E+01
 -1      3323 1.15454E+01
 -1      3324 8.57634E+00
 -1      3325 5.76668E+00
 -1      3326 4.23703E+00
 -1      3327 4.85472E+00
 -1      3328 3.12240E-01
 -1      3329 3.12040E-01
 -1      3330 2.85106E-01
 -1      3331 1.05200E+01
 -1      3332 9.42218E+00
 -1      3333 7.64248E+00
 -1      3334 3.90485E-01
 -1      3335 3.69742E+00
 -1      3336 9.40055E+00
 -1      3337 9.40055E+00
 -1      3338 9.10698E+00
 -1      3339 3.69256E-01
 -1      3340 3.94764E-01
 -1      3341 2.77601E-01
 -1      3342 2.90012E-01
 -1      3343 5.15536E+00
 -1      3344 2.82605E+00
 -1      3345 2.47802E+00
 -1      3346 4.46654E+00
 -1      3347 4.18718E+00
 -1      3348 2.77060E+00
 -1      3349 2.34850E+00
 -1      3350 3.86047E+00
 -1      3351 2.04453E-01
 -1      3352 2.27452E-01
 -1      3353 2.46809E-01
 -1      3354 9.17956E+00
 -1      3355 4.18847E+00
 -1      3356 7.79081E+00
 -1      3357 6.01318E+00
 -1      3358 6.54630E+00
 -1      3359 1.19442E+01
 -1      3360 9.60940E+00
 -1      3361 9.35454E+00
 -1      3362 2.96117E+00
 -1      3363 2.70225E+00
 -1      3364 3.53024E+00
 -1      3365 3.38428E+00
 -1      3366 3.67212E+00
 -1      3367 2.60419E-01
 -1      3368 3.21067E-01
 -1      3369 3.21067E-01
 -1      3370 3.53766E+00
 -1      3371 3.53766E+00
 -1      3372 4.23776E+00
 -1      3373 4.24518E+00
 -1      3374 7.59744E+00
 -1      3375 1.11886E+01
 -1      3376 9.27757E+00
 -1      3377 9.02530E+00
 -1      3378 3.20247E-01
 -1      3379 3.29952E-01
 -1      3380 3.23675E-01
 -1      3381 2.88748E-01
 -1      3382 3.25355E-01
 -1      3383 6.17304E+00
 -1      3384 2.67830E+00
 -1      3385 3.29752E-01
 -1      3386 2.47426E-01
 -1      3387 3.32049E-01
 -1      3388 3.10335E+00
 -1      3389 4.12481E+00
 -1      3390 5.08517E+00
 -1      3391 4.27487E+00
 -1      3392 6.70055E+00
 -1      3393 2.65134E-01
 -1      3394 2.92478E-01
 -1      3395 2.71652E-01
 -1      3396 2.37135E-01
 -1      3397 6.03597E+00
 -1      3398 7.13326E+00
 -1      3399 1.04273E+01
 -1      3400 1.26197E+01
 -1      3401 9.96384E+00
 -1      3402 1.00155E+01
 -1      3403 3.23827E-01
 -1      3404 2.85185E-01
 -1      3405 3.23241E-01
 -1      3406 7.43996E+00
 -1      3407 3.78300E+00
 -1      3408 1.17065E+00
 -1      3409 1.32647E+00
 -1      3410 1.74215E+00
 -1      3411 1.21625E+00
 -1      3412 2.16055E-01
 -1      3413 2.12660E-01
 -1      3414 4.56365E+00
 -1      3415 4.00434E+00
 -1      3416 2.16575E-01
 -1      3417 2.05723E-01
 -1      3418 1.79510E-01
 -1      3419 2.02094E-01
 -1      3420 1.87926E-01
 -1      3421 1.79796E-01
 -1      3422 1.80006E-01
 -1      3423 1.66595E-01
 -1      3424 1.68246E-01
 -1      3425 1.56608E-01
 -1      3426 1.45902E-01
 -1      3427 1.50339E-01
 -1      3428 1.37595E-01
 -1      3429 1.26210E-01
 -1      3430 1.32045E-01
 -1      3431 1.17715E-01
 -1      3432 1.06531E-01
 -1      3433 1.15243E-01
 -1      3434 9.77410E-02
 -1      3435 8.71826E-02
 -1      3436 9.79577E-02
 -1      3437 7.85564E-02
 -1      3438 6.87171E-02
 -1      3439 8.05413E-02
 -1      3440 6.04160E-02
 -1      3441 5.11480E-02
 -1      3442 6.36140E-02
 -1      3443 4.32973E-02
 -1      3444 3.42735E-02
 -1      3445 4.74622E-02
 -1      3446 3.50729E-02
 -1      3447 3.45173E-02
 -1      3448 4.04110E-02
 -1      3449 3.66394E-02
 -1      3450 4.48852E-02
 -1      3451 4.33325E-02
 -1      3452 5.70908E-02
 -1      3453 7.10089E-02
 -1      3454 5.76602E-02
 -1      3455 8.80002E-02
 -1      3456 1.05647E-01
 -1      3457 8.68572E-02
 -1      3458 1.26633E-01
 -1      3459 1.48509E-01
 -1      3460 1.24835E-01
 -1      3461 1.74219E-01
 -1      3462 2.00419E-01
 -1      3463 1.71531E-01
 -1      3464 2.31457E-01
 -1      3465 2.61984E-01
 -1      3466 2.28280E-01
 -1      3467 2.98684E-01
 -1      3468 3.33816E-01
 -1      3469 2.96019E-01
 -1      3470 3.75981E-01
 -1      3471 4.23463E-01
 -1      3472 3.74884E-01
 -1      3473 4.69919E-01
 -1      3474 5.25587E-01
 -1      3475 4.63505E-01
 -1      3476 5.84049E-01
 -1      3477 6.46564E-01
 -1      3478 5.68423E-01
 -1      3479 7.22595E-01
 -1      3480 7.95991E-01
 -1      3481 7.02916E-01
 -1      3482 9.21451E-01
 -1      3483 1.00057E+00
 -1      3484 9.04408E-01
 -1      3485 1.16464E+00
 -1      3486 1.28239E+00
 -1      3487 1.19393E+00
 -1      3488 1.45651E+00
 -1      3489 1.61885E+00
 -1      3490 1.53211E+00
 -1      3491 1.97625E+00
 -1      3492 2.11222E+00
 -1      3493 2.06362E+00
 -1      3494 2.65870E+00
 -1      3495 2.90790E+00
 -1      3496 2.96751E+00
 -1      3497 3.09945E+00
 -1      3498 3.29665E+00
 -1      3499 2.69418E+00
 -1      3500 3.51423E+00
 -1      3501 2.48366E-01
 -1      3502 2.57844E-01
 -1      3503 1.58632E-01
 -1      3504 1.71547E-01
 -1      3505 3.19862E-01
 -1      3506 7.35171E-02
 -1      3507 8.39641E-02
 -1      3508 9.34433E-02
 -1      3509 1.04894E-01
 -1      3510 8.71057E-02
 -1      3511 3.96301E-02
 -1      3512 4.74627E-02
 -1      3513 3.23448E-02
 -1      3514 3.62077E-02
 -1      3515 3.88775E-02
 -1      3516 4.12949E-02
 -1      3517 3.42144E-02
 -1      3518 3.73246E-02
 -1      3519 6.82134E-02
 -1      3520 5.34650E-02
 -1      3521 5.13643E-02
 -1      3522 1.03756E-01
 -1      3523 8.55879E-02
 -1      3524 8.09090E-02
 -1      3525 1.49309E-01
 -1      3526 1.26656E-01
 -1      3527 1.21184E-01
 -1      3528 2.07031E-01
 -1      3529 1.78634E-01
 -1      3530 1.73410E-01
 -1      3531 2.84821E-01
 -1      3532 2.44485E-01
 -1      3533 2.40189E-01
 -1      3534 3.83127E-01
 -1      3535 3.32404E-01
 -1      3536 3.25225E-01
 -1      3537 5.05621E-01
 -1      3538 4.43182E-01
 -1      3539 4.32863E-01
 -1      3540 6.55394E-01
 -1      3541 5.80856E-01
 -1      3542 5.68153E-01
 -1      3543 8.33685E-01
 -1      3544 7.48766E-01
 -1      3545 7.36759E-01
 -1      3546 1.06523E+00
 -1      3547 9.48019E-01
 -1      3548 9.44465E-01
 -1      3549 1.34963E+00
 -1      3550 1.20149E+00
 -1      3551 1.19506E+00
 -1      3552 1.74941E+00
 -1      3553 1.54354E+00
 -1      3554 1.52522E+00
 -1      3555 2.33226E+00
 -1      3556 2.08929E+00
 -1      3557 2.05901E+00
 -1      3558 3.86957E+00
 -1      3559 3.58473E+00
 -1      3560 3.65136E+00
 -1      3561 4.90993E+00
 -1      3562 4.20669E+00
 -1      3563 5.34504E+00
 -1      3564 6.81245E+00
 -1      3565 2.00747E+00
 -1      3566 1.70548E+00
 -1      3567 1.79573E+00
 -1      3568 2.64333E+00
 -1      3569 4.32665E+00
 -1      3570 5.18662E+00
 -1      3571 4.44342E+00
 -1      3572 5.00829E+00
 -1      3573 2.71516E-01
 -1      3574 7.83572E+00
 -1      3575 7.83572E+00
 -1      3576 5.61092E-02
 -1      3577 6.45003E-02
 -1      3578 6.86098E-02
 -1      3579 5.09464E-02
 -1      3580 2.71868E+00
 -1      3581 2.25541E+00
 -1      3582 6.08348E+00
 -1      3583 7.66560E+00
 -1      3584 5.24683E+00
 -1      3585 1.87775E-01
 -1      3586 1.99319E-01
 -1      3587 1.58860E-01
 -1      3588 6.57969E+00
 -1      3589 8.48585E+00
 -1      3590 6.90893E+00
 -1      3591 3.15691E-01
 -1      3592 3.23241E-01
 -1      3593 2.88765E-01
 -1      3594 9.85654E+00
 -1      3595 8.30613E+00
 -1      3596 3.29215E+00
 -1      3597 9.70134E+00
 -1      3598 8.20350E+00
 -1      3599 3.24212E+00
 -1      3600 8.07285E+00
 -1      3601 7.01104E+00
 -1      3602 3.91775E+00
 -1      3603 5.79006E+00
 -1      3604 5.25061E+00
 -1      3605 3.14856E+00
 -1      3606 3.36585E+00
 -1      3607 3.55462E+00
 -1      3608 3.39711E+00
 -1      3609 7.50861E+00
 -1      3610 5.97153E+00
 -1      3611 6.16477E+00
 -1      3612 9.10698E+00
 -1      3613 6.77277E+00
 -1      3614 7.27520E+00
 -1      3615 2.37097E-01
 -1      3616 2.20309E-01
 -1      3617 1.88140E-01
 -1      3618 2.84461E-01
 -1      3619 2.04238E-01
 -1      3620 1.90238E-01
 -1      3621 1.44587E-01
 -1      3622 2.14328E-01
 -1      3623 3.32986E+00
 -1      3624 6.00281E+00
 -1      3625 6.72873E+00
 -1      3626 4.49986E+00
 -1      3627 1.49918E-01
 -1      3628 1.44285E-01
 -1      3629 1.36829E-01
 -1      3630 2.49227E-01
 -1      3631 2.09748E-01
 -1      3632 2.33035E-01
 -1      3633 1.64920E-01
 -1      3634 1.83468E-01
 -1      3635 1.97826E-01
 -1      3636 1.78247E+00
 -1      3637 1.54438E+00
 -1      3638 1.75718E+00
 -1      3639 2.55824E+00
 -1      3640 1.06388E-01
 -1      3641 1.14698E-01
 -1      3642 1.27140E-01
 -1      3643 5.24095E+00
 -1      3644 6.04281E+00
 -1      3645 2.85114E-01
 -1      3646 4.61581E+00
 -1      3647 4.05758E+00
 -1      3648 2.00445E+00
 -1      3649 2.03857E-01
 -1      3650 2.23611E-01
 -1      3651 7.74008E+00
 -1      3652 5.46162E+00
 -1      3653 5.46162E+00
 -1      3654 6.22473E+00
 -1      3655 3.94180E+00
 -1      3656 5.26978E+00
 -1      3657 3.78269E+00
 -1      3658 3.93595E+00
 -1      3659 6.32176E+00
 -1      3660 2.52904E-01
 -1      3661 2.52904E-01
 -1      3662 5.25478E+00
 -1      3663 2.17060E-01
 -1      3664 2.52904E-01
 -1      3665 2.49262E-01
 -1      3666 3.64288E+00
 -1      3667 3.31688E+00
 -1      3668 9.85654E+00
 -1      3669 6.97411E+00
 -1      3670 6.53976E+00
 -1      3671 6.74084E+00
 -1      3672 8.89986E+00
 -1      3673 6.88699E+00
 -1      3674 6.27209E+00
 -1      3675 2.38175E-01
 -1      3676 2.34595E-01
 -1      3677 1.67317E-01
 -1      3678 2.07027E+00
 -1      3679 2.77264E+00
 -1      3680 2.75762E+00
 -1      3681 3.12861E+00
 -1      3682 3.24559E+00
 -1      3683 1.49971E-01
 -1      3684 1.53886E-01
 -1      3685 1.60055E-01
 -1      3686 1.56426E-01
 -1      3687 1.30515E-01
 -1      3688 1.56066E-01
 -1      3689 1.48146E-01
 -1      3690 1.36325E-01
 -1      3691 1.43645E-01
 -1      3692 1.33659E-01
 -1      3693 1.31465E-01
 -1      3694 1.26842E-01
 -1      3695 1.18535E-01
 -1      3696 1.20149E-01
 -1      3697 1.11062E-01
 -1      3698 1.02567E-01
 -1      3699 1.05860E-01
 -1      3700 9.61491E-02
 -1      3701 8.73590E-02
 -1      3702 9.19684E-02
 -1      3703 8.05781E-02
 -1      3704 7.19519E-02
 -1      3705 7.87695E-02
 -1      3706 6.52100E-02
 -1      3707 5.69089E-02
 -1      3708 6.52467E-02
 -1      3709 5.19660E-02
 -1      3710 4.41153E-02
 -1      3711 5.35620E-02
 -1      3712 4.47151E-02
 -1      3713 4.55145E-02
 -1      3714 4.92189E-02
 -1      3715 4.76458E-02
 -1      3716 4.97679E-02
 -1      3717 5.19500E-02
 -1      3718 5.40446E-02
 -1      3719 6.62502E-02
 -1      3720 5.83579E-02
 -1      3721 8.02901E-02
 -1      3722 9.72815E-02
 -1      3723 7.66745E-02
 -1      3724 1.15695E-01
 -1      3725 1.36681E-01
 -1      3726 1.09127E-01
 -1      3727 1.59799E-01
 -1      3728 1.85508E-01
 -1      3729 1.50658E-01
 -1      3730 2.14359E-01
 -1      3731 2.45398E-01
 -1      3732 2.02627E-01
 -1      3733 2.81140E-01
 -1      3734 3.17840E-01
 -1      3735 2.67219E-01
 -1      3736 3.61772E-01
 -1      3737 4.03938E-01
 -1      3738 3.46893E-01
 -1      3739 4.57478E-01
 -1      3740 5.03933E-01
 -1      3741 4.44365E-01
 -1      3742 5.68423E-01
 -1      3743 6.26885E-01
 -1      3744 5.62395E-01
 -1      3745 7.02916E-01
 -1      3746 7.78948E-01
 -1      3747 7.02916E-01
 -1      3748 8.83333E-01
 -1      3749 1.00879E+00
 -1      3750 8.83333E-01
 -1      3751 1.16895E+00
 -1      3752 1.33301E+00
 -1      3753 1.14787E+00
 -1      3754 1.66824E+00
 -1      3755 1.84235E+00
 -1      3756 1.64326E+00
 -1      3757 2.11196E+00
 -1      3758 2.46937E+00
 -1      3759 2.24809E+00
 -1      3760 6.00624E-02
 -1      3761 4.78923E-02
 -1      3762 4.26410E+00
 -1      3763 7.84678E-02
 -1      3764 8.79470E-02
 -1      3765 3.64288E+00
 -1      3766 4.43165E-02
 -1      3767 4.24469E-02
 -1      3768 5.30146E-02
 -1      3769 4.06536E-02
 -1      3770 4.40760E-02
 -1      3771 4.76454E-02
 -1      3772 9.25483E-02
 -1      3773 7.51737E-02
 -1      3774 7.17017E-02
 -1      3775 1.34883E-01
 -1      3776 1.11983E-01
 -1      3777 1.06248E-01
 -1      3778 1.89016E-01
 -1      3779 1.59691E-01
 -1      3780 1.50490E-01
 -1      3781 2.58133E-01
 -1      3782 2.20679E-01
 -1      3783 2.06960E-01
 -1      3784 3.46114E-01
 -1      3785 2.98532E-01
 -1      3786 2.79022E-01
 -1      3787 4.57821E-01
 -1      3788 3.97765E-01
 -1      3789 3.71072E-01
 -1      3790 5.99551E-01
 -1      3791 5.24317E-01
 -1      3792 4.89219E-01
 -1      3793 7.79704E-01
 -1      3794 6.86332E-01
 -1      3795 6.42496E-01
 -1      3796 1.00946E+00
 -1      3797 8.95126E-01
 -1      3798 8.44699E-01
 -1      3799 1.30352E+00
 -1      3800 1.16726E+00
 -1      3801 1.11792E+00
 -1      3802 1.71913E+00
 -1      3803 1.52522E+00
 -1      3804 1.49742E+00
 -1      3805 2.40200E+00
 -1      3806 2.06212E+00
 -1      3807 2.06212E+00
 -1      3808 5.70570E+00
 -1      3809 4.45322E+00
 -1      3810 4.45633E+00
 -1      3811 4.73113E+00
 -1      3812 5.52075E+00
 -1      3813 1.17070E-01
 -1      3814 1.33806E-01
 -1      3815 1.08182E-01
 -1      3816 1.26084E-01
 -1      3817 1.23621E-01
 -1      3818 9.85675E-02
 -1      3819 1.46352E-01
 -1      3820 2.48908E-01
 -1      3821 2.48908E-01
 -1      3822 1.98319E-01
 -1      3823 4.73388E+00
 -1      3824 2.56944E-01
 -1      3825 2.20136E-01
 -1      3826 6.38945E+00
 -1      3827 6.88699E+00
 -1      3828 6.62449E+00
 -1      3829 3.78744E+00
 -1      3830 4.83281E+00
 -1      3831 5.70570E+00
 -1      3832 3.92118E+00
 -1      3833 5.24001E+00
 -1      3834 5.41013E+00
 -1      3835 3.37471E+00
 -1      3836 2.08230E-01
 -1      3837 2.26554E-01
 -1      3838 1.87245E-01
 -1      3839 5.50898E+00
 -1      3840 5.50156E+00
 -1      3841 5.88702E+00
 -1      3842 6.72542E+00
 -1      3843 1.67221E-01
 -1      3844 2.42833E-01
 -1      3845 2.47120E-01
 -1      3846 2.11276E-01
 -1      3847 1.86270E-01
 -1      3848 6.12287E+00
 -1      3849 6.50756E+00
 -1      3850 5.77140E+00
 -1      3851 2.49257E-01
 -1      3852 2.52908E-01
 -1      3853 2.13052E-01
 -1      3854 2.17055E-01
 -1      3855 3.42304E+00
 -1      3856 2.04129E-01
 -1      3857 4.64810E+00
 -1      3858 7.08476E-02
 -1      3859 7.16889E-02
 -1      3860 6.18308E-02
 -1      3861 1.25881E-01
 -1      3862 1.47084E-01
 -1      3863 1.59005E-01
 -1      3864 6.22473E+00
 -1      3865 4.58233E-02
 -1      3866 5.44699E-02
 -1      3867 5.67077E-02
 -1      3868 6.40589E+00
 -1      3869 1.65167E-01
 -1      3870 1.44421E-01
 -1      3871 1.74029E-01
 -1      3872 1.79813E-01
 -1      3873 6.32227E+00
 -1      3874 6.32227E+00
 -1      3875 7.27520E+00
 -1      3876 4.25228E+00
 -1      3877 5.33403E+00
 -1      3878 5.00692E+00
 -1      3879 3.34694E+00
 -1      3880 4.11407E+00
 -1      3881 6.74084E+00
 -1      3882 1.76444E-01
 -1      3883 1.75582E-01
 -1      3884 1.31863E-01
 -1      3885 1.87231E-01
 -1      3886 1.87231E-01
 -1      3887 1.49984E-01
 -1      3888 1.30240E-01
 -1      3889 1.38955E-01
 -1      3890 1.33040E-01
 -1      3891 1.44248E-01
 -1      3892 6.72542E+00
 -1      3893 1.63470E-01
 -1      3894 8.69974E-02
 -1      3895 9.56353E-02
 -1      3896 1.05439E-01
 -1      3897 3.77961E+00
 -1      3898 3.99401E+00
 -1      3899 4.75994E-02
 -1      3900 1.07272E-01
 -1      3901 1.13441E-01
 -1      3902 1.19435E-01
 -1      3903 1.19076E-01
 -1      3904 9.61912E-02
 -1      3905 1.19796E-01
 -1      3906 1.15296E-01
 -1      3907 1.02906E-01
 -1      3908 1.12549E-01
 -1      3909 1.05732E-01
 -1      3910 1.00879E-01
 -1      3911 1.00940E-01
 -1      3912 9.34672E-02
 -1      3913 9.33399E-02
 -1      3914 8.76368E-02
 -1      3915 8.12187E-02
 -1      3916 8.27176E-02
 -1      3917 7.55303E-02
 -1      3918 6.87494E-02
 -1      3919 7.11986E-02
 -1      3920 6.41703E-02
 -1      3921 5.74284E-02
 -1      3922 6.09311E-02
 -1      3923 5.63463E-02
 -1      3924 5.14035E-02
 -1      3925 5.52699E-02
 -1      3926 5.15888E-02
 -1      3927 5.21886E-02
 -1      3928 5.43732E-02
 -1      3929 5.39649E-02
 -1      3930 5.60962E-02
 -1      3931 5.63348E-02
 -1      3932 5.97652E-02
 -1      3933 6.40418E-02
 -1      3934 6.17801E-02
 -1      3935 7.14322E-02
 -1      3936 8.54721E-02
 -1      3937 7.28394E-02
 -1      3938 9.59748E-02
 -1      3939 1.14388E-01
 -1      3940 9.07325E-02
 -1      3941 1.33004E-01
 -1      3942 1.56122E-01
 -1      3943 1.19852E-01
 -1      3944 1.80121E-01
 -1      3945 2.08972E-01
 -1      3946 1.62467E-01
 -1      3947 2.39806E-01
 -1      3948 2.75547E-01
 -1      3949 2.17300E-01
 -1      3950 3.15257E-01
 -1      3951 3.59189E-01
 -1      3952 2.87843E-01
 -1      3953 4.10678E-01
 -1      3954 4.64218E-01
 -1      3955 3.79042E-01
 -1      3956 5.31778E-01
 -1      3957 5.96267E-01
 -1      3958 4.98090E-01
 -1      3959 6.86250E-01
 -1      3960 7.62282E-01
 -1      3961 6.55632E-01
 -1      3962 8.83333E-01
 -1      3963 9.87719E-01
 -1      3964 8.66667E-01
 -1      3965 1.14787E+00
 -1      3966 1.30803E+00
 -1      3967 1.14787E+00
 -1      3968 1.52004E+00
 -1      3969 1.85527E+00
 -1      3970 1.52004E+00
 -1      3971 2.23542E+00
 -1      3972 2.50503E+00
 -1      3973 3.33426E+00
 -1      3974 2.11220E+00
 -1      3975 1.12621E-01
 -1      3976 9.31870E-02
 -1      3977 3.75143E+00
 -1      3978 5.45382E+00
 -1      3979 4.80197E+00
 -1      3980 5.83991E-02
 -1      3981 5.48233E-02
 -1      3982 1.32007E-01
 -1      3983 5.18203E-02
 -1      3984 5.00269E-02
 -1      3985 5.72048E-02
 -1      3986 1.56377E-01
 -1      3987 1.31570E-01
 -1      3988 1.18509E-01
 -1      3989 2.12122E-01
 -1      3990 1.80459E-01
 -1      3991 1.61539E-01
 -1      3992 2.83097E-01
 -1      3993 2.42699E-01
 -1      3994 2.16197E-01
 -1      3995 3.73690E-01
 -1      3996 3.22039E-01
 -1      3997 2.85716E-01
 -1      3998 4.90314E-01
 -1      3999 4.23818E-01
 -1      4000 3.74785E-01
 -1      4001 6.43096E-01
 -1      4002 5.56316E-01
 -1      4003 4.90914E-01
 -1      4004 8.48970E-01
 -1      4005 7.33548E-01
 -1      4006 6.47368E-01
 -1      4007 1.13610E+00
 -1      4008 9.78298E-01
 -1      4009 8.67147E-01
 -1      4010 1.55397E+00
 -1      4011 1.33227E+00
 -1      4012 1.19265E+00
 -1      4013 2.21643E+00
 -1      4014 1.87344E+00
 -1      4015 1.70829E+00
 -1      4016 6.08900E+00
 -1      4017 4.03777E+00
 -1      4018 3.84909E+00
 -1      4019 1.74840E-01
 -1      4020 1.81320E-01
 -1      4021 1.47154E-01
 -1      4022 8.18313E-02
 -1      4023 9.79960E-02
 -1      4024 8.09212E-02
 -1      4025 6.77277E+00
 -1      4026 1.12750E-01
 -1      4027 1.22440E-01
 -1      4028 1.17109E-01
 -1      4029 1.01997E-01
 -1      4030 6.77277E+00
 -1      4031 1.47014E-01
 -1      4032 1.64850E-01
 -1      4033 1.75254E-01
 -1      4034 7.96844E-02
 -1      4035 6.45731E-02
 -1      4036 8.60584E-02
 -1      4037 6.32227E+00
 -1      4038 1.12100E-01
 -1      4039 1.22659E-01
 -1      4040 1.22515E-01
 -1      4041 4.88559E+00
 -1      4042 1.70540E-01
 -1      4043 1.59806E-01
 -1      4044 1.18573E-01
 -1      4045 4.87920E-02
 -1      4046 5.05394E-02
 -1      4047 5.29669E-02
 -1      4048 6.63818E-02
 -1      4049 4.39850E+00
 -1      4050 2.57716E+00
 -1      4051 1.30077E-01
 -1      4052 1.52444E-01
 -1      4053 5.19380E-02
 -1      4054 5.07454E-02
 -1      4055 5.81063E-02
 -1      4056 1.57402E-01
 -1      4057 1.87231E-01
 -1      4058 1.87226E-01
 -1      4059 1.17794E-01
 -1      4060 1.25923E-01
 -1      4061 1.14104E-01
 -1      4062 1.29349E-01
 -1      4063 1.35194E-01
 -1      4064 9.77113E-02
 -1      4065 9.11609E-02
 -1      4066 8.09751E-02
 -1      4067 1.11166E-01
 -1      4068 3.53005E+00
 -1      4069 4.39850E+00
 -1      4070 7.66808E-02
 -1      4071 8.43691E-02
 -1      4072 3.84848E+00
 -1      4073 4.67922E+00
 -1      4074 3.72715E+00
 -1      4075 3.00657E+00
 -1      4076 1.84630E-01
 -1      4077 1.80630E-01
 -1      4078 1.42118E-01
 -1      4079 1.54805E-01
 -1      4080 6.32918E-02
 -1      4081 7.09121E-02
 -1      4082 5.73295E-02
 -1      4083 6.82838E-02
 -1      4084 9.21885E-02
 -1      4085 9.29092E-02
 -1      4086 9.42785E-02
 -1      4087 9.15310E-02
 -1      4088 8.35608E-02
 -1      4089 8.53419E-02
 -1      4090 8.05500E-02
 -1      4091 7.87411E-02
 -1      4092 7.76699E-02
 -1      4093 7.18395E-02
 -1      4094 6.96719E-02
 -1      4095 8.14736E-02
 -1      4096 7.57851E-02
 -1      4097 7.64259E-02
 -1      4098 6.32136E-02
 -1      4099 5.86345E-02
 -1      4100 7.34886E-02
 -1      4101 5.63520E-02
 -1      4102 5.52699E-02
 -1      4103 5.86345E-02
 -1      4104 5.43732E-02
 -1      4105 5.45585E-02
 -1      4106 5.54552E-02
 -1      4107 5.63348E-02
 -1      4108 5.81111E-02
 -1      4109 5.63348E-02
 -1      4110 6.17801E-02
 -1      4111 6.54490E-02
 -1      4112 6.17801E-02
 -1      4113 7.28394E-02
 -1      4114 8.02297E-02
 -1      4115 7.28394E-02
 -1      4116 9.07325E-02
 -1      4117 1.01235E-01
 -1      4118 9.07325E-02
 -1      4119 1.16969E-01
 -1      4120 1.35585E-01
 -1      4121 1.16969E-01
 -1      4122 1.57629E-01
 -1      4123 1.81627E-01
 -1      4124 1.54746E-01
 -1      4125 2.11054E-01
 -1      4126 2.41888E-01
 -1      4127 2.06216E-01
 -1      4128 2.81441E-01
 -1      4129 3.21151E-01
 -1      4130 2.75196E-01
 -1      4131 3.75114E-01
 -1      4132 4.26603E-01
 -1      4133 3.68712E-01
 -1      4134 5.01887E-01
 -1      4135 5.69446E-01
 -1      4136 4.97959E-01
 -1      4137 6.77315E-01
 -1      4138 7.67298E-01
 -1      4139 6.81112E-01
 -1      4140 9.24713E-01
 -1      4141 1.04576E+00
 -1      4142 9.46395E-01
 -1      4143 1.27061E+00
 -1      4144 1.43076E+00
 -1      4145 1.32865E+00
 -1      4146 1.48856E+00
 -1      4147 1.70057E+00
 -1      4148 1.61130E+00
 -1      4149 7.25558E-02
 -1      4150 6.63818E-02
 -1      4151 1.27689E-01
 -1      4152 1.08741E-01
 -1      4153 2.22936E-01
 -1      4154 1.92359E-01
 -1      4155 2.91599E-01
 -1      4156 2.52657E-01
 -1      4157 2.28818E-01
 -1      4158 3.80091E-01
 -1      4159 3.29964E-01
 -1      4160 2.96905E-01
 -1      4161 4.96130E-01
 -1      4162 4.30128E-01
 -1      4163 3.85307E-01
 -1      4164 6.55531E-01
 -1      4165 5.65079E-01
 -1      4166 5.04293E-01
 -1      4167 8.92728E-01
 -1      4168 7.63400E-01
 -1      4169 6.81112E-01
 -1      4170 1.24632E+00
 -1      4171 1.05014E+00
 -1      4172 9.46395E-01
 -1      4173 1.80788E+00
 -1      4174 1.48842E+00
 -1      4175 1.34591E+00
 -1      4176 1.02752E-01
 -1      4177 1.30077E-01
 -1      4178 1.23588E-01
 -1      4179 1.18712E-01
 -1      4180 9.89493E-02
 -1      4181 2.35729E+00
 -1      4182 3.26443E+00
 -1      4183 2.86096E+00
 -1      4184 2.09167E+00
 -1      4185 3.05806E+00
 -1      4186 1.12082E-01
 -1      4187 1.04965E-01
 -1      4188 1.04281E-01
 -1      4189 1.69344E-01
 -1      4190 1.45263E-01
 -1      4191 1.35495E-01
 -1      4192 1.76083E-01
 -1      4193 6.74355E-02
 -1      4194 7.67112E-02
 -1      4195 1.29872E-01
 -1      4196 1.29458E-01
 -1      4197 1.01016E-01
 -1      4198 1.12208E-01
 -1      4199 9.56635E-02
 -1      4200 8.21610E-02
 -1      4201 1.04844E-01
 -1      4202 7.98850E-02
 -1      4203 9.02015E-02
 -1      4204 9.75132E-02
 -1      4205 7.42875E-02
 -1      4206 8.00563E-02
 -1      4207 8.27875E-02
 -1      4208 8.87818E-02
 -1      4209 6.93018E-02
 -1      4210 6.02078E-02
 -1      4211 5.72048E-02
 -1      4212 6.63818E-02
 -1      4213 5.42018E-02
 -1      4214 5.29669E-02
 -1      4215 5.72048E-02
 -1      4216 5.67043E+00
 -1      4217 8.21610E-02
 -1      4218 1.26119E-01
 -1      4219 1.16028E-01
 -1      4220 9.51669E-02
 -1      4221 1.30077E-01
 -1      4222 9.89493E-02
 -1      4223 9.97173E-02
 -1      4224 1.03143E-01
 -1      4225 5.26145E-02
 -1      4226 5.28205E-02
 -1      4227 5.38494E-02
 -1      4228 8.51893E-02
 -1      4229 7.91856E-02
 -1      4230 8.50181E-02
 -1      4231 7.87848E-02
 -1      4232 8.58373E-02
 -1      4233 6.17160E-02
 -1      4234 7.34886E-02
 -1      4235 5.65305E-02
 -1      4236 8.16273E-02
 -1      4237 9.20918E-02
 -1      4238 9.78039E-02
 -1      4239 8.68436E-02
 -1      4240 1.88090E+00
 -1      4241 1.91238E+00
 -1      4242 8.49302E-02
 -1      4243 7.87411E-02
 -1      4244 7.64259E-02
 -1      4245 8.60600E-02
 -1      4246 8.60600E-02
 -1      4247 7.34886E-02
 -1      4248 6.09171E-02
 -1      4249 5.86345E-02
 -1      4250 5.49245E-02
 -1      4251 5.40278E-02
 -1      4252 5.43802E-02
 -1      4253 5.61565E-02
 -1      4254 5.91595E-02
 -1      4255 6.28284E-02
 -1      4256 6.90024E-02
 -1      4257 7.63928E-02
 -1      4258 8.59979E-02
 -1      4259 9.65007E-02
 -1      4260 1.09578E-01
 -1      4261 1.25312E-01
 -1      4262 1.42885E-01
 -1      4263 1.64929E-01
 -1      4264 1.87943E-01
 -1      4265 2.17370E-01
 -1      4266 2.47091E-01
 -1      4267 2.86644E-01
 -1      4268 3.25010E-01
 -1      4269 3.78972E-01
 -1      4270 4.29009E-01
 -1      4271 5.04293E-01
 -1      4272 5.73243E-01
 -1      4273 6.81112E-01
 -1      4274 7.88981E-01
 -1      4275 9.46395E-01
 -1      4276 1.10381E+00
 -1      4277 1.32865E+00
 -1      4278 2.29253E+00
 -1      4279 9.24854E-02
 -1      4280 1.57075E+00
 -1      4281 8.54743E-02
 -1      4282 9.98607E-02
 -1      4283 9.45386E-02
 -1      4284 9.35694E-02
 -1      4285 9.73723E-02
 -1      4286 7.76089E-02
 -1      4287 8.36853E-02
 -1      4288 7.87848E-02
 -1      4289 8.21915E-02
 -1      4290 1.28715E-01
 -1      4291 8.06136E-02
 -1      4292 8.73816E-02
 -1      4293 7.99142E-02
 -1      4294 8.54743E-02
 -1      4295 8.68436E-02
 -1      4296 1.01391E-01
 -1      4297 8.29888E-02
 -1      4298 6.96719E-02
 -1      4299 6.67918E-02
 -1      4300 9.94391E-02
 -1      4301 1.62855E+00
 -1      4302 2.80675E+00
 -1      4303 7.64259E-02
 -1      4304 5.72071E-02
 -1      4305 8.70919E-02
 -1      4306 8.60600E-02
 -1      4307 2.34402E+00
 -1      4308 2.13222E+00
 -1      4309 7.58610E-02
 -1      4310 8.02200E-02
 -1      4311 7.11508E-02
 -1      4312 8.07849E-02
 -1      4313 8.51893E-02
 -3
 9999
